Sb                                      
   1.00000000000000     
    18.8173007964999996    0.0000000000000000    0.0000000000000000
     0.0000000000000000   18.8173007964999996    0.0000000000000000
     0.0000000000000000    0.0000000000000000   18.8173007964999996
   Sb
   216
Selective dynamics
Direct
  0.0266064557658278  0.0846377074963086  0.5463964352741291   T   T   T
  0.6290608474047747  0.8352689453242698  0.2590491855882335   T   T   T
  0.0105944412805566  0.9013255427002506  0.9710945806171135   T   T   T
  0.2704304675394695  0.3786152692784541  0.9165520159119196   T   T   T
  0.8634652898457424  0.9403488876660550  0.8281339722706694   T   T   T
  0.1416900904780743  0.0097528810446513  0.0491297071007828   T   T   T
  0.9715951365923452  0.1832541948770592  0.4163626770561587   T   T   T
  0.7589872168666875  0.2963527559142485  0.7191021758395658   T   T   T
  0.2885546361000290  0.7057054192076156  0.0672245433562476   T   T   T
  0.0914047879913282  0.2395061726803383  0.1472118611130520   T   T   T
  0.3092015585321049  0.9156312578888322  0.3830541590514189   T   T   T
  0.5614559065976704  0.1780616664405084  0.4590964492432618   T   T   T
  0.4905043883019569  0.0487869532868640  0.3577581864979812   T   T   T
  0.4074390895517729  0.7718270386789025  0.9552097596405212   T   T   T
  0.2276727432664784  0.2361896019058110  0.5292397120105717   T   T   T
  0.6927070135257218  0.2784447687531396  0.0432117636713844   T   T   T
  0.4399843454481583  0.1496374420504425  0.1256610376910291   T   T   T
  0.1823182449560511  0.0250617908180147  0.1989814349126025   T   T   T
  0.8443142503152005  0.1692287295869994  0.8414491013261625   T   T   T
  0.2328457435276778  0.1794243272812296  0.1603522864706508   T   T   T
  0.7688190085059642  0.8215054602983207  0.7377841621117646   T   T   T
  0.7132406941224332  0.9438374314819018  0.6409343468526627   T   T   T
  0.7688243621727501  0.0633222651007317  0.4384430512091199   T   T   T
  0.5462121022935943  0.9392011249293934  0.1803545014263079   T   T   T
  0.9829648057505607  0.4137605476678580  0.0267912878630839   T   T   T
  0.4589828009974112  0.4932602646212333  0.9397233215466603   T   T   T
  0.8145972234953337  0.4762085055362696  0.0298487658726497   T   T   T
  0.8447402320308167  0.9279502002198757  0.2486147365313895   T   T   T
  0.8988764256556206  0.3044002088676089  0.9095514536803257   T   T   T
  0.9177652022786371  0.8363849940851367  0.6330528754956412   T   T   T
  0.0749086688585494  0.4093259906682394  0.2924185263071740   T   T   T
  0.9149880689688813  0.3369662081460603  0.1579673226836420   T   T   T
  0.6980047882200681  0.7123052668448826  0.6495969161845684   T   T   T
  0.4081117580113542  0.3795208289839510  0.8509068466363060   T   T   T
  0.1215034601924315  0.3461643310484537  0.0507403790096621   T   T   T
  0.6872653119374385  0.5562295355477439  0.0302361231916792   T   T   T
  0.1673610148329450  0.1019105419435105  0.7307073100924916   T   T   T
  0.1746020668424442  0.6817972588492696  0.1548824424357909   T   T   T
  0.4151448686849317  0.6071380118533599  0.8471227112313277   T   T   T
  0.5759078294866896  0.9455484471245192  0.4552948049150272   T   T   T
  0.7665655123205792  0.3694975793007176  0.1506987053492513   T   T   T
  0.2219104268076997  0.2522677410421820  0.8292907809575206   T   T   T
  0.2541831635472713  0.0144526561781655  0.8344623103949309   T   T   T
  0.1455121536003934  0.3297103116365773  0.4003952887248234   T   T   T
  0.2272887597587933  0.4736484266500740  0.8073057092531435   T   T   T
  0.8496794046092807  0.4840658664678193  0.2706844443886393   T   T   T
  0.0334951862815121  0.8487829520407327  0.2852019336529249   T   T   T
  0.9852438465484069  0.9381571679830636  0.7433236610560948   T   T   T
  0.7480185972846626  0.8358719807923005  0.1609420383803052   T   T   T
  0.9613669893295418  0.6408018251641693  0.9972725051700886   T   T   T
  0.9752360386519318  0.7212546120331794  0.4779370681666936   T   T   T
  0.2225289560680828  0.6929333385587571  0.7818935209363709   T   T   T
  0.0995019758798168  0.7391842741677741  0.3650387991757374   T   T   T
  0.3541745882865556  0.0211717923865024  0.1739068505185970   T   T   T
  0.7339090877625943  0.7056519213291800  0.9275497656714248   T   T   T
  0.0183226291054336  0.7674326425099163  0.8143794554403094   T   T   T
  0.7349664362392728  0.0297393904923654  0.1525128099337390   T   T   T
  0.5038459374831424  0.5917710092340105  0.0815626205116789   T   T   T
  0.4212680056842855  0.7904594188279930  0.7978400226761447   T   T   T
  0.1919116503222951  0.8687176609837332  0.4877935893574580   T   T   T
  0.5850585844092526  0.6879756230981413  0.1758182243805472   T   T   T
  0.0325185384983753  0.6407034141792062  0.2552631564685521   T   T   T
  0.4310505123349645  0.9206552392109144  0.2941373523293655   T   T   T
  0.1404710768722537  0.5633791944768668  0.0557050713370721   T   T   T
  0.3835717371548670  0.0567475787316522  0.4613453428449433   T   T   T
  0.9611077974379153  0.7474217039769894  0.1579233324925766   T   T   T
  0.4633615755126060  0.2007119190735556  0.2796333531242278   T   T   T
  0.8276830437388317  0.7095838874759263  0.0652342800788142   T   T   T
  0.8998684552816445  0.3279484740511168  0.6168749183233306   T   T   T
  0.8319538687918319  0.1690238468980356  0.5403086976995805   T   T   T
  0.3234206086847461  0.9134952706763028  0.6620274363188320   T   T   T
  0.2818995823226501  0.0801624129514660  0.3387712788397585   T   T   T
  0.5646796582771726  0.3701474344317754  0.0202866941436304   T   T   T
  0.0410033063803994  0.8470491615589889  0.5445017390975879   T   T   T
  0.3084960535511453  0.1471288797429378  0.6363477418583201   T   T   T
  0.7779130202899386  0.5958267370924646  0.4589265503120701   T   T   T
  0.1868196789802704  0.1470035512979882  0.0102770812904282   T   T   T
  0.2658013782693232  0.7716039362484370  0.5803663752293177   T   T   T
  0.3171079053826639  0.1168586840991745  0.9352397467744558   T   T   T
  0.4401770144180027  0.9285021245245472  0.5451819689541020   T   T   T
  0.6350282474233288  0.7652852720445718  0.0505442069056468   T   T   T
  0.2614390242185343  0.9334924804960019  0.9880691560714566   T   T   T
  0.3604252960646402  0.2437675556557208  0.0451713793412777   T   T   T
  0.1365861423998729  0.5569371407694256  0.6962391139261842   T   T   T
  0.3821171430376104  0.5084434516585571  0.7260889452797596   T   T   T
  0.3871654023977741  0.3513611268654205  0.1570352831673579   T   T   T
  0.4602005475683272  0.9295083739739782  0.8425096904553842   T   T   T
  0.8748297053386349  0.2252388625144353  0.0507643235779995   T   T   T
  0.8937452908225310  0.8409928934582337  0.3753597986397175   T   T   T
  0.9581327887081718  0.9111072284613130  0.1302066606742523   T   T   T
  0.5172962741557503  0.0512270801444843  0.6406928217295714   T   T   T
  0.8891024069787502  0.0594611116195906  0.3403992304522675   T   T   T
  0.0943484796436563  0.2472150097062284  0.9020607875268200   T   T   T
  0.4307855982161889  0.1884899823101042  0.5435393582871647   T   T   T
  0.2341583691313434  0.3214107459174793  0.2688776160291442   T   T   T
  0.1405637199986431  0.8747056054524425  0.1736671252388990   T   T   T
  0.8898201613575145  0.5480766375779862  0.8938657280558587   T   T   T
  0.2776233589833229  0.3780152186868662  0.5883930748406272   T   T   T
  0.7023184237933375  0.7035412729683971  0.3496516426425750   T   T   T
  0.1947127433328727  0.4482872619799694  0.1440357122843095   T   T   T
  0.4466457972306565  0.1746868012966633  0.8174736667665542   T   T   T
  0.3476076917079013  0.6673356939958386  0.6851528713579419   T   T   T
  0.5356981499523199  0.6804657546343459  0.9528698057571903   T   T   T
  0.8199117273450074  0.4131847269386906  0.5245038260383750   T   T   T
  0.0991847254017613  0.6684439716476653  0.9076935003738398   T   T   T
  0.2967048895728877  0.5501481876621491  0.5969488545527655   T   T   T
  0.3855749941683459  0.8049983662674662  0.4784852333511446   T   T   T
  0.6706099354319928  0.1730164952653772  0.3579211281271978   T   T   T
  0.8120863526360416  0.7144085075364915  0.5468972726412761   T   T   T
  0.3332018128508543  0.4663954494824104  0.0647352992259360   T   T   T
  0.5397777509911924  0.3079167563943502  0.1582060476961234   T   T   T
  0.8264292359462655  0.1474012018681770  0.2144022424268817   T   T   T
  0.6306704627933527  0.9768152381381778  0.0409940086043326   T   T   T
  0.8265404006168831  0.8968022800708778  0.0309717392879299   T   T   T
  0.4626547675891402  0.8041249024109201  0.1291131241287174   T   T   T
  0.2507961897791947  0.8117838281604760  0.2760060105782204   T   T   T
  0.1668958005567589  0.1071703306045226  0.4306950478503085   T   T   T
  0.5719649865531189  0.1107383759669353  0.9816195270932859   T   T   T
  0.9756666362118467  0.9644205061344177  0.4488185147812595   T   T   T
  0.2433084861793628  0.5633771921634053  0.2763449920218609   T   T   T
  0.9142322134327372  0.6156059073558453  0.3507736422690165   T   T   T
  0.1321790950292133  0.7924985548568474  0.6914821698491849   T   T   T
  0.2678177603810544  0.8430521031109713  0.8090609628632719   T   T   T
  0.6486999866805269  0.0570530538485937  0.8311025281504917   T   T   T
  0.2113454156386695  0.7928784708802736  0.9451464454806190   T   T   T
  0.6500794313170449  0.8212408304483632  0.8445996687360001   T   T   T
  0.2359957453718396  0.9983129251815132  0.5634063393014881   T   T   T
  0.6472583653644743  0.2889546945806720  0.8320358933639009   T   T   T
  0.6305976518201339  0.0552745860782966  0.5382589454667497   T   T   T
  0.8269611099696743  0.9500136113232238  0.5298657969477677   T   T   T
  0.8343786996001141  0.7237789291688994  0.2549692280376604   T   T   T
  0.7672593764698717  0.8329942416379110  0.4508754243531012   T   T   T
  0.7739451334394075  0.6068318768169839  0.1688632487356254   T   T   T
  0.7688957743839722  0.0555248640286681  0.7405913485876683   T   T   T
  0.8679715226609207  0.2832298961509970  0.3199165747339662   T   T   T
  0.1181719042569508  0.8835795160469184  0.8532148049994129   T   T   T
  0.3305951491786214  0.2249056670589074  0.3439013653811170   T   T   T
  0.1125182852013556  0.9818130814649420  0.6472884335991995   T   T   T
  0.3589878325881848  0.2668496441224052  0.7245309274445708   T   T   T
  0.0390486760315539  0.0487814478821356  0.2726054474460819   T   T   T
  0.8279446556729161  0.4458204121405619  0.7851803590191325   T   T   T
  0.3752354255798735  0.0291363356022424  0.7465039289951013   T   T   T
  0.9416037699055099  0.4178048632406381  0.3929961475099876   T   T   T
  0.4178646341575799  0.0194161963809993  0.0154217260288264   T   T   T
  0.5719230755956077  0.1711480811444937  0.7336189866715033   T   T   T
  0.7164373979393708  0.1686466642740276  0.9283080552799142   T   T   T
  0.7591944483173297  0.2885766083981620  0.4506352206410128   T   T   T
  0.6169645143847124  0.0520776167801597  0.2592528792428646   T   T   T
  0.8319190878689214  0.6700728777930582  0.7997132546129954   T   T   T
  0.6842516400742072  0.4063725368660283  0.6519289190165767   T   T   T
  0.0394755980081674  0.1166947572375344  0.8205071388397849   T   T   T
  0.7597880760703003  0.3646400893322798  0.9137548890212155   T   T   T
  0.0840457517419005  0.4507431538721449  0.5904492008477291   T   T   T
  0.0162434982563570  0.3063826486360037  0.5166927355033862   T   T   T
  0.0927358262593875  0.1825158714741792  0.3217821470745906   T   T   T
  0.6084636308889110  0.1624357396239759  0.1287504057989123   T   T   T
  0.6600366331887467  0.3244420438088430  0.2871384176911005   T   T   T
  0.6927562669372495  0.9398878708094033  0.3543872449164933   T   T   T
  0.7456104341542384  0.5637264067033875  0.7144798987637242   T   T   T
  0.7102872980678742  0.4495660349946413  0.3640256981643393   T   T   T
  0.0099598328096214  0.5730774016813204  0.7937141354448178   T   T   T
  0.0878559756038624  0.4633286771125985  0.8844801252693388   T   T   T
  0.0843514194209675  0.7646001423027063  0.0590815601428061   T   T   T
  0.9938800802105840  0.5421709870215111  0.4867136764951394   T   T   T
  0.6572423958595892  0.5728546575792361  0.2781002336043268   T   T   T
  0.5154964657101556  0.8298208087316499  0.6448484222166085   T   T   T
  0.0996772306231175  0.5457238475059956  0.3644581901962626   T   T   T
  0.4935334740257568  0.2932452284751674  0.6467486285558404   T   T   T
  0.4811481240003330  0.2612932463806427  0.9366382296582444   T   T   T
  0.4437436517651172  0.6808010121259088  0.2892036509721197   T   T   T
  0.8719857598490517  0.5546439968202377  0.5941409866053490   T   T   T
  0.6499593379005981  0.6139399465380616  0.8371457152945081   T   T   T
  0.9309304488349788  0.0635620000846611  0.1356642120862287   T   T   T
  0.7133854585350554  0.1654647610821363  0.6409673028884834   T   T   T
  0.9953446695120192  0.5381129530760822  0.1057964352939714   T   T   T
  0.0324481432828159  0.3463354252643640  0.7964860851409088   T   T   T
  0.6100943502486853  0.4825685087264328  0.8952473167714342   T   T   T
  0.8929634823878408  0.8087204888270912  0.9206985010891886   T   T   T
  0.5969245498086053  0.4765744014751717  0.1300228667813213   T   T   T
  0.5560867947660182  0.7015415616931435  0.7454683109545450   T   T   T
  0.6316180032309657  0.8174774627976938  0.5541952331739213   T   T   T
  0.3073191651342025  0.6701085339418276  0.3687758185279257   T   T   T
  0.1944815754325824  0.4587387785436997  0.4861174289270681   T   T   T
  0.3107897056903658  0.8647171095415158  0.1384298935266581   T   T   T
  0.0796744472351629  0.6728859840110577  0.6087169671642711   T   T   T
  0.1202407027325862  0.9604841726980634  0.3690666100860335   T   T   T
  0.1049488477809298  0.2213523549861840  0.6181620717096039   T   T   T
  0.0130208695365773  0.1554298354728026  0.0342830974883454   T   T   T
  0.9442037229965256  0.6795879688839683  0.6759251562863968   T   T   T
  0.1627871853103167  0.3360070720081541  0.7069668312687107   T   T   T
  0.8230998680680520  0.0669331816444334  0.0241965113536363   T   T   T
  0.5199398808856023  0.8675409472318553  0.9992018349535682   T   T   T
  0.5525872120423002  0.4125563970709304  0.7472298680277828   T   T   T
  0.3590680146798231  0.5758737836191964  0.1585752675499836   T   T   T
  0.1941173557761712  0.6529388783474410  0.4840044968836964   T   T   T
  0.9331748769182887  0.0468003530274655  0.9167640434123147   T   T   T
  0.6329464210484099  0.3140676695032920  0.5392258873520275   T   T   T
  0.9636917827845539  0.4466103971648485  0.7050203983450311   T   T   T
  0.7149333124033919  0.9385907222892578  0.9110345298508821   T   T   T
  0.5037622241361133  0.7977210399846856  0.3614487727283339   T   T   T
  0.9568118272413230  0.1970483956154964  0.7274421720978020   T   T   T
  0.2703558869570091  0.5889894369521791  0.9038941115252790   T   T   T
  0.9232037944319051  0.0615267452138016  0.6523039987212408   T   T   T
  0.5774542681995634  0.9475445596311098  0.7297193135506137   T   T   T
  0.3821100000000000  0.3312500100000000  0.4725500100000000   F   F   F
  0.3148300000000000  0.4477800100000000  0.3506600000000000   F   F   F
  0.5166500200000000  0.3312600000000000  0.3506600000000000   F   F   F
  0.3821100000000000  0.5643000000000000  0.4725500100000000   F   F   F
  0.4493800100000000  0.4477800100000000  0.2697300000000000   F   F   F
  0.5166500200000000  0.5643100100000000  0.6753600199999999   F   F   F
  0.4493800100000000  0.4477800100000000  0.5534700200000000   F   F   F
  0.5166500200000000  0.5643100100000000  0.3506600000000000   F   F   F
  0.5839300200000000  0.6808199900000000  0.4725500100000000   F   F   F
  0.4493800100000000  0.6808300000000000  0.5534700200000000   F   F   F
  0.6512000000000000  0.5643000000000000  0.5534700200000000   F   F   F
  0.5839300200000000  0.4477700000000000  0.4725500100000000   F   F   F
 
  0.76458076E-03  0.25560239E-02 -0.25394787E-02
  0.18553720E-02 -0.28376144E-02  0.44929615E-03
  0.17018924E-02 -0.21634089E-02  0.18655408E-02
 -0.25078941E-02 -0.31309998E-03  0.16071986E-03
  0.22444354E-02 -0.10367499E-02 -0.17609682E-02
 -0.53490428E-03 -0.12056396E-05  0.29625289E-02
  0.18752706E-03 -0.43622067E-03  0.40977969E-02
  0.13898989E-02  0.10859436E-02  0.47867220E-03
  0.69547158E-03  0.23902094E-02  0.24158005E-03
  0.37547249E-03 -0.12880111E-02  0.21678219E-02
  0.70553796E-03 -0.24030553E-02 -0.23379395E-02
  0.11389756E-02 -0.16232588E-02 -0.11001870E-02
 -0.19466928E-02  0.15311341E-03 -0.38316313E-03
 -0.29235830E-02  0.13799581E-03  0.14441149E-02
  0.45404048E-04  0.98318714E-04  0.14510887E-02
 -0.71496140E-03 -0.14215962E-02 -0.17228088E-02
 -0.18974421E-02 -0.22430825E-02  0.14673975E-02
  0.59570803E-03  0.25741277E-03 -0.22767521E-02
  0.12994400E-02 -0.18823096E-02  0.12852117E-02
  0.22012645E-02  0.31185263E-03 -0.14230011E-02
 -0.18540119E-02  0.31667942E-03 -0.87764749E-03
  0.13673333E-02 -0.38933720E-02  0.12566521E-02
 -0.92562130E-03 -0.22005874E-03 -0.38714968E-02
  0.38611583E-02 -0.14143722E-02 -0.96015546E-03
 -0.37165666E-03 -0.79261905E-03  0.18483963E-02
 -0.48633593E-03  0.28644784E-02  0.99165361E-03
 -0.98540928E-03 -0.16633443E-03  0.26953495E-02
  0.11661496E-02  0.11059360E-02 -0.69748525E-03
  0.13409705E-03  0.26597457E-02  0.42188574E-04
  0.53543351E-02  0.27263422E-02 -0.40352986E-02
 -0.87354433E-03  0.11322506E-02  0.84957840E-03
  0.89541692E-03  0.11930562E-02  0.17997066E-02
 -0.12224037E-02 -0.92811314E-03 -0.79715825E-04
  0.14573563E-02 -0.41683556E-03  0.24902097E-02
 -0.25721506E-03  0.12248916E-02 -0.32497332E-02
  0.14751580E-02  0.13456097E-02  0.95452324E-03
 -0.16209260E-02  0.20494174E-03  0.10262820E-03
  0.18240328E-02 -0.14004945E-04  0.48628969E-03
 -0.19771996E-02  0.28173267E-02  0.31547986E-04
 -0.59398645E-03  0.95871747E-03  0.26774072E-02
  0.24458354E-02 -0.24027432E-04  0.36538486E-02
  0.28738968E-02 -0.77937109E-03 -0.40316479E-03
 -0.22076750E-02  0.93296405E-03 -0.79386933E-03
 -0.17878216E-02  0.26454795E-03  0.30180247E-03
  0.24064982E-02  0.93041847E-03 -0.65509718E-04
 -0.19537383E-02  0.21569243E-02  0.11098434E-03
  0.15305068E-02  0.25664361E-03 -0.72259513E-03
 -0.87752536E-04  0.20944484E-02  0.23445565E-02
  0.15411288E-02  0.26911264E-02 -0.69184764E-03
  0.13065291E-02 -0.20424173E-03 -0.62534315E-03
  0.22912511E-02 -0.67038678E-03 -0.18004547E-02
 -0.26472794E-02  0.35559875E-02  0.83474927E-03
 -0.56409313E-03  0.10370553E-02  0.11745633E-02
 -0.50408500E-03  0.31367110E-03 -0.26760294E-02
 -0.19020119E-03  0.26411219E-04  0.23725884E-02
  0.32518153E-02 -0.25420226E-02 -0.23565059E-02
 -0.98367495E-03  0.31684803E-03  0.11883239E-02
 -0.14162455E-02 -0.45066450E-02 -0.13120841E-02
  0.61645220E-03  0.20752894E-02 -0.45661265E-03
 -0.42969219E-03  0.12805480E-02 -0.22476225E-02
 -0.36996764E-03 -0.19376938E-02 -0.75776025E-03
 -0.20464352E-02 -0.21318715E-02  0.10833566E-02
 -0.10857010E-03 -0.18039744E-02  0.19290625E-03
  0.17126671E-02  0.32689302E-02 -0.23505218E-02
  0.19455484E-03 -0.16873341E-02 -0.11868911E-03
  0.14132305E-02  0.22822843E-02  0.22821332E-02
 -0.11756288E-02  0.30137323E-02  0.57819365E-03
  0.12187741E-02 -0.15729748E-04 -0.30716600E-02
  0.31517455E-02  0.14101339E-02  0.93537156E-03
  0.80032851E-03  0.49419524E-03  0.36679470E-02
  0.86727401E-03 -0.14809998E-02 -0.17125839E-02
  0.72180835E-03 -0.34493827E-03  0.19256211E-02
 -0.16435176E-02  0.67667033E-03 -0.52107591E-03
  0.45939656E-03 -0.14027955E-02 -0.74108229E-03
 -0.98543906E-03 -0.22457507E-02  0.92106417E-03
  0.42194896E-03  0.22513415E-03 -0.14176233E-02
 -0.11398052E-02 -0.17146783E-03 -0.22675143E-02
  0.59702026E-03 -0.20809670E-03  0.34214829E-03
 -0.45561225E-03 -0.93382211E-03 -0.22714809E-02
  0.12817716E-02 -0.14815144E-02  0.27919371E-02
  0.17929097E-02 -0.15836509E-02  0.15506899E-03
 -0.32580910E-03  0.56610862E-03 -0.12252027E-02
  0.65863359E-03  0.22376680E-02  0.10026187E-02
 -0.18039264E-02  0.15444082E-02 -0.24174508E-03
  0.25443031E-02  0.92155841E-03  0.30819955E-03
 -0.17103508E-02 -0.78681519E-04 -0.83901081E-03
  0.75243021E-03 -0.56676317E-04  0.14864273E-02
  0.36641031E-03 -0.12517178E-02 -0.29762183E-03
 -0.22825178E-02 -0.10761398E-02 -0.11318446E-02
 -0.12297305E-02 -0.14806413E-02 -0.10567604E-02
  0.18281638E-03 -0.13567376E-02  0.31501604E-04
 -0.38047702E-03  0.98203894E-03 -0.10315125E-02
  0.71031119E-04 -0.13320723E-03 -0.97135256E-03
 -0.42938219E-02 -0.45705721E-03 -0.28301185E-02
  0.18893893E-02 -0.26806760E-03 -0.11955713E-02
 -0.94309193E-03 -0.31118969E-03 -0.17813805E-02
 -0.55430861E-03 -0.16442693E-02 -0.27888054E-03
  0.59923342E-04 -0.66583821E-03 -0.89592085E-03
  0.17013894E-02  0.18711155E-02 -0.38678967E-02
  0.73203110E-03 -0.14868924E-03 -0.66410392E-04
 -0.17251233E-02  0.10185159E-02 -0.19667247E-02
 -0.46491424E-04 -0.88073067E-03  0.31361440E-02
  0.28164242E-03  0.28556690E-03  0.72685382E-03
 -0.69418019E-04  0.62587155E-03  0.24319809E-02
 -0.24107291E-02 -0.41413336E-02 -0.96299987E-03
 -0.68570745E-03 -0.50537906E-03 -0.24558809E-02
  0.77023320E-03 -0.17979938E-02  0.32135123E-03
 -0.22543856E-03 -0.66912800E-03 -0.10168689E-02
 -0.96123922E-04  0.86483370E-03  0.12647808E-02
  0.86331914E-03  0.13260978E-03  0.11185559E-03
 -0.26461087E-02  0.28531395E-02  0.25048139E-02
 -0.14189347E-02 -0.28098274E-02 -0.28453869E-02
 -0.10841036E-03  0.10271982E-03  0.97783885E-03
 -0.14158209E-03 -0.11981278E-02 -0.41599483E-03
 -0.20788079E-02  0.38597201E-02  0.44308899E-03
 -0.10834012E-02  0.14719310E-02  0.14783343E-03
  0.10591246E-02  0.19567446E-02 -0.13751015E-02
  0.10567214E-02  0.23072253E-02  0.46299756E-03
  0.10423230E-02 -0.17457778E-02  0.28924014E-03
  0.31225296E-02 -0.12751359E-02 -0.27524291E-02
  0.32420702E-02  0.14311839E-02  0.10417345E-02
  0.15471861E-02 -0.10619093E-02 -0.15954918E-03
  0.11756318E-02 -0.53621766E-04  0.22768661E-03
 -0.74723276E-03 -0.17961847E-02  0.16896700E-02
 -0.21908904E-02 -0.41398659E-02 -0.40876714E-03
  0.11834909E-02 -0.54185067E-03  0.21315747E-02
  0.30502327E-02  0.18644039E-03 -0.10603906E-02
  0.36580759E-02 -0.45353883E-03  0.80698735E-03
  0.70317286E-03 -0.95630667E-03 -0.20745797E-02
 -0.18684163E-02 -0.25665489E-02  0.66357138E-03
  0.39440873E-03  0.33382805E-03  0.15091050E-02
 -0.78007857E-03 -0.99373157E-03 -0.63280817E-03
 -0.18439433E-02  0.23588276E-02 -0.17480357E-02
  0.25310145E-02 -0.26807058E-02  0.81608528E-04
  0.82637222E-03  0.25201259E-02  0.28199833E-04
 -0.13379879E-02  0.17771425E-02  0.64820824E-03
  0.42447283E-03  0.11228341E-02 -0.46376361E-03
 -0.81958754E-03  0.11242645E-02  0.10791424E-02
  0.77501976E-03 -0.22163779E-03  0.16759256E-02
  0.42923549E-03 -0.10104420E-02  0.12280054E-02
  0.50892170E-03 -0.21616775E-02  0.14094772E-02
 -0.13957054E-02  0.77949482E-03 -0.16922065E-02
 -0.18682093E-02  0.24589146E-03 -0.26248359E-02
 -0.28530075E-02  0.11275354E-02  0.26330358E-02
  0.25494491E-02  0.14200549E-02  0.16571454E-02
 -0.17457510E-02  0.19340465E-02 -0.20256851E-02
 -0.27418533E-02 -0.10389994E-02 -0.59504972E-03
 -0.61254750E-03  0.19283851E-02 -0.71149463E-03
  0.44323397E-03  0.15097030E-03 -0.17277385E-02
 -0.51222688E-04  0.30200402E-03  0.17218766E-02
 -0.32931459E-03  0.44809464E-03 -0.13563482E-02
  0.18599189E-02 -0.96705384E-03 -0.10828143E-02
  0.10946118E-02  0.31726595E-03 -0.12537342E-02
  0.16810907E-02 -0.23221746E-02 -0.63610729E-03
  0.55122016E-03  0.27885296E-02  0.78512163E-03
 -0.25406852E-02  0.40013208E-03  0.18512812E-02
 -0.28650149E-02  0.16185672E-02  0.13509647E-02
  0.76200867E-03  0.17011263E-02  0.26041344E-02
  0.16466322E-02 -0.26352193E-03  0.11269445E-02
  0.75188752E-03 -0.45367774E-02 -0.10980612E-02
 -0.69887478E-03  0.69521432E-03 -0.10520022E-02
 -0.40525919E-03  0.90876923E-04  0.19420559E-02
 -0.18361541E-02 -0.15608052E-02 -0.87728342E-03
  0.26917745E-02 -0.49245217E-03  0.97279333E-03
 -0.72671640E-03  0.21030656E-02 -0.24205555E-02
 -0.29926481E-02 -0.17430433E-02 -0.89494826E-03
  0.30574694E-03  0.32544594E-02  0.15965616E-02
  0.26372776E-02 -0.74566101E-03 -0.22330321E-02
  0.23129928E-02 -0.26956005E-03 -0.42380102E-03
  0.82209222E-03  0.48411723E-03  0.37958665E-03
  0.43040666E-03 -0.19641008E-02 -0.18491385E-02
  0.25244948E-03 -0.64566038E-03 -0.78081800E-03
 -0.11676818E-03  0.40076994E-02  0.30993087E-02
 -0.28839173E-03 -0.29811428E-02  0.21632389E-02
 -0.16264238E-02  0.12984566E-02  0.56967533E-03
  0.11702955E-02 -0.22812039E-02  0.31369960E-03
  0.55763131E-04  0.29327643E-03 -0.73851729E-03
  0.27836246E-02  0.17478815E-02  0.18870948E-02
  0.43469800E-02 -0.77109057E-03 -0.60562714E-03
  0.17997697E-02 -0.29099650E-02 -0.40384416E-03
  0.22072199E-02  0.33282204E-02  0.60706441E-03
 -0.57286100E-03 -0.25157554E-02 -0.28597186E-02
  0.24277187E-02 -0.21441472E-02 -0.34350485E-03
 -0.17016509E-02  0.63459444E-03  0.23562255E-03
 -0.90260047E-03  0.21772069E-02  0.28384086E-02
  0.71330867E-03 -0.81544987E-03 -0.18404736E-02
 -0.19721119E-02 -0.10265673E-02  0.15623437E-02
  0.11078435E-02 -0.51834763E-03 -0.14854670E-02
  0.19333432E-02 -0.11774787E-02 -0.22147843E-02
 -0.22805021E-02 -0.78458091E-03  0.99951135E-03
 -0.82075866E-03 -0.20284495E-03  0.54649181E-04
  0.11296134E-03 -0.21425412E-02  0.86394171E-05
  0.57093331E-04 -0.24907519E-03 -0.17662714E-02
  0.13501383E-02  0.27280382E-02 -0.18576072E-02
  0.33812892E-02  0.69630332E-03 -0.14971675E-02
 -0.31709221E-02 -0.12971647E-02 -0.23535360E-02
 -0.25982322E-02 -0.10196740E-02  0.91989076E-03
 -0.94287672E-03 -0.33393752E-03  0.56745746E-03
 -0.11601991E-02 -0.31385615E-03 -0.27365300E-02
  0.59040367E-05  0.24313932E-03  0.23327682E-04
 -0.13728824E-02  0.25104751E-02  0.70478428E-03
  0.69300855E-03  0.16898582E-02 -0.13747087E-02
 -0.84682179E-03 -0.73680727E-03  0.14108704E-02
  0.23680197E-02 -0.12323784E-02 -0.15341596E-02
  0.00000000E+00  0.00000000E+00  0.00000000E+00
  0.00000000E+00  0.00000000E+00  0.00000000E+00
  0.00000000E+00  0.00000000E+00  0.00000000E+00
  0.00000000E+00  0.00000000E+00  0.00000000E+00
  0.00000000E+00  0.00000000E+00  0.00000000E+00
  0.00000000E+00  0.00000000E+00  0.00000000E+00
  0.00000000E+00  0.00000000E+00  0.00000000E+00
  0.00000000E+00  0.00000000E+00  0.00000000E+00
  0.00000000E+00  0.00000000E+00  0.00000000E+00
  0.00000000E+00  0.00000000E+00  0.00000000E+00
  0.00000000E+00  0.00000000E+00  0.00000000E+00
  0.00000000E+00  0.00000000E+00  0.00000000E+00
 
           1
   4.00000000000000     
  0.10000000E+01  0.00000000E+00  0.00000000E+00  0.00000000E+00
  0.26768983E-01  0.85181042E-01  0.54585662E+00
  0.62945524E+00  0.83466575E+00  0.25914469E+00
  0.10956213E-01  0.90086567E+00  0.97149114E+00
  0.26989736E+00  0.37854871E+00  0.91658618E+00
  0.86394239E+00  0.94012851E+00  0.82775964E+00
  0.14157639E+00  0.97526248E-02  0.49759453E-01
  0.97163500E+00  0.18316147E+00  0.41723375E+00
  0.75928267E+00  0.29658360E+00  0.71920393E+00
  0.28870247E+00  0.70621351E+00  0.67275896E-01
  0.91484602E-01  0.23923238E+00  0.14767268E+00
  0.30935153E+00  0.91512044E+00  0.38255718E+00
  0.56169802E+00  0.17771661E+00  0.45886258E+00
  0.49009058E+00  0.48819501E-01  0.35767674E+00
  0.40681762E+00  0.77185637E+00  0.95551674E+00
  0.22768239E+00  0.23621050E+00  0.52954817E+00
  0.69255503E+00  0.27814258E+00  0.42845546E-01
  0.43958101E+00  0.14916063E+00  0.12597296E+00
  0.18244487E+00  0.25116509E-01  0.19849746E+00
  0.84459047E+00  0.16882861E+00  0.84172230E+00
  0.23331367E+00  0.17949062E+00  0.16004980E+00
  0.76842490E+00  0.82157278E+00  0.73759760E+00
  0.71353135E+00  0.94300982E+00  0.64120147E+00
  0.76862760E+00  0.63275487E-01  0.43762009E+00
  0.54703287E+00  0.93890047E+00  0.18015040E+00
  0.98288580E+00  0.41359206E+00  0.27184202E-01
  0.45887942E+00  0.49386917E+00  0.93993412E+00
  0.81438775E+00  0.47617315E+00  0.30421717E-01
  0.84498812E+00  0.92818529E+00  0.24846647E+00
  0.89890493E+00  0.30496559E+00  0.90956042E+00
  0.91890338E+00  0.83696453E+00  0.63219509E+00
  0.74722979E-01  0.40956667E+00  0.29259912E+00
  0.91517841E+00  0.33721982E+00  0.15834989E+00
  0.69774494E+00  0.71210798E+00  0.64957997E+00
  0.40842155E+00  0.37943222E+00  0.85143619E+00
  0.12144878E+00  0.34642471E+00  0.50049582E-01
  0.68757889E+00  0.55651557E+00  0.30439027E-01
  0.16701645E+00  0.10195411E+00  0.73072913E+00
  0.17498980E+00  0.68179428E+00  0.15498581E+00
  0.41472457E+00  0.60773689E+00  0.84712942E+00
  0.57578157E+00  0.94575224E+00  0.45586394E+00
  0.76708542E+00  0.36949247E+00  0.15147541E+00
  0.22252133E+00  0.25210207E+00  0.82920508E+00
  0.25371388E+00  0.14650977E-01  0.83429356E+00
  0.14513212E+00  0.32976655E+00  0.40045944E+00
  0.22780031E+00  0.47384621E+00  0.80729178E+00
  0.84926410E+00  0.48452436E+00  0.27070804E+00
  0.33820527E-01  0.84883751E+00  0.28504833E+00
  0.98522519E+00  0.93860239E+00  0.74382204E+00
  0.74834620E+00  0.83644403E+00  0.16079497E+00
  0.96164472E+00  0.64075841E+00  0.99713958E+00
  0.97572309E+00  0.72111211E+00  0.47755434E+00
  0.22196622E+00  0.69368924E+00  0.78207096E+00
  0.99382066E-01  0.73940472E+00  0.36528848E+00
  0.35406743E+00  0.21238470E-01  0.17333801E+00
  0.73386866E+00  0.70565754E+00  0.92805411E+00
  0.19013869E-01  0.76689228E+00  0.81387853E+00
  0.73475734E+00  0.29806743E-01  0.15276541E+00
  0.50354489E+00  0.59081303E+00  0.81283710E-01
  0.42139905E+00  0.79090056E+00  0.79774296E+00
  0.19182031E+00  0.86898987E+00  0.48731581E+00
  0.58497994E+00  0.68756373E+00  0.17565715E+00
  0.32083527E-01  0.64025024E+00  0.25549345E+00
  0.43102743E+00  0.92027177E+00  0.29417836E+00
  0.14083514E+00  0.56407407E+00  0.55205420E-01
  0.38361309E+00  0.56388902E-01  0.46132011E+00