In2O3                                   
   1.00000000000000     
     8.1807976847883417    0.1454920337294721    0.1499221438731822
     0.1459405742599842    8.2115788466758115    0.1272425353707126
     0.1510392419125054    0.1275561819176288    8.0861829404237877
   In   O 
    16    24
Direct
  0.8706286198550939  0.8845316286251602  0.8810769976636835
  0.8705885292052050  0.8813335870721559  0.3832680518813884
  0.8546691962441724  0.3943606287502676  0.8874841057169530
  0.1542907428985147  0.6673617598283785  0.6659352592731641
  0.6511791226447800  0.1602728178471502  0.1657543705332358
  0.3773174088650944  0.8749137585849349  0.3844612867115175
  0.3767432181321733  0.3906435908997392  0.8874566816502303
  0.1548706659878577  0.1630691368985523  0.6512415554101805
  0.3855545556661673  0.3797786777224048  0.3845917485171653
  0.1614619755245390  0.1383195706481231  0.1777264392275625
  0.1583579993294021  0.6824225830522394  0.1563373050884106
  0.3768325738369131  0.8852944483916126  0.8726930091933369
  0.8572156089302666  0.3777016713432351  0.3810824711558970
  0.6539476256527919  0.1656713907856220  0.6745538453432199
  0.6537787430664961  0.6697223383227313  0.1666028433633110
  0.6587336537106990  0.6698207302776874  0.6654649143995850
  0.7384477576040986  0.4203139966766302  0.1316763186030478
  0.6179644203524834  0.7780924586110918  0.9206144768815988
  0.6126594427531393  0.4247520790557777  0.7672361441739667
  0.9111165797273193  0.6305780777455565  0.7754678235842208
  0.2809447776332200  0.9156688000978356  0.1238773601688395
  0.7706267107471111  0.1330379744338857  0.9233156935386463
  0.0894384428924713  0.4281086084080753  0.2050531258873163
  0.0885749835032852  0.3572728581415460  0.0329516181309947
  0.7669472798571073  0.6251513925715398  0.4201245824565885
  0.2745097949520331  0.1266118188349279  0.4177655482149002
  0.3995015259051085  0.1384905490926466  0.7817313991189221
  0.4035110017806630  0.2677150938319161  0.1292514471544464
  0.2679987791398091  0.6321963879536012  0.9138408985200877
  0.7613265261747928  0.9243347187235708  0.6282610182194412
  0.6180399588687924  0.2618357495424660  0.4255597487604212
  0.9147858923290141  0.2807299333597258  0.6344049903892722
  0.6181024900762842  0.9186266619441451  0.2756476135927940
  0.1176918356423159  0.7755561680293869  0.4187380987082763
  0.4119483159330998  0.7715597557503679  0.6263812873700872
  0.4054174269943224  0.6205122020038688  0.2743174956302768
  0.2512703176844984  0.4177312283474304  0.6243090405907965
  0.9154288369352551  0.1277653262581641  0.2809574229918004
  0.9113632614273154  0.7800034421335151  0.1263165414664970
  0.1172494292585199  0.9318722311534003  0.7796022337340187
 
  0.00000000E+00  0.00000000E+00  0.00000000E+00
  0.00000000E+00  0.00000000E+00  0.00000000E+00
  0.00000000E+00  0.00000000E+00  0.00000000E+00
  0.00000000E+00  0.00000000E+00  0.00000000E+00
  0.00000000E+00  0.00000000E+00  0.00000000E+00
  0.00000000E+00  0.00000000E+00  0.00000000E+00
  0.00000000E+00  0.00000000E+00  0.00000000E+00
  0.00000000E+00  0.00000000E+00  0.00000000E+00
  0.00000000E+00  0.00000000E+00  0.00000000E+00
  0.00000000E+00  0.00000000E+00  0.00000000E+00
  0.00000000E+00  0.00000000E+00  0.00000000E+00
  0.00000000E+00  0.00000000E+00  0.00000000E+00
  0.00000000E+00  0.00000000E+00  0.00000000E+00
  0.00000000E+00  0.00000000E+00  0.00000000E+00
  0.00000000E+00  0.00000000E+00  0.00000000E+00
  0.00000000E+00  0.00000000E+00  0.00000000E+00
  0.00000000E+00  0.00000000E+00  0.00000000E+00
  0.00000000E+00  0.00000000E+00  0.00000000E+00
  0.00000000E+00  0.00000000E+00  0.00000000E+00
  0.00000000E+00  0.00000000E+00  0.00000000E+00
  0.00000000E+00  0.00000000E+00  0.00000000E+00
  0.00000000E+00  0.00000000E+00  0.00000000E+00
  0.00000000E+00  0.00000000E+00  0.00000000E+00
  0.00000000E+00  0.00000000E+00  0.00000000E+00
  0.00000000E+00  0.00000000E+00  0.00000000E+00
  0.00000000E+00  0.00000000E+00  0.00000000E+00
  0.00000000E+00  0.00000000E+00  0.00000000E+00
  0.00000000E+00  0.00000000E+00  0.00000000E+00
  0.00000000E+00  0.00000000E+00  0.00000000E+00
  0.00000000E+00  0.00000000E+00  0.00000000E+00
  0.00000000E+00  0.00000000E+00  0.00000000E+00
  0.00000000E+00  0.00000000E+00  0.00000000E+00
  0.00000000E+00  0.00000000E+00  0.00000000E+00
  0.00000000E+00  0.00000000E+00  0.00000000E+00
  0.00000000E+00  0.00000000E+00  0.00000000E+00
  0.00000000E+00  0.00000000E+00  0.00000000E+00
  0.00000000E+00  0.00000000E+00  0.00000000E+00
  0.00000000E+00  0.00000000E+00  0.00000000E+00
  0.00000000E+00  0.00000000E+00  0.00000000E+00
  0.00000000E+00  0.00000000E+00  0.00000000E+00
