Bi2 Pb2 Se5                             
   1.00000000000000     
     2.1352790954169070   -3.6984118816017943   -0.0000000000000001
     2.1352790954169079    3.6984118816017943    0.0000000000000000
     0.0000000000000000    0.0000000000000001   17.5756777273791265
   Bi   Pb   Se
     2     2     5
Direct
  0.0000000000000000  0.0000000000000000  0.6810918032398896
  0.0000000000000000  0.0000000000000000  0.3189081967601108
  0.3333333333333357  0.6666666666666643  0.1057561832221924
  0.6666666666666643  0.3333333333333357  0.8942438167778075
  0.6666666666666643  0.3333333333333357  0.5964538356198812
  0.3333333333333357  0.6666666666666643  0.7916185920814134
  0.6666666666666643  0.3333333333333357  0.2083814079185869
  0.0000000000000000  0.0000000000000000  0.0000000000000000
  0.3333333333333357  0.6666666666666643  0.4035461643801192
 
  0.00000000E+00  0.00000000E+00  0.00000000E+00
  0.00000000E+00  0.00000000E+00  0.00000000E+00
  0.00000000E+00  0.00000000E+00  0.00000000E+00
  0.00000000E+00  0.00000000E+00  0.00000000E+00
  0.00000000E+00  0.00000000E+00  0.00000000E+00
  0.00000000E+00  0.00000000E+00  0.00000000E+00
  0.00000000E+00  0.00000000E+00  0.00000000E+00
  0.00000000E+00  0.00000000E+00  0.00000000E+00
  0.00000000E+00  0.00000000E+00  0.00000000E+00
