Amorphous Sb                            
   1.00000000000000     
    20.1427886970058694    0.0000000000000000    0.0000000000000000
     0.0000000000000000   20.1478869700586891    0.0000000000000000
     0.0000000000000000    0.0000000000000000   20.1478869700586891
   Ge   Se
   150   150
Direct
  0.6767632063482063  0.1565617278423481  0.3144369383382404
  0.0124331402362909  0.5166865451729814  0.1578563134253935
  0.1308806261578605  0.2269727951139587 -0.0020179317352431
  0.7293822348569825  0.1361055130737917  0.4914965559163193
  0.7955980847035159  0.5079931909435035  0.4640395244351771
  0.1664222064242418  0.0275364011230161  0.2039905159073422
  0.0131986120682972  0.3481652769216363  0.3400779488895097
  0.4462165108857398  0.7230602953526954  0.6163484020515501
  0.1468578835031872  0.4441925773760845  0.4767274514398585
  0.2790095546850481  0.0698883030095717  0.5936455395823085
  0.9623462626734076  0.9054428403727723  0.7099479504887166
  0.8959024460912944  0.9900425066249210  0.9037149583005535
  0.3881796312745383  0.9602165902848430  0.9923274436621925
  0.2527405085300594  0.2136034242269792  0.7988240824056669
  0.7625178381282297  0.8792367033133562  0.2481035236250631
  0.3347211157449524  0.0349048039181814  0.8259730195739764
  0.0704457345946650  0.8270085593935981  0.1255573834511373
  0.8324924808068325  0.3774479924816125  0.1924820540979033
  0.3953512173321117  0.3865205925878991  0.0206907550934674
  0.6086957625623239  0.0743932503601927  0.4751561734370920
  0.9706758024926039  0.9863267014951239  0.1906368460535485
  0.1743950876178644  0.7165378081954514  0.5714575957293060
  0.7692734091725956  0.4220747184146324  0.7686469268412618
  0.2281010645343289  0.9885943863831486  0.7499873360726254
  0.6189390063136736  0.1390898660001724  0.7234946305565978
  0.1793552975702693  0.2283029844346541  0.4745331673179442
  0.7537813444004633  0.1690199837908873  0.6122856711884636
  0.4881777261053901  0.7920631828176382  0.0497706898401463
  0.7237070787002940  0.9540679991258268  0.4161212562222801
  0.0663606806727130  0.8712049703675459  0.3563843903990888
  0.1027088528299120  0.1568478894682843  0.6294954302483741
  0.1562302793473541  0.9116504110493586  0.5561630885019231
  0.9417540855976461  0.6051926723800763  0.4073221256766710
  0.6022454146335412  0.4093672417998398  0.9698797510051974
  0.9302550125209482  0.3392263882729488  0.6072961692430197
  0.6065013656042211  0.6744839688186813  0.1301054567273337
  0.9297407457507094  0.1909695100115338  0.4377080035816124
  0.2527105324410798  0.5471639852547989  0.5815275240484530
  0.3883548221480082  0.5372764281366864  0.0271322845309757
  0.2592607738166114  0.6469985755763834  0.2796920201035453
  0.0210914258859139  0.7420989643236511  0.4969114765810420
  0.3461194011415783  0.1866466060535132  0.1949991560916851
  0.2425725052430386  0.8569319609192467  0.2286801236210355
  0.0287463918184682  0.0867575387786768  0.0622100545465615
  0.2938954219427404  0.5509122210947004  0.3918553298636328
  0.8339108049967311  0.6775614648928955  0.3968557000059756
  0.5804689878990960  0.8425963495349752  0.4412832413479278
  0.8688050082212058  0.4574604614143574  0.6921841514686953
  0.1632193559389316  0.8109279428010198  0.7441116105141510
  0.5159762857669826  0.2026609608050472  0.5662625039868793
  0.8364398166843852  0.6311310957229053  0.1610047840154844
  0.4893935217484746  0.4890998515846012  0.1696769472802873
  0.9151706606525597  0.6503361259836135  0.7152737609499416
  0.4784818056541319  0.7022201977234939  0.1397769006723052
  0.6590592062535521  0.4019486886683852  0.4114284161464696
  0.2869609505637193  0.3356633413334102  0.3188953555221248
  0.2754770433459793  0.6438589785467449  0.1081660095157046
  0.8798244269322677  0.0520418553253842  0.6310414364169490
  0.9125891115531165  0.5178262106489391  0.8761794505845043
  0.5741744550402554  0.2901907659341104  0.0062155411384462
  0.7322774796338020  0.9624849128075840  0.5910358931140622
  0.9299003953121704  0.1570375589966874  0.9336489159339545
  0.1157911236838816  0.3472544886032026  0.6196745141809912
  0.7035490828678249  0.6729179800271772  0.8196709431846599
  0.9182897824697949  0.3514718989355531  0.9246773066250008
  0.1888733519869825  0.4184282281869804  0.0353175732848930
  0.0773750549547667  0.8521217313660517  0.8302902897504548
  0.5160533877486373  0.7615326543679876  0.9256181703835117
  0.9107930204755109  0.9469511074165889  0.0267489950831027
  0.9371716644851988  0.7892851587174099  0.8322202162883570
  0.7060905705517264  0.3531986625349434  0.8723092774284802
  0.3889683868233475  0.2910891552573925  0.6685771991931033
  0.0224473730045789  0.5852720005236038  0.9589238513672710
  0.2694086719026852  0.8789746912728754  0.6015323034531845
  0.3409960107365086  0.6431163237849180  0.8750258759647217
  0.4981676943035140  0.6641171300015731  0.4362147845454870
  0.3086879165332767  0.4543949824794548  0.2213239348896557
  0.8936843184806363  0.8779016822524852  0.3485576080113131
  0.5461604247910080  0.6155364410095854  0.9308113728257289
  0.5277812912561800  0.2605311240154763  0.3977809294695142
  0.9801093763181339  0.1138108765192403  0.7760149895074876
  0.0665123548040758  0.7804707477963155  0.0053602469794060
  0.8099622011190041  0.0879252670587671  0.9100009779367929
  0.8159334384458778  0.5726701089899042  0.7149204227129035
  0.2265882427262000  0.5800383589201661  0.7705065641505029
  0.2473214995392215  0.4258234655921092  0.7496175962077074
  0.9194365979871009  0.8553162168054957  0.5214563238578582
  0.3742550186329917  0.5908643929588128  0.5642237330503895
  0.1801262936802645  0.9815039072357979  0.0777070511736500
  0.5865443655972938  0.8576180977929662  0.2223589258809064
  0.9854767437442391  0.2817500621009597  0.1983503190330663
  0.3254424580061178  0.3901729789169781  0.4733072375065157
  0.4982355211524095  0.4798699655892371  0.8028160857801363
  0.4493347726943052  0.4517571098501969  0.3014222894579648
  0.3588437703304374  0.9844346892560348  0.4589562199843383
  0.5218909431122717  0.6814340288891035  0.7556545546531834
  0.4013568712678910  0.8708975998192612  0.3322835905018903
  0.0020277305129037  0.4943225373318464  0.6939149021881419
  0.7626244233880988  0.7528771610147222  0.5462113251864976
  0.9831298786981785  0.6805491853618219  0.2284439629156107
  0.1964962353624012  0.9653983515058799  0.9351555732601007
  0.6045090383938855  0.3119912271649655  0.5785591015667264
  0.2932386126503185  0.1375705878517178  0.0787165140513470
  0.9004922228251139  0.7806552466755172  0.1044183943435547
  0.1985272578582643  0.6341179434575394  0.9360554895341789
  0.6897929902247540  0.7280764674321589  0.3691314527923801
  0.1071479868373761  0.6841978320961886  0.3799507984667700
  0.7689574054412056  0.7772517821871836  0.6764278772939891
  0.9418618594366940  0.4091123467832934  0.0480488514623478
  0.5172747448229033  0.9781714231152074  0.2733242113561705
  0.4471811387974824  0.1199506092739697  0.7063941216974363
  0.7405785025388069  0.3003354980309326  0.0370282956304585
  0.8006188317003540  0.3032885221911097  0.4896058305292224
  0.7017909553286790  0.4065302487744108  0.5945485008746091
  0.8681421501666806  0.4891799517939294  0.3154040652012726
  0.6171210495686165  0.1881878570243240  0.9368316603542040
  0.1633026950204977  0.3296597991751908  0.1865054444460189
  0.5125150953141095  0.4257967556504689  0.5995019800402362
  0.2428783786767959  0.3090544756987934  0.9185992617908029
  0.9880434559728103  0.1335830067421391  0.3298338519854331
  0.6876222603554537  0.6812970817485625  0.0344399878881451
  0.0829194886262433  0.2563090399434803  0.7819084493519151
  0.6282814039398519  0.9164734824410204  0.8319359570226412
  0.4286359243412725  0.7589097646965250  0.2598624965906793
  0.3079881423644728  0.7922311952690458  0.9650983940574746
  0.8477234441414579  0.0374140043293112  0.1896989308187023
  0.5124504429971093  0.6095026177543468  0.2782856856965288
  0.7131301562223673 -0.0058771391558090  0.8987288804766305
  0.6760658142625641  0.8684106564172449  0.0828657799212591
  0.3351900454218115  0.7583685856582336  0.4582474311380247
  0.6038024364360390  0.7969053103961580  0.6627142625431326
  0.7936845670870694  0.2253706081262704  0.2308481018929866
  0.6312613734863329  0.1422490433217401  0.1021220640506651
  0.3168737759631539  0.1419933111906035  0.9533078279620276
  0.7959091858485987  0.7926909691941726  0.9506007441274255
  0.0812655890595405  0.6646742477871806  0.6879794857936756
  0.4874559639202988  0.1070404283329351  0.2693279676704923
  0.1477813872075212  0.0159986255639131  0.4342777862294400
  0.1057638196373591  0.7175460917979404  0.1925779517659987
  0.4521427723160524  0.3126052355797755  0.7785211989773391
  0.5529517347660142  0.9852270350292526  0.9766135773504175
  0.6357525195489908  0.4710844235454599  0.2972855019317127
  0.3205443689110703  0.0396256454234265  0.3230336853999628
  0.3834471949069800  0.4935042010304185  0.7410705983440409
  0.4785459990314223  0.2573755225910121  0.1538646451269917
  0.0560236170986881  0.0718743670660491  0.5406609244654207
  0.1436925516262886  0.4240165368508989  0.8911162744817235
  0.5103955389717725  0.9481735279663301  0.6564076716849618
  0.6611879208580269  0.4986449288580041  0.0782058791159837
  0.8312617960927926  0.2287999044532279  0.7840777364361023
  0.8804551499946012  0.9112858206301373  0.8127122801076947
  0.8275947600589710  0.6538139790935139  0.5189245456976029
  0.9576429384255840  0.6295191277930809  0.1160883686471749
  0.8564533847071442  0.2151606586858397  0.6556343851027314
  0.3033750879283430  0.8791145623848194  0.4153971603401617
  0.1990435780958716  0.4485762277412040  0.1587121126827573
  0.6671343435443670  0.2410179177609411  0.8370045670168172
  0.6241006846761517  0.9430838150824244  0.5086119094146314
  0.0002237508943213  0.0570418510626619  0.8926873124928931
  0.1279921556199418  0.1372218106427651  0.7465134455648902
  0.7889670100983830  0.5323418060957547  0.8287311037890599
  0.7951948572400052  0.0317813764764168  0.5034778598852926
  0.9969392850881764  0.7549836176473270  0.3724111804894791
  0.5497967302672088  0.3972785878813470  0.2378250572119520
  0.8283273963257318  0.4242174037758843  0.5795996107675983
  0.1041861658377811  0.3251116003279567  0.0734363505925925
  0.2729982328618851  0.4257089864721991  0.8740820978019792
  0.1618768017087791  0.6113421915806176  0.2056286036124746
  0.2583134069104207  0.0649704555116892  0.4668559873108337
  0.8079574275247613  0.1958602561932939  0.4131155954962813
  0.6730170724755520  0.9453221454943187  0.1901382506908763
  0.9477375724974342  0.1302087856851755  0.5422612373452654
  0.4524962126187362  0.2693125077065848  0.0273953585874798
  0.8575218455720157  0.4646671312353419  0.9754585314240474
  0.1942062250370523  0.8562555749570661  0.1071393685349312
  0.7257524736471727  0.0651175190805083  0.6697757794714281
  0.3850624612010923  0.5086956622578687  0.4707298014103902
  0.8179372346370435  0.9757000338936509  0.3074001252312299
  0.5607329572265984  0.6720851471227802  0.6350180521408803
  0.1187189215273305  0.5486608413348276  0.8789553922107234
  0.2822494839578654  0.2527916814277215  0.4202638766305772
  0.6045398000538299  0.2656619006131068  0.1249325822744628
  0.1639511177994798  0.9721121549076909  0.3143866685973938
  0.4908099170207948  0.9368503458476951  0.3885193596273193
  0.9775300449662458  0.5983668192711634  0.6239799545369139
  0.0025285284173647  0.2075410977238532  0.0225112147396208
  0.6859538898476137  0.4752948650047151  0.6943390451124839
  0.4569974279555230  0.7738445804015082  0.4961879792819339
  0.5332487713168926  0.5216115255875241  0.3691885504160626
  0.0449781605617731  0.6162378084842645  0.4718569941299105
  0.7772700201150591  0.5717925720725648  0.3490597916521393
  0.2342751093032369  0.4265831416807599  0.5672615528540914
  0.1445241546733778  0.7755887368544457  0.4648483823677560
  0.4089309689695902  0.6610791481283422  0.3417341767949058
  0.3461728664310565  0.2432923167898655  0.8851691376923422
  0.6696184831579773  0.2422169523628128  0.6632936189104536
 -0.0032884496894878  0.0249661841136629  0.6841814013118042
  0.9871601100322700  0.8840297680224930  0.2564530276680220
  0.5627229604103255  0.2068093401968380  0.2843326036625886
  0.5011705346562453  0.1507912447810575  0.4542075817667683
  0.1719056450491415  0.0085547298551924  0.6361632156460493
  0.6189918265423455  0.7622756364621616  0.7863244024986521
  0.8954797846415707  0.3213274933218918  0.2842075459905541
  0.1520371893016462  0.7884933497677665  0.2842537811185417
  0.7282404106536281  0.6564768434211660  0.6936292229068287
  0.9758393334972115  0.5733175815551995  0.2916725078236197
  0.9253164060698008  0.4861828825967133  0.4298138124022456
  0.2716008716199161  0.3063412064538972  0.7067143427003908
  0.6809692923689169  0.5761846645975552  0.9768718464130464
  0.0313211121252661  0.2538116794239715  0.6633688443755448
  0.0544822950023378  0.2351747078637796  0.2959157812323365
  0.6558034006172309  0.4811681345452956  0.5053872269659636
  0.6686413049070518  0.7702988841146462  0.9562812531055167
  0.1023027088470279  0.3209244874179826  0.4850968220589552
  0.9284118004776040  0.3102036496180163  0.4804145245591119
  0.9549384685229479  0.2418776596538805  0.8400051896708607
  0.2252816801206075  0.0895708860377227  0.8911993412293174
  0.8958825882199465  0.1463241178129322  0.2371081288998922
  0.8710898642532828  0.7364005233423188  0.2272923944020293
  0.3986561656546668  0.4013020273191876  0.1489833525078056
  0.6355496130947114  0.0439062807217099  0.3550260060177636
  0.6039896940758452  0.0409077395398257  0.8636451853073649
  0.3202271572451952  0.1279316893132566  0.7371669254595322
  0.7820243122960809  0.3913994383519394  0.3983412484707493
  0.2151873832324582  0.6001797533786626  0.4778869167684998
  0.8939361607805720  0.7628721917708441  0.6766067036565770
  0.8207833933215722  0.7250760857387695  0.8519272234741986
  0.6563551651743356  0.5758213229906674  0.1804309469549463
  0.0078848790506676  0.6571447833204019  0.7922556265334785
  0.2584931391457054  0.5511275301653656  0.0164281797572536
  0.7188927483905475  0.1766143751529013  0.0160699595321806
  0.6665159439246423  0.8526697796150481  0.3411330315174028
  0.1101596490643875  0.8189626825109649  0.6318958001126721
  0.3979892010921175  0.6610897481428851  0.0520113168188971
  0.6451489116543692  0.2821100644428883  0.4607438850816558
  0.3968959140091921  0.7574420700706426  0.8784202410159903
  0.1274443897819738  0.9669816155117619  0.8231962635699519
  0.3984837053510302  0.1818293520260908  0.6056559806897992
  0.0444784432983705  0.4847189628843065  0.0342400153611853
  0.0514814879966620  0.0812590021073653  0.2008390499562145
  0.8049528649063483  0.8418427804122837  0.4706806867880747
  0.4186485038475511  0.3496110140139177  0.5656402890840282
  0.5471977830930862  0.0958142145177460  0.6244903080220693
  0.5354165325979584  0.4928305273210489  0.0514208348917254
  0.5072601802759771  0.3945748392108054  0.8908985801861332
  0.6252399680537254  0.9314362140833332  0.7104602832529624
  0.6542753256396051  0.7342114381263790  0.4903544463814476
  0.8351172811907513  0.8897314249115277  0.1058903889278893
  0.7193332373855772  0.3847586477847637  0.2115854374068866
  0.9535394389532583  0.7979408989356339  0.9621086342274203
  0.7159173159062886  0.1245952469948292  0.1956130304595597
  0.2286212593425614  0.4367793622909147  0.3765344490853378
  0.3118737205644889  0.7475245306379559  0.2106741979497447
  0.5477496471162935  0.8897105717724613  0.0924135498828789
  0.8131105855978521  0.6945488698851533  0.0467320477056471
  0.3753223598716301  0.8393183417243772  0.0583529353241946
  0.8055265920912382  0.2909862658808812  0.9244761159795246
  0.1801489087111451  0.6981024658811932  0.7856968139556374
  0.8413971374691821  0.1021908220843397  0.7914360467365574
  0.4042573638053026  0.3496845354002133  0.3637534967937636
  0.8700011819009775  0.9211107562484570  0.6235695882081069
  0.4126375900898557  0.0790488343728306  0.9196629986051913
  0.0218373737600403  0.9424272571373526  0.0819948834859015
  0.8994492525571696  0.0666967785303564  0.0619087924798546
  0.0246391630016852  0.4303262495712223  0.5866711812644474
  0.2105521624410345  0.2015134269125662  0.5878568641825203
  0.3612881487206243  0.9554698131334014  0.5871216936837962
  0.8416434503666977  0.2794840246836646  0.1165958629502085
  0.3041073433730365  0.0102749972437434  0.0792841523724008
  0.9420387149977223  0.4099407100347546  0.8197236839325706
  0.1003961382572520  0.1383989618311351  0.4345547393359356
  0.4536627219116482  0.1261157655737141  0.1506101190042816
  0.1720966427377078  0.1493785546374131  0.0880412605604417
  0.9606950446672446  0.9389811807736366  0.4354979997731878
  0.4817330078192476  0.8241147716425280  0.6896541242863561
  0.6661508051421736  0.7618652317898751  0.1895522310552906
  0.2824572494457818  0.3270800546915165  0.0371312464368599
  0.5370880762513300  0.3855407778103080  0.7187958463831891
  0.5079878443148341  0.1982070242891467  0.7772743413681967
  0.4275036464024254  0.5588081069969305  0.9081809919973285
  0.4510636883405769  0.5301136764764361  0.6435010119923021
  0.1592979914961425  0.5568307526363512  0.6653905526190824
  0.3499398420152153  0.6151661853344902  0.7472909682713856
  0.4568643235860800  0.0090660516232536  0.7557631679171237
  0.5849324974529554  0.5745991938508047  0.8152580432533676
  0.5230967830838351  0.8878498397525484  0.8927816714246927
  0.1264005046797735  0.3947218625681633  0.7643867774341040
  0.2954711181670863  0.7601528921256675  0.5812972083642862
  0.3350361046608994  0.5767816250914191  0.2001656894651410
  0.3070113262746548  0.9109485621534306  0.9049787162475572
  0.2706482715929430  0.8699727457885643  0.7262942543343984
  0.0550205325675346  0.3885040007112555  0.2261960826216685
  0.8847348957833000  0.4781998904048942  0.1502405761454221
  0.5652258636734694  0.7132248495468920  0.3395599564972711
  0.3893717960845440  0.9590663467807479  0.2436203477887596
  0.1485637254887562  0.8201955186462460  0.9257778495537463
  0.3873209483280469  0.1504962747911254  0.3218683040705503
  0.1049693961773404  0.6639087132124487  0.0245743971177449
  0.6756998942464906  0.9848735935302559  0.0145891279710665
  0.2492805263982690  0.1109508885526607  0.2457577282214313
 
  0.00000000E+00  0.00000000E+00  0.00000000E+00
  0.00000000E+00  0.00000000E+00  0.00000000E+00
  0.00000000E+00  0.00000000E+00  0.00000000E+00
  0.00000000E+00  0.00000000E+00  0.00000000E+00
  0.00000000E+00  0.00000000E+00  0.00000000E+00
  0.00000000E+00  0.00000000E+00  0.00000000E+00
  0.00000000E+00  0.00000000E+00  0.00000000E+00
  0.00000000E+00  0.00000000E+00  0.00000000E+00
  0.00000000E+00  0.00000000E+00  0.00000000E+00
  0.00000000E+00  0.00000000E+00  0.00000000E+00
  0.00000000E+00  0.00000000E+00  0.00000000E+00
  0.00000000E+00  0.00000000E+00  0.00000000E+00
  0.00000000E+00  0.00000000E+00  0.00000000E+00
  0.00000000E+00  0.00000000E+00  0.00000000E+00
  0.00000000E+00  0.00000000E+00  0.00000000E+00
  0.00000000E+00  0.00000000E+00  0.00000000E+00
  0.00000000E+00  0.00000000E+00  0.00000000E+00
  0.00000000E+00  0.00000000E+00  0.00000000E+00
  0.00000000E+00  0.00000000E+00  0.00000000E+00
  0.00000000E+00  0.00000000E+00  0.00000000E+00
  0.00000000E+00  0.00000000E+00  0.00000000E+00
  0.00000000E+00  0.00000000E+00  0.00000000E+00
  0.00000000E+00  0.00000000E+00  0.00000000E+00
  0.00000000E+00  0.00000000E+00  0.00000000E+00
  0.00000000E+00  0.00000000E+00  0.00000000E+00
  0.00000000E+00  0.00000000E+00  0.00000000E+00
  0.00000000E+00  0.00000000E+00  0.00000000E+00
  0.00000000E+00  0.00000000E+00  0.00000000E+00
  0.00000000E+00  0.00000000E+00  0.00000000E+00
  0.00000000E+00  0.00000000E+00  0.00000000E+00
  0.00000000E+00  0.00000000E+00  0.00000000E+00
  0.00000000E+00  0.00000000E+00  0.00000000E+00
  0.00000000E+00  0.00000000E+00  0.00000000E+00
  0.00000000E+00  0.00000000E+00  0.00000000E+00
  0.00000000E+00  0.00000000E+00  0.00000000E+00
  0.00000000E+00  0.00000000E+00  0.00000000E+00
  0.00000000E+00  0.00000000E+00  0.00000000E+00
  0.00000000E+00  0.00000000E+00  0.00000000E+00
  0.00000000E+00  0.00000000E+00  0.00000000E+00
  0.00000000E+00  0.00000000E+00  0.00000000E+00
  0.00000000E+00  0.00000000E+00  0.00000000E+00
  0.00000000E+00  0.00000000E+00  0.00000000E+00
  0.00000000E+00  0.00000000E+00  0.00000000E+00
  0.00000000E+00  0.00000000E+00  0.00000000E+00
  0.00000000E+00  0.00000000E+00  0.00000000E+00
  0.00000000E+00  0.00000000E+00  0.00000000E+00
  0.00000000E+00  0.00000000E+00  0.00000000E+00
  0.00000000E+00  0.00000000E+00  0.00000000E+00
  0.00000000E+00  0.00000000E+00  0.00000000E+00
  0.00000000E+00  0.00000000E+00  0.00000000E+00
  0.00000000E+00  0.00000000E+00  0.00000000E+00
  0.00000000E+00  0.00000000E+00  0.00000000E+00
  0.00000000E+00  0.00000000E+00  0.00000000E+00
  0.00000000E+00  0.00000000E+00  0.00000000E+00
  0.00000000E+00  0.00000000E+00  0.00000000E+00
  0.00000000E+00  0.00000000E+00  0.00000000E+00
  0.00000000E+00  0.00000000E+00  0.00000000E+00
  0.00000000E+00  0.00000000E+00  0.00000000E+00
  0.00000000E+00  0.00000000E+00  0.00000000E+00
  0.00000000E+00  0.00000000E+00  0.00000000E+00
  0.00000000E+00  0.00000000E+00  0.00000000E+00
  0.00000000E+00  0.00000000E+00  0.00000000E+00
  0.00000000E+00  0.00000000E+00  0.00000000E+00
  0.00000000E+00  0.00000000E+00  0.00000000E+00
  0.00000000E+00  0.00000000E+00  0.00000000E+00
  0.00000000E+00  0.00000000E+00  0.00000000E+00
  0.00000000E+00  0.00000000E+00  0.00000000E+00
  0.00000000E+00  0.00000000E+00  0.00000000E+00
  0.00000000E+00  0.00000000E+00  0.00000000E+00
  0.00000000E+00  0.00000000E+00  0.00000000E+00
  0.00000000E+00  0.00000000E+00  0.00000000E+00
  0.00000000E+00  0.00000000E+00  0.00000000E+00
  0.00000000E+00  0.00000000E+00  0.00000000E+00
  0.00000000E+00  0.00000000E+00  0.00000000E+00
  0.00000000E+00  0.00000000E+00  0.00000000E+00
  0.00000000E+00  0.00000000E+00  0.00000000E+00
  0.00000000E+00  0.00000000E+00  0.00000000E+00
  0.00000000E+00  0.00000000E+00  0.00000000E+00
  0.00000000E+00  0.00000000E+00  0.00000000E+00
  0.00000000E+00  0.00000000E+00  0.00000000E+00
  0.00000000E+00  0.00000000E+00  0.00000000E+00
  0.00000000E+00  0.00000000E+00  0.00000000E+00
  0.00000000E+00  0.00000000E+00  0.00000000E+00
  0.00000000E+00  0.00000000E+00  0.00000000E+00
  0.00000000E+00  0.00000000E+00  0.00000000E+00
  0.00000000E+00  0.00000000E+00  0.00000000E+00
  0.00000000E+00  0.00000000E+00  0.00000000E+00
  0.00000000E+00  0.00000000E+00  0.00000000E+00
  0.00000000E+00  0.00000000E+00  0.00000000E+00
  0.00000000E+00  0.00000000E+00  0.00000000E+00
  0.00000000E+00  0.00000000E+00  0.00000000E+00
  0.00000000E+00  0.00000000E+00  0.00000000E+00
  0.00000000E+00  0.00000000E+00  0.00000000E+00
  0.00000000E+00  0.00000000E+00  0.00000000E+00
  0.00000000E+00  0.00000000E+00  0.00000000E+00
  0.00000000E+00  0.00000000E+00  0.00000000E+00
  0.00000000E+00  0.00000000E+00  0.00000000E+00
  0.00000000E+00  0.00000000E+00  0.00000000E+00
  0.00000000E+00  0.00000000E+00  0.00000000E+00
  0.00000000E+00  0.00000000E+00  0.00000000E+00
  0.00000000E+00  0.00000000E+00  0.00000000E+00
  0.00000000E+00  0.00000000E+00  0.00000000E+00
  0.00000000E+00  0.00000000E+00  0.00000000E+00
  0.00000000E+00  0.00000000E+00  0.00000000E+00
  0.00000000E+00  0.00000000E+00  0.00000000E+00
  0.00000000E+00  0.00000000E+00  0.00000000E+00
  0.00000000E+00  0.00000000E+00  0.00000000E+00
  0.00000000E+00  0.00000000E+00  0.00000000E+00
  0.00000000E+00  0.00000000E+00  0.00000000E+00
  0.00000000E+00  0.00000000E+00  0.00000000E+00
  0.00000000E+00  0.00000000E+00  0.00000000E+00
  0.00000000E+00  0.00000000E+00  0.00000000E+00
  0.00000000E+00  0.00000000E+00  0.00000000E+00
  0.00000000E+00  0.00000000E+00  0.00000000E+00
  0.00000000E+00  0.00000000E+00  0.00000000E+00
  0.00000000E+00  0.00000000E+00  0.00000000E+00
  0.00000000E+00  0.00000000E+00  0.00000000E+00
  0.00000000E+00  0.00000000E+00  0.00000000E+00
  0.00000000E+00  0.00000000E+00  0.00000000E+00
  0.00000000E+00  0.00000000E+00  0.00000000E+00
  0.00000000E+00  0.00000000E+00  0.00000000E+00
  0.00000000E+00  0.00000000E+00  0.00000000E+00
  0.00000000E+00  0.00000000E+00  0.00000000E+00
  0.00000000E+00  0.00000000E+00  0.00000000E+00
  0.00000000E+00  0.00000000E+00  0.00000000E+00
  0.00000000E+00  0.00000000E+00  0.00000000E+00
  0.00000000E+00  0.00000000E+00  0.00000000E+00
  0.00000000E+00  0.00000000E+00  0.00000000E+00
  0.00000000E+00  0.00000000E+00  0.00000000E+00
  0.00000000E+00  0.00000000E+00  0.00000000E+00
  0.00000000E+00  0.00000000E+00  0.00000000E+00
  0.00000000E+00  0.00000000E+00  0.00000000E+00
  0.00000000E+00  0.00000000E+00  0.00000000E+00
  0.00000000E+00  0.00000000E+00  0.00000000E+00
  0.00000000E+00  0.00000000E+00  0.00000000E+00
  0.00000000E+00  0.00000000E+00  0.00000000E+00
  0.00000000E+00  0.00000000E+00  0.00000000E+00
  0.00000000E+00  0.00000000E+00  0.00000000E+00
  0.00000000E+00  0.00000000E+00  0.00000000E+00
  0.00000000E+00  0.00000000E+00  0.00000000E+00
  0.00000000E+00  0.00000000E+00  0.00000000E+00
  0.00000000E+00  0.00000000E+00  0.00000000E+00
  0.00000000E+00  0.00000000E+00  0.00000000E+00
  0.00000000E+00  0.00000000E+00  0.00000000E+00
  0.00000000E+00  0.00000000E+00  0.00000000E+00
  0.00000000E+00  0.00000000E+00  0.00000000E+00
  0.00000000E+00  0.00000000E+00  0.00000000E+00
  0.00000000E+00  0.00000000E+00  0.00000000E+00
  0.00000000E+00  0.00000000E+00  0.00000000E+00
  0.00000000E+00  0.00000000E+00  0.00000000E+00
  0.00000000E+00  0.00000000E+00  0.00000000E+00
  0.00000000E+00  0.00000000E+00  0.00000000E+00
  0.00000000E+00  0.00000000E+00  0.00000000E+00
  0.00000000E+00  0.00000000E+00  0.00000000E+00
  0.00000000E+00  0.00000000E+00  0.00000000E+00
  0.00000000E+00  0.00000000E+00  0.00000000E+00
  0.00000000E+00  0.00000000E+00  0.00000000E+00
  0.00000000E+00  0.00000000E+00  0.00000000E+00
  0.00000000E+00  0.00000000E+00  0.00000000E+00
  0.00000000E+00  0.00000000E+00  0.00000000E+00
  0.00000000E+00  0.00000000E+00  0.00000000E+00
  0.00000000E+00  0.00000000E+00  0.00000000E+00
  0.00000000E+00  0.00000000E+00  0.00000000E+00
  0.00000000E+00  0.00000000E+00  0.00000000E+00
  0.00000000E+00  0.00000000E+00  0.00000000E+00
  0.00000000E+00  0.00000000E+00  0.00000000E+00
  0.00000000E+00  0.00000000E+00  0.00000000E+00
  0.00000000E+00  0.00000000E+00  0.00000000E+00
  0.00000000E+00  0.00000000E+00  0.00000000E+00
  0.00000000E+00  0.00000000E+00  0.00000000E+00
  0.00000000E+00  0.00000000E+00  0.00000000E+00
  0.00000000E+00  0.00000000E+00  0.00000000E+00
  0.00000000E+00  0.00000000E+00  0.00000000E+00
  0.00000000E+00  0.00000000E+00  0.00000000E+00
  0.00000000E+00  0.00000000E+00  0.00000000E+00
  0.00000000E+00  0.00000000E+00  0.00000000E+00
  0.00000000E+00  0.00000000E+00  0.00000000E+00
  0.00000000E+00  0.00000000E+00  0.00000000E+00
  0.00000000E+00  0.00000000E+00  0.00000000E+00
  0.00000000E+00  0.00000000E+00  0.00000000E+00
  0.00000000E+00  0.00000000E+00  0.00000000E+00
  0.00000000E+00  0.00000000E+00  0.00000000E+00
  0.00000000E+00  0.00000000E+00  0.00000000E+00
  0.00000000E+00  0.00000000E+00  0.00000000E+00
  0.00000000E+00  0.00000000E+00  0.00000000E+00
  0.00000000E+00  0.00000000E+00  0.00000000E+00
  0.00000000E+00  0.00000000E+00  0.00000000E+00
  0.00000000E+00  0.00000000E+00  0.00000000E+00
  0.00000000E+00  0.00000000E+00  0.00000000E+00
  0.00000000E+00  0.00000000E+00  0.00000000E+00
  0.00000000E+00  0.00000000E+00  0.00000000E+00
  0.00000000E+00  0.00000000E+00  0.00000000E+00
  0.00000000E+00  0.00000000E+00  0.00000000E+00
  0.00000000E+00  0.00000000E+00  0.00000000E+00
  0.00000000E+00  0.00000000E+00  0.00000000E+00
  0.00000000E+00  0.00000000E+00  0.00000000E+00
  0.00000000E+00  0.00000000E+00  0.00000000E+00
  0.00000000E+00  0.00000000E+00  0.00000000E+00
  0.00000000E+00  0.00000000E+00  0.00000000E+00
  0.00000000E+00  0.00000000E+00  0.00000000E+00
  0.00000000E+00  0.00000000E+00  0.00000000E+00
  0.00000000E+00  0.00000000E+00  0.00000000E+00
  0.00000000E+00  0.00000000E+00  0.00000000E+00
  0.00000000E+00  0.00000000E+00  0.00000000E+00
  0.00000000E+00  0.00000000E+00  0.00000000E+00
  0.00000000E+00  0.00000000E+00  0.00000000E+00
  0.00000000E+00  0.00000000E+00  0.00000000E+00
  0.00000000E+00  0.00000000E+00  0.00000000E+00
  0.00000000E+00  0.00000000E+00  0.00000000E+00
  0.00000000E+00  0.00000000E+00  0.00000000E+00
  0.00000000E+00  0.00000000E+00  0.00000000E+00
  0.00000000E+00  0.00000000E+00  0.00000000E+00
  0.00000000E+00  0.00000000E+00  0.00000000E+00
  0.00000000E+00  0.00000000E+00  0.00000000E+00
  0.00000000E+00  0.00000000E+00  0.00000000E+00
  0.00000000E+00  0.00000000E+00  0.00000000E+00
  0.00000000E+00  0.00000000E+00  0.00000000E+00
  0.00000000E+00  0.00000000E+00  0.00000000E+00
  0.00000000E+00  0.00000000E+00  0.00000000E+00
  0.00000000E+00  0.00000000E+00  0.00000000E+00
  0.00000000E+00  0.00000000E+00  0.00000000E+00
  0.00000000E+00  0.00000000E+00  0.00000000E+00
  0.00000000E+00  0.00000000E+00  0.00000000E+00
  0.00000000E+00  0.00000000E+00  0.00000000E+00
  0.00000000E+00  0.00000000E+00  0.00000000E+00
  0.00000000E+00  0.00000000E+00  0.00000000E+00
  0.00000000E+00  0.00000000E+00  0.00000000E+00
  0.00000000E+00  0.00000000E+00  0.00000000E+00
  0.00000000E+00  0.00000000E+00  0.00000000E+00
  0.00000000E+00  0.00000000E+00  0.00000000E+00
  0.00000000E+00  0.00000000E+00  0.00000000E+00
  0.00000000E+00  0.00000000E+00  0.00000000E+00