Amorphous Sb                            
   1.00000000000000     
    19.4160639045511303    0.0000000000000000    0.0000000000000000
     0.0000000000000000   19.4160639045511303    0.0000000000000000
     0.0000000000000000    0.0000000000000000   19.4160639045511303
   Ge   Se
   150   150
Direct
  0.8851384850723250  0.9293228651191399  0.7302426099350114
  0.0464457223687518  0.2308829770611567  0.4378669564516500
  0.9755639028787186  0.5551820657976094  0.1212086797745897
  0.6547122893085628  0.6425074445948908  0.8834338308100271
  0.6900836730312037  0.1090409473488236  0.9997710644826441
  0.2296030491791186  0.9478360165605295  0.6828075169342824
  0.5837730463942350  0.9046292388912462  0.3063419409289523
  0.5516328760113183  0.6101840954107942  0.4245867475182621
  0.8087210924102877  0.6502100301669884  0.9071008755152832
  0.2690880673577212  0.9151043868691460  0.5353972884965330
  0.2088930637119830  0.9499927956127934  0.0661440313874380
  0.0238657192412717  0.3938841698959479  0.5488903848243680
  0.8167783798650561  0.3631054872776929  0.5742502140214185
  0.4239970925001799  0.0087001089702241  0.0097756786991567
  0.7691129345610932  0.7589859896711886  0.5784645747442241
  0.6499375381556547  0.1082074836397950  0.2921197573667342
  0.2646590323697851  0.4885077018441706  0.4220846802246214
  0.6528843102738406  0.4417631879829003  0.9310690776164634
  0.9814052075547153  0.8796532247352005  0.2437187186584353
  0.2417781998740338  0.6474069971997238  0.7930860306994560
  0.3775572680682231  0.4551625902263794  0.2484395692354937
  0.6027984817715719  0.0880133164717876  0.1465476152165408
  0.5131719707079441  0.9992837221669646  0.4769509744506024
  0.0916677022652124  0.4386455925894879  0.3703066044996390
  0.9161319817011560  0.8678089005547349  0.4778982193870505
  0.7964299970451520  0.9542073183382627  0.3527429856860351
  0.4811716128560519  0.7551070700205997  0.7561455891796953
  0.7690191802331867  0.7881674162483918  0.8517237188001587
  0.1912187377726156  0.6727314764372920  0.0948344708762008
  0.1259083248689663  0.9931418269417378  0.8483969077262188
  0.6855815670375947  0.3251891591816971  0.7271736723246818
  0.5285171422400907  0.2581090341935237  0.7489022056483847
  0.7648078230735038  0.0474857673383013  0.2234371304569081
  0.4527089399646655  0.8162499464029338  0.5224161929135462
  0.9902427174610722  0.6386664693947992  0.0123851239187118
  0.0928250058191509  0.5508558032473445  0.1964333916073144
  0.8128097333553086  0.7347546908978941  0.4114912758169780
  0.5346467272792026  0.1191112315091303  0.9010256518828754
  0.6305645727735012  0.4162906215264073  0.3902337562178460
  0.4654568124741019  0.8465018273640581  0.0968056842202571
  0.9740052470794538  0.9685963209543473  0.8959094101130205
  0.7114286786203934  0.4878595789478339  0.7381135920134341
  0.2255613518847852  0.3872440911064103  0.1725113950038732
  0.3615593184370738  0.3233400127188730  0.7108571480526606
  0.3181761801198846  0.0628395224522507  0.8119038365117817
  0.3246700865697747  0.8237559163210122  0.0724687567496716
  0.7336493318808408  0.9404487626107141  0.9516714369310861
  0.4841639838061624  0.2420869990266965  0.6008921550945416
  0.8246692927338231  0.4582083914427031  0.0835933518800900
  0.8183707999417109  0.3343386796966143  0.0046867509746136
  0.1697705676471628  0.1813336810259187  0.7927598780827765
  0.7049963814028004  0.3888682395246335  0.1819444444429763
  0.3362460598284542  0.7993779176792017  0.2672026780619277
  0.9663920028513076  0.1755125024720101  0.2482096421287210
  0.3194414067315350  0.5978786494941772  0.3483927627154060
  0.7219165198779294  0.5709590656915964  0.2800641775848476
  0.7451096190911457  0.6840623841354017  0.6912606788907993
  0.2822197659298880  0.6059267712948966  0.9801848745981872
  0.2847401597404229  0.8060024887983488  0.6913622388685710
  0.1639363995273015  0.8263697112070858  0.3758013945720577
  0.6846298712749643  0.2069276074549791  0.1397100440387007
  0.6175417345801293  0.1349516272621187  0.6280167358823547
  0.7986080292921045  0.3796680584098411  0.4323701627076630
  0.3473924664861769  0.1232601708922516  0.4981980643264166
  0.9820283356869837  0.0391866779494450  0.3422984568174456
  0.8730406030943314  0.1081001844561058  0.0869783792681602
  0.2491486671866667  0.3171944385549992  0.5330141747690575
  0.5788653866884061  0.5142667100095295  0.5383001575173765
  0.5620032289970780  0.6749049298201513  0.5630412082997580
  0.1470597452606199  0.2017653722831270  0.1825746763763547
  0.9364923130011675  0.6810644249920941  0.4760949094126588
  0.0661905372957463  0.4856030447057051  0.8484257739636263
  0.5687462927659652  0.3738220024750163  0.2011816150633550
  0.7760159145133159  0.5680114963731668  0.4244703295901004
  0.7590322513365777  0.0732043474767607  0.4713396304741124
  0.8272714349861090  0.9105974843563089  0.1273764504082493
  0.0989820655172835  0.3849110957089650  0.0329174351857091
  0.3790098365342587  0.6267072249688255  0.1404403880905249
  0.7825260199762596  0.4571223351262361  0.8527702197115872
  0.0724921187877783  0.7342783297468003  0.7125771114541735
  0.0383711736606998  0.2900050409755934  0.2716898893358319
  0.7632764641547425  0.7979481683669292  0.0599319577283239
  0.5558656722094923  0.9693388462136667  0.1856015072770916
  0.1010095626870395  0.8407069025714549  0.7969968501533700
  0.4681542141848709  0.9916517844010571  0.6731798284242387
  0.8925449630722682  0.4495519911933599  0.2559230224291653
  0.8902421896188528  0.8268966373250350  0.6255048678093686
  0.4483209448426067  0.2181636309019552  0.2231354665742629
  0.1714906196495321  0.6035587009296322  0.5628995843041551
  0.4537723996304592  0.3740628715474799  0.9135818911615345
  0.6015473853409006  0.2392281602036377  0.3408098984170849
  0.6177328463842926  0.2842289745822697  0.5499280555082962
  0.0888050566018848  0.5677527424188114  0.9567343252689469
  0.4646481115326537  0.6038077356628477  0.9974979255404151
  0.1573805912279553  0.1164242146647183  0.5661163920085173
  0.2443979152810059  0.2685047677276131  0.8687038223490404
  0.9843053294209483  0.7279853932024096  0.2975310832238804
  0.6371915128802783  0.7978875586643710  0.2054152043175748
  0.1153613888655300  0.6167958996568714  0.4190848347780118
  0.5087075244758950  0.4121566254858848  0.6999406516313655
  0.3609139157419037  0.7780428297561315  0.4013831632740050
  0.9115589083442472  0.5024518544459298  0.5450925299639025
  0.2634792642531494  0.0598618302542491  0.1434364986016234
  0.9103487368328516  0.1639099214146214  0.4001373078343846
  0.3903881470180721  0.6548396461090320  0.5718445435640689
  0.9838064812893705  0.8803143514732525  0.0650221384860217
  0.3424157487560961  0.5465101871515259  0.7083143023078406
  0.9123351572360008  0.7783840678561660  0.9198872422000051
  0.7333582563939913  0.9613714992281430  0.5614006645258769
  0.0778077415650031  0.1876339042511148  0.9461082236452896
  0.2657549090319691  0.8891408353039694  0.1935680043972283
  0.1019111769079544  0.5397187925138951  0.6677495593151690
  0.4529374637802590  0.4602145235397757  0.3756338457378234
  0.2184089409073948  0.5625280502932668  0.2546612594092181
  0.9538769791043364  0.2734700166137642  0.7007443946179350
  0.6596658318550723  0.1851820447271066  0.7649735096752011
  0.3711013921590478  0.2736969564429543  0.3654117707956672
  0.0348019157973525  0.0696488567830045  0.7406988053301902
  0.5435192841999950  0.7823076210247208  0.9744547266967913
  0.6459701641125335  0.6028427363877640  0.0372897557639931
  0.5462436483998090  0.5644327873703219  0.1884281511982664
  0.4088241355330808  0.8812214689495974  0.8592397994057421
  0.0400625476310168  0.0604920203062065  0.1259307434519243
  0.2971989494475835  0.3043432474467096  0.9876969291669013
  0.5345302523260713  0.7019291797390821  0.2528313989623570
  0.7661334148514101  0.0615238675160157  0.8002263725898189
  0.9803292474408210  0.3438478904176065  0.1006241655997897
  0.9131629010281728  0.3297730027050676  0.8345637462301241
  0.5368409246999306  0.1250078802136372  0.4134063245745452
  0.8060745436988128  0.7507975635179420  0.2383979285837512
  0.6011195298383498  0.9682712592754825  0.8151973452050498
  0.2657440826192357  0.3937109346604046  0.8237582955083411
  0.8823566205231756  0.1313856496701575  0.6299042873375953
  0.3772593050686268  0.7319603186443118  0.8635541594765499
  0.2253939591776302  0.4803767674442696  0.9188108869301175
  0.2449339755035709  0.1129206965631511  0.3320557945561902
  0.4136016540619920  0.1738704500816013  0.0961212649702503
  0.8956447849736264  0.1802002132220508  0.9105604468610125
  0.1453815902000528  0.8070374378775256  0.9328178141762109
  0.5774250097843634  0.2862058025759708  0.9737879455569498
  0.3679222882427027  0.9681610346514375  0.3120990985479395
  0.5452839969156500  0.6171784084319754  0.7308777974708462
  0.9209263454933918  0.6477271164821943  0.6596144963702386
  0.0482518931424778  0.9136823517542894  0.4762959718763113
  0.9182338154547125  0.4889617666865078  0.7046509953517557
  0.3822370180705548  0.1776256885337304  0.6780663647131817
  0.1639832143898232  0.2802021029849939  0.6854946950082947
  0.6426774030469744  0.8111870699787076  0.4099829192426867
  0.3420326412379637  0.2057486769810311  0.8051352420593645
  0.5991359038434894  0.9103487373487624  0.6606783712902455
  0.6739731268222187  0.5310438187235320  0.1519498224847240
  0.8773188997235337  0.9068584311398808  0.9691220707189814
  0.6217604377798338  0.4014873016566298  0.6298896759283821
  0.8648784658229189  0.0073965034737782  0.6174065373312061
  0.4189601146946131  0.9430039654952580  0.5538410013287915
  0.1724564103907582  0.5253731569794056  0.7754993117239408
  0.7067009218917590  0.7199504967882149  0.3287428734786531
  0.3275551984500424  0.7749976435307389  0.5570103073641164
  0.1146630145837406  0.2868493874600802  0.5509909949052769
  0.5281764373465379  0.4096275116749126  0.4755162901026324
  0.5999653097560298  0.8761726587359746  0.1007993501439230
  0.6446200559307727  0.1421350647452115  0.4962765430601337
  0.0554289933932068  0.7363517187230286  0.4104681803912200
  0.7475392701848449  0.8730352979071014  0.2322732486136658
  0.8082534464106246  0.2024909054218114  0.0140418381591303
  0.1491293188614264  0.5086165984155500  0.0558357560532201
  0.2264572835689762  0.9960621837835930  0.2615665752338785
  0.3629052954247882  0.7184907325244367  0.9956340747448280
  0.1730959327826511  0.6605190008233492  0.9192108278657329
  0.9213232968724867  0.7988683627383892  0.1514449933226345
  0.3356266533166092  0.3325196127498060  0.2225449068813461
  0.9389816354382319  0.6326545540122694  0.8923827937342281
  0.6048798704310627  0.9188325798698145  0.5265831943423933
  0.8449298368331739  0.1978365357568919  0.7309712739022061
  0.1550122233575735  0.8272282325932068  0.2262791108679707
  0.0847854182286625  0.9132495448339455  0.1592207273148318
  0.5613218979329062  0.5012567394030114  0.0062087895765117
  0.1674519147851257  0.0689835366958818  0.6945953409847334
  0.7321935642736861  0.9237921252407233  0.8147421226382079
  0.5238995275746632  0.7312193312193429  0.3833051259829645
  0.8272897154253158  0.6070014388430351  0.5423077582884019
  0.6730152216319212  0.7117612308874826  0.5007173779895027
  0.2774318211732805  0.1754364341977421  0.2134523244752486
  0.1545171080084700  0.4658884969264392  0.4898881355646196
  0.7583427345664262  0.4384508792141517  0.3003226085655299
  0.4700467394299892  0.5344215943314197  0.6541974652537874
  0.4247346427869800  0.3670195330789952  0.6040322884660156
  0.4021784844877416  0.8668692682780872  0.7266520902511360
  0.8819213452389221  0.4836373407124626  0.4175540356395899
  0.9028172112588564  0.0394622775361810  0.8019139321174293
  0.9749291524373547  0.3519550299586456  0.3697060392488396
  0.1798803391259511  0.1028536350362543  0.9006661194220626
  0.0064103424142417  0.1567567123228315  0.6366830452307184
  0.7136663919024855  0.7095992506164208  0.1415889926048877
  0.0626866721980832  0.3954317372809228  0.2016909656854935
  0.5921452582744280  0.5392251165138546  0.3161967665366348
  0.9088295206138071  0.9938098294480326  0.2248619067544126
  0.7332739872090741  0.0092813077649936  0.0990957161082306
  0.6488313265456043  0.0002228691180974  0.3679218262806856
  0.4773583714383278  0.9085912439839348  0.3807288335771801
  0.1541453105605015  0.1141587642823509  0.0792688702398010
  0.6793287815383025  0.0281459269507636  0.6684314340775828
  0.5460083729084673  0.2633604641382519  0.1391370719628000
  0.8349743114078123  0.1718884754924659  0.5168204697031911
  0.0208183819455527  0.6137311455012266  0.7436190536590104
  0.4270798060502017  0.6152883019320825  0.2627345511599728
  0.4655890814368746  0.2287966563565789  0.4662241391714304
  0.8566596985311818  0.5603395382178675  0.1741557108915828
  0.2923597896881844  0.8945986848067022  0.4011049620721110
  0.9978201682598709  0.7500310893628352  0.6019561708200953
  0.4227762830355672  0.5766304728317166  0.4397826786813326
  0.8961698246872842  0.8235161493162622  0.3488977591166815
  0.3688769902459370  0.6812614540751412  0.7039244204190993
  0.7330053798530045  0.2635897337042792  0.6141666220433848
  0.5157498158967044  0.1037419252281637  0.2511190315970211
  0.9818870769571220  0.1870873591216622  0.1172198632092289
  0.0266588059634429  0.7689413006671160  0.9968219751742140
  0.1931806921155328  0.8019987242923321  0.0593601753480328
  0.0829614273840207  0.9377959961054572  0.3557313512325351
  0.6994948012600659  0.2701956945321271  0.2565696011053475
  0.0427370244935616  0.2008181054662401  0.8142138710404154
  0.3458072348845107  0.0472378403937768  0.6810391796077511
  0.0804825788595380  0.1007067506611889  0.2496090865974878
  0.1962726417548879  0.2971854692415974  0.0700146823226717
  0.9996555333219632  0.9548220496992030  0.6486805097407284
  0.0823455002713729  0.6786414626420552  0.1637827135363850
  0.0155337392148454  0.5817346741119849  0.5191777471641430
  0.4088653541904250  0.2926874168205060  0.0468186670541542
  0.2547299688434848  0.6940988158624464  0.4050716143874240
  0.6810662314108669  0.2946989431149731  0.4308797908263884
  0.4297526710923165  0.9677676505294386  0.1483173756979852
  0.3927893272110126  0.4197519806541905  0.7984445345220337
  0.5234475114288770  0.6726766326677236  0.8962895087497031
  0.7827721330383781  0.3263708508935537  0.8748952581762381
  0.8318164821807486  0.3893183296171756  0.7011175248546735
  0.5413120558173929  0.8536134246643101  0.8485046729108703
  0.6807124880668809  0.7861124777171966  0.9565553416499881
  0.6669355736205986  0.7362866606887977  0.7815857764314913
  0.6494302493477235  0.1975512492681588  0.9022884620442255
  0.8131805763910336  0.1639179533725965  0.1920931097348060
  0.8968824852270814  0.9937745183695625  0.4405273462497519
  0.6801722225583333  0.3510143479195520  0.0333281706174162
  0.3247364051076289  0.4298879403915734  0.9881495562316260
  0.3110037050292007  0.9211458525896035  0.9862336214882106
  0.4493588261472539  0.2429551378564838  0.8644399837862053
  0.6037005289946364  0.0045229557734672  0.9462842732774135
  0.2956719807434069  0.5564303142106723  0.5755573661542002
  0.6064323913863845  0.5343414580247199  0.8152378812410461
  0.1519657448327649  0.8453534602151649  0.5140443092909521
  0.4594028338035514  0.8097252966191633  0.2245034247440216
  0.2099235645113993  0.4397772494486532  0.3103124232446817
  0.2470942166388568  0.3883744421355928  0.6901717940158676
  0.8024892753223156  0.5864256262265997  0.7559142779992740
  0.4747719705163789  0.4530018394152791  0.1547366456991384
  0.3543150805759794  0.3917057898244209  0.4348906913471282
  0.1079669881453285  0.9388772794766638  0.9692022529036635
  0.5406851575767035  0.1237434722152386  0.7598969393324566
  0.3338818823101164  0.1085987661547918  0.0200340475957930
  0.6445127765671899  0.6038173211167006  0.6424611811184633
  0.1089039752388246  0.8837869164116512  0.6717897657301037
  0.7015005514690458  0.4779283647352131  0.4899040916583530
  0.2596328223800768  0.7810162781235945  0.8281230616042805
  0.7648456767277168  0.8680760935746932  0.4540996873414542
  0.5341923048838808  0.7833324259675649  0.6325336804266541
  0.5786501931417192  0.3590414252954375  0.8549750217722973
  0.5386312424283375  0.6792826830886298  0.0827293396633451
  0.9580503981792745  0.2958324740123999  0.9552110558812785
  0.9746754842921064  0.8547393052868273  0.8152130259579167
  0.8463555624183172  0.7052093843077927  0.0240024694392957
  0.1388779615559770  0.2633595509416722  0.3459211623324663
  0.2698583399956433  0.2205200688915809  0.4393427998637378
  0.2378659503099882  0.0398783551146948  0.4944510929800927
  0.9302497713037781  0.2972639138208280  0.5618955646846473
  0.8625845586022152  0.3496799264916888  0.1687142963442056
  0.2809199599432617  0.6993540821817561  0.1943963773944830
  0.7768235544355662  0.5317981061377068  0.9629918129500084
  0.0886440620687594  0.1033630081889427  0.4209199905960617
  0.0483998570086754  0.0384505887379021  0.5246305273000758
  0.2632902448089496  0.2114682618836099  0.6212709052985517
  0.7917805969107548  0.0610357268988224  0.9314741115092176
  0.7887994712909503  0.1286541645288892  0.3566467885318048
  0.8930368618428943  0.6405923304313319  0.3473545062420058
  0.3539478991455880  0.5945131368383514  0.8649302995283961
  0.8655312964163144  0.7487325396288895  0.7331725087880159
  0.4292339818183208  0.0157999113195757  0.8586144441252088
  0.5153943580256453  0.3378746623188889  0.3137710928244672
  0.0418942499696442  0.5541610141756976  0.3234209326496185
  0.0411970802036663  0.4205114657583806  0.6804929769820589
  0.8660455587767615  0.2830309643933759  0.3559325110408267
  0.9521561211305070  0.4620978587129798  0.0314757418449929
  0.7257923128265418  0.8583637119597469  0.6524228433780337
  0.2504486735628504  0.9455545230997160  0.8170500150037086
  0.5002179445874475  0.0926118801237834  0.5897926087288781
  0.9170741752710398  0.4647674348086710  0.8420413535331761
  0.2960467550374446  0.5148281118483240  0.1571800633133194
  0.5206687475618992  0.1190749374089393  0.0443217281319548
  0.1276028080685592  0.3786956691686996  0.9040463060370882
  0.1842248205445571  0.6998426777168518  0.6606126723438805
  0.9831143142978576  0.0956652357810057  0.9690411399168823
  0.3761216962990233  0.0915185380055732  0.3679747042560351
 
  0.00000000E+00  0.00000000E+00  0.00000000E+00
  0.00000000E+00  0.00000000E+00  0.00000000E+00
  0.00000000E+00  0.00000000E+00  0.00000000E+00
  0.00000000E+00  0.00000000E+00  0.00000000E+00
  0.00000000E+00  0.00000000E+00  0.00000000E+00
  0.00000000E+00  0.00000000E+00  0.00000000E+00
  0.00000000E+00  0.00000000E+00  0.00000000E+00
  0.00000000E+00  0.00000000E+00  0.00000000E+00
  0.00000000E+00  0.00000000E+00  0.00000000E+00
  0.00000000E+00  0.00000000E+00  0.00000000E+00
  0.00000000E+00  0.00000000E+00  0.00000000E+00
  0.00000000E+00  0.00000000E+00  0.00000000E+00
  0.00000000E+00  0.00000000E+00  0.00000000E+00
  0.00000000E+00  0.00000000E+00  0.00000000E+00
  0.00000000E+00  0.00000000E+00  0.00000000E+00
  0.00000000E+00  0.00000000E+00  0.00000000E+00
  0.00000000E+00  0.00000000E+00  0.00000000E+00
  0.00000000E+00  0.00000000E+00  0.00000000E+00
  0.00000000E+00  0.00000000E+00  0.00000000E+00
  0.00000000E+00  0.00000000E+00  0.00000000E+00
  0.00000000E+00  0.00000000E+00  0.00000000E+00
  0.00000000E+00  0.00000000E+00  0.00000000E+00
  0.00000000E+00  0.00000000E+00  0.00000000E+00
  0.00000000E+00  0.00000000E+00  0.00000000E+00
  0.00000000E+00  0.00000000E+00  0.00000000E+00
  0.00000000E+00  0.00000000E+00  0.00000000E+00
  0.00000000E+00  0.00000000E+00  0.00000000E+00
  0.00000000E+00  0.00000000E+00  0.00000000E+00
  0.00000000E+00  0.00000000E+00  0.00000000E+00
  0.00000000E+00  0.00000000E+00  0.00000000E+00
  0.00000000E+00  0.00000000E+00  0.00000000E+00
  0.00000000E+00  0.00000000E+00  0.00000000E+00
  0.00000000E+00  0.00000000E+00  0.00000000E+00
  0.00000000E+00  0.00000000E+00  0.00000000E+00
  0.00000000E+00  0.00000000E+00  0.00000000E+00
  0.00000000E+00  0.00000000E+00  0.00000000E+00
  0.00000000E+00  0.00000000E+00  0.00000000E+00
  0.00000000E+00  0.00000000E+00  0.00000000E+00
  0.00000000E+00  0.00000000E+00  0.00000000E+00
  0.00000000E+00  0.00000000E+00  0.00000000E+00
  0.00000000E+00  0.00000000E+00  0.00000000E+00
  0.00000000E+00  0.00000000E+00  0.00000000E+00
  0.00000000E+00  0.00000000E+00  0.00000000E+00
  0.00000000E+00  0.00000000E+00  0.00000000E+00
  0.00000000E+00  0.00000000E+00  0.00000000E+00
  0.00000000E+00  0.00000000E+00  0.00000000E+00
  0.00000000E+00  0.00000000E+00  0.00000000E+00
  0.00000000E+00  0.00000000E+00  0.00000000E+00
  0.00000000E+00  0.00000000E+00  0.00000000E+00
  0.00000000E+00  0.00000000E+00  0.00000000E+00
  0.00000000E+00  0.00000000E+00  0.00000000E+00
  0.00000000E+00  0.00000000E+00  0.00000000E+00
  0.00000000E+00  0.00000000E+00  0.00000000E+00
  0.00000000E+00  0.00000000E+00  0.00000000E+00
  0.00000000E+00  0.00000000E+00  0.00000000E+00
  0.00000000E+00  0.00000000E+00  0.00000000E+00
  0.00000000E+00  0.00000000E+00  0.00000000E+00
  0.00000000E+00  0.00000000E+00  0.00000000E+00
  0.00000000E+00  0.00000000E+00  0.00000000E+00
  0.00000000E+00  0.00000000E+00  0.00000000E+00
  0.00000000E+00  0.00000000E+00  0.00000000E+00
  0.00000000E+00  0.00000000E+00  0.00000000E+00
  0.00000000E+00  0.00000000E+00  0.00000000E+00
  0.00000000E+00  0.00000000E+00  0.00000000E+00
  0.00000000E+00  0.00000000E+00  0.00000000E+00
  0.00000000E+00  0.00000000E+00  0.00000000E+00
  0.00000000E+00  0.00000000E+00  0.00000000E+00
  0.00000000E+00  0.00000000E+00  0.00000000E+00
  0.00000000E+00  0.00000000E+00  0.00000000E+00
  0.00000000E+00  0.00000000E+00  0.00000000E+00
  0.00000000E+00  0.00000000E+00  0.00000000E+00
  0.00000000E+00  0.00000000E+00  0.00000000E+00
  0.00000000E+00  0.00000000E+00  0.00000000E+00
  0.00000000E+00  0.00000000E+00  0.00000000E+00
  0.00000000E+00  0.00000000E+00  0.00000000E+00
  0.00000000E+00  0.00000000E+00  0.00000000E+00
  0.00000000E+00  0.00000000E+00  0.00000000E+00
  0.00000000E+00  0.00000000E+00  0.00000000E+00
  0.00000000E+00  0.00000000E+00  0.00000000E+00
  0.00000000E+00  0.00000000E+00  0.00000000E+00
  0.00000000E+00  0.00000000E+00  0.00000000E+00
  0.00000000E+00  0.00000000E+00  0.00000000E+00
  0.00000000E+00  0.00000000E+00  0.00000000E+00
  0.00000000E+00  0.00000000E+00  0.00000000E+00
  0.00000000E+00  0.00000000E+00  0.00000000E+00
  0.00000000E+00  0.00000000E+00  0.00000000E+00
  0.00000000E+00  0.00000000E+00  0.00000000E+00
  0.00000000E+00  0.00000000E+00  0.00000000E+00
  0.00000000E+00  0.00000000E+00  0.00000000E+00
  0.00000000E+00  0.00000000E+00  0.00000000E+00
  0.00000000E+00  0.00000000E+00  0.00000000E+00
  0.00000000E+00  0.00000000E+00  0.00000000E+00
  0.00000000E+00  0.00000000E+00  0.00000000E+00
  0.00000000E+00  0.00000000E+00  0.00000000E+00
  0.00000000E+00  0.00000000E+00  0.00000000E+00
  0.00000000E+00  0.00000000E+00  0.00000000E+00
  0.00000000E+00  0.00000000E+00  0.00000000E+00
  0.00000000E+00  0.00000000E+00  0.00000000E+00
  0.00000000E+00  0.00000000E+00  0.00000000E+00
  0.00000000E+00  0.00000000E+00  0.00000000E+00
  0.00000000E+00  0.00000000E+00  0.00000000E+00
  0.00000000E+00  0.00000000E+00  0.00000000E+00
  0.00000000E+00  0.00000000E+00  0.00000000E+00
  0.00000000E+00  0.00000000E+00  0.00000000E+00
  0.00000000E+00  0.00000000E+00  0.00000000E+00
  0.00000000E+00  0.00000000E+00  0.00000000E+00
  0.00000000E+00  0.00000000E+00  0.00000000E+00
  0.00000000E+00  0.00000000E+00  0.00000000E+00
  0.00000000E+00  0.00000000E+00  0.00000000E+00
  0.00000000E+00  0.00000000E+00  0.00000000E+00
  0.00000000E+00  0.00000000E+00  0.00000000E+00
  0.00000000E+00  0.00000000E+00  0.00000000E+00
  0.00000000E+00  0.00000000E+00  0.00000000E+00
  0.00000000E+00  0.00000000E+00  0.00000000E+00
  0.00000000E+00  0.00000000E+00  0.00000000E+00
  0.00000000E+00  0.00000000E+00  0.00000000E+00
  0.00000000E+00  0.00000000E+00  0.00000000E+00
  0.00000000E+00  0.00000000E+00  0.00000000E+00
  0.00000000E+00  0.00000000E+00  0.00000000E+00
  0.00000000E+00  0.00000000E+00  0.00000000E+00
  0.00000000E+00  0.00000000E+00  0.00000000E+00
  0.00000000E+00  0.00000000E+00  0.00000000E+00
  0.00000000E+00  0.00000000E+00  0.00000000E+00
  0.00000000E+00  0.00000000E+00  0.00000000E+00
  0.00000000E+00  0.00000000E+00  0.00000000E+00
  0.00000000E+00  0.00000000E+00  0.00000000E+00
  0.00000000E+00  0.00000000E+00  0.00000000E+00
  0.00000000E+00  0.00000000E+00  0.00000000E+00
  0.00000000E+00  0.00000000E+00  0.00000000E+00
  0.00000000E+00  0.00000000E+00  0.00000000E+00
  0.00000000E+00  0.00000000E+00  0.00000000E+00
  0.00000000E+00  0.00000000E+00  0.00000000E+00
  0.00000000E+00  0.00000000E+00  0.00000000E+00
  0.00000000E+00  0.00000000E+00  0.00000000E+00
  0.00000000E+00  0.00000000E+00  0.00000000E+00
  0.00000000E+00  0.00000000E+00  0.00000000E+00
  0.00000000E+00  0.00000000E+00  0.00000000E+00
  0.00000000E+00  0.00000000E+00  0.00000000E+00
  0.00000000E+00  0.00000000E+00  0.00000000E+00
  0.00000000E+00  0.00000000E+00  0.00000000E+00
  0.00000000E+00  0.00000000E+00  0.00000000E+00
  0.00000000E+00  0.00000000E+00  0.00000000E+00
  0.00000000E+00  0.00000000E+00  0.00000000E+00
  0.00000000E+00  0.00000000E+00  0.00000000E+00
  0.00000000E+00  0.00000000E+00  0.00000000E+00
  0.00000000E+00  0.00000000E+00  0.00000000E+00
  0.00000000E+00  0.00000000E+00  0.00000000E+00
  0.00000000E+00  0.00000000E+00  0.00000000E+00
  0.00000000E+00  0.00000000E+00  0.00000000E+00
  0.00000000E+00  0.00000000E+00  0.00000000E+00
  0.00000000E+00  0.00000000E+00  0.00000000E+00
  0.00000000E+00  0.00000000E+00  0.00000000E+00
  0.00000000E+00  0.00000000E+00  0.00000000E+00
  0.00000000E+00  0.00000000E+00  0.00000000E+00
  0.00000000E+00  0.00000000E+00  0.00000000E+00
  0.00000000E+00  0.00000000E+00  0.00000000E+00
  0.00000000E+00  0.00000000E+00  0.00000000E+00
  0.00000000E+00  0.00000000E+00  0.00000000E+00
  0.00000000E+00  0.00000000E+00  0.00000000E+00
  0.00000000E+00  0.00000000E+00  0.00000000E+00
  0.00000000E+00  0.00000000E+00  0.00000000E+00
  0.00000000E+00  0.00000000E+00  0.00000000E+00
  0.00000000E+00  0.00000000E+00  0.00000000E+00
  0.00000000E+00  0.00000000E+00  0.00000000E+00
  0.00000000E+00  0.00000000E+00  0.00000000E+00
  0.00000000E+00  0.00000000E+00  0.00000000E+00
  0.00000000E+00  0.00000000E+00  0.00000000E+00
  0.00000000E+00  0.00000000E+00  0.00000000E+00
  0.00000000E+00  0.00000000E+00  0.00000000E+00
  0.00000000E+00  0.00000000E+00  0.00000000E+00
  0.00000000E+00  0.00000000E+00  0.00000000E+00
  0.00000000E+00  0.00000000E+00  0.00000000E+00
  0.00000000E+00  0.00000000E+00  0.00000000E+00
  0.00000000E+00  0.00000000E+00  0.00000000E+00
  0.00000000E+00  0.00000000E+00  0.00000000E+00
  0.00000000E+00  0.00000000E+00  0.00000000E+00
  0.00000000E+00  0.00000000E+00  0.00000000E+00
  0.00000000E+00  0.00000000E+00  0.00000000E+00
  0.00000000E+00  0.00000000E+00  0.00000000E+00
  0.00000000E+00  0.00000000E+00  0.00000000E+00
  0.00000000E+00  0.00000000E+00  0.00000000E+00
  0.00000000E+00  0.00000000E+00  0.00000000E+00
  0.00000000E+00  0.00000000E+00  0.00000000E+00
  0.00000000E+00  0.00000000E+00  0.00000000E+00
  0.00000000E+00  0.00000000E+00  0.00000000E+00
  0.00000000E+00  0.00000000E+00  0.00000000E+00
  0.00000000E+00  0.00000000E+00  0.00000000E+00
  0.00000000E+00  0.00000000E+00  0.00000000E+00
  0.00000000E+00  0.00000000E+00  0.00000000E+00
  0.00000000E+00  0.00000000E+00  0.00000000E+00
  0.00000000E+00  0.00000000E+00  0.00000000E+00
  0.00000000E+00  0.00000000E+00  0.00000000E+00
  0.00000000E+00  0.00000000E+00  0.00000000E+00
  0.00000000E+00  0.00000000E+00  0.00000000E+00
  0.00000000E+00  0.00000000E+00  0.00000000E+00
  0.00000000E+00  0.00000000E+00  0.00000000E+00
  0.00000000E+00  0.00000000E+00  0.00000000E+00
  0.00000000E+00  0.00000000E+00  0.00000000E+00
  0.00000000E+00  0.00000000E+00  0.00000000E+00
  0.00000000E+00  0.00000000E+00  0.00000000E+00
  0.00000000E+00  0.00000000E+00  0.00000000E+00
  0.00000000E+00  0.00000000E+00  0.00000000E+00
  0.00000000E+00  0.00000000E+00  0.00000000E+00
  0.00000000E+00  0.00000000E+00  0.00000000E+00
  0.00000000E+00  0.00000000E+00  0.00000000E+00
  0.00000000E+00  0.00000000E+00  0.00000000E+00
  0.00000000E+00  0.00000000E+00  0.00000000E+00
  0.00000000E+00  0.00000000E+00  0.00000000E+00
  0.00000000E+00  0.00000000E+00  0.00000000E+00
  0.00000000E+00  0.00000000E+00  0.00000000E+00
  0.00000000E+00  0.00000000E+00  0.00000000E+00
  0.00000000E+00  0.00000000E+00  0.00000000E+00
  0.00000000E+00  0.00000000E+00  0.00000000E+00
  0.00000000E+00  0.00000000E+00  0.00000000E+00
  0.00000000E+00  0.00000000E+00  0.00000000E+00
  0.00000000E+00  0.00000000E+00  0.00000000E+00
  0.00000000E+00  0.00000000E+00  0.00000000E+00
  0.00000000E+00  0.00000000E+00  0.00000000E+00
  0.00000000E+00  0.00000000E+00  0.00000000E+00
  0.00000000E+00  0.00000000E+00  0.00000000E+00
  0.00000000E+00  0.00000000E+00  0.00000000E+00
  0.00000000E+00  0.00000000E+00  0.00000000E+00
  0.00000000E+00  0.00000000E+00  0.00000000E+00
  0.00000000E+00  0.00000000E+00  0.00000000E+00
  0.00000000E+00  0.00000000E+00  0.00000000E+00
  0.00000000E+00  0.00000000E+00  0.00000000E+00
  0.00000000E+00  0.00000000E+00  0.00000000E+00
  0.00000000E+00  0.00000000E+00  0.00000000E+00
  0.00000000E+00  0.00000000E+00  0.00000000E+00
  0.00000000E+00  0.00000000E+00  0.00000000E+00
  0.00000000E+00  0.00000000E+00  0.00000000E+00
  0.00000000E+00  0.00000000E+00  0.00000000E+00