Amorphous Sb                            
   1.00000000000000     
    20.8656461905629627    0.0000000000000000    0.0000000000000000
     0.0000000000000000   20.8656461905629627    0.0000000000000000
     0.0000000000000000    0.0000000000000000   20.8656461905629627
   Ge   Te
   150   150
Direct
  0.2613365651552917  0.6927366526434358  0.5862723109178981
  0.9143160965495872  0.6512353167491001  0.0149822903892319
  0.1303630992020720  0.2307282321303747  0.9408911490990718
  0.3083893772290610  0.3205555278542778  0.7469368159649981
  0.4503779871671938  0.0694552555760825  0.8127894210183724
  0.0240046890250912  0.2908934304790874  0.1860228594331773
  0.0588057458040653  0.9326074096348631  0.5785617121209983
  0.0079864738614427  0.0430122243129333  0.9631540926527700
  0.8115176362004700  0.2025367697984018  0.5280656050355217
  0.9235061508614550  0.6184493636778767  0.8954191413984686
  0.5445464504213976  0.4486404265329040  0.8190826920040534
  0.1599635884310188  0.8648265761993016  0.5527933051962449
  0.7710904282945328  0.8405222252965991  0.3205064924392172
  0.2963573059790492  0.8135756555556866  0.1310414147101778
  0.3253556048557489  0.2654375713068106  0.3794015038264453
  0.4668187041834523  0.7349607748977202  0.7352647172619339
  0.8133848400292899  0.2997893721050374  0.7831613071767303
  0.0751027526434586  0.7246165526622577  0.6932349159503132
  0.7139636469214072  0.1014648983023038  0.3597495878825197
  0.9434767700920518  0.9584337056229323  0.2564082930638711
  0.5877014492999576  0.2414225984355742  0.1370140889841167
  0.6583338806895743  0.7403350395156457  0.6434964596855641
  0.2588476491959039  0.9005450174701048  0.6207944806861855
  0.2927413767938641  0.5319314604109059  0.6943588959529694
  0.3927882531566674  0.9056201731411245  0.8800139904234973
  0.2414078549445893  0.4621664127940266  0.2617232212824410
  0.0378287455191490  0.7793132510935336  0.9741741625689734
  0.8965420406085843  0.0420472447601354  0.4392498822592445
  0.5267090316150517  0.8943118411500071  0.6663289904986874
  0.1428331987904275  0.0088883400992718  0.1526765248676770
  0.4825149606479147  0.3414038082207636  0.5282575841821793
  0.0147484725994965  0.4539854178092332  0.1246431956627135
  0.3376765541389961  0.6137094631130604  0.9948218441775881
  0.9810928707150612  0.0771029500532824  0.5215466308947191
  0.2465746559407487  0.1528166526773923  0.0797984962010045
  0.4788227145206200  0.2691120935650068  0.8099600602203910
  0.7497119474189733  0.4846711830747503  0.5323549005009134
  0.0544218336348636  0.4962752708928428  0.9171593565348720
  0.1436608415675185  0.4321096516715112  0.7335476264000035
  0.9714537622356445  0.3044059613851243  0.5052157346308641
  0.2546494784434502  0.1363600985151442  0.7859764411319881
  0.1064602347253453  0.2237696078984213  0.7324649409384624
  0.1052406615504992  0.0133222040818793  0.6642769128057632
  0.7954288474447783  0.5923743980100518  0.6963967150873649
  0.7776240619149057  0.8324569552521024  0.8752122801129835
  0.4277794897050454  0.7912375150829601  0.9985653415905966
  0.4501892585136816  0.7612930552631226  0.5152576396802671
  0.1737534571100919  0.5447281043381994  0.0467664621143866
  0.4875466868616017  0.2784187774391274  0.9389032383046123
  0.1330642506072333  0.5344456239558930  0.2656619045945150
  0.1232155636536836  0.7201774943128953  0.1231492060607273
  0.2673273373065169  0.0165746359400119  0.7443707665497806
  0.2496445462230041  0.9527641146360151  0.9939490821458792
  0.0093839681208575  0.9866581855299086  0.7716783121708557
  0.3657634704757987  0.4303283102559111  0.0541899288806818
  0.4264355801461159  0.9110646441908126  0.0001091528708042
  0.0404531464885098  0.4756522904482579  0.3239291614456915
  0.9288795081842729  0.0602102526455378  0.3228765635912896
  0.5659624488675680  0.5008902791814547  0.5068667232287621
  0.7237107022924308  0.6843025560363863  0.9527224568476196
  0.6587660170011046  0.5042263118719209  0.8175178482633465
  0.6771543758638898  0.1026228971434707  0.5819011414243203
  0.5920043209808129  0.3291971897698813  0.6758735944431719
  0.0318650531963162  0.7459402193295859  0.4538992828373928
  0.7476964819068166  0.1971586793371726  0.0165986357896310
  0.8298038379948107  0.4334460778962673  0.8047337472057172
  0.3384250183910117  0.9244009328376266  0.0866348826242115
  0.9531919908139590  0.5736621979940620  0.6082981515876391
  0.8440901225166186  0.9338602793882887  0.8808299455773757
  0.8968880659398142  0.2620316840749653  0.6006425915155709
  0.9349631877127766  0.9022338968212229  0.5827830865719354
  0.1737638670843324  0.3400270591280672  0.5627186465859897
  0.5530579120197778  0.0111879400908343  0.2983056695039580
  0.1087732489972077  0.2973668168192131  0.8387718153815030
  0.9473534724678115  0.7840720677920260  0.5407202830333001
  0.3664500678785562  0.4054758321106842  0.2488434831922240
  0.8471905776437072  0.7598020514966755  0.8039089980850729
 -0.0023144541209679  0.3015297023526440  0.0169664349644044
  0.2969216497285238  0.5106238226445605  0.5124234829515771
  0.3742829327315843  0.5722067303438400  0.1553949946593016
  0.6694095282539257  0.8175861408748422  0.2497710115240494
  0.2289661022699406  0.9464802029210390  0.3744230708786668
  0.7866882046957520  0.0142804862174166  0.8068616318620275
  0.4096424220399852  0.2538870810837405  0.0314206521100534
  0.1601134696579383  0.2054386523909099  0.2348014471362798
  0.9196230241399849  0.7007571218392357  0.1267399209870880
  0.7377672522223182  0.8458312023739781  0.5233618509793658
  0.1739380658135165  0.7701268924613696  0.8943726271368487
  0.7570612863336315  0.0132150760936101  0.5478314370752544
  0.3138241086756859  0.0117961531556117  0.4430124214631644
  0.8878230328048039  0.0696293337149177  0.9621561448676890
  0.5521136450987852  0.1978844538714893  0.3566209574817801
  0.5386012014027042  0.1886426731025248  0.6520674016205278
  0.8488920790317590  0.1950518957605986  0.3864578946073222
  0.6103073084108355  0.9449583466921729  0.9141488610235258
  0.3980594416670289  0.1648597225503949  0.5286177315151970
  0.9432960861039282  0.4058387364175856  0.6937139977344656
  0.6812389773908344  0.9006145360749436  0.1554215921871084
  0.0387762372697657  0.1829248496313517  0.0075531511460716
  0.5662330040665726  0.1188529851429820  0.9486046199113345
  0.7697397675712255  0.9616509738211927  0.3461794995751805
  0.3242456429702953  0.8923089516794951  0.7676276778280018
  0.9507686657395653  0.0984402553200818  0.7361524942704378
  0.8624102375769357  0.1189129344517216  0.8484217699022627
  0.3299426986593800  0.7884838844497948  0.4811331004065107
  0.6812898667012833  0.7769853307323175  0.3993778662927324
  0.4966151396701700  0.5790501980936184  0.3080670784441308
  0.4053958876871106  0.8830725216388925  0.2813560589897951
  0.0282130293894995  0.1359011780168579  0.3076159130331034
  0.3917038621317709  0.6055903588196876  0.6261544766823515
  0.6212816215467882  0.0346918050191355  0.7224234752302838
  0.0929789478441388  0.2118470374281302  0.1237531362091446
  0.4684982156514119  0.7084794141677970  0.0789646881422652
  0.8295618782952958  0.0524710266780677  0.1260770479992566
  0.3419961274965018  0.0330877190543780  0.2679343636821619
  0.2514942544953703  0.1666229569782685  0.5079942995649804
  0.5402394870684348  0.9465983537543859  0.0205461073905698
  0.0337629225107902  0.3806761511974599  0.4074002713704145
  0.4989527385250159  0.7284160340435142  0.3262370720412812
  0.1239278829095771  0.2027888354795143  0.3772036212193667
  0.2328276420051077  0.8078340514685232  0.7893388797004371
  0.7922463970377202  0.0996514416210350  0.4591827888983331
  0.1832585889660740  0.6137470190164308  0.4426806424731294
  0.8032891440992850  0.6209714993270101  0.3706003763500123
  0.8549971933613613  0.2239186824010078  0.1975682794417745
  0.1791160303742155  0.3480232996347345  0.1426950194891681
  0.4225579897587716  0.2898905323250289  0.2415048600924225
  0.1985147078365871  0.2657518167288818  0.0437735716871750
  0.6795246036322690  0.3644045547338904  0.9539570217601829
  0.7140890434504636  0.8040354866122036  0.9775899670345302
  0.9461272979966188  0.0129226818245412  0.1465700251454272
  0.8996671467353006  0.8619029135879279  0.0651408886065160
  0.6745792495271576  0.0415244448749342  0.0779007090694585
  0.0211628864422976  0.8855656133046276  0.4292268499847470
  0.4982002714916659  0.3760200646152717  0.3992287344679615
  0.4043181665795352  0.1065774135369485  0.9237136039397015
  0.4068314821190902  0.1622957581685559  0.2407432009426853
  0.8395393625523435  0.7460273528300121  0.3590920853586891
  0.7842972975565877  0.8845153409804155  0.6317163233841830
  0.0901231713063503  0.3857124650804693  0.2253359110472727
  0.6376198196479906  0.7688842257001999  0.5235934556155768
  0.9003883255853528  0.4483410279578066  0.4002858778957523
  0.3852470502175938  0.5529989764012228  0.3559664283745139
  0.1344862028965469  0.9790324935855158  0.7887554638568658
  0.7837612293130987  0.4640513081253930  0.2589250044296555
  0.2025260148768923  0.5922123181531443  0.7593910923836851
  0.4325009040713781  0.4541492876108414  0.6840962782440050
  0.0545911584055550  0.6271778048733321  0.8601127424043982
  0.8433847052729970  0.9545412681078688  0.7141711702656659
  0.6836649620394322  0.3294057611255818  0.1548133315596679
  0.0514128970828827  0.6491279808647753 -0.0011384053053517
  0.0428718336023008  0.0991515188741730  0.1741386509199980
  0.0525025213817997  0.7591666840508627  0.8392451707686668
  0.6342456020701478  0.6939474130047766  0.2265599477042535
  0.2147295275909444  0.3701441959632414  0.8285891690103819
  0.9213974010963897  0.2443127887857039  0.7273444573665756
  0.0840993801003097  0.3345171860409235  0.6592884427934185
  0.7921349313259105  0.6002941102806826  0.2401132573531941
  0.6628636245493036  0.5861804529636027  0.5218735457711099
  0.5647613252114128  0.4877319152959709  0.3767060867288117
  0.3698604795927281  0.5374738876745977  0.8366182828851816
  0.4133621992047922 -0.0060352358376035  0.1655904963664748
  0.8717277143108431  0.1576574253639300  0.0543108776916873
  0.3310129584567858  0.6788988246899132  0.8807939819253199
  0.6087540458539569  0.5879816595475095  0.0828387729758829
  0.7625908116709111  0.2992480378755948  0.2587559811657555
  0.4566030308498740  0.7368555484254681  0.8870225921175029
  0.0843416125173227  0.5710967181289152  0.1510742217182514
  0.5428045447595127  0.0662358473000162  0.0714566701099298
  0.5181815441031352  0.6786210010416122  0.4456186467675513
  0.3511772707006900  0.9135245349218708  0.5212224141400045
  0.0239614033423522  0.6127479414805178  0.4847636880695476
  0.9658751839353469  0.7603403487836503  0.3381464461949749
  0.4026168199522216  0.4021411370724182  0.8146225779101196
  0.0474429788675372  0.8908751193104522  0.2985928950866880
  0.5478698940567820  0.1515025097024149  0.7919109680057934
  0.4054157146449718  0.1770852013201047  0.6645714493522867
  0.6181765586419156  0.6109953014702872  0.9480768593419018
  0.5983746438196536  0.4248999706139673  0.0400487223448995
  0.5367901159229098  0.1343980586623150  0.2366990045397160
  0.6346859137385871  0.6310018688880453  0.8029781466425672
  0.2294945958546236  0.1004953643471093  0.1965090998341523
  0.5964039712041125  0.7280973898070016  0.0918163836187523
  0.2483484222778425  0.1546271288198193  0.3731032979658039
  0.6990154511730334  0.9159266282356062  0.8098055975990915
  0.2994295630436720  0.7974328664029635  0.9993728941013243
  0.7685050794769367  0.2075297296994797  0.8644562152967168
  0.1710884077125153  0.8466267172403731  0.1201744513029774
  0.1353897353667151  0.7379383361474822  0.5676274175451653
  0.2454172249844437  0.4582776998766729  0.1270594480081024
  0.5556346778531911  0.8765135136510451  0.1273505475706888
  0.9708854132392416  0.1993131305492620  0.8780317729068551
  0.0968495185354635  0.4425630339684192  0.5063825222170028
  0.6990138754964612  0.2347443152586673  0.3752400049372523
  0.7817850453144064  0.7620206467188174  0.6810807170917845
  0.4623748836240476  0.5911137837141538  0.0285472790113820
  0.1741807833771272  0.0589726861262118  0.0246360239903857
  0.2789995619367210  0.9125368777859577  0.2606366442100984
  0.9184677305504770  0.5331251688565845  0.7370583421170379
  0.0355525431480333  0.4064624064520480  0.8196098668855395
  0.8277330990299394  0.1035416059528123  0.2525875750410367
  0.6717327446644396  0.6518243194514385  0.3621885101286048
  0.2094762387512132  0.5702929550708999  0.5930305453045241
  0.2655125987781989  0.2792804976747080  0.2092798450012186
  0.4675839418982441  0.4911344901062851  0.2146598514957841
  0.7507582021790685  0.4760044538618355  0.9058076011873026
  0.6905235664824516  0.9475324709300565  0.4542474773982849
  0.1300190727447237  0.2200456146337768  0.5121812490142985
  0.7367380775839915  0.2852819773670401  0.6792995904780488
  0.4177445630617968  0.1707256037968384  0.3723740311481887
  0.2705678762592291  0.7001353710838343  0.7204653066240040
  0.2931958987108570  0.4979124766399264  0.9612946344787990
  0.3997441942017640  0.8343716217918352  0.6777131374732441
  0.5940663237262729  0.0696681699883013  0.4088290472911228
  0.9228146423632001  0.4903403587501353  0.9320109778860217
  0.2255297538197596  0.0289272454493524  0.6150291193523704
  0.1800994064957675  0.8393351317208727  0.4253371394052783
  0.3229152375107913  0.6234687217807061  0.4484046935260999
  0.7137667969315874  0.1269533405341906  0.7023060140661963
  0.8275268859067294  0.3714969939541869  0.6192216360280740
  0.7772703238449454  0.6422290345961449  0.0613895423388343
  0.4579678075869123  0.5827177411738369  0.7405540401385274
  0.6821257716511736  0.2222793783879592  0.5246426825942687
  0.9099189218472173  0.3090065802236465  0.9246172120356535
  0.9770877680682660  0.1813047874099649  0.4426981361820470
  0.6112328103687156  0.3826327137341193  0.5309813191185602
  0.1401571371002056  0.8672362283399097  0.7191897714402894
  0.9258217402164854  0.3359827840470969  0.1177008765831299
  0.1296336296900434  0.0060649793784426  0.3084808825343379
  0.4659589188926890  0.3221329657014320  0.1236404273267611
  0.9128493561357383  0.5211560434160594  0.0691369371753339
  0.7008284215455606  0.1581043387534386  0.1358481604739133
  0.0778572828732962  0.0034931519926541  0.4712041179856406
  0.6518040051416708  0.6124856518579018  0.6633426936703714
  0.3092953847608460  0.3245180828556573  0.9940607428660659
  0.8861024597399024  0.0464244232632491  0.6362096399425692
  0.0121064562255620  0.9507221757777835  0.0571862536158297
  0.7707596282711930  0.4795576664627215  0.3966436188747270
  0.5198590288664313  0.2165847154583373  0.5111725488408088
  0.6910955180975807  0.0742405552281542  0.9474252904898216
  0.2490565718442238  0.6462023931240718  0.0833569064523250
  0.9503015465677878  0.7093693119204640  0.6475743113783099
  0.5995462884432878  0.3286225840666052  0.8144676446966592
  0.5554575331395987  0.0639089542467309  0.6076014596878454
  0.3418538783705373  0.2006926936991628  0.8556231627514312
  0.3762676018429820  0.7769196655474165  0.3574398437973281
  0.1454263334069942  0.1305828475208481  0.8548992027389023
  0.4131535014606136  0.6937521633675909  0.1906306326082118
  0.5408920761095282  0.3193421428998844  0.2868657969172473
  0.0461380777023852  0.1328072349715986  0.6452986836909269
  0.1707572489824221  0.7533862509251247  0.2405459318669760
  0.0795987969998873  0.4069403214794902  0.0157304096444721
  0.9579580860528708  0.4378395778205032  0.5607535663101827
  0.5658174567826592  0.4592677709223429  0.6871199774995194
  0.3747844387524740  0.1359474471107248  0.0681410123940892
  0.9244676608299883  0.5952012886302147  0.2030531527920363
  0.4882786348762337  0.4072179423211721  0.9600583451021059
  0.4412994838180802  0.5055822883401081  0.5480827650893092
  0.9269402652633710  0.4373683169159134  0.2682679719047469
  0.8005039683813092  0.6448990862898677  0.8513358226569515
  0.0809321594715914  0.5937595580717340  0.7182135341801116
  0.3746704118024128  0.4233081392236382  0.3784276719851230
  0.8468955030849542  0.3097829226209002  0.4542196808043889
  0.6657497945709241  0.9378621473544417  0.6376069536372514
  0.5401732724379454  0.8550096586944216  0.5360682997061288
  0.5801822486236362  0.8398661460521514  0.3435296246717279
  0.4193794585630692  0.9825358089647031  0.3675763767585072
  0.8442022791850765  0.8877996342885823  0.2149064448977657
  0.1874830560418220  0.6166437827040656  0.8837872813730440
  0.5963278170157741  0.2409293230231888 -0.0011919039316437
  0.8912736470208782  0.9153896340218332  0.4386309369070215
  0.4938577098090284  0.6878368107605436  0.6129655588068509
  0.3146562996219581  0.0137566157514948  0.8940965758881355
  0.5064612916071399  0.9502754621174141  0.8256773575243871
  0.1368195705954663  0.3304506910283381  0.3396854740226583
  0.0048729369566306  0.7907957983868497  0.1386817740134597
  0.8055969104051619  0.7597761081311333  0.1273237394881138
  0.7386506857451288  0.4732757095433580  0.7157202809789579
  0.2279674490098840  0.2175612492803045  0.6882125357036593
  0.9758185715966085  0.9375153556582988  0.8870450946770947
  0.9508901061924947  0.8806658463571835  0.7194952832469637
  0.4526135875340049  0.3179889431182638  0.6612090938630738
  0.5963495754755520  0.8143601323400457  0.9231197670052894
  0.2025028688659479  0.4845134422897732  0.4172943784436705
  0.6811245400162891  0.4563510533643910  0.1794102757306195
  0.9559821695597863  0.2467533852366066  0.2852563220159970
  0.9591147576853641  0.5696482129493499  0.3754618241373379
  0.2968206901056787  0.5819626066974872  0.2671870508165127
  0.1248733610928162  0.6512051304373951  0.3254659269239563
  0.2717242459083528  0.4086951740530507  0.6526506733177529
  0.8273567253606846  0.7532398122245081  0.4903691078486422
  0.9048495941055090  0.7795764600289274  0.9589087534187595
  0.7652532450082934  0.3286389426278007  0.0508153254907903
  0.8181183975691494  0.9653320159657406  0.0034151030887827
  0.8278177071776720  0.5879288247459104  0.5650849960184826
  0.3293631506209029  0.2772431425526799  0.5139322372440824
  0.3959916255537896  0.0379740259593011  0.6966749177594256
  0.1551961745171441  0.9067848957676212  0.9121512469816766
  0.5881070840023385  0.7969219853916077  0.7357489662256030
  0.6775662190937798  0.9960477063976815  0.2472670825016700
 
  0.00000000E+00  0.00000000E+00  0.00000000E+00
  0.00000000E+00  0.00000000E+00  0.00000000E+00
  0.00000000E+00  0.00000000E+00  0.00000000E+00
  0.00000000E+00  0.00000000E+00  0.00000000E+00
  0.00000000E+00  0.00000000E+00  0.00000000E+00
  0.00000000E+00  0.00000000E+00  0.00000000E+00
  0.00000000E+00  0.00000000E+00  0.00000000E+00
  0.00000000E+00  0.00000000E+00  0.00000000E+00
  0.00000000E+00  0.00000000E+00  0.00000000E+00
  0.00000000E+00  0.00000000E+00  0.00000000E+00
  0.00000000E+00  0.00000000E+00  0.00000000E+00
  0.00000000E+00  0.00000000E+00  0.00000000E+00
  0.00000000E+00  0.00000000E+00  0.00000000E+00
  0.00000000E+00  0.00000000E+00  0.00000000E+00
  0.00000000E+00  0.00000000E+00  0.00000000E+00
  0.00000000E+00  0.00000000E+00  0.00000000E+00
  0.00000000E+00  0.00000000E+00  0.00000000E+00
  0.00000000E+00  0.00000000E+00  0.00000000E+00
  0.00000000E+00  0.00000000E+00  0.00000000E+00
  0.00000000E+00  0.00000000E+00  0.00000000E+00
  0.00000000E+00  0.00000000E+00  0.00000000E+00
  0.00000000E+00  0.00000000E+00  0.00000000E+00
  0.00000000E+00  0.00000000E+00  0.00000000E+00
  0.00000000E+00  0.00000000E+00  0.00000000E+00
  0.00000000E+00  0.00000000E+00  0.00000000E+00
  0.00000000E+00  0.00000000E+00  0.00000000E+00
  0.00000000E+00  0.00000000E+00  0.00000000E+00
  0.00000000E+00  0.00000000E+00  0.00000000E+00
  0.00000000E+00  0.00000000E+00  0.00000000E+00
  0.00000000E+00  0.00000000E+00  0.00000000E+00
  0.00000000E+00  0.00000000E+00  0.00000000E+00
  0.00000000E+00  0.00000000E+00  0.00000000E+00
  0.00000000E+00  0.00000000E+00  0.00000000E+00
  0.00000000E+00  0.00000000E+00  0.00000000E+00
  0.00000000E+00  0.00000000E+00  0.00000000E+00
  0.00000000E+00  0.00000000E+00  0.00000000E+00
  0.00000000E+00  0.00000000E+00  0.00000000E+00
  0.00000000E+00  0.00000000E+00  0.00000000E+00
  0.00000000E+00  0.00000000E+00  0.00000000E+00
  0.00000000E+00  0.00000000E+00  0.00000000E+00
  0.00000000E+00  0.00000000E+00  0.00000000E+00
  0.00000000E+00  0.00000000E+00  0.00000000E+00
  0.00000000E+00  0.00000000E+00  0.00000000E+00
  0.00000000E+00  0.00000000E+00  0.00000000E+00
  0.00000000E+00  0.00000000E+00  0.00000000E+00
  0.00000000E+00  0.00000000E+00  0.00000000E+00
  0.00000000E+00  0.00000000E+00  0.00000000E+00
  0.00000000E+00  0.00000000E+00  0.00000000E+00
  0.00000000E+00  0.00000000E+00  0.00000000E+00
  0.00000000E+00  0.00000000E+00  0.00000000E+00
  0.00000000E+00  0.00000000E+00  0.00000000E+00
  0.00000000E+00  0.00000000E+00  0.00000000E+00
  0.00000000E+00  0.00000000E+00  0.00000000E+00
  0.00000000E+00  0.00000000E+00  0.00000000E+00
  0.00000000E+00  0.00000000E+00  0.00000000E+00
  0.00000000E+00  0.00000000E+00  0.00000000E+00
  0.00000000E+00  0.00000000E+00  0.00000000E+00
  0.00000000E+00  0.00000000E+00  0.00000000E+00
  0.00000000E+00  0.00000000E+00  0.00000000E+00
  0.00000000E+00  0.00000000E+00  0.00000000E+00
  0.00000000E+00  0.00000000E+00  0.00000000E+00
  0.00000000E+00  0.00000000E+00  0.00000000E+00
  0.00000000E+00  0.00000000E+00  0.00000000E+00
  0.00000000E+00  0.00000000E+00  0.00000000E+00
  0.00000000E+00  0.00000000E+00  0.00000000E+00
  0.00000000E+00  0.00000000E+00  0.00000000E+00
  0.00000000E+00  0.00000000E+00  0.00000000E+00
  0.00000000E+00  0.00000000E+00  0.00000000E+00
  0.00000000E+00  0.00000000E+00  0.00000000E+00
  0.00000000E+00  0.00000000E+00  0.00000000E+00
  0.00000000E+00  0.00000000E+00  0.00000000E+00
  0.00000000E+00  0.00000000E+00  0.00000000E+00
  0.00000000E+00  0.00000000E+00  0.00000000E+00
  0.00000000E+00  0.00000000E+00  0.00000000E+00
  0.00000000E+00  0.00000000E+00  0.00000000E+00
  0.00000000E+00  0.00000000E+00  0.00000000E+00
  0.00000000E+00  0.00000000E+00  0.00000000E+00
  0.00000000E+00  0.00000000E+00  0.00000000E+00
  0.00000000E+00  0.00000000E+00  0.00000000E+00
  0.00000000E+00  0.00000000E+00  0.00000000E+00
  0.00000000E+00  0.00000000E+00  0.00000000E+00
  0.00000000E+00  0.00000000E+00  0.00000000E+00
  0.00000000E+00  0.00000000E+00  0.00000000E+00
  0.00000000E+00  0.00000000E+00  0.00000000E+00
  0.00000000E+00  0.00000000E+00  0.00000000E+00
  0.00000000E+00  0.00000000E+00  0.00000000E+00
  0.00000000E+00  0.00000000E+00  0.00000000E+00
  0.00000000E+00  0.00000000E+00  0.00000000E+00
  0.00000000E+00  0.00000000E+00  0.00000000E+00
  0.00000000E+00  0.00000000E+00  0.00000000E+00
  0.00000000E+00  0.00000000E+00  0.00000000E+00
  0.00000000E+00  0.00000000E+00  0.00000000E+00
  0.00000000E+00  0.00000000E+00  0.00000000E+00
  0.00000000E+00  0.00000000E+00  0.00000000E+00
  0.00000000E+00  0.00000000E+00  0.00000000E+00
  0.00000000E+00  0.00000000E+00  0.00000000E+00
  0.00000000E+00  0.00000000E+00  0.00000000E+00
  0.00000000E+00  0.00000000E+00  0.00000000E+00
  0.00000000E+00  0.00000000E+00  0.00000000E+00
  0.00000000E+00  0.00000000E+00  0.00000000E+00
  0.00000000E+00  0.00000000E+00  0.00000000E+00
  0.00000000E+00  0.00000000E+00  0.00000000E+00
  0.00000000E+00  0.00000000E+00  0.00000000E+00
  0.00000000E+00  0.00000000E+00  0.00000000E+00
  0.00000000E+00  0.00000000E+00  0.00000000E+00
  0.00000000E+00  0.00000000E+00  0.00000000E+00
  0.00000000E+00  0.00000000E+00  0.00000000E+00
  0.00000000E+00  0.00000000E+00  0.00000000E+00
  0.00000000E+00  0.00000000E+00  0.00000000E+00
  0.00000000E+00  0.00000000E+00  0.00000000E+00
  0.00000000E+00  0.00000000E+00  0.00000000E+00
  0.00000000E+00  0.00000000E+00  0.00000000E+00
  0.00000000E+00  0.00000000E+00  0.00000000E+00
  0.00000000E+00  0.00000000E+00  0.00000000E+00
  0.00000000E+00  0.00000000E+00  0.00000000E+00
  0.00000000E+00  0.00000000E+00  0.00000000E+00
  0.00000000E+00  0.00000000E+00  0.00000000E+00
  0.00000000E+00  0.00000000E+00  0.00000000E+00
  0.00000000E+00  0.00000000E+00  0.00000000E+00
  0.00000000E+00  0.00000000E+00  0.00000000E+00
  0.00000000E+00  0.00000000E+00  0.00000000E+00
  0.00000000E+00  0.00000000E+00  0.00000000E+00
  0.00000000E+00  0.00000000E+00  0.00000000E+00
  0.00000000E+00  0.00000000E+00  0.00000000E+00
  0.00000000E+00  0.00000000E+00  0.00000000E+00
  0.00000000E+00  0.00000000E+00  0.00000000E+00
  0.00000000E+00  0.00000000E+00  0.00000000E+00
  0.00000000E+00  0.00000000E+00  0.00000000E+00
  0.00000000E+00  0.00000000E+00  0.00000000E+00
  0.00000000E+00  0.00000000E+00  0.00000000E+00
  0.00000000E+00  0.00000000E+00  0.00000000E+00
  0.00000000E+00  0.00000000E+00  0.00000000E+00
  0.00000000E+00  0.00000000E+00  0.00000000E+00
  0.00000000E+00  0.00000000E+00  0.00000000E+00
  0.00000000E+00  0.00000000E+00  0.00000000E+00
  0.00000000E+00  0.00000000E+00  0.00000000E+00
  0.00000000E+00  0.00000000E+00  0.00000000E+00
  0.00000000E+00  0.00000000E+00  0.00000000E+00
  0.00000000E+00  0.00000000E+00  0.00000000E+00
  0.00000000E+00  0.00000000E+00  0.00000000E+00
  0.00000000E+00  0.00000000E+00  0.00000000E+00
  0.00000000E+00  0.00000000E+00  0.00000000E+00
  0.00000000E+00  0.00000000E+00  0.00000000E+00
  0.00000000E+00  0.00000000E+00  0.00000000E+00
  0.00000000E+00  0.00000000E+00  0.00000000E+00
  0.00000000E+00  0.00000000E+00  0.00000000E+00
  0.00000000E+00  0.00000000E+00  0.00000000E+00
  0.00000000E+00  0.00000000E+00  0.00000000E+00
  0.00000000E+00  0.00000000E+00  0.00000000E+00
  0.00000000E+00  0.00000000E+00  0.00000000E+00
  0.00000000E+00  0.00000000E+00  0.00000000E+00
  0.00000000E+00  0.00000000E+00  0.00000000E+00
  0.00000000E+00  0.00000000E+00  0.00000000E+00
  0.00000000E+00  0.00000000E+00  0.00000000E+00
  0.00000000E+00  0.00000000E+00  0.00000000E+00
  0.00000000E+00  0.00000000E+00  0.00000000E+00
  0.00000000E+00  0.00000000E+00  0.00000000E+00
  0.00000000E+00  0.00000000E+00  0.00000000E+00
  0.00000000E+00  0.00000000E+00  0.00000000E+00
  0.00000000E+00  0.00000000E+00  0.00000000E+00
  0.00000000E+00  0.00000000E+00  0.00000000E+00
  0.00000000E+00  0.00000000E+00  0.00000000E+00
  0.00000000E+00  0.00000000E+00  0.00000000E+00
  0.00000000E+00  0.00000000E+00  0.00000000E+00
  0.00000000E+00  0.00000000E+00  0.00000000E+00
  0.00000000E+00  0.00000000E+00  0.00000000E+00
  0.00000000E+00  0.00000000E+00  0.00000000E+00
  0.00000000E+00  0.00000000E+00  0.00000000E+00
  0.00000000E+00  0.00000000E+00  0.00000000E+00
  0.00000000E+00  0.00000000E+00  0.00000000E+00
  0.00000000E+00  0.00000000E+00  0.00000000E+00
  0.00000000E+00  0.00000000E+00  0.00000000E+00
  0.00000000E+00  0.00000000E+00  0.00000000E+00
  0.00000000E+00  0.00000000E+00  0.00000000E+00
  0.00000000E+00  0.00000000E+00  0.00000000E+00
  0.00000000E+00  0.00000000E+00  0.00000000E+00
  0.00000000E+00  0.00000000E+00  0.00000000E+00
  0.00000000E+00  0.00000000E+00  0.00000000E+00
  0.00000000E+00  0.00000000E+00  0.00000000E+00
  0.00000000E+00  0.00000000E+00  0.00000000E+00
  0.00000000E+00  0.00000000E+00  0.00000000E+00
  0.00000000E+00  0.00000000E+00  0.00000000E+00
  0.00000000E+00  0.00000000E+00  0.00000000E+00
  0.00000000E+00  0.00000000E+00  0.00000000E+00
  0.00000000E+00  0.00000000E+00  0.00000000E+00
  0.00000000E+00  0.00000000E+00  0.00000000E+00
  0.00000000E+00  0.00000000E+00  0.00000000E+00
  0.00000000E+00  0.00000000E+00  0.00000000E+00
  0.00000000E+00  0.00000000E+00  0.00000000E+00
  0.00000000E+00  0.00000000E+00  0.00000000E+00
  0.00000000E+00  0.00000000E+00  0.00000000E+00
  0.00000000E+00  0.00000000E+00  0.00000000E+00
  0.00000000E+00  0.00000000E+00  0.00000000E+00
  0.00000000E+00  0.00000000E+00  0.00000000E+00
  0.00000000E+00  0.00000000E+00  0.00000000E+00
  0.00000000E+00  0.00000000E+00  0.00000000E+00
  0.00000000E+00  0.00000000E+00  0.00000000E+00
  0.00000000E+00  0.00000000E+00  0.00000000E+00
  0.00000000E+00  0.00000000E+00  0.00000000E+00
  0.00000000E+00  0.00000000E+00  0.00000000E+00
  0.00000000E+00  0.00000000E+00  0.00000000E+00
  0.00000000E+00  0.00000000E+00  0.00000000E+00
  0.00000000E+00  0.00000000E+00  0.00000000E+00
  0.00000000E+00  0.00000000E+00  0.00000000E+00
  0.00000000E+00  0.00000000E+00  0.00000000E+00
  0.00000000E+00  0.00000000E+00  0.00000000E+00
  0.00000000E+00  0.00000000E+00  0.00000000E+00
  0.00000000E+00  0.00000000E+00  0.00000000E+00
  0.00000000E+00  0.00000000E+00  0.00000000E+00
  0.00000000E+00  0.00000000E+00  0.00000000E+00
  0.00000000E+00  0.00000000E+00  0.00000000E+00
  0.00000000E+00  0.00000000E+00  0.00000000E+00
  0.00000000E+00  0.00000000E+00  0.00000000E+00
  0.00000000E+00  0.00000000E+00  0.00000000E+00
  0.00000000E+00  0.00000000E+00  0.00000000E+00
  0.00000000E+00  0.00000000E+00  0.00000000E+00
  0.00000000E+00  0.00000000E+00  0.00000000E+00
  0.00000000E+00  0.00000000E+00  0.00000000E+00
  0.00000000E+00  0.00000000E+00  0.00000000E+00
  0.00000000E+00  0.00000000E+00  0.00000000E+00
  0.00000000E+00  0.00000000E+00  0.00000000E+00
  0.00000000E+00  0.00000000E+00  0.00000000E+00
  0.00000000E+00  0.00000000E+00  0.00000000E+00
  0.00000000E+00  0.00000000E+00  0.00000000E+00
  0.00000000E+00  0.00000000E+00  0.00000000E+00
  0.00000000E+00  0.00000000E+00  0.00000000E+00
  0.00000000E+00  0.00000000E+00  0.00000000E+00
  0.00000000E+00  0.00000000E+00  0.00000000E+00
  0.00000000E+00  0.00000000E+00  0.00000000E+00
  0.00000000E+00  0.00000000E+00  0.00000000E+00
  0.00000000E+00  0.00000000E+00  0.00000000E+00
  0.00000000E+00  0.00000000E+00  0.00000000E+00