Ge Sb Te                                
   1.00000000000000     
    22.0306287054201064    0.0000000000000000    0.0000000000000000
     0.0000000000000000   22.0306287054201064    0.0000000000000000
     0.0000000000000000    0.0000000000000000   22.0306287054201064
   Ge   Sb   Te
    66    66   165
Direct
  0.7504795090848636  0.7697402221083525  0.3252810444970157
  0.5986162310079874  0.2282843477883821  0.8776873787145448
  0.1470889505750409  0.0029373355575886  0.3967876265853574
  0.5604552177598506  0.0098300186419891  0.6064551634694705
  0.4238269851417812  0.3033262874423976  0.5647519749209858
  0.3656873657581990  0.3238611414543873  0.7396096300052264
  0.6804881694505153  0.5225000075810027  0.8495834808479517
  0.4402777263853315  0.4446411596401806  0.7116245516161069
  0.1800911528985082  0.4220390551024418  0.8308339754027295
  0.7223019074918002  0.5947813242864768  0.6185494779928835
  0.8571505471162059  0.4731913468822431  0.1430243816786036
  0.3182075140339908  0.1472639674716823  0.7983985722638942
  0.2019922215119392  0.3113982167796297  0.2807929195033856
  0.7930083329990396  0.8688167949486729  0.1355011580789791
  0.0717222213704850  0.6818217166362278  0.2407722117095576
  0.7312417711944167  0.9598333409877353  0.5243835142581248
  0.5279252735532769  0.4910991734439561  0.4370993132670422
  0.2471527969879058  0.4146522847232125  0.9541941922960729
  0.3822195447089086  0.6265064386363629  0.7585457006381997
  0.7804228399974374  0.9360159292520617  0.3624466963324745
  0.4458089349966872  0.3538093369537479  0.0340645999171064
  0.2803536381163483  0.6292569338640850  0.0301732977440889
  0.0734535114732210  0.7553658929295118  0.0922542098443635
  0.9778266174199417  0.0005490065150878  0.4222748955327225
  0.5998805668868701  0.1375505456038021  0.4572209179847925
  0.4463765781747288  0.5024888113948290  0.3513295154496083
  0.9235051237531635  0.2326210429815706  0.2770171854929704
  0.1754544281756845  0.3058488303588357  0.7936188066984201
  0.6601364823974981  0.8378996220907351  0.6744076235649329
  0.1189550744165738  0.8458559179991509  0.9133853588433731
  0.7576568758928842  0.7014342057411518  0.0732713308707944
  0.4711400589425685  0.2359263493985019  0.1835422033243093
  0.8625241097430000  0.6443619622296733  0.2204209838036062
  0.2883593254003531  0.9775617219425959  0.7635753203753712
  0.2745553663391765  0.0585081575654291  0.0637032525891195
  0.5403282028633587  0.3503365145360262  0.7388364720131252
  0.2012680600678365  0.0772620222760280  0.5498821753816425
  0.6761812240526508  0.6463607959939001  0.0060684111098631
  0.2759015906266751  0.7522465311073977  0.7396810505262101
  0.2333488258744322  0.4995662143842121  0.3604351964098414
  0.6341450776336813  0.4113113159504722  0.0578483769182397
  0.4229989774297493  0.2235302757972014  0.4136592311009208
  0.7838161217836396  0.5225307996464981  0.4282430444361172
  0.7245742384438307  0.5350357180929591  0.7336393914724624
  0.9842438664049562  0.9561504577956050  0.6412325031165685
  0.9134694180831056  0.2428084957875814  0.5206948318174055
  0.9735472882288921  0.5308013126124627  0.7473078860182008
  0.9397779480557390  0.2127516792533712  0.9066453085650876
  0.0013358489768448  0.4975113209499127  0.0939289708016695
  0.9650800049778508  0.7848486310518015  0.1285774570295219
  0.5447093251448255  0.1386456276106166  0.6933279918588280
  0.0527773739202707  0.7395417493810336  0.3421201215091583
  0.8490261997962589  0.7829782533325147  0.3975035869422304
  0.8341189757681137  0.0863117669220031  0.3308533014419538
  0.0501755377310188  0.3104416047880264  0.9248623135326702
  0.5609830036560506  0.9631776893855417  0.0991973103040775
  0.0746141502768092  0.8472266448027702  0.3833744020264896
  0.4892296948142847  0.8701770431459687  0.4873456744022392
  0.2439047981411275  0.7205513062373357  0.1689048296247081
  0.1364127698300177  0.0465602584845907  0.9591029927353045
  0.2163530062444281  0.6042004376058182  0.1782774005744938
 -0.0007956274950350  0.3629520579214306  0.7368085158474885
  0.1042835078216870  0.5030988975154564  0.9987826687308022
  0.3237055602703613  0.6710150030993226  0.9289606751188501
  0.5278785454512528  0.9764618227141945  0.3586768540488734
  0.0039687868360491  0.9324044562197550  0.9911415265378222
  0.0546731232951284  0.7691637825896755  0.8352098614015030
  0.8913449365729001  0.8987621570645645  0.4312688429067457
  0.4484513669693303  0.0687923873802357  0.8533874561443646
  0.5440253214427538  0.6967232380552530  0.7345058883272515
  0.6140205352124709  0.8391638551940112  0.4081175734826280
  0.0567584543890719  0.3883479340943294  0.5395136851674804
  0.5161729988728102  0.9927322255362765  0.7638995902902557
  0.4989445410647503  0.6855646463280489  0.9837162838882538
  0.7578894413020698  0.1122672397984267  0.9424858974610436
  0.8079965652097247  0.7665018985378041  0.2106990438377322
  0.9009246787466372  0.3996722732202859  0.9044789049715223
  0.4954387416982070  0.9240279974263583  0.0001826466044556
  0.2042527624789037  0.1605134831288585  0.1777068402522928
  0.5520952705396635  0.1998150093693411  0.0937810845332891
  0.7049091795312106  0.5441077500735920  0.2527477306825808
  0.6369594236273627  0.2130703130268129  0.2145064163653518
  0.6877969601399542  0.0378805676109074  0.2212684889936226
  0.0035818206836181  0.8660099640289560  0.7527954117648052
  0.6522381461843636  0.9445336198964710  0.9281525977518129
  0.3448218065533845  0.8045032520856485  0.3790068063203212
  0.0743887762226542  0.1616192890462194  0.2038010710583983
  0.9081760585101228  0.2053568873592643  0.6753283936553360
  0.3558737891460035  0.5730295758560964  0.4008879342267282
  0.1915945372068247  0.8696117326996252  0.4208621486821025
  0.7590981480427501  0.4014173681799851  0.0418416492265769
  0.2653072769257366  0.2651819549732387  0.9656524919614543
  0.9286875125672754  0.6399998511898159  0.9548099066937465
  0.4381227685991593  0.8982794464417845  0.2276293118403564
  0.3134591880850608  0.2990225231451446  0.0909279268621890
  0.6178188096622657  0.3610363147717754  0.4741951930776810
  0.2156029898076623  0.1703091330695189  0.4145676410710273
  0.7138220722717047  0.3783343041364671  0.6592337462522599
  0.7278862440580270  0.3115416390219277  0.2186326888032977
  0.2442282189801567  0.4811496933309904  0.5594507305662804
  0.6044892947741020  0.8060971153712116  0.5688892097508669
  0.9130067088030674  0.6743464369615750  0.7662216710462408
  0.0398321050052772  0.2206571969527850  0.0890339301487993
  0.0159595835759518  0.6728292508653028  0.6302874204702167
  0.6640827628082280  0.0985745517636446  0.0397303482783170
  0.1586953676084218  0.1036121644801502  0.6943555462147100
  0.9062037323304482  0.3578304126093028  0.0305692643949722
  0.5223279733983500  0.3892222118834993  0.2550191717606575
  0.5357209038764080  0.7009888804897739  0.6009044461811310
  0.0787823159464819  0.9164783582971004  0.5653253968562993
  0.8630046967655493  0.7341615925195835  0.5134543141766063
  0.0356854110367571  0.2136704902134518  0.3815957452821208
  0.6359981287663773  0.2215587689979572  0.6660176831953428
  0.0767401311958247  0.2757722323443402  0.2706847467560519
  0.4776958343646366  0.7140333924033705  0.4678195638255380
  0.3839774360594174  0.7853568547321800  0.0649831778001237
  0.2419791672840100  0.8330731312413399  0.8931662915747252
  0.0231627070761699  0.3688554148292540  0.0958989866718259
  0.6130528753673261  0.4510215439394311  0.7113264267092606
  0.0430082350816609  0.6178070382435994  0.1040379014503350
  0.6728744730547164  0.1335601182317228  0.3161137124440691
  0.5805989631950104  0.5037325943613111  0.9879146741405934
  0.4169752036314274  0.6651717073900009  0.2108503256834877
  0.8585128156782346  0.2335862993460413  0.0209267821933577
  0.2189850155825392  0.6803982111449687  0.5415891678249038
  0.3444602408324794  0.1483127098220912  0.5994097399028676
  0.9173904714380401  0.2081823026902480  0.1369214726048653
  0.9315945562310419  0.7241005967567543  0.3251751575884792
  0.0414886415956989  0.1616010145323983  0.7301276532382027
  0.5456594974939557  0.6352472468415361  0.3254116784799322
  0.2060650121720678  0.3382543486834213  0.4460454210148916
  0.4126073171751160  0.0874528670063078  0.0848600086224126
  0.5001309887722210  0.1901593675347926  0.5080816075667105
  0.6333117678127123  0.4117751330942270  0.8852301442718434
  0.8955010353980642  0.0821455727508655  0.7221200656585109
  0.3770196564465406  0.1597052134188245  0.1925132697326217
  0.9195873654868459  0.0424633293200038  0.5742464545165047
  0.4160626307327838  0.7405979023853355  0.7499037830012415
  0.9013467039379259  0.1038064562493167  0.8518125435449322
  0.9490029416398170  0.3383732039139316  0.5926520219032694
  0.9643092298404946  0.6477827214093848  0.4963515160819292
  0.9060037021053677  0.2956142925982434  0.8233187489575873
  0.1445774193321132  0.5200416120008116  0.1191431111951610
  0.9082122042176901  0.5919035457851369  0.6580364510861006
  0.7157169535427792  0.4307846686895944  0.5379585393624253
  0.0570973251482322  0.6301475540458239  0.9706203191901955
  0.2032292786898390  0.8579482988253024  0.7737062993708030
  0.6646743952312245  0.2444373675351858  0.4389844042966795
  0.5792223375196413  0.6075393528741133  0.0694344659262211
  0.1811707797133505  0.4581417042729044  0.7108003063989758
  0.9383645679207356  0.7564242564815260  0.8886125044201564
  0.3657182403047393  0.9737332443770151  0.6065127089405062
  0.6232176077251514  0.5426344469417133  0.3836955824379437
  0.2193127944804710  0.7854869721956458  0.6190740033504297
  0.4265426478888946  0.2241393946639851  0.6647872929148264
  0.2680214976331810  0.6183808024655348  0.7137758307245363
  0.5060916048923725  0.1835295569126728  0.8069532638935685
  0.8137006508868807  0.2220897149367906  0.5915378155875283
  0.3231788302890767  0.6267915010911344  0.5987986474132808
  0.7290977829726535  0.5461604859560921  0.9618651846512891
  0.5745012890075627  0.5846615694228593  0.8607579486274644
  0.0978343068601139  0.2663073104138888  0.4853993395820291
  0.8974147247355908  0.8625258445464310  0.0667399180980806
  0.9308677143132231  0.3005326600640261  0.3853979767069390
  0.4368239911336583  0.0791721036008516  0.5402804633222646
  0.0781370926617384  0.6897134135941380  0.4495116370784790
  0.3723977316324922  0.3067657593478642  0.8981853859887782
  0.1002609376433464  0.8633193384007224  0.0350902490171375
  0.5412216184232204  0.7022020398410771  0.2089905493309525
  0.3000746821382682  0.4252491165172328  0.0659883330670560
  0.2363512941302026  0.9758519848555886  0.6163269421582369
  0.7808945283829315  0.5723875341108094  0.1478321136979074
  0.9373348990821885  0.7846262192039283  0.6742855008647324
  0.7351150883164105  0.1335401268576044  0.1455233725236526
  0.6562677676404371  0.1195314244061294  0.8610007185451016
  0.5666577819690138  0.3154913149029998  0.0234496879590419
  0.0028216878936980  0.8417069187597225  0.4825767088957214
  0.1920243157006706  0.1520061905963694  0.0478697379842513
  0.4463310357031068  0.8923274700580407  0.8067288520228174
  0.3576523281234696  0.3919681449808116  0.6295187314651098
  0.3095397116991338  0.4421954941593122  0.4530952406758053
  0.2294025269107272  0.7057294285388132  0.8583284538601819
  0.2901313574359614 -0.0027153540997788  0.2601468939002021
  0.0789482933662789  0.9567207387748909  0.8842095789873016
  0.0378067882001130  0.1448879923585119  0.8611430994280167
  0.9163017670245202  0.6758270109250561  0.1022692357391592
  0.5326653446203425  0.2606546394759374  0.2894540865160013
  0.3738638089354200  0.9219565494766845  0.4593720739708548
  0.6462863029267544  0.2904428406363011  0.7786810045737658
  0.7001085224258664  0.8113887580971804  0.0605293553969213
  0.6314631744326716  0.7115542183928435  0.4012743415563993
  0.7820478445935336  0.4546408881670719  0.3097733476044204
  0.3600019939874179  0.7913274170063909  0.2078491765984170
  0.9565893762030148  0.4063246211431667  0.3150057837611560
  0.6382984563750679  0.9580923293075850  0.7989454937507000
  0.8960728871929241  0.9086526630889666  0.8141396861774712
  0.6798988300551829  0.9741925777260416  0.0729273467074800
  0.1937915644649437  0.3606429009886378  0.5736586787237833
  0.0905725999156179  0.2812394514282817  0.7070066767832055
  0.5466733130081843  0.1061437560299631  0.3430478601794686
  0.7092924254851352  0.8279085441981022  0.9306628123335312
  0.1362029551118385  0.7802035639043845  0.1961221485456273
  0.3969310973157744  0.7686796499213037  0.9297430967563766
  0.3921304644627867  0.9261052341749878  0.0764712278002646
  0.6752833965885326  0.9540612272101879  0.6412909319813724
  0.9536539351253813  0.0896886633256210  0.3353257702189903
  0.0602174753983120  0.4558269254842671  0.6659984571106637
  0.1223721573817438  0.3665226785249554  0.0098871235930905
  0.6074343815488233  0.5972137540508710  0.5671306346447458
  0.4081832298038983  0.6844950859951400  0.3499484076127741
  0.0832830962771901  0.0379098528126419  0.4998153166622971
  0.4092639685505287  0.0092814599631613  0.3739082216411803
  0.5266614318578202  0.0649083724777901  0.1560527364707984
  0.5594546392599952  0.8819565053345622  0.1878485573291686
  0.7773198274602529  0.6386811446350495  0.7876207380377052
  0.7598786630981368  0.0471132936013919  0.4203298913464980
  0.4050100965031772  0.3873061424206952  0.3309969378919806
  0.8038248712593733  0.1977331021828975  0.2950009708687721
  0.4405739819508026  0.2005599325152121  0.0246833029294238
  0.0644570279722071  0.0184355937372965  0.0628054988900746
  0.5541167049097181  0.4662271453006138  0.5980785728393487
  0.1320563775055590  0.4337418044069201  0.3970559110318611
  0.2424343826687467  0.8847182828076624  0.2998908987750772
  0.3156804020769008  0.5453966269270201  0.2157981196068637
  0.2051868082201744  0.5290474707523941  0.9322649501028278
  0.8087877578317954  0.9966460927772164  0.2485151832960829
  0.3620234468839585  0.7620615170428723  0.5046985899169848
  0.4807373207876666  0.8410658322001270  0.3410954341388841
  0.6856244115020236  0.8828625690957078  0.3025577872847060
  0.3605079657950970  0.4348802936634825  0.8969242898878277
  0.3280642179219402  0.2365864649808931  0.4988483880925944
  0.2646295811114944  0.2453617611104003  0.7327615024859387
  0.4646509769860533  0.3413116493927466  0.4359826896119450
  0.1288854764125634  0.1086484982871244  0.3355415566190429
 -0.0148682692893267  0.1144879677123651  0.0325993876030236
  0.1372999922232536  0.5272693362392474  0.4999896045713285
  0.0926651433488608  0.7939842924235049  0.6432137192427948
  0.1427362644174727  0.2312231932687308  0.8860204524009014
  0.7731113652459637  0.6434569673569890  0.5084297900628050
  0.5194514178230958  0.7837689414760968  0.0653915778306642
  0.3229293408271030  0.4445517481791308  0.7712483672667156
  0.2406712343774687  0.7458006562720425  0.0483337399472955
  0.6472492530748554  0.0999045556007814  0.5803192482752636
  0.5671962207606520  0.9712720066765534  0.4805107264304594
  0.4962181268893862  0.8631172932428617  0.6128120767036906
  0.8512130937539213  0.9195327742432999  0.5563800427525712
  0.7285331337816288  0.8460907474887283  0.4763594216137026
  0.5564807933556547  0.3325953789600125  0.5894564243015082
  0.5816988906275929  0.8173185700025285  0.7666822555790410
  0.9630760843807213  0.4716441011977874  0.4278371852975116
  0.4521478594104341  0.5836747713829398  0.4930599792233666
  0.7740719511716907  0.8088803558717238  0.6983770017122233
  0.0420705571566955  0.9503200247711818  0.3288856547537221
  0.2065459856146628  0.0186151813625014  0.1640002602044960
  0.4020468970921297  0.6441910204979582  0.0725973885878136
  0.8961745924428848  0.5101795892977954  0.0271362828574359
  0.6266932657989392  0.6960234986903936  0.9040590761097412
  0.3792105413068915  0.0554609029745285  0.7123373015675826
  0.7033802329227637  0.3576687033140080  0.3417251897331789
  0.8953405727453420  0.3249011162421111  0.1961228926132219
  0.2150268957286988  0.0747231788626717  0.8096536454653759
  0.6695049335622366  0.1054415949446283  0.7159304483465005
  0.1385772598773400  0.6054512978643121  0.6118133236521943
  0.3268421414359173  0.1567036672553567  0.9248909771392344
  0.2818794946997353  0.2216445371019692  0.3166556865867319
  0.8914474251270056  0.5652228463777826  0.8477920207526014
  0.4311047177612662  0.3504778127475763  0.1644078993673321
  0.3527116273651350  0.9545991436218857  0.8723167141473230
  0.8191488350577941  0.9305785399913582  0.7171697613771414
  0.0558267360239976  0.4074580724164385  0.8432940457184132
  0.8050986408199767  0.4441318754292507  0.7225958657875914
  0.6895154071631410  0.7157332811893554  0.1759606822479568
  0.6443663230705843  0.4119417078747069  0.1800833217274569
  0.1962931942794293  0.2947661065392663  0.1560517719304623
  0.4565895863986222  0.4769149207595766  0.0225986031097241
  0.2354282781245236  0.9776423362644603  0.9799213139972838
  0.8516768185888550  0.4350854076506823  0.4849059071747014
  0.3891546326023609  0.5873773522938063  0.8717307507775994
  0.2598202355258525  0.4347810601326745  0.2590110484252907
  0.4844571428571521  0.5372887791447870  0.2430689162051139
  0.9380393536891211  0.8239285990445667  0.2418498383569647
  0.2146609376823547  0.7508928207925584  0.3732846951637017
  0.4539015478280299  0.5651312019855599  0.6852352450837597
  0.9908413723135280  0.1580715448406465  0.5848528376908574
  0.5116728609741572  0.4098495901330885  0.8451672246521902
  0.7437865509769500  0.2748094899348568  0.0741432803426532
  0.7713043873230170  0.6353101246881899  0.3233112662540376
  0.9560947963213430  0.5189707225464421  0.2074793219619981
  0.7739135561469247  0.3706606768427926  0.9170608374238560
  0.1617490948896248  0.6125103237825755  0.2860635188390838
  0.7743113644949020  0.9871930437778617  0.9214188517526688
  0.2672808342047636  0.0549398664030645  0.4473270372247858
  0.5090506387619717  0.0523573220713402  0.9692078820171651
  0.6944590863961823  0.6869984070390379  0.6975013829809653
  0.8789891166778149  0.5716813021141087  0.3656641098741702
  0.0985946272685673 -0.0108421734154500  0.6928103386644969
  0.0456966581098612  0.6332610277758138  0.7606043808124192
 