Amorphous Sb                            
   1.00000000000000     
    20.9658902478061471    0.0000000000000000    0.0000000000000000
     0.0000000000000000   20.9658902478061471    0.0000000000000000
     0.0000000000000000    0.0000000000000000   20.9658902478061471
   Ge   Te   Se
   150    60    90
Direct
  0.1631043885646658  0.0370418780708952  0.5159093240318791
  0.3139582309893719  0.0674361770398309  0.7900968510721565
  0.5257655342696316  0.1203127994262709  0.5605922219950721
  0.9629925331351261  0.6204736846469603  0.6971773833158100
  0.1620817504820428  0.9673979669955021  0.8125245607387721
 -0.0046048034038653  0.4074098619290875  0.3877571136231176
  0.7893272205626574  0.7664178213912277  0.3642316172631365
  0.3568614391774824  0.7416040043514510  0.8191181587062376
  0.1085683187405724  0.6676432762335833  0.3119896536625995
  0.7633411285242819  0.8376763195348358  0.4972239288412809
  0.4716927388039500  0.3319279022490884  0.6858254996889042
  0.5779883050886492  0.5885557811544636  0.0865848960156942
  0.0625440272809888  0.4325150913451551  0.9515364375609628
  0.6468609929454892  0.8753622106476218  0.2252912200141139
  0.7830362672671386  0.7000356443926410  0.0158477976850636
  0.4039982066804668  0.7316200696306518  0.2879675480494926
  0.6930453732419075  0.2456031731107995  0.7708826300053843
  0.8812265814788057  0.1159209375583065  0.0664229086286336
  0.7244317478879606  0.2889613808476907  0.1174776738906640
  0.3440702694361957  0.0587582591231377  0.4325696640733968
  0.3401775825116151  0.1915494045512295  0.6218094272380535
  0.9238335049874957  0.8152977326283957  0.9896990198039884
  0.3177178223031283  0.8539982419623058  0.8480619141759456
  0.2509850725379771  0.8054174703238844  0.9457969976236483
  0.8233602372934191  0.1247317305615929  0.4003026822501971
  0.3468719318244823  0.5781581958086042  0.8389972930666054
  0.6328990880811760  0.7710644488705155  0.3705257612871242
  0.7757133015987675  0.0670167757145252  0.0990390255078877
  0.4361209933248067  0.5923919203866307  0.1285331019005471
  0.2480761759612333  0.9233479964261032  0.4146858970757217
  0.3372694629612504  0.6201606737345727  0.9767393340302334
  0.9546569190644552  0.6001388482033185  0.4236035485070765
  0.3850132362863830  0.6025975373678351  0.5003465135779339
  0.4755147007948803  0.7243837341339426  0.8118780759843646
  0.0205658758576939  0.2398162333981949  0.5714959552617632
  0.9928049442377135  0.9676254628522967  0.5766491241536731
  0.6676314457339649 -0.0087765068719140  0.9677179928006251
  0.2221714125308490  0.6171304734175714  0.9339526388245287
  0.1551356970560444  0.0420350169769423  0.0770865129592930
  0.0879858821372169  0.7060621511587475  0.9723199936935141
  0.4184941013642736  0.9170676676217101  0.5183174069770596
  0.5310060064735808  0.7466718588416681  0.5338427000266900
  0.7828235899889348  0.1916589718076802  0.9748936457385455
  0.2384797075812428  0.5827809808174197  0.5977366937902241
  0.5885375656347170  0.0897511647030820  0.4122947220826596
  0.0101231854981009  0.8745062762857333  0.8345763198787327
  0.0476441982365284  0.6500368269375976  0.5614603469368777
  0.0991142117390177  0.8933799195162675  0.0638486344441592
  0.5476402594287465  0.6531907824098299  0.8874679341130430
  0.4414530644896347 -0.0083009913656605  0.0191110774905449
  0.0944984964401821  0.8113234892331387  0.3687612309519961
  0.4317640447434468  0.0562195289164873  0.7342475408537328
  0.7348924076762396  0.3209463400446483  0.5625834312430190
  0.3954246811536979  0.4840299926005605  0.9070830607467170
  0.5549640225423006  0.8613344126112998  0.9546178621091885
  0.8303891070075691  0.0673279279572426  0.2836568305404927
  0.3391169625643919  0.6713179718306110  0.7126593154199491
  0.8973754853949147  0.7662046733008412  0.1048134946350857
  0.8445313496568579  0.3886599936715414  0.0001931421451956
  0.6474247862759188  0.8017221118043573  0.8111799680893770
  0.5172125626276091  0.9393944158862920  0.3503923904594898
  0.3294264893102222  0.3039015061641806  0.8426524283308136
  0.5735380985761325  0.4606215928998669  0.9225898796292127
  0.9058666854387885  0.0979441703816894  0.6221994815010132
  0.5603425744852427  0.6109289060877225  0.2727327155594832
  0.8971276897803777  0.6921406520514165  0.5394729220620674
  0.6838796262030263  0.7587379553547352  0.1961394766365438
  0.2595194527951700  0.8918310065872673  0.0788095229458649
  0.7434927406856860  0.5388699792215423  0.0016752294445924
  0.4527766400567202  0.5082556417335228  0.2386520140317188
  0.7936278844449798  0.7632037649939968  0.6625012094331509
  0.6427251068083426  0.4064256125099847  0.7474690337051214
  0.9059111949146625  0.2939417139447311  0.5882102120468514
  0.8959138400895499  0.4943278668900636  0.9014797856831014
  0.2276231046694176  0.7068384708637034  0.1914070639414288
  0.4233754106406910  0.9151152983130144  0.8717978029877694
  0.0569235992391115  0.7331724022637759  0.1635438162895045
  0.1468988604772500  0.3238822220251502  0.2600320892843417
  0.6704133302525296  0.7355166762399056  0.6454627485326796
  0.6980918456937221  0.0283698179893113  0.3377890909519619
  0.4841058771476308  0.5616892771466914  0.6782300687851907
  0.6052057458802453  0.9094356868790611  0.5912112418704067
  0.8181153640178017  0.4422940085128136  0.4774480641512276
  0.4527788149947475  0.8979024098293542  0.1591277159138517
  0.9274394902489185  0.0045008992482220  0.9470945969968783
  0.8490476547515816  0.5901663402692479  0.0509732582245117
  0.5116416713243885  0.5057158617918371  0.3565019620434312
  0.0352492028980453  0.9861906319044126  0.8879284792067449
  0.5167052553937707  0.1068901463194464  0.9829714515780935
  0.3142813842562382  0.1566320320606593  0.5069421742521015
  0.7032178785469834  0.1018730444395248  0.0072994271925301
  0.0216737136314546  0.0597733273000282  0.7875806241227800
  0.0538586790954626  0.4812068838295744  0.2011931635062434
  0.7810974016879353  0.5114535623326838  0.5772713155189411
  0.2407986763716979  0.1455721418819788  0.6849635360767494
  0.9091850364863979  0.0844730278050326  0.7449306580796328
  0.3964450528503780  0.4618014549006106  0.5142699791259260
  0.3228879986331647  0.5328100582802244  0.3611399848780023
  0.4555419058429753  0.7817711499592669  0.3965924955755358
  0.6278545667223998  0.1404078993692620  0.7969748000278409
  0.1120076789069932  0.9711296433657446  0.6128981844703694
  0.0735699791010129  0.2093310403711583  0.4535940924015681
  0.8274268372244866  0.8732296711585459  0.2627366519407573
  0.1881607555202036 -0.0155661383331060  0.3194248872021473
  0.1634442540323525  0.3507750703429415  0.5460098434354369
  0.8504074243097088  0.9083518306787260  0.9528385251398147
  0.1946939142194421  0.4529857189816967  0.7157101893258477
  0.7048827818601802  0.4235564840498429  0.4260870966667820
  0.2244935034549191  0.1652233411967869  0.1630055064988920
  0.7373871466479041  0.9140176791900172  0.9018035352055517
  0.5439862247924268  0.0120502935684123  0.6258026102085626
  0.8732834364732184  0.9922317323338841  0.5693116063158180
  0.7133747206721723  0.6500503661361633  0.4356863145474607
  0.4723808167328831  0.2219994514312492  0.4937590898412037
  0.8429839459837197  0.9730006598577775  0.1300142698233278
  0.0483182424759643  0.1513246560203020  0.0939816009353024
  0.7271034274714079  0.0362527273516347  0.5180940651818766
  0.3932203407245305  0.2142464295515082  0.1170000114361503
  0.5938241575206651  0.2798019912758853  0.9442882449689297
  0.9859014114828871  0.8033368148521047  0.2899632396582775
  0.6132142549861279  0.5086716647284495  0.4411808369116927
  0.6519214180027985  0.2546092914667835  0.2798793287655597
  0.1208495607561235  0.3260857735270994  0.0561442233651458
  0.3232186566558353  0.5513896423473823  0.1854201630237223
  0.8963932143732263  0.9739051988646428  0.2383346647880316
  0.5991741843275418  0.1646349169633037  0.1773111662348704
  0.1075174387778913  0.9213662763294611  0.4744629656259641
  0.0333716271308740  0.2619866574271655  0.2617682289021797
  0.4445618141706288  0.2508293884164196  0.2824249505689199
  0.1841781546191920  0.4855773542126786  0.0556070893129042
  0.7941323258202856  0.2355552807471094  0.2083547689555676
  0.9561758543215146  0.5874082528124652  0.1809685525802123
  0.3310494560823929  0.9150666936286809  0.2754630857292435
  0.9587763537459338  0.7810361699996066  0.7676279263288200
  0.1736133185496470  0.2875741106814773  0.4435875057963875
  0.3007132066231909  0.3040210511485663  0.6557360277097966
  0.2157082722095008  0.1959075746904748  0.3286248992234234
  0.3338122310297055  0.1788359327234233  0.9400914972770819
  0.8830410488220651  0.6364679666751968  0.8862464349389256
  0.1130937026859660  0.2952011972920101  0.6402349236194205
  0.1639727697859948  0.4981170051255392  0.4502004205550186
  0.5402940299598992  0.4005040127139975  0.5054033569198427
  0.0907217139680510  0.1056562088105456  0.9410293690794344
  0.1870312384719107  0.5252127038603881  0.2911250594325571
  0.7639526338069731  0.1844286310957273  0.8525965832142319
  0.8977275917089231  0.1991906029019370  0.1532604779641938
  0.0640236279757176  0.8665537987030114  0.6714456608060020
  0.3426010804873863  0.3593990732081327  0.0114666268026292
  0.8376181227354526  0.9237359901251909  0.7066067264840785
  0.0467649858712064  0.4795999297096498  0.6329056248146083
  0.8361437185125629  0.1847558903106430  0.5618155362742611
  0.4592248107316388  0.1666578951890625  0.6675810396661607
  0.4887205417309224  0.6925772322863194  0.1969893910606632
  0.3547320457295908  0.5418725735384731  0.7118392211035285
  0.6175628514507713  0.2701184346642270  0.5987052815564311
  0.5598115123525299  0.0307702316604854  0.7542491686825782
  0.4360307002938548  0.9515013907312957  0.6548366847742737
  0.7800227026141683  0.6371012788409381  0.8075262888711070
  0.7892570292312158  0.8775007101397887  0.0651998431498759
  0.8118981659928342  0.3926608953887742  0.2442608101196927
  0.5139134600510963  0.4404317785555520  0.7408320892934347
  0.3310434909954680  0.0477630259794024  0.9172907383331731
  0.3067399718019562  0.6426214687235959  0.2812775370878163
  0.9743313654268225  0.6606118643333718  0.0718208100208815
  0.6586790945827443  0.5115772777556729  0.8292462083217731
  0.2003995338719286  0.1117620385193745  0.8674305868799667
  0.8837249981407788  0.4826040122102535  0.3770190015654019
  0.1520377618661082  0.7695218989836284  0.0726407905855818
  0.6401688507059694  0.9317557106113661  0.0785848213494630
  0.0711768355147553  0.5248279632336007  0.3604697080763783
  0.3034055295842322  0.1368797534244505  0.2572277788049013
  0.9158866566616709  0.3590941870386255  0.8845318550136314
  0.1876779190017537  0.9472507626395652 -0.0197657456692791
  0.5864927527600636  0.6103368504203049  0.7749303825103295
  0.8278516431780540  0.5762751988921336  0.1748781279966936
  0.4587256821289809  0.7124361746558907  0.6826849642655600
  0.1626838805395570  0.6215122321787827  0.4963837311272765
  0.3990294460448541  0.3488919512635399  0.1328364620432938
  0.9965406923492969  0.2713015683163164  0.1235708526943450
  0.6711685993621898  0.5792792435418631  0.5360969839637691
  0.9553772150126009  0.0041813394722375  0.0746349263811910
  0.2798415046853684  0.9386763814584054  0.7557873621231532
  0.8310750082482508  0.6394092046933840  0.6781061463403536
  0.1573141147654948  0.0932578327413767  0.3916278396291403
  0.8969443799895357  0.4423267711046684  0.6687886345633867
  0.3986600128900165  0.7367796228719216  0.5060434076087710
  0.2957320584730495  0.2516794892222301  0.4225880879664152
  0.9436674499238882  0.1232094143495380  0.2438062019909421
  0.7096508791004572  0.5383794296357758  0.3581725729647512
  0.7512284440842844  0.4134647913270120  0.1273695974577892
 -0.0193156739897166  0.3835119194630788  0.2569190269799125
  0.2605593824786556  0.4129797464432634  0.5976728500232039
  0.6827138622524030  0.4293296666505400  0.6095977620394685
  0.7015247555479123  0.9154443866932434  0.7799822739232237
  0.8834486173834205  0.1932058833367353  0.8028775867454088
  0.5065240861075317  0.4303151008264629  0.1524149224697132
  0.8007291346861574  0.2828251051710629  0.6730657144008796
  0.5854233023206484  0.2798171610925351  0.4559541881782875
  0.2276127531270490  0.2924520496064171  0.1550824845681563
  0.3548335471586143  0.9784632651291519  0.1201225030521474
  0.9760561189422895  0.6719103974173776  0.2843329876878252
  0.6884700058633559  0.3820207520362724  0.3009419564513511
  0.4343250665083981  0.3595464633876520  0.9120288356330649
  0.6543353801101426  0.7047577462297767  0.0863441593597479
  0.0752002291540185  0.1706094862890030  0.8281771507383675
  0.3291488412950602  0.6683516757992992  0.0967146362091270
  0.4437381042950268  0.1634286630867657  0.3824582138066752
  0.8112591575731596  0.7472674564739292  0.2254570027490423
  0.1963490810288829  0.1637640897925218  0.5617435637301247
  0.8032641145314839  0.3941754355870614  0.7550549260597526
  0.0162887017960605  0.1382752918788001  0.6262362438996126
  0.3538630590316635  0.7348521853768587  0.9388950270018669
  0.7037570161489675  0.1442936421408562  0.3900316207797288
  0.6374289316063698  0.4905825684260718  0.0253820779216610
  0.7195157445003014  0.6353796313612661  0.9357244666042982
  0.6488189518436331  0.9856933102232902  0.4411357167859963
  0.0876051847968336  0.3870292549171255  0.7090158841735967
  0.2330118268332323  0.5508119549791722  0.8389607802049154
  0.7784727550459815  0.4566638775574098  0.9209786671747238
  0.1190076419927841  0.1326459689064720  0.1938205902029124
  0.9680111807941454  0.5599935633023543  0.5392296481023783
  0.4276468248761048  0.8763356211023561  0.9848071754887926
  0.8553118762983776  0.9982504705796805  0.8013471848758023
  0.0820060294516309  0.9314745116974323  0.3546020404222882
  0.9732982776519721  0.6702967267998738  0.8103887484997677
  0.5582095765266440  0.1779975061510035  0.8868787413253533
  0.1862091594677805  0.8307221214379691  0.4555109194593285
  0.0698815753721325  0.4417819533752697  0.0812869582416632
  0.4399630443531549  0.9675441976579527  0.2600593003428137
  0.5805705750522893  0.0382637445884153  0.3003839735679134
  0.5357684406569444  0.8677389471127590  0.5005791185463205
  0.1807874491536342  0.7211945859726849  0.8896913786264655
  0.1862817998380081  0.3704087064952519  0.3619873468554479
  0.6080753390393421  0.1551100653763376  0.0526542501498025
  0.7199018092259087  0.0782100067045697  0.8300887607807655
  0.5290023280826470  0.9884119540099189  0.1082295210251169
  0.0121115556155382  0.8681415430106546  0.5161664862379786
  0.4945301760383703  0.5505945367467566  0.9367849198804205
  0.6552328769594181  0.3253881320118504  0.8493908211855739
  0.5642918645492451  0.9783510047909534  0.9166835326983286
  0.2716677525050151  0.9836505160176144  0.5149024368782080
  0.4413394929649369  0.2022090266455015  0.0052715615955078
  0.1177416922378960  0.0338312240642805  0.7162972260852208
  0.2045101347005474  0.2610086857968467  0.7145465992666572
  0.8549576148148181  0.8101744038282032  0.5716587711042660
  0.8367712360090791  0.6650831216498224  0.4355845562773877
  0.9798573498613682  0.8327418551095245  0.1697045972497243
  0.9474386005671908  0.5141809242794096  0.7543535834234172
  0.4805570928774504  0.5459067707176535  0.5501087113138428
  0.8886657188027124  0.8371795207498379  0.3597009614013388
  0.0313910304791561  0.8209887927774139  0.9404554339193770
  0.1785604887894151  0.3942990661765219  0.9712741877807359
  0.1675966802327007  0.4353831987158139  0.2123570356396256
  0.5448010872965552  0.7016752390432257  0.4185245432260151
  0.2582360093584166  0.1051002274310755  0.0723487788514419
  0.4391326536249274  0.3587881736149544  0.5697065145389010
  0.4772121584910358  0.1699358412630352  0.1936582603805175
  0.6844621316261480  0.7542011354804352  0.5288106615030604
  0.3450951386931820  0.8074899483522595  0.2198449845121241
  0.8308001539029317  0.0117651934613114  0.4545973677933671
  0.8879730657888038  0.3482056247706310  0.4844020411881228
  0.9156667809181093  0.4899978528384972  0.0229839432581394
  0.6147971102648233  0.2871264487312706  0.1626650747878897
  0.3437303129646713  0.4803576994239497  0.0124977766240119
  0.5194405248625501  0.8344926755219593  0.8300900114885207
  0.5998809640871196  0.8283032082603431  0.6728406827320135
  0.7125583458342688  0.2903557368452999 -0.0015036828955313
  0.4306749458023200  0.5901354548265296  0.3856688851131657
  0.3532020978508917  0.8813746078584066  0.3903031980091876
  0.8431881013010356  0.8103123962947354  0.7614463998011328
  0.5491911875367657  0.3025426715302710  0.3259517446624400
  0.5563831485002340  0.8330189142853510  0.2924072079009633
  0.3513556057930795  0.4563132273885839  0.2733721980861089
  0.7239722726657698  0.8820019380379476  0.3188415566020028
  0.1421194636285397  0.7788080453323178  0.2593115369085275
  0.7504091161163942  0.1168432655812500  0.2027585548514513
  0.6814065703702372  0.8149925094830561  0.9276045719690167
  0.9959907348839460  0.7151123402009829  0.4712777856669189
  0.6357977570939995  0.1489834128042621  0.5998307110138202
  0.6088914320787967  0.5391378416934717  0.1895907252029099
  0.1142491211619896  0.8539620120927696  0.7815224015689747
  0.9965876373920290  0.2606823829967070  0.3874405909446497
  0.1743813550023369  0.9434546803672934  0.1517210185103501
  0.1398240931074108  0.5519128369091922  0.6728554407835653
  0.1434014533099642  0.6099501435033597  0.2092921453139878
  0.1299863561495024  0.5772211646778466 -0.0092833118836987
  0.4514454021751044  0.0228964838179758  0.4753216234080430
  0.7226723475531783  0.9244738405380821  0.5781534209067111
  0.8967836499992788  0.1192572244458462  0.9506292711913296
  0.3781138300854542  0.1975642265783428  0.8278032288259319
  0.0127361347333220  0.7595088114286846  0.6664305279083629
  0.6601558095577154  0.6843144406757192  0.2853122989274818
  0.0202314312305742  0.3221114992102555  0.9419653116972851
  0.4566612901179852  0.4132558844672810  0.4190084758409041
  0.1176843218194233  0.1989525308749871  0.0093273673483795
  0.9668549379615712  0.9359914379507636  0.6921423020747781
  0.2582351267169912  0.6943504261397522  0.6345479545181257
  0.8521038050687911  0.7498783978022476  0.9213644437143206
  0.3623615732036028  0.3617363009862834  0.7370524335651062
  0.0850560514765701  0.4341304231032569  0.5230939834238788
 
  0.00000000E+00  0.00000000E+00  0.00000000E+00
  0.00000000E+00  0.00000000E+00  0.00000000E+00
  0.00000000E+00  0.00000000E+00  0.00000000E+00
  0.00000000E+00  0.00000000E+00  0.00000000E+00
  0.00000000E+00  0.00000000E+00  0.00000000E+00
  0.00000000E+00  0.00000000E+00  0.00000000E+00
  0.00000000E+00  0.00000000E+00  0.00000000E+00
  0.00000000E+00  0.00000000E+00  0.00000000E+00
  0.00000000E+00  0.00000000E+00  0.00000000E+00
  0.00000000E+00  0.00000000E+00  0.00000000E+00
  0.00000000E+00  0.00000000E+00  0.00000000E+00
  0.00000000E+00  0.00000000E+00  0.00000000E+00
  0.00000000E+00  0.00000000E+00  0.00000000E+00
  0.00000000E+00  0.00000000E+00  0.00000000E+00
  0.00000000E+00  0.00000000E+00  0.00000000E+00
  0.00000000E+00  0.00000000E+00  0.00000000E+00
  0.00000000E+00  0.00000000E+00  0.00000000E+00
  0.00000000E+00  0.00000000E+00  0.00000000E+00
  0.00000000E+00  0.00000000E+00  0.00000000E+00
  0.00000000E+00  0.00000000E+00  0.00000000E+00
  0.00000000E+00  0.00000000E+00  0.00000000E+00
  0.00000000E+00  0.00000000E+00  0.00000000E+00
  0.00000000E+00  0.00000000E+00  0.00000000E+00
  0.00000000E+00  0.00000000E+00  0.00000000E+00
  0.00000000E+00  0.00000000E+00  0.00000000E+00
  0.00000000E+00  0.00000000E+00  0.00000000E+00
  0.00000000E+00  0.00000000E+00  0.00000000E+00
  0.00000000E+00  0.00000000E+00  0.00000000E+00
  0.00000000E+00  0.00000000E+00  0.00000000E+00
  0.00000000E+00  0.00000000E+00  0.00000000E+00
  0.00000000E+00  0.00000000E+00  0.00000000E+00
  0.00000000E+00  0.00000000E+00  0.00000000E+00
  0.00000000E+00  0.00000000E+00  0.00000000E+00
  0.00000000E+00  0.00000000E+00  0.00000000E+00
  0.00000000E+00  0.00000000E+00  0.00000000E+00
  0.00000000E+00  0.00000000E+00  0.00000000E+00
  0.00000000E+00  0.00000000E+00  0.00000000E+00
  0.00000000E+00  0.00000000E+00  0.00000000E+00
  0.00000000E+00  0.00000000E+00  0.00000000E+00
  0.00000000E+00  0.00000000E+00  0.00000000E+00
  0.00000000E+00  0.00000000E+00  0.00000000E+00
  0.00000000E+00  0.00000000E+00  0.00000000E+00
  0.00000000E+00  0.00000000E+00  0.00000000E+00
  0.00000000E+00  0.00000000E+00  0.00000000E+00
  0.00000000E+00  0.00000000E+00  0.00000000E+00
  0.00000000E+00  0.00000000E+00  0.00000000E+00
  0.00000000E+00  0.00000000E+00  0.00000000E+00
  0.00000000E+00  0.00000000E+00  0.00000000E+00
  0.00000000E+00  0.00000000E+00  0.00000000E+00
  0.00000000E+00  0.00000000E+00  0.00000000E+00
  0.00000000E+00  0.00000000E+00  0.00000000E+00
  0.00000000E+00  0.00000000E+00  0.00000000E+00
  0.00000000E+00  0.00000000E+00  0.00000000E+00
  0.00000000E+00  0.00000000E+00  0.00000000E+00
  0.00000000E+00  0.00000000E+00  0.00000000E+00
  0.00000000E+00  0.00000000E+00  0.00000000E+00
  0.00000000E+00  0.00000000E+00  0.00000000E+00
  0.00000000E+00  0.00000000E+00  0.00000000E+00
  0.00000000E+00  0.00000000E+00  0.00000000E+00
  0.00000000E+00  0.00000000E+00  0.00000000E+00
  0.00000000E+00  0.00000000E+00  0.00000000E+00
  0.00000000E+00  0.00000000E+00  0.00000000E+00
  0.00000000E+00  0.00000000E+00  0.00000000E+00
  0.00000000E+00  0.00000000E+00  0.00000000E+00
  0.00000000E+00  0.00000000E+00  0.00000000E+00
  0.00000000E+00  0.00000000E+00  0.00000000E+00
  0.00000000E+00  0.00000000E+00  0.00000000E+00
  0.00000000E+00  0.00000000E+00  0.00000000E+00
  0.00000000E+00  0.00000000E+00  0.00000000E+00
  0.00000000E+00  0.00000000E+00  0.00000000E+00
  0.00000000E+00  0.00000000E+00  0.00000000E+00
  0.00000000E+00  0.00000000E+00  0.00000000E+00
  0.00000000E+00  0.00000000E+00  0.00000000E+00
  0.00000000E+00  0.00000000E+00  0.00000000E+00
  0.00000000E+00  0.00000000E+00  0.00000000E+00
  0.00000000E+00  0.00000000E+00  0.00000000E+00
  0.00000000E+00  0.00000000E+00  0.00000000E+00
  0.00000000E+00  0.00000000E+00  0.00000000E+00
  0.00000000E+00  0.00000000E+00  0.00000000E+00
  0.00000000E+00  0.00000000E+00  0.00000000E+00
  0.00000000E+00  0.00000000E+00  0.00000000E+00
  0.00000000E+00  0.00000000E+00  0.00000000E+00
  0.00000000E+00  0.00000000E+00  0.00000000E+00
  0.00000000E+00  0.00000000E+00  0.00000000E+00
  0.00000000E+00  0.00000000E+00  0.00000000E+00
  0.00000000E+00  0.00000000E+00  0.00000000E+00
  0.00000000E+00  0.00000000E+00  0.00000000E+00
  0.00000000E+00  0.00000000E+00  0.00000000E+00
  0.00000000E+00  0.00000000E+00  0.00000000E+00
  0.00000000E+00  0.00000000E+00  0.00000000E+00
  0.00000000E+00  0.00000000E+00  0.00000000E+00
  0.00000000E+00  0.00000000E+00  0.00000000E+00
  0.00000000E+00  0.00000000E+00  0.00000000E+00
  0.00000000E+00  0.00000000E+00  0.00000000E+00
  0.00000000E+00  0.00000000E+00  0.00000000E+00
  0.00000000E+00  0.00000000E+00  0.00000000E+00
  0.00000000E+00  0.00000000E+00  0.00000000E+00
  0.00000000E+00  0.00000000E+00  0.00000000E+00
  0.00000000E+00  0.00000000E+00  0.00000000E+00
  0.00000000E+00  0.00000000E+00  0.00000000E+00
  0.00000000E+00  0.00000000E+00  0.00000000E+00
  0.00000000E+00  0.00000000E+00  0.00000000E+00
  0.00000000E+00  0.00000000E+00  0.00000000E+00
  0.00000000E+00  0.00000000E+00  0.00000000E+00
  0.00000000E+00  0.00000000E+00  0.00000000E+00
  0.00000000E+00  0.00000000E+00  0.00000000E+00
  0.00000000E+00  0.00000000E+00  0.00000000E+00
  0.00000000E+00  0.00000000E+00  0.00000000E+00
  0.00000000E+00  0.00000000E+00  0.00000000E+00
  0.00000000E+00  0.00000000E+00  0.00000000E+00
  0.00000000E+00  0.00000000E+00  0.00000000E+00
  0.00000000E+00  0.00000000E+00  0.00000000E+00
  0.00000000E+00  0.00000000E+00  0.00000000E+00
  0.00000000E+00  0.00000000E+00  0.00000000E+00
  0.00000000E+00  0.00000000E+00  0.00000000E+00
  0.00000000E+00  0.00000000E+00  0.00000000E+00
  0.00000000E+00  0.00000000E+00  0.00000000E+00
  0.00000000E+00  0.00000000E+00  0.00000000E+00
  0.00000000E+00  0.00000000E+00  0.00000000E+00
  0.00000000E+00  0.00000000E+00  0.00000000E+00
  0.00000000E+00  0.00000000E+00  0.00000000E+00
  0.00000000E+00  0.00000000E+00  0.00000000E+00
  0.00000000E+00  0.00000000E+00  0.00000000E+00
  0.00000000E+00  0.00000000E+00  0.00000000E+00
  0.00000000E+00  0.00000000E+00  0.00000000E+00
  0.00000000E+00  0.00000000E+00  0.00000000E+00
  0.00000000E+00  0.00000000E+00  0.00000000E+00
  0.00000000E+00  0.00000000E+00  0.00000000E+00
  0.00000000E+00  0.00000000E+00  0.00000000E+00
  0.00000000E+00  0.00000000E+00  0.00000000E+00
  0.00000000E+00  0.00000000E+00  0.00000000E+00
  0.00000000E+00  0.00000000E+00  0.00000000E+00
  0.00000000E+00  0.00000000E+00  0.00000000E+00
  0.00000000E+00  0.00000000E+00  0.00000000E+00
  0.00000000E+00  0.00000000E+00  0.00000000E+00
  0.00000000E+00  0.00000000E+00  0.00000000E+00
  0.00000000E+00  0.00000000E+00  0.00000000E+00
  0.00000000E+00  0.00000000E+00  0.00000000E+00
  0.00000000E+00  0.00000000E+00  0.00000000E+00
  0.00000000E+00  0.00000000E+00  0.00000000E+00
  0.00000000E+00  0.00000000E+00  0.00000000E+00
  0.00000000E+00  0.00000000E+00  0.00000000E+00
  0.00000000E+00  0.00000000E+00  0.00000000E+00
  0.00000000E+00  0.00000000E+00  0.00000000E+00
  0.00000000E+00  0.00000000E+00  0.00000000E+00
  0.00000000E+00  0.00000000E+00  0.00000000E+00
  0.00000000E+00  0.00000000E+00  0.00000000E+00
  0.00000000E+00  0.00000000E+00  0.00000000E+00
  0.00000000E+00  0.00000000E+00  0.00000000E+00
  0.00000000E+00  0.00000000E+00  0.00000000E+00
  0.00000000E+00  0.00000000E+00  0.00000000E+00
  0.00000000E+00  0.00000000E+00  0.00000000E+00
  0.00000000E+00  0.00000000E+00  0.00000000E+00
  0.00000000E+00  0.00000000E+00  0.00000000E+00
  0.00000000E+00  0.00000000E+00  0.00000000E+00
  0.00000000E+00  0.00000000E+00  0.00000000E+00
  0.00000000E+00  0.00000000E+00  0.00000000E+00
  0.00000000E+00  0.00000000E+00  0.00000000E+00
  0.00000000E+00  0.00000000E+00  0.00000000E+00
  0.00000000E+00  0.00000000E+00  0.00000000E+00
  0.00000000E+00  0.00000000E+00  0.00000000E+00
  0.00000000E+00  0.00000000E+00  0.00000000E+00
  0.00000000E+00  0.00000000E+00  0.00000000E+00
  0.00000000E+00  0.00000000E+00  0.00000000E+00
  0.00000000E+00  0.00000000E+00  0.00000000E+00
  0.00000000E+00  0.00000000E+00  0.00000000E+00
  0.00000000E+00  0.00000000E+00  0.00000000E+00
  0.00000000E+00  0.00000000E+00  0.00000000E+00
  0.00000000E+00  0.00000000E+00  0.00000000E+00
  0.00000000E+00  0.00000000E+00  0.00000000E+00
  0.00000000E+00  0.00000000E+00  0.00000000E+00
  0.00000000E+00  0.00000000E+00  0.00000000E+00
  0.00000000E+00  0.00000000E+00  0.00000000E+00
  0.00000000E+00  0.00000000E+00  0.00000000E+00
  0.00000000E+00  0.00000000E+00  0.00000000E+00
  0.00000000E+00  0.00000000E+00  0.00000000E+00
  0.00000000E+00  0.00000000E+00  0.00000000E+00
  0.00000000E+00  0.00000000E+00  0.00000000E+00
  0.00000000E+00  0.00000000E+00  0.00000000E+00
  0.00000000E+00  0.00000000E+00  0.00000000E+00
  0.00000000E+00  0.00000000E+00  0.00000000E+00
  0.00000000E+00  0.00000000E+00  0.00000000E+00
  0.00000000E+00  0.00000000E+00  0.00000000E+00
  0.00000000E+00  0.00000000E+00  0.00000000E+00
  0.00000000E+00  0.00000000E+00  0.00000000E+00
  0.00000000E+00  0.00000000E+00  0.00000000E+00
  0.00000000E+00  0.00000000E+00  0.00000000E+00
  0.00000000E+00  0.00000000E+00  0.00000000E+00
  0.00000000E+00  0.00000000E+00  0.00000000E+00
  0.00000000E+00  0.00000000E+00  0.00000000E+00
  0.00000000E+00  0.00000000E+00  0.00000000E+00
  0.00000000E+00  0.00000000E+00  0.00000000E+00
  0.00000000E+00  0.00000000E+00  0.00000000E+00
  0.00000000E+00  0.00000000E+00  0.00000000E+00
  0.00000000E+00  0.00000000E+00  0.00000000E+00
  0.00000000E+00  0.00000000E+00  0.00000000E+00
  0.00000000E+00  0.00000000E+00  0.00000000E+00
  0.00000000E+00  0.00000000E+00  0.00000000E+00
  0.00000000E+00  0.00000000E+00  0.00000000E+00
  0.00000000E+00  0.00000000E+00  0.00000000E+00
  0.00000000E+00  0.00000000E+00  0.00000000E+00
  0.00000000E+00  0.00000000E+00  0.00000000E+00
  0.00000000E+00  0.00000000E+00  0.00000000E+00
  0.00000000E+00  0.00000000E+00  0.00000000E+00
  0.00000000E+00  0.00000000E+00  0.00000000E+00
  0.00000000E+00  0.00000000E+00  0.00000000E+00
  0.00000000E+00  0.00000000E+00  0.00000000E+00
  0.00000000E+00  0.00000000E+00  0.00000000E+00
  0.00000000E+00  0.00000000E+00  0.00000000E+00
  0.00000000E+00  0.00000000E+00  0.00000000E+00
  0.00000000E+00  0.00000000E+00  0.00000000E+00
  0.00000000E+00  0.00000000E+00  0.00000000E+00
  0.00000000E+00  0.00000000E+00  0.00000000E+00
  0.00000000E+00  0.00000000E+00  0.00000000E+00
  0.00000000E+00  0.00000000E+00  0.00000000E+00
  0.00000000E+00  0.00000000E+00  0.00000000E+00
  0.00000000E+00  0.00000000E+00  0.00000000E+00
  0.00000000E+00  0.00000000E+00  0.00000000E+00
  0.00000000E+00  0.00000000E+00  0.00000000E+00
  0.00000000E+00  0.00000000E+00  0.00000000E+00
  0.00000000E+00  0.00000000E+00  0.00000000E+00
  0.00000000E+00  0.00000000E+00  0.00000000E+00
  0.00000000E+00  0.00000000E+00  0.00000000E+00
  0.00000000E+00  0.00000000E+00  0.00000000E+00
  0.00000000E+00  0.00000000E+00  0.00000000E+00
  0.00000000E+00  0.00000000E+00  0.00000000E+00
  0.00000000E+00  0.00000000E+00  0.00000000E+00
  0.00000000E+00  0.00000000E+00  0.00000000E+00
  0.00000000E+00  0.00000000E+00  0.00000000E+00
  0.00000000E+00  0.00000000E+00  0.00000000E+00
  0.00000000E+00  0.00000000E+00  0.00000000E+00
  0.00000000E+00  0.00000000E+00  0.00000000E+00