Ge Se                                   
   1.00000000000000     
    19.7402305603027344    0.0000000000000000    0.0000000000000000
     0.0000000000000000   19.7402305603027344    0.0000000000000000
     0.0000000000000000    0.0000000000000000   19.7402305603027344
   Ge   Se
   150   150
Direct
  0.8998712766141215  0.3131373766810641  0.8223086418993174
  0.5573535877600245  0.5387414482818347 -0.0026644050159345
  0.0365022410829370  0.8023688518782818  0.6568383631552899
  0.9348879101106196  0.6700915843512661  0.3807665833693022
  0.5082815804218423  0.3058113972884209  0.4687514273391720
  0.1772680730605322  0.8136968576565317  0.6531744294177638
  0.6091240684160575  0.4935014916347999  0.2867017860820442
  0.8925018849156441  0.6846840965478319  0.2451748252930943
  0.6512247987933266  0.2211999294614466  0.8687786829813304
  0.0092848722744617  0.3003794461399628  0.5675634648466510
  0.5663589684823072  0.2509896973270369  0.0173261282777960
  0.5988647356576052  0.6931952556576075  0.8203693588007045
  0.3381313258723714  0.0754218983306924  0.8170853733488895
  0.2135464222565011  0.7052777941571705  0.5597824460783584
  0.8455556881777166  0.7185361388382546  0.6031545341831887
  0.2735715381022141  0.7368594297149383  0.3172330892359049
  0.2886574968736579  0.0747002703743084  0.0259419136006846
  0.0848231654758766  0.8725658276056943  0.1601901380476441
  0.0701127281987982  0.3285154839470178  0.2768768556322825
  0.6612033094109799  0.5749036546112715  0.5819178349269449
  0.5690111092401366  0.9693117155583386  0.3044250940195702
  0.2219973431047705  0.4257288562778843  0.4805006081484816
  0.4263066877707231  0.0670499980546620  0.1398276961900924
  0.9614148857812785  0.5119815468106156  0.3415764950230379
  0.4474030073938489  0.8663758888316820  0.7665614590159089
  0.5832660743914175  0.2794614872194181  0.2983500844071180
  0.0398967698665186  0.4207769878158990  0.0742846077534622
  0.6592207776840403  0.9847410778241287  0.0415841441072932
 -0.0029613327198294  0.1271605820399198  0.1375321123407342
  0.4431067371722041  0.9046747321216181  0.2493915322468631
  0.1544759302315483  0.6020762352684723  0.4085202684842633
  0.9790422852503322  0.1816035618779004  0.4181241515450680
  0.9636564918125473  0.1106121132257404  0.6249647168424334
  0.0281851439779147  0.6713413982832483  0.1917827219544551
  0.8002660496888671  0.1782059046773088  0.7444492368940643
  0.4205205580465172  0.4158696732648858  0.4848620193138888
  0.8665761943067748  0.9936653397585097  0.1843450415204693
  0.4735483884744053  0.2113968040047057  0.8202211372991104
  0.8635283815231091  0.0245813114090840  0.0002322759923414
  0.4095008891339678  0.1440245537419154  0.6376767666082451
  0.1704374397087340  0.2755686454985716  0.9856938698314394
  0.3478837354562435  0.8915928348082905  0.4065838754038080
  0.1939139216381636  0.8013304997331430  0.9226122184328742
  0.6991352544501965  0.1844855514787552  0.1134049889924961
  0.9265789378894810  0.4572666791843724  0.5072326801605727
  0.5915837067900447  0.0360926631046283  0.8396055874190972
  0.3456266095403247  0.0501393032955198  0.3167541392834542
  0.3053151670383620  0.6264088760114885  0.9065104059645385
  0.0996002877756482  0.0168805118558455  0.7242521002614150
  0.5596535637578247  0.9294581507099734  0.7493703943598427
  0.3939978326200452  0.5374639802794343  0.2996775232301951
  0.0710515522399427  0.2186894104617979  0.6899096330862243
  0.0921265595727446  0.7757456918149049  0.3354238065765314
  0.3381227303788250  0.6932602838606245  0.4239801735594896
  0.5532089811329631  0.3608872072288623  0.5833493750735206
  0.2582132703083181  0.6231259851037257  0.7009756701441783
  0.9203272035767788  0.7116710065415454  0.9487242056605912
  0.0021936538604651  0.9048667781751883  0.5533705626492573
  0.6863791264241537  0.8950310959379790  0.9003812605432212
  0.7573833312647508  0.5568921149433551  0.4960718697876081
  0.3634347876081175  0.0468399730316435  0.4724781841262772
  0.7856907033825671  0.9351879236980606  0.4831199550615508
  0.3825613077343229  0.3434586320270497  0.1534967654415090
  0.5945479684703823  0.1523676497948341  0.6916415337426332
  0.4852657472758977  0.7847257786149247  0.4860983762700998
  0.7669027231864027  0.8378275146144970  0.8073447646909990
  0.0761190578309495  0.9407453632615972  0.9510434745133239
  0.9789679537740729  0.0939074374314614  0.2628482231737080
  0.4997540422799153  0.3342378748655472  0.8820579731669042
  0.1315161800948293  0.6307736548129278  0.7304045615902417
  0.8159339413577665  0.4651457880280584  0.4208846948394941
  0.1794314206165871  0.1991589819536819  0.5619497199741369
  0.2829030629487987  0.2402315669924573  0.1822034304836228
  0.5166909738618944  0.4752417176550654  0.6245766419465021
  0.4767964628208695  0.8316136567782891  0.0853354448896334
  0.3157415962302216  0.4129941799852472  0.8845128478929789
  0.2439211754220668  0.9227014292109624  0.7903945559338390
  0.4778126975715464  0.0123913224054848  0.0223993924491900
  0.3791999674403395  0.4560603162942627  0.7795002698480811
  0.8885427820846231  0.9768425301867423  0.3805353435534503
  0.2216258650400375  0.9056013004849253  0.3168502472766155
  0.4910413456108874  0.6069106790244759  0.3530210597650800
  0.5697431788426452  0.7542328481958217  0.0205748921001366
  0.2564859237567019  0.9417337128391491  0.0921468526889747
  0.7059397942012993  0.3356242105738553  0.2756500242872996
  0.1040695563494141  0.1230869519246808  0.0364707736890320
  0.5689408093910696  0.2627620107312551  0.7469016715733700
  0.7257695946405519  0.0942555634837338  0.5833441314757827
  0.2351753845845167  0.3077442364640954  0.6260162548803329
  0.6560023407339574  0.1295384130295635  0.4010750441737095
  0.2601990926431998  0.4202592539568222  0.3174188263796864
  0.1373280579318307  0.5355390728049385  0.8933897594893311
  0.3479456728202341  0.2401443860096909  0.9788065471867965
  0.8329655131550481  0.3361346878450537  0.6238340976371266
  0.4230764971097334  0.9203878686999963  0.6020734573634201
  0.1757545703036857  0.5438817883691265  0.0730756467784764
  0.9984855150623709  0.8070467074653059  0.8388012260329404
  0.6470747539646133  0.7958983907102284  0.3114001555896476
  0.2218886909836420  0.4714935365720495  0.8220552888637455
  0.7432240699666766  0.7336086549463433  0.5195003102120602
  0.4270382223530800  0.5056030079003013  0.1153102866100414
  0.3180832921691695  0.2572263719175285  0.4288206849788617
  0.4607317409233722  0.4295516875343708  0.2808346215370066
  0.7330700340497914  0.4951498703095918  0.9001680859223500
  0.7117552960546975  0.7000816119926837  0.1795603555025795
  0.8677406484778741  0.6348972586519466  0.1225860210986141
  0.3293811411480794  0.6975096089992158  0.6193279964252451
  0.8378594632650208  0.8925878983934781  0.0316032714698602
  0.2247231307667812  0.5934997417446108  0.1920616469305107
  0.6908514125276828  0.9068108864246022  0.1656025475114837
  0.3617280017125731  0.7256060541326336  0.9708987194740286
  0.1171917058602493  0.2892851098822631  0.1169181996805460
  0.0909044540989164  0.3623800695522704  0.8838898160995825
  0.1030889502946409  0.4755079266675751  0.6558001870823278
  0.4948101017349731  0.6964533708193723  0.2640886843780224
  0.3724953621739558  0.2888485461492866  0.7702529588104456
  0.5861573562735745  0.0759540486063269  0.2294001292858964
  0.3207147051900947  0.4179124386989806  0.6702174391957560
  0.5246526696276632  0.6045572930502390  0.1748388137958388
  0.8949092842195363  0.2927055778372693  0.0986476437859123
  0.8942416925707781  0.7133785822276532  0.7839256631682784
  0.4982312136746163  0.4568928105760652  0.8276927080991843
  0.8775249084667124  0.1515851147926374  0.9500104211506359
  0.4213035911634048  0.2261962194464277  0.3497715617316201
  0.8297717775016101  0.5774787330848659  0.7241978970908642
  0.8062125803125899  0.2574878843098305  0.9829471879165453
  0.8264211139517426  0.2933118961127515  0.4428828851158124
  0.7348106479671018  0.3528815731426155  0.0625328033821117
  0.1303878704481194  0.3987353935134544  0.7662286639921870
  0.4798487961631415  0.2017239539827845  0.5458039136880893
  0.1740084817194617  0.0491708938768263  0.4281363906698313
  0.1626277214788086  0.6762534197633256  0.0450112723240014
  0.4656176802129174  0.8559252497108569  0.8947294786803718
  0.9912255231464179  0.4430357654668338  0.8957853702961236
  0.5989976644644097  0.8144274254312667  0.6190813057919536
  0.9477586343120535  0.6278220413458782  0.5075476833168238
  0.3102406282604813  0.5614400500032316  0.7972397074695092
  0.1424925563115908  0.8774296524725093  0.4907219803254709
  0.6121513624703604  0.9177669219178257  0.5330162933276954
  0.9936071573955270  0.6898950585652666  0.6119562520099892
  0.0331719781749827  0.8521151970714439  0.0400439686334818
  0.8040476828620037  0.1102592254423925  0.2133733486752611
  0.3825612019777007  0.4570531564796314  0.9913742319974397
  0.6764510877242143  0.5916290308794351  0.0489733411996769
  0.8804921356337686  0.7867619325379809  0.4512334142025866
  0.5543299361290466  0.5308941895051966  0.7352158632315232
  0.3751688128333701  0.7512834439607181  0.7782122683728863
  0.1061234069425500  0.4976944683250646  0.2275989174220026
  0.0112432963804564  0.2624163580949886  0.8676729966237620
  0.3728947539288083  0.7142490525715041  0.2349787736397483
  0.1475913287000997  0.4750967469234432  0.3879440385380438
  0.3512759849070964  0.0431022526350048  0.6000983304540088
  0.9888398473830663  0.2129448731654440  0.9784744472349768
  0.8275808141205936  0.5859473899679173  0.8664957594665902
  0.6311869876543030  0.6993553219728524  0.5645673065998836
  0.4515794794106913  0.1326562108128832  0.4437002572204977
  0.8401835756383890  0.0903156421632784  0.6569452891444029
  0.3264614383468295  0.8114661959862859  0.8796107808459639
  0.5274098182448829  0.9260994996101721  0.1510934185857715
  0.1868638141058242  0.7650492261330615  0.4549126633136718
  0.9015391347404202  0.2600483168036148  0.7115767128429967
  0.3504331283978611  0.1615878293924251  0.1006670526305332
  0.0411292582153155  0.6153925197916968  0.3135160002535004
  0.7903157843435997  0.9574341686376168  0.7670535722754093
  0.7918852769648387  0.6926282030743864  0.9112474422326631
  0.6864314032893331  0.9197930170874015  0.2962393679684976
  0.9185089186996979  0.3357703111503491  0.3737494979698770
  0.1959945353666759  0.9239266223726080  0.9694158702693293
  0.1811205928512838  0.6515440083910591  0.8997472866260680
  0.0806614809790646  0.2232628699138249  0.4888272148075930
  0.1142221267614195  0.6369859354656539  0.6019729857627654
  0.1721436600592660  0.0353405891288593  0.1178998110056082
  0.0530131991666595  0.5446048163667407  0.1193054479128662
  0.2699339970022406  0.3215331124083995  0.0444083424159209
  0.6324066387039654  0.3002173928668000  0.1205212186315879
  0.0253174355777681  0.5334004128710532  0.5108583891847814
  0.0018497353163984  0.9928137710400003  0.4571108743982912
  0.9322788702235412  0.0836230093729146  0.5002488684056726
  0.6747924783339162  0.5370648273770191  0.6983158868605644
  0.7922941916465877  0.2632340424544325  0.3272420104194225
  0.8716971405716445  0.8546809895274377  0.3501076634517149
  0.4554733125490906  0.5360730349557709  0.9160767367011966
  0.5874816030284403  0.0298587233014636  0.4155002206182599
  0.3550528376103870  0.7958123021126677  0.4942555326513380
  0.5519362727234396  0.3942462277049922  0.3593804146193563
  0.2979585057765837  0.5520112039670292  0.0048547106602307
  0.5152760775993014  0.8063028244722579  0.3225673220028030
  0.5986155307266099  0.1025571148242860  0.1069159637466791
  0.2683967853278025  0.6105600193946932  0.4905332203376290
  0.0603744850271909  0.9174652989453447  0.8326800162739300
  0.0060150484241487  0.2673848228993646  0.1780716505280049
  0.7830309909843821  0.6985427443039418  0.7145029983707818
  0.5687081602601429  0.9053236861392361  0.9480643512697657
  0.9358213248658622  0.4235690511289247  0.0033833478220622
  0.0730520787580043  0.7470473918981891  0.9876409534168795
  0.9618809785122716  0.9684886112653823  0.2702023240952879
  0.9509526120723336  0.0039707357469158  0.0911871227938966
  0.2159482663960820  0.3245616573635310  0.3961125700416957
  0.0050129086747676  0.3727876864742379  0.4532917520938457
  0.7652945387302654  0.6905498597117715  0.0697091426514579
  0.9345825036105504  0.8258257919106640  0.7265220941109320
  0.4501295692319897  0.9390336396499941  0.4716931339116020
  0.0652219813444363  0.1271153526909042  0.3423553761579198
  0.6989161104758091  0.0195969244589097  0.9143892184758399
  0.7817017360655009  0.7378873049101720  0.2700748687622353
  0.3744262650629743  0.3395826963583357  0.2854419434608625
  0.2896867253426710  0.2922625115288387  0.8686544534585680
  0.8549209042305704  0.5635678745806175  0.2794703264175595
  0.1316079196732351  0.3790057846646827  0.5759226780279258
  0.8770982036091467  0.9750243622676754  0.8491750689948359
  0.7671036065935256  0.0412588339494144  0.0796538457121253
  0.3876715790199786  0.0748177073453947  0.9467189097571566
  0.1631049450233680  0.3817732080009709  0.1980485771480882
  0.8764120629884639  0.1279032827713082  0.3189412865241139
  0.2120835165795041  0.1524276105544691  0.9585553429326955
  0.5042261162519972  0.6473806509639646  0.0564609966656239
  0.8475894608017467  0.5871708740284647  0.5791419156490084
  0.3046011404011814  0.8057051083461612  0.6844399324774599
  0.5108297370485149  0.6445521967635274  0.7433029127009978
  0.3501547173460957  0.3189002193021870  0.5338200918719934
  0.2521429277487504  0.7622724483748671  0.0333700449419186
  0.3779496413837089  0.8194732642658488  0.1654996471963311
  0.9607381334857994  0.6239801492341369  0.7150831375566141
  0.7977490310638831  0.3447668620152325  0.1715311967337831
  0.8834165908949579  0.2430283501474817  0.5413979429224418
  0.3352166054798489  0.6370502336915383  0.1468322169184759
  0.6275808033428710  0.8208349447329544  0.7410001101392338
  0.8357199910283384  0.5232417784170657  0.1635639514899342
  0.1881559377728462  0.9395654839083196  0.6702700993780708
  0.0100981914380443  0.8046051854257235  0.2322319894234808
 -0.0049462864094107  0.4338874978578838  0.2454557495796199
  0.6715486425715935  0.1526467603496663  0.2793370754062298
  0.3152592799953544  0.1728116064984041  0.2958267112333622
  0.3430607153446026  0.9947597339428456  0.1984657531294189
  0.1545488619654776  0.6992071614622026  0.1770050542563139
  0.6538465583106826  0.5883303846289365  0.1809026477272104
  0.4071869923384151  0.9003644143580984  0.0043712187506702
  0.6178530399392405  0.3344072372505344  0.9281370296373910
  0.1173253853872571  0.7589925672243094  0.7553066346205358
  0.1656250803452699  0.1979873620902286  0.1862819154966359
  0.8745286105703864  0.8690137569391955  0.5514225505093016
  0.6687081936124354  0.3463017184477745  0.6278199663999505
  0.7555586169748706  0.6554887381082004  0.4256244092049111
  0.0112180962836459  0.7570007832979759  0.4363359934313269
  0.7281684281908337  0.4520528888890611  0.3070656939346133
  0.6211495906200876  0.2516389755762702  0.4189255386562470
  0.5007855698239141  0.7334868947932058  0.9084089312714007
  0.2485176813140740  0.6101326715961167  0.3154537954357359
  0.6452210854073847  0.3593467214877554  0.7452396942042802
  0.9199086079757404  0.7957344109658940  0.0568235100402576
  0.1020698033960592  0.9014589864644246  0.3673840445474942
  0.5393758611810600  0.9726223970967862  0.6302018817930177
  0.2329907956311110  0.5110294371044635  0.6425054385371185
  0.2041968465851013  0.8594286073061276  0.1883934409949382
  0.7060988317529022  0.1786627477749226  0.9806074875017717
  0.4503240958865201  0.6506992517270066  0.4629013008076938
  0.3655721492648872  0.9608722549800905  0.7546438877509648
  0.2188638384906869  0.0429017454655117  0.8251156784237460
  0.7573767899966968  0.3793577427901915  0.4928493832696862
  0.4744913712377122  0.1278926433854384  0.2392783566810063
  0.4847567743596351  0.1054961813539338  0.7326257532683504
  0.3964342974158289  0.4894203914074091  0.5930587825495210
  0.7526464167136623  0.4926301963746454  0.0301455069716218
  0.4830749749120504  0.2971024588260355  0.6647323608851712
  0.5631492392334734  0.5313607641528345  0.5263512419030169
  0.5442150890201756  0.1550820859607011  0.9073154316351926
  0.2506107333114551  0.9477975591488346  0.4781411846711020
  0.3198570763378167  0.4555316628472159  0.1586335610324628
  0.9111864139558745  0.4339072587399972  0.8032033164988343
  0.1406694297150470  0.4482655539161177  0.9918208487577600
  0.9288121992554561  0.4207742324474918  0.6261727616320896
  0.2583820859217001  0.1495593928595465  0.4752835359316928
  0.2159596042176287  0.0341649342605623  0.3087482567521890
  0.6107339901583100  0.5859099429904175  0.3716619787307309
  0.6275342807147104  0.7878396890343857  0.1743810529591856
  0.0520811826037572  0.1671014312870761  0.8039821875462091
  0.5934779370518460  0.1479086906039823  0.5706939856632947
  0.4793957279892940  0.7840926881211721  0.6176834974522807
  0.8198137543050034  0.8785631874408070  0.1655405089985424
  0.5021498533661016  0.4068312834110132  0.1654878306359685
  0.0375797115182955  0.0537924595130176  0.9508906170187682
  0.1762051940725370  0.2865878121675922  0.7393836167766651
  0.8763306840959765  0.1658488789748730  0.1171408426834748
  0.7613829079812240  0.1171436200089944  0.4588718398641769
  0.3420233051631588  0.4808336201907583  0.4055374341760799
  0.0826124032265065  0.9922969660569465  0.1921881136318886
  0.8742584010299234  0.8563154015359615  0.8922401982438820
  0.1516578811748890  0.1221186579570969  0.6575929122805558
  0.7203098120493451  0.8521544088035055  0.0150038452231198
  0.6279797478326438  0.5719701387872110  0.8939569079822060
  0.7095682340903683  0.8325925820092925  0.4540111263188962
  0.7860410767795768  0.3084813995464616  0.8702130844143662
  0.7189496038362140  0.9619671969355644  0.5906514331929196
  0.4535244331910736  0.3263347724697192  0.0004447984265240
  0.0197964730682002  0.5628102096670177  0.8818636852424906
  0.9330551661652754  0.6108347883451037  0.0240360433592773
  0.9926008250642846  0.9871531372646464  0.6523052626664708
  0.8774608468602731  0.1173188833716937  0.8305357612515866
  0.6739414178976372  0.0799406001181812  0.7474759671303226
  0.3170699238929139  0.1963313299332671  0.7015316269849308
 
  0.00000000E+00  0.00000000E+00  0.00000000E+00
  0.00000000E+00  0.00000000E+00  0.00000000E+00
  0.00000000E+00  0.00000000E+00  0.00000000E+00
  0.00000000E+00  0.00000000E+00  0.00000000E+00
  0.00000000E+00  0.00000000E+00  0.00000000E+00
  0.00000000E+00  0.00000000E+00  0.00000000E+00
  0.00000000E+00  0.00000000E+00  0.00000000E+00
  0.00000000E+00  0.00000000E+00  0.00000000E+00
  0.00000000E+00  0.00000000E+00  0.00000000E+00
  0.00000000E+00  0.00000000E+00  0.00000000E+00
  0.00000000E+00  0.00000000E+00  0.00000000E+00
  0.00000000E+00  0.00000000E+00  0.00000000E+00
  0.00000000E+00  0.00000000E+00  0.00000000E+00
  0.00000000E+00  0.00000000E+00  0.00000000E+00
  0.00000000E+00  0.00000000E+00  0.00000000E+00
  0.00000000E+00  0.00000000E+00  0.00000000E+00
  0.00000000E+00  0.00000000E+00  0.00000000E+00
  0.00000000E+00  0.00000000E+00  0.00000000E+00
  0.00000000E+00  0.00000000E+00  0.00000000E+00
  0.00000000E+00  0.00000000E+00  0.00000000E+00
  0.00000000E+00  0.00000000E+00  0.00000000E+00
  0.00000000E+00  0.00000000E+00  0.00000000E+00
  0.00000000E+00  0.00000000E+00  0.00000000E+00
  0.00000000E+00  0.00000000E+00  0.00000000E+00
  0.00000000E+00  0.00000000E+00  0.00000000E+00
  0.00000000E+00  0.00000000E+00  0.00000000E+00
  0.00000000E+00  0.00000000E+00  0.00000000E+00
  0.00000000E+00  0.00000000E+00  0.00000000E+00
  0.00000000E+00  0.00000000E+00  0.00000000E+00
  0.00000000E+00  0.00000000E+00  0.00000000E+00
  0.00000000E+00  0.00000000E+00  0.00000000E+00
  0.00000000E+00  0.00000000E+00  0.00000000E+00
  0.00000000E+00  0.00000000E+00  0.00000000E+00
  0.00000000E+00  0.00000000E+00  0.00000000E+00
  0.00000000E+00  0.00000000E+00  0.00000000E+00
  0.00000000E+00  0.00000000E+00  0.00000000E+00
  0.00000000E+00  0.00000000E+00  0.00000000E+00
  0.00000000E+00  0.00000000E+00  0.00000000E+00
  0.00000000E+00  0.00000000E+00  0.00000000E+00
  0.00000000E+00  0.00000000E+00  0.00000000E+00
  0.00000000E+00  0.00000000E+00  0.00000000E+00
  0.00000000E+00  0.00000000E+00  0.00000000E+00
  0.00000000E+00  0.00000000E+00  0.00000000E+00
  0.00000000E+00  0.00000000E+00  0.00000000E+00
  0.00000000E+00  0.00000000E+00  0.00000000E+00
  0.00000000E+00  0.00000000E+00  0.00000000E+00
  0.00000000E+00  0.00000000E+00  0.00000000E+00
  0.00000000E+00  0.00000000E+00  0.00000000E+00
  0.00000000E+00  0.00000000E+00  0.00000000E+00
  0.00000000E+00  0.00000000E+00  0.00000000E+00
  0.00000000E+00  0.00000000E+00  0.00000000E+00
  0.00000000E+00  0.00000000E+00  0.00000000E+00
  0.00000000E+00  0.00000000E+00  0.00000000E+00
  0.00000000E+00  0.00000000E+00  0.00000000E+00
  0.00000000E+00  0.00000000E+00  0.00000000E+00
  0.00000000E+00  0.00000000E+00  0.00000000E+00
  0.00000000E+00  0.00000000E+00  0.00000000E+00
  0.00000000E+00  0.00000000E+00  0.00000000E+00
  0.00000000E+00  0.00000000E+00  0.00000000E+00
  0.00000000E+00  0.00000000E+00  0.00000000E+00
  0.00000000E+00  0.00000000E+00  0.00000000E+00
  0.00000000E+00  0.00000000E+00  0.00000000E+00
  0.00000000E+00  0.00000000E+00  0.00000000E+00
  0.00000000E+00  0.00000000E+00  0.00000000E+00
  0.00000000E+00  0.00000000E+00  0.00000000E+00
  0.00000000E+00  0.00000000E+00  0.00000000E+00
  0.00000000E+00  0.00000000E+00  0.00000000E+00
  0.00000000E+00  0.00000000E+00  0.00000000E+00
  0.00000000E+00  0.00000000E+00  0.00000000E+00
  0.00000000E+00  0.00000000E+00  0.00000000E+00
  0.00000000E+00  0.00000000E+00  0.00000000E+00
  0.00000000E+00  0.00000000E+00  0.00000000E+00
  0.00000000E+00  0.00000000E+00  0.00000000E+00
  0.00000000E+00  0.00000000E+00  0.00000000E+00
  0.00000000E+00  0.00000000E+00  0.00000000E+00
  0.00000000E+00  0.00000000E+00  0.00000000E+00
  0.00000000E+00  0.00000000E+00  0.00000000E+00
  0.00000000E+00  0.00000000E+00  0.00000000E+00
  0.00000000E+00  0.00000000E+00  0.00000000E+00
  0.00000000E+00  0.00000000E+00  0.00000000E+00
  0.00000000E+00  0.00000000E+00  0.00000000E+00
  0.00000000E+00  0.00000000E+00  0.00000000E+00
  0.00000000E+00  0.00000000E+00  0.00000000E+00
  0.00000000E+00  0.00000000E+00  0.00000000E+00
  0.00000000E+00  0.00000000E+00  0.00000000E+00
  0.00000000E+00  0.00000000E+00  0.00000000E+00
  0.00000000E+00  0.00000000E+00  0.00000000E+00
  0.00000000E+00  0.00000000E+00  0.00000000E+00
  0.00000000E+00  0.00000000E+00  0.00000000E+00
  0.00000000E+00  0.00000000E+00  0.00000000E+00
  0.00000000E+00  0.00000000E+00  0.00000000E+00
  0.00000000E+00  0.00000000E+00  0.00000000E+00
  0.00000000E+00  0.00000000E+00  0.00000000E+00
  0.00000000E+00  0.00000000E+00  0.00000000E+00
  0.00000000E+00  0.00000000E+00  0.00000000E+00
  0.00000000E+00  0.00000000E+00  0.00000000E+00
  0.00000000E+00  0.00000000E+00  0.00000000E+00
  0.00000000E+00  0.00000000E+00  0.00000000E+00
  0.00000000E+00  0.00000000E+00  0.00000000E+00
  0.00000000E+00  0.00000000E+00  0.00000000E+00
  0.00000000E+00  0.00000000E+00  0.00000000E+00
  0.00000000E+00  0.00000000E+00  0.00000000E+00
  0.00000000E+00  0.00000000E+00  0.00000000E+00
  0.00000000E+00  0.00000000E+00  0.00000000E+00
  0.00000000E+00  0.00000000E+00  0.00000000E+00
  0.00000000E+00  0.00000000E+00  0.00000000E+00
  0.00000000E+00  0.00000000E+00  0.00000000E+00
  0.00000000E+00  0.00000000E+00  0.00000000E+00
  0.00000000E+00  0.00000000E+00  0.00000000E+00
  0.00000000E+00  0.00000000E+00  0.00000000E+00
  0.00000000E+00  0.00000000E+00  0.00000000E+00
  0.00000000E+00  0.00000000E+00  0.00000000E+00
  0.00000000E+00  0.00000000E+00  0.00000000E+00
  0.00000000E+00  0.00000000E+00  0.00000000E+00
  0.00000000E+00  0.00000000E+00  0.00000000E+00
  0.00000000E+00  0.00000000E+00  0.00000000E+00
  0.00000000E+00  0.00000000E+00  0.00000000E+00
  0.00000000E+00  0.00000000E+00  0.00000000E+00
  0.00000000E+00  0.00000000E+00  0.00000000E+00
  0.00000000E+00  0.00000000E+00  0.00000000E+00
  0.00000000E+00  0.00000000E+00  0.00000000E+00
  0.00000000E+00  0.00000000E+00  0.00000000E+00
  0.00000000E+00  0.00000000E+00  0.00000000E+00
  0.00000000E+00  0.00000000E+00  0.00000000E+00
  0.00000000E+00  0.00000000E+00  0.00000000E+00
  0.00000000E+00  0.00000000E+00  0.00000000E+00
  0.00000000E+00  0.00000000E+00  0.00000000E+00
  0.00000000E+00  0.00000000E+00  0.00000000E+00
  0.00000000E+00  0.00000000E+00  0.00000000E+00
  0.00000000E+00  0.00000000E+00  0.00000000E+00
  0.00000000E+00  0.00000000E+00  0.00000000E+00
  0.00000000E+00  0.00000000E+00  0.00000000E+00
  0.00000000E+00  0.00000000E+00  0.00000000E+00
  0.00000000E+00  0.00000000E+00  0.00000000E+00
  0.00000000E+00  0.00000000E+00  0.00000000E+00
  0.00000000E+00  0.00000000E+00  0.00000000E+00
  0.00000000E+00  0.00000000E+00  0.00000000E+00
  0.00000000E+00  0.00000000E+00  0.00000000E+00
  0.00000000E+00  0.00000000E+00  0.00000000E+00
  0.00000000E+00  0.00000000E+00  0.00000000E+00
  0.00000000E+00  0.00000000E+00  0.00000000E+00
  0.00000000E+00  0.00000000E+00  0.00000000E+00
  0.00000000E+00  0.00000000E+00  0.00000000E+00
  0.00000000E+00  0.00000000E+00  0.00000000E+00
  0.00000000E+00  0.00000000E+00  0.00000000E+00
  0.00000000E+00  0.00000000E+00  0.00000000E+00
  0.00000000E+00  0.00000000E+00  0.00000000E+00
  0.00000000E+00  0.00000000E+00  0.00000000E+00
  0.00000000E+00  0.00000000E+00  0.00000000E+00
  0.00000000E+00  0.00000000E+00  0.00000000E+00
  0.00000000E+00  0.00000000E+00  0.00000000E+00
  0.00000000E+00  0.00000000E+00  0.00000000E+00
  0.00000000E+00  0.00000000E+00  0.00000000E+00
  0.00000000E+00  0.00000000E+00  0.00000000E+00
  0.00000000E+00  0.00000000E+00  0.00000000E+00
  0.00000000E+00  0.00000000E+00  0.00000000E+00
  0.00000000E+00  0.00000000E+00  0.00000000E+00
  0.00000000E+00  0.00000000E+00  0.00000000E+00
  0.00000000E+00  0.00000000E+00  0.00000000E+00
  0.00000000E+00  0.00000000E+00  0.00000000E+00
  0.00000000E+00  0.00000000E+00  0.00000000E+00
  0.00000000E+00  0.00000000E+00  0.00000000E+00
  0.00000000E+00  0.00000000E+00  0.00000000E+00
  0.00000000E+00  0.00000000E+00  0.00000000E+00
  0.00000000E+00  0.00000000E+00  0.00000000E+00
  0.00000000E+00  0.00000000E+00  0.00000000E+00
  0.00000000E+00  0.00000000E+00  0.00000000E+00
  0.00000000E+00  0.00000000E+00  0.00000000E+00
  0.00000000E+00  0.00000000E+00  0.00000000E+00
  0.00000000E+00  0.00000000E+00  0.00000000E+00
  0.00000000E+00  0.00000000E+00  0.00000000E+00
  0.00000000E+00  0.00000000E+00  0.00000000E+00
  0.00000000E+00  0.00000000E+00  0.00000000E+00
  0.00000000E+00  0.00000000E+00  0.00000000E+00
  0.00000000E+00  0.00000000E+00  0.00000000E+00
  0.00000000E+00  0.00000000E+00  0.00000000E+00
  0.00000000E+00  0.00000000E+00  0.00000000E+00
  0.00000000E+00  0.00000000E+00  0.00000000E+00
  0.00000000E+00  0.00000000E+00  0.00000000E+00
  0.00000000E+00  0.00000000E+00  0.00000000E+00
  0.00000000E+00  0.00000000E+00  0.00000000E+00
  0.00000000E+00  0.00000000E+00  0.00000000E+00
  0.00000000E+00  0.00000000E+00  0.00000000E+00
  0.00000000E+00  0.00000000E+00  0.00000000E+00
  0.00000000E+00  0.00000000E+00  0.00000000E+00
  0.00000000E+00  0.00000000E+00  0.00000000E+00
  0.00000000E+00  0.00000000E+00  0.00000000E+00
  0.00000000E+00  0.00000000E+00  0.00000000E+00
  0.00000000E+00  0.00000000E+00  0.00000000E+00
  0.00000000E+00  0.00000000E+00  0.00000000E+00
  0.00000000E+00  0.00000000E+00  0.00000000E+00
  0.00000000E+00  0.00000000E+00  0.00000000E+00
  0.00000000E+00  0.00000000E+00  0.00000000E+00
  0.00000000E+00  0.00000000E+00  0.00000000E+00
  0.00000000E+00  0.00000000E+00  0.00000000E+00
  0.00000000E+00  0.00000000E+00  0.00000000E+00
  0.00000000E+00  0.00000000E+00  0.00000000E+00
  0.00000000E+00  0.00000000E+00  0.00000000E+00
  0.00000000E+00  0.00000000E+00  0.00000000E+00
  0.00000000E+00  0.00000000E+00  0.00000000E+00
  0.00000000E+00  0.00000000E+00  0.00000000E+00
  0.00000000E+00  0.00000000E+00  0.00000000E+00
  0.00000000E+00  0.00000000E+00  0.00000000E+00
  0.00000000E+00  0.00000000E+00  0.00000000E+00
  0.00000000E+00  0.00000000E+00  0.00000000E+00
  0.00000000E+00  0.00000000E+00  0.00000000E+00
  0.00000000E+00  0.00000000E+00  0.00000000E+00
  0.00000000E+00  0.00000000E+00  0.00000000E+00
  0.00000000E+00  0.00000000E+00  0.00000000E+00
  0.00000000E+00  0.00000000E+00  0.00000000E+00
  0.00000000E+00  0.00000000E+00  0.00000000E+00
  0.00000000E+00  0.00000000E+00  0.00000000E+00
  0.00000000E+00  0.00000000E+00  0.00000000E+00
  0.00000000E+00  0.00000000E+00  0.00000000E+00
  0.00000000E+00  0.00000000E+00  0.00000000E+00
  0.00000000E+00  0.00000000E+00  0.00000000E+00
  0.00000000E+00  0.00000000E+00  0.00000000E+00
  0.00000000E+00  0.00000000E+00  0.00000000E+00
  0.00000000E+00  0.00000000E+00  0.00000000E+00
  0.00000000E+00  0.00000000E+00  0.00000000E+00
  0.00000000E+00  0.00000000E+00  0.00000000E+00
  0.00000000E+00  0.00000000E+00  0.00000000E+00
  0.00000000E+00  0.00000000E+00  0.00000000E+00
  0.00000000E+00  0.00000000E+00  0.00000000E+00
  0.00000000E+00  0.00000000E+00  0.00000000E+00
  0.00000000E+00  0.00000000E+00  0.00000000E+00
  0.00000000E+00  0.00000000E+00  0.00000000E+00
  0.00000000E+00  0.00000000E+00  0.00000000E+00
  0.00000000E+00  0.00000000E+00  0.00000000E+00
  0.00000000E+00  0.00000000E+00  0.00000000E+00
  0.00000000E+00  0.00000000E+00  0.00000000E+00
  0.00000000E+00  0.00000000E+00  0.00000000E+00