In2O3 structure 32 - random placement wi
   1.00000000000000     
     8.0083731359167825    0.0000844898044460   -0.0824838644092086
     0.0002412259879896    8.0868055526200617    0.0014379681439390
    -0.0823893624351228    0.0012769619382232    8.0162001942054850
   In   O 
    16    24
Direct
  0.2405015140875624  0.2278920823193697  0.2090807521656568
 -0.0067628139542890  0.5003747326816247  0.4612777307887493
  0.7404883511992510  0.2278769313424225  0.7091041028090934
  0.2429330059384875  0.2280967941481205  0.7111664575622508
  0.7111864074974173  0.7277752853877358  0.2386114289933464
  0.4630909640486512  0.0001653051586246  0.4911893637796756
  0.7429839174890042  0.2280583027007999  0.2112941570987114
  0.9608924691824841  0.0007167606847929  0.4887489536464636
  0.7131856606776110  0.7281081942126751  0.7411337093680240
  0.9907611914607678  0.5004255975078967  0.9589217495517928
  0.9631543085561464  0.0002019364425873  0.9911463528255211
  0.2109762465455494  0.7278909599363650  0.7387324512373944
  0.4907366896116328  0.5005413827844094  0.4587765592845428
  0.2131732870970322  0.7280816270292130  0.2410442883441749
  0.4931365130922134  0.5002963593887680  0.9612149158250051
  0.4609238163311212  0.0007173767312598  0.9888009649556520
  0.2088022167691728  0.9637577353593996  0.6037443983757430
  0.3553410337612065  0.2650935215084126  0.4568782454897926
  0.7087697572693661  0.9637361771418119  0.1037387882718323
  0.4949108111869637  0.2640455762698800  0.0961593805334023
  0.7452629005899224  0.4643465235560594  0.3460740592095770
  0.9948744630015741  0.2640987395078059  0.5960783473187978
  0.8480535755721206  0.9644806446965043  0.7433187572027845
  0.3479762423979482  0.9644354485337318  0.2433205514240372
  0.0978776992913213  0.7636748977906456  0.9932109657110433
  0.9567778710929098  0.6142358085615626  0.7045779855906071
  0.1055499985986596  0.4636911273426681  0.2069752767491515
  0.9591041472373866  0.7651552155126057  0.3534278561381163
  0.8554215218378475  0.2648889194131427  0.9567937253819047
  0.5980735100076069  0.7637655928718864  0.4932050825600061
  0.4569292491104011  0.6142278212343359  0.2044673274274494
  0.7465765400751687  0.6142308316170931  0.9946443669082041
  0.4588268154769187  0.7651575029172715  0.8535952527215851
  0.2066258462252727  0.1144881361562219  0.9549508947833987
  0.4962270449916700  0.1143193011202855  0.7445956413343460
  0.2465864377544297  0.6143676710521897  0.4946688713643320
  0.2450849057362089  0.4643745856290157  0.8460679189081265
  0.9962784817106951  0.1143026919098449  0.2445700481475029
  0.6054843355420914  0.4636899529870377  0.7068512378639464
  0.7065378046866995  0.1144556850485314  0.4550009955764679
 
  0.00000000E+00  0.00000000E+00  0.00000000E+00
  0.00000000E+00  0.00000000E+00  0.00000000E+00
  0.00000000E+00  0.00000000E+00  0.00000000E+00
  0.00000000E+00  0.00000000E+00  0.00000000E+00
  0.00000000E+00  0.00000000E+00  0.00000000E+00
  0.00000000E+00  0.00000000E+00  0.00000000E+00
  0.00000000E+00  0.00000000E+00  0.00000000E+00
  0.00000000E+00  0.00000000E+00  0.00000000E+00
  0.00000000E+00  0.00000000E+00  0.00000000E+00
  0.00000000E+00  0.00000000E+00  0.00000000E+00
  0.00000000E+00  0.00000000E+00  0.00000000E+00
  0.00000000E+00  0.00000000E+00  0.00000000E+00
  0.00000000E+00  0.00000000E+00  0.00000000E+00
  0.00000000E+00  0.00000000E+00  0.00000000E+00
  0.00000000E+00  0.00000000E+00  0.00000000E+00
  0.00000000E+00  0.00000000E+00  0.00000000E+00
  0.00000000E+00  0.00000000E+00  0.00000000E+00
  0.00000000E+00  0.00000000E+00  0.00000000E+00
  0.00000000E+00  0.00000000E+00  0.00000000E+00
  0.00000000E+00  0.00000000E+00  0.00000000E+00
  0.00000000E+00  0.00000000E+00  0.00000000E+00
  0.00000000E+00  0.00000000E+00  0.00000000E+00
  0.00000000E+00  0.00000000E+00  0.00000000E+00
  0.00000000E+00  0.00000000E+00  0.00000000E+00
  0.00000000E+00  0.00000000E+00  0.00000000E+00
  0.00000000E+00  0.00000000E+00  0.00000000E+00
  0.00000000E+00  0.00000000E+00  0.00000000E+00
  0.00000000E+00  0.00000000E+00  0.00000000E+00
  0.00000000E+00  0.00000000E+00  0.00000000E+00
  0.00000000E+00  0.00000000E+00  0.00000000E+00
  0.00000000E+00  0.00000000E+00  0.00000000E+00
  0.00000000E+00  0.00000000E+00  0.00000000E+00
  0.00000000E+00  0.00000000E+00  0.00000000E+00
  0.00000000E+00  0.00000000E+00  0.00000000E+00
  0.00000000E+00  0.00000000E+00  0.00000000E+00
  0.00000000E+00  0.00000000E+00  0.00000000E+00
  0.00000000E+00  0.00000000E+00  0.00000000E+00
  0.00000000E+00  0.00000000E+00  0.00000000E+00
  0.00000000E+00  0.00000000E+00  0.00000000E+00
  0.00000000E+00  0.00000000E+00  0.00000000E+00
