Amorphous Sb2Se3                        
   1.00000000000000     
    20.1283632703415059    0.0000000000000000    0.0000000000000000
     0.0000000000000000   20.1283632703415059    0.0000000000000000
     0.0000000000000000    0.0000000000000000   20.1283632703415059
   Sb   S 
   120   180
Direct
  0.2224340636713191  0.6785882610141899  0.3196797682540820
  0.4274135559661767  0.8938007858930510  0.7338096122976568
  0.5066770854494359  0.8213007322107153  0.9511794326145071
  0.8966969154493890  0.9682626728409857  0.1692049793621362
  0.3189282003323086  0.2084500824434257  0.8746289393092174
  0.3227343156970052  0.9163841909343993  0.0811586047054383
  0.1210514499063048  0.6765719960922190  0.6818508298822932
  0.6305017431523663  0.7247740369882169  0.4126564324982487
  0.6901066984392004  0.0577715713865403  0.6710634933760640
  0.4266194336606808  0.6324332638894657  0.8787846578249272
  0.6188977688639726  0.0742080248704265  0.8428676267823312
  0.2036626775600646  0.2068879196917869  0.7087418535677315
  0.5766601920650847  0.5706569462850986  0.9740934151705717
  0.5068881291456304  0.0365214587972324  0.4302393163937758
  0.0690789830960713  0.1454358960169257  0.7789118772698962
  0.1062929105324221  0.6775544927763488  0.8572000318746325
  0.7977763152090568  0.4350724798716636  0.7763695319214752
  0.5908324189212982  0.9166679359641208  0.5637172612789189
  0.7993291122467863  0.7990137624702210  0.1912918097677537
  0.3559832882014021  0.4682263183009023  0.4392652002938875
  0.9108032689541753  0.4564221302531198  0.5974599797148611
  0.6707503058679718  0.8778919845383552  0.8530700154971201
  0.3350477481309045  0.7598125359275295  0.4722205788276447
  0.1361732070816227  0.9275230333072646  0.0557095563661639
  0.7863371239118276  0.2849070377872010  0.1117805954605221
  0.7505586041443036  0.0170395559796334  0.3193862959007557
  0.4778668892752582  0.2030625536437217  0.0030012456546729
  0.8555699290174089  0.1246648755089393  0.0580540684206885
  0.3169494420513677  0.0312283361161382  0.3602337993166321
  0.5680607911139030  0.0797152540731865  0.2537703616222691
  0.6060902377847668  0.3259628430205334  0.2448739395107706
  0.4541202556662316  0.8697136523224824  0.5405924909005740
  0.1745180231267750  0.4976580056372013  0.6298551650109757
  0.3208497683136661  0.8311869601367072  0.8861667945343596
  0.9767646724098384  0.8680955330775505  0.3041947530166049
  0.6148169298226774  0.5315553561440102  0.7549228145614396
  0.4350389577794148  0.8902743994550816  0.3775146157663845
  0.9229541144213186  0.5951866902812571  0.2269793260025549
  0.8322284361424908  0.5583313715609522  0.0512059407908992
  0.1716819902115949  0.4683979371024076  0.9668946227623761
  0.8154455081264357  0.3486643234769076  0.4780357428687746
  0.9154476295150230  0.1087079942921192  0.4088094816946258
  0.6590889883982117  0.4284522410689514  0.4856693589155980
  0.0948842531243965  0.7692454917323113  0.2115276002819494
  0.4686847223209694  0.6210397574642260  0.4808060494586034
  0.8644234419795881  0.1244273286447884  0.8116789697131609
  0.4272693468397749  0.6614891620096186  0.0823177451392197
  0.4012584055369935  0.2916651426133829  0.2148331713457148
  0.8806498844170183  0.3132712162845535  0.9309677118929846
  0.5889843022361383  0.4070112517738347  0.8515594168725431
  0.0700163635564647  0.8330887108490814  0.7746962368668772
  0.3602515225453918  0.7445328853061757  0.6634086862625108
  0.0277558346831140  0.2729455391006926  0.3851141656382591
  0.1246535862120195  0.7325398913080011  0.0257084239347493
  0.2071379598753185  0.1820761249527516  0.0744371204793511
  0.1042709884132795  0.9478967198509616  0.6350027662480556
  0.6979443770034724  0.2828738241358570  0.7710242680820576
  0.6875812083302700  0.8551599369074266  0.6569514332943969
  0.3037748271350580  0.5758639458438268  0.7186155298727169
  0.2272221502663646  0.1096431109802043  0.5245783676469312
  0.3734599985640377  0.1174916859270803  0.1448764363509149
  0.7908260808449977  0.6069014107251366  0.7360560312153666
  0.6746126134978314  0.1298788441247068  0.1219929875253774
  0.7931807639430579  0.3933564846070426  0.0176973206398186
  0.4975994302202248  0.0738240120610595  0.6517314004283440
  0.2337860634689498  0.6096616450449026  0.8942116506811653
  0.5244498535897355  0.2349158729822597  0.8146769000610985
  0.5136906837142562  0.5037730058929372  0.2259793260357014
  0.2565805241803597  0.8513772853985085  0.3227327631962483
  0.8640194200392464  0.7280342777725969  0.9761501871191616
  0.2672062090877619  0.0378317496353878  0.7251456087537373
  0.0467058899656868  0.1929214796372107  0.0025241480845030
  0.9772401569378018  0.9042734719073233  0.5786734763349153
  0.9402454449897784  0.2941464075967083  0.7534099170766272
  0.3777258726872870  0.3917847572602315  0.9574182607303900
  0.0696395092749563  0.5416196081210720  0.2952921469151887
  0.4923750025885717  0.3768590932126418  0.6002565727640370
  0.8612844355464131  0.9542759001853232 -0.0007909690564371
  0.0470851881733737  0.3573985449350136  0.2169068539607553
  0.4898686351881583  0.0083777107940093  0.0395030938766367
  0.4591534400939498  0.8571969877651011  0.1667523370574641
  0.0350705746466215  0.5991640106276558  0.5434530632307462
  0.9515396077209880  0.1984745261094973  0.1972102574688706
  0.0262411285008696  0.0218148371468765  0.8409661799208767
  0.2817770530679503  0.4033255657115726  0.8463627988734572
  0.8762299669656953  0.6350731119558001  0.4034726582779877
  0.8299025156056992  0.7357140812153000  0.5658136522017136
  0.5746474588520574  0.3209408181649022  0.1007633304495111
  0.6235571055465293  0.7213057527964962  0.7702246796996940
  0.8076270391219340  0.2838366160852547  0.2951200296031647
  0.5647716049749233  0.2879034565179623  0.4520285264200669
  0.4119086607240227  0.1851307797468813  0.4476188272860865
  0.8906377955880239  0.6864588266481759  0.8084139270649257
  0.8804517008191036  0.9053238782044731  0.8236786799427692
  0.6776810474662563  0.8868514585440431  0.2657031523659103
  0.1511363101678100  0.4360324438860608  0.4368094605037955
  0.6730410335121365  0.9765968452182699  0.0154211558825933
  0.1493995587237525  0.9611933124487350  0.2320854839589453
  0.0471708970199601  0.4843980615853758  0.7944777020592003
  0.7735200319340653  0.8528018900516698  0.4281090483389445
  0.6804621497036516  0.1460503391347936  0.4374189447176183
  0.0203015441689778  0.5596440754232890  0.0697317607878836
  0.1176264473672915  0.0906484281510813  0.2905266247534961
  0.4109122172374288  0.3449876179763330  0.4843507778172386
  0.2481371085934265  0.2216580902000297  0.3514130068799994
  0.0592680204184766  0.0170713970344617  0.4671183319715052
  0.4034877653297299  0.3745914073151060  0.7753847640683375
  0.4555714545688662  0.6801838647696548  0.3184323537349101
  0.9565224623088523  0.2723134469506395  0.5891661687260041
  0.5305556757252594  0.6098083153632046  0.6580434659203032
  0.6436116735028351  0.4477329949276220  0.1054813794352347
  0.1724729912088074  0.3950732756856469  0.1509041544912918
  0.2514831042860586  0.0325034756251378  0.9453966474947764
  0.8436585455414849  0.1166259090007194  0.6142086109460320
  0.2682570175407664  0.5155854701787851  0.2736336504551223
  0.7434584442468495  0.5905409290588767  0.2676056637933405
  0.3694173899383057  0.4688331454842519  0.1154281811070842
  0.7008465789542870  0.5987531424562516  0.5380971602072562
  0.1178185294865771  0.2159804176232812  0.5483041420729171
  0.3451526090374584  0.2898560139509570  0.6023056649126651
  0.3621581613966834  0.4025858524561179  0.6621312535055480
  0.7070159712486676  0.3655510314273510  0.8653890639281085
  0.2430851660630503  0.7611088552858666  0.2311990952789579
  0.4267897200141216  0.5129209401266940  0.5268357040050236
  0.8492386837044916  0.1305351074201225  0.1838961091239468
  0.4430428565527661 -0.0004321019123034  0.3165340628416125
  0.1194459570584167  0.1215190028281395  0.6671788838949615
  0.8565151019686660  0.8441603848675703  0.7161711775962406
  0.9432604877276681  0.4883519426256284  0.9906778871337063
  0.3875170876808245  0.1172049780394904  0.0221556073609932
  0.2848185257840793  0.4140379861772158  0.0394612113505561
  0.7458852068344425  0.8969999113741749  0.9629096478085555
  0.1478990413068614  0.7957597762388773  0.8611093278326828
  0.2949553524117060  0.3388973560507834  0.3579322982164392
  0.7397431256416194  0.3520421816232667  0.2037361250494583
  0.4463779612370377  0.0148392377165147  0.7736256223687908
  0.2079100392286568  0.0945278923136677  0.8146329358236324
  0.0000473634161802  0.0177006619662362  0.3576234654426572
  0.9412436900364879  0.7444272927231379  0.4118424690828535
  0.8563492921553694  0.2151357193350471  0.4729505741723008
  0.8571343124999793  0.3058032359185789  0.6603323096040759
  0.7572057486563097  0.1600488646560395  0.6915227710275473
  0.5179698475106316  0.3203804267128280  0.9084882018118440
  0.6957379758395257  0.7352263980398697  0.6565691615358543
  0.7719160802647126  0.7047947242121416  0.4623589285551788
  0.2247752650139911  0.8444146743545657  0.0751014162238768
  0.3596412500526306  0.0559825365153373  0.8067622077980792
  0.3807636141777205  0.8159844065062666  0.2979186463002225
  0.1967639552728350  0.0601319811362375  0.4096939801383098
  0.7840145900629524  0.0104710995278944  0.0801473489812019
  0.5314400040153682  0.5024464559481299  0.1037088733063012
  0.5507246311462032  0.6286265888377046  0.2261397036684714
  0.3618322147838809  0.5348792164646293  0.8198097558973572
  0.9218994920666127  0.2001861105658885  0.3241667311180193
  0.3671802286429063  0.1839617587686561  0.3324975198063603
  0.7120053336907012  0.0156018277853338  0.7856788476797837
  0.0219649851644177  0.2648056475345207  0.8923807800177470
  0.1436711078485633  0.5548100512237158  0.3954302031359280
  0.1861478358540139  0.1389122813715939  0.9607593810915203
  0.7968927920923727  0.4540291782264501  0.5505308152672861
  0.0621277886136084  0.0785251038608800  0.1713986268574061
  0.9461977228418555  0.0387114972395603  0.0580759380427540
  0.3817944692218352  0.9257881700394198  0.6215944391163872
  0.4998939613153409  0.6993429948023688  0.9816625802461181
  0.5753415309307132  0.1058026718793195  0.0410110151640493
  0.9464976866680017  0.5445133439410313  0.3423974675026478
  0.6283135202737088  0.4585118203488612  0.2416963250492745
  0.0931493648503899  0.1662540727921057  0.1293807291962282
  0.1465396089742866  0.5396093117869125  0.7468573741694235
  0.6146252089259570  0.7763958708028528  0.9031511561571909
  0.3835110523109149  0.2514985779998928  0.7754498312356309
  0.1404325216750847  0.2844596737215310  0.4460708344356620
  0.9189256079273866  0.5590431584496889  0.5290274111114701
  0.0341774545183917  0.6853473345260611  0.9567034394806958
  0.2306963167692329  0.1176837360629786  0.2321752748862582
  0.2122007836230501  0.3934870548125340  0.3315287043523842
  0.2195134785669817  0.7542626704513473  0.4196414551872028
  0.8019349844765821  0.8549549374593651  0.5507408701071039
  0.1912571124540142  0.2897713184258007  0.6173154575452314
  0.2527642431586213  0.4517491321471976  0.5071968749411774
  0.7318725556846585  0.6148227935771831  0.1118532398735290
  0.2718269961695498  0.6845637965532398  0.7581670169933340
  0.1359508865100834  0.2768892131023501  0.0413628449892397
  0.5667076520364485  0.4077173073416693  0.4092173103553610
  0.6463261540723406  0.2063175127198933  0.8555136007430496
  0.9717146577115077  0.7623393551058913  0.2405368819691294
  0.0247646300525611  0.1631158074552384  0.4472303800694309
  0.8933531459189611  0.4107324922664485  0.8511899979959532
  0.7766519776559159  0.1310259614836860  0.3514020371902828
  0.2765763159513713  0.9601536117050669  0.2516240897141882
  0.6191802155090906  0.5076735754827150  0.5712901126790810
  0.4994780886417029  0.5086145254400134  0.7179116840252567
  0.6070237901324710  0.1810992887866014  0.5474522339914650
  0.6266318654099027  0.0206535207647014  0.3473417607682698
  0.3600684006888655  0.6459995451147306  0.4201504770231168
  0.3926654729413234  0.0654612725572688  0.4802184044513091
  0.9182881762498525  0.4020920327998461  0.0395476440589345
  0.7139078414287986  0.7719166371489776  0.2852210370268128
  0.0098371608425882  0.6288466123948183  0.6602854750858451
  0.9601895524019387  0.0238101256802120  0.5476182278593128
  0.2314435818978331  0.2911248485048151  0.8588662530402644
  0.4670495366907468  0.1962797360896122  0.1639912858059231
  0.0968032825855643  0.6721664818573712  0.1313802951158686
  0.7616039436245563  0.7597262673755589  0.0443723459067277
  0.7741517505623060  0.9782257303758298  0.4339573661963262
  0.8166005231760343  0.7671906060261477  0.8618915286009532
  0.6324783609241932  0.4608893562666288  0.9709600926792771
  0.5770107174586545  0.0823868009997034  0.5457125437030685
  0.8056311983608349  0.0680544375769266  0.9225165562006172
  0.1689247368174313  0.5101047429037231  0.1998025065669390
  0.2733241897686082  0.7499441665860805  0.5759538066867240
  0.4789746587109615  0.1453229537842261  0.8939098966602176
  0.5263592659070870  0.1460099847250650  0.3816909849594142
  0.8264372458122382  0.2448598733970379  0.8333407438313949
  0.6763320604006939  0.2628817597786007  0.3983440327187152
  0.2454330609972617  0.2193531984864914  0.2200355364599302
  0.9829448873575589  0.8568401810964515  0.8650624369857870
  0.3316880618786331  0.4235785789237095  0.2222277198843039
  0.0619295456592167  0.8933154354460114  0.4890545942056997
  0.1202560231183912  0.8817279914693553  0.3218514476952378
  0.5061750769513487  0.5771555735623863  0.3696154667150228
  0.9566215668292852  0.1695667099310815  0.7206448014493138
  0.0778846859633067  0.5330351198268748  0.9021300410643794
  0.0886133582505004  0.2534137007299386  0.2781420437151895
  0.8010009275941798  0.0060318114841084  0.6264848663094837
  0.4868153639642773  0.3357279241873207  0.2892885995654820
  0.6795392427262417  0.5541465269679112  0.4210214652103462
  0.5523198219815797  0.9655673785321597  0.6735843109179462
  0.9524318424856111  0.1200452259708645  0.8976639539940904
  0.1092508631623398  0.3778886537779038  0.8129341685394811
  0.3891845539214978  0.7774041997945444  0.1017423927148284
  0.9413374647433232  0.2313292002525333  0.0593343818147796
  0.8426920096438333  0.3811724247962581  0.3617673068761361
  0.3986342190095257  0.6076081399650743  0.2051832920679908
  0.3873924757983541  0.6264171091967856  0.6400855290281160
  0.0660613786116394  0.4804498477205060  0.5717812158040325
  0.7738861056171985  0.1842081842990133  0.5243564384774351
  0.6130714374662531  0.3330634847381332  0.5584661645018599
  0.5801418098007870  0.1333883213883156  0.7208208759242826
  0.6742043316566771  0.2565532666777930  0.0594071170840941
  0.6492247388846784  0.8449796158931246  0.4405185086021593
  0.3226896031728437  0.9249641099979752  0.4285019158647867
  0.5896215862118533  0.3402485388802408  0.7405216542971346
  0.6966387084569706  0.6828323854883156  0.0439490626311313
  0.1588283197883422  0.8373158530462036  0.6480496587621225
  0.9403642954558017  0.3649758063215629  0.5032736746178650
  0.5975209111707495  0.8433041028916337  0.7471760305967897
  0.7055822170133529  0.8668738484590827  0.1486919955465276
  0.5072907593097373  0.7016275927352226  0.7364373751629405
  0.9171524343707811  0.6401377120384190  0.0894126086558474
  0.2956102968768402  0.1412551472529575  0.6548220490697652
  0.6390574617923976  0.1822902474571413  0.2278757827651469
  0.4556817869537647  0.5400850630369158  0.9585647222027792
  0.3097716542232757  0.8900021429471084  0.7758567443101920
  0.5848137890733812  0.6034243899636732  0.8526996747527995
  0.6483166047360924  0.0199069565006414  0.1794907437847924
  0.6080135568273968  0.6787046154879471  0.5248549159557682
  0.0662831582823342  0.3570669305009233  0.9038613663220748
  0.0112198993871467  0.9332707188780884  0.2037146458530087
  0.7681379017074649  0.5292101488545035  0.3758154936488963
  0.1619917660737184  0.9489288794192958  0.9343282609114208
  0.0534019554962798  0.4184160820229979  0.3226659629105441
  0.8489537760006717  0.8896378447840178  0.2694508053204290
  0.7079468344203137  0.0835208333641936  0.9483434159510196
  0.4649037091205436  0.2569463554798588  0.6210139017508209
  0.1833074323248804  0.6136862096581548  0.5922378100708783
  0.4333739344660111  0.7967104888437236  0.8510649983420495
  0.8172331428341255  0.6209401318217231  0.9441174357875683
  0.2001728321696424  0.5787321467840058  0.0108430067776966
  0.9883523802509087  0.4971286388238116  0.1715120648041039
  0.5089990395014614  0.7531608701683262  0.4090281689151078
  0.1137603957356061  0.9499204740782746  0.7623024206578563
  0.0971328208131041  0.7703571418775014  0.5990147217900168
  0.9479969362666326  0.7387718516267451  0.5138285890505893
  0.8774833180515151  0.5209408380678684  0.7176298096288455
  0.3610995222747940  0.2700625632781620  0.9768263012217869
  0.2569323170220514  0.0213482909933330  0.0737908121486777
  0.5442383749265389  0.6672032191676490  0.1319684877130287
  0.3011899836192759  0.5907730979037419  0.1759567096811044
  0.3680915026575027  0.9214437237831409  0.9639338596339198
  0.8954347161395806  0.3103784415851950  0.2100486994259126
  0.9365665049098912  0.0002407106224977  0.7598055852385208
  0.5433934527482955  0.7851477751748087  0.2213742145019774
  0.5852493439883482  0.9493313035194665  0.9044673824521118
  0.4513754406063139  0.7513724443564895  0.5716188617040514
  0.5425524989935859  0.9004146264000575  0.0807637735186867
  0.5546404947856057  0.8721982924109130  0.2771235487603699
  0.2886287710678556  0.2096284993992151  0.4867640833980992
  0.1009448552762673  0.6914661672329202  0.3091724064928399
  0.3247389345044278  0.6777147903168942  0.9419214244464467
  0.8875216316769843  0.8706863370513082  0.0920739115579625
  0.0259084112195998  0.3340774110714607  0.6683703202460487
  0.4344175345652098  0.3593880969965612  0.1135146876602759
  0.7518897097142345  0.5361592870610992  0.8302982003929423
  0.8249412753655229  0.5203968249561504  0.2080843379707151
  0.0572482579281070  0.8319922665919924  0.0513169279846879
  0.0959662154719711  0.4364257535663976  0.0616720587760068
  0.9188425957476882  0.7643523506796990  0.7110431108904395
  0.8316376762252774  0.6758834003632274  0.2919625605469011
  0.4478640414603345  0.0180517777280796  0.1538264957304108
 
  0.00000000E+00  0.00000000E+00  0.00000000E+00
  0.00000000E+00  0.00000000E+00  0.00000000E+00
  0.00000000E+00  0.00000000E+00  0.00000000E+00
  0.00000000E+00  0.00000000E+00  0.00000000E+00
  0.00000000E+00  0.00000000E+00  0.00000000E+00
  0.00000000E+00  0.00000000E+00  0.00000000E+00
  0.00000000E+00  0.00000000E+00  0.00000000E+00
  0.00000000E+00  0.00000000E+00  0.00000000E+00
  0.00000000E+00  0.00000000E+00  0.00000000E+00
  0.00000000E+00  0.00000000E+00  0.00000000E+00
  0.00000000E+00  0.00000000E+00  0.00000000E+00
  0.00000000E+00  0.00000000E+00  0.00000000E+00
  0.00000000E+00  0.00000000E+00  0.00000000E+00
  0.00000000E+00  0.00000000E+00  0.00000000E+00
  0.00000000E+00  0.00000000E+00  0.00000000E+00
  0.00000000E+00  0.00000000E+00  0.00000000E+00
  0.00000000E+00  0.00000000E+00  0.00000000E+00
  0.00000000E+00  0.00000000E+00  0.00000000E+00
  0.00000000E+00  0.00000000E+00  0.00000000E+00
  0.00000000E+00  0.00000000E+00  0.00000000E+00
  0.00000000E+00  0.00000000E+00  0.00000000E+00
  0.00000000E+00  0.00000000E+00  0.00000000E+00
  0.00000000E+00  0.00000000E+00  0.00000000E+00
  0.00000000E+00  0.00000000E+00  0.00000000E+00
  0.00000000E+00  0.00000000E+00  0.00000000E+00
  0.00000000E+00  0.00000000E+00  0.00000000E+00
  0.00000000E+00  0.00000000E+00  0.00000000E+00
  0.00000000E+00  0.00000000E+00  0.00000000E+00
  0.00000000E+00  0.00000000E+00  0.00000000E+00
  0.00000000E+00  0.00000000E+00  0.00000000E+00
  0.00000000E+00  0.00000000E+00  0.00000000E+00
  0.00000000E+00  0.00000000E+00  0.00000000E+00
  0.00000000E+00  0.00000000E+00  0.00000000E+00
  0.00000000E+00  0.00000000E+00  0.00000000E+00
  0.00000000E+00  0.00000000E+00  0.00000000E+00
  0.00000000E+00  0.00000000E+00  0.00000000E+00
  0.00000000E+00  0.00000000E+00  0.00000000E+00
  0.00000000E+00  0.00000000E+00  0.00000000E+00
  0.00000000E+00  0.00000000E+00  0.00000000E+00
  0.00000000E+00  0.00000000E+00  0.00000000E+00
  0.00000000E+00  0.00000000E+00  0.00000000E+00
  0.00000000E+00  0.00000000E+00  0.00000000E+00
  0.00000000E+00  0.00000000E+00  0.00000000E+00
  0.00000000E+00  0.00000000E+00  0.00000000E+00
  0.00000000E+00  0.00000000E+00  0.00000000E+00
  0.00000000E+00  0.00000000E+00  0.00000000E+00
  0.00000000E+00  0.00000000E+00  0.00000000E+00
  0.00000000E+00  0.00000000E+00  0.00000000E+00
  0.00000000E+00  0.00000000E+00  0.00000000E+00
  0.00000000E+00  0.00000000E+00  0.00000000E+00
  0.00000000E+00  0.00000000E+00  0.00000000E+00
  0.00000000E+00  0.00000000E+00  0.00000000E+00
  0.00000000E+00  0.00000000E+00  0.00000000E+00
  0.00000000E+00  0.00000000E+00  0.00000000E+00
  0.00000000E+00  0.00000000E+00  0.00000000E+00
  0.00000000E+00  0.00000000E+00  0.00000000E+00
  0.00000000E+00  0.00000000E+00  0.00000000E+00
  0.00000000E+00  0.00000000E+00  0.00000000E+00
  0.00000000E+00  0.00000000E+00  0.00000000E+00
  0.00000000E+00  0.00000000E+00  0.00000000E+00
  0.00000000E+00  0.00000000E+00  0.00000000E+00
  0.00000000E+00  0.00000000E+00  0.00000000E+00
  0.00000000E+00  0.00000000E+00  0.00000000E+00
  0.00000000E+00  0.00000000E+00  0.00000000E+00
  0.00000000E+00  0.00000000E+00  0.00000000E+00
  0.00000000E+00  0.00000000E+00  0.00000000E+00
  0.00000000E+00  0.00000000E+00  0.00000000E+00
  0.00000000E+00  0.00000000E+00  0.00000000E+00
  0.00000000E+00  0.00000000E+00  0.00000000E+00
  0.00000000E+00  0.00000000E+00  0.00000000E+00
  0.00000000E+00  0.00000000E+00  0.00000000E+00
  0.00000000E+00  0.00000000E+00  0.00000000E+00
  0.00000000E+00  0.00000000E+00  0.00000000E+00
  0.00000000E+00  0.00000000E+00  0.00000000E+00
  0.00000000E+00  0.00000000E+00  0.00000000E+00
  0.00000000E+00  0.00000000E+00  0.00000000E+00
  0.00000000E+00  0.00000000E+00  0.00000000E+00
  0.00000000E+00  0.00000000E+00  0.00000000E+00
  0.00000000E+00  0.00000000E+00  0.00000000E+00
  0.00000000E+00  0.00000000E+00  0.00000000E+00
  0.00000000E+00  0.00000000E+00  0.00000000E+00
  0.00000000E+00  0.00000000E+00  0.00000000E+00
  0.00000000E+00  0.00000000E+00  0.00000000E+00
  0.00000000E+00  0.00000000E+00  0.00000000E+00
  0.00000000E+00  0.00000000E+00  0.00000000E+00
  0.00000000E+00  0.00000000E+00  0.00000000E+00
  0.00000000E+00  0.00000000E+00  0.00000000E+00
  0.00000000E+00  0.00000000E+00  0.00000000E+00
  0.00000000E+00  0.00000000E+00  0.00000000E+00
  0.00000000E+00  0.00000000E+00  0.00000000E+00
  0.00000000E+00  0.00000000E+00  0.00000000E+00
  0.00000000E+00  0.00000000E+00  0.00000000E+00
  0.00000000E+00  0.00000000E+00  0.00000000E+00
  0.00000000E+00  0.00000000E+00  0.00000000E+00
  0.00000000E+00  0.00000000E+00  0.00000000E+00
  0.00000000E+00  0.00000000E+00  0.00000000E+00
  0.00000000E+00  0.00000000E+00  0.00000000E+00
  0.00000000E+00  0.00000000E+00  0.00000000E+00
  0.00000000E+00  0.00000000E+00  0.00000000E+00
  0.00000000E+00  0.00000000E+00  0.00000000E+00
  0.00000000E+00  0.00000000E+00  0.00000000E+00
  0.00000000E+00  0.00000000E+00  0.00000000E+00
  0.00000000E+00  0.00000000E+00  0.00000000E+00
  0.00000000E+00  0.00000000E+00  0.00000000E+00
  0.00000000E+00  0.00000000E+00  0.00000000E+00
  0.00000000E+00  0.00000000E+00  0.00000000E+00
  0.00000000E+00  0.00000000E+00  0.00000000E+00
  0.00000000E+00  0.00000000E+00  0.00000000E+00
  0.00000000E+00  0.00000000E+00  0.00000000E+00
  0.00000000E+00  0.00000000E+00  0.00000000E+00
  0.00000000E+00  0.00000000E+00  0.00000000E+00
  0.00000000E+00  0.00000000E+00  0.00000000E+00
  0.00000000E+00  0.00000000E+00  0.00000000E+00
  0.00000000E+00  0.00000000E+00  0.00000000E+00
  0.00000000E+00  0.00000000E+00  0.00000000E+00
  0.00000000E+00  0.00000000E+00  0.00000000E+00
  0.00000000E+00  0.00000000E+00  0.00000000E+00
  0.00000000E+00  0.00000000E+00  0.00000000E+00
  0.00000000E+00  0.00000000E+00  0.00000000E+00
  0.00000000E+00  0.00000000E+00  0.00000000E+00
  0.00000000E+00  0.00000000E+00  0.00000000E+00
  0.00000000E+00  0.00000000E+00  0.00000000E+00
  0.00000000E+00  0.00000000E+00  0.00000000E+00
  0.00000000E+00  0.00000000E+00  0.00000000E+00
  0.00000000E+00  0.00000000E+00  0.00000000E+00
  0.00000000E+00  0.00000000E+00  0.00000000E+00
  0.00000000E+00  0.00000000E+00  0.00000000E+00
  0.00000000E+00  0.00000000E+00  0.00000000E+00
  0.00000000E+00  0.00000000E+00  0.00000000E+00
  0.00000000E+00  0.00000000E+00  0.00000000E+00
  0.00000000E+00  0.00000000E+00  0.00000000E+00
  0.00000000E+00  0.00000000E+00  0.00000000E+00
  0.00000000E+00  0.00000000E+00  0.00000000E+00
  0.00000000E+00  0.00000000E+00  0.00000000E+00
  0.00000000E+00  0.00000000E+00  0.00000000E+00
  0.00000000E+00  0.00000000E+00  0.00000000E+00
  0.00000000E+00  0.00000000E+00  0.00000000E+00
  0.00000000E+00  0.00000000E+00  0.00000000E+00
  0.00000000E+00  0.00000000E+00  0.00000000E+00
  0.00000000E+00  0.00000000E+00  0.00000000E+00
  0.00000000E+00  0.00000000E+00  0.00000000E+00
  0.00000000E+00  0.00000000E+00  0.00000000E+00
  0.00000000E+00  0.00000000E+00  0.00000000E+00
  0.00000000E+00  0.00000000E+00  0.00000000E+00
  0.00000000E+00  0.00000000E+00  0.00000000E+00
  0.00000000E+00  0.00000000E+00  0.00000000E+00
  0.00000000E+00  0.00000000E+00  0.00000000E+00
  0.00000000E+00  0.00000000E+00  0.00000000E+00
  0.00000000E+00  0.00000000E+00  0.00000000E+00
  0.00000000E+00  0.00000000E+00  0.00000000E+00
  0.00000000E+00  0.00000000E+00  0.00000000E+00
  0.00000000E+00  0.00000000E+00  0.00000000E+00
  0.00000000E+00  0.00000000E+00  0.00000000E+00
  0.00000000E+00  0.00000000E+00  0.00000000E+00
  0.00000000E+00  0.00000000E+00  0.00000000E+00
  0.00000000E+00  0.00000000E+00  0.00000000E+00
  0.00000000E+00  0.00000000E+00  0.00000000E+00
  0.00000000E+00  0.00000000E+00  0.00000000E+00
  0.00000000E+00  0.00000000E+00  0.00000000E+00
  0.00000000E+00  0.00000000E+00  0.00000000E+00
  0.00000000E+00  0.00000000E+00  0.00000000E+00
  0.00000000E+00  0.00000000E+00  0.00000000E+00
  0.00000000E+00  0.00000000E+00  0.00000000E+00
  0.00000000E+00  0.00000000E+00  0.00000000E+00
  0.00000000E+00  0.00000000E+00  0.00000000E+00
  0.00000000E+00  0.00000000E+00  0.00000000E+00
  0.00000000E+00  0.00000000E+00  0.00000000E+00
  0.00000000E+00  0.00000000E+00  0.00000000E+00
  0.00000000E+00  0.00000000E+00  0.00000000E+00
  0.00000000E+00  0.00000000E+00  0.00000000E+00
  0.00000000E+00  0.00000000E+00  0.00000000E+00
  0.00000000E+00  0.00000000E+00  0.00000000E+00
  0.00000000E+00  0.00000000E+00  0.00000000E+00
  0.00000000E+00  0.00000000E+00  0.00000000E+00
  0.00000000E+00  0.00000000E+00  0.00000000E+00
  0.00000000E+00  0.00000000E+00  0.00000000E+00
  0.00000000E+00  0.00000000E+00  0.00000000E+00
  0.00000000E+00  0.00000000E+00  0.00000000E+00
  0.00000000E+00  0.00000000E+00  0.00000000E+00
  0.00000000E+00  0.00000000E+00  0.00000000E+00
  0.00000000E+00  0.00000000E+00  0.00000000E+00
  0.00000000E+00  0.00000000E+00  0.00000000E+00
  0.00000000E+00  0.00000000E+00  0.00000000E+00
  0.00000000E+00  0.00000000E+00  0.00000000E+00
  0.00000000E+00  0.00000000E+00  0.00000000E+00
  0.00000000E+00  0.00000000E+00  0.00000000E+00
  0.00000000E+00  0.00000000E+00  0.00000000E+00
  0.00000000E+00  0.00000000E+00  0.00000000E+00
  0.00000000E+00  0.00000000E+00  0.00000000E+00
  0.00000000E+00  0.00000000E+00  0.00000000E+00
  0.00000000E+00  0.00000000E+00  0.00000000E+00
  0.00000000E+00  0.00000000E+00  0.00000000E+00
  0.00000000E+00  0.00000000E+00  0.00000000E+00
  0.00000000E+00  0.00000000E+00  0.00000000E+00
  0.00000000E+00  0.00000000E+00  0.00000000E+00
  0.00000000E+00  0.00000000E+00  0.00000000E+00
  0.00000000E+00  0.00000000E+00  0.00000000E+00
  0.00000000E+00  0.00000000E+00  0.00000000E+00
  0.00000000E+00  0.00000000E+00  0.00000000E+00
  0.00000000E+00  0.00000000E+00  0.00000000E+00
  0.00000000E+00  0.00000000E+00  0.00000000E+00
  0.00000000E+00  0.00000000E+00  0.00000000E+00
  0.00000000E+00  0.00000000E+00  0.00000000E+00
  0.00000000E+00  0.00000000E+00  0.00000000E+00
  0.00000000E+00  0.00000000E+00  0.00000000E+00
  0.00000000E+00  0.00000000E+00  0.00000000E+00
  0.00000000E+00  0.00000000E+00  0.00000000E+00
  0.00000000E+00  0.00000000E+00  0.00000000E+00
  0.00000000E+00  0.00000000E+00  0.00000000E+00
  0.00000000E+00  0.00000000E+00  0.00000000E+00
  0.00000000E+00  0.00000000E+00  0.00000000E+00
  0.00000000E+00  0.00000000E+00  0.00000000E+00
  0.00000000E+00  0.00000000E+00  0.00000000E+00
  0.00000000E+00  0.00000000E+00  0.00000000E+00
  0.00000000E+00  0.00000000E+00  0.00000000E+00
  0.00000000E+00  0.00000000E+00  0.00000000E+00
  0.00000000E+00  0.00000000E+00  0.00000000E+00
  0.00000000E+00  0.00000000E+00  0.00000000E+00
  0.00000000E+00  0.00000000E+00  0.00000000E+00
  0.00000000E+00  0.00000000E+00  0.00000000E+00
  0.00000000E+00  0.00000000E+00  0.00000000E+00
  0.00000000E+00  0.00000000E+00  0.00000000E+00
  0.00000000E+00  0.00000000E+00  0.00000000E+00
  0.00000000E+00  0.00000000E+00  0.00000000E+00
  0.00000000E+00  0.00000000E+00  0.00000000E+00
  0.00000000E+00  0.00000000E+00  0.00000000E+00
  0.00000000E+00  0.00000000E+00  0.00000000E+00
  0.00000000E+00  0.00000000E+00  0.00000000E+00
  0.00000000E+00  0.00000000E+00  0.00000000E+00
  0.00000000E+00  0.00000000E+00  0.00000000E+00
  0.00000000E+00  0.00000000E+00  0.00000000E+00
  0.00000000E+00  0.00000000E+00  0.00000000E+00