In2O3 structure 34 - random placement wi
   1.00000000000000     
     8.0188180938039988    0.0017100811940247   -0.0816380067251697
     0.0021012183245016    8.0843601779657117    0.0002884645503783
    -0.0813605683797909   -0.0000477188123578    8.0098812094235310
   In   O 
    16    24
Direct
  0.5716406278660886  0.1393141952906174  0.9436230749643386
  0.5393592605961447  0.6394267264793867  0.9711070840505225
  0.5420265486208604  0.6395322262959480  0.4732928551806900
  0.0718591366991192  0.1395172254394413  0.4435453227599194
  0.7902857630100077  0.9123767037199659  0.2210342373482020
  0.2900450542098665  0.9122797277789159  0.7210121143118308
  0.5697782811281571  0.1393323552308030  0.4411146624474355
  0.0420168868769928  0.6396042817638704  0.9732588061534110
  0.2922186363958844  0.9119689892701728  0.2234963944333832
  0.0394542929104988  0.6394922087999638  0.4710431281114765
  0.0697343308700356  0.1394707097644534  0.9410163988764715
  0.3219124814085287  0.4121682507720410  0.6932090354312613
  0.8193676333801855  0.4119856861517358  0.6911937550229005
  0.8217956864062791  0.4121879718125541  0.1930664464855066
  0.7921446857354160  0.9120813401626371  0.7235044005626858
  0.3193638238948779  0.4119362551048698  0.1913273714193425
  0.6773326437405461  0.8755117698114840  0.4756566957914338
  0.9269155620586510  0.6759637137596485  0.7253745932280713
  0.4349594613604617  0.3754695432359823  0.4386845829613005
  0.5379847570674635  0.8755486245370139  0.8359414043468314
  0.5361536516293471  0.0251063519776382  0.1872819559040214
  0.5741582332992292  0.3754349064134969  0.0783463015369767
  0.2869568701684314  0.6763067840157122  0.5862095275119417
  0.3257689891801265  0.0262000191084419  0.4768692541725319
  0.2857898618654044  0.5252340313143278  0.9372314956503005
  0.0754724230954980  0.5261335963577766  0.2267981789339631
  0.0381603776501095  0.8755511282223593  0.3358587846822522
  0.1773177172505778  0.8755468762529345  0.9756748944054280
  0.0742397649491849  0.3755507801489574  0.5783981004453242
  0.8242216060426649  0.1759633703795067  0.3283006441188366
  0.0360081618279260  0.0253672225737264  0.6871402282330844
  0.8257635312348569  0.0261705870762819  0.9769256479315608
  0.7858391669218474  0.5254834185424135  0.4370988077880761
  0.5755049850004239  0.5262029453229420  0.7268497424735079
  0.3241408865342678  0.1759361744988054  0.8282129080375873
  0.1840972447677600  0.1763000013417185  0.1891570288833512
  0.6838404251795474  0.1764181035678673  0.6892928828539401
  0.7868439891592715  0.6764091469155780  0.0861240333556477
  0.4266282116394498  0.6757362851579140  0.2254578627458055
  0.9349634706926746  0.3755698765975761  0.9386200905366503
 
  0.00000000E+00  0.00000000E+00  0.00000000E+00
  0.00000000E+00  0.00000000E+00  0.00000000E+00
  0.00000000E+00  0.00000000E+00  0.00000000E+00
  0.00000000E+00  0.00000000E+00  0.00000000E+00
  0.00000000E+00  0.00000000E+00  0.00000000E+00
  0.00000000E+00  0.00000000E+00  0.00000000E+00
  0.00000000E+00  0.00000000E+00  0.00000000E+00
  0.00000000E+00  0.00000000E+00  0.00000000E+00
  0.00000000E+00  0.00000000E+00  0.00000000E+00
  0.00000000E+00  0.00000000E+00  0.00000000E+00
  0.00000000E+00  0.00000000E+00  0.00000000E+00
  0.00000000E+00  0.00000000E+00  0.00000000E+00
  0.00000000E+00  0.00000000E+00  0.00000000E+00
  0.00000000E+00  0.00000000E+00  0.00000000E+00
  0.00000000E+00  0.00000000E+00  0.00000000E+00
  0.00000000E+00  0.00000000E+00  0.00000000E+00
  0.00000000E+00  0.00000000E+00  0.00000000E+00
  0.00000000E+00  0.00000000E+00  0.00000000E+00
  0.00000000E+00  0.00000000E+00  0.00000000E+00
  0.00000000E+00  0.00000000E+00  0.00000000E+00
  0.00000000E+00  0.00000000E+00  0.00000000E+00
  0.00000000E+00  0.00000000E+00  0.00000000E+00
  0.00000000E+00  0.00000000E+00  0.00000000E+00
  0.00000000E+00  0.00000000E+00  0.00000000E+00
  0.00000000E+00  0.00000000E+00  0.00000000E+00
  0.00000000E+00  0.00000000E+00  0.00000000E+00
  0.00000000E+00  0.00000000E+00  0.00000000E+00
  0.00000000E+00  0.00000000E+00  0.00000000E+00
  0.00000000E+00  0.00000000E+00  0.00000000E+00
  0.00000000E+00  0.00000000E+00  0.00000000E+00
  0.00000000E+00  0.00000000E+00  0.00000000E+00
  0.00000000E+00  0.00000000E+00  0.00000000E+00
  0.00000000E+00  0.00000000E+00  0.00000000E+00
  0.00000000E+00  0.00000000E+00  0.00000000E+00
  0.00000000E+00  0.00000000E+00  0.00000000E+00
  0.00000000E+00  0.00000000E+00  0.00000000E+00
  0.00000000E+00  0.00000000E+00  0.00000000E+00
  0.00000000E+00  0.00000000E+00  0.00000000E+00
  0.00000000E+00  0.00000000E+00  0.00000000E+00
  0.00000000E+00  0.00000000E+00  0.00000000E+00
