3D\Atomistic                            
   1.00000000000000     
    18.8173099491580764    0.0000000000000000    0.0000000000000000
     0.0000000000000000   18.8173099491580764    0.0000000000000000
     0.0000000000000000    0.0000000000000000   18.8173099491580764
   Sb
   216
Direct
  0.1446228752951817  0.9844733632561885  0.5791217228015253
  0.5477606464768779  0.7617997152624444  0.2816029087440656
  0.9571061187115433  0.9788005200507073  0.9653253759863859
  0.2407556765887257  0.2549147377268196  0.0812978197229388
  0.8628364251802774  0.9754452839343245  0.8101685451407492
  0.4257502754359012  0.0436980069073213  0.9778676488203945
  0.0043058311994237  0.1228481983357793  0.5035513513528540
  0.6639377501566742  0.2696987900127931  0.7188199150370752
  0.2455558379742482  0.6840645718817089  0.0415923828081452
  0.2941548442873098  0.9561108857102698  0.2760742693397718
  0.4452706385748868  0.8134379123243178  0.3843625988004576
  0.4613056806668257  0.3937839162201423  0.4821431232101434
  0.4454133958372148  0.9627051924872003  0.3481659131186863
  0.5020565106983222  0.9112317444209841  0.9658482726653730
  0.0508487729705654  0.3055798601716022  0.4443701156494582
  0.8380586732108019  0.2777553616615168  0.0793600291840967
  0.5270466015075949  0.7166030418423791  0.7272251599692798
  0.5092461661908876  0.2722897112672730  0.3040190483672136
  0.0754768870714330  0.8526097368628696  0.0771465252462068
  0.8254415253075899  0.1193442564960183  0.8659665910368208
  0.3654553852396109  0.2451637752410312  0.9861984412794776
  0.6381101945665504  0.7386434063637718  0.9324267508805334
  0.7745527044116560  0.9222779097314305  0.5904773810190679
  0.8149293459969197  0.1445878357741144  0.4692048463772193
  0.6557651118025910  0.9021048839625286  0.3324364798564766
  0.9150530391968742  0.4471073460837391  0.9822468588496210
  0.5999362174406924  0.5189496796438496  0.0433711149176367
  0.7719859123907367  0.5722300957677792  0.8964641535212275
  0.8673033392284608  0.9356741915299344  0.4266677078297164
  0.0023296369281698  0.2976164734601335  0.9068118447889612
  0.7360158429344908  0.7008822553201712  0.7033805981456486
  0.0962663386149837  0.4386914211317456  0.2497032649550187
  0.1389219865545217  0.2729345750825631  0.2124052429007309
  0.7198366813181144  0.5972671277614497  0.5809540556533206
  0.4464389146142038  0.3890323878472259  0.9572684603953916
  0.1673912949054276  0.1117111656236235  0.2105642381753517
  0.7076457129646881  0.6284042485369953  0.0350847555551120
  0.3563627362149451  0.0915941014014670  0.6331013464280785
  0.1344403972479455  0.5998558663990072  0.0946453756952933
  0.3280654096324585  0.5027060730707776  0.9458976731531961
  0.5754659055263313  0.8756559823556673  0.4584474786345393
  0.9993386628154785  0.3081007472531189  0.1157075934917179
  0.1586983874471649  0.2101896532667778  0.8907486990161563
  0.0902287683918259  0.7284770443168460  0.8827721506830842
  0.1554032517378318  0.4203905917190269  0.3942697269938085
  0.2755335047270014  0.5230610531790489  0.7706831899618283
  0.7663006076820357  0.5069256029725021  0.3447469725454900
  0.0073266318746866  0.7495533210616939  0.3704795439333884
  0.7532505374963770  0.8022289569591079  0.8467213539206586
  0.7996655206068012  0.9746255286976152  0.2291609956183858
  0.9142484099693942  0.6052601200852392  0.0170580654564082
  0.8710391220049789  0.7979364383223775  0.6673155507357752
  0.5486181220664893  0.6034928405402973  0.6018715166516230
  0.1824690446524832  0.6328432110699550  0.6941873756539051
  0.1195491315012917  0.7847929468528186  0.2677825295684885
  0.5094472825704398  0.1990881446273988  0.8698901870549727
  0.8941851370350798  0.7694425354306864  0.9590106938648140
  0.9944409094592309  0.7217926940770346  0.7317983425087599
  0.7964765292348346  0.0692285882705097  0.0168460299526810
  0.4833368242882211  0.6608508878429085  0.0692908951867787
  0.3939110646483617  0.4651052516062031  0.6046555785456318
  0.2229371554151562  0.6168940292923412  0.8861068652710827
  0.9843027135653831  0.8382015647880331  0.5082149929533829
  0.6228140400637556  0.7187180326615734  0.1313623130811980
  0.9412890369902689  0.5971194213299112  0.2353679399515872
  0.5024189240909767  0.8746196098867614  0.1674299133839017
  0.9821049883985826  0.4922634786702742  0.1254741196429245
  0.4631847437883833  0.9553223775410971  0.5450379386636292
  0.9693570462569069  0.7368599696113363  0.1731045933171781
  0.3884359064094478  0.1743857825375896  0.3932334254092374
  0.8204869252048878  0.7194086563149209  0.1105464056202167
  0.7273402413143182  0.2405351051331130  0.3659810177991696
  0.8741327168819212  0.1729569161577939  0.6778699199876619
  0.2732344665375409  0.9177513283823070  0.7445929639410371
  0.2862915974542058  0.8755508329633065  0.4171963076932735
  0.4716606189817344  0.2175300913587097  0.1120282832608292
  0.0369507702370306  0.8974492496774933  0.6500474250231620
  0.3035615402701525  0.0447628075242889  0.4276648654982552
  0.8085355648385122  0.3720493294559315  0.4414877493057365
  0.2449395079409319  0.3478919623006262  0.9096050528345193
  0.1345328003011890  0.8750683110364048  0.4570667953877526
  0.3134391897170821  0.1425640973419040  0.8566963244529078
  0.5027816566121751  0.0790790390246147  0.4451244709431699
  0.6271339492225668  0.8811937555555346  0.0568995009248196
  0.2904332976861053  0.9286770091260249  0.0689630110846934
  0.3743874178825276  0.2024311466096378  0.2297797283893981
  0.2331482858446691  0.5886642783720886  0.5478181117716404
  0.4288698261892136  0.6237461696484639  0.9130897615221208
  0.4706031816231470  0.4332091957208907  0.1105985094259278
  0.4380502384326859  0.9074584056882714  0.7528017108337097
  0.0977931211754885  0.1580853921244538  0.0636146357539754
  0.8064276064873510  0.7216740259760416  0.3242589762967019
  0.9664170160061709  0.9760290488036352  0.2177275387898603
  0.5594648463076146  0.9907622659707321  0.6615353975407645
  0.9431987792903305  0.0545283808295937  0.3522050239892742
  0.2939845131899314  0.1053335919060526  0.1235350227551107
  0.3990281418479834  0.2608419450973761  0.5197351397117949
  0.2555603904515386  0.2989629338955319  0.4896052779434181
  0.2172994055292962  0.8113979673291105  0.1367707121735504
  0.3969274314322414  0.4049924037562453  0.3432491571134131
  0.9762283956036608  0.4495739892001115  0.8310637722619341
  0.2197344018176275  0.1505573913433176  0.5257460785681780
  0.6648678268767259  0.6413473872332806  0.3519579689824994
  0.2556572309200194  0.3244249823870433  0.3222246571017182
  0.5034779106050469  0.1397774620802252  0.6669495023246331
  0.3922061310801231  0.6300084389217691  0.7486611507339292
  0.5319516287121803  0.5160587590032100  0.8919080398856822
  0.9206506324841136  0.2818175251657746  0.2470366944838269
  0.9880610910385187  0.6052223710860479  0.8757934365016531
  0.1472296009889490  0.4603638258696230  0.5673473025642488
  0.3917291943425266  0.6188691904277724  0.5831212480262892
  0.2822434692836013  0.7741964320437211  0.5912940514151044
  0.6755268056617296  0.4595187911518378  0.4857898662694880
  0.5762435943507282  0.3194229270408037  0.1633830100741900
  0.8698971033267060  0.7310361209299513  0.5259189628302183
  0.3340605840841535  0.3553837407893926  0.1819051291014170
  0.5830782165747348  0.3037485667815402  0.9697622815284525
  0.8103594007497815  0.1155061538974779  0.2523272996042025
  0.5464106391835294  0.0934644204595494  0.0562523493538522
  0.8702456733287667  0.8780305452226329  0.0592964396794891
  0.5657276578796145  0.0002783975329610  0.2543060227182879
  0.3593740032162928  0.8032392189659290  0.2192886360396401
  0.0906238278990919  0.0145539348654910  0.3880136487673952
  0.4933735308341047  0.2791834029826444  0.7410033240869929
  0.9165258605934214  0.8416418029664211  0.2793136564569069
  0.2196876759891770  0.4737534717630332  0.1314722767370427
  0.9052969957183774  0.6283663274276601  0.4021684478128026
  0.4909767678559874  0.5095795148611539  0.2609134600365611
  0.1241747574197418  0.7757139767947941  0.5788411480415940
  0.3189421027643814  0.9232974632481353  0.9121380872201015
  0.6121066343626969  0.0007393542394224  0.8899005981426105
  0.1750809058403943  0.8526818692450774  0.9524831450200844
  0.7414351664618791  0.9261577329759704  0.9565511537579048
  0.3002960503481776  0.9341538984548946  0.5999459063331460
  0.7650879543957813  0.4099324546542142  0.8993650519630422
  0.7434560912795563  0.0264434608672849  0.3860211336859942
  0.5483488820604459  0.5648550123853953  0.4314494922292741
  0.8954750713699161  0.0340383090884057  0.5603102597151134
  0.6304240010936122  0.7191103103646491  0.5084306074642797
  0.7304116500829175  0.8085689303837121  0.1956212942091313
  0.7558031302819724  0.8105542677033626  0.4466549446244621
  0.7857181479076925  0.5796071438377486  0.1874836257507455
  0.7324169109867164  0.9959314004506447  0.7272100444443271
  0.9216508779346129  0.4393042002966708  0.2895015829614545
  0.0946846879709232  0.9552545908810464  0.8820750338233818
  0.1903414621423025  0.1486786360564533  0.3713783577966362
  0.2422788691756257  0.0686866617780091  0.7276530858151660
  0.3346351743753053  0.2365511726639115  0.7268504029445689
  0.0572944112175107  0.0119071293297182  0.0823376745021536
  0.6081643137094531  0.3155642971427948  0.4229241981155372
  0.8172384301673479  0.3138425253583826  0.7343395243511021
  0.1364923205860131  0.8441332108952684  0.7639585482915113
  0.9597524802941592  0.4294501835914336  0.4323630765688052
  0.4422325556221714  0.0520548106745960  0.8163301616693142
  0.7183371839931936  0.1338034951053129  0.5851408368629979
  0.6609217915891183  0.1493720337270144  0.8364594613275018
  0.5996593387001424  0.1399811061907033  0.3306149157869732
  0.4177036918244693  0.0075235643364412  0.1533343335652820
  0.8600877297051490  0.6377929579702298  0.7790907280931196
  0.7647105526959888  0.3992064083710035  0.6047473089567383
  0.0682146090258542  0.1148995372414474  0.8022377893052820
  0.6297008205026184  0.3654574350494331  0.8354569282895251
  0.0655509605914115  0.3034669462101394  0.6070942418941229
  0.9038880108740600  0.2435106452997313  0.5513327867344124
  0.0422153760158711  0.2088901089461220  0.3165110359866123
  0.6751383068689355  0.1713375034755678  0.1854162531940574
  0.7383500785357787  0.3102406081769253  0.2285099484542807
  0.6766851727533602  0.0208606429982672  0.1283425959539295
  0.8463348686911086  0.4831799479760653  0.7503929493967780
  0.6501203850634587  0.4232757772458661  0.2991396219915656
  0.0570841519973371  0.5020627971101991  0.6957337354563455
  0.1378008723505130  0.3731123540721551  0.0163191841020236
  0.0302690424719158  0.7109444522511758  0.0230186884925558
  0.0406767918310411  0.5635002257465699  0.4600405070426959
  0.6263619005660791  0.5705318420369682  0.2117290665156147
  0.4818420839444427  0.4790131958958193  0.7368106270941165
  0.2817006262602681  0.7354602420387811  0.7446006207797605
  0.1030045482486370  0.6120345468209188  0.2686073693752117
  0.6074817892888384  0.3506576608514926  0.5949044807452499
  0.2620804428426400  0.3705814617872434  0.6248998328917310
  0.4322965671367399  0.6556417398376712  0.2331453131927146
  0.8534105488883035  0.5353787932660382  0.5478043265322433
  0.3707409140973014  0.3760918018050550  0.8034278318386245
  0.5027378134251810  0.7966617891934673  0.8522531477069435
  0.9182061824881593  0.1505826404799493  0.1138946908618067
  0.6586785945693285  0.0131089079368007  0.5296997746547556
  0.8346979168875883  0.4389477167578851  0.1404394267031955
  0.1594444436786623  0.4328859818464496  0.8117569413929202
  0.6371625699443354  0.6134833354589420  0.8189715922512616
  0.9751625728037517  0.8346861445341784  0.8336838316193872
  0.7055518594391743  0.3950871635707963  0.0403673099610285
  0.6393996244553952  0.8161376457765247  0.6344964104477812
  0.4390958239863711  0.8104675650818903  0.6287832726887554
  0.2605238229216512  0.5995407348029812  0.2523958750962338
  0.2992637773494656  0.5351027067032641  0.3902082824387300
  0.4021528342276758  0.8007589179068807  0.0564920985875812
  0.1505366845940652  0.6850735876484164  0.4566555518082751
  0.1178912421501941  0.9606748047282411  0.2503802365261553
  0.0834331460435030  0.1476908821476846  0.6269520479984395
  0.1840158452564619  0.0558098029117249  0.9744300239044260
  0.9796908999205961  0.6152747687344468  0.5952549775240140
  0.1657847050028250  0.2949825852720755  0.7415574590315577
  0.8456072771788368  0.2729105480676804  0.9216893586340588
  0.3547750350583322  0.7650366075084741  0.9117392343959482
  0.6360479303079049  0.4842576054954043  0.6782509354300532
  0.3556654106236245  0.5636782467062826  0.0820596416924783
  0.2591470439522884  0.7375524004373109  0.3351240700179238
  0.9746736052398429  0.1377006729224436  0.9271890464157307
  0.5832983467750913  0.1947069444597592  0.5342321938762882
  0.9365671184548972  0.4268927355776181  0.6290357587551842
  0.6788566319223148  0.1808088682366421  0.0085913926172711
  0.4162854930960845  0.6401924701935092  0.4030303964889118
  0.9989751306874119  0.2496769870864524  0.7553722622348586
  0.1123623976937691  0.5252793811314156  0.9575466034319881
  0.9778473952750465  0.0308135088164351  0.7107476058531077
  0.6425520676379642  0.8909456480905129  0.7853059458009127
 
 -0.56186198E-03 -0.63334736E-03  0.21163735E-02
 -0.60265744E-03  0.72870054E-03  0.42365494E-04
  0.30722506E-02  0.28967054E-02  0.11094665E-02
 -0.69074154E-03 -0.14631429E-02 -0.60768298E-04
 -0.72883609E-05  0.50553592E-03  0.56412732E-03
 -0.47285523E-02 -0.42274568E-02  0.25381729E-03
 -0.32093166E-02  0.18995191E-02  0.33964567E-02
  0.19067651E-02  0.30942400E-02 -0.12843958E-03
  0.13343927E-02 -0.30375913E-02  0.22123402E-03
  0.89231698E-03 -0.83826471E-03  0.13715517E-02
  0.19789116E-02  0.29380863E-03 -0.76412695E-03
 -0.13124051E-02 -0.11030597E-02  0.18590413E-02
 -0.71650655E-04 -0.15631615E-02 -0.13810915E-02
  0.22918469E-02 -0.26217488E-03 -0.15511349E-02
 -0.16049553E-02 -0.11469316E-02 -0.88748012E-04
  0.32241689E-03  0.25501278E-03 -0.21774621E-02
  0.18992494E-03  0.24837755E-02  0.81069220E-03
 -0.17592311E-02 -0.16475470E-02 -0.36459094E-03
  0.28774487E-02  0.12717493E-02 -0.39216038E-03
 -0.29305428E-02  0.27878593E-03 -0.67530213E-03
 -0.76495680E-03  0.56412004E-03 -0.95066303E-03
 -0.51839606E-03 -0.29717472E-02  0.32624229E-02
 -0.37655969E-02 -0.25016769E-02 -0.92004628E-03
 -0.38919555E-04 -0.49041743E-03  0.12965647E-02
  0.22762177E-02  0.15124825E-02 -0.96530622E-03
  0.40680550E-03 -0.33254937E-03 -0.21147408E-02
  0.31317108E-02  0.61387239E-02 -0.36730490E-03
  0.20272651E-02 -0.45116105E-03 -0.29774843E-02
 -0.97404844E-03 -0.94861559E-03  0.13953133E-02
 -0.11725194E-02 -0.13593878E-02  0.67672388E-03
 -0.77902279E-04 -0.46518047E-03 -0.20146404E-02
  0.52737281E-03  0.21520579E-02  0.24230674E-02
  0.13900329E-02  0.30517289E-02  0.81488182E-05
 -0.28167337E-03  0.27021656E-02  0.14126532E-02
 -0.20133970E-02 -0.23261598E-02 -0.23515926E-03
  0.51967800E-03 -0.12624579E-02 -0.27935040E-02
  0.10490416E-02 -0.10973224E-02 -0.20163395E-02
  0.26626908E-02 -0.12152949E-02  0.45394181E-03
 -0.66378483E-03  0.99706332E-03  0.76481651E-03
 -0.11775138E-02  0.29852111E-02 -0.16597028E-02
 -0.16940291E-03 -0.23239137E-02 -0.14521582E-02
  0.22729977E-03 -0.19168727E-02 -0.78497678E-03
 -0.37505960E-03  0.79839705E-03 -0.20405068E-02
 -0.12339409E-02 -0.29491212E-02 -0.11395569E-03
  0.94157785E-03  0.79665829E-03  0.39183987E-04
  0.11095181E-02 -0.19900179E-02 -0.20833286E-02
 -0.33258490E-03  0.17758130E-02  0.21413806E-02
  0.21192808E-02 -0.13090991E-02  0.16299882E-02
 -0.21683086E-02 -0.12870456E-02  0.11988595E-02
  0.49988770E-03  0.10911312E-02 -0.22689429E-02
  0.68111619E-04 -0.96730459E-03 -0.14901459E-02
  0.41493252E-02 -0.67240654E-03  0.64716374E-03
  0.22468075E-02  0.36622912E-03  0.18713980E-02
 -0.33876599E-03 -0.28800385E-02 -0.39143511E-02
  0.96942758E-03 -0.67871752E-03  0.41403445E-03
 -0.25806581E-02 -0.16922559E-02 -0.17507626E-02
  0.11636380E-02  0.23645058E-02 -0.12186500E-02
 -0.94151059E-03  0.90670979E-03  0.10722153E-02
  0.92252071E-03  0.15016734E-02  0.69119280E-03
 -0.20717744E-02  0.64507302E-03  0.18197106E-03
  0.17271375E-02 -0.23835627E-02  0.12604353E-02
  0.54929875E-03  0.14011276E-02  0.16703982E-03
 -0.43772603E-03  0.70976008E-03 -0.16454417E-02
  0.16452772E-04  0.39163495E-02 -0.15724762E-02
  0.15020240E-03  0.25260366E-02 -0.32231618E-03
  0.80283073E-03 -0.32170634E-02  0.14011923E-02
 -0.53285331E-03  0.10170342E-03 -0.11316380E-02
 -0.30298409E-02  0.19325671E-02  0.23504754E-02
  0.59212296E-03  0.93407235E-04  0.95016707E-03
  0.21596102E-02  0.15980271E-02  0.10151785E-02
 -0.10061648E-02  0.35470255E-02  0.10994507E-02
  0.23000429E-03  0.18387615E-02  0.25513302E-02
  0.81775744E-03  0.12732146E-03  0.70973306E-03
  0.12386390E-03  0.90692222E-03 -0.66934848E-04
  0.18453812E-02 -0.10250966E-02  0.15550804E-02
 -0.13877642E-02  0.17337377E-02 -0.45219200E-03
 -0.14338936E-02  0.14584534E-03 -0.27714915E-02
  0.26587613E-03  0.14498336E-02 -0.76853579E-03
 -0.21671379E-02 -0.18200607E-02 -0.25159759E-02
  0.69600613E-03 -0.18372443E-03 -0.20808556E-02
 -0.16981310E-02  0.17369591E-03 -0.57322340E-03
  0.27424418E-02 -0.18718957E-03  0.30214263E-02
 -0.16383582E-02  0.28537768E-02  0.10921077E-02
 -0.52518871E-03 -0.14223442E-02  0.32664203E-02
 -0.95980084E-03  0.15330945E-03 -0.26319484E-03
  0.70173464E-03 -0.31469375E-02  0.14958909E-02
  0.20678335E-03  0.77235109E-03  0.11190764E-02
 -0.16621696E-02 -0.10957729E-02 -0.17470494E-02
  0.11205227E-02 -0.52930169E-02 -0.11584590E-02
  0.21011377E-03  0.99821749E-03 -0.25782398E-02
  0.99889139E-03 -0.22507012E-02 -0.65841908E-04
  0.20456817E-02 -0.17503852E-02 -0.10772378E-02
 -0.24560891E-02  0.13985346E-02  0.12880558E-03
  0.21307437E-03 -0.12768819E-02 -0.25830649E-02
  0.16861939E-02 -0.14437634E-02  0.98172370E-03
  0.30596804E-02 -0.35703141E-04  0.11227882E-02
  0.13653995E-02 -0.19535298E-02  0.31265843E-02
 -0.13796740E-02  0.10615837E-02  0.19521300E-02
  0.80919700E-04 -0.29710346E-02 -0.13196086E-02
 -0.36321317E-02 -0.21646349E-03 -0.56613894E-03
  0.50558847E-03 -0.75262176E-03 -0.30392147E-02
 -0.64957122E-03  0.98425289E-03  0.26146640E-02
 -0.96838637E-04  0.44399880E-03 -0.18933516E-02
  0.84009253E-03 -0.53445342E-03  0.10679923E-02
 -0.10721621E-02 -0.19339188E-02  0.45953797E-03
  0.14433540E-02 -0.16944375E-02  0.15662107E-02
  0.80220182E-03  0.13207663E-02 -0.30927941E-03
  0.20620054E-02 -0.21490967E-02  0.23278187E-02
  0.32782576E-03  0.25032774E-02 -0.58585934E-03
 -0.19450600E-02  0.33096897E-03 -0.16390255E-02
 -0.31289441E-03 -0.93065310E-03 -0.54581090E-03
  0.20701373E-02 -0.20359993E-02 -0.26375180E-02
  0.39264717E-03 -0.71530129E-03 -0.62557157E-03
  0.10153107E-02  0.12748531E-03  0.22427518E-02
  0.15956951E-02 -0.23529513E-03  0.20106503E-02
  0.49367349E-02 -0.13832460E-04  0.37655601E-03
 -0.12309057E-02  0.13025770E-02  0.54941083E-03
 -0.81817977E-03  0.25915949E-02  0.20143356E-03
  0.15159598E-02 -0.37083839E-03 -0.21747957E-02
 -0.68925658E-03 -0.63466925E-04  0.24020540E-02
  0.51765610E-03  0.15525749E-02  0.16360155E-02
  0.88059034E-03  0.66967046E-03 -0.12730910E-02
  0.79684100E-03  0.14130170E-02  0.94178963E-03
  0.25445304E-02 -0.61945079E-03 -0.76688698E-03
  0.39250440E-04 -0.13191610E-02 -0.27216807E-02
  0.20671415E-02  0.33475562E-03  0.29615245E-03
 -0.77415814E-03  0.97551134E-03  0.10214483E-02
 -0.67340414E-03  0.58574538E-03  0.21776118E-02
  0.30304753E-03  0.10760120E-02  0.21296039E-02
 -0.43475879E-04  0.12343379E-02 -0.15047558E-02
  0.27698677E-03 -0.49953255E-03  0.55862364E-03
 -0.23961454E-02  0.70381003E-03  0.27933051E-02
 -0.13947966E-02 -0.25417587E-02  0.22571683E-02
  0.75279909E-03 -0.25999352E-02  0.21978404E-02
 -0.25210758E-03 -0.95417322E-03  0.22210087E-02
 -0.29783556E-03  0.13217883E-02  0.27373779E-03
 -0.43297878E-03 -0.96447379E-03  0.30904247E-04
 -0.24257303E-02 -0.28030040E-03 -0.19431908E-02
 -0.11513790E-02  0.46377374E-03  0.12419927E-02
  0.12395543E-02  0.86157131E-03 -0.17987679E-02
 -0.27587207E-03  0.10354895E-02 -0.83583949E-03
  0.52491920E-03  0.25223556E-02 -0.29191939E-03
 -0.13813521E-02  0.35402570E-02  0.60391575E-03
  0.36702691E-02  0.13007123E-03 -0.16837883E-02
 -0.81615259E-03  0.29468963E-03  0.18858224E-02
  0.90182229E-04 -0.10711268E-02  0.12716279E-02
  0.69773367E-03 -0.11085181E-02 -0.19838483E-03
 -0.17824271E-02  0.35889648E-02  0.77194153E-03
 -0.24672406E-02 -0.29087746E-02  0.17269003E-02
 -0.14886963E-02  0.21552279E-02 -0.11080649E-02
  0.16107827E-02  0.19719464E-05  0.14756236E-02
 -0.66915208E-03 -0.13584707E-02  0.98995778E-03
 -0.28151624E-02  0.29563220E-03 -0.45244560E-03
 -0.11313317E-02  0.12269166E-02 -0.37213250E-02
  0.26825930E-02  0.19293113E-02 -0.16156032E-02
  0.32518528E-02 -0.18181567E-02 -0.10528363E-02
 -0.26797390E-02  0.20380202E-02  0.32332634E-02
  0.28260468E-02 -0.16366926E-03 -0.84974634E-03
 -0.99600261E-03 -0.40187619E-02 -0.90817305E-03
 -0.16619423E-03 -0.26826520E-02  0.16204549E-02
  0.17776079E-02 -0.50587326E-03 -0.22726882E-03
  0.99379438E-03 -0.15252527E-03  0.69743161E-03
 -0.65995477E-03 -0.14195966E-02 -0.25160469E-02
 -0.59872483E-03 -0.25102973E-02  0.91430022E-03
  0.81037151E-03  0.60038403E-04  0.97189015E-04
  0.24462842E-02 -0.13412005E-02 -0.17039423E-02
 -0.13151914E-02  0.16777597E-02 -0.17209386E-02
  0.65160166E-03 -0.82355739E-03  0.43286013E-03
  0.58674593E-03  0.20045087E-02 -0.31487936E-03
 -0.47770233E-03  0.16004666E-02 -0.87823034E-03
 -0.17767528E-02 -0.10662177E-03  0.47204609E-03
  0.77472480E-03 -0.14047905E-02 -0.18785487E-02
 -0.40757509E-02  0.12080590E-03 -0.19707325E-02
 -0.60382050E-03 -0.53783089E-03 -0.30957109E-03
 -0.72884700E-03 -0.31373306E-02 -0.19302067E-02
 -0.11990817E-02  0.28951559E-03  0.20653583E-02
  0.24241132E-05  0.29904286E-02  0.42454420E-03
  0.21492095E-02 -0.93129283E-03 -0.83818578E-03
  0.63464482E-03  0.80533335E-05  0.67232385E-03
 -0.61326466E-03  0.29681693E-03  0.46458740E-03
 -0.92717844E-03  0.81492723E-03 -0.34257201E-02
 -0.72725547E-04  0.65329461E-03  0.31214560E-03
 -0.19458248E-02 -0.20870237E-02 -0.16760293E-02
 -0.79754513E-03  0.77564497E-03 -0.12382463E-02
  0.10838484E-02  0.28025339E-02 -0.83044696E-03
 -0.67489005E-03  0.38083335E-03  0.25203193E-02
  0.30170060E-03  0.45912955E-03 -0.22264127E-03
 -0.18608603E-02 -0.25196145E-02 -0.74524635E-03
  0.17186868E-02 -0.10742821E-03 -0.23794999E-02
  0.21647088E-02 -0.82268865E-03  0.90858501E-03
  0.46574677E-04 -0.36398884E-03 -0.19917137E-02
  0.11408658E-02  0.30959708E-02  0.11988386E-02
 -0.72482090E-04 -0.22069404E-02 -0.28367284E-03
 -0.17677907E-02 -0.32561656E-03  0.28656755E-03
 -0.16603674E-02 -0.84716445E-03  0.45168304E-03
 -0.45881141E-03 -0.45455431E-03  0.11263162E-02
 -0.96037050E-03  0.15404896E-02  0.74225574E-03
  0.11005658E-02 -0.24565900E-03 -0.33054942E-03
 -0.31403629E-02 -0.91973049E-03 -0.13568610E-02
 -0.27872156E-02  0.12563147E-02  0.31317715E-02
 -0.65323528E-03  0.16615372E-02  0.16408637E-02
  0.18972059E-02 -0.13505136E-02 -0.36211310E-03
 -0.31612201E-02  0.13151076E-02  0.62210423E-03
 -0.19549785E-02  0.92162946E-03 -0.26939282E-02
  0.28375364E-03 -0.10275892E-02  0.12409661E-02
  0.37781183E-02  0.16712152E-02  0.56632522E-03
 -0.32671551E-04  0.12632121E-03 -0.17647969E-03
  0.27729998E-03 -0.15941872E-02 -0.37811725E-03
  0.88707715E-03  0.16988239E-03 -0.15587549E-02
  0.17894090E-02  0.28449250E-03  0.19769446E-03
 -0.44331597E-02  0.16491733E-02 -0.17104420E-02
 -0.13248349E-02  0.76425578E-03 -0.43987200E-04
 -0.15184081E-02 -0.94439481E-03  0.35554032E-02
  0.12172543E-02  0.10362566E-02  0.35485211E-04
 -0.12361548E-02  0.48437318E-03 -0.50813199E-03
  0.14259483E-02  0.27458690E-02  0.17075115E-02
 
           1
   5.00000000000000     
  0.10000000E+01  0.00000000E+00  0.00000000E+00  0.00000000E+00
  0.14447358E+00  0.98430507E+00  0.57968407E+00
  0.54760051E+00  0.76199334E+00  0.28161417E+00
  0.95792246E+00  0.97957021E+00  0.96562018E+00
  0.24057214E+00  0.25452596E+00  0.81281673E-01
  0.86283449E+00  0.97557961E+00  0.81031844E+00
  0.42449384E+00  0.42574718E-01  0.97793509E+00
  0.34530747E-02  0.12335292E+00  0.50445383E+00
  0.66444440E+00  0.27052097E+00  0.71878579E+00
  0.24591040E+00  0.68325745E+00  0.41651168E-01
  0.29439194E+00  0.95588815E+00  0.27643871E+00
  0.44579646E+00  0.81351598E+00  0.38415956E+00
  0.46095696E+00  0.39349082E+00  0.48263709E+00
  0.44539436E+00  0.96228984E+00  0.34779894E+00
  0.50266548E+00  0.91116208E+00  0.96543612E+00
  0.50422316E-01  0.30527511E+00  0.44434653E+00
  0.83814434E+00  0.27782312E+00  0.78781450E-01
  0.52709707E+00  0.71726301E+00  0.72744057E+00
  0.50877872E+00  0.27185194E+00  0.30392217E+00
  0.76241462E-01  0.85294766E+00  0.77042323E-01
  0.82466284E+00  0.11941833E+00  0.86578715E+00
  0.36525213E+00  0.24531367E+00  0.98594584E+00
  0.63797245E+00  0.73785378E+00  0.93329362E+00
  0.77355214E+00  0.92161318E+00  0.59023291E+00
  0.81491900E+00  0.14445753E+00  0.46954936E+00
  0.65636993E+00  0.90250677E+00  0.33217999E+00
  0.91516113E+00  0.44701898E+00  0.98168495E+00
  0.60076835E+00  0.52058082E+00  0.43273517E-01
  0.77252458E+00  0.57211022E+00  0.89567300E+00
  0.86704452E+00  0.93542213E+00  0.42703846E+00
  0.20180835E-02  0.29725527E+00  0.90699166E+00
  0.73599514E+00  0.70075865E+00  0.70284528E+00
  0.96406468E-01  0.43926325E+00  0.25034710E+00
  0.13929134E+00  0.27374546E+00  0.21240741E+00
  0.71976184E+00  0.59798513E+00  0.58132942E+00
  0.44590393E+00  0.38841430E+00  0.95720598E+00
  0.16752938E+00  0.11137571E+00  0.20982197E+00
  0.70792446E+00  0.62811268E+00  0.34548988E-01
  0.35707025E+00  0.91271182E-01  0.63322196E+00
  0.13426402E+00  0.60012080E+00  0.94848597E-01
  0.32775253E+00  0.50349928E+00  0.94545667E+00
  0.57542089E+00  0.87503849E+00  0.45806162E+00
  0.99939906E+00  0.30759141E+00  0.11549902E+00
  0.15859873E+00  0.21040180E+00  0.89020651E+00
  0.89900895E-01  0.72769343E+00  0.88274187E+00
  0.15565344E+00  0.42060227E+00  0.39428014E+00
  0.27582832E+00  0.52253228E+00  0.77012962E+00
  0.76621224E+00  0.50739746E+00  0.34531596E+00
  0.78897519E-02  0.74920548E+00  0.37091265E+00
  0.75267439E+00  0.80188697E+00  0.84703991E+00
  0.79979835E+00  0.97491546E+00  0.22855811E+00
  0.91426651E+00  0.60500309E+00  0.16662115E-01
  0.87214165E+00  0.79775777E+00  0.66748751E+00
  0.54921513E+00  0.60359015E+00  0.60236877E+00
  0.18237903E+00  0.63207795E+00  0.69314728E+00
  0.11980672E+00  0.78461260E+00  0.26789254E+00
  0.50876157E+00  0.19863849E+00  0.86942499E+00
  0.89449433E+00  0.77007081E+00  0.95868688E+00
  0.99419074E+00  0.72203362E+00  0.73208324E+00
  0.79672165E+00  0.69627602E-01  0.17029689E-01
  0.48278633E+00  0.66102229E+00  0.69339247E-01
  0.39436999E+00  0.46447191E+00  0.60499049E+00
  0.22308311E+00  0.61726633E+00  0.88615125E+00
  0.98418640E+00  0.83839016E+00  0.50777778E+00
  0.62281841E+00  0.71975866E+00  0.13094449E+00
  0.94132895E+00  0.59779062E+00  0.23528230E+00
  0.50263225E+00  0.87376479E+00  0.16780223E+00
  0.98196340E+00  0.49229050E+00  0.12517343E+00
  0.46237968E+00  0.95583589E+00  0.54566249E+00
  0.96951438E+00  0.73688479E+00  0.17335706E+00
  0.38900974E+00  0.17481040E+00  0.39350317E+00
  0.82021957E+00  0.72035115E+00  0.11083854E+00
  0.72740136E+00  0.24102369E+00  0.36665894E+00
  0.87435001E+00  0.17299075E+00  0.67805851E+00
  0.27326738E+00  0.91799231E+00  0.74457518E+00
  0.28678194E+00  0.87527845E+00  0.41760951E+00
  0.47129187E+00  0.21799077E+00  0.11190813E+00
  0.36569766E-01  0.89748800E+00  0.64931100E+00
  0.30363219E+00  0.45148047E-01  0.42746066E+00
  0.80795973E+00  0.37156572E+00  0.44081922E+00
  0.24512445E+00  0.34784314E+00  0.90905214E+00
  0.13408159E+00  0.87511446E+00  0.45691448E+00
  0.31416789E+00  0.14251436E+00  0.85749916E+00
  0.50234632E+00  0.79837324E-01  0.44541466E+00
  0.62699440E+00  0.88081582E+00  0.57767431E-01
  0.29017827E+00  0.92871775E+00  0.68893077E-01
  0.37457388E+00  0.20159497E+00  0.23017721E+00
  0.23320323E+00  0.58886950E+00  0.54811546E+00
  0.42842817E+00  0.62345501E+00  0.91262555E+00
  0.47090092E+00  0.43180277E+00  0.11029069E+00
  0.43810607E+00  0.90772364E+00  0.75211664E+00
  0.98058539E-01  0.15748735E+00  0.63597141E-01
  0.80697117E+00  0.72120893E+00  0.32397274E+00
  0.96576440E+00  0.97640066E+00  0.21776176E+00
  0.55952146E+00  0.99042298E+00  0.66084904E+00
  0.94364682E+00  0.54144754E-01  0.35246588E+00
  0.29479751E+00  0.10532411E+00  0.12383336E+00
  0.39939095E+00  0.26032287E+00  0.52056591E+00
  0.25519379E+00  0.29924501E+00  0.49012398E+00
  0.21732091E+00  0.81060853E+00  0.13642008E+00
  0.39596233E+00  0.40493489E+00  0.34309873E+00
  0.97636274E+00  0.44937401E+00  0.83025621E+00
  0.21956180E+00  0.15081892E+00  0.52644083E+00
  0.66484210E+00  0.64146536E+00  0.35145488E+00
  0.25588045E+00  0.32428297E+00  0.32250844E+00
  0.50319302E+00  0.13926360E+00  0.66707161E+00
  0.39258965E+00  0.62955821E+00  0.74907731E+00
  0.53216478E+00  0.51640970E+00  0.89182586E+00
  0.92119853E+00  0.28124648E+00  0.24765523E+00
  0.98814820E+00  0.60588752E+00  0.87563777E+00
  0.14671277E+00  0.46045177E+00  0.56691179E+00
  0.39164605E+00  0.61862190E+00  0.58297622E+00
  0.28279353E+00  0.77365544E+00  0.59059323E+00
  0.67563114E+00  0.45932873E+00  0.48562364E+00
  0.57651338E+00  0.31945680E+00  0.16397894E+00
  0.87032110E+00  0.73097360E+00  0.52645322E+00
  0.33537234E+00  0.35538007E+00  0.18200518E+00
  0.58275115E+00  0.30409468E+00  0.96990827E+00
  0.81014200E+00  0.11619477E+00  0.25238082E+00
  0.54681345E+00  0.93365884E-01  0.55674478E-01