Amorphous GeAsSeSi                      
   1.00000000000000     
    19.0036188657994742    0.0000000000000000    0.0000000000000000
     0.0000000000000000   19.0036188657994742    0.0000000000000000
     0.0000000000000000    0.0000000000000000   19.0036188657994742
   Ge   Si   Se
   108    24   108
Direct
  0.1075818931564728  0.4856104674336434  0.6169588286854982
  0.0484994942736534  0.9162506637851038  0.7427101660243868
  0.1376929544780046  0.5237786664137821  0.2997613639633418
  0.4575159383903034  0.5903711778995047  0.2320725258432564
  0.4706179429409736  0.2968557784072897  0.3345829359961108
  0.7870703272864187  0.2760908454263699  0.1004164266070382
  0.0037476965629523  0.8085871071682680  0.2043292396349596
  0.2777677967318654  0.7110913567014001  0.3361182480438378
  0.6105955085689497  0.2116469242884547  0.5724222718907152
  0.0106405606993899  0.6467648317619309  0.6470001420837997
  0.0224608521638010  0.2149433072929179  0.2397504308948071
  0.9017700523783615  0.2693957228435158  0.2872579588197760
  0.3349416867416019  0.4872133409957028  0.8836189055495677
  0.8409714500133031  0.8298115564910640  0.3205394980822224
  0.7762278661016032  0.9525881145518990  0.2372547813323780
  0.7344452784178743  0.9937343404148440  0.8885567651562093
  0.7101027136734007  0.5334200960137080  0.4718575441992486
  0.6266050718595086  0.5633802508536235  0.0324062009020633
  0.9170793126145862  0.8555691354473374  0.4684625761104540
  0.6127494755309503  0.4479989465547218  0.6124896077235582
  0.8497611305578788  0.3149701767220438  0.9626027469918457
  0.5903926402857975  0.5930764008078396  0.4761087833173960
  0.5412035070667932  0.8329779127455422  0.4842448315185077
  0.5018301891303036  0.8065246161256101  0.2474263454665153
  0.6863667769865823  0.2676160645948264  0.6758891131150027
  0.8669424522358883  0.0834999039135976  0.8851356661312049
  0.7694415405953466  0.6431364631869793  0.4034027575600801
  0.1853971171648445  0.0257373421204872  0.1110656442194856
  0.4329199387347948  0.2503656059666423  0.4588302491357791
  0.9422660272688062  0.5068755902290426  0.3560346051122771
  0.4648469451822730  0.0353745062382660  0.4395887870684036
  0.6241049853032465  0.8458316325010482  0.3018708180606159
  0.7187823819519826  0.9962864680536343  0.0977907295544441
  0.9443067068476769  0.4604181658102389  0.4886123729335149
  0.3923911955618982  0.3173441829421507  0.5665365078505258
  0.6093945920609779  0.3116806294068556  0.3229813194731408
  0.9913759394639386  0.1489588365219969  0.6581372780730198
  0.1478280997143925  0.9122616177907318  0.4482537088860479
  0.8855732634863585  0.7844290666875292  0.0887859745727193
  0.8312272265844195  0.6555774657502097  0.7225404294881624
  0.6990715876061693  0.8944058871573874  0.7828498842395503
  0.1397623078412812  0.7004220774354327  0.7880804142242697
  0.5650986697732016  0.6506183158590727  0.5928806465840805
  0.2808073370256218  0.0979943034561593  0.8988655384380023
  0.3388715035089793  0.6283020030618433  0.4392439380570306
  0.3820889374403175  0.5146278632514236  0.1454584067761576
  0.8045330935979436  0.9784865726824409  0.6531753119838809
  0.3281248392166082  0.5196778864299808  0.5588528609593091
  0.2791556117695105  0.3161340375874668  0.4927699524820225
  0.0224822199578763  0.6979792118654582  0.8540267723726150
  0.7457510529659036  0.4927312265409330  0.3473390086758003
  0.7801280514682642  0.1873606454257448  0.4299189550293009
  0.0040125376277756  0.1185504557866178  0.4192462803002217
  0.3498716096430908  0.9699235266747978  0.7289822357977798
  0.2462582865823981  0.1839190152207079  0.0668709172054119
  0.2408057177395476  0.0837346808729852  0.7034870808593819
  0.5809945650292917  0.3110336346878297  0.7515519195228121
  0.3248943885553061  0.4404517865260169  0.6770356239780037
  0.9938096645076693  0.3306488488073458  0.3813436284744007
  0.1107245400444018  0.8090456984936667  0.1181429035979216
  0.7678200146008323  0.7812736536353203  0.4221983470816089
  0.3351933973980118  0.2870997256998046  0.7980239653606832
  0.4136728371813110  0.4558760410081223  0.7809766776797036
  0.5215317069617533  0.5298296317413164  0.7655357952808621
  0.5381896377229178  0.7753451068973334  0.6140397648177446
  0.0665474584532575  0.5665653936088150  0.8712569588421005
  0.9839550675337652  0.0223474596574643  0.6941391793021509
  0.7701305887079224  0.9399805279831065  0.3888694564837235
  0.6320167291433910  0.4357466753913385  0.2864269416591071
  0.1127863833403983  0.4341285532317398  0.4205711689472477
  0.0108455788723039  0.6217026902320117  0.1577520421767729
  0.2094138120202040  0.5148379259589788  0.8357337864941627
  0.8365974781676769  0.5332637166917868  0.5451607835050034
  0.7414997471463391  0.3877440886794610  0.8913237040029812
  0.1537066865705391  0.6285668379776308  0.6732227201642358
  0.4759052335706043  0.0261153838139438  0.8560017960337654
  0.5359210379942276  0.9664617173186909  0.0405507766121190
  0.4959549022608964  0.6915788896448549  0.3166928729129460
  0.4692495334902360  0.5683770116660618  0.4314033254125693
  0.2768462026302675  0.1222288120430765  0.5464285281598444
  0.1101068549163202  0.9741175883496765  0.8512566737827507
  0.3875272945091116  0.6161162724103644  0.0524953573932408
  0.4671538003894198  0.3262692254920873  0.9365652163175928
  0.2890499080549703  0.2154042644026271  0.3090202585366041
  0.9328678368586819  0.9981936933142683  0.0610241890096060
  0.8721317130264172  0.0048846463981675  0.7646497956028719
  0.3890252594619820  0.8503207215200438  0.3038963501929566
  0.4574982753055933  0.3335924634024124  0.8001202991712758
  0.8881455931811504  0.2550975913161761  0.7556429148883193
  0.7360663212917636  0.7301087029272871  0.0409971071734514
  0.5133828600642411  0.5008123188646348  0.3133355088312678
  0.4360427677560178  0.7787392017323013  0.4176882879458635
  0.5588311432572897  0.6301265339975133  0.8477912769600690
  0.2238974090455352  0.2226090027568973  0.6595497475338107
  0.6168459317676287  0.1488921467610865  0.0156822205018832
  0.7451341845113509  0.5095519862476851  0.6310102076245131
  0.2599573362193480  0.8550872463793758  0.0495694797116298
  0.7207037509421499  0.9494777799746503  0.5288032312716993
  0.9788341232978263  0.3311740241291687  0.1306825609782919
  0.9093477508664438  0.4470317878763997  0.6492802374161600
  0.1477539944029754  0.8963319602533605  0.9554001722383549
  0.8799578811943316  0.2126846920741275  0.5955362228934197
  0.0422120164842459  0.8139645860223708  0.9261876196770045
  0.5036739975390755  0.6949698752847734  0.0813809867934442
  0.2905897222188739  0.7873102027910314  0.2297093841576904
  0.5779745464157499  0.3626162348887492  0.0052862898243726
  0.4564819660774447  0.8162026887127052  0.7352386652982650
  0.3186092135299830  0.4601002279643772  0.3757914862743612
  0.9670916440096208  0.5040715052472493  0.0222759719944686
  0.7212115760296423  0.3963331825352858  0.4679193762360560
  0.2673264156154719  0.5659176417255611  0.1622611150346338
  0.6509950564527737  0.7702586344203529  0.6808110128900461
  0.6691921756949855  0.3001438488954548  0.1436715870682906
  0.9978850277121116  0.0038534887086961  0.5698668675881909
  0.0697901301333411  0.9025504174996337  0.5542075080862340
  0.8633892767078825  0.1516216427895644  0.2630541610994521
  0.3080106845536263  0.2881814732566846  0.9283770514899502
  0.9455531918215210  0.9043535444359314  0.9095543116632540
  0.3739243560392425  0.9040657467383414  0.9548972213997466
  0.3060411009440883  0.9665539611979792  0.4362574825234171
  0.8162932951332620  0.1023900658655548  0.6109270863233727
  0.4101678690026995  0.5800635485025927  0.9320513761171290
  0.6086671132076724  0.6759501090437462  0.3758365704824596
  0.2494726603100973  0.3393566286991894  0.7182996799856886
  0.1274426363626766  0.8414166623396668  0.3420954825832587
  0.2196456853917847  0.8225117717462401  0.6741828571757086
  0.1265823619317278  0.1758822255716793  0.1749645391523279
  0.0585398935292267  0.3269316867177738  0.7102662761432726
  0.6450913982156449  0.0899092675454589  0.7297355448167456
  0.8361882952500782  0.1691470131551059  0.1428789482486713
  0.6408991221939895  0.7898948630036169  0.4121021529916128
  0.7854053515796120  0.5896179639857452  0.9613023381634003
  0.8166111969811258  0.0846465929309250  0.0588446335943457
  0.2002751765504974  0.2628014521445658  0.9647656905699953
  0.2625656176100913  0.6434803222092011  0.0667857485542649
  0.4306775709060758  0.4074308577022906  0.2852572978442069
  0.6965104792920301  0.5295364912491287  0.9129787835149227
  0.0804865626413248  0.5413176147871120  0.9986113295249008
  0.0523282551995736  0.3646841563086778  0.5931340048966360
  0.9332862329933634  0.5173353237639663  0.1322400103876134
  0.7797380864746384  0.7004074477813069  0.9181291552651837
  0.1961026526225382  0.8770932112301342  0.2488944473611548
  0.7575489955263436  0.8202410696568375  0.6937110388653630
  0.3631617947984905  0.2091033857594319  0.6304734853505771
  0.2004673480579959  0.8136935853217128  0.7941625290955887
  0.5016844742416097  0.0839887197311052  0.9907332575332645
  0.8444078373598182  0.5496600538501933  0.2903274507334040
  0.2765602291029919  0.5587099064437840  0.7251474863706340
  0.7579593607937043  0.6031959614205308  0.0805393844176289
  0.8884482048548845  0.5392524216960911  0.9247793893408184
  0.6627407765616511  0.9346835821840429  0.9825879639882724
  0.6593845663680080  0.9823446326768457  0.6791439512840869
  0.1705095853984310  0.0787029460543510  0.2311595308732525
  0.0072910737008146  0.5283194747095111  0.7041725808238182
  0.8087876213272784  0.3831933398597248  0.3844256292573254
  0.2205346353676221  0.6265863805431666  0.2616684012178783
  0.0139096479189419  0.8650593694159918  0.3212345937047965
  0.8617190843507464  0.9103255167942427  0.9927751299373252
  0.7927345455777142  0.8204425825018338  0.5371553670743914
  0.8628821281336032  0.6512997878989786  0.5856310242840236
  0.6971792947408405  0.6377346376761311  0.2993509995544184
  0.4904495205450348  0.9087510911657326  0.9256334020699220
  0.1988336757384638  0.6383716089403967  0.8897177377726283
  0.7515155670479060  0.1482127077350664  0.7123626763043587
  0.4883931612698538  0.8186982752237850  0.1203667824811669
  0.3344827120006104  0.8546121080510110  0.6567553406565717
  0.5492149202538429  0.1436489298254374  0.6833765310018105
  0.6036791320496243  0.6924364010492176  0.9956782399266224
  0.9512220144670468  0.2015453531814049  0.0979676055447276
  0.3455274543662772  0.9580993863814459  0.0553933648654135
  0.9031292548678808  0.8846527103028602  0.7964539518986754
  0.1710578161043299  0.0831590842804334  0.8233052190502649
  0.7364017612337292  0.8199887441724362  0.2303264405879935
  0.2642100614648271  0.8568038252250523  0.4627749103838653
  0.6601066841169314  0.9725060465704083  0.3173580605239692
  0.8284698105033333  0.5155972841627797  0.7407174696024657
  0.0110656815213779  0.7489497102111968  0.0369378180932784
  0.1524993052996242  0.9267653535737289  0.6464239059002304
  0.3956407325129861  0.2180488296042892  0.9754572042619716
  0.5986040340754332  0.8059126238409898  0.7886874474033243
  0.3378119194855899  0.1453496386482172  0.7863154975405081
  0.7314929136453935  0.0965185829217263  0.5234076128492867
  0.0624063911597045  0.5379017547612810  0.4856866866985274
  0.6232854696262140  0.0689716526753366  0.8442452653424688
  0.5635153053266473  0.6282716534428459  0.1689971139126364
  0.9177990038203315  0.9013225827536503  0.1754940440829782
  0.3108385954422378  0.9695576191312297  0.8688152583816258
  0.2574252484112129  0.3323241203194425  0.3684335769511465
  0.1474406413889884  0.3797973411486339  0.7791759603692749
  0.5712751400829793  0.9564131965338479  0.4946345772255804
  0.6551985662302549  0.4196588056226635  0.1568856453730713
  0.9138031982609852  0.2166358662864165  0.8826961252302190
  0.5324452174224001  0.3279490501630659  0.6193617848381099
  0.9545956516885710  0.3680242563774802  0.7632744197163226
  0.4303748207269866  0.6687454615158518  0.8513456196234337
  0.7628423780173756  0.3709664839368609  0.5877223646048999
  0.9190174735092681  0.7123320484923512  0.1980370066868908
  0.0865085877405372  0.2099446963542953  0.7208398391516333
  0.1499992486785703  0.7299690875393871  0.3722862886125601
  0.1997480303297074  0.2676404277085691  0.1660149240265097
  0.6709416097097413  0.6518985193172304  0.6746711476444093
  0.1842750312864990  0.2338163027932295  0.5261598826260314
  0.4781337686893695  0.9453620699525624  0.7212636633826855
  0.6279929464407671  0.4391662833741923  0.7432013436826268
  0.9645002689959203  0.3771964074022623  0.0001178977444472
  0.3392091671215272  0.1648315827912058  0.4247636145032976
  0.6926331412453607  0.2519129833902679  0.2468179550140853
  0.5625820274217427  0.2632703940451369  0.0946447323910970
  0.0230268358590481  0.5979533088242369  0.2975082766906615
  0.1052990751640245  0.1304487476563526  0.0579530920575745
  0.9547683711048115  0.7106094361384364  0.7482074732827417
  0.3290167505725738  0.7910402853055623  0.9516601301555724
  0.8598619198682269  0.3435575594586448  0.1858059797154547
  0.5291578687011591  0.1649325715190824  0.4706943462375747
  0.1623529229450256  0.4933766317209460  0.1755034131870885
  0.4138945391990370  0.4582816820864451  0.4780695137368580
  0.9100575215181528  0.2087434490615188  0.4680288566155357
  0.4910998553891669  0.5514254824119754  0.6286121616191536
  0.2075715175729982  0.7321066364694141  0.5928702849857297
  0.3547183170299999  0.3969396884434512  0.9727678358212447
  0.9853753765082897  0.0232644874862008  0.9200568119911680
  0.4122667838442295  0.2199131757993877  0.2538556062340041
  0.2000429017441571  0.0284875072538520  0.4260945540710678
  0.6307678655777793  0.3122961286021932  0.4502984664219212
  0.7781831901224907  0.3298310066145989  0.7670464003240510
  0.0094875442427518  0.4111822062680220  0.2853473544748716
  0.6188253385045568  0.0723056171659645  0.1288094007590224
  0.0770167712329599  0.2234342512760031  0.3578830855244357
  0.9679363462006570  0.0842078715849788  0.2720002923122032
  0.6425373810702374  0.3045397207712964  0.8977146318626141
  0.0767275849075826  0.9317703024029169  0.0653103532432015
  0.9208238820576126  0.9885445938215438  0.4795997688289184
  0.3834212692877794  0.9756916540350775  0.3350938328365496
  0.5208136444455332  0.5227939964642503  0.9329348498407888
  0.0620887198104347  0.1035537418669506  0.5536387659213177
  0.3710190287820332  0.0110112402336314  0.5286633253728712
  0.7839789761841586  0.0988417463924779  0.3348022107077935
  0.0034069594129989  0.8028649396340254  0.5551046399040602
  0.3911643711930055  0.7224735039786864  0.5248067979948633
  0.2247453187993683  0.4456248903241973  0.4999940315263985
 
 -0.46701568E-03  0.27249652E-02  0.70055121E-03
 -0.38627754E-03 -0.34033474E-03 -0.15139024E-02
 -0.71020686E-03 -0.26742596E-02  0.17239783E-03
 -0.65600655E-03  0.12951379E-02  0.13540236E-03
 -0.36036430E-02  0.80515679E-03  0.93759823E-03
  0.27175048E-02  0.63942821E-04  0.81684172E-03
  0.12335559E-02  0.24918121E-04 -0.14268353E-02
  0.25074316E-02  0.20631185E-02 -0.26612407E-03
 -0.26808137E-02 -0.86671510E-03 -0.11308333E-02
 -0.35707085E-02 -0.18016538E-02 -0.26773470E-02
 -0.26362569E-02  0.11836737E-02 -0.33989686E-02
 -0.38586319E-04  0.13817085E-03 -0.20208340E-02
 -0.62502141E-03 -0.15802683E-02  0.29279359E-02
  0.57127336E-02  0.23593186E-02 -0.22322307E-02
 -0.19606564E-02  0.92947728E-03  0.24284975E-02
  0.56721788E-03 -0.13547970E-02 -0.24093599E-02
 -0.35870546E-03 -0.49482204E-02 -0.34132376E-04
  0.28827783E-03 -0.35731533E-02 -0.35531844E-02
  0.11287217E-02 -0.21414084E-02  0.22086344E-02
 -0.35707218E-02  0.48211894E-03  0.17331637E-02
 -0.11583147E-02 -0.16229469E-03  0.95085905E-03
  0.16726753E-02  0.93546318E-03 -0.11315178E-02
 -0.23420287E-02 -0.10492526E-03  0.29847206E-03
 -0.47184569E-03  0.28162317E-02  0.71986777E-04
 -0.31493640E-02  0.11527986E-02  0.23352226E-02
 -0.26634034E-03  0.12763320E-02  0.14819157E-02
  0.94731384E-03  0.59829439E-03 -0.14119325E-02
 -0.49190351E-04  0.23955378E-02  0.34830886E-02
  0.31735521E-02  0.14634097E-02 -0.17828232E-02
 -0.34469916E-03 -0.23927281E-02 -0.21158563E-02
  0.12011523E-02 -0.94384385E-04  0.79081851E-03
  0.15473293E-02 -0.22494025E-03  0.17258827E-02
 -0.80360312E-03  0.42634601E-02 -0.93121494E-04
 -0.19088843E-02 -0.18184206E-02  0.26701927E-03
  0.20902502E-02  0.15851161E-02 -0.54173236E-03
  0.34758704E-03  0.71446555E-03 -0.14792284E-02
  0.16516300E-02  0.20373710E-03  0.12251593E-02
 -0.22256653E-02 -0.18413747E-04  0.22067542E-02
 -0.19756842E-02 -0.21183806E-02 -0.89923382E-04
  0.27473914E-02 -0.16434476E-02 -0.20467771E-02
  0.18138655E-02 -0.62317516E-02 -0.14890023E-02
  0.44234452E-03  0.47283950E-03  0.11726310E-02
 -0.16243337E-02  0.71374876E-03  0.12575505E-02
 -0.75691138E-03 -0.20485933E-02  0.21801901E-04
 -0.45021550E-02  0.16318112E-02 -0.88777471E-03
  0.37507790E-02 -0.23393315E-03  0.86940788E-03
  0.67857430E-03 -0.11536419E-02  0.38267818E-03
  0.31020228E-02 -0.29250847E-02  0.28648289E-02
 -0.23904753E-02  0.17340963E-02  0.16301618E-02
 -0.59994270E-03 -0.15335169E-02  0.48584644E-03
  0.76473848E-03 -0.18420735E-02  0.11218098E-03
  0.11653670E-02 -0.85268430E-03  0.61383530E-03
 -0.23864645E-02 -0.11899652E-02  0.64178941E-02
  0.48231148E-03 -0.13425124E-02  0.15005387E-02
 -0.28123033E-03  0.85836594E-03  0.73276695E-03
 -0.25053306E-02  0.15530528E-02  0.17164051E-03
 -0.98673400E-03  0.71328214E-03  0.49665413E-03
  0.25036192E-02 -0.36496846E-02 -0.37004704E-02
 -0.67219660E-03  0.12670888E-02  0.64178874E-03
  0.27398065E-03 -0.78127309E-03 -0.11353823E-02
 -0.74009955E-03  0.10554604E-02  0.25001239E-02
  0.34297658E-02  0.18452291E-02 -0.19920033E-03
  0.14487532E-02  0.12206484E-02 -0.26637838E-02
  0.28802253E-02  0.61193305E-03  0.91605728E-03
  0.43574185E-03  0.83100790E-03 -0.10286080E-02
  0.13253867E-02 -0.43855744E-02  0.14173896E-02
 -0.46956219E-03  0.40359410E-02 -0.13336753E-02
 -0.12490541E-02 -0.87721539E-03  0.12104116E-02
 -0.18938272E-02 -0.14390491E-04  0.11156464E-02
  0.71958874E-04  0.41458746E-03 -0.19335709E-02
 -0.10830765E-02 -0.18753577E-02 -0.19985496E-02
  0.22434416E-02  0.13110568E-02  0.21813391E-02
  0.19579039E-03 -0.13336588E-02  0.21847786E-02
 -0.28059880E-03 -0.12323108E-03  0.16687472E-02
 -0.15109668E-02 -0.25987822E-02 -0.51681680E-02
 -0.15623002E-02  0.30316450E-03  0.12852451E-02
  0.37260816E-03  0.21695198E-02  0.20568920E-02
 -0.37892959E-02  0.75602962E-03 -0.33705561E-03
 -0.50965577E-03 -0.31064208E-02 -0.31108120E-02
 -0.14407524E-02  0.71470119E-03 -0.27261261E-02
  0.94397908E-03  0.97385319E-03  0.13094467E-02
 -0.20791678E-02  0.12401804E-02 -0.20635480E-03
 -0.16294640E-02  0.24676225E-02 -0.12470208E-03
  0.24245597E-02 -0.10863985E-02 -0.26369210E-03
  0.90194028E-03  0.49735165E-03  0.24613605E-02
  0.21342163E-02 -0.30631811E-03 -0.18310368E-03
 -0.46199767E-03 -0.24672541E-02  0.36247097E-02
 -0.12448991E-02 -0.98590939E-03 -0.53589750E-03
  0.10202351E-04 -0.34094121E-02 -0.25958037E-02
  0.44853962E-03 -0.12814806E-02 -0.99594410E-04
  0.31898793E-03 -0.69948137E-04 -0.93642243E-03
  0.12414869E-02  0.26808557E-02 -0.14723017E-02
  0.70336315E-03  0.12306445E-02  0.25576075E-02
  0.10725906E-02 -0.88173202E-03  0.14967340E-02
  0.19852539E-02 -0.28716438E-02  0.69720894E-04
  0.13452739E-02 -0.12950377E-03 -0.21675403E-03
 -0.26984823E-02  0.22330247E-02 -0.25411574E-02
  0.14862929E-02 -0.27477975E-02  0.30879340E-02
  0.54600201E-03  0.49489557E-03 -0.32774187E-02
 -0.15536024E-02  0.14313431E-02  0.23924257E-02
 -0.21737891E-03 -0.20788631E-02 -0.31119008E-02
  0.11400965E-02 -0.10973513E-02 -0.40874835E-02
 -0.16534536E-02  0.28861359E-02  0.44080736E-02
  0.10090062E-02  0.29660691E-03  0.23877456E-02
  0.29374967E-03 -0.21533453E-02  0.24654448E-02
  0.12151028E-03  0.64967241E-03  0.92724741E-03
  0.28023791E-02  0.12516844E-02 -0.14829640E-02
 -0.41901772E-03  0.54835779E-02  0.16698823E-02
  0.28005678E-02  0.36793030E-02 -0.32658132E-02
 -0.23820845E-03 -0.24562272E-02 -0.94677617E-03
 -0.19120611E-02  0.15779975E-02  0.12847917E-03
 -0.29520180E-02 -0.60210042E-03 -0.16917191E-04
 -0.56116704E-03  0.10372828E-02  0.13615091E-03
  0.14409675E-02 -0.49346235E-03  0.67777376E-03
  0.11594982E-02  0.79929660E-03  0.21324474E-03
  0.10524395E-02 -0.16049631E-02  0.19036905E-02
  0.39238309E-02 -0.10133703E-02  0.17562344E-02
 -0.43649931E-02 -0.66522234E-03 -0.38085971E-02
  0.38298374E-02  0.74259702E-03  0.48615882E-02
  0.10788816E-02 -0.31846350E-02 -0.71250276E-03
  0.20192260E-02  0.97887394E-03  0.28657816E-02
 -0.17805432E-02 -0.33846549E-02 -0.14903456E-02
 -0.18311884E-02  0.58070921E-02  0.46437404E-02
 -0.24436156E-02  0.69544913E-03 -0.22932319E-02
  0.11319997E-02 -0.44353856E-03 -0.18330536E-02
 -0.46963205E-03 -0.97690563E-03  0.17781412E-02
  0.23695460E-03 -0.10644214E-02 -0.21875658E-03
  0.34833130E-02  0.31752945E-02  0.21831481E-02
 -0.42863504E-02  0.31704190E-02  0.19509223E-03
  0.82904058E-03 -0.30418048E-02 -0.12148982E-02
 -0.20770626E-02  0.99040124E-03  0.19317871E-02
  0.31800287E-02  0.64549687E-03  0.78740933E-02
 -0.32044145E-03  0.13875183E-02 -0.45413403E-03
  0.12677308E-02 -0.32976023E-03  0.41506315E-02
  0.19412023E-02  0.16726729E-02  0.10532221E-02
 -0.20692911E-02  0.24110031E-02  0.15407012E-02
  0.31914488E-02 -0.22354230E-03 -0.11598321E-02
 -0.24019650E-02 -0.27559623E-03 -0.19088884E-03
 -0.38985755E-02 -0.74383409E-04 -0.13329619E-02
 -0.38947905E-02  0.11458478E-02 -0.29854163E-03
 -0.34905916E-02 -0.21606627E-02  0.18070950E-02
 -0.16199233E-02  0.29109971E-03  0.22804331E-04
 -0.50150264E-04 -0.21192090E-02 -0.18735541E-02
  0.18301221E-02  0.13680672E-02 -0.72367876E-03
  0.90239250E-03 -0.11569621E-02 -0.18244990E-02
 -0.22463889E-03 -0.12820731E-02 -0.49628163E-03
 -0.77473158E-03  0.32310776E-03  0.44851115E-03
 -0.17283405E-02  0.17889671E-02 -0.57360385E-03
 -0.28818405E-02  0.41127983E-03  0.25183728E-02
  0.14937934E-02 -0.21490483E-02 -0.11438535E-03
 -0.13716570E-03 -0.13368592E-02  0.50753508E-03
 -0.24106569E-02  0.20957917E-02  0.11326085E-02
 -0.33305912E-03 -0.13201358E-02 -0.26615908E-02
  0.43732829E-03  0.52389336E-03 -0.39530176E-03
 -0.64558001E-03 -0.89674763E-03  0.52073843E-03
  0.10031258E-02 -0.20213489E-02  0.16674081E-02
  0.16155569E-02 -0.37465987E-03  0.17965968E-02
 -0.28316966E-02 -0.51027197E-03 -0.33269902E-02
  0.47121724E-02 -0.67601408E-03 -0.14166199E-02
  0.22703066E-02 -0.17777231E-02 -0.28569841E-02
 -0.78235364E-03 -0.37844364E-03  0.13645448E-02
 -0.13140409E-02 -0.27659295E-02 -0.65082982E-03
 -0.30734407E-02 -0.44659547E-03  0.25655981E-02
 -0.50512609E-03  0.70209784E-03 -0.12822972E-02
 -0.11795500E-02 -0.96116366E-03 -0.18026463E-02
  0.33336149E-03  0.18032677E-02  0.70870487E-03
  0.46022299E-03 -0.23240890E-02 -0.39364293E-02
 -0.44232333E-03  0.32015538E-02 -0.29578984E-04
  0.31384391E-02  0.81708512E-04 -0.35646858E-03
 -0.20673489E-03  0.35609541E-03  0.18928752E-02
 -0.13640051E-03 -0.46796447E-03 -0.25406822E-03
  0.31920353E-02  0.28765949E-02 -0.40052268E-03
  0.86574487E-03 -0.27556976E-03  0.20025886E-02
  0.14495063E-02 -0.92796806E-03  0.37638875E-03
  0.14336530E-02 -0.30465900E-02 -0.34603682E-05
 -0.61236626E-03 -0.15925618E-02 -0.15059734E-02
  0.98024214E-03 -0.17666260E-03  0.18434205E-02
  0.17021133E-02 -0.15899294E-03 -0.24468309E-02
 -0.28976089E-02  0.23504569E-03 -0.11128285E-02
  0.76812046E-03 -0.48195714E-02 -0.14232312E-02
  0.13919225E-02 -0.11080406E-02 -0.17655592E-03
  0.16308611E-02  0.33347073E-02 -0.12071034E-02
  0.48706331E-03 -0.28248585E-03  0.15027826E-03
 -0.19242900E-02  0.17223831E-02  0.58259965E-03
  0.27700908E-02 -0.45657880E-02  0.38028818E-03
 -0.49790131E-03  0.88978167E-03 -0.63982643E-03
 -0.29741737E-02  0.20296315E-02 -0.27121798E-03
  0.98497579E-03  0.25284373E-02  0.38549962E-03
 -0.64447281E-03 -0.10601135E-02  0.12989876E-02
 -0.25746474E-02 -0.99692578E-03  0.11136247E-02
  0.12002337E-02 -0.61758500E-03 -0.22272706E-02
 -0.87682956E-03 -0.10219096E-02 -0.11159692E-03
  0.27422330E-03 -0.58233560E-03 -0.20347284E-02
  0.16523070E-02 -0.23405762E-03  0.69762988E-03
 -0.12367577E-02  0.17064552E-02  0.29324177E-03
  0.10034421E-02  0.29832041E-02 -0.11128470E-02
 -0.16515157E-02 -0.54042810E-03  0.21531038E-02
 -0.33029045E-04  0.15687211E-02  0.24884446E-02
 -0.15581812E-02 -0.23007108E-02 -0.23646242E-02
 -0.12509107E-02  0.29117854E-02  0.16658697E-03
 -0.17634414E-02  0.29328986E-02 -0.23465213E-03
 -0.89821949E-03  0.23132093E-02  0.41045743E-03
  0.39841183E-02  0.10749854E-02 -0.13236573E-02
 -0.11124550E-02  0.18988407E-02 -0.10295282E-02
 -0.17439488E-02  0.40000906E-03 -0.90907614E-03
  0.34027663E-03  0.27391772E-02  0.11448319E-02
  0.39860890E-02 -0.20705348E-02  0.25530199E-02
 -0.92227630E-03  0.38557137E-02 -0.62562634E-03
 -0.39264692E-03 -0.77369604E-03 -0.29149490E-02
 -0.21853260E-02  0.19859280E-02 -0.12892866E-02
  0.31346742E-03 -0.83064540E-03 -0.12423696E-02
 -0.19596492E-02  0.18942152E-02  0.35174127E-02
 -0.15859972E-02  0.50506378E-03  0.69182129E-03
  0.83661999E-03 -0.25024059E-02 -0.23103704E-03
 -0.16524064E-02 -0.10717125E-02  0.41270816E-02
  0.18504581E-03  0.33964762E-02 -0.38791263E-03
 -0.10584606E-02 -0.72958092E-03 -0.37450568E-02
  0.19225501E-02 -0.14535501E-02  0.76295386E-03
  0.11782132E-02 -0.19866570E-02 -0.10914963E-02
 -0.85110166E-03 -0.44832490E-03  0.63602618E-03
  0.92201332E-03 -0.15057617E-03  0.28318442E-02
  0.43558416E-02  0.13714918E-02  0.72780358E-03
 -0.53543774E-03 -0.10445834E-02 -0.35932923E-02
 -0.12861002E-02  0.74583781E-03  0.37120274E-02
  0.10940167E-02  0.32439779E-02  0.17574412E-03
  0.54103709E-03  0.15227527E-02  0.60951607E-03
  0.57104114E-03  0.26006571E-02 -0.31503356E-02
 -0.23777359E-02  0.17689479E-02 -0.12107012E-02
  0.23547550E-02 -0.66692022E-03 -0.11834024E-02
  0.17635831E-02 -0.39689613E-02 -0.35166123E-02
  0.26433322E-02  0.41125172E-03 -0.51096175E-03
  0.15694307E-02 -0.17341650E-02 -0.76063105E-03
  0.14093798E-03 -0.10273098E-02 -0.14206046E-02
  0.16163380E-02 -0.30809224E-03 -0.64643940E-03
  0.13493643E-03 -0.17916870E-02  0.16913662E-03
 -0.32328746E-02  0.12404096E-02 -0.10507093E-02
  0.30048314E-03  0.13540361E-02  0.31207913E-03
 -0.13314294E-02  0.70748668E-03 -0.43112341E-03
  0.23777317E-02  0.14132641E-02  0.92776361E-03
  0.15065887E-02 -0.11707323E-02  0.61172144E-03
 
           1
   5.00000000000000     
  0.10000000E+01  0.00000000E+00  0.00000000E+00  0.00000000E+00
  0.10745902E+00  0.48632743E+00  0.61714315E+00
  0.48397862E-01  0.91616112E+00  0.74231185E+00
  0.13750609E+00  0.52307505E+00  0.29980672E+00
  0.45734334E+00  0.59071194E+00  0.23210815E+00
  0.46966980E+00  0.29706762E+00  0.33482963E+00
  0.78778532E+00  0.27610767E+00  0.10063134E+00
  0.40722547E-02  0.80859366E+00  0.20395383E+00
  0.27842752E+00  0.71163418E+00  0.33604823E+00
  0.60989017E+00  0.21141888E+00  0.57212474E+00
  0.97010795E-02  0.64629080E+00  0.64629571E+00
  0.21767232E-01  0.21525474E+00  0.23885614E+00
  0.90175990E+00  0.26943208E+00  0.28672626E+00
  0.33477724E+00  0.48679756E+00  0.88438927E+00
  0.84247451E+00  0.83043231E+00  0.31995218E+00
  0.77571200E+00  0.95283267E+00  0.23789374E+00
  0.73459452E+00  0.99337788E+00  0.88792284E+00
  0.71000834E+00  0.53211818E+00  0.47184856E+00
  0.62668092E+00  0.56244013E+00  0.31471330E-01
  0.91737629E+00  0.85500571E+00  0.46904369E+00
  0.61180999E+00  0.44812580E+00  0.61294562E+00
  0.84945637E+00  0.31492748E+00  0.96285293E+00
  0.59083273E+00  0.59332253E+00  0.47581107E+00
  0.54058730E+00  0.83295031E+00  0.48432336E+00
  0.50170604E+00  0.80726559E+00  0.24744529E+00
  0.68553815E+00  0.26791937E+00  0.67650353E+00
  0.86687238E+00  0.83835717E-01  0.88552557E+00
  0.76969079E+00  0.64329388E+00  0.40303127E+00
  0.18538417E+00  0.26367627E-01  0.11198207E+00
  0.43375492E+00  0.25075064E+00  0.45836117E+00
  0.94217533E+00  0.50624604E+00  0.35547791E+00
  0.46516298E+00  0.35349673E-01  0.43979686E+00
  0.62451210E+00  0.84577245E+00  0.30232491E+00
  0.71857095E+00  0.99740822E+00  0.97766229E-01
  0.94380446E+00  0.45993973E+00  0.48868263E+00
  0.39294116E+00  0.31776124E+00  0.56639397E+00
  0.60948604E+00  0.31186861E+00  0.32259212E+00
  0.99181050E+00  0.14901244E+00  0.65845963E+00
  0.14724251E+00  0.91225677E+00  0.44883432E+00
  0.88505345E+00  0.78387170E+00  0.88762315E-01
  0.83195009E+00  0.65514506E+00  0.72200191E+00
  0.69954883E+00  0.89276626E+00  0.78245812E+00
  0.13987869E+00  0.70054649E+00  0.78838894E+00
  0.56467129E+00  0.65080611E+00  0.59321152E+00
  0.28060819E+00  0.97455303E-01  0.89887127E+00
  0.33768695E+00  0.62873135E+00  0.43901036E+00
  0.38307580E+00  0.51456631E+00  0.14568715E+00
  0.80471163E+00  0.97818304E+00  0.65327600E+00
  0.32894101E+00  0.51890827E+00  0.55960662E+00
  0.27852666E+00  0.31659029E+00  0.49319886E+00
  0.22324370E-01  0.69757573E+00  0.85415460E+00
  0.74595226E+00  0.49224656E+00  0.34736852E+00
  0.78043467E+00  0.18713630E+00  0.43008046E+00
  0.33846402E-02  0.11823737E+00  0.42093488E+00
  0.34999851E+00  0.96957030E+00  0.72937704E+00
  0.24618429E+00  0.18414486E+00  0.67063714E-01
  0.24014655E+00  0.84143301E-01  0.70353224E+00
  0.58073495E+00  0.31122130E+00  0.75168259E+00
  0.32555311E+00  0.43949153E+00  0.67606200E+00
  0.99363280E+00  0.33098223E+00  0.38151249E+00
  0.11079663E+00  0.80884014E+00  0.11784418E+00
  0.76762529E+00  0.78155135E+00  0.42285615E+00
  0.33609580E+00  0.28758522E+00  0.79797155E+00
  0.41405402E+00  0.45619720E+00  0.78027582E+00
  0.52228952E+00  0.52999064E+00  0.76577682E+00