Sb_48                                   
   1.00000000000000     
     8.7982737395369419   -0.0161105748118616   -0.0898601132103597
    -4.4131167038090249    7.6087171435240846    0.0595537953567461
    -0.2197133532468914    0.0411777490345739   22.0540218978798777
   Sb   In
    41     7
Direct
 -0.0015696315249392  0.9939082321399246  0.1295950122518634
  0.3271807873560461  0.1713018232162099  0.2961140226458828
  0.1564894170189839  0.3348718248457545  0.9648990904248592
  0.0071787183770039 -0.0037942610878356  0.3664488981806445
  0.3402731087736422  0.1671111969474004  0.0293927143316639
  0.4891944706859455 -0.0048129846442793  0.1331608630343888
  0.8353086913071819  0.1702172003925402  0.2976952633405163
  0.6716572046658268  0.3345729659498704  0.9619903321479729
  0.4958892732507903 -0.0007852580707646  0.3657975926694245
  0.8350598667179014  0.1668999775495080  0.0369670868081656
  0.6715464829151512  0.3308280213493454  0.1986372523864516
 -0.0011375932811956  0.5028110198504540  0.1315271659787779
  0.3272944997137719  0.6613514873981060  0.2998554487162906
  0.1572301393297695  0.8269164749278444  0.9634571651601310
  0.0037859385723702  0.5039286535072328  0.3676582758388721
  0.3427079991389319  0.6656849345788147  0.0326717412619604
  0.1638720612230000  0.8293512474043148  0.2054213050418770
  0.4960650428278848  0.4974170866561195  0.1302465931375101
  0.8288338928862965  0.6667682372202682  0.2994619959542259
  0.6699621562438056  0.8367593925184058  0.9656904587432689
  0.6724211513115111  0.8308255948290650  0.1964179067951141
 -0.0055152687370827  0.0032639655480046  0.6328716128200492
  0.3347148809725443  0.1662654698151058  0.7991872067857043
  0.1668780106174974  0.3372545848005345  0.4662628021389729
  0.0088080384008435 -0.0068562173944046  0.8673269699100162
  0.3329717989329833  0.1698079258964991  0.5390497248278378
  0.1570842296162971  0.3275134284299547  0.7137727894411675
  0.5014437688750210  0.0051232025630197  0.6312159154406707
  0.8350187311664186  0.1644220945600536  0.7878737208750488
  0.6540800376616082  0.3368061728455579  0.4674166472127907
  0.8342062166613433  0.1669763449445958  0.5334424901221834
  0.6717891609715662  0.3320188519531523  0.7034753926104282
 -0.0056336202691954  0.5001382340597377  0.6326057058381770
  0.3385649470879946  0.6747881438126991  0.7964094783052702
  0.3341523948941262  0.6673375968912036  0.5356442735543920
  0.1723354549339149  0.8362055569952007  0.6981277946162187
  0.8307627967436404  0.6672019253516601  0.7964359873602117
  0.6565172333512032  0.8285929456429143  0.4647523445425280
  0.5065342656774607  0.5027289205859249  0.8659907595484959
  0.8358221853543484  0.6680006404481781  0.5360018655931746
  0.6708363985629519  0.8397579261678728  0.7080232121203582
  0.1656919101346838  0.3293710721981510  0.2019296070247645
  0.5013022322037796  0.4964058803108488  0.3701123538257990
  0.8327477613258425  0.6606586743914784  0.0437851390031114
  0.4918551499488737 -0.0106000213381144  0.8843956222626195
  0.1680795130128630  0.8409795981267136  0.4622507926518137
  0.0115148776717053  0.5072558460199997  0.8709471053609641
  0.5081931967170700  0.5064483488951428  0.6175866493573675
 
  0.00000000E+00  0.00000000E+00  0.00000000E+00
  0.00000000E+00  0.00000000E+00  0.00000000E+00
  0.00000000E+00  0.00000000E+00  0.00000000E+00
  0.00000000E+00  0.00000000E+00  0.00000000E+00
  0.00000000E+00  0.00000000E+00  0.00000000E+00
  0.00000000E+00  0.00000000E+00  0.00000000E+00
  0.00000000E+00  0.00000000E+00  0.00000000E+00
  0.00000000E+00  0.00000000E+00  0.00000000E+00
  0.00000000E+00  0.00000000E+00  0.00000000E+00
  0.00000000E+00  0.00000000E+00  0.00000000E+00
  0.00000000E+00  0.00000000E+00  0.00000000E+00
  0.00000000E+00  0.00000000E+00  0.00000000E+00
  0.00000000E+00  0.00000000E+00  0.00000000E+00
  0.00000000E+00  0.00000000E+00  0.00000000E+00
  0.00000000E+00  0.00000000E+00  0.00000000E+00
  0.00000000E+00  0.00000000E+00  0.00000000E+00
  0.00000000E+00  0.00000000E+00  0.00000000E+00
  0.00000000E+00  0.00000000E+00  0.00000000E+00
  0.00000000E+00  0.00000000E+00  0.00000000E+00
  0.00000000E+00  0.00000000E+00  0.00000000E+00
  0.00000000E+00  0.00000000E+00  0.00000000E+00
  0.00000000E+00  0.00000000E+00  0.00000000E+00
  0.00000000E+00  0.00000000E+00  0.00000000E+00
  0.00000000E+00  0.00000000E+00  0.00000000E+00
  0.00000000E+00  0.00000000E+00  0.00000000E+00
  0.00000000E+00  0.00000000E+00  0.00000000E+00
  0.00000000E+00  0.00000000E+00  0.00000000E+00
  0.00000000E+00  0.00000000E+00  0.00000000E+00
  0.00000000E+00  0.00000000E+00  0.00000000E+00
  0.00000000E+00  0.00000000E+00  0.00000000E+00
  0.00000000E+00  0.00000000E+00  0.00000000E+00
  0.00000000E+00  0.00000000E+00  0.00000000E+00
  0.00000000E+00  0.00000000E+00  0.00000000E+00
  0.00000000E+00  0.00000000E+00  0.00000000E+00
  0.00000000E+00  0.00000000E+00  0.00000000E+00
  0.00000000E+00  0.00000000E+00  0.00000000E+00
  0.00000000E+00  0.00000000E+00  0.00000000E+00
  0.00000000E+00  0.00000000E+00  0.00000000E+00
  0.00000000E+00  0.00000000E+00  0.00000000E+00
  0.00000000E+00  0.00000000E+00  0.00000000E+00
  0.00000000E+00  0.00000000E+00  0.00000000E+00
  0.00000000E+00  0.00000000E+00  0.00000000E+00
  0.00000000E+00  0.00000000E+00  0.00000000E+00
  0.00000000E+00  0.00000000E+00  0.00000000E+00
  0.00000000E+00  0.00000000E+00  0.00000000E+00
  0.00000000E+00  0.00000000E+00  0.00000000E+00
  0.00000000E+00  0.00000000E+00  0.00000000E+00
  0.00000000E+00  0.00000000E+00  0.00000000E+00
