Ge Se                                   
   1.00000000000000     
    20.8706398010253906    0.0000000000000000    0.0000000000000000
     0.0000000000000000   20.8706398010253906    0.0000000000000000
     0.0000000000000000    0.0000000000000000   20.8706398010253906
   Ge   Se
   150   150
Direct
  0.8581540271548109  0.9616912975380565  0.4826147027387628
  0.9800427123131437  0.5292571532422151  0.3766249125072446
  0.7737575440676419  0.8806344283089822  0.6393639344430664
  0.0992443417389960  0.2368100765430244  0.1064943149849692
  0.3354529649626087  0.0876403585781244  0.2403906041457499
  0.8759732447064474  0.1644343913833369  0.7191398799243583
  0.1017065767448283  0.5933081409919519  0.1395042268357179
  0.6706105261437370  0.3697219262888318  0.0973503621023070
  0.9329549292220883  0.3548604180255131  0.5035158324913167
  0.5357005885662169  0.1338872526876224  0.7368664700292155
  0.2891043422507298  0.6382369948641752  0.5092556835299072
  0.5108704062314535  0.0351338470230875  0.0409395322664300
  0.8294308252405392  0.1122521455301317  0.5807040542541534
  0.0640387373623577  0.1396833355079493  0.7465250178424410
  0.6958946394124732  0.5067227343159924  0.9622341685438452
  0.9473034737770968  0.0930001300203835  0.5912106771818501
  0.3075635829905105  0.5308439583767061  0.9694514367345571
  0.7134039291903453  0.1970339611223801  0.0969175823918788
  0.4624080867514244  0.3329880979867318  0.7175752635590100
  0.2675696660896807  0.9396092257963743  0.7245772799754615
  0.7568564200444740  0.6957633268108965  0.1975025808327174
  0.4048395267036173  0.4291455410590965  0.6703537542283562
  0.1550965834229708  0.7886548865866133  0.5794835740839756
  0.9497051675609234  0.5098798840945037  0.8154519136866197
  0.8044825755335286  0.3440359213280208  0.8396252220579937
  0.9543674866168099  0.9079883253735089  0.3869015859273219
  0.4919386411721904  0.1883337623033808  0.6284597873064234
  0.1622966691501973  0.1673410836341903  0.4070128542568128
  0.3961819895101611  0.1005486673667022  0.7023364332603124
  0.5229233534335812  0.0132091104732609  0.5838291532747480
  0.1298037856839727  0.8847915734470518  0.1284659487299470
  0.7383346140365483  0.0734768863717374  0.6514086500300444
  0.1227883411079499  0.5944366197364718  0.8229055411025040
  0.4310397650457060  0.5598353873559512  0.6801034572837777
  0.2624505497562031  0.0387627072364945  0.5389507014786565
  0.4418984660367450  0.7063150851644174  0.2194386957203418
  0.5577204770135767  0.5794623504368266  0.8435857192628159
  0.9413491302886221  0.3080869932756868  0.1797348960051119
  0.8800716923346942  0.5812813370492528  0.1712036929119466
  0.1178644999641544  0.0003840779204889  0.6587057227216324
  0.0594323401521612  0.5869152802065887  0.6529609670446981
  0.4208323886191477  0.1527961165099501  0.5307831840436853
  0.8937529895110397  0.0935054164003083  0.3889040233727288
  0.9475584671503540  0.2453311021064093  0.7662656205849246
  0.1080693462841055  0.4591742003062719  0.2074199110083609
  0.6968014061341188  0.6297884642001880  0.9575416746135579
  0.4077609189137485  0.7307375288965531  0.0686434925256445
  0.6571384136716130  0.1087757777218005  0.0224639218348275
  0.2468409367021697  0.1371601098947083  0.0230363435342300
  0.1121101994475108  0.8547401829775397  0.7128267108218915
  0.9618585594820687  0.0779962845982043  0.7094048950698176
  0.2873187412231918  0.4579502667001314  0.4807854659718169
  0.8938894274915344  0.2425728490357022  0.4573351305919861
  0.3797007865981867  0.3780098677639322  0.9952264125142607
  0.7757827133111346  0.8295593827502107  0.1256552932980746
  0.5592245726108807  0.0264944245575733  0.1543280558905231
  0.7441892583006471  0.3605436407204334  0.4629630259404694
  0.5736318111047148  0.4805557513061692  0.6897856890407975
  0.9439635368555015  0.3853951691117641  0.3125021568826170
  0.1317309952857673  0.1130005890122228  0.2988562468766076
  0.8981630708891613  0.1012232972153406  0.1888282007609922
  0.0918968565405351  0.2548586749657027  0.5469389134289202
  0.6522740660456093 -0.0029426175283949  0.4566877029703559
  0.7857004433637200  0.2471519259028274  0.6922810078458087
  0.3619469687523859  0.4293705399678404  0.2240867936750191
  0.3891682178366317  0.9749459804784986  0.1679222373256427
  0.0271646703496992  0.0945247096121340  0.4434206682378503
  0.4835846041494095  0.3052954096537316  0.1436848298883049
  0.0963976437535699  0.0787785070258887  0.1326160715315021
  0.9320407688188747  0.5305709101617000  0.5760731647410344
  0.4285382718320884  0.2248712352699448  0.3103867153580483
  0.9848591855775819  0.3159556524038455  0.9013850626144344
  0.5306259780447528  0.7382306651125538  0.9169025306760786
  0.8750846628902595  0.2587026573326176  0.2706505946366449
  0.5429291414737544  0.8368020842676070  0.4709395682328966
  0.8847343601417063  0.9816270622726304  0.7465910060234220
  0.2039620267338682  0.7219175851504636  0.6726483731586659
  0.3151109851712409  0.2255521581017919  0.1565520598979386
  0.7151491615761610  0.7255465088678272  0.7037568502357687
  0.6790686536084841  0.2841796640734826  0.3275777301132829
  0.2728959869295020  0.3299603292917850  0.7124037388219975
  0.6586736067592519  0.8974937009095336  0.6897052340694850
  0.9668840682272375  0.5642142048747942  0.9759696176119812
  0.1156703067251105  0.4352949409000697  0.9547810334666814
  0.8796507363616343  0.4272063143535854  0.1876404201918828
  0.2418405906374794  0.4662068940597272  0.6607746177019255
  0.6847315337721922  0.1262270556036361  0.3788300830649204
  0.6829610835864149  0.6154209505099481  0.1320861105964911
  0.0863044454934540  0.1436265590722792  0.8704233002241297
  0.0087915205041641  0.0711531989969099  0.2999979397411444
  0.2802145542869092  0.1543220405482803  0.4127265714896147
  0.9826607611161527  0.7436667575238414  0.8206404249074347
  0.9096205160760314  0.7005254864347413  0.2329045136314174
  0.7897647309416266  0.6289268017129166  0.5974128313748235
  0.8593628337472070  0.7547269067775660  0.5864885345732963
  0.2523792834447575  0.4182144866023819  0.2856334940815265
  0.5775307525677521  0.2770936963856332  0.9235228566769654
  0.1483946687150500  0.6768167286755421  0.0132995853228416
  0.8072063509163315  0.4879577394072869  0.6922887260119569
  0.2265098668685181  0.1454315310928214  0.7695808745660885
  0.5814316760805373  0.4193135757434052  0.0303584034731695
  0.7610070080629963  0.4473468567926064  0.1424495704741761
  0.3945667034630664  0.4853386265601410  0.7991470906609437
  0.6535911671955970  0.0006176810280677  0.0819927378903950
  0.1604729316271214  0.9743240315530252  0.0074427021365309
  0.4609481931117454  0.8081134599839597  0.3854107044710036
  0.0370796525905071  0.0106767196649639  0.9918197419102218
  0.5670269026377974  0.1298015588920807  0.2290661442283643
  0.5254546672344884  0.7646685643686458  0.6162124385482322
  0.9579579167912847  0.7955974577453159  0.4646887097063054
  0.3919863766117293  0.1919727240502737  0.9614780165311082
  0.7929166379355286  0.1514071729009072  0.9361798510072784
  0.3119133403839218  0.5919517655675528  0.6214880318937406
  0.7804569623807716  0.4735256228478711  0.5239501828031961
  0.6429176378217953  0.3061905098718836  0.2022761734651257
  0.7520815717477720  0.4442813195836223  0.3333251065988981
  0.3172694776511839  0.8755575427680882  0.0216363809541299
  0.4683928476347999  0.6624139332618214  0.4412157791318055
  0.5787807946799325  0.4650386367381412  0.1747124487876885
  0.1874875635078085  0.7062846729549975  0.4920595751351280
  0.8374412815889558  0.1444382365483138  0.2886154215353426
  0.7893530390754154  0.5503677282802685  0.8211897434143532
  0.1583947114736359  0.5104265669627117  0.3789709869661370
  0.0886583662561173  0.8605398130180948  0.8834292069932517
  0.9200351579467951  0.2176297205761686  0.0432224679419939
  0.1897431567647686  0.7272178128755952  0.1967753275321814
  0.1795077796244876  0.5932227215743537  0.5715086368591312
  0.2918026374328093  0.6816925541515079  0.1314866276479822
  0.9183171464941071  0.9500970242749482  0.0748708235181613
  0.3552397124990851 -0.0209413197668520  0.9589572247665212
  0.9018739048691339  0.3818224475348502  0.0256639116462432
  0.6451028785020433  0.1667574408214060  0.7974067949388242
  0.3933364091756756  0.2638436190069918  0.8011893904742657
  0.0416655522587741  0.7449035277001493  0.5991350030705868
  0.0680102885433622  0.8140479739736450  0.3273838535718162
  0.6276945670694514  0.9086137758654547  0.9032146158978341
  0.0961468936729547  0.4012230830712918  0.7976990562278736
  0.8321341649878153  0.1232274087069360  0.8218880525895577
  0.0890393269215011  0.6341383084287596  0.4635270014782712
  0.2462410611548336  0.3262694436870118  0.1426389103608008
  0.2953910238326838  0.0375697888512566  0.3854963214598384
  0.7489673256942606  0.8451851049944932  0.0053761746481774
  0.4796074179649470  0.5999932848193960  0.9675243294057773
  0.5174110371688476  0.1249666911843928  0.4552010862414311
  0.3203226955096640  0.6943956700324755  0.3600006389058429
  0.2477056359492608  0.3222688797887673  0.9475783184323571
  0.6943822904619629  0.2275473640969407  0.5353015062646053
  0.1421750058934552  0.7224466519147615  0.3079204858282560
  0.7747077852678592  0.9944266688767845  0.0943520742495373
  0.4170396716832548  0.5365628559721342  0.1586784341631760
  0.0823518693020269  0.6302240751024171  0.3438156695974641
  0.9778075499763920  0.1834046336604785  0.1528107642076122
  0.9739483818129300  0.8455179108534696  0.0513196686326104
  0.0867059981650938  0.7167730937977862  0.1418073361412041
  0.2459273375996471  0.0346011964802047  0.9487272359893452
  0.4410289001679696  0.2953712867702186  0.9160727517781703
  0.1761062554137831  0.3216337403254735  0.0501560598649455
  0.0529963257201918  0.5217633532449637  0.4743229325102219
  0.8510964095899217  0.7382141119408051  0.1283927887436067
  0.6442754432653667  0.7967722406223208  0.6203070755010003
  0.6528460770735443  0.3889965223008131  0.3888822903879570
  0.2992062801482168  0.6044976281923042  0.8774169688646543
  0.1952283525996210  0.8607031105431880  0.0161896008025732
  0.7229798770267442  0.1451681884549037  0.2639864467105498
  0.3122979865027233  0.3740509400759728  0.6099021832355581
  0.8141926540792933  0.6857818503730428  0.2991306508487696
  0.8009182057437820  0.6675325021536024  0.8001203586750213
  0.3572293904392088  0.8662999412593065  0.1297374643607578
  0.6580613270913853  0.8058229885618625  0.7748161154093455
  0.5436518063899850  0.1353929610964486 -0.0040283015893327
  0.3956624668094217  0.8707462941658595  0.3127631606027363
  0.6829148246854980  0.3428449642727600  0.5618159255015184
  0.2089485066274781  0.8456513424879895  0.2121325860700687
  0.2194480253706856  0.3961361854633606  0.3979212429528984
  0.3024838069709314  0.0487974319024119  0.7666265931409026
  0.0478133493516009  0.2509739821398069  0.7115749677062991
  0.8432883021208398  0.5767892235617440  0.4994025412262943
  0.3453094738189504  0.7722118146387125  0.9759559925665546
  0.0725815394455776  0.8277895947164248  0.4438882840721745
  0.8237295631139621  0.7879062082924925  0.6984726434624754
  0.9844868387258104  0.1878787098082069  0.5268893537942372
  0.8756106960823054  0.5861676287147428  0.6746389486993866
  0.3081596317967895  0.1970528719862277  0.3081666452715611
  0.2231573279025158  0.0331759575275454  0.2915558408576774
  0.5974095496784368  0.5342690757491565  0.0292984189963125
  0.5956785330934133  0.2103117939656559  0.1417658083566301
  0.3177350652635860  0.7015356956913604  0.6646884841966394
  0.9690461007383798  0.0103570757225596  0.2033879626874318
  0.0369647361914907  0.3628925763659708  0.5498072105950553
  0.5234297050044975  0.8478027655436802  0.8908807987679183
  0.1897602193094942 -0.0043191424772569  0.1217945750444711
  0.5236824337546716  0.7106306746987824  0.0294399907582444
  0.6970681398366778  0.2875852352510818  0.0171704793930360
  0.5747196933410883  0.1332238080488981  0.5608553082430121
  0.1260700178074158  0.9045928378226658  0.2819698796525746
  0.1703875785774952  0.3465662318872675  0.2339091660425655
  0.5847254304013589  0.3964080438413622  0.9186074451680765
  0.8146720220587342  0.9470598417876679  0.9952297317221417
  0.9628580091135256  0.8309585076132089  0.5852242310178813
  0.2189834828159971  0.9494044767911137  0.6097401303087343
  0.3301506002269923  0.2162519580172242  0.4947139666250608
  0.5060882258035473  0.4273322835328181  0.7815482290464801
  0.3856902383139734  0.3080249350407423  0.2227007357573563
  0.4445363719338321  0.1450514982374289  0.8100328035287072
  0.6912870035208027  0.4863464557120798  0.2325901339769397
  0.3501799842554034  0.7744921962059989  0.2683876689557572
  0.8680390743383791  0.4186484384875542  0.5918339191703311
  0.4513475689888087  0.1569192546269470  0.2124956309824796
  0.5029878175908244  0.9376194805747781  0.1944879840931167
  0.4722797638424709  0.4159768705911100  0.0810931219326852
  0.9913723736577800  0.6754454990786258  0.5153238289608305
  0.3765326482265619  0.2622601737772614  0.0598717541566393
  0.5252378812817634  0.2993491743965592  0.6238353021561337
  0.7463877663498456  0.2288266130718985  0.4178271220805537
  0.6859667946789806  0.1781501217014831  0.6773719737474646
  0.5346262831252527  0.0105702464183835  0.4366022018515833
  0.6693587815712796 -0.0015233325934328  0.5931939898684920
  0.9600657374560949  0.2678403310866016  0.3536222315262763
  0.2997024498077255  0.4274413514159460  0.1233613003584001
  0.4501566752128023  0.6738396464807634  0.8677794221055142
  0.8657014521105502  0.3059484275105122  0.9362913131986724
  0.6734831479576259  0.5196645752890016  0.8386548073482714
  0.7830094914651612  0.3359055833766825  0.2748884767376275
  0.9776676887543562  0.0088400426721427  0.5154219011055637
  0.1221031440531497  0.1448154791851527  0.0265669876018529
  0.6987965946308579  0.7990696419858003  0.2045543402099577
  0.5170823069434546  0.5623816768876320  0.2140957488923209
  0.1544740748819754  0.9570759900136431  0.7679852895755584
  0.1377220893204116  0.0945486152047847  0.4939025054613243
  0.6992116693355150  0.0808433288697521  0.9183959750892818
  0.1667193788544060  0.4849540271688683  0.8533987156255558
  0.2767028229918821  0.5612094389090967  0.4186441353546365
  0.7592470565050879  0.2242170529037512  0.8384289123158224
  0.9048350865376107  0.3527121152996894  0.7717596290460955
  0.1849262474302529  0.4748153127641334  0.5547077066143159
  0.3955329624411439  0.0337925303108031  0.3313560418769178
  0.3215254996365015  0.3800323391320652  0.8070393424319157
  0.2004767258081276  0.5221852459656209  0.2583434233781782
  0.0134612288745278  0.8602554177211691  0.7851320887639793
  0.7121053767004238  0.8229183785948391  0.8810078312884119
  0.5438965723879529  0.3646916994262824  0.2396138015801220
  0.2713430889289393  0.2044930818285214  0.9212697204417943
  0.7863671837334716  0.8325785555480851  0.5325308429248343
  0.2991226793279292  0.2184557978525955  0.6977725824482840
  0.1998703218487654  0.6606626708498884  0.8937099396843489
  0.9579844892310406  0.8242980001777970  0.2967143751441109
  0.3817425114371913  0.7514925105041901  0.4529496938378974
  0.5510529843980759  0.5963186408617763  0.7200469759244565
  0.4848191890163027  0.4847717871329609  0.5991938597783939
  0.3959602296401579  0.0435691293524942  0.5584362991805136
  0.6266987895739611  0.6790445568529458  0.8719647345659288
  0.9924502533495865  0.4524846570739073  0.9233546506740973
  0.5073862591112417  0.7130795238636806  0.3340913333437588
  0.9891275417945919  0.9038272263447936  0.9533169377789794
  0.6399306105824411  0.8948275719892601  0.0301540787924003
  0.8611743575966200  0.9810966297202595  0.3561591354619729
  0.6430693720339992  0.8775709125019934  0.4381793869278447
  0.6928602711599644  0.7025782106948240  0.0459841697995817
  0.2148284942032614  0.5974970930523040  0.0888630945060120
  0.5596386332924944  0.7226678168085533  0.5006322385232634
  0.2198386613783820  0.7634850347458100  0.3892555501842227
  0.0231754213306123  0.4921405529170028  0.7193324798707128
  0.4122216101283154  0.4864286516044343  0.9249651757636056
  0.4941566553369773  0.0245127455153918  0.7098797830922789
  0.0112572022995559  0.6901639576862361  0.6994010706948035
  0.8140488054865025  0.2287063539263783  0.5722534038525281
  0.7180326130913628  0.5242128364326063  0.6178863190274335
  0.5754472679694604  0.1833215285649306  0.3655991325828445
  0.0504601745559815  0.9794650240099658  0.3640703367265651
  0.7661000305001167  0.0357916572849660  0.7611745756249791
  0.2707542525227350  0.9539442922240343  0.4563039087359912
  0.9056357921885243  0.4354509580458606  0.4173018129038785
  0.0547472048170162  0.4433723950249372  0.3200249260180500
  0.1649920977687593  0.3694892788692950  0.6955260551274987
  0.0035687066536281  0.3084419539827451  0.0261063277203274
  0.3826246700382262  0.6066497482950128  0.0477005492608443
  0.3512756433658240  0.6239316632995896  0.2246852585145114
  0.8636469902223070  0.5137870458678070  0.2687392233960392
  0.0806325592891398  0.5737620427377118  0.0197611505342189
  0.8626574755656812  0.9587003775836683  0.6318888487869705
  0.5955651593545532  0.2748052511417900  0.8032465671735048
  0.1347759348948855  0.3257710662232908  0.8943646714348714
  0.8335765524507505  0.9252697271408735  0.1703608442194430
  0.3923716764588853  0.0392550376389172  0.0595617947351627
  0.1946971652455237  0.7870755722006086  0.7668237340246408
  0.0033701728057682  0.6075235826080019  0.8625170859023173
  0.0369084149750295  0.0346236968767673  0.8773021394449763
  0.7974733979380706  0.0711032667623652  0.4763790981866997
  0.1763236865995020  0.6001215328706172  0.6982268303703957
  0.4880559461280389  0.8705716647725995  0.5653975270355392
  0.8389649371060939  0.0919152201703319  0.0880042824457047
  0.9717726171018835  0.1933968964562640  0.8724634006963102
  0.0654143741885703  0.7448403592351364  0.9056765355784459
  0.1536581637580367  0.1178547109652974  0.6709399129029171
  0.9497089729470364  0.5002647282490524  0.1196341411044798
  0.8100375554258767  0.6381536257959535  0.9109835074471300
  0.1663540212527606  0.1627803453891349  0.1943139031974683
  0.7826624946594871  0.5547967265370394  0.0911500601835150
  0.1086817821368886  0.2657894743445621  0.4279417962116127
  0.8474492536933378  0.2961659776265316  0.1044713363117005
 
  0.00000000E+00  0.00000000E+00  0.00000000E+00
  0.00000000E+00  0.00000000E+00  0.00000000E+00
  0.00000000E+00  0.00000000E+00  0.00000000E+00
  0.00000000E+00  0.00000000E+00  0.00000000E+00
  0.00000000E+00  0.00000000E+00  0.00000000E+00
  0.00000000E+00  0.00000000E+00  0.00000000E+00
  0.00000000E+00  0.00000000E+00  0.00000000E+00
  0.00000000E+00  0.00000000E+00  0.00000000E+00
  0.00000000E+00  0.00000000E+00  0.00000000E+00
  0.00000000E+00  0.00000000E+00  0.00000000E+00
  0.00000000E+00  0.00000000E+00  0.00000000E+00
  0.00000000E+00  0.00000000E+00  0.00000000E+00
  0.00000000E+00  0.00000000E+00  0.00000000E+00
  0.00000000E+00  0.00000000E+00  0.00000000E+00
  0.00000000E+00  0.00000000E+00  0.00000000E+00
  0.00000000E+00  0.00000000E+00  0.00000000E+00
  0.00000000E+00  0.00000000E+00  0.00000000E+00
  0.00000000E+00  0.00000000E+00  0.00000000E+00
  0.00000000E+00  0.00000000E+00  0.00000000E+00
  0.00000000E+00  0.00000000E+00  0.00000000E+00
  0.00000000E+00  0.00000000E+00  0.00000000E+00
  0.00000000E+00  0.00000000E+00  0.00000000E+00
  0.00000000E+00  0.00000000E+00  0.00000000E+00
  0.00000000E+00  0.00000000E+00  0.00000000E+00
  0.00000000E+00  0.00000000E+00  0.00000000E+00
  0.00000000E+00  0.00000000E+00  0.00000000E+00
  0.00000000E+00  0.00000000E+00  0.00000000E+00
  0.00000000E+00  0.00000000E+00  0.00000000E+00
  0.00000000E+00  0.00000000E+00  0.00000000E+00
  0.00000000E+00  0.00000000E+00  0.00000000E+00
  0.00000000E+00  0.00000000E+00  0.00000000E+00
  0.00000000E+00  0.00000000E+00  0.00000000E+00
  0.00000000E+00  0.00000000E+00  0.00000000E+00
  0.00000000E+00  0.00000000E+00  0.00000000E+00
  0.00000000E+00  0.00000000E+00  0.00000000E+00
  0.00000000E+00  0.00000000E+00  0.00000000E+00
  0.00000000E+00  0.00000000E+00  0.00000000E+00
  0.00000000E+00  0.00000000E+00  0.00000000E+00
  0.00000000E+00  0.00000000E+00  0.00000000E+00
  0.00000000E+00  0.00000000E+00  0.00000000E+00
  0.00000000E+00  0.00000000E+00  0.00000000E+00
  0.00000000E+00  0.00000000E+00  0.00000000E+00
  0.00000000E+00  0.00000000E+00  0.00000000E+00
  0.00000000E+00  0.00000000E+00  0.00000000E+00
  0.00000000E+00  0.00000000E+00  0.00000000E+00
  0.00000000E+00  0.00000000E+00  0.00000000E+00
  0.00000000E+00  0.00000000E+00  0.00000000E+00
  0.00000000E+00  0.00000000E+00  0.00000000E+00
  0.00000000E+00  0.00000000E+00  0.00000000E+00
  0.00000000E+00  0.00000000E+00  0.00000000E+00
  0.00000000E+00  0.00000000E+00  0.00000000E+00
  0.00000000E+00  0.00000000E+00  0.00000000E+00
  0.00000000E+00  0.00000000E+00  0.00000000E+00
  0.00000000E+00  0.00000000E+00  0.00000000E+00
  0.00000000E+00  0.00000000E+00  0.00000000E+00
  0.00000000E+00  0.00000000E+00  0.00000000E+00
  0.00000000E+00  0.00000000E+00  0.00000000E+00
  0.00000000E+00  0.00000000E+00  0.00000000E+00
  0.00000000E+00  0.00000000E+00  0.00000000E+00
  0.00000000E+00  0.00000000E+00  0.00000000E+00
  0.00000000E+00  0.00000000E+00  0.00000000E+00
  0.00000000E+00  0.00000000E+00  0.00000000E+00
  0.00000000E+00  0.00000000E+00  0.00000000E+00
  0.00000000E+00  0.00000000E+00  0.00000000E+00
  0.00000000E+00  0.00000000E+00  0.00000000E+00
  0.00000000E+00  0.00000000E+00  0.00000000E+00
  0.00000000E+00  0.00000000E+00  0.00000000E+00
  0.00000000E+00  0.00000000E+00  0.00000000E+00
  0.00000000E+00  0.00000000E+00  0.00000000E+00
  0.00000000E+00  0.00000000E+00  0.00000000E+00
  0.00000000E+00  0.00000000E+00  0.00000000E+00
  0.00000000E+00  0.00000000E+00  0.00000000E+00
  0.00000000E+00  0.00000000E+00  0.00000000E+00
  0.00000000E+00  0.00000000E+00  0.00000000E+00
  0.00000000E+00  0.00000000E+00  0.00000000E+00
  0.00000000E+00  0.00000000E+00  0.00000000E+00
  0.00000000E+00  0.00000000E+00  0.00000000E+00
  0.00000000E+00  0.00000000E+00  0.00000000E+00
  0.00000000E+00  0.00000000E+00  0.00000000E+00
  0.00000000E+00  0.00000000E+00  0.00000000E+00
  0.00000000E+00  0.00000000E+00  0.00000000E+00
  0.00000000E+00  0.00000000E+00  0.00000000E+00
  0.00000000E+00  0.00000000E+00  0.00000000E+00
  0.00000000E+00  0.00000000E+00  0.00000000E+00
  0.00000000E+00  0.00000000E+00  0.00000000E+00
  0.00000000E+00  0.00000000E+00  0.00000000E+00
  0.00000000E+00  0.00000000E+00  0.00000000E+00
  0.00000000E+00  0.00000000E+00  0.00000000E+00
  0.00000000E+00  0.00000000E+00  0.00000000E+00
  0.00000000E+00  0.00000000E+00  0.00000000E+00
  0.00000000E+00  0.00000000E+00  0.00000000E+00
  0.00000000E+00  0.00000000E+00  0.00000000E+00
  0.00000000E+00  0.00000000E+00  0.00000000E+00
  0.00000000E+00  0.00000000E+00  0.00000000E+00
  0.00000000E+00  0.00000000E+00  0.00000000E+00
  0.00000000E+00  0.00000000E+00  0.00000000E+00
  0.00000000E+00  0.00000000E+00  0.00000000E+00
  0.00000000E+00  0.00000000E+00  0.00000000E+00
  0.00000000E+00  0.00000000E+00  0.00000000E+00
  0.00000000E+00  0.00000000E+00  0.00000000E+00
  0.00000000E+00  0.00000000E+00  0.00000000E+00
  0.00000000E+00  0.00000000E+00  0.00000000E+00
  0.00000000E+00  0.00000000E+00  0.00000000E+00
  0.00000000E+00  0.00000000E+00  0.00000000E+00
  0.00000000E+00  0.00000000E+00  0.00000000E+00
  0.00000000E+00  0.00000000E+00  0.00000000E+00
  0.00000000E+00  0.00000000E+00  0.00000000E+00
  0.00000000E+00  0.00000000E+00  0.00000000E+00
  0.00000000E+00  0.00000000E+00  0.00000000E+00
  0.00000000E+00  0.00000000E+00  0.00000000E+00
  0.00000000E+00  0.00000000E+00  0.00000000E+00
  0.00000000E+00  0.00000000E+00  0.00000000E+00
  0.00000000E+00  0.00000000E+00  0.00000000E+00
  0.00000000E+00  0.00000000E+00  0.00000000E+00
  0.00000000E+00  0.00000000E+00  0.00000000E+00
  0.00000000E+00  0.00000000E+00  0.00000000E+00
  0.00000000E+00  0.00000000E+00  0.00000000E+00
  0.00000000E+00  0.00000000E+00  0.00000000E+00
  0.00000000E+00  0.00000000E+00  0.00000000E+00
  0.00000000E+00  0.00000000E+00  0.00000000E+00
  0.00000000E+00  0.00000000E+00  0.00000000E+00
  0.00000000E+00  0.00000000E+00  0.00000000E+00
  0.00000000E+00  0.00000000E+00  0.00000000E+00
  0.00000000E+00  0.00000000E+00  0.00000000E+00
  0.00000000E+00  0.00000000E+00  0.00000000E+00
  0.00000000E+00  0.00000000E+00  0.00000000E+00
  0.00000000E+00  0.00000000E+00  0.00000000E+00
  0.00000000E+00  0.00000000E+00  0.00000000E+00
  0.00000000E+00  0.00000000E+00  0.00000000E+00
  0.00000000E+00  0.00000000E+00  0.00000000E+00
  0.00000000E+00  0.00000000E+00  0.00000000E+00
  0.00000000E+00  0.00000000E+00  0.00000000E+00
  0.00000000E+00  0.00000000E+00  0.00000000E+00
  0.00000000E+00  0.00000000E+00  0.00000000E+00
  0.00000000E+00  0.00000000E+00  0.00000000E+00
  0.00000000E+00  0.00000000E+00  0.00000000E+00
  0.00000000E+00  0.00000000E+00  0.00000000E+00
  0.00000000E+00  0.00000000E+00  0.00000000E+00
  0.00000000E+00  0.00000000E+00  0.00000000E+00
  0.00000000E+00  0.00000000E+00  0.00000000E+00
  0.00000000E+00  0.00000000E+00  0.00000000E+00
  0.00000000E+00  0.00000000E+00  0.00000000E+00
  0.00000000E+00  0.00000000E+00  0.00000000E+00
  0.00000000E+00  0.00000000E+00  0.00000000E+00
  0.00000000E+00  0.00000000E+00  0.00000000E+00
  0.00000000E+00  0.00000000E+00  0.00000000E+00
  0.00000000E+00  0.00000000E+00  0.00000000E+00
  0.00000000E+00  0.00000000E+00  0.00000000E+00
  0.00000000E+00  0.00000000E+00  0.00000000E+00
  0.00000000E+00  0.00000000E+00  0.00000000E+00
  0.00000000E+00  0.00000000E+00  0.00000000E+00
  0.00000000E+00  0.00000000E+00  0.00000000E+00
  0.00000000E+00  0.00000000E+00  0.00000000E+00
  0.00000000E+00  0.00000000E+00  0.00000000E+00
  0.00000000E+00  0.00000000E+00  0.00000000E+00
  0.00000000E+00  0.00000000E+00  0.00000000E+00
  0.00000000E+00  0.00000000E+00  0.00000000E+00
  0.00000000E+00  0.00000000E+00  0.00000000E+00
  0.00000000E+00  0.00000000E+00  0.00000000E+00
  0.00000000E+00  0.00000000E+00  0.00000000E+00
  0.00000000E+00  0.00000000E+00  0.00000000E+00
  0.00000000E+00  0.00000000E+00  0.00000000E+00
  0.00000000E+00  0.00000000E+00  0.00000000E+00
  0.00000000E+00  0.00000000E+00  0.00000000E+00
  0.00000000E+00  0.00000000E+00  0.00000000E+00
  0.00000000E+00  0.00000000E+00  0.00000000E+00
  0.00000000E+00  0.00000000E+00  0.00000000E+00
  0.00000000E+00  0.00000000E+00  0.00000000E+00
  0.00000000E+00  0.00000000E+00  0.00000000E+00
  0.00000000E+00  0.00000000E+00  0.00000000E+00
  0.00000000E+00  0.00000000E+00  0.00000000E+00
  0.00000000E+00  0.00000000E+00  0.00000000E+00
  0.00000000E+00  0.00000000E+00  0.00000000E+00
  0.00000000E+00  0.00000000E+00  0.00000000E+00
  0.00000000E+00  0.00000000E+00  0.00000000E+00
  0.00000000E+00  0.00000000E+00  0.00000000E+00
  0.00000000E+00  0.00000000E+00  0.00000000E+00
  0.00000000E+00  0.00000000E+00  0.00000000E+00
  0.00000000E+00  0.00000000E+00  0.00000000E+00
  0.00000000E+00  0.00000000E+00  0.00000000E+00
  0.00000000E+00  0.00000000E+00  0.00000000E+00
  0.00000000E+00  0.00000000E+00  0.00000000E+00
  0.00000000E+00  0.00000000E+00  0.00000000E+00
  0.00000000E+00  0.00000000E+00  0.00000000E+00
  0.00000000E+00  0.00000000E+00  0.00000000E+00
  0.00000000E+00  0.00000000E+00  0.00000000E+00
  0.00000000E+00  0.00000000E+00  0.00000000E+00
  0.00000000E+00  0.00000000E+00  0.00000000E+00
  0.00000000E+00  0.00000000E+00  0.00000000E+00
  0.00000000E+00  0.00000000E+00  0.00000000E+00
  0.00000000E+00  0.00000000E+00  0.00000000E+00
  0.00000000E+00  0.00000000E+00  0.00000000E+00
  0.00000000E+00  0.00000000E+00  0.00000000E+00
  0.00000000E+00  0.00000000E+00  0.00000000E+00
  0.00000000E+00  0.00000000E+00  0.00000000E+00
  0.00000000E+00  0.00000000E+00  0.00000000E+00
  0.00000000E+00  0.00000000E+00  0.00000000E+00
  0.00000000E+00  0.00000000E+00  0.00000000E+00
  0.00000000E+00  0.00000000E+00  0.00000000E+00
  0.00000000E+00  0.00000000E+00  0.00000000E+00
  0.00000000E+00  0.00000000E+00  0.00000000E+00
  0.00000000E+00  0.00000000E+00  0.00000000E+00
  0.00000000E+00  0.00000000E+00  0.00000000E+00
  0.00000000E+00  0.00000000E+00  0.00000000E+00
  0.00000000E+00  0.00000000E+00  0.00000000E+00
  0.00000000E+00  0.00000000E+00  0.00000000E+00
  0.00000000E+00  0.00000000E+00  0.00000000E+00
  0.00000000E+00  0.00000000E+00  0.00000000E+00
  0.00000000E+00  0.00000000E+00  0.00000000E+00
  0.00000000E+00  0.00000000E+00  0.00000000E+00
  0.00000000E+00  0.00000000E+00  0.00000000E+00
  0.00000000E+00  0.00000000E+00  0.00000000E+00
  0.00000000E+00  0.00000000E+00  0.00000000E+00
  0.00000000E+00  0.00000000E+00  0.00000000E+00
  0.00000000E+00  0.00000000E+00  0.00000000E+00
  0.00000000E+00  0.00000000E+00  0.00000000E+00
  0.00000000E+00  0.00000000E+00  0.00000000E+00
  0.00000000E+00  0.00000000E+00  0.00000000E+00
  0.00000000E+00  0.00000000E+00  0.00000000E+00
  0.00000000E+00  0.00000000E+00  0.00000000E+00
  0.00000000E+00  0.00000000E+00  0.00000000E+00
  0.00000000E+00  0.00000000E+00  0.00000000E+00
  0.00000000E+00  0.00000000E+00  0.00000000E+00
  0.00000000E+00  0.00000000E+00  0.00000000E+00
  0.00000000E+00  0.00000000E+00  0.00000000E+00
  0.00000000E+00  0.00000000E+00  0.00000000E+00
  0.00000000E+00  0.00000000E+00  0.00000000E+00
  0.00000000E+00  0.00000000E+00  0.00000000E+00
  0.00000000E+00  0.00000000E+00  0.00000000E+00
  0.00000000E+00  0.00000000E+00  0.00000000E+00
  0.00000000E+00  0.00000000E+00  0.00000000E+00
  0.00000000E+00  0.00000000E+00  0.00000000E+00