Sb_48                                   
   1.00000000000000     
     8.7374262601555355   -0.0495378547179759   -0.0177435686899571
    -4.4091282427859575    7.6313782634723601    0.0137713986233632
    -0.0384171066331167    0.0239110177930553   21.2205609048286767
   Sb   Sc
    41     7
Direct
  0.0189802426462467  0.0058781913848740  0.1297664993560235
  0.3495404773830762  0.2362895377857118  0.3027717203875924
  0.1722226491282850  0.3211452196007200  0.9552525811885809
 -0.0354477335505946 -0.0185387230097857  0.3740716883443138
  0.3245252893985896  0.1612253323380101  0.0401238511593128
  0.5115629454546792 -0.0084388400006672  0.1231701567498961
  0.8081126596002040  0.1424579094725677  0.2943565397877748
  0.7236394611466176  0.3827569961607380  0.9594331764576196
  0.4413277327631739 -0.0338828674083298  0.3506151644045533
  0.8119233025370464  0.1584162987635888  0.0366419544771960
  0.6217196657246150  0.3215505924730334  0.2026564421170316
  0.0274781962163979  0.5051647655206256  0.1313182795385951
  0.3450787884472190  0.6055215725820087  0.2985305785274294
  0.1971277139473061  0.8538227773451832  0.9425237336306853
 -0.0115289147798574  0.4931658911476589  0.3788124449745829
  0.3028469090137922  0.6622552251842841  0.0303906872630524
  0.1646138422278130  0.8299723411231128  0.2089877130032549
  0.5604706486120407  0.5268113570496146  0.1085370104479451
  0.8463338102530522  0.6565437072685396  0.2900139859290006
  0.7104021571425376  0.8288887365728353  0.9636295728043204
  0.6397139206083202  0.8108937536770729  0.2087189119820547
  0.0109707107773209  0.0185184895756300  0.6397035684873569
  0.3891531448121092  0.1610834497566175  0.8055362418557205
  0.2165349399783497  0.3537099986662924  0.4588820748506117
 -0.0436758784236152  0.0000578589411132  0.8582519178703825
  0.2882799228983166  0.1150593761883742  0.5397585073985618
  0.1740062442826652  0.3443414155707136  0.7227658851088641
  0.5167230921993202  0.0054707564057274  0.6297088444655837
  0.8145353161573855  0.1982566734561403  0.7844814812773016
  0.6694566551667516  0.3254567783060507  0.4634350496590081
  0.8311434114243312  0.1712149348609369  0.5483238651408547
  0.6044917406220118  0.3419855507605158  0.6948553755822134
  0.0172117427631021  0.5033953303661354  0.6369954719196094
  0.3917999186484204  0.7364293754689406  0.8069436291303425
  0.2820267910243962  0.6722055895337840  0.5364245087139973
  0.1536022053566703  0.8318584316160265  0.7158393161252512
  0.8460413999727064  0.6503323903076624  0.7956103855245578
  0.6556918514306607  0.8536650310021562  0.4617256359219256
  0.4781456462333837  0.4919270018944623  0.8726859154860793
  0.7520054004778640  0.6373230573391441  0.5441688400397816
  0.6088790781552543  0.7633423956736674  0.6954399753267073
  0.2480788627490327  0.3605022260034309  0.1869537076157142
  0.5662713457643828  0.5387905040149130  0.3884167176971368
  0.9233724905714589  0.6973550972899522  0.0431149950293935
  0.5776650165419840  0.0400395171494299  0.8983482785606328
  0.0639561637275858  0.7880206760385786  0.4670605505226560
  0.0361685298187131  0.5037839269801632  0.8708532977546456
  0.3968204729488610  0.4539743718020267  0.6033934184042919
 
  0.00000000E+00  0.00000000E+00  0.00000000E+00
  0.00000000E+00  0.00000000E+00  0.00000000E+00
  0.00000000E+00  0.00000000E+00  0.00000000E+00
  0.00000000E+00  0.00000000E+00  0.00000000E+00
  0.00000000E+00  0.00000000E+00  0.00000000E+00
  0.00000000E+00  0.00000000E+00  0.00000000E+00
  0.00000000E+00  0.00000000E+00  0.00000000E+00
  0.00000000E+00  0.00000000E+00  0.00000000E+00
  0.00000000E+00  0.00000000E+00  0.00000000E+00
  0.00000000E+00  0.00000000E+00  0.00000000E+00
  0.00000000E+00  0.00000000E+00  0.00000000E+00
  0.00000000E+00  0.00000000E+00  0.00000000E+00
  0.00000000E+00  0.00000000E+00  0.00000000E+00
  0.00000000E+00  0.00000000E+00  0.00000000E+00
  0.00000000E+00  0.00000000E+00  0.00000000E+00
  0.00000000E+00  0.00000000E+00  0.00000000E+00
  0.00000000E+00  0.00000000E+00  0.00000000E+00
  0.00000000E+00  0.00000000E+00  0.00000000E+00
  0.00000000E+00  0.00000000E+00  0.00000000E+00
  0.00000000E+00  0.00000000E+00  0.00000000E+00
  0.00000000E+00  0.00000000E+00  0.00000000E+00
  0.00000000E+00  0.00000000E+00  0.00000000E+00
  0.00000000E+00  0.00000000E+00  0.00000000E+00
  0.00000000E+00  0.00000000E+00  0.00000000E+00
  0.00000000E+00  0.00000000E+00  0.00000000E+00
  0.00000000E+00  0.00000000E+00  0.00000000E+00
  0.00000000E+00  0.00000000E+00  0.00000000E+00
  0.00000000E+00  0.00000000E+00  0.00000000E+00
  0.00000000E+00  0.00000000E+00  0.00000000E+00
  0.00000000E+00  0.00000000E+00  0.00000000E+00
  0.00000000E+00  0.00000000E+00  0.00000000E+00
  0.00000000E+00  0.00000000E+00  0.00000000E+00
  0.00000000E+00  0.00000000E+00  0.00000000E+00
  0.00000000E+00  0.00000000E+00  0.00000000E+00
  0.00000000E+00  0.00000000E+00  0.00000000E+00
  0.00000000E+00  0.00000000E+00  0.00000000E+00
  0.00000000E+00  0.00000000E+00  0.00000000E+00
  0.00000000E+00  0.00000000E+00  0.00000000E+00
  0.00000000E+00  0.00000000E+00  0.00000000E+00
  0.00000000E+00  0.00000000E+00  0.00000000E+00
  0.00000000E+00  0.00000000E+00  0.00000000E+00
  0.00000000E+00  0.00000000E+00  0.00000000E+00
  0.00000000E+00  0.00000000E+00  0.00000000E+00
  0.00000000E+00  0.00000000E+00  0.00000000E+00
  0.00000000E+00  0.00000000E+00  0.00000000E+00
  0.00000000E+00  0.00000000E+00  0.00000000E+00
  0.00000000E+00  0.00000000E+00  0.00000000E+00
  0.00000000E+00  0.00000000E+00  0.00000000E+00
