In2O3 structure 44 - random placement wi
   1.00000000000000     
     8.0173272082566349    0.0862103090780959    0.0000142304942577
     0.0863806841632540    8.0101575235108857    0.0003968200271498
     0.0004509223245231   -0.0001124831931594    8.0874484200941730
   In   O 
    16    24
Direct
  0.3101124038766047  0.2407798964177006  0.0864837208100743
  0.3127039217758838  0.7379323961192384  0.0862292388500765
  0.3406291545589690  0.7707550595654754  0.5864969706262581
  0.0929904118268716  0.5185218488086680  0.3141436611689304
  0.8431706140170269  0.7685474688858844  0.5863793076813180
  0.5906532059323306  0.5210525281118681  0.3140024156396420
  0.8127127317191714  0.2381106801553428  0.0865609779241189
  0.3432667905091962  0.2684908115846831  0.5862562801071070
  0.5630632735437939  0.4881328308294572  0.8141191613691476
  0.0904091553855876  0.0207428950790456  0.3139177711339166
  0.0605641778851443  0.4906612317422099  0.8139210630252014
  0.5604321849615523  0.9907395059206634  0.8140749407007507
  0.8103261608516165  0.7408705917711781  0.0862503741714426
  0.0631828162740656  0.9884415591817622  0.8138972121501271
  0.8406932095491823  0.2708331974129335  0.5866085408086872
  0.5926983544566428  0.0184805283718945  0.3140197369083665
  0.3444112086178576  0.1330541328221147  0.3501867597824243
  0.1979253535232311  0.9858314961514830  0.0497148851729979
  0.4477630423946763  0.7362871518110299  0.8500568693019842
  0.4554459688670824  0.5227549118419520  0.5500119233757037
  0.6978949227434841  0.4859246410079687  0.0498319140649537
  0.2057458418552665  0.7727482105227031  0.3507533826612019
  0.0953166454034819  0.3830194960293262  0.5499719515454223
  0.9477368099333858  0.2364061954268837  0.8503398549804732
  0.0562597487440311  0.2751716481385693  0.1999559484229710
  0.8064657338331320  0.5253439196874490  0.6999236503309788
  0.7054719159928716  0.2728962358290776  0.3510568948236575
  0.8467206479640857  0.9847747417705541  0.2004204824995940
  0.5581375083647591  0.1262778991809319  0.0501026207637978
  0.3066738156216280  0.0252019493971585  0.6997191723887771
  0.5970613839686352  0.2345314983077407  0.7001587201388730
  0.8448730447127163  0.6334743902484243  0.3500059166422613
  0.5564193726655077  0.7752523886578983  0.1992705457959472
  0.5951704216984280  0.8826130350982948  0.5495824874808373
  0.3088502580537956  0.3760700831299598  0.8508226086066828
  0.9556225175603532  0.0228951033177110  0.5501268458324124
  0.0969715576000545  0.7346472760385757  0.7001548082723608
  0.8088434002600172  0.8766945214328905  0.8508893897009101
  0.0581377911346441  0.6258606959179488  0.0499244715157708
  0.3469759728105704  0.4846279468974832  0.2002570538073109
 
  0.00000000E+00  0.00000000E+00  0.00000000E+00
  0.00000000E+00  0.00000000E+00  0.00000000E+00
  0.00000000E+00  0.00000000E+00  0.00000000E+00
  0.00000000E+00  0.00000000E+00  0.00000000E+00
  0.00000000E+00  0.00000000E+00  0.00000000E+00
  0.00000000E+00  0.00000000E+00  0.00000000E+00
  0.00000000E+00  0.00000000E+00  0.00000000E+00
  0.00000000E+00  0.00000000E+00  0.00000000E+00
  0.00000000E+00  0.00000000E+00  0.00000000E+00
  0.00000000E+00  0.00000000E+00  0.00000000E+00
  0.00000000E+00  0.00000000E+00  0.00000000E+00
  0.00000000E+00  0.00000000E+00  0.00000000E+00
  0.00000000E+00  0.00000000E+00  0.00000000E+00
  0.00000000E+00  0.00000000E+00  0.00000000E+00
  0.00000000E+00  0.00000000E+00  0.00000000E+00
  0.00000000E+00  0.00000000E+00  0.00000000E+00
  0.00000000E+00  0.00000000E+00  0.00000000E+00
  0.00000000E+00  0.00000000E+00  0.00000000E+00
  0.00000000E+00  0.00000000E+00  0.00000000E+00
  0.00000000E+00  0.00000000E+00  0.00000000E+00
  0.00000000E+00  0.00000000E+00  0.00000000E+00
  0.00000000E+00  0.00000000E+00  0.00000000E+00
  0.00000000E+00  0.00000000E+00  0.00000000E+00
  0.00000000E+00  0.00000000E+00  0.00000000E+00
  0.00000000E+00  0.00000000E+00  0.00000000E+00
  0.00000000E+00  0.00000000E+00  0.00000000E+00
  0.00000000E+00  0.00000000E+00  0.00000000E+00
  0.00000000E+00  0.00000000E+00  0.00000000E+00
  0.00000000E+00  0.00000000E+00  0.00000000E+00
  0.00000000E+00  0.00000000E+00  0.00000000E+00
  0.00000000E+00  0.00000000E+00  0.00000000E+00
  0.00000000E+00  0.00000000E+00  0.00000000E+00
  0.00000000E+00  0.00000000E+00  0.00000000E+00
  0.00000000E+00  0.00000000E+00  0.00000000E+00
  0.00000000E+00  0.00000000E+00  0.00000000E+00
  0.00000000E+00  0.00000000E+00  0.00000000E+00
  0.00000000E+00  0.00000000E+00  0.00000000E+00
  0.00000000E+00  0.00000000E+00  0.00000000E+00
  0.00000000E+00  0.00000000E+00  0.00000000E+00
  0.00000000E+00  0.00000000E+00  0.00000000E+00
