Se
 1.0000000000000000
    23.2812624329105340    0.0000000000000000    0.0000000000000000
     0.0000000000000000   23.2812624329105304    0.0000000000000000
     0.0000000000000000    0.0000000000000000   23.2812624329105304
 Se 
 300
Direct
  0.3307531783196860  0.2520180614293297  0.2138314373043708
  0.8027289802839306  0.4345183447905425  0.0207568141559387
  0.8612326729011017  0.8894938914683360  0.2870411674005117
  0.4068849789359533  0.2374504310563942  0.9795448109818423
  0.4387778553180366  0.4554103341801446  0.8274997594188350
  0.9186704227381702  0.7215430632034183  0.3093573529832367
  0.0659062806451951  0.0878214888109650  0.9725594182693967
  0.5064640870950262  0.6891615853144271  0.4623169313136491
  0.2845884369030293  0.4360090701201920  0.8681213688383810
  0.6982383870881383  0.6081416761639498  0.8569251346100217
  0.3095226467899568  0.2661411339237649  0.0008714828340267
  0.7168711284978039  0.3266156875472658  0.4738457169562381
  0.0512317219111759  0.6628693093376768  0.5953758961265504
  0.3841356955222598  0.3008297862885161  0.3847659306560737
  0.6289761606079495  0.3655417393598263  0.2031386335748256
  0.9473838332507449  0.9220950177679871  0.5197776910832156
  0.8385553559911461  0.1518310671708839  0.0124533172463894
  0.7709585860217505  0.8786766532626149  0.8402001501128582
  0.2825999608370894  0.6950324876175621  0.4449591092176114
 -0.0068262705376126  0.8142867716684682  0.4050613653065585
  0.7260319394304455  0.3674607921575826  0.6442805883633146
  0.7940565764894929  0.5978018044703853  0.8890746795495909
  0.0291073685685132  0.6552723983302552  0.0035526283267335
  0.8665226503719063  0.0873117833626286  0.0841710136000110
  0.6831022576041970  0.9203777760630388  0.5185768506633167
  0.9191899061355699  0.4326536469447274  0.3772443684811495
  0.5019747879307823  0.0507246987976166  0.3327114878706386
  0.6793275138498192  0.9752555007554142  0.1851106642506071
  0.3819111044032211  0.8201586655795813  0.4447629773625811
  0.6635720089896137  0.6415359502849073  0.1499994901682721
  0.2282970390620976  0.9211604852861274  0.1848013102799340
  0.6047376416315224  0.9148074167556214  0.4529784308560860
  0.6171682512726986  0.7167138723675062  0.3008057940958727
  0.4653423147229417  0.7490741349857402  0.2523062603630871
  0.7275400532413594  0.4653864341829412  0.6695535818642780
  0.2156219454016527  0.6920145184491231  0.0179521008174992
  0.7882010164881965  0.8072862883093912  0.5149003191843459
 -0.0030205495898450  0.4360196876359919  0.8497674571388144
  0.3959454337959458  0.5634836685057999  0.2367396044412028
  0.6310646808987032  0.8277653981116047  0.1775895456025094
  0.8327523105280840  0.4049946378337259  0.3354949285859830
  0.8626560048571393  0.2809891276239190  0.5377078515806206
  0.1926868158643628  0.1119981872336644  0.7346119577309370
  0.8975945033334084  0.3871312723403638  0.2011204516536699
  0.0135204810874001  0.2546187200209694  0.6615171506355938
  0.8281077424079143 -0.0014150156407378  0.5886487589958723
  0.5446864174049689  0.6913420634666659  0.2337563860820478
  0.2572874191085938  0.1290517874656287  0.9196790671205786
  0.7498279762897599  0.0990359461357959  0.5118953892396971
  0.8430554748774103  0.0601908221965130  0.6663259277825012
  0.0751712982485387  0.0139582007903770  0.5579001311985229
  0.1982445786884956  0.6248290820448977  0.5491943635218622
  0.3114078188348775  0.3904872819982745  0.1557878469324986
  0.6208966549782731  0.0006322730802877  0.6519568469947015
  0.1366627867155033  0.3424340925871884  0.3008893249163381
  0.5753021792082023  0.9539181401819434  0.5740156694369075
  0.8215565038279743  0.6885881773811334  0.9244743082960353
  0.0769258910651564  0.7342955024402812  0.2501428842540165
  0.4145470764302783  0.6596619461190771  0.9012434899273655
  0.6716639893873210  0.1695103428515384  0.7811362964330458
  0.4965740041915763  0.6190706707248758  0.9432483351688127
  0.0759161297084888  0.5695667426264107  0.9983461983964577
  0.0619570219991242  0.1668693266923247  0.6555710523595806
  0.1153226313039793  0.7622919749667213  0.9024675989443324
  0.9026853076876379  0.5928306532565314  0.4453040475734407
  0.5428641295428587  0.2396181172088771  0.5644565424699093
  0.6469585970145546  0.0752219097586080  0.3962853354878875
  0.9954204246628632  0.6803338333464900  0.7543924079119201
  0.3548138112406819  0.8352950033681990  0.7308138001037086
  0.8030486185636860  0.6918418315424451  0.0244916563298184
  0.1438171756239881  0.0252154510385236  0.9865460333406207
  0.2976293859427236  0.3814125429518141  0.5339057512576578
  0.1091000820312062  0.1651035615569681  0.7486707901127447
  0.2125657227077813  0.3282191377975583  0.5670012282874974
  0.1356838185131742  0.0766931018117913  0.3799374924667773
  0.4048619573801148  0.1146249390452410  0.0847611699378895
  0.2808655849818226  0.4704113685577439  0.2980584641213067
  0.8346308716374878  0.8422863623539804  0.6019361629683717
  0.7179058512678055  0.1988692490713824  0.2730373599507887
  0.6216451840224413  0.6159663901097419  0.6459628382669708
  0.4361298184995116  0.9405425533677363  0.5351586291283198
  0.1095138762393698  0.0908535356742796  0.2098214829031089
  0.4214733036559465  0.9685122752529504  0.0247154666365932
  0.0022233018439991  0.8817605603120271  0.6579440102439119
  0.6991592326945931  0.6173066857798568  0.4863509781908412
  0.0244317538430951  0.5230188524684344  0.8015677348461373
  0.1309973340869128  0.4969453758329712  0.3498713461198447
  0.4211228718633968  0.6357209586617735  0.8023541684703597
  0.1845417034687673  0.7277014756935253  0.0996258290573136
  0.5844508231186826  0.5177150790099883  0.6517270366938789
  0.5585605751608672  0.2965337118886315  0.1915480365122112
  0.4547614933687879  0.4372191658913058  0.0973625825333942
  0.4285351741000853  0.8425970961804717  0.6624034749694618
  0.5596855514866348  0.2424430235680706  0.2834087131873563
  0.1774437948804128  0.7272116812829694  0.2669587497543511
  0.2722477824871982  0.4544278847364907  0.7677878442707458
  0.9513732945737414  0.7949959261224125  0.0069015828524608
  0.7148838680700141  0.4477381557424621  0.9734466762478998
  0.0919141466234413  0.4177180905390219  0.1614901055586563
  0.4657136432940910  0.7141205814024889  0.7565299513019841
  0.9343863514038372  0.6834335077759347  0.4784187254663612
  0.7998486544399656  0.2655663103486339  0.4621007477463657
  0.0196084826449562  0.3376097434373939  0.0080186174812115
  0.4659508685919451  0.8481334502809668  0.1162106216918714
  0.2282589783573780  0.1167989343422775  0.0141327137261421
  0.7844974433149309  0.6943776388212468  0.3661952125573649
  0.2541459277833749  0.6567263084180658  0.6260814230863175
  0.8846871784363121  0.2165130216236902  0.7668110027920004
  0.7388865996439057  0.1344491647567403  0.9908456994149977
  0.0644581014286144  0.8402976144523806  0.1155494892064275
  0.4120676831287453  0.6989626255064348  0.3286996650823572
  0.4574976720683671  0.7749986523300693  0.0356293055443310
  0.8445392841615461  0.1327105976360348  0.3690452356331120
  0.7133136763594626  0.6156555331971617  0.6884831764084960
  0.4973528051001921  0.2063443091204402  0.6485881684648283
 -0.0056132452666431  0.9593489806542186  0.3386151656971806
  0.0982731358252190  0.1702460768844234  0.1469946191504098
  0.7058006188143465  0.7019593488576520  0.4272870040756729
  0.8334811565087948  0.0984690689126711  0.2644272685856187
  0.6643018079123217  0.2983578884089951  0.0006714376162540
  0.1635456441365216  0.0080653624129518  0.8572937278260658
  0.2418368167430091  0.4547263690726915  0.1184824040434563
  0.5636036422622932  0.2883338068610899  0.9857179423407246
  0.2758982783135439  0.3044253428510807  0.7135048776610509
  0.7506402079590688  0.6281431577863194  0.2921557839497610
  0.1537951958151974  0.7882062120106119  0.8127954724037070
  0.4214541582233469  0.3009940493246407  0.7744735497783284
  0.6842102284573982  0.7762993158005542  0.2459697709822226
  0.3751429519084333  0.8658214503058712  0.1436199004370241
  0.3169920189306470  0.5754275408540751  0.6429039489326451
  0.7153304034464553  0.0375878984325318  0.3307442735270582
  0.8620203685176564  0.0166563977028838  0.8176286082876454
  0.9119674380659095  0.7486945884354382  0.2180616745407767
  0.1204763386571156  0.1804422918958887  0.4958229910498413
  0.0862235204983244  0.8519295555958825  0.9418064822342447
  0.4694806294236478  0.2869512104498412  0.5122148625480091
  0.6981453124957747  0.1514604914225839  0.4397915974968001
  0.3664101393148416  0.1002302501216747  0.1787921522552092
  0.1729373071392669  0.8850850971080234  0.5171975943686535
  0.4817754580323533  0.3864477375728881  0.5301318858491614
  0.7746634248929287  0.9186834528373298  0.6282327447080795
  0.7217731918980079  0.8373314798619258  0.7614947482449819
  0.6561124036930113  0.3301081659985028  0.7885063874441199
  0.5666533887486948  0.7003673057613072  0.7673218558776447
  0.7174266932778560  0.1313849698832321  0.6017686879693158
  0.7773164420685611  0.9092410345472544 -0.0119427200488749
  0.6181756326227624  0.9319603217530997  0.0271595952861380
  0.6235594771358444  0.0980748539863589  0.6239421646035593
  0.2280858284906656  0.4995343269474097  0.3795173858876846
  0.1536784445769045  0.5735381013916578  0.0740499037134295
  0.0755518266178553  0.3362738623862783  0.2196915993249547
  0.5434062925552706  0.1537190373086157  0.8820956069703187
  0.1495612698637798  0.8247656814196657  0.6671743200721494
  0.7016218760423336  0.3573369971168849  0.9269835056157607
  0.6227402502596205  0.8507170945718987  0.7807700980538841
  0.7191337763049496  0.7463245634798372  0.0427054852954088
  0.0945330243767134  0.0060405306545230  0.1564940980154848
  0.7799713056114796  0.6238316200751437  0.5482627037771687
  0.2387469878242653  0.0748852441739603  0.3641495522307633
  0.6402983140403226  0.6854239527723142  0.0598085621271733
  0.6379967413412445  0.8652033651207940  0.3690678622201774
  0.5327718754178921  0.9884892811553458  0.9170336247103346
  0.1622286673251513  0.3981622634481217  0.0901492815300066
  0.0020531070847029  0.1643987249480683  0.1149200938723904
  0.6368529367183058  0.1174499866527837  0.8602523169221622
  0.7921828568766260  0.4719018210475748  0.7484673366749218
  0.2510922853923175  0.4686143928008041  0.5407646515024025
  0.2181369712525995  0.8676784077825025  0.6067404170024826
  0.4742190586315329  0.5211557770029481  0.9652702033858516
  0.6667637568949186  0.5434274659159875  0.1267394665260946
  0.3990779542543951  0.1874139352955261  0.8913458587790505
  0.1804837392673898  0.5598234663081690  0.8471126630007025
  0.9648964764116261  0.8508227465529854  0.0897447199242092
  0.7334526029514958  0.2379302870869814  0.1805913849858149
  0.9464357715761795  0.3327205074402986  0.9399326579719928
  0.5914091468178307  0.7187415358420728  0.5352510133244023
  0.6693145490188698  0.7493450237657260  0.6137744222841520
  0.8629190806912719  0.6085286871809498  0.7040757395388830
  0.9012841700385749 -0.0014991311896955  0.0474909090833424
  0.7559550177230417  0.4568360026713255  0.3792108797061634
  0.7526500687224236  0.4209540806129041  0.4739288940171316
  0.9994090185680714  0.2844646232873149  0.4272039172535196
  0.5011043146277614  0.9771020242457253  0.8232073491274853
  0.3426152725577628  0.9473262050616472  0.0786515003440850
  0.2455003286740936  0.8753876410877156  0.9123299421518107
  0.4580833600549959  0.9673289561470890  0.2898522067152733
  0.3356389688973196  0.6786981350557972  0.0937213217998775
  0.3757838366592637  0.3740708647351257  0.0788389698431646
  0.2216228207839847  0.1735547093799851  0.5072279062465007
  0.9674535434732510  0.2338472051650084  0.9086780100271644
  0.5515345375217334  0.8119728748760198  0.5420941384826103
  0.4585557647517733  0.3571884721918662  0.8491602111004114
  0.9537853405377046  0.6423126311007051  0.0767948679305197
  0.8775766968724874  0.5073744976914603  0.7073632181268231
  0.5959479267207696  0.9171216037658049  0.2088275488651269
  0.4009989914121129  0.9549219893686188  0.8301996826308586
  0.4730754971115314  0.0437728979145553  0.4283461124877411
  0.2522509122000340  0.4994527215917526  0.6411331240934649
  0.4324794919888967  0.5280203502936865  0.0605989962530690
  0.4744688101371930  0.8956676082959197  0.3592089206798548
  0.9653464423230727  0.2416431416954800  0.3433472379129882
  0.4884170531192395  0.5400691658683693  0.6377684950889700
  0.8486088588670847  0.3103313558090584  0.7538995506265112
  0.7207409993785303  0.2537352171056469  0.8101597795275085
  0.9118437441187192  0.3467099070207838  0.1163710188139010
  0.1159832659759983  0.2341573396826065  0.4114725410342781
  0.4288078178398692  0.6408511818940733  0.5276439666906225
  0.0990869657971418  0.1625510902477117  0.9126274105194124
  0.9122866749501661  0.3483925536805921  0.4588985689420898
  0.0973819640792431  0.1571403483712205  0.3374218252641808
  0.9428902614623670  0.9464098388015812  0.2536419957194874
  0.3342015607386344  0.7541147939644494  0.5084738728109555
  0.8317349028755767  0.9289617497258632  0.0721598308179426
  0.0340526791581782  0.6848577763545652  0.4970432006411269
  0.4747938038151330  0.0427072983721973  0.0756133096085291
  0.5474157020361803  0.8263886464125071  0.3364264821795451
  0.7708494220207113  0.8908517499915782  0.4635289886498584
  0.0611195062719616  0.3566217574233592  0.5305248090947503
  0.1977189744268397  0.7894821567010747  0.3446341220253126
  0.3992299496206818  0.8538728703841544  0.8204642574196287
  0.8823830922737905  0.2004585509145750  0.8680645779392954
  0.3551352013662074  0.0981868209350869  0.9124647240642308
  0.2943353994723922  0.9723595412262606  0.2427913393737495
  0.6502548737215615  0.2618745689157713  0.3183916911362819
  0.2659170469846842  0.2447448811875129  0.2913399981250838
  0.4584289306807661  0.4445124568808230  0.3830054992457115
  0.1234879591861602  0.6370684523143784  0.1396081295682751
  0.1415946896899390  0.2328269460234857  0.9768055291545014
  0.0050189961629873  0.3615017177669280  0.7818378885649218
  0.5882279948878436  0.4541434110167498  0.2359550595132972
  0.2895755177792978  0.3217085236473149  0.3540527682258686
  0.9064542374112318  0.0064746403445589  0.7268407405972447
  0.3998491486963055  0.1792367856000127  0.2327064902876235
  0.2121986968677463  0.3754342977863370  0.7483898061861760
  0.2520318675652883  0.8069585168770976  0.8378826184032532
  0.1900750059777928  0.7358673220756937  0.4305389695189387
  0.2961467374824004  0.5570738791570394  0.2449740511603997
  0.9776857699334254  0.4108443555135662  0.5125654734915094
  0.5318885474543070  0.4213904210246456  0.4493394706112329
  0.7019554843473009  0.9769332426434323  0.9894104545021484
  0.3757405291578328  0.1578847460441550  0.4907278799266649
  0.3551434274402295  0.9116175235585179  0.4773681248138428
  0.9858175113897715  0.8557322113133469  0.9322641858052748
  0.0041117153889568  0.8394342191741042  0.5031936380481319
  0.9771055347590190  0.4893101434193087  0.1038084944790938
  0.6955019632444454  0.1144349077039334  0.0791196978590431
  0.0945327927162013  0.4043760863107231  0.3702023834225395
  0.2812532021189578  0.1992080612915190  0.0681692930471871
  0.6595176159357528  0.2003962211975529  0.1215898890561921
  0.0542362292950481  0.8775884421462311  0.3544174899024368
  0.3801047080646335  0.4889350606601888  0.9019985040039885
  0.9124179979082959  0.5540966963296134  0.0550190441193491
  0.0686940261389663  0.3358472032805632  0.6305168348017218
  0.1615286728159492  0.9856742087038415  0.5125463803329448
  0.9444974508618702  0.8441751090588051  0.7351996196594661
  0.1838038313535232  0.9830158498043713  0.1145287276626467
  0.2604697755344911  0.9796215659956202  0.3386548490489592
  0.2364227306044145  0.2341412325458531  0.5888871980368814
  0.1665067508680412  0.0149178366107924  0.7533461529646126
  0.9282450573763188  0.3623874099988030  0.7155994830442860
  0.6423620288779783  0.3297599722308224  0.6886102850348265
  0.9064074427942370  0.6426581257811211  0.7890878093144754
  0.2558419677112580  0.9708656182722964  0.8797177493596811
  0.0601755938073728  0.8296009472780963  0.2163085676884311
  0.9503359499096166  0.4847016018276801  0.1984080664931671
  0.7052525115570232  0.6689488515211571  0.7762650425653246
  0.9256142937489740  0.0988368265230285  0.2317936443056101
  0.5740795635682722  0.5066001436242672  0.1508705049247255
  0.7689088224655026  0.9793692400488293  0.8208452680273568
  0.7878646652059372  0.4233596642885641  0.1872528809831569
  0.1217114322188020  0.5151128822645232  0.7761269568630448
  0.3745149548532782  0.0728333557436512  0.4357549540937091
  0.9418935369132937  0.1949399078116547  0.1892994497552086
  0.0012776260031640  0.0033683714908262  0.4892080049039275
  0.5507896921704164  0.1880352260604812  0.9774157760305165
  0.4620875673225647  0.1145496547027729  0.6228457267521507
  0.4102409444895754  0.9401478088733374  0.6315635970637086
  0.4387531586621177  0.6034793187705703  0.3216065763659773
  0.5521105735452146  0.6119049466836355  0.4268930369443065
  0.5685928582156470  0.8949056609460441  0.9485360966750327
  0.5925369582091186  0.7715315278495938  0.8361898848511126
  0.3681140698306151  0.1284827848273043  0.5880906770339742
  0.8500697063469115  0.5549617557185089  0.5237882745077483
  0.1061065988613585  0.3241400374346242  0.9529994406371999
  0.8387228212418363  0.8323880921846809  0.2110442555678901
  0.3267441116440603  0.2659814847078736  0.7930320300957946
  0.6229207196141705  0.8375476028036273  0.6116742084448331
  0.0913321274008125  0.9026510046699190  0.6999126215565252
  0.6749192271449069  0.0597808061547232  0.2373951833341254
  0.8465347511643755  0.6702937476819417  0.1700130334818862
  0.4658645672628979  0.5501958730408038  0.5357700428936197
  0.2814645688634004  0.7190310472938818  0.1634423574124459
  0.1132641751102121  0.5837990631404204  0.5899259164235316
  0.4443148117003791  0.3602535963587612  0.3286840288647566
  0.2046982553459810  0.4898439970413253  0.9132483338757362
  0.9962019899426037  0.7759207707502723  0.7885840517581638
  0.8378020551067387  0.6071155472600297  0.2454935903082046
  0.7746318665253514  0.3768581088501043  0.1030471384873956
  0.9414030282910849  0.1448639448631328  0.3748580101577367
  0.3612362123575583  0.7580522415469315  0.0289055689149120
