Amorphous Sb                            
   1.00000000000000     
    19.4867014927297184    0.0000000000000000    0.0000000000000000
     0.0000000000000000   19.4867014927297184    0.0000000000000000
     0.0000000000000000    0.0000000000000000   19.4867014927297184
   Si   Se
   150   150
Direct
  0.1491453502905963  0.3946106820629141  0.2406011728137969
  0.7592728344548472  0.9536754895618414  0.9913322523346382
  0.2710417019156444  0.4445375894544394  0.5366451544238943
  0.7904257139702849  0.4454801045733455  0.0182287475641288
  0.3346639932449905  0.2055923532116838  0.3259290205312892
  0.1157931535410717  0.3613907672629056  0.0979190022131659
  0.4317292981432463  0.3318582918856448  0.5017865328415878
  0.2591398942366007  0.1399516838000524  0.1751612512765112
  0.6780416365210885  0.1702005921016070  0.2309572621718111
  0.5450481175084615  0.7807653833179613  0.0055132263389802
  0.3137784220552915  0.9239014359381558  0.0099200075042142
  0.7661429755891965  0.8155471929633784  0.4748263390820288
  0.8369295107047512  0.3318014050754934  0.1575002150637838
  0.2571792848218996  0.8394736848584230  0.1741913401158194
  0.7343801742310220  0.8011263189970295  0.8951086019522908
  0.8026731341105977  0.6992920738999739  0.3330302515129456
  0.4357849070582512  0.6181149169698799  0.2646986611699462
  0.9231230711509397  0.3914443634141338  0.9215154414268747
  0.6694566562736880  0.5116277694711924  0.1234829613342478
  0.6449302553756413  0.6521958885339656  0.7609135537904752
  0.1936927247109978  0.1895143200435402  0.7915193131571725
  0.9754387909487353  0.0993456457542125  0.4259241593669617
  0.8020226798320902  0.9510135341104380  0.2009356985061155
  0.9495984802233833  0.3363370552980767  0.6045088861968611
  0.7446135210691813  0.3177160438227891  0.5730090983260443
  0.5781045756932756  0.4090676576877262  0.8224892480733823
  0.9580125177274406  0.7365177406528741  0.6176602864226443
  0.3655310246651461  0.0146376738781480  0.8746958528496759
  0.6268555313870029  0.4469892385932264  0.9472974375240600
  0.3424792398233139  0.5103875372646753  0.4666620877298492
  0.7649731182983229  0.5287535791923910  0.4039852489773258
  0.3210198957762109  0.6782914109627632  0.5273957330688133
  0.6036855042549931  0.9862363033507403  0.2949170532919427
  0.8946075251959901  0.7341091414754938  0.4065152226240537
  0.5761961617781993  0.4955515627480362  0.6628888722946776
  0.9752966057415282  0.4389320143122775  0.1245957425422533
  0.9190452301984247  0.7040160276297124  0.8895009231261483
  0.1468947663597205  0.8771687567136551  0.1534762203389628
  0.3101312408712688  0.3769281044885335  0.3452440266665311
  0.5059173132494712  0.4143944772202884  0.2470447186128895
  0.2868571956544341  0.2569427415759425  0.8230871848711889
  0.6436978173781384  0.2131848060228147  0.7006972103048893
  0.9168103817131308  0.6533758796173994  0.1995656957407642
  0.3293946771265731  0.2369122379023671  0.2060934578395206
  0.9861360203064753  0.8560955440539262  0.2105953762295800
  0.8491444691306635  0.4479435113874725  0.1230646812320946
  0.2558059812063260  0.6341872120095308  0.6159410266920204
  0.9860650067673701  0.3695968913475470  0.0227448681760530
  0.1410599558608669  0.4542598653716631  0.3442638724626365
  0.1473556044941870  0.8536631688505592  0.4538660957310705
  0.8620540553735083  0.7993556807661700  0.6602664487609347
  0.9598576731752844  0.2818158615496569  0.4958166478393705
  0.9762716140945994  0.0739949858026324  0.7921978265573099
  0.7175033059494711  0.7779512923035690  0.0130432772680500
  0.6956025810009029  0.5213525125301599  0.0084125467884373
  0.6520926689435954  0.6990703761753467  0.8768243637921774
  0.8073498038614578  0.6475393868574164  0.1472088849008540
  0.5854464608064929  0.2393294577813546  0.5903798743922394
 -0.0042853339147199 -0.0084575312282176  0.4810564139844036
  0.0535550498841573  0.7311142936123929  0.6921207883609455
  0.7123673202155155  0.6275139745846551  0.9572569730716797
  0.0724944414698882  0.1453508681121743  0.3717755421554628
  0.9506831183826803  0.8326983853210713  0.4491183351185038
  0.0252244698340579  0.6176710204462432  0.7233027500224093
  0.2729789854413054  0.0758965533837939  0.9206797579822418
  0.0681223261755000  0.2228203322284210  0.7158287264902572
  0.3871961205880671  0.4924246742367002  0.1103016513748086
  0.6482786581645132  0.8633623785632292  0.1312468741596413
  0.4733051602445610  0.0236734439365782  0.7426751073661925
  0.6231590242113836  0.9661326979968852  0.8537679069517410
  0.3913652586922584  0.2982362214392068  0.3858208164798403
  0.0344683482364732  0.4130139751840592  0.3915193188107899
  0.8887026169940406  0.6154130677690224  0.3113075146247293
  0.2916874871518946  0.5192704185025206  0.6308428320197890
  0.2464541992442426  0.6179625136513806  0.9136773874592317
  0.2298135949227121  0.6409824649298074  0.2841772167772830
  0.8369898061667749  0.7178515908476863  0.5146890187714033
  0.8245390142031402  0.5465458711164891  0.6862524224445936
  0.0335916812827053  0.3596362970017306  0.1987600927497030
  0.4761473624377887  0.5218347767051147  0.1967233805000531
  0.5738176804414779  0.8994072458374326  0.0441305341934781
  0.6254262524197528  0.7067858766879078  0.0516766443609702
  0.7777400058315324  0.7329641351190945  0.7168020590589276
  0.9252376881349771  0.5867004061528579  0.8522007957461860
  0.6441151887644313  0.0590831775962632  0.2048489358052965
  0.3460154662615588  0.0892869676450622  0.3582480257179909
  0.3214167669206666  0.7741169072943779  0.4562055720939965
  0.6187880342195314  0.2439199780360731  0.1528548714965077
  0.4712050036332460  0.3221332087734128  0.0440455330551356
  0.7143378334327147  0.1324065377472191  0.6373843263101067
  0.2016608681976667  0.1699523695408766  0.0709523906538843
  0.8726099798992535  0.5549154871825771  0.5752640366378786
  0.4000221603064945  0.8828605061010971  0.6251831314891005
  0.8930217932588759  0.1171049677424396  0.3373969129154921
  0.6492189696650398  0.3268421445174758  0.9573718325288276
  0.0883165453280966  0.4699868887582103  0.8234240508014177
  0.6368702770361451  0.9780904724971320  0.9748108954101122
  0.6166933023454739  0.0735644468361572  0.5927651032724527
  0.5316473903845619  0.5026408700628836  0.5503950194283281
  0.5636870563685251  0.0679039475428946  0.1161134304448739
  0.0547199075332237  0.5288110699397600  0.1138859360440630
  0.8163073741044448  0.3805022361790818  0.4975193909200564
  0.6588033945391177  0.7593441440258681  0.4557738588696315
  0.6585127793026180  0.1483177039619931  0.8415363526036804
  0.9119699106897243  0.0257529859687427  0.9205015228397375
  0.5656104057071284  0.8963121763982039  0.5123362958709956
  0.2887054926116589  0.1759876348694141  0.9863026967464942
  0.3695830089960417  0.9739379271466090  0.6999264979814932
  0.9104854877850355  0.4421210222730366  0.5476900944352967
  0.7681962154341123  0.3308781719363024  0.9842640497319628
  0.9826737428886742  0.7684816079437417  0.7777174522726416
  0.2561911585559782  0.3296047916947180  0.2440775997847970
  0.6512404091769974  0.3260164140948257  0.2353525204791506
  0.9469757905837000  0.2781437804374234  0.1691748322162171
  0.6948548591045279  0.5858034083064160  0.5804622392817301
  0.1597377225215920  0.4666202449647884  0.1451635239234777
  0.7187573951565774  0.6632127705399918  0.4129537901663674
  0.4626005851441403  0.6391057604950993  0.9746659733810283
  0.7354548299796362  0.6251050173674552  0.6883216301143916
  0.3967344709288177  0.6886382183948284  0.7310492252269036
  0.5629465028808499  0.1985428888033586  0.7936649498588531
  0.7956058637611797  0.1955891245227720  0.2509567130594820
  0.2702523399733482  0.8447313377803012  0.2945475855130934
  0.0767686870329671  0.0168684899786519  0.9023305790002922
  0.2126255640076404  0.7709245411141543  0.0229102149686567
  0.5931867378015140  0.9027193455977780  0.3917177151812253
  0.5733058525727803  0.2969298296824614  0.8672386331098346
  0.7846588349007971  0.3494550659222594  0.6808698206310498
  0.2089457639035636  0.0442927230983205  0.2369436279458362
  0.9291570362081744  0.1717437300329361  0.2324642274373369
  0.7899659958407464  0.6853208685699463  0.0308358407558340
  0.3214303034027031  0.0117219059940002  0.2671821552699412
  0.1919526500187224  0.8751873334804832  0.5693283059231078
  0.7129364853216604  0.9038521328799016  0.4164043936914383
  0.7844319110134110  0.6019772392152533  0.5012711179051950
  0.3667674752113190  0.6482203940395301  0.8958954944623825
  0.2599656584321751  0.5923877960893114  0.7948545263187680
  0.4813167960562776  0.7325145391918535  0.3619867242331602
  0.2679413046619734  0.7308321381623973  0.1261537979250903
  0.1811262045872375  0.0692600623623045  0.4475287346081670
  0.8122888966562540  0.7319624587894916  0.8354093633215390
  0.2522111779273287  0.7418863060339312  0.3571962245345718
  0.8436556191338788  0.9857252491743004  0.5735733261476812
  0.1343547544117426  0.5195268484366652  0.6331315812376228
  0.1169842206430031  0.4824328803568415  0.9399189872958355
  0.4228005078212286  0.5465738951292081  0.5518807445853464
  0.3831945482795788  0.6830600418669049  0.1271146924702186
  0.7479218846992007  0.0155016785581752  0.3980159487243044
  0.4176230426154388  0.2317170418699582  0.1098930870959634
  0.9148964094091909  0.9895378350132754  0.1746792482132183
  0.2336783215191453  0.5047728498834254  0.9539782641144765
  0.2292216677860952  0.0074696161304793  0.0081618501169964
  0.5234209494314173  0.4823840143884812  0.9001869578435031
  0.8813960768532378  0.2813573066267739  0.6834015346449760
  0.2197130574751764  0.2383301787468477  0.3180229875584762
  0.9048667933594711  0.6957416168352468  0.0091119037151829
  0.7080884762762204  0.2989259061047728  0.7551532635238847
  0.4007893699975063  0.4173395655114754  0.0180984057678012
  0.7428032604799774  0.7077267451048783  0.2262210127452075
  0.4333257671466219  0.8081704238399006  0.4368594033274580
  0.8859530857927512  0.9312692842695192  0.4515970996262049
  0.8015472250410883  0.1823172029660468  0.3717270864012108
  0.4448039467241311  0.7355491618151704  0.2480237674466497
  0.1406277810113428  0.5752351859225695  0.3372433802848186
  0.8327019461116140  0.0455509164759045  0.0094353485962308
  0.9713286298244641  0.9080141872220201  0.1057798835434688
  0.9864484847709324  0.9429468772178956  0.9470395222944066
  0.9746611052149514  0.1520267987783531  0.7029409268353494
  0.4328799697378711  0.6632393338424255  0.5581674030992618
  0.8060403890469857  0.0601211518340292  0.6666409904098579
  0.3477529280501891  0.8943462452804722  0.1204821504000098
  0.3709102390242697  0.5561605419398646  0.8168090761731709
  0.1417513383860155  0.6266687965803110  0.5863021431483065
  0.5383059879500733  0.7386378538490586  0.8913615960016664
  0.5285262796136252  0.3914562806551405  0.1328739514581753
  0.4520144765392913  0.7936532186374911  0.6730278429876733
  0.8460636951881254  0.3028629678606070  0.8990079254547761
  0.4018178820953096  0.4995955133788626  0.6601664426635810
  0.0647299044785734  0.3136940752928418  0.4497403794350406
  0.6026551454121211  0.7589738059379243  0.1594663861007189
  0.3855856669590418  0.2358417851999358  0.7650308436677692
  0.8666552219312014  0.0330404494210118  0.8110778304868761
  0.3732790011991264  0.9076874385193374  0.2975308213150777
  0.7750082308134584  0.3202240900627953  0.2608167886729715
  0.8459179278416668  0.4405310485398339  0.7309771824086618
  0.2803336987188658  0.2847394221631713  0.9368258392173630
  0.0443398216480796  0.2112749386085312  0.2821983627208671
  0.7866311657328334  0.6130854723508327  0.8569115779301292
  0.4274287324268026  0.7506309952608352  0.0224596739528011
 -0.0091621286019983  0.1191318575560053  0.9037392594020150
  0.1482122341509026  0.1805127726247321  0.4575045531510549
  0.6598274598348569  0.7566454669296760  0.6985165222219428
  0.1149700568208982  0.8371439118485405  0.0465490655928646
  0.7369692046944198  0.0343587585672007  0.1358729603283243
  0.5895144497047411  0.2551246135115329  0.0367050186310396
  0.4658775143109944  0.2934836500622489  0.9233959741252470
  0.0919575108875238  0.8137024401512054  0.2375118347623311
  0.2082012438057951  0.2865968361908707  0.1064150664166914
  0.7848838093358271  0.8333545240946382  0.3497619022437451
  0.9170864500528464  0.8619394025918373  0.7465979760708708
  0.9595838289030071  0.6350757171254838  0.5531694159212606
  0.6494555563937501  0.9624425715338280  0.5679299815902120
  0.2776613797732439  0.4408461973932741  0.1202858891748063
  0.5086463406245533  0.4165987205401596  0.4663401723852065
  0.1172737298822551  0.0086518132699634  0.5261535407098329
  0.6320867709710540  0.3370302762046268  0.5437617043663444
  0.2124303263383950 -0.0480392997537955  0.6603820632542412
  0.0600982096401388  0.3214022446559599  0.6476481483554473
  0.7636862628383676  0.8658001938521823  0.0841727225849617
  0.6705119530059442  0.5749505987712675  0.3496530115897973
  0.9902812065041964  0.3974143603119086  0.8248483038557083
  0.5117112603578733  0.1754743358705560  0.1683836782460559
  0.3084166072750647  0.8717248346884893  0.5313769476831215
  0.4527962349320747  0.3145895780090645  0.2814639970395554
  0.5836835031616501  0.7821709505663672  0.5457883593922472
  0.0127086181396122  0.7776559340036471  0.8897559703119602
  0.2975573321891371  0.0583255284862424  0.4638345867124143
  0.0272853245583714  0.6373203146824147  0.1614758954689054
  0.2787727069544514  0.8302820635594323  0.9462709321212979
  0.1323097532156937  0.0421483127671837  0.3382533121512535
  0.3239933283240424  0.5891967444123341  0.2336875931287250
  0.9695977906322045  0.2560327399696015  0.0535685342106677
  0.9685275141411974  0.4016303290655954  0.2952590544620604
  0.5173675257945197  0.0945758497199087  0.6573128562086068
  0.1331272535548665 -0.0037493208094072  0.1588838887041103
  0.3984783641739676  0.1496938601517891  0.0256391186791986
  0.1714639153330801  0.1809281556037643  0.6760208497566537
  0.6405066908820581  0.0626911683631372  0.3831765727114358
  0.2155967881723146  0.4948617577580660  0.7257429080067330
  0.7995514826946963  0.0647639869037835  0.4920725034441901
  0.0167044061130219  0.8094287702013291  0.5437129510011997
  0.3226610225561194  0.3388815181179773  0.5555371624255135
  0.1539754794478379  0.8067880042778017  0.6565537643586929
  0.0446395867291594  0.8980000788357657  0.4034429560563749
  0.9011512992815933  0.7729834051702069  0.2189632027220056
  0.8595942297986149  0.5043091163239840  0.3382333649158464
  0.1080197785125171  0.1313123793467504  0.0250833329466899
  0.6662332050733970  0.8924538740367627  0.2456687935361589
  0.4180335488930604  0.9579536415551009  0.9641296808987670
  0.6884182119979981  0.3970208938122423  0.1222727429093783
  0.3749629785276164  0.7493811116028132  0.8343178695037580
  0.1487807432454613  0.7398342448802708  0.4187788804109089
  0.8651532978648989  0.4917277703442980  0.9371760690056569
  0.3228658178582169  0.9319952935369701  0.7998870699783369
  0.6600100793787936  0.8591691148415621  0.8225779419999303
  0.4621523032448829  0.0822691214420248  0.3842763813412124
  0.2151953924417329  0.3923692349177418  0.4153026256073640
  0.2270882833337004  0.9107758885056594  0.3851085496681625
  0.6852723105972530  0.0435027080647412  0.7906441389112331
  0.9612148961378064 -0.0025650703111444  0.5960115959869702
  0.3539715347745804  0.0646989864413300  0.1644092117202340
  0.3160377814427972  0.3437131160701338  0.7516773974744347
  0.3572646786504139  0.5916696020827434  0.0489963562941546
  0.5936915234781664  0.5988367123337305  0.5185702818501376
  0.0262070074052674  0.5080362673394792  0.6723432277741609
  0.5027502429764829  0.9651213912115232  0.1197514643087037
  0.8082042507086402  0.0374946702111215  0.2930897047711088
  0.7797795903689820  0.2588946792006293  0.0808780782802138
  0.6055044350550232  0.0888959372915675  0.0069268851580144
  0.5792302990620529  0.5772196473546439  0.1674472409963405
  0.5234642331200836  0.9318001716782457  0.7956339945291259
  0.9605806946108230  0.0958575100491028  0.1463416219888363
  0.9040969645169634  0.6287423423732931  0.7333969049902321
  0.1017774386645070  0.3658594102283231  0.9754123170222272
  0.7901304662544102  0.8808935621290181  0.6088586308944276
  0.6251883561699633  0.2353646938856963  0.3145057701489263
  0.4648947783249600  0.9477688661154067  0.5482278425766709
  0.1819210201124414  0.6650541730037023  0.1771476164376449
  0.6135520089768443  0.4220009303258112  0.2959394201436374
  0.0571391910105813  0.9948586813139928  0.7769487375816063
  0.6897446381833751  0.4781159083920203  0.6335401978544786
  0.0961854637701520  0.2465128254062431  0.8280964959578075
  0.1535650794972251  0.4333289019480618  0.5565925193850012
  0.8800894468708856  0.3211387697257175  0.4187617158163951
  0.4675728610062036  0.2669225927072674  0.5949880055687043
  0.6889433473436428  0.4483300980763886  0.8428820001439314
  0.9568207845068402  0.1661752032057772  0.5223190479824221
  0.9899320788585907  0.4888476246337016  0.4708287321859656
  0.9802441417270020  0.6584883895801037  0.3731334769338340
  0.0472691099319427  0.5567956372739735  0.9992514197601885
  0.5856925533828222  0.1503998103684978  0.5086301761535704
  0.2621908777355969  0.6902103861868720  0.7212451887830990
  0.5347585284222598  0.3988669460809819  0.7138764731141350
  0.4915259344264774  0.0275838838729182  0.2764807900152619
  0.2953889265866237  0.0441611991281378  0.6409724319257187
  0.8179507794329330  0.8922101291197335  0.9125927349618916
  0.5456782383625257  0.5935239171577004  0.7255344742312758
  0.0626527153633667  0.5927368040387364  0.8326118299759889
  0.7243007612406572  0.4241231346421029  0.4369703237043899
  0.1612777745573248  0.6901345324514508  0.9519500971837729
  0.4395265065742598  0.0979291752133818  0.8295716692867607
  0.2747605653416056  0.6046606219265315  0.4469405546433946
  0.4764860957008389  0.6165499994554480  0.3790967375519890
  0.7766278764085954  0.5334216841391265  0.1842725264281525
  0.7302267736363884  0.1753274244168053  0.9212660991548568
  0.3723452996008332  0.4787660918048974  0.3565649555022418
  0.9565518723598402  0.9463321915161160  0.2798338930966603
  0.2043740249741378  0.0773726500930126  0.8244248172132036
  0.5939220540713055  0.7818709307300395  0.3527715184776609
  0.7672320809627581  0.2038271590415138  0.5557108826087599
 
  0.00000000E+00  0.00000000E+00  0.00000000E+00
  0.00000000E+00  0.00000000E+00  0.00000000E+00
  0.00000000E+00  0.00000000E+00  0.00000000E+00
  0.00000000E+00  0.00000000E+00  0.00000000E+00
  0.00000000E+00  0.00000000E+00  0.00000000E+00
  0.00000000E+00  0.00000000E+00  0.00000000E+00
  0.00000000E+00  0.00000000E+00  0.00000000E+00
  0.00000000E+00  0.00000000E+00  0.00000000E+00
  0.00000000E+00  0.00000000E+00  0.00000000E+00
  0.00000000E+00  0.00000000E+00  0.00000000E+00
  0.00000000E+00  0.00000000E+00  0.00000000E+00
  0.00000000E+00  0.00000000E+00  0.00000000E+00
  0.00000000E+00  0.00000000E+00  0.00000000E+00
  0.00000000E+00  0.00000000E+00  0.00000000E+00
  0.00000000E+00  0.00000000E+00  0.00000000E+00
  0.00000000E+00  0.00000000E+00  0.00000000E+00
  0.00000000E+00  0.00000000E+00  0.00000000E+00
  0.00000000E+00  0.00000000E+00  0.00000000E+00
  0.00000000E+00  0.00000000E+00  0.00000000E+00
  0.00000000E+00  0.00000000E+00  0.00000000E+00
  0.00000000E+00  0.00000000E+00  0.00000000E+00
  0.00000000E+00  0.00000000E+00  0.00000000E+00
  0.00000000E+00  0.00000000E+00  0.00000000E+00
  0.00000000E+00  0.00000000E+00  0.00000000E+00
  0.00000000E+00  0.00000000E+00  0.00000000E+00
  0.00000000E+00  0.00000000E+00  0.00000000E+00
  0.00000000E+00  0.00000000E+00  0.00000000E+00
  0.00000000E+00  0.00000000E+00  0.00000000E+00
  0.00000000E+00  0.00000000E+00  0.00000000E+00
  0.00000000E+00  0.00000000E+00  0.00000000E+00
  0.00000000E+00  0.00000000E+00  0.00000000E+00
  0.00000000E+00  0.00000000E+00  0.00000000E+00
  0.00000000E+00  0.00000000E+00  0.00000000E+00
  0.00000000E+00  0.00000000E+00  0.00000000E+00
  0.00000000E+00  0.00000000E+00  0.00000000E+00
  0.00000000E+00  0.00000000E+00  0.00000000E+00
  0.00000000E+00  0.00000000E+00  0.00000000E+00
  0.00000000E+00  0.00000000E+00  0.00000000E+00
  0.00000000E+00  0.00000000E+00  0.00000000E+00
  0.00000000E+00  0.00000000E+00  0.00000000E+00
  0.00000000E+00  0.00000000E+00  0.00000000E+00
  0.00000000E+00  0.00000000E+00  0.00000000E+00
  0.00000000E+00  0.00000000E+00  0.00000000E+00
  0.00000000E+00  0.00000000E+00  0.00000000E+00
  0.00000000E+00  0.00000000E+00  0.00000000E+00
  0.00000000E+00  0.00000000E+00  0.00000000E+00
  0.00000000E+00  0.00000000E+00  0.00000000E+00
  0.00000000E+00  0.00000000E+00  0.00000000E+00
  0.00000000E+00  0.00000000E+00  0.00000000E+00
  0.00000000E+00  0.00000000E+00  0.00000000E+00
  0.00000000E+00  0.00000000E+00  0.00000000E+00
  0.00000000E+00  0.00000000E+00  0.00000000E+00
  0.00000000E+00  0.00000000E+00  0.00000000E+00
  0.00000000E+00  0.00000000E+00  0.00000000E+00
  0.00000000E+00  0.00000000E+00  0.00000000E+00
  0.00000000E+00  0.00000000E+00  0.00000000E+00
  0.00000000E+00  0.00000000E+00  0.00000000E+00
  0.00000000E+00  0.00000000E+00  0.00000000E+00
  0.00000000E+00  0.00000000E+00  0.00000000E+00
  0.00000000E+00  0.00000000E+00  0.00000000E+00
  0.00000000E+00  0.00000000E+00  0.00000000E+00
  0.00000000E+00  0.00000000E+00  0.00000000E+00
  0.00000000E+00  0.00000000E+00  0.00000000E+00
  0.00000000E+00  0.00000000E+00  0.00000000E+00
  0.00000000E+00  0.00000000E+00  0.00000000E+00
  0.00000000E+00  0.00000000E+00  0.00000000E+00
  0.00000000E+00  0.00000000E+00  0.00000000E+00
  0.00000000E+00  0.00000000E+00  0.00000000E+00
  0.00000000E+00  0.00000000E+00  0.00000000E+00
  0.00000000E+00  0.00000000E+00  0.00000000E+00
  0.00000000E+00  0.00000000E+00  0.00000000E+00
  0.00000000E+00  0.00000000E+00  0.00000000E+00
  0.00000000E+00  0.00000000E+00  0.00000000E+00
  0.00000000E+00  0.00000000E+00  0.00000000E+00
  0.00000000E+00  0.00000000E+00  0.00000000E+00
  0.00000000E+00  0.00000000E+00  0.00000000E+00
  0.00000000E+00  0.00000000E+00  0.00000000E+00
  0.00000000E+00  0.00000000E+00  0.00000000E+00
  0.00000000E+00  0.00000000E+00  0.00000000E+00
  0.00000000E+00  0.00000000E+00  0.00000000E+00
  0.00000000E+00  0.00000000E+00  0.00000000E+00
  0.00000000E+00  0.00000000E+00  0.00000000E+00
  0.00000000E+00  0.00000000E+00  0.00000000E+00
  0.00000000E+00  0.00000000E+00  0.00000000E+00
  0.00000000E+00  0.00000000E+00  0.00000000E+00
  0.00000000E+00  0.00000000E+00  0.00000000E+00
  0.00000000E+00  0.00000000E+00  0.00000000E+00
  0.00000000E+00  0.00000000E+00  0.00000000E+00
  0.00000000E+00  0.00000000E+00  0.00000000E+00
  0.00000000E+00  0.00000000E+00  0.00000000E+00
  0.00000000E+00  0.00000000E+00  0.00000000E+00
  0.00000000E+00  0.00000000E+00  0.00000000E+00
  0.00000000E+00  0.00000000E+00  0.00000000E+00
  0.00000000E+00  0.00000000E+00  0.00000000E+00
  0.00000000E+00  0.00000000E+00  0.00000000E+00
  0.00000000E+00  0.00000000E+00  0.00000000E+00
  0.00000000E+00  0.00000000E+00  0.00000000E+00
  0.00000000E+00  0.00000000E+00  0.00000000E+00
  0.00000000E+00  0.00000000E+00  0.00000000E+00
  0.00000000E+00  0.00000000E+00  0.00000000E+00
  0.00000000E+00  0.00000000E+00  0.00000000E+00
  0.00000000E+00  0.00000000E+00  0.00000000E+00
  0.00000000E+00  0.00000000E+00  0.00000000E+00
  0.00000000E+00  0.00000000E+00  0.00000000E+00
  0.00000000E+00  0.00000000E+00  0.00000000E+00
  0.00000000E+00  0.00000000E+00  0.00000000E+00
  0.00000000E+00  0.00000000E+00  0.00000000E+00
  0.00000000E+00  0.00000000E+00  0.00000000E+00
  0.00000000E+00  0.00000000E+00  0.00000000E+00
  0.00000000E+00  0.00000000E+00  0.00000000E+00
  0.00000000E+00  0.00000000E+00  0.00000000E+00
  0.00000000E+00  0.00000000E+00  0.00000000E+00
  0.00000000E+00  0.00000000E+00  0.00000000E+00
  0.00000000E+00  0.00000000E+00  0.00000000E+00
  0.00000000E+00  0.00000000E+00  0.00000000E+00
  0.00000000E+00  0.00000000E+00  0.00000000E+00
  0.00000000E+00  0.00000000E+00  0.00000000E+00
  0.00000000E+00  0.00000000E+00  0.00000000E+00
  0.00000000E+00  0.00000000E+00  0.00000000E+00
  0.00000000E+00  0.00000000E+00  0.00000000E+00
  0.00000000E+00  0.00000000E+00  0.00000000E+00
  0.00000000E+00  0.00000000E+00  0.00000000E+00
  0.00000000E+00  0.00000000E+00  0.00000000E+00
  0.00000000E+00  0.00000000E+00  0.00000000E+00
  0.00000000E+00  0.00000000E+00  0.00000000E+00
  0.00000000E+00  0.00000000E+00  0.00000000E+00
  0.00000000E+00  0.00000000E+00  0.00000000E+00
  0.00000000E+00  0.00000000E+00  0.00000000E+00
  0.00000000E+00  0.00000000E+00  0.00000000E+00
  0.00000000E+00  0.00000000E+00  0.00000000E+00
  0.00000000E+00  0.00000000E+00  0.00000000E+00
  0.00000000E+00  0.00000000E+00  0.00000000E+00
  0.00000000E+00  0.00000000E+00  0.00000000E+00
  0.00000000E+00  0.00000000E+00  0.00000000E+00
  0.00000000E+00  0.00000000E+00  0.00000000E+00
  0.00000000E+00  0.00000000E+00  0.00000000E+00
  0.00000000E+00  0.00000000E+00  0.00000000E+00
  0.00000000E+00  0.00000000E+00  0.00000000E+00
  0.00000000E+00  0.00000000E+00  0.00000000E+00
  0.00000000E+00  0.00000000E+00  0.00000000E+00
  0.00000000E+00  0.00000000E+00  0.00000000E+00
  0.00000000E+00  0.00000000E+00  0.00000000E+00
  0.00000000E+00  0.00000000E+00  0.00000000E+00
  0.00000000E+00  0.00000000E+00  0.00000000E+00
  0.00000000E+00  0.00000000E+00  0.00000000E+00
  0.00000000E+00  0.00000000E+00  0.00000000E+00
  0.00000000E+00  0.00000000E+00  0.00000000E+00
  0.00000000E+00  0.00000000E+00  0.00000000E+00
  0.00000000E+00  0.00000000E+00  0.00000000E+00
  0.00000000E+00  0.00000000E+00  0.00000000E+00
  0.00000000E+00  0.00000000E+00  0.00000000E+00
  0.00000000E+00  0.00000000E+00  0.00000000E+00
  0.00000000E+00  0.00000000E+00  0.00000000E+00
  0.00000000E+00  0.00000000E+00  0.00000000E+00
  0.00000000E+00  0.00000000E+00  0.00000000E+00
  0.00000000E+00  0.00000000E+00  0.00000000E+00
  0.00000000E+00  0.00000000E+00  0.00000000E+00
  0.00000000E+00  0.00000000E+00  0.00000000E+00
  0.00000000E+00  0.00000000E+00  0.00000000E+00
  0.00000000E+00  0.00000000E+00  0.00000000E+00
  0.00000000E+00  0.00000000E+00  0.00000000E+00
  0.00000000E+00  0.00000000E+00  0.00000000E+00
  0.00000000E+00  0.00000000E+00  0.00000000E+00
  0.00000000E+00  0.00000000E+00  0.00000000E+00
  0.00000000E+00  0.00000000E+00  0.00000000E+00
  0.00000000E+00  0.00000000E+00  0.00000000E+00
  0.00000000E+00  0.00000000E+00  0.00000000E+00
  0.00000000E+00  0.00000000E+00  0.00000000E+00
  0.00000000E+00  0.00000000E+00  0.00000000E+00
  0.00000000E+00  0.00000000E+00  0.00000000E+00
  0.00000000E+00  0.00000000E+00  0.00000000E+00
  0.00000000E+00  0.00000000E+00  0.00000000E+00
  0.00000000E+00  0.00000000E+00  0.00000000E+00
  0.00000000E+00  0.00000000E+00  0.00000000E+00
  0.00000000E+00  0.00000000E+00  0.00000000E+00
  0.00000000E+00  0.00000000E+00  0.00000000E+00
  0.00000000E+00  0.00000000E+00  0.00000000E+00
  0.00000000E+00  0.00000000E+00  0.00000000E+00
  0.00000000E+00  0.00000000E+00  0.00000000E+00
  0.00000000E+00  0.00000000E+00  0.00000000E+00
  0.00000000E+00  0.00000000E+00  0.00000000E+00
  0.00000000E+00  0.00000000E+00  0.00000000E+00
  0.00000000E+00  0.00000000E+00  0.00000000E+00
  0.00000000E+00  0.00000000E+00  0.00000000E+00
  0.00000000E+00  0.00000000E+00  0.00000000E+00
  0.00000000E+00  0.00000000E+00  0.00000000E+00
  0.00000000E+00  0.00000000E+00  0.00000000E+00
  0.00000000E+00  0.00000000E+00  0.00000000E+00
  0.00000000E+00  0.00000000E+00  0.00000000E+00
  0.00000000E+00  0.00000000E+00  0.00000000E+00
  0.00000000E+00  0.00000000E+00  0.00000000E+00
  0.00000000E+00  0.00000000E+00  0.00000000E+00
  0.00000000E+00  0.00000000E+00  0.00000000E+00
  0.00000000E+00  0.00000000E+00  0.00000000E+00
  0.00000000E+00  0.00000000E+00  0.00000000E+00
  0.00000000E+00  0.00000000E+00  0.00000000E+00
  0.00000000E+00  0.00000000E+00  0.00000000E+00
  0.00000000E+00  0.00000000E+00  0.00000000E+00
  0.00000000E+00  0.00000000E+00  0.00000000E+00
  0.00000000E+00  0.00000000E+00  0.00000000E+00
  0.00000000E+00  0.00000000E+00  0.00000000E+00
  0.00000000E+00  0.00000000E+00  0.00000000E+00
  0.00000000E+00  0.00000000E+00  0.00000000E+00
  0.00000000E+00  0.00000000E+00  0.00000000E+00
  0.00000000E+00  0.00000000E+00  0.00000000E+00
  0.00000000E+00  0.00000000E+00  0.00000000E+00
  0.00000000E+00  0.00000000E+00  0.00000000E+00
  0.00000000E+00  0.00000000E+00  0.00000000E+00
  0.00000000E+00  0.00000000E+00  0.00000000E+00
  0.00000000E+00  0.00000000E+00  0.00000000E+00
  0.00000000E+00  0.00000000E+00  0.00000000E+00
  0.00000000E+00  0.00000000E+00  0.00000000E+00
  0.00000000E+00  0.00000000E+00  0.00000000E+00
  0.00000000E+00  0.00000000E+00  0.00000000E+00
  0.00000000E+00  0.00000000E+00  0.00000000E+00
  0.00000000E+00  0.00000000E+00  0.00000000E+00
  0.00000000E+00  0.00000000E+00  0.00000000E+00
  0.00000000E+00  0.00000000E+00  0.00000000E+00
  0.00000000E+00  0.00000000E+00  0.00000000E+00
  0.00000000E+00  0.00000000E+00  0.00000000E+00
  0.00000000E+00  0.00000000E+00  0.00000000E+00
  0.00000000E+00  0.00000000E+00  0.00000000E+00
  0.00000000E+00  0.00000000E+00  0.00000000E+00
  0.00000000E+00  0.00000000E+00  0.00000000E+00
  0.00000000E+00  0.00000000E+00  0.00000000E+00
  0.00000000E+00  0.00000000E+00  0.00000000E+00
  0.00000000E+00  0.00000000E+00  0.00000000E+00
  0.00000000E+00  0.00000000E+00  0.00000000E+00
  0.00000000E+00  0.00000000E+00  0.00000000E+00
  0.00000000E+00  0.00000000E+00  0.00000000E+00
  0.00000000E+00  0.00000000E+00  0.00000000E+00
  0.00000000E+00  0.00000000E+00  0.00000000E+00