Amorphous Sb                            
   1.00000000000000     
    16.0128869700586911    0.0000000000000000    0.0000000000000000
     0.0000000000000000   16.0128869700586911    0.0000000000000000
     0.0000000000000000    0.0000000000000000   16.0128869700586911
   In   Ga   O 
    96    24   179
Direct
  0.1593694360658781  0.4890258299697522  0.5278274679786861
  0.5211392283454287  0.0485097466069084  0.1436774565170204
  0.9170630477598704  0.1218837150816457  0.2451677722508913
  0.4923951093204924  0.4110395322155390  0.9879561470467420
  0.0004326760602908  0.9903110048275469  0.5862077413486505
  0.0104398755416909  0.9315074986530302  0.2672477264493210
  0.4128681007955980  0.9206582663661155  0.3022758419977944
  0.6516834480882955  0.6044073843209287  0.2300568705348191
  0.7490635154355805  0.1142463172852704  0.1085534359981765
  0.8242361742166433  0.3166727880938293  0.3441659784990759
  0.1294973681419024  0.7318425278063122  0.6156004036345558
  0.3276398608511781  0.0662536611350537  0.8247918967144811
  0.2078205676365278  0.2435747479180594  0.0348615452849200
  0.8234250325716483  0.0898233300558800  0.7082157657375434
  0.7802692833070265  0.2826984592873344  0.5797146820938522
  0.6500349826580271  0.2362712183650594  0.7760053995362607
  0.9358806627964363  0.9808640630803316  0.0332913130761496
  0.2550620293461517  0.6089396779264281  0.2360487480655578
  0.5640980468225248  0.8244052590939277  0.1957676691058784
  0.7898571838074130  0.9030628690291956  0.6131991554412459
  0.7699168288876120  0.7107874988460807  0.7027221052306417
  0.9692093397606670  0.6077255351540010  0.6225493469259331
  0.8243775998228500  0.2642321464580308  0.8534197580179406
  0.3118927340387144  0.3962407955560642  0.8992176533739498
  0.9649409120882861  0.2118839776453936  0.0621823565587363
  0.4535183051431958  0.2642637517976886  0.7679188576488815
  0.9814605307963450  0.6674172073699814  0.8333772569329483
  0.6648242453955774  0.4313291673415687  0.8466683108186731
  0.5616339506599406  0.6926215848112571  0.4024340798861515
  0.1901749472139066  0.7995381612987278  0.3034958231634398
  0.8448386913729159  0.9428855905164604  0.4026544903737407
  0.4034100526924053  0.1887568680791986  0.9885276003129388
  0.5347011149715836  0.0960710614087268  0.3638403311407491
  0.3232070826392183  0.0194567741058022  0.1011036153265595
  0.9217254896475443  0.4417260107863471  0.1699970635421519
  0.4705117675716126  0.5153866213112043  0.3882098001662744
  0.7829632198344442  0.9269763170633608  0.1950060615661059
  0.9688867667788307  0.8379300286885359  0.7169889865225153
  0.6583245257047479  0.8992582969237778  0.0142381299776530
  0.1319275060026141  0.9150889005442810  0.1034920385256147
  0.0967146028771427  0.6537987697358235  0.4276851553740116
  0.2121602876913971  0.2262273345984467  0.8156333314757969
  0.0752348194767770  0.4807113693642627  0.3037814857913796
  0.3282370760427861  0.7216060626771608  0.6648205548343264
  0.2095353030911097  0.2953355886394712  0.4315872447470601
  0.3746305189786400  0.7527568213428962  0.0862350351712966
  0.5584555132775361  0.9591318239696651  0.6200534659957714
  0.0968444316358365  0.4132713970396726  0.8475113765132766
  0.3241444036866376  0.2070542464838601  0.2197489721374674
  0.5415532313233181  0.6465810282009565  0.9948300390410553
  0.1115355764530181  0.2867831950961667  0.2505051439826020
  0.5547103417844975  0.1961596356413556  0.5894419597077245
  0.5548470871098201  0.0764650292707911  0.8477087335340017
  0.0197986939118192  0.2343774477852430  0.8495745587984156
  0.6170204789998460  0.2765319690474745  0.4163304609013365
  0.6865139855861355  0.4791491696320951  0.4425056766038828
  0.7064290328720232  0.5219591513064763  0.0260067867336973
  0.7967977999289376  0.4898577794602905  0.6300412243268730
  0.3358421387219903  0.0896627999508737  0.4348821294744376
  0.0070068018119961  0.8343471004867014  0.4768408689025183
  0.7494114103387184  0.0610693756085837  0.9141615241252100
  0.0251007810294699  0.6425641412810731  0.2042812376550797
  0.0047351845760935  0.0358468123505495  0.7997582721328580
  0.2309571208406334  0.7172809324669479  0.8405496421900571
  0.3101066900794030  0.6357359508608103  0.4467941757674300
  0.1167682070704862  0.4694445974682051  0.0967931444719011
  0.3237390290457327  0.2046815963721369  0.6040943608618324
  0.8549174523436762  0.5398552494650096  0.3580243843182839
  0.0819417054423216  0.1010809299221020  0.4158611928334259
  0.4897637627564656  0.3921944527374303  0.2238232833099571
  0.4157919892949869  0.2909534336153961  0.3936636654680227
  0.4253702162707952  0.8920366399848073  0.7651119795574606
  0.8338432808575186  0.8760256681882244  0.8645907146004329
  0.1114231355285611  0.1032477797830563  0.1665001659542333
  0.1941169150828441  0.9176450359564151  0.7340395611469641
  0.3602218570127598  0.4222260804581886  0.5604432290728678
  0.6096240851084181  0.3994271561607597  0.6511374360628873
  0.9778925078464936  0.4115334463686195  0.4998990835258123
  0.3211173615376395  0.3990369751163524  0.1103043921867079
  0.2727507560914686  0.8983557255794047  0.9389651616405524
  0.5015622428701946  0.5969346941588801  0.5760368321672229
  0.0696648746219246  0.8556409887961576  0.9078421143547355
  0.6349435931284735  0.7799730185792082  0.5644453973585086
  0.6439787364127950  0.2575949968816010  0.0138147818600344
  0.7024289688761077  0.0662638487126944  0.5110971205865691
  0.6413362132819925  0.8995358538187844  0.3902691753351692
  0.7686639200824897  0.7437195177271623  0.0868823510980438
  0.5629202587891993  0.6824570339987227  0.7510963278113333
  0.4290063538158370  0.8282967180011074  0.5022542297470147
  0.8394953995582750  0.7522966685867034  0.2935136901081532
  0.1936744747162264  0.9220025603448363  0.4833385665416597
  0.6234522655005054  0.8765304078366850  0.8021014180206740
  0.7888174467263286  0.6725625512222129  0.4933872929467101
  0.4470128141280906  0.5187823960395898  0.7649017010908418
  0.7539351654785060  0.6813674238765617  0.8987015313410158
  0.1490214733362160  0.0733161181847993  0.9391893278439697
  0.9259107444307584  0.3641100288998925  0.7026559780477872
  0.8402358331187656  0.3841380074908041  0.0093388227959006
  0.4294171552350242  0.7377412539306016  0.8820013838803348
  0.4047997971976515  0.7235915255394915  0.2919224913523050
  0.9217509865832706  0.5808697080217375  0.0226250361038423
  0.1738971728377242  0.0990257222731126  0.6455188338344794
  0.4653917046149273  0.5708270375098173  0.1568629514863578
  0.5814209516762479  0.2237264513974171  0.2226044072121527
  0.2637866137687253  0.3832536126119460  0.7114077543072728
  0.9737491995470274  0.1713845142522937  0.6405080402448595
  0.2218566317433407  0.0169069528761276  0.2992991138907876
  0.3374569934865459  0.9743567250376413  0.6052489291160960
  0.8949679636375161  0.1545522373981724  0.4640567332053600
  0.4659883754861187  0.9337394557374034  0.9906157717763887
  0.1351772794557854  0.5817157992559884  0.9217723192045925
  0.1265230598518950  0.2935749316636557  0.6162393195558473
  0.2808752801959740  0.4341122443518435  0.3253783270273310
  0.9547076597280807  0.7791727756112716  0.0909476617920338
  0.7351609064950348  0.1094429477836331  0.3216309955506229
  0.3093371733060915  0.5960045427211353  0.9825012411749646
  0.7103435797490520  0.3893491318631767  0.1700205000089912
  0.1658742856605326  0.7197424767402081  0.0671620175499914
  0.8556314507382776  0.5068725018597114  0.8421092362145657
  0.1950840851614127  0.5478660579799309  0.7491279089227890
  0.5607450951275792  0.9209789223924439  0.2856582532989680
  0.4730865597243531  0.3846987267123295  0.4849109501266220
  0.0641834156786599  0.9662010379510620  0.4696030458679943
  0.5672801130930053  0.9277002067996997  0.9220695333932987
  0.2255904504219878  0.4427348436443029  0.8108608483405667
  0.5060851466453440  0.1987452666145398  0.4500332798831536
  0.0100541025307274  0.8643907997087182  0.0293941190787916
  0.4569219428354540  0.4581935458128603  0.1076437192933769
  0.1027721245422292  0.8516114118597702  0.2174435106185603
  0.6777935435641879  0.7395415051071501  0.8049836043016716
  0.2662771970214012  0.4180776385913730  0.4614604546258244
  0.7744434330378853  0.7722516695139104  0.5811023750967219
  0.6922780665450706  0.3030654970297541  0.8842635158337118
  0.5152746131874258  0.2787611196683479  0.9836050813513997
  0.2698726833335650  0.3267903013940709  0.6058397997310632
  0.4024122577653247  0.4193630701444193  0.3364924574383915
  0.3627531684153417  0.8879083796103092  0.0415282955141011
  0.0206008230771326  0.7006020501958919  0.5288796960245848
  0.2932021340513315  0.4778882049611762  0.2121308670010668
  0.8390571585755126  0.3957765301046263  0.8940376168618480
  0.2046892854731792  0.9893845527062382  0.6127706260656038
  0.4115039019092157  0.6183740996050205  0.0447283383831987
  0.0142044416939453  0.1997663668222693  0.1909595741404607
  0.1654685879010895  0.3864894014283444  0.3270494074918221
  0.3916219130315028  0.9497214024131758  0.8867339022452833
  0.2499706368559221  0.5885155814803490  0.8677646278198564
  0.6502742929037634  0.8692866023703538  0.6654870498100833
  0.3263490906271845  0.9709767707801775  0.7245890886014710
  0.9248733230702624  0.3395487821437294  0.0744601025924816
  0.4105000792696832  0.9940405994215294  0.1943941232008936
  0.0432026670105136  0.3945341677751585  0.2027221142367490
  0.4367878288754877  0.6434748467902236  0.3782364267890489
  0.5749671144270464  0.0695720207715798  0.5562285151735261
  0.8748260261739925  0.6723256897755372  0.3920633881982069
  0.2157160582618444  0.9903898126999368  0.0204511926407538
  0.9620105205897779  0.1360129164942214  0.3678102657156894
  0.8828550939719023  0.6938483731448782  0.0295677151415745
  0.0636561986501174  0.9158452963890377  0.7746629331367026
  0.7493428764018304  0.5391386119211982  0.8920048133345857
  0.7279794432842744  0.0446349535289664  0.2201424812974546
  0.7037685970233979  0.4645510910242820  0.7269742708032815
  0.6862303308395710  0.8399273555691937  0.1345134842031232
  0.0977618778082300  0.6947712983355976  0.8970354963588180
  0.3298242901144945  0.3055839001729311  0.9958560230545340
  0.5261123431544753  0.2997086513083829  0.3125374772880614
  0.0082445998474255  0.2827002593822356  0.6427125894066532
  0.7485547208733926  0.1770689284561124 -0.0099086774365637
  0.4005110728962051  0.3050647106346431  0.1674353633343809
  0.3235017729208427  0.7196586965731715  0.9477715145736278
  0.2169964550421893  0.9972747311146555  0.8471405833170458
  0.3513270090266848  0.7729069676726354  0.7907519938347951
  0.0273977460245131  0.9985293864819914  0.1359109688232373
  0.9874005523934274  0.3539774536852915  0.8053776859432908
  0.5123160925274964  0.7959175223895111  0.8025875386603057
  0.3064494188429485  0.4792673385393016  0.0015422893839409
  0.8280788006832359  0.2988990186915913  0.7240566988478916
  0.8136136735943156  0.3856186477833982  0.2270326644026415
  0.8737659609737175 -0.0026620866695864  0.9121933339494421
  0.2124665283183735  0.4832507225507627  0.6513525621372129
  0.5983694066808924  0.4835821344873771  0.9540539932242198
  0.8451828465380522  0.6554630486603039  0.8046054308219629
  0.1960871606695317  0.6125532650429182  0.0258347683028662
  0.6842157035047409  0.2026184105186922  0.5074490851357731
  0.4841109351447687  0.7698436595479892  0.9857246795617490
  0.0992449294887634  0.4788465600385764  0.9647565273162553
  0.6086708255709329  0.3278227882208007  0.1683740897126572
  0.3444759233217896  0.7282187205736793  0.5363428328778367
  0.6524732593913524  0.0378648678827452  0.3841774392249389
  0.9377790356541433  0.7455384717467681  0.2048397107941919
  0.5274234031066760  0.5204801491254076  0.2583014703602334
  0.6443473027059153  0.6683799536088777  0.6478825875922526
  0.1907836831274374  0.3601938978133544  0.1003667074106475
  0.6805702990434165  0.7392760802547290  0.4413735424571155
  0.5543604142828970  0.3580826907759108  0.5207023934506126
  0.3640160418343859  0.0824190411464256  0.5679822188213416
  0.7297942260895657  0.3613895260264032  0.0515862564017296
  0.2260194354170747  0.8160013980402520  0.6501378440829784
  0.3960451545725976  0.5426041520855365  0.5099558349206766
  0.8003313946343462  0.5386195526925828  0.4877096897275944
  0.2087214071183156  0.0440674287600250  0.4246949131532697
  0.7636291945752834  0.8657920377213627  0.3155610092372971
  0.2106259160711136  0.0081097475197807  0.1780578181914361
  0.5343069452723204  0.9742080589071573  0.7548374776239531
  0.9518039859746964  0.5420634732455814  0.2653135023956485
  0.7351423746159328  0.9288095898570826  0.4851356584601156
  0.4955253849602348  0.6319602475626876  0.8617973865402617
  0.7267910038536629  0.9511119217398923  0.8361784407183208
  0.9948036033823281  0.5382557964618475  0.1024007508657252
  0.1063236794217511  0.3584819467903749  0.5168040899831585
  0.1328692949113590  0.5539597119589200  0.2020148213232499
  0.4963409406657194  0.1408401994127039  0.2389343848975691
  0.4385413379589892  0.0139367294753932  0.3968791281346385
  0.3226082215784457  0.2225225573595014  0.4692122665960937
  0.2506703381417851  0.5501984583429492  0.3594424993093926
  0.8391764239116765  0.4978991709924958  0.0555023477229976
  0.6843545236418271  0.6561096387172471  0.0100691076794239
  0.8094845947866195  0.1961406183560291  0.2734379359654017
  0.3185112810235436  0.1563828602548760  0.0891965510520476
  0.8339385016000194  0.8332326340160477  0.7287386607445091
  0.3723829526029911  0.4378355128647969  0.6926346376085202
  0.9005969832814745  0.9165264350235036  0.5272633985142217
  0.8564368683018933  0.2655304276452292  0.4628212381858825
  0.8634224944738499  0.8695855384441307  0.1048145368705571
  0.0398885080502063  0.9944341410651348  0.9294471572103360
  0.6451278398012414  0.1865123391542172  0.3166478866815646
  0.9216603420072101  0.2168041190298602  0.9346912800898179
  0.3252457794381786  0.3032992865382150  0.7954339160979105
  0.7380074474425364  0.0237733376320273  0.6348344400120266
  0.0634533585702616  0.5213892582597675  0.4286462793732927
  0.5183061379053737  0.7199314516659651  0.5289574434064602
  0.6593847711819072  0.2714292535521640  0.6497422323174601
  0.0521849308324053  0.7050877377491408  0.0891370248563268
  0.2890567651365125  0.7149549173346443  0.3297551546686244
  0.0895296751329526  0.5463326689240974  0.8056401002259066
  0.4455806084113065  0.8090945568073310  0.3709979687758419
  0.0604051284641491  0.0798154655424435  0.6721160777389050
  0.2138598037871537  0.6609314764686741  0.7130048948441493
  0.1022829371458548  0.1358248249594832  0.8275238392276757
  0.7022275772145095  0.3665782796538661  0.3725904878118413
  0.5394414561999304  0.5104026704542737  0.6690077752186040
  0.3237472719857714  0.9170473116387409  0.5026738191650184
  0.1362599198206093  0.2947601044425788  0.9083632640254595
  0.5616898028671192  0.3511980275289522  0.7758293140466294
  0.1567320828755193  0.3163902518504866  0.7289140151552078
  0.4424091074730275  0.2588756988575792  0.6343845477211562
  0.9924031380495569  0.1193334380007228  0.5283918597504962
  0.8562787763476549  0.1646611774724457  0.5991439547639302
  0.4285536502361504  0.1512375889786360  0.8573008739285024
  0.1377852623546878  0.8054912425005593  0.4362830508261252
  0.1924127466675467  0.2104318933744283  0.1785501914443219
  0.1749654076201445  0.8250358008516664  0.0122384242427246
  0.7389849427178441  0.0004656805133865  0.0373694194911250
  0.3852455013980519  0.6391336183694490  0.2074640505733511
  0.5472949132643408  0.1649418517064326  0.7352806836616544
  0.0970800223416287  0.0362688989812658  0.2940920638802427
  0.5614521802576807  0.6318996817096325  0.1238836261882073
  0.6785085541135553  0.4994986839187344  0.1511112542868382
  0.8891210335826876  0.9896186441801457  0.2706351807482090
  0.7632143464763882  0.6828540298461334  0.2042002138465659
  0.9140801018276561  0.4166353949916601  0.3821785999643750
  0.4334433077662651  0.4439711329357577  0.8733926259116364
  0.8878527991316778  0.1048641679856936  0.1054887764338525
  0.0304328482191572  0.4985181092551236  0.5918669066771050
  0.2697521169131005  0.9092730587319491  0.3222336523298795
  0.2610787323992463  0.1555896741802902  0.9222528923288908
  0.5770210268520376  0.5584157201278205  0.4602838934473537
  0.7567162320614610  0.1497694877147967  0.8079999917517846
  0.7103295642374654  0.4109072514730306  0.5594736720195675
  0.5619588102770602  0.8814224939642111  0.5014902722421190
  0.8931759707795413  0.4839495349188052  0.7323250667932613
  0.8377187873835736  0.6213979492324837  0.6221781883001923
  0.1884286924677662  0.6287482533823959  0.5224918723614811
  0.9160030110627266  0.9841244132145133  0.7000427141112546
  0.8815144465511667  0.3881106610463830  0.5910305209418512
  0.3006571619732177  0.2977641843170548  0.3208955007999968
  0.2482409895747895  0.7278425720569518  0.1519012343971380
  0.4299073414929317  0.8029260315343199  0.2010892976131878
  0.9377589999496785  0.1517290836171606  0.7609960082659253
  0.3041053896143898  0.1047245189783596  0.3020230311982669
  0.9534323044651223  0.8049204930313403  0.8542330794349920
  0.4366025078854725  0.8944420093403971  0.6258773647825316
  0.1076908342166206  0.6871019586155984  0.3032842002927605
  0.2618081528271380  0.1416900649417728  0.7188075839066416
  0.9408418404021978  0.5615517839791778  0.9082683245058393
  0.0167829230913375  0.7030921019713756  0.7060887144850415
  0.0952398108745842  0.1594573824406304  0.0354792678906229
  0.5834161813218018  0.7140489947289256  0.2745496383690388
  0.8085212634489881  0.0787303699618288  0.4212629835401692
  0.1728938000614377  0.1909705614332592  0.5723257889127639
  0.7556493161563913  0.8091985507275961  0.9583818006669316
  0.5451991316267621  0.9244479410118291  0.0904712511792381
  0.7228800097930947  0.5511607056984984  0.3331534951929747
  0.1218880276944852  0.2204196503311904  0.3692887395755598
  0.1921084057070359  0.8394016652265509  0.8471064094953743
  0.4385669195056056  0.6413317093069516  0.6936567500176625
  0.6185399306532080  0.1609062602043586  0.1186849066147389
  0.0462479131797687  0.8554633784905162  0.6081182801325670
  0.4466817809431657  0.0551718242766951  0.0268889216378451
  0.9417929765411388  0.8524268528745431  0.3606310515365936
 
  0.00000000E+00  0.00000000E+00  0.00000000E+00
  0.00000000E+00  0.00000000E+00  0.00000000E+00
  0.00000000E+00  0.00000000E+00  0.00000000E+00
  0.00000000E+00  0.00000000E+00  0.00000000E+00
  0.00000000E+00  0.00000000E+00  0.00000000E+00
  0.00000000E+00  0.00000000E+00  0.00000000E+00
  0.00000000E+00  0.00000000E+00  0.00000000E+00
  0.00000000E+00  0.00000000E+00  0.00000000E+00
  0.00000000E+00  0.00000000E+00  0.00000000E+00
  0.00000000E+00  0.00000000E+00  0.00000000E+00
  0.00000000E+00  0.00000000E+00  0.00000000E+00
  0.00000000E+00  0.00000000E+00  0.00000000E+00
  0.00000000E+00  0.00000000E+00  0.00000000E+00
  0.00000000E+00  0.00000000E+00  0.00000000E+00
  0.00000000E+00  0.00000000E+00  0.00000000E+00
  0.00000000E+00  0.00000000E+00  0.00000000E+00
  0.00000000E+00  0.00000000E+00  0.00000000E+00
  0.00000000E+00  0.00000000E+00  0.00000000E+00
  0.00000000E+00  0.00000000E+00  0.00000000E+00
  0.00000000E+00  0.00000000E+00  0.00000000E+00
  0.00000000E+00  0.00000000E+00  0.00000000E+00
  0.00000000E+00  0.00000000E+00  0.00000000E+00
  0.00000000E+00  0.00000000E+00  0.00000000E+00
  0.00000000E+00  0.00000000E+00  0.00000000E+00
  0.00000000E+00  0.00000000E+00  0.00000000E+00
  0.00000000E+00  0.00000000E+00  0.00000000E+00
  0.00000000E+00  0.00000000E+00  0.00000000E+00
  0.00000000E+00  0.00000000E+00  0.00000000E+00
  0.00000000E+00  0.00000000E+00  0.00000000E+00
  0.00000000E+00  0.00000000E+00  0.00000000E+00
  0.00000000E+00  0.00000000E+00  0.00000000E+00
  0.00000000E+00  0.00000000E+00  0.00000000E+00
  0.00000000E+00  0.00000000E+00  0.00000000E+00
  0.00000000E+00  0.00000000E+00  0.00000000E+00
  0.00000000E+00  0.00000000E+00  0.00000000E+00
  0.00000000E+00  0.00000000E+00  0.00000000E+00
  0.00000000E+00  0.00000000E+00  0.00000000E+00
  0.00000000E+00  0.00000000E+00  0.00000000E+00
  0.00000000E+00  0.00000000E+00  0.00000000E+00
  0.00000000E+00  0.00000000E+00  0.00000000E+00
  0.00000000E+00  0.00000000E+00  0.00000000E+00
  0.00000000E+00  0.00000000E+00  0.00000000E+00
  0.00000000E+00  0.00000000E+00  0.00000000E+00
  0.00000000E+00  0.00000000E+00  0.00000000E+00
  0.00000000E+00  0.00000000E+00  0.00000000E+00
  0.00000000E+00  0.00000000E+00  0.00000000E+00
  0.00000000E+00  0.00000000E+00  0.00000000E+00
  0.00000000E+00  0.00000000E+00  0.00000000E+00
  0.00000000E+00  0.00000000E+00  0.00000000E+00
  0.00000000E+00  0.00000000E+00  0.00000000E+00
  0.00000000E+00  0.00000000E+00  0.00000000E+00
  0.00000000E+00  0.00000000E+00  0.00000000E+00
  0.00000000E+00  0.00000000E+00  0.00000000E+00
  0.00000000E+00  0.00000000E+00  0.00000000E+00
  0.00000000E+00  0.00000000E+00  0.00000000E+00
  0.00000000E+00  0.00000000E+00  0.00000000E+00
  0.00000000E+00  0.00000000E+00  0.00000000E+00
  0.00000000E+00  0.00000000E+00  0.00000000E+00
  0.00000000E+00  0.00000000E+00  0.00000000E+00
  0.00000000E+00  0.00000000E+00  0.00000000E+00
  0.00000000E+00  0.00000000E+00  0.00000000E+00
  0.00000000E+00  0.00000000E+00  0.00000000E+00
  0.00000000E+00  0.00000000E+00  0.00000000E+00
  0.00000000E+00  0.00000000E+00  0.00000000E+00
  0.00000000E+00  0.00000000E+00  0.00000000E+00
  0.00000000E+00  0.00000000E+00  0.00000000E+00
  0.00000000E+00  0.00000000E+00  0.00000000E+00
  0.00000000E+00  0.00000000E+00  0.00000000E+00
  0.00000000E+00  0.00000000E+00  0.00000000E+00
  0.00000000E+00  0.00000000E+00  0.00000000E+00
  0.00000000E+00  0.00000000E+00  0.00000000E+00
  0.00000000E+00  0.00000000E+00  0.00000000E+00
  0.00000000E+00  0.00000000E+00  0.00000000E+00
  0.00000000E+00  0.00000000E+00  0.00000000E+00
  0.00000000E+00  0.00000000E+00  0.00000000E+00
  0.00000000E+00  0.00000000E+00  0.00000000E+00
  0.00000000E+00  0.00000000E+00  0.00000000E+00
  0.00000000E+00  0.00000000E+00  0.00000000E+00
  0.00000000E+00  0.00000000E+00  0.00000000E+00
  0.00000000E+00  0.00000000E+00  0.00000000E+00
  0.00000000E+00  0.00000000E+00  0.00000000E+00
  0.00000000E+00  0.00000000E+00  0.00000000E+00
  0.00000000E+00  0.00000000E+00  0.00000000E+00
  0.00000000E+00  0.00000000E+00  0.00000000E+00
  0.00000000E+00  0.00000000E+00  0.00000000E+00
  0.00000000E+00  0.00000000E+00  0.00000000E+00
  0.00000000E+00  0.00000000E+00  0.00000000E+00
  0.00000000E+00  0.00000000E+00  0.00000000E+00
  0.00000000E+00  0.00000000E+00  0.00000000E+00
  0.00000000E+00  0.00000000E+00  0.00000000E+00
  0.00000000E+00  0.00000000E+00  0.00000000E+00
  0.00000000E+00  0.00000000E+00  0.00000000E+00
  0.00000000E+00  0.00000000E+00  0.00000000E+00
  0.00000000E+00  0.00000000E+00  0.00000000E+00
  0.00000000E+00  0.00000000E+00  0.00000000E+00
  0.00000000E+00  0.00000000E+00  0.00000000E+00
  0.00000000E+00  0.00000000E+00  0.00000000E+00
  0.00000000E+00  0.00000000E+00  0.00000000E+00
  0.00000000E+00  0.00000000E+00  0.00000000E+00
  0.00000000E+00  0.00000000E+00  0.00000000E+00
  0.00000000E+00  0.00000000E+00  0.00000000E+00
  0.00000000E+00  0.00000000E+00  0.00000000E+00
  0.00000000E+00  0.00000000E+00  0.00000000E+00
  0.00000000E+00  0.00000000E+00  0.00000000E+00
  0.00000000E+00  0.00000000E+00  0.00000000E+00
  0.00000000E+00  0.00000000E+00  0.00000000E+00
  0.00000000E+00  0.00000000E+00  0.00000000E+00
  0.00000000E+00  0.00000000E+00  0.00000000E+00
  0.00000000E+00  0.00000000E+00  0.00000000E+00
  0.00000000E+00  0.00000000E+00  0.00000000E+00
  0.00000000E+00  0.00000000E+00  0.00000000E+00
  0.00000000E+00  0.00000000E+00  0.00000000E+00
  0.00000000E+00  0.00000000E+00  0.00000000E+00
  0.00000000E+00  0.00000000E+00  0.00000000E+00
  0.00000000E+00  0.00000000E+00  0.00000000E+00
  0.00000000E+00  0.00000000E+00  0.00000000E+00
  0.00000000E+00  0.00000000E+00  0.00000000E+00
  0.00000000E+00  0.00000000E+00  0.00000000E+00
  0.00000000E+00  0.00000000E+00  0.00000000E+00
  0.00000000E+00  0.00000000E+00  0.00000000E+00
  0.00000000E+00  0.00000000E+00  0.00000000E+00
  0.00000000E+00  0.00000000E+00  0.00000000E+00
  0.00000000E+00  0.00000000E+00  0.00000000E+00
  0.00000000E+00  0.00000000E+00  0.00000000E+00
  0.00000000E+00  0.00000000E+00  0.00000000E+00
  0.00000000E+00  0.00000000E+00  0.00000000E+00
  0.00000000E+00  0.00000000E+00  0.00000000E+00
  0.00000000E+00  0.00000000E+00  0.00000000E+00
  0.00000000E+00  0.00000000E+00  0.00000000E+00
  0.00000000E+00  0.00000000E+00  0.00000000E+00
  0.00000000E+00  0.00000000E+00  0.00000000E+00
  0.00000000E+00  0.00000000E+00  0.00000000E+00
  0.00000000E+00  0.00000000E+00  0.00000000E+00
  0.00000000E+00  0.00000000E+00  0.00000000E+00
  0.00000000E+00  0.00000000E+00  0.00000000E+00
  0.00000000E+00  0.00000000E+00  0.00000000E+00
  0.00000000E+00  0.00000000E+00  0.00000000E+00
  0.00000000E+00  0.00000000E+00  0.00000000E+00
  0.00000000E+00  0.00000000E+00  0.00000000E+00
  0.00000000E+00  0.00000000E+00  0.00000000E+00
  0.00000000E+00  0.00000000E+00  0.00000000E+00
  0.00000000E+00  0.00000000E+00  0.00000000E+00
  0.00000000E+00  0.00000000E+00  0.00000000E+00
  0.00000000E+00  0.00000000E+00  0.00000000E+00
  0.00000000E+00  0.00000000E+00  0.00000000E+00
  0.00000000E+00  0.00000000E+00  0.00000000E+00
  0.00000000E+00  0.00000000E+00  0.00000000E+00
  0.00000000E+00  0.00000000E+00  0.00000000E+00
  0.00000000E+00  0.00000000E+00  0.00000000E+00
  0.00000000E+00  0.00000000E+00  0.00000000E+00
  0.00000000E+00  0.00000000E+00  0.00000000E+00
  0.00000000E+00  0.00000000E+00  0.00000000E+00
  0.00000000E+00  0.00000000E+00  0.00000000E+00
  0.00000000E+00  0.00000000E+00  0.00000000E+00
  0.00000000E+00  0.00000000E+00  0.00000000E+00
  0.00000000E+00  0.00000000E+00  0.00000000E+00
  0.00000000E+00  0.00000000E+00  0.00000000E+00
  0.00000000E+00  0.00000000E+00  0.00000000E+00
  0.00000000E+00  0.00000000E+00  0.00000000E+00
  0.00000000E+00  0.00000000E+00  0.00000000E+00
  0.00000000E+00  0.00000000E+00  0.00000000E+00
  0.00000000E+00  0.00000000E+00  0.00000000E+00
  0.00000000E+00  0.00000000E+00  0.00000000E+00
  0.00000000E+00  0.00000000E+00  0.00000000E+00
  0.00000000E+00  0.00000000E+00  0.00000000E+00
  0.00000000E+00  0.00000000E+00  0.00000000E+00
  0.00000000E+00  0.00000000E+00  0.00000000E+00
  0.00000000E+00  0.00000000E+00  0.00000000E+00
  0.00000000E+00  0.00000000E+00  0.00000000E+00
  0.00000000E+00  0.00000000E+00  0.00000000E+00
  0.00000000E+00  0.00000000E+00  0.00000000E+00
  0.00000000E+00  0.00000000E+00  0.00000000E+00
  0.00000000E+00  0.00000000E+00  0.00000000E+00
  0.00000000E+00  0.00000000E+00  0.00000000E+00
  0.00000000E+00  0.00000000E+00  0.00000000E+00
  0.00000000E+00  0.00000000E+00  0.00000000E+00
  0.00000000E+00  0.00000000E+00  0.00000000E+00
  0.00000000E+00  0.00000000E+00  0.00000000E+00
  0.00000000E+00  0.00000000E+00  0.00000000E+00
  0.00000000E+00  0.00000000E+00  0.00000000E+00
  0.00000000E+00  0.00000000E+00  0.00000000E+00
  0.00000000E+00  0.00000000E+00  0.00000000E+00
  0.00000000E+00  0.00000000E+00  0.00000000E+00
  0.00000000E+00  0.00000000E+00  0.00000000E+00
  0.00000000E+00  0.00000000E+00  0.00000000E+00
  0.00000000E+00  0.00000000E+00  0.00000000E+00
  0.00000000E+00  0.00000000E+00  0.00000000E+00
  0.00000000E+00  0.00000000E+00  0.00000000E+00
  0.00000000E+00  0.00000000E+00  0.00000000E+00
  0.00000000E+00  0.00000000E+00  0.00000000E+00
  0.00000000E+00  0.00000000E+00  0.00000000E+00
  0.00000000E+00  0.00000000E+00  0.00000000E+00
  0.00000000E+00  0.00000000E+00  0.00000000E+00
  0.00000000E+00  0.00000000E+00  0.00000000E+00
  0.00000000E+00  0.00000000E+00  0.00000000E+00
  0.00000000E+00  0.00000000E+00  0.00000000E+00
  0.00000000E+00  0.00000000E+00  0.00000000E+00
  0.00000000E+00  0.00000000E+00  0.00000000E+00
  0.00000000E+00  0.00000000E+00  0.00000000E+00
  0.00000000E+00  0.00000000E+00  0.00000000E+00
  0.00000000E+00  0.00000000E+00  0.00000000E+00
  0.00000000E+00  0.00000000E+00  0.00000000E+00
  0.00000000E+00  0.00000000E+00  0.00000000E+00
  0.00000000E+00  0.00000000E+00  0.00000000E+00
  0.00000000E+00  0.00000000E+00  0.00000000E+00
  0.00000000E+00  0.00000000E+00  0.00000000E+00
  0.00000000E+00  0.00000000E+00  0.00000000E+00
  0.00000000E+00  0.00000000E+00  0.00000000E+00
  0.00000000E+00  0.00000000E+00  0.00000000E+00
  0.00000000E+00  0.00000000E+00  0.00000000E+00
  0.00000000E+00  0.00000000E+00  0.00000000E+00
  0.00000000E+00  0.00000000E+00  0.00000000E+00
  0.00000000E+00  0.00000000E+00  0.00000000E+00
  0.00000000E+00  0.00000000E+00  0.00000000E+00
  0.00000000E+00  0.00000000E+00  0.00000000E+00
  0.00000000E+00  0.00000000E+00  0.00000000E+00
  0.00000000E+00  0.00000000E+00  0.00000000E+00
  0.00000000E+00  0.00000000E+00  0.00000000E+00
  0.00000000E+00  0.00000000E+00  0.00000000E+00
  0.00000000E+00  0.00000000E+00  0.00000000E+00
  0.00000000E+00  0.00000000E+00  0.00000000E+00
  0.00000000E+00  0.00000000E+00  0.00000000E+00
  0.00000000E+00  0.00000000E+00  0.00000000E+00
  0.00000000E+00  0.00000000E+00  0.00000000E+00
  0.00000000E+00  0.00000000E+00  0.00000000E+00
  0.00000000E+00  0.00000000E+00  0.00000000E+00
  0.00000000E+00  0.00000000E+00  0.00000000E+00
  0.00000000E+00  0.00000000E+00  0.00000000E+00
  0.00000000E+00  0.00000000E+00  0.00000000E+00
  0.00000000E+00  0.00000000E+00  0.00000000E+00
  0.00000000E+00  0.00000000E+00  0.00000000E+00
  0.00000000E+00  0.00000000E+00  0.00000000E+00
  0.00000000E+00  0.00000000E+00  0.00000000E+00