Amorphous GeTe6                         
   1.00000000000000     
    22.1344198496002349    0.0000000000000000    0.0000000000000000
     0.0000000000000000   22.1344198496002349    0.0000000000000000
     0.0000000000000000    0.0000000000000000   22.1344198496002349
   Al   Te
    90   210
Direct
  0.1636437070350900  0.8423520964082660  0.0905754162277590
  0.1831559906842093  0.6335262658028130  0.2877899809998111
  0.7666056341845412  0.7376836474786027  0.8698652446849866
  0.5147909895292304  0.7768931866876395  0.6543436299931118
  0.4596299569620357  0.1267650075788580  0.0991458905107001
  0.9200523814021327  0.5384018364472414  0.5439196096778142
  0.9487059318573471  0.1807224990503812  0.8267811668644708
  0.3064444012848840  0.3952361326917821  0.3320254032136791
  0.7383196734605437  0.2082507408614573  0.0926430359630211
  0.2773467082803313  0.7773506744660249  0.7576612543639050
  0.1027703745401925  0.3842539914873579  0.5158684830898911
  0.3162121370751767  0.3266829087909295  0.9744562541034415
  0.9716585776195732  0.5123583634798640  0.8636958713505246
  0.5924893281715138  0.9702679911161235  0.5074027269846670
  0.8495659230771502  0.3984151763797179  0.9406686117658424
  0.0595213100476605  0.1479400498040969  0.9506119901445027
  0.5456946790848873  0.1481004852121799  0.6994445176247256
  0.4724611639459836  0.4030105432615726  0.8646246347510422
  0.3247149909355150  0.1034975199739428  0.4742689154219245
  0.0245410271487915  0.6788643015501596  0.6458003724092677
  0.2237089904863861  0.4621433429370825  0.6163608264483545
  0.8932463687021048  0.8014012134889003  0.6663686842089089
  0.9302773708712130  0.6914559706653706  0.0292927255872663
  0.8808889941684557  0.6663025654359093  0.2647488955010471
  0.5720105756156693  0.5942157256001628  0.4625743971494713
  0.2065993854799745  0.6377031549170910  0.7200782409140685
  0.4942215711207920  0.8399744678027105  0.4843330653971256
  0.9495630677311334  0.6568899216603975  0.3777477561207821
  0.9531238205483281  0.0404661867966820  0.5108299952195926
  0.1121841611488759  0.7937448997463258  0.6638259163596607
  0.2493995783252178  0.5481090020842563  0.9348369611897973
  0.5533939791626279  0.2307677568351228  0.5411183792266921
  0.6839569095113798  0.4676893854387245  0.3743748771835545
  0.0993172622208225  0.9685413167501907  0.9794557022138017
  0.1817017209477560  0.5154962223696642  0.3747510489765194
  0.6866406406597104  0.8523470726729875  0.3719686101409389
  0.5451895180736188  0.0242307318795316  0.0199968936433076
  0.6843220788384650  0.7272338937559397  0.2192591597448046
  0.2682782716885486  0.9132054684987594  0.1461287813660606
  0.9677074604219561  0.3390772009793948  0.5038378107706097
  0.0603332646144921  0.2003021192776216  0.5592018002418191
  0.3979553903170556  0.1965063858286970  0.6451838709827140
  0.0370282849733070  0.2957805334849596  0.2467102260294947
  0.2180306810989252  0.1669777763229548  0.5599493090488155
  0.0512774088314668  0.6274520463004519  0.4239581249604707
  0.1699683999031784  0.5809575489900760  0.0619341636783385
  0.5245444209362469  0.0087825313233307  0.8730066208886448
  0.0914921449643569  0.7136949667635989  0.2062304672854106
  0.7701282458020755  0.4701803823688419  0.8397473379892021
  0.7087487043170446  0.0602452119604781  0.4777563837021504
  0.3169506786175368  0.4802665280667324  0.4942290339106848
  0.5081551380605998  0.2525580845303683  0.2194589928209652
  0.2054650561851870  0.2622913930469684  0.2658600095569365
  0.3547810646820831  0.3132694335451835  0.7798433329877115
  0.4444080394675593  0.6536840006845371  0.5049725910629760
  0.2897225505808559  0.0251085023229637  0.7207868514213562
  0.3599422945702420  0.6182682720401770  0.0865023627625988
  0.0914291433631997  0.1810481494940872  0.1762119840826554
  0.8174653616398980  0.5471852964778487  0.3800238919620387
  0.7739919365617011  0.9852009962693304  0.1621741300451066
  0.5981300679976815  0.5322737557971184  0.1874249734531580
  0.9518183285121401  0.8685309702362957  0.9716862749163988
  0.3072581522140097  0.2144406707695494  0.8711239461753730
  0.6188949475823941  0.4388583298062769  0.8456544441875998
  0.9849601635230765  0.8636729933733533  0.1217307032693076
  0.0639516396316842  0.9900897832979947  0.2266662097817810
  0.4817370477273397  0.6814818295948620  0.1395538939538655
  0.1914368551235452  0.9332113432728226  0.6663750107988705
  0.3309910008023418  0.9709786235907970  0.3350126325757834
  0.2679796012768445  0.6481480535694439  0.4293067223396931
  0.7228667359179692  0.5309540639729410  0.5206091682256242
  0.5496348088296545  0.2778592811056987  0.3735088798541615
  0.8660350601117510  0.1721365309037304  0.4741419717418848
  0.0406854657547686  0.8602655284770936  0.5058301397858533
  0.1613600593662511  0.7833761663255689  0.3966335561322314
  0.1688352067217402  0.2485172883603748  0.8560290194582418
  0.3840719614434644  0.9080132318913764  0.8177072011790474
  0.9096752826398812  0.1222646599146874  0.2357933458712971
  0.7280273840365215  0.8297998245203969  0.5354718617142703
  0.2118267229716316  0.2414454941790411  0.0341032432877060
  0.9871805987361882  0.5356566373319062  0.0148672542886735
  0.6940542008058316  0.0779378761984404  0.7813767710238406
  0.2255416893651670  0.6561096322634927  0.9071111188662674
  0.4332715961979655  0.9699747832559562  0.1743214443409206
  0.7121875154169944  0.9858119247121249  0.6692369240979077
  0.8841918298483945  0.3088644142902370  0.3200375609882735
  0.4328698758927694  0.4945124819005305  0.2195116022488980
  0.8284660092365731  0.6626671525672365  0.6135690880500970
  0.6486366445411589  0.6772640780199466  0.9318212526946208
  0.5937267258994976  0.6822591584506965  0.7991673066661448
  0.0044542393040173  0.6399352375430271  0.1071833928114882
  0.6275505297183951  0.9823394307184047  0.7601643520134772
  0.4515260167306235  0.9539883957025210  0.3683042936505032
  0.2186452721454606  0.0961677544875614  0.2715151228236270
  0.5313878849407996  0.5802365058565216  0.7659627926955316
  0.6766856447786302  0.3941284526812128  0.9371011978872104
  0.6615561726135346  0.3151413637743387  0.4030008171789925
  0.7113753221357818  0.5759963304853630  0.3296052787917132
  0.3056605399718224  0.9449899064541111  0.6306464967390896
  0.5075943925832105  0.8951749499911399  0.8329735190482895
  0.4329332993403341  0.2387548463218943  0.1300475013152445
  0.6850706314996270  0.4810769531603110  0.7594347894222641
  0.8092111177901210  0.3911436909599012  0.2737233969647744
  0.8188607860137347  0.9972057418086973  0.0561813649918620
  0.6484494263025543  0.0460694346376306  0.5837610271131887
  0.8136024242140081  0.8042812761216931  0.2435561083636454
  0.6616822731898133  0.1735346190919650  0.7099436349364526
  0.6394337213329028  0.7572024459176090  0.3236627164781917
  0.7036930447855303  0.6404971768721235  0.8300891754756163
  0.7209421722142318  0.8171506483357035  0.1416836009351044
  0.4627116229273867  0.8749211927262857  0.0974859253651689
  0.1410017273029767  0.8668355017042360  0.5740404169074332
  0.9442804073898623  0.2396552211348247  0.5763245940937732
  0.0505562411644465  0.1194553381976039  0.8347707687396611
  0.3258574278534079  0.4396756558046255  0.2246899856692995
  0.1945219559789884  0.5169937617666713  0.7189328528083517
  0.0377216740842979  0.8252871481928530  0.9014572266249962
  0.2860755469694050  0.9721592915743964  0.0457550411912704
  0.3382167231343224  0.4927485044044925  0.8760965455070049
  0.4924022077356694  0.4084068550305314  0.6636469174291202
  0.5521844075512210  0.7319793814176659  0.8954716837942348
  0.6145255243166151  0.0323814871728183  0.4093585386714457
  0.3579688623456844  0.7322130969940625  0.0584190747440997
  0.3761071159326038  0.1116819375542578  0.7303986123734312
  0.2819839479114898  0.5319578235682078  0.0537392167580797
  0.1019978924044775  0.2038334447253041  0.2951235216196710
  0.3076414137990801  0.2696758223642665  0.6832696916971950
  0.6609704874048234  0.1724932818506309  0.8401286492390189
  0.8935724964894340  0.8061495558658438  0.0599085363551824
  0.5864737581743440  0.3017151364753869  0.6316103432883604
  0.7437079627222238  0.1058788419372007  0.0318915980894751
  0.8518187710244829  0.7318178662449328  0.3604855878738464
  0.0061864835558828  0.9428196108905594  0.7035336376029692
  0.0031046414090967  0.7737823139665605  0.7170334008654246
  0.8823571276808186  0.9084479886678675  0.8838084097730696
  0.1851864112700403  0.3996418013540577  0.3519669535855474
  0.9832976780759507  0.2964126994508007  0.8393372005392754
  0.4643748216908193  0.6416610610972565  0.0286040850088472
  0.1838247531444297  0.7528282738269438  0.2825605352379454
  0.8186831155217037  0.3585451089252361  0.8290245498006010
  0.5375714204941204  0.4875882397042786  0.2818778458478510
  0.7895661753195075  0.6718156372126101  0.1858654730848357
  0.5416560466893287  0.1770908959438329  0.3054987776833169
  0.8791509819152658  0.1386138300696789  0.9135970296152107
  0.1498367053142702  0.3645367788516369  0.2294672169852122
  0.8240550309961073  0.9316036702409456  0.2640550746056206
  0.8648111178862607  0.6146343278945720  0.4685306770846612
  0.7356244673082875  0.7382597928891059  0.9885439109751369
  0.7892276380896764  0.0930460728447224  0.2137166511958175
  0.4699910814916056  0.8260414237516035  0.3703708898135669
  0.1792720915339732  0.6387197216626829  0.1687807631417426
  0.4777197230689728  0.9481955730432795  0.5425697220920657
  0.4373546915065938  0.0169778246656663  0.9562275987499961
  0.4216012172344556  0.2384601688096226  0.8431391187788635
  0.5614321293472596  0.4723106380380705  0.0882153913925565
  0.5043675181102020  0.7914570769893680  0.1822162689306837
  0.9018575424391980  0.4220320927631549  0.5698989804837080
  0.0730063228243709  0.2779380744047316  0.4637685654925925
  0.2619874901125993  0.3339788044479709  0.8620340647000336
  0.5122042336087139  0.0011142905951270  0.2540882145412645
  0.7663581233861333  0.4842494632477548  0.9601912199718846
  0.0935061194172784  0.2953886702708675  0.7779485037135073
  0.0286693351256019  0.4403409524139934  0.4321826714416563
  0.3275026543088566  0.0913970768188896  0.3495119974464542
  0.4095607090781545  0.2256016030466713  0.3177295748071342
  0.8008137754406323  0.3126056640853785  0.1066599379212482
  0.8048912254111816  0.9929027431247017  0.4916513421416209
  0.7410463640648394  0.8725497183260164  0.6455692181925571
  0.0401759408739314  0.6194485677388923  0.7641943380094277
  0.8824867609494622  0.9157912108896854  0.6776685755058383
  0.4188281752806817  0.8532013894598675  0.9153183287103599
  0.6193058170715922  0.8541974602994038  0.4795942366466890
  0.7222030436201623  0.8418767030283754  0.8336632603271646
  0.1548644543904039  0.6825836831680978  0.4619637970535152
  0.6738420809591259  0.2324763198730214  0.5317020731507176
  0.3988103012288693  0.6125993021910127  0.2012048494357636
  0.9190895165300321  0.2397164754792767  0.2285032934744108
  0.1149625786860799  0.2570618073882643  0.9630388881578744
  0.9470015311024771  0.2809698439144655  0.7040198519702976
  0.8751140207991847  0.5904794275768012  0.0005258625885408
  0.8554227013318607  0.0900497218752312  0.5649156603052873
  0.6818611577726208  0.3797802947922519  0.2905747176004172
  0.0647447960313801  0.2877117102228477  0.1304215059821122
  0.7862872370456916  0.8617842321293466  0.4360744674393832
  0.6853405712061796  0.1928387944811563  0.1975608301453515
  0.8812484701496781  0.7591028736154304  0.5524303645970843
  0.4399523082874626  0.5003482500626095  0.5944859414965039
  0.2212000751746888  0.9287971440531647  0.3677767352962686
  0.6116113810635910  0.7192568917058066  0.6880135278402143
  0.1423767240534848  0.6822867859690106  0.6259140521431872
  0.7196666703813481  0.7131170465188499  0.5667144668395323
  0.2614347079018591  0.7925641174096821  0.1336313692909520
  0.3489172239943831  0.9075957769121594  0.2339221788760913
  0.5850224244812332  0.6514943451820809  0.2018694494128026
  0.9331677406038893  0.6022923579161517  0.6456908376100329
  0.3827226796763337  0.4458544669624047  0.4057764990393706
  0.7798965461266418  0.4527387455138905  0.4452799400589591
  0.1919075367462475  0.1455471948280945  0.1120665629067287
  0.1446083761300213  0.4861032067628562  0.9270287491956373
  0.4924595098405636  0.2550113801160104  0.7166639974838910
  0.0655603464454458  0.7756274881960161  0.1033006121145242
  0.4546934497994958  0.4210242878123177  0.1305954652329443
  0.6263401563747198  0.0203081698625343  0.9322310530021189
  0.4374426018266990  0.7638407050438697  0.5595646343193819
  0.3678381400345996  0.8492214215137242  0.7118141846033007
  0.1769693396403949  0.8457978166217954  0.7507172421260244
  0.6962730931743437  0.9565807931906316  0.3063827465507968
  0.9387474729240410  0.5291739643048361  0.1264469207042241
  0.9785701021104409  0.3812482817016963  0.3050912572184946
  0.0056332632158330  0.7389805511068180  0.5320704068404476
  0.3050708815157785  0.5660847257204834  0.7744941802198547
  0.8771863374225615  0.7080246980495574  0.8272041487180861
  0.2927091409700719  0.7495021000187913  0.8709308697899211
  0.8074212526174247  0.7310655955113786  0.7135715089346590
  0.1596012760551681  0.6832955764045427  0.0028744162153905
  0.9607471765955699  0.1181379443850701  0.4177744783081621
  0.5724668242922453  0.9072651673143034  0.0401009056061989
  0.8660327127584204  0.0810027101019831  0.3362326321885368
  0.9570715011640707  0.1609359625865739  0.0091520317126463
  0.5575586298140737  0.0677201673162082  0.1338571911962938
  0.0417279214691885  0.4772471852848902  0.1797555816025363
  0.6852703383141243  0.4091000480291276  0.1146978215061405
  0.1207575059096111  0.0210466953542845  0.3281500095989622
  0.2770206397368535  0.2002648798540699  0.1951838775799615
  0.0696188949667150  0.9506615861854982  0.8655383164814777
  0.7217723595026606  0.6218420616895515  0.0641108266541646
  0.1688685182493327  0.1377981351989557  0.4555061940676287
  0.8995307217331031  0.4248024730007279  0.7528429821299907
  0.3307087818222955  0.6008667025159797  0.5226312798518813
  0.1722010085765228  0.0410192011025751  0.7050149171661025
  0.6247788838171208  0.5796952948858999  0.9954755769849596
  0.0342964548930141  0.4930155266558389  0.7635092033075107
  0.0385341084663277  0.5430407195758817  0.5126382152319119
  0.2894950379107372  0.2768158437730523  0.3534763813763174
  0.6914161612528226  0.6338979504722033  0.4573469017641775
  0.6333016673628301  0.4593127983090480  0.5522606571140299
  0.5800301888509150  0.4737028215487368  0.4386861931041548
  0.2425544997630523  0.3516398521393941  0.0624243985589908
  0.0892103051735120  0.5668972347910881  0.3236671426302334
  0.9111119569930175  0.5571695499277238  0.3048513793874887
  0.7443397850091457  0.1668633627906510  0.4361893114107804
  0.4906905743434154  0.1360792891171507  0.9837210270168885
  0.3273240154254861  0.2083351186606527  0.5337963431248762
  0.7171958511578679  0.5237348864474143  0.1628611291759981
  0.2642444191555602  0.8303240712241615  0.4454153661969752
  0.3030269524048196  0.9873550795888970  0.8326995566824854
  0.4349242233775332  0.0738636691036899  0.4534739033998225
  0.4139623816138918  0.6435029878563274  0.7303989736693853
  0.6082952983857369  0.2849237335843997  0.1532013395952041
  0.1637638386958627  0.3603263611709032  0.6198354360829790
  0.7950559422566139  0.0371621796709986  0.7402947405517972
  0.2772973018228710  0.5743412441627159  0.3337005595809371
  0.9747325060216250  0.9081098957115665  0.2316585574584560
  0.4748992178858644  0.3399052337755518  0.2958764788140727
  0.3334418717561413  0.7387794184107860  0.3925106530419090
  0.8299795736222791  0.2919922950535370  0.9860906225205711
  0.0994837524778807  0.4823194821949694  0.0636338721947771
  0.1925442384157621  0.8922445273563339  0.9870065146880899
  0.9430850208542788  0.9235901555702631  0.5028970737228170
  0.2315495309497644  0.0474405364418755  0.5271290577453105
  0.4072151963167067  0.4221630935926114  0.7639056716594675
  0.0690102658876130  0.8524974511102887  0.3931523204585338
  0.1938037587138681  0.4846093592630968  0.4928107992416786
  0.9902100071322215  0.7218793449891370  0.2693890766937441
  0.6612377948722985  0.9254938263903267  0.1762925210623823
  0.7651560143563448  0.9092588000664679  0.9314468942458908
  0.4963373194028250  0.1354488004325554  0.5890199891796808
  0.0103627409125088  0.0870626039994762  0.1694776903874767
  0.1436945122412371  0.0770229585927416  0.9936637946885460
  0.0523253015277091  0.5853319040985800  0.9227243387077548
  0.0302188973429673  0.3991399711516587  0.6121819977500899
  0.9781704813847006  0.7043072302141893  0.9218226626938655
  0.9647042511542343  0.4292447077504770  0.9500986849799541
  0.8699351105267297  0.2913366340093106  0.4376492894771760
  0.1480711307620858  0.6824939683021971  0.8130254957872256
  0.4563405336366898  0.7617911526613271  0.7604193165884671
  0.5556565292558360  0.2464375567714306  0.0425191679878663
  0.2981836933060479  0.6975385164385455  0.6705925344450091
  0.5006666396757820  0.0473754712181339  0.7515897595653654
  0.0549301021335465  0.0769238524521711  0.5621956228799819
  0.4083451962395521  0.4031714317381302  0.9664628420857960
  0.6741386328340875  0.2284754030991783  0.9913339976003585
  0.5476648969700928  0.8903203823193721  0.6381131050829805
  0.1440879203346655  0.2033844370683665  0.6430694069786526
  0.8676642854394025  0.5404508273646917  0.8049435087503646
  0.3209838449537795  0.2059431178914634  0.9902074194305710
  0.3304691301404512  0.4170093270037003  0.5940783193450812
  0.9591159035989835  0.0252916351235140  0.8758622963779644
  0.2232244715518871  0.1489721268465057  0.8269490583717967
  0.9924899991730547  0.0620946994392479  0.6762300617412953
  0.4824975007231739  0.2855177302983256  0.4689261820021687
  0.5281864727816292  0.6017467078508174  0.5744330282020332
  0.8791961710926961  0.1752053741295024  0.7302174626935565
  0.3669705336005764  0.0560255449686684  0.1269053938460082
  0.4937042705207336  0.6561195579212337  0.3989429406173897
  0.7833330744139172  0.5507420691342579  0.6190466047546227
  0.5283432866666202  0.5159342263684296  0.8783102291513559
  0.1537270663008879  0.9159085251039979  0.1856632550455635
  0.5649062393411475  0.3326109727782218  0.8511962642790525
  0.9966403229324573  0.9549458115224095  0.0433994910519884
 
  0.00000000E+00  0.00000000E+00  0.00000000E+00
  0.00000000E+00  0.00000000E+00  0.00000000E+00
  0.00000000E+00  0.00000000E+00  0.00000000E+00
  0.00000000E+00  0.00000000E+00  0.00000000E+00
  0.00000000E+00  0.00000000E+00  0.00000000E+00
  0.00000000E+00  0.00000000E+00  0.00000000E+00
  0.00000000E+00  0.00000000E+00  0.00000000E+00
  0.00000000E+00  0.00000000E+00  0.00000000E+00
  0.00000000E+00  0.00000000E+00  0.00000000E+00
  0.00000000E+00  0.00000000E+00  0.00000000E+00
  0.00000000E+00  0.00000000E+00  0.00000000E+00
  0.00000000E+00  0.00000000E+00  0.00000000E+00
  0.00000000E+00  0.00000000E+00  0.00000000E+00
  0.00000000E+00  0.00000000E+00  0.00000000E+00
  0.00000000E+00  0.00000000E+00  0.00000000E+00
  0.00000000E+00  0.00000000E+00  0.00000000E+00
  0.00000000E+00  0.00000000E+00  0.00000000E+00
  0.00000000E+00  0.00000000E+00  0.00000000E+00
  0.00000000E+00  0.00000000E+00  0.00000000E+00
  0.00000000E+00  0.00000000E+00  0.00000000E+00
  0.00000000E+00  0.00000000E+00  0.00000000E+00
  0.00000000E+00  0.00000000E+00  0.00000000E+00
  0.00000000E+00  0.00000000E+00  0.00000000E+00
  0.00000000E+00  0.00000000E+00  0.00000000E+00
  0.00000000E+00  0.00000000E+00  0.00000000E+00
  0.00000000E+00  0.00000000E+00  0.00000000E+00
  0.00000000E+00  0.00000000E+00  0.00000000E+00
  0.00000000E+00  0.00000000E+00  0.00000000E+00
  0.00000000E+00  0.00000000E+00  0.00000000E+00
  0.00000000E+00  0.00000000E+00  0.00000000E+00
  0.00000000E+00  0.00000000E+00  0.00000000E+00
  0.00000000E+00  0.00000000E+00  0.00000000E+00
  0.00000000E+00  0.00000000E+00  0.00000000E+00
  0.00000000E+00  0.00000000E+00  0.00000000E+00
  0.00000000E+00  0.00000000E+00  0.00000000E+00
  0.00000000E+00  0.00000000E+00  0.00000000E+00
  0.00000000E+00  0.00000000E+00  0.00000000E+00
  0.00000000E+00  0.00000000E+00  0.00000000E+00
  0.00000000E+00  0.00000000E+00  0.00000000E+00
  0.00000000E+00  0.00000000E+00  0.00000000E+00
  0.00000000E+00  0.00000000E+00  0.00000000E+00
  0.00000000E+00  0.00000000E+00  0.00000000E+00
  0.00000000E+00  0.00000000E+00  0.00000000E+00
  0.00000000E+00  0.00000000E+00  0.00000000E+00
  0.00000000E+00  0.00000000E+00  0.00000000E+00
  0.00000000E+00  0.00000000E+00  0.00000000E+00
  0.00000000E+00  0.00000000E+00  0.00000000E+00
  0.00000000E+00  0.00000000E+00  0.00000000E+00
  0.00000000E+00  0.00000000E+00  0.00000000E+00
  0.00000000E+00  0.00000000E+00  0.00000000E+00
  0.00000000E+00  0.00000000E+00  0.00000000E+00
  0.00000000E+00  0.00000000E+00  0.00000000E+00
  0.00000000E+00  0.00000000E+00  0.00000000E+00
  0.00000000E+00  0.00000000E+00  0.00000000E+00
  0.00000000E+00  0.00000000E+00  0.00000000E+00
  0.00000000E+00  0.00000000E+00  0.00000000E+00
  0.00000000E+00  0.00000000E+00  0.00000000E+00
  0.00000000E+00  0.00000000E+00  0.00000000E+00
  0.00000000E+00  0.00000000E+00  0.00000000E+00
  0.00000000E+00  0.00000000E+00  0.00000000E+00
  0.00000000E+00  0.00000000E+00  0.00000000E+00
  0.00000000E+00  0.00000000E+00  0.00000000E+00
  0.00000000E+00  0.00000000E+00  0.00000000E+00
  0.00000000E+00  0.00000000E+00  0.00000000E+00
  0.00000000E+00  0.00000000E+00  0.00000000E+00
  0.00000000E+00  0.00000000E+00  0.00000000E+00
  0.00000000E+00  0.00000000E+00  0.00000000E+00
  0.00000000E+00  0.00000000E+00  0.00000000E+00
  0.00000000E+00  0.00000000E+00  0.00000000E+00
  0.00000000E+00  0.00000000E+00  0.00000000E+00
  0.00000000E+00  0.00000000E+00  0.00000000E+00
  0.00000000E+00  0.00000000E+00  0.00000000E+00
  0.00000000E+00  0.00000000E+00  0.00000000E+00
  0.00000000E+00  0.00000000E+00  0.00000000E+00
  0.00000000E+00  0.00000000E+00  0.00000000E+00
  0.00000000E+00  0.00000000E+00  0.00000000E+00
  0.00000000E+00  0.00000000E+00  0.00000000E+00
  0.00000000E+00  0.00000000E+00  0.00000000E+00
  0.00000000E+00  0.00000000E+00  0.00000000E+00
  0.00000000E+00  0.00000000E+00  0.00000000E+00
  0.00000000E+00  0.00000000E+00  0.00000000E+00
  0.00000000E+00  0.00000000E+00  0.00000000E+00
  0.00000000E+00  0.00000000E+00  0.00000000E+00
  0.00000000E+00  0.00000000E+00  0.00000000E+00
  0.00000000E+00  0.00000000E+00  0.00000000E+00
  0.00000000E+00  0.00000000E+00  0.00000000E+00
  0.00000000E+00  0.00000000E+00  0.00000000E+00
  0.00000000E+00  0.00000000E+00  0.00000000E+00
  0.00000000E+00  0.00000000E+00  0.00000000E+00
  0.00000000E+00  0.00000000E+00  0.00000000E+00
  0.00000000E+00  0.00000000E+00  0.00000000E+00
  0.00000000E+00  0.00000000E+00  0.00000000E+00
  0.00000000E+00  0.00000000E+00  0.00000000E+00
  0.00000000E+00  0.00000000E+00  0.00000000E+00
  0.00000000E+00  0.00000000E+00  0.00000000E+00
  0.00000000E+00  0.00000000E+00  0.00000000E+00
  0.00000000E+00  0.00000000E+00  0.00000000E+00
  0.00000000E+00  0.00000000E+00  0.00000000E+00
  0.00000000E+00  0.00000000E+00  0.00000000E+00
  0.00000000E+00  0.00000000E+00  0.00000000E+00
  0.00000000E+00  0.00000000E+00  0.00000000E+00
  0.00000000E+00  0.00000000E+00  0.00000000E+00
  0.00000000E+00  0.00000000E+00  0.00000000E+00
  0.00000000E+00  0.00000000E+00  0.00000000E+00
  0.00000000E+00  0.00000000E+00  0.00000000E+00
  0.00000000E+00  0.00000000E+00  0.00000000E+00
  0.00000000E+00  0.00000000E+00  0.00000000E+00
  0.00000000E+00  0.00000000E+00  0.00000000E+00
  0.00000000E+00  0.00000000E+00  0.00000000E+00
  0.00000000E+00  0.00000000E+00  0.00000000E+00
  0.00000000E+00  0.00000000E+00  0.00000000E+00
  0.00000000E+00  0.00000000E+00  0.00000000E+00
  0.00000000E+00  0.00000000E+00  0.00000000E+00
  0.00000000E+00  0.00000000E+00  0.00000000E+00
  0.00000000E+00  0.00000000E+00  0.00000000E+00
  0.00000000E+00  0.00000000E+00  0.00000000E+00
  0.00000000E+00  0.00000000E+00  0.00000000E+00
  0.00000000E+00  0.00000000E+00  0.00000000E+00
  0.00000000E+00  0.00000000E+00  0.00000000E+00
  0.00000000E+00  0.00000000E+00  0.00000000E+00
  0.00000000E+00  0.00000000E+00  0.00000000E+00
  0.00000000E+00  0.00000000E+00  0.00000000E+00
  0.00000000E+00  0.00000000E+00  0.00000000E+00
  0.00000000E+00  0.00000000E+00  0.00000000E+00
  0.00000000E+00  0.00000000E+00  0.00000000E+00
  0.00000000E+00  0.00000000E+00  0.00000000E+00
  0.00000000E+00  0.00000000E+00  0.00000000E+00
  0.00000000E+00  0.00000000E+00  0.00000000E+00
  0.00000000E+00  0.00000000E+00  0.00000000E+00
  0.00000000E+00  0.00000000E+00  0.00000000E+00
  0.00000000E+00  0.00000000E+00  0.00000000E+00
  0.00000000E+00  0.00000000E+00  0.00000000E+00
  0.00000000E+00  0.00000000E+00  0.00000000E+00
  0.00000000E+00  0.00000000E+00  0.00000000E+00
  0.00000000E+00  0.00000000E+00  0.00000000E+00
  0.00000000E+00  0.00000000E+00  0.00000000E+00
  0.00000000E+00  0.00000000E+00  0.00000000E+00
  0.00000000E+00  0.00000000E+00  0.00000000E+00
  0.00000000E+00  0.00000000E+00  0.00000000E+00
  0.00000000E+00  0.00000000E+00  0.00000000E+00
  0.00000000E+00  0.00000000E+00  0.00000000E+00
  0.00000000E+00  0.00000000E+00  0.00000000E+00
  0.00000000E+00  0.00000000E+00  0.00000000E+00
  0.00000000E+00  0.00000000E+00  0.00000000E+00
  0.00000000E+00  0.00000000E+00  0.00000000E+00
  0.00000000E+00  0.00000000E+00  0.00000000E+00
  0.00000000E+00  0.00000000E+00  0.00000000E+00
  0.00000000E+00  0.00000000E+00  0.00000000E+00
  0.00000000E+00  0.00000000E+00  0.00000000E+00
  0.00000000E+00  0.00000000E+00  0.00000000E+00
  0.00000000E+00  0.00000000E+00  0.00000000E+00
  0.00000000E+00  0.00000000E+00  0.00000000E+00
  0.00000000E+00  0.00000000E+00  0.00000000E+00
  0.00000000E+00  0.00000000E+00  0.00000000E+00
  0.00000000E+00  0.00000000E+00  0.00000000E+00
  0.00000000E+00  0.00000000E+00  0.00000000E+00
  0.00000000E+00  0.00000000E+00  0.00000000E+00
  0.00000000E+00  0.00000000E+00  0.00000000E+00
  0.00000000E+00  0.00000000E+00  0.00000000E+00
  0.00000000E+00  0.00000000E+00  0.00000000E+00
  0.00000000E+00  0.00000000E+00  0.00000000E+00
  0.00000000E+00  0.00000000E+00  0.00000000E+00
  0.00000000E+00  0.00000000E+00  0.00000000E+00
  0.00000000E+00  0.00000000E+00  0.00000000E+00
  0.00000000E+00  0.00000000E+00  0.00000000E+00
  0.00000000E+00  0.00000000E+00  0.00000000E+00
  0.00000000E+00  0.00000000E+00  0.00000000E+00
  0.00000000E+00  0.00000000E+00  0.00000000E+00
  0.00000000E+00  0.00000000E+00  0.00000000E+00
  0.00000000E+00  0.00000000E+00  0.00000000E+00
  0.00000000E+00  0.00000000E+00  0.00000000E+00
  0.00000000E+00  0.00000000E+00  0.00000000E+00
  0.00000000E+00  0.00000000E+00  0.00000000E+00
  0.00000000E+00  0.00000000E+00  0.00000000E+00
  0.00000000E+00  0.00000000E+00  0.00000000E+00
  0.00000000E+00  0.00000000E+00  0.00000000E+00
  0.00000000E+00  0.00000000E+00  0.00000000E+00
  0.00000000E+00  0.00000000E+00  0.00000000E+00
  0.00000000E+00  0.00000000E+00  0.00000000E+00
  0.00000000E+00  0.00000000E+00  0.00000000E+00
  0.00000000E+00  0.00000000E+00  0.00000000E+00
  0.00000000E+00  0.00000000E+00  0.00000000E+00
  0.00000000E+00  0.00000000E+00  0.00000000E+00
  0.00000000E+00  0.00000000E+00  0.00000000E+00
  0.00000000E+00  0.00000000E+00  0.00000000E+00
  0.00000000E+00  0.00000000E+00  0.00000000E+00
  0.00000000E+00  0.00000000E+00  0.00000000E+00
  0.00000000E+00  0.00000000E+00  0.00000000E+00
  0.00000000E+00  0.00000000E+00  0.00000000E+00
  0.00000000E+00  0.00000000E+00  0.00000000E+00
  0.00000000E+00  0.00000000E+00  0.00000000E+00
  0.00000000E+00  0.00000000E+00  0.00000000E+00
  0.00000000E+00  0.00000000E+00  0.00000000E+00
  0.00000000E+00  0.00000000E+00  0.00000000E+00
  0.00000000E+00  0.00000000E+00  0.00000000E+00
  0.00000000E+00  0.00000000E+00  0.00000000E+00
  0.00000000E+00  0.00000000E+00  0.00000000E+00
  0.00000000E+00  0.00000000E+00  0.00000000E+00
  0.00000000E+00  0.00000000E+00  0.00000000E+00
  0.00000000E+00  0.00000000E+00  0.00000000E+00
  0.00000000E+00  0.00000000E+00  0.00000000E+00
  0.00000000E+00  0.00000000E+00  0.00000000E+00
  0.00000000E+00  0.00000000E+00  0.00000000E+00
  0.00000000E+00  0.00000000E+00  0.00000000E+00
  0.00000000E+00  0.00000000E+00  0.00000000E+00
  0.00000000E+00  0.00000000E+00  0.00000000E+00
  0.00000000E+00  0.00000000E+00  0.00000000E+00
  0.00000000E+00  0.00000000E+00  0.00000000E+00
  0.00000000E+00  0.00000000E+00  0.00000000E+00
  0.00000000E+00  0.00000000E+00  0.00000000E+00
  0.00000000E+00  0.00000000E+00  0.00000000E+00
  0.00000000E+00  0.00000000E+00  0.00000000E+00
  0.00000000E+00  0.00000000E+00  0.00000000E+00
  0.00000000E+00  0.00000000E+00  0.00000000E+00
  0.00000000E+00  0.00000000E+00  0.00000000E+00
  0.00000000E+00  0.00000000E+00  0.00000000E+00
  0.00000000E+00  0.00000000E+00  0.00000000E+00
  0.00000000E+00  0.00000000E+00  0.00000000E+00
  0.00000000E+00  0.00000000E+00  0.00000000E+00
  0.00000000E+00  0.00000000E+00  0.00000000E+00
  0.00000000E+00  0.00000000E+00  0.00000000E+00
  0.00000000E+00  0.00000000E+00  0.00000000E+00
  0.00000000E+00  0.00000000E+00  0.00000000E+00
  0.00000000E+00  0.00000000E+00  0.00000000E+00
  0.00000000E+00  0.00000000E+00  0.00000000E+00
  0.00000000E+00  0.00000000E+00  0.00000000E+00
  0.00000000E+00  0.00000000E+00  0.00000000E+00
  0.00000000E+00  0.00000000E+00  0.00000000E+00
  0.00000000E+00  0.00000000E+00  0.00000000E+00
  0.00000000E+00  0.00000000E+00  0.00000000E+00
  0.00000000E+00  0.00000000E+00  0.00000000E+00
  0.00000000E+00  0.00000000E+00  0.00000000E+00