GeSe                                    
   1.00000000000000     
    21.4702976715064828    0.0000000000000000    0.0000000000000000
     0.0000000000000000   21.4702976715064828    0.0000000000000000
     0.0000000000000000    0.0000000000000000   21.4702976715064828
   Ge   Se
    75   225
Direct
  0.7691986540729137  0.6185001728503180  0.0922493090915715
  0.2859305877289689  0.5299586326304491  0.7122353494711160
  0.4906809675894050  0.3519708511765148  0.5173521424147964
  0.8535155464779219  0.1054150250343024  0.6772442984246428
 -0.0004911341025662  0.5860236532017457  0.3874394944991023
  0.1622405087375864  0.6002642170214366  0.2396520875606383
  0.1052036823988682  0.2086705484289044  0.2961563457742932
  0.6373432458287545  0.6784452503613091  0.0748672335775019
  0.3359798923624968  0.0563396657434172  0.4442834555838441
  0.2259632832338351  0.1688680851548267  0.6550237826392838
  0.8704401310497668 -0.0082573063143070  0.4399573609975996
  0.6922614692005497  0.6077745500993964  0.7547290878291736
  0.8485764180947022  0.3155544060746877  0.5956176979010421
  0.1814875917602166  0.0500354489236126  0.9258686633695637
  0.6478043332541846 -0.0091567281310261  0.3435246474674306
 -0.0034378253209599  0.6899086346969676  0.2624851149342670
  0.6808134851006594  0.5908583269868573  0.2288164398559862
  0.5723334285638486  0.1219897889595962  0.4341644856164141
  0.1521405359435868  0.7521674657803052  0.0287253929614881
  0.1022914768230474  0.6686943767117337  0.5213403312965686
  0.2971794583509697  0.4765585318346826  0.1878748715407579
  0.4081332599808327  0.7489975394460724  0.1174436160731987
  0.3118222486009804  0.2735791232508402  0.9333021552097952
  0.8582018709251452  0.0662768815800829  0.1477031391952883
  0.5950097374528598  0.3604641702972876  0.2102430192576047
  0.0788026665210253  0.9396351543476711  0.8433869743978830
  0.3708627182761933  0.8079439659411687  0.7943388422501199
  0.6542289810365812  0.0791652369954885  0.1106694904971018
  0.7794778537415900  0.5151858866112564  0.6117740316913854
  0.8595738541683737  0.8155019587394654  0.3846913989205435
  0.1560625312780944  0.4372947126913318  0.7756715528121774
  0.1310547873541523  0.0843159731954011  0.3692531609853724
  0.8009060853734559  0.4628037064918661  0.2892549284192767
  0.1905471313591972  0.3393119011738033  0.3781312683358602
  0.4844389743246623  0.7188005071607954  0.4047560366703849
  0.1995368447271714  0.6701944308642461  0.8960830050032068
  0.4702956081235670  0.3136356375493816  0.7585596685443402
  0.5053992603681272  0.9457888108382108  0.3851724991215867
  0.5917516156795047  0.3942466222506549  0.8434629847521460
  0.9943627693047988  0.3440190055503126  0.9191247372873612
  0.4603451350696597  0.0770430615905979  0.2977827755250788
  0.9797944698275992 -0.0003918497005490  0.5931683944022828
  0.6571455270341451  0.7311047821829658  0.6647644982538289
  0.1093486462826877  0.7965898662885047  0.1698968433497954
  0.1993230575625002  0.7217970688672842  0.3926179348586722
  0.4817038839286034  0.4521753287615199  0.6568361038305874
  0.8842942729581300  0.5583130681814902  0.0434402843026127
  0.9971398949738655  0.3747788957494581  0.6052840153778195
  0.1378549433486825  0.4985546328175948  0.5734781124743721
  0.2727114146352232  0.0742901090703550  0.2847964977724375
  0.0957121339804670  0.5738970659741360  0.9757531474988107
  0.8453074332198601  0.2972266244334472  0.2921859187363513
  0.8124911338976585  0.8204601623610281  0.6281895936240659
  0.5616385166790786  0.2654888450032120 -0.0257194153455348
  0.1238640086471862  0.4036461052334687  0.2172126713188574
  0.0053542318386947  0.8408374972080757  0.3285437096697004
  0.8278917940922867  0.5525817838225778  0.4412492523276214
  0.9513950228021507  0.1644660309250663  0.2615927624778852
  0.9727799282539595  0.9021776656652947  0.9544477920624647
  0.3875328500235503  0.3905125200841895  0.0423821674559777
  0.3293084501662085  0.0247128773336471  0.7989203817733672
  0.2954052245157895  0.8911549816375817  0.3301839361947890
  0.6350924253387691  0.7079171183798471  0.3792218858488414
  0.6669865813810236  0.1782661730238386  0.8554744333570772
  0.3798049118556346  0.9244474785117492  0.1289936828530248
  0.9383895508581965  0.2353749108379635  0.1145595372515271
  0.7543089198024466  0.7953004232888610  0.4867002147539914
  0.0712012243307928  0.8489850918627524  0.5410997640966693
  0.6731329107131232  0.3162007079092130  0.9568496443619686
 -0.0229838546193859  0.1686114005994290  0.9735684861046179
  0.9156247000879074  0.4532042108230017  0.7746238063564077
  0.2782211341838420  0.3165980412476207  0.1503913775143053
  0.3831179938053867  0.6174779011572060  0.3424922299304873
  0.3460258968345632  0.9522541540605659  0.5746454782665567
  0.6943683730118181  0.5894436334750559  0.9584772358396322
  0.5794692549658041  0.7946139281930549  0.3246420612074708
  0.1323614774476510  0.1045932886016989  0.2564389665498209
  0.7243855494174783  0.0960863407801747  0.0222113397455614
  0.0219932847682477  0.0029453813756695  0.9151152050585196
  0.1880254296849679  0.0855717599685403  0.7232506617927594
  0.8147536419897172  0.8503621218396723  0.9175306139396879
  0.0848357349014834  0.7050703573355849  0.7591639353963432
  0.1180715058857420  0.6049485010212704  0.7995916949194302
  0.6708705318432732  0.5464885803503002  0.6623481170576339
  0.2776010058911897  0.9000496213708958  0.6455751469313367
  0.5850494338129509  0.1632038151608709  0.9313734130567581
  0.8284189597542828  0.1297544962381917  0.8473039565225411
  0.7040149503816422  0.4249745576217369  0.3360848115347289
  0.5871883153493707  0.6507252857688756  0.7701766060624204
  0.2519518773485299  0.0932475417854745  0.5720196108763859
  0.5105594312900004  0.3230662327799382  0.8746538017908775
  0.4397449030528610  0.7405965428774275  0.5723741080084745
  0.6262550348061338  0.9030216945296738  0.9476585430709417
  0.6809383816044677  0.0927485262182411  0.6356048685037702
  0.8632992536452709  0.7798195965758989  0.4996425972533887
  0.4428512759560405  0.4339232926921557  0.7695868103048450
  0.4128374122880713  0.1426881178826806  0.8311056822103499
  0.2198479392795911  0.5202916371093380  0.4989020283839660
  0.2908349036980126  0.9529548175857159  0.4777368779768431
  0.0688456312496844  0.3652771437461694  0.7425993959167405
  0.1077207717691006  0.4005205350711935  0.3299762806659488
  0.6574158670092710  0.4249374933647212  0.9260881102531690
  0.3124730886733046  0.7850075580489640  0.3930739813770975
  0.7920338993276178  0.8966733180623327  0.2138515517309545
  0.7567897226021165  0.1636801229308402  0.6680732281918350
  0.9940124395246158  0.5005818246763456  0.0239058189606543
  0.0456069366943880  0.5806580067880232  0.2737433009155112
  0.1197016236129247  0.8534776393520562  0.0570535525663641
  0.9317213194490098  0.1839056904053968  0.6550144438428511
  0.6195893463797906  0.9111297507145002  0.8389137401574094
  0.1707660978426864  0.8217508667177252  0.4768135996665224
  0.2566220427823144  0.7504183303921755  0.9796436744512839
  0.3586865627341780  0.0684572807859864  0.6014112496950629
  0.6346566105698259  0.2025991289242390  0.2260549636987522
  0.6048910582712362  0.7266423595146821  0.4885855065353853
  0.4337334286444619  0.8719368001905090  0.2255578084263801
  0.7024432607465464  0.0526668583218337  0.2113219548584056
  0.9234489063140552  0.5715124765397601  0.5016010644752676
  0.1226969972692038  0.2191375247733103  0.5163927737814960
  0.0722628402958773  0.8324851821067620  0.8834798003773144
  0.6982534169762952  0.6114821031520794  0.3559510401207246
  0.7953900189581150  0.1573897614383200  0.0929310212960723
  0.6021477855990142  0.6990596352890429  0.8684858578931015
  0.9447310509855766  0.6404095120245366  0.1731551270711894
  0.1822388975900484  0.8822701363692572  0.1966365063252786
  0.3066910213266467  0.6975302801112463  0.7385862639753678
  0.4408666155287497  0.6051934420762157  0.6738388069221173
  0.6574996585826881  0.2699988461815171  0.5531082966700701
  0.9381429383371356  0.2485239763881593  0.8977351088277776
  0.3150224950018096  0.8605768994209946  0.2121750359978310
  0.5361466578449025  0.4846012432769741  0.8051525938634327
  0.1448588519963006  0.7808654616094065  0.8109397951761257
  0.3110483473332344  0.1740636454763703  0.8765973139953781
  0.1756125841939493  0.4977480436382189  0.1761639635625310
  0.2065624143127846  0.7240276841728073  0.5165146554222225
  0.2738888375331678  0.6151459081435501  0.3851011842450320
  0.3088577679202675  0.3656835296859683  0.8650840420024404
  0.8008541730762229  0.0632805544881273  0.4945362330215308
  0.2818548473507620  0.3269373206691630  0.6919851775202592
  0.4544153645641809  0.9190158097039888  0.5733669733056515
  0.4662632271184332  0.4523755867867848  0.4725721186105888
  0.5841714064981461  0.6216125819508230  0.9430165459633130
  0.9506785301796241  0.9388227382987475  0.4955763537604563
  0.0258647045810734  0.1000870438639274  0.5510922128264221
  0.4311874316426257  0.6186962468156794  0.4535603408229378
  0.2407896234107952  0.1121867882265111  0.3946100747935103
  0.4390287353736601  0.3481090227513877  0.6168760175031175
  0.3904258231885171  0.7371493249632305  0.3276024026071446
  0.3194439810082744  0.2223324272382939  0.6959826487666214
  0.2175271261829669  0.5670755082918156  0.9616581242250072
  0.8786684959024964  0.7105704926900744  0.1180850259172748
  0.6067102682132084  0.8831268864230811  0.3885681870055648
  0.7705981174909625  0.9476697470549774  0.0500515488337479
  0.8242332155964378  0.4055111692696807  0.7316475250969020
  0.4832938180397429  0.7776102726977612  0.1971100575812298
  0.9467004252478728  0.6887185964931897  0.3628261984796876
  0.6124048178915327  0.0132382463366228  0.9679243690497334
  0.8436390815035498  0.2382694656652824  0.4273945873560949
  0.4546891648130097  0.6540290141711378  0.0762400998695779
  0.0418379410301189  0.9445022759542118  0.2852270937918071
  0.9407946987411556  0.8077031756983042  0.2332662579227673
  0.9303168914929801  0.7195868379626329  0.0211880962339073
  0.0229431276429595  0.7426077550028548  0.5384136546461533
  0.3811829825547735  0.5218031188342752  0.6275514585834167
  0.7169639161575726  0.6907577573487580  0.1709194478513406
  0.6127753278201109  0.0852064982674056  0.7253169197365300
  0.2840673031981559  0.4179038048335063  0.0757827105731289
  0.7031985496600531  0.7078832598075304  0.5380581835889926
  0.8844923402954169  0.6390314701977738  0.9596365108460857
  0.6311765640241133  0.4567802848594469  0.2581301348253116
  0.7654144588476506  0.3377341145624906  0.0241692299648642
  0.4933502671899331  0.1612645170493729  0.3641551125013416
  0.9457611031877606  0.9489985066538572  0.0646125984703144
  0.9367254945972737  0.4363192834038375  0.8859332916855153
  0.2076686622164421  0.2546944121190132  0.3066613071873018
  0.0383437043613019  0.2453006073113310  0.0418382565037289
  0.5247103693906914  0.3066366405932942  0.2800936034408583
  0.3747516894957171  0.0129162870254927  0.3378075195316505
  0.1612902096294463  0.3226815531095371  0.1527329444036287
  0.5744616915985006  0.0103995014429315  0.0705435459708361
  0.8602529788980964  0.0199092683381207  0.6055184224275896
  0.3953309627318602  0.5447969885061901  0.9342945071039956
  0.7988058986385849  0.9170047853813976  0.3961286095418354
  0.7427376789808100  0.0798544385321399  0.3898878769526498
  0.2017944302556818  0.4568642777118979  0.6612320876380776
  0.2341372192986697  0.6271672515941270  0.6821100262143918
  0.6589642984063870  0.5613406551175373  0.0734907135388035
  0.1110022799099445  0.8267766616999195  0.6472538821520386
  0.1896430988175569  0.9686433110747663  0.8472198737740063
  0.0094482192754880  0.5109694947028643  0.1362169863133796
  0.3622852270186167  0.5928996283118850  0.0719317092550848
  0.6744690049520096  0.1637850729283065  0.4022802337821651
  0.1048546547317137  0.3506178238866691  0.8835695510347990
  0.1089411692453399  0.0348296949348625  0.5197701060428613
  0.2824800491598082  0.0643974386076537  0.9774789262580564
  0.4322224322751875  0.0377898189284859  0.8580243346976029
  0.7416441169257960  0.3479573979573116  0.5538664030449716
  0.1793120642414912  0.8877174394083690  0.3076665617142598
  0.7689515234437849  0.3079705566856537  0.3754447607149560
  0.0398220858189820  0.9579557151620453  0.7389436252021766
  0.6114179745897957  0.1906036085051378  0.7555181952390322
  0.8909605139541851  0.6321073776996229  0.5924537577400172
  0.5647105386529268  0.3386309180011852  0.6934912672915339
  0.1430537079347791  0.2394162852396402  0.6235402873317514
  0.8813089475175646  0.9345947082996851  0.8922192789756377
  0.3088558638539368  0.7220707173775214  0.1610295872879943
  0.1090307199382053  0.6191413000437784  0.4225664382587160
  0.3770129823420948  0.0973445256199340  0.7133205657544363
  0.0009464742972390  0.3526142849301834  0.0308186010196980
  0.0817675040778769 -0.0041811794871839  0.4174078843443922
  0.4152480636627218  0.1246262125219399  0.2063376982915017
  0.7377998498750228  0.2609064330153588  0.8801578138141128
  0.9333616636331570  0.9712608992040436  0.2807405802299844
  0.1483089567486973  0.1521195866219025  0.8860836318945238
  0.4398091279148087  0.1926433518305668  0.5264955861921390
  0.5986253172300311  0.3262589561012810  0.4804815133611363
  0.2424032898262209  0.9850176638851039  0.0446208708437324
  0.6839009259618141  0.2938353479993898  0.1896281371195538
  0.7999285756302988  0.5049141802442025  0.9755695014708102
  0.1318585649976241  0.0265092647734204  0.0316701517023760
  0.4405228765604391  0.4027716936335651  0.1419555133108178
  0.4232988016764742  0.4375225942626976  0.9446615834729407
  0.7327204264166604  0.5609003976113756  0.8489952722063783
  0.4543770201558187  0.8320242772749363  0.5062504929260777
  0.7968530182183666  0.7893499021624711  0.8265303068184372
  0.2482936494271623  0.8478999216798583  0.9154435767939123
  0.1307757670091462  0.9296740626053043  0.6829940600655223
  0.8044261370372578  0.6389768341559776  0.3687320639224753
  0.9451560279472472  0.5964448470224492  0.6813222207466841
  0.8642044481411977  0.2068215234330185  0.0132073832534385
  0.8945886400243037  0.7482370134885432  0.7992752650003607
  0.3957012955429540  0.8402317636108355  0.0541082348581911
  0.8094874259995964  0.8655902846936588  0.1033021301014937
  0.2993927677704492  0.5501250503557108  0.8818872838510194
  0.8951500424409397  0.4085611692793838  0.5571465672023862
  0.7022215186201382  0.4282628212940169  0.6292554084732609
  0.2323712862767801  0.5416642099070070  0.3116172219053135
  0.0516095206901771  0.4441096879576136  0.5293122345433414
  0.1271023229463236  0.1282111016676817  0.0613689757300660
  0.7289134627544126  0.8980082637485903  0.5294515018512332
  0.9621490266322259  0.1222047112683240  0.1444721289424819
  0.6957418005471133  0.8395108591732763  0.6925906794057290
  0.5358260511186764 -0.0048416645388462  0.2775481237994378
  0.4837730043738577  0.8166605679308795  0.7769990666282938
  0.7282158197141740  0.0825816213767501  0.8602022078388728
  0.6934759276379507  0.9407286401574106  0.2084150173917954
  0.5430517470348701  0.6499994921642306  0.3328208737510844
  0.1077149536562380  0.1230159474794013  0.7876059172582790
  0.8806874079195233  0.5614917691411357  0.7670450248008630
  0.9305174226278051  0.2744617085744342  0.3642840627876958
  0.7337089382617070  0.6900350276995698  0.0006670673696335
  0.3225100460396911  0.6102060713128332  0.1740316802935730
  0.8457764627509455  0.2080683712551247  0.2249819509132840
  0.5491994559152258  0.4118602366271757  0.1191997383408115
  0.0469223302566433  0.5580879754731115  0.8717299765343580
  0.3338566686592656  0.1722072779899058  0.2640444115785393
  0.3100065858441994  0.3785325865451135  0.2455369970116021
  0.0105719691367313  0.4532788300941213  0.7062454074123211
  0.5451700273992588  0.1625921411360137  0.5375276958518543
  0.3661472620949543  0.6772637830782657  0.5248406091078378
  0.7357648459939663  0.7852312312529178  0.3764402642152134
  0.2127958809171443  0.2589129259390325 -0.0099990733581927
  0.0897090275826742  0.7580848742187358  0.2827697917723397
  0.8680739538683843  0.0177219459475305  0.0359956322758442
  0.2296825900461800  0.3319955975912055  0.7904910638791661
  0.3962902290468717  0.2819465958038142  0.0075122422670711
  0.3535502233153096  0.8700012926626336  0.8933956920463582
  0.9148849920642156  0.7858947942511990  0.6945786814713513
  0.4665055097299464  0.3972640415789933  0.3054912604847599
  0.0137421828677871  0.4147837629110527  0.1885522546858363
  0.0663830275435596  0.1737307728235288  0.3965894967108539
  0.1641844718572024  0.3557380198104028  0.9774499240753970
  0.7582939318513215  0.4411217422569774  0.0578307878624775
  0.9126989355790105  0.0521412127346553  0.3517973072439259
  0.5819391529355517  0.1612402386154294  0.1384148823980010
  0.3186220799168917  0.9077443948419220  0.7496531990220333
  0.5163096151720250  0.9203971872378959  0.8010897477247122
  0.3877424503909496  0.6283366314023068  0.7672074961793879
  0.8571108746962577  0.3016542897812841  0.7079013636796889
  0.7546171521880786  0.6915004676804409  0.7137237854275453
  0.5280143652076299  0.4522726073717847  0.3805802915588343
  0.1802703936406965  0.3156910674920126  0.4886938169722730
  0.8862024804550487  0.8926767257769801  0.6780637405154258
  0.0050689840911029  0.8278513009155208  0.1432263588522178
  0.0919242491312226  0.6950625514160057  0.9506573771674265
  0.1486533941433326  0.6981259130569752  0.1270054960028311
  0.6490125989362879  0.3367081452568146  0.7670204938205367
  0.5862728163807295  0.0105768266273920  0.4486102045877365
  0.2857144814012013  0.4007455209890621  0.3866720634319019
  0.2776130463248100  0.4253456986138160  0.4957046575611269
  0.8778942385078816  0.0608581919590368  0.7786371790358163
  0.8748092703729454  0.4745418393411460  0.3727924733126938
  0.8467697539440532  0.3841187056508523  0.2229783230732020
  0.0232427723804426  0.2602389133796458  0.2392999933075584
  0.4314190291073109  0.2775212799833648  0.4568460822354152
  0.0999554741002832  0.5996387748440705  0.6100184956201636
  0.8928636813684878  0.2202043489344554  0.5551740263216933
  0.7403609549812094  0.5217590161245295  0.4990809179884243
  0.7897367838064548  0.5503136659427424  0.2205505440127201
  0.6466254412469382  0.8827434594948769  0.6028955617133428
 
  0.00000000E+00  0.00000000E+00  0.00000000E+00
  0.00000000E+00  0.00000000E+00  0.00000000E+00
  0.00000000E+00  0.00000000E+00  0.00000000E+00
  0.00000000E+00  0.00000000E+00  0.00000000E+00
  0.00000000E+00  0.00000000E+00  0.00000000E+00
  0.00000000E+00  0.00000000E+00  0.00000000E+00
  0.00000000E+00  0.00000000E+00  0.00000000E+00
  0.00000000E+00  0.00000000E+00  0.00000000E+00
  0.00000000E+00  0.00000000E+00  0.00000000E+00
  0.00000000E+00  0.00000000E+00  0.00000000E+00
  0.00000000E+00  0.00000000E+00  0.00000000E+00
  0.00000000E+00  0.00000000E+00  0.00000000E+00
  0.00000000E+00  0.00000000E+00  0.00000000E+00
  0.00000000E+00  0.00000000E+00  0.00000000E+00
  0.00000000E+00  0.00000000E+00  0.00000000E+00
  0.00000000E+00  0.00000000E+00  0.00000000E+00
  0.00000000E+00  0.00000000E+00  0.00000000E+00
  0.00000000E+00  0.00000000E+00  0.00000000E+00
  0.00000000E+00  0.00000000E+00  0.00000000E+00
  0.00000000E+00  0.00000000E+00  0.00000000E+00
  0.00000000E+00  0.00000000E+00  0.00000000E+00
  0.00000000E+00  0.00000000E+00  0.00000000E+00
  0.00000000E+00  0.00000000E+00  0.00000000E+00
  0.00000000E+00  0.00000000E+00  0.00000000E+00
  0.00000000E+00  0.00000000E+00  0.00000000E+00
  0.00000000E+00  0.00000000E+00  0.00000000E+00
  0.00000000E+00  0.00000000E+00  0.00000000E+00
  0.00000000E+00  0.00000000E+00  0.00000000E+00
  0.00000000E+00  0.00000000E+00  0.00000000E+00
  0.00000000E+00  0.00000000E+00  0.00000000E+00
  0.00000000E+00  0.00000000E+00  0.00000000E+00
  0.00000000E+00  0.00000000E+00  0.00000000E+00
  0.00000000E+00  0.00000000E+00  0.00000000E+00
  0.00000000E+00  0.00000000E+00  0.00000000E+00
  0.00000000E+00  0.00000000E+00  0.00000000E+00
  0.00000000E+00  0.00000000E+00  0.00000000E+00
  0.00000000E+00  0.00000000E+00  0.00000000E+00
  0.00000000E+00  0.00000000E+00  0.00000000E+00
  0.00000000E+00  0.00000000E+00  0.00000000E+00
  0.00000000E+00  0.00000000E+00  0.00000000E+00
  0.00000000E+00  0.00000000E+00  0.00000000E+00
  0.00000000E+00  0.00000000E+00  0.00000000E+00
  0.00000000E+00  0.00000000E+00  0.00000000E+00
  0.00000000E+00  0.00000000E+00  0.00000000E+00
  0.00000000E+00  0.00000000E+00  0.00000000E+00
  0.00000000E+00  0.00000000E+00  0.00000000E+00
  0.00000000E+00  0.00000000E+00  0.00000000E+00
  0.00000000E+00  0.00000000E+00  0.00000000E+00
  0.00000000E+00  0.00000000E+00  0.00000000E+00
  0.00000000E+00  0.00000000E+00  0.00000000E+00
  0.00000000E+00  0.00000000E+00  0.00000000E+00
  0.00000000E+00  0.00000000E+00  0.00000000E+00
  0.00000000E+00  0.00000000E+00  0.00000000E+00
  0.00000000E+00  0.00000000E+00  0.00000000E+00
  0.00000000E+00  0.00000000E+00  0.00000000E+00
  0.00000000E+00  0.00000000E+00  0.00000000E+00
  0.00000000E+00  0.00000000E+00  0.00000000E+00
  0.00000000E+00  0.00000000E+00  0.00000000E+00
  0.00000000E+00  0.00000000E+00  0.00000000E+00
  0.00000000E+00  0.00000000E+00  0.00000000E+00
  0.00000000E+00  0.00000000E+00  0.00000000E+00
  0.00000000E+00  0.00000000E+00  0.00000000E+00
  0.00000000E+00  0.00000000E+00  0.00000000E+00
  0.00000000E+00  0.00000000E+00  0.00000000E+00
  0.00000000E+00  0.00000000E+00  0.00000000E+00
  0.00000000E+00  0.00000000E+00  0.00000000E+00
  0.00000000E+00  0.00000000E+00  0.00000000E+00
  0.00000000E+00  0.00000000E+00  0.00000000E+00
  0.00000000E+00  0.00000000E+00  0.00000000E+00
  0.00000000E+00  0.00000000E+00  0.00000000E+00
  0.00000000E+00  0.00000000E+00  0.00000000E+00
  0.00000000E+00  0.00000000E+00  0.00000000E+00
  0.00000000E+00  0.00000000E+00  0.00000000E+00
  0.00000000E+00  0.00000000E+00  0.00000000E+00
  0.00000000E+00  0.00000000E+00  0.00000000E+00
  0.00000000E+00  0.00000000E+00  0.00000000E+00
  0.00000000E+00  0.00000000E+00  0.00000000E+00
  0.00000000E+00  0.00000000E+00  0.00000000E+00
  0.00000000E+00  0.00000000E+00  0.00000000E+00
  0.00000000E+00  0.00000000E+00  0.00000000E+00
  0.00000000E+00  0.00000000E+00  0.00000000E+00
  0.00000000E+00  0.00000000E+00  0.00000000E+00
  0.00000000E+00  0.00000000E+00  0.00000000E+00
  0.00000000E+00  0.00000000E+00  0.00000000E+00
  0.00000000E+00  0.00000000E+00  0.00000000E+00
  0.00000000E+00  0.00000000E+00  0.00000000E+00
  0.00000000E+00  0.00000000E+00  0.00000000E+00
  0.00000000E+00  0.00000000E+00  0.00000000E+00
  0.00000000E+00  0.00000000E+00  0.00000000E+00
  0.00000000E+00  0.00000000E+00  0.00000000E+00
  0.00000000E+00  0.00000000E+00  0.00000000E+00
  0.00000000E+00  0.00000000E+00  0.00000000E+00
  0.00000000E+00  0.00000000E+00  0.00000000E+00
  0.00000000E+00  0.00000000E+00  0.00000000E+00
  0.00000000E+00  0.00000000E+00  0.00000000E+00
  0.00000000E+00  0.00000000E+00  0.00000000E+00
  0.00000000E+00  0.00000000E+00  0.00000000E+00
  0.00000000E+00  0.00000000E+00  0.00000000E+00
  0.00000000E+00  0.00000000E+00  0.00000000E+00
  0.00000000E+00  0.00000000E+00  0.00000000E+00
  0.00000000E+00  0.00000000E+00  0.00000000E+00
  0.00000000E+00  0.00000000E+00  0.00000000E+00
  0.00000000E+00  0.00000000E+00  0.00000000E+00
  0.00000000E+00  0.00000000E+00  0.00000000E+00
  0.00000000E+00  0.00000000E+00  0.00000000E+00
  0.00000000E+00  0.00000000E+00  0.00000000E+00
  0.00000000E+00  0.00000000E+00  0.00000000E+00
  0.00000000E+00  0.00000000E+00  0.00000000E+00
  0.00000000E+00  0.00000000E+00  0.00000000E+00
  0.00000000E+00  0.00000000E+00  0.00000000E+00
  0.00000000E+00  0.00000000E+00  0.00000000E+00
  0.00000000E+00  0.00000000E+00  0.00000000E+00
  0.00000000E+00  0.00000000E+00  0.00000000E+00
  0.00000000E+00  0.00000000E+00  0.00000000E+00
  0.00000000E+00  0.00000000E+00  0.00000000E+00
  0.00000000E+00  0.00000000E+00  0.00000000E+00
  0.00000000E+00  0.00000000E+00  0.00000000E+00
  0.00000000E+00  0.00000000E+00  0.00000000E+00
  0.00000000E+00  0.00000000E+00  0.00000000E+00
  0.00000000E+00  0.00000000E+00  0.00000000E+00
  0.00000000E+00  0.00000000E+00  0.00000000E+00
  0.00000000E+00  0.00000000E+00  0.00000000E+00
  0.00000000E+00  0.00000000E+00  0.00000000E+00
  0.00000000E+00  0.00000000E+00  0.00000000E+00
  0.00000000E+00  0.00000000E+00  0.00000000E+00
  0.00000000E+00  0.00000000E+00  0.00000000E+00
  0.00000000E+00  0.00000000E+00  0.00000000E+00
  0.00000000E+00  0.00000000E+00  0.00000000E+00
  0.00000000E+00  0.00000000E+00  0.00000000E+00
  0.00000000E+00  0.00000000E+00  0.00000000E+00
  0.00000000E+00  0.00000000E+00  0.00000000E+00
  0.00000000E+00  0.00000000E+00  0.00000000E+00
  0.00000000E+00  0.00000000E+00  0.00000000E+00
  0.00000000E+00  0.00000000E+00  0.00000000E+00
  0.00000000E+00  0.00000000E+00  0.00000000E+00
  0.00000000E+00  0.00000000E+00  0.00000000E+00
  0.00000000E+00  0.00000000E+00  0.00000000E+00
  0.00000000E+00  0.00000000E+00  0.00000000E+00
  0.00000000E+00  0.00000000E+00  0.00000000E+00
  0.00000000E+00  0.00000000E+00  0.00000000E+00
  0.00000000E+00  0.00000000E+00  0.00000000E+00
  0.00000000E+00  0.00000000E+00  0.00000000E+00
  0.00000000E+00  0.00000000E+00  0.00000000E+00
  0.00000000E+00  0.00000000E+00  0.00000000E+00
  0.00000000E+00  0.00000000E+00  0.00000000E+00
  0.00000000E+00  0.00000000E+00  0.00000000E+00
  0.00000000E+00  0.00000000E+00  0.00000000E+00
  0.00000000E+00  0.00000000E+00  0.00000000E+00
  0.00000000E+00  0.00000000E+00  0.00000000E+00
  0.00000000E+00  0.00000000E+00  0.00000000E+00
  0.00000000E+00  0.00000000E+00  0.00000000E+00
  0.00000000E+00  0.00000000E+00  0.00000000E+00
  0.00000000E+00  0.00000000E+00  0.00000000E+00
  0.00000000E+00  0.00000000E+00  0.00000000E+00
  0.00000000E+00  0.00000000E+00  0.00000000E+00
  0.00000000E+00  0.00000000E+00  0.00000000E+00
  0.00000000E+00  0.00000000E+00  0.00000000E+00
  0.00000000E+00  0.00000000E+00  0.00000000E+00
  0.00000000E+00  0.00000000E+00  0.00000000E+00
  0.00000000E+00  0.00000000E+00  0.00000000E+00
  0.00000000E+00  0.00000000E+00  0.00000000E+00
  0.00000000E+00  0.00000000E+00  0.00000000E+00
  0.00000000E+00  0.00000000E+00  0.00000000E+00
  0.00000000E+00  0.00000000E+00  0.00000000E+00
  0.00000000E+00  0.00000000E+00  0.00000000E+00
  0.00000000E+00  0.00000000E+00  0.00000000E+00
  0.00000000E+00  0.00000000E+00  0.00000000E+00
  0.00000000E+00  0.00000000E+00  0.00000000E+00
  0.00000000E+00  0.00000000E+00  0.00000000E+00
  0.00000000E+00  0.00000000E+00  0.00000000E+00
  0.00000000E+00  0.00000000E+00  0.00000000E+00
  0.00000000E+00  0.00000000E+00  0.00000000E+00
  0.00000000E+00  0.00000000E+00  0.00000000E+00
  0.00000000E+00  0.00000000E+00  0.00000000E+00
  0.00000000E+00  0.00000000E+00  0.00000000E+00
  0.00000000E+00  0.00000000E+00  0.00000000E+00
  0.00000000E+00  0.00000000E+00  0.00000000E+00
  0.00000000E+00  0.00000000E+00  0.00000000E+00
  0.00000000E+00  0.00000000E+00  0.00000000E+00
  0.00000000E+00  0.00000000E+00  0.00000000E+00
  0.00000000E+00  0.00000000E+00  0.00000000E+00
  0.00000000E+00  0.00000000E+00  0.00000000E+00
  0.00000000E+00  0.00000000E+00  0.00000000E+00
  0.00000000E+00  0.00000000E+00  0.00000000E+00
  0.00000000E+00  0.00000000E+00  0.00000000E+00
  0.00000000E+00  0.00000000E+00  0.00000000E+00
  0.00000000E+00  0.00000000E+00  0.00000000E+00
  0.00000000E+00  0.00000000E+00  0.00000000E+00
  0.00000000E+00  0.00000000E+00  0.00000000E+00
  0.00000000E+00  0.00000000E+00  0.00000000E+00
  0.00000000E+00  0.00000000E+00  0.00000000E+00
  0.00000000E+00  0.00000000E+00  0.00000000E+00
  0.00000000E+00  0.00000000E+00  0.00000000E+00
  0.00000000E+00  0.00000000E+00  0.00000000E+00
  0.00000000E+00  0.00000000E+00  0.00000000E+00
  0.00000000E+00  0.00000000E+00  0.00000000E+00
  0.00000000E+00  0.00000000E+00  0.00000000E+00
  0.00000000E+00  0.00000000E+00  0.00000000E+00
  0.00000000E+00  0.00000000E+00  0.00000000E+00
  0.00000000E+00  0.00000000E+00  0.00000000E+00
  0.00000000E+00  0.00000000E+00  0.00000000E+00
  0.00000000E+00  0.00000000E+00  0.00000000E+00
  0.00000000E+00  0.00000000E+00  0.00000000E+00
  0.00000000E+00  0.00000000E+00  0.00000000E+00
  0.00000000E+00  0.00000000E+00  0.00000000E+00
  0.00000000E+00  0.00000000E+00  0.00000000E+00
  0.00000000E+00  0.00000000E+00  0.00000000E+00
  0.00000000E+00  0.00000000E+00  0.00000000E+00
  0.00000000E+00  0.00000000E+00  0.00000000E+00
  0.00000000E+00  0.00000000E+00  0.00000000E+00
  0.00000000E+00  0.00000000E+00  0.00000000E+00
  0.00000000E+00  0.00000000E+00  0.00000000E+00
  0.00000000E+00  0.00000000E+00  0.00000000E+00
  0.00000000E+00  0.00000000E+00  0.00000000E+00
  0.00000000E+00  0.00000000E+00  0.00000000E+00
  0.00000000E+00  0.00000000E+00  0.00000000E+00
  0.00000000E+00  0.00000000E+00  0.00000000E+00
  0.00000000E+00  0.00000000E+00  0.00000000E+00
  0.00000000E+00  0.00000000E+00  0.00000000E+00
  0.00000000E+00  0.00000000E+00  0.00000000E+00
  0.00000000E+00  0.00000000E+00  0.00000000E+00
  0.00000000E+00  0.00000000E+00  0.00000000E+00
  0.00000000E+00  0.00000000E+00  0.00000000E+00
  0.00000000E+00  0.00000000E+00  0.00000000E+00
  0.00000000E+00  0.00000000E+00  0.00000000E+00
  0.00000000E+00  0.00000000E+00  0.00000000E+00
  0.00000000E+00  0.00000000E+00  0.00000000E+00
  0.00000000E+00  0.00000000E+00  0.00000000E+00
  0.00000000E+00  0.00000000E+00  0.00000000E+00
  0.00000000E+00  0.00000000E+00  0.00000000E+00
  0.00000000E+00  0.00000000E+00  0.00000000E+00
  0.00000000E+00  0.00000000E+00  0.00000000E+00