Amorphous Sb2Se3                        
   1.02000000000000     
    21.5867606951059798    0.0000000000000000    0.0000000000000000
     0.0000000000000000   21.5867606951059798    0.0000000000000000
     0.0000000000000000    0.0000000000000000   21.5867606951059798
   Sb   Se
   120   180
Direct
  0.1310000821484999  0.6264705743058538  0.2080138636020268
  0.6660977899402181  0.2589513661704697  0.7457887744789814
  0.3603586122977116  0.1638926923347761  0.2149128290686086
  0.2763525388620551  0.2611560702661769  0.3549775539060353
  0.5499501264604340  0.3397559327835871  0.2655448835857033
  0.8307213048616827  0.8491164466898821  0.1462899088627987
  0.6523042189106351  0.5332372202315853  0.0573619279555631
  0.2354071122211030  0.8625550396173234  0.2173400878703251
  0.2106989765493552  0.4379041994382079  0.7881338327709402
  0.3947375063236869  0.8413296663862820  0.1913017868568817
  0.8029047710737236  0.5949612633573039  0.4745273482545666
  0.7658687466566223  0.9375628617077481  0.7502948715553950
  0.7599302985251641  0.1278958325100132  0.0749778826452361
  0.3244704786274734  0.1429825899008996  0.3983758561643806
  0.3575410454642660  0.9385847705451880  0.8955111167419763
  0.6450890856259105  0.0959379285114491  0.5842914208093427
  0.1270947085022834  0.0388485833067947  0.9310068391782063
  0.9102253876495876  0.9264183173804189  0.9928943471516477
  0.9629930115919308  0.6589506012543612  0.5446308649989829
  0.3560147944297833  0.2114384277654169  0.8377474733785701
  0.3964023049084365  0.4838318333054887  0.0785844449326905
  0.3583913909425501  0.7288675084183008  0.8400146609547299
 -0.0033458221967191  0.6125521226130555  0.0796696553549144
  0.4928622600270463  0.6123400747793906  0.4916031478915291
  0.8991988195967500  0.4722839025600415  0.0142587364994935
  0.8166267210896416  0.4425238189573786  0.2135356788706702
  0.5997131619134531  0.6082083657067617  0.6319868193008116
  0.1932370572001038  0.4248500110362708  0.1139798588783305
  0.4450361033440079  0.6534705252626102  0.0224583611392625
  0.7379963371767982  0.2598803844299608  0.5810761167666961
  0.0375161339650199  0.8994310345944508  0.8536194108980796
  0.4784476441147457  0.4025149971965996  0.9364943132412104
  0.2647526342761088  0.9726324886883116  0.5744833325913127
  0.3882907947517559  0.9756671507024108  0.1751510875378487
  0.9911550678517052  0.0234388091991414  0.7317259672425730
  0.2981691410391726  0.5723005990713075  0.6413915380674676
  0.4554983815438252  0.0418316958802037  0.7783345511587095
  0.3321741952583549  0.5341023584160800  0.8660996317426248
  0.4642859471536621  0.7140487703403533  0.3335213387985443
  0.1686458729434168  0.7362786233653675  0.5178186088612613
  0.7198598839484159  0.8255760168171917  0.9829485841888020
  0.5931063905160674  0.5755900712917786  0.3448203078711938
  0.6484056006474466  0.8900328345183879  0.1297580278786277
  0.5348802957737621  0.2477500383177852  0.8822035251383312
  0.3517629781377278  0.0129962139843108  0.6950712697298991
  0.6559024161907825  0.6045447353626218  0.1712430235438090
  0.2851967955215373  0.1488284922804589  0.5912488220800431
  0.4272131041658292  0.2044129430908745  0.0286223093973370
  0.0820528603279777  0.9652229050454314  0.2685749753616225
  0.2193605594862837  0.6314648238861409  0.3623420730719096
  0.7811163352549952  0.7483976039297483  0.3559667858735168
  0.8684800613850784  0.4536357010144664  0.3873008412106827
  0.2864785387437206  0.8588668203250077  0.7412219497078787
  0.2925966501319322  0.3220705038320453  0.9945779056909586
  0.6988583684900723  0.3214893528195802  0.9197446190964678
  0.4260135935156485  0.6021971569419643  0.6800458391063373
  0.3980713625082674  0.3165477362784280  0.1659036067232690
  0.7954900455239915  0.3033986225473193  0.1236310366986599
  0.1843364251355618  0.2293954694567451  0.1036595572102436
  0.1591845842198841  0.0297625053502241  0.4711008777968509
  0.5500664518171176  0.7830215123240553  0.4959273398397712
  0.2306970072467398  0.2343453277035810  0.7488611719056621
  0.7798689027519811  0.9272708260524994  0.4630723724268481
  0.6905431144716528  0.7557211209241739  0.7703482262832404
  0.8595561057552756  0.5831995846489916  0.8736346577668793
  0.9869829923107392  0.3924734961870125  0.9519670057505030
  0.9289324905899009  0.3251589266398517  0.5546533164857280
  0.2330359911237656  0.0455803159959212  0.2729387785290056
  0.8964084283092183  0.4475052549382798  0.6498631048068197
  0.1399088391218917  0.9542533224511065  0.6692075872890905
  0.5828248046744831  0.4673963475228801  0.5064758161752445
  0.7508401844887063  0.2320830617917560  0.3008027220576697
  0.6312034871839478  0.4449598643407239  0.7165568933312699
  0.6244751503934568  0.0233694320255637  0.8229428996871588
  0.9381112168274214  0.7555787274754434  0.2473535208464768
  0.0256511735086907  0.2036483116438117  0.4810564853921505
  0.9072168834041856  0.1657486393628560  0.2452563661640839
  0.5646377075971890  0.9180508673434552  0.6671002547601486
  0.8411198620728472  0.0757983516133145  0.8933520773382646
  0.1307890112640515  0.3810874564162825  0.4557336200237328
  0.4936708695204015  0.2044745160688248  0.7003655581045771
  0.6217402153602757  0.3682534029850374  0.1016491984967628
  0.5928751063583054  0.1276659865370342  0.4245033926086820
  0.3314934036198356  0.3044873289394807  0.6853878408334541
  0.4469470907274207  0.2828122940338063  0.4164589318386772
  0.8987150930316982  0.1241797552860317  0.6190985551830254
  0.8198287510960429  0.3792285088997354  0.8181395625954422
  0.7340943908507380  0.8429977205844722  0.6084511426504879
  0.8745139511535942  0.9661794535556741  0.3765133076885203
  0.1648315069774122  0.6463165648078844  0.7870787160186924
  0.4951164006256523  0.8311385305784881  0.9788885414448552
  0.4096320370836177  0.9779327718875831  0.0431709876518430
  0.7996926675674059  0.5222860251076364  0.7045384691977821
  0.2882361549703570  0.9227802670026500  0.4514059789591314
  0.0011296162013233  0.7141489046352992  0.8874284893031502
  0.5809931663947608  0.1333694556174946  0.1207912962705365
  0.5900660684450110  0.2736614137816952  0.5274179106889647
  0.9104140146817623  0.0507107696765175  0.1311642332150459
  0.4630832751784493  0.9424866141216662  0.4890469302795135
  0.1497019383838390  0.7232106426337429  0.0263686191896538
  0.1634264424683066  0.5306318422329117  0.5165843755125910
  0.8759748737577497  0.2646787546129840  0.9517032631784806
  0.3246515816109529  0.4371904021120506  0.5383035440850834
  0.7026745569446750  0.6296496993852753  0.9146924584501964
  0.8960075399310957  0.8037828823451103  0.4593887519174097
  0.9876591613835763  0.9894026163415922  0.5105537300811589
 -0.0057696115285236  0.6278329616445802  0.7279888854484933
  0.5737350446998633  0.6671449951885015  0.9244555772656804
  0.5108713088078348  0.4630883312122173  0.2298226502227599
  0.3228224651368727  0.7589351767305370  0.4509929341099584
  0.6891837880596141  0.3812803536188179  0.3775838496296432
  0.0289299531474377  0.2983358664311818  0.2305475949923350
  0.5732384093659968  0.0948629888876056  0.9917957432132195
  0.1099698747884025  0.2024814493109001  0.9294273891479797
  0.0569240856903543  0.2037948850410307  0.6714967138622703
  0.1231652741850821  0.4463822585930913  0.2931687803688303
  0.6476239754086174  0.8493490071798774  0.2926583978587341
  0.5484591766588620  0.0669124787948183  0.2685830536023346
  0.4549865432363165  0.4795119533348897  0.7136146126190837
  0.1466735330328683  0.1051281643803915  0.7820053394089369
  0.6995715679861551  0.7430544293767113  0.2706725454617257
  0.1115481193997199  0.6013912378236620  0.3244247837115355
  0.3619544950650981  0.0483821058793971  0.5747543079702693
  0.1264993924613530  0.3259416345142429  0.2921802734094338
  0.0711001730651516  0.2669012670159919  0.5709814188553651
  0.1906951735680250  0.7163852216567916  0.9127900970860607
  0.3825240512154428  0.0911124709153939  0.3050619575535871
  0.7223248572459482  0.1607738323842633  0.6497436806828421
  0.4713850777770228  0.5335140591240457  0.5796833005540846
  0.4888328077371233  0.7045037512038498  0.5661090642921778
  0.6735592258679524  0.5124521411258153  0.6240655249069580
  0.1047602933727798  0.1236799613237809  0.0183444722749267
  0.1358784682616421  0.8676821295964610  0.1073742675276578
  0.9745680106405701  0.3101416682770211  0.4453894041813195
  0.8996677596842860  0.6716264658048774  0.8054733493963592
  0.7235978028079525  0.8264797553230455  0.4288499294544175
  0.2098334045764051  0.1500404934800828  0.8765332059780536
  0.9143529575270782  0.5641240416849138  0.6402860079467023
  0.8851311473984915  0.3838725867741611  0.1228871758697647
  0.5937078390003172  0.2483551543864294  0.4091535400217251
  0.2036502017832911  0.4409042416154424  0.3797254177482332
  0.3197447233216658  0.4539290790549417  0.6560309132447768
  0.6422470022427300  0.5155951841968450  0.2504171981686981
  0.2830047100710152  0.1143831462712429  0.7074107176176495
  0.1596969998663026  0.7397070670084850  0.2411334019903253
  0.8419522764193283  0.8285294621609534  0.0125850645662816
  0.7363498006410373  0.1349438620148292  0.9117412818361746
  0.2539916928438805  0.6795463224573416  0.2595333319137662
  0.5732853246960933  0.8319738197877167  0.1982135711075031
  0.1425436228769614  0.3062389390512831  0.8007174429467844
  0.2039273910797955  0.4104211308787418  0.5501610395787402
  0.4585895075318048  0.9206497956019379  0.7734706733002557
  0.4589335408844407  0.7640834733727130  0.0709932363083344
  0.4118069034498733  0.6259831536870951  0.8108590215442817
  0.5873044222203206  0.9200349702430027  0.5515877642488283
  0.5144700810927448  0.2903749257829836  0.1632172080643931
  0.7216675037985464  0.9160118426738307  0.2297364388865572
  0.8330144600390653  0.1519443872488446  0.3370121609081244
  0.6016746453638199  0.0274700698402946  0.1702824030497472
  0.3807376108565274  0.9827198923653595  0.4098003870860470
  0.0523793972180470  0.1020683963867574  0.8592457185175817
  0.2567914933459867  0.5522860519828245  0.7683698987989194
  0.3005511793302074  0.9737723856810389 -0.0041606833911347
  0.3133936059793619  0.5521600487746172  0.5186234105193549
  0.7576571095427203  0.4770101923083188  0.3482917871309949
  0.3882459548884061  0.2629410827704932  0.2766755167227179
  0.0717525986784760  0.3150901032498448  0.7203347049648763
  0.0664199769860301  0.7824972681371747 -0.0299264526506189
  0.9994021776968431  0.7644460748296296  0.4961411930771225
  0.1747951484672039  0.8440479888443528  0.7012913553611375
  0.2787956875836488  0.6973483450506327  0.5449477198205223
  0.5896143959618826  0.4026145983984177  0.9759596535108084
  0.2434722192431333  0.1662923730004799  0.2277959711142078
  0.8946250663781288  0.5702809973573355  0.4042504141056968
  0.7940676628251293  0.8262601956336281  0.7145995241377122
  0.7283518221385319  0.6520026017015546  0.4020235414123893
  0.4942700102868577  0.6092487256094861  0.2837845295996840
  0.0486593924706815  0.0480997784849147  0.4279423893478418
  0.2700162848349935  0.8637890597275514  0.8599289369007208
  0.6243942231794198  0.3430357212011734  0.8269738168302249
  0.5565524401011177  0.5232494795092184  0.7669928235283665
  0.5657463386348573  0.0331267896462194  0.7035137905455034
  0.5794137848379561  0.1689771236570940  0.8075522179274954
  0.8812777029983551  0.4953281789299507  0.7937271249046978
  0.7987102600119779  0.0623405631676357  0.1673909150766528
  0.0550719421032617  0.9481813835359397  0.9639031674865756
  0.9794800463212076  0.2885780776023014  0.0101398969409665
  0.9484081274149330  0.0495280244913840  0.2444300845385053
  0.6696676796543521  0.9084633247990930  0.8139961282599750
  0.4175065002886047  0.1753046693472334  0.4620908624729005
  0.4435700762845759  0.9036121536365248  0.6656182666923348
  0.3119010654097757  0.3153759607774599  0.8757053231503773
  0.5629508783944556  0.7090016679452931  0.4003703941809157
  0.2274045020469400  0.2685485202941147  0.6336361670485853
  0.8469333173201569  0.2400788961274931  0.5329652150844763
  0.2449171858305381  0.3240326153732709  0.1516495586459684
  0.6489700943544393  0.0991448833964145  0.3228611287509232
  0.9404020208194929  0.2106618012291891  0.6921970250274132
  0.3908788013104756  0.4463892555140844  0.8082136927936951
  0.1290784686957191  0.1870657809279945  0.4190543938141001
  0.7046700675048423  0.7848908815302991  0.0934695161965882
  0.3784590581464375  0.6635286366227413  0.4025023559521191
  0.1661318099817182  0.2931699880411744 -0.0001556754834060
  0.6800157625490569  0.0470263151609542  0.9456691623400943
  0.6145250061658478  0.5868083511878687  0.5015886332738387
  0.8870539640451828  0.0436122222610411  0.4682056288985671
  0.6719056121528482  0.6997745244875357  0.5919757450721286
  0.9546595703693849  0.5546822897758023  0.9363736154936543
  0.4576760897494056  0.8319109849918174  0.4399853982967193
  0.8425162688406939  0.5581661606987324  0.2167318803300068
  0.9484620677911896  0.8199200334212318  0.8720913785921360
  0.2686868723440539  0.9809008043350366  0.1700014231192551
  0.8537693331852282  0.2068652710156058  0.0774006693771135
  0.1203608288040747  0.6237942315333069  0.6720622355452842
  0.8789139022664445  0.0340506118142404  0.6978393886672923
  0.3947923024413209  0.4254444487030396  0.2122863708695860
  0.9748579673721812  0.7146998052945034  0.6495872530391215
  0.2055192699175915  0.7487926957605304  0.4009737303316597
  0.5512337594780602  0.9101972394948766  0.0418784354373182
  0.2952814252662509  0.7382842138017603  0.7402921335445334
  0.3374018114287022  0.3303195892591737  0.4309245062781520
  0.2754049477875563  0.4811918753132021  0.0504313995893651
  0.2873623532698198  0.6664349650713801  0.9164836556639524
  0.4023144332286010  0.6006781505139771  0.1176101756794470
  0.7545461593675429  0.6630986717587383  0.7397686344966946
  0.5593342260781548  0.9739053096376686  0.4205154413063722
  0.8541686551441238  0.8808884745521038  0.5449263977228257
  0.7093735845476334  0.9536208782639205  0.6441732270750269
  0.8322509040054817  0.2929950874344071  0.2364705939936306
  0.6332309780175716  0.7758096478431206  0.6589628195281856
  0.7220036547571521  0.4350338731646048  0.0866426221085231
  0.7759527327109990  0.3021327220001978  0.3946023138187967
  0.7717791898438389  0.2606063172448101  0.8440379083773034
  0.5455414421582603  0.4735902784548839  0.3903186148755573
  0.0716127959613441  0.2282629415967123  0.1433941891796279
  0.1486572851171321  0.5241385448957310  0.6381540181791026
  0.9932390227446297  0.4932085388996276  0.0859512171684660
  0.7546117567028882  0.7367769770250067  0.9072816682670413
  0.1045345329832684  0.5662125411748379  0.8534266081921476
  0.3004837051751061  0.8152097521139602  0.1270797329725241
  0.5977520598830695  0.7833311613958650  0.9318650404865511
  0.9015336118548687  0.7518444546932248  0.1351383306806613
  0.0612514150952687  0.4725694028843367  0.4873755683387000
  0.9179545200971921  0.4505186478086902  0.2783825628760730
  0.5677692628590697  0.2955388573441418  0.6767876169418207
  0.7807158496239134  0.4107810830270821  0.9261337107156514
  0.2090262728045123  0.4834947013715394  0.2165437882419587
  0.1151011919877361  0.9665065019535236  0.1518745146913548
  0.8691806197704363  0.8506388620038577  0.2655128206626524
  0.2100718772467753  0.2458451694244805  0.4609188854419835
  0.9207622067685475  0.1610229807200160  0.9132604571190682
  0.7430267962006444  0.3321051662725109  0.6751550765347191
  0.0610730749818952  0.7255643947579663  0.7828246278237857
  0.0113121465788094  0.6240519984308217  0.1985894919058121
  0.3091723067742264  0.2043211546146976  0.0196011229841423
  0.0460640965268775  0.8086301534941790  0.1142111683185927
  0.0008145117443823  0.2099638855542295  0.3052981720528302
  0.6845274252238613  0.4025691174038833  0.4953879128612015
  0.1591521751092894  0.9889077962332276  0.7958116110456979
  0.0090428580289352  0.0897260880874118  0.5917008479125259
  0.1099495111370917  0.6104270254574979  0.0425598803024974
  0.4367060087518360  0.5134703212260116  0.9659838843853124
  0.5950871079132994  0.2117376306484315  0.9839026952823908
  0.6859936043443871  0.1912582803378448  0.1427642648106908
  0.6978588519150812  0.1213424919070737  0.4805819857210315
  0.0475156598476244  0.8073290790033195  0.2245139733344105
  0.6492165163383565  0.6338450864862212  0.7549652549512006
  0.7363646823575217  0.6161016281084849  0.0273974154817386
  0.8564715837787296  0.4212965088199714  0.5415076676490834
  0.9304254633005119  0.3348912536344479  0.8607060915212489
  0.4435345019300302  0.1661623061433488  0.9143222121723061
  0.0975020510829742  0.4799048712892553  0.7913955213036862
  0.3332632178296724  0.8741991571681099  0.5512415503030631
  0.5420473887837687  0.4592944532733993  0.1151833232804177
  0.3390067475339464  0.0371722246533540  0.8333000129442110
  0.2402309143521111  0.4481214269274088  0.9008641652949443
  0.1286201688352157  0.9321126744636330  0.5323415842688598
  0.5468012362617369  0.1629289406462868  0.5645586898322965
  0.5361146679633787  0.9562138900481650  0.3160961270550295
  0.5288815492077726  0.9933980836941777  0.8810922857053693
  0.3988102834249216  0.2315265487780429  0.6215089676167032
  0.3294387563489122  0.8578681701546348  0.2908082743463665
  0.4390832551679538  0.2785136839734619  0.7810327820330596
  0.4876350641806535  0.3343135707384354  0.5185842522803706
  0.9643520938026543  0.8971604136449747  0.4113045985529558
  0.1824894236234842  0.9365246372169252  0.3252565841985790
  0.7735342272550494  0.6258608934591822  0.1669018846640312
  0.0257150887170914  0.9205347871724373  0.6817444910830290
  0.9300497825449316  0.9311172563584923  0.1141183819842372
  0.1030371083872854  0.6415427243880786  0.5014706597095397
  0.6584560488356905  0.3531576801508752  0.2240049069162704
  0.8461398284782063  0.6930222704890854  0.5291116784059808
  0.5644384386832478  0.6420757698189070  0.0392760818799269
  0.4208962791440070  0.3474103888385418  0.0268943973331036
  0.9433719035621752  0.9682826441241520  0.8283448478757635
  0.8331107603940879  0.0190892031724976  0.9998155517136653
  0.1214878679718918  0.0751726442197509  0.2429863357357097
  0.1768538034459843  0.0882164935705376  0.5780913325503231
  0.4440032914902630  0.0926445333369979  0.0752043453484818
  0.7214242405572763  0.4736082860469026  0.7876659456553921
 
  0.00000000E+00  0.00000000E+00  0.00000000E+00
  0.00000000E+00  0.00000000E+00  0.00000000E+00
  0.00000000E+00  0.00000000E+00  0.00000000E+00
  0.00000000E+00  0.00000000E+00  0.00000000E+00
  0.00000000E+00  0.00000000E+00  0.00000000E+00
  0.00000000E+00  0.00000000E+00  0.00000000E+00
  0.00000000E+00  0.00000000E+00  0.00000000E+00
  0.00000000E+00  0.00000000E+00  0.00000000E+00
  0.00000000E+00  0.00000000E+00  0.00000000E+00
  0.00000000E+00  0.00000000E+00  0.00000000E+00
  0.00000000E+00  0.00000000E+00  0.00000000E+00
  0.00000000E+00  0.00000000E+00  0.00000000E+00
  0.00000000E+00  0.00000000E+00  0.00000000E+00
  0.00000000E+00  0.00000000E+00  0.00000000E+00
  0.00000000E+00  0.00000000E+00  0.00000000E+00
  0.00000000E+00  0.00000000E+00  0.00000000E+00
  0.00000000E+00  0.00000000E+00  0.00000000E+00
  0.00000000E+00  0.00000000E+00  0.00000000E+00
  0.00000000E+00  0.00000000E+00  0.00000000E+00
  0.00000000E+00  0.00000000E+00  0.00000000E+00
  0.00000000E+00  0.00000000E+00  0.00000000E+00
  0.00000000E+00  0.00000000E+00  0.00000000E+00
  0.00000000E+00  0.00000000E+00  0.00000000E+00
  0.00000000E+00  0.00000000E+00  0.00000000E+00
  0.00000000E+00  0.00000000E+00  0.00000000E+00
  0.00000000E+00  0.00000000E+00  0.00000000E+00
  0.00000000E+00  0.00000000E+00  0.00000000E+00
  0.00000000E+00  0.00000000E+00  0.00000000E+00
  0.00000000E+00  0.00000000E+00  0.00000000E+00
  0.00000000E+00  0.00000000E+00  0.00000000E+00
  0.00000000E+00  0.00000000E+00  0.00000000E+00
  0.00000000E+00  0.00000000E+00  0.00000000E+00
  0.00000000E+00  0.00000000E+00  0.00000000E+00
  0.00000000E+00  0.00000000E+00  0.00000000E+00
  0.00000000E+00  0.00000000E+00  0.00000000E+00
  0.00000000E+00  0.00000000E+00  0.00000000E+00
  0.00000000E+00  0.00000000E+00  0.00000000E+00
  0.00000000E+00  0.00000000E+00  0.00000000E+00
  0.00000000E+00  0.00000000E+00  0.00000000E+00
  0.00000000E+00  0.00000000E+00  0.00000000E+00
  0.00000000E+00  0.00000000E+00  0.00000000E+00
  0.00000000E+00  0.00000000E+00  0.00000000E+00
  0.00000000E+00  0.00000000E+00  0.00000000E+00
  0.00000000E+00  0.00000000E+00  0.00000000E+00
  0.00000000E+00  0.00000000E+00  0.00000000E+00
  0.00000000E+00  0.00000000E+00  0.00000000E+00
  0.00000000E+00  0.00000000E+00  0.00000000E+00
  0.00000000E+00  0.00000000E+00  0.00000000E+00
  0.00000000E+00  0.00000000E+00  0.00000000E+00
  0.00000000E+00  0.00000000E+00  0.00000000E+00
  0.00000000E+00  0.00000000E+00  0.00000000E+00
  0.00000000E+00  0.00000000E+00  0.00000000E+00
  0.00000000E+00  0.00000000E+00  0.00000000E+00
  0.00000000E+00  0.00000000E+00  0.00000000E+00
  0.00000000E+00  0.00000000E+00  0.00000000E+00
  0.00000000E+00  0.00000000E+00  0.00000000E+00
  0.00000000E+00  0.00000000E+00  0.00000000E+00
  0.00000000E+00  0.00000000E+00  0.00000000E+00
  0.00000000E+00  0.00000000E+00  0.00000000E+00
  0.00000000E+00  0.00000000E+00  0.00000000E+00
  0.00000000E+00  0.00000000E+00  0.00000000E+00
  0.00000000E+00  0.00000000E+00  0.00000000E+00
  0.00000000E+00  0.00000000E+00  0.00000000E+00
  0.00000000E+00  0.00000000E+00  0.00000000E+00
  0.00000000E+00  0.00000000E+00  0.00000000E+00
  0.00000000E+00  0.00000000E+00  0.00000000E+00
  0.00000000E+00  0.00000000E+00  0.00000000E+00
  0.00000000E+00  0.00000000E+00  0.00000000E+00
  0.00000000E+00  0.00000000E+00  0.00000000E+00
  0.00000000E+00  0.00000000E+00  0.00000000E+00
  0.00000000E+00  0.00000000E+00  0.00000000E+00
  0.00000000E+00  0.00000000E+00  0.00000000E+00
  0.00000000E+00  0.00000000E+00  0.00000000E+00
  0.00000000E+00  0.00000000E+00  0.00000000E+00
  0.00000000E+00  0.00000000E+00  0.00000000E+00
  0.00000000E+00  0.00000000E+00  0.00000000E+00
  0.00000000E+00  0.00000000E+00  0.00000000E+00
  0.00000000E+00  0.00000000E+00  0.00000000E+00
  0.00000000E+00  0.00000000E+00  0.00000000E+00
  0.00000000E+00  0.00000000E+00  0.00000000E+00
  0.00000000E+00  0.00000000E+00  0.00000000E+00
  0.00000000E+00  0.00000000E+00  0.00000000E+00
  0.00000000E+00  0.00000000E+00  0.00000000E+00
  0.00000000E+00  0.00000000E+00  0.00000000E+00
  0.00000000E+00  0.00000000E+00  0.00000000E+00
  0.00000000E+00  0.00000000E+00  0.00000000E+00
  0.00000000E+00  0.00000000E+00  0.00000000E+00
  0.00000000E+00  0.00000000E+00  0.00000000E+00
  0.00000000E+00  0.00000000E+00  0.00000000E+00
  0.00000000E+00  0.00000000E+00  0.00000000E+00
  0.00000000E+00  0.00000000E+00  0.00000000E+00
  0.00000000E+00  0.00000000E+00  0.00000000E+00
  0.00000000E+00  0.00000000E+00  0.00000000E+00
  0.00000000E+00  0.00000000E+00  0.00000000E+00
  0.00000000E+00  0.00000000E+00  0.00000000E+00
  0.00000000E+00  0.00000000E+00  0.00000000E+00
  0.00000000E+00  0.00000000E+00  0.00000000E+00
  0.00000000E+00  0.00000000E+00  0.00000000E+00
  0.00000000E+00  0.00000000E+00  0.00000000E+00
  0.00000000E+00  0.00000000E+00  0.00000000E+00
  0.00000000E+00  0.00000000E+00  0.00000000E+00
  0.00000000E+00  0.00000000E+00  0.00000000E+00
  0.00000000E+00  0.00000000E+00  0.00000000E+00
  0.00000000E+00  0.00000000E+00  0.00000000E+00
  0.00000000E+00  0.00000000E+00  0.00000000E+00
  0.00000000E+00  0.00000000E+00  0.00000000E+00
  0.00000000E+00  0.00000000E+00  0.00000000E+00
  0.00000000E+00  0.00000000E+00  0.00000000E+00
  0.00000000E+00  0.00000000E+00  0.00000000E+00
  0.00000000E+00  0.00000000E+00  0.00000000E+00
  0.00000000E+00  0.00000000E+00  0.00000000E+00
  0.00000000E+00  0.00000000E+00  0.00000000E+00
  0.00000000E+00  0.00000000E+00  0.00000000E+00
  0.00000000E+00  0.00000000E+00  0.00000000E+00
  0.00000000E+00  0.00000000E+00  0.00000000E+00
  0.00000000E+00  0.00000000E+00  0.00000000E+00
  0.00000000E+00  0.00000000E+00  0.00000000E+00
  0.00000000E+00  0.00000000E+00  0.00000000E+00
  0.00000000E+00  0.00000000E+00  0.00000000E+00
  0.00000000E+00  0.00000000E+00  0.00000000E+00
  0.00000000E+00  0.00000000E+00  0.00000000E+00
  0.00000000E+00  0.00000000E+00  0.00000000E+00
  0.00000000E+00  0.00000000E+00  0.00000000E+00
  0.00000000E+00  0.00000000E+00  0.00000000E+00
  0.00000000E+00  0.00000000E+00  0.00000000E+00
  0.00000000E+00  0.00000000E+00  0.00000000E+00
  0.00000000E+00  0.00000000E+00  0.00000000E+00
  0.00000000E+00  0.00000000E+00  0.00000000E+00
  0.00000000E+00  0.00000000E+00  0.00000000E+00
  0.00000000E+00  0.00000000E+00  0.00000000E+00
  0.00000000E+00  0.00000000E+00  0.00000000E+00
  0.00000000E+00  0.00000000E+00  0.00000000E+00
  0.00000000E+00  0.00000000E+00  0.00000000E+00
  0.00000000E+00  0.00000000E+00  0.00000000E+00
  0.00000000E+00  0.00000000E+00  0.00000000E+00
  0.00000000E+00  0.00000000E+00  0.00000000E+00
  0.00000000E+00  0.00000000E+00  0.00000000E+00
  0.00000000E+00  0.00000000E+00  0.00000000E+00
  0.00000000E+00  0.00000000E+00  0.00000000E+00
  0.00000000E+00  0.00000000E+00  0.00000000E+00
  0.00000000E+00  0.00000000E+00  0.00000000E+00
  0.00000000E+00  0.00000000E+00  0.00000000E+00
  0.00000000E+00  0.00000000E+00  0.00000000E+00
  0.00000000E+00  0.00000000E+00  0.00000000E+00
  0.00000000E+00  0.00000000E+00  0.00000000E+00
  0.00000000E+00  0.00000000E+00  0.00000000E+00
  0.00000000E+00  0.00000000E+00  0.00000000E+00
  0.00000000E+00  0.00000000E+00  0.00000000E+00
  0.00000000E+00  0.00000000E+00  0.00000000E+00
  0.00000000E+00  0.00000000E+00  0.00000000E+00
  0.00000000E+00  0.00000000E+00  0.00000000E+00
  0.00000000E+00  0.00000000E+00  0.00000000E+00
  0.00000000E+00  0.00000000E+00  0.00000000E+00
  0.00000000E+00  0.00000000E+00  0.00000000E+00
  0.00000000E+00  0.00000000E+00  0.00000000E+00
  0.00000000E+00  0.00000000E+00  0.00000000E+00
  0.00000000E+00  0.00000000E+00  0.00000000E+00
  0.00000000E+00  0.00000000E+00  0.00000000E+00
  0.00000000E+00  0.00000000E+00  0.00000000E+00
  0.00000000E+00  0.00000000E+00  0.00000000E+00
  0.00000000E+00  0.00000000E+00  0.00000000E+00
  0.00000000E+00  0.00000000E+00  0.00000000E+00
  0.00000000E+00  0.00000000E+00  0.00000000E+00
  0.00000000E+00  0.00000000E+00  0.00000000E+00
  0.00000000E+00  0.00000000E+00  0.00000000E+00
  0.00000000E+00  0.00000000E+00  0.00000000E+00
  0.00000000E+00  0.00000000E+00  0.00000000E+00
  0.00000000E+00  0.00000000E+00  0.00000000E+00
  0.00000000E+00  0.00000000E+00  0.00000000E+00
  0.00000000E+00  0.00000000E+00  0.00000000E+00
  0.00000000E+00  0.00000000E+00  0.00000000E+00
  0.00000000E+00  0.00000000E+00  0.00000000E+00
  0.00000000E+00  0.00000000E+00  0.00000000E+00
  0.00000000E+00  0.00000000E+00  0.00000000E+00
  0.00000000E+00  0.00000000E+00  0.00000000E+00
  0.00000000E+00  0.00000000E+00  0.00000000E+00
  0.00000000E+00  0.00000000E+00  0.00000000E+00
  0.00000000E+00  0.00000000E+00  0.00000000E+00
  0.00000000E+00  0.00000000E+00  0.00000000E+00
  0.00000000E+00  0.00000000E+00  0.00000000E+00
  0.00000000E+00  0.00000000E+00  0.00000000E+00
  0.00000000E+00  0.00000000E+00  0.00000000E+00
  0.00000000E+00  0.00000000E+00  0.00000000E+00
  0.00000000E+00  0.00000000E+00  0.00000000E+00
  0.00000000E+00  0.00000000E+00  0.00000000E+00
  0.00000000E+00  0.00000000E+00  0.00000000E+00
  0.00000000E+00  0.00000000E+00  0.00000000E+00
  0.00000000E+00  0.00000000E+00  0.00000000E+00
  0.00000000E+00  0.00000000E+00  0.00000000E+00
  0.00000000E+00  0.00000000E+00  0.00000000E+00
  0.00000000E+00  0.00000000E+00  0.00000000E+00
  0.00000000E+00  0.00000000E+00  0.00000000E+00
  0.00000000E+00  0.00000000E+00  0.00000000E+00
  0.00000000E+00  0.00000000E+00  0.00000000E+00
  0.00000000E+00  0.00000000E+00  0.00000000E+00
  0.00000000E+00  0.00000000E+00  0.00000000E+00
  0.00000000E+00  0.00000000E+00  0.00000000E+00
  0.00000000E+00  0.00000000E+00  0.00000000E+00
  0.00000000E+00  0.00000000E+00  0.00000000E+00
  0.00000000E+00  0.00000000E+00  0.00000000E+00
  0.00000000E+00  0.00000000E+00  0.00000000E+00
  0.00000000E+00  0.00000000E+00  0.00000000E+00
  0.00000000E+00  0.00000000E+00  0.00000000E+00
  0.00000000E+00  0.00000000E+00  0.00000000E+00
  0.00000000E+00  0.00000000E+00  0.00000000E+00
  0.00000000E+00  0.00000000E+00  0.00000000E+00
  0.00000000E+00  0.00000000E+00  0.00000000E+00
  0.00000000E+00  0.00000000E+00  0.00000000E+00
  0.00000000E+00  0.00000000E+00  0.00000000E+00
  0.00000000E+00  0.00000000E+00  0.00000000E+00
  0.00000000E+00  0.00000000E+00  0.00000000E+00
  0.00000000E+00  0.00000000E+00  0.00000000E+00
  0.00000000E+00  0.00000000E+00  0.00000000E+00
  0.00000000E+00  0.00000000E+00  0.00000000E+00
  0.00000000E+00  0.00000000E+00  0.00000000E+00
  0.00000000E+00  0.00000000E+00  0.00000000E+00
  0.00000000E+00  0.00000000E+00  0.00000000E+00
  0.00000000E+00  0.00000000E+00  0.00000000E+00
  0.00000000E+00  0.00000000E+00  0.00000000E+00
  0.00000000E+00  0.00000000E+00  0.00000000E+00
  0.00000000E+00  0.00000000E+00  0.00000000E+00
  0.00000000E+00  0.00000000E+00  0.00000000E+00
  0.00000000E+00  0.00000000E+00  0.00000000E+00
  0.00000000E+00  0.00000000E+00  0.00000000E+00
  0.00000000E+00  0.00000000E+00  0.00000000E+00
  0.00000000E+00  0.00000000E+00  0.00000000E+00
  0.00000000E+00  0.00000000E+00  0.00000000E+00
  0.00000000E+00  0.00000000E+00  0.00000000E+00
  0.00000000E+00  0.00000000E+00  0.00000000E+00
  0.00000000E+00  0.00000000E+00  0.00000000E+00
  0.00000000E+00  0.00000000E+00  0.00000000E+00
  0.00000000E+00  0.00000000E+00  0.00000000E+00