In2O3 structure 1 - random placement wit
   1.00000000000000     
     8.1092822180384001    0.0000000000000000    0.0000000000000000
     0.0000000000000000    8.1092822180384001    0.0000000000000000
     0.0000000000000000    0.0000000000000000    8.1092822180384001
   In   Ga   Zn   O 
     6     6     6    24
Direct
  0.1967304192784411  0.4980989025163330  0.9685789922097066
  0.2061442839149397  0.6298043529835793  0.4055715811680590
  0.8743650416465000  0.2903424378051240  0.1453744464981464
  0.2063776847779837  0.0110733159230685  0.9664363461853710
  0.5054922995816459  0.2425097768220274  0.8140527731476505
  0.6990110320314745  0.6155043371874347  0.4741836844181862
  0.0375103580148638  0.7381439576367467  0.7447517561924750
  0.2875388327488657  0.2380723191511856  0.2537672897729036
  0.5413109634434948  0.5467216940623540  0.1218657090010126
  0.7963155851374588  0.0233167783465265  0.7934800543702331
  0.8607105812954392  0.7469972818070156  0.1052728305933966
  0.0947682269892640  0.2646162140856974  0.6180432771358645
  0.3675060110284624  0.9531914830804711  0.5484510429052954
  0.8217286574521074  0.4566274443456573  0.7930070109554901
  0.5472963211123406  0.9843272191676553  0.2049989730862003
  0.4855156608981510  0.7314047118914361  0.7817760494455994
  0.6720998709341182  0.2187551889083671  0.4492412544208943
  0.9653910381847925  0.9558858989478752  0.4085257351932263
  0.5709649436453891  0.9742335710304341  0.7535499426782533
  0.7839170480785980  0.0746955554723083  0.2785666058977661
  0.4743748496697739  0.5025625103522333  0.8998411991215910
  0.2969752250346591  0.8577201201438055  0.2595796311618732
  0.4465556163966627  0.1326737768185447  0.4027282359356352
  0.6548833787236571  0.3831461078834683  0.6207701644897621
  0.9115381517035303  0.1127151734768701  0.6059369190948134
  0.4525611119285752  0.7048308810014904  0.5312596070485417
  0.0780882730163265  0.4802911773147709  0.7230360699892080
  0.7656648822141506  0.2323429004298434  0.9077644116437689
  0.1282032981785990  0.3477357248083983  0.4041038670125515
  0.8066558376690980  0.6999187555079939  0.7043117999748925
  0.2640491737412684  0.1460343998015370  0.7300364523055310
  0.4256334532871877  0.1431028692192153  0.0601974406691151
  0.9253022592694097  0.5388315370483443  0.0177779414379835
  0.9224523203514916  0.7181668978465118  0.3303510887978577
  0.6824877502169591  0.4333621185582444  0.2699222035661594
  0.2412378044162373  0.7553241926871821  0.8817973012591620
  0.6259142293198742  0.7658932620803990  0.1118707481743543
  0.1218851051277017  0.2553666862858709  0.0631277965730777
  0.1359039641759550  0.8408279581275094  0.5609865429369361
  0.9472410591576640  0.8995585693757076  0.9324474191128320
  0.1691073965833655  0.9910043826045832  0.2418497419680755
  0.3299705592302533  0.4921452328687778  0.2071852066913533
 
  0.00000000E+00  0.00000000E+00  0.00000000E+00
  0.00000000E+00  0.00000000E+00  0.00000000E+00
  0.00000000E+00  0.00000000E+00  0.00000000E+00
  0.00000000E+00  0.00000000E+00  0.00000000E+00
  0.00000000E+00  0.00000000E+00  0.00000000E+00
  0.00000000E+00  0.00000000E+00  0.00000000E+00
  0.00000000E+00  0.00000000E+00  0.00000000E+00
  0.00000000E+00  0.00000000E+00  0.00000000E+00
  0.00000000E+00  0.00000000E+00  0.00000000E+00
  0.00000000E+00  0.00000000E+00  0.00000000E+00
  0.00000000E+00  0.00000000E+00  0.00000000E+00
  0.00000000E+00  0.00000000E+00  0.00000000E+00
  0.00000000E+00  0.00000000E+00  0.00000000E+00
  0.00000000E+00  0.00000000E+00  0.00000000E+00
  0.00000000E+00  0.00000000E+00  0.00000000E+00
  0.00000000E+00  0.00000000E+00  0.00000000E+00
  0.00000000E+00  0.00000000E+00  0.00000000E+00
  0.00000000E+00  0.00000000E+00  0.00000000E+00
  0.00000000E+00  0.00000000E+00  0.00000000E+00
  0.00000000E+00  0.00000000E+00  0.00000000E+00
  0.00000000E+00  0.00000000E+00  0.00000000E+00
  0.00000000E+00  0.00000000E+00  0.00000000E+00
  0.00000000E+00  0.00000000E+00  0.00000000E+00
  0.00000000E+00  0.00000000E+00  0.00000000E+00
  0.00000000E+00  0.00000000E+00  0.00000000E+00
  0.00000000E+00  0.00000000E+00  0.00000000E+00
  0.00000000E+00  0.00000000E+00  0.00000000E+00
  0.00000000E+00  0.00000000E+00  0.00000000E+00
  0.00000000E+00  0.00000000E+00  0.00000000E+00
  0.00000000E+00  0.00000000E+00  0.00000000E+00
  0.00000000E+00  0.00000000E+00  0.00000000E+00
  0.00000000E+00  0.00000000E+00  0.00000000E+00
  0.00000000E+00  0.00000000E+00  0.00000000E+00
  0.00000000E+00  0.00000000E+00  0.00000000E+00
  0.00000000E+00  0.00000000E+00  0.00000000E+00
  0.00000000E+00  0.00000000E+00  0.00000000E+00
  0.00000000E+00  0.00000000E+00  0.00000000E+00
  0.00000000E+00  0.00000000E+00  0.00000000E+00
  0.00000000E+00  0.00000000E+00  0.00000000E+00
  0.00000000E+00  0.00000000E+00  0.00000000E+00
  0.00000000E+00  0.00000000E+00  0.00000000E+00
  0.00000000E+00  0.00000000E+00  0.00000000E+00
