In2O3                                   
   1.00000000000000     
     8.0125443623966728    0.0862519817265238   -0.0025784192300734
     0.0855456867987867    8.0091689221260385   -0.0020204278720797
    -0.0021278018399384   -0.0012179681874120    8.0893977516547420
   In   O 
    16    24
Direct
  0.0345773433395632  0.9916151280466949  0.9795251787827877
  0.0029352747107292  0.9639468126617156  0.4795814066091613
  0.7843319314148229  0.2417278743442344  0.2522317316985217
  0.0050326633709651  0.4618056501534170  0.4791774446176942
  0.5324124228154282  0.9937445358740138  0.9794951773035898
  0.5049964803243158  0.9617324152189152  0.4795668845259478
  0.5346396115146522  0.4915251737012872  0.9795349663516373
  0.2523026192384864  0.7136927453063520  0.7520741781891881
  0.2823246228341144  0.2437687251270937  0.2518810577047109
  0.2546738240213370  0.2115973617382266  0.7520648804349346
  0.2849141296587541  0.7417648548171865  0.2518449434256960
  0.0321008206320754  0.4938049021277298  0.9794858932916346
  0.5023285967210062  0.4639662224689212  0.4795765190830998
  0.7522764735064448  0.2138239415651960  0.7518845979157134
  0.7825166594907629  0.7440509797429269  0.2521910022664776
  0.7547731864524163  0.7114548269168210  0.7519470869673401
  0.7507283990391248  0.3497723732173980  0.5164509249602149
  0.7881267180355692  0.4576073510285066  0.8657410566832276
  0.0369244077452403  0.8572793702489383  0.2158223284259097
  0.3980595678456517  0.9958347006540014  0.2156699130263812
  0.1476640789834787  0.2463054439187371  0.0161045266945866
  0.6477032379997401  0.7462083650833936  0.0164283688721508
  0.3896871009285899  0.2098673519001103  0.5160964216079488
  0.5001764033222835  0.5983801871192375  0.7159114621334837
  0.6391603642329493  0.9594040131517438  0.7157871035177604
  0.0382807168101813  0.2076176037008793  0.3655350367015617
  0.7868901329709070  0.1067476167294351  0.0163450026162246
  0.2483809094485844  0.4977155690824489  0.3651785620858546
  0.2882835138986152  0.9574923811473700  0.8659774607176928
  0.4984733826527838  0.2473290889525634  0.8658262654817541
  0.5385960362559452  0.7074701124939528  0.3660483813096664
  0.7486588943649330 -0.0021850354958962  0.3660716528962342
  0.2509529694314874  0.8491627223406232  0.5162924749583272
  0.8904499528567561  0.7099844192285530  0.5163435205680403
  0.8973297547369224  0.4960125272606160  0.2152777158461964
  0.5364763730703285  0.3570862248760489  0.2157016234725570
  0.1390706687448877  0.4595036198364435  0.7155440434132574
  0.2868674228519423  0.6064027839027200  0.0163388824995073
 -0.0016187382779593  0.7474221044579731  0.8659596555736534
  0.0001391388472325  0.0984014122116239  0.7158899205687962
 
  0.00000000E+00  0.00000000E+00  0.00000000E+00
  0.00000000E+00  0.00000000E+00  0.00000000E+00
  0.00000000E+00  0.00000000E+00  0.00000000E+00
  0.00000000E+00  0.00000000E+00  0.00000000E+00
  0.00000000E+00  0.00000000E+00  0.00000000E+00
  0.00000000E+00  0.00000000E+00  0.00000000E+00
  0.00000000E+00  0.00000000E+00  0.00000000E+00
  0.00000000E+00  0.00000000E+00  0.00000000E+00
  0.00000000E+00  0.00000000E+00  0.00000000E+00
  0.00000000E+00  0.00000000E+00  0.00000000E+00
  0.00000000E+00  0.00000000E+00  0.00000000E+00
  0.00000000E+00  0.00000000E+00  0.00000000E+00
  0.00000000E+00  0.00000000E+00  0.00000000E+00
  0.00000000E+00  0.00000000E+00  0.00000000E+00
  0.00000000E+00  0.00000000E+00  0.00000000E+00
  0.00000000E+00  0.00000000E+00  0.00000000E+00
  0.00000000E+00  0.00000000E+00  0.00000000E+00
  0.00000000E+00  0.00000000E+00  0.00000000E+00
  0.00000000E+00  0.00000000E+00  0.00000000E+00
  0.00000000E+00  0.00000000E+00  0.00000000E+00
  0.00000000E+00  0.00000000E+00  0.00000000E+00
  0.00000000E+00  0.00000000E+00  0.00000000E+00
  0.00000000E+00  0.00000000E+00  0.00000000E+00
  0.00000000E+00  0.00000000E+00  0.00000000E+00
  0.00000000E+00  0.00000000E+00  0.00000000E+00
  0.00000000E+00  0.00000000E+00  0.00000000E+00
  0.00000000E+00  0.00000000E+00  0.00000000E+00
  0.00000000E+00  0.00000000E+00  0.00000000E+00
  0.00000000E+00  0.00000000E+00  0.00000000E+00
  0.00000000E+00  0.00000000E+00  0.00000000E+00
  0.00000000E+00  0.00000000E+00  0.00000000E+00
  0.00000000E+00  0.00000000E+00  0.00000000E+00
  0.00000000E+00  0.00000000E+00  0.00000000E+00
  0.00000000E+00  0.00000000E+00  0.00000000E+00
  0.00000000E+00  0.00000000E+00  0.00000000E+00
  0.00000000E+00  0.00000000E+00  0.00000000E+00
  0.00000000E+00  0.00000000E+00  0.00000000E+00
  0.00000000E+00  0.00000000E+00  0.00000000E+00
  0.00000000E+00  0.00000000E+00  0.00000000E+00
  0.00000000E+00  0.00000000E+00  0.00000000E+00
