Amorphous Sb                            
   1.00000000000000     
    21.3376653202042874    0.0000000000000000    0.0000000000000000
     0.0000000000000000   21.3376653202042874    0.0000000000000000
     0.0000000000000000    0.0000000000000000   21.3376653202042874
   Si   Te
   150   150
Direct
  0.4330778213185697  0.5663811008863774  0.4008935513061493
  0.5521109275364852  0.3374642025788111  0.5157372767631989
  0.9151173761221366  0.6791928790215462  0.4988340361272625
  0.4951386005945787  0.2619892190850071  0.2056840828985719
  0.5854517267514630  0.9245529376997561  0.1042810490357209
  0.6519918109176103  0.6802596376285567  0.9251819263135872
  0.1328562695791444  0.5782335560898583  0.6760282117300802
  0.9441384601519696  0.4817816531749563  0.1214873184547928
  0.8345454995635271  0.4991383716668809  0.6137396982434263
  0.3887020948712988  0.8785583904395866  0.2675189519495059
  0.8992912695639876  0.2259399775446307  0.2754790438727155
  0.2449773374749411  0.0785346462263989  0.6161523343783257
  0.3421069887426374  0.1085617323166834  0.6615805442920365
  0.0265742323476269  0.6152627004662570  0.0165568473410965
  0.9452311787618711  0.6015079522259215  0.4262082502641377
  0.6767930567488052  0.2911519693796217  0.7762810055594465
  0.9586315576988345  0.5761585122611800  0.7550273981851789
  0.4204255552733815  0.7198769960368645  0.7240975409121839
  0.9088804045887648  0.3566450291676216  0.9123891649425525
  0.8229108711757274  0.3713737156400631  0.5177022837178528
  0.3025357940243146  0.4732931651819035  0.3664891799923736
  0.9303006639682181  0.1954044600501286  0.7490253717968262
  0.1943335474872046  0.0808405282030863  0.3792623479896635
  0.7862116182740271  0.2815323618274364  0.7943737847067268
  0.6524565520251757  0.1208547532838698  0.7855241978840631
  0.1188677289940921  0.2684079464532529  0.0301105477429184
  0.1178135525531323  0.9960591436463420  0.9708262520566406
  0.2943183229998098  0.1626746454072004  0.2509776468510924
  0.7253606466710771  0.6186786028741980  0.2920640996107965
  0.5336192601399447  0.5690336792205222  0.2451886434455794
  0.2794079253780000  0.8195964217102392  0.3537205107026788
  0.5113087905255724  0.2037418322869968  0.9944664212525209
  0.1490291498944918  0.9009689492680948  0.3046960751939730
  0.9959903489604863  0.6574665421926896  0.1167172962946190
  0.9126255360170854  0.1000738600015400  0.1701533570393732
  0.8873521843516272  0.8326798401041009  0.6870962549718008
  0.3574863972924037  0.0659312518008618  0.4918425505514681
  0.2124229597393030  0.9701962355585263  0.3726108873353828
  0.3598614051591209  0.8927022642497034  0.9451282556970374
  0.5351289514438510  0.2407212517691902  0.0996616786172251
  0.9602160752784668  0.7304727793050629  0.3366493366497460
  0.7638220850387327  0.0994620789088136  0.7899626887017543
  0.7515162916923401  0.7089647786909916  0.7916724614607775
  0.0353465283955301  0.1502613146118247  0.6004058230756710
  0.0178347388750880  0.5065441758911721  0.0426321787215347
  0.6928365463138931  0.4132185448047812  0.9544832452384060
  0.0844715404741060  0.0894895370488986  0.0180207190787428
  0.8708973593450172  0.6000811610947530  0.2486394156986933
  0.7777440622020876  0.6943589332960388  0.3591798591481622
  0.0543404837858859  0.3114562631448063  0.8462216862581128
  0.3088275958689242  0.9794400525338680  0.8928367474942063
  0.1588885082051094  0.4316198291866500  0.9780944252056887
  0.6650677973913427  0.0165096102021079  0.6460338568483457
  0.2309378982760408  0.1479022760389492  0.0939093747105020
  0.2540703511872219  0.9782780847019756  0.1554852139889295
  0.1779137776138480  0.7096458696279352  0.2998495044232939
  0.0285216161787955  0.5261460624644092  0.5847931567531025
  0.8118531295389104  0.7514846868420628  0.8749177561623854
  0.4845359361478881  0.5295825470723168  0.1516263834459236
  0.7100651583220261  0.5246143771636909  0.8179719581595148
  0.5064529088980179  0.5537057466839052  0.9880470785759762
  0.4631583475436556  0.3400245419263957  0.7010743738675457
  0.2319508132349948  0.8964941640663227  0.2271809673959100
  0.0251391637400813  0.6439220299282433  0.3631648843521260
  0.9183638806259397  0.0896029147028062  0.9241483620297941
  0.8835605212899088  0.0058490859932373  0.5566641656567872
  0.9833889393105852  0.1254899099327504  0.0065470361932281
  0.8833344082084981  0.6508250426848594  0.3460323163934759
  0.7688316536178836  0.5498465466681310  0.5390907262883637
  0.6808586627532844  0.4726795603157260  0.7257355673646736
  0.4756225733683657  0.2595141797823394  0.5109682668497438
  0.8383582839296798  0.6685564557462086  0.6356409713750159
  0.6613137480353406  0.5717707119128064  0.5647627564978157
  0.6481085732332711  0.3945343183680012  0.7998254631209690
  0.4800581097971678  0.8906847826398513  0.1010577938393510
  0.6812790004938536  0.2336274693737805  0.9941384152708576
  0.3601848255816206  0.0131725111142272  0.1759115991648900
  0.0219568923140696  0.3269813499567327  0.0393156407078863
  0.6624515099680843  0.5721195258052525  0.9065284454991670
  0.1410523374799622  0.2071701124213867  0.1171378449734500
  0.6273814413373444  0.5082696154282771  0.4808953444460584
  0.9667663640213529  0.2341573640876856  0.0029932321896867
  0.1152747050698400  0.4626785530585442  0.5578544275513446
  0.9688775613548477  0.2619314980573115  0.8974395873730564
  0.0472174945312907  0.4198764908281467  0.9802976137380667
  0.2399240698590548  0.1232108457495968  0.9864912499636915
  0.7382618735951830  0.4264490237060820  0.8564398632180024
  0.6302292081991232  0.6752243412059529  0.5332245432165037
  0.9922652100951547  0.5183141416250868  0.8459206300747640
  0.0990939619360278  0.5670833568659366  0.8594422694722214
  0.8606588330923258  0.5755588630724784  0.6942937835377615
  0.4424184987232354  0.9400061471620366  0.1929604646552547
  0.4395898001082714  0.0436182273828780  0.9915548224194261
  0.1229141739897638  0.2114699191437076  0.2827802042371371
  0.9131775283428468  0.0668076400313704  0.0658552091410591
  0.3713461685080514  0.6947435495104853  0.4144367290778408
  0.4482817183619964  0.9323994229614794  0.0017728907821772
  0.9621827245773737  0.5725798061641924  0.1859315717742482
  0.8134498743435440  0.2142874098519865  0.8774871245814621
  0.9687871075359541  0.3736246487095402  0.5899919879560921
  0.3203376733834938  0.1786285635089246  0.1436398129425516
  0.4109881736608451  0.2267392854642367  0.9519048742936932
  0.7263412649606793  0.3325256219482813  0.0209762970694498
  0.8124785396245153  0.6504733525134087  0.5289393100581998
  0.8677498886506170  0.8953111790915581  0.7758331364017060
  0.1709262436715315  0.8057912193849106  0.3547199999232479
  0.2281118970799617  0.0135249280305239  0.9642506378384638
  0.6026680339160090  0.9536698587477196  0.3944579917825335
  0.3934950067440482  0.4973836356155369  0.1008210501376035
  0.9320178303446094  0.4761635695380403  0.5573396140189661
  0.0501524965931303  0.7334626322069762  0.1833249738487016
  0.2624285215005975  0.3235299111366037  0.3671032994974742
  0.0377311486127454  0.5295700569234799  0.6927630817826171
  0.7293193613837942  0.0232883742718005  0.4650269414702179
  0.3899656898980822  0.1434050332340543  0.5682134058302543
  0.9913661168122030  0.7968340383617877  0.2528978477812008
  0.3249726790125697  0.1595611347337138  0.9240437637164903
  0.5755024514478172  0.6908973955285792  0.4368631642824196
  0.8305365225899375  0.3717730029118411  0.8360031204984020
  0.5903402097146200  0.2569243941371893  0.9358328332707390
  0.1534021191960386  0.0426783291323705  0.6636730143793591
  0.8579578020347663  0.2356696473608152  0.9806870304481377
  0.1111776647099570  0.6552687767654788  0.2297591319535791
  0.9744534195019812  0.3664767159764556  0.7003906032723856
  0.4759935032454468  0.6663166144634667  0.3898606608193645
  0.3836697872585357  0.8307633810580786  0.8554449471347754
  0.5364378766589813  0.4431342052923857  0.4864043504986078
  0.7177904286297530  0.1710692148599237  0.9087664602586344
  0.1955823025528469  0.0717330922234082  0.1689815534663188
  0.4756089405964262  0.4652280859048514  0.3981887578281543
  0.3688955889425766  0.2772975559581740  0.6842257372689333
  0.9204371974902182  0.7232368215155641  0.8864593965489551
  0.9528383551632409  0.9368032324583633  0.9120430345028178
  0.2287939451044661  0.9437313536763343  0.0526425979021665
  0.0082155793530041  0.2743567621589461  0.7501758691666978
  0.1270929841494227  0.1100087234589123  0.4805844536071646
  0.9121511393655546  0.1767405371050135  0.8552528803732918
  0.2967656405372476  0.9225564102641313  0.3133842259451012
  0.3769705313151175  0.0665987678759050  0.9019934300503896
  0.0885832095135400  0.0582097123982269  0.5731015181990554
  0.0037776044496151  0.4100618511364289  0.8774302560740220
  0.1384070706530148  0.7640525131255739  0.4510835239642896
  0.9337867368019647  0.6431402931397752  0.9647008317104474
  0.2827177772950559  0.0036120009114413  0.5442337560687417
  0.9446612255383957  0.7684523081551207  0.4380561058275936
  0.6745404510591649  0.3243382334153811  0.1182898453384560
  0.6373561124432435  0.2137181168551668  0.8438269507579057
  0.0990473285134854  0.1048175887427068  0.1278734445571900
  0.3648761630088114  0.1778389952633337  0.7474659908302278
  0.1915885759170767  0.1244872978311057  0.2716469538287275
  0.5678671617334845  0.0399758471801400  0.1347118487806820
  0.3562963934539644  0.0649074119861874  0.2836790833618832
  0.6416365330868712  0.9028673125015958  0.6221095695423039
  0.1977013086319955  0.9396629187997008  0.4881768783331052
  0.8391675852259542  0.0984637268552946  0.6238361397134663
  0.8864520695663315  0.0049846350286191  0.8317111877148593
  0.4232056740255559  0.3072868011024703  0.8639796611921865
  0.0813712898538887  0.3472106857008423  0.5602109520937733
  0.5809733086439149  0.3789610042755986  0.9109597421591817
  0.6933865111957929  0.3677242885331226  0.2234444095284976
  0.8532951903813406  0.8467949221598677  0.4343424879116820
  0.5472446778313725  0.4619109524568942  0.3024419461469678
  0.0739496789089776  0.4245749672507210  0.7344891955124522
  0.2733999362531394  0.2007263556597014  0.8230504700022458
  0.6009803685038468  0.7395039831161684  0.6333037772843940
  0.7702814454781586  0.3992649355005553  0.6282827735239512
  0.0296062709042303  0.9040262700851022  0.2934560414765406
  0.1336109804477277  0.1759847263428248  0.9464109636018661
  0.1144306605921066  0.1189591709145318  0.7482215002973270
  0.2385912855824099  0.5175471970797265  0.0018069258038904
  0.2635268826182047  0.3177616847377256  0.6953259945233552
  0.2038314769934427  0.1728613593451976  0.5517530495280705
  0.9119820071409466  0.4869518832898921  0.4401442679079298
  0.5361824861208569  0.9187269463271891  0.9223749657747310
  0.9433790203189706  0.7185828212417309  0.6112013372451113
  0.2290894283555946  0.4156284637883124  0.2937168615850494
  0.5085979016042592  0.1580911801548032  0.5657039994111585
  0.2955614923771624  0.1353242122646877  0.4149341928388077
  0.9251397593616464  0.8185728831035141  0.1578946411052682
  0.7536667329463079  0.3103984540491315  0.3507302474703283
  0.6177115180129443  0.7848544736803955  0.3847232731357677
  0.6938659184955349  0.0537347529066313  0.8848341964157567
  0.6444103865089541  0.8731079770319445  0.1933154784518357
  0.9195966811414976  0.9525541988265200  0.0294152782111508
  0.5336097319828031  0.9614633068539812  0.4952725131824890
  0.8792098040753342  0.3337078509770688  0.3210579267980426
  0.8294413363853649  0.4788481991630164  0.1207370083085715
  0.1571618125277095  0.2892641722778813  0.2005506632502846
  0.8842619175984393  0.6752897140418649  0.0679635091175037
  0.1016569110073707  0.4933208675774077  0.1330172107332002
  0.7006793409609939  0.0936821293487130  0.5612621301055651
  0.7608505266528767  0.9943711714458350  0.7180747831062428
  0.6551582455395092  0.2023108258222682  0.1125663168556705
  0.4889019623053311  0.2557212148929458  0.3940011481140531
  0.1180827530398462  0.6481626631787142  0.9467432318593733
 -0.0005737446824046  0.3731840099540552  0.1500665875677471
  0.3535747057382432  0.2911494860603425  0.1490010144296025
  0.4506227576258154  0.8268906566776284  0.3543635699206800
  0.7942404881702848  0.5182913394343954  0.2916089838747289
  0.6178174833339442  0.2640292509169088  0.4454972232076132
  0.6742064288499728  0.8982735903498423  0.7553059724402782
  0.5776028356071580  0.0630409715791931  0.7136917145760455
  0.0977813693222739  0.2311635504849029  0.6732589995522074
  0.4213181340835876  0.0183697426873859  0.6420014875011322
  0.4660197908755263  0.6624234217489722  0.0027991043403551
  0.4910068094088016  0.6793190157024795  0.2732801584498961
  0.2066434274994058  0.4947844466719568  0.6315094560589253
  0.3240650926159284  0.8195139559883529  0.1828150389774976
  0.3404511637137366  0.8044721520604755  0.4584084136479167
  0.6891018936408932  0.9110456806552830  0.4739871499488025
  0.1586316033927779  0.9454064620009003  0.7257623769604976
  0.1631373163016300  0.2549738389254447  0.3863748087286176
  0.7912247957540288  0.6788142577552513  0.2045053366945016
  0.4721593291833844  0.7777205362661136  0.6307928066149920
  0.2755281625167625  0.7861043436674624  0.8321728250946362
  0.1598251928755424  0.7767400207959668  0.1676059183438119
  0.0100401183631467  0.2275062795117016  0.3266012997482645
  0.8405747755774822  0.0527984373331382  0.2515171426435166
  0.6454121858844869  0.9009001968685035  0.0046673023183534
  0.7995820397751707  0.1674339019070602  0.3066384955574414
  0.8406657385461890  0.2510502744893865  0.6930021979323865
  0.4460183195432770  0.1135955284912071  0.8148559310664596
  0.3076219784954195  0.7579918224180588  0.7094440438186741
  0.7590625964991770  0.2735699551281074  0.4825432211630928
  0.0001306481992473  0.9755560963541318  0.5682092929176179
  0.8051393922717189  0.8044088913064509  0.3181614452659360
  0.8472012894237788  0.0350231492662809  0.4462931284066168
  0.2932229595149312  0.9604626004040062  0.7738722545010174
  0.3627500036961024  0.2665226567697753  0.5570977922581994
  0.6359322176623495  0.7221075952657314  0.8140210113209143
  0.8206202201816571  0.1161514334103883  0.0040139588310873
  0.8042895458029643  0.5987088771149311  0.8013931931687702
  0.5424069807254842  0.9761482822759728  0.2505062489766143
  0.4361994930418350  0.6146210342702834  0.6704111346246127
  0.4100738506307924  0.1005806488051305  0.1059165115611701
  0.3679748944764191  0.5217494846452386  0.7302713495278896
  0.3627760601959213  0.5548990830831871  0.3032664034155875
  0.3079370047274828  0.7092040161825038  0.3043244660157714
  0.1803151689367449  0.4753919587772754  0.8672624777010907
  0.0479364637205467  0.5589943246272061  0.2763636980997360
  0.4275331485767026  0.9977713277444091  0.4250910115686550
  0.7598579956308932  0.7491649585437506  0.6799220282883601
  0.8923203148198225  0.4343187182335815  0.7566721531550255
  0.4440455237180546  0.4193973850991778  0.1765880031530768
  0.9608811849266246  0.0968400317657704  0.6866100041230147
  0.6664639781918962  0.0641421464086321  0.3756877748497313
  0.4713657757809986  0.4652235626494613  0.5822071791741362
  0.2832610278310683  0.5238293986851090  0.1291152465068781
  0.3690550710765979  0.6050843401709592  0.4958604925406442
  0.8460407525167656  0.8972532090063611  0.5859634729747950
  0.3435009858096101  0.2611363988140998  0.2966998317626511
  0.1532704885002125  0.6175950178449018  0.1258274024504519
  0.5104540674239815  0.1510603070562085  0.2533325298077246
  0.4551982849183181  0.7787238884109501  0.1174309549857687
  0.2478527419575244  0.5260963578287582  0.4599177517372380
  0.1360396128448512  0.4583779959938946  0.4409552024502451
  0.4592314910933867  0.4384000917771083  0.7701356853031286
  0.1376551389687534  0.6485352667989464  0.4092144483041110
  0.5793378318537514  0.5256040058028846  0.0784487022546714
  0.9057447307086761  0.5305500026640996  0.9318388506152585
  0.7554959529712925  0.7150635965903666  0.9741703238011145
  0.5819626883340893  0.7221997718490987  0.0127332142313228
  0.7383869361461870  0.4690030064724156  0.4536694795824032
  0.9077430025098085  0.2185196151092026  0.1558840227018872
  0.3814052582775446  0.3903608613090558  0.4052847146998267
  0.5654872353174616  0.3714457872040426  0.6357112858501631
  0.8031416411488480  0.8682512606730639  0.8757605980701070
  0.9787378451920216  0.8149050673686759  0.9376314203185125
  0.8460970782242457  0.3499851136240346  0.0302333013076899
  0.7181747828372953  0.5212813703298197  0.0002203909235879
  0.9712752092122182  0.6962331265855187  0.7783971377928194
  0.1638157042432036  0.6331822844296865  0.7767820886620544
  0.4564047923990273  0.7356895181109024  0.8369686049592024
  0.3371207121977441  0.9230595779802587  0.6133340128836986
  0.0401316893951029  0.8110570661880545  0.5001004805967271
  0.0872230250547502  0.6329775655760747  0.5776145615365350
  0.7319037978599516  0.7279005936733876  0.4805592529235451
  0.6213202074451254  0.5892301094355041  0.3900611517588826
  0.9101734182758747  0.2839314049652824  0.5424692359098318
  0.5670382489286496  0.3549462861141967  0.0743066686340630
  0.2760176331727429  0.8409990346756065  0.0125643683633789
  0.0192895615445142  0.0602499067045800  0.2031430138012421
  0.4263916333293515  0.9226847161132415  0.7942741713245637
  0.7435294395339439  0.8452235803639051  0.1088839957859778
  0.4046569837511642  0.4942661438654953  0.9807647318434197
  0.3973696883979869  0.3217031594850044  0.0233573148526148
  0.2253852530729678  0.7556814789279820  0.5313619705281594
  0.5522167384000531  0.5375345624858064  0.8788340607161473
  0.8340812388079356  0.9108312875782009  0.1799939621685876
  0.5179669515697226  0.2636257386245655  0.7752905595955307
  0.9833192824401877  0.8637035736197440  0.7588976988285603
  0.6353144823711325  0.2531873010418177  0.6706052569452231
  0.6083951863810196  0.2436162823409997  0.2551213611598256
  0.0245741702334974  0.1816870945913966  0.4854613648706074
  0.1114083037785972  0.9197027672258501  0.0624678233238845
  0.6223728047933251  0.5659899821592080  0.6765547186392089
  0.2161390145539131  0.3320405892087512  0.0081556705909442
  0.6435006809834911  0.6016824254765032  0.2038742852780729
  0.5497751996099639  0.0897421434496765  0.9795130600594807
  0.0614880223632824  0.9729580011282007  0.8703815765855768
 
  0.00000000E+00  0.00000000E+00  0.00000000E+00
  0.00000000E+00  0.00000000E+00  0.00000000E+00
  0.00000000E+00  0.00000000E+00  0.00000000E+00
  0.00000000E+00  0.00000000E+00  0.00000000E+00
  0.00000000E+00  0.00000000E+00  0.00000000E+00
  0.00000000E+00  0.00000000E+00  0.00000000E+00
  0.00000000E+00  0.00000000E+00  0.00000000E+00
  0.00000000E+00  0.00000000E+00  0.00000000E+00
  0.00000000E+00  0.00000000E+00  0.00000000E+00
  0.00000000E+00  0.00000000E+00  0.00000000E+00
  0.00000000E+00  0.00000000E+00  0.00000000E+00
  0.00000000E+00  0.00000000E+00  0.00000000E+00
  0.00000000E+00  0.00000000E+00  0.00000000E+00
  0.00000000E+00  0.00000000E+00  0.00000000E+00
  0.00000000E+00  0.00000000E+00  0.00000000E+00
  0.00000000E+00  0.00000000E+00  0.00000000E+00
  0.00000000E+00  0.00000000E+00  0.00000000E+00
  0.00000000E+00  0.00000000E+00  0.00000000E+00
  0.00000000E+00  0.00000000E+00  0.00000000E+00
  0.00000000E+00  0.00000000E+00  0.00000000E+00
  0.00000000E+00  0.00000000E+00  0.00000000E+00
  0.00000000E+00  0.00000000E+00  0.00000000E+00
  0.00000000E+00  0.00000000E+00  0.00000000E+00
  0.00000000E+00  0.00000000E+00  0.00000000E+00
  0.00000000E+00  0.00000000E+00  0.00000000E+00
  0.00000000E+00  0.00000000E+00  0.00000000E+00
  0.00000000E+00  0.00000000E+00  0.00000000E+00
  0.00000000E+00  0.00000000E+00  0.00000000E+00
  0.00000000E+00  0.00000000E+00  0.00000000E+00
  0.00000000E+00  0.00000000E+00  0.00000000E+00
  0.00000000E+00  0.00000000E+00  0.00000000E+00
  0.00000000E+00  0.00000000E+00  0.00000000E+00
  0.00000000E+00  0.00000000E+00  0.00000000E+00
  0.00000000E+00  0.00000000E+00  0.00000000E+00
  0.00000000E+00  0.00000000E+00  0.00000000E+00
  0.00000000E+00  0.00000000E+00  0.00000000E+00
  0.00000000E+00  0.00000000E+00  0.00000000E+00
  0.00000000E+00  0.00000000E+00  0.00000000E+00
  0.00000000E+00  0.00000000E+00  0.00000000E+00
  0.00000000E+00  0.00000000E+00  0.00000000E+00
  0.00000000E+00  0.00000000E+00  0.00000000E+00
  0.00000000E+00  0.00000000E+00  0.00000000E+00
  0.00000000E+00  0.00000000E+00  0.00000000E+00
  0.00000000E+00  0.00000000E+00  0.00000000E+00
  0.00000000E+00  0.00000000E+00  0.00000000E+00
  0.00000000E+00  0.00000000E+00  0.00000000E+00
  0.00000000E+00  0.00000000E+00  0.00000000E+00
  0.00000000E+00  0.00000000E+00  0.00000000E+00
  0.00000000E+00  0.00000000E+00  0.00000000E+00
  0.00000000E+00  0.00000000E+00  0.00000000E+00
  0.00000000E+00  0.00000000E+00  0.00000000E+00
  0.00000000E+00  0.00000000E+00  0.00000000E+00
  0.00000000E+00  0.00000000E+00  0.00000000E+00
  0.00000000E+00  0.00000000E+00  0.00000000E+00
  0.00000000E+00  0.00000000E+00  0.00000000E+00
  0.00000000E+00  0.00000000E+00  0.00000000E+00
  0.00000000E+00  0.00000000E+00  0.00000000E+00
  0.00000000E+00  0.00000000E+00  0.00000000E+00
  0.00000000E+00  0.00000000E+00  0.00000000E+00
  0.00000000E+00  0.00000000E+00  0.00000000E+00
  0.00000000E+00  0.00000000E+00  0.00000000E+00
  0.00000000E+00  0.00000000E+00  0.00000000E+00
  0.00000000E+00  0.00000000E+00  0.00000000E+00
  0.00000000E+00  0.00000000E+00  0.00000000E+00
  0.00000000E+00  0.00000000E+00  0.00000000E+00
  0.00000000E+00  0.00000000E+00  0.00000000E+00
  0.00000000E+00  0.00000000E+00  0.00000000E+00
  0.00000000E+00  0.00000000E+00  0.00000000E+00
  0.00000000E+00  0.00000000E+00  0.00000000E+00
  0.00000000E+00  0.00000000E+00  0.00000000E+00
  0.00000000E+00  0.00000000E+00  0.00000000E+00
  0.00000000E+00  0.00000000E+00  0.00000000E+00
  0.00000000E+00  0.00000000E+00  0.00000000E+00
  0.00000000E+00  0.00000000E+00  0.00000000E+00
  0.00000000E+00  0.00000000E+00  0.00000000E+00
  0.00000000E+00  0.00000000E+00  0.00000000E+00
  0.00000000E+00  0.00000000E+00  0.00000000E+00
  0.00000000E+00  0.00000000E+00  0.00000000E+00
  0.00000000E+00  0.00000000E+00  0.00000000E+00
  0.00000000E+00  0.00000000E+00  0.00000000E+00
  0.00000000E+00  0.00000000E+00  0.00000000E+00
  0.00000000E+00  0.00000000E+00  0.00000000E+00
  0.00000000E+00  0.00000000E+00  0.00000000E+00
  0.00000000E+00  0.00000000E+00  0.00000000E+00
  0.00000000E+00  0.00000000E+00  0.00000000E+00
  0.00000000E+00  0.00000000E+00  0.00000000E+00
  0.00000000E+00  0.00000000E+00  0.00000000E+00
  0.00000000E+00  0.00000000E+00  0.00000000E+00
  0.00000000E+00  0.00000000E+00  0.00000000E+00
  0.00000000E+00  0.00000000E+00  0.00000000E+00
  0.00000000E+00  0.00000000E+00  0.00000000E+00
  0.00000000E+00  0.00000000E+00  0.00000000E+00
  0.00000000E+00  0.00000000E+00  0.00000000E+00
  0.00000000E+00  0.00000000E+00  0.00000000E+00
  0.00000000E+00  0.00000000E+00  0.00000000E+00
  0.00000000E+00  0.00000000E+00  0.00000000E+00
  0.00000000E+00  0.00000000E+00  0.00000000E+00
  0.00000000E+00  0.00000000E+00  0.00000000E+00
  0.00000000E+00  0.00000000E+00  0.00000000E+00
  0.00000000E+00  0.00000000E+00  0.00000000E+00
  0.00000000E+00  0.00000000E+00  0.00000000E+00
  0.00000000E+00  0.00000000E+00  0.00000000E+00
  0.00000000E+00  0.00000000E+00  0.00000000E+00
  0.00000000E+00  0.00000000E+00  0.00000000E+00
  0.00000000E+00  0.00000000E+00  0.00000000E+00
  0.00000000E+00  0.00000000E+00  0.00000000E+00
  0.00000000E+00  0.00000000E+00  0.00000000E+00
  0.00000000E+00  0.00000000E+00  0.00000000E+00
  0.00000000E+00  0.00000000E+00  0.00000000E+00
  0.00000000E+00  0.00000000E+00  0.00000000E+00
  0.00000000E+00  0.00000000E+00  0.00000000E+00
  0.00000000E+00  0.00000000E+00  0.00000000E+00
  0.00000000E+00  0.00000000E+00  0.00000000E+00
  0.00000000E+00  0.00000000E+00  0.00000000E+00
  0.00000000E+00  0.00000000E+00  0.00000000E+00
  0.00000000E+00  0.00000000E+00  0.00000000E+00
  0.00000000E+00  0.00000000E+00  0.00000000E+00
  0.00000000E+00  0.00000000E+00  0.00000000E+00
  0.00000000E+00  0.00000000E+00  0.00000000E+00
  0.00000000E+00  0.00000000E+00  0.00000000E+00
  0.00000000E+00  0.00000000E+00  0.00000000E+00
  0.00000000E+00  0.00000000E+00  0.00000000E+00
  0.00000000E+00  0.00000000E+00  0.00000000E+00
  0.00000000E+00  0.00000000E+00  0.00000000E+00
  0.00000000E+00  0.00000000E+00  0.00000000E+00
  0.00000000E+00  0.00000000E+00  0.00000000E+00
  0.00000000E+00  0.00000000E+00  0.00000000E+00
  0.00000000E+00  0.00000000E+00  0.00000000E+00
  0.00000000E+00  0.00000000E+00  0.00000000E+00
  0.00000000E+00  0.00000000E+00  0.00000000E+00
  0.00000000E+00  0.00000000E+00  0.00000000E+00
  0.00000000E+00  0.00000000E+00  0.00000000E+00
  0.00000000E+00  0.00000000E+00  0.00000000E+00
  0.00000000E+00  0.00000000E+00  0.00000000E+00
  0.00000000E+00  0.00000000E+00  0.00000000E+00
  0.00000000E+00  0.00000000E+00  0.00000000E+00
  0.00000000E+00  0.00000000E+00  0.00000000E+00
  0.00000000E+00  0.00000000E+00  0.00000000E+00
  0.00000000E+00  0.00000000E+00  0.00000000E+00
  0.00000000E+00  0.00000000E+00  0.00000000E+00
  0.00000000E+00  0.00000000E+00  0.00000000E+00
  0.00000000E+00  0.00000000E+00  0.00000000E+00
  0.00000000E+00  0.00000000E+00  0.00000000E+00
  0.00000000E+00  0.00000000E+00  0.00000000E+00
  0.00000000E+00  0.00000000E+00  0.00000000E+00
  0.00000000E+00  0.00000000E+00  0.00000000E+00
  0.00000000E+00  0.00000000E+00  0.00000000E+00
  0.00000000E+00  0.00000000E+00  0.00000000E+00
  0.00000000E+00  0.00000000E+00  0.00000000E+00
  0.00000000E+00  0.00000000E+00  0.00000000E+00
  0.00000000E+00  0.00000000E+00  0.00000000E+00
  0.00000000E+00  0.00000000E+00  0.00000000E+00
  0.00000000E+00  0.00000000E+00  0.00000000E+00
  0.00000000E+00  0.00000000E+00  0.00000000E+00
  0.00000000E+00  0.00000000E+00  0.00000000E+00
  0.00000000E+00  0.00000000E+00  0.00000000E+00
  0.00000000E+00  0.00000000E+00  0.00000000E+00
  0.00000000E+00  0.00000000E+00  0.00000000E+00
  0.00000000E+00  0.00000000E+00  0.00000000E+00
  0.00000000E+00  0.00000000E+00  0.00000000E+00
  0.00000000E+00  0.00000000E+00  0.00000000E+00
  0.00000000E+00  0.00000000E+00  0.00000000E+00
  0.00000000E+00  0.00000000E+00  0.00000000E+00
  0.00000000E+00  0.00000000E+00  0.00000000E+00
  0.00000000E+00  0.00000000E+00  0.00000000E+00
  0.00000000E+00  0.00000000E+00  0.00000000E+00
  0.00000000E+00  0.00000000E+00  0.00000000E+00
  0.00000000E+00  0.00000000E+00  0.00000000E+00
  0.00000000E+00  0.00000000E+00  0.00000000E+00
  0.00000000E+00  0.00000000E+00  0.00000000E+00
  0.00000000E+00  0.00000000E+00  0.00000000E+00
  0.00000000E+00  0.00000000E+00  0.00000000E+00
  0.00000000E+00  0.00000000E+00  0.00000000E+00
  0.00000000E+00  0.00000000E+00  0.00000000E+00
  0.00000000E+00  0.00000000E+00  0.00000000E+00
  0.00000000E+00  0.00000000E+00  0.00000000E+00
  0.00000000E+00  0.00000000E+00  0.00000000E+00
  0.00000000E+00  0.00000000E+00  0.00000000E+00
  0.00000000E+00  0.00000000E+00  0.00000000E+00
  0.00000000E+00  0.00000000E+00  0.00000000E+00
  0.00000000E+00  0.00000000E+00  0.00000000E+00
  0.00000000E+00  0.00000000E+00  0.00000000E+00
  0.00000000E+00  0.00000000E+00  0.00000000E+00
  0.00000000E+00  0.00000000E+00  0.00000000E+00
  0.00000000E+00  0.00000000E+00  0.00000000E+00
  0.00000000E+00  0.00000000E+00  0.00000000E+00
  0.00000000E+00  0.00000000E+00  0.00000000E+00
  0.00000000E+00  0.00000000E+00  0.00000000E+00
  0.00000000E+00  0.00000000E+00  0.00000000E+00
  0.00000000E+00  0.00000000E+00  0.00000000E+00
  0.00000000E+00  0.00000000E+00  0.00000000E+00
  0.00000000E+00  0.00000000E+00  0.00000000E+00
  0.00000000E+00  0.00000000E+00  0.00000000E+00
  0.00000000E+00  0.00000000E+00  0.00000000E+00
  0.00000000E+00  0.00000000E+00  0.00000000E+00
  0.00000000E+00  0.00000000E+00  0.00000000E+00
  0.00000000E+00  0.00000000E+00  0.00000000E+00
  0.00000000E+00  0.00000000E+00  0.00000000E+00
  0.00000000E+00  0.00000000E+00  0.00000000E+00
  0.00000000E+00  0.00000000E+00  0.00000000E+00
  0.00000000E+00  0.00000000E+00  0.00000000E+00
  0.00000000E+00  0.00000000E+00  0.00000000E+00
  0.00000000E+00  0.00000000E+00  0.00000000E+00
  0.00000000E+00  0.00000000E+00  0.00000000E+00
  0.00000000E+00  0.00000000E+00  0.00000000E+00
  0.00000000E+00  0.00000000E+00  0.00000000E+00
  0.00000000E+00  0.00000000E+00  0.00000000E+00
  0.00000000E+00  0.00000000E+00  0.00000000E+00
  0.00000000E+00  0.00000000E+00  0.00000000E+00
  0.00000000E+00  0.00000000E+00  0.00000000E+00
  0.00000000E+00  0.00000000E+00  0.00000000E+00
  0.00000000E+00  0.00000000E+00  0.00000000E+00
  0.00000000E+00  0.00000000E+00  0.00000000E+00
  0.00000000E+00  0.00000000E+00  0.00000000E+00
  0.00000000E+00  0.00000000E+00  0.00000000E+00
  0.00000000E+00  0.00000000E+00  0.00000000E+00
  0.00000000E+00  0.00000000E+00  0.00000000E+00
  0.00000000E+00  0.00000000E+00  0.00000000E+00
  0.00000000E+00  0.00000000E+00  0.00000000E+00
  0.00000000E+00  0.00000000E+00  0.00000000E+00
  0.00000000E+00  0.00000000E+00  0.00000000E+00
  0.00000000E+00  0.00000000E+00  0.00000000E+00
  0.00000000E+00  0.00000000E+00  0.00000000E+00
  0.00000000E+00  0.00000000E+00  0.00000000E+00
  0.00000000E+00  0.00000000E+00  0.00000000E+00
  0.00000000E+00  0.00000000E+00  0.00000000E+00
  0.00000000E+00  0.00000000E+00  0.00000000E+00
  0.00000000E+00  0.00000000E+00  0.00000000E+00
  0.00000000E+00  0.00000000E+00  0.00000000E+00
  0.00000000E+00  0.00000000E+00  0.00000000E+00
  0.00000000E+00  0.00000000E+00  0.00000000E+00
  0.00000000E+00  0.00000000E+00  0.00000000E+00