Amorphous GeTe6                         
   1.00000000000000     
    20.1928235405677235    0.0000000000000000    0.0000000000000000
     0.0000000000000000   20.1928235405677235    0.0000000000000000
     0.0000000000000000    0.0000000000000000   20.1928235405677235
   C    Te
    90   210
Direct
  0.7039446809458331  0.9512786803076166  0.5541692993657853
  0.1711714129656758  0.1753328981251655  0.0243554484429967
  0.3376729995376039  0.8473185308703700  0.6773954770079569
  0.1109682231323896  0.3918333975445772  0.1510842388337063
  0.9809893850238526  0.7927963287984650  0.1158707651117144
  0.8920296169910287  0.4594231121702586  0.4231556356770301
  0.2879847087721714  0.5828814047288342  0.2321900201666864
  0.5161928990101203  0.1923454032395136  0.8389978988653207
  0.1239420524213914  0.3895938898496530  0.4324391643332210
  0.5904530313535976  0.9818962123018931  0.2070581593783556
  0.5039589399340250  0.7558649198872360  0.7147015204718798
  0.5671050777763468  0.6509989916378569  0.6214150936685389
  0.2073243286700200  0.2282270534068710  0.5262938580453819
  0.2882641023842270  0.8809323423274450  0.3279644699013625
  0.3247675381330624  0.3831613504450395  0.4573741294559922
  0.3566812453487319  0.1565372857224889  0.8426158620699539
  0.1570871349859378  0.2295394918081189  0.0543104395964911
  0.1228211950204937  0.1172180150346082  0.5510997657223300
  0.4072939409559471  0.8637398553036592  0.6628158377694756
  0.0365036489522911  0.8623943755072594  0.2103647915270260
  0.7753479261959564  0.3047564436607625  0.5123175254043880
  0.4977125880300659  0.7386127979190392  0.8778413040993496
  0.8788118736673934  0.7549608483370828  0.0640487945232663
  0.4202455952563968  0.7432337442132579  0.3768013330316978
  0.9114300735233086  0.3975851591824496  0.3235417916417634
  0.8679317159360928  0.0301929510523618  0.7553375042231680
  0.0545389694813226  0.9055190174263817  0.2569650837081983
  0.0993414842158753  0.1773865794633030  0.5346763280238651
  0.4758438019033631  0.7840859034827344  0.8272040472873310
  0.1606274180751068  0.8171793463009288  0.6235716555280153
  0.2838451253247593  0.9490892830082727  0.3182454849653802
  0.1068064887474052  0.2902444169970829  0.4903698639024657
  0.1109944189205274  0.9462048451831810  0.2534638607727894
  0.5264514228106904  0.1318853991780570  0.8274678089600419
  0.2860738401167550  0.8399547255895344  0.6312516348856519
  0.3726251869875583  0.0813014329367038  0.7353991314548622
  0.3575954025870564  0.3244436736534568  0.4857209325963210
  0.4078792200742392  0.0499923810191064  0.5917981486258400
  0.0101229735417119  0.8270616794658870  0.1651952941211663
  0.8700779514781014  0.9550513499173230  0.8583933456797540
  0.6617950340964269  0.8320258037070517  0.4852633929611538
  0.1116807515386392  0.0546455425844280  0.5617286785909544
  0.2288242690575492  0.9861074432719836  0.2969904835527287
  0.3646585226711822  0.8357844285009540  0.7999527594160248
  0.4171284810024439  0.8175312095935343  0.8244947143244720
  0.9125543250706526  0.7787678768941453  0.1185080812775742
  0.2927441360951324  0.9275975307572005  0.5049712585563190
  0.0311767891720670  0.1945154668713724  0.5382238237944513
  0.3732324224046308  0.7887893485865972  0.3627940553065657
  0.2494759879872690  0.2830225162078576  0.5130828627227647
  0.1390017000731233  0.2297526662462832  0.5081965417901049
  0.1496910377601347  0.3407550142470577  0.4638557958809678
  0.2175694196764049  0.8300152279243928  0.6548630182343831
  0.1390461576461074  0.2801135610758657  0.0916765870092670
  0.5186634055288698  0.8198990581454410  0.1406863480819803
  0.9312398541067580  0.0987660178223395  0.6685871853464904
  0.7118360021376200  0.0187792273330377  0.5438462730023521
  0.8411411458330507  0.4770753874540030  0.4482904368578808
  0.7884625763741513  0.5699981213427171  0.2085865427913810
  0.1234184368099513  0.3324839741093351  0.1270356084834523
  0.1710992112704209  0.0859272492220003  0.2654746477001125
  0.3211360034898214  0.9864767733580447  0.5216997785354713
  0.3249604247730019  0.8386058125905467  0.7453980373314711
  0.5299877537037739  0.0666793717664276  0.8281798208491841
  0.5675187684707457  0.8491477100052105  0.7615001289095088
  0.3390713756716137  0.8395530180421465  0.3416415342598038
  0.5225481877833524  0.7917227950043983  0.7681239364512792
  0.9010817152243731  0.0660239199965512  0.7124385214624334
  0.6751770265908660  0.2680078687499426  0.3307526453152383
  0.1783429724173936  0.9404331670182778  0.2725979523537741
  0.2196029725228476  0.3333081593959120  0.4707961312289721
  0.9386072310038992  0.4359207398072598  0.3775866724133358
  0.7052733412207975  0.0700650622168035  0.5111379138533632
  0.7215153369031121  0.9030382594700170  0.5939451753211945
  0.4656787298074309  0.8821721908566231  0.6570747459790424
  0.3720257036708259  0.0107596886369509  0.5591840194224199
  0.9565745697248556  0.1265088868338268  0.6172974768168069
  0.3187265239506197  0.2788636972789887  0.5176083587811644
  0.0592508278862786  0.3955601116991207  0.4047907205739581
  0.3695925514505526  0.1207411189532398  0.7899329069827850
  0.0057002947010047  0.4394708926023002  0.4029042429706395
  0.2559698569461300  0.3859287258773001  0.4470617344385721
  0.9907872314799697  0.1530736686482997  0.5704294477310046
  0.8783490465748081  0.0371710523375985  0.0094589800401026
  0.8369242581474829  0.5422560444439475  0.1759467939998522
  0.8712191219502620  0.9860429470439138  0.8057137536645154
  0.2255730045863619  0.0586224883653935  0.2923466949362157
  0.5000128708947355  0.2556632174302640  0.8501699503782172
  0.6824594189815850  0.2949850591703373  0.3844731159070675
  0.9370201532044911  0.0561728030704736  0.0371326303707757
  0.8351008237071759  0.4995441116369254  0.7078738794538137
  0.3941457211159642  0.3165186176025176  0.7274219728334659
  0.7639578674708233  0.8219745375570429  0.3449945209998893
  0.3709196515003291  0.9998116661977252  0.3625951516936801
  0.8000293118496862  0.2540352295860161  0.9785324861944678
  0.0805211203358844  0.1805670191565649  0.8673384287379481
  0.7212942562613192  0.1853122622351205  0.0911000876406829
  0.4624816171392320  0.0986278986194427  0.6654823871575164
  0.9147363308205451  0.4357232933904737  0.0077574588772261
  0.2359749573773163  0.5826701195129174  0.5354471581939815
  0.1640513587685780  0.6909990739055698  0.4447777138350787
  0.4796588027299611  0.3941882175646046  0.6173226566107907
  0.0389488167510138  0.5344359121851948  0.4408313078455547
  0.3674040451484222  0.2137457376272267  0.5808129232293772
  0.7209860219761837  0.1502653601652952  0.4590635753104577
  0.7343740966614904  0.8437601866331766  0.1442543837683062
  0.7666995643822464  0.0296522569391687  0.7131155300072569
  0.5640481942174035  0.2393849773117481  0.6654220871318782
  0.1878244377042612  0.9115118032684570  0.0821122429287757
  0.0016007941304291  0.2858815306433311  0.4951468811589530
  0.9271047788587463  0.7181785804593210  0.9734887548247508
  0.9045623569082458  0.5349060945923336  0.9058236266784706
  0.5006081083723944  0.9845383898012648  0.2558422074235003
  0.4448895434355206  0.0158045270257694  0.8560094077317904
  0.1909676920362192  0.6468251734070273  0.6977603281098286
  0.3048629617812443  0.1207858796691602  0.3066652982968247
  0.7732800467505040  0.3932644248351606  0.0002205727365005
  0.8059335332583946  0.6132687849249479  0.6067746007479508
  0.5826954313184969  0.6915767809613924  0.0231766509580948
  0.6658458497558576  0.2228777451346639  0.2420879211389027
  0.6050329597394540  0.7181977947473988  0.8823460545161081
  0.8939857001399680  0.8839812982046763  0.9300621286497820
  0.2960549608138802  0.0525922424318462  0.0135990337935760
  0.1558332171464773  0.4046157109964706  0.2459417800949553
  0.9287871239075950  0.3258734511453364  0.6648235579714321
  0.6337973543118165  0.7737713620989136  0.4054744302097021
  0.4400280708152754  0.7160452531705043  0.9606479876543483
  0.9772248326812248  0.1443717571009937  0.9970512721111792
  0.6295363984034319  0.3522283112707436  0.1684109614794021
  0.2991741956039900  0.5694228983949687  0.7278954251743018
  0.5355808188768321  0.4763902930187303  0.3528818550100241
  0.7646351420545907  0.1820751582406530  0.7362791153117199
  0.9221018655638625  0.2474679507489460  0.0915272325470405
  0.0476238673969925  0.4651094717540580  0.1096406871904824
  0.8068621306969778  0.9075192123490746  0.6492728760781333
  0.9229290224557841  0.6940152165044078  0.3620150315007342
  0.4519642702679326  0.1336472752859663  0.4356903139986206
  0.4139371904973012  0.6465561812107838  0.3349800843877864
  0.1236076222085243  0.0787510464379303  0.0749352823362191
  0.2856808765077032  0.5646282570024442  0.9446936232936455
  0.5492516510588793  0.8859882105698091  0.3489764585369499
  0.1272578334462675  0.3238351926977686  0.8453791798443958
  0.6379753819736356  0.3155551019803207  0.0322643952316554
  0.6240378260442968  0.6167720080405199  0.7048458941444548
  0.2450467594439943  0.7007274650375235  0.0383082412613100
  0.5578659113945453  0.9154280702849912  0.6700356643795845
  0.3360754432418007  0.1450269135624715  0.1357200766742369
  0.7215363403646469  0.0051213195863895  0.9485292549980253
  0.8118163467894574  0.3688077604970639  0.3258722572326774
  0.6707289322363016  0.3261868935950274  0.4805971140187484
  0.4388243401182590  0.4224143469868588  0.8259430542104825
  0.0443084622379755  0.7712345746868010  0.3796351754086906
  0.3019785541407988  0.9705220414810125  0.1325128178376521
  0.0081903880058651  0.0959319978013843  0.3975462938087349
  0.4277185169221719  0.5535381245517278  0.9362109191057311
  0.5868307281801702  0.4995281361658367  0.8764093210482017
  0.9994047890590094  0.3504694294992794  0.9248309179790439
  0.1129940963723074  0.6041477216948417  0.3109100453317326
  0.8047337525225053  0.3859472818201706  0.5918053634779445
  0.2490192844173041  0.6391283533397781  0.3187028048760498
  0.9912868501659788  0.5703767153145894  0.7139594515524894
  0.1128671045098846  0.5526847273266035  0.6118170771064244
  0.9241897404304489  0.6012075306028297  0.1487559559474962
  0.3431894203679918  0.6657073681874892  0.1921142229668239
  0.5122942859376837  0.3198865644704363  0.3345521797219839
  0.4115804462412803  0.8782838704026729  0.9978395113378288
  0.2998683071431046  0.9568154528031441  0.8987978975575787
  0.4101998174080257  0.5769781168061441  0.0952075504475868
  0.2119158982477465  0.1578664525139040  0.9389839399723103
  0.5183899453677265  0.6170162145713541  0.4286173099952816
  0.5699622338632764  0.4919416812009174  0.5566940770654913
  0.1182665358880513  0.3933341937664199  0.6533429470931924
  0.2944170191614745  0.2353998894610328  0.7978758370951943
  0.7136221944126179  0.4967259727620044  0.2418795794347597
  0.5282536006066618  0.4109261550377830  0.0281214046589793
  0.9386838354452024  0.2081117874419731  0.3058569990577631
  0.8414148165405441  0.8884515102166457  0.4388388405042222
  0.7779892455562106  0.8381598595328427  0.8308735431741581
  0.4622427613395364  0.0901010112000280  0.1266332267408596
  0.7553538207022490  0.5017567175297118  0.5009083333108976
  0.5859311644341784  0.8974210142863859  0.8625927287155577
  0.0831781281008933  0.0497042424734022  0.2302263014562700
  0.2131143498642314  0.5321990200915409  0.1705261481606148
  0.5322633148229942  0.2011390443694053  0.0654289285374437
  0.5292284254495599  0.1730981940874236  0.3230642935375640
  0.2244312640535676  0.8106785722083317  0.7638400891689104
  0.9748417944812219  0.4618557525480378  0.8003422981982622
  0.7419918173092237  0.0472996729037667  0.1614376932354766
  0.9614089604547670  0.3819582427594020  0.2307449287885458
  0.0733549322233226  0.0181768610081797  0.9271047951287805
  0.6216667837820447  0.0246134491001864  0.8102964778282494
  0.0098699524619234  0.6887528970292118  0.5810981923355084
  0.8790901414861687  0.1096133452442067  0.4466916575099228
  0.0179697947661637  0.6662188666751735  0.8164540853750586
  0.5216124440763023  0.7869638644569047  0.2473284996055941
  0.9750848981085357  0.4471343149400236  0.6083359430616339
  0.1954041495179856  0.4558405549565841  0.4020170752535142
  0.8630143519894811  0.8097852568027815  0.2096983403634869
  0.2586590045397382  0.3720865842475366  0.6999556056611622
  0.8231846246547284  0.9553630443954895  0.0483821831596700
  0.2683306884598211  0.3169248847373313  0.1725319195901406
  0.4732249830234578  0.6097323140808456  0.6038896121924389
  0.2517571483099137  0.8268605693776254  0.9731073383068057
  0.9902010813521529  0.8454946301681743  0.8179670513391057
  0.4242209699255466  0.6946747250842602  0.7132005613845576
  0.0359830433752263  0.9754798186494248  0.7951883625994359
  0.0458627215608642  0.9978260436653468  0.4977661245273457
  0.4517091896367420  0.5059093229791408  0.7190764567737141
  0.3566120429143685  0.3134884760075696  0.2776998968383595
  0.3829132968947405  0.4737663240771931  0.4510174148456565
  0.1683076157249311  0.7682419461743437  0.1350685533840720
  0.1923087598989273  0.9417774450607910  0.4602274700391654
  0.4598493046529890  0.3103752534108201  0.4985879074160365
  0.7868882099504630  0.2140452150449075  0.5685790688116752
  0.2881076941971767  0.0208804731921767  0.7008658416225894
  0.6150695844483199  0.1136198009785391  0.9983263392622512
  0.3896049493484048  0.1513440439087285  0.9392556327957996
  0.7762000006891360  0.7267213547889381  0.0651857752947005
  0.1224394579472986  0.0052302151601873  0.6480339825195097
  0.0592337647922046  0.3196252514344866  0.3258487839750380
  0.2425381226293209  0.4327425331517665  0.0154417842123901
  0.1009545449783855  0.1096933585819371  0.7372957134164909
  0.0173188445796595  0.2078312788020028  0.1936288163145979
  0.1854314139017590  0.1908547936105459  0.2515112750573280
  0.5441945682359990  0.1457855647862417  0.5396834386159551
  0.1128687207639440  0.6275499215474325  0.1582203983990218
  0.1413802919541909  0.8232661966376188  0.5185960517103670
  0.9764832477992079  0.9923864046286568  0.1043801599426209
  0.9164051052785626  0.9795993896385300  0.5544738372389478
  0.8347606188370810  0.4389032201646491  0.1630902004540145
  0.2096974211215298  0.0286317584290000  0.8158932575655037
  0.2658687026168587  0.3390793658196870  0.9106073527674797
  0.5557014361061053  0.7593870563680528  0.6236048008178986
  0.6878121722245683  0.1688188138698977  0.8528618338186300
  0.7881308740545261  0.6648115362584947  0.2446537241495836
  0.6851171469766016  0.5384093249399934  0.9940002588892826
  0.4876498121145601  0.7504831891067894  0.4646677455606475
  0.4590455291114907  0.5158656981576915  0.2183098245842660
  0.8357043809083555  0.7332575056023865  0.6817910390384643
  0.6856875320057370  0.3372021015900392  0.6514718552816625
  0.4338542497611279  0.2914751907730445  0.9254340052697786
  0.6004931043464594  0.8346587579788488  0.0738459355920661
  0.3202363484716433  0.8320482896170429  0.5284789565675688
  0.5990252819133671  0.4953823275355329  0.1084897743018612
  0.7091430995617806  0.7968962145233160  0.5637453900376215
  0.8368391218911831  0.6342429558109481  0.8010137695204410
  0.5059089910639107  0.9864210600844263  0.9793962970736331
  0.6117723646953087  0.9828980001018887  0.1069664678922508
  0.6419272224410629  0.4756730334292452  0.6712131133290681
  0.5615055432479545  0.3298651257510492  0.7926321295907239
  0.6790880359349388  0.3055534487406538  0.8703555585295568
  0.6316575878617845  0.0793409054394428  0.3596265178648763
  0.8095483004880871  0.6991692632105954  0.4776337595762248
  0.6368108328150975  0.6391995410243425  0.5355426759452350
  0.3644162946574523  0.2750549751461614  0.0774508835378017
  0.9073632517211888  0.2017808477641606  0.8004114356742561
  0.0531352527861040  0.8981360549433133  0.9947392749075067
  0.6456115541323776  0.1287427970226419  0.6677746357636705
  0.2849547523027290  0.0707917376257623  0.4614952246990060
  0.6595371449480996  0.7184228229198262  0.2293346623960069
  0.3297913216953818  0.4867163063426259  0.2638858895692601
  0.8161658417270244  0.5824939866028621  0.0211725553835158
  0.2780782783783372  0.4557424271312731  0.8128729342221283
  0.3389902810358540  0.4997053431721458  0.5899190510841720
  0.0002285188778452  0.8905650932220095  0.6320894006957971
  0.0433992580700937  0.7389532395499244  0.0517981966595509
  0.6157136831425497  0.9251000787832954  0.4931130605989638
  0.1031411704691256  0.8131309913569055  0.8958096824196775
  0.6783132455745540  0.7975799220076504  0.7335357104867608
  0.5096668297341705  0.6002835413717577  0.8081800758867360
  0.8704115612552346  0.3162796828270921  0.8599434124069444
  0.7219810284171694  0.6117164263195550  0.4072042144593981
  0.0575148621933692  0.2877163143789124  0.7181383188053874
  0.7421888048163130  0.4480502616165345  0.7943424398782273
  0.9001631540817205  0.9831874722940660  0.2496420972977337
  0.3168225885199534  0.7066419150251187  0.8874960658309728
  0.8091779222744397  0.2621960289960468  0.1786621644045184
  0.9340509484364204  0.5786268287942785  0.5181988876453146
  0.2365430264273889  0.1487883058148235  0.5881401963764200
  0.8141596870226971  0.0077377847173156  0.3607965240643924
  0.6126850969362529  0.5930754756829876  0.2911306036162519
  0.1451684695313881  0.6127197794975822  0.9901657065242090
  0.3734427689861567  0.4205387714141566  0.0629323984327597
  0.7067385604540288  0.5724832294876748  0.8441546963945690
  0.6796282465013826  0.9703348549858165  0.2665674592677913
  0.7770400602279097  0.7236383116184096  0.8968846953547676
  0.0857467417079751  0.7812188668281822  0.6862780034750797
  0.9890263217261073  0.8976217668340599  0.3465043706954934
  0.8442581018264881  0.2818803705912998  0.4337289345137860
  0.1198199076590315  0.4668448561905072  0.8205247919682557
  0.9122812803432081  0.7850075121403862  0.5633665867374570
  0.4799159356795978  0.7174702786761913  0.1284553075353897
  0.4767507183668004  0.3264713493853229  0.1969555396251145
  0.8411588102883480  0.1218105152126790  0.2298126023270144
  0.9572854961868150  0.5817709666960176  0.2900742116294859
  0.1956333741182331  0.8363644453970089  0.3037806957138180
  0.4368327683621246  0.8936611296163645  0.1341219142969444
  0.8347859757373327  0.1051295322364039  0.9385558786945782
  0.1531678902911252  0.6375611101316974  0.8375673450862763
  0.0892086782313931  0.4670690613372723  0.9739819146183769
 
 -0.22085966E-02  0.75363222E-02  0.35296845E-02
 -0.21121774E-02 -0.72726595E-02 -0.15267930E-02
 -0.13704170E-02  0.80143440E-02 -0.56226292E-02
  0.12438017E-02 -0.49152027E-02  0.27409843E-02
 -0.33549743E-02 -0.87967438E-02 -0.64631723E-02
  0.77549929E-02 -0.49965147E-02 -0.14022753E-01
 -0.97084137E-03 -0.63144205E-03  0.19480750E-02
 -0.11558331E-01  0.43005176E-03 -0.27755131E-02
 -0.22637197E-02  0.40859876E-02 -0.84125672E-02
  0.16947298E-01  0.72229521E-05  0.63954528E-03
  0.63701160E-02 -0.48172888E-02 -0.89114948E-02
  0.66422024E-02  0.25120767E-02  0.76020187E-02
 -0.85399549E-02  0.10028814E-01 -0.99501955E-03
  0.68419273E-02  0.38558028E-02  0.61773549E-02
 -0.67282081E-02  0.85055722E-03  0.27357726E-02
  0.88934404E-02 -0.83862420E-03  0.10947422E-01
  0.59903210E-02 -0.13233621E-02 -0.76385608E-03
  0.12009773E-01 -0.22969166E-02 -0.10677723E-01
  0.47073825E-02 -0.64312377E-03  0.35208880E-02
  0.20267153E-02 -0.79548623E-02  0.11388772E-01
 -0.10647522E-01  0.36261328E-02  0.21692130E-02
 -0.30898508E-02  0.26658412E-02 -0.11056768E-01
  0.15356941E-02 -0.29974067E-02  0.37682904E-02
 -0.58925822E-02  0.12831921E-02 -0.31933932E-02
 -0.41426148E-02  0.98163922E-03 -0.98344269E-03
 -0.13249235E-02  0.54386247E-02  0.74800311E-02
  0.77082382E-02 -0.42862961E-02 -0.17538288E-02
  0.90794172E-02 -0.32525661E-02  0.41536934E-02
  0.82577445E-02 -0.17071504E-02 -0.27987511E-02
 -0.40589721E-02  0.14871175E-02 -0.99492417E-02
  0.37938215E-02  0.10963703E-01  0.75899065E-02
 -0.40833898E-02  0.86473751E-03 -0.99377015E-02
 -0.52568315E-03  0.65731589E-02  0.90146565E-03
  0.23227755E-02  0.49166198E-02  0.12426708E-01
 -0.50564131E-02 -0.43982164E-02 -0.66382076E-02
  0.35283812E-02 -0.11368818E-03 -0.91533403E-02
 -0.12965197E-01  0.19976171E-02  0.11189952E-02
 -0.40484994E-02 -0.78798716E-02  0.11324221E-01
  0.56621162E-02  0.86182428E-02 -0.14873951E-02
 -0.50042591E-02  0.42748617E-02  0.10288851E-01
 -0.76680932E-02 -0.86383605E-02 -0.43548494E-02
  0.12370404E-01 -0.12775172E-01  0.48370266E-02
 -0.15202670E-01 -0.25821931E-02  0.65698587E-02
  0.45227901E-02  0.36753655E-02  0.24379057E-03
  0.58732929E-02 -0.49675909E-02  0.49264230E-02
 -0.39728492E-02 -0.33755288E-02  0.67203668E-02
 -0.24987970E-02  0.58775785E-02 -0.60397918E-02
 -0.63328309E-02 -0.34495731E-02  0.97561862E-03
 -0.14216467E-02  0.52604696E-02  0.25151055E-03
 -0.15748197E-02 -0.25667879E-02 -0.22087668E-02
  0.56315869E-02  0.10509299E-01 -0.15466101E-02
  0.56912274E-02 -0.26925330E-03  0.42381580E-02
 -0.33383049E-03  0.12565143E-03  0.96122328E-02
 -0.44229378E-03 -0.10845191E-02  0.37500274E-02
  0.23024106E-02 -0.69049968E-02  0.56375891E-02
 -0.59189424E-03  0.90492600E-02  0.31152453E-02
 -0.44826460E-02  0.25415255E-03  0.91397456E-02
 -0.35083813E-02  0.78561414E-02 -0.97407714E-02
  0.19812516E-02 -0.29744440E-02 -0.26820258E-02
  0.68240274E-02  0.36884021E-02  0.19077298E-02
  0.58138042E-02  0.10359843E-02  0.40602569E-02
 -0.30857114E-02  0.34138090E-03 -0.33158505E-02
 -0.46462496E-02  0.28916680E-03 -0.56802077E-02
 -0.12237688E-01 -0.81021766E-03 -0.64628063E-02
  0.98353508E-02 -0.38730198E-02  0.18067893E-03
  0.16816346E-02 -0.39193982E-02  0.82328010E-02
  0.10623957E-01  0.12332134E-01 -0.19045649E-02
  0.57126533E-02 -0.94505628E-03  0.23723938E-02
  0.74604830E-03 -0.24722268E-02 -0.86428987E-02
 -0.58501327E-02 -0.59888905E-04  0.12965946E-02
 -0.28620488E-02 -0.11185675E-02  0.50153168E-02
 -0.30931073E-02 -0.23312713E-02 -0.78816577E-02
  0.34813251E-02  0.12472456E-02 -0.77527102E-03
 -0.65703582E-02  0.32791044E-02  0.11270572E-01
 -0.46468906E-02  0.85354632E-02  0.59971130E-02
  0.55074922E-02  0.27822009E-02 -0.71116631E-02
 -0.34430818E-02  0.82491512E-02 -0.49012823E-02
 -0.72258243E-02  0.27791062E-02 -0.16658843E-02
 -0.36963729E-02 -0.17286655E-01 -0.79568720E-03
  0.18828009E-02 -0.50711370E-02  0.74600994E-02
 -0.20859181E-02 -0.59600673E-02 -0.74463878E-02
  0.37820718E-02 -0.17470614E-02 -0.22919294E-02
 -0.12342644E-02 -0.85912344E-02 -0.65330383E-02
  0.13373877E-02 -0.30734277E-02  0.88211752E-02
  0.15856961E-01  0.83612573E-03 -0.84178355E-02
  0.65714606E-02  0.70915333E-03 -0.28694593E-02
  0.57818080E-02 -0.92897403E-02 -0.49907252E-02
 -0.45061799E-02 -0.76392157E-02 -0.32534643E-02
 -0.33355951E-03 -0.51021781E-02  0.77283421E-02
  0.75375900E-02  0.47991108E-02  0.64750337E-03
  0.10120640E-02 -0.62031394E-03 -0.73393636E-03
  0.18983046E-02  0.25508582E-05  0.13275469E-02
  0.81248977E-04  0.12357320E-02 -0.10689241E-02
  0.20269659E-02 -0.17650103E-02 -0.17489832E-02
  0.20236281E-02 -0.81130122E-03 -0.22857528E-02
 -0.86669109E-03 -0.33716292E-03 -0.91588551E-03
 -0.21561273E-02  0.16841359E-02 -0.34362774E-03
  0.18328779E-02  0.12533773E-02  0.49497408E-03
 -0.41411983E-03 -0.17242232E-02 -0.10429627E-02
 -0.30897276E-04 -0.48664700E-03  0.12964395E-02
  0.12723584E-02  0.24139379E-02  0.23321826E-02
 -0.15074658E-03  0.38814239E-04 -0.86090106E-03
 -0.12898351E-02  0.83386557E-03 -0.55707171E-03
  0.10445616E-02 -0.91686562E-03 -0.19224014E-02
 -0.60214874E-03 -0.12748484E-02  0.16717788E-02
  0.13683041E-02 -0.64883413E-03  0.10764744E-02
 -0.12106167E-02  0.13851660E-02 -0.15308354E-02
  0.24973387E-02  0.49793683E-03 -0.87304531E-03
  0.19255667E-02 -0.14110358E-02  0.70018047E-03
 -0.22866747E-02  0.19166219E-02 -0.23618782E-03
  0.52600615E-03  0.26926561E-03  0.13226419E-02
 -0.17925945E-03 -0.58553811E-03 -0.28754537E-03
 -0.22288029E-02  0.70119843E-03  0.22824639E-02
 -0.14295585E-03 -0.11563024E-02  0.64603180E-03
 -0.11895022E-02 -0.17809304E-03  0.25777413E-02
 -0.73138113E-04  0.22328983E-03  0.19633284E-02
 -0.14531957E-03  0.85320655E-03 -0.78151477E-04
  0.13071264E-02  0.10401526E-03  0.42806715E-03
 -0.10807103E-02 -0.56286726E-03 -0.17953824E-03
 -0.12910679E-03  0.21311337E-02  0.55749482E-04
  0.37418554E-03  0.77690776E-03  0.11915300E-02
  0.16309454E-02 -0.60231263E-03 -0.62591268E-04
 -0.47926828E-03 -0.11163941E-02 -0.52552173E-03
  0.26138471E-02  0.10825141E-02 -0.21007197E-02
 -0.10592036E-02 -0.21056585E-02  0.32973765E-03
 -0.23765663E-03  0.35659306E-03 -0.22653578E-02
 -0.67599094E-03  0.28187414E-03  0.22190936E-02
 -0.87588271E-03 -0.46842900E-03 -0.24582438E-03
 -0.18065755E-03  0.98706913E-05  0.13633062E-02
  0.15014344E-02 -0.12015794E-04 -0.42769556E-03
  0.14318381E-03 -0.41488801E-03 -0.77076728E-03
 -0.20528196E-04 -0.17923410E-02  0.57038602E-03
 -0.35336919E-03  0.29530223E-03 -0.10350961E-03
 -0.11093113E-03  0.19581087E-02  0.29016841E-03
  0.20339794E-02 -0.23364130E-03 -0.11971381E-02
 -0.19427221E-02 -0.12659099E-02 -0.11109329E-02
  0.19430762E-03 -0.20034279E-02  0.12372702E-03
  0.39154157E-03  0.12488001E-03  0.21532656E-02
  0.35385217E-03 -0.18239797E-02  0.42415232E-03
 -0.60686000E-03  0.36223888E-03  0.81511043E-03
 -0.13581029E-03 -0.20666029E-02 -0.99105359E-03
 -0.88758226E-03  0.76350592E-03 -0.13935030E-02
 -0.14603725E-02 -0.19794232E-04  0.18022845E-02
 -0.15781218E-02 -0.90631422E-03  0.11894585E-02
  0.51595184E-03 -0.65423986E-03  0.38567247E-03
 -0.50933080E-03  0.14613107E-02  0.15063097E-02
  0.14230098E-03  0.11164729E-03  0.15953890E-02
 -0.18119313E-02 -0.37265880E-03  0.14169863E-02
  0.12023156E-02  0.17656666E-02  0.22986864E-02
  0.33350124E-02 -0.25704377E-03 -0.10090888E-02
 -0.13811401E-03 -0.54265339E-03 -0.11521359E-03
 -0.84015144E-03  0.13035372E-02 -0.20096544E-02
  0.52409120E-03  0.60395915E-03  0.12706384E-02
  0.61008148E-03  0.67534252E-03 -0.23027107E-02
 -0.57619378E-03  0.82013589E-04  0.35669625E-03
  0.13638428E-02  0.44939090E-03  0.12583362E-02
  0.66269798E-03  0.81862083E-03 -0.10094500E-02
 -0.23996575E-02  0.29829055E-03  0.23757650E-02
 -0.16744320E-02  0.66795423E-03 -0.12792689E-02
 -0.10677254E-02 -0.10131016E-02 -0.15614565E-02
 -0.33825094E-02 -0.54827613E-03 -0.17683029E-03
 -0.66299586E-04 -0.33084364E-03  0.12370622E-02
  0.39413080E-03 -0.68341095E-03 -0.17771191E-02
 -0.12014801E-02 -0.53903344E-03  0.11145211E-02
 -0.12319121E-02  0.41459871E-03 -0.10079387E-02
 -0.16945752E-03 -0.57494259E-04  0.89577765E-03
  0.24787702E-04 -0.18218273E-02  0.11848972E-02
  0.12479010E-02  0.84279927E-03 -0.20926346E-03
  0.12419911E-02  0.24458186E-02 -0.33448981E-02
  0.21102552E-03 -0.14762236E-02 -0.44670057E-03
 -0.10937581E-02 -0.92705417E-03  0.32829768E-03
  0.12654958E-02  0.15104839E-02 -0.11243008E-02
 -0.68526692E-03  0.23519488E-02 -0.90032076E-03
 -0.18832443E-02 -0.80833127E-03  0.11681480E-02
  0.34249706E-03 -0.10396162E-02 -0.34855598E-03
 -0.47259146E-04  0.19303271E-02  0.10896356E-04
  0.88627023E-03 -0.54698678E-03  0.84358879E-03
 -0.57144338E-03  0.14947376E-02 -0.90943000E-03
 -0.10132413E-02 -0.18814158E-03  0.75697478E-03
  0.57459509E-05 -0.68022981E-03  0.20656451E-04
 -0.75619604E-03 -0.68094190E-03  0.55416221E-03
 -0.16357294E-02  0.28749933E-02 -0.11398909E-02
 -0.60683323E-03  0.51508150E-03  0.18151778E-02
 -0.14333484E-02  0.17199105E-02  0.71473918E-03
  0.13619547E-02  0.18437608E-02  0.10666841E-04
 -0.25235938E-02 -0.17264460E-03 -0.40965504E-03
 -0.10665649E-02  0.12432008E-02  0.54979463E-03
  0.10254562E-02 -0.53081749E-03  0.16529195E-02
  0.42475921E-03  0.84724369E-03 -0.14913917E-02
  0.73128803E-03  0.85165362E-03  0.15759057E-02
  0.20964985E-02  0.77484326E-04 -0.16472102E-02
 -0.80424637E-03  0.78337242E-03  0.14520514E-02
  0.42469772E-03 -0.17944540E-02 -0.43851578E-03
  0.99154429E-03 -0.92852412E-03 -0.14372344E-03
  0.60191897E-03  0.52623400E-03  0.10157115E-03
  0.78895313E-03  0.74033478E-03 -0.96353865E-03
 -0.11564818E-02 -0.23146976E-02 -0.66186168E-03
  0.63030659E-03  0.21325866E-02 -0.36297113E-03
 -0.11835216E-02 -0.84873726E-03 -0.96495310E-04
  0.18331398E-02 -0.68561308E-03  0.17869298E-02
 -0.10159817E-02  0.16260373E-02 -0.10121739E-02
 -0.15369759E-02 -0.15100418E-02  0.86646874E-03
  0.15074963E-02 -0.37916172E-03 -0.50220904E-03
  0.96629928E-03  0.12106017E-02  0.16085934E-02
  0.10737097E-02  0.15168537E-03 -0.19310072E-02
 -0.15481497E-02 -0.27222668E-02 -0.12243751E-02
 -0.17531121E-02  0.80059173E-05  0.16429725E-02
 -0.22818592E-03 -0.12126860E-02  0.14860473E-04
 -0.54163906E-03  0.46969843E-03 -0.74112752E-03
  0.21069872E-02  0.83447559E-03  0.61567781E-03
 -0.57520830E-03  0.96684087E-03  0.22596814E-04
 -0.18478632E-02  0.16073730E-02 -0.25163011E-04
  0.10754090E-02 -0.31299595E-03  0.50844933E-03
 -0.74154460E-04  0.20858610E-03  0.11076909E-02
  0.25279037E-02 -0.41784031E-03  0.13625472E-02
  0.84484851E-03 -0.18202741E-03 -0.61173407E-03
 -0.34955660E-03  0.78903120E-03 -0.11627395E-02
  0.16352461E-02 -0.56630888E-03 -0.30648164E-02
  0.89658261E-03 -0.69132099E-03  0.80892230E-03
 -0.14570057E-02  0.25287847E-03  0.30718653E-02
  0.23603770E-02 -0.18711617E-02 -0.12315578E-02
  0.75398675E-03  0.10827913E-02  0.25652181E-03
 -0.52353281E-03  0.21927622E-02 -0.20365447E-02
  0.56880791E-03 -0.34773847E-03  0.41600162E-04
 -0.38423882E-04  0.26266290E-04  0.23448224E-03
 -0.29527645E-03  0.18384799E-02  0.20953555E-03
 -0.69911241E-03  0.20031278E-04  0.23799364E-02
 -0.95145438E-03  0.14517153E-02  0.76748372E-03
 -0.10199649E-02  0.74982452E-03 -0.37981738E-03
  0.14395865E-03 -0.44894797E-03  0.18297188E-02
 -0.26690791E-03 -0.11788680E-03 -0.46098602E-03
 -0.48490891E-03 -0.66167108E-03  0.70142958E-03