Ge Se                                   
   1.00000000000000     
    19.7402305603027344    0.0000000000000000    0.0000000000000000
     0.0000000000000000   19.7402305603027344    0.0000000000000000
     0.0000000000000000    0.0000000000000000   19.7402305603027344
   Ge   Se
   150   150
Direct
  0.0523736199939288  0.6871929615545538  0.4486417013462825
  0.7387381777510033  0.5390907541662762  0.9297153898062207
  0.0260411790456208  0.1347717065827062  0.3626537469855202
  0.4998290278007344  0.0121643801796123  0.2978156851581609
  0.7597533744793423  0.9824916869443265  0.4983274921570177
  0.5661737464808700  0.5164781128968743  0.9181163938696094
  0.4319839809582444  0.7590330638226521  0.6857275787198559
  0.5062631675059367  0.7604249720278349  0.3335789766208655
  0.2074667466919964 -0.0010938990340044  0.3777954300741550
  0.6035545187462488  0.9547288539533910  0.0315505875416272
  0.4050143502029523  0.0307459709554271  0.1445848551503758
  0.6955657827482437  0.7414547001522742  0.0318093497057331
  0.9705594503812360  0.6659810514605542  0.9102941498797529
  0.8736678747007304  0.8557367196588805  0.3491975614031871
  0.9836455692950282  0.0323997662948318  0.7373456261590767
  0.9620596428558853  0.8862532735849561  0.8343782254646549
  0.5452273007589661  0.7811486687695057  0.5026713968014214
  0.2990513413788923  0.4487893866814187  0.1409372313499645
  0.7146178519589047  0.0714678937060643  0.7320685951522028
  0.5071179075242451  0.3060967029596438  0.2553676873053086
  0.8888334634485042  0.9416629352422629  0.2139656895922041
  0.5521537800191254  0.2856905183247887  0.0076672625882308
  0.2548076621330616  0.6088596015631113  0.8161223189309620
  0.7408539011021879  0.1944486103765194  0.4956891055536574
  0.3505988636957881  0.5878348055990459  0.2261968457537137
  0.5042589119335958  0.0821118131448875  0.5460726554737990
  0.1328227529358738  0.8234710433386773  0.7281606014445010
  0.3776360571705270  0.8937433563891610  0.8615343244664172
  0.4907203885749731  0.2547654633300692  0.7351733277786628
  0.2652425940982082  0.8684448859237311  0.1807488239840294
  0.9434395495505189  0.7341554886344277  0.2821140832168744
  0.0558045132441373  0.5949891599189028  0.0550311378361836
  0.4737547706628217  0.4304816824339703  0.3837972074116040
  0.8715339613094505  0.2222676189084022  0.6253929554361884
  0.8221195192599265  0.2488879534830566  0.1937153870234153
  0.7593901857954427  0.8202872462968358  0.6247377974718460
  0.0169676867254457  0.3612590086786978  0.8388057087681411
  0.2313334349634029  0.6972825608449957  0.2681161899623125
  0.6268486214106584  0.2150393727735718  0.1850111312773333
  0.1953079519447185  0.6566829193656678  0.0906091873940305
  0.5358570399387190  0.1413004998301651  0.1184676310319851
  0.6178065678801885  0.0632191756915115  0.3577935435585323
  0.3108557085260684  0.7125634055607456  0.8653440355198401
  0.4859521214195046  0.5465644734590441  0.6606271444341002
  0.5942747946253017  0.3102827499365919  0.6175293366908595
  0.7891421740460943  0.6050364584464409  0.0949787559908436
  0.7127683514259362  0.4854138301823789  0.1803440300396888
  0.7826562880222533  0.4078281784247148  0.9473955760656029
  0.0286256131342144  0.0431877643634829  0.0252273777862207
  0.1287840561840484  0.6190998137830487  0.8446234414079326
  0.3948197957618116  0.9692878055399891  0.3776267411981488
  0.5391851523255640  0.0319039557645580  0.8692708683650709
  0.9020783061769132  0.0345513307777562  0.3904954153081082
  0.8881415778118814  0.6834077849792121  0.0643370459511824
  0.2861673507016718  0.3510948546968422  0.3303893807932790
  0.6512605307673442  0.1791559138247881  0.3044444145487420
  0.8711378617649804  0.9453844057062727  0.0239209093762244
  0.7083498530373596  0.2514349802912820  0.9320445787166999
  0.2161797072512112  0.5474062958238120  0.5444096398441773
  0.3848518033533010  0.8530171471178977  0.2294431875391259
  0.2294123651763579  0.1468119906245505  0.0330339217372854
 -0.0068058636975981  0.6780266731974232  0.6224632600700936
  0.2167077166330321  0.4182462073548832  0.7131802640274600
  0.4391800550468626  0.6946336979426483  0.8896810649076703
  0.3715080265619145  0.2467837797360078  0.2122077871047118
  0.4927686009780155  0.8664507010744414  0.8004337848462276
  0.8491393616156828  0.5401650170579342  0.3333813861756478
  0.0714048936381724  0.3317355012592184  0.1764157626808900
  0.6897057552718877  0.7926447474841514  0.8343797803611690
  0.9339714283860238  0.8297461215990326  0.1656957750140819
  0.7935021815390874  0.4226964692194199  0.6192114646804350
  0.1676129986586231  0.8867011737949392  0.8397315251407044
  0.6573198833335470  0.9210552048563622  0.5548422219055466
  0.7005002806946105  0.1029951015517686  0.0686721255239002
  0.6753071898434999  0.8171764995084203  0.3650616684976670
  0.2912233787472971  0.9946126012919814  0.1928130362260322
  0.0916036475023080  0.8148132354133215  0.5745903100771691
  0.0189058366390746  0.5082852077802934  0.4337737217365018
  0.9250449100155278  0.3140139385204596  0.0440208051166412
  0.3281656696339313  0.7825815463880266  0.0170156333117434
  0.0800162177867226  0.7355790828173407  0.8120983134112988
  0.6816912020905999  0.4502858217273534  0.7691194091906346
  0.1363826831794533  0.3992073060233235  0.3405191149650409
  0.2804011361241266  0.9384629416796940  0.9743907277864169
  0.4955220792379266  0.2455937567035985  0.3769740907925923
  0.2006769489408191  0.0464485061935608  0.1131011521391827
  0.4723511064183848  0.3383499607481179  0.5728469017500072
  0.2641039823760987  0.0491962127055746  0.6247828219110080
  0.1227904974846188  0.4534682077627472  0.1794879645455660
  0.6160894447024452  0.5077168411269662  0.2984912046134720
  0.0716460235134388  0.7748096895498597  0.2843946944224442
  0.4844498329973300  0.3970564677400994  0.7745544097319741
  0.3153530570979676  0.5326098970755182  0.3916057764509386
  0.4306331088638923  0.0921863461105907  0.0292000125798381
  0.9275536830101315  0.1007370881268530  0.0965314159691214
  0.2312045218089821  0.5558694584107535  0.0001396867213492
  0.6190838885811218  0.1267186002170231  0.8149363863123351
  0.1080046519325476  0.6279411243078822  0.5606665039944695
  0.8275301299989798  0.0501349313011641  0.5837652730133008
  0.5576137306651271  0.6601300819636227  0.9586375677830377
  0.9081139207697017  0.1498159375227045  0.8332763676906491
  0.2679257482686478  0.4945296026691073  0.2602122268033814
  0.4097504865041769  0.4427113554755622  0.5202744331524327
  0.8099112177966072  0.6336046177385850  0.8735915054784074
  0.3894283389867454  0.0098592504370499  0.5815946178099856
  0.6021345484692776  0.2827189722382520  0.4456006725390525
  0.4930292602990645  0.6817261785781982  0.4353760925671672
  0.1826103832215527  0.1940556785028497  0.2451777354980441
  0.0015678200180107  0.0887677298780772  0.5464678587768625
  0.4844969306330698  0.8979169089983161  0.4670762451245329
  0.0376350439611109  0.2531578021718907  0.0101072292644772
  0.6837644012804809  0.6091153229979365  0.0226914327597664
  0.0233157578501532  0.7194748901235860  0.1101454068880931
  0.5246923081889151  0.3250209151499614  0.8844872204438773
  0.3621786385328729  0.6072795365754270  0.5305173558528339
  0.6653499416738098  0.5603090565206885  0.5663110985099175
  0.1878638610385736  0.3368348847093133  0.8715920423365364
  0.5152879308203190  0.1236308102196429  0.7330563766586226
 -0.0135955428660297  0.3011422944110842  0.4441292370635337
  0.2522623524822797  0.8668253633505891  0.4942659782094195
  0.7400886687609850  0.8166491280478919  0.2407766625137665
  0.0517712254643517  0.5692883223147385  0.7536978549650664
  0.2327916182409956  0.7998479047679172  0.9293752317328180
  0.3743598208548584  0.6294503925828121  0.0323657598993512
  0.8378584500817985  0.3806330168946566  0.3986343628499196
  0.6315944699848992  0.9270503024051584  0.6927204280566944
  0.9264225151337712  0.4779802756851467  0.1835641434424081
  0.2550662848713248  0.5582162534293980  0.6965209897167302
  0.5206734777939908  0.7855779219455915  0.0885079169834574
  0.1635616209831045  0.0672992126169292  0.8224237265778321
  0.3752815285478236  0.9392700937334081  0.6923793950660529
  0.7188646108650982  0.1215538068115696  0.8977746604733245
  0.0920105251797237  0.9198438698055476  0.1513828941877647
  0.0918926979475133  0.1536114506532736  0.6212154841945523
  0.0622102352467219  0.5929754713205966  0.2984949748937262
  0.2380812336468409  0.7505650756201969  0.6609070458713234
  0.0675803286129772  0.3931254031216534  0.6399166347218515
  0.4054250427502020  0.5105963148324669  0.9320191863311877
  0.2483856077130380  0.2242057522445348  0.5649677693610270
  0.4155270192225256  0.2704477893612390  0.4778726811915587
  0.6154372650538299  0.6294352171894704  0.1996208924601585
  0.1967197482309503  0.9391457575293786  0.6622646715251683
  0.8289148495674409  0.3342236321106455  0.7762596027912274
  0.3931470505943652  0.1376677714567699  0.6261087021676062
  0.7916364493598520  0.3355637867953040  0.5148921008426504
  0.3586826787590305  0.3884201536024031  0.7330352070724905
  0.3482398027963874  0.3171956804171487  0.8567224666362251
  0.9715617096754949  0.6983796735777881  0.7506015340071794
  0.3673390619896207  0.2673738099212568  0.0395107754561999
  0.9010083933384246  0.8529925725618461  0.6699428139246869
  0.7963645873275564  0.7540735483838787  0.3439995311283183
  0.0230204257432549  0.0257251236815028  0.4398313753251391
  0.8552212705756296  0.1424166712101744  0.0013804005168102
  0.1051793128902948  0.0498597085304051  0.6982417667969246
  0.6176333599778145  0.6416018329692710  0.6556672172868480
  0.2805008509559154  0.5078876403398096  0.8880179952362675
  0.4890988653161112  0.8789959846516056  0.6742295126525087
  0.1042582594015155  0.2643732631068573  0.7999477089068302
  0.6576518972336964  0.3317153898000723  0.1678086118566648
  0.9221116662557406  0.1691962560463522  0.1957270584954805
  0.6277887710203953  0.4054210022243937  0.9091797849176880
  0.6344528508081160  0.7498286841645272  0.1431720839339896
  0.1453565159214112  0.9277264993246582  0.5399955025949432
  0.3135241095921223  0.0661510669283344  0.9739782325773294
  0.4395307390783283  0.0451078350183358  0.7933308144828697
  0.6212249393747855  0.7090466767221028  0.3289041549397140
  0.3683319687906353  0.4789617631174905  0.6402938215847492
  0.6270432476282271  0.3816318260641973  0.5151400733342174
  0.6179105260833638  0.1974796497767926  0.5363513815358566
  0.1701835994246980  0.9472167303196641  0.0419221469351145
  0.3357375939495147  0.6497220891462075  0.3369070136871012
  0.6665605549931207  0.5034405229035769  0.4131764144318516
  0.3060736266838985  0.0438149621125494  0.3085367168726776
  0.8331323149982425  0.0122491220017732  0.1231128318815769
  0.3149592699029314  0.9884245219730485  0.4780259674582739
  0.5964636115888623  0.7828715338944018  0.9658109653731705
  0.5597954651460592  0.4374463363973639  0.6828223991613962
  0.5771809333227395  0.0608027024648452  0.6487157125467866
  0.0187840507000188  0.8047580762974843  0.4680622870011260
  0.3332589442741384  0.6504603921129941  0.6520195984801427
  0.7453636930205738  0.3240586998496715  0.6863760006226490
  0.5097497624974198  0.1237396751278958  0.4017547661695679
  0.2192094481915656  0.8774077410756862  0.3186963985646351
  0.4740896283465241  0.5154641097160141  0.8204887241481820
  0.6648949212734895  0.8012417861696378  0.7034283323769284
  0.6717009446659373  0.8048811455093722  0.5007685536042562
  0.7095457447055559  0.2611975800092096  0.3809230762585453
  0.4802517044426917  0.2811703691697242  0.1066130992831600
  0.7800986458324289  0.8856969830845759  0.8672785401293942
  0.0913124260192564  0.4457464009512142  0.7613408217567230
  0.8641617771635234  0.9234236095672781  0.4604710600732330
  0.8168174447521029  0.7077465056620577  0.6380294857227972
  0.0526126277497715  0.1516512782124156  0.9479336251005600
  0.7402766356160028  0.5246734657279352  0.6706288766636094
  0.4328371113809025  0.8076520829146259  0.9476320069553390
  0.2930448843660990  0.2246129532278050  0.3110842818219351
  0.9205311665475098  0.3291842279047528  0.5418988844165142
  0.5446510444852267  0.8775747332310867  0.3552462128686670
  0.7407026544589688  0.5978329429065828  0.3972392331824193
  0.1139610326876895  0.5472755868507100  0.9493696389250719
  0.0293819969258500  0.4786154055348508  0.0976536840288496
  0.9688352565800786 -0.0040121771528992  0.2862513261113385
  0.9768649947957907  0.8930244785873996  0.0619079544850714
  0.6020065326211435  0.1711638074983122 -0.0043046163108851
  0.1309608300801371  0.7568726208583568  0.1723436640824278
  0.4573458799892089  0.7516028508195021  0.2178205351992753
  0.0926992599832153  0.2815009357481883  0.2899379361276408
  0.9544624395736928  0.6494016466559641  0.3797281909291437
  0.6308787521356695  0.2536227414085901  0.8245540918599751
  0.4375119901322035  0.2254368032127774  0.8476413786374322
  0.5105475253762344  0.7388282794252968  0.7912953252746829
  0.7606258246673748  0.1407982779496238  0.6358621024234608
  0.1454182624266366  0.6314129012459272  0.6902255548006674
  0.7888503813355673  0.9330765234532042  0.2852687003888489
  0.7621910466239413  0.6325173636064321  0.5148711181881257
  0.0899836061759493  0.3537575776072725  0.9538632486176305
  0.9349051849706099  0.3352144620673986  0.7129765020697810
  0.2632124652622601  0.2491581542472227  0.9206041865305760
  0.6134858060825469  0.0321317821320314  0.1333931115003854
  0.8574513643053793  0.7260287529942757  0.9434883028151244
  0.1481436714895734  0.1113912053249959  0.3367582503886271
  0.3040182050529694  0.8560019347422511  0.6154611722218625
  0.8899311368508351  0.7864265139630553  0.7810994883366730
  0.4885856000189774  0.9856734361049257  0.9769956494734503
  0.8159086277680875  0.8006326304748952  0.1362438982057638
  0.7923065118580558  0.4297531913837367  0.2959685386814566
  0.8045024989591000  0.0695441430889397  0.8215760557376376
  0.7373479516969140  0.1482160807669150  0.2143115399787032
  0.7348836596528652  0.0795404568822559  0.4239575640416716
  0.3520186376749432  0.1678631795049041  0.5045903948834234
  0.9385069703588788 -0.0020953921415693  0.6172648293579540
  0.9217188817435579  0.5805983080960133  0.5891982281538436
  0.8110943325185777  0.4441531999397724  0.8258370779018770
  0.6195646476998385  0.5364964916977495  0.1009826115923487
  0.9099320965142389  0.0298171394513811  0.9458075716841320
  0.0220178859633757  0.8897825751216581  0.7152006972453379
  0.4540295682846046  0.1120868064335989  0.2295674019796704
  0.1527144752953360  0.7368961294610077  0.0002026107622480
  0.8157479922439500  0.4825116014806684  0.0961346227286543
  0.2964523978343666  0.3237739546958406  0.1351224306223620
  0.2077753936415120  0.4472051719090988  0.0588517780467209
  0.8915773079510250  0.1424977337010350  0.5162701775952551
  0.8920442115115486  0.4854758448235054  0.4439502655337073
  0.0715156456667695  0.3911689949038470  0.4536920653370403
  0.4046443919608612  0.3884753440294115  0.2831402374737521
  0.4767477016391450  0.9344980223423530  0.1940309594881551
  0.2519427689262277  0.9754415874354821  0.8051744884384158
  0.1873188246642320  0.1115675712998045  0.5412035697847605
  0.1486743256535807  0.7226147575845756  0.3674032439393274
  0.9046214533205427  0.4477244379057940  0.6760033390810821
  0.9411947096552152  0.3456510715290850  0.1663867703491017
  0.9540114865533685  0.1665589259105240  0.7131294368347644
  0.5759498231347902  0.9874188969621887  0.4819783618304473
  0.0866742820377632  0.0470016526056167  0.1637760694242803
  0.3890697191955814  0.2874484896639983  0.6585603451466886
  0.9134359321169159  0.5967592731973396  0.8099710536775689
  0.9408548211569069  0.5796848054231530  0.0019754345433982
  0.0323962815500377  0.4644660009204375  0.2854778774783613
  0.3084921997054987  0.3447870541058485  0.4593632756284510
  0.3259575039130431  0.8047852564385112  0.7813874716360446
  0.4957780671546325  0.5518328205842625  0.3370666516093562
  0.5241115381477558  0.6980142211345117  0.6007533930303963
  0.3942353088794921  0.5088917928923744  0.0877892548334091
  0.6435486836123461  0.3612526685320923  0.0435447898272192
  0.2060789864238972  0.2739589940869092  0.4531574808970865
  0.1027800029872361  0.2320570064058695  0.1107718874101249
  0.9755107110647078  0.6379040924660495  0.1999163429662296
  0.1531292137798716  0.2959044278311193  0.6923764875808726
  0.4135451942614679  0.3824966023980914  0.9496463636595417
  0.1905752334196596  0.7380928316336199  0.5410882339931181
  0.1828108891390670  0.5834010939401628  0.2253927480842839
  0.7481662319915839  0.6885029173211813  0.7857361704895478
  0.3282472842270454  0.1648602725518209  0.1195237150726926
  0.9100611943083220  0.7617046986007093  0.5715299404117976
  0.0241000858334200  0.5187107775316308  0.5691115692100004
  0.4850601473638704  0.5469094923259311  0.5277736402201890
  0.4966918241130274  0.6575978715797570  0.0715248401367587
  0.1921487650044369  0.5313683215857063  0.4217510168340577
  0.0984498960467936  0.8977941988066521  0.2953750902846479
  0.1844953993008919  0.4250352974064338  0.5884002032148785
  0.9182977928529892  0.3018739687427045  0.3452009462773837
  0.8389948288832306  0.2547489504911249  0.8658520642223876
  0.3622401290842089  0.8512023177027460  0.3524100302269624
  0.2909637439700572  0.1418524974816925  0.7005351475547474
  0.3189487358702951  0.6830884564756458  0.1379486974663309
  0.7019243349529507  0.0186279499472041  0.9682850175258978
  0.7600318351303690  0.9620153830867166  0.6907145696371619
  0.9142332998670452  0.4035695160517780  0.9647188057748063
  0.3499478358624015  0.8943394963571408  0.0728761589363322
  0.7836832624501753  0.8653561023754487  0.9877871372942505
  0.0406830960784405  0.8116796042325333  0.9008225093987817
  0.3926301856244617  0.7263980441460895  0.5000165710471490
  0.7468115346285000  0.6099705240778441  0.2138068955405744
  0.6532603917431877  0.5632550823738147  0.8372667481617856
  0.4661772210149379  0.5440666746543679  0.2164590808495437
  0.5996055806072553  0.9231243352933024  0.8339893965967452
  0.8154772764299930  0.2554788409962795  0.0597564198522468
  0.5839092504390281  0.3857154139290530  0.3293381123942345
  0.0869990800066591  0.9772684198476101  0.8733670188340885
  0.0618619374852501  0.2087251217053284  0.4656662587463631
 
  0.00000000E+00  0.00000000E+00  0.00000000E+00
  0.00000000E+00  0.00000000E+00  0.00000000E+00
  0.00000000E+00  0.00000000E+00  0.00000000E+00
  0.00000000E+00  0.00000000E+00  0.00000000E+00
  0.00000000E+00  0.00000000E+00  0.00000000E+00
  0.00000000E+00  0.00000000E+00  0.00000000E+00
  0.00000000E+00  0.00000000E+00  0.00000000E+00
  0.00000000E+00  0.00000000E+00  0.00000000E+00
  0.00000000E+00  0.00000000E+00  0.00000000E+00
  0.00000000E+00  0.00000000E+00  0.00000000E+00
  0.00000000E+00  0.00000000E+00  0.00000000E+00
  0.00000000E+00  0.00000000E+00  0.00000000E+00
  0.00000000E+00  0.00000000E+00  0.00000000E+00
  0.00000000E+00  0.00000000E+00  0.00000000E+00
  0.00000000E+00  0.00000000E+00  0.00000000E+00
  0.00000000E+00  0.00000000E+00  0.00000000E+00
  0.00000000E+00  0.00000000E+00  0.00000000E+00
  0.00000000E+00  0.00000000E+00  0.00000000E+00
  0.00000000E+00  0.00000000E+00  0.00000000E+00
  0.00000000E+00  0.00000000E+00  0.00000000E+00
  0.00000000E+00  0.00000000E+00  0.00000000E+00
  0.00000000E+00  0.00000000E+00  0.00000000E+00
  0.00000000E+00  0.00000000E+00  0.00000000E+00
  0.00000000E+00  0.00000000E+00  0.00000000E+00
  0.00000000E+00  0.00000000E+00  0.00000000E+00
  0.00000000E+00  0.00000000E+00  0.00000000E+00
  0.00000000E+00  0.00000000E+00  0.00000000E+00
  0.00000000E+00  0.00000000E+00  0.00000000E+00
  0.00000000E+00  0.00000000E+00  0.00000000E+00
  0.00000000E+00  0.00000000E+00  0.00000000E+00
  0.00000000E+00  0.00000000E+00  0.00000000E+00
  0.00000000E+00  0.00000000E+00  0.00000000E+00
  0.00000000E+00  0.00000000E+00  0.00000000E+00
  0.00000000E+00  0.00000000E+00  0.00000000E+00
  0.00000000E+00  0.00000000E+00  0.00000000E+00
  0.00000000E+00  0.00000000E+00  0.00000000E+00
  0.00000000E+00  0.00000000E+00  0.00000000E+00
  0.00000000E+00  0.00000000E+00  0.00000000E+00
  0.00000000E+00  0.00000000E+00  0.00000000E+00
  0.00000000E+00  0.00000000E+00  0.00000000E+00
  0.00000000E+00  0.00000000E+00  0.00000000E+00
  0.00000000E+00  0.00000000E+00  0.00000000E+00
  0.00000000E+00  0.00000000E+00  0.00000000E+00
  0.00000000E+00  0.00000000E+00  0.00000000E+00
  0.00000000E+00  0.00000000E+00  0.00000000E+00
  0.00000000E+00  0.00000000E+00  0.00000000E+00
  0.00000000E+00  0.00000000E+00  0.00000000E+00
  0.00000000E+00  0.00000000E+00  0.00000000E+00
  0.00000000E+00  0.00000000E+00  0.00000000E+00
  0.00000000E+00  0.00000000E+00  0.00000000E+00
  0.00000000E+00  0.00000000E+00  0.00000000E+00
  0.00000000E+00  0.00000000E+00  0.00000000E+00
  0.00000000E+00  0.00000000E+00  0.00000000E+00
  0.00000000E+00  0.00000000E+00  0.00000000E+00
  0.00000000E+00  0.00000000E+00  0.00000000E+00
  0.00000000E+00  0.00000000E+00  0.00000000E+00
  0.00000000E+00  0.00000000E+00  0.00000000E+00
  0.00000000E+00  0.00000000E+00  0.00000000E+00
  0.00000000E+00  0.00000000E+00  0.00000000E+00
  0.00000000E+00  0.00000000E+00  0.00000000E+00
  0.00000000E+00  0.00000000E+00  0.00000000E+00
  0.00000000E+00  0.00000000E+00  0.00000000E+00
  0.00000000E+00  0.00000000E+00  0.00000000E+00
  0.00000000E+00  0.00000000E+00  0.00000000E+00
  0.00000000E+00  0.00000000E+00  0.00000000E+00
  0.00000000E+00  0.00000000E+00  0.00000000E+00
  0.00000000E+00  0.00000000E+00  0.00000000E+00
  0.00000000E+00  0.00000000E+00  0.00000000E+00
  0.00000000E+00  0.00000000E+00  0.00000000E+00
  0.00000000E+00  0.00000000E+00  0.00000000E+00
  0.00000000E+00  0.00000000E+00  0.00000000E+00
  0.00000000E+00  0.00000000E+00  0.00000000E+00
  0.00000000E+00  0.00000000E+00  0.00000000E+00
  0.00000000E+00  0.00000000E+00  0.00000000E+00
  0.00000000E+00  0.00000000E+00  0.00000000E+00
  0.00000000E+00  0.00000000E+00  0.00000000E+00
  0.00000000E+00  0.00000000E+00  0.00000000E+00
  0.00000000E+00  0.00000000E+00  0.00000000E+00
  0.00000000E+00  0.00000000E+00  0.00000000E+00
  0.00000000E+00  0.00000000E+00  0.00000000E+00
  0.00000000E+00  0.00000000E+00  0.00000000E+00
  0.00000000E+00  0.00000000E+00  0.00000000E+00
  0.00000000E+00  0.00000000E+00  0.00000000E+00
  0.00000000E+00  0.00000000E+00  0.00000000E+00
  0.00000000E+00  0.00000000E+00  0.00000000E+00
  0.00000000E+00  0.00000000E+00  0.00000000E+00
  0.00000000E+00  0.00000000E+00  0.00000000E+00
  0.00000000E+00  0.00000000E+00  0.00000000E+00
  0.00000000E+00  0.00000000E+00  0.00000000E+00
  0.00000000E+00  0.00000000E+00  0.00000000E+00
  0.00000000E+00  0.00000000E+00  0.00000000E+00
  0.00000000E+00  0.00000000E+00  0.00000000E+00
  0.00000000E+00  0.00000000E+00  0.00000000E+00
  0.00000000E+00  0.00000000E+00  0.00000000E+00
  0.00000000E+00  0.00000000E+00  0.00000000E+00
  0.00000000E+00  0.00000000E+00  0.00000000E+00
  0.00000000E+00  0.00000000E+00  0.00000000E+00
  0.00000000E+00  0.00000000E+00  0.00000000E+00
  0.00000000E+00  0.00000000E+00  0.00000000E+00
  0.00000000E+00  0.00000000E+00  0.00000000E+00
  0.00000000E+00  0.00000000E+00  0.00000000E+00
  0.00000000E+00  0.00000000E+00  0.00000000E+00
  0.00000000E+00  0.00000000E+00  0.00000000E+00
  0.00000000E+00  0.00000000E+00  0.00000000E+00
  0.00000000E+00  0.00000000E+00  0.00000000E+00
  0.00000000E+00  0.00000000E+00  0.00000000E+00
  0.00000000E+00  0.00000000E+00  0.00000000E+00
  0.00000000E+00  0.00000000E+00  0.00000000E+00
  0.00000000E+00  0.00000000E+00  0.00000000E+00
  0.00000000E+00  0.00000000E+00  0.00000000E+00
  0.00000000E+00  0.00000000E+00  0.00000000E+00
  0.00000000E+00  0.00000000E+00  0.00000000E+00
  0.00000000E+00  0.00000000E+00  0.00000000E+00
  0.00000000E+00  0.00000000E+00  0.00000000E+00
  0.00000000E+00  0.00000000E+00  0.00000000E+00
  0.00000000E+00  0.00000000E+00  0.00000000E+00
  0.00000000E+00  0.00000000E+00  0.00000000E+00
  0.00000000E+00  0.00000000E+00  0.00000000E+00
  0.00000000E+00  0.00000000E+00  0.00000000E+00
  0.00000000E+00  0.00000000E+00  0.00000000E+00
  0.00000000E+00  0.00000000E+00  0.00000000E+00
  0.00000000E+00  0.00000000E+00  0.00000000E+00
  0.00000000E+00  0.00000000E+00  0.00000000E+00
  0.00000000E+00  0.00000000E+00  0.00000000E+00
  0.00000000E+00  0.00000000E+00  0.00000000E+00
  0.00000000E+00  0.00000000E+00  0.00000000E+00
  0.00000000E+00  0.00000000E+00  0.00000000E+00
  0.00000000E+00  0.00000000E+00  0.00000000E+00
  0.00000000E+00  0.00000000E+00  0.00000000E+00
  0.00000000E+00  0.00000000E+00  0.00000000E+00
  0.00000000E+00  0.00000000E+00  0.00000000E+00
  0.00000000E+00  0.00000000E+00  0.00000000E+00
  0.00000000E+00  0.00000000E+00  0.00000000E+00
  0.00000000E+00  0.00000000E+00  0.00000000E+00
  0.00000000E+00  0.00000000E+00  0.00000000E+00
  0.00000000E+00  0.00000000E+00  0.00000000E+00
  0.00000000E+00  0.00000000E+00  0.00000000E+00
  0.00000000E+00  0.00000000E+00  0.00000000E+00
  0.00000000E+00  0.00000000E+00  0.00000000E+00
  0.00000000E+00  0.00000000E+00  0.00000000E+00
  0.00000000E+00  0.00000000E+00  0.00000000E+00
  0.00000000E+00  0.00000000E+00  0.00000000E+00
  0.00000000E+00  0.00000000E+00  0.00000000E+00
  0.00000000E+00  0.00000000E+00  0.00000000E+00
  0.00000000E+00  0.00000000E+00  0.00000000E+00
  0.00000000E+00  0.00000000E+00  0.00000000E+00
  0.00000000E+00  0.00000000E+00  0.00000000E+00
  0.00000000E+00  0.00000000E+00  0.00000000E+00
  0.00000000E+00  0.00000000E+00  0.00000000E+00
  0.00000000E+00  0.00000000E+00  0.00000000E+00
  0.00000000E+00  0.00000000E+00  0.00000000E+00
  0.00000000E+00  0.00000000E+00  0.00000000E+00
  0.00000000E+00  0.00000000E+00  0.00000000E+00
  0.00000000E+00  0.00000000E+00  0.00000000E+00
  0.00000000E+00  0.00000000E+00  0.00000000E+00
  0.00000000E+00  0.00000000E+00  0.00000000E+00
  0.00000000E+00  0.00000000E+00  0.00000000E+00
  0.00000000E+00  0.00000000E+00  0.00000000E+00
  0.00000000E+00  0.00000000E+00  0.00000000E+00
  0.00000000E+00  0.00000000E+00  0.00000000E+00
  0.00000000E+00  0.00000000E+00  0.00000000E+00
  0.00000000E+00  0.00000000E+00  0.00000000E+00
  0.00000000E+00  0.00000000E+00  0.00000000E+00
  0.00000000E+00  0.00000000E+00  0.00000000E+00
  0.00000000E+00  0.00000000E+00  0.00000000E+00
  0.00000000E+00  0.00000000E+00  0.00000000E+00
  0.00000000E+00  0.00000000E+00  0.00000000E+00
  0.00000000E+00  0.00000000E+00  0.00000000E+00
  0.00000000E+00  0.00000000E+00  0.00000000E+00
  0.00000000E+00  0.00000000E+00  0.00000000E+00
  0.00000000E+00  0.00000000E+00  0.00000000E+00
  0.00000000E+00  0.00000000E+00  0.00000000E+00
  0.00000000E+00  0.00000000E+00  0.00000000E+00
  0.00000000E+00  0.00000000E+00  0.00000000E+00
  0.00000000E+00  0.00000000E+00  0.00000000E+00
  0.00000000E+00  0.00000000E+00  0.00000000E+00
  0.00000000E+00  0.00000000E+00  0.00000000E+00
  0.00000000E+00  0.00000000E+00  0.00000000E+00
  0.00000000E+00  0.00000000E+00  0.00000000E+00
  0.00000000E+00  0.00000000E+00  0.00000000E+00
  0.00000000E+00  0.00000000E+00  0.00000000E+00
  0.00000000E+00  0.00000000E+00  0.00000000E+00
  0.00000000E+00  0.00000000E+00  0.00000000E+00
  0.00000000E+00  0.00000000E+00  0.00000000E+00
  0.00000000E+00  0.00000000E+00  0.00000000E+00
  0.00000000E+00  0.00000000E+00  0.00000000E+00
  0.00000000E+00  0.00000000E+00  0.00000000E+00
  0.00000000E+00  0.00000000E+00  0.00000000E+00
  0.00000000E+00  0.00000000E+00  0.00000000E+00
  0.00000000E+00  0.00000000E+00  0.00000000E+00
  0.00000000E+00  0.00000000E+00  0.00000000E+00
  0.00000000E+00  0.00000000E+00  0.00000000E+00
  0.00000000E+00  0.00000000E+00  0.00000000E+00
  0.00000000E+00  0.00000000E+00  0.00000000E+00
  0.00000000E+00  0.00000000E+00  0.00000000E+00
  0.00000000E+00  0.00000000E+00  0.00000000E+00
  0.00000000E+00  0.00000000E+00  0.00000000E+00
  0.00000000E+00  0.00000000E+00  0.00000000E+00
  0.00000000E+00  0.00000000E+00  0.00000000E+00
  0.00000000E+00  0.00000000E+00  0.00000000E+00
  0.00000000E+00  0.00000000E+00  0.00000000E+00
  0.00000000E+00  0.00000000E+00  0.00000000E+00
  0.00000000E+00  0.00000000E+00  0.00000000E+00
  0.00000000E+00  0.00000000E+00  0.00000000E+00
  0.00000000E+00  0.00000000E+00  0.00000000E+00
  0.00000000E+00  0.00000000E+00  0.00000000E+00
  0.00000000E+00  0.00000000E+00  0.00000000E+00
  0.00000000E+00  0.00000000E+00  0.00000000E+00
  0.00000000E+00  0.00000000E+00  0.00000000E+00
  0.00000000E+00  0.00000000E+00  0.00000000E+00
  0.00000000E+00  0.00000000E+00  0.00000000E+00
  0.00000000E+00  0.00000000E+00  0.00000000E+00
  0.00000000E+00  0.00000000E+00  0.00000000E+00
  0.00000000E+00  0.00000000E+00  0.00000000E+00
  0.00000000E+00  0.00000000E+00  0.00000000E+00
  0.00000000E+00  0.00000000E+00  0.00000000E+00
  0.00000000E+00  0.00000000E+00  0.00000000E+00
  0.00000000E+00  0.00000000E+00  0.00000000E+00
  0.00000000E+00  0.00000000E+00  0.00000000E+00
  0.00000000E+00  0.00000000E+00  0.00000000E+00
  0.00000000E+00  0.00000000E+00  0.00000000E+00
  0.00000000E+00  0.00000000E+00  0.00000000E+00
  0.00000000E+00  0.00000000E+00  0.00000000E+00
  0.00000000E+00  0.00000000E+00  0.00000000E+00
  0.00000000E+00  0.00000000E+00  0.00000000E+00
  0.00000000E+00  0.00000000E+00  0.00000000E+00
  0.00000000E+00  0.00000000E+00  0.00000000E+00
  0.00000000E+00  0.00000000E+00  0.00000000E+00
  0.00000000E+00  0.00000000E+00  0.00000000E+00
  0.00000000E+00  0.00000000E+00  0.00000000E+00
  0.00000000E+00  0.00000000E+00  0.00000000E+00
  0.00000000E+00  0.00000000E+00  0.00000000E+00