Amorphous Sb                            
   1.00000000000000     
    20.3671579077798022    0.0000000000000000    0.0000000000000000
     0.0000000000000000   20.3671579077798022    0.0000000000000000
     0.0000000000000000    0.0000000000000000   20.3671579077798022
   Sc   Sb
    45   255
Direct
  0.3743980268673573  0.2834286286590429  0.5387945813823862
  0.0723238214577836  0.6317775130429890  0.8183044627886306
  0.3236540892215002  0.9126527818137392  0.8343866146691459
  0.4837015873233387  0.0269308289366368  0.6409147948546612
  0.1518418712626746  0.8239714256924742  0.6775249784457017
  0.5114460416364305  0.3137497925378133  0.3182006084340188
  0.3189792657873253  0.1021208912736065  0.8240901042713330
  0.8916450637955443  0.1072346504790534  0.7275849780322041
  0.2038838063675983  0.5283972768115897  0.9269084858076001
  0.6278435870463317  0.0890620578502767  0.1888617825643566
  0.6934857248629716  0.9334714731449369  0.6030248775686039
  0.6950467450585249  0.8147888960455224  0.2004457859434631
  0.7279079587078305  0.9949688389767710  0.3631535537149618
  0.1684049718943936  0.4450028357736552  0.1776401289933844
  0.3173601924839866  0.0368284947517096  0.5690352725324425
  0.5150623365829265  0.7831830971994417  0.7390133939482429
  0.9759619833839633  0.4061865258320083  0.4838906632294803
  0.4793221032795841  0.8717503231178277  0.4235687055609054
  0.6519296484757285  0.5106062128372314  0.6761800491976664
  0.7937429450813076  0.1482978650308422  0.1070295183874578
  0.8528518677721887  0.6189679545717283  0.9753332103663007
  0.1371606165938698  0.3742900984347024  0.6927407870645736
  0.1543828726759176  0.1204863285785650  0.6300864100074990
  0.3399439933204750  0.6693238363951443  0.5607642462573087
  0.6728662171318218  0.6538429278476200  0.4246185605382913
  0.0939648881234807  0.3631096297348185  0.9186432990459149
  0.9899347760550669  0.6711680267900634  0.5460349304325375
  0.1578807640612363  0.2015335904203962  0.3847150709647747
  0.1424525389537154  0.0346518267572374  0.0186992871420096
  0.2606587810328508  0.7724533118879623  0.0443280665014769
  0.9205367231734956  0.6193900001418507  0.7132991159946267
  0.8848858976918754  0.3427376966730937  0.7301334656673049
  0.9328917906368078  0.4356316734081113  0.9043767647173763
  0.3927582058401075  0.2389228052225630  0.7239380004406032
  0.0395881414061045  0.8840470798698415  0.8120961065753656
  0.6409509874805643  0.2561360769790937  0.1138265007593146
  0.6331894824861830  0.1895381742622054  0.4614346832449371
  0.5613453756109058  0.0331227474055682  0.8299737532300718
  0.5112023904613852  0.7029839610393002  0.3634707151463670
  0.8816506633357246  0.8961584828434469  0.0233118110033807
  0.2922188511216571  0.1980798886856568  0.2134901831352349
  0.5857637711972720  0.5714849210230010  0.9183573558477178
  0.3234482535097984  0.5076991906599985  0.7934213760381860
  0.7072720709666068  0.9421709686341935  0.7967966567044685
  0.0052277941510759  0.6403630338854007  0.0998569863858966
  0.2321549454443005  0.6980360983008750  0.6536747082799295
  0.1538104930105158  0.4044634573059764  0.3185370399636398
  0.1142788952381125  0.2715565782510680  0.0421069330449508
  0.2489128494749586  0.9874605075397369  0.4313718804075500
  0.2621546852851395  0.8955390941444384  0.5440207157518759
  0.2272563073455997  0.7471264338728302  0.5094278109184049
  0.3399704839865055  0.8776270082142837  0.3602442527628386
  0.9754955595650905  0.0628805562612127  0.4406213650189855
  0.2799006802602812  0.3115061620761822  0.6654098292633828
  0.7635321076454790  0.6174850538114383  0.3077507372269281
  0.5181890774451476  0.8407315824453807  0.9869926559609872
  0.4207445050830795  0.2224218472619529  0.8708163980424377
  0.8627115107768802  0.1124955591428315  0.5236542364842661
  0.6515687395074297  0.2984687230238661  0.3616599860620827
  0.6691898652969582  0.4344558721892892  0.9327157053116922
  0.2460991376685717  0.3242766568096574  0.1653892989273287
  0.8820233479507700  0.9696483179573208  0.3616325452496658
  0.1158452290259645  0.0613150954423343  0.3621098579947813
  0.0497392774298196  0.8461668611376179  0.1621851541516027
  0.5203765767312449  0.1013456483222836  0.4233244092090539
  0.4894140315827615  0.2330165313299381  0.0990545029097505
  0.1323734884386026  0.2321346643629684  0.7352089309590353
  0.6830251518014522  0.5605602762173739  0.1987972244366141
  0.9006629806627786  0.9027212124839432  0.8746244899343847
  0.6544638844629370  0.7754898748410115  0.9340046071120495
  0.9809046679521334  0.7512880330855606  0.7931143433888764
  0.0764438116131740  0.0857276649110303  0.8887478378830578
  0.4043914589139284  0.2006511656058176  0.3107121264690318
  0.9328999537773477  0.7981066734338030  0.5993542378121842
  0.0204501835039151  0.3712073997758838  0.7873724047383142
  0.9639764039293703  0.3738611672056323  0.3327869297219596
  0.1697306411769400  0.8184315279403931  0.3723348486881830
  0.4123126860507464  0.1507098578667324  0.6005605559858164
  0.8155495564931591  0.0297806770344135  0.8203778098526779
  0.8201281183764016  0.8967090948168307  0.1612268064112916
  0.1293815996570012  0.6919678771870087  0.3192391013217216
  0.7006716507991990  0.6445767348174346  0.9871163036916716
  0.2869636646957058  0.1384993852053905  0.6815129211522051
  0.4000321849895393  0.3021832723768068 -0.0018762384734629
  0.5778301097786781  0.8358066319838932  0.6082037075703277
  0.3565510141103341  0.4828664466826622  0.3770967295565782
  0.2195532350864277  0.7297474773361978  0.1845613292653097
  0.2294429814501173  0.3105065490129542  0.9216582918710440
  0.9551529338690742  0.9501106320805361  0.2350473423477955
  0.7872838725785692  0.8252011058446446  0.5607679368655411
  0.5704470195864658  0.2195931275376170  0.2322566208270483
  0.4124880156701551  0.9093159834670431  0.5607520073440858
  0.3895948466364345  0.3377953471326225  0.3986463207217483
  0.5989986521470871  0.4678109375729844  0.8085214012380187
 -0.0033934237494644  0.5314436802176489  0.5986054191385997
  0.6705148240540992  0.6851682704999307  0.1253876044656605
  0.9185544595964769  0.0601135663943060  0.1478503104143193
  0.4986947729455659  0.5331220467619276  0.6894925886695308
  0.9040541610408254 -0.0073222049717717  0.6370853326938970
  0.3457432617113540  0.0058584037965638  0.7120586931923469
  0.4971355034050365  0.0898307147565392  0.2643327729931539
  0.6766739839470457  0.8808842654928700  0.4499728378144721
  0.8246872285708149  0.0974076243198231  0.3204009054265717
  0.0712580185418242  0.3165587206984280  0.4098600544993252
  0.0109670872423915  0.1711632671153314  0.3508183289422843
  0.5607136299715028  0.1407328128699885  0.5821838432212705
  0.8595399087374036  0.3123516607353269  0.8707341481880825
  0.0593571118382178  0.5016364565885318  0.3939786759175877
  0.1994461867261483  0.6787060424978599  0.9458332626469037
  0.1076563785639815  0.9308805133059959  0.9285700331378509
  0.9342212367783566  0.0342116994569348  0.9463002564341854
  0.6716548638570824  0.2826099213609531  0.8515826632627181
  0.1446084581071384  0.2140977439591977  0.2395772149067190
  0.0203407333122440  0.7212514991979465  0.2295960652947894
  0.9041821590453770  0.4800882555774053  0.7527190191508574
  0.5218312575216330  0.6931867686991271  0.1404100298705404
  0.5474347415068216  0.5850175437716139  0.4524978177398846
  0.5071862926234015  0.0305634738821189  0.1043731977698225
  0.8777654811447537  0.2462390747022014  0.1822276440897617
  0.5198223126503938  0.4790113327034851  0.5553552199493859
  0.1271732746703356  0.4403251167851723  0.0365675184270288
  0.3997798404967298  0.6157096467890413  0.3271589397039357
  0.4200264343828349  0.6771058475311101  0.7656126659678775
  0.7847675886892604  0.2086722647505443  0.7549701898135871
  0.0698465750538768  0.2280181655264384  0.8674370410703205
  0.5684300319186005  0.3850823688133952  0.0900891737900840
  0.2079673208890681  0.5928154100871331  0.7861003812984992
  0.0044462999405128  0.3291486666064339  0.6208887066887536
  0.2012863975329765  0.1038340331759858  0.1363133453107859
  0.8630705670079643  0.6155556219190410  0.1300167915794487
  0.7444500398698636  0.4637720958252144  0.5719843935791745
  0.7798691962696835  0.5633872098784205  0.4749046006349756
  0.0226964504372768  0.1083909297937778  0.6734505444540776
  0.1551367360728029  0.5886757685903716  0.1636037437716416
  0.2437938854233035  0.2870031917681717  0.4708038256162878
  0.4764596194824148  0.9250529125169765  0.7453768099088407
  0.8080156426513970  0.9045881010195760  0.6982261613596445
  0.7640767154624085  0.8559254375426085  0.3260059645377173
  0.0860288665176171  0.3276579184084755  0.1719627734303842
  0.7431336884372548  0.9337913476179873  0.9488896649470587
  0.2707758356941454  0.8707292286377406  0.1920371426341929
  0.3017041181047656  0.0299470928842955  0.2203249056560154
  0.3287089828581665  0.4143599794190236  0.9151148616517787
  0.2683020867246989  0.5993222206152806  0.0529797677014596
  0.0806160734814837  0.8908509811369548  0.4589082166953781
  0.4592664689099449  0.3603314046995585  0.6282814773669734
  0.7706266427305262  0.8100235068965125  0.8455715570316045
  0.9158741322474448  0.7939131869132650  0.2917515971219255
  0.3214842559047335  0.4213946036172917  0.5579432428692331
  0.5968668523901253  0.2611638544358389  0.9712775634161296
  0.6927294170070677  0.0681722355592670  0.8859076103846913
  0.9555549887765217  0.5217748886235841  0.0209907869191702
  0.0292291651092302  0.5123506199126248  0.1766262321519128
  0.1463179616494951  0.8985274042921643  0.2538527609702370
  0.1936162549233981  0.9776223572131009  0.6377610873881749
  0.8220079952994894  0.4836689349314954  0.1868812893461752
  0.3960994249020441  0.0023251546170009  0.4427437621434760
  0.5826785828462689  0.9684742382436038  0.3735158908564810
  0.8172637045701212  0.7302651039505066  0.2071128718306013
  0.5300873265393751  0.1433382772109390  0.9256560048417161
  0.0000727382289197  0.8335134354113760  0.9576398045014192
  0.6579850252120784  0.1263991116871671  0.0491852326988396
  0.6077574501281874  0.3884861048113101  0.2255586245688818
  0.8902424197998700  0.4263957860135656  0.6054808187470563
  0.4032202596185501  0.7800184711837603  0.6410618645182029
  0.1623091839254578  0.2621172507279242  0.5888153035914295
  0.2928001101881926  0.7408892667972029  0.8092375485754065
  0.9909022282030270  0.6842958732048514  0.9532197809820248
  0.8447648687677881  0.7495548728961244  0.7272083133673415
  0.4138536610791680  0.3060610674734505  0.1991191448050594
  0.2251036617349324  0.1457925642093390  0.9310995337084141
  0.4313437432552644  0.9575712248065560  0.2815555103055102
  0.7838326399836235  0.2029362897816670  0.4443376040048431
  0.2991335221661352  0.0101376322321146  0.0566846653887867
  0.6461651000906540  0.7291794433688616  0.3039838940607480
  0.6557995902855754  0.1214134877279241  0.3348746755016832
  0.7661550573928718  0.2778471909087275  0.0435687195819165
  0.3620733304019150  0.5920926085322319  0.1898705579771938
  0.2128465411570294  0.5385723148194089  0.2913564286072452
  0.1009708815102718  0.5846229609562427  0.0126836942492255
  0.2694053515823371  0.4497640766851772  0.0527835454332817
  0.6274092331518468  0.5146400993094815  0.0498899765215978
  0.8749851268065246  0.2612132523208718  0.3260478374709107
  0.9399448484857960  0.5803170468219344  0.8587534727097209
  0.6035545139430513  0.3651662732481472  0.6510813286316448
  0.2247881939312968  0.1238304007023072  0.4957812725306674
  0.0182090071225509  0.8976182047542585  0.6672048278784788
  0.5456413741421123  0.8322850044614170  0.2927545809289586
  0.1761693616331223  0.0784118426061141  0.7739012718156565
  0.7939687956683549  0.4917606774367254  0.8862680082758705
  0.8994078074352533  0.2226610734127581  0.6372628279456850
  0.7753726709823955  0.3703201559025202  0.3406815637803403
  0.9452296617169210  0.2222291048645544  0.7977715502232297
  0.8390906028587886  0.7625945076990074  0.9805867864634012
  0.7518497068420866  0.4260435715153438  0.7523734480541270
  0.6570232837546173  0.9827566866720109  0.0714760462324834
  0.4205388862556921  0.8044969736719956  0.8631339123225882
  0.7787851575468576  0.7543056808876664  0.4320047956689799
  0.7826534054014447  0.5090602741117148  0.0387111218804377
  0.6522535244316782  0.3258674040476217  0.5170689518568365
  0.5246735247525157  0.3421420301650019  0.8063561269389258
  0.1319377680182904  0.7655458875800296  0.8122042396142255
  0.1714009269143745  0.5778294744315591  0.5998886749373035
  0.7786382117858703  0.3031262607914424  0.6309380568275045
  0.5692619257497046  0.4067665662974037  0.4262812121384133
  0.2947361203445107  0.8441733922916642  0.7086307860670010
  0.2489204606495749  0.0024414962755940  0.9197717907114016
  0.9184218453795299  0.7682088815905274  0.1032671945178301
  0.5107725471184847  0.6775872480146455 -0.0010619891349376
  0.7680828853711966  0.0312571884377301  0.2049280712608942
  0.4366769160890435  0.9099490584952566  0.1443458440538193
  0.5732347845878207  0.6998920147472697  0.8428219528657582
  0.0915385341587548  0.7816853707227900  0.5526977617546259
  0.2932483031088086  0.7064918126637696  0.3497780523398337
  0.6454509095726828  0.9491847117930371  0.2389053419550279
  0.0964168284278492  0.6298698487864112  0.4488799495752802
  0.2616924997243629  0.2408000598814480  0.8011411376315443
  0.3905119344566712  0.5359017521915993  0.5092577555562574
  0.0813455037136872  0.5091176272475729  0.7302517999520916
  0.9210460902795653  0.7349673715142799  0.4224963710840429
  0.7316615129368658  0.7157678195433529  0.6351607460719406
  0.5787583275236307  0.7669374926140631  0.4775743308772882
  0.4252327233040327  0.4158268378646616  0.1015111657469934
  0.4668853321735916  0.5368691296646720 -0.0022725916562452
  0.7223341080342625  0.1711052097727149  0.5802237969737498
  0.6424594354615148  0.1624829322664699  0.7777467482339833
  0.2672705102914385  0.1099105962915442  0.3332552513556030
  0.5108224870817378  0.2761549697511868  0.4747232033152131
  0.0824326265680847  0.0303548440131846  0.2280336024096432
  0.9351792968049730  0.5503444746459741  0.4648009163266841
  0.8706024633535107  0.3860189425940860  0.0395165864399979
  0.6566975892036911  0.6061196423073113  0.5616087051142775
  0.2220726354866867  0.8358439280166178  0.9162062074369864
  0.7313754103388224  0.2039244337908467  0.2291141149880231
  0.3829387040851947  0.1190993094809211  0.9662196681408219
  0.5502631618321513  0.9800925134908508  0.9725606961980693
  0.3708706857555741  0.7321232501724037  0.1393468408143290
  0.7611427062215674  0.0512798638303649  0.6768119364057524
  0.2367622569436511  0.5987344102746768  0.4688681896812029
  0.7439046979838143  0.3485672797194507  0.1937694243199722
  0.4567409206516406  0.1105470764886371  0.7584947210153223
 -0.0094317628416730  0.0180566349988630  0.7851378059334667
  0.8169630607311320  0.0275870314832508  0.0319781684494113
  0.7329499070746575  0.8325022160582598  0.0577191660202902
  0.6142684916576233  0.0018837149840099  0.7017589030030190
  0.8034695443436108  0.6420738244996123  0.8326947018197306
  0.5653090607645149  0.6599179052299542  0.6696690009208803
  0.6677988817841720  0.6059516273871963  0.7960031213121740
  0.4892796957927647  0.5334891161143756  0.1623404542860694
  0.4032782451904876  0.1235052898908800  0.1503077892061219
  0.1173934589723863  0.7480180402549016  0.0757342323168350
  0.3106543686268951  0.4583548464726986  0.2211351935725734
  0.0591825995091155  0.0046923363089631  0.5725891390405267
  0.6765827620527722  0.5115446567706651  0.3686305001092306
  0.9858748766459063  0.5758235371237332  0.2958804065525921
  0.7787311559892863  0.2036060862876131  0.9151472509429905
  0.9104924869480043  0.1683595862938823  0.0094888727712301
  0.2454463251704911  0.4732287926589105  0.6708683987529759
  0.8603316664684724  0.5083267692733713  0.3255075693195594
  0.9574908502502024  0.2551724914231536  0.5023873157481207
  0.0759860861150556  0.1617223697344624  0.5086535058584254
  0.5516944323673535  0.9606289799617427  0.5308618130826103
  0.0489203044553988  0.1450700555992676  0.0551404390037110
  0.3436006297625792  0.5805474996313785  0.9245483008042309
  0.3737670519943161  0.1567759623938379  0.4558046593500854
  0.8026188280270616  0.9808910499991516  0.5004362767596821
  0.1020275291381667  0.4277921472899646  0.5549716699939208
  0.0499936610251498  0.6878774459863756  0.6821376094988243
  0.0093300462128622  0.1630981736536379  0.1962973658256511
  0.3611501017576229  0.8783333334991333  0.9869462622340834
  0.2679478215824280  0.3011140019662993  0.3202555875985228
  0.4249016986236179  0.0089535135249583  0.8777586442459478
  0.5437797856366001  0.2329642108377703  0.6925877845118725
  0.3737791316518661  0.7158756366063237  0.9659620978926616
  0.2151124024099940  0.4315715609915680  0.4599359089217494
  0.0635751306062657  0.5020865783629149  0.8834960673594219
  0.9697670354235415  0.3056222493879686 -0.0288799493152300
  0.7868931494732228  0.5588819551750134  0.6837547335162318
  0.3639568082027841  0.5846748811694489  0.6742252167007131
  0.8205776283857342  0.3400192453318183  0.4877759340268340
  0.2014595273771356  0.9028660428524486  0.0712893024066840
  0.5579129759180846  0.8349465137710786  0.1274182866330028
  0.1982884683554167  0.4240258072531986  0.8221265313139039
  0.5112190581627435  0.3751406218521470  0.9438880406204709
  0.4858266571087108  0.6735942177802586  0.5464502274042731
  0.9356051208231553  0.3871003971931913  0.1698474879043699
  0.4046491970450085  0.7690384876962347  0.2737897580948995
  0.0060389494815422  0.9761049728670699  0.0590415983850549
  0.2570799312299373  0.2226411436700008  0.0576402119524468
  0.4806036835125672  0.4576725192874108  0.2968201917308717
  0.3921350624969812  0.3823222137777653  0.7588627385641599
  0.4653032460084609  0.5505235812804103  0.8364356123455432
  0.9393385238064657  0.8682588495674747  0.4706935715185094
  0.5822608413348104  0.8834488308544802  0.8392257858017290
  0.6596967682406724  0.8197107576713942  0.7277297779891559
  0.6762834933438533  0.0479096932076556  0.4978717924635654
  0.8522637237188014  0.6487712952336516  0.5762273390023613
  0.1799853314486498  0.9344755839488988  0.7831435575209706
  0.3923697601748770  0.7536689995556497  0.4480669378271115
  0.5685823545870330  0.5809038846267608  0.2919905009954384
 
  0.00000000E+00  0.00000000E+00  0.00000000E+00
  0.00000000E+00  0.00000000E+00  0.00000000E+00
  0.00000000E+00  0.00000000E+00  0.00000000E+00
  0.00000000E+00  0.00000000E+00  0.00000000E+00
  0.00000000E+00  0.00000000E+00  0.00000000E+00
  0.00000000E+00  0.00000000E+00  0.00000000E+00
  0.00000000E+00  0.00000000E+00  0.00000000E+00
  0.00000000E+00  0.00000000E+00  0.00000000E+00
  0.00000000E+00  0.00000000E+00  0.00000000E+00
  0.00000000E+00  0.00000000E+00  0.00000000E+00
  0.00000000E+00  0.00000000E+00  0.00000000E+00
  0.00000000E+00  0.00000000E+00  0.00000000E+00
  0.00000000E+00  0.00000000E+00  0.00000000E+00
  0.00000000E+00  0.00000000E+00  0.00000000E+00
  0.00000000E+00  0.00000000E+00  0.00000000E+00
  0.00000000E+00  0.00000000E+00  0.00000000E+00
  0.00000000E+00  0.00000000E+00  0.00000000E+00
  0.00000000E+00  0.00000000E+00  0.00000000E+00
  0.00000000E+00  0.00000000E+00  0.00000000E+00
  0.00000000E+00  0.00000000E+00  0.00000000E+00
  0.00000000E+00  0.00000000E+00  0.00000000E+00
  0.00000000E+00  0.00000000E+00  0.00000000E+00
  0.00000000E+00  0.00000000E+00  0.00000000E+00
  0.00000000E+00  0.00000000E+00  0.00000000E+00
  0.00000000E+00  0.00000000E+00  0.00000000E+00
  0.00000000E+00  0.00000000E+00  0.00000000E+00
  0.00000000E+00  0.00000000E+00  0.00000000E+00
  0.00000000E+00  0.00000000E+00  0.00000000E+00
  0.00000000E+00  0.00000000E+00  0.00000000E+00
  0.00000000E+00  0.00000000E+00  0.00000000E+00
  0.00000000E+00  0.00000000E+00  0.00000000E+00
  0.00000000E+00  0.00000000E+00  0.00000000E+00
  0.00000000E+00  0.00000000E+00  0.00000000E+00
  0.00000000E+00  0.00000000E+00  0.00000000E+00
  0.00000000E+00  0.00000000E+00  0.00000000E+00
  0.00000000E+00  0.00000000E+00  0.00000000E+00
  0.00000000E+00  0.00000000E+00  0.00000000E+00
  0.00000000E+00  0.00000000E+00  0.00000000E+00
  0.00000000E+00  0.00000000E+00  0.00000000E+00
  0.00000000E+00  0.00000000E+00  0.00000000E+00
  0.00000000E+00  0.00000000E+00  0.00000000E+00
  0.00000000E+00  0.00000000E+00  0.00000000E+00
  0.00000000E+00  0.00000000E+00  0.00000000E+00
  0.00000000E+00  0.00000000E+00  0.00000000E+00
  0.00000000E+00  0.00000000E+00  0.00000000E+00
  0.00000000E+00  0.00000000E+00  0.00000000E+00
  0.00000000E+00  0.00000000E+00  0.00000000E+00
  0.00000000E+00  0.00000000E+00  0.00000000E+00
  0.00000000E+00  0.00000000E+00  0.00000000E+00
  0.00000000E+00  0.00000000E+00  0.00000000E+00
  0.00000000E+00  0.00000000E+00  0.00000000E+00
  0.00000000E+00  0.00000000E+00  0.00000000E+00
  0.00000000E+00  0.00000000E+00  0.00000000E+00
  0.00000000E+00  0.00000000E+00  0.00000000E+00
  0.00000000E+00  0.00000000E+00  0.00000000E+00
  0.00000000E+00  0.00000000E+00  0.00000000E+00
  0.00000000E+00  0.00000000E+00  0.00000000E+00
  0.00000000E+00  0.00000000E+00  0.00000000E+00
  0.00000000E+00  0.00000000E+00  0.00000000E+00
  0.00000000E+00  0.00000000E+00  0.00000000E+00
  0.00000000E+00  0.00000000E+00  0.00000000E+00
  0.00000000E+00  0.00000000E+00  0.00000000E+00
  0.00000000E+00  0.00000000E+00  0.00000000E+00
  0.00000000E+00  0.00000000E+00  0.00000000E+00
  0.00000000E+00  0.00000000E+00  0.00000000E+00
  0.00000000E+00  0.00000000E+00  0.00000000E+00
  0.00000000E+00  0.00000000E+00  0.00000000E+00
  0.00000000E+00  0.00000000E+00  0.00000000E+00
  0.00000000E+00  0.00000000E+00  0.00000000E+00
  0.00000000E+00  0.00000000E+00  0.00000000E+00
  0.00000000E+00  0.00000000E+00  0.00000000E+00
  0.00000000E+00  0.00000000E+00  0.00000000E+00
  0.00000000E+00  0.00000000E+00  0.00000000E+00
  0.00000000E+00  0.00000000E+00  0.00000000E+00
  0.00000000E+00  0.00000000E+00  0.00000000E+00
  0.00000000E+00  0.00000000E+00  0.00000000E+00
  0.00000000E+00  0.00000000E+00  0.00000000E+00
  0.00000000E+00  0.00000000E+00  0.00000000E+00
  0.00000000E+00  0.00000000E+00  0.00000000E+00
  0.00000000E+00  0.00000000E+00  0.00000000E+00
  0.00000000E+00  0.00000000E+00  0.00000000E+00
  0.00000000E+00  0.00000000E+00  0.00000000E+00
  0.00000000E+00  0.00000000E+00  0.00000000E+00
  0.00000000E+00  0.00000000E+00  0.00000000E+00
  0.00000000E+00  0.00000000E+00  0.00000000E+00
  0.00000000E+00  0.00000000E+00  0.00000000E+00
  0.00000000E+00  0.00000000E+00  0.00000000E+00
  0.00000000E+00  0.00000000E+00  0.00000000E+00
  0.00000000E+00  0.00000000E+00  0.00000000E+00
  0.00000000E+00  0.00000000E+00  0.00000000E+00
  0.00000000E+00  0.00000000E+00  0.00000000E+00
  0.00000000E+00  0.00000000E+00  0.00000000E+00
  0.00000000E+00  0.00000000E+00  0.00000000E+00
  0.00000000E+00  0.00000000E+00  0.00000000E+00
  0.00000000E+00  0.00000000E+00  0.00000000E+00
  0.00000000E+00  0.00000000E+00  0.00000000E+00
  0.00000000E+00  0.00000000E+00  0.00000000E+00
  0.00000000E+00  0.00000000E+00  0.00000000E+00
  0.00000000E+00  0.00000000E+00  0.00000000E+00
  0.00000000E+00  0.00000000E+00  0.00000000E+00
  0.00000000E+00  0.00000000E+00  0.00000000E+00
  0.00000000E+00  0.00000000E+00  0.00000000E+00
  0.00000000E+00  0.00000000E+00  0.00000000E+00
  0.00000000E+00  0.00000000E+00  0.00000000E+00
  0.00000000E+00  0.00000000E+00  0.00000000E+00
  0.00000000E+00  0.00000000E+00  0.00000000E+00
  0.00000000E+00  0.00000000E+00  0.00000000E+00
  0.00000000E+00  0.00000000E+00  0.00000000E+00
  0.00000000E+00  0.00000000E+00  0.00000000E+00
  0.00000000E+00  0.00000000E+00  0.00000000E+00
  0.00000000E+00  0.00000000E+00  0.00000000E+00
  0.00000000E+00  0.00000000E+00  0.00000000E+00
  0.00000000E+00  0.00000000E+00  0.00000000E+00
  0.00000000E+00  0.00000000E+00  0.00000000E+00
  0.00000000E+00  0.00000000E+00  0.00000000E+00
  0.00000000E+00  0.00000000E+00  0.00000000E+00
  0.00000000E+00  0.00000000E+00  0.00000000E+00
  0.00000000E+00  0.00000000E+00  0.00000000E+00
  0.00000000E+00  0.00000000E+00  0.00000000E+00
  0.00000000E+00  0.00000000E+00  0.00000000E+00
  0.00000000E+00  0.00000000E+00  0.00000000E+00
  0.00000000E+00  0.00000000E+00  0.00000000E+00
  0.00000000E+00  0.00000000E+00  0.00000000E+00
  0.00000000E+00  0.00000000E+00  0.00000000E+00
  0.00000000E+00  0.00000000E+00  0.00000000E+00
  0.00000000E+00  0.00000000E+00  0.00000000E+00
  0.00000000E+00  0.00000000E+00  0.00000000E+00
  0.00000000E+00  0.00000000E+00  0.00000000E+00
  0.00000000E+00  0.00000000E+00  0.00000000E+00
  0.00000000E+00  0.00000000E+00  0.00000000E+00
  0.00000000E+00  0.00000000E+00  0.00000000E+00
  0.00000000E+00  0.00000000E+00  0.00000000E+00
  0.00000000E+00  0.00000000E+00  0.00000000E+00
  0.00000000E+00  0.00000000E+00  0.00000000E+00
  0.00000000E+00  0.00000000E+00  0.00000000E+00
  0.00000000E+00  0.00000000E+00  0.00000000E+00
  0.00000000E+00  0.00000000E+00  0.00000000E+00
  0.00000000E+00  0.00000000E+00  0.00000000E+00
  0.00000000E+00  0.00000000E+00  0.00000000E+00
  0.00000000E+00  0.00000000E+00  0.00000000E+00
  0.00000000E+00  0.00000000E+00  0.00000000E+00
  0.00000000E+00  0.00000000E+00  0.00000000E+00
  0.00000000E+00  0.00000000E+00  0.00000000E+00
  0.00000000E+00  0.00000000E+00  0.00000000E+00
  0.00000000E+00  0.00000000E+00  0.00000000E+00
  0.00000000E+00  0.00000000E+00  0.00000000E+00
  0.00000000E+00  0.00000000E+00  0.00000000E+00
  0.00000000E+00  0.00000000E+00  0.00000000E+00
  0.00000000E+00  0.00000000E+00  0.00000000E+00
  0.00000000E+00  0.00000000E+00  0.00000000E+00
  0.00000000E+00  0.00000000E+00  0.00000000E+00
  0.00000000E+00  0.00000000E+00  0.00000000E+00
  0.00000000E+00  0.00000000E+00  0.00000000E+00
  0.00000000E+00  0.00000000E+00  0.00000000E+00
  0.00000000E+00  0.00000000E+00  0.00000000E+00
  0.00000000E+00  0.00000000E+00  0.00000000E+00
  0.00000000E+00  0.00000000E+00  0.00000000E+00
  0.00000000E+00  0.00000000E+00  0.00000000E+00
  0.00000000E+00  0.00000000E+00  0.00000000E+00
  0.00000000E+00  0.00000000E+00  0.00000000E+00
  0.00000000E+00  0.00000000E+00  0.00000000E+00
  0.00000000E+00  0.00000000E+00  0.00000000E+00
  0.00000000E+00  0.00000000E+00  0.00000000E+00
  0.00000000E+00  0.00000000E+00  0.00000000E+00
  0.00000000E+00  0.00000000E+00  0.00000000E+00
  0.00000000E+00  0.00000000E+00  0.00000000E+00
  0.00000000E+00  0.00000000E+00  0.00000000E+00
  0.00000000E+00  0.00000000E+00  0.00000000E+00
  0.00000000E+00  0.00000000E+00  0.00000000E+00
  0.00000000E+00  0.00000000E+00  0.00000000E+00
  0.00000000E+00  0.00000000E+00  0.00000000E+00
  0.00000000E+00  0.00000000E+00  0.00000000E+00
  0.00000000E+00  0.00000000E+00  0.00000000E+00
  0.00000000E+00  0.00000000E+00  0.00000000E+00
  0.00000000E+00  0.00000000E+00  0.00000000E+00
  0.00000000E+00  0.00000000E+00  0.00000000E+00
  0.00000000E+00  0.00000000E+00  0.00000000E+00
  0.00000000E+00  0.00000000E+00  0.00000000E+00
  0.00000000E+00  0.00000000E+00  0.00000000E+00
  0.00000000E+00  0.00000000E+00  0.00000000E+00
  0.00000000E+00  0.00000000E+00  0.00000000E+00
  0.00000000E+00  0.00000000E+00  0.00000000E+00
  0.00000000E+00  0.00000000E+00  0.00000000E+00
  0.00000000E+00  0.00000000E+00  0.00000000E+00
  0.00000000E+00  0.00000000E+00  0.00000000E+00
  0.00000000E+00  0.00000000E+00  0.00000000E+00
  0.00000000E+00  0.00000000E+00  0.00000000E+00
  0.00000000E+00  0.00000000E+00  0.00000000E+00
  0.00000000E+00  0.00000000E+00  0.00000000E+00
  0.00000000E+00  0.00000000E+00  0.00000000E+00
  0.00000000E+00  0.00000000E+00  0.00000000E+00
  0.00000000E+00  0.00000000E+00  0.00000000E+00
  0.00000000E+00  0.00000000E+00  0.00000000E+00
  0.00000000E+00  0.00000000E+00  0.00000000E+00
  0.00000000E+00  0.00000000E+00  0.00000000E+00
  0.00000000E+00  0.00000000E+00  0.00000000E+00
  0.00000000E+00  0.00000000E+00  0.00000000E+00
  0.00000000E+00  0.00000000E+00  0.00000000E+00
  0.00000000E+00  0.00000000E+00  0.00000000E+00
  0.00000000E+00  0.00000000E+00  0.00000000E+00
  0.00000000E+00  0.00000000E+00  0.00000000E+00
  0.00000000E+00  0.00000000E+00  0.00000000E+00
  0.00000000E+00  0.00000000E+00  0.00000000E+00
  0.00000000E+00  0.00000000E+00  0.00000000E+00
  0.00000000E+00  0.00000000E+00  0.00000000E+00
  0.00000000E+00  0.00000000E+00  0.00000000E+00
  0.00000000E+00  0.00000000E+00  0.00000000E+00
  0.00000000E+00  0.00000000E+00  0.00000000E+00
  0.00000000E+00  0.00000000E+00  0.00000000E+00
  0.00000000E+00  0.00000000E+00  0.00000000E+00
  0.00000000E+00  0.00000000E+00  0.00000000E+00
  0.00000000E+00  0.00000000E+00  0.00000000E+00
  0.00000000E+00  0.00000000E+00  0.00000000E+00
  0.00000000E+00  0.00000000E+00  0.00000000E+00
  0.00000000E+00  0.00000000E+00  0.00000000E+00
  0.00000000E+00  0.00000000E+00  0.00000000E+00
  0.00000000E+00  0.00000000E+00  0.00000000E+00
  0.00000000E+00  0.00000000E+00  0.00000000E+00
  0.00000000E+00  0.00000000E+00  0.00000000E+00
  0.00000000E+00  0.00000000E+00  0.00000000E+00
  0.00000000E+00  0.00000000E+00  0.00000000E+00
  0.00000000E+00  0.00000000E+00  0.00000000E+00
  0.00000000E+00  0.00000000E+00  0.00000000E+00
  0.00000000E+00  0.00000000E+00  0.00000000E+00
  0.00000000E+00  0.00000000E+00  0.00000000E+00
  0.00000000E+00  0.00000000E+00  0.00000000E+00
  0.00000000E+00  0.00000000E+00  0.00000000E+00
  0.00000000E+00  0.00000000E+00  0.00000000E+00
  0.00000000E+00  0.00000000E+00  0.00000000E+00
  0.00000000E+00  0.00000000E+00  0.00000000E+00
  0.00000000E+00  0.00000000E+00  0.00000000E+00
  0.00000000E+00  0.00000000E+00  0.00000000E+00