Ge Se                                   
   1.00000000000000     
    20.8706398010253906    0.0000000000000000    0.0000000000000000
     0.0000000000000000   20.8706398010253906    0.0000000000000000
     0.0000000000000000    0.0000000000000000   20.8706398010253906
   Ge   Se
   150   150
Direct
  0.9662991950913082  0.9180945112852714  0.3702906394298914
  0.3905263429493687  0.2575815826776728  0.4047296664889784
  0.0383185618826585  0.9323789371066962  0.8338658846849648
  0.1498309933626271  0.1191907880866841  0.2357252384321291
  0.0179421384791326  0.3511171761406520  0.5640248027666954
  0.1004034340690693  0.7546089615844731  0.5085837791095239
  0.2818383183498055  0.9636444179202353  0.0363384592829056
  0.1419262458665343  0.6078113649938488  0.2517567188614919
  0.0202891806316803  0.0295067760060166  0.3813853604643314
  0.4301538856486057  0.4489684942534123  0.0574485176640253
  0.5887799501154125  0.2473682904301170  0.6278708718120179
  0.8035026503849346  0.3093433563537997  0.0935128244049380
  0.9290229646610646  0.5825399598913384  0.2625752866429519
  0.3795592882510750  0.1099639640653716  0.5211450987162172
  0.7631865720527111  0.5107317209368166  0.5929734405331811
  0.9509643821739980  0.3272169578976288 -0.0037802789980522
  0.4893119293342669  0.9144599106076431  0.4961570338428972
  0.5217221754100844  0.9349461461806083  0.1437040157357953
  0.0585260331860371  0.7731100191899994  0.6716786081189089
  0.4049047351498904  0.1733450535946911  0.7168297711920566
  0.6332356756671429  0.9567911558954536  0.9293003369548285
  0.7778794047902847  0.0108292801015680  0.8147601502671283
  0.1176123347507573  0.8780592405691159  0.7549929689471158
  0.0099867702054719  0.8035630275559670  0.3283262410188907
  0.9614763262103782  0.7822543489000134  0.4905828076413277
  0.5378204444308523  0.7215301904990808  0.5423341365908654
  0.6864381844722887  0.2033820355005789  0.9317794044716390
  0.8894775256109758  0.7700207992045804  0.7750192395494813
  0.1417175163957142  0.6330594496983624  0.9229918516047646
  0.5175804859043680  0.2124372664461407  0.2803576862161160
  0.3311587604042667  0.3750719210526266  0.6824314059425487
  0.6058140897666541  0.0852336687950125  0.2644870611777024
  0.5923940195633961  0.1441340477211633  0.8037659389185147
  0.1296222394948603  0.3503892862552637  0.0169677852153952
  0.4063527236554377  0.0516190987589982  0.3167421609526951
  0.4791561270448982  0.3844654682664582  0.5187434729842171
  0.2243189777005647  0.4794313783364996  0.5614062246976791
  0.8830656234666732  0.1628385965646099  0.3329828520219815
  0.7778878395041919  0.8811823344420459  0.9663415352428816
  0.8436901419080991  0.3683357798045909  0.5108331100909098
  0.6172743001601009  0.5802098447542819  0.4236589454706781
  0.2844667486691467  0.1829324650615507  0.1261357670137683
  0.5865175012926257  0.7019788406431001  0.4316162686220148
  0.9099465433545555  0.4380205070102956  0.3956997485673920
  0.5957747209585542  0.8402051056100081  0.9311723144119914
  0.3283535897724720  0.0522297115342461  0.8813117286330771
  0.2428271467163084  0.6921838892408901  0.9709211238286092
  0.8788891347234566  0.5386776606609871  0.7217383101195610
  0.2520038700765241  0.7282426228057176  0.3780331553448084
  0.0976856800903870  0.1732968009184190  0.9802089585306910
  0.4723105232570772  0.4930287997036634  0.9188243047361009
  0.6664628186027024  0.7387106207751463  0.9278372968176741
  0.9686710817096378  0.0543562413666801  0.9627842951953978
  0.3185645919310243  0.2280312001308504  0.7928840227090099
  0.3212801528248937  0.6083152257520207  0.2164510930993463
  0.5216426133106787  0.4982137249651790  0.5488899880755027
  0.6794218728610699  0.4934260892560534  0.5029430330366736
  0.4339285094886459  0.5671919436369816  0.0108439394648084
  0.8855154359105788  0.2994846539891443  0.2421799954450758
  0.8995614035285175  0.4010333073184833  0.1269474543067078
  0.7162227077080197  0.4238217089402048  0.1967032772596974
  0.3172998830949492  0.9661968311351777  0.4344152853783646
  0.3898550975639852  0.3701280782071525  0.2351550623564632
  0.0955494189122131  0.2484755464318949  0.7056125271470970
  0.6188948618217560  0.2896815341867741  0.8204984089552719
  0.0013307769935327  0.1158436822583769  0.7837974091195644
  0.7363466751495260  0.7856186867610705  0.3276003133164160
  0.0700068077304947  0.8986153451658740  0.4792366148013746
  0.1785815112286976  0.2395868755223750  0.6111918730556958
  0.6667501631506330  0.6660035102803826  0.6781319059049256
  0.1595658197657475  0.5451840646834381  0.4213449912876999
  0.4802008317276971  0.2792081727307892  0.5764735305265868
  0.2552388679296925  0.4696375940815022  0.3946211235326286
  0.4643942420908895  0.9127238896341889  0.9667039876879049
  0.8128737238544639  0.9829634062272966  0.5881898376582320
  0.3126887774802155  0.0338373186109270  0.7183788157513792
  0.4705765134630505  0.6817265102191719  0.2647856260881324
  0.9351396866092776  0.8112889307556785  0.0817201092592388
  0.1625566882487356  0.2142509996354080  0.4370466776095236
  0.4253953429053232  0.8909847881037986  0.7809073699773706
  0.6514348404079786  0.5347684991712319  0.9394367903417683
  0.7448966998434607  0.2937512202969819  0.5265579380697629
  0.4776110405014096  0.1913106719126972  0.1697858471749257
  0.9396316967014314  0.9703123860063937  0.6834764487081373
  0.8015897612204985  0.1448661005780775  0.4689496820339278
  0.0750484950064962  0.2015864103505333  0.1653295410465508
  0.9842589818135520  0.2805499566281189  0.4303611112910753
  0.1707294459980977  0.0949486606392417  0.4937229690958837
  0.5433753800242359  0.8458665791222290  0.6833155890819040
  0.7158911008416605  0.8949682020954870  0.7492290863966565
  0.8174769113807435  0.8896736312461324  0.8319221046633937
  0.1475513386416165  0.6416641421129732  0.7607868672051161
  0.7141722814528821  0.9741256992394001  0.2365696152387358
  0.7546785755141207  0.0776853651766676  0.7094418711775435
  0.0124452792946439  0.2850279589714088  0.8230726642088183
  0.5871408856462076  0.8297138676994587  0.2629865655560655
  0.3498607954695404  0.1881508230291891  0.2900919437788574
  0.1323166254036067  0.9609937482010370  0.1665447376580327
  0.1319435738367847  0.8085693732962501  0.8562593389957314
  0.0994972235649561  0.4435822775395201  0.2997200227050722
  0.8099926962104134  0.7227247728655047  0.9945790900788094
  0.0344141684282722  0.5890568171483284  0.7670391687913533
  0.8279361110083545  0.7567002295025698  0.2171412690477172
  0.3931609238917884  0.8815635694051488  0.2307325571772540
  0.9843193159344260  0.0016473823719490  0.1493918139953933
  0.2915513338787576  0.3309700347945494  0.5351823086105685
  0.6921813542971708  0.3161577171225921  0.0467510501750708
  0.2464517596267315  0.1355721693721283  0.8503045705115582
  0.1631472803370865  0.7566185647172998  0.2099981633521763
  0.3472230443275646  0.7550810333565674  0.3033461686879403
  0.5985134513592998  0.8827774149766899  0.3754319755933864
  0.4970580519634637  0.4757954618521344  0.7007532162270051
  0.7598658743220291  0.5404570171139677  0.7862823031368215
  0.8944759159439356  0.6950761920787977  0.6395191797801885
  0.4432490520110326  0.5220990374894081  0.8022601112820911
  0.8296916864263272  0.1778515603581306  0.9357547111797583
  0.0235578880430722  0.1170757412293343  0.6062553817830428
  0.6349714375390290  0.5525258671636155  0.3021966883779227
  0.8071793325974731  0.6095182859000948  0.3748024636087012
  0.6766457531220901  0.1492166847690133  0.5803350276518338
  0.2631520720568820  0.8696760795179420  0.3140275613071085
  0.3637463639515190  0.8722451872235228  0.0278755353119814
  0.4321111860807939  0.3024930322975800  0.1407909216561575
  0.9060784636841334  0.9244750160757623  0.2135570117495855
  0.7995389335968449  0.1185846537691309  0.1497805157200630
  0.4875337806534360  0.4882839568599177  0.3275640433313725
  0.2057340553006878  0.2781300594345874  0.3223114422608306
  0.3506831784396390  0.8485964536416579  0.4498535492584449
  0.3226660564876249  0.3727086691144795  0.8826690519403124
  0.6138267264370100  0.4658474160381251  0.7985418370644606
  0.6544287506360577  0.3761421766017577  0.5342403541135327
  0.4376624011589357  0.6358564748158883  0.6518626929002170
  0.2947779828092988  0.6112235895913489  0.8878207118006469
  0.6621805586198400  0.1734490425241060  0.1496785828260417
  0.9624846818104223  0.4748427103606738  0.2043135125088553
  0.2283066115674116  0.6370994980151214  0.4554340776965129
  0.6851621250457253  0.0650224253972065  0.9673754855252676
  0.7269009194870579  0.3391232482936366  0.6997417939520353
  0.1342699558904802  0.6129497359078279  0.6154020887993353
  0.3666202150125497  0.7859101612868938  0.6236062164753398
  0.7983246818338551  0.9596734815616926  0.0679053455596544
  0.7856192155589899  0.4393515177463841  0.0321742628304093
  0.9667548688375465  0.6447765069921367  0.1018624527554876
  0.9308994036924120  0.6496920886694363  0.7492956886290884
  0.0996539254425423  0.9615547396724774 -0.0028835335243454
  0.2868028129182423  0.0884522767761197  0.0375109941841626
  0.2633143298095242  0.3482812649985871  0.0943608817388343
  0.7632644436586220  0.7887533250724090  0.5977983554825848
  0.1078631021063205  0.3607757966541765  0.1435255787480932
  0.2182230323399291  0.9399755509847852  0.7933483288953487
  0.9791195147279592  0.4044843724393926  0.2967523895058450
  0.6098168621299387  0.5950702344191600  0.0292948615934589
  0.1995380052523114  0.3901542320939437  0.4840566409938782
  0.7637705904832481  0.3039281600932970  0.2047744248085097
  0.6153843969568382  0.3676512379388213  0.6465454219949306
  0.2188469599846361  0.0438257832473400  0.1789297711169030
  0.3872474249902940  0.0804673225726081  0.9749594471457597
  0.8208893109622880  0.6308254021894782  0.2547848360064033
  0.0169422459537763  0.5245970077681898  0.8640206143770824
  0.1140342986987701  0.5261070437143043  0.5308618856567563
  0.0627220120423898  0.0376372757514002  0.8760311575358508
  0.8645558265631705  0.5665730215046734  0.6043153775117696
  0.3774046847505658  0.9464061426081202  0.1227137187873403
  0.2707495080395655  0.2208295142502547  0.4876804070273124
  0.6072877541830017  0.2418052899372183  0.0703849722856595
  0.9216810385385076  0.4459735443863891  0.0207146250170834
  0.7407960471775596  0.0513269740105160  0.5183841080228612
  0.2533708510161767  0.3162931476719074  0.7531543053921330
  0.8001375738930653  0.0526306907080771  0.9268462591982357
  0.7848226347376235  0.1116899367045294  0.3519990492926003
  0.2368296296784439  0.3859531208971266  0.9809980689534928
  0.1917136438021094  0.5580662547263120  0.8437562594212012
  0.7292771296510074  0.4248741509407551  0.8008699642161901
  0.4501035046548121  0.0581685617640967  0.6046651308920007
  0.3517873749065903  0.2662931118160636  0.0605091402418559
  0.2053634825547076  0.0563540423577517  0.7671164492355221
  0.0506249015161378  0.5741590570631983  0.9630328073514826
  0.5684384891994222  0.8338142247410166  0.5700642745873152
  0.4176919467977548  0.5204059818265026  0.6112456718237822
  0.3807246121701061  0.2680413956142695  0.6409750413089982
  0.8073963665129532  0.4035007439651606  0.6275941625527728
  0.4871213727910621  0.8340944664565467  0.8793499551764831
  0.3824237862372080  0.8899955364915021  0.5630563448672794
  0.7959818708596234  0.8978781415129338  0.1726923842266122
  0.5274265178949999  0.0080235902002453  0.9374261868579484
  0.7164816052210461  0.7944648184995827  0.0296472464918593
  0.5389948291246505  0.2362834860969512  0.7368577187558514
  0.0753493730088459  0.3537724215299872  0.7482580698140510
  0.6643610183355072  0.4237051797165294  0.0809635171261510
  0.3378987788059281  0.4378419364993105  0.1313170190728230
  0.7036626244610401  0.6899919725185806  0.5673098521418392
  0.2404018335333838  0.5421375503287958  0.2796637859320190
  0.0788731084008158  0.7042139868247357  0.8476179688426839
  0.8685205381655637  0.2772095166845969  0.3643419913257181
  0.4271923391154177  0.3871058946379273  0.9519754898872114
  0.2343576487632378  0.7903144640294766  0.9051757050509845
  0.5223332812253880  0.5734540766925822  0.2480404588078070
  0.1589548241875056  0.8710516582996447  0.2541932430726074
  0.1033636400771327  0.0301162775149453  0.3010334209587817
  0.7966963006300666  0.7273147569677918  0.7040824264596216
  0.6577165364733166  0.9824524114629640  0.8130876676472577
  0.8815606821007504  0.0424528944241148  0.0899668611614603
  0.3755123450027489  0.6316684577761279  0.3221761337208319
  0.0984234451153124  0.1922703847026270  0.8131964674646591
  0.9232644300270423  0.9566069744487322  0.8074431025506509
  0.4729873237302720  0.9595996694583664  0.2764707516631576
  0.6369605756512209  0.9015588616078491  0.1793481458902306
  0.3816885443153313  0.1246650740517498  0.1809240365884455
  0.6595350141594420  0.7391955206926459  0.2497511305547588
  0.9992902019057704  0.3131238532504285  0.1124440432664613
  0.7088764422074494  0.0376485068919092  0.0837037581718513
  0.5385894947050426  0.8509136343221383  0.0354421096983315
  0.8076682480098022  0.4868803840080322  0.1425093819257446
  0.9234614888444929  0.5671976645622436  0.3810262800054002
 -0.0101855853178420  0.4950462334289988  0.7130991943897752
  0.5700307832446176  0.6871229097540313  0.9771772227362839
  0.2762691185630106  0.9883423323434412  0.3281398365545457
  0.6385444863693459  0.8058913344380888  0.7369849275472492
  0.5573145624412918  0.6338216640583669  0.6179982255963661
  0.9463446784969634  0.9076792841565596  0.4895333106937249
  0.1472835368736100  0.7132199525147360  0.3240277010661554
  0.8424627074232764  0.1988519007443101  0.0661094699147422
  0.2087967522224811  0.6896172748852142  0.5579588965111238
  0.7080431445246783  0.9720234003072949  0.6574584364044784
  0.4922035469393791  0.8212336065773387  0.1853434251785438
 -0.0001096799849095  0.6620508544533910  0.2219953301217639
  0.5115328342428226  0.3758566919517822  0.0993735495362264
  0.5182341791162288  0.1148176940214929  0.3437377411621818
  0.9094079257897507  0.1786103801655461  0.2221130396886996
  0.0013767139533412  0.9222285653564618  0.0616906047871549
  0.6632586845321200  0.7933990980247836  0.4314861915027004
  0.2272136143530406  0.8294640431729994  0.4373096045888460
  0.5849350556821110  0.4384995817696439  0.9185882793493320
  0.3020975555357345  0.5475560281571933  0.4815727350747920
  0.1050779891012605  0.2839890908547654  0.2515935919968300
  0.0156854711669473  0.4019945044186692  0.4491258786559030
  0.4794015325611410  0.3075897508057972  0.3298668169523292
  0.2321002325945977  0.1582791989825428  0.3190521885815403
  0.1077278825367753  0.8497918558722950  0.5865913428401160
  0.4187103004530073  0.4050224973621702  0.7678082635687843
  0.5023336038790367  0.7455630974781953  0.3660547937924455
  0.9221130709446432  0.2780935946860320  0.5374541283286107
  0.6916932000009792  0.2047027759746323  0.4681204794305689
  0.3558788800123405  0.2575271182217692  0.8959884676535390
  0.8809187257780818  0.8188236654179953  0.9625663925619129
  0.3821776364660064  0.3707552254617826  0.4492717445448619
  0.9429669185980426  0.8112248790470069  0.6722839010552877
  0.7657080198094596  0.5238478368474715  0.9494409973885184
  0.0731773853695661  0.5570059762410853  0.3413491919342007
  0.4040185602789984  0.0398006819159914  0.7921127631901539
  0.2895005959535722  0.9234457506957320  0.6976315746650981
  0.6351953783374960  0.2063168615956814  0.2686384103724691
  0.9653937520653459  0.1301538650724991  0.4088116695650748
  0.4215374470333512  0.0221324798118470  0.4361488458027855
  0.4192490455076536  0.7054595407303204  0.5458733616550878
  0.2838733208267846  0.7320795906541661  0.2024108397079485
  0.1563899670093987  0.2337220416092140  0.0731735234503903
  0.0844944864570039  0.2494837187409802  0.5306916836315722
  0.5099556093171748  0.9477795565153075  0.7174508503396251
  0.0703022421328820  0.0244063083941709  0.4917859692519552
  0.7141018903271749  0.9091285096659173  0.3406677931532053
  0.6333859493852055  0.5837893135341998  0.8364614801633038
  0.5729821917071618  0.3423267729759121  0.4592702557090093
  0.4528541559100698  0.7803080800292215  0.7142426387563264
  0.6919800364634235  0.5413964848903111  0.6813062278730558
  0.5577042899083905  0.1053879097049467  0.1477887970186470
  0.3678728491158500  0.6101889051329236  0.7950736751486606
  0.3175561309528939  0.1216832573975074  0.6469188580174553
  0.0367547558703504  0.6823867975875871  0.5869923884010656
  0.7051329877835106  0.1989616077097000  0.8087103459689220
  0.0486597415396781  0.8574318478060955  0.9254809067263396
  0.2544296928441001  0.0154670537266857  0.5212595390302303
  0.0439083959261880  0.0316171303025128  0.6974716194180421
  0.7607832813656280  0.2299796889714932  0.6231432202027128
  0.9437380865101882  0.8109466263021111  0.2244148172611393
  0.5657493757676636  0.2147500762546822  0.9012363420537480
  0.8581025101461026  0.7329088356219325  0.5315913666527735
  0.8735960091405029  0.9650212823590021  0.3182088628137442
  0.0258485623811796  0.7392497058863778  0.0619026549296059
  0.1968615980123202  0.1016951042383821  0.9544659548214300
  0.9468528870020518  0.1688110153824733  0.9226972784520704
  0.9874915575255787  0.2067955169883228  0.6821277476629183
  0.1517427857991782  0.1199666148043677  0.6109824538049590
  0.5393532206688012  0.0058422493755092  0.5552884422540096
  0.9171599329715382  0.7574516667932014  0.3850910140289532
  0.8510863413738016  0.6982000179904068  0.1098749337728277
  0.2983526803840775  0.2872269049560929  0.2357340161588894
  0.0488270711010420  0.3494304895843194  0.9284576630112289
  0.7143272782260431  0.3239608178691555  0.9345388259814981
  0.0545637399091574  0.0844842856108621  0.0491342649921060
  0.4649559051815924  0.2039631317470096  0.4859665988659865
  0.3291604462136122  0.5268277213956487  0.9603799571703603
  0.2815825968620272  0.9434879658787367  0.8944688643662968
  0.7474208784058787  0.4382311192562011  0.4237965827299647
  0.5965840981669076  0.4429143487825989  0.3122445203720641
  0.7580342957294834  0.5060297669482913  0.3304915008065995
  0.0793266533398164  0.4810077529028594  0.1818926789376795
  0.5028273022285460  0.5550043242433580  0.4404991803282565
  0.1868795276668396  0.9024533979163198  0.0720777663528478
  0.8666875395313839  0.0694865967791572  0.6603304591433394
 
  0.00000000E+00  0.00000000E+00  0.00000000E+00
  0.00000000E+00  0.00000000E+00  0.00000000E+00
  0.00000000E+00  0.00000000E+00  0.00000000E+00
  0.00000000E+00  0.00000000E+00  0.00000000E+00
  0.00000000E+00  0.00000000E+00  0.00000000E+00
  0.00000000E+00  0.00000000E+00  0.00000000E+00
  0.00000000E+00  0.00000000E+00  0.00000000E+00
  0.00000000E+00  0.00000000E+00  0.00000000E+00
  0.00000000E+00  0.00000000E+00  0.00000000E+00
  0.00000000E+00  0.00000000E+00  0.00000000E+00
  0.00000000E+00  0.00000000E+00  0.00000000E+00
  0.00000000E+00  0.00000000E+00  0.00000000E+00
  0.00000000E+00  0.00000000E+00  0.00000000E+00
  0.00000000E+00  0.00000000E+00  0.00000000E+00
  0.00000000E+00  0.00000000E+00  0.00000000E+00
  0.00000000E+00  0.00000000E+00  0.00000000E+00
  0.00000000E+00  0.00000000E+00  0.00000000E+00
  0.00000000E+00  0.00000000E+00  0.00000000E+00
  0.00000000E+00  0.00000000E+00  0.00000000E+00
  0.00000000E+00  0.00000000E+00  0.00000000E+00
  0.00000000E+00  0.00000000E+00  0.00000000E+00
  0.00000000E+00  0.00000000E+00  0.00000000E+00
  0.00000000E+00  0.00000000E+00  0.00000000E+00
  0.00000000E+00  0.00000000E+00  0.00000000E+00
  0.00000000E+00  0.00000000E+00  0.00000000E+00
  0.00000000E+00  0.00000000E+00  0.00000000E+00
  0.00000000E+00  0.00000000E+00  0.00000000E+00
  0.00000000E+00  0.00000000E+00  0.00000000E+00
  0.00000000E+00  0.00000000E+00  0.00000000E+00
  0.00000000E+00  0.00000000E+00  0.00000000E+00
  0.00000000E+00  0.00000000E+00  0.00000000E+00
  0.00000000E+00  0.00000000E+00  0.00000000E+00
  0.00000000E+00  0.00000000E+00  0.00000000E+00
  0.00000000E+00  0.00000000E+00  0.00000000E+00
  0.00000000E+00  0.00000000E+00  0.00000000E+00
  0.00000000E+00  0.00000000E+00  0.00000000E+00
  0.00000000E+00  0.00000000E+00  0.00000000E+00
  0.00000000E+00  0.00000000E+00  0.00000000E+00
  0.00000000E+00  0.00000000E+00  0.00000000E+00
  0.00000000E+00  0.00000000E+00  0.00000000E+00
  0.00000000E+00  0.00000000E+00  0.00000000E+00
  0.00000000E+00  0.00000000E+00  0.00000000E+00
  0.00000000E+00  0.00000000E+00  0.00000000E+00
  0.00000000E+00  0.00000000E+00  0.00000000E+00
  0.00000000E+00  0.00000000E+00  0.00000000E+00
  0.00000000E+00  0.00000000E+00  0.00000000E+00
  0.00000000E+00  0.00000000E+00  0.00000000E+00
  0.00000000E+00  0.00000000E+00  0.00000000E+00
  0.00000000E+00  0.00000000E+00  0.00000000E+00
  0.00000000E+00  0.00000000E+00  0.00000000E+00
  0.00000000E+00  0.00000000E+00  0.00000000E+00
  0.00000000E+00  0.00000000E+00  0.00000000E+00
  0.00000000E+00  0.00000000E+00  0.00000000E+00
  0.00000000E+00  0.00000000E+00  0.00000000E+00
  0.00000000E+00  0.00000000E+00  0.00000000E+00
  0.00000000E+00  0.00000000E+00  0.00000000E+00
  0.00000000E+00  0.00000000E+00  0.00000000E+00
  0.00000000E+00  0.00000000E+00  0.00000000E+00
  0.00000000E+00  0.00000000E+00  0.00000000E+00
  0.00000000E+00  0.00000000E+00  0.00000000E+00
  0.00000000E+00  0.00000000E+00  0.00000000E+00
  0.00000000E+00  0.00000000E+00  0.00000000E+00
  0.00000000E+00  0.00000000E+00  0.00000000E+00
  0.00000000E+00  0.00000000E+00  0.00000000E+00
  0.00000000E+00  0.00000000E+00  0.00000000E+00
  0.00000000E+00  0.00000000E+00  0.00000000E+00
  0.00000000E+00  0.00000000E+00  0.00000000E+00
  0.00000000E+00  0.00000000E+00  0.00000000E+00
  0.00000000E+00  0.00000000E+00  0.00000000E+00
  0.00000000E+00  0.00000000E+00  0.00000000E+00
  0.00000000E+00  0.00000000E+00  0.00000000E+00
  0.00000000E+00  0.00000000E+00  0.00000000E+00
  0.00000000E+00  0.00000000E+00  0.00000000E+00
  0.00000000E+00  0.00000000E+00  0.00000000E+00
  0.00000000E+00  0.00000000E+00  0.00000000E+00
  0.00000000E+00  0.00000000E+00  0.00000000E+00
  0.00000000E+00  0.00000000E+00  0.00000000E+00
  0.00000000E+00  0.00000000E+00  0.00000000E+00
  0.00000000E+00  0.00000000E+00  0.00000000E+00
  0.00000000E+00  0.00000000E+00  0.00000000E+00
  0.00000000E+00  0.00000000E+00  0.00000000E+00
  0.00000000E+00  0.00000000E+00  0.00000000E+00
  0.00000000E+00  0.00000000E+00  0.00000000E+00
  0.00000000E+00  0.00000000E+00  0.00000000E+00
  0.00000000E+00  0.00000000E+00  0.00000000E+00
  0.00000000E+00  0.00000000E+00  0.00000000E+00
  0.00000000E+00  0.00000000E+00  0.00000000E+00
  0.00000000E+00  0.00000000E+00  0.00000000E+00
  0.00000000E+00  0.00000000E+00  0.00000000E+00
  0.00000000E+00  0.00000000E+00  0.00000000E+00
  0.00000000E+00  0.00000000E+00  0.00000000E+00
  0.00000000E+00  0.00000000E+00  0.00000000E+00
  0.00000000E+00  0.00000000E+00  0.00000000E+00
  0.00000000E+00  0.00000000E+00  0.00000000E+00
  0.00000000E+00  0.00000000E+00  0.00000000E+00
  0.00000000E+00  0.00000000E+00  0.00000000E+00
  0.00000000E+00  0.00000000E+00  0.00000000E+00
  0.00000000E+00  0.00000000E+00  0.00000000E+00
  0.00000000E+00  0.00000000E+00  0.00000000E+00
  0.00000000E+00  0.00000000E+00  0.00000000E+00
  0.00000000E+00  0.00000000E+00  0.00000000E+00
  0.00000000E+00  0.00000000E+00  0.00000000E+00
  0.00000000E+00  0.00000000E+00  0.00000000E+00
  0.00000000E+00  0.00000000E+00  0.00000000E+00
  0.00000000E+00  0.00000000E+00  0.00000000E+00
  0.00000000E+00  0.00000000E+00  0.00000000E+00
  0.00000000E+00  0.00000000E+00  0.00000000E+00
  0.00000000E+00  0.00000000E+00  0.00000000E+00
  0.00000000E+00  0.00000000E+00  0.00000000E+00
  0.00000000E+00  0.00000000E+00  0.00000000E+00
  0.00000000E+00  0.00000000E+00  0.00000000E+00
  0.00000000E+00  0.00000000E+00  0.00000000E+00
  0.00000000E+00  0.00000000E+00  0.00000000E+00
  0.00000000E+00  0.00000000E+00  0.00000000E+00
  0.00000000E+00  0.00000000E+00  0.00000000E+00
  0.00000000E+00  0.00000000E+00  0.00000000E+00
  0.00000000E+00  0.00000000E+00  0.00000000E+00
  0.00000000E+00  0.00000000E+00  0.00000000E+00
  0.00000000E+00  0.00000000E+00  0.00000000E+00
  0.00000000E+00  0.00000000E+00  0.00000000E+00
  0.00000000E+00  0.00000000E+00  0.00000000E+00
  0.00000000E+00  0.00000000E+00  0.00000000E+00
  0.00000000E+00  0.00000000E+00  0.00000000E+00
  0.00000000E+00  0.00000000E+00  0.00000000E+00
  0.00000000E+00  0.00000000E+00  0.00000000E+00
  0.00000000E+00  0.00000000E+00  0.00000000E+00
  0.00000000E+00  0.00000000E+00  0.00000000E+00
  0.00000000E+00  0.00000000E+00  0.00000000E+00
  0.00000000E+00  0.00000000E+00  0.00000000E+00
  0.00000000E+00  0.00000000E+00  0.00000000E+00
  0.00000000E+00  0.00000000E+00  0.00000000E+00
  0.00000000E+00  0.00000000E+00  0.00000000E+00
  0.00000000E+00  0.00000000E+00  0.00000000E+00
  0.00000000E+00  0.00000000E+00  0.00000000E+00
  0.00000000E+00  0.00000000E+00  0.00000000E+00
  0.00000000E+00  0.00000000E+00  0.00000000E+00
  0.00000000E+00  0.00000000E+00  0.00000000E+00
  0.00000000E+00  0.00000000E+00  0.00000000E+00
  0.00000000E+00  0.00000000E+00  0.00000000E+00
  0.00000000E+00  0.00000000E+00  0.00000000E+00
  0.00000000E+00  0.00000000E+00  0.00000000E+00
  0.00000000E+00  0.00000000E+00  0.00000000E+00
  0.00000000E+00  0.00000000E+00  0.00000000E+00
  0.00000000E+00  0.00000000E+00  0.00000000E+00
  0.00000000E+00  0.00000000E+00  0.00000000E+00
  0.00000000E+00  0.00000000E+00  0.00000000E+00
  0.00000000E+00  0.00000000E+00  0.00000000E+00
  0.00000000E+00  0.00000000E+00  0.00000000E+00
  0.00000000E+00  0.00000000E+00  0.00000000E+00
  0.00000000E+00  0.00000000E+00  0.00000000E+00
  0.00000000E+00  0.00000000E+00  0.00000000E+00
  0.00000000E+00  0.00000000E+00  0.00000000E+00
  0.00000000E+00  0.00000000E+00  0.00000000E+00
  0.00000000E+00  0.00000000E+00  0.00000000E+00
  0.00000000E+00  0.00000000E+00  0.00000000E+00
  0.00000000E+00  0.00000000E+00  0.00000000E+00
  0.00000000E+00  0.00000000E+00  0.00000000E+00
  0.00000000E+00  0.00000000E+00  0.00000000E+00
  0.00000000E+00  0.00000000E+00  0.00000000E+00
  0.00000000E+00  0.00000000E+00  0.00000000E+00
  0.00000000E+00  0.00000000E+00  0.00000000E+00
  0.00000000E+00  0.00000000E+00  0.00000000E+00
  0.00000000E+00  0.00000000E+00  0.00000000E+00
  0.00000000E+00  0.00000000E+00  0.00000000E+00
  0.00000000E+00  0.00000000E+00  0.00000000E+00
  0.00000000E+00  0.00000000E+00  0.00000000E+00
  0.00000000E+00  0.00000000E+00  0.00000000E+00
  0.00000000E+00  0.00000000E+00  0.00000000E+00
  0.00000000E+00  0.00000000E+00  0.00000000E+00
  0.00000000E+00  0.00000000E+00  0.00000000E+00
  0.00000000E+00  0.00000000E+00  0.00000000E+00
  0.00000000E+00  0.00000000E+00  0.00000000E+00
  0.00000000E+00  0.00000000E+00  0.00000000E+00
  0.00000000E+00  0.00000000E+00  0.00000000E+00
  0.00000000E+00  0.00000000E+00  0.00000000E+00
  0.00000000E+00  0.00000000E+00  0.00000000E+00
  0.00000000E+00  0.00000000E+00  0.00000000E+00
  0.00000000E+00  0.00000000E+00  0.00000000E+00
  0.00000000E+00  0.00000000E+00  0.00000000E+00
  0.00000000E+00  0.00000000E+00  0.00000000E+00
  0.00000000E+00  0.00000000E+00  0.00000000E+00
  0.00000000E+00  0.00000000E+00  0.00000000E+00
  0.00000000E+00  0.00000000E+00  0.00000000E+00
  0.00000000E+00  0.00000000E+00  0.00000000E+00
  0.00000000E+00  0.00000000E+00  0.00000000E+00
  0.00000000E+00  0.00000000E+00  0.00000000E+00
  0.00000000E+00  0.00000000E+00  0.00000000E+00
  0.00000000E+00  0.00000000E+00  0.00000000E+00
  0.00000000E+00  0.00000000E+00  0.00000000E+00
  0.00000000E+00  0.00000000E+00  0.00000000E+00
  0.00000000E+00  0.00000000E+00  0.00000000E+00
  0.00000000E+00  0.00000000E+00  0.00000000E+00
  0.00000000E+00  0.00000000E+00  0.00000000E+00
  0.00000000E+00  0.00000000E+00  0.00000000E+00
  0.00000000E+00  0.00000000E+00  0.00000000E+00
  0.00000000E+00  0.00000000E+00  0.00000000E+00
  0.00000000E+00  0.00000000E+00  0.00000000E+00
  0.00000000E+00  0.00000000E+00  0.00000000E+00
  0.00000000E+00  0.00000000E+00  0.00000000E+00
  0.00000000E+00  0.00000000E+00  0.00000000E+00
  0.00000000E+00  0.00000000E+00  0.00000000E+00
  0.00000000E+00  0.00000000E+00  0.00000000E+00
  0.00000000E+00  0.00000000E+00  0.00000000E+00
  0.00000000E+00  0.00000000E+00  0.00000000E+00
  0.00000000E+00  0.00000000E+00  0.00000000E+00
  0.00000000E+00  0.00000000E+00  0.00000000E+00
  0.00000000E+00  0.00000000E+00  0.00000000E+00
  0.00000000E+00  0.00000000E+00  0.00000000E+00
  0.00000000E+00  0.00000000E+00  0.00000000E+00
  0.00000000E+00  0.00000000E+00  0.00000000E+00
  0.00000000E+00  0.00000000E+00  0.00000000E+00
  0.00000000E+00  0.00000000E+00  0.00000000E+00
  0.00000000E+00  0.00000000E+00  0.00000000E+00
  0.00000000E+00  0.00000000E+00  0.00000000E+00
  0.00000000E+00  0.00000000E+00  0.00000000E+00
  0.00000000E+00  0.00000000E+00  0.00000000E+00
  0.00000000E+00  0.00000000E+00  0.00000000E+00
  0.00000000E+00  0.00000000E+00  0.00000000E+00
  0.00000000E+00  0.00000000E+00  0.00000000E+00
  0.00000000E+00  0.00000000E+00  0.00000000E+00
  0.00000000E+00  0.00000000E+00  0.00000000E+00
  0.00000000E+00  0.00000000E+00  0.00000000E+00
  0.00000000E+00  0.00000000E+00  0.00000000E+00
  0.00000000E+00  0.00000000E+00  0.00000000E+00
  0.00000000E+00  0.00000000E+00  0.00000000E+00
  0.00000000E+00  0.00000000E+00  0.00000000E+00
  0.00000000E+00  0.00000000E+00  0.00000000E+00
  0.00000000E+00  0.00000000E+00  0.00000000E+00
  0.00000000E+00  0.00000000E+00  0.00000000E+00
  0.00000000E+00  0.00000000E+00  0.00000000E+00
  0.00000000E+00  0.00000000E+00  0.00000000E+00
  0.00000000E+00  0.00000000E+00  0.00000000E+00