Bi3 Sb9 Te18                            
   1.00000000000000     
     2.1813913366971476   -3.7782806263500439    0.0000000000000000
     2.1813913366971476    3.7782806263500439    0.0000000000000001
     0.0000000000000016   -0.0000000000000013   63.2117376423429036
   Bi   Sb   Te
     3     9    18
Direct
  0.0000000000000000  0.0000000000000000  0.1983205738130799
  0.6666666666666643  0.3333333333333357  0.5316539071464157
  0.3333333333333357  0.6666666666666643  0.8649872404797443
  0.6666666666666643  0.3333333333333357  0.0316959442797142
  0.0000000000000000  0.0000000000000000  0.3025366353485178
  0.6666666666666643  0.3333333333333357  0.1339315570953218
  0.3333333333333357  0.6666666666666643  0.3650292776130502
  0.6666666666666643  0.3333333333333357  0.6358699686818466
  0.3333333333333357  0.6666666666666643  0.4672648904286574
  0.0000000000000000  0.0000000000000000  0.6983626109463853
  0.3333333333333357  0.6666666666666643  0.9692033020151823
  0.0000000000000000  0.0000000000000000  0.8005982237619859
  0.3333333333333357  0.6666666666666643  0.2757702930230027
  0.0000000000000000  0.0000000000000000  0.1072687632224620
  0.6666666666666643  0.3333333333333357  0.2263377072851822
  0.3333333333333357  0.6666666666666643  0.0584856187681934
  0.0000000000000000  0.0000000000000000  0.0004702383292844
  0.3333333333333357  0.6666666666666643  0.1651836688352463
  0.0000000000000000  0.0000000000000000  0.6091036263563308
  0.6666666666666643  0.3333333333333357  0.4406020965557976
  0.3333333333333357  0.6666666666666643  0.5596710406185181
  0.0000000000000000  0.0000000000000000  0.3918189521015294
  0.6666666666666643  0.3333333333333357  0.3338035716626128
  0.0000000000000000  0.0000000000000000  0.4985170021685821
  0.6666666666666643  0.3333333333333357  0.9424369596896665
  0.3333333333333357  0.6666666666666643  0.7739354298891264
  0.0000000000000000  0.0000000000000000  0.8930043739518467
  0.6666666666666643  0.3333333333333357  0.7251522854348580
  0.3333333333333357  0.6666666666666643  0.6671369049959489
  0.6666666666666643  0.3333333333333357  0.8318503355019108
 
  0.00000000E+00  0.00000000E+00  0.00000000E+00
  0.00000000E+00  0.00000000E+00  0.00000000E+00
  0.00000000E+00  0.00000000E+00  0.00000000E+00
  0.00000000E+00  0.00000000E+00  0.00000000E+00
  0.00000000E+00  0.00000000E+00  0.00000000E+00
  0.00000000E+00  0.00000000E+00  0.00000000E+00
  0.00000000E+00  0.00000000E+00  0.00000000E+00
  0.00000000E+00  0.00000000E+00  0.00000000E+00
  0.00000000E+00  0.00000000E+00  0.00000000E+00
  0.00000000E+00  0.00000000E+00  0.00000000E+00
  0.00000000E+00  0.00000000E+00  0.00000000E+00
  0.00000000E+00  0.00000000E+00  0.00000000E+00
  0.00000000E+00  0.00000000E+00  0.00000000E+00
  0.00000000E+00  0.00000000E+00  0.00000000E+00
  0.00000000E+00  0.00000000E+00  0.00000000E+00
  0.00000000E+00  0.00000000E+00  0.00000000E+00
  0.00000000E+00  0.00000000E+00  0.00000000E+00
  0.00000000E+00  0.00000000E+00  0.00000000E+00
  0.00000000E+00  0.00000000E+00  0.00000000E+00
  0.00000000E+00  0.00000000E+00  0.00000000E+00
  0.00000000E+00  0.00000000E+00  0.00000000E+00
  0.00000000E+00  0.00000000E+00  0.00000000E+00
  0.00000000E+00  0.00000000E+00  0.00000000E+00
  0.00000000E+00  0.00000000E+00  0.00000000E+00
  0.00000000E+00  0.00000000E+00  0.00000000E+00
  0.00000000E+00  0.00000000E+00  0.00000000E+00
  0.00000000E+00  0.00000000E+00  0.00000000E+00
  0.00000000E+00  0.00000000E+00  0.00000000E+00
  0.00000000E+00  0.00000000E+00  0.00000000E+00
  0.00000000E+00  0.00000000E+00  0.00000000E+00
