Amorphous GeAsSeSi                      
   1.00000000000000     
    20.2624039944662377    0.0000000000000000    0.0000000000000000
     0.0000000000000000   20.2624039944662377    0.0000000000000000
     0.0000000000000000    0.0000000000000000   20.2624039944662377
   Ga   Se
   150   150
Direct
  0.0908456146673751  0.6944592375577161  0.4599615851114586
  0.2339492197220551  0.5452893107743260  0.4351045516368407
  0.7533984216382126  0.9523682479580151  0.2530165901678626
  0.5877063214304251  0.7615942947698123  0.0334993653319336
  0.3364864382276391  0.3444286006061691  0.4008444909909615
  0.3504324723207932  0.9512727676290456  0.0097062173230952
  0.6675440464426826  0.1948755940180689  0.1596592423601362
  0.2213806018752419  0.5772814350734106  0.8270966620607040
  0.0362441785044812  0.4554225723373035  0.7669597945806919
  0.3012574882792525  0.2273880915982335  0.3612869656237485
  0.1956374034071572  0.1496228448507781  0.0852039791515241
  0.1619400250190063  0.4981035992613779  0.9799053205075893
  0.8313010456929276  0.1282432991604570  0.6710762510420837
  0.7701152152118266  0.9849932749503058  0.8745760173816037
  0.6699839365197909  0.2451708706319718  0.4842766603462233
  0.5526732676645332  0.1867957472632446  0.7532747666023055
  0.9615679059179748  0.8664213706088695  0.4508841243414336
  0.3089315098935294  0.3736895640125098  0.0844096112122114
  0.6594707136838032  0.6062281179816739  0.0199864337453333
  0.1191835236320882  0.2576169320183729  0.8905603007982471
  0.5870860720784778  0.8326592344621105  0.8379308900762134
  0.4204286653073799  0.1197773283167022  0.2653332269973951
  0.2943176211651502  0.6513418233292644  0.2503803692406610
  0.4966340023711110  0.1611917079546665  0.4356132638668498
  0.5175885555920442  0.3332175091465777  0.4291624906931774
  0.9733258997412233  0.5035111489749242  0.0712223007479985
  0.6716103088695392  0.4396755422748080  0.4158574390605729
  0.7361353914370328  0.8547985004723940  0.0410806534148318
  0.7428048749165418  0.0628556115863281  0.5218162693208720
  0.6161497622863126  0.6220696026147839  0.1370316996410262
  0.9527500355206087  0.3502271549670667  0.1936703238574412
  0.0541206617208621  0.8925627333469526  0.7966797517384021
  0.9378543039309761  0.7115401959261308  0.1580324467866624
  0.8744572710710318  0.8952900106725643  0.7110506367114523
  0.0841251841047248  0.9153119707631350  0.3327467749741593
  0.5125746103234853  0.9289960459904433  0.3656939179623248
  0.2784826276931374  0.4496227047445820  0.3077154758210149
  0.7736074513449711  0.8612478918902544  0.3939256281383801
  0.6335106946453875  0.5836032515934484  0.3069101717642510
  0.1083569693517839  0.6508680404895559  0.7263120756885483
  0.6553607320313065  0.2510622215947658  0.7393925573039558
  0.8489327525400233  0.2561175318801538  0.0644887490801011
  0.1149869406928705  0.2884653041002302  0.5209383457607990
  0.7425105643773174  0.5620306852543763  0.7555818614109294
  0.5497099503606506  0.1825942688282958  0.5532295462776110
  0.1966167222237210  0.2385267537064706  0.7049678266504171
  0.3598943474154462  0.9547337577356213  0.2241684828230818
  0.6472099991911427  0.8811624738413488  0.5877846082825796
  0.6845314201081478  0.6211874328658801  0.4757568059192167
  0.8064078125473662  0.5213227861548070  0.9124295796558859
  0.4687940598699214  0.4657082571685042  0.9501111607308987
  0.2262526656467385  0.8326577312670407  0.2148610040284743
  0.2746532203012726  0.7887917351818643  0.3997579029841013
  0.8827598088487720  0.8960039991065123  0.9240857387487557
  0.1593030653611489  0.2876821855808508  0.1520114507308187
  0.7965047169506004  0.2432849573860177  0.8295235618379351
  0.1485353231043094  0.8345877030178483  0.5377518337586898
  0.2745014495069480  0.1221996812356304  0.8859115345742050
  0.5057117265971399  0.6875950641589308  0.7517287044805431
  0.0722075235483439  0.5654086117610736  0.5932771044266828
  0.2594811690384949  0.6689619686970465  0.9915735886166387
  0.0624097571964257  0.1118634892544646  0.1999078554087567
  0.6017095397061438  0.9417964267335088  0.9567770342908126
  0.3816127149947565  0.9380106380919639  0.8132232914783684
  0.7042716432056938  0.0036659783493203  0.4269262578909500
  0.4470574737655928  0.5576778105391149  0.3098102606522293
  0.8210878308261479  0.5530901490079909  0.3673578988862430
  0.0649052409036940  0.9904783983188066  0.6016121549374683
  0.3207270250797624  0.2773740063858747  0.2457318527004192
  0.8923233311279660  0.2116231044538247  0.2788344520693693
  0.8958292903421478  0.6666743625358112  0.8376485584709545
  0.3359149554611897  0.3724956432207515  0.6977979425233526
  0.8260850141573360  0.4709379735390953  0.5836920421613825
  0.9234324283126994  0.0828312093577506  0.9619115032157111
  0.2189237817627775  0.3299481351892269  0.8695644188386130
  0.0230814114023098  0.5832376367874669  0.3048368097974613
  0.4679892919583843  0.0953465093182825  0.8843746649325773
  0.3597453422996172  0.8668684922565767  0.4479506902913728
  0.7317787472366748  0.8502017225096360  0.6952512694355232
  0.2119312443505272  0.1202220177419814  0.5636113218258043
  0.5949132327526575  0.4498412224353658  0.1224728918695403
  0.5600532293399559  0.8897037885301017  0.2294063884865764
  0.0221117947818886  0.2050859270621620  0.0549311150718754
  0.1729746858359969  0.8175384850471019  0.6534874543558044
  0.2616837785339828  0.5561880254616012  0.6143476037572871
  0.5462712101045779  0.5653409833025805  0.8078447377117098
  0.0885831670700594  0.6520600584285174  0.0011070661155851
  0.6583117775793369  0.0761328574673861  0.1230502801070190
  0.1833783938685079  0.1764798125753372  0.3888863097906899
  0.6268358972272738  0.6838181475984898  0.6614751388820208
  0.5458666491150349  0.7102673923653418  0.2986913874732476
  0.1263728097005207  0.8648013293573656  0.1627192830338994
  0.6460108908157517  0.1617643995212271  0.9150408520639478
  0.6921037528322884  0.3355178091914576  0.0451297233084525
  0.2833529028986911  0.0662364331244214  0.4666264944963299
  0.9216732901670605  0.5870933798548152  0.6844202688086360
  0.1335707505418123  0.9905796871157747  0.4117909140753980
  0.8620818544761734  0.3758494881039208  0.0338198452701397
  0.3984356433610334  0.4697847317781729  0.5254428443381248
  0.5202623299531386  0.3776074499211431  0.7701761573728294
  0.2345597572134550  0.9326252398904514  0.9507300789521380
  0.6214961466719571  0.0626961838687270  0.3576578038328568
  0.8904597510118809  0.7108390335303252  0.4066528463070637
  0.9686320317952621  0.8090534879998003  0.9462262940223499
  0.6903158659482088  0.4215886733323086  0.8198422912808309
  0.1185635776959415  0.5725488498029446  0.4756150023588552
  0.4861629077479176  0.0822232942501632  0.1028721914353532
  0.3250975313991090  0.7402083981046613  0.8234038782181576
  0.0483387081575164  0.0869209057951858  0.9189878973068093
  0.9276271992968920  0.2884424667999420  0.7102640265442571
  0.8094120155048886  0.9515887744100308  0.0764673768650854
  0.4474168977941928  0.8095810944574777  0.6631981546734358
  0.9190713426934413  0.1373342167138230  0.3931718467895615
  0.4877965940210575  0.9417719300760279  0.5536938259880132
  0.9994192519537088  0.3724386942360887  0.5999284607032597
  0.3918167649104771  0.1467756607147258  0.0641084207193374
  0.8076690355217649  0.7234300769673675  0.7518200483485932
  0.0425591843531215  0.3926309695981187  0.9741606823399043
  0.4216720018235969  0.6436614263116487  0.0883159545445836
  0.9996511861990390  0.1442674890837991  0.6018759981956204
  0.9212361750366920  0.7080993822302615  0.2864742950644401
  0.9836408524845099  0.6258881115260350  0.0850101357843646
  0.1069150078760670  0.6941125956410807  0.2123152434120756
  0.6579935400979084  0.2893037138797588  0.3330084031351331
  0.9518456639291852  0.5384240333106207  0.4714176796237418
  0.0040099034482987  0.2802899290554315  0.3607038885485301
  0.3777199662442353  0.2257340886553580  0.8053275292955521
  0.5630254649185312  0.2021114317719159  0.9962412427803269
  0.4190524137863845  0.8302246406133147  0.9895966872293506
  0.2744017757874863  0.9654933377138174  0.5954247833560833
  0.9461646900683585  0.0860883794803389  0.5037840938324152
  0.4317522302924298  0.5313143191082368  0.7578066389242808
  0.9403242772860025  0.0391702120553573  0.2182707638818587
  0.7484428576703669  0.0287632173093287  0.6921788924540171
  0.4878805216773201  0.3125671856066929  0.0970808511207263
  0.5727737178421358  0.6213194259501970  0.9181309303039215
  0.7897730014618637  0.7248051045200913  0.2577372354722123
  0.6539425587398715  0.3087300782692162  0.2100551312337549
  0.4210030430329795  0.7842325622981567  0.2350652715760436
  0.2620798731649563  0.6648773188322765  0.7484474232078459
  0.4410253366206856  0.6516754422011189  0.4936070027247985
  0.6193631439634542  0.0626172074404862  0.6425429002780304
  0.8522166883791681  0.4364012631947064  0.8327552721530173
  0.5991217078933511  0.8300258626982451  0.3514076630936757
  0.1102875490339518  0.7311848721612920  0.8214446404070458
  0.5778479325162134  0.4470442344765082  0.5868819677937878
  0.2700742197714670  0.4720762107773137  0.8464224246326097
  0.7404470085093194  0.0838841410064613  0.9348478568820550
  0.0771729371944756  0.8626768174838777  0.9821979544069552
  0.8176520361623331  0.6812991283379505  0.0212785020258097
  0.5768322709899185  0.3250853952610376  0.0050753188217636
  0.2400028356535828  0.4183493541508350  0.4187344243372031
  0.2323901739813681  0.5626966980362968  0.3073888004632667
  0.3501320183356789  0.7124013845602488  0.3361094809960587
  0.6834684422175591  0.2742954542549416  0.8633524074582620
  0.1559899903483529  0.9193025465135451  0.0522413250499918
  0.2288458839408736  0.3586862482686020  0.2190919401981316
  0.9714674208432605  0.8789332026693266  0.3384774812005424
  0.7607963202867134  0.0612422429745379  0.0541168878983244
  0.9363612021850048  0.6509182304349805  0.5014591716974646
  0.0209050774274345  0.2728314142373737  0.9608812721404106
  0.6642221201438653  0.7443236584900812  0.7603102198209485
  0.0117336397287740  0.3787553720296814  0.2910062640568621
  0.8398350150590692  0.1429546676778131  0.5489449006767744
  0.0086628876729703  0.1744050019420617  0.3074826604544718
  0.1178327300821863  0.2868942705592697  0.4016531642073293
  0.9632371835923241  0.5086007457870755  0.5940857946300094
  0.8853349746922364  0.9677122743067721  0.8219836542036525
  0.8486230603801502  0.2843339417000427  0.1910629133469515
  0.2138412627614314  0.7416527700202783  0.4887449632763120
  0.0735205782459279  0.5843313083826229  0.1889927740738337
  0.5766728214660846  0.3037412191116939  0.5336056301773950
  0.5311135641077074  0.7071556284409796  0.1226923078647711
  0.3859423933423743  0.4513794499079722  0.8534994636501019
  0.0887640145123115  0.9615686206433840  0.8916759900405868
  0.7695384551855292  0.6551313852701997  0.3969570785791837
  0.8080720135901360  0.6231777071718521  0.6694944142124553
  0.8703145183751961  0.4660494221500492  0.4320943424250347
  0.4695758160247394  0.5876384676214051  0.9802664861322078
  0.9227622465513572  0.6907702602728865  0.9604514877823636
  0.6975212281304274  0.9566445982903852  0.7713480126948051
  0.3023562485399787  0.4261853318857836  0.5907684778684877
  0.0482060389496264  0.5108584486451822  0.3989248741667589
  0.8866238836610881  0.2623091265350287  0.3971477856190899
  0.3495744030193660  0.7931577768954915  0.5906696758329925
  0.7772464999030116  0.4524267510847266  0.7262128704926099
  0.6247301269481219  0.3743075111276478  0.7175860842275814
  0.1128765999173258  0.5750859959918265  0.8950785806960219
  0.6467084803963172  0.0057242823422716  0.2344985144337620
  0.6669852305864648  0.8805954707067937  0.4530145582032123
  0.5809141205782368  0.0124171456977116  0.5332516565707732
  0.4477338271406832  0.4267663458670715  0.6875844740207524
  0.0187300667979249  0.6690924001404662  0.6492870374477712
  0.5015074640987034  0.0579883440971745  0.3584834362355523
  0.9147131197358609  0.1499752325139090  0.0681793776261300
  0.3411776786203773  0.2542789252731671  0.6936466269391407
  0.1115685844263944  0.1014732239705041  0.6401806430633308
  0.1910256477352597  0.1781339316950133  0.2096878467494664
  0.5052127006946899  0.1335761378635780  0.6552847724177806
  0.5722838910081082  0.0959425527572827  0.8276887975886537
  0.3252243181719329  0.6320116312909227  0.8964397602884363
  0.2584877660429700  0.9939845229678630  0.3702631481925440
  0.0348654805901492  0.7945322351568518  0.5205886892083956
  0.2181234678629540  0.7099951019696328  0.1803459923017683
  0.6934664339983522  0.5010299017843869  0.5114582866641110
  0.7590534509792995  0.8664482456265230  0.9184213805175012
  0.4528202346167080  0.9840900782033892  0.9333627854226183
  0.0520356145802999  0.7755401074643699  0.1422144922791135
  0.1684950567163786  0.8399197108288771  0.7771553451788275
  0.5793225978379181  0.6277269578864093  0.4028513609543014
  0.0930208283808462  0.9709262356580023  0.2257428742415414
  0.1479784080213467  0.7457314014806173  0.9430123817966274
  0.1847663978649509  0.8180287028903435  0.3310989541454623
  0.7604069204305242  0.4002396513509177  0.9671507612585322
  0.4132403916636452  0.3527720824179730  0.4873262005006436
  0.4693161367238178  0.9847790100388839  0.1734898673632898
  0.0396490841233695  0.3401863555942977  0.7131926852375740
  0.0523926723143764  0.7028927492384507  0.3279640000015071
  0.7177533565754932  0.3859178294751076  0.1551340527078408
  0.5834562907101775  0.0438737577608993  0.0400667750177416
  0.9376663143976917  0.4514404654723653  0.9687609773265459
  0.3792119598614625  0.5848387220614167  0.1875437378070068
  0.2083494110012234  0.2601428619885557  0.0431370564391305
  0.2970725199887410  0.0766703404082585  0.0623919444628566
  0.2264937913422536  0.3898348384244853  0.7578979113651378
  0.7210386582313413  0.4959913685814216  0.3163971461563724
  0.8378114633200541  0.7564786835848706  0.1128333607548819
  0.3845587377864801  0.1072035471611242  0.7956565860381082
  0.8425128999911028  0.1381564757873852  0.8818103303414070
  0.0976610829676360  0.4064732227275827  0.5410341954367432
  0.3786984911916968  0.2619583675308075  0.1202542922471257
  0.8506129899951841  0.9396334881224755  0.1924425410426271
  0.5429616199261581  0.3512139690403456  0.2010497257177151
  0.4356162487054283  0.7948843197389381  0.7805657398417868
  0.5623488376309401  0.4239592508886180  0.3742404842128997
  0.5108585311823159  0.7168638734530949  0.6232314035397797
  0.1120545186285508  0.1469941306984707  0.8405381157517285
  0.3241695538846165  0.8623029662714659  0.1542018953541514
  0.7896710206114743  0.5639352009372517  0.0293097897789658
  0.5343900028713128  0.7442133454102573  0.9270547982759776
  0.8990274501485093  0.3234304234525426  0.8339480865190316
  0.7763854820508824  0.9643175759461318  0.5883969671440302
  0.8476065527128478  0.8094061684330471  0.4742463768823123
  0.0827921289305573  0.0966562662472076  0.0448797049252018
  0.1012235919485346  0.1019713019559602  0.4457269902164704
  0.4807560524811663  0.8573652037120533  0.4735856849614712
  0.0883148142160760  0.4105260322224417  0.8626160178872689
  0.4756975039568587  0.9250749264003316  0.6669282075714247
  0.0072945466749848  0.2528330880915992  0.5562416594806870
  0.2863762025384063  0.8672218243420060  0.6670597676937259
  0.3635701639233939  0.9786230442122412  0.5133226450592360
  0.3143099335280347  0.8385931368406795  0.8980763182602812
  0.5463964589336386  0.1949634794372870  0.1268582667907595
  0.4482669921003081  0.1913734242911489  0.9546080702049327
  0.0984270580964142  0.4407872874803537  0.0667459069889551
  0.2911505301006711  0.0474037465841176  0.2563259179978420
  0.5553945951327920  0.5435864826547790  0.2230585995759100
  0.4347869081382132  0.4186532207348759  0.0585270475077792
  0.3100200747693000  0.2580972688267311  0.9000085698565847
  0.9886030956090333  0.7908741858851390  0.8237499345094770
  0.2205794640355277  0.2441425814448062  0.5625408417927972
  0.4896129754153309  0.5405488509384294  0.5479425888160276
  0.8977418644454939  0.5800865748777749  0.2728896104244147
  0.9442510173131679  0.5337949971284991  0.7903405034570378
  0.5021193502196012  0.2453061140167780  0.3539114478068981
  0.3538723208874429  0.5644966514919537  0.4618234062147134
  0.3528181187179686  0.7286392746883894  0.0511852433043936
  0.6178028223564753  0.8656180864785786  0.0812274856246371
  0.2388247124706337  0.4119863996895062  0.9549619003845325
  0.7309545874989555  0.3317599912561764  0.4264441277457802
  0.1675199064206821  0.9515260967606122  0.5265465129180942
  0.7339954834918215  0.2216049775948022  0.0420671051039793
  0.3973819574449673  0.8930458075434254  0.3219233280966027
  0.0381433745656993  0.2659962311919626  0.1553823273259305
  0.6759525033528849  0.1655707581389119  0.5707041672351905
  0.6298754175884385  0.5697674792998444  0.7136664415761560
  0.6787958536173376  0.1726352757908254  0.3798169088893844
  0.3798859382025014  0.3921995140715314  0.2932146187372487
  0.4906570239373913  0.2711063096127379  0.8212570992225179
  0.1932456896122686  0.6957068511851697  0.6475052799554363
  0.9677493128680473  0.9645665377695686  0.5287293876264226
  0.8758402174678112  0.3451873238244174  0.6147563622372069
  0.7075633026262311  0.7372307346611634  0.9982484637517823
  0.5588534735027723  0.4464282393329247  0.8668743363558850
  0.7146316800480967  0.8328315979563454  0.2848865937399173
  0.0078425622270135  0.9367858074444132  0.6910470137644320
  0.8071641613684560  0.9703980320913714  0.3638103444093743
  0.8404908105712231  0.1060708092315237  0.3030656672823590
  0.2812472529643082  0.0636048207828334  0.6570010951305626
  0.6864765094765976  0.6985127354290436  0.5633233070670467
  0.3515055175033183  0.6053222618587054  0.6994720575640693
  0.6708382922372732  0.6741132594111917  0.2287204993867397
  0.9093048657075761  0.9722866669348507  0.0136942203627434
  0.7709770508183319  0.2375419427642648  0.7096230381619320
  0.1856592060063409  0.5977919505170612  0.0585886978662020
  0.7572237942837483  0.6207298336921049  0.8623874231862478
  0.3678186852727222  0.1352308956604730  0.4093662113797971
  0.1312786333385744  0.5323101948537020  0.7057908840320565
  0.9392041586985447  0.1634191370373832  0.7164829030499946
  0.8914652217048472  0.4415210728536545  0.1349444596660972
 
 -0.79249518E-03  0.38849790E-03 -0.94567136E-03
  0.31593716E-02  0.12024403E-02 -0.21276673E-05
 -0.56822864E-03  0.43800951E-02  0.43339218E-02
  0.39488370E-03 -0.75883176E-04 -0.10528013E-02
 -0.97267584E-03  0.25599984E-02 -0.29868958E-02
 -0.51635678E-03  0.14729745E-02 -0.95019186E-03
  0.15986854E-02 -0.55256122E-03  0.26365828E-02
  0.96426309E-03 -0.12175762E-02  0.45614249E-03
  0.89138152E-03  0.52368763E-03  0.43798852E-03
  0.13873227E-02 -0.23313613E-02  0.21332215E-02
 -0.21128760E-02 -0.19155292E-02 -0.37352172E-02
  0.17530861E-02 -0.24836873E-02 -0.92402158E-03
 -0.52535863E-04 -0.32073479E-03  0.28939556E-02
 -0.13316873E-02  0.22413494E-02  0.20648496E-02
  0.20652801E-02 -0.29902731E-02 -0.76952862E-03
  0.12723477E-02  0.83384354E-03 -0.22350134E-02
 -0.54632561E-03  0.22106154E-02  0.11742875E-02
  0.54014495E-03 -0.24121206E-02 -0.40265036E-03
  0.28045457E-02  0.25210355E-02  0.20257645E-02
  0.23268378E-02 -0.26187264E-02 -0.19158968E-02
 -0.10177370E-02 -0.72345626E-04  0.52326573E-04
  0.18703421E-02 -0.57004222E-03 -0.30148621E-03
 -0.50195772E-03  0.16683902E-02  0.20850335E-02
 -0.78610360E-03 -0.73032534E-03 -0.11597534E-02
 -0.89799494E-03  0.37149731E-02  0.14884891E-02
  0.52523238E-03 -0.15544777E-02 -0.13354629E-02
 -0.50372685E-03 -0.54466518E-03 -0.12258683E-02
  0.70077241E-03  0.25678954E-02  0.12222820E-04
  0.26983286E-02 -0.18160050E-02  0.21646025E-02
 -0.71973587E-03 -0.41012761E-02  0.11908295E-02
  0.33138088E-02 -0.10101913E-02 -0.16665300E-02
 -0.33079532E-03  0.14804076E-02 -0.77223244E-03
  0.20595781E-02  0.42413520E-02  0.11468027E-02
  0.34309995E-02  0.17862459E-02  0.16018300E-02
 -0.11544050E-02 -0.20162089E-02  0.28189907E-04
  0.49211961E-02 -0.16086970E-02  0.27189945E-02
 -0.31920473E-02  0.12281287E-02  0.43527588E-03
 -0.19507116E-03 -0.38806414E-03 -0.10437731E-04
 -0.13755660E-02  0.19517579E-02  0.26160888E-02
 -0.15352889E-02  0.27218757E-02  0.14738509E-02
  0.33470172E-03 -0.47657784E-03  0.82522964E-03
  0.25178153E-02  0.23668269E-02 -0.95591698E-03
 -0.20754777E-02 -0.16686666E-02  0.38240516E-02
 -0.23783920E-02  0.50048558E-04 -0.15912080E-02
  0.23758541E-02  0.82406468E-03  0.19968863E-02
 -0.63824242E-03  0.32589619E-02 -0.12547341E-02
  0.12438971E-02  0.30503327E-02 -0.37117197E-03
  0.31832615E-02  0.26611101E-02  0.29945830E-02
 -0.56317860E-03 -0.17523339E-03  0.52086311E-03
 -0.11793392E-02  0.10487100E-02 -0.19951777E-02
 -0.18935228E-03 -0.19269754E-02  0.14473815E-03
 -0.14509716E-02 -0.18423196E-02 -0.25055523E-03
 -0.14231973E-02  0.19253121E-02 -0.12411773E-02
 -0.20735150E-02 -0.96842062E-03  0.89737418E-03
  0.16236869E-02  0.19870366E-02 -0.25162715E-02
  0.42507353E-03 -0.29890188E-02  0.23452803E-02
  0.25464747E-03  0.11460977E-02  0.82003686E-03
  0.70155063E-03 -0.22544706E-02  0.21242196E-02
  0.31072632E-02  0.29249106E-02 -0.27157367E-02
 -0.28339292E-02 -0.28326497E-02 -0.11887476E-02
  0.85354145E-03  0.15259974E-02  0.11427318E-02
 -0.22679872E-02 -0.25583236E-02  0.85241729E-04
  0.15477573E-02 -0.13629676E-03 -0.28586481E-03
  0.30049635E-02 -0.15747548E-02  0.68150697E-03
 -0.28815244E-03 -0.19358065E-02  0.14597058E-02
 -0.89625954E-03 -0.16655265E-02 -0.31462263E-03
  0.40832483E-03  0.15052547E-02 -0.19642357E-03
 -0.21968407E-02  0.86114810E-03  0.11310560E-02
 -0.10982562E-02  0.11843333E-02 -0.24639370E-02
 -0.33818700E-02  0.19249652E-03  0.97003582E-03
  0.15093714E-02 -0.65487027E-03  0.13142889E-02
 -0.11107545E-02 -0.91161035E-03  0.15374756E-03
  0.98872069E-04 -0.57247342E-04  0.60346463E-03
  0.19075828E-02  0.92020704E-03 -0.78068141E-03
 -0.51711252E-02 -0.67798494E-03  0.16327658E-02
  0.55523639E-03  0.18212256E-02 -0.17487536E-02
  0.78814414E-03 -0.16648220E-05  0.13397315E-02
  0.52872423E-03  0.47177374E-03 -0.29135885E-02
  0.90769442E-03 -0.73556873E-03  0.31423875E-02
  0.35579692E-02  0.74221521E-03 -0.44941827E-03
 -0.11222238E-02 -0.11035561E-02 -0.33553953E-02
 -0.16405505E-02 -0.34166913E-02  0.55407224E-03
 -0.29446697E-02  0.13182355E-02  0.62690135E-03
  0.29489757E-02  0.46006291E-03 -0.21105357E-02
 -0.34777620E-03 -0.23360597E-02  0.24952656E-02
 -0.23129031E-03  0.19484556E-02 -0.23962341E-02
  0.17679861E-03  0.18193147E-03  0.22646139E-03
 -0.29533272E-03 -0.68822120E-05 -0.20837655E-03
 -0.60951974E-02 -0.70792861E-04 -0.14779699E-02
 -0.14925177E-03 -0.24798293E-02 -0.19174521E-02
 -0.17421492E-02  0.37110226E-03  0.37606761E-02
  0.22481964E-02 -0.60940221E-03 -0.24446883E-02
  0.19215295E-02 -0.22961146E-03 -0.47720771E-04
  0.38413945E-02 -0.10277035E-02  0.17414367E-03
  0.45344020E-03  0.63679707E-03  0.12248879E-02
  0.31853352E-03  0.14109763E-02  0.43469484E-02
 -0.38766124E-03  0.15441484E-02  0.10774482E-02
  0.29139007E-02 -0.14450608E-02 -0.55209036E-03
  0.13105624E-02  0.21507001E-03  0.89235486E-03
 -0.17267591E-02 -0.91877834E-03 -0.71976658E-03
  0.38300422E-03 -0.24902105E-02 -0.59370394E-03
 -0.21161661E-02  0.36020433E-03  0.13851246E-02
 -0.11487692E-02 -0.14366639E-02  0.71187035E-03
  0.23745868E-02 -0.59111626E-03  0.24958303E-02
 -0.19816217E-02  0.26173820E-02  0.77012227E-03
  0.13560947E-04 -0.23028440E-03  0.26064533E-02
 -0.34010928E-03  0.24093018E-02  0.27806164E-02
  0.14797073E-02  0.66933510E-02 -0.19258859E-02
  0.64958500E-03  0.15061799E-03  0.10449562E-02
 -0.30077093E-03  0.53745419E-03 -0.96468130E-03
  0.37190357E-02 -0.13504166E-02 -0.25104081E-02
  0.93467303E-04 -0.26162309E-02 -0.42807884E-02
 -0.29051845E-02 -0.13561627E-02 -0.90842364E-03
 -0.28549733E-02  0.22945333E-02  0.29807341E-02
 -0.80104229E-03  0.39269166E-02 -0.33932529E-02
 -0.72105057E-03 -0.22484245E-02 -0.47058407E-03
  0.19488079E-02 -0.46506779E-04 -0.20267620E-02
  0.99678042E-03  0.23555495E-02  0.13670882E-02
  0.28940289E-02  0.84831215E-03 -0.17692105E-02
  0.32050544E-03  0.11086892E-02 -0.29530276E-02
  0.99765972E-03 -0.40359080E-02 -0.88499091E-03
  0.14327602E-02 -0.21571123E-02 -0.24488711E-02
 -0.56264397E-02  0.15620801E-02 -0.91649715E-04
  0.77609923E-03  0.15246426E-02  0.92320273E-04
 -0.41884977E-02  0.49910962E-03 -0.68714571E-03
 -0.19560253E-02 -0.33669224E-03 -0.21425003E-03
 -0.25907463E-03  0.28071407E-02  0.89004590E-03
  0.29836859E-02 -0.29554440E-02 -0.14681325E-02
 -0.63322495E-03 -0.41914670E-03  0.49555498E-02
 -0.36692805E-03 -0.97983432E-03 -0.20869882E-02
  0.21437957E-02  0.40136506E-02 -0.42126934E-03
  0.27246164E-02 -0.49889578E-03 -0.29763323E-02
 -0.98908967E-03 -0.17734221E-02  0.17497767E-02
 -0.41337040E-02 -0.45584473E-02 -0.31375571E-02
  0.96300668E-03 -0.26794305E-02  0.26003975E-02
 -0.62931315E-04  0.69428211E-03  0.15977703E-02
 -0.16802713E-02  0.30877211E-03  0.19117178E-02
  0.55458735E-03 -0.24062008E-02 -0.97258236E-03
 -0.16401515E-02 -0.19710636E-02  0.18051924E-03
  0.28833610E-02  0.17665616E-02 -0.17971623E-02
 -0.17966096E-03  0.29543567E-03 -0.18916955E-02
 -0.16681053E-03 -0.96318020E-04 -0.54132765E-03
 -0.34228656E-03 -0.15437777E-02 -0.24303752E-02
  0.23679602E-03  0.10696090E-02 -0.14090366E-02
  0.11573140E-02 -0.31493652E-02  0.12279803E-02
 -0.14539738E-02  0.21824812E-02  0.20944495E-02
 -0.11054246E-02  0.42976737E-03 -0.19596587E-03
 -0.24182816E-02 -0.23429297E-02  0.80800792E-03
  0.15756761E-02 -0.39517454E-02 -0.26463396E-02
 -0.20804471E-02 -0.27067215E-02 -0.17902258E-03
 -0.18667287E-03 -0.30183040E-02  0.18740191E-02
  0.19314745E-03 -0.54222342E-03  0.12758306E-03
  0.24109617E-02  0.19307422E-02  0.32300335E-02
 -0.21988007E-03 -0.11159506E-02  0.14772530E-02
  0.81755415E-03 -0.28860939E-03  0.10532902E-02
 -0.38021799E-03  0.28521687E-02 -0.58126239E-03
 -0.16432400E-02  0.16040605E-02  0.31489423E-03
  0.44262603E-03  0.58528981E-03  0.12517686E-02
  0.54559879E-03 -0.23621050E-02  0.75423032E-03
 -0.74909824E-03 -0.24523630E-02 -0.40378694E-02
 -0.29435362E-02 -0.18244902E-04  0.42804415E-03
  0.49347809E-03 -0.21598588E-02  0.39464733E-03
  0.16514207E-02  0.13475976E-02 -0.73277195E-04
  0.51115020E-03  0.18932826E-02 -0.19031614E-02
  0.57776009E-03  0.76986834E-03 -0.14662563E-02
 -0.26965341E-02 -0.16832258E-03  0.29240371E-02
 -0.82116112E-03 -0.15788327E-02  0.36872543E-03
  0.24002794E-02  0.33827216E-02  0.29516348E-02
 -0.25207869E-02 -0.13762208E-02 -0.80835346E-04
  0.15005213E-02  0.19686849E-03  0.14477376E-02
 -0.17401366E-02  0.15342370E-02 -0.70495378E-03
 -0.71074873E-03  0.19286846E-02  0.11502085E-03
  0.17927720E-02  0.13120119E-02 -0.66224605E-03
 -0.13429703E-02 -0.12912339E-02  0.36531953E-03
 -0.14074656E-02 -0.44137172E-03 -0.28993383E-04
 -0.15040418E-02 -0.23782603E-02 -0.35014066E-03
 -0.26703738E-02  0.12636450E-02  0.19499056E-02
 -0.27952131E-03 -0.21377473E-03  0.97958911E-03
 -0.67405362E-03 -0.10245421E-05 -0.41449684E-03
 -0.81244113E-03  0.25799793E-03  0.15399624E-02
 -0.85595389E-03 -0.22370723E-02  0.27479484E-02
 -0.57290503E-03 -0.12521001E-02 -0.12925404E-02
  0.44423764E-03  0.39133887E-03 -0.29341130E-02
  0.92762026E-04  0.16690611E-02  0.12029408E-03
 -0.25712214E-02 -0.15126833E-02  0.91508662E-03
 -0.88430018E-04 -0.14194075E-02  0.85932186E-03
  0.33577764E-02  0.22853293E-02  0.32338645E-02
  0.85528437E-04  0.21074652E-02 -0.11729494E-02
  0.70204247E-03 -0.88092641E-03 -0.17943575E-03
  0.24880648E-02  0.67339959E-03  0.42491081E-03
  0.13850939E-03 -0.16805109E-02 -0.54559730E-02
  0.57376758E-03 -0.61624889E-03  0.19693250E-02
 -0.32992393E-03  0.32798707E-03 -0.12172731E-02
  0.73567203E-03 -0.26051393E-02 -0.36827827E-03
  0.10031751E-02  0.36712369E-02 -0.21816676E-02
  0.51382105E-03  0.13860760E-02 -0.17056631E-02
 -0.17526262E-02  0.20601532E-02 -0.16979907E-02
 -0.15302973E-02  0.15838968E-02 -0.53939357E-04
 -0.22473528E-02  0.15304992E-03  0.24658712E-02
  0.13150135E-02  0.31216404E-03 -0.35960608E-02
 -0.12320023E-02  0.81674505E-03 -0.11857992E-02
  0.11045826E-02 -0.63135823E-04 -0.17165420E-02
  0.11587103E-02  0.27441457E-02 -0.90107169E-03
  0.37844248E-02  0.15002791E-03 -0.86551704E-04
 -0.15189646E-02 -0.12809792E-02  0.64411799E-03
  0.18805709E-02  0.93056680E-03  0.17442961E-02
  0.13271829E-02  0.32432517E-02 -0.96997405E-03
  0.82943643E-03  0.10525975E-02 -0.97506105E-03
  0.18871993E-02  0.17969282E-03 -0.28583685E-02
 -0.20103101E-02  0.20056514E-03 -0.18423391E-03
 -0.20112778E-02 -0.20484963E-02 -0.72552837E-03
 -0.30322196E-02 -0.22138181E-02  0.21162870E-02
  0.25980286E-02  0.15066218E-03 -0.16949581E-02
  0.24155737E-02  0.28818420E-02 -0.33036967E-04
 -0.91051200E-03 -0.15033887E-02 -0.65017646E-03
 -0.35219051E-02  0.23624287E-02 -0.16802971E-02
  0.60674470E-03 -0.19549909E-02  0.25874619E-03
  0.66873160E-03 -0.40071487E-02 -0.39071130E-03
  0.23654420E-02  0.69597874E-03  0.21164379E-02
  0.22100965E-02 -0.22963493E-02  0.38824978E-03
 -0.19039249E-02  0.20534608E-02  0.48703936E-03
  0.85620545E-03  0.93695368E-03  0.22466690E-02
  0.19995278E-02  0.21416617E-02  0.46410192E-03
 -0.21388110E-03 -0.10462978E-02  0.82607497E-03
 -0.67655277E-03  0.35837571E-02 -0.12430260E-02
 -0.19745816E-02  0.48084847E-03  0.25887837E-02
  0.39298104E-03  0.18741106E-02 -0.35663051E-02
  0.13334447E-02  0.34474129E-02 -0.94734016E-03
 -0.19599160E-02  0.11363022E-02  0.17554794E-02
  0.19705552E-02  0.81240861E-03  0.23462522E-03
 -0.82182595E-03 -0.19428787E-02  0.43813205E-04
 -0.19987811E-02  0.88469786E-03  0.21317849E-02