Ga Ge Sb Te                             
   1.00000000000000     
    17.6560922058434443    0.0000000000000000    0.0000000000000000
     0.0000000000000000   17.6560922058434443    0.0000000000000000
     0.0000000000000000    0.0000000000000000   17.6560922058434443
   Ga   Ge   Sb   Te
     8    32    32    80
Direct
  0.4994433349849770  0.3157596642582879  0.8022556153345322
  0.8323273749027773  0.3171611202237449  0.1325946238889938
  0.2939028114850514  0.9284214873273279  0.0756161107378358
  0.0343273679650192  0.1835455761130997  0.8505099305355689
  0.3297340301896146  0.3813740605894955  0.1435603351242144
  0.1601755569626452  0.7802608615945775  0.6690703769278989
  0.6869317839444704  0.4412207220435207  0.8187211084452491
  0.7078305907412524  0.0257788865633710  0.0018159162894085
  0.0768633607839836  0.8400871078692015  0.4860282280905243
  0.7022556321768336  0.0235190065449846  0.2420745973978447
  0.4248389819345182  0.1626612445943181  0.7410748648547135
  0.6767582964889632  0.4722271788690213  0.2669215621266816
  0.4225573042688870  0.2620752508262587  0.6144253297823751
  0.1359274070549720  0.2656727035883082  0.4464983184633426
  0.5997370664031483  0.0769511434944639  0.9086335782134486
  0.1177912540311670  0.3134413383127287  0.7190664439390275
  0.1542195145084636  0.9375894758728834  0.1173002226478180
  0.5387427311540890  0.6920938095678982  0.0325448272177047
  0.0803851052104876  0.3730911317329037  0.1200309374945137
  0.9941772789167267  0.7212244309283679  0.1932936291758628
  0.9299771866248903  0.8097613499764112  0.4138827277259866
  0.4672700699058985  0.1448195093294659  0.1298083522361743
  0.5436825805505686  0.5895583725572471  0.9167012170292331
  0.6180300944697495  0.6204046080783767  0.2869391409665824
  0.3497542475539942  0.0494523315500607  0.3278894897434009
  0.4412069475752844  0.0533793567885228  0.4471145739799391
  0.0208533182130408  0.5939625696897503  0.8927762168832580
  0.6171953386004099  0.4666689803570277  0.6964085389874606
  0.3245261347827547  0.4236067603433862  0.8018967338982873
  0.9618954614824615  0.3680784602484811  0.9412654933069455
  0.8713038849493402  0.2801724915114320  0.7413653927008617
  0.5883654014024510  0.9374929772802547  0.2834481152236485
  0.3467437204560755  0.2558713696718564  0.4921207649529599
  0.8316871330937299  0.9152507049377940  0.7704282380651181
  0.9048906374219174  0.1741032399630163  0.6532631055865918
  0.2176156763742008  0.3950198324340493  0.3321303970970603
  0.2620200108692542  0.1466907066068620  0.1968457640544393
  0.3947316776316085  0.9750718788324546  0.8879813393863264
  0.1026485875441820  0.0127923808528896  0.4581571299810064
  0.8200396250816618  0.5159003703610565  0.1933238165959000
  0.4763144579187207  0.6506252669927953  0.5115160913550798
  0.0002523937180772  0.6441482625592417  0.4475906528013056
  0.3744161800295658  0.7735773091096017  0.4774047588643268
  0.1210053385470683  0.9384165737594191  0.6073806936806587
  0.7899098078961295  0.8622526937750056  0.3575566001663975
  0.3308638685542817  0.0510412402553974  0.6867659419521885
  0.3046802761478931  0.6989931528461948  0.0933602904075657
  0.1518210860559119  0.7428290660066775  0.0422638143386229
  0.5933499546726989  0.4989381908175149  0.1218577319885674
  0.8001041825488382  0.0947959768406888  0.4595759371728896
  0.9607705904307466  0.9677305004051574  0.4527437334490057
  0.0255053170953034  0.0718439762919484  0.0613764729072254
  0.6734976571717565  0.4081077081337466  0.4969243671552591
  0.4370501212037677  0.9382902007048946  0.7448446830979358
  0.8438859519448537  0.9517273926452419  0.2314957599774655
  0.3742868611011569  0.4437296237639635  0.0090619351387627
  0.8496846570159802  0.5087739825053891  0.6824774191080746
  0.9312109046337640  0.3968468229980390  0.2080588058110908
  0.4977816850635023  0.0225653448474797  0.0064997850905268
  0.8470248221549171  0.5450123724119260  0.0393777808896870
  0.6660380706105137  0.1157022689547201  0.3642296354416170
  0.8843156602564235  0.7005193791806462  0.0854085438202930
  0.8351124932691519  0.3130167416420674  0.3177615229255685
  0.0588343920008573  0.9256511109123523  0.9968390998032201
  0.6598594079065360  0.8049809039783620  0.9613742572767807
  0.4117444661925629  0.6917625538297441  0.6998114464266587
  0.4137913352855687  0.7511388895341821  0.3098666745856207
  0.9626284466096858  0.7742739367364962  0.6480172808827945
  0.7803099102205286  0.8440539578964077  0.0742357988507744
  0.2783997422665421  0.4036237836202055  0.5945737624429724
  0.9275350400748618  0.2795193941080840  0.5385203858638644
  0.1046830500117583  0.6239063812339954  0.1486643328613962
  0.5439945539059557  0.7584660356915139  0.7572016019340163
  0.7994887358030126  0.4538041808919369  0.3925578787180374
  0.8921274557025229  0.6337470683135850  0.2837773085850849
  0.1240421173064586  0.3644605315429254  0.5726520694273347
  0.0809087369025130  0.5682689457381392  0.3317266849601605
  0.0201729473389395  0.1684381580591367  0.4596134585996791
  0.6155646261658720  0.2282138041258429  0.9404804773727790
  0.1196534118641277  0.0873566186632213  0.9349673905566228
  0.7251761082867205  0.0582303874902461  0.5916419616808953
  0.3317791907263805  0.2890532198218040  0.9586925050389381
  0.8970391587236469  0.2278034519410102  0.8811507271534698
  0.1393718654573142  0.2709933176760097  0.9101712166229651
  0.8093623535292569  0.3758822384707120  0.9951382764809298
  0.4420132337881493  0.5916700173604456  0.1152033401369120
  0.5679317846317643  0.7863155755613572  0.2690540669429862
  0.2393880867933248  0.1530336313686013  0.4733102869939502
  0.0003693946978251  0.2598533072567492  0.0581400625650182
  0.7707619690988743  0.2573288883622106  0.4941415450910849
  0.9756403787920940  0.6063406756422419  0.6712731590225591
  0.4467001783402611  0.3040346069920618  0.1908576439594314
  0.3869260915584011  0.7333384053102459  0.9437527447867592
  0.6897792181138065  0.1304504589617820  0.1230387376712268
  0.6320725291869297  0.6363925411882361  0.8000896243030052
  0.2683851936167331  0.4927411803169761  0.2234226451967624
  0.6093562532376963  0.9275204159659763  0.0700403794649109
  0.3499164933403819  0.3599918648818092  0.3865816833688693
  0.7227882043916584  0.2886624396055531  0.7851879271703118
  0.8377014604185978  0.7668817875241905  0.7553837949914420
  0.0684505134256017  0.4194085090908545  0.3697168839058735
  0.4587008614415627  0.4744636670582797  0.7036130884294974
  0.1330443046993860  0.2939053487623678  0.2509487981157097
  0.8426585177904460  0.9686600419014771  0.9926944105876391
  0.3178245292629982  0.6309382420886722  0.5237856998405971
  0.6889939988609698  0.6220022056000414  0.0660091921855678
  0.7054209849647604  0.6363844079253415  0.4191442485501831
  0.2226038039510825  0.2757728224558701  0.1084350663182508
  0.5652211457018130  0.4097407005063276  0.3814688748850191
  0.8072096646555930  0.5312879193405101  0.8361064259426343
  0.7685493433096547  0.7327946796168204  0.2629410714572947
  0.9649555388862738  0.9400123689001878  0.6331258952993174
  0.9602900064581611  0.4034371902757135  0.7271040228481580
  0.4738109977755987  0.6030210625591352  0.3501941368435620
  0.2599490904733158  0.5267978664506432  0.7044400248703202
  0.9534979740972621  0.5187813830854133  0.5344929329405815
  0.0311245087484056  0.8618938598890741  0.1645099816811183
  0.1276284516298827  0.0722289835432657  0.1934460350215226
  0.9678357712072038  0.7256055759711916  0.9552808157824462
  0.6203639546382370  0.3111568618554623  0.6654614691713900
  0.1705287630782028  0.4292175965075701  0.8611961449967063
  0.3073068338298431  0.9086802729158837  0.3099653596509111
  0.5849045111270977  0.4417270806468656  0.9383593094325721
  0.5580214635709383  0.0702089526444323  0.7698990379124894
  0.6692332920731318  0.5616402231792482  0.5768528855985446
  0.3917310565270287  0.6040333385184415  0.8480697683600620
  0.0146600898010038  0.5102208249601126  0.0200811495762892
  0.6886937207757907  0.8857711020808736  0.8353696242156047
  0.4013467695965913  0.8339219420618299  0.1218529381241957
  0.1480078887932552  0.9082759979619274  0.3591973844527546
  0.1336562674112169  0.6829947472175519  0.5328680276371888
  0.4685392343026890  0.0022924572341506  0.2279637675871163
  0.4820947788648373  0.1948603619292295  0.4727275800967873
  0.9391259206772441  0.0465275384759546  0.3085497500742823
  0.8559637554414342  0.1742127833589433  0.1067611279463762
  0.3158985975990042  0.8086248032874321  0.7325589688893792
  0.2759496343583195  0.2935938672573964  0.7211791131532945
  0.4733192769188530  0.4034193479844538  0.5591111274006987
  0.7003242582345021  0.3204564823121570  0.2222560109499328
  0.8580967337534193  0.7448498051757182  0.5316062061169824
  0.3304684980751906  0.0847181641523765  0.0804021819099496
  0.3911784879162299  0.9662504879865258  0.5590122610113593
  0.0554049186195135  0.1703318616962753  0.7049080563504154
  0.0967336540416182  0.7586879361789308  0.8006443846630336
  0.1713757754244553  0.6534985502485785  0.8932169349782576
  0.2193672614461295  0.4928847643978526  0.0002378125087790
  0.3417689577968747  0.1130890226549540  0.8584406186652581
  0.2583865449772482  0.9202573091990346  0.9307228132974246
  0.7587886505098534  0.8990021566637331  0.6313629793125531
  0.5900006507580347  0.9913744837603609  0.4363060620049072
  0.2159156156900381  0.7125594426190103  0.2436211712301800
  0.4810945541608276  0.2735051808959975  0.0301155177857020
 
  0.36431303E-03  0.15482242E-02  0.35501505E-02
  0.15165498E-03 -0.25233678E-03 -0.34491055E-03
  0.24415791E-03 -0.30031067E-03  0.15381419E-02
  0.21845312E-02 -0.57623697E-03  0.15349419E-02
  0.24768068E-02  0.29273737E-02 -0.16174623E-02
 -0.13285047E-02  0.45481143E-03  0.42310649E-02
 -0.27976454E-02 -0.13241991E-02 -0.16884114E-02
 -0.76027780E-03 -0.14019645E-02 -0.26550721E-02
 -0.19926638E-03 -0.12931138E-02 -0.24125438E-02
 -0.28499320E-02 -0.14111455E-02  0.17742628E-02
 -0.47024266E-04  0.19333485E-02 -0.10084328E-02
  0.18114002E-02 -0.40534707E-03  0.32813849E-02
  0.49417327E-03  0.37265028E-03 -0.23445628E-02
 -0.67916705E-04  0.26476760E-03  0.24409308E-02
 -0.20230864E-02 -0.23846165E-02  0.87679549E-03
  0.30161280E-02  0.86901532E-03  0.15124484E-02
 -0.12213459E-02 -0.54646848E-03 -0.57266382E-03
  0.50596066E-03 -0.12951898E-02  0.16805320E-04
 -0.45795465E-02  0.16569464E-02 -0.17554977E-02
  0.23690309E-02 -0.32758272E-02 -0.17404134E-02
 -0.13228002E-02  0.44302590E-02 -0.34856231E-02
  0.74152415E-03 -0.25721587E-02  0.14125305E-02
 -0.56528040E-04 -0.37287225E-03 -0.11845537E-02
  0.32522606E-02  0.78896934E-03  0.34367982E-04
 -0.83423809E-03  0.24650930E-02  0.62792098E-03
  0.60509270E-03 -0.15843654E-02  0.74003792E-04
 -0.37054432E-02  0.72562174E-03 -0.65984823E-03
 -0.15726762E-02  0.74610881E-03 -0.31662347E-03
  0.26172207E-02 -0.23346104E-03 -0.11299282E-02
 -0.15857752E-02 -0.13800117E-02  0.21220079E-02
 -0.12035859E-02  0.15224489E-02 -0.24979826E-02
 -0.18536751E-02  0.19897777E-02  0.77184039E-03
  0.20880274E-02  0.47113785E-02  0.61239460E-04
  0.15276979E-03  0.31604504E-02 -0.58588061E-03
  0.34318520E-03  0.29208678E-03 -0.16655229E-03
 -0.99543061E-03  0.36941832E-03 -0.20764580E-02
 -0.11709640E-02  0.97570718E-03 -0.12760429E-03
 -0.78029860E-03 -0.58877200E-04 -0.10345833E-02
 -0.20479128E-02  0.31617906E-02 -0.15184735E-02
 -0.14887731E-02 -0.60356394E-02  0.26244520E-02
  0.11421257E-02 -0.99991607E-05 -0.21466862E-02
  0.28186611E-02 -0.27909790E-03  0.50659530E-03
  0.21252464E-02  0.19433612E-02  0.12444350E-02
  0.86004124E-03 -0.19258189E-02  0.63629111E-03
 -0.11363151E-03 -0.20617613E-03 -0.29804652E-02
 -0.33711894E-02  0.71512701E-03  0.84120358E-03
 -0.89516171E-03 -0.26579173E-03 -0.20302330E-02
 -0.72547151E-03  0.78076456E-03 -0.30701555E-03
 -0.58218185E-03 -0.43463826E-03 -0.20797657E-03
  0.10604222E-02 -0.22463095E-02  0.18601758E-02
 -0.41719507E-03  0.14674833E-02  0.20631800E-02
 -0.10134967E-02  0.24062393E-03 -0.17973116E-02
 -0.81434292E-03  0.59733609E-03 -0.13688744E-02
 -0.13429188E-02  0.22160208E-03 -0.36839381E-02
 -0.36492399E-03 -0.16510013E-02 -0.63999600E-03
 -0.11594005E-02 -0.11264524E-02 -0.21038246E-02
  0.16463154E-02  0.81189507E-03  0.13741703E-02
 -0.25511702E-03  0.33351120E-02  0.27376079E-04
  0.26527811E-02  0.73396763E-03 -0.19627308E-03
 -0.20993664E-02 -0.36098576E-03 -0.10819233E-03
 -0.30223084E-02  0.92372762E-03 -0.51185784E-03
  0.82896713E-03 -0.10836182E-02  0.17464483E-02
  0.11452317E-03 -0.12731592E-02  0.28172449E-02
 -0.25537696E-02  0.66489230E-04  0.12804984E-02
  0.43730022E-03  0.21140677E-02  0.15595003E-02
  0.47686527E-03 -0.86209635E-03 -0.11854612E-02
  0.11494718E-02  0.11460271E-02 -0.45995992E-03
 -0.20311141E-03 -0.10512298E-02  0.13495731E-02
  0.17241428E-02  0.36935560E-03  0.28163467E-03
 -0.41821055E-03 -0.19569213E-03  0.83162459E-03
 -0.97720721E-03 -0.14944935E-02  0.91063440E-03
  0.44904592E-02  0.99837584E-03 -0.14423019E-02
 -0.58816819E-03 -0.19571537E-03  0.12146755E-04
  0.11052955E-02  0.74044936E-04 -0.14202589E-02
  0.26455827E-02  0.14985037E-03 -0.64333174E-03
 -0.36487587E-03 -0.16007611E-02 -0.33891979E-03
 -0.26990187E-03 -0.22615424E-02 -0.46886767E-03
 -0.18415346E-02  0.69821743E-03 -0.67733339E-03
 -0.98284958E-03 -0.54827454E-03 -0.12235331E-02
  0.53893520E-03 -0.69867718E-03  0.89492624E-03
  0.30805119E-02  0.79722873E-03  0.46607132E-03
  0.78200484E-03  0.82350010E-03  0.61708234E-03
  0.36733507E-03 -0.37219887E-04  0.19426785E-02
 -0.14354368E-02 -0.17994217E-02 -0.21229691E-02
 -0.63666882E-03 -0.65355852E-03 -0.12998294E-03
  0.23315115E-02  0.73781349E-03  0.33507214E-03
  0.27825689E-03 -0.21933764E-02 -0.63759896E-03
  0.21660198E-02 -0.93242060E-03  0.10195430E-03
  0.11467611E-02  0.11573643E-02 -0.14571581E-03
 -0.60719741E-04 -0.90337456E-03 -0.17775655E-03
  0.24660851E-03  0.11126658E-02  0.24735728E-04
  0.31111446E-03  0.21049990E-03 -0.46786393E-04
  0.52226955E-04 -0.15300082E-02  0.16754151E-02
  0.10389961E-02  0.15485327E-02 -0.17653748E-02
  0.73000014E-03 -0.12465093E-02 -0.10351575E-02
  0.13340321E-02  0.22027803E-02  0.25139836E-03
  0.17317760E-02  0.23254577E-02  0.13759876E-02
 -0.54583607E-03 -0.10198056E-02 -0.30891282E-02
  0.56415254E-03 -0.90369234E-03  0.64460458E-03
  0.74683026E-03 -0.23609858E-02 -0.82853572E-03
  0.99420644E-05  0.51725614E-03 -0.67665320E-04
 -0.39843106E-03 -0.82752327E-03 -0.21056846E-03
  0.77337288E-04 -0.11665041E-02 -0.18123484E-02
 -0.71185697E-03 -0.33091787E-02 -0.87367126E-03
  0.18260678E-02  0.19680423E-02  0.26177483E-03
  0.23341097E-02 -0.14058651E-02 -0.12828342E-02
  0.20825965E-02  0.15687432E-02  0.19745766E-02
 -0.31593439E-02  0.62054974E-03 -0.50142756E-03
  0.51296601E-03  0.11884351E-02  0.28462937E-02
  0.53897510E-03  0.11985875E-02  0.11060113E-02
  0.59033773E-03 -0.18889007E-04 -0.13417506E-02
 -0.29355241E-02  0.74858366E-03  0.65758762E-03
 -0.25710424E-03  0.52519676E-03 -0.87759673E-03
  0.51512018E-03  0.74559919E-03  0.13530641E-02
 -0.23156072E-02  0.94407748E-03  0.10914285E-02
  0.46610879E-03  0.16596143E-03  0.11449037E-02
 -0.12455407E-02  0.93192650E-03 -0.32053621E-03
  0.14920322E-02 -0.74493276E-03  0.15617796E-02
  0.15727177E-02  0.62611165E-03  0.25884939E-02
 -0.12357468E-02 -0.86534742E-03 -0.90319479E-03
 -0.52202053E-03 -0.93110363E-03 -0.73616847E-03
  0.26302745E-02  0.94101319E-03 -0.20383166E-02
  0.17812893E-02  0.29786065E-02 -0.62495523E-03
 -0.27082835E-02 -0.94029877E-03  0.13652101E-02
 -0.18013455E-02 -0.18853907E-02 -0.12704790E-02
  0.66216173E-03 -0.28967301E-02 -0.42107962E-03
 -0.56873580E-03  0.10856135E-02  0.14536325E-02
 -0.19268388E-02 -0.16677818E-02  0.15478975E-02
 -0.31170556E-02  0.27476827E-02  0.96301778E-03
  0.13531744E-02 -0.15012098E-02  0.97150189E-04
  0.77118035E-03 -0.24198138E-03  0.67368167E-03
 -0.10832502E-03 -0.10749140E-02  0.25796693E-02
 -0.96272069E-03 -0.13118944E-03 -0.20651387E-03
  0.59995843E-05  0.58494963E-03 -0.26730537E-03
  0.75163044E-03  0.10462168E-02 -0.16442757E-02
  0.56893487E-04  0.16196910E-03 -0.98496990E-03
  0.63667883E-03 -0.24143851E-02  0.11028336E-02
 -0.14248369E-02 -0.45046344E-03  0.48850932E-03
 -0.52480365E-03  0.31187187E-02  0.22077736E-02
 -0.38558045E-02 -0.34460557E-03  0.21071322E-02
  0.11254769E-02  0.50972343E-03 -0.68641234E-03
 -0.20971540E-02 -0.33400439E-02 -0.13943277E-02
  0.58478895E-03 -0.21400955E-03  0.15242813E-02
 -0.15079854E-02 -0.11893623E-03 -0.11083412E-02
 -0.48800940E-03  0.88606832E-03  0.37510329E-03
 -0.33563565E-03  0.24843441E-03 -0.11075876E-02
  0.14743443E-02  0.13157289E-02 -0.23948667E-03
 -0.18925521E-02 -0.40218489E-03  0.23560340E-03
 -0.11550865E-03  0.38900010E-03  0.56716369E-04
  0.73230400E-03  0.69712739E-03 -0.14951452E-02
  0.22305516E-03 -0.15317948E-02  0.22845268E-03
  0.21077985E-02  0.20082052E-03  0.47968117E-03
 
           1
   3.00000000000000     
  0.10000000E+01  0.00000000E+00  0.00000000E+00  0.00000000E+00
  0.49950489E+00  0.31602125E+00  0.80285543E+00
  0.83235300E+00  0.31711849E+00  0.13253635E+00
  0.29394406E+00  0.92837075E+00  0.75875989E-01
  0.34696458E-01  0.18344822E+00  0.85076927E+00
  0.33015250E+00  0.38186866E+00  0.14328706E+00
  0.15995110E+00  0.78033770E+00  0.66978524E+00
  0.68645910E+00  0.44099699E+00  0.81843584E+00
  0.70770214E+00  0.25542016E-01  0.13673257E-02
  0.76829694E-01  0.83986863E+00  0.48562061E+00
  0.70177412E+00  0.23280585E-01  0.24237437E+00
  0.42483104E+00  0.16298790E+00  0.74090448E+00
  0.67706434E+00  0.47215869E+00  0.26747597E+00
  0.42264080E+00  0.26213821E+00  0.61402920E+00
  0.13591593E+00  0.26571744E+00  0.44691073E+00
  0.59939525E+00  0.76548248E-01  0.90878172E+00
  0.11830085E+00  0.31358816E+00  0.71932198E+00
  0.15401316E+00  0.93749715E+00  0.11720347E+00
  0.53882822E+00  0.69187498E+00  0.32547667E-01
  0.79611363E-01  0.37337108E+00  0.11973434E+00
  0.99457754E+00  0.72067096E+00  0.19299958E+00
  0.92975369E+00  0.81050987E+00  0.41329381E+00
  0.46739535E+00  0.14438493E+00  0.13004701E+00
  0.54367303E+00  0.58949537E+00  0.91650108E+00
  0.61857958E+00  0.62053791E+00  0.28694495E+00
  0.34961330E+00  0.49868824E-01  0.32799558E+00
  0.44130918E+00  0.53111669E-01  0.44712708E+00
  0.20227261E-01  0.59408517E+00  0.89266473E+00
  0.61692963E+00  0.46679504E+00  0.69635504E+00
  0.32496833E+00  0.42356732E+00  0.80170583E+00
  0.96162754E+00  0.36784530E+00  0.94162402E+00
  0.87110053E+00  0.28042972E+00  0.74094334E+00
  0.58805221E+00  0.93782916E+00  0.28357852E+00
  0.34709651E+00  0.25666739E+00  0.49213111E+00
  0.83171294E+00  0.91578468E+00  0.77032925E+00
  0.90494862E+00  0.17415259E+00  0.65323497E+00
  0.21744749E+00  0.39508225E+00  0.33177957E+00
  0.26182217E+00  0.14685556E+00  0.19682420E+00
  0.39459984E+00  0.97506193E+00  0.88780654E+00
  0.10230258E+00  0.13326585E-01  0.45790057E+00
  0.81978809E+00  0.51488061E+00  0.19376723E+00
  0.47650743E+00  0.65062358E+00  0.51115340E+00
  0.72862368E-03  0.64410111E+00  0.44767625E+00
  0.37477525E+00  0.77390565E+00  0.47761501E+00
  0.12115065E+00  0.93809119E+00  0.60748820E+00
  0.78989061E+00  0.86221786E+00  0.35705303E+00
  0.33029429E+00  0.51162065E-01  0.68690807E+00
  0.30452903E+00  0.69894825E+00  0.93017270E-01
  0.15169851E+00  0.74296098E+00  0.42211942E-01
  0.59325159E+00  0.49886476E+00  0.12182259E+00
  0.80028335E+00  0.94416449E-01  0.45989023E+00
  0.96070010E+00  0.96797844E+00  0.45309232E+00
  0.25334081E-01  0.71884631E-01  0.61072806E-01
  0.67336007E+00  0.40820863E+00  0.49669309E+00
  0.43682323E+00  0.93832764E+00  0.74422226E+00
  0.84382430E+00  0.95144845E+00  0.23138763E+00
  0.37409097E+00  0.44353930E+00  0.87064812E-02
  0.84996281E+00  0.50891116E+00  0.68270959E+00
  0.93116780E+00  0.39741031E+00  0.20806343E+00
  0.49822989E+00  0.22689353E-01  0.64666236E-02
  0.84667012E+00  0.54495138E+00  0.39359501E-01
  0.66552743E+00  0.11585834E+00  0.36414315E+00
  0.88445572E+00  0.70033630E+00  0.85703617E-01
  0.83513184E+00  0.31280163E+00  0.31823751E+00
  0.58402917E-01  0.92566234E+00  0.99705545E+00
  0.65993329E+00  0.80533809E+00  0.96163774E+00
  0.41182504E+00  0.69161690E+00  0.69961116E+00
  0.41398555E+00  0.75133252E+00  0.30978896E+00
  0.96259413E+00  0.77409633E+00  0.64824530E+00
  0.78060121E+00  0.84411636E+00  0.74283383E-01
  0.27832908E+00  0.40359072E+00  0.59471427E+00
  0.92736993E+00  0.27926689E+00  0.53867424E+00
  0.10544174E+00  0.62407506E+00  0.14842065E+00
  0.54389518E+00  0.75843297E+00  0.75720365E+00
  0.79967548E+00  0.45381669E+00  0.39231792E+00
  0.89257444E+00  0.63377239E+00  0.28366861E+00
  0.12398047E+00  0.36419007E+00  0.57259481E+00
  0.80863135E-01  0.56788684E+00  0.33164747E+00
  0.19861809E-01  0.16855613E+00  0.45949902E+00
  0.61539857E+00  0.22812117E+00  0.94027375E+00
  0.11974447E+00  0.87238573E-01  0.93511859E+00
  0.72569658E+00  0.58365084E-01  0.59172071E+00
  0.33191132E+00  0.28919236E+00  0.95879676E+00
  0.89710122E+00  0.22779716E+00  0.88147895E+00
  0.13912934E+00  0.27068929E+00  0.90981253E+00
  0.80925478E+00  0.37577182E+00  0.99511632E+00
  0.44240716E+00  0.59179468E+00  0.11525995E+00
  0.56797880E+00  0.78594499E+00  0.26894634E+00
  0.23975405E+00  0.15287609E+00  0.47332751E+00
  0.56314698E-03  0.26004885E+00  0.58115443E-01
  0.77075171E+00  0.25717626E+00  0.49411151E+00
  0.97568204E+00  0.60652867E+00  0.67127734E+00
  0.44675274E+00  0.30407017E+00  0.19084974E+00
  0.38693492E+00  0.73307990E+00  0.94403582E+00
  0.68995476E+00  0.13071209E+00  0.12274047E+00
  0.63219587E+00  0.63618194E+00  0.79991473E+00
  0.26861059E+00  0.49311335E+00  0.22346512E+00
  0.60964885E+00  0.92791332E+00  0.70272861E-01
  0.34982427E+00  0.35981956E+00  0.38605976E+00
  0.72288352E+00  0.28850976E+00  0.78529684E+00
  0.83782764E+00  0.76648288E+00  0.75524381E+00
  0.68452193E-01  0.41949590E+00  0.36970545E+00
  0.45863354E+00  0.47432385E+00  0.70357751E+00
  0.13305737E+00  0.29370826E+00  0.25064259E+00
  0.84253825E+00  0.96810094E+00  0.99254680E+00
  0.31813305E+00  0.63127075E+00  0.52382993E+00
  0.68938836E+00  0.62176468E+00  0.65792450E-01
  0.70577285E+00  0.63664946E+00  0.41947787E+00
  0.22207001E+00  0.27587767E+00  0.10835035E+00
  0.56530781E+00  0.40994149E+00  0.38194977E+00
  0.80730073E+00  0.53149043E+00  0.83629329E+00
  0.76864908E+00  0.73279149E+00  0.26271437E+00
  0.96445956E+00  0.94013885E+00  0.63323700E+00
  0.96024657E+00  0.40352593E+00  0.72695575E+00
  0.47389803E+00  0.60314704E+00  0.35042275E+00
  0.25955785E+00  0.52695737E+00  0.70462443E+00
  0.95357673E+00  0.51880942E+00  0.53468637E+00
  0.30914067E-01  0.86205131E+00  0.16445583E+00
  0.12788054E+00  0.72103123E-01  0.19370991E+00
  0.96810149E+00  0.72571136E+00  0.95571816E+00
  0.62015517E+00  0.31101066E+00  0.66530887E+00
  0.17044056E+00  0.42906028E+00  0.86107176E+00
  0.30775123E+00  0.90883926E+00  0.30962097E+00
  0.58520547E+00  0.44223033E+00  0.93825372E+00
  0.55756388E+00  0.70050083E-01  0.77012970E+00
  0.66892894E+00  0.56132167E+00  0.57663823E+00
  0.39184293E+00  0.60354392E+00  0.84799862E+00
  0.14563998E-01  0.51040425E+00  0.20326750E-01
  0.68836817E+00  0.88548932E+00  0.83563115E+00
  0.40082012E+00  0.83438618E+00  0.12201565E+00
  0.14823652E+00  0.90802236E+00  0.35921380E+00
  0.13378656E+00  0.68295386E+00  0.53298185E+00
  0.46852093E+00  0.21108440E-02  0.22839962E+00
  0.48193212E+00  0.19483820E+00  0.47269269E+00
  0.93912693E+00  0.46626369E-01  0.30850459E+00
  0.85609075E+00  0.17438955E+00  0.10648332E+00
  0.31590821E+00  0.80865217E+00  0.73239255E+00
  0.27605721E+00  0.29318594E+00  0.72136544E+00
  0.47307854E+00  0.40334324E+00  0.55919366E+00
  0.70023559E+00  0.32098341E+00  0.22262903E+00
  0.85744527E+00  0.74479158E+00  0.53196222E+00
  0.33065865E+00  0.84804285E-01  0.80286208E-01
  0.39082416E+00  0.96568617E+00  0.55877668E+00
  0.55503722E-01  0.17029570E+00  0.70516559E+00
  0.96478871E-01  0.75866784E+00  0.80045712E+00
  0.17129332E+00  0.65364826E+00  0.89328031E+00
  0.21931055E+00  0.49292674E+00  0.50678840E-04
  0.34201806E+00  0.11331132E+00  0.85840016E+00
  0.25806679E+00  0.92018936E+00  0.93076262E+00
  0.75876913E+00  0.89906788E+00  0.63137256E+00
  0.59012438E+00  0.99149227E+00  0.43605345E+00
  0.21595330E+00  0.71230064E+00  0.24365977E+00
  0.48145068E+00  0.27353911E+00  0.30196563E-01
  0.59846790E-04  0.26200473E-03  0.59970573E-03
  0.40539524E-04 -0.47228060E-04 -0.45069289E-04
  0.35686059E-04 -0.53202847E-04  0.25974201E-03
  0.37094722E-03 -0.95462585E-04  0.25746307E-03
  0.42629645E-03  0.47983712E-03 -0.27037294E-03
 -0.23275786E-03  0.64008610E-04  0.74323455E-03
 -0.47457967E-03 -0.22787150E-03 -0.30003392E-03
 -0.11118036E-03 -0.25006265E-03 -0.44587947E-03
 -0.44099995E-04 -0.21535188E-03 -0.40982960E-03
 -0.48815696E-03 -0.24611965E-03  0.30698462E-03
 -0.30616402E-04  0.32789110E-03 -0.18095680E-03
  0.29441077E-03 -0.61755611E-04  0.54840795E-03
  0.77848136E-04  0.55401735E-04 -0.39326573E-03
 -0.18105628E-04  0.49411840E-04  0.41607243E-03
 -0.36343752E-03 -0.41558036E-03  0.11677158E-03
  0.51746225E-03  0.13934469E-03  0.24712097E-03
 -0.21276356E-03 -0.93974141E-04 -0.98264695E-04
  0.10473689E-03 -0.20694811E-03  0.10529107E-04
 -0.77483871E-03  0.27213181E-03 -0.31287141E-03
  0.40707211E-03 -0.53420543E-03 -0.30059440E-03
 -0.23186938E-03  0.74575372E-03 -0.57899040E-03
  0.12052792E-03 -0.42628633E-03  0.24189841E-03
 -0.26337852E-05 -0.70343864E-04 -0.19899035E-03
  0.54647057E-03  0.12320741E-03 -0.14319502E-04
 -0.15316296E-03  0.40134615E-03  0.11308717E-03
  0.97156703E-04 -0.24969111E-03  0.12956301E-04
 -0.62605752E-03  0.11669443E-03 -0.97329140E-04
 -0.25207865E-03  0.12322227E-03 -0.55216868E-04
  0.45291396E-03 -0.37867420E-04 -0.20436481E-03
 -0.25541206E-03 -0.21929871E-03  0.34861743E-03
 -0.20620967E-03  0.25234029E-03 -0.42589179E-03
 -0.32024152E-03  0.33195182E-03  0.11209690E-03
  0.37831685E-03  0.79938221E-03  0.91786068E-05
  0.29139283E-04  0.52045239E-03 -0.90560054E-04
  0.52481644E-04  0.60637471E-04 -0.17508954E-04
 -0.15592593E-03  0.54096947E-04 -0.32404897E-03
 -0.19762822E-03  0.15701762E-03 -0.41125255E-04
 -0.12740876E-03 -0.11715770E-04 -0.19007226E-03
 -0.37306124E-03  0.52155856E-03 -0.27900693E-03
 -0.26235897E-03 -0.10157185E-02  0.43482934E-03
  0.19154452E-03  0.25947620E-05 -0.35875726E-03
  0.48630969E-03 -0.60250266E-04  0.81244565E-04
  0.35681214E-03  0.32955675E-03  0.21538198E-03
  0.13733737E-03 -0.31801735E-03  0.10962208E-03
 -0.19987544E-04 -0.33206271E-04 -0.50277452E-03
 -0.57033218E-03  0.12675762E-03  0.13978016E-03
 -0.15348408E-03 -0.54293244E-04 -0.34782708E-03
 -0.11860883E-03  0.13656602E-03 -0.49873679E-04
 -0.99465578E-04 -0.86419143E-04 -0.27366286E-04
  0.17482267E-03 -0.38500001E-03  0.31628435E-03
 -0.45592087E-04  0.25446990E-03  0.34766198E-03
 -0.16697975E-03  0.37664438E-04 -0.30467175E-03
 -0.13763551E-03  0.87386316E-04 -0.22509745E-03
 -0.23029032E-03  0.36917763E-04 -0.61605384E-03
 -0.53287370E-04 -0.27189861E-03 -0.10364083E-03
 -0.19093717E-03 -0.18940817E-03 -0.35631041E-03
  0.29204478E-03  0.13550851E-03  0.23009899E-03
 -0.39449546E-04  0.54992227E-03  0.10465712E-05
  0.46216787E-03  0.12222430E-03 -0.28733148E-04
 -0.35056293E-03 -0.51403770E-04 -0.19081971E-04
 -0.50968948E-03  0.16226476E-03 -0.87180872E-04
  0.14099635E-03 -0.19498142E-03  0.29507673E-03
  0.23473131E-04 -0.21895338E-03  0.47027245E-03
 -0.43253908E-03  0.14008271E-04  0.21023918E-03
  0.72561558E-04  0.35886537E-03  0.25214579E-03
  0.77632506E-04 -0.12980568E-03 -0.20081633E-03
  0.20097468E-03  0.19755937E-03 -0.81553261E-04
 -0.29811009E-04 -0.18228304E-03  0.22181028E-03
  0.28623984E-03  0.65741483E-04  0.46326919E-04
 -0.72967439E-04 -0.33333786E-04  0.13548416E-03
 -0.16739778E-03 -0.25239537E-03  0.15262255E-03
  0.74824856E-03  0.16502074E-03 -0.24479632E-03
 -0.10017921E-03 -0.41915592E-04  0.67556935E-06
  0.18988652E-03  0.11510658E-04 -0.23703823E-03
  0.44570023E-03  0.33575284E-04 -0.10643363E-03
 -0.54331597E-04 -0.27001737E-03 -0.53022959E-04
 -0.50139787E-04 -0.38304735E-03 -0.71894582E-04
 -0.30429925E-03  0.11205912E-03 -0.11869454E-03
 -0.16385988E-03 -0.86922925E-04 -0.20059483E-03
  0.91157038E-04 -0.11699558E-03  0.15522147E-03
  0.52422050E-03  0.14469107E-03  0.68589499E-04
  0.12665912E-03  0.13730887E-03  0.10582113E-03
  0.66061614E-04 -0.23826746E-05  0.32582262E-03
 -0.24856416E-03 -0.31247609E-03 -0.35605132E-03
 -0.11053234E-03 -0.11913422E-03 -0.20703447E-04
  0.37862632E-03  0.13224297E-03  0.54878654E-04
  0.42069408E-04 -0.37067653E-03 -0.10920233E-03
  0.36512521E-03 -0.15824181E-03  0.18670929E-04
  0.19542427E-03  0.19730106E-03 -0.19311897E-04
 -0.19666027E-04 -0.13755898E-03 -0.29677873E-04
  0.34231091E-04  0.19941747E-03  0.40270542E-05
  0.48452704E-04  0.40819500E-04 -0.15876616E-04
  0.90900135E-06 -0.25608392E-03  0.28076736E-03
  0.17384071E-03  0.27244113E-03 -0.29984605E-03
  0.12160748E-03 -0.20717523E-03 -0.17428187E-03
  0.22659575E-03  0.38036905E-03  0.34922148E-04
  0.28964973E-03  0.40560185E-03  0.23599534E-03
 -0.98337588E-04 -0.17614325E-03 -0.52116257E-03
  0.93241180E-04 -0.15362709E-03  0.10652721E-03
  0.12050824E-03 -0.39227704E-03 -0.13368973E-03
  0.26984383E-05  0.90230756E-04 -0.20037216E-04
 -0.82638353E-04 -0.14134978E-03 -0.36202990E-04
  0.82197264E-05 -0.19162295E-03 -0.29963411E-03
 -0.12679676E-03 -0.55450645E-03 -0.14802177E-03
  0.30568488E-03  0.33112236E-03  0.51530099E-04
  0.40774664E-03 -0.22830519E-03 -0.22281554E-03
  0.35431723E-03  0.26876052E-03  0.33717084E-03
 -0.53387119E-03  0.10387539E-03 -0.87719085E-04
  0.84698655E-04  0.19838192E-03  0.47967775E-03
  0.95775224E-04  0.20264643E-03  0.18291338E-03