Amorphous Sb                            
   1.00000000000000     
    20.4156461905629598    0.0000000000000000    0.0000000000000000
     0.0000000000000000   20.4156461905629598    0.0000000000000000
     0.0000000000000000    0.0000000000000000   20.4156461905629598
   Ge   Te
   150   150
Direct
  0.2780434584423544  0.6894837821956173  0.5891353733336235
  0.9031245055260956  0.6438558141090119  0.0278631103794550
  0.1536386971572098  0.2220326341067194  0.0070791676934140
  0.3088344153771814  0.3078117195962429  0.7502377187207192
  0.4298207224511662  0.0293074745712657  0.8016812947956928
  0.0304556347353343  0.3056671642569357  0.1916222614661683
  0.0662690421473096  0.9227763326388273  0.5565351781112046
  0.0223011408883106  0.0339343588829694  0.9725808527163390
  0.8152829487345048  0.1942812527565855  0.5328416926623406
  0.9091419658421112  0.6086270593932995  0.9022387953976938
  0.5377520222994516  0.4293149424392571  0.8199725843882547
  0.1701864560196965  0.8564742750887365  0.5361364587157713
  0.7642286765483026  0.8303823151222208  0.3279670581237848
  0.3713358863955431  0.8054316240872326  0.1064641454781041
  0.2984614151811510  0.3086762441645866  0.3665714129178826
  0.4901085837464355  0.7328384309489751  0.7485079050258235
  0.8061965164779220  0.3075346388584085  0.7800331375892650
  0.0967670303810382  0.7062124266487069  0.6859060619388577
  0.7123782541108751  0.1124456259087457  0.3525636303756682
  0.9540733800488898  0.9595666658622745  0.2571142262401169
  0.5989694174137178  0.2495112436787231  0.1393553607105758
  0.6713341185019485  0.7533918121725841  0.6198163123686965
  0.2680667225189465  0.8935476786184805  0.6089511257188682
  0.2924985441207849  0.5285185709045139  0.6999867855586043
  0.3922816998744356  0.8777171370515506  0.8990013537767982
  0.2425069691948450  0.4809630266786462  0.2710321212443705
  0.0318829098211746  0.8320992142862829  0.9340809429856629
  0.9051901917337397  0.0343469907327385  0.4496260151520803
  0.4895173142274883  0.8957536355678803  0.6412971654593987
  0.1367249063396094  0.0169195734466719  0.1438593253342590
  0.4597980704112822  0.3452664458514810  0.5283150448388080
  0.0241864333940244  0.4674626969645800  0.1413264743418374
  0.3293143617693758  0.6179446245140437  0.0072314823553144
  0.9645131157708315  0.0322099111768764  0.5627880338149405
  0.2509096436079664  0.1420392138230796  0.0459340124442397
  0.4582659055935827  0.2518732950545466  0.8334233299677752
  0.7361231035251046  0.4768286691616069  0.5444413424759302
  0.0318967314253367  0.4888827841784169  0.9168513210148782
  0.1413155887665897  0.4147367579334503  0.7835026238355840
  0.9782938819181789  0.2980888355258269  0.5124971848190458
  0.2550332569681861  0.1209625224950439  0.7903121795130829
  0.1072714677773509  0.2361745939904471  0.7404784276586349
  0.0870356879208995  0.0147095677589054  0.6416008284973521
  0.7879178711084110  0.5987136139061244  0.6895354425730866
  0.8092650386628290  0.8292654987637811  0.8736377422584591
  0.4837116309764235  0.8407075685815192  0.0220411536596690
  0.4343115097126460  0.7592740364313939  0.5129169027578152
  0.1613814346615170  0.5535774561645183  0.0461747199299777
  0.4774825859666499  0.2539405243315981  0.9636346317049833
  0.1314480621916023  0.5479857085604131  0.2708334732247278
  0.1017349519718975  0.7475315682288618  0.0188440857058242
  0.2629780063242889  0.9984186453622188  0.7444329014863293
  0.2698417112109440  0.9387208086628892  0.0651307351865223
  0.0281151887514932  0.9929018578003865  0.7564355686654159
  0.3812387077412055  0.4221575649030525  0.0452594110050822
  0.4504894956293485  0.9653591365194574  0.9897939451021235
  0.0480882756071760  0.4710203426286893  0.3282354300437161
  0.9497792393485934  0.0587328696641269  0.3332567397014561
  0.5554697530338019  0.5052824239201422  0.5058220047828376
  0.7228567796201496  0.6685370953974862  0.9474256505299360
  0.6373287920119107  0.5181360549140412  0.8152381087770969
  0.6725856029251928  0.0988792112732629  0.5877780647355324
  0.5775217102494894  0.3213019147079121  0.6735176772605227
  0.0370130599742011  0.7418877023931676  0.4478339931048056
  0.7514331821503554  0.1955097133828094  0.0230596280699974
  0.8138247728230641  0.4385117342785027  0.7833760446659506
  0.3909886250514123  0.9327806529159970  0.1000399667865737
  0.9452371444500945  0.5678337464883549  0.6123783345277681
  0.8335910033877173  0.9532158090803393  0.8637308378845612
  0.8976420220563670  0.2627997988426163  0.6061700617835610
  0.9372601845703257  0.9011477441493135  0.5721400357288776
  0.1555088575087629  0.3048108909360122  0.5196287514765698
  0.5505164868943921  0.0285101193445600  0.3160564418722934
  0.1141013360891168  0.2459070997438962  0.8726174000376340
  0.9547066767869011  0.7793179226389874  0.5391885645678945
  0.3766173904762064  0.4211792793967022  0.2393503752903642
  0.8620504696899051  0.7459898724127216  0.7968874986917561
  0.9923946980911478  0.2973448806737451  0.0301362204975259
  0.3015837409782033  0.4982706184348439  0.4903305584396091
  0.4031699145025596  0.5364597003352932  0.1182223837435116
  0.6717548517990536  0.8101272819750323  0.2457280382991895
  0.2106233037762275  0.9683461745015006  0.3779333312825144
  0.7440620158322209  0.0575961353464492  0.8393874955196617
  0.4226584059676725  0.2344656118386451  0.0802557961799752
  0.1779649936056527  0.2122172069207893  0.2373966559875767
  0.9109898781344472  0.7227659493979228  0.1288322589523949
  0.7352219398288746  0.8375232600135645  0.5235005060841141
  0.1716543340475939  0.7566542003609723  0.8825071939651298
  0.7632472808916524  0.0153188900394226  0.5449606342452357
  0.2930400144208422  0.0327347896234514  0.4571737177962948
  0.8991957354679367  0.0646990094003330  0.9660820825156792
  0.5610958119469036  0.2165886751180304  0.3705835351389684
  0.5281825868247975  0.1802477054441766  0.6612112434366002
  0.8844295375293627  0.1809981413091400  0.3958271780157410
  0.5951858344784045  0.9522415355009636  0.9061355625180234
  0.4125556395777789  0.1279631971466975  0.5280238092999782
  0.9703280243983367  0.3937112527296059  0.7120846388977286
  0.6702154099118882  0.8922458922207012  0.1463625080669386
  0.0330866075930211  0.1727190963150936  0.0158316641466475
  0.5704125051129056  0.1065819762205968  0.9635437210067536
  0.7771721426951932  0.9574294260476002  0.3434892339180876
  0.3298730668259244  0.8809930367685049  0.7781774443643672
  0.9599594824420127  0.1038212177783007  0.7521622258888766
  0.8629182398494629  0.1157164988656197  0.8516615475840859
  0.3137085125429331  0.7912488498262407  0.4586153497247973
  0.6768631711446509  0.7781345847745581  0.4084468601038974
  0.4504235081485619  0.6022573534038286  0.2838121677309723
  0.4114927095175052  0.9197945431805322  0.3317548099226690
  0.0453818385072396  0.1355177190182396  0.2955729355124955
  0.3911141988133163  0.6124579859836840  0.6386045401548149
  0.6068688549946367  0.0166758110718902  0.7258097186096178
  0.1167231873700978  0.2401577184067470  0.1283153489475031
  0.4518821987903452  0.6961024874517129  0.0425508483663110
  0.8312824021183349  0.0390115542588755  0.1321688433680527
  0.3616212417905434  0.0720659789084733  0.2617453827765885
  0.2903667480051549  0.1766932760314442  0.4853544757208776
  0.5773569139169202  0.9423926527559415  0.0446587452577257
  0.0281867331070796  0.3796137270171924  0.4202164301527947
  0.5015158523180526  0.7279680936334691  0.3081405068834156
  0.1200860729307586  0.1712077548362405  0.4010299535972796
  0.2334186420119594  0.7974498096035791  0.7791757988051903
  0.7962258155701463  0.0966404694831597  0.4501337280028092
  0.1759048655714548  0.6106114408003817  0.4459825311812160
  0.8011945723165820  0.6120179874702104  0.3727506983511795
  0.8686429624518776  0.2238106135274487  0.2086228479548173
  0.1908777613394519  0.3694022072869256  0.1433844963025392
  0.4519984179614707  0.3194637973706833  0.2402968067842518
  0.1959574269012444  0.3448506012386083  0.0167396415264052
  0.6906682286102066  0.3442405666898079  0.9314557742737436
  0.7232499466614868  0.7929927560968518  0.9566924909974046
  0.9550708404625009  0.0125256082102231  0.1452882539842172
  0.8806167750415160  0.8516608114321395  0.0767804320885903
  0.6887016321746012  0.0435515809148072  0.1225640483149390
  0.0273703795872818  0.8791157559511517  0.4191151685883188
  0.5023917273184100  0.3798153265425477  0.4005703441461560
  0.4162106624189951  0.1085615843289568  0.9339293403658597
  0.4158839708749186  0.1970734434352606  0.2396848602079789
  0.8411042101583077  0.7367988634756547  0.3560774033499404
  0.8015659895362788  0.8912936095832015  0.6219690494901648
  0.0990188813961718  0.4025383027116411  0.2259213371553665
  0.5984258505528657  0.7441760782839079  0.5079066588929844
  0.8967777909715441  0.4443745708978650  0.4070596212412364
  0.3287470292652938  0.5708795141517836  0.3074603885236516
  0.1452243795143186  0.9586275073399345  0.7878722582127308
  0.7833328151177441  0.4648642389439744  0.2602123043323325
  0.1810283716906466  0.5343039792070533  0.7625345909147970
  0.4160974543353477  0.4473140345161155  0.6852068665887731
  0.0407905028150349  0.6171865971031507  0.8578560044244943
  0.8456780506278099  0.9483115872244290  0.7261030503300204
  0.6953483478423964  0.3374185299355436  0.1511322839060890
  0.0393527745533838  0.6328792444370449  0.9952564263556885
  0.0392597976419503  0.1224182012329192  0.1569973688672643
  0.0474033577914822  0.7506771048491068  0.8255922951265304
  0.6302870679436292  0.6833166693431394  0.2290053028706515
  0.2208475802750752  0.3371503694610491  0.8523133827575438
  0.9220291636396970  0.2567979017652490  0.7373336192558124
  0.1003051944774868  0.3525404653735878  0.6731823968380575
  0.7899234207858412  0.6069269375453843  0.2386392252004624
  0.6536512029348351  0.5873138487979598  0.5326579414683335
  0.5443667384250086  0.5055379951997522  0.3769838846945111
  0.3685710193302710  0.5397902658163187  0.8449576135598588
  0.4538558849702820  0.9804843949835094  0.2122673011411760
  0.8749244488309682  0.1529280657990759  0.0608407364306296
  0.3227760927372497  0.6797773781288149  0.8851738843956554
  0.6123480273246981  0.5708428166201195  0.0545032987541704
  0.7738834223988852  0.3099966712781901  0.2589445197600139
  0.4477033586759372  0.7436042688758400  0.8934477335745638
  0.0800191274109116  0.5874946717472553  0.1558929021554266
  0.5509392960040136  0.0663215715651074  0.0934998628750589
  0.5043699912498564  0.6762912388969332  0.4336346281894810
  0.3511263313777279  0.9166795946361638  0.4996265568933977
  0.0197950326714530  0.6110403752249635  0.4939807475699616
  0.9681025614429660  0.7465193030969847  0.3246807040489030
  0.3996173431782693  0.4000006240425009  0.8221027411461793
  0.0484602454549041  0.8723538986374541  0.2846056809683837
  0.5189362419558150  0.1286505188479351  0.8024985346815797
  0.3922379539995525  0.1623495240979149  0.6611143926126368
  0.6048274710568836  0.6232325500718402  0.9102322217392307
  0.6150013076167548  0.4153318119737526  0.0199052026646253
  0.5433940021701630  0.1499725709740101  0.2509506423354924
  0.6305020568168272  0.7090511029522079  0.8002573884516612
  0.2356378055419344  0.1089046797320362  0.1756062047179992
  0.5845386185057748  0.7067168302545810  0.0842966583894310
  0.2507464580779132  0.1532842695534863  0.3574958341391116
  0.6909424884844071  0.9356776538563170  0.8143620787878494
  0.2970386923762928  0.8298004865325099  0.9947481855640767
  0.7695476804325265  0.2169049934337996  0.8723909157649334
  0.1783047373054062  0.8715316810002851  0.1328599980343707
  0.1446020889133161  0.7284028824022971  0.5518659805947944
  0.2530975781257092  0.4874178086957351  0.1340697130650584
  0.5390116781486592  0.8501695474864484  0.1471245009724320
  0.9803902162103646  0.1925563962622068  0.8878820401912613
  0.0951052592085709  0.4462293061578622  0.5144654031851694
  0.6990226195751081  0.2457141883907318  0.3850327877951242
  0.7944793341028533  0.7648880222440283  0.6749425643814526
  0.4741540980714809  0.5652391356075989  0.0064420785708911
  0.1973160134678227  0.0292899261392707 -0.0005419522045553
  0.2936565168454950  0.9511360393509011  0.2733181142742410
  0.9115307385285717  0.5260682673759068  0.7503650755599700
  0.0308389388166107  0.3769818004492176  0.8454199829904665
  0.8419181987407184  0.0961979677436140  0.2638955812990037
  0.6683568005661231  0.6502612335958601  0.3668318028046084
  0.2246775382149875  0.5644875277475310  0.5851372302711479
  0.2791944022161529  0.2991700312552248  0.2138705341662526
  0.4912630697368091  0.4964480538890638  0.2144059241347045
  0.7390821758703990  0.4700971157528101  0.8902322847897084
  0.6922146517818215  0.9483567302002075  0.4535359697826728
  0.1632571897128265  0.1598691620544856  0.5271935148861342
  0.7243054044263599  0.2910017510027245  0.6774654218019106
  0.4111594386941639  0.2292891058037861  0.3706285395254424
  0.2468601880343868  0.6813215461598110  0.7184832029821934
  0.2891794917245176  0.4932571517999118  0.9653273186695270
  0.3899302103460237  0.8102091834702497  0.6798548423808962
  0.6022928542431458  0.0857023123926987  0.4259029650486725
  0.9014348209569203  0.4794706578257747  0.9448473131060874
  0.2199251766380212  0.0226537113015306  0.6149069617892560
  0.1866968530437625  0.8407311170317141  0.4032279822201460
  0.3130870706630322  0.6191599969476086  0.4293724661558726
  0.6875387898724621  0.1247357135239088  0.7201121121137031
  0.8261162525295196  0.3737927260209991  0.6213205189971659
  0.7615725461622735  0.5994472915718002  0.0486783627478665
  0.4647361717496247  0.5932771621412457  0.7510859538608566
  0.6853235039120654  0.2257326389822419  0.5337990315019215
  0.9050033933027564  0.3062629546417047  0.9331755486873643
  0.9909689954689409  0.1659199702820145  0.4801040846798988
  0.5959532896733033  0.3824545860722239  0.5300562920889588
  0.1424206609051117  0.8551208551028530  0.7024608863632054
  0.9192296137482532  0.3376957651586694  0.1304852008574575
  0.1179906418092605  0.0040050417376091  0.2835838467955676
  0.4938218579260298  0.3455043885956411  0.1195818051790822
  0.9053923705716967  0.5188272037685419  0.0915885837332221
  0.7161272117401205  0.1706901461655761  0.1547398155240642
  0.0766621008304815  0.0010888968797216  0.4492050223399685
  0.6461497189884103  0.6316947316198235  0.6779314974707014
  0.3292690307322378  0.3011662771430339  0.0104647380746331
  0.8689726124065331  0.0632534011703997  0.6604115386391600
  0.0205533940270152  0.9352053013138470  0.0650122461238948
  0.7630863159100099  0.4713798248038116  0.3981105004639116
  0.5102315898090186  0.2202285325124457  0.5197887710631182
  0.6974270378367959  0.0612519467697300  0.9673600558134362
  0.2195663802526502  0.6743638339726176  0.0591580704590177
  0.9600540429961600  0.7100115796900733  0.6498644961336250
  0.5879413532367871  0.3060249588097105  0.8137446464131783
  0.5451486852276943  0.0597460055344253  0.6019851213296393
  0.3231129935342855  0.1960375405762596  0.8786927640674993
  0.3732716035867775  0.7796031896338771  0.3365274684425344
  0.1388577001866043  0.1098356459389487  0.8524547195713802
  0.3968502167702425  0.6643572363192111  0.1710302103577898
  0.5707253254476061  0.3364964132660687  0.2916604494011423
  0.0426808204099601  0.1552300497328507  0.6554268348204542
  0.2720115413503938  0.8114263196108575  0.2209842451211869
  0.0698755279474306  0.4148889151044391  0.0245492051447495
  0.9569773176261777  0.4321705587337812  0.5741949359046183
  0.5545433049292309  0.4540052722124044  0.6880271731874950
  0.3796543296963732  0.0959850724147498  0.0610424544927374
  0.9251564588023989  0.6109394606795518  0.2062345187706209
  0.4902063769680883  0.3914180168183173  0.9570404625368599
  0.4306796859381622  0.5097555130646760  0.5557626043450004
  0.9279129749205098  0.4395603203770815  0.2732274725797270
  0.7918151048448849  0.6369973034826878  0.8406395648200335
  0.0712380575302447  0.5700871619296701  0.7028843939126507
  0.3744067194099251  0.4244578377917252  0.3724689291614457
  0.8526602150219129  0.2994103943929887  0.4536400323141622
  0.6699374972635690  0.9375273880662596  0.6312461231473502
  0.5237610773240451  0.8580862058106768  0.5118057115650164
  0.5821119397145440  0.8432166811832970  0.3395811914491790
  0.4101046166214444  0.0534776629607094  0.3873838552593702
  0.8471496941949618  0.9001808393159231  0.2125530690352073
  0.1764923814888018  0.5981377530482069  0.8765676770903613
  0.6052090151130944  0.2350139892292222  0.9995946934345044
  0.8917573218765081  0.9062916302527314  0.4282137030539974
  0.4999853419922298  0.6900320758898829  0.6093689603459903
  0.3262804736927954  0.0117110035815277  0.8885183149278593
  0.5006800425006879  0.9194886263853008  0.8097943225565729
  0.1354721774500155  0.3051087015059695  0.3830340240762471
  0.0360337494987727  0.7642533626392788  0.1341230136855887
  0.7520125343863715  0.7963122857278074  0.0835789036602487
  0.7204930952271016  0.4797300209389617  0.6992908805648425
  0.2264242239778465  0.2091879288182841  0.6911492836541681
  0.9750568159234152  0.9481639278935433  0.8780295199742646
  0.9617133888499904  0.8854593363159596  0.7096144500281668
  0.4363195944217894  0.3143766469377672  0.6598029440406474
  0.5951523696710292  0.8188740085703958  0.9342075775321370
  0.1877231897428170  0.4777927270467301  0.4098791179642392
  0.6788179318003005  0.4631958327970269  0.1791744263696427
  0.9709291768592322  0.2528516731402718  0.2988949780178750
  0.9573004410133986  0.5646904923001606  0.3809784211200877
  0.2569836865272371  0.6594391838377442  0.2346012614248774
  0.1428413639914080  0.6692631282967765  0.3244118453391415
  0.2706113509349905  0.4016829472177804  0.6599433907161852
  0.8337926995339149  0.7470723724552005  0.4894522653755666
  0.9010111327147708  0.7779746508213509  0.9544010693392184
  0.7762673363512435  0.3332436645529593  0.0409942332361561
  0.8257511130947575  0.9614506171097327  0.0097397816897939
  0.8218780792423487  0.5822600192213641  0.5576473694796625
  0.2938597018873434  0.3091329430556064  0.5073043736583414
  0.3902299373722098  0.0207116954179945  0.6754669865064067
  0.1579308172686627  0.8928808002412791  0.9022755090862966
  0.5963357752765456  0.8302540389104751  0.7003073102149480
  0.6697010873441389  0.9981783352190147  0.2532465363048503
 
  0.00000000E+00  0.00000000E+00  0.00000000E+00
  0.00000000E+00  0.00000000E+00  0.00000000E+00
  0.00000000E+00  0.00000000E+00  0.00000000E+00
  0.00000000E+00  0.00000000E+00  0.00000000E+00
  0.00000000E+00  0.00000000E+00  0.00000000E+00
  0.00000000E+00  0.00000000E+00  0.00000000E+00
  0.00000000E+00  0.00000000E+00  0.00000000E+00
  0.00000000E+00  0.00000000E+00  0.00000000E+00
  0.00000000E+00  0.00000000E+00  0.00000000E+00
  0.00000000E+00  0.00000000E+00  0.00000000E+00
  0.00000000E+00  0.00000000E+00  0.00000000E+00
  0.00000000E+00  0.00000000E+00  0.00000000E+00
  0.00000000E+00  0.00000000E+00  0.00000000E+00
  0.00000000E+00  0.00000000E+00  0.00000000E+00
  0.00000000E+00  0.00000000E+00  0.00000000E+00
  0.00000000E+00  0.00000000E+00  0.00000000E+00
  0.00000000E+00  0.00000000E+00  0.00000000E+00
  0.00000000E+00  0.00000000E+00  0.00000000E+00
  0.00000000E+00  0.00000000E+00  0.00000000E+00
  0.00000000E+00  0.00000000E+00  0.00000000E+00
  0.00000000E+00  0.00000000E+00  0.00000000E+00
  0.00000000E+00  0.00000000E+00  0.00000000E+00
  0.00000000E+00  0.00000000E+00  0.00000000E+00
  0.00000000E+00  0.00000000E+00  0.00000000E+00
  0.00000000E+00  0.00000000E+00  0.00000000E+00
  0.00000000E+00  0.00000000E+00  0.00000000E+00
  0.00000000E+00  0.00000000E+00  0.00000000E+00
  0.00000000E+00  0.00000000E+00  0.00000000E+00
  0.00000000E+00  0.00000000E+00  0.00000000E+00
  0.00000000E+00  0.00000000E+00  0.00000000E+00
  0.00000000E+00  0.00000000E+00  0.00000000E+00
  0.00000000E+00  0.00000000E+00  0.00000000E+00
  0.00000000E+00  0.00000000E+00  0.00000000E+00
  0.00000000E+00  0.00000000E+00  0.00000000E+00
  0.00000000E+00  0.00000000E+00  0.00000000E+00
  0.00000000E+00  0.00000000E+00  0.00000000E+00
  0.00000000E+00  0.00000000E+00  0.00000000E+00
  0.00000000E+00  0.00000000E+00  0.00000000E+00
  0.00000000E+00  0.00000000E+00  0.00000000E+00
  0.00000000E+00  0.00000000E+00  0.00000000E+00
  0.00000000E+00  0.00000000E+00  0.00000000E+00
  0.00000000E+00  0.00000000E+00  0.00000000E+00
  0.00000000E+00  0.00000000E+00  0.00000000E+00
  0.00000000E+00  0.00000000E+00  0.00000000E+00
  0.00000000E+00  0.00000000E+00  0.00000000E+00
  0.00000000E+00  0.00000000E+00  0.00000000E+00
  0.00000000E+00  0.00000000E+00  0.00000000E+00
  0.00000000E+00  0.00000000E+00  0.00000000E+00
  0.00000000E+00  0.00000000E+00  0.00000000E+00
  0.00000000E+00  0.00000000E+00  0.00000000E+00
  0.00000000E+00  0.00000000E+00  0.00000000E+00
  0.00000000E+00  0.00000000E+00  0.00000000E+00
  0.00000000E+00  0.00000000E+00  0.00000000E+00
  0.00000000E+00  0.00000000E+00  0.00000000E+00
  0.00000000E+00  0.00000000E+00  0.00000000E+00
  0.00000000E+00  0.00000000E+00  0.00000000E+00
  0.00000000E+00  0.00000000E+00  0.00000000E+00
  0.00000000E+00  0.00000000E+00  0.00000000E+00
  0.00000000E+00  0.00000000E+00  0.00000000E+00
  0.00000000E+00  0.00000000E+00  0.00000000E+00
  0.00000000E+00  0.00000000E+00  0.00000000E+00
  0.00000000E+00  0.00000000E+00  0.00000000E+00
  0.00000000E+00  0.00000000E+00  0.00000000E+00
  0.00000000E+00  0.00000000E+00  0.00000000E+00
  0.00000000E+00  0.00000000E+00  0.00000000E+00
  0.00000000E+00  0.00000000E+00  0.00000000E+00
  0.00000000E+00  0.00000000E+00  0.00000000E+00
  0.00000000E+00  0.00000000E+00  0.00000000E+00
  0.00000000E+00  0.00000000E+00  0.00000000E+00
  0.00000000E+00  0.00000000E+00  0.00000000E+00
  0.00000000E+00  0.00000000E+00  0.00000000E+00
  0.00000000E+00  0.00000000E+00  0.00000000E+00
  0.00000000E+00  0.00000000E+00  0.00000000E+00
  0.00000000E+00  0.00000000E+00  0.00000000E+00
  0.00000000E+00  0.00000000E+00  0.00000000E+00
  0.00000000E+00  0.00000000E+00  0.00000000E+00
  0.00000000E+00  0.00000000E+00  0.00000000E+00
  0.00000000E+00  0.00000000E+00  0.00000000E+00
  0.00000000E+00  0.00000000E+00  0.00000000E+00
  0.00000000E+00  0.00000000E+00  0.00000000E+00
  0.00000000E+00  0.00000000E+00  0.00000000E+00
  0.00000000E+00  0.00000000E+00  0.00000000E+00
  0.00000000E+00  0.00000000E+00  0.00000000E+00
  0.00000000E+00  0.00000000E+00  0.00000000E+00
  0.00000000E+00  0.00000000E+00  0.00000000E+00
  0.00000000E+00  0.00000000E+00  0.00000000E+00
  0.00000000E+00  0.00000000E+00  0.00000000E+00
  0.00000000E+00  0.00000000E+00  0.00000000E+00
  0.00000000E+00  0.00000000E+00  0.00000000E+00
  0.00000000E+00  0.00000000E+00  0.00000000E+00
  0.00000000E+00  0.00000000E+00  0.00000000E+00
  0.00000000E+00  0.00000000E+00  0.00000000E+00
  0.00000000E+00  0.00000000E+00  0.00000000E+00
  0.00000000E+00  0.00000000E+00  0.00000000E+00
  0.00000000E+00  0.00000000E+00  0.00000000E+00
  0.00000000E+00  0.00000000E+00  0.00000000E+00
  0.00000000E+00  0.00000000E+00  0.00000000E+00
  0.00000000E+00  0.00000000E+00  0.00000000E+00
  0.00000000E+00  0.00000000E+00  0.00000000E+00
  0.00000000E+00  0.00000000E+00  0.00000000E+00
  0.00000000E+00  0.00000000E+00  0.00000000E+00
  0.00000000E+00  0.00000000E+00  0.00000000E+00
  0.00000000E+00  0.00000000E+00  0.00000000E+00
  0.00000000E+00  0.00000000E+00  0.00000000E+00
  0.00000000E+00  0.00000000E+00  0.00000000E+00
  0.00000000E+00  0.00000000E+00  0.00000000E+00
  0.00000000E+00  0.00000000E+00  0.00000000E+00
  0.00000000E+00  0.00000000E+00  0.00000000E+00
  0.00000000E+00  0.00000000E+00  0.00000000E+00
  0.00000000E+00  0.00000000E+00  0.00000000E+00
  0.00000000E+00  0.00000000E+00  0.00000000E+00
  0.00000000E+00  0.00000000E+00  0.00000000E+00
  0.00000000E+00  0.00000000E+00  0.00000000E+00
  0.00000000E+00  0.00000000E+00  0.00000000E+00
  0.00000000E+00  0.00000000E+00  0.00000000E+00
  0.00000000E+00  0.00000000E+00  0.00000000E+00
  0.00000000E+00  0.00000000E+00  0.00000000E+00
  0.00000000E+00  0.00000000E+00  0.00000000E+00
  0.00000000E+00  0.00000000E+00  0.00000000E+00
  0.00000000E+00  0.00000000E+00  0.00000000E+00
  0.00000000E+00  0.00000000E+00  0.00000000E+00
  0.00000000E+00  0.00000000E+00  0.00000000E+00
  0.00000000E+00  0.00000000E+00  0.00000000E+00
  0.00000000E+00  0.00000000E+00  0.00000000E+00
  0.00000000E+00  0.00000000E+00  0.00000000E+00
  0.00000000E+00  0.00000000E+00  0.00000000E+00
  0.00000000E+00  0.00000000E+00  0.00000000E+00
  0.00000000E+00  0.00000000E+00  0.00000000E+00
  0.00000000E+00  0.00000000E+00  0.00000000E+00
  0.00000000E+00  0.00000000E+00  0.00000000E+00
  0.00000000E+00  0.00000000E+00  0.00000000E+00
  0.00000000E+00  0.00000000E+00  0.00000000E+00
  0.00000000E+00  0.00000000E+00  0.00000000E+00
  0.00000000E+00  0.00000000E+00  0.00000000E+00
  0.00000000E+00  0.00000000E+00  0.00000000E+00
  0.00000000E+00  0.00000000E+00  0.00000000E+00
  0.00000000E+00  0.00000000E+00  0.00000000E+00
  0.00000000E+00  0.00000000E+00  0.00000000E+00
  0.00000000E+00  0.00000000E+00  0.00000000E+00
  0.00000000E+00  0.00000000E+00  0.00000000E+00
  0.00000000E+00  0.00000000E+00  0.00000000E+00
  0.00000000E+00  0.00000000E+00  0.00000000E+00
  0.00000000E+00  0.00000000E+00  0.00000000E+00
  0.00000000E+00  0.00000000E+00  0.00000000E+00
  0.00000000E+00  0.00000000E+00  0.00000000E+00
  0.00000000E+00  0.00000000E+00  0.00000000E+00
  0.00000000E+00  0.00000000E+00  0.00000000E+00
  0.00000000E+00  0.00000000E+00  0.00000000E+00
  0.00000000E+00  0.00000000E+00  0.00000000E+00
  0.00000000E+00  0.00000000E+00  0.00000000E+00
  0.00000000E+00  0.00000000E+00  0.00000000E+00
  0.00000000E+00  0.00000000E+00  0.00000000E+00
  0.00000000E+00  0.00000000E+00  0.00000000E+00
  0.00000000E+00  0.00000000E+00  0.00000000E+00
  0.00000000E+00  0.00000000E+00  0.00000000E+00
  0.00000000E+00  0.00000000E+00  0.00000000E+00
  0.00000000E+00  0.00000000E+00  0.00000000E+00
  0.00000000E+00  0.00000000E+00  0.00000000E+00
  0.00000000E+00  0.00000000E+00  0.00000000E+00
  0.00000000E+00  0.00000000E+00  0.00000000E+00
  0.00000000E+00  0.00000000E+00  0.00000000E+00
  0.00000000E+00  0.00000000E+00  0.00000000E+00
  0.00000000E+00  0.00000000E+00  0.00000000E+00
  0.00000000E+00  0.00000000E+00  0.00000000E+00
  0.00000000E+00  0.00000000E+00  0.00000000E+00
  0.00000000E+00  0.00000000E+00  0.00000000E+00
  0.00000000E+00  0.00000000E+00  0.00000000E+00
  0.00000000E+00  0.00000000E+00  0.00000000E+00
  0.00000000E+00  0.00000000E+00  0.00000000E+00
  0.00000000E+00  0.00000000E+00  0.00000000E+00
  0.00000000E+00  0.00000000E+00  0.00000000E+00
  0.00000000E+00  0.00000000E+00  0.00000000E+00
  0.00000000E+00  0.00000000E+00  0.00000000E+00
  0.00000000E+00  0.00000000E+00  0.00000000E+00
  0.00000000E+00  0.00000000E+00  0.00000000E+00
  0.00000000E+00  0.00000000E+00  0.00000000E+00
  0.00000000E+00  0.00000000E+00  0.00000000E+00
  0.00000000E+00  0.00000000E+00  0.00000000E+00
  0.00000000E+00  0.00000000E+00  0.00000000E+00
  0.00000000E+00  0.00000000E+00  0.00000000E+00
  0.00000000E+00  0.00000000E+00  0.00000000E+00
  0.00000000E+00  0.00000000E+00  0.00000000E+00
  0.00000000E+00  0.00000000E+00  0.00000000E+00
  0.00000000E+00  0.00000000E+00  0.00000000E+00
  0.00000000E+00  0.00000000E+00  0.00000000E+00
  0.00000000E+00  0.00000000E+00  0.00000000E+00
  0.00000000E+00  0.00000000E+00  0.00000000E+00
  0.00000000E+00  0.00000000E+00  0.00000000E+00
  0.00000000E+00  0.00000000E+00  0.00000000E+00
  0.00000000E+00  0.00000000E+00  0.00000000E+00
  0.00000000E+00  0.00000000E+00  0.00000000E+00
  0.00000000E+00  0.00000000E+00  0.00000000E+00
  0.00000000E+00  0.00000000E+00  0.00000000E+00
  0.00000000E+00  0.00000000E+00  0.00000000E+00
  0.00000000E+00  0.00000000E+00  0.00000000E+00
  0.00000000E+00  0.00000000E+00  0.00000000E+00
  0.00000000E+00  0.00000000E+00  0.00000000E+00
  0.00000000E+00  0.00000000E+00  0.00000000E+00
  0.00000000E+00  0.00000000E+00  0.00000000E+00
  0.00000000E+00  0.00000000E+00  0.00000000E+00
  0.00000000E+00  0.00000000E+00  0.00000000E+00
  0.00000000E+00  0.00000000E+00  0.00000000E+00
  0.00000000E+00  0.00000000E+00  0.00000000E+00
  0.00000000E+00  0.00000000E+00  0.00000000E+00
  0.00000000E+00  0.00000000E+00  0.00000000E+00
  0.00000000E+00  0.00000000E+00  0.00000000E+00
  0.00000000E+00  0.00000000E+00  0.00000000E+00
  0.00000000E+00  0.00000000E+00  0.00000000E+00
  0.00000000E+00  0.00000000E+00  0.00000000E+00
  0.00000000E+00  0.00000000E+00  0.00000000E+00
  0.00000000E+00  0.00000000E+00  0.00000000E+00
  0.00000000E+00  0.00000000E+00  0.00000000E+00
  0.00000000E+00  0.00000000E+00  0.00000000E+00
  0.00000000E+00  0.00000000E+00  0.00000000E+00
  0.00000000E+00  0.00000000E+00  0.00000000E+00
  0.00000000E+00  0.00000000E+00  0.00000000E+00
  0.00000000E+00  0.00000000E+00  0.00000000E+00
  0.00000000E+00  0.00000000E+00  0.00000000E+00
  0.00000000E+00  0.00000000E+00  0.00000000E+00
  0.00000000E+00  0.00000000E+00  0.00000000E+00
  0.00000000E+00  0.00000000E+00  0.00000000E+00
  0.00000000E+00  0.00000000E+00  0.00000000E+00
  0.00000000E+00  0.00000000E+00  0.00000000E+00
  0.00000000E+00  0.00000000E+00  0.00000000E+00
  0.00000000E+00  0.00000000E+00  0.00000000E+00
  0.00000000E+00  0.00000000E+00  0.00000000E+00
  0.00000000E+00  0.00000000E+00  0.00000000E+00
  0.00000000E+00  0.00000000E+00  0.00000000E+00
  0.00000000E+00  0.00000000E+00  0.00000000E+00
  0.00000000E+00  0.00000000E+00  0.00000000E+00
  0.00000000E+00  0.00000000E+00  0.00000000E+00
  0.00000000E+00  0.00000000E+00  0.00000000E+00