Sn2 Ge1 Te3
1.0
   2.2131650000000000   -3.8333149999999998    0.0000000000000000
   2.2131650000000000    3.8333149999999998    0.0000000000000000
   0.0000000000000000    0.0000000000000000   10.9834639999999997
Sn Ge Te
2 1 3
direct
   0.3333330000000000    0.6666670000000000    0.8271350000000000 Sn
   0.6666670000000000    0.3333330000000000    0.1728650000000000 Sn
   0.0000000000000000    0.0000000000000000    0.5000000000000000 Ge
   0.3333330000000000    0.6666670000000000    0.3480919999999990 Te
   0.6666670000000000    0.3333330000000000    0.6519079999999990 Te
   0.0000000000000000    0.0000000000000000    0.0000000000000000 Te
