Amorphous Sb                            
  0.960000000000000     
    20.1278869700586895    0.0000000000000000    0.0000000000000000
     0.0000000000000000   20.1278869700586895    0.0000000000000000
     0.0000000000000000    0.0000000000000000   20.1278869700586895
   Ge   Se
   150   150
Direct
  0.5099539727837360  0.6853950534083889  0.8028346960057915
  0.2053922250205343  0.4321613293801854  0.8048043952801947
  0.3834627896724515  0.3341727187034923  0.6071300917329034
  0.8269078988122772  0.0164527632167671  0.6363763448673380
  0.8930382917304648  0.6294486454864561  0.6609804851739635
  0.2061835058873973  0.6990551598852537  0.9588810375029937
  0.1227305854950175  0.1515912386633353  0.3661048333846068
  0.3232981869445843  0.6270336578938478  0.8008802822907354
  0.3431938351974082  0.8774366319056157  0.2206114319802224
  0.3795385483167504  0.0020601782607562  0.4272055334479066
  0.0149891461563395  0.0432426076642766  0.4444818983070297
  0.6413578220945650  0.3255577023531883  0.8495025086390231
  0.6324524628970930  0.4348663012699121  0.5585262750414510
  0.2726961466923349  0.0226181524654268  0.8472362127211220
  0.6666390383571584  0.9435367924747698  0.4059274369430586
  0.0457611489313193  0.7758572460461894  0.0941134492644314
  0.0497655496522279  0.7591266660503592  0.3509682665418952
  0.8166325467421613  0.4099298850232336  0.3592298169835870
  0.1152269336678681  0.4710238710511164  0.9634501858201879
  0.0545650860979299  0.9281461050647455  0.4988877637673863
  0.1525775605876968  0.8393449547906066  0.2052084760362346
  0.4315216275750594  0.7373962070273575  0.9705884368392887
  0.0018400645870527  0.1895321903209178  0.9370861090516582
  0.0209079771544946  0.0796929523463636  0.1328208684960737
  0.5530707138031933  0.3166640302899723  0.1688965028129483
  0.3834473099872941  0.1468846738439107  0.5968371019053499
  0.4168086986199429  0.7570051090305163  0.5481656094859124
  0.8012754730421949  0.9224969893766022  0.0297559739220459
  0.7721847561750146  0.5547874183646153  0.5830273960661829
  0.9325605848220603  0.7813507884445168  0.5731104336055104
  0.0921028965476690  0.3359503157360515  0.7457283248558643
  0.0109545574968203  0.0939383396359050  0.2691459269016551
  0.9020046098326295  0.5030957642656345  0.4738426545831301
  0.3803328065916354  0.4422478942110085  0.2716614092082006
  0.0397680532144696  0.5430344641330994  0.5814071493499930
  0.7402158595161584  0.7152630285514002  0.1608742717953520
  0.4478766346241392  0.4705716622791956  0.9195397377493915
  0.2768026884031579  0.0387497198680432  0.2305502864903380
  0.2551223252782639  0.3771311563880743  0.1346523977270913
  0.7564791494797920  0.3876156392790353  0.7628807356953204
  0.8504716600771205  0.8384347490645061  0.3779548810317481
  0.9359891416953622  0.1892933145762911  0.5816590457387137
  0.5767153677461945  0.8420799631521758  0.5314421248433988
  0.3706995688669872  0.9811303490951230  0.0798387889025807
  0.3503036770077870  0.6400246449834921  0.2181297425061661
  0.3999614281491706  0.4457296611080039  0.5021526996743193
  0.9066771818245575  0.7947253424019739  0.1572857713287237
  0.0575178190498240  0.3549380919684765  0.4137758886291787
  0.9901146951711710  0.7279137430518192  0.7969753979847045
  0.5569143318471274  0.0551791590470676  0.3000352197715839
  0.2615399015673611  0.4286012600101584  0.9417043347454107
  0.0425562777795028  0.2893869911856458  0.1500692255526310
  0.6287580161538487  0.7250770665753431  0.8245769468173805
  0.5935164573368403  0.3009914505756360  0.7269132520734767
  0.0344271601503036  0.5963323704357170  0.3651087126913374
  0.0350532469157300  0.9205971787162830  0.2290153856622689
  0.1942491745399363  0.5660228343524312  0.4643507304031966
  0.9664732238208593  0.3414927844069475  0.5728745057591833
  0.1014679011894226  0.0564721210892697  0.8286072102717655
  0.5157913903550649  0.4491350090334232  0.3284490241817075
  0.6879081738277333  0.1121307590254491  0.1624600632649702
  0.5341607932833763  0.6727917412077173  0.2234420236821069
  0.9305211048968179  0.6675342289547973  0.2875295639520811
  0.8509939879777660  0.0278551043526744  0.8339249945458972
  0.5482110890404455  0.8250123061797181  0.0139891079353396
  0.0789871011916243  0.3440175900669890  0.9349044858801755
  0.8260903949045783  0.8576482083903216  0.5213528071859479
  0.7440311751093246  0.7537879219980594  0.6810673480864262
  0.8282690732227382  0.2435411179038121  0.1574587214966613
  0.8349359652504589  0.3121483251111407  0.0400253967229383
  0.9596989280657925  0.4201477059396834  0.7438183704280679
  0.4258523823622040  0.1397561380818117  0.1537334559195785
  0.3607265972141643  0.5411000872232978  0.4247132609703050
  0.4932470477743319  0.8195956197387040  0.3777117873551015
  0.3270558797890508  0.4440683100360125  0.6743976267155233
  0.6782641056051559  0.9459588299431152  0.1101867146254442
  0.2398499203637571  0.2448776318754470  0.1792886500848396
  0.8565765264249917  0.0724275432448755  0.0059481785294534
  0.2580845087172626  0.8510072144011224  0.9343066224715364
  0.3681952344934412  0.2442707804794542  0.0382103089261777
  0.6561528217789098  0.9896479520732888  0.8832047756581574
  0.9599287395038860  0.5967799977333285  0.8434566901832057
  0.7960146045803813  0.4884701608062649  0.0576483109727338
  0.7235232690436119  0.5234973555132951  0.3402028588058155
  0.3584887085136194  0.1408868852783011  0.7272238200723967
  0.6091028465630273  0.1406090433276739  0.0422746614774377
  0.5316937021141770  0.6672849555172360  0.6033791980459635
  0.7666394068932099  0.3202715128276828  0.5150261959342453
  0.6343216457327220  0.5823351827069468  0.1456737957066055
  0.5307055169519115  0.2186377091979678  0.3378601845527667
  0.6217073592621859  0.1153420299561049  0.8938638920497016
  0.1125978910977755  0.1191485092337113  0.6106062388437046
  0.3051932448410354  0.5857375942320949  0.5956656145416228
  0.7770593020483942  0.0588361133848163  0.4569262126113862
  0.6575960162111487  0.9378546669067493  0.6048981093752865
  0.6828612305494263  0.7101270376793677  0.4837385697511302
  0.4165249385876026  0.9487038276835527  0.9327049229427151
  0.1448975889823264  0.4538203975479953  0.6389195628182808
  0.1728479649570577  0.7581510523574390  0.4707153137495579
  0.2056506612710487  0.1316918508168731  0.8298261497828254
  0.1107850503007214  0.4306414723195784  0.2496179051258878
  0.5409280875959255  0.2835027108363948  0.9364355992413346
  0.2300671714066383  0.5064010067632679  0.0751379264821230
  0.8693881216878045  0.0560358078620965  0.1873449535435706
  0.4285413855833265  0.8436887320347917  0.7421906596099062
  0.7283197663284231  0.7332054392082774  0.0032612259693171
  0.9887951802686984  0.4756864969705294  0.0114614597649675
  0.0437966904361262  0.6557894501501215  0.0464711673165600
  0.7135202074686159  0.1721712911687709  0.7100747429644590
  0.7011011150230896  0.9084288655373606  0.7857973185014681
  0.1052459394898183  0.8918072606056083  0.6836589649435461
  0.1183385660535213  0.9668524893576351  0.0175189429688179
  0.1509865859539266  0.9577194758716232  0.3794231877205356
  0.7580781631010622  0.1459172677945186  0.3246523749387173
  0.7514154992505407  0.8337713677485336  0.2929258648762555
  0.7341719596560995  0.6605266624722239  0.3741592444539957
  0.4026174071940657  0.2666038151322401  0.2944449711271971
  0.6787003786439409  0.6054450384329539  0.7185024804165328
  0.3360307819136065  0.2117821439069697  0.4484478582635710
  0.0826206699282880  0.9345428962242741  0.8025755225596011
  0.9282199471125683  0.4547770743490031  0.2111425068963044
  0.8621377039534528  0.2334145497308680  0.3919899028741009
  0.7962513722820497  0.6330287524489187  0.8211308173554986
  0.9568632026235894  0.9070137116257576  0.9593848073068859
  0.2370136861586322  0.3773466350917024  0.4073539916015017
  0.2365130412909317  0.6919117217474851  0.6672780898651849
  0.3612959734377160  0.9650236850334255  0.5624932410908681
  0.5566627090432357  0.8493866962912046  0.7839452562071952
  0.1914596404646998  0.1454742109401116  0.9939754346681028
  0.2904036375551923  0.8091386210697802  0.0714374720500642
  0.5381546103018874  0.5817660768373802  0.4421077873542772
  0.8975233319407069  0.7322552001492506  0.9017231536435872
  0.4717430752038166  0.1709645615053014  0.9311827002320019
  0.4409963430120087  0.4894887910953395  0.1036744192947976
  0.0450279055455988  0.7239611593001483  0.6197721754703981
  0.1792716281143482  0.6382042671255197  0.2070305895893967
  0.2923279999470944  0.2845509936024107  0.8092772498080668
  0.5462436034992230  0.0738629755515250  0.4904080627686131
  0.3495628678435732  0.7174828252147065  0.3583867848548868
  0.2899964212475726  0.8514013644798258  0.7169217538433866
  0.7173367565588205  0.4146035471180652  0.2280653305640377
  0.5964864086823393  0.4500362661456061  0.0209623723219317
  0.1780008589743625  0.9822919670881177  0.6191639761493825
  0.9253526467493963  0.2244477478458676  0.7682663282423234
  0.5745236347024846  0.1992949915743474  0.5553464658888950
  0.1335949558882522  0.2249355121962646  0.5199329777705060
  0.1326644982570080  0.6113380957589797  0.8189127671837112
  0.5192168128150957  0.8841607369365339  0.1954175585624074
  0.4763418523609131  0.4740234832290277  0.7416477364668946
  0.9092690859683696  0.4411435434804464  0.9062775457467497
  0.8650785063331367  0.1378129091923613  0.8953959190289217
  0.8707788295121380  0.9886764010573266  0.5005220111522345
  0.0767759547636934  0.7232358529093281  0.2063283271811317
  0.9378840872751121  0.4682834692548832  0.6138591291583292
  0.3264452263556332  0.6957824059004503  0.0319771672150815
  0.1266659785131384  0.0140827393250906  0.2527474546883478
  0.5688050916521039  0.4564607609689195  0.1558321800856728
  0.6903556265633704  0.0642008548369338  0.5777440959582482
  0.6159178537647866  0.2675751261980008  0.0441942341946533
  0.1400523398609270  0.0769421868111396  0.4818558090087534
  0.9485670911739890  0.8198875731509274  0.2838484027027414
  0.7513018899731972  0.0292654966645476  0.7495845311755930
  0.7879613047621103  0.7134412478678172  0.5664073488872385
  0.2929367593499191  0.7976951747556271  0.5917562592787439
  0.8614126204047543  0.6756529918923586  0.1743327533324391
  0.4771558123657115  0.0897861973576194  0.0318732534818552
  0.2792804785140593  0.1618720781255763  0.0854215934056710
  0.3686453723834631  0.8278884453402956  0.4382064184071119
  0.9393348191242985  0.9791105728513292  0.7588483303120892
  0.7103673002979549  0.2250397497220848  0.2262635399047316
  0.7007423448409323  0.0247755818198071  0.9990525968311914
  0.5634418742207365  0.1833414223746530  0.6884240175005394
  0.1408534604231112  0.0711959251585651  0.0926692982297392
  0.8642809486915173  0.5005500156638639  0.7918098814566606
  0.2034461026464368  0.3580614902134580  0.2827284202458367
  0.3360055764094709  0.4170729542481537  0.8360141353825851
  0.2654166516301275  0.7693533230427193  0.1881176618912206
  0.2818480603574410  0.9677662731036568  0.3432603726096372
  0.3407851087374647  0.5146433031489287  0.0098658145202944
  0.4199567877505150  0.0220662287907973  0.2064159780452376
  0.4550602207735467  0.2421383172292031  0.5316199093334357
  0.4038723960280830  0.3374784869473700  0.1878996039776784
  0.9325292594809529  0.9903434948204749  0.2794557716651397
  0.4191166050923975  0.8586153747889061  0.1070246197209949
  0.0617136499131704  0.5011086084840289  0.4516658330737920
  0.0600453176387539  0.4969175888052348  0.8377443033404748
  0.5462729061827057  0.4600253124822631  0.8471447199036217
  0.2992215417650366  0.9872866838228110  0.6726711171791383
  0.5455740407201886  0.1692372334820461  0.2148953818621522
  0.8964127922144223  0.5423221482246452  0.3437591443904172
  0.5979855957816593  0.5620269189368823  0.3190816297809030
  0.3453476823735603  0.1898942274072851  0.9186055450599530
  0.1763421358539716  0.9033653049922342  0.5182733396478054
  0.0226259043171504  0.2187421429755260  0.4395148218914804
  0.5448065967771906  0.9197505940428902  0.9028693477709454
  0.5958978643360239  0.9593330182541573  0.7237312249267317
  0.7156907697356167  0.4810400792199472  0.6768798746073540
  0.1661108368217429  0.8330946885899960  0.3340220827272531
  0.9241477187121213  0.3636638797287328  0.4438027255008467
  0.5380876259200524  0.7213350112029296  0.4529066542372122
  0.8704095242168287  0.3310443830947383  0.7159042435845550
  0.3136742661592925  0.6455145125441049  0.4863647227036997
  0.7054055098831803  0.2024603441285406  0.8423330984248959
  0.3021605025458623  0.0983534966767131  0.5091289543812657
  0.7789305607570179  0.8340987731245513  0.1728695391836027
  0.7506432163914500  0.5422751061019139  0.2013642129011197
  0.1615935565103903  0.6629909848821057  0.3772948967568518
  0.0367774546337908  0.8417670860592704  0.8769052670949500
  0.7952426750389942  0.4026023890731931  0.9465962333512945
  0.9918585161757018  0.0716396493284404  0.5730644322594596
  0.2489251733266771  0.9373436278952875  0.1417720792743387
  0.5510974240120325  0.5872761054196102  0.7242651996653900
  0.9988660797586213  0.9091506057095885  0.6172254111624684
  0.1505714246930045  0.2833648998751784  0.8468870356361933
  0.5349394361637489  0.3887302352314365  0.6486061466184186
  0.2851409823208765  0.2722408174815915  0.5557933954054733
  0.2602825050718100  0.9788470678471841  0.9688412767771970
  0.7760154046146353  0.1533192836531037  0.0774237550774050
  0.8737713816337455  0.6123133979824286  0.9434316982009041
  0.9005208637300507  0.1732931070388156  0.2438931552855782
  0.5273394066136166  0.4424215255839021  0.4578731261229601
  0.5764904613135958  0.3419959427392544  0.2975659124523121
  0.6274216414836831  0.5917221794510907  0.5414486716312273
  0.6822553798353184  0.7288004338907547  0.2830635806172469
  0.4413649588700750  0.7555963678786600  0.2719638589049299
  0.1198685940006010  0.7718181372090196  0.7184155963031654
  0.7767694635695532  0.7558510988592043  0.8746615577120085
  0.5828356066695194  0.7708223730152688  0.1434921031921680
  0.8968519212537851  0.7661613247313089  0.7063195251815959
  0.1017064698968431  0.2501912540590148  0.0148978092455515
  0.8251094093752985  0.9149839593831255  0.8958706341853588
  0.6871476286451597  0.8512250854185764  0.0099208830795031
  0.7617644192632121  0.0401106766018884  0.2531075677623210
  0.2255496287338127  0.5366525250205776  0.7198985279835308
  0.7626543172412303  0.4559296207773255  0.4891691015726263
  0.4042533336387961  0.2771145713131990  0.7354756666444725
  0.0045492234971998  0.9456656649490389  0.0958930263740584
  0.4230564953875423  0.5946063328431760  0.3345562085654398
  0.1184921931440522  0.2122607776410453  0.2153238300442372
  0.0476420364197905  0.7984670544978371  0.4761264951977859
  0.7473385101134755  0.3030638372363113  0.3865070241491261
  0.4198467658880869  0.7197276547645240  0.7169576614034576
  0.6478660144342989  0.9085112695381914  0.2847746353379774
  0.3790957067478548  0.8329744273733826  0.8831540167138813
  0.1475654727512012  0.8141020873081831  0.0322032946802446
  0.8165309607105469  0.1884972493862979  0.5088682777683791
  0.7039704359273490  0.8385074976795853  0.4570853159337881
  0.0455411705315266  0.2190921370660416  0.6929985217720920
  0.6827673117005937  0.5701137190793411  0.8502175037060656
  0.2589598739316163  0.3114359643682527  0.0136388598395789
  0.4299244204248192  0.6335513543978413  0.8860305009886964
  0.0638262594410915  0.6687095516100583  0.9171667836764853
  0.5525371158055384  0.9559120143112851  0.0901128467962754
  0.4571590582329125  0.3659216417356569  0.9899744520632657
  0.9016742360793103  0.7956125343537991  0.0118629863316812
  0.6346338051740049  0.1282436906150880  0.3782897366606382
  0.2364926224718787  0.5751389047650497  0.8934507767467220
  0.2548070963585445  0.4640454991178027  0.5592316858558574
  0.5119945944877203  0.1215526576725650  0.8268949701663428
  0.4148881217176193  0.5295088666908089  0.6071373253178473
  0.2064642797646003  0.9128463400580645  0.8217248861860120
  0.0417696734687348  0.0567158572606143  0.9363623498867940
  0.2573779295561439  0.5175647938052779  0.3566457074575776
  0.9501444780393170  0.1638931639243701  0.0616864066125645
  0.2182806611299195  0.3520026293233512  0.6961766884254661
  0.3053641535574879  0.1815863493752181  0.2680764410091634
  0.2522206577506048  0.7263728524296887  0.8234486263764850
  0.8526666104282127  0.6987262636503616  0.3900487979945179
  0.0823631737779293  0.5526220009454157  0.2427468634540485
  0.9625775611437746  0.5678871405945739  0.0900423414891805
  0.2089611639536262  0.2349471809126137  0.4158409662048251
  0.2283361631752746  0.1585082312808963  0.7096368241596194
  0.9582541195985248  0.3162240778790449  0.8856283460730615
  0.8400919008567785  0.3667387711875011  0.2325711085544533
  0.5425418894762881  0.9551472342888638  0.4331940859114836
  0.6856610484761582  0.5512993981417135  0.0269080497592430
  0.3937779470747237  0.9949024966924213  0.8152804014574961
  0.5103657357670005  0.5388779714302405  0.0064689775512280
  0.6369609333299767  0.3099837659520749  0.5124039227521981
  0.6135067493605360  0.7628932037474563  0.6455495524223192
  0.2822595693338411  0.5278297112891467  0.1907834481995364
  0.1015492892436862  0.3514919559059054  0.5495093199395666
  0.7749353230440243  0.8881788240703652  0.6471290577038641
  0.4467970737919252  0.6247046234387387  0.1344723037129858
  0.1715742733959490  0.6223215277563041  0.0754399362758584
  0.5967035948572359  0.7141302991347839  0.9493635279855167
  0.7046227855741767  0.3004924751500631  0.6675173599501457
  0.4590974208946246  0.8701280451097332  0.6095933434240423
  0.3690866285056776  0.3542821071679840  0.3850301154989876
  0.1465275250521148  0.6649773984422637  0.5665475846507061
  0.8547273353730054  0.1457763022556921  0.6829292103907617
  0.0050154645985648  0.3610175338352980  0.2727598525356346
  0.9444162285869742  0.3768344074988590  0.0778451628857352
  0.1148204078252793  0.3984846270505154  0.1215366419256032
  0.4626622070220149  0.1054282212460911  0.3928539631794409
  0.9488105027336308  0.6342103086582613  0.5395456530817092
  0.0123064145919514  0.0871489415384925  0.7403987210697878
  0.0202596109292162  0.6177825533567698  0.6965999935704125
  0.7296707668638344  0.3743799463560779  0.0994549712846394
  0.4617702142685728  0.0341033266609535  0.5944110006046052
 
 -0.80996867E-03  0.24448899E-02 -0.81534000E-03
 -0.14582971E-03  0.71727696E-03 -0.16815147E-04
 -0.53924751E-03 -0.59126864E-03  0.35315154E-02
  0.12186946E-02 -0.25189487E-03  0.16165370E-02
 -0.83744451E-04  0.32905289E-03  0.14107943E-02
 -0.10764658E-02  0.33423181E-03 -0.21626499E-02
 -0.11279252E-02 -0.13056983E-02  0.43423959E-03
  0.79145884E-03  0.11421678E-02 -0.10819008E-02
  0.17877802E-02  0.18117748E-02  0.23293274E-02
  0.23274512E-04  0.13428862E-02  0.11141926E-02
  0.20203699E-03 -0.86417285E-03  0.46344165E-02
 -0.38291572E-02  0.41715758E-03 -0.62427093E-03
 -0.61295511E-03  0.15445508E-02 -0.19047706E-03
 -0.36257639E-03 -0.25266921E-02  0.52438104E-03
 -0.19359069E-02 -0.65470045E-03 -0.22896513E-03
 -0.25078509E-02 -0.32727289E-02 -0.29069511E-02
 -0.14859379E-02  0.23102275E-02  0.13871385E-02
 -0.18116594E-02 -0.16914601E-02 -0.11053515E-02
 -0.60628088E-03 -0.14072541E-02  0.26433743E-03
 -0.82690090E-03 -0.88060633E-03 -0.25844022E-03
  0.12062453E-02 -0.13662827E-02  0.19612784E-02
 -0.22394754E-03  0.21383188E-02 -0.13657819E-02
 -0.14006412E-02  0.94517267E-03  0.16904471E-03
  0.32313518E-02  0.47906221E-04 -0.26755127E-03
 -0.25007091E-02 -0.79205596E-03 -0.65326444E-03
  0.20590819E-02  0.71571183E-03  0.32332888E-02
  0.84621653E-04  0.90487390E-03  0.14801846E-02
 -0.20801768E-02 -0.21433392E-02  0.11387325E-02
  0.42603313E-02 -0.24109141E-02 -0.84513022E-03
 -0.16778996E-02  0.14079940E-02  0.92224653E-03
  0.35276932E-02 -0.20534158E-02  0.36117066E-03
 -0.11551068E-02 -0.90554295E-03 -0.86338134E-03
 -0.18740091E-02  0.21896587E-02  0.12808348E-02
 -0.87582767E-03 -0.18854893E-02 -0.14629895E-02
 -0.22300627E-02  0.83663017E-03 -0.41431603E-02
 -0.28384905E-02 -0.71513529E-03  0.25109734E-02
  0.53591559E-03 -0.21635153E-02 -0.20028976E-02
  0.20414303E-02 -0.41245211E-03 -0.18941520E-02
 -0.26477253E-02 -0.53827977E-02  0.48115033E-03
 -0.18804216E-02 -0.29730451E-02 -0.92511817E-03
 -0.13191985E-02 -0.20425469E-02 -0.19561934E-02
  0.15279746E-02 -0.27792411E-02 -0.89499696E-03
  0.32825746E-02  0.55882442E-03  0.98025397E-03
 -0.15933549E-02 -0.73119708E-03  0.26861109E-02
 -0.99914261E-03 -0.28941722E-02  0.50921063E-03
  0.12820288E-02 -0.90385152E-03  0.70783722E-03
 -0.87999565E-03  0.19664242E-02 -0.34742639E-02
  0.12665835E-02 -0.27415545E-02 -0.14926472E-03
 -0.96991414E-03  0.31889928E-03 -0.71036295E-03
 -0.43868082E-03  0.11127368E-02 -0.11669502E-03
  0.73409750E-03  0.39943052E-03 -0.10082214E-02
  0.10420080E-02 -0.79299004E-03  0.17316249E-02
 -0.15505829E-02 -0.32799698E-02  0.58310134E-03
  0.40802122E-03  0.30937285E-02  0.25703512E-02
 -0.16514618E-02  0.27558812E-02  0.30087187E-02
  0.20858679E-02 -0.67841020E-03 -0.23470795E-04
 -0.39659325E-02 -0.18162285E-03 -0.44959442E-04
  0.40652040E-03 -0.51276073E-03  0.27392591E-03
  0.10496649E-02  0.10398043E-02 -0.15878000E-02
  0.31356349E-03  0.15059009E-04  0.58453288E-03
 -0.16702735E-02 -0.18908826E-02 -0.20697262E-02
 -0.44591821E-02  0.22049483E-02 -0.23674629E-02
 -0.21716933E-02 -0.23001381E-02  0.85702363E-03
 -0.89307367E-03  0.43330651E-03 -0.14947474E-03
  0.20003733E-03  0.44832451E-02  0.13658681E-02
  0.33669723E-02  0.14356242E-02  0.17082991E-04
 -0.20728300E-02 -0.22245131E-02 -0.15914339E-02
 -0.80409851E-03  0.68987616E-03 -0.72616736E-03
 -0.29493802E-03  0.18208701E-02  0.24379057E-02
  0.14211363E-02 -0.22549693E-04 -0.23976329E-02
  0.32988696E-02  0.14448070E-02  0.10177572E-02
  0.29077285E-02 -0.10066839E-03 -0.19455570E-04
  0.41502111E-03 -0.65414379E-03  0.57694450E-03
  0.65514207E-03 -0.54734925E-03 -0.36801363E-03
 -0.14979064E-02  0.15120336E-02  0.22506072E-02
  0.68827979E-03 -0.19896238E-03 -0.56000458E-03
  0.14377730E-02 -0.55454103E-03 -0.36792817E-02
  0.32803213E-02  0.34112128E-02 -0.26520725E-03
 -0.66671694E-03  0.56194516E-03  0.85232886E-03
  0.20783716E-02  0.52007548E-03  0.25821317E-02
  0.27680620E-03 -0.44764070E-03 -0.18910954E-04
 -0.25646151E-02 -0.32085495E-03  0.23632456E-02
 -0.32311919E-02  0.31920774E-04 -0.35712088E-03
  0.18413949E-02 -0.13474855E-02  0.19186774E-02
  0.25830231E-02  0.43185010E-02  0.62740978E-03
 -0.17416276E-02 -0.37766796E-03 -0.26703271E-02
 -0.59252104E-03  0.15560074E-02  0.17886813E-02
 -0.88599447E-03  0.73210204E-03  0.19372828E-03
  0.47635467E-02 -0.20583442E-02 -0.34820721E-02
 -0.15344543E-02 -0.11083911E-02  0.81989528E-03
 -0.47417392E-03 -0.47264836E-03 -0.13284081E-02
  0.16370495E-02 -0.41126532E-03 -0.10082936E-02
  0.14082516E-02  0.31848211E-02 -0.18450776E-02
 -0.19405828E-02 -0.11072011E-02  0.12401913E-02
  0.65034608E-03  0.92370015E-03 -0.23249655E-02
 -0.26355912E-02 -0.16521641E-02 -0.74571158E-03
 -0.16904355E-02 -0.65004405E-03 -0.11904813E-02
  0.30437620E-02 -0.15894557E-02  0.78889490E-03
 -0.53336408E-03  0.19958422E-03 -0.25095087E-02
 -0.26474531E-03  0.62209613E-03 -0.33960374E-02
 -0.12880720E-02 -0.19552071E-02 -0.40695973E-03
  0.17857928E-02 -0.20987081E-02 -0.12913632E-02
  0.21405432E-02 -0.44236152E-03  0.31500400E-02
  0.11578090E-02  0.59003999E-04 -0.72736585E-03
 -0.11089536E-02 -0.12277340E-02  0.18235905E-02
 -0.33873220E-02  0.11226218E-02 -0.36258439E-02
 -0.17021199E-03 -0.92148150E-03 -0.19477755E-02
  0.21554379E-02 -0.16417389E-02 -0.94982278E-03
  0.87860182E-03  0.15032439E-02 -0.42375006E-03
 -0.35760828E-02 -0.92817390E-04  0.10640160E-02
  0.28976705E-02 -0.98033045E-04  0.34389015E-02
 -0.37141608E-03 -0.26909524E-02 -0.12333719E-02
 -0.65965421E-03 -0.32935965E-03  0.21057526E-02
 -0.28109076E-03 -0.49319059E-03  0.13799600E-02
 -0.30429289E-03 -0.39616979E-03  0.33263969E-02
  0.97346153E-03 -0.14751489E-02 -0.10491357E-02
 -0.61182579E-03  0.54782967E-03  0.25259707E-03
  0.64194664E-03  0.84389080E-04 -0.20016900E-03
 -0.45460332E-03 -0.49568890E-03  0.68605296E-03
 -0.23923505E-02 -0.43433101E-03  0.14245521E-02
  0.11102384E-02  0.87742133E-03 -0.34628175E-03
  0.15213202E-02  0.37207905E-03  0.21278625E-02
 -0.31558315E-03  0.14095803E-02 -0.17833640E-02
  0.67466705E-05 -0.30500392E-02 -0.11718391E-02
 -0.10641736E-02 -0.14197928E-02  0.55585432E-04
  0.20104036E-02  0.15302216E-03 -0.41751242E-03
  0.48705575E-02  0.28739990E-02 -0.56290350E-03
  0.17839211E-02  0.15136697E-02  0.10835465E-02
 -0.25826865E-02 -0.45181574E-03 -0.64523164E-03
 -0.46490203E-03  0.69518054E-03  0.21271465E-02
  0.14423997E-02 -0.31686619E-02  0.20287573E-04
  0.24715735E-02  0.39137950E-02 -0.66272961E-03
  0.11831582E-03  0.42258785E-03 -0.12541019E-03
 -0.11604287E-04 -0.14234208E-02 -0.43831472E-04
 -0.12587870E-02 -0.27433015E-02  0.10880876E-02
  0.36467324E-02 -0.26330791E-03  0.10324888E-02
 -0.10010053E-02 -0.56791924E-03 -0.22083933E-02
 -0.32341555E-02 -0.11527485E-02  0.17228533E-02
 -0.45016384E-02  0.42050655E-02 -0.64341806E-04
  0.12774723E-03 -0.11939023E-02 -0.10451631E-02
 -0.10513909E-02  0.35798778E-03  0.21071717E-02
 -0.94474935E-03  0.86670230E-03 -0.10375067E-02
 -0.72385015E-03 -0.42823176E-03  0.47105938E-03
 -0.21414048E-02 -0.13886194E-02  0.81483790E-03
 -0.12894148E-02  0.48374299E-03  0.20454401E-02
  0.22071389E-03 -0.35270766E-04  0.27530285E-02
  0.14399776E-02  0.29573543E-02 -0.21206662E-03
 -0.18334005E-02  0.29492990E-02 -0.11141592E-02
  0.80577668E-02  0.47677877E-02 -0.21605338E-03
  0.33435948E-02  0.31300920E-03  0.13169220E-02
 -0.47790249E-03  0.12839210E-02  0.55682761E-03
  0.74389097E-03  0.60327778E-03  0.10569889E-02
 -0.35340628E-02 -0.10008041E-02  0.57610953E-03
 -0.29794986E-03  0.43722699E-03 -0.18562673E-02
 -0.10008660E-02 -0.59606847E-04 -0.23588728E-02
 -0.19636479E-04 -0.16359263E-02 -0.19325433E-03
 -0.10903709E-02  0.51394619E-03  0.17674603E-02
 -0.28914854E-02 -0.13326828E-02 -0.16829766E-02
  0.26865562E-02 -0.11261080E-02 -0.23428489E-02
  0.25366441E-04  0.16971489E-02 -0.58836111E-02
  0.14687437E-02 -0.29519481E-02 -0.10709777E-02
  0.13583797E-03 -0.14465357E-02  0.85449767E-03
  0.52740339E-03 -0.18848981E-02  0.13831835E-03
 -0.20479702E-04 -0.28103004E-02  0.22197992E-02
  0.14849079E-02  0.72977646E-03  0.25484587E-02
 -0.16685210E-02  0.29481335E-02 -0.86445480E-03
  0.14702636E-03  0.16936033E-02 -0.13789283E-03
  0.10660435E-02 -0.11297843E-02  0.11156909E-02
  0.23337716E-02  0.12342376E-02  0.39659219E-03
  0.52864629E-02 -0.15192540E-02  0.30166284E-02
 -0.16400584E-03  0.22667667E-02 -0.15680078E-02
  0.25980782E-03  0.30441322E-02  0.30146860E-03
 -0.11672289E-02 -0.18403102E-02 -0.94799189E-03
 -0.27672424E-02 -0.86022305E-03  0.39021177E-02
  0.16526662E-02 -0.13169973E-02 -0.19257914E-02
  0.26298106E-03  0.37534877E-02 -0.29952938E-03
 -0.54809749E-03 -0.63737344E-03 -0.11224900E-03
  0.26801988E-03 -0.58458093E-03  0.42073815E-03
 -0.28835101E-02 -0.11909231E-02 -0.87792129E-03
 -0.28224067E-03  0.15913152E-02 -0.12050107E-02
 -0.14782573E-02 -0.11478378E-02 -0.66766200E-03
  0.60822129E-04  0.32596054E-02 -0.10590592E-04
 -0.10819792E-02  0.25081868E-02 -0.30247584E-02
 -0.40254332E-02 -0.24625287E-02 -0.14600083E-03
  0.18836878E-02  0.19241990E-03  0.39814601E-03
 -0.93763953E-03 -0.99930771E-03  0.19564536E-02
  0.12157655E-02 -0.20245490E-03  0.14642971E-02
 -0.11523326E-02 -0.23344110E-02  0.14897215E-03
 -0.14436479E-02  0.29436925E-02 -0.28091949E-02
  0.20369511E-02 -0.43722412E-03 -0.43122272E-02
 -0.16434062E-02 -0.14297241E-02 -0.16759469E-02
 -0.46986262E-03 -0.35152295E-03 -0.14461575E-02
  0.11377946E-02  0.75857967E-03 -0.41994997E-03
  0.83761886E-03  0.36809889E-02  0.87939135E-03
 -0.33129896E-03  0.10022403E-02 -0.19126209E-02
  0.18563094E-02  0.17796164E-02 -0.79546561E-03
  0.49477135E-04  0.44181868E-03 -0.24709322E-02
  0.78930153E-03 -0.14722781E-02 -0.58120654E-04
  0.14270708E-02  0.18511142E-02  0.57151860E-03
  0.68760483E-03 -0.42025221E-02  0.10702329E-02
  0.27727625E-03 -0.34321486E-02 -0.30808328E-02
 -0.16036085E-02 -0.14627575E-02  0.23882369E-02
 -0.97424012E-03 -0.36859815E-03 -0.10500989E-02
 -0.12514093E-02 -0.98479412E-03  0.31668257E-02
 -0.21572390E-02  0.54282897E-02  0.97180764E-03
 -0.14300670E-02  0.11597308E-02 -0.26487646E-02
 -0.39843513E-03  0.98709042E-03  0.47823641E-03
  0.12854234E-02 -0.16503211E-02  0.57318602E-03
  0.36035257E-02 -0.44404371E-03  0.60781028E-03
 -0.94425099E-03  0.35432567E-02 -0.33809866E-02
 -0.66809234E-03 -0.35048953E-04 -0.16144240E-02
  0.38183646E-03 -0.21504480E-02 -0.95017974E-03
 -0.94943233E-03 -0.15282980E-02 -0.17972484E-02
 -0.52487493E-03 -0.24253497E-02  0.21285368E-02
  0.13498278E-02  0.11071993E-02  0.19879613E-02
 -0.72214829E-03  0.28316648E-03 -0.54207833E-03
  0.96041077E-03  0.18685839E-03  0.35812510E-03
  0.38429848E-04  0.16611440E-02 -0.26012188E-02
  0.17704716E-02 -0.11433173E-02  0.19770626E-02
 -0.97325383E-03  0.25797900E-02  0.96540865E-03
 -0.32360913E-02  0.13961077E-02  0.22603218E-02
  0.76465479E-03 -0.12078044E-02  0.36488108E-03
 -0.51378047E-03  0.12700710E-03  0.76787704E-03
  0.65969065E-03 -0.10792085E-02  0.10866925E-02
 -0.11245940E-02  0.48738890E-03 -0.19427208E-02
 -0.27023013E-03  0.15149502E-03  0.23331625E-02
 -0.22976613E-04  0.30373249E-02 -0.79706674E-03
  0.10520389E-02 -0.16622208E-03  0.18201827E-02
 -0.13478435E-02  0.33330421E-02 -0.20497207E-02
 -0.13477215E-02  0.62959728E-03 -0.15258742E-02
 -0.54807959E-03 -0.28580092E-03  0.41869412E-03
  0.24581270E-02 -0.88665010E-03  0.72979522E-04