Amorphous Sb2Se3                        
   1.00000000000000     
    20.9867606951059784    0.0000000000000000    0.0000000000000000
     0.0000000000000000   20.9867606951059784    0.0000000000000000
     0.0000000000000000    0.0000000000000000   20.9867606951059784
   Sb   Se
   120   180
Direct
  0.2452373811322772  0.6160801381744676  0.1709963159574102
  0.1672654960960003  0.5058652558094181  0.4362806022711680
  0.4975016316652017  0.9205901828394261  0.2669404797190680
  0.6103349076592508  0.2770517860808610  0.0327767041472953
  0.2950456818690625  0.7580258223505112  0.5456242437449887
  0.7247601497247942  0.8916849620107357  0.3381410236645337
  0.6332008962460662  0.4781022357319813  0.3174036215865286
  0.0419016266462222  0.8193298729891509  0.2478918947340389
  0.9322731743874755  0.9868455180312026  0.6294607133260328
  0.4553972808101605  0.7422799570293108  0.1143533602024718
  0.9156605977003025  0.5326419567870673  0.3279214592527850
  0.5443846027157946  0.5202199377430929  0.5102249549524700
  0.7920872547100686  0.9496375812097355  0.7522736929283411
  0.7033611117916649  0.0452989712610972  0.2525712890105822
  0.5009126908384758  0.5229345693175134  0.2942962462318519
  0.2972538813750489  0.2832021831867593  0.8798297971484530
  0.9003875210133501  0.6322327446103841  0.5119640283340985
  0.9890551596467958  0.8868067612663211  0.7878045054961902
  0.5523380754299509  0.6599231783887376  0.2640701410930433
  0.5217340411495286  0.3608139242558792  0.1471802663956225
  0.6884149231017744  0.3423277177594954  0.8420099217542045
  0.6491675811051465  0.4867457755495224  0.9301481834127543
  0.2696104040625258  0.5595194973356143  0.8796625650139802
  0.9921121772529276  0.3088836840970188  0.1175762880007127
  0.7811401490787873  0.4730150792851333  0.9873159936948781
  0.6582851516949191  0.0841753181009395  0.6541707276059725
  0.6024877739064252  0.8547583920607735  0.4360608163680837
  0.4562017087227019  0.3560086377364797  0.9151877455961852
  0.3621505280396704  0.3628540126262436  0.5146504939862666
  0.7339279259985645  0.1620097060769226  0.1223780312503919
  0.9257498557280570  0.8026514454537832  0.9535421228431886
  0.7706752939244268  0.3509040777174022  0.1497434633449828
  0.7148619844260509  0.4590343203648359  0.5393501722001375
  0.3312178725998507  0.8199913187711942  0.2366919666438605
  0.0736371388888841  0.8797302975515606  0.5260784352582277
  0.4452636381143478  0.5389549757883003  0.1409631616612756
  0.7643126419033024  0.6329890640680773  0.3658280614199612
  0.0333265539195509  0.4884782228349067  0.1112276820648290
  0.7087419568336557  0.2766077749934226  0.5511456299515416
  0.6482629072436552  0.0452265672120049  0.5116577219737266
  0.5604952581704907  0.9774613734342879  0.8956696369747732
  0.4494568240698982  0.5776452202276872  0.4176115747000892
  0.6194145136119715  0.8359777942269275  0.7963600930961761
  0.0365865409638388  0.2967583721613920  0.6304089383085838
  0.8590535679178473  0.2294483007233481  0.0077213659259456
  0.1050516491194884  0.3776774501543798  0.3741213895516537
  0.8853878471849370  0.2164747718065243  0.5928161912034327
  0.3325202650618309  0.0170930797059938  0.2442745100158348
  0.0131050041534380  0.6944020478946129  0.3965675370231381
  0.0151780328071069  0.6368117560678925  0.7773711589264565
  0.3242318283514791  0.6403722779263106  0.6766206010393390
  0.2116656409038811  0.2122525347155033  0.7207444879035307
  0.9761217265783557  0.4843904260136185  0.6566614083113791
  0.5647397641239920  0.3254044991884726  0.4690537175904481
  0.0707779419722385  0.1367000286152589  0.0189011124055440
  0.8603719500374325  0.7450372034133395  0.7696119203283160
  0.9857720760637037  0.2721330306292842  0.9827653075237563
  0.7626450172168333  0.0017920461175720  0.0341690741885756
  0.0541120169164699  0.6477740041989080  0.0116225751387447
  0.5710760924706264  0.2435282142782782  0.6255652146662669
  0.9787236568519972  0.7906361243929894  0.6012966198931267
  0.6426785621159041  0.4159381540811822  0.7227577920383510
  0.0722620715081916  0.9013342782820644  0.0019577410930154
  0.1813333612303367  0.8301122347097092  0.6973960981805689
  0.6425182103135754  0.6186164219750694  0.8978769684617944
  0.1636828164722957  0.7695082644676461  0.0915545466847334
  0.4888445135389219  0.4546121398786767  0.6832149634986990
  0.5621979347640078  0.0112200813118619  0.3557573489234116
  0.2772010658835811  0.1185987948710050  0.5725347546392427
  0.4992865216182523  0.7354967745540577  0.7538097640490449
  0.6873436812542408  0.2089899087115441  0.9346337153967568
  0.4838918728737767  0.1916368795463796  0.3546174740756101
  0.3147050522017594  0.8544160705983046  0.0002272683496045
  0.1330015168965559  0.4722953491098281  0.8182898568390868
  0.1962352369396356  0.9997626818267165  0.8809118822574078
  0.2847661216418516  0.3693836869581517  0.0270144715968570
  0.1882945285061481  0.0815525312380174  0.1361634586187819
  0.6379263682932788  0.9472834587892081  0.6691547774273090
  0.3788909951159738  0.1073820848514870  0.8392518822293340
  0.1214832752128103  0.9557019573401533  0.3617354473285630
  0.3386536695838984  0.6742288305862800  0.4291454243448101
  0.8342217284767059  0.3626660326077129  0.3447417130652468
  0.5326405498144311  0.1253649824964427  0.9502456199765419
  0.2747786799963308  0.5587222711963662  0.0427540018864718
  0.8628314752640449  0.5216097230427295  0.1514966698174263
  0.7121684110478341  0.7166060267618803  0.5170865797599191
  0.6764502624154787  0.2340245707076747  0.3443777768853735
  0.8318095976170099  0.1745625687050421  0.4176893568034430
  0.9905015958163901  0.1148825778142566  0.1893354576755328
  0.9467077741650769  0.3879228535477353  0.5185956850140130
  0.5825164025575162  0.8101269371828508  0.9759243008292415
  0.3776080327863198  0.2941977140765886  0.6984524924336455
  0.3640972663285353  0.9267839097672450  0.7228435707054075
  0.6508828125163859  0.7738996124221700  0.6374162978356921
  0.0579433278295483  0.1173205300236049  0.6633505486576539
  0.9125634518284684  0.3572877947076805  0.8259728815419294
  0.9101462835922121  0.8833327506518316  0.1531916983588033
  0.2310663840446239  0.2158772693493063  0.4088346077455398
  0.8102943636861326  0.9374248198561261  0.5002365952407075
  0.9160854082830738  0.0532279795730801  0.9403185740948032
  0.0596823542745497  0.0702009984493799  0.8009854143000297
  0.2283457471339645  0.8398774734450356  0.4136919655696616
  0.1076016198297580  0.1201747387980916  0.5098517713730928
  0.6713539682693792  0.5554982276600597  0.6369848763322210
  0.7514187880597945  0.8415961522865274  0.2031398699137341
  0.4883548679583924  0.0202757429734675  0.5770058978736685
  0.3367785221051705  0.2737587703741795  0.2412617240117498
  0.8224782548953158  0.1260733162289114  0.7869604606439253
  0.1394277121303489  0.6490181284726120  0.6341911846936981
  0.5465008934178144  0.5563623852494359  0.7635762181908703
  0.3988033663396493  0.0001410683668510  0.0391933280462951
  0.4779038014252279  0.1624310346871027  0.4924666526307391
  0.9915698839249103  0.0763682865745636  0.3811698634231746
  0.2916981957190998  0.4743874310547866  0.2868593085350000
  0.1595034030381157  0.3816721189016405  0.2057658573161163
  0.4403753076462067  0.7696807557145675  0.4058791263893298
  0.7062708323317963  0.2431776643990631  0.7310475065670445
  0.1723108255564227  0.4465189971088392  0.5955826663851980
  0.1443279336070873  0.6711953187747497  0.2855427369091359
  0.3805988726228478  0.2033846590043993  0.0851070314602609
  0.6565351794678094  0.5439263446923874  0.4574419009898634
  0.5037743667187300  0.4322087823656631  0.4295509458777786
  0.0638296969423919  0.2067887246388054  0.1388128130293467
  0.4380413075749701  0.2054063345817667  0.1977168974486290
  0.8926734914062919  0.1162778734402110  0.0580191599274826
  0.4900179814902188  0.9182033957720677  0.4752678391025853
  0.0142286356157797  0.6823139356796162  0.2697136964667024
  0.8379385993990880  0.2422070645788708  0.7392906142621882
  0.7393017470793808  0.3525823714906622  0.0067801759020654
  0.8931337294731563  0.1783121267363867  0.8747283881426995
  0.0774058828957820  0.5265273632635115  0.0035953628962488
  0.4283466183635554  0.8707634479412718  0.0857879264347616
  0.0586588813376423  0.4813781071981680  0.5369537522145293
  0.5569436531908352  0.2948775502403933  0.7344288779131745
  0.8086650628906824  0.9548722660170057  0.1815520731779756
  0.9665910330247698  0.9735510042583897  0.2458091041677690
  0.2940118676014407  0.3374765964203874  0.6159554870875965
  0.6878532820457863  0.7647788161942728  0.3601927429566771
  0.9362710324934156  0.9223943001443260  0.0121565734711098
  0.1850270204303115  0.0949516686266207  0.6785081539633353
  0.7419867223100240  0.3635197107545167  0.6554156325554601
  0.3339790419856357  0.1693924538694347  0.6923516986454032
  0.6702363845869073  0.7825182101165353  0.8930005446382552
  0.0186503775013378  0.7651234057002014  0.7222310910831098
  0.1007784071974527  0.5466213423352713  0.6998307099340337
  0.7662625096160767  0.1658696259007186  0.5879987845891534
  0.9584505520219722  0.4134951281578907  0.3895457287000497
  0.3390454654730917  0.8543421740700694  0.4654330354234801
  0.6588267016997165  0.2601347784929260  0.1540741407441502
  0.3563347713147209  0.5834857728165446  0.2329887391269025
  0.5312407048020660  0.6286212976619225  0.1327204823714681
  0.2933374700481863  0.0197828290806754  0.7747669354379099
  0.2214652876022356  0.7019140048914352  0.7250044230385768
  0.1512390123833569  0.5953269627526296  0.8640193605084860
  0.5681499721978298  0.2401185125038126  0.8940001004667337
  0.3914495086215695  0.5939432160916738  0.0317019820729314
  0.3529689774267197  0.1026215445232523  0.3321704660907230
  0.5318576639916728  0.9951579925646783  0.0210645398872558
  0.6463224342766978  0.7407663204000698  0.0687185146331259
  0.2806650835976399  0.8909100900144011  0.6343284824530926
  0.4031810076362845  0.6872517563032545  0.5886429982290124
  0.7253588784605114  0.3356425511584646  0.2775878555498323
  0.3443165844170295  0.1851360463106033  0.4917546945391251
  0.8257249233241311  0.6514578338659263  0.9373127252807407
  0.8626606367137910  0.7343408112269927  0.6170225631336379
  0.9172730796295880  0.1290305146996644  0.5022128307420815
  0.7640635960140258  0.6280211293394657  0.5864449213370548
  0.8583149551154250  0.6412613698113461  0.2855130750377768
  0.4938157238121192  0.7198636516865093  0.9409955497806592
  0.0363300747635478  0.8089006125158846  0.0992012080946409
  0.3633176759044474  0.0134002811029390  0.5812132299218575
  0.5091553549059924  0.8078661586136349  0.5202370521489925
  0.6873297671199978  0.3379714736677002  0.4224202806477706
  0.0768713498795464  0.9463733027525834  0.2312960247748421
  0.1612380099287094  0.4190920745761062  0.9403927435203201
  0.9472703070375275  0.6384340115488456  0.0857023310457237
  0.5337197791994157  0.1277823159771074  0.6711172868183652
  0.2044528695717460  0.3883902022803980  0.4856568572412527
  0.2985958384187342  0.6966720264344417  0.9826971776047202
  0.0494858660100945  0.0438371650863516  0.1020099982617566
  0.9346241737333756  0.6894288719209385  0.8651182927797407
  0.3501903339579329  0.9597393746027407  0.9396089761884383
  0.2858000612363512  0.7441302663289733  0.3355486554371083
  0.3766505900879480  0.1144300595729320  0.9660914797082540
  0.6538261499123195  0.0979898730284745  0.9802991856521857
  0.1906123058272300  0.9517431444080344  0.1271326078465336
  0.7201154005668045  0.6385203384399389  0.9976765217835322
  0.3895133708676539  0.9117336803140859  0.3227291541434028
  0.2441540582969424  0.6030597445427333  0.5738272726056337
  0.2735159056387531  0.5467975672084862  0.3854769874632566
  0.8698707890432331  0.8563108184453156  0.8512128490089594
  0.3518467421090321  0.4208838324472310  0.9130837122628819
  0.3012285828705856  0.9213442009010819  0.1165595948876188
  0.5886729267749757  0.1067687667282229  0.2822508282795155
  0.4076424006442352  0.3302581109305578  0.0396711423682348
  0.7980064236561688  0.4098950023063921  0.8524772039330060
  0.8806942872002850  0.4113278730308849  0.2256496368986944
  0.8373752297354216  0.8934286656312693  0.3806995233706232
  0.5965896951417875  0.4989137097753584  0.0424599270031862
  0.1908474055101124  0.1409799473967013  0.0264780314496136
  0.1123807693458403  0.2397762410537823  0.3539837665292893
  0.5150012316902917  0.9315008738416495  0.6685611925787711
  0.0577436398981561  0.2267191526280570  0.7332682828445058
  0.2817229926993150  0.3432662460400948  0.7719616273654921
  0.6594344668779115  0.0554289063789639  0.1314109595614923
  0.3286798586842039  0.8294576126089410  0.8029920985539079
  0.4508375500117481  0.4092218803460241  0.3067443524200115
  0.7713987487528513  0.8688825922391956  0.9946582712322893
  0.4520503309653847  0.0454953199315469  0.4170715346223517
  0.1811910154404828  0.2195611296403968  0.5442572354551345
  0.6143190117615447  0.1644877732495900  0.4830957476885516
  0.3020247821160709  0.7310740895349213  0.1267230940824291
  0.5646157559991352  0.2807087688993022  0.3150125282081930
  0.6677311054230586  0.8864653118976378  0.5379781856150885
  0.1580563663362256  0.7962013395437424  0.5806568931111684
  0.4986440238926093  0.4363962195097386  0.0417427275548761
  0.9245440731789856  0.4843246174138258  0.7986758364573774
  0.6021556107269461  0.4482401657528570  0.1852081917036301
  0.7022032201105191  0.1395073311326840  0.8109252747851343
  0.9301706101939828  0.3522062266093968  0.6695648562108829
  0.0711881202470863  0.1024491272365751  0.2879910779841168
  0.3841029092853319  0.7782401990149950  0.7172820377029225
  0.8021828853752595  0.0122298063448909  0.8996992374188011
  0.4045168934292462  0.3980891763852554  0.2005129344649745
  0.7705110437549294  0.6686178762082235  0.7992889328100858
  0.1207199729415791  0.9638686516070791  0.7800117207951871
  0.0644950300043448  0.8394715104125652  0.3797823095423283
  0.1872277678234155  0.0980759643300928  0.4166002945949785
  0.8942043889954263  0.5846910609956311  0.0024895021325477
  0.5477938960233217  0.6219276441245611  0.9766308406914348
  0.5683525038497450  0.8093022899830729  0.1424019563540924
  0.4596981713093413  0.2784478289322365  0.5658971611041821
  0.4870210305161322  0.0529692749120798  0.8134645183172964
  0.1715912736063956  0.9556255259727564  0.4846665356384747
  0.0350559039478213  0.1962636393730648  0.4263794162131589
  0.0171372714304212  0.5231694722830298  0.8579327254993174
  0.7944053015512154  0.0190442498734669  0.6447185246101483
  0.7682778653691145  0.1503369231062877  0.2441932265189095
  0.6701598074983650  0.6843916323659229  0.7397375924763523
  0.1613190170199701  0.7855362687532548  0.2310116161143583
  0.1369047094636500  0.6899811981753672  0.4146191868072577
  0.0415273971627030  0.8130950459631805  0.9107007713716371
  0.6635901871197305  0.5940703846663311  0.2608762887326890
  0.4329902628156930  0.7465433301290076  0.2407755038601138
  0.6568684178245334  0.9605552647560458  0.7988993607639898
  0.0495498503112586  0.3872602812689436  0.2538767071225934
  0.8443228932587701  0.7152821564289908  0.4397665308970105
  0.1301260499681831  0.3669929283848106  0.6790939650504129
  0.8405181450156789  0.2988137893656599  0.5025393397876314
  0.2063024068185300  0.8862165244725446  0.9152753473057942
  0.3138369645380337  0.0890541515725687  0.1322420050781759
  0.8984793654686030  0.8800495821663716  0.6835571055362735
  0.4529293150396683  0.0177380419530024  0.1993603611223378
  0.5481169496590397  0.6903435506038846  0.6470743082489747
  0.5258389915700832  0.1808146120480956  0.0644398375809487
  0.8586989082296697  0.7927078877174480  0.2356785318809855
  0.2668582089351474  0.1692917867981123  0.2841819686616631
  0.8517518212114226  0.2552197141451629  0.1344689453763124
  0.1138656057855911  0.6567454580028738  0.1249064362120791
  0.8783782796819182  0.4818029036923690  0.5712356139563965
  0.2189992667182779  0.3514021863148429  0.3240294572048299
  0.1774541074564056  0.5082038480838875  0.2276911333720335
  0.2761886576961317  0.2663984964629833  0.1261467274131149
  0.2874445908595220  0.4553570744525217  0.1124262946362649
  0.9368455370006572  0.9400159214438943  0.5152675863889655
  0.8741398595253926  0.0822759441891989  0.3439208659427990
  0.9936350359707120  0.5733487231596399  0.4288839409477063
  0.1869937103088191  0.7405741757129576  0.9649539793346094
  0.1706395839130650  0.3155897206048266  0.8939684100912473
  0.9253403721971978  0.6092876144828026  0.6978288791635805
  0.5046456816230958  0.4427997836067377  0.8129734830955684
  0.9761980894996540  0.3914363176674627  0.9332921290825524
  0.6069354870059769  0.3966693652877780  0.5674173601200607
  0.9395087022942334  0.0206567059752771  0.7968872890692396
  0.0601819862419504  0.9550738021942138  0.6385140691505029
  0.2322627532813328  0.1789209992581320  0.8371091405452873
  0.7491343938740300  0.8301563354239363  0.7321181895875455
  0.4015695155748134  0.2856155494584485  0.3655107562780131
  0.6181107292428294  0.7767036558922271  0.2473834842406859
  0.5071688048536487  0.8655641238153535  0.8524291751978197
  0.4478445852229740  0.6259716120157819  0.7808967447035329
  0.2761473511962720  0.5226634618033614  0.7634998863541398
  0.4298125186429829  0.2575947415643824  0.8425230264310883
  0.7863131449003404  0.8083565856102837  0.5749383389602016
  0.2372881578785666  0.9312076232429334  0.3281525929478235
  0.7225661333391855  0.5193828497798449  0.7430521152677798
  0.0701833303123394  0.0189236581133088  0.9315180351358237
  0.8153875383340079  0.8093088214817357  0.0826600306379461
  0.6671964577127767  0.9169455083790368  0.0239489140615774
  0.7527083259984906  0.0468372033695417  0.4476980679750469
  0.3674535857163832  0.4888778788834642  0.6586690079792277
  0.8830964661841421  0.2456668722416779  0.3265024530832008
  0.5347208405591530  0.6759015130996531  0.4030143238962722
  0.7406292679831665  0.5156592972715259  0.1162201001996621
  0.0153022602107029  0.6899023495900849  0.5422214415658999
  0.9204481909909958  0.4405426429031039  0.0704983240750963
  0.8119568396396204  0.5171148532763468  0.3945480540306363
  0.0955268472585900  0.3821689744376684  0.0807312770794724
  0.4004397308403469  0.4779022364413734  0.5452163035318449
  0.3376985876141916  0.6640877908009770  0.8807097608718379
 
  0.00000000E+00  0.00000000E+00  0.00000000E+00
  0.00000000E+00  0.00000000E+00  0.00000000E+00
  0.00000000E+00  0.00000000E+00  0.00000000E+00
  0.00000000E+00  0.00000000E+00  0.00000000E+00
  0.00000000E+00  0.00000000E+00  0.00000000E+00
  0.00000000E+00  0.00000000E+00  0.00000000E+00
  0.00000000E+00  0.00000000E+00  0.00000000E+00
  0.00000000E+00  0.00000000E+00  0.00000000E+00
  0.00000000E+00  0.00000000E+00  0.00000000E+00
  0.00000000E+00  0.00000000E+00  0.00000000E+00
  0.00000000E+00  0.00000000E+00  0.00000000E+00
  0.00000000E+00  0.00000000E+00  0.00000000E+00
  0.00000000E+00  0.00000000E+00  0.00000000E+00
  0.00000000E+00  0.00000000E+00  0.00000000E+00
  0.00000000E+00  0.00000000E+00  0.00000000E+00
  0.00000000E+00  0.00000000E+00  0.00000000E+00
  0.00000000E+00  0.00000000E+00  0.00000000E+00
  0.00000000E+00  0.00000000E+00  0.00000000E+00
  0.00000000E+00  0.00000000E+00  0.00000000E+00
  0.00000000E+00  0.00000000E+00  0.00000000E+00
  0.00000000E+00  0.00000000E+00  0.00000000E+00
  0.00000000E+00  0.00000000E+00  0.00000000E+00
  0.00000000E+00  0.00000000E+00  0.00000000E+00
  0.00000000E+00  0.00000000E+00  0.00000000E+00
  0.00000000E+00  0.00000000E+00  0.00000000E+00
  0.00000000E+00  0.00000000E+00  0.00000000E+00
  0.00000000E+00  0.00000000E+00  0.00000000E+00
  0.00000000E+00  0.00000000E+00  0.00000000E+00
  0.00000000E+00  0.00000000E+00  0.00000000E+00
  0.00000000E+00  0.00000000E+00  0.00000000E+00
  0.00000000E+00  0.00000000E+00  0.00000000E+00
  0.00000000E+00  0.00000000E+00  0.00000000E+00
  0.00000000E+00  0.00000000E+00  0.00000000E+00
  0.00000000E+00  0.00000000E+00  0.00000000E+00
  0.00000000E+00  0.00000000E+00  0.00000000E+00
  0.00000000E+00  0.00000000E+00  0.00000000E+00
  0.00000000E+00  0.00000000E+00  0.00000000E+00
  0.00000000E+00  0.00000000E+00  0.00000000E+00
  0.00000000E+00  0.00000000E+00  0.00000000E+00
  0.00000000E+00  0.00000000E+00  0.00000000E+00
  0.00000000E+00  0.00000000E+00  0.00000000E+00
  0.00000000E+00  0.00000000E+00  0.00000000E+00
  0.00000000E+00  0.00000000E+00  0.00000000E+00
  0.00000000E+00  0.00000000E+00  0.00000000E+00
  0.00000000E+00  0.00000000E+00  0.00000000E+00
  0.00000000E+00  0.00000000E+00  0.00000000E+00
  0.00000000E+00  0.00000000E+00  0.00000000E+00
  0.00000000E+00  0.00000000E+00  0.00000000E+00
  0.00000000E+00  0.00000000E+00  0.00000000E+00
  0.00000000E+00  0.00000000E+00  0.00000000E+00
  0.00000000E+00  0.00000000E+00  0.00000000E+00
  0.00000000E+00  0.00000000E+00  0.00000000E+00
  0.00000000E+00  0.00000000E+00  0.00000000E+00
  0.00000000E+00  0.00000000E+00  0.00000000E+00
  0.00000000E+00  0.00000000E+00  0.00000000E+00
  0.00000000E+00  0.00000000E+00  0.00000000E+00
  0.00000000E+00  0.00000000E+00  0.00000000E+00
  0.00000000E+00  0.00000000E+00  0.00000000E+00
  0.00000000E+00  0.00000000E+00  0.00000000E+00
  0.00000000E+00  0.00000000E+00  0.00000000E+00
  0.00000000E+00  0.00000000E+00  0.00000000E+00
  0.00000000E+00  0.00000000E+00  0.00000000E+00
  0.00000000E+00  0.00000000E+00  0.00000000E+00
  0.00000000E+00  0.00000000E+00  0.00000000E+00
  0.00000000E+00  0.00000000E+00  0.00000000E+00
  0.00000000E+00  0.00000000E+00  0.00000000E+00
  0.00000000E+00  0.00000000E+00  0.00000000E+00
  0.00000000E+00  0.00000000E+00  0.00000000E+00
  0.00000000E+00  0.00000000E+00  0.00000000E+00
  0.00000000E+00  0.00000000E+00  0.00000000E+00
  0.00000000E+00  0.00000000E+00  0.00000000E+00
  0.00000000E+00  0.00000000E+00  0.00000000E+00
  0.00000000E+00  0.00000000E+00  0.00000000E+00
  0.00000000E+00  0.00000000E+00  0.00000000E+00
  0.00000000E+00  0.00000000E+00  0.00000000E+00
  0.00000000E+00  0.00000000E+00  0.00000000E+00
  0.00000000E+00  0.00000000E+00  0.00000000E+00
  0.00000000E+00  0.00000000E+00  0.00000000E+00
  0.00000000E+00  0.00000000E+00  0.00000000E+00
  0.00000000E+00  0.00000000E+00  0.00000000E+00
  0.00000000E+00  0.00000000E+00  0.00000000E+00
  0.00000000E+00  0.00000000E+00  0.00000000E+00
  0.00000000E+00  0.00000000E+00  0.00000000E+00
  0.00000000E+00  0.00000000E+00  0.00000000E+00
  0.00000000E+00  0.00000000E+00  0.00000000E+00
  0.00000000E+00  0.00000000E+00  0.00000000E+00
  0.00000000E+00  0.00000000E+00  0.00000000E+00
  0.00000000E+00  0.00000000E+00  0.00000000E+00
  0.00000000E+00  0.00000000E+00  0.00000000E+00
  0.00000000E+00  0.00000000E+00  0.00000000E+00
  0.00000000E+00  0.00000000E+00  0.00000000E+00
  0.00000000E+00  0.00000000E+00  0.00000000E+00
  0.00000000E+00  0.00000000E+00  0.00000000E+00
  0.00000000E+00  0.00000000E+00  0.00000000E+00
  0.00000000E+00  0.00000000E+00  0.00000000E+00
  0.00000000E+00  0.00000000E+00  0.00000000E+00
  0.00000000E+00  0.00000000E+00  0.00000000E+00
  0.00000000E+00  0.00000000E+00  0.00000000E+00
  0.00000000E+00  0.00000000E+00  0.00000000E+00
  0.00000000E+00  0.00000000E+00  0.00000000E+00
  0.00000000E+00  0.00000000E+00  0.00000000E+00
  0.00000000E+00  0.00000000E+00  0.00000000E+00
  0.00000000E+00  0.00000000E+00  0.00000000E+00
  0.00000000E+00  0.00000000E+00  0.00000000E+00
  0.00000000E+00  0.00000000E+00  0.00000000E+00
  0.00000000E+00  0.00000000E+00  0.00000000E+00
  0.00000000E+00  0.00000000E+00  0.00000000E+00
  0.00000000E+00  0.00000000E+00  0.00000000E+00
  0.00000000E+00  0.00000000E+00  0.00000000E+00
  0.00000000E+00  0.00000000E+00  0.00000000E+00
  0.00000000E+00  0.00000000E+00  0.00000000E+00
  0.00000000E+00  0.00000000E+00  0.00000000E+00
  0.00000000E+00  0.00000000E+00  0.00000000E+00
  0.00000000E+00  0.00000000E+00  0.00000000E+00
  0.00000000E+00  0.00000000E+00  0.00000000E+00
  0.00000000E+00  0.00000000E+00  0.00000000E+00
  0.00000000E+00  0.00000000E+00  0.00000000E+00
  0.00000000E+00  0.00000000E+00  0.00000000E+00
  0.00000000E+00  0.00000000E+00  0.00000000E+00
  0.00000000E+00  0.00000000E+00  0.00000000E+00
  0.00000000E+00  0.00000000E+00  0.00000000E+00
  0.00000000E+00  0.00000000E+00  0.00000000E+00
  0.00000000E+00  0.00000000E+00  0.00000000E+00
  0.00000000E+00  0.00000000E+00  0.00000000E+00
  0.00000000E+00  0.00000000E+00  0.00000000E+00
  0.00000000E+00  0.00000000E+00  0.00000000E+00
  0.00000000E+00  0.00000000E+00  0.00000000E+00
  0.00000000E+00  0.00000000E+00  0.00000000E+00
  0.00000000E+00  0.00000000E+00  0.00000000E+00
  0.00000000E+00  0.00000000E+00  0.00000000E+00
  0.00000000E+00  0.00000000E+00  0.00000000E+00
  0.00000000E+00  0.00000000E+00  0.00000000E+00
  0.00000000E+00  0.00000000E+00  0.00000000E+00
  0.00000000E+00  0.00000000E+00  0.00000000E+00
  0.00000000E+00  0.00000000E+00  0.00000000E+00
  0.00000000E+00  0.00000000E+00  0.00000000E+00
  0.00000000E+00  0.00000000E+00  0.00000000E+00
  0.00000000E+00  0.00000000E+00  0.00000000E+00
  0.00000000E+00  0.00000000E+00  0.00000000E+00
  0.00000000E+00  0.00000000E+00  0.00000000E+00
  0.00000000E+00  0.00000000E+00  0.00000000E+00
  0.00000000E+00  0.00000000E+00  0.00000000E+00
  0.00000000E+00  0.00000000E+00  0.00000000E+00
  0.00000000E+00  0.00000000E+00  0.00000000E+00
  0.00000000E+00  0.00000000E+00  0.00000000E+00
  0.00000000E+00  0.00000000E+00  0.00000000E+00
  0.00000000E+00  0.00000000E+00  0.00000000E+00
  0.00000000E+00  0.00000000E+00  0.00000000E+00
  0.00000000E+00  0.00000000E+00  0.00000000E+00
  0.00000000E+00  0.00000000E+00  0.00000000E+00
  0.00000000E+00  0.00000000E+00  0.00000000E+00
  0.00000000E+00  0.00000000E+00  0.00000000E+00
  0.00000000E+00  0.00000000E+00  0.00000000E+00
  0.00000000E+00  0.00000000E+00  0.00000000E+00
  0.00000000E+00  0.00000000E+00  0.00000000E+00
  0.00000000E+00  0.00000000E+00  0.00000000E+00
  0.00000000E+00  0.00000000E+00  0.00000000E+00
  0.00000000E+00  0.00000000E+00  0.00000000E+00
  0.00000000E+00  0.00000000E+00  0.00000000E+00
  0.00000000E+00  0.00000000E+00  0.00000000E+00
  0.00000000E+00  0.00000000E+00  0.00000000E+00
  0.00000000E+00  0.00000000E+00  0.00000000E+00
  0.00000000E+00  0.00000000E+00  0.00000000E+00
  0.00000000E+00  0.00000000E+00  0.00000000E+00
  0.00000000E+00  0.00000000E+00  0.00000000E+00
  0.00000000E+00  0.00000000E+00  0.00000000E+00
  0.00000000E+00  0.00000000E+00  0.00000000E+00
  0.00000000E+00  0.00000000E+00  0.00000000E+00
  0.00000000E+00  0.00000000E+00  0.00000000E+00
  0.00000000E+00  0.00000000E+00  0.00000000E+00
  0.00000000E+00  0.00000000E+00  0.00000000E+00
  0.00000000E+00  0.00000000E+00  0.00000000E+00
  0.00000000E+00  0.00000000E+00  0.00000000E+00
  0.00000000E+00  0.00000000E+00  0.00000000E+00
  0.00000000E+00  0.00000000E+00  0.00000000E+00
  0.00000000E+00  0.00000000E+00  0.00000000E+00
  0.00000000E+00  0.00000000E+00  0.00000000E+00
  0.00000000E+00  0.00000000E+00  0.00000000E+00
  0.00000000E+00  0.00000000E+00  0.00000000E+00
  0.00000000E+00  0.00000000E+00  0.00000000E+00
  0.00000000E+00  0.00000000E+00  0.00000000E+00
  0.00000000E+00  0.00000000E+00  0.00000000E+00
  0.00000000E+00  0.00000000E+00  0.00000000E+00
  0.00000000E+00  0.00000000E+00  0.00000000E+00
  0.00000000E+00  0.00000000E+00  0.00000000E+00
  0.00000000E+00  0.00000000E+00  0.00000000E+00
  0.00000000E+00  0.00000000E+00  0.00000000E+00
  0.00000000E+00  0.00000000E+00  0.00000000E+00
  0.00000000E+00  0.00000000E+00  0.00000000E+00
  0.00000000E+00  0.00000000E+00  0.00000000E+00
  0.00000000E+00  0.00000000E+00  0.00000000E+00
  0.00000000E+00  0.00000000E+00  0.00000000E+00
  0.00000000E+00  0.00000000E+00  0.00000000E+00
  0.00000000E+00  0.00000000E+00  0.00000000E+00
  0.00000000E+00  0.00000000E+00  0.00000000E+00
  0.00000000E+00  0.00000000E+00  0.00000000E+00
  0.00000000E+00  0.00000000E+00  0.00000000E+00
  0.00000000E+00  0.00000000E+00  0.00000000E+00
  0.00000000E+00  0.00000000E+00  0.00000000E+00
  0.00000000E+00  0.00000000E+00  0.00000000E+00
  0.00000000E+00  0.00000000E+00  0.00000000E+00
  0.00000000E+00  0.00000000E+00  0.00000000E+00
  0.00000000E+00  0.00000000E+00  0.00000000E+00
  0.00000000E+00  0.00000000E+00  0.00000000E+00
  0.00000000E+00  0.00000000E+00  0.00000000E+00
  0.00000000E+00  0.00000000E+00  0.00000000E+00
  0.00000000E+00  0.00000000E+00  0.00000000E+00
  0.00000000E+00  0.00000000E+00  0.00000000E+00
  0.00000000E+00  0.00000000E+00  0.00000000E+00
  0.00000000E+00  0.00000000E+00  0.00000000E+00
  0.00000000E+00  0.00000000E+00  0.00000000E+00
  0.00000000E+00  0.00000000E+00  0.00000000E+00
  0.00000000E+00  0.00000000E+00  0.00000000E+00
  0.00000000E+00  0.00000000E+00  0.00000000E+00
  0.00000000E+00  0.00000000E+00  0.00000000E+00
  0.00000000E+00  0.00000000E+00  0.00000000E+00
  0.00000000E+00  0.00000000E+00  0.00000000E+00
  0.00000000E+00  0.00000000E+00  0.00000000E+00
  0.00000000E+00  0.00000000E+00  0.00000000E+00
  0.00000000E+00  0.00000000E+00  0.00000000E+00
  0.00000000E+00  0.00000000E+00  0.00000000E+00
  0.00000000E+00  0.00000000E+00  0.00000000E+00
  0.00000000E+00  0.00000000E+00  0.00000000E+00
  0.00000000E+00  0.00000000E+00  0.00000000E+00
  0.00000000E+00  0.00000000E+00  0.00000000E+00
  0.00000000E+00  0.00000000E+00  0.00000000E+00
  0.00000000E+00  0.00000000E+00  0.00000000E+00
  0.00000000E+00  0.00000000E+00  0.00000000E+00
  0.00000000E+00  0.00000000E+00  0.00000000E+00
  0.00000000E+00  0.00000000E+00  0.00000000E+00
  0.00000000E+00  0.00000000E+00  0.00000000E+00
  0.00000000E+00  0.00000000E+00  0.00000000E+00