3D\Atomistic                            
   1.00000000000000     
    18.8173099491580764    0.0000000000000000    0.0000000000000000
     0.0000000000000000   18.8173099491580764    0.0000000000000000
     0.0000000000000000    0.0000000000000000   18.8173099491580764
   Sb
   216
Direct
  0.0780562151140324  0.9904237640586536  0.5472825611673209
  0.5195280126169379  0.7385222387619952  0.3548893664460351
  0.9443286168928765  0.9452395958349474  0.0406116951777481
  0.3044007379514453  0.3121887161717501  0.0447152398477609
  0.7976644459807445  0.9664549753220683  0.7459788200790882
  0.4458096126474173  0.0423453979493900  0.9722965133254911
  0.9257272692643028  0.1648559861739805  0.4593505218548938
  0.6822907343380790  0.3132890794453615  0.7735672588434125
  0.2703092964121597  0.7449832492055929  0.0519854729166198
  0.2722278631692268  0.9468135010931814  0.2028875528646538
  0.3971484986755920  0.8475126345832062  0.3695343595039673
  0.4618645758111872  0.3865612733935275  0.5087586348197807
  0.4868462169899301  0.9875128582284188  0.3968665665671331
  0.5443468206502966  0.9142209130424955  0.9907073243141045
  0.1054332778235108  0.2563736671226505  0.4311053774787921
  0.8561079597963086  0.2117530435530582  0.1027649800849473
  0.5164630528208972  0.7349168569533072  0.7493581801931338
  0.4971482674010731  0.2710206446722311  0.3209326670868618
  0.0685180292408658  0.8658591396644197  0.0911079800941513
  0.8021835602982393  0.1361327151885895  0.8074962264806956
  0.3199680210590403  0.1670862925479300  0.9947870941360653
  0.5986993716805800  0.7589734709001723  0.9051970480145742
  0.7674706000926572  0.8997019622627033  0.5818805120289244
  0.7835482925926490  0.0933629252532570  0.4631614067564438
  0.6478930654151339  0.8504045951981821  0.3306733512250837
  0.9926834556319997  0.4357033375863728  0.9169564188406841
  0.6136083707041338  0.5553626691508556  0.0605210842700496
  0.7728887370639591  0.5367521928196687  0.9026165009552228
  0.8881926613936572  0.9140430374280035  0.4166232351540760
  0.9147357211148275  0.3312431212940399  0.0120503855411681
  0.7618094553975053  0.7252510533495933  0.7259789660006769
  0.1052262171906020  0.4231327208849845  0.2690705327835936
  0.2255263724017298  0.3143781686239916  0.1897286285542835
  0.7592183795239775  0.6480957878737945  0.5819842007225765
  0.4280626836168914  0.4086156830648948  0.9895899017394563
  0.1754638990540267  0.1559606153463408  0.2236412940599022
  0.7138414460594990  0.6725372863600775  0.9980357382538311
  0.3422424652344501  0.1139901708636138  0.6470990950418456
  0.1321519480033244  0.6588983974817135  0.0727371921464159
  0.3031734197842807  0.5178147436531263  0.9456438580708416
  0.5717111122836132  0.8843115858509333  0.4740294582752168
  0.0180330237611496  0.3730347104016349  0.1374695035736055
  0.1274014081060182  0.2170549518571053  0.8720088139152382
  0.0896017513677951  0.7627442704052215  0.8924963678177047
  0.1680990777810188  0.4075412503892603  0.4134565911470303
  0.2588934240635529  0.5203416197369389  0.7663442410467740
  0.7804382673597624  0.4800224148918992  0.3975883119620311
  0.0086307280780356  0.7101534943255876  0.3557836215503739
  0.7077216884199093  0.8446814333384925  0.8382001425469987
  0.7923197238298447  0.8939683863356743  0.1910383400985503
  0.8805420323280756  0.5639085835034071  0.0152957123753002
  0.8780841137655432  0.8243973447589275  0.6878857715649400
  0.5579832613793481  0.6214689885515758  0.6028730946796910
  0.1705178034658961  0.6331720874603954  0.7161983249657629
  0.1024329002059117  0.7670787283746748  0.2273767932908603
  0.4733728831510374  0.2300030679358366  0.9294940138988186
  0.8457949569455495  0.7676845029371372  0.8993099358329046
  0.0085433953421909  0.7367704112704841  0.7335495434760974
  0.7896153227379161  0.0854424454349443  0.0333029757914341
  0.5154573582498733  0.6839240482771806  0.0506620297198645
  0.3772391036839979  0.4975174165310806  0.5794799724034624
  0.1800223085392093  0.6278996149511576  0.9108201925154964
  0.0158322148076023  0.8284464783883897  0.4596766923013427
  0.5308269367444447  0.7371527600343152  0.1985354795549289
  0.9670592765321636  0.5847591259591800  0.2266446861929967
  0.5596301109340494  0.9375144697154888  0.2409006469987056
  0.0246324771206829  0.5314112939850619  0.1005716949797002
  0.4160214813065513  0.0156918220166934  0.5310142562028758
  0.9487144575080414  0.7342740433641454  0.1407319101982986
  0.4107501609946074  0.1800605723135619  0.4357503513025057
  0.8154961442328816  0.6556853191780084  0.1250663708033941
  0.7110137807252037  0.2302585288292322  0.3836564585998196
  0.9153818804299824  0.0502879293689725  0.6930372346168944
  0.2818759653301989  0.9703359217492412  0.6933118159863300
  0.2635323828323160  0.9574001177094044  0.3625253159617199
  0.4581775892835067  0.2218702785969525  0.1180339561146545
  0.0844163592028401  0.8265643434197195  0.6333937877822201
  0.3915569921207848  0.0771844353585237  0.3092063256294008
  0.8592033690249161  0.3091831183865621  0.4189155123680676
  0.2711974794202148  0.3017436513273287  0.8608646536253856
  0.1399624054428109  0.8592002921025127  0.3619875802566798
  0.2065542625251287  0.0682174627502894  0.8780711960389587
  0.5546490200157769  0.1223837433865934  0.4346608209297307
  0.6346875951416977  0.7895071007978500  0.0746747423311754
  0.3215824343394924  0.9511410536763437  0.0263926495189840
  0.3326359441940731  0.2127961579147940  0.2334661668280514
  0.2283411927992822  0.6027489439382526  0.5792760341334112
  0.4030041193276427  0.6322050556145949  0.9100399366095516
  0.4870466162839538  0.4657922383402155  0.1249281469965709
  0.4187800803465385  0.8611562961937813  0.6819216876016746
  0.0918999300942133  0.2079092316667897  0.0228812082380801
  0.7989167222151028  0.6852452616792936  0.3455925743545529
  0.0140594923643892  0.9404474699365253  0.2709947319671734
  0.5272495749780596  0.9567229228955899  0.6167935962966851
  0.9488706206428732  0.1582752711139030  0.3063716370751240
  0.3399853738234753  0.0812401860215296  0.1322779407525642
  0.4215249770784152  0.2562837213444180  0.5873989276643790
  0.2626961050415196  0.2851737527492731  0.5528876574626919
  0.2584349332127627  0.7861808060818652  0.2025458168392347
  0.3960051379537335  0.4046010873379245  0.3594559571474834
  0.8550501208400920  0.4295985877863669  0.8241563408443171
  0.2573586202380873  0.1173802172871989  0.5174266973887603
  0.6548457781266633  0.6291025757640001  0.3863700963577028
  0.2986643189545185  0.3020052498323957  0.3938147469167266
  0.5236879698964673  0.1212904153342270  0.6878815737140347
  0.3880690553407418  0.6084978079000877  0.7563563755292275
  0.5529632490924978  0.5413468716305350  0.9139713893780199
  0.9036784432560228  0.3132487307719828  0.2533454768306586
  0.0026690901029746  0.5756795623251455  0.8573286846431027
  0.1563075554441007  0.4615871130569157  0.5806800267036376
  0.4014451966411788  0.6704086603457113  0.5827931585275620
  0.2415484521532610  0.7910745312765465  0.5366463521459650
  0.6799465367658795  0.4464454223538787  0.5352709433151706
  0.5444243102695677  0.3336555483833376  0.1922319368460920
  0.8848927670013694  0.7299753920917343  0.5333236909665298
  0.3484678180155994  0.4124517375725090  0.2011609926737923
  0.5777753963854271  0.3405094652404100  0.9839549896036575
  0.7966824710273951  0.1141288048350416  0.2637183800287554
  0.5599472494489338  0.1374917444740470  0.0177787443828115
  0.8339549415772206  0.8269539303638105  0.0470310182871668
  0.6414200184984491  0.9538257514751139  0.1114968747114787
  0.4277334269029047  0.8599149399473635  0.2029781782162878
  0.0335227960593621  0.0460917791252993  0.3847593494885875
  0.4576059625767959  0.2862469105173349  0.7462689502355978
  0.9148407078331801  0.8087426452730369  0.2742486703676929
  0.2301934350533476  0.5285689644918935  0.0872138916942868
  0.9057673795844854  0.6143272037111451  0.4328545137993309
  0.4972422147413518  0.5390939928616085  0.2660588924295405
  0.0895724660921559  0.6836096364127903  0.5518263641629492
  0.3120691436993627  0.9577862019722742  0.8618178094065759
  0.6242505279072085  0.0417483535913431  0.8813575968233610
  0.1717961519587452  0.8784647289216814  0.9713476703064114
  0.7345216515292536  0.9392902557937085  0.9596996150407385
  0.2271699554511493  0.9526030901969373  0.5330027730175468
  0.7941394004388945  0.3279044615364861  0.9201464115902395
  0.7636830397342985  0.9773336530911874  0.3259091193124312
  0.5489975853503710  0.5272313395470134  0.4676604099265371
  0.8837996188292676  0.9983857902344655  0.5521187586931199
  0.6443560674951497  0.7356808916824151  0.5270500612297480
  0.7044669707543206  0.7495088607725149  0.2297241945947902
  0.7711963003825560  0.8089909116241660  0.4488351849680022
  0.8157517284404442  0.5516061850425195  0.2440898937544972
  0.6734242275521274  0.0540071751056132  0.7239853448006832
  0.9663061036491261  0.4480169186328339  0.3301199210439024
  0.0778355926498632  0.9893560455352358  0.9173549553723540
  0.1824297883551850  0.0984440928460582  0.3540260166631271
  0.1845282221374905  0.1047768834035270  0.7117892754333148
  0.3588201249682882  0.1690017695222597  0.7996616003165067
  0.0003810837518121  0.1288460685105232  0.1435035580966558
  0.6083744216500527  0.3473109772101262  0.4096079567802307
  0.8432719815959724  0.2631340622313650  0.6931281626289093
  0.1749349656455672  0.8567220601844087  0.7621325750404795
  0.0002451229969558  0.3665360042395760  0.4540324400174522
  0.4447674485832311  0.0370882253789734  0.8066425346949794
  0.7526412905656211  0.1464903335465787  0.6144631532082738
  0.5745793530470548  0.2017579120004006  0.8097390170186491
  0.6111339763546517  0.1754647117582146  0.2820343841983750
  0.4983395811431202  0.0842930502270136  0.1848605500577410
  0.8632832775918151  0.6270597965004602  0.8060503929785935
  0.7975817034119087  0.3556672688402264  0.5647688862371942
  0.9694939743813266  0.1235426895907756  0.9842912754393730
  0.5678874213671824  0.4027775631369021  0.8347830278586253
  0.0743101348832594  0.3139274530670014  0.6123800687967403
  0.9735539397718243  0.1993056868266627  0.6175530046754031
  0.0767007097338452  0.2597074836807918  0.2802387002260582
  0.6678608277963217  0.2651585008478216  0.1160114281431629
  0.7534985491995116  0.2992684639449675  0.2384737873190108
  0.6877712590244036  0.1066350039797517  0.1428009521744230
  0.8004901605668995  0.5275399948077619  0.6954288892696883
  0.6756614816691258  0.4285094610635616  0.2950065147732986
  0.0695058049269108  0.5112836666832873  0.7109884724663194
  0.1605632606622917  0.3968433806955361  0.0542613171718854
  0.9714675547464507  0.6831485908825228  0.9636508528972740
  0.0700372202838074  0.5246272861138428  0.4514362120022323
  0.6431513754980535  0.5926464692861234  0.2293617036779120
  0.4766869449048008  0.4920819573911656  0.7026143364673245
  0.2903265422792231  0.7424471304834290  0.7200757662841447
  0.1276308912996462  0.5828413868934965  0.2467120590020237
  0.5922758414327776  0.3488528034091428  0.6428855111700164
  0.2814571061396348  0.4042244992307814  0.6701766485830725
  0.3878734544838791  0.6569825230761270  0.2390375730238389
  0.8882386118499670  0.4799255187443928  0.5642163266584383
  0.3857001477250578  0.4087190244579002  0.8204202731679144
  0.4539767693229416  0.8460321883586661  0.8428905729719535
  0.9040363371327291  0.9994628779097817  0.1882830079656929
  0.6691932087356151  0.0075660447202371  0.5173153648482732
  0.8333046058522996  0.4430229606536019  0.1268967548418079
  0.0660684458234562  0.3476524321149053  0.8060189104875468
  0.6434556612834329  0.6258312290496947  0.8246900228873345
  0.9524789710733645  0.8728633073421896  0.8399587302023015
  0.7146728450864914  0.4366943346978277  0.0209790137132741
  0.6370502238868649  0.8067918728486871  0.6676654228710537
  0.4022981919004379  0.8316118866681979  0.5268120180143051
  0.2872612014756765  0.5391998925042936  0.2655604476118228
  0.2831859148993214  0.5327696790148916  0.4241610205448001
  0.4290627818205191  0.8371553534256311  0.0437375755391854
  0.1604725272720519  0.6345815649768625  0.3900297694882216
  0.1215460674003927  0.9887914759648392  0.1694928271724916
  0.1158184598943904  0.1386228915683552  0.5802328737196504
  0.1913392186666760  0.0762154370826930  0.0352667988965356
  0.9753999019537554  0.6035089466125965  0.6194828175524800
  0.2018002130607983  0.2700011305924208  0.7139861558306834
  0.9230979200709671  0.2306977089150437  0.8495738676635799
  0.2906310390539543  0.7462317143325393  0.8827903639057774
  0.6416281222978413  0.5077716641109609  0.7042918880814862
  0.3698638503957655  0.6275321761550489  0.0815048629539142
  0.2678634010284590  0.7719559286478618  0.3855046707864260
  0.8540685580034381  0.0081414112932054  0.8942918979579252
  0.6052164803787570  0.2026816907771125  0.5813033633673540
  0.9583096156361710  0.3899333523244296  0.6797693903548480
  0.7168449477550030  0.1817222352966961  0.9274479556116952
  0.4092399980261321  0.6219540179029344  0.4256451869321508
  0.0165155079051607  0.1069972466771129  0.8140416200227735
  0.1726083531133098  0.4304483719018593  0.8862835380899430
  0.0501452193052593  0.9738045199484791  0.7056919762956677
  0.5825773233477869  0.9185326055468991  0.7826910377184924
 
  0.32931401E-02  0.11735895E-02 -0.43371045E-02
  0.13496392E-02  0.42666331E-03 -0.16699669E-02
 -0.57404743E-03 -0.26894216E-02 -0.13784406E-02
 -0.88463791E-03 -0.16228177E-02 -0.13049590E-04
 -0.19273879E-02  0.23768431E-02 -0.91070975E-03
 -0.28503257E-03 -0.72438705E-03 -0.15035889E-02
 -0.12700676E-02  0.15816718E-02 -0.16733473E-02
 -0.60031596E-03  0.15104749E-02  0.18577455E-02
  0.19278736E-02 -0.79699753E-03 -0.86579212E-03
 -0.10685798E-02  0.40979067E-03  0.10938328E-02
  0.10431992E-02  0.11740467E-02 -0.29232481E-03
 -0.23873350E-02 -0.50735019E-03 -0.28714114E-02
  0.93030161E-03  0.74585224E-03 -0.21217989E-02
 -0.27623919E-02  0.12246824E-02 -0.26889872E-02
 -0.74798079E-03  0.12279844E-02 -0.13028485E-02
 -0.53544310E-03 -0.79283895E-03 -0.71550986E-03
 -0.32166965E-02 -0.73166847E-03 -0.26040648E-02
 -0.83291577E-03 -0.12704823E-02 -0.10997400E-02
  0.12949391E-02 -0.23345188E-03  0.34594926E-02
  0.82564421E-03 -0.56902547E-03  0.77932200E-03
  0.29210031E-02 -0.18742454E-02 -0.43755585E-02
  0.42771809E-03 -0.19795542E-03  0.16912957E-02
 -0.13111457E-03  0.83121388E-03 -0.10889288E-02
  0.66091937E-03  0.69993964E-04 -0.47250571E-03
  0.20970526E-02  0.20729902E-02  0.11806137E-02
  0.12258020E-02 -0.20897226E-02 -0.16614058E-02
  0.12991458E-02 -0.12835665E-02 -0.15320985E-03
 -0.12556691E-02  0.57658862E-03  0.45935217E-03
  0.91800403E-03 -0.34658565E-03 -0.25315275E-02
  0.18605859E-02 -0.33449470E-02  0.12579806E-02
  0.40755885E-03 -0.15236797E-02  0.22012557E-03
  0.87531912E-03 -0.57432673E-04 -0.21165660E-02
 -0.14366700E-02  0.10760329E-02  0.20938395E-02
  0.13523176E-02  0.76349031E-03  0.17647275E-02
 -0.12599352E-03  0.12289570E-02  0.26679975E-02
  0.96338016E-03  0.16705610E-04  0.27944303E-02
 -0.15427284E-02 -0.99083265E-04 -0.27702267E-03
 -0.13038256E-02  0.39162523E-02  0.31019295E-02
 -0.10679195E-02 -0.17273176E-04 -0.65264062E-03
  0.49129345E-03 -0.12524638E-02  0.10948320E-02
  0.16362625E-02  0.22918715E-02 -0.42459730E-02
  0.78325001E-03  0.42556381E-04 -0.18206562E-03
 -0.55685764E-02 -0.17575152E-02  0.13065217E-02
 -0.22094403E-02  0.96693800E-03 -0.75402163E-03
 -0.24367004E-02 -0.22012887E-02 -0.10181795E-02
 -0.12298456E-02 -0.95996331E-04  0.21500790E-02
  0.24666833E-03  0.23484659E-02  0.20041934E-04
 -0.17371452E-02 -0.20027581E-02  0.10073616E-03
  0.10865013E-03 -0.11956474E-02 -0.11128975E-02
  0.90220972E-03 -0.17513161E-02 -0.64878310E-03
 -0.13125472E-02 -0.17985405E-02 -0.48108964E-03
 -0.34990776E-03 -0.49802377E-03  0.74440243E-03
 -0.38384193E-03 -0.43762998E-02  0.26525771E-03
 -0.13863177E-02 -0.19085258E-02  0.30737726E-02
 -0.84315400E-03 -0.11669272E-02  0.17243047E-02
  0.20993798E-02  0.23163370E-03 -0.75943944E-03
  0.11392246E-02  0.13717653E-02 -0.72786072E-04
  0.91916293E-03  0.13471082E-02 -0.92754176E-03
  0.11079472E-02  0.13382699E-02  0.12763019E-02
  0.19543396E-02 -0.12826877E-02 -0.18735885E-02
  0.17611694E-02 -0.12362162E-02 -0.31432832E-04
  0.30033443E-03  0.10816699E-02  0.15940711E-03
 -0.50155106E-03  0.10157215E-02 -0.25918608E-02
 -0.87907727E-03  0.35401740E-02  0.24707907E-03
 -0.25673273E-02 -0.20191593E-02  0.29640985E-02
 -0.23629906E-03 -0.10168724E-02 -0.14700599E-02
 -0.19489040E-02  0.87346115E-03 -0.14794691E-02
  0.15176191E-02  0.10377694E-02 -0.99976929E-03
  0.83787587E-04  0.14925233E-02  0.32073969E-02
  0.34795543E-02  0.18754263E-02 -0.35720727E-03
  0.34844639E-02 -0.59896165E-03 -0.28802233E-02
  0.11964580E-03 -0.11748389E-02  0.20507142E-02
  0.10613069E-02 -0.17769463E-02  0.36816897E-02
  0.53773471E-03 -0.94054017E-03 -0.18574548E-02
 -0.31898516E-02  0.53751433E-03 -0.83762386E-03
 -0.19429061E-02 -0.21130439E-02  0.10615761E-02
 -0.42715956E-03 -0.13160422E-02 -0.32449467E-04
 -0.16421182E-02  0.43550808E-03 -0.10960294E-03
  0.33355777E-03  0.28364735E-03 -0.18100007E-02
  0.13799941E-03 -0.23964842E-03 -0.43461282E-03
 -0.13558617E-02  0.15160223E-02  0.25553763E-02
 -0.17057991E-02  0.13682581E-02 -0.14719459E-02
  0.13332826E-02  0.79071535E-04  0.68966549E-03
  0.13200131E-03  0.15487772E-02  0.44864762E-03
  0.18151971E-02 -0.26074511E-02  0.16678665E-02
 -0.29482064E-03 -0.12827484E-03  0.71993983E-03
  0.13282849E-02  0.25975882E-02 -0.11575667E-02
 -0.22537512E-03 -0.16835014E-03  0.25262144E-02
 -0.27473769E-03 -0.61884606E-03  0.25796116E-02
  0.11500779E-02  0.19284921E-03  0.52823546E-04
  0.91284591E-03  0.81867663E-03 -0.12061216E-02
  0.13776239E-02 -0.17419267E-02 -0.30369762E-03
  0.10284553E-02  0.22899792E-03  0.12042710E-02
 -0.12120463E-02 -0.14536875E-02  0.36470454E-02
  0.13990116E-02  0.10673415E-02 -0.11413125E-02
 -0.66827154E-03  0.37101427E-03 -0.21080192E-02
  0.14328862E-02  0.33493233E-03 -0.38839172E-03
 -0.31211712E-02 -0.13033764E-02  0.46157202E-02
  0.29138599E-02  0.15315123E-02 -0.23517960E-02
  0.34855851E-03 -0.66246573E-03  0.54135079E-03
 -0.10119742E-02 -0.11421507E-02  0.59309085E-03
 -0.17803644E-02  0.30218062E-02  0.20294096E-02
 -0.10737264E-02  0.17378169E-02 -0.22716675E-02
  0.15614812E-02 -0.34616754E-03  0.39413397E-02
 -0.12812110E-03  0.21409889E-02  0.86112426E-03
  0.57813537E-03  0.10613398E-02 -0.80513457E-03
 -0.42905511E-02 -0.19915081E-03 -0.75102925E-03
 -0.77118830E-03  0.21668668E-02 -0.26951835E-02
 -0.95450836E-03 -0.14692228E-02 -0.16155415E-02
 -0.18889621E-02 -0.59327291E-03 -0.12172798E-02
  0.93742486E-04  0.24330594E-03 -0.14546037E-02
  0.29009571E-02  0.27976341E-02  0.10398368E-02
  0.63339605E-03  0.28782311E-02  0.13724782E-02
  0.12877600E-02 -0.99240614E-03  0.12843868E-02
  0.56519531E-03  0.85057976E-03  0.18194044E-02
 -0.50295792E-03  0.12368425E-02  0.18297934E-02
  0.83734320E-03 -0.16468723E-02 -0.32335235E-03
 -0.30093686E-02 -0.12132252E-02 -0.34842343E-03
 -0.99459501E-03  0.20378320E-02 -0.41184253E-03
  0.26373531E-02  0.18329177E-02 -0.39028260E-03
 -0.54895783E-03 -0.19653390E-02  0.29267615E-02
  0.27930987E-02 -0.23840614E-02 -0.20322476E-03
 -0.18541871E-02 -0.15800884E-02 -0.68632767E-03
 -0.27670234E-02  0.52810562E-03  0.62961647E-03
  0.27515389E-02  0.21682743E-02 -0.22183966E-02
 -0.13387441E-03  0.45724859E-03 -0.10037212E-02
 -0.12223696E-02 -0.12167422E-02 -0.22630607E-03
 -0.11376557E-02  0.48920759E-02  0.11946884E-02
  0.56012727E-03 -0.16144126E-02 -0.62607850E-03
 -0.62939286E-03 -0.40032276E-03  0.14459109E-02
 -0.31817157E-03  0.49062397E-03  0.15911878E-02
 -0.25260628E-02  0.12460777E-02 -0.58679385E-03
 -0.11281569E-03 -0.67812659E-05 -0.11350743E-02
  0.65739893E-03 -0.12660432E-02 -0.16625306E-02
  0.41756345E-03  0.13611668E-02  0.11859111E-02
 -0.13831120E-02  0.97127942E-03  0.27101523E-02
 -0.14470434E-02 -0.12044721E-02  0.49621389E-03
 -0.48117250E-03  0.28470692E-02 -0.13213276E-02
  0.60842814E-03 -0.28102259E-03 -0.24528192E-02
  0.24245284E-03 -0.56817136E-03 -0.24733226E-02
  0.16072316E-02 -0.11651579E-03  0.19423620E-02
  0.12353271E-03 -0.20689564E-02  0.17365256E-02
  0.19231909E-02  0.46415127E-04 -0.12705593E-03
 -0.18585426E-02  0.16299514E-02 -0.87801343E-03
 -0.12801732E-02  0.95414187E-04 -0.88644056E-03
  0.17889243E-02 -0.13572351E-02  0.31892474E-03
 -0.11718425E-02  0.56652396E-03 -0.33964846E-02
 -0.85671538E-03  0.59809170E-03  0.59540502E-03
 -0.20256610E-02 -0.14749705E-02 -0.16349075E-02
  0.27312950E-02 -0.81123169E-04  0.39138697E-02
 -0.16861082E-03  0.43721445E-03  0.17467448E-03
  0.41021178E-02  0.15771022E-02  0.14027906E-02
 -0.17161727E-02  0.46084774E-03  0.53137194E-03
  0.12108489E-02 -0.12592325E-02  0.90811224E-03
  0.16011462E-02 -0.46280500E-02  0.85371715E-03
  0.33173726E-02  0.99683706E-03 -0.75495191E-03
 -0.14294241E-03 -0.99681759E-03 -0.16243298E-02
  0.17598494E-02  0.13835904E-02  0.13698716E-02
  0.19520992E-02 -0.13836156E-02 -0.13519469E-02
  0.35182065E-03 -0.11604447E-02  0.88316218E-03
 -0.16000802E-02  0.28054033E-02  0.50003873E-04
  0.19746348E-02  0.79584721E-03 -0.51409877E-03
 -0.13318959E-02  0.22660932E-02  0.44516140E-02
  0.27614015E-02 -0.38423205E-03 -0.26760771E-02
 -0.55917506E-03  0.11669163E-02  0.67241991E-03
  0.23896247E-03  0.37048362E-04 -0.37575298E-03
 -0.21257502E-03  0.15969243E-02 -0.11885123E-02
  0.20980374E-03 -0.15564462E-02 -0.22708500E-02
  0.34448521E-03 -0.13217420E-02  0.46200660E-03
 -0.20377136E-02 -0.20059147E-02 -0.66117086E-03
 -0.24237924E-03  0.36415797E-03 -0.13739663E-02
 -0.16958146E-02 -0.41079378E-02 -0.17162910E-02
 -0.13066588E-02  0.11616747E-03 -0.31363637E-03
  0.11142912E-02  0.23137160E-02 -0.22338220E-02
 -0.15562094E-02 -0.12848618E-02  0.11053380E-02
  0.16537487E-02  0.20482355E-02  0.14631377E-02
 -0.14835904E-02 -0.88397648E-03  0.22987641E-02
  0.51501871E-03 -0.15247787E-02  0.29526372E-02
 -0.10528754E-02 -0.15537680E-02 -0.83642360E-03
 -0.25776417E-02  0.11496806E-02 -0.14321675E-02
  0.65108772E-03  0.19824318E-02  0.45229611E-03
 -0.11822042E-02 -0.40272722E-03  0.11381408E-02
  0.33856157E-02 -0.42104185E-03  0.16089462E-03
  0.16339828E-02  0.19218877E-02 -0.80661375E-03
 -0.25924859E-02  0.10780788E-03 -0.18265911E-04
 -0.29739312E-03  0.32387057E-03 -0.16313103E-02
 -0.19122070E-02  0.22016013E-03 -0.11281329E-02
  0.96474706E-03 -0.85651331E-04 -0.11879856E-02
 -0.12275592E-02  0.14744455E-02 -0.72210161E-03
 -0.95784371E-04 -0.26609724E-02 -0.17612327E-02
 -0.12932401E-02 -0.17332885E-02  0.13187995E-02
  0.37329587E-03  0.11019400E-02  0.12315805E-02
 -0.64885933E-04 -0.25034666E-02 -0.17509190E-02
  0.19301289E-02 -0.35260406E-02  0.78266849E-03
  0.10523279E-02  0.38107299E-02 -0.75686591E-03
  0.62643745E-03  0.13045708E-03 -0.23564435E-02
  0.16737940E-02  0.52427246E-03  0.12277440E-02
  0.92190565E-03  0.34951149E-03  0.11904215E-02
  0.33304005E-03  0.12138327E-02  0.23273477E-02
  0.15469821E-03 -0.26620852E-03  0.19849924E-02
 -0.28666733E-02 -0.83196140E-03 -0.48828911E-03
 -0.87261005E-03  0.17655713E-03  0.12319588E-02
 -0.23693278E-02  0.10685955E-02  0.50834421E-03
  0.50784557E-03 -0.36943618E-02 -0.15243335E-02
  0.34857441E-02 -0.29530289E-02 -0.46883185E-03
 -0.40876963E-03  0.27148822E-02 -0.11544888E-02
 -0.36376576E-02 -0.83583161E-03 -0.42703268E-03
  0.20829919E-02 -0.85523457E-03  0.31481666E-02
  0.27214200E-03 -0.96887345E-03  0.18791645E-02
 -0.56322038E-03  0.20568152E-02 -0.16653408E-02
  0.13040574E-02  0.56993333E-03 -0.13826265E-03
 -0.10889074E-02  0.36256620E-02  0.27628632E-02
  0.12186630E-02 -0.98605462E-03 -0.33706109E-02
 -0.65515234E-03 -0.84865185E-03  0.26065933E-02
  0.49308075E-03 -0.17121531E-02  0.13855041E-02
  0.20564866E-02 -0.12612792E-02 -0.21566599E-03
 
           1
   5.00000000000000     
  0.10000000E+01  0.00000000E+00  0.00000000E+00  0.00000000E+00
  0.78931245E-01  0.99073560E+00  0.54613014E+00
  0.51988663E+00  0.73863561E+00  0.35444563E+00
  0.94417609E+00  0.94452498E+00  0.40245426E-01
  0.30416568E+00  0.31175751E+00  0.44711772E-01
  0.79715231E+00  0.96708653E+00  0.74573683E+00
  0.44573388E+00  0.42152919E-01  0.97189699E+00
  0.92538980E+00  0.16527626E+00  0.45890589E+00
  0.68213122E+00  0.31369043E+00  0.77406089E+00
  0.27082156E+00  0.74477148E+00  0.51755421E-01
  0.27194393E+00  0.94692239E+00  0.20317820E+00
  0.39742569E+00  0.84782459E+00  0.36945669E+00
  0.46123023E+00  0.38642646E+00  0.50799566E+00
  0.48709341E+00  0.98771104E+00  0.39630278E+00
  0.54361282E+00  0.91454633E+00  0.98999283E+00
  0.10523453E+00  0.25669996E+00  0.43075919E+00
  0.85596569E+00  0.21154238E+00  0.10257486E+00
  0.51560834E+00  0.73472244E+00  0.74866625E+00
  0.49692695E+00  0.27068306E+00  0.32064045E+00
  0.68862111E-01  0.86579711E+00  0.92027212E-01
  0.80240294E+00  0.13598152E+00  0.80770330E+00
  0.32074417E+00  0.16658828E+00  0.99362445E+00
  0.59881302E+00  0.75892087E+00  0.90564645E+00
  0.76743576E+00  0.89992283E+00  0.58159117E+00
  0.78372391E+00  0.93381524E-01  0.46303586E+00
  0.64845028E+00  0.85095542E+00  0.33098706E+00
  0.99300917E+00  0.43514807E+00  0.91651496E+00
  0.61395357E+00  0.55502161E+00  0.60480374E-01
  0.77255509E+00  0.53690540E+00  0.90273856E+00
  0.88843659E+00  0.91395095E+00  0.41595058E+00
  0.91523010E+00  0.33035433E+00  0.12384647E-01
  0.76191775E+00  0.72484619E+00  0.72603746E+00
  0.10545880E+00  0.42311746E+00  0.26850813E+00
  0.22514463E+00  0.31466408E+00  0.19028499E+00
  0.75957771E+00  0.64829866E+00  0.58245311E+00
  0.42802921E+00  0.40894223E+00  0.99029882E+00
  0.17571988E+00  0.15596505E+00  0.22438381E+00
  0.71343152E+00  0.67251096E+00  0.99796213E+00
  0.34189602E+00  0.11503077E+00  0.64792332E+00
  0.13186819E+00  0.65889381E+00  0.72563777E-01
  0.30330396E+00  0.51748195E+00  0.94593477E+00
  0.57214589E+00  0.88492057E+00  0.47290125E+00
  0.18241143E-01  0.37304602E+00  0.13742113E+00
  0.12592177E+00  0.21658796E+00  0.87235597E+00
  0.89014675E-01  0.76300120E+00  0.89229601E+00
  0.16745162E+00  0.40695634E+00  0.41318605E+00
  0.25856664E+00  0.52031611E+00  0.76691554E+00
  0.78050381E+00  0.48064643E+00  0.39759364E+00
  0.81691464E-02  0.70962134E+00  0.35581039E+00
  0.70775056E+00  0.84436373E+00  0.83790443E+00
  0.79255945E+00  0.89350304E+00  0.19086595E+00
  0.88019327E+00  0.56343069E+00  0.15167881E-01
  0.87799114E+00  0.82426501E+00  0.68808357E+00
  0.55788127E+00  0.62030615E+00  0.60294358E+00
  0.17014944E+00  0.63266497E+00  0.71701507E+00
  0.10220886E+00  0.76676866E+00  0.22783496E+00
  0.47393072E+00  0.23006462E+00  0.92929222E+00
  0.84609766E+00  0.76804900E+00  0.89929060E+00
  0.87876287E-02  0.73712836E+00  0.73330308E+00
  0.78990972E+00  0.85798041E-01  0.33642106E-01
  0.51597665E+00  0.68358322E+00  0.50164193E-01
  0.37770707E+00  0.49718894E+00  0.57947162E+00
  0.18010211E+00  0.62818703E+00  0.91086255E+00
  0.15698946E-01  0.82871637E+00  0.45898800E+00
  0.53059335E+00  0.73809343E+00  0.19860113E+00
  0.96637710E+00  0.58422261E+00  0.22743229E+00
  0.55956732E+00  0.93724427E+00  0.24051003E+00
  0.24114628E-01  0.53164338E+00  0.10017858E+00
  0.41642473E+00  0.15967571E-01  0.53074860E+00
  0.94873672E+00  0.73467063E+00  0.14158416E+00
  0.41167472E+00  0.18055890E+00  0.43565544E+00
  0.81642201E+00  0.65552617E+00  0.12430106E+00
  0.71104557E+00  0.22994636E+00  0.38420136E+00
  0.91566388E+00  0.49815772E-01  0.69401551E+00
  0.28201885E+00  0.97008601E+00  0.69281827E+00
  0.26268480E+00  0.95754294E+00  0.36230275E+00
  0.45766133E+00  0.22130882E+00  0.11831603E+00
  0.84302857E-01  0.82621465E+00  0.63338517E+00
  0.39112066E+00  0.77300155E-01  0.30917720E+00
  0.85929200E+00  0.30925849E+00  0.41843457E+00
  0.27123415E+00  0.30167997E+00  0.86074917E+00
  0.13960214E+00  0.85960312E+00  0.36266658E+00
  0.20610101E+00  0.68581026E-01  0.87768008E+00
  0.55500329E+00  0.12240475E+00  0.43484407E+00
  0.63472267E+00  0.78991863E+00  0.74793954E-01
  0.32206476E+00  0.95044822E+00  0.26835823E-01
  0.33255761E+00  0.21276207E+00  0.23365746E+00
  0.22869414E+00  0.60343916E+00  0.57896845E+00
  0.40294423E+00  0.63216032E+00  0.91071118E+00
  0.48697361E+00  0.46562780E+00  0.12561358E+00
  0.41908567E+00  0.86120754E+00  0.68193572E+00
  0.92142485E-01  0.20812676E+00  0.22560726E-01
  0.79928277E+00  0.68478241E+00  0.34551188E+00
  0.14332766E-01  0.94050832E+00  0.27131472E+00
  0.52692752E+00  0.95633666E+00  0.61776266E+00
  0.94924236E+00  0.15855888E+00  0.30606838E+00
  0.33980781E+00  0.81338769E-01  0.13171781E+00
  0.42190571E+00  0.25637272E+00  0.58729573E+00
  0.26186677E+00  0.28482743E+00  0.55411411E+00
  0.25920918E+00  0.78658775E+00  0.20192091E+00
  0.39609775E+00  0.40442506E+00  0.35959980E+00
  0.85478123E+00  0.42929510E+00  0.82431393E+00
  0.25688555E+00  0.11818315E+00  0.51796594E+00
  0.65456048E+00  0.62956434E+00  0.38576649E+00
  0.29907922E+00  0.30191327E+00  0.39486201E+00
  0.52365393E+00  0.12185930E+00  0.68811039E+00
  0.38822267E+00  0.60877982E+00  0.75614244E+00
  0.55182319E+00  0.54129395E+00  0.91377183E+00
  0.90347353E+00  0.31382449E+00  0.25262933E+00
  0.24154650E-02  0.57528917E+00  0.85689941E+00
  0.15580563E+00  0.46142947E+00  0.58035658E+00
  0.40147011E+00  0.67047331E+00  0.58240665E+00
  0.24231927E+00  0.79181790E+00  0.53692265E+00
  0.68011484E+00  0.44721021E+00  0.53563563E+00
  0.54476648E+00  0.33339185E+00  0.19257321E+00
  0.88504295E+00  0.73020140E+00  0.53380713E+00
  0.34833418E+00  0.41278038E+00  0.20164719E+00
  0.57799789E+00  0.34007187E+00  0.98386907E+00
  0.79588284E+00  0.11380644E+00  0.26362580E+00
  0.55968297E+00  0.13803322E+00  0.17669313E-01