Amorphous Sb                            
   1.00000000000000     
    20.0413969107436429    0.0000000000000000    0.0000000000000000
     0.0000000000000000   20.0413969107436429    0.0000000000000000
     0.0000000000000000    0.0000000000000000   20.0413969107436429
   Ge   Se
   150   150
Direct
  0.2000785192247931  0.1369499728478329  0.9094307414059821
  0.4313910060808345  0.4897396965121172  0.0771896458245030
  0.8869234175654839  0.4611495671550871  0.4706435921915322
  0.1720440522758832  0.4520466706996152  0.2636360697415031
  0.6342553840795555  0.1824047142787218  0.3391665324611971
  0.2417781650583105  0.1225260866723501  0.2309656986061886
  0.9442010361911034  0.0271249988632393  0.1442902436249716
  0.2778128406694547  0.7365261188209244  0.1126294432917731
  0.4102107723700270  0.1611275419680323  0.3951445385225975
  0.1056206827267268  0.6399052046591056  0.0212033460302508
  0.8372224855305715  0.2768264076927598  0.4324048937682585
  0.6790136909702478  0.7067291142595441  0.8103040133190982
  0.8154893435888437  0.5711022248562402  0.8419203156822409
  0.2071601855254900  0.2527309471553757  0.3629180106792879
  0.2606795822406189  0.6027971883423395  0.3267350825354844
  0.8952197315633719  0.6726475311598613  0.4581476295624514
  0.1890665345028833  0.4301717765149172 -0.0029993125851092
  0.5587726834322567  0.1397083191974433  0.7983746539588371
  0.5226536768409543  0.8751777929366350  0.6405841760059191
  0.3352613850160909  0.2688777116251770  0.5216251317863683
 -0.0046570080420898  0.3059297457084592  0.6854274130013176
  0.0222233466366038  0.2009513991306410  0.5354573060725202
  0.6733476294789494  0.3483845249808724  0.5281266881308616
  0.6288985640419517  0.2259061117180614  0.5373710619216127
 -0.0022576119950165  0.4790390299397843  0.3029454594370583
  0.3454178142963694  0.4464559327239339  0.6691072178082568
  0.8733429762626016  0.5689617659984462  0.0191925407975097
  0.8842320058158258  0.1395524012096560  0.9609789701064784
  0.1038997562161678  0.7090567205886390  0.8183703199668346
  0.9590246240111394  0.8025826187493129  0.7371463925652989
  0.3834091911353096  0.7826022305505570  0.1731367300598642
  0.6580846222118401  0.5311319065716980  0.4670644414642833
  0.2500090392461140  0.8794408782992656  0.8141411296120279
  0.6697400612109967  0.5834630819758051  0.2678061364466069
  0.6143857360174796  0.0641181293528513  0.4004907991851960
  0.9970559849499105  0.0166886803933081  0.5344741138949666
  0.8121265475388635  0.2626175005225326  0.8732318352586740
  0.7253744440282133  0.3861792870813435  0.8778990986582342
  0.4808329661723313  0.0150822518126002  0.9045908275692461
  0.3978157559594492  0.3904062816068777  0.2675879421565972
  0.2604471627561100  0.0137974940987644  0.6801207529221397
  0.5219260011221772  0.0615877793477449  0.5856969892609454
  0.7747203967048171  0.2638164572046902  0.0741718539337390
  0.1167317360527681  0.7070832157306403  0.1383599478076893
  0.8478671852464896  0.6861520713263259  0.1579467959950457
  0.2536718061328482  0.1167615453631485  0.5375301698199115
  0.3770424987800288  0.1114664370845307  0.1094559257885224
  0.5049917761902042  0.7766787743147799  0.8496256343068199
 -0.0232483478102042  0.8356483419959478  0.1036556914083202
  0.2644325879720559  0.5518323015207398  0.1322039381905465
  0.2443603414976428  0.5776318173219132  0.6017363202083639
  0.9521533670265790  0.4022197048883573  0.1513039861976297
  0.1405112798165268  0.1303126758915364  0.3581343513860025
  0.6843956251641612  0.9672057924699863  0.6410554694774375
 -0.0075436581415504  0.1730928005276819  0.6664866351669224
  0.1197502134848827  0.1345012393622251  0.6620919736116891
  0.0625074285155096  0.3390746996785742  0.2653362304433729
  0.9226816990350749  0.7264030690191816  0.9496426187994909
  0.8230282607818049  0.5057774592742836  0.2177214012394346
  0.0184015732716613  0.0912340069840221  0.3779678701955003
  0.1644615501790354  0.2157880479412633  0.1699903760497590
  0.7983007902614002  0.7521095696462894  0.8280944336783893
  0.4900112836078714  0.4807948549153813  0.5598420823143372
  0.0660067359396227  0.4862139335874107  0.5927848551176791
  0.5919938461845262  0.3167259032851102  0.1301890931282447
  0.5239569028066978  0.1235400613807392  0.0940294943247173
  0.4007627241715981  0.0237026363799718  0.7879627037812855
  0.8599661125951050  0.1859803871186309  0.7021520576981178
  0.4710476912768838  0.3366833752842827  0.4169083061689620
  0.5262336482111769  0.6204498536200899  0.9133772358599935
  0.8408583724689249  0.9216609064851469  0.9012375900584677
  0.9528229613941588  0.0356766680946650  0.6831133607435459
  0.4438429589393429  0.8058004955030666  0.3216867975857552
  0.5202871065809243  0.7888325918257026  0.0185019897839184
  0.3711949100926704  0.8624149553355536  0.6754444933874261
  0.1118631531205603  0.8056970085811729  0.6480838436642107
  0.9300465729431135  0.4724359671302157  0.6543275579105410
  0.7195568801408978  0.7379885764197758  0.2408994843872007
  0.6678965434310093  0.1367502603312983  0.2020688604814644
  0.0899242272937336  0.6638962280941811  0.6793950209815618
  0.2267276966011056  0.3242964921844970  0.9350816149659145
  0.5543909165319135  0.4460594301672721  0.9312127762511605
  0.5688450807536989  0.8996627845119290  0.4494104934634839
  0.3416812534572562  0.4241202941689893  0.9379451363028598
  0.4576252412650706  0.5753039670413810  0.2411480795142700
  0.0914472307833593  0.4135606778942345  0.0805557090481022
  0.3315026544856294  0.3071524465954977  0.1670080849261581
  0.1950221240172179  0.1050196121828250  0.0765679153804483
  0.2001046768128702  0.4471602296979320  0.7308730577965982
  0.7231022074842038  0.8860700313997899  0.4214263096176325
  0.4165768130355417  0.6260902717587128  0.4325181813184941
  0.5929587077484818  0.9785150291554345  0.2590838372672624
  0.7316891435792948  0.7414237057714508  0.4652202772802212
  0.1692358681095522  0.2774765303869521  0.6390825141227280
  0.7157624444115530  0.0331842159922526  0.9683460068410293
  0.2562576775621424  0.3283003122097209  0.8057084510427273
  0.8001643168932846  0.0101797740786241  0.7940146688731818
  0.9826111260934244  0.2336352804716573  0.0928218287991361
  0.6903872946105518  0.5890116563060734  0.9513588342703625
  0.7025449818441447  0.7707256999681245  0.6498263261729529
  0.4427112800444192  0.9657496392187719  0.1107035345109044
  0.8645487465129709  0.2461858552252842  0.2555332545665707
  0.0984708197821328 -0.0034364701103059  0.8109237360518727
  0.2705519783023089  0.9352725913966922  0.5462700393659735
  0.2381154339412455  0.6612543315392877  0.0168608709917337
  0.1380802684477352  0.7668108128982651  0.5029210273667557
  0.6594715807922006  0.4223162086904744  0.0700412523368696
  0.2963247568321370  0.1618425970395928  0.7171306737553402
  0.2011761058741315  0.9029845833229770  0.2003408729611461
  0.0360923441540853  0.0217459692669701 -0.0029594123349550
  0.3616065018266414  0.8483276947478554  0.5083442962815569
  0.5989708660244332  0.8977518009367746  0.0961288873770941
  0.6229246175159039  0.7310932520703104  0.3585215256489018
  0.2140925494481661  0.7576933462147131  0.9377133938864382
  0.5503507040159501  0.6494777909806357  0.5344931387195329
  0.3800505295950937  0.8781564283803771  0.9380545006892430
  0.9096738462696216  0.8491728200476841  0.5089577737427763
 -0.0100831503224017  0.8009656709907516  0.3065010567369497
  0.3770157148788946  0.7210502598298463  0.5185425151577621
  0.4351630560229705  0.2318747413328023  0.8283421642019627
  0.2760588312403304  0.7859457668377670  0.3319589019600775
  0.1726818166459792  0.2967765058818287  0.0739147290178917
  0.6168816326673422  0.3094942582933223  0.7047607798011616
  0.1272926139558243  0.7080678679386969  0.3290714076261335
  0.4959624431597372  0.5443357491096895  0.7212453967916598
  0.3805225984000241  0.6878860033232228  0.6905790521896629
  0.8376750550665096  0.6215358798656527  0.3088309162509126
  0.0544232581432972  0.9188909052344055  0.6049157766084837
  0.5845577997152841  0.4372070040190200  0.3043617465366996
  0.2976942419802747  0.5966513818850542  0.9232889166328889
  0.3304101207684916  0.4438838917548946  0.4706174568010706
  0.2981303957357385  0.2819048817577443  0.0381907692488013
  0.6780538378447383  0.1332525371337870  0.6747545143127555
  0.4282694561180273  0.2589958090646191  0.0073160683668196
  0.0765955937128432  0.3972578888777258  0.7444045909102160
  0.4884859645062715  0.4270490910297490  0.7725052630306900
  0.9211067598898517  0.4289079603399568  0.9135277808307559
  0.9559007244898300  0.6688510385820288  0.7942605825964018
  0.8095053072720406  0.0778767204063271  0.4077863916079379
  0.6485820170712807  0.9407715935165593  0.8320227611525223
  0.7085406569555017  0.4985636872093700  0.7025122427217660
  0.8075038244054983  0.8748167675396946  0.0969868928792496
  0.0034813958200590  0.2840408511481171  0.8695923246932633
  0.1217993052485321  0.3506363664608758  0.4805798737069657
  0.3277483590144722  0.5970548321830975  0.7917570509428865
  0.1606253937693970  0.5140357722845463  0.4466986976644794
  0.1424279233403249  0.9507385628708253  0.3776177322392766
 -0.0063660712871432  0.1556076695499358  0.8029250862486473
  0.8131981677906543  0.3439632509160889  0.6680342761784425
  0.0658890830033537  0.5507749177868371  0.8391702192942205
  0.2444075240169982  0.8833567576770017  0.6602030291823255
  0.3569536892277502  0.1873320569962305  0.2073274895991150
  0.4750432279863564  0.7291013767765221  0.6015707705472586
  0.3745213558947116  0.8510141455443675  0.8011693414552600
  0.7199878642026004  0.9043133685740145  0.9372860999617403
  0.6724306234992664  0.4686144272647092  0.2208827031502095
  0.2895450525748297  0.2088842327670594  0.8331903788680449
  0.8323067525711294  0.7548852621244195  0.5435615494979804
  0.5670199275248695  0.9948794547554799  0.6868899642973360
  0.7204132598238790  0.2384547709193150  0.7299405656177322
  0.2101023300218146  0.5727520052936900  0.7297330758460215
  0.9381988075327510  0.3574222184986835  0.2859387700450741
  0.1631452755197386  0.8935456555405163  0.4949362412399516
  0.7597373074391106  0.4688299644882639  0.4126487289233858
  0.9019564073394476  0.8435683322641121  0.9955699526277669
  0.1236588756269918  0.1202944108332259  0.8087632342453995
  0.3016835878425220  0.5668892434442246  0.4509519278661578
  0.7756854350795069  0.6260424804195927  0.4206583654879291
  0.0481586464783366  0.4150118776116882  0.8682462768827919
  0.4636276931213611  0.3902575803782319  0.6497978992598359
  0.7970970241312333  0.6736478675267261  0.9321079176658869
  0.1397353150711366  0.2891489121981863  0.7676963330457724
  0.6108153557379503  0.7237384885795833  0.9105593635667388
  0.3244684584425995  0.8796743700804286  0.2217817228546091
  0.0468290750677186  0.2213438878755615  0.2136582262721683
  0.6692904544736521  0.8414653810047031  0.3056613957014498
  0.8503982162823041  0.8836544361058574  0.3987473378898654
  0.8431155044719427  0.0189927369579645  0.9852491883876936
  0.4406340109530825  0.7112154389568968  0.9438699192123012
  0.5664976942233008  0.5040059704825354  0.0442810150290193
  0.2944668099223943  0.5013546392739809  0.2491316492611459
  0.9713210673585012  0.0287660922841064  0.8092855305844738
  0.0375231890938066  0.9517142735448146  0.1050707303082804
  0.7416467336839255  0.4218589261148656  0.5942632122840626
  0.7270230266381509  0.1521616347121204  0.5421063955433829
  0.2209098102864840  0.4033548450441378  0.4072921365425058
  0.5645996883395714  0.2630589099380474  0.8109977647997760
  0.3736530551095225  0.0018432958099251  0.9628079169004486
  0.1162683171169188  0.0043872498757898  0.6835502062123565
  0.5490098141973441  0.0041776367167671  0.0443026694556094
  0.7003650684925111  0.9456047916362873  0.1644749024552919
  0.2398855505436050  0.8756467785201812  0.9440089968669453
  0.0809913109389059  0.2839159626105197  0.3790009748975716
  0.6380449530004142  0.8598076356733568  0.5839914769425751
  0.5222115527493241  0.8772456307011967  0.9272882795977307
  0.2807842176887745  0.0361554362535960  0.1476153737805924
  0.0331023817076962  0.7026539873065600  0.2326216960027385
  0.8669382279824432  0.1936053447321296  0.1331833522125239
  0.2149020991411552  0.2326920033196618  0.4977712992013494
  0.8549113893596667  0.0349874837246651  0.2995978950709163
  0.4762362253972636  0.2741113959777458  0.1215210766724389
  0.1409402903744418  0.0514664896915507  0.2638817809588260
  0.7859765744365445  0.5797328784263917  0.1209345118095283
  0.3554768096663840  0.8755938427275780  0.3877719347874456
  0.0467439591307052  0.4549257309024920  0.4695795583414966
  0.5175392361416168  0.9914106564942581  0.3695052847434518
  0.8275606156339886  0.0625622229282846  0.6767324270265098
  0.5634296487357007  0.1850797372957204  0.6312674670184987
  0.1337157229695893  0.5064280855108565  0.1529943659605941
  0.6808019240233978  0.5823796998844964  0.8224359814580956
  0.7653883903558567  0.4856164139582637  0.9515623341466919
 -0.0025690651640367  0.7401535329062248  0.6307533484203809
  0.3844423346035465  0.6902446696246192  0.3263488094398104
  0.5217641640627447  0.7788727459020172  0.4200972605513283
  0.8875956900130499  0.5444498083521776  0.5613455002223360
  0.3943628434752086  0.9878985131806884  0.6676612430156943
  0.6930850298410470  0.0638408915264154  0.8357959644596042
  0.7144198544137821  0.0006341386797722  0.3569361428357587
  0.0891392829971179  0.7461981587647074  0.9486308522985474
  0.1622145264521582  0.0269514356300423  0.9837507890430897
  0.4828626412775895  0.2871419375813180  0.2971729055124603
  0.4029074951136227  0.6007146793823215  0.1287070227336590
  0.4272885616632538  0.1413753890499397  0.7347296806458686
  0.7254695647686613  0.0537021173916840  0.1233544940948516
  0.2758365063924991  0.0177518170933086  0.8086701671161197
  0.8111993743086361  0.2411159677196889  0.5537368221279252
  0.4019959953827313  0.5339848068198481  0.9547809987221612
  0.1775768631323020  0.8147942756463440  0.1083228079529030
  0.9551705623096963  0.5850855939179067  0.8914593639158194
  0.0084168043844810  0.5750007771153911  0.7237684166826969
  0.2946861756817026  0.4338517064148134  0.0669251305231418
  0.5983226454323470  0.3057158521836515  0.2575279869140699
  0.7487191352163611  0.7604312800631187  0.1166686590978141
  0.6513136849653051  0.2088706926549630  0.0970068058731011
  0.5882176926190350  0.5655727526006665  0.3651055186070465
  0.0785489721320142  0.8277413474676728  0.7750870673774077
  0.3115807653275306  0.0898575857165752  0.3402789798225253
  0.6424509522029108  0.4160388613083968  0.7770300744242238
  0.8206295325787297  0.3979846505662755  0.1402354941314912
  0.1758977042667281  0.4176561936678556  0.6083513300706572
  0.1500526632230169  0.8440004733775932  0.3030540371248490
  0.5748620507721474  0.5533105675431241  0.6242421401872114
  0.4193985084251072  0.4517108398924372  0.3801512578658998
  0.3784835775192808  0.1461961916099264  0.5190149007021699
  0.7643304271263076  0.1978146080578127  0.3604528548877053
  0.4692144752561089  0.9165885195474625  0.5289972839698155
  0.8383315598584179  0.6638008917844964  0.7467721860092144
  0.9167490156460136  0.3158421008817567  0.7803100990655010
  0.0137582467819417  0.9732820599012906  0.4136117562121943
  0.2186265169473366  0.3128803091132930  0.2299409805423402
  0.3991556380522683  0.5646245213120439  0.6440517541176520
  0.7274367039596362  0.3520604005702373  0.4140266503955267
  0.5168782545279781  0.8993513030032023  0.1947730713507513
  0.7364965716518795  0.9069421920968219  0.7450609736948201
  0.8947370907202199  0.8717201920031461  0.1889784590389071
  0.9230877953764554  0.5471809126353742  0.3771639593983850
  0.9393305917593363  0.6736645590966295  0.0634071133584340
  0.5832453435888580  0.4203959485508016  0.4866840869166689
  0.2297864091308383  0.7301566833931235  0.8190918564121421
  0.6298531789813108  0.0380103270428280  0.5199723304779782
  0.3618857474850546  0.4668338579612403  0.7940488533600611
  0.9400058582029475  0.9076668588443804  0.6611855741317746
  0.5602792765912067  0.2169132119565410  0.4407915193378840
  0.9610139809546547  0.4703856747820578  0.0280641044529816
  0.8368643340880816  0.9527999661609341  0.4972138532609136
  0.9391844532317746  0.1470913405870617  0.4532348058626632
  0.4929375516832098  0.4516866617884395  0.2106375273966178
  0.2197973578537199  0.6695226189410748  0.2001065622048900
  0.9524753407892862  0.5234476591117989  0.1939052133652403
  0.0250784776691815  0.1117136623314589  0.0885334967082297
  0.8235010828534085  0.4587017689367454  0.7406211659056027
  0.2068166486826334  0.5128985283971410  0.9073960158412484
  0.4543945991432987  0.3643752921062858  0.9428291796941163
  0.0424958508238639  0.7432958798178971  0.4165251908414615
  0.2849222695400663  0.7030252652158687  0.6048969542937399
  0.1311885803805793  0.2434230049804969  0.9639841137980010
  0.2995636670476518  0.1555907974948604  0.0171191670183393
  0.2952924049680871  0.2769346640868588  0.6592399426587473
  0.2341284656062135  0.7241799640726845  0.4382108975673596
  0.5878894974862899  0.7323318566427611  0.2305731353987641
  0.6057294956806687  0.7356175652843830  0.7208396762611180
  0.6338628121017092  0.3505093922281645  0.9603797715125663
  0.4753462436052494  0.6361548007897745  0.7963287821859740
  0.9530153273356642  0.0960815701870683  0.2712088956717995
  0.5455867113622382  0.0974817765135932  0.2159069238687626
  0.8804119777282379  0.7380573526912143  0.3423182073246032
  0.9245959115646696  0.3536162093191164  0.5935116080792116
  0.5752335055874644  0.6189331555172255  0.1891074416929033
  0.9096025629334856  0.3019103019402418  0.9546876165246148
  0.0982476185899389  0.0985950784800090  0.5356952561024028
  0.7670811386412186  0.1857589304337389  0.9710839346697214
  0.6738808250069076  0.6805237362483030  0.5606701984797069
  0.4139914973579444  0.8463689381263420  0.0653652369726394
  0.1322830281793946  0.5608110782195644  0.3324667125018176
  0.1201709992807741  0.6048049760266875  0.5693912756122390
  0.4941687448348656  0.1486398146724289  0.9082335344479865
  0.8574477179900181  0.1484777159819630  0.8310350818575670
  0.3595785223675601  0.2755881301659672  0.3809290429400100
  0.2311374284329725  0.0575510939627185  0.4240979746899665
  0.7719407226773478  0.3266986810286743  0.2242624970162914
 
  0.00000000E+00  0.00000000E+00  0.00000000E+00
  0.00000000E+00  0.00000000E+00  0.00000000E+00
  0.00000000E+00  0.00000000E+00  0.00000000E+00
  0.00000000E+00  0.00000000E+00  0.00000000E+00
  0.00000000E+00  0.00000000E+00  0.00000000E+00
  0.00000000E+00  0.00000000E+00  0.00000000E+00
  0.00000000E+00  0.00000000E+00  0.00000000E+00
  0.00000000E+00  0.00000000E+00  0.00000000E+00
  0.00000000E+00  0.00000000E+00  0.00000000E+00
  0.00000000E+00  0.00000000E+00  0.00000000E+00
  0.00000000E+00  0.00000000E+00  0.00000000E+00
  0.00000000E+00  0.00000000E+00  0.00000000E+00
  0.00000000E+00  0.00000000E+00  0.00000000E+00
  0.00000000E+00  0.00000000E+00  0.00000000E+00
  0.00000000E+00  0.00000000E+00  0.00000000E+00
  0.00000000E+00  0.00000000E+00  0.00000000E+00
  0.00000000E+00  0.00000000E+00  0.00000000E+00
  0.00000000E+00  0.00000000E+00  0.00000000E+00
  0.00000000E+00  0.00000000E+00  0.00000000E+00
  0.00000000E+00  0.00000000E+00  0.00000000E+00
  0.00000000E+00  0.00000000E+00  0.00000000E+00
  0.00000000E+00  0.00000000E+00  0.00000000E+00
  0.00000000E+00  0.00000000E+00  0.00000000E+00
  0.00000000E+00  0.00000000E+00  0.00000000E+00
  0.00000000E+00  0.00000000E+00  0.00000000E+00
  0.00000000E+00  0.00000000E+00  0.00000000E+00
  0.00000000E+00  0.00000000E+00  0.00000000E+00
  0.00000000E+00  0.00000000E+00  0.00000000E+00
  0.00000000E+00  0.00000000E+00  0.00000000E+00
  0.00000000E+00  0.00000000E+00  0.00000000E+00
  0.00000000E+00  0.00000000E+00  0.00000000E+00
  0.00000000E+00  0.00000000E+00  0.00000000E+00
  0.00000000E+00  0.00000000E+00  0.00000000E+00
  0.00000000E+00  0.00000000E+00  0.00000000E+00
  0.00000000E+00  0.00000000E+00  0.00000000E+00
  0.00000000E+00  0.00000000E+00  0.00000000E+00
  0.00000000E+00  0.00000000E+00  0.00000000E+00
  0.00000000E+00  0.00000000E+00  0.00000000E+00
  0.00000000E+00  0.00000000E+00  0.00000000E+00
  0.00000000E+00  0.00000000E+00  0.00000000E+00
  0.00000000E+00  0.00000000E+00  0.00000000E+00
  0.00000000E+00  0.00000000E+00  0.00000000E+00
  0.00000000E+00  0.00000000E+00  0.00000000E+00
  0.00000000E+00  0.00000000E+00  0.00000000E+00
  0.00000000E+00  0.00000000E+00  0.00000000E+00
  0.00000000E+00  0.00000000E+00  0.00000000E+00
  0.00000000E+00  0.00000000E+00  0.00000000E+00
  0.00000000E+00  0.00000000E+00  0.00000000E+00
  0.00000000E+00  0.00000000E+00  0.00000000E+00
  0.00000000E+00  0.00000000E+00  0.00000000E+00
  0.00000000E+00  0.00000000E+00  0.00000000E+00
  0.00000000E+00  0.00000000E+00  0.00000000E+00
  0.00000000E+00  0.00000000E+00  0.00000000E+00
  0.00000000E+00  0.00000000E+00  0.00000000E+00
  0.00000000E+00  0.00000000E+00  0.00000000E+00
  0.00000000E+00  0.00000000E+00  0.00000000E+00
  0.00000000E+00  0.00000000E+00  0.00000000E+00
  0.00000000E+00  0.00000000E+00  0.00000000E+00
  0.00000000E+00  0.00000000E+00  0.00000000E+00
  0.00000000E+00  0.00000000E+00  0.00000000E+00
  0.00000000E+00  0.00000000E+00  0.00000000E+00
  0.00000000E+00  0.00000000E+00  0.00000000E+00
  0.00000000E+00  0.00000000E+00  0.00000000E+00
  0.00000000E+00  0.00000000E+00  0.00000000E+00
  0.00000000E+00  0.00000000E+00  0.00000000E+00
  0.00000000E+00  0.00000000E+00  0.00000000E+00
  0.00000000E+00  0.00000000E+00  0.00000000E+00
  0.00000000E+00  0.00000000E+00  0.00000000E+00
  0.00000000E+00  0.00000000E+00  0.00000000E+00
  0.00000000E+00  0.00000000E+00  0.00000000E+00
  0.00000000E+00  0.00000000E+00  0.00000000E+00
  0.00000000E+00  0.00000000E+00  0.00000000E+00
  0.00000000E+00  0.00000000E+00  0.00000000E+00
  0.00000000E+00  0.00000000E+00  0.00000000E+00
  0.00000000E+00  0.00000000E+00  0.00000000E+00
  0.00000000E+00  0.00000000E+00  0.00000000E+00
  0.00000000E+00  0.00000000E+00  0.00000000E+00
  0.00000000E+00  0.00000000E+00  0.00000000E+00
  0.00000000E+00  0.00000000E+00  0.00000000E+00
  0.00000000E+00  0.00000000E+00  0.00000000E+00
  0.00000000E+00  0.00000000E+00  0.00000000E+00
  0.00000000E+00  0.00000000E+00  0.00000000E+00
  0.00000000E+00  0.00000000E+00  0.00000000E+00
  0.00000000E+00  0.00000000E+00  0.00000000E+00
  0.00000000E+00  0.00000000E+00  0.00000000E+00
  0.00000000E+00  0.00000000E+00  0.00000000E+00
  0.00000000E+00  0.00000000E+00  0.00000000E+00
  0.00000000E+00  0.00000000E+00  0.00000000E+00
  0.00000000E+00  0.00000000E+00  0.00000000E+00
  0.00000000E+00  0.00000000E+00  0.00000000E+00
  0.00000000E+00  0.00000000E+00  0.00000000E+00
  0.00000000E+00  0.00000000E+00  0.00000000E+00
  0.00000000E+00  0.00000000E+00  0.00000000E+00
  0.00000000E+00  0.00000000E+00  0.00000000E+00
  0.00000000E+00  0.00000000E+00  0.00000000E+00
  0.00000000E+00  0.00000000E+00  0.00000000E+00
  0.00000000E+00  0.00000000E+00  0.00000000E+00
  0.00000000E+00  0.00000000E+00  0.00000000E+00
  0.00000000E+00  0.00000000E+00  0.00000000E+00
  0.00000000E+00  0.00000000E+00  0.00000000E+00
  0.00000000E+00  0.00000000E+00  0.00000000E+00
  0.00000000E+00  0.00000000E+00  0.00000000E+00
  0.00000000E+00  0.00000000E+00  0.00000000E+00
  0.00000000E+00  0.00000000E+00  0.00000000E+00
  0.00000000E+00  0.00000000E+00  0.00000000E+00
  0.00000000E+00  0.00000000E+00  0.00000000E+00
  0.00000000E+00  0.00000000E+00  0.00000000E+00
  0.00000000E+00  0.00000000E+00  0.00000000E+00
  0.00000000E+00  0.00000000E+00  0.00000000E+00
  0.00000000E+00  0.00000000E+00  0.00000000E+00
  0.00000000E+00  0.00000000E+00  0.00000000E+00
  0.00000000E+00  0.00000000E+00  0.00000000E+00
  0.00000000E+00  0.00000000E+00  0.00000000E+00
  0.00000000E+00  0.00000000E+00  0.00000000E+00
  0.00000000E+00  0.00000000E+00  0.00000000E+00
  0.00000000E+00  0.00000000E+00  0.00000000E+00
  0.00000000E+00  0.00000000E+00  0.00000000E+00
  0.00000000E+00  0.00000000E+00  0.00000000E+00
  0.00000000E+00  0.00000000E+00  0.00000000E+00
  0.00000000E+00  0.00000000E+00  0.00000000E+00
  0.00000000E+00  0.00000000E+00  0.00000000E+00
  0.00000000E+00  0.00000000E+00  0.00000000E+00
  0.00000000E+00  0.00000000E+00  0.00000000E+00
  0.00000000E+00  0.00000000E+00  0.00000000E+00
  0.00000000E+00  0.00000000E+00  0.00000000E+00
  0.00000000E+00  0.00000000E+00  0.00000000E+00
  0.00000000E+00  0.00000000E+00  0.00000000E+00
  0.00000000E+00  0.00000000E+00  0.00000000E+00
  0.00000000E+00  0.00000000E+00  0.00000000E+00
  0.00000000E+00  0.00000000E+00  0.00000000E+00
  0.00000000E+00  0.00000000E+00  0.00000000E+00
  0.00000000E+00  0.00000000E+00  0.00000000E+00
  0.00000000E+00  0.00000000E+00  0.00000000E+00
  0.00000000E+00  0.00000000E+00  0.00000000E+00
  0.00000000E+00  0.00000000E+00  0.00000000E+00
  0.00000000E+00  0.00000000E+00  0.00000000E+00
  0.00000000E+00  0.00000000E+00  0.00000000E+00
  0.00000000E+00  0.00000000E+00  0.00000000E+00
  0.00000000E+00  0.00000000E+00  0.00000000E+00
  0.00000000E+00  0.00000000E+00  0.00000000E+00
  0.00000000E+00  0.00000000E+00  0.00000000E+00
  0.00000000E+00  0.00000000E+00  0.00000000E+00
  0.00000000E+00  0.00000000E+00  0.00000000E+00
  0.00000000E+00  0.00000000E+00  0.00000000E+00
  0.00000000E+00  0.00000000E+00  0.00000000E+00
  0.00000000E+00  0.00000000E+00  0.00000000E+00
  0.00000000E+00  0.00000000E+00  0.00000000E+00
  0.00000000E+00  0.00000000E+00  0.00000000E+00
  0.00000000E+00  0.00000000E+00  0.00000000E+00
  0.00000000E+00  0.00000000E+00  0.00000000E+00
  0.00000000E+00  0.00000000E+00  0.00000000E+00
  0.00000000E+00  0.00000000E+00  0.00000000E+00
  0.00000000E+00  0.00000000E+00  0.00000000E+00
  0.00000000E+00  0.00000000E+00  0.00000000E+00
  0.00000000E+00  0.00000000E+00  0.00000000E+00
  0.00000000E+00  0.00000000E+00  0.00000000E+00
  0.00000000E+00  0.00000000E+00  0.00000000E+00
  0.00000000E+00  0.00000000E+00  0.00000000E+00
  0.00000000E+00  0.00000000E+00  0.00000000E+00
  0.00000000E+00  0.00000000E+00  0.00000000E+00
  0.00000000E+00  0.00000000E+00  0.00000000E+00
  0.00000000E+00  0.00000000E+00  0.00000000E+00
  0.00000000E+00  0.00000000E+00  0.00000000E+00
  0.00000000E+00  0.00000000E+00  0.00000000E+00
  0.00000000E+00  0.00000000E+00  0.00000000E+00
  0.00000000E+00  0.00000000E+00  0.00000000E+00
  0.00000000E+00  0.00000000E+00  0.00000000E+00
  0.00000000E+00  0.00000000E+00  0.00000000E+00
  0.00000000E+00  0.00000000E+00  0.00000000E+00
  0.00000000E+00  0.00000000E+00  0.00000000E+00
  0.00000000E+00  0.00000000E+00  0.00000000E+00
  0.00000000E+00  0.00000000E+00  0.00000000E+00
  0.00000000E+00  0.00000000E+00  0.00000000E+00
  0.00000000E+00  0.00000000E+00  0.00000000E+00
  0.00000000E+00  0.00000000E+00  0.00000000E+00
  0.00000000E+00  0.00000000E+00  0.00000000E+00
  0.00000000E+00  0.00000000E+00  0.00000000E+00
  0.00000000E+00  0.00000000E+00  0.00000000E+00
  0.00000000E+00  0.00000000E+00  0.00000000E+00
  0.00000000E+00  0.00000000E+00  0.00000000E+00
  0.00000000E+00  0.00000000E+00  0.00000000E+00
  0.00000000E+00  0.00000000E+00  0.00000000E+00
  0.00000000E+00  0.00000000E+00  0.00000000E+00
  0.00000000E+00  0.00000000E+00  0.00000000E+00
  0.00000000E+00  0.00000000E+00  0.00000000E+00
  0.00000000E+00  0.00000000E+00  0.00000000E+00
  0.00000000E+00  0.00000000E+00  0.00000000E+00
  0.00000000E+00  0.00000000E+00  0.00000000E+00
  0.00000000E+00  0.00000000E+00  0.00000000E+00
  0.00000000E+00  0.00000000E+00  0.00000000E+00
  0.00000000E+00  0.00000000E+00  0.00000000E+00
  0.00000000E+00  0.00000000E+00  0.00000000E+00
  0.00000000E+00  0.00000000E+00  0.00000000E+00
  0.00000000E+00  0.00000000E+00  0.00000000E+00
  0.00000000E+00  0.00000000E+00  0.00000000E+00
  0.00000000E+00  0.00000000E+00  0.00000000E+00
  0.00000000E+00  0.00000000E+00  0.00000000E+00
  0.00000000E+00  0.00000000E+00  0.00000000E+00
  0.00000000E+00  0.00000000E+00  0.00000000E+00
  0.00000000E+00  0.00000000E+00  0.00000000E+00
  0.00000000E+00  0.00000000E+00  0.00000000E+00
  0.00000000E+00  0.00000000E+00  0.00000000E+00
  0.00000000E+00  0.00000000E+00  0.00000000E+00
  0.00000000E+00  0.00000000E+00  0.00000000E+00
  0.00000000E+00  0.00000000E+00  0.00000000E+00
  0.00000000E+00  0.00000000E+00  0.00000000E+00
  0.00000000E+00  0.00000000E+00  0.00000000E+00
  0.00000000E+00  0.00000000E+00  0.00000000E+00
  0.00000000E+00  0.00000000E+00  0.00000000E+00
  0.00000000E+00  0.00000000E+00  0.00000000E+00
  0.00000000E+00  0.00000000E+00  0.00000000E+00
  0.00000000E+00  0.00000000E+00  0.00000000E+00
  0.00000000E+00  0.00000000E+00  0.00000000E+00
  0.00000000E+00  0.00000000E+00  0.00000000E+00
  0.00000000E+00  0.00000000E+00  0.00000000E+00
  0.00000000E+00  0.00000000E+00  0.00000000E+00
  0.00000000E+00  0.00000000E+00  0.00000000E+00
  0.00000000E+00  0.00000000E+00  0.00000000E+00
  0.00000000E+00  0.00000000E+00  0.00000000E+00
  0.00000000E+00  0.00000000E+00  0.00000000E+00
  0.00000000E+00  0.00000000E+00  0.00000000E+00
  0.00000000E+00  0.00000000E+00  0.00000000E+00
  0.00000000E+00  0.00000000E+00  0.00000000E+00
  0.00000000E+00  0.00000000E+00  0.00000000E+00
  0.00000000E+00  0.00000000E+00  0.00000000E+00
  0.00000000E+00  0.00000000E+00  0.00000000E+00
  0.00000000E+00  0.00000000E+00  0.00000000E+00
  0.00000000E+00  0.00000000E+00  0.00000000E+00
  0.00000000E+00  0.00000000E+00  0.00000000E+00
  0.00000000E+00  0.00000000E+00  0.00000000E+00
  0.00000000E+00  0.00000000E+00  0.00000000E+00
  0.00000000E+00  0.00000000E+00  0.00000000E+00