Ge3 Te2 Se1                             
   1.00000000000000     
     2.1607631797067106   -3.7425516103761018   -0.0000000000000001
     2.1607631797067106    3.7425516103761018    0.0000000000000000
     0.0000000000000000   -0.0000000000000002    9.1219733277342261
   Ge   Te   Se
     3     2     1
Direct
  0.0000000000000000  0.0000000000000000  0.5000000000000000
  0.3333333333333357  0.6666666666666643  0.1420038713913667
  0.6666666666666643  0.3333333333333357  0.8579961286086333
  0.3333333333333357  0.6666666666666643  0.6808800344444392
  0.6666666666666643  0.3333333333333357  0.3191199655555610
  0.0000000000000000  0.0000000000000000  0.0000000000000000
 
  0.00000000E+00  0.00000000E+00  0.00000000E+00
  0.00000000E+00  0.00000000E+00  0.00000000E+00
  0.00000000E+00  0.00000000E+00  0.00000000E+00
  0.00000000E+00  0.00000000E+00  0.00000000E+00
  0.00000000E+00  0.00000000E+00  0.00000000E+00
  0.00000000E+00  0.00000000E+00  0.00000000E+00
