Amorphous GeTe6                         
   1.00000000000000     
    22.2844198496002335    0.0000000000000000    0.0000000000000000
     0.0000000000000000   22.2844198496002335    0.0000000000000000
     0.0000000000000000    0.0000000000000000   22.2844198496002335
   Al   Te
    90   210
Direct
  0.4037311705084935  0.7353409973132117  0.9522346452185717
  0.0561125253847163  0.5902745693225917  0.2870360237925063
 -0.0063791475884147  0.9379654333673053  0.8256322611993359
  0.4637255272483934  0.6613131806166254  0.7802149279604932
  0.6261204783194286  0.2063818321370979  0.0128238852970231
  0.4959164753782518  0.1612454039052149  0.8693520183502088
  0.9872760528355613  0.2757936389463197  0.9026464654437499
  0.8047160639663089  0.7364933663799088  0.1226088723488169
  0.2270990162861619  0.2069873867919912  0.4962557592364913
  0.4222508656954181  0.8705821440508759  0.8376155781741385
  0.9591369132702522  0.2778673167983569  0.5972159943167634
  0.4158373814355798  0.2138185642214394  0.0507563463291887
  0.6898363133918942  0.7697896262574717  0.9872572219321183
  0.8125137912336630  0.7330082954101063  0.8726627311942872
  0.7846289196145049  0.3313178514745331  0.7412487655974161
  0.0848199382294626  0.9187177140513658  0.6618248072623095
  0.5284396459194729  0.2218182355313551  0.4383561931562869
  0.3593711484149893  0.3619077307156369  0.6573922450290531
  0.4947713134105740  0.1137286121730714  0.5997371538319732
  0.1652386415204010  0.7232517708867395  0.8907791890590698
  0.3490886229259553  0.0239723869815715  0.7193141111247335
  0.9290119534064223  0.8487899364231694  0.6571406677854178
  0.1126569937085821  0.8528944261438723  0.0416383033155143
  0.9687694308637912  0.8379998763841587  0.5120976933282727
  0.3501323290878969  0.2346943543952869  0.3618963496812753
  0.1822457814726817  0.5950230458155475  0.8133515067904880
  0.3691345397876541  0.0308928470518824  0.1132283679097134
  0.1285696963924171  0.8804028535993952  0.2451910136145067
  0.8221119227216490  0.1697230737410877  0.6608896231564987
  0.6133977697437866  0.9539352130253164  0.6013792631566031
  0.1843595674530788  0.4414125548132227  0.3163465985002921
  0.3787983311625106  0.3026521065707831  0.5269367110905815
  0.5983769462538994  0.0295899623077980  0.2890845350964669
  0.0239758857012022  0.0626923769102143  0.9134571582817881
  0.0551259018751308  0.5031100496785527  0.6397485672031163
  0.5080309826682092  0.5768880455788037  0.6143442661222547
  0.5315890379374304  0.3047953361350128  0.9461203535080429
  0.4270621442265725  0.6941088229738380  0.1825900321957368
  0.3180362308045136  0.4742871450375470  0.1701101429855744
  0.2450661414641690  0.0049315572854173  0.3006253522713264
  0.2818171149203625  0.4277871988734580  0.8245080405181769
  0.4493588906535691  0.4242794401210430  0.2578795339339310
  0.0260619345271327  0.1024395327594663  0.1508576366424460
  0.2233145684922785  0.8407762303598033  0.5261607604459158
  0.0457778099484327  0.3569649703403577  0.6122275477770340
  0.0655898143388052  0.6007144270942193  0.9852005965659917
  0.8128726781710626  0.2866048515604101  0.9385213452292727
  0.3104165804308941  0.5756082589517562  0.9317145826815391
  0.9587247345155354  0.9381589992866401  0.2314868126593697
  0.9057460275599197  0.1802634791742881  0.5037205644261669
  0.5759433899600900  0.6378614974793345  0.8675181965390070
  0.3956701921332583  0.3234910613000566  0.1003481383086151
  0.1757227482600515  0.0372066653488726  0.1134570489052915
  0.1217593634034644  0.4753936143635220  0.1679578728574529
  0.4770992126531769  0.8269661803778028  0.4948976869041636
  0.7269354369430420  0.9006806102652023  0.6819121963125675
  0.1767516393907563  0.6284376721859897  0.3160814364395405
 -0.0067486348457527  0.2043203636854491  0.0261065319946855
  0.7373977047045703  0.1349207990819254  0.3994337972076657
  0.5759573646846641  0.0570519082639673  0.4730639527179673
  0.7271813629358358  0.8576634165455245  0.5123378197974212
  0.7471820213906809  0.0520633874561647  0.7792854895843228
  0.9798888493226647  0.4461562974451695  0.9961989663097978
  0.5432706966559888  0.6278104265468842  0.2319085073720248
  0.0760970249334098  0.7943406000348991  0.5106343787048766
  0.8899823049096199  0.0498767965016672  0.1768904707608514
  0.7003555554831657  0.5828683839606646  0.1235273060229802
  0.5425043809227482  0.8158592528625516  0.9579756770764116
  0.3455168850635484  0.2818090236497178  0.9111204959802095
  0.1619238148383626  0.4899427480909871  0.6801982883472322
  0.3294011559760827  0.5505473484343297  0.7113013294745756
  0.5574166057314793  0.5597561920145242  0.4183722772204049
  0.2209633928629474  0.3175001269507258  0.6120371702773958
  0.1858345286311416  0.7822479681061215  0.6902299969911617
  0.2211967052647410  0.6892163571178062  0.5178377463125683
  0.4608060933331609  0.9099018496520087  0.6485732899696262
  0.2545650535283966  0.8364907765198866  0.8956288581050065
  0.7469204034943002  0.3423923001557213  0.1162257127619106
  0.6218627251734852  0.5886830999731553  0.7344661434076354
  0.0810867628506253  0.0896514601271531  0.7620356500422036
  0.6763774746280260  0.6080280991894916  0.5525838516175524
  0.5257908139177191  0.2313629870340327  0.6167411537152784
  0.0889454944428924  0.6512956036897419  0.6397356298083269
  0.3241969966546071  0.8726800739080794  0.1982900133997575
  0.2042083003814872  0.0228961114200740  0.6976794704162819
  0.7380303983327106  0.3670092137043564  0.2560465694391119
  0.6351072281209885  0.5055596560263633  0.2759060892673044
  0.7940983651460951  0.7431670724010174  0.6647972229736770
  0.9477024242884402  0.6457617173076644  0.5614753933259647
  0.8412949020256627  0.6589402482442761  0.2417630517283744
  0.9902839182633015  0.8399855391860849  0.0344120865428547
  0.5375650416878254  0.8758800952242143  0.8572925381863761
  0.4321576969670333  0.2977710404460828  0.4195784646214802
  0.3963030029838999  0.0524588847655544  0.2239146548990785
  0.5840974046370306  0.7002177534769713  0.9663936514068512
  0.3726585121869083  0.4442921701450593  0.7455475808635490
  0.8235627950863165  0.0510015027510952  0.3938771675367891
  0.7160607582052927  0.3067310564678938  0.3581520330267057
  0.4721351494115804  0.5768145383462937  0.8618150739053232
  0.8171882920195019  0.1193968291453164  0.5504124487042847
  0.0558780468587427  0.3004734260268067 -0.0039956978019886
  0.7798795425152316  0.4664768206514516  0.8780396975697041
  0.3864371930646104  0.4606401503029377  0.3499181850257204
  0.9619576822847831  0.2019826554737052  0.1396224866344285
  0.7070377916671868  0.9442868872271963  0.7869641773482077
  0.7696337720599402  0.6571960434670847  0.4948296739982579
  0.7144544837476221  0.1844657612209276  0.5073857935037583
  0.6684599634687712  0.7758630240475310  0.2661784606510890
  0.9186300136623897  0.6020788716597743  0.9135420676841833
  0.9325957275526777  0.8857924935927921  0.9178546941916511
  0.6184528446023418  0.6116004802604834  0.3281341299577017
  0.2390170208090566  0.7619468016696789  0.8048081847713628
  0.1409215143409216  0.2570762651599729  0.5558273238835132
 -0.0062683225420213  0.1666355857545866  0.5763252897913488
  0.0416882579205159  0.4457361455349245  0.8977236026909980
  0.6178779160022270  0.3907590648372396  0.9356791294511385
  0.0959480972675533  0.9927530351714043  0.8484374573615673
  0.2692268983986890  0.0348159971201783  0.8066714444199327
  0.3017866167446138  0.6104522559872609  0.8159326279292323
  0.5910923798815801  0.2762167744893647  0.7149522983380200
  0.8104589185753329  0.6483063991646469  0.9546251150860235
  0.7895287936672082  0.8504407441821582  0.4135138375500610
  0.2790500160574338  0.6796370851767789  0.3462087607751314
  0.4751869540759848  0.1200311750436306  0.4707169167828877
  0.3501433248559593  0.6588725811094301  0.0956478875807476
  0.3530815792434126  0.2382624557771482  0.2443234793552715
  0.4360187316509924 -0.0073319045888792  0.5651778950457472
  0.6092396201023651  0.0766416891534933  0.5841378524565874
  0.9720129991542701  0.0108276208962612  0.0956287345938677
  0.5786283867422415  0.4380168124961658  0.8239182058200897
  0.6397085371537066  0.8628328256133754  0.4283008201458591
  0.7916605434645232  0.7748396946378453  0.2364740604059352
  0.2704516255664237  0.7623738947354631  0.6039228392319064
  0.0148806675094847  0.8560143209935407  0.7418524137159737
  0.8974970546703088  0.0068607436865722  0.8298761739006345
  0.1219479225957119  0.3829961014028178  0.2387448804210525
  0.7551810195467881  0.2695559868502400  0.8389601380419001
  0.5811257845846263  0.4565789649124641  0.0385483754513005
  0.1731922042309307  0.7690625451011174  0.4438514971064875
  0.7040592224255832  0.1338654456973536  0.1817329431552492
  0.5632369333872965  0.4119847520297444  0.3038499796175398
  0.6289401849269173  0.8666055775385095  0.0239956106022429
  0.5216127161580701  0.1185295345067253  0.2897883851724103
  0.8651390282155227  0.3994339050819785  0.9553138229819764
  0.9012542778956802  0.2030575405392630  0.9450403579377918
  0.7923889835750596  0.9132355697485321  0.0838546742857534
  0.8811452046499614  0.6352935951996785  0.3484682106860431
  0.6596703357204280  0.9771512732334888  0.9367977664023962
  0.6186551922837347  0.8776556466821893  0.2098781622281616
  0.0815098317508242  0.6999234700547802  0.3186098118684322
  0.1571998112309590  0.7657151911351806  0.1107145092533211
  0.5572355182978954 -0.0506250189254712  0.7058129868438826
  0.4627841747949201  0.3380473883170818  0.6036935949882969
  0.0727906629506435  0.2107922997855514  0.8460371618870032
  0.4436142122022099  0.4258428641608861  0.0546517175858156
  0.5775331530219266  0.6653605505160634  0.5844032983684387
  0.8827409948755095  0.2660771973470680  0.6969767454102921
  0.2915475759097813  0.1958396615924093  0.0764934844322724
  0.4335593452462000  0.3631532099049733  0.9135202839546313
  0.6466751114346468  0.1053526995071967  0.0686242207466324
  0.9233095526318735  0.7700216606820011  0.8532384708569665
  0.2671386765832922  0.3082079231409958  0.8205548871383754
  0.8563262179237139  0.5723732994802008  0.5347174751984685
  0.2941032962957870  0.6213313049751106  0.4552337786388121
  0.7067946177489521  0.1973488062418015  0.6708666959824786
  0.5978437555500214  0.5370555741527824  0.1672732142842909
  0.9231724428066757  0.1286592166357056  0.3937358711095026
  0.7157029148328067  0.7973356078365529  0.8735586521587092
  0.8182731705324016  0.4443522343515272  0.7641192879329335
  0.1274583319286629  0.9080177964440086  0.5481549326487346
  0.2742262123087271  0.0705794669150716  0.0501376155810360
  0.5395372601198188  0.9386893514666286  0.5027643428111457
  0.6291039479335437  0.8370315566016689  0.6547996410281212
  0.9453287728685917  0.5516422779389528  0.2759809545555294
  0.7147736833879418  0.4228674586092598  0.4248999666035090
  0.4357496918816113  0.5012869194156332  0.1653331647586131
  0.8336923712681256  0.1503995598290842  0.1533424867201754
  0.0888911371631911  0.0373238322429430  0.6554387568817513
  0.7402885336798457  0.2580006533401422  0.0305181361888083
  0.9585585353807856  0.5573781726340309  0.0341248641124748
  0.0821022622228301  0.2102961867668265  0.7164338778460598
  0.7853671279988514  0.2068285401383091  0.3198906008956383
  0.0801853651012631  0.1358050203773589 -0.0173280338868699
  0.6806340461527252  0.0090278313508636  0.2059542697931951
  0.5531958920562473  0.0429799782775461 -0.0133681509394713
  0.7348088773228394  0.9586431487036913  0.5769564322725617
  0.4134572929845257  0.6310174726510686  0.6754867624059628
  0.3323494847371510  0.9213903257955959  0.0918590432258434
  0.6571318094799309  0.5521503124274402  0.8437050736495388
  0.1337508914216133  0.6054395027179631  0.5396350688908617
  0.5766636539715515  0.6963830853972049  0.7611654945692220
  0.0292484113827204  0.8531660217682380  0.1848924285618989
  0.3962918264400186  0.1775515087025761  0.9347845492151818
  0.6969184066547599  0.6966527446364967  0.0941502216063325
  0.0822564915821462  0.6418762016150085  0.8656166472999741
  0.3301573899959707  0.2007620657030280  0.5640498014261262
  0.7705716391746468  0.3100553691459423  0.5585418358702531
  0.1563316104116453  0.9940898298885714  0.2243343487848226
  0.3043233571787602  0.4592503427425407  0.9354049045180715
  0.5924940254296425  0.2706041665236405  0.5228767897751091
  0.1358761666171890  0.8340772254658285  0.9226418821895468
  0.5378190490300750  0.2701887084008400  0.0587402747066700
  0.4588905651894138  0.0780148837378054  0.7194893188801811
  0.2555684787933499  0.5340896719917022  0.6204184232913211
  0.7524566646730796  0.6938256916102163  0.7739171696904434
  0.3374113049446057  0.9173453797768671  0.9075758332487603
  0.6620642505000447  0.0369627034214234  0.3937852051058511
  0.7467122523420889  0.4798806934331327  0.3101634211992859
  0.1343496826830497  0.1425764056047593  0.1447626177766055
  0.0555248765651199  0.4488563130221885  0.5333771794349060
  0.2717608813931293  0.5463283009568427  0.0884675594386303
  0.8205286651301101  0.6254047450572994  0.6811573169081098
  0.4129560789566910  0.6191875275075731  0.9847210252616267
  0.9868538854828469  0.6026130151954671  0.6666609539452560
  0.2257605809711668  0.6590853770014626  0.9754383754166214
  0.6501417496475279  0.3563278775342151  0.1789557091073467
  0.5399716642172870  0.9267415931346615  0.2923785444131323
  0.0034237634983928  0.4977701319859550  0.1533447585785767
 -0.0240630678320767  0.1194217893866299  0.8189258057027899
  0.4591075056486328  0.1069307042965188  0.0889268276681300
  0.7886793099520251  0.5587267418942532  0.1956764831986113
  0.7038560722822644  0.5153373988537777  0.0215288760088305
  0.2471099214383067  0.1228998085924024  0.3109012296980673
  0.2871543328393709  0.3631669203127325  0.1469702255561791
  0.1944992307990911  0.1344493367429293  0.7590561889118491
  0.9296687296680423  0.0143929460938908  0.9671303851129478
  0.2224103498847849  0.8113089192997639  0.2229381828159120
  0.0034542013478936  0.3826821132183783  0.0892877555504245
  0.1734390378456351  0.4786652783397892  0.7994662697910223
  0.1848892924267486  0.8992673826511969  0.7250828964224703
  0.5605450184329416  0.7636641603092388  0.4396008080770467
  0.9431572567534080  0.3692215166122018  0.8456115718306780
  0.9759892669259832  0.4266371252666016  0.6925379641361303
  0.1282890709922108  0.5335275265734005  0.3727138741518229
  0.7966650401154268  0.4252855059031874  0.6108188992665688
  0.5673003872655272  0.4984688479871102  0.6811366698967780
  0.6370507031630492  0.5118406413228914  0.4955267908976196
  0.8397041272525634  0.0636169876043035  0.7077305929199448
  0.9084309671038817  0.6954725290212018  0.1528429579151784
  0.7116699379862843  0.5598255806164365  0.6596658370497198
  0.8855299864472010  0.2975389736379792  0.4976731532068574
  0.2524484478036543  0.2718713485062132  0.9857722577202331
  0.3875180526109873  0.8319542111931210  0.4186336068967385
  0.8093220138581839  0.8023629492567182  0.0222361481826887
  0.4025721350609459  0.7499193962624366  0.8339592542912331
  0.5107821517265624  0.0453095360993332  0.8663011111746315
  0.4511703224130069  0.3106343956890102  0.2121634816273374
  0.5393829430093363  0.7159778800478303  0.1575924544821517
  0.1925116766519402  0.4392803623908920  0.0724809309532634
  0.9204463640774677  0.4429474343446993  0.5795353736435990
  0.0907684166159003  0.8911846955665330  0.3589542435908911
  0.2040628283642160  0.3842656311764120  0.4184339729491363
  0.8414061532390046  0.9517204012990647  0.2205007292111761
  0.2341824819735291  0.2649060314201688  0.3890166739785108
  0.4665608251440659  0.6286019838513934  0.4438675281526403
  0.7229535359142212  0.0885488485075631  0.8909369945195511
  0.0603219475468744  0.6842188930757825  0.0687248798657765
  0.2934511405841919  0.7676297057917839  0.9868695499452778
  0.9085021518015566  0.8969843994630496  0.4250903580617656
  0.4592376753614932  0.8016773800060504  0.6061013693373537
  0.4432528274905175  0.5337480727281307  0.5221440377339842
  0.0344220825409489  0.6622314257513884  0.4807783087753269
  0.3005019737373931  0.3907081209262507  0.5557715481373336
  0.9662777818726586  0.8516116044524465  0.3163913525220510
  0.3053637164700984  0.9118245923341656  0.4723313906109439
  0.7729321979063378  0.9958203402899463 -0.0110011732600306
  0.5940880501459331  0.2077664900099673  0.3416928221623117
  0.9849980019547612  0.0545245007935001  0.2550591514843578
  0.2902183771750851  0.0333558641224060  0.6180506125398323
  0.9796642176007436  0.7266050423292845  0.9716137188718645
  0.3426254343604855  0.1215439653642556  0.3944575208590015
  0.9619256502788479  0.9330752103192997  0.5855790772135228
  0.7977815469668927  0.4427164430796894  0.0706363024485193
  0.8343531070139505  0.3384389527437353  0.1948069980700972
  0.1799437266238472  0.6540251658956179  0.7102617485868190
  0.3953460344689727  0.7906165832535234  0.2427278800143658
  0.4601572110215178  0.2007217042695594  0.7618774597754290
  0.0794559498804988  0.7672980847095191  0.6280005919609631
  0.0099123611868218  0.0471695852299804  0.4392189684053133
  0.1962050457833981  0.9588738547491927  0.4009532252482854
  0.1401760652262972  0.5124909001838809  0.9704967927178494
  0.5976674380055337  0.2188945950638934  0.8945660780742960
  0.8277016653749383  0.8435639923024700  0.7191058049044990
  0.1976997914111763  0.0924208708387609  0.4935517500188112
  0.6863184134495245  0.3574762900076157  0.6730328017072333
  0.2821295366067080  0.5034359678044030  0.2792941718982937
  0.1444809352262978  0.3690735548929693  0.6853130129422281
  0.8996922947035167  0.7573846371771009  0.5791787159996425
  0.3748784095673167  0.9057644454648400  0.7308029185615970
  0.3000619143870552  0.2598348321622270  0.6872916362759117
  0.5093879979051914  0.4495903922348123  0.4147217102816863
  0.1420105202888826  0.5896238142811150  0.2008660190141455
  0.6533870670187440  0.1109041901340921  0.7396277371267463
  0.4502455259309160  0.8084407887642671  0.0280945337123882
  0.3503866171874929  0.9533830240014107  0.2878263690891135
  0.7086285882925872  0.7606955089948981  0.5823908277752349
  0.4325924154428717  0.6070353943706212  0.2654956074757741
  0.1239065465476965  0.0918178100665803  0.3938746075056933
  0.5013400647270989  0.3362273231487562  0.7872615987299199
  0.1319056407221726  0.9682236157864987  0.0292046069990242
 
  0.00000000E+00  0.00000000E+00  0.00000000E+00
  0.00000000E+00  0.00000000E+00  0.00000000E+00
  0.00000000E+00  0.00000000E+00  0.00000000E+00
  0.00000000E+00  0.00000000E+00  0.00000000E+00
  0.00000000E+00  0.00000000E+00  0.00000000E+00
  0.00000000E+00  0.00000000E+00  0.00000000E+00
  0.00000000E+00  0.00000000E+00  0.00000000E+00
  0.00000000E+00  0.00000000E+00  0.00000000E+00
  0.00000000E+00  0.00000000E+00  0.00000000E+00
  0.00000000E+00  0.00000000E+00  0.00000000E+00
  0.00000000E+00  0.00000000E+00  0.00000000E+00
  0.00000000E+00  0.00000000E+00  0.00000000E+00
  0.00000000E+00  0.00000000E+00  0.00000000E+00
  0.00000000E+00  0.00000000E+00  0.00000000E+00
  0.00000000E+00  0.00000000E+00  0.00000000E+00
  0.00000000E+00  0.00000000E+00  0.00000000E+00
  0.00000000E+00  0.00000000E+00  0.00000000E+00
  0.00000000E+00  0.00000000E+00  0.00000000E+00
  0.00000000E+00  0.00000000E+00  0.00000000E+00
  0.00000000E+00  0.00000000E+00  0.00000000E+00
  0.00000000E+00  0.00000000E+00  0.00000000E+00
  0.00000000E+00  0.00000000E+00  0.00000000E+00
  0.00000000E+00  0.00000000E+00  0.00000000E+00
  0.00000000E+00  0.00000000E+00  0.00000000E+00
  0.00000000E+00  0.00000000E+00  0.00000000E+00
  0.00000000E+00  0.00000000E+00  0.00000000E+00
  0.00000000E+00  0.00000000E+00  0.00000000E+00
  0.00000000E+00  0.00000000E+00  0.00000000E+00
  0.00000000E+00  0.00000000E+00  0.00000000E+00
  0.00000000E+00  0.00000000E+00  0.00000000E+00
  0.00000000E+00  0.00000000E+00  0.00000000E+00
  0.00000000E+00  0.00000000E+00  0.00000000E+00
  0.00000000E+00  0.00000000E+00  0.00000000E+00
  0.00000000E+00  0.00000000E+00  0.00000000E+00
  0.00000000E+00  0.00000000E+00  0.00000000E+00
  0.00000000E+00  0.00000000E+00  0.00000000E+00
  0.00000000E+00  0.00000000E+00  0.00000000E+00
  0.00000000E+00  0.00000000E+00  0.00000000E+00
  0.00000000E+00  0.00000000E+00  0.00000000E+00
  0.00000000E+00  0.00000000E+00  0.00000000E+00
  0.00000000E+00  0.00000000E+00  0.00000000E+00
  0.00000000E+00  0.00000000E+00  0.00000000E+00
  0.00000000E+00  0.00000000E+00  0.00000000E+00
  0.00000000E+00  0.00000000E+00  0.00000000E+00
  0.00000000E+00  0.00000000E+00  0.00000000E+00
  0.00000000E+00  0.00000000E+00  0.00000000E+00
  0.00000000E+00  0.00000000E+00  0.00000000E+00
  0.00000000E+00  0.00000000E+00  0.00000000E+00
  0.00000000E+00  0.00000000E+00  0.00000000E+00
  0.00000000E+00  0.00000000E+00  0.00000000E+00
  0.00000000E+00  0.00000000E+00  0.00000000E+00
  0.00000000E+00  0.00000000E+00  0.00000000E+00
  0.00000000E+00  0.00000000E+00  0.00000000E+00
  0.00000000E+00  0.00000000E+00  0.00000000E+00
  0.00000000E+00  0.00000000E+00  0.00000000E+00
  0.00000000E+00  0.00000000E+00  0.00000000E+00
  0.00000000E+00  0.00000000E+00  0.00000000E+00
  0.00000000E+00  0.00000000E+00  0.00000000E+00
  0.00000000E+00  0.00000000E+00  0.00000000E+00
  0.00000000E+00  0.00000000E+00  0.00000000E+00
  0.00000000E+00  0.00000000E+00  0.00000000E+00
  0.00000000E+00  0.00000000E+00  0.00000000E+00
  0.00000000E+00  0.00000000E+00  0.00000000E+00
  0.00000000E+00  0.00000000E+00  0.00000000E+00
  0.00000000E+00  0.00000000E+00  0.00000000E+00
  0.00000000E+00  0.00000000E+00  0.00000000E+00
  0.00000000E+00  0.00000000E+00  0.00000000E+00
  0.00000000E+00  0.00000000E+00  0.00000000E+00
  0.00000000E+00  0.00000000E+00  0.00000000E+00
  0.00000000E+00  0.00000000E+00  0.00000000E+00
  0.00000000E+00  0.00000000E+00  0.00000000E+00
  0.00000000E+00  0.00000000E+00  0.00000000E+00
  0.00000000E+00  0.00000000E+00  0.00000000E+00
  0.00000000E+00  0.00000000E+00  0.00000000E+00
  0.00000000E+00  0.00000000E+00  0.00000000E+00
  0.00000000E+00  0.00000000E+00  0.00000000E+00
  0.00000000E+00  0.00000000E+00  0.00000000E+00
  0.00000000E+00  0.00000000E+00  0.00000000E+00
  0.00000000E+00  0.00000000E+00  0.00000000E+00
  0.00000000E+00  0.00000000E+00  0.00000000E+00
  0.00000000E+00  0.00000000E+00  0.00000000E+00
  0.00000000E+00  0.00000000E+00  0.00000000E+00
  0.00000000E+00  0.00000000E+00  0.00000000E+00
  0.00000000E+00  0.00000000E+00  0.00000000E+00
  0.00000000E+00  0.00000000E+00  0.00000000E+00
  0.00000000E+00  0.00000000E+00  0.00000000E+00
  0.00000000E+00  0.00000000E+00  0.00000000E+00
  0.00000000E+00  0.00000000E+00  0.00000000E+00
  0.00000000E+00  0.00000000E+00  0.00000000E+00
  0.00000000E+00  0.00000000E+00  0.00000000E+00
  0.00000000E+00  0.00000000E+00  0.00000000E+00
  0.00000000E+00  0.00000000E+00  0.00000000E+00
  0.00000000E+00  0.00000000E+00  0.00000000E+00
  0.00000000E+00  0.00000000E+00  0.00000000E+00
  0.00000000E+00  0.00000000E+00  0.00000000E+00
  0.00000000E+00  0.00000000E+00  0.00000000E+00
  0.00000000E+00  0.00000000E+00  0.00000000E+00
  0.00000000E+00  0.00000000E+00  0.00000000E+00
  0.00000000E+00  0.00000000E+00  0.00000000E+00
  0.00000000E+00  0.00000000E+00  0.00000000E+00
  0.00000000E+00  0.00000000E+00  0.00000000E+00
  0.00000000E+00  0.00000000E+00  0.00000000E+00
  0.00000000E+00  0.00000000E+00  0.00000000E+00
  0.00000000E+00  0.00000000E+00  0.00000000E+00
  0.00000000E+00  0.00000000E+00  0.00000000E+00
  0.00000000E+00  0.00000000E+00  0.00000000E+00
  0.00000000E+00  0.00000000E+00  0.00000000E+00
  0.00000000E+00  0.00000000E+00  0.00000000E+00
  0.00000000E+00  0.00000000E+00  0.00000000E+00
  0.00000000E+00  0.00000000E+00  0.00000000E+00
  0.00000000E+00  0.00000000E+00  0.00000000E+00
  0.00000000E+00  0.00000000E+00  0.00000000E+00
  0.00000000E+00  0.00000000E+00  0.00000000E+00
  0.00000000E+00  0.00000000E+00  0.00000000E+00
  0.00000000E+00  0.00000000E+00  0.00000000E+00
  0.00000000E+00  0.00000000E+00  0.00000000E+00
  0.00000000E+00  0.00000000E+00  0.00000000E+00
  0.00000000E+00  0.00000000E+00  0.00000000E+00
  0.00000000E+00  0.00000000E+00  0.00000000E+00
  0.00000000E+00  0.00000000E+00  0.00000000E+00
  0.00000000E+00  0.00000000E+00  0.00000000E+00
  0.00000000E+00  0.00000000E+00  0.00000000E+00
  0.00000000E+00  0.00000000E+00  0.00000000E+00
  0.00000000E+00  0.00000000E+00  0.00000000E+00
  0.00000000E+00  0.00000000E+00  0.00000000E+00
  0.00000000E+00  0.00000000E+00  0.00000000E+00
  0.00000000E+00  0.00000000E+00  0.00000000E+00
  0.00000000E+00  0.00000000E+00  0.00000000E+00
  0.00000000E+00  0.00000000E+00  0.00000000E+00
  0.00000000E+00  0.00000000E+00  0.00000000E+00
  0.00000000E+00  0.00000000E+00  0.00000000E+00
  0.00000000E+00  0.00000000E+00  0.00000000E+00
  0.00000000E+00  0.00000000E+00  0.00000000E+00
  0.00000000E+00  0.00000000E+00  0.00000000E+00
  0.00000000E+00  0.00000000E+00  0.00000000E+00
  0.00000000E+00  0.00000000E+00  0.00000000E+00
  0.00000000E+00  0.00000000E+00  0.00000000E+00
  0.00000000E+00  0.00000000E+00  0.00000000E+00
  0.00000000E+00  0.00000000E+00  0.00000000E+00
  0.00000000E+00  0.00000000E+00  0.00000000E+00
  0.00000000E+00  0.00000000E+00  0.00000000E+00
  0.00000000E+00  0.00000000E+00  0.00000000E+00
  0.00000000E+00  0.00000000E+00  0.00000000E+00
  0.00000000E+00  0.00000000E+00  0.00000000E+00
  0.00000000E+00  0.00000000E+00  0.00000000E+00
  0.00000000E+00  0.00000000E+00  0.00000000E+00
  0.00000000E+00  0.00000000E+00  0.00000000E+00
  0.00000000E+00  0.00000000E+00  0.00000000E+00
  0.00000000E+00  0.00000000E+00  0.00000000E+00
  0.00000000E+00  0.00000000E+00  0.00000000E+00
  0.00000000E+00  0.00000000E+00  0.00000000E+00
  0.00000000E+00  0.00000000E+00  0.00000000E+00
  0.00000000E+00  0.00000000E+00  0.00000000E+00
  0.00000000E+00  0.00000000E+00  0.00000000E+00
  0.00000000E+00  0.00000000E+00  0.00000000E+00
  0.00000000E+00  0.00000000E+00  0.00000000E+00
  0.00000000E+00  0.00000000E+00  0.00000000E+00
  0.00000000E+00  0.00000000E+00  0.00000000E+00
  0.00000000E+00  0.00000000E+00  0.00000000E+00
  0.00000000E+00  0.00000000E+00  0.00000000E+00
  0.00000000E+00  0.00000000E+00  0.00000000E+00
  0.00000000E+00  0.00000000E+00  0.00000000E+00
  0.00000000E+00  0.00000000E+00  0.00000000E+00
  0.00000000E+00  0.00000000E+00  0.00000000E+00
  0.00000000E+00  0.00000000E+00  0.00000000E+00
  0.00000000E+00  0.00000000E+00  0.00000000E+00
  0.00000000E+00  0.00000000E+00  0.00000000E+00
  0.00000000E+00  0.00000000E+00  0.00000000E+00
  0.00000000E+00  0.00000000E+00  0.00000000E+00
  0.00000000E+00  0.00000000E+00  0.00000000E+00
  0.00000000E+00  0.00000000E+00  0.00000000E+00
  0.00000000E+00  0.00000000E+00  0.00000000E+00
  0.00000000E+00  0.00000000E+00  0.00000000E+00
  0.00000000E+00  0.00000000E+00  0.00000000E+00
  0.00000000E+00  0.00000000E+00  0.00000000E+00
  0.00000000E+00  0.00000000E+00  0.00000000E+00
  0.00000000E+00  0.00000000E+00  0.00000000E+00
  0.00000000E+00  0.00000000E+00  0.00000000E+00
  0.00000000E+00  0.00000000E+00  0.00000000E+00
  0.00000000E+00  0.00000000E+00  0.00000000E+00
  0.00000000E+00  0.00000000E+00  0.00000000E+00
  0.00000000E+00  0.00000000E+00  0.00000000E+00
  0.00000000E+00  0.00000000E+00  0.00000000E+00
  0.00000000E+00  0.00000000E+00  0.00000000E+00
  0.00000000E+00  0.00000000E+00  0.00000000E+00
  0.00000000E+00  0.00000000E+00  0.00000000E+00
  0.00000000E+00  0.00000000E+00  0.00000000E+00
  0.00000000E+00  0.00000000E+00  0.00000000E+00
  0.00000000E+00  0.00000000E+00  0.00000000E+00
  0.00000000E+00  0.00000000E+00  0.00000000E+00
  0.00000000E+00  0.00000000E+00  0.00000000E+00
  0.00000000E+00  0.00000000E+00  0.00000000E+00
  0.00000000E+00  0.00000000E+00  0.00000000E+00
  0.00000000E+00  0.00000000E+00  0.00000000E+00
  0.00000000E+00  0.00000000E+00  0.00000000E+00
  0.00000000E+00  0.00000000E+00  0.00000000E+00
  0.00000000E+00  0.00000000E+00  0.00000000E+00
  0.00000000E+00  0.00000000E+00  0.00000000E+00
  0.00000000E+00  0.00000000E+00  0.00000000E+00
  0.00000000E+00  0.00000000E+00  0.00000000E+00
  0.00000000E+00  0.00000000E+00  0.00000000E+00
  0.00000000E+00  0.00000000E+00  0.00000000E+00
  0.00000000E+00  0.00000000E+00  0.00000000E+00
  0.00000000E+00  0.00000000E+00  0.00000000E+00
  0.00000000E+00  0.00000000E+00  0.00000000E+00
  0.00000000E+00  0.00000000E+00  0.00000000E+00
  0.00000000E+00  0.00000000E+00  0.00000000E+00
  0.00000000E+00  0.00000000E+00  0.00000000E+00
  0.00000000E+00  0.00000000E+00  0.00000000E+00
  0.00000000E+00  0.00000000E+00  0.00000000E+00
  0.00000000E+00  0.00000000E+00  0.00000000E+00
  0.00000000E+00  0.00000000E+00  0.00000000E+00
  0.00000000E+00  0.00000000E+00  0.00000000E+00
  0.00000000E+00  0.00000000E+00  0.00000000E+00
  0.00000000E+00  0.00000000E+00  0.00000000E+00
  0.00000000E+00  0.00000000E+00  0.00000000E+00
  0.00000000E+00  0.00000000E+00  0.00000000E+00
  0.00000000E+00  0.00000000E+00  0.00000000E+00
  0.00000000E+00  0.00000000E+00  0.00000000E+00
  0.00000000E+00  0.00000000E+00  0.00000000E+00
  0.00000000E+00  0.00000000E+00  0.00000000E+00
  0.00000000E+00  0.00000000E+00  0.00000000E+00
  0.00000000E+00  0.00000000E+00  0.00000000E+00
  0.00000000E+00  0.00000000E+00  0.00000000E+00
  0.00000000E+00  0.00000000E+00  0.00000000E+00
  0.00000000E+00  0.00000000E+00  0.00000000E+00
  0.00000000E+00  0.00000000E+00  0.00000000E+00
  0.00000000E+00  0.00000000E+00  0.00000000E+00
  0.00000000E+00  0.00000000E+00  0.00000000E+00
  0.00000000E+00  0.00000000E+00  0.00000000E+00
  0.00000000E+00  0.00000000E+00  0.00000000E+00
  0.00000000E+00  0.00000000E+00  0.00000000E+00