Amorphous Sb                            
   1.00000000000000     
    22.7619198510770424    0.0000000000000000    0.0000000000000000
     0.0000000000000000   22.7619198510770424    0.0000000000000000
     0.0000000000000000    0.0000000000000000   22.7619198510770424
   In   Te
    60   240
Direct
  0.0571679077370895  0.3949142747142277  0.2459992275000824
  0.3373287368507031  0.4171378619037630  0.3946184202233830
  0.1561271837190839  0.0295933070296034  0.9596608074809253
  0.3747139186674256  0.8211793455249412  0.7563050970899116
  0.2706172276322192  0.6340859010712983  0.0165372250196715
  0.2823437536642367  0.5869982030668301  0.3974364853360747
  0.6474096436661851  0.2786952884534897  0.7086562661871788
  0.4771163217661381  0.1286738809935807  0.8175526230965225
  0.0378271113963738  0.7892881379445864  0.2168868871455694
  0.9793492240691135  0.9064413772103421  0.9067556386932420
  0.4196419000363780  0.6826037357764050  0.3482569133290384
  0.8248302972783814  0.4349148093561467  0.6950308781350236
  0.4029286091899290  0.2859887795066900  0.5425917414157402
  0.6167138718463385  0.2612942126431929  0.1695966389613724
  0.3739465392691398  0.7227866312509845  0.8938311236084119
  0.0628581751536666  0.6012469963946301  0.4178723149597549
  0.1161371767127926  0.8224996595014548  0.4473425492661677
  0.5763387235191405  0.4245812678043170  0.1675546989728146
  0.6352202484567628  0.7414897962726819  0.7826397806708462
  0.8166421620628993  0.0542093666791802  0.1695940248451336
  0.5722756208991961  0.2881160356801690  0.9582161594998948
  0.3012893892958936  0.0133068165749995  0.1893894971170673
  0.8259087606559111  0.4279926156438731  0.8762247797341461
  0.5833272823345159  0.1611887220513877  0.3476571497432565
  0.3806003203935224  0.0128932993423512  0.7601763197252618
  0.9325845776948343  0.4044868347937735  0.1185454143994166
  0.0883535381393952  0.1038320225341104  0.8092420491973688
  0.4817228202863771  0.5552652818632192  0.2302022825796523
  0.0242181347681746  0.6392831383635560  0.0500251918886521
  0.4827172121951597  0.0025525642169350  0.2167558497002402
  0.3812263389351314  0.8539903945131929  0.4282347617869535
  0.3918751047628756  0.1357816911209371  0.0960362325358979
  0.4167458353523578  0.4539977685548677  0.8597848833586382
  0.0137246598082370  0.2208392890282418  0.0584099516950486
  0.9726530002855706  0.0724230556570426  0.5019450672003777
  0.9890305163546620  0.8619250513642167  0.0240260329533374
  0.6873072614877215  0.9976693437496530  0.3031861031711109
  0.7083544141419811  0.7287909306193145  0.1885394260579139
  0.2020170084025368  0.2228757052825009  0.9294810105181367
  0.8664723642494853  0.1487494180932231  0.7936325715852137
  0.4890032382901517  0.6781040333285382  0.0000096037115964
  0.3225014644400251  0.4913183084469828  0.7158043870097647
  0.8742271395688149  0.7013799659170445  0.0847206483179817
  0.1648137152130216  0.3973068035215194  0.9166765812094121
  0.2680870420727015  0.2612047141097126  0.7441679361908942
  0.7502399790895624  0.9170354900001274  0.8932265432735892
  0.1969348833174039  0.3305539525092150  0.0657270230376873
  0.4667840531506876  0.8016610277640980  0.1251905104856200
  0.9943987727663256  0.3776290626632335  0.9455057329508546
  0.6971834836912111  0.0003670491654322  0.4995817123521669
  0.1199662683505662  0.9506882454426536  0.1449656579277157
  0.4985096662761064  0.0901597224213079  0.6005891728701913
  0.0007666474401629  0.2911980635204994  0.4112120023417994
  0.3905847754681789  0.3930246485783411  0.0779457126727613
  0.2081057712211682  0.6744046958571442  0.7766263479919169
  0.5291669938275687  0.3642044048507667  0.4241998407870659
  0.0722648778504958  0.5413694650965210  0.8570091866580318
  0.6988081461148161  0.8409745928360134  0.6473236836594679
  0.9592189240517585  0.1303141739946509  0.6986321199002147
  0.7303934605351189  0.2183878149693775  0.8704212655460075
  0.5049039538576464  0.6827141979059619  0.1220856834498713
  0.6232110020813650  0.9681294341986035  0.4050146857745136
  0.7677025675755959  0.5421705809340115  0.9386842894633913
  0.5364145948024668  0.7156064828214933  0.3304372906611803
  0.1924602479533683  0.0936646705474806  0.2592454291427863
  0.9035562457784261  0.4789679606126361  0.6051659810035466
  0.0508767967869910  0.7496102751996991  0.8490758558311952
  0.3233454801183073  0.3316607619088305  0.6306920617296139
  0.1048559169087934  0.0752283888485469  0.1303969731172307
  0.1135117997066021  0.8794623566047604  0.0437505925715417
  0.7489100356155554  0.1924998139437976  0.3038549612216144
  0.2688101326103517  0.6878047550681273  0.5354843226498609
  0.1425000923384861  0.9866884559308257  0.5025012991782324
  0.8394949338725290  0.2400495053616554  0.0750012058602218
  0.5777765272866101  0.2862374601299099  0.8210316704369184
  0.8928220754077957  0.3290705911454387  0.2890936380913888
  0.8348375743911741  0.8216840522093718  0.9639828762695358
  0.1573415078565973  0.2157625141352230  0.0437082117540744
  0.7425408192657105  0.7942896449080149  0.8197563004295714
  0.4112359987199181  0.8371761531736522  0.2364766570697647
  0.2901198268559180  0.5292944746048799  0.6042484211925292
  0.4582621164046064  0.2810928176064406  0.3538077087050719
  0.2474338840860026  0.4809917849786230  0.4544665534314735
  0.3584461519335172  0.3491551265608191  0.8182410545720071
  0.3523510138701788  0.1190896988953383  0.8241838542615320
  0.2044074726428494  0.4385874938178969  0.7495351984521950
  0.1458737386478524  0.5048561627537507  0.2746803963970334
  0.6872515155457557  0.3839106899996025  0.8750960604138821
  0.7759156930925682  0.9654628749278721  0.7266286441725863
  0.5207938424482805  0.3228911798166836  0.5422138411010271
  0.1190807686679424  0.5081504926524183  0.6832135338263272
  0.0903222589633523  0.9759729493452955  0.7806497194932371
  0.9081576334212522  0.5802776432969327  0.0565680316572524
  0.8610161211806252  0.5191759043353722  0.4692804613626700
  0.2952684176693426  0.0859907424954966  0.4253684038937251
  0.9179269920383895  0.8922470964904626  0.1277061158798677
  0.1817398796190006  0.6831664127206738  0.9410795203501009
  0.7918512213036203  0.3367507853231783  0.2055783474291180
  0.9689043712538530  0.4740922173617019  0.8673576117477364
  0.3208994062594593  0.4281633371841295  0.2682890932815645
  0.1314759739413736  0.6762440294805543  0.3192039790296938
  0.0175027711530785  0.7855931176969018  0.6740289583882185
  0.4417948405077191  0.9547174991737045  0.3815553355250798
  0.7060040283469199  0.2990780397975571  0.9646494694906557
  0.7143741879328632  0.9973165883473009  0.1222676113589649
  0.4071123043258547  0.3933339164901741  0.7105643964387633
  0.1096673325613532  0.5828033428595429  0.9730852002254897
  0.4575980091547307  0.8579022780309784  0.6676958007614752
  0.3689151308764726  0.1609344880619004  0.6945385847437953
  0.9593656281459035  0.4069579045853112  0.4425339900609070
  0.5146843902870981  0.5192663965992991  0.1160713058001072
  0.3319460812671076  0.7756742507122569  0.3360806398120035
  0.5377131357293287  0.4594283666394346  0.8177636371519872
  0.5971524991875172  0.1280523414524196  0.0563945057525358
  0.0141170502828158  0.2774512620590578  0.8723365798014898
  0.0832930038876624  0.7092442908039449  0.5947769580501759
  0.5896458143572832  0.4486753684240967  0.2902798307550424
  0.6340380546738061  0.8483851542233914  0.9290224453545358
  0.0148875306820507  0.9186091598587337  0.2162063356135300
  0.4555525004312612  0.4708562234298403  0.4111985834898995
  0.1250830521332477  0.8065446655007404  0.3185292489171579
  0.0839982909539183  0.6086589958071398  0.7527957476848827
  0.0097195475017304  0.3298128693435915  0.6418149481461680
  0.3789524087536502  0.7894791112854710  0.5947542407901597
  0.8053352404784986  0.8228743987003696  0.7155310534253315
  0.6995992427138443  0.0519479781293613  0.8464690831144747
  0.6460765402071466  0.6465791903496091  0.8642571176297336
  0.1824051915440402  0.7808026580257131  0.5582853407277516
  0.7449891260774868  0.8864327259849063  0.5348742989534947
  0.7536343251675394  0.5277876739757950  0.0623275901861270
  0.8854633048740392  0.3768258529940686  0.0071215555394956
  0.8411630174306801  0.9915803483794582  0.9948316507580743
  0.9112183826628026  0.3609357749772985  0.5685857580944942
  0.6227229499941657  0.1605158380891113  0.8403040996940816
  0.5214196220608441  0.9156740122222496  0.7892752716957313
  0.7652499702278898  0.2529918426704808  0.7561660487480601
  0.6739387609309897  0.6204176789639889  0.0506453522055158
  0.7161707777383917  0.3297023798778008  0.3205729701498353
  0.5355727387363424  0.6158238567917411  0.9019952360842856
  0.8028500383430893  0.2331303798347000  0.5799618661556216
  0.6205168557282371  0.7462154505965268  0.6599455578760737
  0.0255609271446675  0.7258474831695815  0.4731259156059035
  0.3870050391082934  0.0699995060544153  0.2719937271027710
  0.2371835727073965  0.7068510425534624  0.3977696548136091
  0.2029364325495432  0.2611377894764667  0.4713403133116045
  0.8873408816378635  0.2650823136441670  0.8733423093189677
  0.8532873068480495  0.4591952877171417  0.2018837367300279
  0.7387919174445056  0.5547257756561109  0.2024049100690666
  0.1115574948513019  0.9275292711022012  0.8974872018743039
  0.8824838697696763  0.9856295497550914  0.4872343695961464
  0.6602081288248526  0.8250965983449400  0.4607710872187608
  0.1957726657261649  0.5021716001563944  0.8561954477642576
  0.0128625404031556  0.6724894211366779  0.2705414181615620
  0.4605748657058887  0.4381791031977858  0.2835005958403347
  0.9873637162390831  0.1254456689779000  0.1686264880816570
  0.1553036493506327  0.2972680986453147  0.6493157266985922
  0.6443495992354201  0.0541216337478638  0.6018622535025763
  0.2693686851169148  0.0917701969489377  0.0960868199575423
  0.9650474961821947  0.7377590901683154  0.9981885598167994
  0.8946544931301591  0.1796869824888610  0.9775474698414730
  0.6341812498295274  0.6222373517764042  0.1734281046359435
  0.8848514715062619  0.3359943912005641  0.7539758867566114
  0.3949274068410809  0.1487611189021545  0.9718895379672042
  0.6549487660003432  0.3485151108457708  0.4330546550076222
  0.2122362084063028  0.9116298888987775  0.4244913522719733
  0.7837843324226180  0.5297059541381043  0.7681820861412273
  0.0714588001603311  0.0719981373031285  0.5803054901183536
  0.5662411572021715  0.8806623061013122  0.1127044055346765
  0.5687222034391052  0.9240772093550967  0.9988419487724703
  0.1263273445854161  0.7848448882668629  0.7587862056313659
  0.6878211264328652  0.7881937345385679  0.0791729293259010
  0.9156243696244122  0.0224987813729223  0.0917149272529546
  0.3225175651782586  0.0312948021541712  0.6515121719353634
  0.1054080676204410  0.1709814274923911  0.4450510257277455
  0.7730235176725226  0.9006602537384429  0.0452688984000112
  0.2725579741331063  0.5504294829761627  0.2744358532094741
  0.0069183593628070  0.1077528530433561  0.3887671244913659
  0.2184923388857201  0.9242783205175225  0.2186603245955142
  0.2474059989729581  0.2308306629405505  0.5806489345805239
  0.7044835055495579  0.9106900121267071  0.2144681044397913
  0.5936243164966307  0.0756380146091324  0.2541451994577870
  0.3508741257794323  0.5077877167318978  0.1115286491731281
  0.5370863767114852  0.7986904257811113  0.8503777800893701
  0.5377023777922526  0.6007326773530627  0.5110448334083810
  0.4021837053889490  0.1780494523679230  0.2137606426344419
  0.8914914095118325  0.7025821351274050  0.4593833156714933
  0.1886707703975128  0.4111554595628861  0.6039355883590442
  0.2497473082582470  0.9313356397676134  0.6634130557285491
  0.6909827347970184  0.1685627654785458  0.4127325303966363
  0.7937542378673714  0.1135208665655489  0.9063290580566798
  0.6782957933289463  0.3611455566825381  0.1269926192131914
  0.8809005823637354  0.6028396287285973  0.7695239445071012
  0.5150966163220368  0.4424537650819918  0.6155853436059090
  0.0055086750131272  0.4708224843378104  0.3398036868481076
  0.3960039259665571  0.9489875720312635  0.1272507229510765
  0.0932661915716004  0.4105253798498994  0.0175259000023953
  0.8476020064091202  0.6998445412096347  0.5919309063526540
  0.8138634304100512  0.6574303636477982  0.2038244124468875
  0.6888737024434310  0.7167662994758062  0.5080440156643311
  0.8091410802220322  0.1060899788334108  0.6069908822576564
  0.3277087700495438  0.2795247817198184  0.0896176645102539
  0.6682286277382944  0.1453523738296174  0.1617183082283132
  0.2903975262899285  0.8699163279816742  0.5147513281682905
  0.7706412538167767  0.7209624271073836  0.0089747266466147
  0.4462336901579482  0.5173876246589040  0.5430827549462787
  0.0293292856377032  0.2412933165285391  0.5232638882791619
  0.6558157584560736  0.9495902341293920  0.6996710889929624
 -0.0133578594792404  0.3091836060031727  0.1769195981646579
  0.0529438208608036  0.0731671503486104  0.0147438422675441
  0.1019827788367444  0.3082902576194524  0.3364361216611827
  0.0535706783198886  0.5361993149299837  0.5580837760829159
  0.5252828495619498  0.2455858144013189  0.0844866304305887
  0.9169629759835085  0.6171089920776314  0.6538235351004481
  0.9541819124006393  0.8163595516956439  0.8189909087304741
  0.4008544023156994  0.9141418988138565  0.8428695780523277
  0.3128716306726015  0.7060407494848390  0.1104428024968029
  0.0660748546854637  0.1912277295413561  0.7264609417565493
  0.9613379031760247  0.7494980754932128  0.3614315440367995
  0.5353169061010556  0.8916286509726299  0.5244107761339871
  0.9377629127879930  0.5575278160373986  0.1871978751567622
  0.9100838561307711  0.8064891673446709  0.6074278415405765
  0.6243938931467434  0.5579512990266587  0.5819531627162174
  0.3241125603387955  0.2689419956776791  0.9533290287164322
  0.7234625584789147  0.1809230189103860  0.0500108846213660
  0.5717325431125927  0.4191079193971132  0.9426036887267352
  0.4426695661748581  0.7210357017585983  0.7895147587529641
  0.3865240070879649  0.6260587589433806  0.4562539254564782
  0.5177727221478409  0.1581268087973636  0.9352220176323290
  0.9442777861571133  0.0008069688467426  0.8286268903430788
  0.6818276255020276  0.7929853753705732  0.2938443231310655
  0.7637627740909164  0.5766097648797357  0.5201743816899554
  0.4769428406690525  0.3419000895146089  0.1581389796214994
  0.1478161339387704  0.2983605288421582  0.8452207616193649
  0.2380878402705242  0.5229309633627121  0.0648975619598911
  0.1249478733198204  0.4649357705491500  0.3918874082354006
  0.2883641010148792  0.8968047415726127  0.9160994660183338
  0.9314528357255266  0.2139649920626592  0.3408437345122671
  0.1692171483361783  0.2047970359738875  0.2134099540638496
  0.4527211382555806  0.4514789110521257  0.9809177577656257
  0.4230598679096303  0.0382033837063295  0.4710810245057840
  0.7932096639526177  0.0693967170990148  0.4551828015305756
  0.2381070089392766  0.0672782793797955  0.5300540305545268
  0.0032473894121249  0.0151306251627381  0.6654820117788219
  0.4426573663301486  0.9576348948488173  0.5747507826645918
  0.2157742072554484  0.9466299531999175  0.7784143699891506
  0.0923639493283128  0.6380136587755951  0.1547168037638229
  0.8350299465984515  0.9700425596986159  0.6108198833777365
  0.2605151449000763 -0.0092705491161495  0.0184043027701609
  0.6410711355545282  0.4057965541048965  0.7048216564543954
  0.8361149355051060  0.5528172312718631  0.3548243531405175
  0.3549432585911201  0.8052973886811247  0.0556886574936092
  0.4735574321869344  0.2383205201726967  0.7540255626712887
  0.0840369416082467  0.4231416321478699  0.5259218237795663
  0.3486775151659047  0.2942598168660771  0.4245660142958141
  0.9041388012316061  0.7736033046793862  0.1836625898926639
  0.6857783458008174  0.2708974184886073  0.5810001446473765
  0.9267335213744208  0.1696007073148876  0.5756006242364160
  0.4727404662511592  0.1672446680043813  0.4091120693962624
  0.2781361769434817  0.7843015937250291  0.6857413830944450
  0.8190646765614744  0.3650263073277420  0.3836826938041438
  0.3743042581403435  0.1665906374991637  0.5632003527266785
  0.1990154021828139  0.1099811974010430  0.8697447459571280
  0.7889149426987182  0.7781597518871990  0.3494533998536988
  0.2635915691548497  0.7804182265915633  0.8767360551826625
  0.0285598167363254  0.4873234092543374  0.1408984645405376
  0.6208405255358418  0.1657628649389344  0.5413787156520219
  0.4484412407044550  0.7977321489229020  0.9657840790628511
  0.7697471871002076  0.6744393829278993  0.4173153448271638
  0.5989410515949262  0.5995708378258587  0.6940813151541455
  0.5506233075813292  0.2055223097268202  0.6617876599223737
  0.3820554295386808  0.6160790247047516  0.9574351788761962
  0.7597711490906259  0.0932726313504636  0.7274193491528372
 -0.0088222434187556  0.9321365874371235  0.3747703317654895
  0.8626608380046477  0.6220656387697538  0.9390676047935268
  0.5825543484046284  0.2738791429164089  0.2890283144398840
  0.0284516961950381  0.9093733951386648  0.4877947255210051
  0.7147186963737245  0.5178325141239141  0.3495008974740869
  0.1558205743231414  0.6018942269516991  0.5224583662173141
  0.2150334806832362  0.1599476538863263  0.3646428570816905
  0.5165047075974574  0.8895989874481118  0.2656892273280351
  0.9907461521279485  0.4016012715965582  0.7404768213129009
  0.9868061583249692  0.0993731748903128  0.8883205294392605
  0.3559448465538497  0.5534633063675869  0.8156749972109228
  0.1015358779062057  0.9390609727386724  0.3159981711574466
  0.4790829159068258  0.0399197872742847  0.0938333907655054
  0.1990831114273936  0.3702356933514605  0.1839652418482451
  0.6996886518908424  0.4748059364145226  0.4634715266294360
  0.1114067395730786  0.7578077418626435  0.1211935908531073
  0.8636672822351508  0.1748886745224575  0.1801370533604527
  0.7279974145210171  0.4028352264526930  0.6183625619503021
  0.5727109805563086  0.5983859627647354  0.3060800418911198
  0.3796293718727609  0.6253823092346538  0.2433375527027280
  0.4701726255165511  0.7905497143038852  0.4962587054803433
  0.5056782002288365  0.0373509796336572  0.7358983798947991
  0.0556329283873485  0.2109585212422007  0.2664196174254818
  0.2839484813209906  0.6510504260514210  0.6570163480551103
  0.2961284625213322  0.2977181533904964  0.2144583921623892
  0.4991851268066637  0.5270207863862421  0.7131271921698151
  0.7954082998632469  0.0635385769971999  0.2960309090008047
  0.2729325345142611  0.3854655658233707  0.9782612384688217
 
  0.00000000E+00  0.00000000E+00  0.00000000E+00
  0.00000000E+00  0.00000000E+00  0.00000000E+00
  0.00000000E+00  0.00000000E+00  0.00000000E+00
  0.00000000E+00  0.00000000E+00  0.00000000E+00
  0.00000000E+00  0.00000000E+00  0.00000000E+00
  0.00000000E+00  0.00000000E+00  0.00000000E+00
  0.00000000E+00  0.00000000E+00  0.00000000E+00
  0.00000000E+00  0.00000000E+00  0.00000000E+00
  0.00000000E+00  0.00000000E+00  0.00000000E+00
  0.00000000E+00  0.00000000E+00  0.00000000E+00
  0.00000000E+00  0.00000000E+00  0.00000000E+00
  0.00000000E+00  0.00000000E+00  0.00000000E+00
  0.00000000E+00  0.00000000E+00  0.00000000E+00
  0.00000000E+00  0.00000000E+00  0.00000000E+00
  0.00000000E+00  0.00000000E+00  0.00000000E+00
  0.00000000E+00  0.00000000E+00  0.00000000E+00
  0.00000000E+00  0.00000000E+00  0.00000000E+00
  0.00000000E+00  0.00000000E+00  0.00000000E+00
  0.00000000E+00  0.00000000E+00  0.00000000E+00
  0.00000000E+00  0.00000000E+00  0.00000000E+00
  0.00000000E+00  0.00000000E+00  0.00000000E+00
  0.00000000E+00  0.00000000E+00  0.00000000E+00
  0.00000000E+00  0.00000000E+00  0.00000000E+00
  0.00000000E+00  0.00000000E+00  0.00000000E+00
  0.00000000E+00  0.00000000E+00  0.00000000E+00
  0.00000000E+00  0.00000000E+00  0.00000000E+00
  0.00000000E+00  0.00000000E+00  0.00000000E+00
  0.00000000E+00  0.00000000E+00  0.00000000E+00
  0.00000000E+00  0.00000000E+00  0.00000000E+00
  0.00000000E+00  0.00000000E+00  0.00000000E+00
  0.00000000E+00  0.00000000E+00  0.00000000E+00
  0.00000000E+00  0.00000000E+00  0.00000000E+00
  0.00000000E+00  0.00000000E+00  0.00000000E+00
  0.00000000E+00  0.00000000E+00  0.00000000E+00
  0.00000000E+00  0.00000000E+00  0.00000000E+00
  0.00000000E+00  0.00000000E+00  0.00000000E+00
  0.00000000E+00  0.00000000E+00  0.00000000E+00
  0.00000000E+00  0.00000000E+00  0.00000000E+00
  0.00000000E+00  0.00000000E+00  0.00000000E+00
  0.00000000E+00  0.00000000E+00  0.00000000E+00
  0.00000000E+00  0.00000000E+00  0.00000000E+00
  0.00000000E+00  0.00000000E+00  0.00000000E+00
  0.00000000E+00  0.00000000E+00  0.00000000E+00
  0.00000000E+00  0.00000000E+00  0.00000000E+00
  0.00000000E+00  0.00000000E+00  0.00000000E+00
  0.00000000E+00  0.00000000E+00  0.00000000E+00
  0.00000000E+00  0.00000000E+00  0.00000000E+00
  0.00000000E+00  0.00000000E+00  0.00000000E+00
  0.00000000E+00  0.00000000E+00  0.00000000E+00
  0.00000000E+00  0.00000000E+00  0.00000000E+00
  0.00000000E+00  0.00000000E+00  0.00000000E+00
  0.00000000E+00  0.00000000E+00  0.00000000E+00
  0.00000000E+00  0.00000000E+00  0.00000000E+00
  0.00000000E+00  0.00000000E+00  0.00000000E+00
  0.00000000E+00  0.00000000E+00  0.00000000E+00
  0.00000000E+00  0.00000000E+00  0.00000000E+00
  0.00000000E+00  0.00000000E+00  0.00000000E+00
  0.00000000E+00  0.00000000E+00  0.00000000E+00
  0.00000000E+00  0.00000000E+00  0.00000000E+00
  0.00000000E+00  0.00000000E+00  0.00000000E+00
  0.00000000E+00  0.00000000E+00  0.00000000E+00
  0.00000000E+00  0.00000000E+00  0.00000000E+00
  0.00000000E+00  0.00000000E+00  0.00000000E+00
  0.00000000E+00  0.00000000E+00  0.00000000E+00
  0.00000000E+00  0.00000000E+00  0.00000000E+00
  0.00000000E+00  0.00000000E+00  0.00000000E+00
  0.00000000E+00  0.00000000E+00  0.00000000E+00
  0.00000000E+00  0.00000000E+00  0.00000000E+00
  0.00000000E+00  0.00000000E+00  0.00000000E+00
  0.00000000E+00  0.00000000E+00  0.00000000E+00
  0.00000000E+00  0.00000000E+00  0.00000000E+00
  0.00000000E+00  0.00000000E+00  0.00000000E+00
  0.00000000E+00  0.00000000E+00  0.00000000E+00
  0.00000000E+00  0.00000000E+00  0.00000000E+00
  0.00000000E+00  0.00000000E+00  0.00000000E+00
  0.00000000E+00  0.00000000E+00  0.00000000E+00
  0.00000000E+00  0.00000000E+00  0.00000000E+00
  0.00000000E+00  0.00000000E+00  0.00000000E+00
  0.00000000E+00  0.00000000E+00  0.00000000E+00
  0.00000000E+00  0.00000000E+00  0.00000000E+00
  0.00000000E+00  0.00000000E+00  0.00000000E+00
  0.00000000E+00  0.00000000E+00  0.00000000E+00
  0.00000000E+00  0.00000000E+00  0.00000000E+00
  0.00000000E+00  0.00000000E+00  0.00000000E+00
  0.00000000E+00  0.00000000E+00  0.00000000E+00
  0.00000000E+00  0.00000000E+00  0.00000000E+00
  0.00000000E+00  0.00000000E+00  0.00000000E+00
  0.00000000E+00  0.00000000E+00  0.00000000E+00
  0.00000000E+00  0.00000000E+00  0.00000000E+00
  0.00000000E+00  0.00000000E+00  0.00000000E+00
  0.00000000E+00  0.00000000E+00  0.00000000E+00
  0.00000000E+00  0.00000000E+00  0.00000000E+00
  0.00000000E+00  0.00000000E+00  0.00000000E+00
  0.00000000E+00  0.00000000E+00  0.00000000E+00
  0.00000000E+00  0.00000000E+00  0.00000000E+00
  0.00000000E+00  0.00000000E+00  0.00000000E+00
  0.00000000E+00  0.00000000E+00  0.00000000E+00
  0.00000000E+00  0.00000000E+00  0.00000000E+00
  0.00000000E+00  0.00000000E+00  0.00000000E+00
  0.00000000E+00  0.00000000E+00  0.00000000E+00
  0.00000000E+00  0.00000000E+00  0.00000000E+00
  0.00000000E+00  0.00000000E+00  0.00000000E+00
  0.00000000E+00  0.00000000E+00  0.00000000E+00
  0.00000000E+00  0.00000000E+00  0.00000000E+00
  0.00000000E+00  0.00000000E+00  0.00000000E+00
  0.00000000E+00  0.00000000E+00  0.00000000E+00
  0.00000000E+00  0.00000000E+00  0.00000000E+00
  0.00000000E+00  0.00000000E+00  0.00000000E+00
  0.00000000E+00  0.00000000E+00  0.00000000E+00
  0.00000000E+00  0.00000000E+00  0.00000000E+00
  0.00000000E+00  0.00000000E+00  0.00000000E+00
  0.00000000E+00  0.00000000E+00  0.00000000E+00
  0.00000000E+00  0.00000000E+00  0.00000000E+00
  0.00000000E+00  0.00000000E+00  0.00000000E+00
  0.00000000E+00  0.00000000E+00  0.00000000E+00
  0.00000000E+00  0.00000000E+00  0.00000000E+00
  0.00000000E+00  0.00000000E+00  0.00000000E+00
  0.00000000E+00  0.00000000E+00  0.00000000E+00
  0.00000000E+00  0.00000000E+00  0.00000000E+00
  0.00000000E+00  0.00000000E+00  0.00000000E+00
  0.00000000E+00  0.00000000E+00  0.00000000E+00
  0.00000000E+00  0.00000000E+00  0.00000000E+00
  0.00000000E+00  0.00000000E+00  0.00000000E+00
  0.00000000E+00  0.00000000E+00  0.00000000E+00
  0.00000000E+00  0.00000000E+00  0.00000000E+00
  0.00000000E+00  0.00000000E+00  0.00000000E+00
  0.00000000E+00  0.00000000E+00  0.00000000E+00
  0.00000000E+00  0.00000000E+00  0.00000000E+00
  0.00000000E+00  0.00000000E+00  0.00000000E+00
  0.00000000E+00  0.00000000E+00  0.00000000E+00
  0.00000000E+00  0.00000000E+00  0.00000000E+00
  0.00000000E+00  0.00000000E+00  0.00000000E+00
  0.00000000E+00  0.00000000E+00  0.00000000E+00
  0.00000000E+00  0.00000000E+00  0.00000000E+00
  0.00000000E+00  0.00000000E+00  0.00000000E+00
  0.00000000E+00  0.00000000E+00  0.00000000E+00
  0.00000000E+00  0.00000000E+00  0.00000000E+00
  0.00000000E+00  0.00000000E+00  0.00000000E+00
  0.00000000E+00  0.00000000E+00  0.00000000E+00
  0.00000000E+00  0.00000000E+00  0.00000000E+00
  0.00000000E+00  0.00000000E+00  0.00000000E+00
  0.00000000E+00  0.00000000E+00  0.00000000E+00
  0.00000000E+00  0.00000000E+00  0.00000000E+00
  0.00000000E+00  0.00000000E+00  0.00000000E+00
  0.00000000E+00  0.00000000E+00  0.00000000E+00
  0.00000000E+00  0.00000000E+00  0.00000000E+00
  0.00000000E+00  0.00000000E+00  0.00000000E+00
  0.00000000E+00  0.00000000E+00  0.00000000E+00
  0.00000000E+00  0.00000000E+00  0.00000000E+00
  0.00000000E+00  0.00000000E+00  0.00000000E+00
  0.00000000E+00  0.00000000E+00  0.00000000E+00
  0.00000000E+00  0.00000000E+00  0.00000000E+00
  0.00000000E+00  0.00000000E+00  0.00000000E+00
  0.00000000E+00  0.00000000E+00  0.00000000E+00
  0.00000000E+00  0.00000000E+00  0.00000000E+00
  0.00000000E+00  0.00000000E+00  0.00000000E+00
  0.00000000E+00  0.00000000E+00  0.00000000E+00
  0.00000000E+00  0.00000000E+00  0.00000000E+00
  0.00000000E+00  0.00000000E+00  0.00000000E+00
  0.00000000E+00  0.00000000E+00  0.00000000E+00
  0.00000000E+00  0.00000000E+00  0.00000000E+00
  0.00000000E+00  0.00000000E+00  0.00000000E+00
  0.00000000E+00  0.00000000E+00  0.00000000E+00
  0.00000000E+00  0.00000000E+00  0.00000000E+00
  0.00000000E+00  0.00000000E+00  0.00000000E+00
  0.00000000E+00  0.00000000E+00  0.00000000E+00
  0.00000000E+00  0.00000000E+00  0.00000000E+00
  0.00000000E+00  0.00000000E+00  0.00000000E+00
  0.00000000E+00  0.00000000E+00  0.00000000E+00
  0.00000000E+00  0.00000000E+00  0.00000000E+00
  0.00000000E+00  0.00000000E+00  0.00000000E+00
  0.00000000E+00  0.00000000E+00  0.00000000E+00
  0.00000000E+00  0.00000000E+00  0.00000000E+00
  0.00000000E+00  0.00000000E+00  0.00000000E+00
  0.00000000E+00  0.00000000E+00  0.00000000E+00
  0.00000000E+00  0.00000000E+00  0.00000000E+00
  0.00000000E+00  0.00000000E+00  0.00000000E+00
  0.00000000E+00  0.00000000E+00  0.00000000E+00
  0.00000000E+00  0.00000000E+00  0.00000000E+00
  0.00000000E+00  0.00000000E+00  0.00000000E+00
  0.00000000E+00  0.00000000E+00  0.00000000E+00
  0.00000000E+00  0.00000000E+00  0.00000000E+00
  0.00000000E+00  0.00000000E+00  0.00000000E+00
  0.00000000E+00  0.00000000E+00  0.00000000E+00
  0.00000000E+00  0.00000000E+00  0.00000000E+00
  0.00000000E+00  0.00000000E+00  0.00000000E+00
  0.00000000E+00  0.00000000E+00  0.00000000E+00
  0.00000000E+00  0.00000000E+00  0.00000000E+00
  0.00000000E+00  0.00000000E+00  0.00000000E+00
  0.00000000E+00  0.00000000E+00  0.00000000E+00
  0.00000000E+00  0.00000000E+00  0.00000000E+00
  0.00000000E+00  0.00000000E+00  0.00000000E+00
  0.00000000E+00  0.00000000E+00  0.00000000E+00
  0.00000000E+00  0.00000000E+00  0.00000000E+00
  0.00000000E+00  0.00000000E+00  0.00000000E+00
  0.00000000E+00  0.00000000E+00  0.00000000E+00
  0.00000000E+00  0.00000000E+00  0.00000000E+00
  0.00000000E+00  0.00000000E+00  0.00000000E+00
  0.00000000E+00  0.00000000E+00  0.00000000E+00
  0.00000000E+00  0.00000000E+00  0.00000000E+00
  0.00000000E+00  0.00000000E+00  0.00000000E+00
  0.00000000E+00  0.00000000E+00  0.00000000E+00
  0.00000000E+00  0.00000000E+00  0.00000000E+00
  0.00000000E+00  0.00000000E+00  0.00000000E+00
  0.00000000E+00  0.00000000E+00  0.00000000E+00
  0.00000000E+00  0.00000000E+00  0.00000000E+00
  0.00000000E+00  0.00000000E+00  0.00000000E+00
  0.00000000E+00  0.00000000E+00  0.00000000E+00
  0.00000000E+00  0.00000000E+00  0.00000000E+00
  0.00000000E+00  0.00000000E+00  0.00000000E+00
  0.00000000E+00  0.00000000E+00  0.00000000E+00
  0.00000000E+00  0.00000000E+00  0.00000000E+00
  0.00000000E+00  0.00000000E+00  0.00000000E+00
  0.00000000E+00  0.00000000E+00  0.00000000E+00
  0.00000000E+00  0.00000000E+00  0.00000000E+00
  0.00000000E+00  0.00000000E+00  0.00000000E+00
  0.00000000E+00  0.00000000E+00  0.00000000E+00
  0.00000000E+00  0.00000000E+00  0.00000000E+00
  0.00000000E+00  0.00000000E+00  0.00000000E+00
  0.00000000E+00  0.00000000E+00  0.00000000E+00
  0.00000000E+00  0.00000000E+00  0.00000000E+00
  0.00000000E+00  0.00000000E+00  0.00000000E+00
  0.00000000E+00  0.00000000E+00  0.00000000E+00
  0.00000000E+00  0.00000000E+00  0.00000000E+00
  0.00000000E+00  0.00000000E+00  0.00000000E+00
  0.00000000E+00  0.00000000E+00  0.00000000E+00
  0.00000000E+00  0.00000000E+00  0.00000000E+00
  0.00000000E+00  0.00000000E+00  0.00000000E+00
  0.00000000E+00  0.00000000E+00  0.00000000E+00
  0.00000000E+00  0.00000000E+00  0.00000000E+00
  0.00000000E+00  0.00000000E+00  0.00000000E+00
  0.00000000E+00  0.00000000E+00  0.00000000E+00