Sn2 Ge1 Te3                             
   1.00000000000000     
     2.2910866452404761   -3.9682784740990371    0.0000000000000001
     2.2910866452404761    3.9682784740990371    0.0000000000000000
     0.0000000000000000    0.0000000000000000    9.7304661072323828
   Sn   Ge   Te
     2     1     3
Direct
  0.3333333333333357  0.6666666666666643  0.8185435606413169
  0.6666666666666643  0.3333333333333357  0.1814564393586833
  0.0000000000000000  0.0000000000000000  0.5000000000000000
  0.3333333333333357  0.6666666666666643  0.3544076819593142
  0.6666666666666643  0.3333333333333357  0.6455923180406858
  0.0000000000000000  0.0000000000000000  0.0000000000000000
 
  0.00000000E+00  0.00000000E+00  0.00000000E+00
  0.00000000E+00  0.00000000E+00  0.00000000E+00
  0.00000000E+00  0.00000000E+00  0.00000000E+00
  0.00000000E+00  0.00000000E+00  0.00000000E+00
  0.00000000E+00  0.00000000E+00  0.00000000E+00
  0.00000000E+00  0.00000000E+00  0.00000000E+00
