Amorphous Sb                            
   1.00000000000000     
    21.4241270243676460    0.0000000000000000    0.0000000000000000
     0.0000000000000000   21.4241270243676460    0.0000000000000000
     0.0000000000000000    0.0000000000000000   21.4241270243676460
   In   Sb   Te
   150    50   100
Direct
  0.6400765813757658  0.4432899431406341  0.0467441858247000
  0.1757258684312717  0.4637524268797222  0.4721765549304422
  0.5150837021813359  0.7566258505429673  0.4148931905406741
  0.2249433440062987  0.0622759005752513  0.2243652733598012
  0.5850286750931630  0.3662676126916722  0.3678592815452788
  0.0924638337987034  0.0010993305271327  0.3873206179450364
  0.3838073185040543  0.3452902863732490  0.5462846802656003
  0.3854211312676767  0.7939960592045665  0.2884722709117824
  0.8295373183562091  0.5208988632558658  0.3082801872538639
  0.2694132694871598  0.6028119041902542  0.3056822893031779
  0.1755926855358254  0.7278532982219517  0.1840139462938595
  0.4153013904391116  0.3465520041723025  0.2464195897325467
  0.7725810627821232  0.3569165035954711  0.3946703695159073
  0.6777438937141724  0.2064986028081179  0.0144746237224140
  0.5816705452605291  0.0507126358159198  0.0891017672437968
  0.7885725227458593  0.7087338361063189  0.9599012643890461
  0.1674008169706553  0.1785752607872979  0.2871969162879395
  0.6392121624840854  0.3386870775258117  0.8843787940211385
  0.9417656730623989  0.2583018577671865  0.6957355165889325
  0.9285658445468528  0.2045339115054077  0.8842069021302166
  0.0513836534422296  0.5823713137337663  0.5771076748617432
  0.9351010503255566  0.0097246002053808  0.8579449226197511
  0.4536025122122496  0.5082240800530684  0.6403081621287541
  0.1918818978109300  0.9694634716965211  0.6467900630628449
  0.8897096565503233  0.1085175727973464  0.6746947584271936
  0.1324745465388588  0.5559523519038265  0.0010981317478453
  0.1065019866581167  0.1685112688236430  0.7073906930364089
  0.3555355445082924  0.4421553852188325  0.3556933683726555
  0.9371787441881949  0.2920049532057973  0.3371946581565766
  0.2739772751780407  0.2372189907796596  0.6935173064133835
  0.6332340305460491  0.6041870789402637  0.0627211198379740
  0.3785879000022661  0.7884543875265422  0.6815952395135625
  0.7866877780334178  0.2460727654422570  0.2530319989010721
  0.5577577363766792  0.3268760759781770  0.0050173015469568
  0.1905622026436546  0.9992034906399283  0.9471849850174721
  0.5113888346800550  0.1872194446821851  0.4929579452619564
  0.5795449824223908  0.0364160739777404  0.2488351179281167
  0.3761209836213339  0.3316776507801436  0.0979108354691434
  0.9003571632516056  0.5815720597088756  0.6069214405540677
  0.9975658554277302  0.4024745790902813  0.4004450542268145
  0.4626586637093624  0.1897123097746700  0.3150126267551911
  0.0687822768556074  0.7454577218954839  0.0060759076545054
  0.3522276068792536  0.7563594580037574  0.5163147504958587
  0.2345041317806533  0.5218919342089237  0.7189468914001509
  0.8895658692218547  0.4232820610760513  0.1374218006322465
  0.7211793521490364  0.6589362640243550  0.5926026843938104
  0.3838745551069778  0.3998760397703478  0.7774257331851615
  0.2724233415820336  0.0339914486152750  0.3967189709283758
  0.7810362903871209  0.4693096704243871  0.6683062519552649
  0.2417358263227953  0.4153880125105331  0.9106552725482331
  0.9832554238526257  0.7174825354752272  0.6198729632501525
  0.0549828919443414  0.4563830105148625  0.8353591180790119
  0.1310318975583868  0.2631664379116287  0.8038165456755948
  0.5427160789359178  0.3403283391318084  0.5740192756062186
  0.0513978561171839  0.5365412873477453  0.1144460658208999
  0.7429169244264742  0.9518119713819573  0.3409416286514215
  0.7178703871303540  0.8801614633246899  0.5364432588150763
  0.0097254066761465  0.1753217220720344  0.3932948941200323
  0.8726360980818200  0.9801162200759066  0.5579595332529692
  0.4663351358645329  0.4919010974425078  0.9140066974081478
  0.7404405959646780  0.5854428858151906  0.2227466694989815
  0.4671767404323433  0.5925672569539486  0.4675748872939920
  0.3157543197750954  0.8226764434938474  0.8924476714525298
  0.5187719360737262  0.7028795758047153  0.6602218815241656
  0.2837922810630431  0.5877205794388942  0.1178396941064506
  0.2752036280752677  0.8810195332329940  0.3386382655544224
  0.4265517964379058  0.1686951891183952  0.7772187925587843
  0.9485243627264239  0.1514895665525842  0.0298964603964791
  0.9242517994684576  0.7885465545879100  0.1728052849119948
  0.0095527128793478  0.9846461639122239  0.6931046366154874
  0.9833333172183387  0.5805203143121460  0.3916666510186673
  0.1224014494471746  0.5962188426951727  0.7845083064996459
  0.6734165448046596  0.7530853824926851  0.4677994770990779
  0.2504581084470914  0.5863793695011168  0.9254168135875460
  0.6848241512402993  0.1596945030648200  0.3864998136956359
  0.5700675363599714  0.8958602747050790  0.4767150101035895
  0.9305991196979306  0.8393296323509816  0.7426441896109921
  0.2060052338374092  0.3162583824182761  0.0701592801607305
  0.1826106838811512  0.9805829933615087  0.8018239470953716
  0.1868964268611606  0.8716512037362705  0.1424952418331884
  0.0451824902689566  0.6740285456014590  0.2627557243619165
  0.0755149112625517  0.0609797529234939  0.1045959593326700
  0.9268987984170707  0.6466540374299967  0.9905535701293289
  0.3730004808594174  0.0636585665247367  0.6632838144969995
  0.9158795452597488  0.4199553537971425  0.6546789245123605
  0.3124213777557117  0.2998142838220588  0.3770476838246424
  0.9648046803581352  0.8648596824270953  0.5189528840274207
  0.5840452795334272  0.5720975378830957  0.6687393114147682
  0.7118113388042744  0.2979287708838498  0.6178955389536682
  0.7458503671769989  0.8705159991094291  0.7154407145928943
  0.1442090910810236  0.7749405141683710  0.5612728595502006
  0.2198751210768606  0.6893335725830312  0.4765644449067068
  0.7689238017471212  0.1456986836861986  0.1553495648045740
  0.8243458900547438  0.7128799351986217  0.6891959774817167
  0.8302477568740088  0.3094777480128386  0.9288581738928698
  0.2924401175914753  0.9027958934541758  0.4876752593330380
  0.5732345481740921  0.6073013950712109  0.8092178343390017
  0.8873569869777214  0.5988518653144581  0.1359454429154709
  0.7535866807904767  0.0824232085454071  0.6097527340597111
  0.4394738008466277  0.4676647914930427  0.1042727951546354
  0.9764126213496667  0.2752933002208877  0.5063720705388732
  0.7843219322406441  0.0499602763435973  0.8303585612398265
  0.9725237735226742  0.3562032585606758  0.9732116730855225
  0.5960980363609849  0.1299196844093871  0.8813195188336209
  0.0299827912524719  0.9780530189591090  0.2004096121429484
  0.4188948778180688  0.2349362424746957  0.9210637280189715
  0.5947109155317705  0.5747869058177528  0.3585392114620518
  0.0154844898165223  0.9063745220104238  0.9908890669648898
  0.1174827252417145  0.1131735733982140  0.8697337906088052
  0.8290135628790480  0.6238204160759722  0.8403429468074677
  0.5579404595568036  0.8812235899707375  0.6675649930815695
  0.3454667734817960  0.1953770868767890  0.0368773569484233
  0.2089532021777671  0.3455079970721044  0.6227829864535934
  0.4471295632217505  0.6371371422825973  0.1565844455339018
  0.4190780674967058  0.0299740341143178  0.4317805886053847
  0.3392324065585228  0.9407838198216112  0.0359220471296879
  0.7648318271958061  0.7673654481594525  0.2899078131534623
  0.5482344009445228  0.1545647936963306  0.6389707009376409
  0.3670163581457544  0.1569325680399203  0.5048946453567922
  0.4020748194129737  0.9236040233138638  0.5839035715216454
  0.0185074255040405  0.7534647413988225  0.8429102166476099
  0.6542141662427028  0.0460649842500516  0.7660099500053974
  0.7246609998799372  0.4937041432703921  0.8331516570887700
  0.1823800239031428  0.1550273901340091  0.5542816922852296
  0.8036985437369566  0.5419587436003752  0.9948634224710702
  0.9280407904544390  0.2077315505591173  0.2172332625113711
  0.2108570844097741  0.1603200031722096  0.0941109794210320
  0.3244239688944006  0.1801558422073839  0.1923984867434712
  0.1019079296501459  0.8109127434593475  0.3935857451823352
  0.9316213061927101  0.7663757366173627  0.3621959471644942
  0.2262601455859112  0.4475579711984068  0.1859742145566088
  0.6898685126145594  0.3937673965492721  0.2205343772243751
  0.6162463832633662  0.2072626382355125  0.1671854700954825
  0.4551168319359320  0.0622858690544206  0.1715857233876363
  0.6188282889883823  0.0284674643771652  0.5038888627067095
  0.6878461770166169  0.9736714421594570  0.9385323928035803
  0.4958545208889760  0.7843079301820879  0.1205801748976256
  0.4630507192126032  0.6097495388990808  0.3001944137771417
  0.9800910705588706  0.5308800666149622  0.7312548217861803
  0.2666379936863024  0.5837990961381223  0.5703618311347967
  0.0554913310579224  0.3971949921870390  0.6841856787193379
  0.6635051929955011  0.7169337006020413  0.7986124364720268
  0.3249582925528287  0.1082695037021040  0.8494906179940500
  0.8327928006968861  0.4165110396773031  0.4974218067215119
  0.8229152317395290  0.1831199654565410  0.5298501836584038
  0.1174441909389827  0.7939314975646568  0.7536470464385303
  0.4703163311800225  0.0496335492316433  0.9154452101907680
  0.5865370255278464  0.2870049828073036  0.7054343604304663
  0.2482782141737587  0.8526976749308446  0.7684294193301255
  0.8347902903271986  0.0804162876742680  0.9642732079625844
  0.1732395342045194  0.3170119399218194  0.3231334054277113
  0.4913659245948452  0.7804300587600963  0.7869610334954658
  0.2386198636687666  0.1469217287279392  0.9495732420884551
  0.7081360995165511  0.3141663264106711  0.0948751290615917
  0.3011916404136699  0.6635579806039331  0.7129282506842998
  0.3701922459339215  0.7588499840975800  0.0685522610210896
  0.8416673570217128  0.8333646876317360  0.6083371620032736
  0.9205880641416968  0.0119909702574645  0.2760136622584568
  0.2388477083671674  0.8240796303678337  0.0155203594814566
  0.9191480342627329  0.0814769430643949  0.4498595201849440
  0.7685539091590030  0.5342578538353067  0.5268843567214603
  0.9412737228603802  0.3004907140721187  0.1082528837784480
  0.4862776272113010  0.9204904164876524  0.7823835360585676
  0.3499297550229983  0.5138779889357394  0.8469854628922207
  0.5749870113168498  0.4666721124538284  0.8333127010812902
  0.9715534037760776  0.1336555514618638  0.5647549301535548
  0.5711799984458139  0.4701268225112898  0.1822806257560359
  0.4077567853185400  0.7055565336920111  0.8685586776585055
  0.0720916117815236  0.1997104161481218  0.1019387943220593
  0.8392204902429157  0.9024468266528416  0.2593247584423182
  0.4827380236827139  0.8102892046461392  0.5698958454552283
  0.8555996650778326  0.3512933396900948  0.7919829397031606
  0.6855755607343710  0.7755193242539988  0.1572675223802023
  0.8288124267731760  0.6030810596500444  0.4251625560992167
  0.5286581275012736  0.6739808608696904  0.9214144959372774
  0.4663934169414077  0.1998273226573914  0.1809359445813925
  0.7295035151778606  0.8398798329119828  0.9749159721648724
  0.3658092558295962  0.9286444329157320  0.7214518792911022
  0.5890149472175779  0.8008845684882999  0.8804544531276903
  0.6389478770576105  0.4916509907935946  0.4975857474246936
  0.8333140407525335  0.7250004819308984  0.5250107796954495
  0.8421974734760909  0.8917227181817253  0.9160940409737464
  0.0701071957358579  0.4785438710702010  0.3040638021497060
  0.4864149595408591  0.5796684044949743  0.0175675632664820
  0.0830829870071170  0.0699003888481329  0.6135589321692834
  0.9413341827329589  0.7982429923002385  0.9481844054102595
  0.7914151233449545  0.8354505559277214  0.0951507941678926
  0.1974071117295395  0.2727950166202291  0.9249935073611582
  0.3612487564525253  0.6351881554098995  0.0078275063336122
  0.5111479636782548  0.4096599513124772  0.7314775651284648
  0.4778318301388396  0.9176276984669514  0.1489664346155308
  0.7670146518969716  0.9553103695931497  0.1543181387291384
  0.0582403759333658  0.3532162898602849  0.2528548588375443
  0.8201285649465504  0.1784793256803496  0.7707986084551095
  0.3482897394065887  0.8902699611415272  0.1805304678403701
  0.5398774440346443  0.9017340765238231  0.2747934692083831
  0.8503062569867978  0.3129945431825760  0.5855410565214143
  0.9643479543598730  0.9637718139819142  0.3996659971139849
  0.4119163155164927  0.6092619796210812  0.7706273120854163
  0.8250836810030435  0.2523996352539655  0.0600697584532668
  0.1001344926847310  0.3931407562422535  0.1313172516122378
  0.7248404811889699  0.2201809163263491  0.8884726978375355
  0.6519981461808726  0.8523923474952824  0.3570467083591566
  0.2078106762044456  0.7469008503171395  0.3482318888393507
  0.0457405423321475  0.9297688789312133  0.8119452522622268
  0.0080878182370796  0.6768512443771186  0.1184590496109337
  0.9583372833076993  0.5083460270663167  0.2249797974979728
  0.8863559305109661  0.6764651068719516  0.2762819286243783
  0.7333414798234941  0.5916449112831330  0.7250005947459357
  0.6037759514823833  0.6053402617497667  0.2113280889129356
  0.1647538230771346  0.5778505450533231  0.1995278001454110
  0.1963610088706531  0.6958153848572621  0.0381373510592411
  0.4000015034960001  0.6354275212731864  0.5885393028832340
  0.8953810271787077  0.0877936814247704  0.1467602862007453
  0.9424154239231015  0.6694162904593526  0.7541693427644134
  0.8666515565225410  0.9750049942228785  0.7166500430864886
  0.7603355204698374  0.6684679820630421  0.1076064647121626
  0.9896841421219662  0.1254938842038342  0.7810073416870011
  0.4078537289291830  0.2101789313857978  0.6446322188499849
  0.5387537907582143  0.3327287403528985  0.1467175055505763
  0.7000014958658412  0.1749811829433696  0.7083211293897307
  0.0495015645579642  0.8554179551603980  0.6397996464342057
  0.6546546937159619  0.3472789046017226  0.4823142463629608
  0.2419003038782250  0.1028048606622392  0.7370224270109702
  0.8768001596687398  0.4814072006799961  0.8256595812773639
  0.0397390244425182  0.0411965489199346  0.9721553137835244
  0.2565868733102903  0.3062967827060419  0.2078235828026536
  0.6915635614106179  0.4684855329224646  0.3440769532827730
  0.5372760569181665  0.0966790316187698  0.3794045469085958
  0.3333423600381522  0.9756530050978824  0.8916413344634506
  0.5170287865180754  0.7563140898433005  0.2551819802743580
  0.3824581510645828  0.6905576805971165  0.3888854293708732
  0.7916042290119734  0.7698290597165922  0.8130030873044092
  0.6501962268627040  0.9102171435737674  0.8147344414540569
  0.4665177307586816  0.2955693517221576  0.3998324219089682
  0.2295565664822874  0.6863283087601530  0.8279916694765674
  0.5446121059236120  0.1830101338418970  0.0127363436795207
  0.6618208226485294  0.1661707189941382  0.5279273131848683
  0.3496660639548779  0.0034594797537864  0.2519099324848213
  0.5164947513065101  0.0628321781256531  0.7443410137025950
  0.1501835071885438  0.9528918302486531  0.2728344898792940
  0.2553723114513033  0.8398165036206393  0.6172330741898406
  0.0137198474347784  0.7351773919377962  0.4661365917022948
  0.6611706324285720  0.9734836583425448  0.6346751697361626
  0.9554316391044679  0.4752315367641771  0.5116970389116418
  0.5284424686592715  0.2463187236836077  0.8292863090326250
  0.1409306897145299  0.1229434024429139  0.4183230313523083
  0.6363378522462000  0.9167646641285288  0.1638584722791521
  0.6416811953934314  0.4500615080280781  0.6271514247600365
  0.7416782933581914  0.4166842636409953  0.9499795579851238
  0.3564477892842888  0.5111519239577973  0.2170148394270797
  0.1240806054906329  0.6794902972142793  0.6638328143140839
  0.0723275143151767  0.2327260213088067  0.9709172274086200
  0.4535282349733762  0.8909084967932870  0.3875409839964803
  0.7187358882155550  0.6541670857993509  0.3697939519753319
  0.5579528806156375  0.9620745219386038  0.9862912068242693
  0.1040976595791179  0.4215833284939237  0.9618394151066170
  0.2666888336511946  0.2583272990339722  0.5083395973532703
  0.5958792788965965  0.6296561877015918  0.5323866922925049
  0.1706916520753907  0.3909202625448032  0.7701496693658427
  0.6535090592320145  0.7718084757458001  0.6665163171270621
  0.9415964854784562  0.4948319933045653  0.0272041466483728
  0.1206285484812000  0.5865850472482208  0.4492851374710156
  0.1436553793536532  0.4802948784622032  0.6086496362199512
  0.6027325187865600  0.7481818698650144  0.0499733071017587
  0.8365661408020202  0.3750186511148286  0.2702639052559235
  0.0368558993082857  0.1331323700436968  0.2614855524894324
  0.4823098314609098  0.0369524509375054  0.5622279155702898
  0.1410156872814738  0.8625015479990452  0.9304697770536521
  0.8779575940250126  0.9593165290233117  0.0260816625528832
  0.7121664858677903  0.0708533325655196  0.2761490865418850
  0.4018181914387355  0.0670866305014926  0.0448870614912096
  0.6840293905493695  0.6102663312097647  0.9182699818945750
  0.7584304405692635  0.0024224415824179  0.4649211340480690
  0.3290395823094059  0.1618190348458768  0.3380221346627579
  0.6506110809120287  0.2667225013923442  0.2989811575627357
  0.1123740137401157  0.3451505497375322  0.4536399330358449
  0.7618950566022562  0.4800047311729188  0.1252397575607631
  0.4305230672648221  0.8386626596333642  0.9749025864042125
  0.1420181834379903  0.9099893635878971  0.4766312917407589
  0.7169137240179708  0.0782541802527277  0.0464591489990696
  0.5064031215164562  0.4555099377868999  0.3002676638700805
  0.4833236749912686  0.4567817879952258  0.5132766422668666
  0.3248103264513489  0.2868991122188262  0.8199439304872840
  0.7222439178776128  0.3649578026852467  0.7586166776863905
  0.0749966692012265  0.2749848360261922  0.6166846907774470
  0.4310855123489787  0.3691894100102289  0.9678329120004889
  0.2795307565914342  0.4458680141696334  0.0548935477177395
  0.3170953049442886  0.7006022266940732  0.2024638862626773
  0.3086853673799936  0.4695370790415581  0.4875604576753858
  0.8165787523918411  0.2226105165730843  0.3934046385854231
  0.2083335525152918  0.0083484441764838  0.0916459241306100
  0.0205138811839873  0.8334933367936941  0.2889773009529009
  0.0473477934841000  0.8663997870408338  0.1165152567218186
  0.2092460847656241  0.4536819860290819  0.3284693589634244
  0.2788567148064089  0.0424679524260654  0.5534055048486266
  0.8252394601110993  0.8183250370026371  0.4226961235147471
  0.0004537293978615  0.3167077325471936  0.8245789603281395
  0.0459152925777389  0.6297724777383849  0.9117448416731975
  0.3330622382323085  0.4352790288295623  0.6563830344025874
 
  0.00000000E+00  0.00000000E+00  0.00000000E+00
  0.00000000E+00  0.00000000E+00  0.00000000E+00
  0.00000000E+00  0.00000000E+00  0.00000000E+00
  0.00000000E+00  0.00000000E+00  0.00000000E+00
  0.00000000E+00  0.00000000E+00  0.00000000E+00
  0.00000000E+00  0.00000000E+00  0.00000000E+00
  0.00000000E+00  0.00000000E+00  0.00000000E+00
  0.00000000E+00  0.00000000E+00  0.00000000E+00
  0.00000000E+00  0.00000000E+00  0.00000000E+00
  0.00000000E+00  0.00000000E+00  0.00000000E+00
  0.00000000E+00  0.00000000E+00  0.00000000E+00
  0.00000000E+00  0.00000000E+00  0.00000000E+00
  0.00000000E+00  0.00000000E+00  0.00000000E+00
  0.00000000E+00  0.00000000E+00  0.00000000E+00
  0.00000000E+00  0.00000000E+00  0.00000000E+00
  0.00000000E+00  0.00000000E+00  0.00000000E+00
  0.00000000E+00  0.00000000E+00  0.00000000E+00
  0.00000000E+00  0.00000000E+00  0.00000000E+00
  0.00000000E+00  0.00000000E+00  0.00000000E+00
  0.00000000E+00  0.00000000E+00  0.00000000E+00
  0.00000000E+00  0.00000000E+00  0.00000000E+00
  0.00000000E+00  0.00000000E+00  0.00000000E+00
  0.00000000E+00  0.00000000E+00  0.00000000E+00
  0.00000000E+00  0.00000000E+00  0.00000000E+00
  0.00000000E+00  0.00000000E+00  0.00000000E+00
  0.00000000E+00  0.00000000E+00  0.00000000E+00
  0.00000000E+00  0.00000000E+00  0.00000000E+00
  0.00000000E+00  0.00000000E+00  0.00000000E+00
  0.00000000E+00  0.00000000E+00  0.00000000E+00
  0.00000000E+00  0.00000000E+00  0.00000000E+00
  0.00000000E+00  0.00000000E+00  0.00000000E+00
  0.00000000E+00  0.00000000E+00  0.00000000E+00
  0.00000000E+00  0.00000000E+00  0.00000000E+00
  0.00000000E+00  0.00000000E+00  0.00000000E+00
  0.00000000E+00  0.00000000E+00  0.00000000E+00
  0.00000000E+00  0.00000000E+00  0.00000000E+00
  0.00000000E+00  0.00000000E+00  0.00000000E+00
  0.00000000E+00  0.00000000E+00  0.00000000E+00
  0.00000000E+00  0.00000000E+00  0.00000000E+00
  0.00000000E+00  0.00000000E+00  0.00000000E+00
  0.00000000E+00  0.00000000E+00  0.00000000E+00
  0.00000000E+00  0.00000000E+00  0.00000000E+00
  0.00000000E+00  0.00000000E+00  0.00000000E+00
  0.00000000E+00  0.00000000E+00  0.00000000E+00
  0.00000000E+00  0.00000000E+00  0.00000000E+00
  0.00000000E+00  0.00000000E+00  0.00000000E+00
  0.00000000E+00  0.00000000E+00  0.00000000E+00
  0.00000000E+00  0.00000000E+00  0.00000000E+00
  0.00000000E+00  0.00000000E+00  0.00000000E+00
  0.00000000E+00  0.00000000E+00  0.00000000E+00
  0.00000000E+00  0.00000000E+00  0.00000000E+00
  0.00000000E+00  0.00000000E+00  0.00000000E+00
  0.00000000E+00  0.00000000E+00  0.00000000E+00
  0.00000000E+00  0.00000000E+00  0.00000000E+00
  0.00000000E+00  0.00000000E+00  0.00000000E+00
  0.00000000E+00  0.00000000E+00  0.00000000E+00
  0.00000000E+00  0.00000000E+00  0.00000000E+00
  0.00000000E+00  0.00000000E+00  0.00000000E+00
  0.00000000E+00  0.00000000E+00  0.00000000E+00
  0.00000000E+00  0.00000000E+00  0.00000000E+00
  0.00000000E+00  0.00000000E+00  0.00000000E+00
  0.00000000E+00  0.00000000E+00  0.00000000E+00
  0.00000000E+00  0.00000000E+00  0.00000000E+00
  0.00000000E+00  0.00000000E+00  0.00000000E+00
  0.00000000E+00  0.00000000E+00  0.00000000E+00
  0.00000000E+00  0.00000000E+00  0.00000000E+00
  0.00000000E+00  0.00000000E+00  0.00000000E+00
  0.00000000E+00  0.00000000E+00  0.00000000E+00
  0.00000000E+00  0.00000000E+00  0.00000000E+00
  0.00000000E+00  0.00000000E+00  0.00000000E+00
  0.00000000E+00  0.00000000E+00  0.00000000E+00
  0.00000000E+00  0.00000000E+00  0.00000000E+00
  0.00000000E+00  0.00000000E+00  0.00000000E+00
  0.00000000E+00  0.00000000E+00  0.00000000E+00
  0.00000000E+00  0.00000000E+00  0.00000000E+00
  0.00000000E+00  0.00000000E+00  0.00000000E+00
  0.00000000E+00  0.00000000E+00  0.00000000E+00
  0.00000000E+00  0.00000000E+00  0.00000000E+00
  0.00000000E+00  0.00000000E+00  0.00000000E+00
  0.00000000E+00  0.00000000E+00  0.00000000E+00
  0.00000000E+00  0.00000000E+00  0.00000000E+00
  0.00000000E+00  0.00000000E+00  0.00000000E+00
  0.00000000E+00  0.00000000E+00  0.00000000E+00
  0.00000000E+00  0.00000000E+00  0.00000000E+00
  0.00000000E+00  0.00000000E+00  0.00000000E+00
  0.00000000E+00  0.00000000E+00  0.00000000E+00
  0.00000000E+00  0.00000000E+00  0.00000000E+00
  0.00000000E+00  0.00000000E+00  0.00000000E+00
  0.00000000E+00  0.00000000E+00  0.00000000E+00
  0.00000000E+00  0.00000000E+00  0.00000000E+00
  0.00000000E+00  0.00000000E+00  0.00000000E+00
  0.00000000E+00  0.00000000E+00  0.00000000E+00
  0.00000000E+00  0.00000000E+00  0.00000000E+00
  0.00000000E+00  0.00000000E+00  0.00000000E+00
  0.00000000E+00  0.00000000E+00  0.00000000E+00
  0.00000000E+00  0.00000000E+00  0.00000000E+00
  0.00000000E+00  0.00000000E+00  0.00000000E+00
  0.00000000E+00  0.00000000E+00  0.00000000E+00
  0.00000000E+00  0.00000000E+00  0.00000000E+00
  0.00000000E+00  0.00000000E+00  0.00000000E+00
  0.00000000E+00  0.00000000E+00  0.00000000E+00
  0.00000000E+00  0.00000000E+00  0.00000000E+00
  0.00000000E+00  0.00000000E+00  0.00000000E+00
  0.00000000E+00  0.00000000E+00  0.00000000E+00
  0.00000000E+00  0.00000000E+00  0.00000000E+00
  0.00000000E+00  0.00000000E+00  0.00000000E+00
  0.00000000E+00  0.00000000E+00  0.00000000E+00
  0.00000000E+00  0.00000000E+00  0.00000000E+00
  0.00000000E+00  0.00000000E+00  0.00000000E+00
  0.00000000E+00  0.00000000E+00  0.00000000E+00
  0.00000000E+00  0.00000000E+00  0.00000000E+00
  0.00000000E+00  0.00000000E+00  0.00000000E+00
  0.00000000E+00  0.00000000E+00  0.00000000E+00
  0.00000000E+00  0.00000000E+00  0.00000000E+00
  0.00000000E+00  0.00000000E+00  0.00000000E+00
  0.00000000E+00  0.00000000E+00  0.00000000E+00
  0.00000000E+00  0.00000000E+00  0.00000000E+00
  0.00000000E+00  0.00000000E+00  0.00000000E+00
  0.00000000E+00  0.00000000E+00  0.00000000E+00
  0.00000000E+00  0.00000000E+00  0.00000000E+00
  0.00000000E+00  0.00000000E+00  0.00000000E+00
  0.00000000E+00  0.00000000E+00  0.00000000E+00
  0.00000000E+00  0.00000000E+00  0.00000000E+00
  0.00000000E+00  0.00000000E+00  0.00000000E+00
  0.00000000E+00  0.00000000E+00  0.00000000E+00
  0.00000000E+00  0.00000000E+00  0.00000000E+00
  0.00000000E+00  0.00000000E+00  0.00000000E+00
  0.00000000E+00  0.00000000E+00  0.00000000E+00
  0.00000000E+00  0.00000000E+00  0.00000000E+00
  0.00000000E+00  0.00000000E+00  0.00000000E+00
  0.00000000E+00  0.00000000E+00  0.00000000E+00
  0.00000000E+00  0.00000000E+00  0.00000000E+00
  0.00000000E+00  0.00000000E+00  0.00000000E+00
  0.00000000E+00  0.00000000E+00  0.00000000E+00
  0.00000000E+00  0.00000000E+00  0.00000000E+00
  0.00000000E+00  0.00000000E+00  0.00000000E+00
  0.00000000E+00  0.00000000E+00  0.00000000E+00
  0.00000000E+00  0.00000000E+00  0.00000000E+00
  0.00000000E+00  0.00000000E+00  0.00000000E+00
  0.00000000E+00  0.00000000E+00  0.00000000E+00
  0.00000000E+00  0.00000000E+00  0.00000000E+00
  0.00000000E+00  0.00000000E+00  0.00000000E+00
  0.00000000E+00  0.00000000E+00  0.00000000E+00
  0.00000000E+00  0.00000000E+00  0.00000000E+00
  0.00000000E+00  0.00000000E+00  0.00000000E+00
  0.00000000E+00  0.00000000E+00  0.00000000E+00
  0.00000000E+00  0.00000000E+00  0.00000000E+00
  0.00000000E+00  0.00000000E+00  0.00000000E+00
  0.00000000E+00  0.00000000E+00  0.00000000E+00
  0.00000000E+00  0.00000000E+00  0.00000000E+00
  0.00000000E+00  0.00000000E+00  0.00000000E+00
  0.00000000E+00  0.00000000E+00  0.00000000E+00
  0.00000000E+00  0.00000000E+00  0.00000000E+00
  0.00000000E+00  0.00000000E+00  0.00000000E+00
  0.00000000E+00  0.00000000E+00  0.00000000E+00
  0.00000000E+00  0.00000000E+00  0.00000000E+00
  0.00000000E+00  0.00000000E+00  0.00000000E+00
  0.00000000E+00  0.00000000E+00  0.00000000E+00
  0.00000000E+00  0.00000000E+00  0.00000000E+00
  0.00000000E+00  0.00000000E+00  0.00000000E+00
  0.00000000E+00  0.00000000E+00  0.00000000E+00
  0.00000000E+00  0.00000000E+00  0.00000000E+00
  0.00000000E+00  0.00000000E+00  0.00000000E+00
  0.00000000E+00  0.00000000E+00  0.00000000E+00
  0.00000000E+00  0.00000000E+00  0.00000000E+00
  0.00000000E+00  0.00000000E+00  0.00000000E+00
  0.00000000E+00  0.00000000E+00  0.00000000E+00
  0.00000000E+00  0.00000000E+00  0.00000000E+00
  0.00000000E+00  0.00000000E+00  0.00000000E+00
  0.00000000E+00  0.00000000E+00  0.00000000E+00
  0.00000000E+00  0.00000000E+00  0.00000000E+00
  0.00000000E+00  0.00000000E+00  0.00000000E+00
  0.00000000E+00  0.00000000E+00  0.00000000E+00
  0.00000000E+00  0.00000000E+00  0.00000000E+00
  0.00000000E+00  0.00000000E+00  0.00000000E+00
  0.00000000E+00  0.00000000E+00  0.00000000E+00
  0.00000000E+00  0.00000000E+00  0.00000000E+00
  0.00000000E+00  0.00000000E+00  0.00000000E+00
  0.00000000E+00  0.00000000E+00  0.00000000E+00
  0.00000000E+00  0.00000000E+00  0.00000000E+00
  0.00000000E+00  0.00000000E+00  0.00000000E+00
  0.00000000E+00  0.00000000E+00  0.00000000E+00
  0.00000000E+00  0.00000000E+00  0.00000000E+00
  0.00000000E+00  0.00000000E+00  0.00000000E+00
  0.00000000E+00  0.00000000E+00  0.00000000E+00
  0.00000000E+00  0.00000000E+00  0.00000000E+00
  0.00000000E+00  0.00000000E+00  0.00000000E+00
  0.00000000E+00  0.00000000E+00  0.00000000E+00
  0.00000000E+00  0.00000000E+00  0.00000000E+00
  0.00000000E+00  0.00000000E+00  0.00000000E+00
  0.00000000E+00  0.00000000E+00  0.00000000E+00
  0.00000000E+00  0.00000000E+00  0.00000000E+00
  0.00000000E+00  0.00000000E+00  0.00000000E+00
  0.00000000E+00  0.00000000E+00  0.00000000E+00
  0.00000000E+00  0.00000000E+00  0.00000000E+00
  0.00000000E+00  0.00000000E+00  0.00000000E+00
  0.00000000E+00  0.00000000E+00  0.00000000E+00
  0.00000000E+00  0.00000000E+00  0.00000000E+00
  0.00000000E+00  0.00000000E+00  0.00000000E+00
  0.00000000E+00  0.00000000E+00  0.00000000E+00
  0.00000000E+00  0.00000000E+00  0.00000000E+00
  0.00000000E+00  0.00000000E+00  0.00000000E+00
  0.00000000E+00  0.00000000E+00  0.00000000E+00
  0.00000000E+00  0.00000000E+00  0.00000000E+00
  0.00000000E+00  0.00000000E+00  0.00000000E+00
  0.00000000E+00  0.00000000E+00  0.00000000E+00
  0.00000000E+00  0.00000000E+00  0.00000000E+00
  0.00000000E+00  0.00000000E+00  0.00000000E+00
  0.00000000E+00  0.00000000E+00  0.00000000E+00
  0.00000000E+00  0.00000000E+00  0.00000000E+00
  0.00000000E+00  0.00000000E+00  0.00000000E+00
  0.00000000E+00  0.00000000E+00  0.00000000E+00
  0.00000000E+00  0.00000000E+00  0.00000000E+00
  0.00000000E+00  0.00000000E+00  0.00000000E+00
  0.00000000E+00  0.00000000E+00  0.00000000E+00
  0.00000000E+00  0.00000000E+00  0.00000000E+00
  0.00000000E+00  0.00000000E+00  0.00000000E+00
  0.00000000E+00  0.00000000E+00  0.00000000E+00
  0.00000000E+00  0.00000000E+00  0.00000000E+00
  0.00000000E+00  0.00000000E+00  0.00000000E+00
  0.00000000E+00  0.00000000E+00  0.00000000E+00
  0.00000000E+00  0.00000000E+00  0.00000000E+00
  0.00000000E+00  0.00000000E+00  0.00000000E+00
  0.00000000E+00  0.00000000E+00  0.00000000E+00
  0.00000000E+00  0.00000000E+00  0.00000000E+00
  0.00000000E+00  0.00000000E+00  0.00000000E+00
  0.00000000E+00  0.00000000E+00  0.00000000E+00
  0.00000000E+00  0.00000000E+00  0.00000000E+00
  0.00000000E+00  0.00000000E+00  0.00000000E+00
  0.00000000E+00  0.00000000E+00  0.00000000E+00
  0.00000000E+00  0.00000000E+00  0.00000000E+00
  0.00000000E+00  0.00000000E+00  0.00000000E+00