3D\Atomistic                            
   1.00000000000000     
    18.8173099491580764    0.0000000000000000    0.0000000000000000
     0.0000000000000000   18.8173099491580764    0.0000000000000000
     0.0000000000000000    0.0000000000000000   18.8173099491580764
   Sb
   216
Direct
  0.0672806249294675  0.9740484402893339  0.5091216232662489
  0.5639054801494713  0.7064540598041843  0.3832619623482473
  0.9411572810304745  0.9504212309600157  0.0096261449934529
  0.3714619769201701  0.3089110534923903  0.0406981072705554
  0.7887206859882697  0.9320452417749288  0.7647517807640509
  0.3832411894325490  0.0616611784544065  0.9717546063185766
  0.9272889151260975  0.1613488062690215  0.4691047222785599
  0.6758736848057613  0.3472211657093944  0.7924930625616854
  0.2943004224420090  0.7563727984456790  0.0464539930854639
  0.2658327488545534  0.9379280311990782  0.1564345151828634
  0.3790441723843442  0.8647491076353929  0.3557014029769280
  0.4810033887443682  0.3887906614491017  0.5180648554989059
  0.4838636612327573  0.9753121751897339  0.3943775002961873
  0.5027326915672978  0.0024078813033701  0.0519309906518282
  0.1776669107204326  0.1743361863628510  0.4039110598917931
  0.8702344866475895  0.2360485737107167  0.1456167194364550
  0.5216908730647587  0.7533924732783436  0.7185313547438421
  0.4837448763790038  0.2940794135374019  0.3279447919083993
  0.0646324725659447  0.8795580482563232  0.0778906714174695
  0.7732735524703790  0.1571019375433853  0.8069813888082715
  0.2026558227690634  0.2039124044720651  0.0267140759556600
  0.5637743559193286  0.7331666078481175  0.8634854606374091
  0.7792256391032623  0.8944497600928456  0.5757856710289035
  0.7802594841517753  0.1704308434345290  0.4348194555933632
  0.6786085791557996  0.8214002978451109  0.3421137281145177
  0.9798554455183860  0.4628425880321208  0.9342682172661414
  0.6146655364339397  0.5766291499360771  0.0709802797860397
  0.7695677053406494  0.5363184198523241  0.9035939034233479
  0.8615496732221268  0.9598289129894233  0.3560579335018128
  0.9390465930027835  0.3478632940213471  0.0412820154994147
  0.7615528446925058  0.7279132111606389  0.7570902197486711
  0.1592531067017687  0.3905133500354021  0.2993975770994700
  0.2477257531206536  0.3250499798792867  0.1434701395489905
  0.7161036114103235  0.6360503214729553  0.5697270296056608
  0.4331911981121338  0.4497238813909123  0.0053242618409137
  0.1201585371359566  0.2220057870971080  0.1727706084381338
  0.7369925039158985  0.6770623224710615  0.0030578604730275
  0.3592456618718319  0.0842801869004538  0.6548813610941073
  0.1453674715407040  0.6159596559532536  0.0897276098797038
  0.2797496803557213  0.5296563202070687  0.8984045672094481
  0.5700074371838733  0.8335213947436761  0.4691177536850946
  0.0567342170387036  0.3687194959050216  0.1401617323593488
  0.1178017960374608  0.1780059564845416  0.8291250183676807
  0.0374292615988542  0.7752464067656146  0.8673027954778725
  0.1670236488088035  0.3993661519497214  0.4537979923772870
  0.2892635723269604  0.5500532637652052  0.7444508083529816
  0.7767503007337530  0.4697992204628860  0.3778085451637470
  0.0355815778500007  0.7359180239259050  0.3750713016679854
  0.6482687868900440  0.8640573979816646  0.9287886572680827
  0.8028356114440534  0.8851517937945361  0.2062110059934034
  0.8792640627739172  0.5403173587040281  0.0241051203898446
  0.8699713833650332  0.8087838370362911  0.6664901623323166
  0.5537962723061080  0.6118459206140637  0.5625770718330245
  0.1616136690096458  0.6285801135918722  0.7449581957568951
  0.1443031195545053  0.7852510921130073  0.2142455783263341
  0.4747929485159776  0.2332876095264428  0.9357145726794840
  0.7891548569222268  0.8128929451800087  0.8881345854416415
  0.0027218540621194  0.7115422640452967  0.7215754718929328
  0.7927191105328981  0.1131915927325642  0.0546276073417863
  0.5230361306883116  0.7071931722817805  0.0707827780256284
  0.3759999751333134  0.4296909358465651  0.6256282500017174
  0.1752990663103454  0.6492170669927116  0.9252036007798312
  0.9792629302928424  0.8124182117424631  0.5045614028713500
  0.5270534793785774  0.7138758619149251  0.2238439845899996
  0.9834336977065024  0.6044832097384202  0.2509998735668049
  0.5877036429291491  0.9311260252062553  0.2726037524295244
  0.0239528708857910  0.5297938822133084  0.1205345367317923
  0.3971615781251221  0.9846900542352706  0.5234170158211305
  0.9534351503280188  0.7551148998834006  0.0846963558113515
  0.4339433414397044  0.1801667987813001  0.4317661111763709
  0.8324207995290281  0.6684188217577479  0.1232722815790488
  0.6347579679154807  0.1706941237589791  0.3454947316798055
  0.8936819570403457  0.0383681281589782  0.6719857595196672
  0.2410591707427100  0.9609054631555562  0.6686166263834828
  0.2766028295177987  0.9709793499369412  0.3231562676019268
  0.4510931380796815  0.2122256836273857  0.1490015575399122
  0.0975920493002154  0.8024702904620434  0.6276622442109629
  0.3995580526551459  0.0839573659587991  0.3136760002179534
  0.8312505168998934  0.3187900195984761  0.3717356290708114
  0.2697663125411067  0.3114579832858390  0.9148034148799821
  0.1420168930685802  0.8584544852352820  0.3521874650304114
  0.2572165148475106  0.1097175466786420  0.8849672366591272
  0.5568728172107148  0.1063001789378755  0.4683093451842085
  0.6497374114639196  0.7944316023979267  0.0735316618767391
  0.2850573207938270  0.9204604763852700  0.9885574563889127
  0.3264623933677915  0.2352336433569836  0.2667899774236620
  0.2801712851964014  0.5415141741730490  0.5614477332740238
  0.4105203688374863  0.6275234363986516  0.9108327486227564
  0.4732772577310724  0.5012389522989371  0.1509791059172133
  0.4166412909861673  0.8671197989158401  0.7129347340618118
  0.0599953902159851  0.2514201612998904  0.9571833023925800
  0.8218076060128613  0.7054542294436886  0.3372180150091397
  0.0128933349518037  0.9339812710428618  0.2587453844530313
  0.5277447102573468  0.9886636458995547  0.6176150331219282
  0.9593128212071724  0.1397910350423862  0.3214034359726273
  0.3264985668928540  0.1293915217315683  0.1108543659976187
  0.4199001135430155  0.2200842439436813  0.5962693836799251
  0.2912874896290915  0.2934473938021294  0.5809064475135015
  0.2928762549419439  0.7844114636292697  0.1932970558438926
  0.3950053910598083  0.4178324323560116  0.3778200040866335
  0.9128642887336699  0.3678733852312709  0.8167815371961569
  0.2558184681933268  0.1075134650887926  0.5153214140897747
  0.7000483588415539  0.6277237177250087  0.3988118424834712
  0.2849318607185501  0.3044772894765542  0.4290950711085342
  0.5542895434724087  0.1189235007205990  0.6833382661749959
  0.4247292658133939  0.6289206344304681  0.7366682026899906
  0.6133636105066798  0.5675149087404789  0.9012288797132899
  0.9314103112703572  0.3501829837839057  0.2594181391054010
  0.0318742410358625  0.6051987464750221  0.8774729693493829
  0.1481293709710779  0.4224687110703313  0.6194013026037638
  0.3848077765898174  0.6492052793921220  0.5676967837594137
  0.2771852730478288  0.7579471587362742  0.5510126232353054
  0.7111035161463922  0.4520355057274294  0.5764481058322843
  0.5341020007956144  0.3512050073395785  0.1801281406841753
  0.8920769520113035  0.6926961658605270  0.5501489778423424
  0.3684538986245289  0.4064668858736246  0.2220987369809219
  0.5612539393401162  0.3663065610590078  0.9744833174658164
  0.7924165312707944  0.1210758770416146  0.2460977588647845
  0.5490606935261135  0.1531555327767362  0.0498492114440517
  0.8268799962070242  0.8443414364753778  0.0501162635258309
  0.6669392451121674  0.9426681475519038  0.1398879235319614
  0.4524057592760390  0.8492673697060534  0.2221721068211003
  0.0752180487780386  0.0536614413620531  0.3727293887746247
  0.4707646164852248  0.3127584756012409  0.7389341330082793
  0.9464980662534048  0.7879136801630141  0.2571533621729408
  0.2527689000006260  0.5050740841479131  0.0802410564198931
  0.9189413584587369  0.6016646684288778  0.4197397674063011
  0.4993203201294833  0.5389450813058937  0.3481879434555930
  0.1475058926377489  0.6688244938492709  0.5811551824143327
  0.3039198107750312  0.9592185750515232  0.8190167470457447
  0.6119564108317128  0.0860142442802600  0.8996011706716023
  0.1507682103865106  0.8278220234782884  0.9507160124793529
  0.7122794342670892  0.9929723660394492  0.9783707281415843
  0.2331973472643133  0.9568333308727001  0.4899845596175322
  0.7621400028497423  0.3676880938833120  0.9258234508531583
  0.7170827825642303  0.0206308976854047  0.3577578078059894
  0.5877287980737870  0.4956829505793225  0.4706311400777537
  0.9024261894809135  0.0083807631784614  0.5113361489106291
  0.6644683929516852  0.7849051932893691  0.5800696056385272
  0.7159031522067083  0.7345558030334801  0.2105620714873175
  0.8353810953505826  0.8343126652373778  0.4365559563703658
  0.8186526895236431  0.5373933768619393  0.2500836166357363
  0.6620657246882490  0.0430899835726857  0.7621439521325715
  0.0240168423605995  0.4703266407214095  0.3189992373418917
  0.1304365511840235  0.9703176131381069  0.8791712818224570
  0.2138628840909610  0.1177707569901210  0.2595929822956486
  0.1310647689834835  0.0558841321803432  0.7192752673927744
  0.3526343555164938  0.1981694435425643  0.7935993591034073
  0.9938481761550788  0.1304409755515934  0.1468893873931084
  0.6091475825670929  0.3149112750039160  0.4133183213312991
  0.8316342802591199  0.2776633158383430  0.6765612580969537
  0.1898477825263707  0.8389209815655044  0.7500139693253701
  0.0448736154842801  0.2892725545771747  0.4734472021247094
  0.4316936101001443  0.0547987573904023  0.7961915529954858
  0.7433197941800510  0.1214839714628392  0.5821888542836681
  0.5747707686406536  0.2321725572674062  0.8114975013197889
  0.5335110160167476  0.1017630071478239  0.2453186245243483
  0.4107619014624672  0.0129089529656396  0.1699389801320923
  0.8746925420205368  0.6297794434795870  0.7940495661363324
  0.7717345087042258  0.3063882671476615  0.5328430962541719
  0.9765415401050190  0.1115737220281702  0.9908803584997027
  0.5448268646375544  0.4396940859786055  0.8332501540096733
  0.0802457057350014  0.2842599591194565  0.6371504511238703
  0.9532299454276534  0.1827319013124782  0.6436867255314015
  0.0545707484097753  0.2641776433807335  0.3116460155978670
  0.6546205200161810  0.2743962114545010  0.1007524349438332
  0.7419520776534958  0.2840936818945649  0.2430031298815151
  0.6764748781200628  0.1007666533888720  0.1547179030955013
  0.8622575474995391  0.5304376075384815  0.6622544268434328
  0.6486770648261121  0.4055083022171199  0.2892356043532074
  0.0535235585984558  0.4964206404904521  0.7179403972592135
  0.1505166140284685  0.3806744372235257  0.0181224658904565
  0.9125688843594465  0.7019676734201363  0.9328643719777878
  0.0320076038509532  0.5103570302794529  0.4743430706899048
  0.6631770774356756  0.5802354438665283  0.2263684232956960
  0.5224258720672080  0.5188508776127423  0.6896147979605909
  0.3042150107942697  0.7509469298645982  0.7119055475753459
  0.1360192737261469  0.6374901350117639  0.2507569568729997
  0.5805617509659912  0.3696339026414078  0.6421689961497803
  0.2504839426335059  0.3913775277104660  0.7524553032736125
  0.3945875882477168  0.6453431823035464  0.2363733661867010
  0.9235800711184966  0.3782904430820159  0.5007990730374334
  0.3785057774201943  0.4112887626616289  0.8563289553721446
  0.4361563927076366  0.8300176006389045  0.8836371748099632
  0.8924648271331592  0.9975933576280983  0.1570408854580675
  0.6691734705529240  0.0000134672170413  0.5224300684423443
  0.8305846503956815  0.4245046205108781  0.1337429260191292
  0.0542218942094482  0.3200839212320730  0.7994664057820169
  0.6445297301443101  0.6070341339186485  0.7354302075481111
  0.9777431078244763  0.9246278377129856  0.8380616120103025
  0.6893359614298644  0.4222684806385418  0.0546098381051803
  0.6246123819579333  0.8827429210931985  0.7020956035488821
  0.4143562629966302  0.8299729922581717  0.5502811687507619
  0.2555901571660112  0.5230285195268338  0.2429298159393911
  0.2984958831392773  0.5386630803287711  0.4051553451854198
  0.4103989279175640  0.8488830873779238  0.0503064891183050
  0.1649838613880890  0.6200342232145644  0.4106157351418764
  0.1240726976422749  0.0094515939096810  0.1595566677632396
  0.1031172213089840  0.1096631939190753  0.5786185572463756
  0.1210604346766955  0.0556592238349023  0.0120918111963132
  0.0053820542149662  0.6065830161628799  0.6106935500965988
  0.2278093272528746  0.2291063925167227  0.7091741204491221
  0.8862411508713957  0.2474247809972166  0.9137637279534295
  0.3099895586619532  0.7442911823355147  0.8681664027536117
  0.7419439823322571  0.4886530270277925  0.7444899458309002
  0.3662940421741872  0.6231437673972187  0.0720845676750305
  0.2472597164450332  0.7544771444785554  0.3952492954672189
  0.8257191128143314  0.0381517918704911  0.8688279363212680
  0.6205965261036023  0.2191705815294075  0.5796417860187246
  0.9430190672378422  0.3919840203356792  0.6604693563585113
  0.7096328819990952  0.2070012033652879  0.9457837110103388
  0.4097383043764449  0.6592722327722949  0.3969253241646098
  0.9626179469222588  0.1428995674376324  0.8018547859633176
  0.1357623144589676  0.4392676271486188  0.8579261899458119
  0.0202544934083997  0.9520401030895955  0.6939793654588601
  0.5473934430768704  0.9380066275649006  0.8397507950196256
 
 -0.35252624E-02  0.21276277E-03 -0.21031755E-03
  0.29769186E-02  0.18976535E-02  0.51987790E-03
 -0.48928797E-03 -0.21447112E-02  0.20608800E-02
 -0.14927927E-03 -0.13564145E-02  0.43745610E-03
 -0.94811790E-03  0.59807033E-03 -0.59179937E-03
  0.10421957E-02  0.22167605E-02 -0.25625098E-02
 -0.19367576E-03  0.86930446E-04  0.23460670E-03
 -0.31318629E-03  0.36583057E-03 -0.20396287E-02
 -0.70197912E-03  0.11099438E-02 -0.80866475E-03
 -0.34611735E-02 -0.33561273E-03 -0.43756379E-03
 -0.68613194E-03 -0.67428259E-04 -0.81942571E-03
  0.61811618E-03  0.17360009E-02  0.11724780E-02
  0.18888056E-02 -0.67269349E-03 -0.23422990E-02
 -0.14423618E-02  0.15360292E-02 -0.61440270E-03
 -0.29043696E-03 -0.10553199E-02  0.60042289E-03
  0.28731422E-02  0.29868908E-03  0.28848727E-02
  0.10277781E-02  0.53835460E-03  0.70769865E-03
 -0.25008504E-03 -0.13291064E-02 -0.42184316E-03
  0.19000674E-03 -0.91060942E-03 -0.21653226E-02
 -0.29973049E-02 -0.73915147E-03  0.19660035E-02
  0.82965170E-03  0.94747278E-03 -0.14255436E-04
 -0.12122453E-02  0.22872668E-03  0.15194874E-03
 -0.65767291E-03  0.13765659E-03  0.17435003E-02
  0.64702299E-03 -0.11622382E-02 -0.14829340E-02
 -0.14267683E-02 -0.27870732E-02  0.19842388E-02
 -0.12608857E-03 -0.18141977E-02 -0.56446676E-04
  0.25914132E-02 -0.76417368E-03  0.22949897E-02
 -0.19910782E-02 -0.14792425E-02 -0.26489570E-03
 -0.33517104E-03 -0.69094190E-03  0.79656889E-03
  0.34462603E-02  0.24696725E-02 -0.50898380E-02
 -0.25761662E-03  0.24870470E-02  0.17054923E-03
 -0.47010765E-03  0.24463398E-02 -0.14482145E-02
  0.39560660E-03  0.20249306E-02 -0.16800134E-03
  0.19917761E-02 -0.14391428E-02 -0.32749633E-03
 -0.10438413E-02 -0.61798027E-03  0.37562546E-03
 -0.11099974E-03 -0.22621826E-02 -0.24373620E-02
 -0.75631929E-03 -0.37644475E-03 -0.62859775E-03
  0.15348385E-03 -0.21076235E-02  0.18719834E-02
 -0.11797479E-02  0.96104819E-03  0.44338027E-03
 -0.99474084E-03  0.64295610E-04  0.85466529E-03
  0.11559206E-02  0.13362218E-02 -0.10436328E-02
  0.16798130E-02 -0.11983177E-02  0.14900319E-02
  0.25229439E-02  0.13722608E-02 -0.19802218E-02
 -0.43762441E-03  0.75329323E-03  0.54842125E-03
 -0.24591753E-02 -0.10571872E-02 -0.58005992E-03
 -0.20866622E-02 -0.57135848E-04 -0.58472318E-03
 -0.72252803E-04  0.12401826E-02 -0.47377355E-03
  0.21896439E-02 -0.38550154E-03 -0.28392212E-03
  0.50595968E-03 -0.26451797E-02 -0.44287116E-02
  0.28132326E-02 -0.12899995E-02  0.16132311E-02
  0.27902509E-02  0.99307754E-03 -0.21582903E-03
  0.18590578E-02  0.69504867E-03  0.39560344E-03
 -0.21209279E-02 -0.21113645E-02  0.21989967E-02
  0.25915221E-03  0.16972733E-02  0.16685979E-02
 -0.10330515E-02 -0.74798945E-03  0.13062145E-02
  0.69532315E-05 -0.18665786E-02 -0.91509917E-03
  0.14498589E-02  0.14171354E-02 -0.19893419E-02
  0.37045496E-03 -0.66504870E-03 -0.30982483E-02
 -0.67684723E-03 -0.82193964E-03  0.14286085E-02
 -0.19400576E-02 -0.81263969E-03 -0.11415425E-02
 -0.11470959E-02  0.18448012E-02  0.45813827E-03
  0.88359563E-04  0.11426871E-02  0.23601478E-02
 -0.27257143E-03 -0.13124873E-02 -0.59978965E-03
  0.15284802E-02  0.12777868E-02 -0.14886845E-04
  0.52133964E-03 -0.19410677E-02 -0.10782251E-02
 -0.22514261E-03  0.41535884E-04  0.23235166E-02
 -0.92685622E-03 -0.20054561E-02 -0.33908490E-03
  0.30493752E-02  0.20045096E-02 -0.36659049E-03
 -0.97438305E-03 -0.83193031E-03  0.18457433E-02
 -0.24603250E-02 -0.18699256E-03  0.18346644E-02
  0.86103809E-03 -0.57686696E-04 -0.57940559E-03
 -0.23475336E-02 -0.12218567E-02 -0.53287999E-03
  0.87139160E-03 -0.22409491E-02  0.91256163E-03
 -0.18908089E-03 -0.30103443E-02 -0.48432936E-03
  0.17498382E-03 -0.33957431E-02 -0.24599318E-02
 -0.70985252E-03  0.14795887E-02  0.47217083E-03
  0.12767649E-02  0.12461911E-02  0.83113012E-03
 -0.13227603E-03  0.87735768E-03 -0.96007885E-03
 -0.81785511E-03 -0.44260392E-03  0.96592150E-03
  0.69174956E-03  0.22352619E-03 -0.31779792E-02
  0.35036253E-03 -0.24800019E-02  0.10968513E-02
 -0.14385045E-02 -0.15666273E-02 -0.65412841E-03
  0.17454087E-02 -0.16500891E-02 -0.95904277E-03
 -0.14884305E-02 -0.38933236E-02  0.16226664E-02
  0.44334490E-03 -0.16800852E-02  0.61493248E-03
 -0.27260009E-02  0.15087304E-02  0.16534023E-02
 -0.65568318E-03  0.14691163E-02 -0.10824996E-02
  0.11155400E-02 -0.70058742E-04 -0.10991099E-02
  0.54243851E-04 -0.37028352E-03  0.14511093E-02
  0.11216006E-02  0.30363684E-02 -0.37076689E-03
 -0.20767735E-02 -0.21262993E-02  0.11550344E-02
 -0.59499625E-03  0.78891129E-03  0.17709408E-03
 -0.42040322E-03  0.17387086E-04 -0.60698093E-03
  0.24007544E-03 -0.32457938E-02 -0.49165515E-03
 -0.79153971E-03 -0.98604741E-03  0.54649014E-03
 -0.25765417E-03  0.12463512E-02  0.15246935E-02
 -0.18250913E-03  0.40476493E-03 -0.22137832E-02
 -0.10919800E-02  0.18548797E-02 -0.18100754E-02
  0.13023492E-03  0.83519785E-03 -0.72525081E-03
  0.60719307E-03  0.11201326E-03  0.31922887E-02
  0.11874320E-02  0.38017918E-02 -0.47740307E-03
  0.85971599E-03  0.56261922E-04  0.15986548E-02
 -0.15256511E-02 -0.20721188E-02  0.14268300E-03
  0.45209286E-03  0.33361967E-02  0.56036163E-03
 -0.28021169E-03  0.17143619E-03  0.39941097E-03
  0.10916703E-03  0.15074835E-02  0.53057237E-03
 -0.13485382E-03 -0.87331827E-03 -0.70668048E-03
 -0.35555784E-02  0.18328879E-02 -0.19312896E-05
 -0.63502667E-03 -0.14540159E-02 -0.15559141E-02
 -0.49074431E-03  0.47907071E-03  0.26436079E-02
 -0.19373273E-02 -0.58631858E-04  0.22279686E-02
  0.96436453E-03 -0.14196143E-02  0.63086615E-03
 -0.12597353E-02  0.28738382E-02 -0.12466337E-02
 -0.23918806E-03 -0.13539704E-02  0.25416045E-02
 -0.12068230E-02 -0.31957042E-02  0.42268369E-03
 -0.22172104E-02 -0.14126984E-02 -0.26444202E-02
  0.18081785E-04 -0.62832353E-03  0.13233514E-02
  0.14806598E-02 -0.10751067E-02  0.14651352E-02
  0.22724900E-02  0.14792523E-02 -0.51612861E-03
 -0.30877172E-02 -0.96648574E-03 -0.98013081E-03
  0.17396296E-02  0.66280677E-03 -0.11547331E-02
  0.30693410E-02 -0.12739853E-02 -0.15537480E-02
  0.80361502E-03  0.48369485E-03 -0.23000704E-03
 -0.41449724E-02 -0.38485878E-03  0.17056226E-02
  0.22629287E-02  0.21061663E-02 -0.25402279E-02
 -0.17769177E-02 -0.27460407E-02 -0.74055458E-03
 -0.27801580E-02  0.13807626E-02  0.20548013E-02
 -0.11476499E-02 -0.12365513E-02  0.49721079E-03
  0.41638045E-03 -0.91365381E-05 -0.39488370E-02
  0.20090748E-02 -0.46391527E-03 -0.18003482E-02
 -0.95406863E-03  0.41759251E-02  0.68014452E-03
 -0.36397557E-02  0.25875736E-02  0.21287329E-02
 -0.42749717E-03  0.86166983E-03  0.23939713E-03
 -0.12795478E-03  0.18195449E-02 -0.41634241E-04
 -0.68721284E-03  0.37769922E-02  0.21464213E-03
  0.35204829E-03 -0.20711306E-02  0.39132972E-02
  0.22392025E-02  0.18266366E-02 -0.87435637E-03
 -0.19872714E-02  0.63172291E-04 -0.30445466E-04
 -0.12515998E-02  0.60394393E-03  0.16001958E-02
  0.99892462E-03 -0.16399009E-02  0.30718675E-03
  0.72716437E-03  0.88941982E-04 -0.28312377E-02
  0.53060214E-03  0.10478045E-02  0.79775287E-03
 -0.34918302E-03  0.11126512E-02 -0.20366492E-03
  0.15200005E-02 -0.41074452E-02  0.15139211E-02
 -0.14505778E-02  0.44904992E-02  0.16510336E-02
  0.28797444E-02 -0.14561273E-02  0.19351123E-02
  0.32458628E-02  0.19101447E-02  0.13381438E-03
  0.18854072E-02  0.20650994E-02  0.83595865E-03
 -0.19099543E-02  0.35009400E-02 -0.95864671E-03
  0.12421621E-03 -0.13661366E-02  0.17794934E-03
 -0.22376871E-03 -0.16409891E-02  0.21381676E-02
  0.20440761E-02 -0.11458378E-02  0.14640425E-02
 -0.33517530E-02 -0.20507197E-02  0.26567722E-02
  0.24314941E-02  0.83607176E-03 -0.46602186E-03
 -0.22857952E-02 -0.66814945E-03 -0.10177637E-02
 -0.35282046E-03 -0.66095986E-03  0.52705061E-03
  0.48792898E-03 -0.39587011E-02 -0.12978271E-02
 -0.11504236E-02  0.24138931E-02 -0.96087701E-03
 -0.28320814E-03  0.27275317E-02  0.47995965E-03
 -0.13326080E-02 -0.38364681E-03 -0.14150388E-02
  0.34550122E-02  0.41799434E-02  0.18555389E-02
  0.17129460E-02 -0.11931457E-02  0.17930810E-02
  0.12469930E-02 -0.99874977E-03  0.44111167E-03
  0.11258125E-02 -0.41472088E-03  0.14553193E-02
 -0.21601361E-02  0.83589734E-03 -0.92934962E-03
  0.15216375E-02  0.17109311E-02 -0.13507516E-02
 -0.21853465E-02 -0.62091464E-03 -0.20183737E-02
  0.21134541E-03 -0.21496725E-02  0.28081832E-02
 -0.10162686E-02  0.22462419E-02 -0.32211967E-02
 -0.60546103E-03 -0.10009645E-02 -0.18243811E-02
 -0.46762344E-03  0.13929165E-02 -0.10417622E-02
 -0.23593253E-03  0.72066321E-03  0.28485874E-02
  0.21522866E-02 -0.13066981E-03 -0.22406131E-02
  0.50700212E-03 -0.23547117E-02  0.29619137E-02
 -0.78280239E-03 -0.12896840E-02 -0.77502500E-03
  0.62538868E-03 -0.12659950E-02  0.16560299E-03
  0.32139818E-03 -0.11955660E-02  0.81477721E-03
  0.23149689E-02 -0.38257326E-02  0.23172020E-03
 -0.28087917E-02  0.12686640E-03 -0.24886586E-02
 -0.44527734E-03  0.65348513E-03 -0.62719541E-03
  0.70035026E-03  0.40737794E-02  0.69428287E-03
 -0.10498501E-02 -0.40000759E-03 -0.17625249E-02
 -0.12151108E-03  0.78350194E-03  0.80056695E-03
  0.11932228E-02  0.93399511E-03  0.18333170E-02
  0.13703580E-02  0.86439049E-03 -0.70630662E-03
  0.12780908E-02  0.14876900E-02  0.13124670E-02
  0.15611785E-02  0.13894392E-02  0.24752395E-02
  0.11880263E-02 -0.14989558E-02  0.14993275E-02
 -0.30724651E-02  0.16969175E-02 -0.26690157E-02
  0.19369695E-03  0.17151611E-02  0.13281299E-02
  0.25092937E-02 -0.80610393E-03 -0.88149893E-03
 -0.55622412E-03  0.12216129E-02  0.12636255E-02
  0.22456684E-02 -0.13588953E-02 -0.13616640E-02
 -0.33611265E-02 -0.20396287E-02 -0.84944494E-03
 -0.42319206E-03 -0.30549971E-02  0.19418346E-02
 -0.26252122E-03  0.13767039E-03 -0.65725974E-03
  0.10781700E-02 -0.20045595E-02 -0.34466959E-02
  0.16139538E-02  0.28705777E-02 -0.12189150E-02
 -0.21846804E-02 -0.35938500E-03  0.35518275E-02
  0.11489689E-02  0.26811127E-03 -0.18010150E-02
 -0.12958302E-02  0.26049724E-02  0.17129234E-03
  0.23228493E-02  0.28026439E-02 -0.39272859E-02
  0.38337126E-03 -0.44891052E-03 -0.94202976E-03
  0.33170250E-02 -0.41885137E-02  0.22144945E-03
  0.13740706E-02  0.33900568E-02 -0.27986531E-03
  0.17664529E-02 -0.12150936E-02  0.36811112E-04
 -0.26726848E-02 -0.30810081E-02 -0.11767954E-02
  0.17330008E-02 -0.65157593E-04 -0.14789177E-02
  0.79903996E-05 -0.85362356E-04  0.12105533E-02
  0.92775902E-04  0.10481423E-02  0.11605992E-02
 -0.56474336E-03 -0.37789451E-03  0.28641527E-02
 -0.17357165E-02  0.27192405E-03  0.44478294E-03
 -0.37076146E-03  0.18825997E-02  0.26684824E-03
  0.13510151E-02  0.12334139E-02 -0.32868000E-03
  0.25088679E-03  0.23318923E-02 -0.29479933E-02
  0.11951311E-02 -0.25504170E-02 -0.21307921E-02
 
           1
   5.00000000000000     
  0.10000000E+01  0.00000000E+00  0.00000000E+00  0.00000000E+00
  0.66343918E-01  0.97410497E+00  0.50906574E+00
  0.56469649E+00  0.70695829E+00  0.38340010E+00
  0.94102727E+00  0.94985135E+00  0.10173747E-01
  0.37142231E+00  0.30855064E+00  0.40814345E-01
  0.78846876E+00  0.93220416E+00  0.76459453E+00
  0.38351811E+00  0.62250200E-01  0.97107371E+00
  0.92723745E+00  0.16137190E+00  0.46916706E+00
  0.67579047E+00  0.34731837E+00  0.79195111E+00
  0.29411390E+00  0.75666772E+00  0.46239121E-01
  0.26491307E+00  0.93783885E+00  0.15631825E+00
  0.37886186E+00  0.86473119E+00  0.35548367E+00
  0.48116763E+00  0.38925194E+00  0.51837640E+00
  0.48436554E+00  0.97513343E+00  0.39375512E+00
  0.50234944E+00  0.28160239E-02  0.51767736E-01
  0.17758974E+00  0.17405577E+00  0.40407060E+00
  0.87099792E+00  0.23612794E+00  0.14638327E+00
  0.52196397E+00  0.75353552E+00  0.71871940E+00
  0.48367843E+00  0.29372625E+00  0.32783270E+00
  0.64682960E-01  0.87931609E+00  0.77315317E-01
  0.77247713E+00  0.15690554E+00  0.80750378E+00
  0.20287627E+00  0.20416416E+00  0.26710288E-01
  0.56345225E+00  0.73322738E+00  0.86352584E+00
  0.77905089E+00  0.89448634E+00  0.57624894E+00
  0.78043141E+00  0.17012202E+00  0.43442542E+00
  0.67822947E+00  0.82065974E+00  0.34264097E+00
  0.97982194E+00  0.46236053E+00  0.93425322E+00
  0.61535411E+00  0.57642610E+00  0.71590088E-01
  0.76903865E+00  0.53592537E+00  0.90352352E+00
  0.86146061E+00  0.95964532E+00  0.35626959E+00
  0.93996231E+00  0.34851952E+00  0.39929580E-01
  0.76148439E+00  0.72857405E+00  0.75713554E+00
  0.15912819E+00  0.39116337E+00  0.29901277E+00
  0.24783087E+00  0.32558803E+00  0.14342550E+00
  0.71663285E+00  0.63566792E+00  0.56964001E+00
  0.43291384E+00  0.44955968E+00  0.54240703E-02
  0.12012904E+00  0.22140470E+00  0.17212297E+00
  0.73679154E+00  0.67696230E+00  0.28908340E-02
  0.35928644E+00  0.83720164E-01  0.65537877E+00
  0.14505400E+00  0.61621502E+00  0.89845422E-01
  0.27948536E+00  0.52967340E+00  0.89863166E+00
  0.57031458E+00  0.83387645E+00  0.46884045E+00
  0.57180565E-01  0.36840109E+00  0.14055765E+00
  0.11847217E+00  0.17837058E+00  0.82859885E+00
  0.37312979E-01  0.77544657E+00  0.86744852E+00
  0.16637021E+00  0.39908524E+00  0.45364386E+00
  0.28870912E+00  0.55003808E+00  0.74429544E+00
  0.77673110E+00  0.47012875E+00  0.37768266E+00
  0.36163394E-01  0.73581559E+00  0.37499586E+00
  0.64840323E+00  0.86335454E+00  0.92761189E+00
  0.80358312E+00  0.88480902E+00  0.20663966E+00
  0.88000547E+00  0.54058123E+00  0.24047772E-01
  0.87046536E+00  0.80896852E+00  0.66659528E+00
  0.55323271E+00  0.61128490E+00  0.56316137E+00
  0.16168253E+00  0.62903110E+00  0.74540156E+00
  0.14402862E+00  0.78505234E+00  0.21459266E+00
  0.47479480E+00  0.23279164E+00  0.93547142E+00
  0.78954010E+00  0.81326950E+00  0.88760599E+00
  0.28202887E-02  0.71136555E+00  0.72075223E+00
  0.79253926E+00  0.11297319E+00  0.55007207E-01
  0.52252063E+00  0.70697724E+00  0.70479456E-01
  0.37569518E+00  0.43018112E+00  0.62574998E+00
  0.17532254E+00  0.64952069E+00  0.92583072E+00
  0.97919050E+00  0.81206947E+00  0.50440203E+00
  0.52745962E+00  0.71421539E+00  0.22384003E+00
  0.98357222E+00  0.60396744E+00  0.25071338E+00
  0.58764382E+00  0.93113706E+00  0.27322114E+00
  0.23706593E-01  0.52926101E+00  0.12044444E+00
  0.39797184E+00  0.98522268E+00  0.52331961E+00
  0.95317624E+00  0.75489385E+00  0.85186793E-01
  0.43328960E+00  0.18011711E+00  0.43225360E+00
  0.83264959E+00  0.66840349E+00  0.12311833E+00
  0.63413420E+00  0.17036946E+00  0.34535314E+00
  0.89391350E+00  0.37772679E-01  0.67222824E+00
  0.24100893E+00  0.96010558E+00  0.66848793E+00
  0.27664932E+00  0.97007706E+00  0.32250263E+00
  0.45090452E+00  0.21261883E+00  0.14912702E+00
  0.97931302E-01  0.80280142E+00  0.62788309E+00
  0.39952291E+00  0.84190491E-01  0.31342089E+00
  0.83103320E+00  0.31867241E+00  0.37199229E+00
  0.26995012E+00  0.31151738E+00  0.91395899E+00
  0.14210999E+00  0.85779552E+00  0.35247891E+00
  0.25683429E+00  0.10930127E+00  0.88479343E+00
  0.55733659E+00  0.10586173E+00  0.46805452E+00
  0.64934192E+00  0.79339710E+00  0.73962825E-01
  0.28517512E+00  0.92001406E+00  0.98872085E+00
  0.32573806E+00  0.23563453E+00  0.26722931E+00
  0.27999706E+00  0.54190454E+00  0.56116010E+00
  0.41081678E+00  0.62750482E+00  0.91054070E+00
  0.47329167E+00  0.50114056E+00  0.15136468E+00
  0.41693931E+00  0.86792660E+00  0.71283622E+00
  0.59443565E-01  0.25085518E+00  0.95749021E+00
  0.82164951E+00  0.70566385E+00  0.33726507E+00
  0.12781628E-01  0.93398589E+00  0.25858410E+00
  0.52780850E+00  0.98780120E+00  0.61748439E+00
  0.95910250E+00  0.13952903E+00  0.32154865E+00
  0.32643010E+00  0.12972269E+00  0.11125950E+00
  0.41985162E+00  0.22019180E+00  0.59568115E+00
  0.29099734E+00  0.29394026E+00  0.58042549E+00
  0.29291086E+00  0.78463339E+00  0.19310435E+00
  0.39516673E+00  0.41786220E+00  0.37866824E+00
  0.91317980E+00  0.36888357E+00  0.81665469E+00
  0.25604691E+00  0.10752841E+00  0.51574620E+00
  0.69964297E+00  0.62717313E+00  0.39884976E+00
  0.28505199E+00  0.30536376E+00  0.42924397E+00
  0.55421509E+00  0.11896905E+00  0.68344439E+00
  0.42475827E+00  0.62932119E+00  0.73680918E+00
  0.61332778E+00  0.56728286E+00  0.90104111E+00
  0.93046555E+00  0.35067001E+00  0.25941763E+00
  0.31705506E-01  0.60481240E+00  0.87705954E+00
  0.14799897E+00  0.42259601E+00  0.62010374E+00
  0.38429300E+00  0.64918970E+00  0.56828878E+00
  0.27744152E+00  0.75756995E+00  0.55118025E+00
  0.71076879E+00  0.45279912E+00  0.57611686E+00
  0.53403845E+00  0.35084524E+00  0.18080348E+00
  0.89175628E+00  0.69184703E+00  0.55026129E+00
  0.36786476E+00  0.40609151E+00  0.22139608E+00
  0.56125874E+00  0.36613961E+00  0.97483495E+00
  0.79280996E+00  0.12079021E+00  0.24648706E+00
  0.54966452E+00  0.15354859E+00  0.49712069E-01