Ge Sb Te                                
   1.00000000000000     
    18.5561996155000024    0.0000000000000000    0.0000000000000000
     0.0000000000000000   18.5561996155000024    0.0000000000000000
     0.0000000000000000    0.0000000000000000   18.5561996155000024
   Ge   Se
    64   130
Direct
  0.6647449281575180  0.5469866529770399  0.6720467487424423
  0.1867672452104112  0.1486011337036639  0.7481263662470379
  0.9335609310241415  0.0887980879310766  0.8664523520207358
  0.1650851204572269  0.0593425163972175  0.1541346187142478
  0.0304564441744372  0.6753886779957912  0.2780666245372399
  0.6229611523906065  0.7422033558626128  0.3136557603200186
  0.6673008420184032  0.5543861727158078  0.1656377424754471
  0.1656353339637646  0.9253948173024746  0.7248260015832522
  0.6242570433522768  0.6133764364809229  0.9049108840007789
  0.2259737449697918  0.8319606716514835  0.9310270088288254
  0.0523689739251292  0.2133697213464834  0.6296033273522771
  0.4023002609760861  0.4847210017324157  0.5340976618554127
  0.2893974772073321  0.1598862289437807  0.5601926654471354
  0.6457320533976376  0.2490589015903652  0.4455527208232214
  0.8851059883815801  0.5859790138185967  0.8024829324134179
  0.2768049424722525  0.6080484119653269  0.6175278954006067
  0.0890960076022531  0.9877849583594032  0.5580992658904769
  0.3527271708133348  0.1521070478412648  0.0700064249027182
  0.3612635345478772  0.9358066103133137  0.0496772005934991
  0.4250208250855727  0.7447295602202587  0.9227987912694202
  0.0810336881692795  0.4174390613701677  0.2232957879061049
  0.6340853698237877  0.7810099479491649  0.5451650789513385
  0.8111331480323930  0.9683369321434877  0.7061013100516120
  0.5578160639932234  0.4132502347964805  0.8121236935505216
  0.9653905670135784  0.3339363509081387  0.7745402254720900
  0.8361343869104283  0.1196031421896928  0.5265616483282684
  0.9012656653020785  0.3418217557593287  0.5454177979740532
  0.0734532663611293  0.2434792974704217  0.9158044846954585
  0.5096407040754153  0.2236948730290043  0.7591836707320050
  0.7147257842918020  0.2379179672082438  0.9252723757788298
  0.2749159354959785  0.8631851827903491  0.4811698737030285
  0.1653787882753935  0.1364626685201561  0.4512480524445019
  0.7111615516071761  0.4597774125326453  0.0296768534885255
  0.7517145893689466  0.7688100179574238  0.1645809261784938
  0.7646542161071916  0.4758177816577093  0.3891053545254075
  0.4206570040762267  0.7022819850276628  0.4194804102526133
  0.6545505075350803  0.9200002753064986  0.9881666329750067
  0.9536531618643235  0.5089582744812871  0.1026523923039860
  0.9793036961157994  0.2300823470227601  0.3816824900044234
  0.2597006290311689  0.0334664259826070  0.9341665136777421
  0.9012456113004987  0.5073476735879763  0.5906569057390108
  0.1940500999062623  0.4439531028327426  0.9131334704827219
  0.5272580671653021  0.6279141356271191  0.8001494996528757
  0.8204887958215032  0.1247919605725611  0.3177145051308549
  0.6445560814443435  0.1142121340133427  0.5975452308202903
  0.1847398995003017  0.9125769972988340  0.3135290135129694
  0.9079500877570504  0.3419569914024853  0.9802871255908554
  0.0908833579383750  0.8343063684363828  0.1304848080203445
  0.5321734623605704  0.8252285787624973  0.8627474308150109
  0.0540746760475989  0.5085040217096779  0.3809044360941972
  0.0088699846070534  0.7329418746969696  0.8509937997255138
  0.6974303089967535  0.7442679391443751  0.7410183321083534
  0.6654689683019896  0.9446895650539180  0.1774030531921738
  0.6308946785419375  0.3345051359253401  0.2469052768862952
  0.3098297271817103  0.5527636917151523  0.8295958157788318
  0.4492827672540632  0.8509055596153650  0.2487307534116605
  0.0707648657322617  0.6639602675314028  0.0417888189352884
  0.3143509597712498  0.5771822979169947  0.0715919734962087
  0.8242172940514791  0.1047523012284961  0.1083581285191446
  0.5585136593475730  0.3412935158504248  0.0222320248529850
  0.0654483053524635  0.7965493639649662  0.4650297141092695
  0.4498364652963380  0.0126002215185165  0.7634359274639299
  0.3888566763825599  0.0248942647361613  0.3688165103850009
  0.4953324371154388  0.5617671953416787  0.2804448604586675
 -0.0025632052779966  0.0507007220870447  0.6325383091710861
  0.9119477393907643  0.0961782537720070  0.4077541662804792
  0.8568230280505930  0.5942803035564519  0.5013864725186407
  0.0722287677816099  0.3767559921077500  0.3468473880573487
  0.4906797755392329 -0.0130202014791103  0.2812961588785150
  0.1746930557740412  0.0348601772295664  0.8314461393735999
  0.5536198312963670  0.2158358930406354  0.2495797144457086
  0.6859073573547108  0.8264720499671665  0.4104073519257996
  0.5653324122146105  0.2807938466435386  0.8638430358878489
  0.1941499675797189  0.3505898420526141  0.7536680639102562
  0.3523730102148376  0.5174164328185435  0.1935088507908310
  0.5576300682135317  0.1042299771288958  0.7381291878647359
  0.2787456902315170  0.8548805997375248  0.7190608532282879
  0.8876016451182325 -0.0047046573708027  0.5855151142938728
  0.0575269885939246  0.8618140847139589  0.5785510953969775
  0.7142348396205496  0.6623905553163981  0.0780415998070070
  0.3226755193794241  0.8981400594515112  0.3548092941591833
  0.1786855211703370  0.7908073412864048  0.4005307668593788
  0.4963321675207574  0.6710239553614247  0.0090033627741509
  0.6134098622997587  0.6169517101819822  0.3774722257996253
  0.8053875985307878  0.1058813807210503  0.7270722098502406
  0.4526845475968751  0.9354851550385357  0.6484670815433751
  0.3251255886980556  0.1425723587133553  0.7078960683415689
  0.3662117008915839  0.0443801993493907  0.1388408415881708
  0.5329141771774285  0.3120824731684118  0.6563426702628893
  0.1945414451786925  0.5397369606556919  0.4344420644261401
  0.1479550148081732  0.2832425963768777  0.0856234459592860
  0.8609879362406618  0.5455213077502916  0.2203379033580386
  0.4818145133369068  0.6264913596998058  0.5181686721017267
  0.2008232704981612  0.8328116140225488  0.1962409746087742
  0.1721936760768488  0.5314672466436691  0.5631098806634661
  0.5642708737859174  0.8243633037136527  0.1636464775712329
  0.3379554877190805  0.4337487292265733  0.8951913710778233
  0.9192878733074992  0.2484584204658848  0.6358984839440994
  0.0994584485156366  0.5478317824863261  0.2476622318109078
  0.9811358270131105  0.1440778282727738  0.0692392389616873
  0.3723673586144804  0.2629920577611790  0.1483556438952147
  0.4300682679254477  0.5612788921232881 -0.0000847682288230
  0.5572317351330019  0.6268291389234525  0.1798401516378656
  0.9622939887312013  0.5567644859545774  0.6944692531231225
  0.9510142882043056  0.6606741734928904  0.9621720727010188
  0.8134742611812871  0.1212769096888132  0.9382209936762806
  0.8129617006905770  0.2473249547359132  0.2688452864078572
  0.3073080888233425  0.5006103907438851  0.7133861667762703
  0.0227610044525628  0.3760064856860728  0.9035329776799046
  0.8558931034650719  0.2314533327482864  0.1484574541836318
  0.8577206941507693  0.8287775946047460  0.8361204368156089
  0.2190778939778575  0.9415166597944871  0.0211208159944083
  0.0808571619587687  0.1818618117511208  0.1478040485815604
  0.1927995740258825  0.3582259411760522  0.1777909154380655
  0.5612030622465694  0.9629265489426009  0.5850383063804564
  0.0167852009447875  0.5929117724578900  0.8674267434357349
  0.0709769202036847  0.2353689157543048  0.4896749522851115
  0.4156397967023318  0.3462194511813595  0.6241782630115158
  0.8689190296764489  0.3024280807824383  0.4270811091079159
  0.0084521951098639  0.9367063253269117  0.1413993526161060
  0.8604382213746299  0.4704876916527077  0.0035515122742626
  0.2142416982021555  0.7513905000691254  0.7680508087769922
  0.0010452268909669  0.2002689651733261  0.8052112376635641
  0.2408331179180851  0.1064265458150002  0.2582916353544946
  0.1990725893743320  0.5815429959068261  0.8881627362659886
  0.9159922750038102  0.9336694594578827  0.7908985021568520
  0.7743597069384682  0.4303929068211934  0.8265961935916111
  0.4244840519391582  0.2285583434394813  0.2609846719852701
  0.8639531738594546  0.4415701614358149  0.3027771825466090
  0.0629206265647597  0.0074800585832956  0.2334929770631736
  0.0422898938135293  0.6780382602198298  0.5175709676807179
  0.7823064496035854  0.8833129681753082  0.3417465848035585
 -0.0016426678401435  0.4319635745712902  0.5404054828235879
  0.2922753776671060  0.4414611686116542  0.0195016737247770
  0.6990602226192359  0.2408567079557202  0.5605906348507032
  0.3210035022348405  0.7621243363478354  0.0007005550576939
  0.0910693396074311  0.0191237855077921  0.4339605213436008
  0.3770877570212116  0.4532904111017257  0.4047952661866517
  0.8419688989092158  0.6870834130117978  0.0979466434251316
  0.1710151217848929  0.6783684718768500  0.6695954004147189
  0.3713779194353628  0.2725492887709129  0.5155593700345175
  0.2418532087508693  0.1505954322944351  0.9940677371900044
  0.3817004001020768  0.2275988463275724  0.7911276887964970
  0.6055859481349050  0.4775733306349980  0.9283037548970355
  0.7542927923816917  0.8860317790015402  0.0847516414954157
  0.5537444487146751  0.9346795493148845  0.0917334595746669
  0.8614568605403325  0.7998228603800476  0.4092680905315984
  0.5254241735632802  0.1943866679751630  0.4379620857140087
  0.2002233980794507  0.0161506012865822  0.6214817111676645
  0.5294455744467713  0.5085616726386928  0.4926531983255075
  0.5060491031082138  0.7985065835335335  0.3711029890886599
  0.5251411571104811  0.2057404920364981  0.0755553041300127
  0.5205516803966835  0.4178452027499572  0.2437206808893926
  0.3514898972593867  0.7549786501343938  0.5156211553221062
  0.7158980996908635  0.0506419821539955  0.4779565091864763
  0.5472867681435348  0.7527997465491264  0.7484970784777305
  0.6586198206064853  0.8837677503265030  0.6262284398149945
  0.5167561980038106  0.1382743384612946  0.5544473239093463
  0.6284898347741840  0.7928900600289797  0.9456497551960195
  0.5174673939233112  0.4367277364184752  0.1136880344403680
  0.6948025978918492  0.1247587955828998  0.3742630226856296
  0.2504338668203381  0.4275244562269139  0.3972877624547157
  0.0054604079579077  0.7295495370953855  0.1481283310007603
  0.6804927520866635  0.4050303760976366  0.7414512003609677
  0.9042151811047542  0.7277595213085295  0.7593100562276222
  0.5299789164253687  0.5556052258651957  0.6916413225535925
  0.7124242947159692  0.6093075047439125  0.7896284743541477
  0.8051699475167485  0.4183467356420854  0.5942687964968187
  0.3926346043156469  0.6624317945066650  0.8140728329777468
  0.3806853123372437  0.9917463442682342  0.9217052121694459
  0.7171252198845781  0.5801296693517387  0.3074020250740110
  0.8995340665442071  0.6459758332066078  0.2966011233887477
  0.6465211954917555  0.3659803441410556  0.3849200106867997
  0.2461513279498923  0.2865454844111048  0.5401143638484160
  0.4432834464561975  0.1797639232523875  0.9770476039699816
  0.9162459773373256  0.6987131209827082  0.5452897710266743
  0.0245014161974731  0.0717307011399535  0.9678784332601651
  0.5102605207737232 -0.0200313619400181  0.4107910143924122
  0.9798809037224937  0.3850537748783114  0.1462125385214182
  0.7120849352791654  0.6959844457916491  0.6135537152366529
  0.7310402808804302  0.1017729634538473  0.8313777328710644
  0.6185341678365335  0.1191517311236953  0.0315660661828886
  0.1592386461111669  0.1845723257324271  0.3258181837755493
  0.2001812160866190  0.2549996932815141  0.8463226332980042
  0.2834293296505422  0.6041231836791500  0.2612013651530804
  0.8211583267792242  0.3114099153207296  0.8609036971819386
  0.6880857887756706  0.0930260032137053  0.1380090447121144
  0.9830304738353207  0.8171881801420473  0.3617882616440595
  0.8328140664197066  0.0345473470783761  0.2261277097016337
  0.6964579071377678  0.3254463681586749  0.0471589743058247
  0.1043344304385995  0.7963611288128651  0.0004597401573098
  0.0826401292311966  0.3497199906181647  0.6867691639714926
  0.5511039634375215  0.9503642306577460  0.8416649267696016
  0.3744794538633295  0.6904877009432268  0.2927814086320519
 
  0.00000000E+00  0.00000000E+00  0.00000000E+00
  0.00000000E+00  0.00000000E+00  0.00000000E+00
  0.00000000E+00  0.00000000E+00  0.00000000E+00
  0.00000000E+00  0.00000000E+00  0.00000000E+00
  0.00000000E+00  0.00000000E+00  0.00000000E+00
  0.00000000E+00  0.00000000E+00  0.00000000E+00
  0.00000000E+00  0.00000000E+00  0.00000000E+00
  0.00000000E+00  0.00000000E+00  0.00000000E+00
  0.00000000E+00  0.00000000E+00  0.00000000E+00
  0.00000000E+00  0.00000000E+00  0.00000000E+00
  0.00000000E+00  0.00000000E+00  0.00000000E+00
  0.00000000E+00  0.00000000E+00  0.00000000E+00
  0.00000000E+00  0.00000000E+00  0.00000000E+00
  0.00000000E+00  0.00000000E+00  0.00000000E+00
  0.00000000E+00  0.00000000E+00  0.00000000E+00
  0.00000000E+00  0.00000000E+00  0.00000000E+00
  0.00000000E+00  0.00000000E+00  0.00000000E+00
  0.00000000E+00  0.00000000E+00  0.00000000E+00
  0.00000000E+00  0.00000000E+00  0.00000000E+00
  0.00000000E+00  0.00000000E+00  0.00000000E+00
  0.00000000E+00  0.00000000E+00  0.00000000E+00
  0.00000000E+00  0.00000000E+00  0.00000000E+00
  0.00000000E+00  0.00000000E+00  0.00000000E+00
  0.00000000E+00  0.00000000E+00  0.00000000E+00
  0.00000000E+00  0.00000000E+00  0.00000000E+00
  0.00000000E+00  0.00000000E+00  0.00000000E+00
  0.00000000E+00  0.00000000E+00  0.00000000E+00
  0.00000000E+00  0.00000000E+00  0.00000000E+00
  0.00000000E+00  0.00000000E+00  0.00000000E+00
  0.00000000E+00  0.00000000E+00  0.00000000E+00
  0.00000000E+00  0.00000000E+00  0.00000000E+00
  0.00000000E+00  0.00000000E+00  0.00000000E+00
  0.00000000E+00  0.00000000E+00  0.00000000E+00
  0.00000000E+00  0.00000000E+00  0.00000000E+00
  0.00000000E+00  0.00000000E+00  0.00000000E+00
  0.00000000E+00  0.00000000E+00  0.00000000E+00
  0.00000000E+00  0.00000000E+00  0.00000000E+00
  0.00000000E+00  0.00000000E+00  0.00000000E+00
  0.00000000E+00  0.00000000E+00  0.00000000E+00
  0.00000000E+00  0.00000000E+00  0.00000000E+00
  0.00000000E+00  0.00000000E+00  0.00000000E+00
  0.00000000E+00  0.00000000E+00  0.00000000E+00
  0.00000000E+00  0.00000000E+00  0.00000000E+00
  0.00000000E+00  0.00000000E+00  0.00000000E+00
  0.00000000E+00  0.00000000E+00  0.00000000E+00
  0.00000000E+00  0.00000000E+00  0.00000000E+00
  0.00000000E+00  0.00000000E+00  0.00000000E+00
  0.00000000E+00  0.00000000E+00  0.00000000E+00
  0.00000000E+00  0.00000000E+00  0.00000000E+00
  0.00000000E+00  0.00000000E+00  0.00000000E+00
  0.00000000E+00  0.00000000E+00  0.00000000E+00
  0.00000000E+00  0.00000000E+00  0.00000000E+00
  0.00000000E+00  0.00000000E+00  0.00000000E+00
  0.00000000E+00  0.00000000E+00  0.00000000E+00
  0.00000000E+00  0.00000000E+00  0.00000000E+00
  0.00000000E+00  0.00000000E+00  0.00000000E+00
  0.00000000E+00  0.00000000E+00  0.00000000E+00
  0.00000000E+00  0.00000000E+00  0.00000000E+00
  0.00000000E+00  0.00000000E+00  0.00000000E+00
  0.00000000E+00  0.00000000E+00  0.00000000E+00
  0.00000000E+00  0.00000000E+00  0.00000000E+00
  0.00000000E+00  0.00000000E+00  0.00000000E+00
  0.00000000E+00  0.00000000E+00  0.00000000E+00
  0.00000000E+00  0.00000000E+00  0.00000000E+00
  0.00000000E+00  0.00000000E+00  0.00000000E+00
  0.00000000E+00  0.00000000E+00  0.00000000E+00
  0.00000000E+00  0.00000000E+00  0.00000000E+00
  0.00000000E+00  0.00000000E+00  0.00000000E+00
  0.00000000E+00  0.00000000E+00  0.00000000E+00
  0.00000000E+00  0.00000000E+00  0.00000000E+00
  0.00000000E+00  0.00000000E+00  0.00000000E+00
  0.00000000E+00  0.00000000E+00  0.00000000E+00
  0.00000000E+00  0.00000000E+00  0.00000000E+00
  0.00000000E+00  0.00000000E+00  0.00000000E+00
  0.00000000E+00  0.00000000E+00  0.00000000E+00
  0.00000000E+00  0.00000000E+00  0.00000000E+00
  0.00000000E+00  0.00000000E+00  0.00000000E+00
  0.00000000E+00  0.00000000E+00  0.00000000E+00
  0.00000000E+00  0.00000000E+00  0.00000000E+00
  0.00000000E+00  0.00000000E+00  0.00000000E+00
  0.00000000E+00  0.00000000E+00  0.00000000E+00
  0.00000000E+00  0.00000000E+00  0.00000000E+00
  0.00000000E+00  0.00000000E+00  0.00000000E+00
  0.00000000E+00  0.00000000E+00  0.00000000E+00
  0.00000000E+00  0.00000000E+00  0.00000000E+00
  0.00000000E+00  0.00000000E+00  0.00000000E+00
  0.00000000E+00  0.00000000E+00  0.00000000E+00
  0.00000000E+00  0.00000000E+00  0.00000000E+00
  0.00000000E+00  0.00000000E+00  0.00000000E+00
  0.00000000E+00  0.00000000E+00  0.00000000E+00
  0.00000000E+00  0.00000000E+00  0.00000000E+00
  0.00000000E+00  0.00000000E+00  0.00000000E+00
  0.00000000E+00  0.00000000E+00  0.00000000E+00
  0.00000000E+00  0.00000000E+00  0.00000000E+00
  0.00000000E+00  0.00000000E+00  0.00000000E+00
  0.00000000E+00  0.00000000E+00  0.00000000E+00
  0.00000000E+00  0.00000000E+00  0.00000000E+00
  0.00000000E+00  0.00000000E+00  0.00000000E+00
  0.00000000E+00  0.00000000E+00  0.00000000E+00
  0.00000000E+00  0.00000000E+00  0.00000000E+00
  0.00000000E+00  0.00000000E+00  0.00000000E+00
  0.00000000E+00  0.00000000E+00  0.00000000E+00
  0.00000000E+00  0.00000000E+00  0.00000000E+00
  0.00000000E+00  0.00000000E+00  0.00000000E+00
  0.00000000E+00  0.00000000E+00  0.00000000E+00
  0.00000000E+00  0.00000000E+00  0.00000000E+00
  0.00000000E+00  0.00000000E+00  0.00000000E+00
  0.00000000E+00  0.00000000E+00  0.00000000E+00
  0.00000000E+00  0.00000000E+00  0.00000000E+00
  0.00000000E+00  0.00000000E+00  0.00000000E+00
  0.00000000E+00  0.00000000E+00  0.00000000E+00
  0.00000000E+00  0.00000000E+00  0.00000000E+00
  0.00000000E+00  0.00000000E+00  0.00000000E+00
  0.00000000E+00  0.00000000E+00  0.00000000E+00
  0.00000000E+00  0.00000000E+00  0.00000000E+00
  0.00000000E+00  0.00000000E+00  0.00000000E+00
  0.00000000E+00  0.00000000E+00  0.00000000E+00
  0.00000000E+00  0.00000000E+00  0.00000000E+00
  0.00000000E+00  0.00000000E+00  0.00000000E+00
  0.00000000E+00  0.00000000E+00  0.00000000E+00
  0.00000000E+00  0.00000000E+00  0.00000000E+00
  0.00000000E+00  0.00000000E+00  0.00000000E+00
  0.00000000E+00  0.00000000E+00  0.00000000E+00
  0.00000000E+00  0.00000000E+00  0.00000000E+00
  0.00000000E+00  0.00000000E+00  0.00000000E+00
  0.00000000E+00  0.00000000E+00  0.00000000E+00
  0.00000000E+00  0.00000000E+00  0.00000000E+00
  0.00000000E+00  0.00000000E+00  0.00000000E+00
  0.00000000E+00  0.00000000E+00  0.00000000E+00
  0.00000000E+00  0.00000000E+00  0.00000000E+00
  0.00000000E+00  0.00000000E+00  0.00000000E+00
  0.00000000E+00  0.00000000E+00  0.00000000E+00
  0.00000000E+00  0.00000000E+00  0.00000000E+00
  0.00000000E+00  0.00000000E+00  0.00000000E+00
  0.00000000E+00  0.00000000E+00  0.00000000E+00
  0.00000000E+00  0.00000000E+00  0.00000000E+00
  0.00000000E+00  0.00000000E+00  0.00000000E+00
  0.00000000E+00  0.00000000E+00  0.00000000E+00
  0.00000000E+00  0.00000000E+00  0.00000000E+00
  0.00000000E+00  0.00000000E+00  0.00000000E+00
  0.00000000E+00  0.00000000E+00  0.00000000E+00
  0.00000000E+00  0.00000000E+00  0.00000000E+00
  0.00000000E+00  0.00000000E+00  0.00000000E+00
  0.00000000E+00  0.00000000E+00  0.00000000E+00
  0.00000000E+00  0.00000000E+00  0.00000000E+00
  0.00000000E+00  0.00000000E+00  0.00000000E+00
  0.00000000E+00  0.00000000E+00  0.00000000E+00
  0.00000000E+00  0.00000000E+00  0.00000000E+00
  0.00000000E+00  0.00000000E+00  0.00000000E+00
  0.00000000E+00  0.00000000E+00  0.00000000E+00
  0.00000000E+00  0.00000000E+00  0.00000000E+00
  0.00000000E+00  0.00000000E+00  0.00000000E+00
  0.00000000E+00  0.00000000E+00  0.00000000E+00
  0.00000000E+00  0.00000000E+00  0.00000000E+00
  0.00000000E+00  0.00000000E+00  0.00000000E+00
  0.00000000E+00  0.00000000E+00  0.00000000E+00
  0.00000000E+00  0.00000000E+00  0.00000000E+00
  0.00000000E+00  0.00000000E+00  0.00000000E+00
  0.00000000E+00  0.00000000E+00  0.00000000E+00
  0.00000000E+00  0.00000000E+00  0.00000000E+00
  0.00000000E+00  0.00000000E+00  0.00000000E+00
  0.00000000E+00  0.00000000E+00  0.00000000E+00
  0.00000000E+00  0.00000000E+00  0.00000000E+00
  0.00000000E+00  0.00000000E+00  0.00000000E+00
  0.00000000E+00  0.00000000E+00  0.00000000E+00
  0.00000000E+00  0.00000000E+00  0.00000000E+00
  0.00000000E+00  0.00000000E+00  0.00000000E+00
  0.00000000E+00  0.00000000E+00  0.00000000E+00
  0.00000000E+00  0.00000000E+00  0.00000000E+00
  0.00000000E+00  0.00000000E+00  0.00000000E+00
  0.00000000E+00  0.00000000E+00  0.00000000E+00
  0.00000000E+00  0.00000000E+00  0.00000000E+00
  0.00000000E+00  0.00000000E+00  0.00000000E+00
  0.00000000E+00  0.00000000E+00  0.00000000E+00
  0.00000000E+00  0.00000000E+00  0.00000000E+00
  0.00000000E+00  0.00000000E+00  0.00000000E+00
  0.00000000E+00  0.00000000E+00  0.00000000E+00
  0.00000000E+00  0.00000000E+00  0.00000000E+00
  0.00000000E+00  0.00000000E+00  0.00000000E+00
  0.00000000E+00  0.00000000E+00  0.00000000E+00
  0.00000000E+00  0.00000000E+00  0.00000000E+00
  0.00000000E+00  0.00000000E+00  0.00000000E+00
  0.00000000E+00  0.00000000E+00  0.00000000E+00
  0.00000000E+00  0.00000000E+00  0.00000000E+00
  0.00000000E+00  0.00000000E+00  0.00000000E+00
  0.00000000E+00  0.00000000E+00  0.00000000E+00
  0.00000000E+00  0.00000000E+00  0.00000000E+00
  0.00000000E+00  0.00000000E+00  0.00000000E+00
  0.00000000E+00  0.00000000E+00  0.00000000E+00
  0.00000000E+00  0.00000000E+00  0.00000000E+00
  0.00000000E+00  0.00000000E+00  0.00000000E+00
  0.00000000E+00  0.00000000E+00  0.00000000E+00
  0.00000000E+00  0.00000000E+00  0.00000000E+00
  0.00000000E+00  0.00000000E+00  0.00000000E+00
