KSS1                                    
   1.00000000000000     
    20.9543743384383454    0.0000000000000000    0.0000000000000000
     0.0000000000000000   20.9543743384383454    0.0000000000000000
     0.0000000000000000    0.0000000000000000   20.9543743384383454
   Sb   Se   K 
   112   182    28
Direct
  0.9615100873702949  0.3362939687186168  0.7344281493137814
  0.7333644337160653  0.5071361916254177  0.6017608663529642
  0.2276352808404954  0.9123083947635831  0.4658628143624255
  0.2641137813819544  0.5837982248783417  0.8254234371154221
  0.7101817038871018  0.1162669671855900  0.0529314098515070
  0.2449277502007818  0.0330804533296008  0.7040840272980458
  0.0720122656474218  0.9092271921999638  0.6446570065766204
  0.3312840978115956  0.3125741198528495  0.0121177205624201
  0.0352325002478119  0.3603031986915785  0.3479932839820180
  0.0583790474004923  0.9976106720086465  0.1542847326882409
  0.3707774378786431  0.6269063093708822  0.5048625343380330
  0.2323711374159019  0.7777390439543546  0.6245653010912119
  0.4773829516832092  0.3127998813961476  0.7461576800383751
  0.2380826479971126  0.2090045765068375  0.7664043229217150
  0.5162704848127050  0.1434357992405569  0.5540416412554764
  0.6752997021049710  0.6104759506194828  0.2442999949768189
  0.5802616656080872  0.3210776870801541  0.9875554315227827
  0.7927593796823539  0.5805691953668478  0.9775834601914749
  0.5020679970311371  0.1538280735298008  0.9553238706708475
  0.2236927668697055  0.7019926097261342  0.9710506205502810
  0.9965900188633773  0.6263988533568757  0.3590438715452151
  0.2560458547659566  0.4013966939148585  0.8643204954141788
  0.2481671971032568  0.7927247106028010  0.1722192354621658
  0.5227122607587904  0.7326914705895999  0.4260189476848746
  0.0812437407130811  0.1851149433033737  0.2489144162624619
  0.5325897387223829  0.0930906209755243  0.7392618555690458
  0.0210530718886139  0.9040470325924219  0.4669824373326119
  0.0038664592531247  0.2748769213075122  0.8910301921832363
  0.3916375384299775  0.7501596536537396  0.7473089097377759
  0.4125200822651138  0.7470741710597398  0.9826686217080014
  0.4813570052623418  0.9731525311270334  0.2542187531592678
  0.7691886936867278  0.7728960902894035  0.1024738210395948
  0.9304251842460188  0.0384321215340658  0.4792258939182935
  0.8940875858016587  0.3671014179213341  0.6148851277265613
  0.8914400121013306  0.6512354102652886  0.8639997809011288
  0.9249934357050278  0.9843092251046835  0.6661078978942433
  0.0931839589788657  0.6069457537502860  0.7668310892210325
  0.1427309720832393  0.2395420652586037  0.5368355331691910
  0.1655336894568593  0.4718923553077168  0.3013773360764841
  0.9595034699670717  0.5225019473748231  0.1734356334995190
  0.9056686793073616  0.3205890387052350  0.2457824483212660
  0.5634659327409748  0.9903361453042615  0.5727249707423012
  0.5474254465833055  0.4705217113509896  0.6744790874338120
  0.2989561161229581  0.5612409234454908  0.2432214092373438
  0.7906446683446089  0.1761480097411577  0.8054448613673846
  0.3135046006143951  0.9765022218695345  0.5950366465723035
  0.3045298395931997  0.9295652812963069  0.7834789530728150
  0.5848331688358204  0.2568546014418049  0.1269008106014344
  0.4527442604604078  0.4289553962167995  0.9021847413511769
  0.2437120938044277  0.0763057635985782  0.4482414486887328
  0.7614605501590136  0.2626335121470133  0.1521858460684411
  0.0748894555998604  0.8046116642796806  0.2300480614858152
  0.3598524414364198  0.0994493069446640  0.8574271640330251
  0.2339457196662664  0.2250669955617189  0.3283146192515803
  0.5348257877445187  0.8393610104277662  0.8624111122762639
  0.9146497505755473  0.9755974383884618  0.2762826463965185
  0.8540403973716236  0.8016940176342451  0.9201945312283267
  0.3593151210277961  0.8241634879938230  0.8630951365765043
  0.3446964295563221  0.7988980204293639  0.3548484508971889
  0.0809379717505444  0.5439320767913283  0.9894821578035506
  0.6204295429466407  0.6925448021211909  0.7941546050866256
  0.1193496828577003  0.9705570902335841  0.9230346161481825
  0.9084240342007907  0.1375899159181083  0.2287752659155732
  0.9493285660831264  0.5318483978737997  0.6831141249646198
  0.3578770930375704  0.4434869904022239  0.5863247653235232
  0.5142833960268276  0.5150810090523038  0.4885769408835144
  0.2982942830806380  0.9083260155774900  0.9735188182923222
  0.8425546879816621  0.1275844713496271  0.4089238714192386
  0.1176254212838825  0.1281922903774401  0.8865164329774322
  0.1924309911613522  0.7327391034121560  0.4445222994805517
  0.0129907613502986  0.7192976528437728  0.9657437292642189
  0.2673427292398471  0.9982685355198065  0.0771362175629477
  0.1669493330486776  0.8851959741845580  0.3414779356926118
  0.6064096259437949  0.8447028012679680  0.4642622060441636
  0.7291239082482019  0.0955528300617952  0.5167451582547540
  0.8256736616249784  0.6745565691651974  0.7030789026495228
  0.2690000821884186  0.9566178527505860  0.2751741970700831
  0.8251725303013057  0.3207522382414220  0.4230913173205661
  0.8433353890686440  0.5281654814140005  0.2541907169882295
  0.4195641489896419  0.4305066519147546  0.3628582775209929
  0.9148415736770910  0.8005928222575409  0.7443622555455656
  0.0272470084992332  0.7411644596881845  0.5691793645530792
  0.6615737918470683  0.5254876166611706  0.4241907332846969
  0.0082588137924356  0.0942212868333183  0.3243331067720063
  0.2443884372090220  0.5904108558910628  0.6512892704545838
  0.6783775345704177  0.8994010425235682  0.9771392096331643
  0.8929013419838316  0.8080585555788951  0.2833509992641938
  0.8442807204427011  0.2071185575742431  0.9786912073965488
  0.2432383411845307  0.4960939572066658  0.0765074931543343
  0.6409025670378761  0.5130469011046088  0.8986249114160145
  0.0129395226045866  0.4754767036468688  0.8369906393643035
  0.0562247756619094  0.8335515815014503  0.0403498008957980
  0.4709330742541910  0.9111677425351182  0.6985516253481144
  0.9744879265441987  0.2435543197856500  0.4961797161492698
  0.7407410630867801  0.4388363155095766  0.0751556537706364
  0.9030883323558128  0.6711661429417357  0.1386333062503272
  0.2596893030319969  0.1212222253798060  0.1989543262339707
  0.4473537823519159  0.6141781892645866  0.8394229692392814
  0.1523067200604314  0.0581174149721255  0.5533239194068854
  0.8342929476115234  0.1366384128272133  0.6261952202352445
  0.2513890985356443  0.3596852952301312  0.4153597575241394
  0.1249096133600626  0.5670345195355364  0.4699430484181158
  0.7256422995783465  0.6951586153040594  0.4254319007045426
  0.4782872230354645  0.0133079116244304  0.0685956150870318
  0.6575362226866248  0.1360890772108820  0.6816030732985875
  0.4512845472193431  0.1449180280033798  0.1917590898332651
  0.6041493532681307  0.7221100753010815  0.0180753805970414
  0.4937366650026792  0.6258483440128935  0.2577373172204455
  0.6976118558597438  0.8137182057193414  0.2696345813312185
  0.9302675182697758  0.9618504208039029  0.8619313881561195
  0.8608071598433524  0.8058694564181582  0.4834755278726558
  0.3049801496803395  0.4033383679352300  0.7294388505916013
  0.2846716602759738  0.8033455674227459  0.5069648540259059
  0.9330940655263222  0.2023407277796204  0.3639347305549957
  0.1588132022644796  0.3062363224941565  0.7894989550903972
  0.8481937549314472  0.5028528375542266  0.0576867429012764
  0.6589488418515703  0.3485398210664483  0.1726258180493098
  0.6216084385369558  0.0954823042588875  0.8367863480735294
  0.7672724326668311  0.4840900993628464  0.8864453201908220
  0.9695641798669564  0.4078689765043212  0.1296674516471320
  0.0040858290196341  0.7019699995297979  0.2437676197644484
  0.6544421721099166  0.8218679093297256  0.8389370296978291
  0.9382134500181860  0.0380135594037474  0.1480697256229632
  0.9608324878273667  0.2647233880479494  0.0087575072309623
  0.7816983846660057  0.6460590733081955  0.0984828075867479
  0.2702018818836069  0.4776096394365854  0.3795946428877744
  0.3427979678123134  0.1082295295566002  0.7322816286104288
  0.0373054289822067  0.2875450685741045  0.6027701850126608
  0.0010315028560726  0.9599189696648404  0.9729636947734500
  0.4739144480247841  0.1893536771575351  0.6605809462782360
  0.9812053985613773  0.7430323134939564  0.4326504178701013
  0.8067857802772685  0.4364679999026799  0.6766828783472127
  0.0174656227773741  0.5123828464765514  0.2848165087170286
  0.7017279711112754  0.9119441909113541  0.1022080062027082
  0.9634239349480441  0.4626308468452812  0.5789747822312581
  0.5351003232341747  0.3898414648927740  0.3546531716635089
  0.6401367215324294  0.4507498065235979  0.7639810186662703
  0.8232792455249520  0.1478776927471361  0.1064127980852501
  0.8303582787504631  0.2415950128452465  0.7005183066036190
  0.6246582792064330  0.6236273312367288  0.4926667258741658
  0.5982800614929953  0.0114056475621398  0.9903147322761573
  0.3553175381084705  0.3258785275884343  0.8889253077430722
  0.6943273962233778  0.2684543465926801  0.4212238615465990
  0.8191791487634954  0.8984318231131254  0.2313001055495593
  0.2591754471205232  0.7500691118357956  0.8573056221267124
  0.5741596190459207  0.5963094251360398  0.1642084249607484
  0.3905355958069620  0.0119746145818676  0.1735569831511416
  0.0867475946807858  0.2593662495758401  0.3989951914690580
  0.3600731805938582  0.3156766658793680  0.3674962061845441
  0.4663503166507292  0.8300570948546817  0.3642299389521629
  0.6854506544411197  0.7639922034213444  0.5339975911463777
  0.5661926703047544  0.8637514995378447  0.5859506223647651
  0.4636262315866612  0.2132172956024368  0.4715596868117158
  0.3075009697929291  0.8022801801323501  0.0512657081260532
  0.9510573789435085  0.1226110235118786  0.5819181585997885
  0.0481752974773311  0.7946599289678185  0.6917973983545029
  0.2019296975624336  0.9113781777241334  0.1664875028610070
  0.8194285640672703  0.5829700058507746  0.7867575222405264
  0.2768812272052675  0.5258271448240305  0.5395453202246591
  0.6172390607713866  0.2005680989310314  0.9600448102281275
  0.4335154640378607  0.0076729128144904  0.6226066231353482
  0.1076415416479312  0.4394847857039278  0.4154819495957344
  0.5537926840742168  0.9766321047796812  0.4498220376751822
  0.9688605736124241  0.6739087954876261  0.7683091169003740
  0.4689790382669756  0.2635512052618427  0.0072305132917350
  0.2699154327432175  0.6161329693372469  0.1357102022287206
  0.4963265405043771  0.4179287981701470  0.0513590835311759
  0.2008703667425847  0.3381739431411014  0.6857860642335465
  0.2072870646782846  0.7714819692467043  0.2996388989658123
  0.9718565101443072  0.8369445428155425  0.8542552573827668
  0.4439113663764397  0.5771091439257475  0.4062958689161531
  0.7588657923514208  0.0955843678399959  0.9276660059834648
  0.4577562382078990  0.5535909971011567  0.5932122765163640
  0.7458042040587095  0.3870041529804671  0.9512281398184070
  0.3466358496444174  0.8386358325364680  0.6669853648387334
  0.5625561992311547  0.3647439452258232  0.8718844584738696
  0.6766679641541692  0.5467977096261490  0.7099848609208793
  0.8271303277832887  0.9246537118002869  0.9288233199172085
  0.7357477846312511  0.4940724736187459  0.2020482210470496
  0.4461622990166424  0.7343013710438346  0.5246286141301475
  0.1974749908771940  0.1581680975357622  0.6204698338347471
  0.3421124239847379  0.1630993857900469  0.2886463928598449
  0.5272973392457007  0.0866706009021905  0.2828952312601006
  0.0269385004895794  0.9826783289785835  0.7437269821568577
  0.7361398834544783  0.2705080045631399  0.0179829465865890
  0.0541279413460811  0.4181903312555772  0.7290702976463619
  0.4191411064096916  0.5262807050066712  0.2255316201716004
  0.2215099629680391  0.3706411141713010  0.0164833697764552
  0.5530251988883864  0.9432187308905089  0.1580848435294882
  0.9734363337331084  0.8637896037940914  0.1892871028846104
  0.8274806217849610  0.7136417400728864  0.2313846923982227
  0.1387637407768574  0.3572096509529413  0.2653066265421605
  0.7801598201454812  0.8023742078889110  0.3651977868840545
  0.7532095104019197  0.4052387817042534  0.4781957484799480
  0.6760799513222013  0.6345675606143779  0.8913102056762949
  0.6249594200230295  0.8988606457259763  0.3194824860903002
  0.8509351071529413  0.9138843819498569  0.7390119324699174
  0.4240998671976818  0.9632970812704064  0.8058646760214999
  0.2685762609716051  0.1813524691804167  0.8881155715542827
  0.8711158130016449  0.6008624509421615  0.6114081415250779
  0.0753711359293636  0.9907277284088847  0.2753693538404743
  0.3401804639517682  0.1650539495716576  0.0951959971314356
  0.5357406522925504  0.5986180981676494  0.7554555445671173
  0.6699736284394755  0.1771951978587497  0.1770720154301892
  0.1413788798297518  0.1231514115120526  0.7660207083736313
  0.0581283084394646  0.4000133585177402  0.9242430538001272
  0.4209137028237532  0.9329432092316214  0.9751054506483646
  0.3612985765117867  0.0798972784603124  0.0192910518436902
  0.9461680292857034  0.3628806082519853  0.4584145213448388
  0.9118846130155203  0.7662236529392714  0.0589140813504030
  0.6741788630142976  0.5401924169588075  0.0262774522285078
  0.5991785483333982  0.5372355524662404  0.3131128183698488
  0.8407343368419036  0.2316889952932329  0.5138473459907373
  0.5398299061070021  0.1237050456333304  0.1029102259808337
  0.3551517699952007  0.2871425803425470  0.7241844329854868
  0.2697111673195167  0.3569185843987366  0.5406700244855543
  0.2211365919241005  0.2383519771294016  0.1824672746214604
  0.2821138481355643  0.6517250868329906  0.4089836090857646
  0.5666401697180774  0.8431239102810008  0.9985737237818836
  0.9083723120435938  0.9290996657611008  0.3968334137957975
  0.4915997419041352  0.7069104016056829  0.0762839798000891
  0.8010600165033678  0.7757032706475693  0.8097283039527177
  0.2611187063278103  0.4471884430105928  0.1990924473103209
  0.5149141997652105  0.7145210916215806  0.8979311607131133
  0.6373408007566380  0.1878692724507138  0.5672273131652866
  0.2026683336796990  0.5704019705066163  0.9669836402555713
  0.1128993099554621  0.6899455037677973  0.8952531328524868
  0.6340763559923998  0.2576066579588737  0.7194767217193332
  0.8534197379812888  0.2662519106588188  0.8638677812042046
  0.9332680103688488  0.5558327775466296  0.9291210789787125
  0.7026665885044086  0.1701019020472070  0.3625700761545325
  0.8326062717663116  0.6843332998719842  0.4943591944027869
  0.1087935941216418  0.1149562276751889  0.1453864185811244
  0.3320275227131888  0.9403401698791147  0.3981816466240380
  0.0052349602818191  0.5856483080277864  0.4859901169229136
  0.1143524907742564  0.8298492467296082  0.5348001615858897
  0.3847805239041433  0.4098442651796544  0.0756176674310348
  0.6679946949927872  0.2257567431474663  0.8233333291031881
  0.6878425494838154  0.0150744782609919  0.6036240325885746
  0.1176527217535742  0.4882821015491175  0.0987048450876125
  0.3470665638696582  0.6448231419226571  0.9652503134746183
  0.9295424116357105  0.8227850795094276  0.5882848883001738
  0.0837720820181243  0.1391542821621729  0.4872247568878008
  0.8644445891455098  0.0727658765723332  0.7309489935545647
  0.1298895941186348  0.7584435854831557  0.1179850626467013
  0.4601554445250275  0.1810687084081135  0.8359577377285656
  0.7349847360503832  0.7763807675348072  0.9788826792780262
  0.1251711688168424  0.2515486913782781  0.9194815242865029
  0.3401762503618411  0.0777157184034631  0.5275607496794679
  0.2560317569912510  0.1995302708502417  0.4542475673286944
  0.1584025987938283  0.6696450536734885  0.5504168270472837
  0.3487554661624772  0.8630231752331265  0.2441090127225956
  0.5763109414089062  0.9922745809091525  0.8780862330686684
  0.7556708867463692  0.8552868523378340  0.5431959360822852
  0.6464962932906325  0.7603838250630448  0.1319036263747115
  0.1602047481263392  0.0360619772093946  0.0237320393443227
  0.8597424294936140  0.3547049306120635  0.1322956102102094
  0.3234926671664676  0.6841984953635636  0.6232174030962130
  0.3577915431958241  0.6862854216912418  0.2913859828537186
  0.4424653089498501  0.4359797473272961  0.7743300378370490
  0.0375993469489446  0.6389765408749587  0.0593591589125432
  0.6307334503053157  0.4370856390143943  0.5812566550391436
  0.9774990967352200  0.2285146081775445  0.1709156892266850
  0.5020008952294592  0.5496128789415051  0.9308668667953977
  0.9042295899499280  0.4168543105220955  0.8144416134114633
  0.8041227424309888  0.2505192126728369  0.2725594280677435
  0.5132440624400124  0.7836207566729154  0.7395838334339965
  0.1022649529523348  0.9897392244734399  0.4313984642104876
  0.4937805705268140  0.3613929602563394  0.6313240232891779
  0.6265148537581277  0.7164626726634958  0.3139960945569745
  0.4176723439566249  0.7092833589892874  0.1938081985762332
  0.7602022048467452  0.5772582614527748  0.3677810878936970
  0.1566233427752238  0.8579365651854604  0.9664347100722367
  0.6465074005229530  0.0820440573753393  0.4162069056093093
  0.8756099970518376  0.0855361206619258  0.9151899508993440
  0.2562740185867212  0.9985965387657537  0.8779358582078334
  0.3419301809468571  0.5572698124567326  0.7294131636572839
  0.1885601698449319  0.6834427919137119  0.7349568541995006
  0.1785985922372418  0.5039641872779712  0.7793203377061440
  0.1233037104079884  0.6347001100537427  0.3622025632657957
  0.5818931454952743  0.9636887988217795  0.7282389989153319
  0.8604085004257467  0.4255362100087361  0.3188671656240503
  0.6974362270346542  0.6887323850441863  0.6861947855174774
  0.7608799524788820  0.0117582169570541  0.1083407843194687
  0.8160734455770420  0.0557781700042539  0.3038574451937726
  0.8272653669583595  0.9992774423228931  0.5379945372959045
  0.9945343423645397  0.1401699111272964  0.8670982773643560
  0.4964067915141762  0.2654972249123156  0.2143203576885485
  0.1886328632319658  0.9002133793908159  0.6848574528803670
  0.4365864216357641  0.4095844709683329  0.4878865121031141
  0.3294528157270851  0.4995454829586062  0.8998203468387107
  0.0520616208788313  0.8178710179518034  0.3762110425341340
  0.0590237986900202  0.5867390251044582  0.6466048964227732
  0.1772248735878141  0.1141297864043096  0.3116103351577915
  0.6972342635746074  0.8491379067655846  0.6859360126009442
  0.7028436079176131  0.3884455395230783  0.3160297009863404
  0.4341095113440336  0.8550251376677112  0.1109268977601737
  0.3509885396624218  0.3190275335887744  0.2082839658337146
  0.2036259575437633  0.1884827490293220  0.0339470589042517
  0.1208166058196929  0.4294748926905834  0.5856571747511443
  0.7294487396345982  0.9821513646988518  0.8150976377422658
  0.5422303554312221  0.4374393071073340  0.2023927417062292
  0.6690652863426853  0.0270080981741341  0.2371193831012518
  0.4275048874451570  0.0743039042012974  0.4014649817426279
  0.4237853821630828  0.5669171334283960  0.0737303651172432
  0.5569542054718085  0.2300513907426414  0.3478774334778197
  0.8764137324883738  0.9170801291408226  0.0770380434337341
  0.5681977073982319  0.3241406445417552  0.4972592216150685
  0.7455193936921548  0.9489376796207172  0.4066708599399329
  0.5339716136338878  0.8034877423665380  0.2302671287968569
  0.9932471008067015  0.1155371665382838  0.0275676738344989
  0.7507187369504935  0.3544638633930048  0.7944783795638314
  0.0053740822673854  0.1708740644938989  0.7143553613031751
  0.4291810241514761  0.8850754253140690  0.5082957126901300
  0.1008596504133785  0.3274019828294001  0.1094676852888547
  0.7287317663782108  0.3133655543882515  0.6005880772680715
  0.5528697126496316  0.6791531402351403  0.6200961469201981
  0.1298587738198029  0.8239044932949342  0.8144590704806636
  0.1226922104544478  0.6134369815661248  0.1944436325211918
  0.9040881980488418  0.3990549054674249  0.9688753642249810
  0.3466760124769099  0.2277330446259860  0.5795708605330939
  0.8700063893684048  0.5103873108214717  0.4597829586601546
 
  0.00000000E+00  0.00000000E+00  0.00000000E+00
  0.00000000E+00  0.00000000E+00  0.00000000E+00
  0.00000000E+00  0.00000000E+00  0.00000000E+00
  0.00000000E+00  0.00000000E+00  0.00000000E+00
  0.00000000E+00  0.00000000E+00  0.00000000E+00
  0.00000000E+00  0.00000000E+00  0.00000000E+00
  0.00000000E+00  0.00000000E+00  0.00000000E+00
  0.00000000E+00  0.00000000E+00  0.00000000E+00
  0.00000000E+00  0.00000000E+00  0.00000000E+00
  0.00000000E+00  0.00000000E+00  0.00000000E+00
  0.00000000E+00  0.00000000E+00  0.00000000E+00
  0.00000000E+00  0.00000000E+00  0.00000000E+00
  0.00000000E+00  0.00000000E+00  0.00000000E+00
  0.00000000E+00  0.00000000E+00  0.00000000E+00
  0.00000000E+00  0.00000000E+00  0.00000000E+00
  0.00000000E+00  0.00000000E+00  0.00000000E+00
  0.00000000E+00  0.00000000E+00  0.00000000E+00
  0.00000000E+00  0.00000000E+00  0.00000000E+00
  0.00000000E+00  0.00000000E+00  0.00000000E+00
  0.00000000E+00  0.00000000E+00  0.00000000E+00
  0.00000000E+00  0.00000000E+00  0.00000000E+00
  0.00000000E+00  0.00000000E+00  0.00000000E+00
  0.00000000E+00  0.00000000E+00  0.00000000E+00
  0.00000000E+00  0.00000000E+00  0.00000000E+00
  0.00000000E+00  0.00000000E+00  0.00000000E+00
  0.00000000E+00  0.00000000E+00  0.00000000E+00
  0.00000000E+00  0.00000000E+00  0.00000000E+00
  0.00000000E+00  0.00000000E+00  0.00000000E+00
  0.00000000E+00  0.00000000E+00  0.00000000E+00
  0.00000000E+00  0.00000000E+00  0.00000000E+00
  0.00000000E+00  0.00000000E+00  0.00000000E+00
  0.00000000E+00  0.00000000E+00  0.00000000E+00
  0.00000000E+00  0.00000000E+00  0.00000000E+00
  0.00000000E+00  0.00000000E+00  0.00000000E+00
  0.00000000E+00  0.00000000E+00  0.00000000E+00
  0.00000000E+00  0.00000000E+00  0.00000000E+00
  0.00000000E+00  0.00000000E+00  0.00000000E+00
  0.00000000E+00  0.00000000E+00  0.00000000E+00
  0.00000000E+00  0.00000000E+00  0.00000000E+00
  0.00000000E+00  0.00000000E+00  0.00000000E+00
  0.00000000E+00  0.00000000E+00  0.00000000E+00
  0.00000000E+00  0.00000000E+00  0.00000000E+00
  0.00000000E+00  0.00000000E+00  0.00000000E+00
  0.00000000E+00  0.00000000E+00  0.00000000E+00
  0.00000000E+00  0.00000000E+00  0.00000000E+00
  0.00000000E+00  0.00000000E+00  0.00000000E+00
  0.00000000E+00  0.00000000E+00  0.00000000E+00
  0.00000000E+00  0.00000000E+00  0.00000000E+00
  0.00000000E+00  0.00000000E+00  0.00000000E+00
  0.00000000E+00  0.00000000E+00  0.00000000E+00
  0.00000000E+00  0.00000000E+00  0.00000000E+00
  0.00000000E+00  0.00000000E+00  0.00000000E+00
  0.00000000E+00  0.00000000E+00  0.00000000E+00
  0.00000000E+00  0.00000000E+00  0.00000000E+00
  0.00000000E+00  0.00000000E+00  0.00000000E+00
  0.00000000E+00  0.00000000E+00  0.00000000E+00
  0.00000000E+00  0.00000000E+00  0.00000000E+00
  0.00000000E+00  0.00000000E+00  0.00000000E+00
  0.00000000E+00  0.00000000E+00  0.00000000E+00
  0.00000000E+00  0.00000000E+00  0.00000000E+00
  0.00000000E+00  0.00000000E+00  0.00000000E+00
  0.00000000E+00  0.00000000E+00  0.00000000E+00
  0.00000000E+00  0.00000000E+00  0.00000000E+00
  0.00000000E+00  0.00000000E+00  0.00000000E+00
  0.00000000E+00  0.00000000E+00  0.00000000E+00
  0.00000000E+00  0.00000000E+00  0.00000000E+00
  0.00000000E+00  0.00000000E+00  0.00000000E+00
  0.00000000E+00  0.00000000E+00  0.00000000E+00
  0.00000000E+00  0.00000000E+00  0.00000000E+00
  0.00000000E+00  0.00000000E+00  0.00000000E+00
  0.00000000E+00  0.00000000E+00  0.00000000E+00
  0.00000000E+00  0.00000000E+00  0.00000000E+00
  0.00000000E+00  0.00000000E+00  0.00000000E+00
  0.00000000E+00  0.00000000E+00  0.00000000E+00
  0.00000000E+00  0.00000000E+00  0.00000000E+00
  0.00000000E+00  0.00000000E+00  0.00000000E+00
  0.00000000E+00  0.00000000E+00  0.00000000E+00
  0.00000000E+00  0.00000000E+00  0.00000000E+00
  0.00000000E+00  0.00000000E+00  0.00000000E+00
  0.00000000E+00  0.00000000E+00  0.00000000E+00
  0.00000000E+00  0.00000000E+00  0.00000000E+00
  0.00000000E+00  0.00000000E+00  0.00000000E+00
  0.00000000E+00  0.00000000E+00  0.00000000E+00
  0.00000000E+00  0.00000000E+00  0.00000000E+00
  0.00000000E+00  0.00000000E+00  0.00000000E+00
  0.00000000E+00  0.00000000E+00  0.00000000E+00
  0.00000000E+00  0.00000000E+00  0.00000000E+00
  0.00000000E+00  0.00000000E+00  0.00000000E+00
  0.00000000E+00  0.00000000E+00  0.00000000E+00
  0.00000000E+00  0.00000000E+00  0.00000000E+00
  0.00000000E+00  0.00000000E+00  0.00000000E+00
  0.00000000E+00  0.00000000E+00  0.00000000E+00
  0.00000000E+00  0.00000000E+00  0.00000000E+00
  0.00000000E+00  0.00000000E+00  0.00000000E+00
  0.00000000E+00  0.00000000E+00  0.00000000E+00
  0.00000000E+00  0.00000000E+00  0.00000000E+00
  0.00000000E+00  0.00000000E+00  0.00000000E+00
  0.00000000E+00  0.00000000E+00  0.00000000E+00
  0.00000000E+00  0.00000000E+00  0.00000000E+00
  0.00000000E+00  0.00000000E+00  0.00000000E+00
  0.00000000E+00  0.00000000E+00  0.00000000E+00
  0.00000000E+00  0.00000000E+00  0.00000000E+00
  0.00000000E+00  0.00000000E+00  0.00000000E+00
  0.00000000E+00  0.00000000E+00  0.00000000E+00
  0.00000000E+00  0.00000000E+00  0.00000000E+00
  0.00000000E+00  0.00000000E+00  0.00000000E+00
  0.00000000E+00  0.00000000E+00  0.00000000E+00
  0.00000000E+00  0.00000000E+00  0.00000000E+00
  0.00000000E+00  0.00000000E+00  0.00000000E+00
  0.00000000E+00  0.00000000E+00  0.00000000E+00
  0.00000000E+00  0.00000000E+00  0.00000000E+00
  0.00000000E+00  0.00000000E+00  0.00000000E+00
  0.00000000E+00  0.00000000E+00  0.00000000E+00
  0.00000000E+00  0.00000000E+00  0.00000000E+00
  0.00000000E+00  0.00000000E+00  0.00000000E+00
  0.00000000E+00  0.00000000E+00  0.00000000E+00
  0.00000000E+00  0.00000000E+00  0.00000000E+00
  0.00000000E+00  0.00000000E+00  0.00000000E+00
  0.00000000E+00  0.00000000E+00  0.00000000E+00
  0.00000000E+00  0.00000000E+00  0.00000000E+00
  0.00000000E+00  0.00000000E+00  0.00000000E+00
  0.00000000E+00  0.00000000E+00  0.00000000E+00
  0.00000000E+00  0.00000000E+00  0.00000000E+00
  0.00000000E+00  0.00000000E+00  0.00000000E+00
  0.00000000E+00  0.00000000E+00  0.00000000E+00
  0.00000000E+00  0.00000000E+00  0.00000000E+00
  0.00000000E+00  0.00000000E+00  0.00000000E+00
  0.00000000E+00  0.00000000E+00  0.00000000E+00
  0.00000000E+00  0.00000000E+00  0.00000000E+00
  0.00000000E+00  0.00000000E+00  0.00000000E+00
  0.00000000E+00  0.00000000E+00  0.00000000E+00
  0.00000000E+00  0.00000000E+00  0.00000000E+00
  0.00000000E+00  0.00000000E+00  0.00000000E+00
  0.00000000E+00  0.00000000E+00  0.00000000E+00
  0.00000000E+00  0.00000000E+00  0.00000000E+00
  0.00000000E+00  0.00000000E+00  0.00000000E+00
  0.00000000E+00  0.00000000E+00  0.00000000E+00
  0.00000000E+00  0.00000000E+00  0.00000000E+00
  0.00000000E+00  0.00000000E+00  0.00000000E+00
  0.00000000E+00  0.00000000E+00  0.00000000E+00
  0.00000000E+00  0.00000000E+00  0.00000000E+00
  0.00000000E+00  0.00000000E+00  0.00000000E+00
  0.00000000E+00  0.00000000E+00  0.00000000E+00
  0.00000000E+00  0.00000000E+00  0.00000000E+00
  0.00000000E+00  0.00000000E+00  0.00000000E+00
  0.00000000E+00  0.00000000E+00  0.00000000E+00
  0.00000000E+00  0.00000000E+00  0.00000000E+00
  0.00000000E+00  0.00000000E+00  0.00000000E+00
  0.00000000E+00  0.00000000E+00  0.00000000E+00
  0.00000000E+00  0.00000000E+00  0.00000000E+00
  0.00000000E+00  0.00000000E+00  0.00000000E+00
  0.00000000E+00  0.00000000E+00  0.00000000E+00
  0.00000000E+00  0.00000000E+00  0.00000000E+00
  0.00000000E+00  0.00000000E+00  0.00000000E+00
  0.00000000E+00  0.00000000E+00  0.00000000E+00
  0.00000000E+00  0.00000000E+00  0.00000000E+00
  0.00000000E+00  0.00000000E+00  0.00000000E+00
  0.00000000E+00  0.00000000E+00  0.00000000E+00
  0.00000000E+00  0.00000000E+00  0.00000000E+00
  0.00000000E+00  0.00000000E+00  0.00000000E+00
  0.00000000E+00  0.00000000E+00  0.00000000E+00
  0.00000000E+00  0.00000000E+00  0.00000000E+00
  0.00000000E+00  0.00000000E+00  0.00000000E+00
  0.00000000E+00  0.00000000E+00  0.00000000E+00
  0.00000000E+00  0.00000000E+00  0.00000000E+00
  0.00000000E+00  0.00000000E+00  0.00000000E+00
  0.00000000E+00  0.00000000E+00  0.00000000E+00
  0.00000000E+00  0.00000000E+00  0.00000000E+00
  0.00000000E+00  0.00000000E+00  0.00000000E+00
  0.00000000E+00  0.00000000E+00  0.00000000E+00
  0.00000000E+00  0.00000000E+00  0.00000000E+00
  0.00000000E+00  0.00000000E+00  0.00000000E+00
  0.00000000E+00  0.00000000E+00  0.00000000E+00
  0.00000000E+00  0.00000000E+00  0.00000000E+00
  0.00000000E+00  0.00000000E+00  0.00000000E+00
  0.00000000E+00  0.00000000E+00  0.00000000E+00
  0.00000000E+00  0.00000000E+00  0.00000000E+00
  0.00000000E+00  0.00000000E+00  0.00000000E+00
  0.00000000E+00  0.00000000E+00  0.00000000E+00
  0.00000000E+00  0.00000000E+00  0.00000000E+00
  0.00000000E+00  0.00000000E+00  0.00000000E+00
  0.00000000E+00  0.00000000E+00  0.00000000E+00
  0.00000000E+00  0.00000000E+00  0.00000000E+00
  0.00000000E+00  0.00000000E+00  0.00000000E+00
  0.00000000E+00  0.00000000E+00  0.00000000E+00
  0.00000000E+00  0.00000000E+00  0.00000000E+00
  0.00000000E+00  0.00000000E+00  0.00000000E+00
  0.00000000E+00  0.00000000E+00  0.00000000E+00
  0.00000000E+00  0.00000000E+00  0.00000000E+00
  0.00000000E+00  0.00000000E+00  0.00000000E+00
  0.00000000E+00  0.00000000E+00  0.00000000E+00
  0.00000000E+00  0.00000000E+00  0.00000000E+00
  0.00000000E+00  0.00000000E+00  0.00000000E+00
  0.00000000E+00  0.00000000E+00  0.00000000E+00
  0.00000000E+00  0.00000000E+00  0.00000000E+00
  0.00000000E+00  0.00000000E+00  0.00000000E+00
  0.00000000E+00  0.00000000E+00  0.00000000E+00
  0.00000000E+00  0.00000000E+00  0.00000000E+00
  0.00000000E+00  0.00000000E+00  0.00000000E+00
  0.00000000E+00  0.00000000E+00  0.00000000E+00
  0.00000000E+00  0.00000000E+00  0.00000000E+00
  0.00000000E+00  0.00000000E+00  0.00000000E+00
  0.00000000E+00  0.00000000E+00  0.00000000E+00
  0.00000000E+00  0.00000000E+00  0.00000000E+00