Amorphous Sb                            
   1.00000000000000     
    21.6450235548856149    0.0000000000000000    0.0000000000000000
     0.0000000000000000   21.6450235548856149    0.0000000000000000
     0.0000000000000000    0.0000000000000000   21.6450235548856149
   Ag   In   Sb   Te
    12     9   201    78
Direct
  0.2020464599999983  0.9564218100000019  0.7904382800000036
  0.8284917900000011  0.4906911500000035  0.7677223299999980
  0.1781235699999968  0.4500523399999992  0.0159179500000022
  0.3722183100000009  0.6948036300000027  0.5552583699999971
  0.0275442279999965  0.6841564200000008  0.7700018099999966
  0.6134377500000028  0.5329809999999995  0.0156595320000008
  0.9901283530999976  0.6377079199999969  0.5806522500000000
  0.7672446600000029  0.6925172400000008  0.1394464899999974
  0.7500586800000022  0.7440359300000026  0.4081921399999970
  0.8991862600000005  0.9502822199999983  0.8044376900000003
  0.9230782200000007  0.9050174799999979  0.1759213500000030
  0.3838555499999998  0.7054952800000009  0.3403756499999986
  0.7649013600000032  0.4665199399999977  0.5826470800000010
  0.6537799000000035  0.8581633900000014  0.0329927780000006
  0.2215392600000001  0.3125032800000014  0.8071583400000009
  0.0425206119999970  0.3302878100000015  0.1549081900000004
  0.4600172800000024  0.0572248149999979  0.1471729000000011
  0.0425770570000026  0.5301788800000011  0.3888439700000035
  0.9255066799999980  0.3532693200000026  0.5236449399999970
  0.8800723399999981  0.3064156000000011  0.6789781499999989
  0.0650074129999965  0.4895613300000008  0.2568218199999990
  0.4593407899999988  0.6812300300000018  0.4550555100000011
  0.5732679799999971  0.7488162900000006  0.3061866199999983
  0.3031153100000026  0.8002947900000024  0.7272662800000020
  0.4853317999999973  0.2822813699999998  0.9950473000000031
  0.3720584499999973  0.3230421299999975  0.7742204099999981
  0.0053687413999981  0.1611936999999983  0.3947963700000017
  0.3084375999999978  0.7910148599999971  0.4761537099999984
  0.6545785599999974  0.7743612200000030  0.7377651400000005
  0.9541411740000001  0.5553132499999975  0.4856219799999977
  0.2282240400000006  0.2039358700000022  0.9004292099999986
  0.3848672100000030  0.4751814400000001  0.0291856899999985
  0.2023693699999995  0.0810181709999966  0.9786113400000005
  0.1539272799999978  0.8300061699999972  0.7967470600000013
  0.1812722100000030  0.8988595200000020  0.5697097400000004
  0.4011457699999994  0.9853852800000027  0.7015650000000022
  0.4178433200000029  0.9273546699999997  0.0056438845000031
  0.9746184600000021  0.8399799099999967  0.0694540699999990
  0.9344683799999984  0.7900376099999988  0.7585076299999969
  0.6621630599999975  0.8370385200000001  0.8985619199999988
  0.3611403499999994  0.7231430000000003  0.8920975099999993
  0.9051005099999969  0.1753806500000010  0.6494944299999972
  0.8564779800000011  0.0508225829999986  0.5153304700000021
  0.2086041900000026  0.7898777699999968  0.1448617300000024
  0.9067441099999982  0.6779473100000004  0.8400435799999997
  0.6740823399999982  0.7649170600000019  0.2068495099999978
  0.7695127300000024  0.8819489799999971  0.5396698300000011
  0.6717479300000022  0.8365210300000001  0.4596480900000017
  0.4548263800000001  0.1086238899999969  0.9589434399999988
  0.2031852799999996  0.3003031599999986  0.6131846800000034
  0.7366472900000005  0.6848516900000021  0.9643815499999988
  0.5548373999999967  0.3999452899999980  0.0100384140000003
  0.3533924899999974  0.8261828899999983  0.2901213700000014
  0.1900785099999993  0.0500572819999974  0.3849710900000005
  0.3390817100000021  0.5762677900000028  0.9487743800000032
  0.3046083899999985  0.5878614900000017  0.5075202700000006
  0.4720951799999966  0.9662845499999975  0.3932485600000035
  0.8805797500000025  0.1104183300000017  0.9143509600000002
  0.3271880300000021  0.3127099499999986  0.1650222700000015
  0.0374937130000035  0.5589261900000011  0.8471680500000005
  0.7276058400000025  0.5452948000000006  0.9468133600000002
  0.5362376400000031  0.2193221400000027  0.3026627899999994
  0.2746604000000019  0.6635485099999983  0.3978600599999993
  0.4261540999999980  0.2991957600000035  0.3034983599999990
  0.9778237599999997  0.5151696799999996  0.0526781339999971
  0.7747365199999976  0.4201627400000021  0.2737020400000034
  0.3196113199999999  0.5043756600000009  0.8366342699999976
  0.5957579100000032  0.9247628800000030  0.1860941999999994
  0.4045911999999987  0.4743122799999995  0.2012285300000016
  0.6767494300000010  0.0831434859999973  0.7263235799999990
  0.2401725900000002  0.9213051600000028  0.2688716299999996
  0.6530327299999996  0.1408316099999993  0.5558282499999976
  0.0603281550000005  0.8904913399999970  0.6395711500000019
  0.3072839100000024  0.2545140900000007  0.0434052359999981
  0.1727776600000013  0.6005488899999989  0.6689711499999973
  0.2594482499999984  0.7265663499999988  0.2559312699999978
  0.4389418100000029  0.4284784000000030  0.7131602500000014
  0.0809712360000034  0.3207749000000035  0.7941202499999989
  0.1279364600000008  0.8588111299999994  0.2297912100000019
  0.1997646200000034  0.5497084599999980  0.3803082399999980
  0.9052053200000003  0.4244742400000021  0.3099859699999996
  0.1531498499999984  0.7129813700000014  0.4636047700000034
  0.1913281400000031  0.7165044999999992  0.9807797599999972
  0.3682816399999993  0.0786126779999989  0.6070750700000005
  0.0662704209999987  0.9914668286999984  0.3808831699999971
  0.7065752099999969  0.5574630099999993  0.4982896599999975
  0.4699372700000026  0.7979613500000013  0.3835744800000001
  0.7955976599999985  0.9229338600000005  0.9553043000000017
  0.9067633000000015  0.8495586000000017  0.3970506400000033
  0.6274562199999991  0.2240602500000008  0.9818243300000020
  0.1255539499999969  0.4183947900000007  0.4196329700000021
  0.4853084399999972  0.2823746199999988  0.8374224100000021
  0.7939329000000015  0.4821599400000025  0.1528932399999974
  0.7582057099999986  0.9971172122999974  0.7924965200000003
  0.0065275298999978  0.3088717799999969  0.0235922310000021
  0.4657056200000014  0.8998709000000034  0.6174980400000010
  0.3368077700000001  0.5600288899999981  0.2814960299999996
  0.3440374899999981  0.6529875100000027  0.1806370199999989
  0.5360176699999997  0.9766244159999999  0.8307183000000009
  0.8050850799999978  0.8032047399999982  0.0241492999999977
  0.1928221699999995  0.3446284500000019  0.1706994500000008
  0.4792161600000000  0.6708048500000032  0.2469369800000010
  0.7201840099999970  0.2229368500000035  0.3351917999999969
  0.6953180300000028  0.2800754599999991  0.6963821300000035
  0.2431943699999977  0.5972823299999988  0.1067839899999967
  0.7413222300000015  0.1582550199999986  0.1502387000000027
  0.8730448700000011  0.7913372699999996  0.5364943299999965
  0.2304875499999994  0.7163725099999994  0.8514242500000009
  0.7696135099999992  0.0061748319999992  0.0596358029999990
  0.1849759300000002  0.3114056900000008  0.0389551069999996
  0.6627279300000026  0.9721011099999970  0.8878186999999969
  0.8310093999999992  0.9755316700000023  0.2394203799999985
  0.5975716499999990  0.5448132200000018  0.3398129999999995
  0.4058130399999982  0.0002708144300030  0.8904107199999984
  0.5207861000000022  0.3956641999999988  0.1442721599999999
  0.8073228700000001  0.1726019199999982  0.5512703899999991
  0.3666792799999996  0.8499715100000031  0.8371486400000023
  0.8717993899999996  0.2442555399999975  0.4570716500000032
  0.2905173899999980  0.8981828599999986  0.1285464799999971
  0.4061711800000012  0.8309963100000033  0.1658403899999996
  0.1809453199999993  0.2290353799999991  0.2417109699999997
  0.5296511299999977  0.8333828199999971  0.9243664199999984
  0.5903443500000023  0.7149878999999970  0.4886327099999974
  0.4960771699999995  0.8464951600000035  0.7956193500000026
  0.5864237099999983  0.3496799199999998  0.6196219999999997
  0.6131423699999985  0.6445580600000014  0.7895603500000021
  0.7485414499999976  0.1569329100000019  0.0114636220000008
  0.9120790200000002  0.0107016890000011  0.3420115400000014
  0.3820534899999970  0.1972791600000008  0.8866464399999998
  0.9925531399999983  0.0461558339999968  0.5049374600000007
  0.7300214799999978  0.8572177799999992  0.3322329800000006
  0.5330758599999967  0.1799821399999999  0.7613968900000003
  0.4666703899999973  0.2712787099999971  0.1301657699999978
  0.4349562800000015  0.3150018299999999  0.4411559699999970
  0.1075365800000014  0.8513675700000007  0.0488351710000003
  0.8582654499999975  0.1012953400000001  0.1969367900000023
  0.5233589899999984  0.6999004899999974  0.9402461399999993
  0.8879342399999999  0.6238967600000009  0.3916486800000030
  0.3124553999999975  0.0000172925049995  0.5093508699999987
  0.6106646400000031  0.4723205499999992  0.4547159299999990
  0.2462030700000000  0.9040835500000028  0.4074296599999983
  0.5195492799999997  0.1686894500000022  0.4442121599999993
  0.4926241699999991  0.4159902099999968  0.2897907700000033
  0.1682851500000027  0.0478092179999976  0.5462062399999965
  0.2411414199999982  0.0738985870000022  0.6589299299999993
  0.4897292500000034  0.7150022599999986  0.7224979399999967
  0.9052121900000003  0.7165255000000030  0.6480142099999995
  0.1395522999999983  0.1770155099999968  0.3887177699999995
  0.2714120300000005  0.4644725799999989  0.1081962599999997
  0.2235700700000010  0.3086198800000020  0.3915610700000016
  0.9806824899999995  0.7241905300000013  0.3842003000000034
  0.7720950100000010  0.6958254299999993  0.8163947299999990
  0.0822206320000021  0.0713550950000013  0.9103608100000002
  0.6179364999999990  0.6702088199999992  0.0388450829999982
  0.4899140200000005  0.5756298100000024  0.0556110449999991
  0.3618631200000024  0.2235084799999996  0.6830687599999976
  0.2934719200000018  0.8701398299999994  0.9950836900000013
  0.6143733999999981  0.4833430799999974  0.8852328099999980
  0.1634676799999966  0.1818287299999994  0.5223256299999974
  0.7781049000000024  0.1755235999999982  0.7290410800000018
  0.4617051999999973  0.7078887699999967  0.0609727579999984
  0.4343252800000030  0.4483346499999996  0.4105617800000019
  0.2967723900000010  0.3260123900000025  0.5059424900000025
  0.2571365900000018  0.0975996439999989  0.8161109300000007
  0.2113996100000008  0.5044896599999973  0.2520617899999991
  0.5840928699999992  0.2202126500000006  0.1739358900000028
  0.0611105979999991  0.4756996200000003  0.9544224600000035
  0.4646750100000006  0.3951428299999975  0.5802227000000002
  0.0746139990000003  0.3179414199999968  0.6599596699999992
  0.4954870999999983  0.5104835500000036  0.5153134800000032
  0.5170372799999967  0.5528315299999988  0.1848262800000029
  0.9476142400000001  0.6668423799999985  0.9821497800000003
  0.0846351069999969  0.9496628099999995  0.1377576800000000
  0.8073654499999989  0.5923616800000033  0.2308049800000020
  0.5743023899999997  0.0900064619999981  0.0829245790000002
  0.0714858549999988  0.9445570299999986  0.7655194700000010
  0.2990686899999986  0.1871913599999999  0.5031786099999991
  0.2672740300000029  0.9896206299999974  0.8995669500000005
  0.1276560000000018  0.0717366229999996  0.7825916099999972
  0.7987015000000000  0.9382085700000005  0.4193283099999974
  0.0907124740000000  0.2073783599999999  0.9000388899999976
  0.4051211100000032  0.7836251299999972  0.6431288899999998
  0.4661174000000017  0.5871729899999991  0.3545356699999971
  0.9192629699999983  0.2421803900000015  0.9070928399999971
  0.8434428099999991  0.0362269150000003  0.6474932699999982
  0.9243730399999990  0.2197133299999976  0.0859966820000011
  0.8278082799999993  0.2665451000000019  0.0043234211999987
  0.1695055599999975  0.5892271199999968  0.5280243999999996
  0.5445985699999980  0.5446069600000030  0.7229490400000032
  0.7093682599999980  0.7368772900000025  0.6162630700000022
  0.5770136699999995  0.7820238400000008  0.1138566600000033
  0.7093859200000026  0.3869500200000004  0.8970994499999989
  0.5196149100000014  0.1167858700000011  0.5726952199999999
  0.7414522199999993  0.3905541800000023  0.7612019399999994
  0.2288305599999987  0.2034717499999985  0.7066178899999969
  0.9343656100000004  0.5518897700000025  0.2730685000000008
  0.7703333099999981  0.2775429400000036  0.2170491299999995
  0.9929395799999980  0.2018992599999976  0.7680776199999997
  0.7099197399999966  0.5472199200000034  0.8119330999999974
  0.2982442500000033  0.4649435800000035  0.4323435900000021
  0.8169469199999995  0.8267474299999975  0.8153735300000022
  0.3841070100000010  0.6441520699999970  0.7754897000000014
  0.9164479499999985  0.7933839499999991  0.9499122699999987
  0.4871491800000030  0.5784289300000012  0.8401800899999969
  0.6489420099999990  0.6640417500000027  0.3788771700000026
  0.4869235900000035  0.6182753599999984  0.6245913200000004
  0.9052584100000018  0.4011185499999996  0.0260732599999969
  0.6295975800000022  0.0926885410000011  0.4297155100000012
  0.9591136599999999  0.4022663300000033  0.9000905700000033
  0.6321318899999966  0.6288461400000003  0.5858723699999970
  0.8984211100000010  0.0147881279999993  0.1006760000000000
  0.2052756100000011  0.5807822800000011  0.9696104800000001
  0.4054705300000023  0.1302583100000021  0.7714197999999968
  0.3217313600000011  0.7412570799999969  0.0241445480000024
  0.0385590779999987  0.8399533799999972  0.8654599300000001
  0.1364608100000027  0.4675970799999973  0.6677227799999983
  0.9847454849999977  0.9060966699999966  0.2985234100000014
  0.9802063599999968  0.2952766900000015  0.3661999799999975
  0.5681210400000012  0.2942012500000004  0.4679542800000007
  0.0796536140000015  0.1806336900000005  0.6668327900000008
  0.3954285900000016  0.8925910000000030  0.5027673499999992
  0.8374250199999977  0.7980075299999996  0.1660777900000028
  0.0934434629999998  0.6533632000000011  0.3507021899999998
  0.2463131100000027  0.4117625499999988  0.9038577900000035
  0.4623511599999972  0.9408906399999992  0.2188710499999971
  0.7667160600000003  0.3150611399999974  0.4174723900000004
  0.1206559399999989  0.8781149900000003  0.4434981500000035
  0.8712544899999983  0.5155297499999989  0.6497878400000019
  0.0410714679999984  0.5834589999999977  0.6823946100000029
  0.1949926500000032  0.0159367469999978  0.1022325499999965
  0.8102425399999973  0.6790437299999965  0.5019663300000019
  0.5536559499999996  0.3739750700000002  0.7527517199999991
  0.5026616000000033  0.2391467899999995  0.6313628300000005
  0.9721126900000030  0.1112097600000013  0.0233938089999981
  0.1931991499999981  0.5882596200000023  0.8270113900000027
  0.7727188799999993  0.3238806700000012  0.5924735999999982
  0.0553034349999990  0.0323597550000017  0.6271410499999988
  0.5322445500000015  0.0517191180000012  0.3070901000000035
  0.2711787499999971  0.9243532899999991  0.6839892500000033
  0.9382863800000010  0.7131697200000033  0.2118164099999973
  0.0795991560000004  0.4688199300000022  0.1220074000000011
  0.7336148600000030  0.8999858000000032  0.1370846000000014
  0.3596990699999978  0.0333015140000015  0.0652668879999965
  0.5876805500000017  0.8055724299999980  0.6251069999999999
  0.9990730399999990  0.1899266100000006  0.5530506400000021
  0.0230724429999967  0.7376919000000015  0.5108452400000019
  0.6379013900000032  0.3424045200000023  0.1909819199999987
  0.1547771099999977  0.6202128600000023  0.2027908800000020
  0.2942154400000021  0.1835232199999979  0.1805084699999995
  0.1079772699999992  0.7598665900000015  0.6943123400000033
  0.5607646899999992  0.9952175072000031  0.4908378200000030
  0.0109848399999990  0.0879793499999977  0.2841720099999989
  0.9569045200000019  0.4118533400000004  0.6436818600000009
  0.9122573900000006  0.3645581299999989  0.1832381299999994
  0.2072972899999996  0.0507156039999970  0.2530220900000018
  0.0613750659999965  0.7048765500000016  0.9028682799999999
  0.0122378290000000  0.7172657999999998  0.1024112699999975
  0.1130366699999996  0.1977023600000010  0.0357392840000017
  0.8253508499999995  0.6238451999999981  0.0449970600000000
  0.8557685000000035  0.3196489600000021  0.8113262500000005
  0.0553797600000010  0.3222640600000020  0.4834248100000025
  0.3765324399999983  0.0570137910000028  0.4092583899999980
  0.0705794750000024  0.1907758299999998  0.1818052200000011
  0.8953301900000028  0.2460122499999997  0.2592526000000035
  0.6135059200000015  0.3273029200000011  0.3437353999999999
  0.5374829900000009  0.0209418119999967  0.7060442599999988
  0.7983130300000028  0.6499372800000032  0.6856072900000001
  0.9115957699999981  0.9276559500000019  0.6786489699999976
  0.6494055100000011  0.2749814100000023  0.8600151300000007
  0.5678477599999994  0.1201331600000017  0.8859172399999977
  0.1903561000000025  0.4409617999999966  0.5351159900000013
  0.2519752800000035  0.3979858499999978  0.6933991599999985
  0.4296707100000035  0.1277827199999990  0.2571712199999965
  0.4422258099999965  0.4522152400000010  0.8660044000000013
  0.2213803799999994  0.7708247300000011  0.5791117699999973
  0.8362132600000010  0.1509753099999998  0.3475893700000015
  0.5680857300000000  0.9695160500000028  0.0263309999999990
  0.0794665310000013  0.3474800600000023  0.2905584599999997
  0.7519539299999991  0.5360914399999999  0.3393944199999979
  0.7529604599999971  0.1345264699999973  0.8542859200000024
  0.1145938599999994  0.4540031000000013  0.8046903899999975
  0.3637089799999984  0.3475216599999982  0.9604443599999968
  0.3019926200000000  0.1958841499999977  0.3727538899999985
  0.6460769899999974  0.0525642770000019  0.1875082600000013
  0.8712729800000005  0.4561134300000020  0.4561150800000036
  0.9060028299999985  0.5222623000000013  0.8648772900000026
  0.2911331700000019  0.3906767699999989  0.3091097699999992
  0.8368982499999973  0.7604446400000029  0.3095250800000002
  0.6143388999999999  0.9282352000000031  0.3198940500000020
  0.6642310800000004  0.4656294500000016  0.6717668399999965
  0.7472456599999973  0.8784853900000016  0.7153507399999981
  0.9549623899999986  0.0785595660000027  0.8092484200000030
  0.6998313400000029  0.0263570879999975  0.6072498400000015
  0.6594971099999967  0.6311071100000021  0.1858069800000024
  0.6619300699999968  0.4940823199999969  0.1362966299999968
  0.3514352600000024  0.5961564300000006  0.6485521000000034
  0.1184564400000028  0.9211842099999998  0.9365729599999995
  0.9219582099999997  0.9534832300000033  0.9310194500000009
  0.6731849999999966  0.3433116599999977  0.0322582900000015
  0.9738462899999973  0.9111163199999979  0.5060851799999995
 
  0.00000000E+00  0.00000000E+00  0.00000000E+00
  0.00000000E+00  0.00000000E+00  0.00000000E+00
  0.00000000E+00  0.00000000E+00  0.00000000E+00
  0.00000000E+00  0.00000000E+00  0.00000000E+00
  0.00000000E+00  0.00000000E+00  0.00000000E+00
  0.00000000E+00  0.00000000E+00  0.00000000E+00
  0.00000000E+00  0.00000000E+00  0.00000000E+00
  0.00000000E+00  0.00000000E+00  0.00000000E+00
  0.00000000E+00  0.00000000E+00  0.00000000E+00
  0.00000000E+00  0.00000000E+00  0.00000000E+00
  0.00000000E+00  0.00000000E+00  0.00000000E+00
  0.00000000E+00  0.00000000E+00  0.00000000E+00
  0.00000000E+00  0.00000000E+00  0.00000000E+00
  0.00000000E+00  0.00000000E+00  0.00000000E+00
  0.00000000E+00  0.00000000E+00  0.00000000E+00
  0.00000000E+00  0.00000000E+00  0.00000000E+00
  0.00000000E+00  0.00000000E+00  0.00000000E+00
  0.00000000E+00  0.00000000E+00  0.00000000E+00
  0.00000000E+00  0.00000000E+00  0.00000000E+00
  0.00000000E+00  0.00000000E+00  0.00000000E+00
  0.00000000E+00  0.00000000E+00  0.00000000E+00
  0.00000000E+00  0.00000000E+00  0.00000000E+00
  0.00000000E+00  0.00000000E+00  0.00000000E+00
  0.00000000E+00  0.00000000E+00  0.00000000E+00
  0.00000000E+00  0.00000000E+00  0.00000000E+00
  0.00000000E+00  0.00000000E+00  0.00000000E+00
  0.00000000E+00  0.00000000E+00  0.00000000E+00
  0.00000000E+00  0.00000000E+00  0.00000000E+00
  0.00000000E+00  0.00000000E+00  0.00000000E+00
  0.00000000E+00  0.00000000E+00  0.00000000E+00
  0.00000000E+00  0.00000000E+00  0.00000000E+00
  0.00000000E+00  0.00000000E+00  0.00000000E+00
  0.00000000E+00  0.00000000E+00  0.00000000E+00
  0.00000000E+00  0.00000000E+00  0.00000000E+00
  0.00000000E+00  0.00000000E+00  0.00000000E+00
  0.00000000E+00  0.00000000E+00  0.00000000E+00
  0.00000000E+00  0.00000000E+00  0.00000000E+00
  0.00000000E+00  0.00000000E+00  0.00000000E+00
  0.00000000E+00  0.00000000E+00  0.00000000E+00
  0.00000000E+00  0.00000000E+00  0.00000000E+00
  0.00000000E+00  0.00000000E+00  0.00000000E+00
  0.00000000E+00  0.00000000E+00  0.00000000E+00
  0.00000000E+00  0.00000000E+00  0.00000000E+00
  0.00000000E+00  0.00000000E+00  0.00000000E+00
  0.00000000E+00  0.00000000E+00  0.00000000E+00
  0.00000000E+00  0.00000000E+00  0.00000000E+00
  0.00000000E+00  0.00000000E+00  0.00000000E+00
  0.00000000E+00  0.00000000E+00  0.00000000E+00
  0.00000000E+00  0.00000000E+00  0.00000000E+00
  0.00000000E+00  0.00000000E+00  0.00000000E+00
  0.00000000E+00  0.00000000E+00  0.00000000E+00
  0.00000000E+00  0.00000000E+00  0.00000000E+00
  0.00000000E+00  0.00000000E+00  0.00000000E+00
  0.00000000E+00  0.00000000E+00  0.00000000E+00
  0.00000000E+00  0.00000000E+00  0.00000000E+00
  0.00000000E+00  0.00000000E+00  0.00000000E+00
  0.00000000E+00  0.00000000E+00  0.00000000E+00
  0.00000000E+00  0.00000000E+00  0.00000000E+00
  0.00000000E+00  0.00000000E+00  0.00000000E+00
  0.00000000E+00  0.00000000E+00  0.00000000E+00
  0.00000000E+00  0.00000000E+00  0.00000000E+00
  0.00000000E+00  0.00000000E+00  0.00000000E+00
  0.00000000E+00  0.00000000E+00  0.00000000E+00
  0.00000000E+00  0.00000000E+00  0.00000000E+00
  0.00000000E+00  0.00000000E+00  0.00000000E+00
  0.00000000E+00  0.00000000E+00  0.00000000E+00
  0.00000000E+00  0.00000000E+00  0.00000000E+00
  0.00000000E+00  0.00000000E+00  0.00000000E+00
  0.00000000E+00  0.00000000E+00  0.00000000E+00
  0.00000000E+00  0.00000000E+00  0.00000000E+00
  0.00000000E+00  0.00000000E+00  0.00000000E+00
  0.00000000E+00  0.00000000E+00  0.00000000E+00
  0.00000000E+00  0.00000000E+00  0.00000000E+00
  0.00000000E+00  0.00000000E+00  0.00000000E+00
  0.00000000E+00  0.00000000E+00  0.00000000E+00
  0.00000000E+00  0.00000000E+00  0.00000000E+00
  0.00000000E+00  0.00000000E+00  0.00000000E+00
  0.00000000E+00  0.00000000E+00  0.00000000E+00
  0.00000000E+00  0.00000000E+00  0.00000000E+00
  0.00000000E+00  0.00000000E+00  0.00000000E+00
  0.00000000E+00  0.00000000E+00  0.00000000E+00
  0.00000000E+00  0.00000000E+00  0.00000000E+00
  0.00000000E+00  0.00000000E+00  0.00000000E+00
  0.00000000E+00  0.00000000E+00  0.00000000E+00
  0.00000000E+00  0.00000000E+00  0.00000000E+00
  0.00000000E+00  0.00000000E+00  0.00000000E+00
  0.00000000E+00  0.00000000E+00  0.00000000E+00
  0.00000000E+00  0.00000000E+00  0.00000000E+00
  0.00000000E+00  0.00000000E+00  0.00000000E+00
  0.00000000E+00  0.00000000E+00  0.00000000E+00
  0.00000000E+00  0.00000000E+00  0.00000000E+00
  0.00000000E+00  0.00000000E+00  0.00000000E+00
  0.00000000E+00  0.00000000E+00  0.00000000E+00
  0.00000000E+00  0.00000000E+00  0.00000000E+00
  0.00000000E+00  0.00000000E+00  0.00000000E+00
  0.00000000E+00  0.00000000E+00  0.00000000E+00
  0.00000000E+00  0.00000000E+00  0.00000000E+00
  0.00000000E+00  0.00000000E+00  0.00000000E+00
  0.00000000E+00  0.00000000E+00  0.00000000E+00
  0.00000000E+00  0.00000000E+00  0.00000000E+00
  0.00000000E+00  0.00000000E+00  0.00000000E+00
  0.00000000E+00  0.00000000E+00  0.00000000E+00
  0.00000000E+00  0.00000000E+00  0.00000000E+00
  0.00000000E+00  0.00000000E+00  0.00000000E+00
  0.00000000E+00  0.00000000E+00  0.00000000E+00
  0.00000000E+00  0.00000000E+00  0.00000000E+00
  0.00000000E+00  0.00000000E+00  0.00000000E+00
  0.00000000E+00  0.00000000E+00  0.00000000E+00
  0.00000000E+00  0.00000000E+00  0.00000000E+00
  0.00000000E+00  0.00000000E+00  0.00000000E+00
  0.00000000E+00  0.00000000E+00  0.00000000E+00
  0.00000000E+00  0.00000000E+00  0.00000000E+00
  0.00000000E+00  0.00000000E+00  0.00000000E+00
  0.00000000E+00  0.00000000E+00  0.00000000E+00
  0.00000000E+00  0.00000000E+00  0.00000000E+00
  0.00000000E+00  0.00000000E+00  0.00000000E+00
  0.00000000E+00  0.00000000E+00  0.00000000E+00
  0.00000000E+00  0.00000000E+00  0.00000000E+00
  0.00000000E+00  0.00000000E+00  0.00000000E+00
  0.00000000E+00  0.00000000E+00  0.00000000E+00
  0.00000000E+00  0.00000000E+00  0.00000000E+00
  0.00000000E+00  0.00000000E+00  0.00000000E+00
  0.00000000E+00  0.00000000E+00  0.00000000E+00
  0.00000000E+00  0.00000000E+00  0.00000000E+00
  0.00000000E+00  0.00000000E+00  0.00000000E+00
  0.00000000E+00  0.00000000E+00  0.00000000E+00
  0.00000000E+00  0.00000000E+00  0.00000000E+00
  0.00000000E+00  0.00000000E+00  0.00000000E+00
  0.00000000E+00  0.00000000E+00  0.00000000E+00
  0.00000000E+00  0.00000000E+00  0.00000000E+00
  0.00000000E+00  0.00000000E+00  0.00000000E+00
  0.00000000E+00  0.00000000E+00  0.00000000E+00
  0.00000000E+00  0.00000000E+00  0.00000000E+00
  0.00000000E+00  0.00000000E+00  0.00000000E+00
  0.00000000E+00  0.00000000E+00  0.00000000E+00
  0.00000000E+00  0.00000000E+00  0.00000000E+00
  0.00000000E+00  0.00000000E+00  0.00000000E+00
  0.00000000E+00  0.00000000E+00  0.00000000E+00
  0.00000000E+00  0.00000000E+00  0.00000000E+00
  0.00000000E+00  0.00000000E+00  0.00000000E+00
  0.00000000E+00  0.00000000E+00  0.00000000E+00
  0.00000000E+00  0.00000000E+00  0.00000000E+00
  0.00000000E+00  0.00000000E+00  0.00000000E+00
  0.00000000E+00  0.00000000E+00  0.00000000E+00
  0.00000000E+00  0.00000000E+00  0.00000000E+00
  0.00000000E+00  0.00000000E+00  0.00000000E+00
  0.00000000E+00  0.00000000E+00  0.00000000E+00
  0.00000000E+00  0.00000000E+00  0.00000000E+00
  0.00000000E+00  0.00000000E+00  0.00000000E+00
  0.00000000E+00  0.00000000E+00  0.00000000E+00
  0.00000000E+00  0.00000000E+00  0.00000000E+00
  0.00000000E+00  0.00000000E+00  0.00000000E+00
  0.00000000E+00  0.00000000E+00  0.00000000E+00
  0.00000000E+00  0.00000000E+00  0.00000000E+00
  0.00000000E+00  0.00000000E+00  0.00000000E+00
  0.00000000E+00  0.00000000E+00  0.00000000E+00
  0.00000000E+00  0.00000000E+00  0.00000000E+00
  0.00000000E+00  0.00000000E+00  0.00000000E+00
  0.00000000E+00  0.00000000E+00  0.00000000E+00
  0.00000000E+00  0.00000000E+00  0.00000000E+00
  0.00000000E+00  0.00000000E+00  0.00000000E+00
  0.00000000E+00  0.00000000E+00  0.00000000E+00
  0.00000000E+00  0.00000000E+00  0.00000000E+00
  0.00000000E+00  0.00000000E+00  0.00000000E+00
  0.00000000E+00  0.00000000E+00  0.00000000E+00
  0.00000000E+00  0.00000000E+00  0.00000000E+00
  0.00000000E+00  0.00000000E+00  0.00000000E+00
  0.00000000E+00  0.00000000E+00  0.00000000E+00
  0.00000000E+00  0.00000000E+00  0.00000000E+00
  0.00000000E+00  0.00000000E+00  0.00000000E+00
  0.00000000E+00  0.00000000E+00  0.00000000E+00
  0.00000000E+00  0.00000000E+00  0.00000000E+00
  0.00000000E+00  0.00000000E+00  0.00000000E+00
  0.00000000E+00  0.00000000E+00  0.00000000E+00
  0.00000000E+00  0.00000000E+00  0.00000000E+00
  0.00000000E+00  0.00000000E+00  0.00000000E+00
  0.00000000E+00  0.00000000E+00  0.00000000E+00
  0.00000000E+00  0.00000000E+00  0.00000000E+00
  0.00000000E+00  0.00000000E+00  0.00000000E+00
  0.00000000E+00  0.00000000E+00  0.00000000E+00
  0.00000000E+00  0.00000000E+00  0.00000000E+00
  0.00000000E+00  0.00000000E+00  0.00000000E+00
  0.00000000E+00  0.00000000E+00  0.00000000E+00
  0.00000000E+00  0.00000000E+00  0.00000000E+00
  0.00000000E+00  0.00000000E+00  0.00000000E+00
  0.00000000E+00  0.00000000E+00  0.00000000E+00
  0.00000000E+00  0.00000000E+00  0.00000000E+00
  0.00000000E+00  0.00000000E+00  0.00000000E+00
  0.00000000E+00  0.00000000E+00  0.00000000E+00
  0.00000000E+00  0.00000000E+00  0.00000000E+00
  0.00000000E+00  0.00000000E+00  0.00000000E+00
  0.00000000E+00  0.00000000E+00  0.00000000E+00
  0.00000000E+00  0.00000000E+00  0.00000000E+00
  0.00000000E+00  0.00000000E+00  0.00000000E+00
  0.00000000E+00  0.00000000E+00  0.00000000E+00
  0.00000000E+00  0.00000000E+00  0.00000000E+00
  0.00000000E+00  0.00000000E+00  0.00000000E+00
  0.00000000E+00  0.00000000E+00  0.00000000E+00
  0.00000000E+00  0.00000000E+00  0.00000000E+00
  0.00000000E+00  0.00000000E+00  0.00000000E+00
  0.00000000E+00  0.00000000E+00  0.00000000E+00
  0.00000000E+00  0.00000000E+00  0.00000000E+00
  0.00000000E+00  0.00000000E+00  0.00000000E+00
  0.00000000E+00  0.00000000E+00  0.00000000E+00
  0.00000000E+00  0.00000000E+00  0.00000000E+00
  0.00000000E+00  0.00000000E+00  0.00000000E+00
  0.00000000E+00  0.00000000E+00  0.00000000E+00
  0.00000000E+00  0.00000000E+00  0.00000000E+00
  0.00000000E+00  0.00000000E+00  0.00000000E+00
  0.00000000E+00  0.00000000E+00  0.00000000E+00
  0.00000000E+00  0.00000000E+00  0.00000000E+00
  0.00000000E+00  0.00000000E+00  0.00000000E+00
  0.00000000E+00  0.00000000E+00  0.00000000E+00
  0.00000000E+00  0.00000000E+00  0.00000000E+00
  0.00000000E+00  0.00000000E+00  0.00000000E+00
  0.00000000E+00  0.00000000E+00  0.00000000E+00
  0.00000000E+00  0.00000000E+00  0.00000000E+00
  0.00000000E+00  0.00000000E+00  0.00000000E+00
  0.00000000E+00  0.00000000E+00  0.00000000E+00
  0.00000000E+00  0.00000000E+00  0.00000000E+00
  0.00000000E+00  0.00000000E+00  0.00000000E+00
  0.00000000E+00  0.00000000E+00  0.00000000E+00
  0.00000000E+00  0.00000000E+00  0.00000000E+00
  0.00000000E+00  0.00000000E+00  0.00000000E+00
  0.00000000E+00  0.00000000E+00  0.00000000E+00
  0.00000000E+00  0.00000000E+00  0.00000000E+00
  0.00000000E+00  0.00000000E+00  0.00000000E+00
  0.00000000E+00  0.00000000E+00  0.00000000E+00
  0.00000000E+00  0.00000000E+00  0.00000000E+00
  0.00000000E+00  0.00000000E+00  0.00000000E+00
  0.00000000E+00  0.00000000E+00  0.00000000E+00
  0.00000000E+00  0.00000000E+00  0.00000000E+00