Amorphous Sb                            
   1.00000000000000     
    22.3283632703415051    0.0000000000000000    0.0000000000000000
     0.0000000000000000   22.3283632703415051    0.0000000000000000
     0.0000000000000000    0.0000000000000000   22.3283632703415051
   Sb   Te
   120   180
Direct
  0.9904358107431881  0.0012313803385420  0.0025616564584564
  0.6451726968521827  0.1805327412531080  0.3610344514906306
  0.8618476676995780  0.8814111132378565  0.5308073137366963
  0.4168118683345101  0.9736930618203431  0.7779070523223666
  0.8025759965151025  0.2523542595348041  0.5648220018676890
  0.7372628265580020  0.7640662495959784  0.4505700916965336
  0.0806731936310502  0.1511063949768870  0.2236276969123895
  0.3914103027123964  0.5888938739766746  0.9743545584667322
  0.1960830474092052  0.9909946672194242  0.4373057298594811
  0.9480655125048745  0.2949021850551852  0.7367327029414852
  0.9411997498583288  0.6561042943562920  0.7820780539356763
  0.4600443904707429  0.1121124650393405  0.2728492808752124
  0.8979429991962826  0.8604845640438754  0.0560345155934438
  0.6131682710592385  0.1078648596350425  0.0441729685430596
  0.0528144221213437  0.3725097946628303  0.0190057029496254
  0.5574484706852884  0.6669671287582617  0.0808539522660023
  0.0498014122629110  0.9896947599377927  0.8244026072020668
  0.4738426767540405  0.0267899595809626  0.5021799683049635
  0.0710325682119256  0.8274040469735096  0.8467948106908928
  0.4777441313152618  0.1144066166815371  0.1397944144173455
  0.2134583530616678  0.1608817234014375  0.0266520138626513
  0.4417095991300470  0.0399848130885069  0.9470785650634731
  0.1974410168444731  0.3079605967068144  0.2355267341898326
  0.7102088295622601  0.4032260305245119  0.6404234067989398
  0.9009939007642950  0.7466806328449663  0.2370643043263334
  0.5568549223747912  0.4797525526377365  0.9194630589913971
  0.9211136889941962  0.0796603884151283  0.1638673697967596
  0.1735555619415499  0.3704854691645914  0.3980135663235536
  0.3770314866034760  0.9793080512942860  0.0430394243947594
  0.4078420694196008  0.4028374524679310  0.5138022458186974
  0.1161513834136695  0.6351541845104028  0.9377720065490914
  0.3302204862483345  0.6072776840658759  0.5272378220470817
  0.7220987783042415  0.6724917199696919  0.6541065103355200
  0.9883256477148514  0.4507081885963804  0.5454245139342494
  0.6011227882237085  0.9780766015316477  0.7161866728795603
  0.2119017472700864  0.6065054702851042  0.6511683200569857
  0.1951622180946820  0.3657257969356076  0.5882594426986706
  0.7695387865911714  0.6958271293434991 -0.0351716979796984
  0.1861983910158247  0.5545556353701636  0.3300072916458476
  0.4330004696929903  0.7711798508341023  0.4838507043939128
  0.5982697201788594  0.0236821878607280  0.2193232404145240
  0.0093749571427742  0.6299604762778012  0.4258593860424250
  0.8995273882218594  0.5588201488368911  0.4196415464926955
  0.9316859888945901  0.9458789581302408  0.1788865865732746
  0.7175860004756409  0.8456283643975168  0.7514040634932619
  0.1403026662255169  0.9162792640529541  0.2460204628825259
  0.3307100796385870  0.9217012545000857  0.6396042340633356
  0.6120180231924168  0.2382007367537759  0.6063213367079126
  0.3862234556270154  0.7974208609142540  0.0002220144847717
  0.9902144879535834  0.4831356925308822  0.9830407068078565
  0.9528720651978428  0.8339014983639276  0.7808233153852094
  0.4822800962299227  0.3873258348550936  0.3554780371134155
  0.3212932330602323  0.7660770464486073  0.2741341888013342
  0.5849586371836319  0.4325254074454075  0.4237137674995395
  0.0764922003984088  0.7007554523164077  0.1464032736915972
  0.2291218750683392  0.7675248240170377  0.7345447661478340
  0.0203155637931937  0.0664650957293490  0.7184140777393090
  0.6011968100522467  0.0018009154916850  0.3482824604614979
  0.8833142474654986  0.3998848756182471  0.9144189116821397
  0.3282134252412823  0.1973131181662413  0.4727701547070565
  0.7354936742888503  0.4980553321426679  0.9258418741943485
  0.7709732080206706  0.6153132951911346  0.7728548345133622
  0.1782167560752414  0.0094949177542184  0.8097332297251081
  0.6975322557526867  0.6084279634914518  0.3548711988876134
  0.6761875849157396  0.1904040611394334  0.1260167489347639
  0.4327522604856504  0.6398926429808974  0.1215393435201140
  0.6554841022194076  0.4491577153927312  0.2599079953540894
  0.8471152400100109  0.2553059100747864  0.1481370229277463
  0.1953627578523759  0.1080678097869695  0.5293632143700294
  0.0331284261146643  0.4743972990074943  0.2846658855985442
  0.6439550718817250  0.6070126898060478  0.4731923620413831
  0.4571107006172658  0.8543447097646473  0.1923827592525636
  0.2187527997814175  0.2546613705201136  0.3520040040954318
  0.8840850739956256  0.5087003396867180  0.1779151613164937
  0.5209258949107248  0.4791588960299307  0.7304511094213247
  0.0529038310113514  0.5326483957750590  0.8799042364538586
  0.0655783150040897  0.8029076759684327  0.3634984405874411
  0.3443845098841214  0.0771297205827919  0.5168226170173782
  0.6031055627641549  0.7371127778456305  0.2537302557732722
  0.2521335982001708  0.2641841846983577  0.7323252208313310
  0.9648943640270284  0.1441980415667582  0.5897169369364343
  0.0561475788225330  0.3229516048446932  0.3098585166034424
  0.8000744100656351  0.3775292975910964  0.3789011195063224
  0.3887634488806330  0.4290155793004662  0.1739651773789854
  0.4381306543474514  0.2621770773356902  0.5041923318530055
  0.2514139669045873  0.9479284210807574  0.1770281055099132
  0.4259467215568763  0.2128564968760368  0.6953557375582567
  0.6876065782507973  0.0735596578856511  0.6965033667922940
  0.7296153709152166  0.2393490956294747  0.2758538902179974
  0.1977447768908984  0.7336136785181460  0.5169100302657031
  0.4660288960623433  0.6809462596564060  0.7423017304145494
  0.3243799369065894  0.0506409273844338  0.8875141376473967
  0.6785217405668409  0.3477335560355735  0.3386112774358677
  0.3739721319898931  0.3984847995299903  0.6444234998258892
  0.8148246812766127 -0.0064697029087116  0.9465343452893515
  0.4775720506768873  0.7907082647801769  0.6697829868726797
  0.0586109596815256  0.0811213747223890  0.1014526562581894
  0.3561801623270864  0.0995997998087345  0.3906174305319338
  0.8847841403942293  0.3725896197151758  0.0964824639741782
  0.4587810571445570  0.6750589628063267  0.3983478321858979
  0.7229418749164164  0.8521219794396138  0.1761544558764521
  0.3710306353948519  0.5123369654448058  0.4498571355060197
  0.6138096332450490  0.8057632054397684  0.9687409947773686
  0.8193434953102250  0.5076168016110386  0.0248516714628238
  0.0819929435314078  0.2233510252098694  0.6596787375668580
  0.4697900949232777  0.4998064497278525  0.0960820549469061
  0.5091317712090614  0.8568573822097415  0.4199800319303472
  0.3037927982938480  0.5086449253518358  0.1161534388965449
  0.7295452010196275  0.3654510576608179  0.1876680149431814
  0.6786391231466656  0.9369819238435410  0.5088473305918988
  0.6337196392367016  0.5391342192410581  0.7647569238032600
  0.8785497572041493  0.8037752467412421  0.9386786420035191
  0.0209073414315463  0.4536150249691995  0.6700753906040821
  0.6311603338287403  0.7682031595430208  0.6822015674014243
  0.4722314062028714  0.2462629593733483  0.1549892084563111
  0.5321673351929357  0.3044673673307771 -0.0142172719352750
  0.0170030974530633  0.2672669339449946  0.4713963637995810
  0.5084090993405146  0.1090946025106476  0.6894528925614397
  0.2022371154237545 -0.0079153112413694  0.9390920944764427
  0.0414096450703861  0.5374506515701103  0.0894763184225200
  0.8884594188259947  0.2339321275013307  0.8331144922952876
  0.9463808666070168  0.6026827879531604  0.5345407945231383
  0.6027752482100325  0.2929610042121888  0.1056082656296725
  0.3474236936506473  0.0965769698814327  0.7699618935854602
  0.2231586103732620  0.6240370026533613  0.8636877646044705
  0.9470906345133597  0.2014567756945658  0.0889731312556713
  0.1402028222516321  0.7105170159235668  0.6305134905578368
  0.2966355198473149  0.5319126623257077  0.9090990615730330
  0.9390919995265504  0.5623303377700588  0.2798939602862857
  0.9637817125856685  0.9336764223628267  0.3021197331803150
  0.6490939176254028  0.5676816661143281  0.6407815369535454
  0.1886874915805836  0.7630555859078245  0.2316358107016643
  0.7331004496481960  0.7593846295603301  0.2619555228126773
  0.2887936173542762  0.5874812570422366  0.2211795557408986
  0.5302681617405984  0.0958844055157635  0.4077023312804556
  0.0801415820012555  0.0431436720404898  0.4167836569839180
  0.6579093059866690  0.1269609448628842  0.8649156661681673
  0.5641841130832879  0.7845630561703887  0.1381688734002923
  0.7222332605466272  0.9404659809079494  0.6612545153698789
  0.1668373033648901  0.1131612182204011  0.9155225299016524
  0.6077613121977611  0.1788343714997035  0.7290029266999544
  0.0843513144563308  0.0442788730837593  0.5565616195674418
  0.2980847068940233  0.6573618663649343  0.7336696088499358
  0.2757781773698234  0.8420778686249272  0.8305379697438815
  0.6529950195863722  0.1374376386920829  0.5332137605545313
  0.5306840622035799  0.4315187903687447  0.5404380776724306
  0.0955677969131375  0.7999361704360649  0.0650698716606328
  0.3553683361024356  0.1483946816178721  0.9602141566690782
  0.0289056784431085  0.1763468140803398  0.7840829694415996
  0.9601997067378185  0.9213622715075512  0.6869781816661404
  0.4183091360851110  0.2025215120231772  0.8248863518164825
  0.4638937185825365  0.3209063735136066  0.8638700056656794
  0.1118413563519633  0.4761930314129448  0.5736587154150768
  0.5672337062189209  0.5424114773037081  0.3597738863649023
  0.9232622124810335  0.9207765817727170  0.9041552955352903
  0.7290260017204097  0.0386946692761342  0.1640735829653785
  0.2091239124995664  0.8661843786503208  0.5882890904739296
  0.8395235172616020  0.7702597498870621  0.1241419226327857
  0.4821637498325370  0.6008913611025491  0.8805617942581812
  0.6325753557046837  0.3683161953555384  0.9160556881815346
  0.2556634829255781  0.4524063538903652  0.6633701725886761
  0.4576139787074944  0.7863838313977741  0.3071273451661761
  0.7268097068508577  0.8306712970641849  0.5616907233847198
 -0.0255478909494545  0.7552249571420707  0.6803164439785333
  0.4824201984012649  0.8600526236409841  0.8303338521687396
  0.5553914765034601  0.9111347894833504  0.5345342688738183
  0.4863316116479749  0.9092154919027149  0.9556205070344458
  0.1991950998957387  0.1937123798215631  0.1780009446451020
  0.4909832174560381  0.5934369062428142  0.2278281302672312
  0.0274424435033192  0.5809580798569730  0.6847269279062369
  0.7113686807148657  0.0743821153028942  0.3684561612708201
  0.0853946876358603  0.5070776446516708  0.3984371872728785
  0.1397727982267333  0.3228381177141425  0.7171496594011227
  0.6359862764942700  0.9140292647288882  0.8199357216978208
  0.4921428626015457  0.5868787341279083  0.6553196712438015
  0.9100111377187230  0.6071791060354434  0.9034645294125587
  0.0780851023179995  0.7769353783856153  0.4901210503644521
  0.1832162055448104  0.4372870867098436 -0.0004755870559132
  0.3842706381289384  0.7829690565417196  0.8633978479788844
  0.3526555082260833  0.0907488218370404  0.1103281221780731
  0.8732579936131004  0.0727744936649979  0.0279676926147444
  0.5206017510428560  0.0434172468304595  0.8075690909007345
  0.8211475572765045  0.6548044756782876  0.3867387728015356
  0.3081146722578589  0.2760507437338786  0.8838056350101690
  0.8344103914002338  0.5200946025185121  0.8439841532431605
  0.6981216623600318  0.7713860490248702  0.8791020382041295
  0.4143138949697138  0.9442565491228233  0.4216844159262631
  0.2093477884900635  0.3092096922268199  0.9631580036074500
  0.5244842894512812  0.7349205281186741  0.5644096419856981
  0.0932158710617001  0.9278572633069337  0.9565350084338801
  0.0806532451056784  0.0257536493497194  0.2851421453860919
  0.2366200592075782  0.0772634751471627  0.3477260956205122
  0.0917200724273414  0.3293250324338716  0.8949838386791567
  0.2709465908920560  0.8599692776698302  0.0130904789316150
  0.6118902280814436  0.8927596022361970  0.2366328311985285
  0.9124576678306421  0.1897130499230698  0.4784569802927979
  0.8089651048807240  0.9475934856287588  0.4290847288700830
  0.5037286509603743  0.1622717291372516  0.5594075142750888
  0.9830866785272100  0.3928798455397619  0.8338722038615081
  0.4632627479602118  0.5896058619295300  0.4967783909790705
  0.3156998537147234  0.6909487736111013  0.9807825576292536
  0.1557134239927736  0.4574639264773186  0.8714414017085684
  0.3290116854277780  0.6573347912626022  0.3969920077833862
  0.3364653336474959  0.8927406882021762  0.2582149103420640
  0.2424774110043171  0.4369534559844458  0.3152917419019695
  0.6884454526551432  0.6147456164709859  0.9046466282223055
  0.7551900723817551  0.6511083367905294  0.5287107185551626
  0.2978545882505091  0.3652057415244135  0.7920367431173516
  0.7041672067837482  0.4299315784317387  0.7667852410709401
  0.3236091859189669  0.3180167700671802  0.2716145202017359
  0.7643641252994281  0.5053749862349336  0.3196803746277108
  0.6219051819981887  0.6232819388057951  0.1998012607995805
  0.6851166670694984  0.2738522247440719  0.4905113964643831
  0.9513386851513470  0.7405942866391526  0.3795699673849810
  0.4125306131173078  0.2660674145264176  0.0427390249009263
  0.7208812758414486  0.1007340316999427  0.9718206471381294
  0.1349696446598913  0.5675577864682457  0.7489510221740600
  0.7561647392378066  0.6051285247148143  0.0745860275662932
  0.2939294480269621  0.7801902086285709  0.4023072180096860
  0.8147999262729562  0.1052213793629410  0.2303828867222782
  0.3728054702249298  0.5411652813077488  0.6447764003652003
  0.1575085321006399  0.5696689971343064  0.0406177501856926
  0.8718895562319955  0.5851827881477626  0.6982608621165796
  0.9658436854856065  0.3575361044248711  0.3937354877568726
  0.8333527586475977  0.4069930601582498  0.6065706560560443
  0.9341078276193695  0.3081392359750257  0.9924591871676108
  0.3232065782765665  0.3566960112887097  0.0821197747555038
  0.4907828960480071  0.2639899992465641  0.3885424281640406
  0.7262297646474175  0.2786245965149316  0.6716068612466188
  0.9746580732977788  0.9085397898848793  0.4652969784012551
  0.2129562862892422  0.4232101296703829  0.1337779719799609
  0.7541367807723744  0.3997982558811963  0.0598712864455404
  0.1539106255845218  0.1303660998625678  0.7173460909817811
  0.6160646371580445  0.7227378008293489  0.4246717364600454
  0.1009220314998245  0.9115041947375142  0.5367646116290872
  0.3828460071653105  0.5335878474282845  0.2804153178389495
  0.6876949505977054  0.7434473144882958  0.0525506641572950
  0.5722738427008808  0.3487691401273530  0.8026264339019995
  0.1815419692745925  0.0478569148571143  0.0824998169276595
  0.4982064885325294  0.3153566194709947  0.6802850127478421
  0.8552716452325723  0.7627999698424227  0.6398369675179709
  0.3618154588995651  0.2101729649275961  0.2203346442429714
  0.0100541579485591  0.3854659501902969  0.1537508142245919
  0.3801703351600035  0.7607110769956534  0.1392038889592135
  0.9031144253784398  0.0313020648531480  0.5866800964039788
  0.7762166214914825  0.5724292053248223  0.2013878006959972
  0.4296684292008676  0.5047416458585563  0.8137935094641529
  0.3022648971143505  0.0539774062484895  0.2276491991284631
  0.9920482742456261  0.2626863517991479  0.2112069776322900
 -0.0116394702913946  0.3267846673572136  0.5830581185867597
  0.9239357392967664  0.0231196281534834  0.4570009148796546
  0.1820847485637124  0.7724047167436399 -0.0199273173345631
  0.5143345715707703  0.7223146086511859  0.9658758740755256
  0.1187817585437682  0.7174031357454717  0.7961781292478297
  0.2596457791057392  0.4091396136800048  0.4845184250119064
  0.1537831575598151  0.8917565948887174  0.7634703230729093
  0.3499800850028690  0.7945616593911473  0.6504254005059253
  0.1962350101419549  0.8875594524118965  0.3642553413133926
  0.7543560296464809  0.0684033875678976  0.8024123255496581
  0.9757640257766855  0.6458068432366640  0.0856795798303764
  0.6210787024537026  0.5303061049189526  0.0201241246319841
  0.0515674481033166  0.2109263404287171  0.9356299378914594
  0.5850530589086634  0.4530459204945900  0.1140478902688022
  0.3044058569891928  0.2859599339280804  0.6143957191005981
  0.9509356589707766  0.1445341996083172  0.2777020106246070
  0.7710687514645040  0.2283806573210910  0.0505046895867564
  0.7322312356158216  0.3935188860318598  0.4930945198593890
  0.8463223809074396  0.3980181033618039  0.2368544187001141
  0.5507688187404468  0.1759761900765660  0.9568174919448673
  0.5862733605360868  0.7000854451940484  0.7811692647424373
  0.4541968731582215  0.9570005549302925  0.6556286985494624
  0.8902756307872618  0.7577832685231216  0.5162208623735220
  0.7747279872102343  0.1277095096081156  0.5633043754633786
  0.9827628185438192  0.7339490246759418  0.9107374106537817
 -0.0146278170573384  0.0735017760506343  0.8979235963030497
  0.3110815280702362  0.9068019845417883  0.5133005919796045
  0.4904450324699661  0.9502179927850619  0.0877096759004671
  0.4548931006759656  0.4359010574532641  0.9828464482351528
  0.0157011576499327  0.7956508448151033  0.2085824256143714
  0.8876714776757120  0.4105971583963077  0.7216212119237386
  0.4814006362824935  0.9837788643523028  0.2718360998091248
  0.7803698868647287  0.8993186979407471  0.0243275158792047
  0.5456314370778035  0.3602808718342432  0.2479186072278850
  0.2518649479016627  0.0969572470251198  0.6415236761176403
  0.1948829124427705  0.6083617248127312  0.4834428480085526
  0.7943032865330898  0.9408406097321866  0.2355523816418997
  0.0928514105693219  0.2090583147590602  0.3574172550745813
  0.8021803795757808  0.3172349878518309  0.8591520150575819
  0.8782028154998294  0.2005727562172575  0.6673551980809612
  0.1452666490068526  0.2272823952799135  0.5414586291774305
  0.0557637041516615  0.9512205928546439  0.1355024579279963
  0.8962274269590488  0.0209327691564905  0.7285653407666183
  0.8298534921542952  0.7252154724824483  0.8016276208760813
  0.8284258015422132  0.2547092849658486  0.3548607163133348
  0.1440444426374495  0.7055596679116436  0.3327305438903919
  0.5784005411599482  0.1625522601859973  0.2468699018357081
  0.8635507050354956  0.8505688327321050  0.3087030133351409
  0.1196689394353392  0.5420235864285411  0.2205908144559498
  0.0984990980770039  0.2167495466143957  0.0539893659705724
  0.6972687937024893  0.8803015340267900  0.3935245610300446
 
  0.00000000E+00  0.00000000E+00  0.00000000E+00
  0.00000000E+00  0.00000000E+00  0.00000000E+00
  0.00000000E+00  0.00000000E+00  0.00000000E+00
  0.00000000E+00  0.00000000E+00  0.00000000E+00
  0.00000000E+00  0.00000000E+00  0.00000000E+00
  0.00000000E+00  0.00000000E+00  0.00000000E+00
  0.00000000E+00  0.00000000E+00  0.00000000E+00
  0.00000000E+00  0.00000000E+00  0.00000000E+00
  0.00000000E+00  0.00000000E+00  0.00000000E+00
  0.00000000E+00  0.00000000E+00  0.00000000E+00
  0.00000000E+00  0.00000000E+00  0.00000000E+00
  0.00000000E+00  0.00000000E+00  0.00000000E+00
  0.00000000E+00  0.00000000E+00  0.00000000E+00
  0.00000000E+00  0.00000000E+00  0.00000000E+00
  0.00000000E+00  0.00000000E+00  0.00000000E+00
  0.00000000E+00  0.00000000E+00  0.00000000E+00
  0.00000000E+00  0.00000000E+00  0.00000000E+00
  0.00000000E+00  0.00000000E+00  0.00000000E+00
  0.00000000E+00  0.00000000E+00  0.00000000E+00
  0.00000000E+00  0.00000000E+00  0.00000000E+00
  0.00000000E+00  0.00000000E+00  0.00000000E+00
  0.00000000E+00  0.00000000E+00  0.00000000E+00
  0.00000000E+00  0.00000000E+00  0.00000000E+00
  0.00000000E+00  0.00000000E+00  0.00000000E+00
  0.00000000E+00  0.00000000E+00  0.00000000E+00
  0.00000000E+00  0.00000000E+00  0.00000000E+00
  0.00000000E+00  0.00000000E+00  0.00000000E+00
  0.00000000E+00  0.00000000E+00  0.00000000E+00
  0.00000000E+00  0.00000000E+00  0.00000000E+00
  0.00000000E+00  0.00000000E+00  0.00000000E+00
  0.00000000E+00  0.00000000E+00  0.00000000E+00
  0.00000000E+00  0.00000000E+00  0.00000000E+00
  0.00000000E+00  0.00000000E+00  0.00000000E+00
  0.00000000E+00  0.00000000E+00  0.00000000E+00
  0.00000000E+00  0.00000000E+00  0.00000000E+00
  0.00000000E+00  0.00000000E+00  0.00000000E+00
  0.00000000E+00  0.00000000E+00  0.00000000E+00
  0.00000000E+00  0.00000000E+00  0.00000000E+00
  0.00000000E+00  0.00000000E+00  0.00000000E+00
  0.00000000E+00  0.00000000E+00  0.00000000E+00
  0.00000000E+00  0.00000000E+00  0.00000000E+00
  0.00000000E+00  0.00000000E+00  0.00000000E+00
  0.00000000E+00  0.00000000E+00  0.00000000E+00
  0.00000000E+00  0.00000000E+00  0.00000000E+00
  0.00000000E+00  0.00000000E+00  0.00000000E+00
  0.00000000E+00  0.00000000E+00  0.00000000E+00
  0.00000000E+00  0.00000000E+00  0.00000000E+00
  0.00000000E+00  0.00000000E+00  0.00000000E+00
  0.00000000E+00  0.00000000E+00  0.00000000E+00
  0.00000000E+00  0.00000000E+00  0.00000000E+00
  0.00000000E+00  0.00000000E+00  0.00000000E+00
  0.00000000E+00  0.00000000E+00  0.00000000E+00
  0.00000000E+00  0.00000000E+00  0.00000000E+00
  0.00000000E+00  0.00000000E+00  0.00000000E+00
  0.00000000E+00  0.00000000E+00  0.00000000E+00
  0.00000000E+00  0.00000000E+00  0.00000000E+00
  0.00000000E+00  0.00000000E+00  0.00000000E+00
  0.00000000E+00  0.00000000E+00  0.00000000E+00
  0.00000000E+00  0.00000000E+00  0.00000000E+00
  0.00000000E+00  0.00000000E+00  0.00000000E+00
  0.00000000E+00  0.00000000E+00  0.00000000E+00
  0.00000000E+00  0.00000000E+00  0.00000000E+00
  0.00000000E+00  0.00000000E+00  0.00000000E+00
  0.00000000E+00  0.00000000E+00  0.00000000E+00
  0.00000000E+00  0.00000000E+00  0.00000000E+00
  0.00000000E+00  0.00000000E+00  0.00000000E+00
  0.00000000E+00  0.00000000E+00  0.00000000E+00
  0.00000000E+00  0.00000000E+00  0.00000000E+00
  0.00000000E+00  0.00000000E+00  0.00000000E+00
  0.00000000E+00  0.00000000E+00  0.00000000E+00
  0.00000000E+00  0.00000000E+00  0.00000000E+00
  0.00000000E+00  0.00000000E+00  0.00000000E+00
  0.00000000E+00  0.00000000E+00  0.00000000E+00
  0.00000000E+00  0.00000000E+00  0.00000000E+00
  0.00000000E+00  0.00000000E+00  0.00000000E+00
  0.00000000E+00  0.00000000E+00  0.00000000E+00
  0.00000000E+00  0.00000000E+00  0.00000000E+00
  0.00000000E+00  0.00000000E+00  0.00000000E+00
  0.00000000E+00  0.00000000E+00  0.00000000E+00
  0.00000000E+00  0.00000000E+00  0.00000000E+00
  0.00000000E+00  0.00000000E+00  0.00000000E+00
  0.00000000E+00  0.00000000E+00  0.00000000E+00
  0.00000000E+00  0.00000000E+00  0.00000000E+00
  0.00000000E+00  0.00000000E+00  0.00000000E+00
  0.00000000E+00  0.00000000E+00  0.00000000E+00
  0.00000000E+00  0.00000000E+00  0.00000000E+00
  0.00000000E+00  0.00000000E+00  0.00000000E+00
  0.00000000E+00  0.00000000E+00  0.00000000E+00
  0.00000000E+00  0.00000000E+00  0.00000000E+00
  0.00000000E+00  0.00000000E+00  0.00000000E+00
  0.00000000E+00  0.00000000E+00  0.00000000E+00
  0.00000000E+00  0.00000000E+00  0.00000000E+00
  0.00000000E+00  0.00000000E+00  0.00000000E+00
  0.00000000E+00  0.00000000E+00  0.00000000E+00
  0.00000000E+00  0.00000000E+00  0.00000000E+00
  0.00000000E+00  0.00000000E+00  0.00000000E+00
  0.00000000E+00  0.00000000E+00  0.00000000E+00
  0.00000000E+00  0.00000000E+00  0.00000000E+00
  0.00000000E+00  0.00000000E+00  0.00000000E+00
  0.00000000E+00  0.00000000E+00  0.00000000E+00
  0.00000000E+00  0.00000000E+00  0.00000000E+00
  0.00000000E+00  0.00000000E+00  0.00000000E+00
  0.00000000E+00  0.00000000E+00  0.00000000E+00
  0.00000000E+00  0.00000000E+00  0.00000000E+00
  0.00000000E+00  0.00000000E+00  0.00000000E+00
  0.00000000E+00  0.00000000E+00  0.00000000E+00
  0.00000000E+00  0.00000000E+00  0.00000000E+00
  0.00000000E+00  0.00000000E+00  0.00000000E+00
  0.00000000E+00  0.00000000E+00  0.00000000E+00
  0.00000000E+00  0.00000000E+00  0.00000000E+00
  0.00000000E+00  0.00000000E+00  0.00000000E+00
  0.00000000E+00  0.00000000E+00  0.00000000E+00
  0.00000000E+00  0.00000000E+00  0.00000000E+00
  0.00000000E+00  0.00000000E+00  0.00000000E+00
  0.00000000E+00  0.00000000E+00  0.00000000E+00
  0.00000000E+00  0.00000000E+00  0.00000000E+00
  0.00000000E+00  0.00000000E+00  0.00000000E+00
  0.00000000E+00  0.00000000E+00  0.00000000E+00
  0.00000000E+00  0.00000000E+00  0.00000000E+00
  0.00000000E+00  0.00000000E+00  0.00000000E+00
  0.00000000E+00  0.00000000E+00  0.00000000E+00
  0.00000000E+00  0.00000000E+00  0.00000000E+00
  0.00000000E+00  0.00000000E+00  0.00000000E+00
  0.00000000E+00  0.00000000E+00  0.00000000E+00
  0.00000000E+00  0.00000000E+00  0.00000000E+00
  0.00000000E+00  0.00000000E+00  0.00000000E+00
  0.00000000E+00  0.00000000E+00  0.00000000E+00
  0.00000000E+00  0.00000000E+00  0.00000000E+00
  0.00000000E+00  0.00000000E+00  0.00000000E+00
  0.00000000E+00  0.00000000E+00  0.00000000E+00
  0.00000000E+00  0.00000000E+00  0.00000000E+00
  0.00000000E+00  0.00000000E+00  0.00000000E+00
  0.00000000E+00  0.00000000E+00  0.00000000E+00
  0.00000000E+00  0.00000000E+00  0.00000000E+00
  0.00000000E+00  0.00000000E+00  0.00000000E+00
  0.00000000E+00  0.00000000E+00  0.00000000E+00
  0.00000000E+00  0.00000000E+00  0.00000000E+00
  0.00000000E+00  0.00000000E+00  0.00000000E+00
  0.00000000E+00  0.00000000E+00  0.00000000E+00
  0.00000000E+00  0.00000000E+00  0.00000000E+00
  0.00000000E+00  0.00000000E+00  0.00000000E+00
  0.00000000E+00  0.00000000E+00  0.00000000E+00
  0.00000000E+00  0.00000000E+00  0.00000000E+00
  0.00000000E+00  0.00000000E+00  0.00000000E+00
  0.00000000E+00  0.00000000E+00  0.00000000E+00
  0.00000000E+00  0.00000000E+00  0.00000000E+00
  0.00000000E+00  0.00000000E+00  0.00000000E+00
  0.00000000E+00  0.00000000E+00  0.00000000E+00
  0.00000000E+00  0.00000000E+00  0.00000000E+00
  0.00000000E+00  0.00000000E+00  0.00000000E+00
  0.00000000E+00  0.00000000E+00  0.00000000E+00
  0.00000000E+00  0.00000000E+00  0.00000000E+00
  0.00000000E+00  0.00000000E+00  0.00000000E+00
  0.00000000E+00  0.00000000E+00  0.00000000E+00
  0.00000000E+00  0.00000000E+00  0.00000000E+00
  0.00000000E+00  0.00000000E+00  0.00000000E+00
  0.00000000E+00  0.00000000E+00  0.00000000E+00
  0.00000000E+00  0.00000000E+00  0.00000000E+00
  0.00000000E+00  0.00000000E+00  0.00000000E+00
  0.00000000E+00  0.00000000E+00  0.00000000E+00
  0.00000000E+00  0.00000000E+00  0.00000000E+00
  0.00000000E+00  0.00000000E+00  0.00000000E+00
  0.00000000E+00  0.00000000E+00  0.00000000E+00
  0.00000000E+00  0.00000000E+00  0.00000000E+00
  0.00000000E+00  0.00000000E+00  0.00000000E+00
  0.00000000E+00  0.00000000E+00  0.00000000E+00
  0.00000000E+00  0.00000000E+00  0.00000000E+00
  0.00000000E+00  0.00000000E+00  0.00000000E+00
  0.00000000E+00  0.00000000E+00  0.00000000E+00
  0.00000000E+00  0.00000000E+00  0.00000000E+00
  0.00000000E+00  0.00000000E+00  0.00000000E+00
  0.00000000E+00  0.00000000E+00  0.00000000E+00
  0.00000000E+00  0.00000000E+00  0.00000000E+00
  0.00000000E+00  0.00000000E+00  0.00000000E+00
  0.00000000E+00  0.00000000E+00  0.00000000E+00
  0.00000000E+00  0.00000000E+00  0.00000000E+00
  0.00000000E+00  0.00000000E+00  0.00000000E+00
  0.00000000E+00  0.00000000E+00  0.00000000E+00
  0.00000000E+00  0.00000000E+00  0.00000000E+00
  0.00000000E+00  0.00000000E+00  0.00000000E+00
  0.00000000E+00  0.00000000E+00  0.00000000E+00
  0.00000000E+00  0.00000000E+00  0.00000000E+00
  0.00000000E+00  0.00000000E+00  0.00000000E+00
  0.00000000E+00  0.00000000E+00  0.00000000E+00
  0.00000000E+00  0.00000000E+00  0.00000000E+00
  0.00000000E+00  0.00000000E+00  0.00000000E+00
  0.00000000E+00  0.00000000E+00  0.00000000E+00
  0.00000000E+00  0.00000000E+00  0.00000000E+00
  0.00000000E+00  0.00000000E+00  0.00000000E+00
  0.00000000E+00  0.00000000E+00  0.00000000E+00
  0.00000000E+00  0.00000000E+00  0.00000000E+00
  0.00000000E+00  0.00000000E+00  0.00000000E+00
  0.00000000E+00  0.00000000E+00  0.00000000E+00
  0.00000000E+00  0.00000000E+00  0.00000000E+00
  0.00000000E+00  0.00000000E+00  0.00000000E+00
  0.00000000E+00  0.00000000E+00  0.00000000E+00
  0.00000000E+00  0.00000000E+00  0.00000000E+00
  0.00000000E+00  0.00000000E+00  0.00000000E+00
  0.00000000E+00  0.00000000E+00  0.00000000E+00
  0.00000000E+00  0.00000000E+00  0.00000000E+00
  0.00000000E+00  0.00000000E+00  0.00000000E+00
  0.00000000E+00  0.00000000E+00  0.00000000E+00
  0.00000000E+00  0.00000000E+00  0.00000000E+00
  0.00000000E+00  0.00000000E+00  0.00000000E+00
  0.00000000E+00  0.00000000E+00  0.00000000E+00
  0.00000000E+00  0.00000000E+00  0.00000000E+00
  0.00000000E+00  0.00000000E+00  0.00000000E+00
  0.00000000E+00  0.00000000E+00  0.00000000E+00
  0.00000000E+00  0.00000000E+00  0.00000000E+00
  0.00000000E+00  0.00000000E+00  0.00000000E+00
  0.00000000E+00  0.00000000E+00  0.00000000E+00
  0.00000000E+00  0.00000000E+00  0.00000000E+00
  0.00000000E+00  0.00000000E+00  0.00000000E+00
  0.00000000E+00  0.00000000E+00  0.00000000E+00
  0.00000000E+00  0.00000000E+00  0.00000000E+00
  0.00000000E+00  0.00000000E+00  0.00000000E+00
  0.00000000E+00  0.00000000E+00  0.00000000E+00
  0.00000000E+00  0.00000000E+00  0.00000000E+00
  0.00000000E+00  0.00000000E+00  0.00000000E+00
  0.00000000E+00  0.00000000E+00  0.00000000E+00
  0.00000000E+00  0.00000000E+00  0.00000000E+00
  0.00000000E+00  0.00000000E+00  0.00000000E+00
  0.00000000E+00  0.00000000E+00  0.00000000E+00
  0.00000000E+00  0.00000000E+00  0.00000000E+00
  0.00000000E+00  0.00000000E+00  0.00000000E+00
  0.00000000E+00  0.00000000E+00  0.00000000E+00
  0.00000000E+00  0.00000000E+00  0.00000000E+00
  0.00000000E+00  0.00000000E+00  0.00000000E+00
  0.00000000E+00  0.00000000E+00  0.00000000E+00
  0.00000000E+00  0.00000000E+00  0.00000000E+00
  0.00000000E+00  0.00000000E+00  0.00000000E+00
  0.00000000E+00  0.00000000E+00  0.00000000E+00