W2 Se4                                  
   1.00000000000000     
    13.2797317504999999    0.0000000000000000    0.0000000000000000
    -6.6398658751999999   11.5005850513999999    0.0000000000000000
     0.0000000000000000    0.0000000000000000   13.7371873856000004
   W    Se
    15    32
Direct
  0.0807392584434208  0.1648991990979013  0.2481485698963510
  0.0814833447651862  0.4122970639031459  0.2554949533606258
  0.0847789627647097  0.6658028092955331  0.2504805661982191
  0.0844979551091210  0.9165060573942923  0.2498994082866626
  0.3367549710358678  0.1648817701202263  0.2514309159274887
  0.3392581068165144  0.6717993910039767  0.2478411806553646
  0.3345559125537712  0.9169151127210506  0.2497833030533707
  0.5849753177744439  0.1664646213083301  0.2491789607578405
  0.5831812890796414  0.4120786159360000  0.2444217010085173
  0.5848383590111363  0.6717359449583831  0.2527304645555093
  0.5853740798068027  0.9180661002224730  0.2501035433399849
  0.8340445018834518  0.1664073221671886  0.2507472453659053
  0.8346563679492298  0.4167501766062922  0.2500262417186144
  0.8334709816739381  0.6657736458011988  0.2495866539070402
  0.8349891708635069  0.9168541582645742  0.2502009922619845
  0.1681116402731545  0.0845542413853054  0.3711438553414012
  0.1630299830519286  0.3337649816190870  0.3741314810297608
  0.1709030107818985  0.5837114603239888  0.3719178845655602
  0.1678385804998718  0.8331502861104744  0.3720932759328703
  0.4192532293322030  0.0815811069469641  0.3723354247352401
  0.4107143329139977  0.3301535271581594  0.3634571995989144
  0.4238113861466533  0.5890835992353206  0.3711082754447108
  0.4191568321730152  0.8352386837587603  0.3725351303191897
  0.6676032451675518  0.0838066106328776  0.3724150152638023
  0.6662968483128772  0.3329264744133966  0.3710215197192943
  0.6638248376564577  0.5797665677047217  0.3694616707731671
  0.6709391609741024  0.8379373377496826  0.3733208303086397
  0.9174866960875985  0.0833976770134641  0.3731339428383392
  0.9131415050901656  0.3317691597853931  0.3740656327727178
  0.9175778268570177  0.5832350505159888  0.3721076957776891
  0.9173983257407597  0.8322680877519970  0.3719603578117140
  0.1689771542394193  0.0843588762086350  0.1284808673963284
  0.1715594210164498  0.3299824001049984  0.1359836569347460
  0.1685580369758163  0.5800100053950288  0.1306216392113566
  0.1674751338821189  0.8322235563118243  0.1280379074586117
  0.4185913782370187  0.0832071741189385  0.1266690501351689
  0.4235616778630414  0.3330792410237671  0.1250170424833002
  0.4170261255731583  0.5878658462603431  0.1303827681237629
  0.4196341843176210  0.8377429919479958  0.1268788525015886
  0.6687289800344968  0.0836671053927465  0.1275983466072545
  0.6713389771534694  0.3318159575963575  0.1258705752329192
  0.6650255278368846  0.5836633814974973  0.1282654870664721
  0.6685173016511610  0.8349978210113754  0.1276548552224364
  0.9146700790170533  0.0813823815067473  0.1275128452519300
  0.9191214676267536  0.3328975826539679  0.1289666935877590
  0.9181259673147394  0.5832334970638873  0.1279480207293805
  0.9177360960410331  0.8329621616078284  0.1278274981619474
 
  0.00000000E+00  0.00000000E+00  0.00000000E+00
  0.00000000E+00  0.00000000E+00  0.00000000E+00
  0.00000000E+00  0.00000000E+00  0.00000000E+00
  0.00000000E+00  0.00000000E+00  0.00000000E+00
  0.00000000E+00  0.00000000E+00  0.00000000E+00
  0.00000000E+00  0.00000000E+00  0.00000000E+00
  0.00000000E+00  0.00000000E+00  0.00000000E+00
  0.00000000E+00  0.00000000E+00  0.00000000E+00
  0.00000000E+00  0.00000000E+00  0.00000000E+00
  0.00000000E+00  0.00000000E+00  0.00000000E+00
  0.00000000E+00  0.00000000E+00  0.00000000E+00
  0.00000000E+00  0.00000000E+00  0.00000000E+00
  0.00000000E+00  0.00000000E+00  0.00000000E+00
  0.00000000E+00  0.00000000E+00  0.00000000E+00
  0.00000000E+00  0.00000000E+00  0.00000000E+00
  0.00000000E+00  0.00000000E+00  0.00000000E+00
  0.00000000E+00  0.00000000E+00  0.00000000E+00
  0.00000000E+00  0.00000000E+00  0.00000000E+00
  0.00000000E+00  0.00000000E+00  0.00000000E+00
  0.00000000E+00  0.00000000E+00  0.00000000E+00
  0.00000000E+00  0.00000000E+00  0.00000000E+00
  0.00000000E+00  0.00000000E+00  0.00000000E+00
  0.00000000E+00  0.00000000E+00  0.00000000E+00
  0.00000000E+00  0.00000000E+00  0.00000000E+00
  0.00000000E+00  0.00000000E+00  0.00000000E+00
  0.00000000E+00  0.00000000E+00  0.00000000E+00
  0.00000000E+00  0.00000000E+00  0.00000000E+00
  0.00000000E+00  0.00000000E+00  0.00000000E+00
  0.00000000E+00  0.00000000E+00  0.00000000E+00
  0.00000000E+00  0.00000000E+00  0.00000000E+00
  0.00000000E+00  0.00000000E+00  0.00000000E+00
  0.00000000E+00  0.00000000E+00  0.00000000E+00
  0.00000000E+00  0.00000000E+00  0.00000000E+00
  0.00000000E+00  0.00000000E+00  0.00000000E+00
  0.00000000E+00  0.00000000E+00  0.00000000E+00
  0.00000000E+00  0.00000000E+00  0.00000000E+00
  0.00000000E+00  0.00000000E+00  0.00000000E+00
  0.00000000E+00  0.00000000E+00  0.00000000E+00
  0.00000000E+00  0.00000000E+00  0.00000000E+00
  0.00000000E+00  0.00000000E+00  0.00000000E+00
  0.00000000E+00  0.00000000E+00  0.00000000E+00
  0.00000000E+00  0.00000000E+00  0.00000000E+00
  0.00000000E+00  0.00000000E+00  0.00000000E+00
  0.00000000E+00  0.00000000E+00  0.00000000E+00
  0.00000000E+00  0.00000000E+00  0.00000000E+00
  0.00000000E+00  0.00000000E+00  0.00000000E+00
  0.00000000E+00  0.00000000E+00  0.00000000E+00
