Ge Se
 1.0000000000000000
    20.7178869700586894    0.0000000000000000    0.0000000000000000
     0.0000000000000000   20.7178869700586894    0.0000000000000000
     0.0000000000000000    0.0000000000000000   20.7178869700586894
 Ge  Se 
 150 150
Direct
  0.2235933701489287  0.9631272585296604  0.9847156087627892
  0.3220066389801866  0.5813413712221774  0.0137934269268383
  0.2715321909097211  0.5659929324330503  0.7573161299062514
  0.6657905818259673  0.0382868958183989  0.4114910411626717
  0.2911180512142216  0.5956506393646495  0.5916595166155246
  0.0807370588717553  0.9056424657165146  0.3919397553300290
  0.1308838992083911  0.3208930302403888  0.3226279914385046
  0.3935552463329662  0.1045274073137713  0.4162957111632301
  0.3679537069111834  0.8144753330485131  0.7684713418414262
  0.0186956059061318  0.9866634024764204  0.1157422121988344
  0.1460236260759671  0.1117876689522956  0.8594254585775242
  0.3291039872866285  0.2670753391982776  0.4469203883282781
  0.9030186981441478  0.3394541243594823  0.5744273857270825
  0.4803820594437680  0.3116061362497969  0.9257572086245274
  0.8513357624496217  0.9843161534509631  0.8176004080184445
  0.2835102135892848  0.0233468152760479  0.6317644033349470
  0.9603094190422471  0.5389081312266842  0.2884750659484397
  0.3494093273344803  0.0851450431479501  0.9133437052411140
  0.7105052605641424  0.2270844863088213  0.7657383995253576
  0.1186276802046400  0.2079672254331154  0.7197187291131244
  0.7689137759570890  0.3065048809841061  0.6183711895192229
  0.1234255024991458  0.9331476529406529  0.8453193100874606
  0.5913565610096237  0.9324585551566640  0.6484173004425819
  0.4123471458429239  0.7918714661253664  0.4538798610876562
  0.8021759875424652  0.1766557335354375  0.8490075631467823
  0.7880879726584272  0.0422083584712946  0.2534317711834262
  0.6403061614908705  0.6520704239541341  0.2457093972641545
  0.7197839370178665  0.6754152694347073  0.9983140186975066
  0.0319057914040800  0.3981802903897506  0.7980815115892662
  0.0184761052395545  0.1404551614846346  0.4120571857708044
  0.1451477983418828  0.0077028617942860  0.5374177157202851
  0.1063469944200472  0.7730796655637238  0.9370338330378973
  0.6824442536265053  0.5433935539019937  0.6161411730090078
  0.9564707592351472  0.8728566135211796  0.2470497936105643
  0.6740504912582038  0.4355569215644986  0.2736874507614874
  0.7975811463727274  0.6957103936724088  0.3108493636106441
  0.4400041202644990  0.6411861315392806  0.3307747812266681
  0.6569148871054703  0.8644230729650162  0.0486365926919209
  0.8127965522901150  0.2165837812748376  0.0126092772094731
  0.5899685150162480  0.2086044477530885  0.3607580479033199
  0.3631463875091644  0.1961767151193453  0.6496094451837757
  0.9699733983027456  0.2535670311162586  0.9891238073465535
  0.7813879047315866  0.6785128609068852  0.6130519786286883
  0.3633801690722649  0.9232481771738238  0.3293900903051731
  0.1623694214019776  0.6251703196720022  0.4412016477940127
  0.6575359962957367  0.1642878168472969  0.6118548985386270
  0.7560429353937936  0.4794858584930227  0.4412956361434430
  0.0782043918060535  0.3098983752193823  0.4406067642512164
  0.4615635114632982  0.1810397631486535  0.7731841554667302
  0.0621198982241747  0.1729816831793367  0.5712891641461867
  0.0166868474810981  0.7613146607467624  0.1397116368181345
  0.2517535537064099  0.0126444482672674  0.4652423542965539
  0.6235059631645151  0.1470691714074627  0.9339961125362383
  0.4259473749786078  0.9384681477459050  0.6549050185286133
  0.0001624518950636  0.5342559000344158  0.4718087860082725
  0.1054454058542347  0.7660151565135720  0.3729796021750431
  0.4174026001057724  0.2517814412028923  0.1149600301151393
  0.9346468458865786  0.2260511888479877  0.1424671403153059
  0.9207976135582692  0.3729272005955979  0.4480428285671695
  0.4301162060049002  0.5850206354304512  0.4428326978160946
  0.6910801111470414  0.1958374305190307  0.2228100339900118
  0.0191309200872080  0.9743175208539532  0.2880385798331776
  0.1555561667392797  0.5445312896196403  0.9050859823252950
  0.8669673695950817  0.7106648188243442  0.9400074717149030
  0.5151238055996484  0.9699571022393253  0.8196984052738026
  0.3275858561159422  0.9476812547715324  0.1182265973137058
  0.8432338797507452  0.7689177990507626  0.6764268812863545
  0.8911067845230021  0.6335234133176091  0.7848141489283326
  0.6127193399763992  0.1596256275931711  0.0595748954410143
  0.4621093045751316  0.1054237221757472  0.1947847589781772
  0.1820474093449172  0.4795120049818408  0.4331596626127640
  0.3706206444265705  0.3166910491152957  0.2304220771596611
  0.5368691539863388  0.4955264238499182  0.4054257556351658
  0.1648368361568644  0.8849742276563863  0.1587728895689926
  0.7277756892771235  0.8707917514017064  0.1609451796324070
  0.0213050882379029  0.8537286097545446  0.5517816163646933
  0.4521058645380507  0.5794538809556017  0.1788632612657556
  0.0996567204456638  0.2585849525939770  0.8352396837094521
  0.4986164397425872  0.4246088045906101  0.7071779188280076
  0.4354152676398371  0.4704901964224003  0.1211221136415386
  0.5833294031126652  0.0304346573041572  0.1997004142352592
  0.2932901375889100  0.3169524580132120  0.3332743039856656
  0.8771075325520286  0.2153565267755373  0.4691304621965735
  0.1992650638535801  0.7022473991206829  0.7205794452675165
  0.8691620128068007  0.5707523883632087  0.9292640879749651
  0.3154576641645557  0.1327820836157505  0.0626302721834149
  0.5703558744710405  0.6054150366843356  0.0623848711921194
  0.9066256079659840  0.9497845329708475  0.6689553997485073
  0.7088684141015177  0.6001856805170501  0.1534925016530772
  0.0359090360457687  0.4478260941093317  0.5606109516277131
  0.1043138594743418  0.3975354611164127  0.6930892272340321
  0.5668121400107597  0.3640813245530817  0.7966529716014396
  0.5190962247039199  0.5922278631856654  0.7556448880440847
  0.7547723130548435  0.0004304922607643  0.9473580118650681
  0.6034256919186477  0.3802102681313009  0.5727779641403451
  0.5687011391184660  0.7996155382033668  0.3625113169530302
  0.5706236841182317  0.5626566394944946  0.5589321568717486
  0.2161719636984444  0.9101615255094030  0.6655178831666799
  0.8740682776274796  0.0010463929082792  0.3399950883108832
  0.2164227484434093  0.4978374167648421  0.6413372917422746
  0.9505548176057170  0.1764504500523223  0.7511565862141546
  0.9530124079996400  0.4857022844338596  0.8608193391427446
  0.8853003304104832  0.6125027831428531  0.1358534972252543
  0.6229498007519750  0.9401821888569181  0.4782241902525415
  0.2324257848765722  0.8696657379219672  0.8609273511230798
  0.6925977813633836  0.5228803388905308 -0.0105277430229837
  0.6827825270233110  0.8267760797592323  0.9283613916707026
  0.2124833447716956  0.2665344022766602  0.1579986759620171
  0.8226733602047311  0.6080597977103606  0.4602043023875514
  0.6576054449804446  0.9832347439407956  0.0205371450580317
  0.9259377902642191  0.5873657824075642  0.6080732903990890
  0.2133502497811667  0.6888090798363679  0.8439637915425151
  0.9303124723990808  0.8146596964445254  0.7968814567749924
  0.5144935830282602  0.8990886337453183  0.5387670150016453
  0.8728319522224314  0.7983561298458588  0.3695313595959015
  0.7604710003857776  0.9212753770490297  0.5784342045749684
  0.5214234605880466  0.9945564670653105  0.3530287929734410
  0.0466729238072130  0.3801603595667116  0.9717641692464050
  0.3910234698020968  0.3789653858690667  0.5797776311531819
  0.2287512402615726  0.1549154990872560  0.7360844284959819
  0.1035568290868961  0.3169966164740301  0.1387780136147666
  0.6661693246008139  0.0584162410842891  0.1155268929432343
  0.7256510421032291  0.6650298951776243  0.8256325654600066
  0.2876411179678870  0.0618843886856270  0.7974993619705609
  0.8280007041640600  0.1539833147371864  0.6593638873376527
  0.7836199306166023  0.3293061604139388  0.0547431686271424
  0.1847098922554436  0.7553272205131482  0.5173169312820920
  0.4380538629791689  0.7211653071373850  0.6039548752285019
  0.9518242462901194  0.0012424795075483  0.4828295556615667
  0.1189654805802340  0.6548900425805135  0.1935726208853161
  0.2665937307208098  0.4461474407770560  0.0337105521914150
  0.5150578770615704  0.9770355601058025  0.0757555209306924
  0.5684515127927952  0.7759566940022967  0.8022941559639619
  0.7610883447133379  0.3471896366842483  0.3108584745783926
  0.3343255395692690  0.4973671675539028  0.5084211225412512
  0.9557715653443352  0.4768903882079636  0.1016093336662333
  0.0098689726561155  0.6397619636189400  0.0169365848219514
  0.8935200948220812  0.1987994265994556  0.2795784786532983
  0.6117010488721718  0.9114392875726026  0.1942954957625487
  0.4787476374561909  0.3162095299326484  0.3754157593986510
  0.6264921455917776  0.2787483660059586  0.0836393649846759
  0.5033685701187344  0.3143515156450123  0.2134670382356793
  0.6535016857446272  0.4102144312439950  0.9283458408570281
  0.7825357988210936  0.9953641971211885  0.4287864265713211
  0.6405914174153062  0.9111801791023346  0.8281480946776010
  0.4604206468442268  0.0484433973141401  0.5089034231742472
  0.1062160249826754  0.3448486716007874  0.5768171159187546
  0.3134418644809125  0.4411846277185336  0.8555732206482729
  0.5381236125147379  0.1419394117870153  0.6714113900757802
  0.3637823717685168  0.2430890142068254  0.8185001291158198
  0.1194300496752344  0.0164692287631992  0.9346189545286987
  0.8261345785279914  0.0172554817253638  0.5371469950619426
  0.0651010835202070  0.6606960893155807  0.3050765147591736
  0.8473502025264823  0.2694525270877171  0.9126815508418828
  0.0025336522047765  0.9744677779725723  0.5928295104491154
  0.1031635718009685  0.6587197058137700  0.8808567117087762
  0.8250100338273821  0.2627094234014243  0.7246888614508871
  0.1181832391275501  0.1974968188557701  0.4618044641245042
  0.3647227471083454  0.6277072014532358  0.2427643652689429
  0.1102420301501206 -0.0176772424006985  0.2006334640210765
  0.9456350514081650  0.4315328017244547  0.6376112302905657
  0.7208610439657058  0.1150553168595285  0.7066605219517966
  0.8843065027083745  0.5167332848891237  0.5124628991047113
  0.9620411530772792  0.8737082775941375  0.1268853389247230
  0.9833728202805369  0.4520437583009689  0.3808121108780067
  0.1014947066290536  0.1950407532312429  0.9331664468456763
  0.2489607688976299  0.0301738527149726  0.0938632073246846
  0.3164864906095887  0.6659331103571957  0.6901036529768990
  0.0790823486182654  0.0308400070394915  0.4348844770232124
  0.9844749959045762  0.2861955077064118  0.8212879616821175
  0.4397712948799907  0.9570476226004737  0.9835832345957757
  0.3191887599134473  0.2815162940327345  0.5747607508048040
  0.4878628184721371  0.6109695968654154  0.6327429326622522
  0.1979076537064622  0.5522991092931707  0.0190496743500132
  0.2327385373309786  0.4279449406598864  0.5366488245672915
  0.3685332158165728  0.4758940689390232 -0.0361508971007712
  0.3314593206307345  0.8612097993287514  0.6558481538024101
  0.5180717239896012  0.7775240787479964  0.5198495051915756
  0.2067305877375325  0.1849539378961650  0.0779284872213697
  0.4798278982005586  0.8693374549262241  0.7453390802988948
  0.6596792640944350  0.2975848337675594  0.9722179708340662
  0.9013722701059365  0.1070950552634333  0.8424985996508966
  0.3647735674454542  0.8835999345134058  0.0285128107346908
  0.2898801271905475  0.6066120463038900  0.8716267202392622
  0.0366439396593469  0.5009457926379738  0.9506726138850156
  0.3011983668517100  0.3394092317504366  0.1358946322117146
  0.8879691933152719  0.6208561644625847  0.3542585419356214
  0.3514744616824875  0.9924058046901177  0.5360198405391986
  0.7735874132898891  0.1992194940519220  0.5564303052072952
  0.9493191785641008  0.7250156978705367  0.7189033061877839
  0.3509097414474120  0.1606739289972374  0.1762868720771698
  0.8612506157499059  0.9614325084786179  0.9381826794445987
  0.4573323859567885  0.0930802027632906  0.8544669345664382
  0.2124198532582077  0.4102174605104492  0.3280992603069861
  0.6160720549564733  0.1338226569151007  0.4534236910152131
  0.4081562425850055  0.0406004131220346  0.3150855325851557
  0.7151369071282286  0.3057439196938555  0.1583021856784804
  0.9081949224451580  0.1530109926065988  0.0436043019882081
  0.4051020609451769  0.3526698572378253  0.8342321176371897
  0.4822216823770855  0.6963537744389543  0.8006528191785482
  0.4881987045598477  0.3267361348086756  0.6354630025265895
  0.4503996137967909  0.7597382668776772  0.3402949543159917
  0.9704587755043169  0.2780768351678907  0.3906603444500340
  0.0715624958347671  0.7213498906330631  0.4822551742095779
  0.8822539565166968  0.6874948246693544  0.5427624615507856
  0.6826007720014092  0.3774921482727756  0.8172965618777113
  0.9570827806260509  0.0398849144796574  0.2092026931252112
  0.7566989149355123  0.5515431137602943  0.8834991563788877
  0.7225998583559987  0.0068177710499209  0.8343960021107804
  0.2774057044671539  0.5527094310606504  0.4149953275845893
  0.2778322436220770  0.1185758694190347  0.4214907829461558
  0.6519301258627216  0.2776883761512143  0.6626000880224472
  0.0575181186055396  0.1141312834372173  0.7646544974830086
  0.2795420043737981  0.2637495058205987  0.7425221878192544
  0.4620920933604688  0.1509464804262874  0.5792538267702502
  0.3959790065394280  0.3735221676411182  0.4488965507650733
  0.6703170888068929  0.0569632425210908  0.2902490856664310
  0.5989114439099023  0.5172009778548206  0.1272484753783041
  0.8277009762039176  0.5889718129862659  0.6840927967452779
  0.6535425258168422  0.0073867991567466  0.5736189186269286
  0.3179882060135275  0.5144590766135358  0.1235461470418838
  0.5638527276880354  0.2866318615688045  0.4492138244334498
  0.6354339131700895  0.7658210382617535  0.2661011814557835
  0.6488993558768275  0.7377769162506779  0.7195213976957888
  0.2366220549945453  0.7706974704068852  0.9287028236907838
  0.1367041153421245  0.8893912920091485  0.5060196508046835
  0.7682796842652584  0.9918600009594409  0.1450376596967933
  0.7803268119651395  0.7882121870632901  0.9899279038272454
  0.7213828660036204  0.4474184521518191  0.5518010575364972
  0.3405820564711775  0.9062169982456861  0.8433939974309311
  0.5328506795096550  0.3461973738135363  0.0982128709815157
  0.4370347368477003  0.4179134818388032  0.2362446550207304
  0.2117956506057514  0.2387710424885085  0.2773283983209087
  0.9060851648205910  0.3284227247611403  0.0789826342987991
  0.6191480143963572  0.4536334122095743  0.6731778974446491
  0.4513241115521692  0.9220631687781567  0.4242175817785680
  0.7476772410423146  0.1266619889273663  0.9561873089967864
  0.1574160132600994  0.5917557021002161  0.2887478799669817
  0.2568180335035841  0.9328378414232296  0.3800447604226743
  0.8858878652308821  0.4902546478161053  0.2057930915523246
  0.1267951477772040  0.3706926638367621  0.8732263631009060
  0.5526223396500926  0.6135338815377267  0.4497082324787684
  0.7322546305964823  0.8858618490642345  0.4582215514410207
  0.4961102985480224  0.1499213652670681  0.0819848130484896
  0.5181007795588718  0.4626143990384387  0.5236010687613705
  0.8477577870457049  0.1374489321288122  0.3828245077049734
  0.3704764096402567  0.4997660058172752  0.7647703925066407
  0.0074345323064364  0.2777897856242478  0.6035370280796826
  0.9122227781874254  0.7124819148464629  0.0521192408067733
  0.0524117189928334  0.3467680497718078  0.2385753101724735
  0.9709508980849032  0.8757569358410591  0.4395755007815936
  0.2173543782002419  0.4143217873717207  0.7254732652862533
  0.4295611455387137  0.9838711375082986  0.1657490281206159
  0.5354193338360788  0.4210794432177215  0.9006617599066447
  0.3231351334079141  0.2029565344224913  0.9186329357576415
  0.8790918425378592  0.8510725546230766  0.5995964886743858
  0.6401358844734749  0.7154899745047701  0.9082559315626335
  0.5469745378173524  0.8603290681023302  0.1033652926620795
  0.5629549228092425  0.0271903322387131  0.7218930806802076
  0.4091583061656208  0.2109762412700149  0.3624044416716272
  0.3763587387685179  0.6769518382964839  0.5044489843536585
  0.0158042304446008  0.5861013667826571  0.1289456499043943
  0.9521175561246978  0.7603265619107380  0.2859667058982520
  0.2553381137586646  0.1394025044240223  0.6156904257868854
  0.1919060966857248  0.9955807023085410  0.7584816358304268
  0.1127878071435091  0.4086873281158757  0.0698059832110332
  0.5462088752754666  0.2483501878080487  0.8358838362728525
  0.8423068378169922  0.8874912319278820  0.2869958702155790
  0.9556706433727548  0.7876593382126060  0.9060865240325627
  0.6478388881741244  0.4411796764414005  0.3927175180441170
  0.8009061167280321  0.3615637251436737  0.4266821067599905
  0.1915851242810770  0.8195212984093185  0.7551537887338750
  0.1440776452885313  0.8903661414244962  0.0442264605132849
  0.7557064469280502  0.5294134993520978  0.2728509146791617
  0.3720385771550604  0.0410823010681571  0.7111998212604527
  0.2766644893991215  0.8738674965340211  0.1919876223742489
  0.8524276228325215  0.5285406820601541  0.0438014524025289
  0.7890541662682742  0.6969681720374351  0.1937512698954854
  0.6428061423081638  0.6977082055177876  0.0898743425278338
  0.9861719619151935  0.5625370544227362  0.7761682807343960
  0.7046723399494752  0.6106678040228810  0.3404613042919800
  0.8568320850313874  0.3139830731483894  0.2549631860446933
  0.5887091819559941  0.5739656610341239  0.9518046052909872
  0.6422935625255177  0.6214945090012490  0.7436002239159025
  0.4683003640294749  0.6538825812486622  0.0882543587887342
  0.5344209342391559  0.5913355072216274  0.2713564524280284
  0.8163502641192413  0.8265205565966794  0.7793195876265688
  0.2196956203389841  0.7280948810947814  0.3994072364599139
  0.0950746609848128  0.5119003451137158  0.6489136937289660
  0.9866465865723416  0.9058711034152743  0.7554145947710836
  0.6779974444449925  0.8798958550331526  0.7163821349855524
  0.0950196833704622  0.7247621498128805  0.0486073271591532
  0.8041675183418960  0.1497756868007090  0.2026280829732758
  0.0482576824289513  0.2233813465962205  0.0937909707108753
  0.7109274768843995  0.2404930337346022  0.3348821465252133
  0.1827236018552946  0.6337677123625511  0.5643292309151390
  0.9564855561109312  0.1326979688601039  0.5205557548212383
  0.1157057982536725  0.7969704026217702  0.2144323162116090
  0.5832044574556230  0.0287320208310951  0.9429734271759403
  0.5352259478017891  0.8909073394731293  0.2846405310793765
