Sn1 Bi4 Te7
1.0
   2.2134152800000000   -3.8337466500000001   -0.0000000000000000
   2.2134152800000000    3.8337466500000001    0.0000000000000000
  -0.0000000000000000    0.0000000000000000   25.1636338500000001
Sn Bi Te
1 4 7
direct
   0.0000000000000000   -0.0000000000000000   -0.0000000000000000 Sn
   0.6666670000000000    0.3333330000000000    0.1563394000000000 Bi
   0.3333330000000000    0.6666670000000000    0.8436606000000000 Bi
   0.6666670000000000    0.3333330000000000    0.4188121400000000 Bi
   0.3333330000000000    0.6666670000000000    0.5811878600000000 Bi
   0.0000000000000000   -0.0000000000000000    0.5000000000000000 Te
   0.6666670000000000    0.3333330000000000    0.9257024500000001 Te
   0.3333330000000000    0.6666670000000000    0.0742975500000000 Te
   0.0000000000000000   -0.0000000000000000    0.7762978200000000 Te
  -0.0000000000000000    0.0000000000000000    0.2237021800000000 Te
   0.6666670000000000    0.3333330000000000    0.6489025100000000 Te
   0.3333330000000000    0.6666670000000000    0.3510974900000000 Te
