Amorphous Sb                            
   1.00000000000000     
    19.6678869700586887    0.0000000000000000    0.0000000000000000
     0.0000000000000000   19.6678869700586887    0.0000000000000000
     0.0000000000000000    0.0000000000000000   19.6678869700586887
   Ga   Se
   150   150
Direct
  0.2846865212303464  0.2257398395184777  0.9177764727515729
  0.1505512447978751  0.9052348036380264  0.5012156485032037
  0.9513924623769948  0.1808699180329444  0.2844685790174576
  0.0050321433722191  0.6082959919845754  0.7193008554737763
  0.6160816831188241  0.5769796780343059  0.9140397495822381
  0.4923688453291932  0.7432565386753074  0.9563390777382860
  0.9115702246006671  0.0084838476040022  0.0094908690100050
  0.6678122218688982  0.8761006787059702  0.4009519136741439
  0.1861658231409680  0.1929316263616606  0.6060702560503859
  0.7318153342230413  0.8559611613524440  0.1097598797525468
  0.3332921344639453  0.0505719443445753  0.3523941987495449
  0.7884611669282119  0.3355363833614564  0.9672679968365304
  0.5848569222467471  0.0409283293298082  0.3649737718766134
  0.2921497559424311  0.5373683153937688  0.6263533589147672
  0.6085492135137368  0.2276362315857139  0.0604398337607864
  0.7179673652265645  0.6821903502841336  0.1937914659604141
  0.0236562289502989  0.2986930825908500  0.3651295331896016
  0.0184325756303858  0.0254289021139863  0.4242475848926800
  0.5977046455235345  0.4800500218685980  0.1193258246698631
  0.4456985759017203  0.5510545969029994  0.1806200242620236
  0.5343167866100978  0.4405616706246142  0.8180099253149758
  0.0598169969659884  0.7531281004046725  0.5440473964602877
  0.9679942572867585  0.2447916666666667  0.1185976908847811
  0.4307852661425223  0.9135633825928043  0.8984103550923278
  0.8832996810424920  0.1695716557372537  0.3885004311162640
  0.4108740728702296  0.5184128224472245  0.9705828738648383
  0.5258625154323403  0.1258234788017286  0.6858227617479790
  0.5221530939874526  0.4947665991500412  0.3422046316962513
  0.4042335646693914  0.2589985603274809  0.0954814010420576
  0.7098914248555868  0.7179644465531737  0.0054778820482556
  0.6096153685468528  0.9050378990538113  0.7133000515764131
  0.8633633280022868 -0.0077491865234012  0.5001206232228368
  0.7526872112404631  0.5231710798152395  0.3094832967202412
  0.2426347637727504  0.5238215541648318  0.0150081884971973
  0.4781221658404433  0.3286392009263434  0.7070147627217986
  0.6766317054765738  0.2317800963006100  0.7114767497233725
  0.4900764778133517  0.2827926275952207  0.9244934190906726
  0.9633462234118932  0.1343538784177488  0.6190297639427045
  0.4465483999869859  0.6249597128698976  0.5750276552908611
  0.1023312217113626  0.1201506209213147  0.4185885679841899
  0.9866393371583012  0.6492300946916714  0.4142666022017286
  0.1136325623313688  0.5629177822935240  0.5596794878045553
  0.1637469781788390  0.3693709709051187  0.5374001860037987
  0.4881582431590093  0.1582584494245240  0.2372267430192029
  0.8244059396572112  0.0832000757272681  0.1685673539089127
  0.7527663231917346  0.4325587719281411  0.1725574114603625
  0.5260580406260751  0.0625625522219446  0.0103758605416182
  0.0980661006679752  0.3214028318409325  0.2316145901064812
  0.9208172272572089  0.8118763625505859  0.0271399320409901
  0.4396492126374278  0.9534000729503149  0.6408368425434862
  0.8475776349980316  0.7890895574517477  0.2627407450256045
  0.9288786797541639  0.6545452519798770  0.8916373587923067
  0.3337231444251348  0.8410354563001241  0.3393729503435649
  0.9204781213483311  0.9652947369949469  0.2468847232518345
  0.6893977209512954  0.7564650219509635  0.8862125939608035
  0.2895604699308181  0.0745430248729597  0.0773131882584840
  0.6417114441488845  0.6761962822989878  0.7151349069707308
  0.7859923177268529  0.3529570477654544  0.3760235236856411
  0.9679316875135966  0.7840803194195272  0.7438387031817569
  0.5922197012392928  0.6855236287875549  0.1745001652779478
  0.2594387207272342  0.9841854733136450  0.2181713157717159
  0.9321476560777312  0.4794228160516508  0.3663814971151771
  0.6904459356552743  0.3157777844329810  0.8881432036388184
  0.7942437556072522  0.1117379529945143  0.7563898098305905
  0.6517060316053412  0.3927791930072141  0.7947892503232270
  0.4384852812193640  0.3935790827866731  0.6046481583751130
  0.1598965148481019  0.8339566976978885  0.1515430842173853
  0.1743306319685979  0.7472572095982997  0.7042439008433036
  0.9157043083907268  0.5482677551033084  0.5432945603625010
  0.8255253612029371  0.3672248419337246  0.6524093678137721
  0.5622863939015018  0.6847199130550624  0.5619163883947405
  0.3059271690650398  0.4056293258158358  0.1415549754482152
  0.5220769715108809  0.5144488846055560  0.7140206719860794
  0.0080575806009844  0.2721114032834594  0.4871749838090084
  0.3167568175173047  0.8115339273178812  0.8028260839275347
  0.1519742502151312  0.4768193824233790  0.0903751860631963
  0.9704631816346446  0.9845772108028638  0.8226824300326430
  0.4770071258274244  0.2473317527777155  0.5262950353427127
  0.8733695460098414  0.9608566088500216  0.6607596370063108
  0.0063850054440299  0.6387564086801238  0.0816280651770949
  0.1556903324554393  0.2165869996707897  0.7848872670617189
  0.1580166381787101  0.4883106810462252  0.7519135320637841
  0.4541426501750424  0.6052138727047358  0.3495257135240276
  0.7019932469110738  0.4206683559082534  0.4382770317428090
  0.2790860101258743  0.2091657861307389  0.4428979994883950
  0.7017534313295501  0.0388838978486936  0.6695438892383803
  0.9739312963019644  0.3958366119740941  0.9687233669212725
  0.9697810152140788  0.8935460044320829  0.6064539970773558
  0.2239393241428844  0.8437650795825843  0.9582926630423180
  0.8553136739322558  0.4352711573380817  0.5482245547155717
  0.7049077138464668  0.9649898112765325  0.7850101887234675
  0.3383837737150409  0.2122790407461810  0.7595749230863689
  0.2793854183025977  0.6439455846763705  0.8631925024824726
  0.6643605124045200  0.1082220546260009  0.8915664992037742
  0.8907881967555400  0.7513615717588302  0.6473020108060928
  0.1473554269846457  0.9734768455523526  0.8106574120447354
  0.4935963512185355  0.7988155764069829  0.2987883558762914
  0.4951677806139538  0.0585510994041994  0.7846776070318022
  0.8050215056059690  0.7936832381200403  0.4338791504994485
  0.8346830835992084  0.6108978139789889  0.3478931805910722
  0.5376783724027282  0.8513395344965898  0.0119362702332690
  0.0001482763479646  0.8330061923100824  0.9133034914521947
  0.5437756123104766  0.3858440338390141  0.5343652391690643
  0.3889451773974396  0.6927083305567177  0.4142580413730881
  0.3603538494348320  0.1272863352843628  0.9003038897391815
  0.7057898275441716  0.1635504636111084  0.3009398253553231
  0.5524128506786565  0.9443841121994475  0.1970423992469350
  0.7849010787736229  0.5707179336469576  0.8048710904101436
  0.1853043647477194 -0.0010321924246509  0.6823445806191459
  0.2411140320404756  0.3491156911789416  0.3292001165782049
  0.7497420274623626  0.0018273041481944  0.2271411704703059
  0.3684572896034247  0.8419162326687737  0.1220129587567890
  0.7647057054268144  0.5341044833643731  0.9928613536845378
  0.9043178222299829  0.2092262267830265  0.9497248667558724
  0.0946611036423024  0.7586151088356986  0.2345926050406071
  0.0632506589688802  0.9382483990209278  0.2209929766959530
  0.2217819564266781  0.6343992819663383  0.4403730520114569
  0.0846831453665233  0.1021737993250377  0.9420228314639649
  0.2157969913743099  0.2458180919150665  0.1353067431341967
  0.6882868524439779  0.7765458244042991  0.5819537379379380
  0.9121428082217496  0.3161400752067037  0.8305153740305062
  0.3258098364361253  0.5309195453621143  0.4275531278875204
  0.2796622795740378  0.6513615625326319  0.7188374370942756
  0.2821209094015288  0.6662420458478483  0.2260930293084014
  0.6238200185021843  0.9294907750111197  0.9607407750111197
  0.9687629960511009  0.5052191929267178  0.2082977964008977
  0.2773701810747374  0.2529614010047807  0.2481632282971390
  0.3622126224447297  0.1583435994770810  0.2737402336309436
  0.7760022116198908  0.7987992799023111  0.6717657278439171
  0.6614850221552204  0.2516256601984279  0.1702960452398745
  0.1684893665746135  0.0824020459241088  0.1021521036105149
  0.1738365085385412  0.4543141535165119  0.3147630587126118
  0.2869867511088245  0.0454227885893962  0.5386631648003189
  0.3381755183694575  0.8952752414797633  0.5315566689620635
  0.4059241786756259  0.3469705367761369  0.4213877094645779
  0.7058505380758956 -0.0320888837488761  0.0507054054910230
  0.1564446094184712  0.6453893209119856  0.2316886429567251
  0.6835035590305406  0.4523010569540722  0.6044530494071939
  0.0575196744192118  0.5531441715490475  0.8943078084981675
  0.9094484384295203  0.7061899494169596  0.1942113639775455
  0.0387110848737416  0.3326274241371882  0.6898008384680272
  0.2074115998634006  0.3311878351298906  0.7556515000723789
  0.4492573803165770  0.7338374906224048  0.7282553485600168
  0.0781355868952607  0.9166719601142967  0.0832856923046600
  0.2394566989171227  0.9537834339128765  0.9031436110405598
  0.7597715926442373  0.1896516094694368  0.5441656224479018
  0.5689841809329058  0.0249978847430248  0.5219579959105776
  0.3285498261030453  0.6957527295566437  0.0264572528388352
  0.0324762668529478  0.8171500057294867  0.3326909630984543
  0.3061976283889652  0.3465317018632056  0.9559300049476813
  0.9518680813558986  0.6301470486909717  0.2952124657620414
  0.5957035934109411  0.2184923173729999  0.2776513120237213
  0.7589677126395745  0.8764843985450167  0.2335557174035721
  0.9537298864559828  0.4102325028019754  0.0903659571932558
  0.7749793039925439  0.1968284699953832  0.2028511901555710
  0.6648951460906174  0.3467750109134440  0.5337104083561346
  0.5784679539208761  0.6921002648147881  0.8764173657923263
  0.5882375390506189  0.1264847145880299  0.4535623251000993
  0.6247942741325195  0.5687154722737932  0.7675914793189914
  0.3301981436293006  0.0236275503658380  0.9682995492349740
  0.5728976219045185  0.5052006816209732  0.5937591256922025
  0.0867889493978475  0.5735004674917250  0.1482462583694420
  0.0947561598952154  0.3881191547840673  0.7886248321802788
  0.0787334590815208  0.7321300509977907  0.4201017113694658
  0.8363620819386787  0.2487614935152785  0.0425325764668852
  0.4328195361138674  0.7772751888170059  0.8431007386862795
  0.6666140933513145  0.6014583313586446  0.0327700707868539
  0.1125912413342770  0.1916844840506819  0.0918282979062126
  0.3797125426288825  0.3245480804111344  0.1984551258301789
  0.1570019066554866  0.2046404681939517  0.9113405848732453
  0.2588921793187118  0.9068649182963823  0.1213812884361447
  0.1296421427870772  0.8038914601752557  0.0280603636564693
  0.5952132483678563  0.3226529859600213  0.9788907452468218
  0.5020055435206857  0.0339144340864734  0.2715787097782761
  0.0254028308001430  0.5450252347923263  0.4737281799514146
  0.7101287102155289  0.8775706725731744  0.8866602754835530
  0.4047096639389051  0.8652589015189585  0.2422285493430467
  0.2193704410173820  0.3091239975010914  0.6294782643530308
  0.9512769325408823  0.9294462548006855  0.0973945845517401
  0.6456613706255122  0.5165645456377498  0.3794091611780741
  0.2145220414298082  0.7668658635116814  0.8541252312782767
  0.0752076773579449  0.1908925575470924  0.3173218862315175
  0.5170722713036813  0.6164280159157041  0.1050158546297418
  0.6031930910677333  0.3314977870081765  0.6904400133622116
  0.0458396503903587  0.2158017467925457  0.7235884837236135
  0.7412681941705104  0.7203214258915515  0.7740497354380671
  0.8918692192211921  0.3733495460515961  0.4439979350063671
  0.3066762367567691  0.4709291161661483  0.9150641323489781
  0.8283360407741508  0.4226765895162465  0.2749674552662247
  0.3933919488960238  0.2228618945797062  0.3964798691300248
  0.0714152548440119  0.3800014052898379  0.1099359183255418
  0.7657302354344228  0.2256740845964006  0.3921982947830174
  0.1597783753392873  0.5794387530441114  0.8317849554818525
  0.4079383464240519  0.6419933608017317  0.9473647039452210
  0.3733936343878527  0.0014204950639894  0.4643583127850325
  0.2223195834130558  0.1192329696657591  0.3792785364002840
  0.9027681333103117  0.6237129516820984  0.6500921855690884
  0.0843073109665839  0.1747775099304312  0.5345218223928314
  0.6365230130854591  0.2106392527000511  0.8285903310230716
  0.6460649109567557  0.0167249631677779  0.1529955007596241
  0.8124742749491467  0.0587433764040210  0.5949244917757129
  0.5979041006300252  0.8546286985375622  0.2686771948380449
  0.5593958921870471  0.7664228636492324  0.6773194954840688
  0.8964949218099103  0.6016802758772649  0.1245342748809259
  0.4714008557316638  0.9188142515224100  0.0960540049200562
  0.6188065930252706  0.7852449037682862  0.0871294793761266
  0.7435577349841355  0.4448505142447854  0.7130940460143969
  0.9530099812275381  0.3005976999489741  0.2533846848294092
  0.0622978931238018  0.7048704867776054  0.7670314428166585
  0.5402191769436679  0.6844249203536444  0.2931528821793252
  0.4809780627855199  0.1612128410657575  0.9161625831821576
  0.9283583528147827  0.3823901031394088  0.7270636625861255
  0.7924683567336246  0.7430993767799379  0.1001603167762518
  0.2700049577889437  0.4428261199712458  0.7311354859267156
  0.7108421615009285  0.0440898448818911  0.3396369198335961
  0.9748498146542118  0.1180487014868817  0.0022197488996382
  0.2815431531275663  0.7272487303149364  0.3423168831357852
  0.8402159880187438  0.2162754479306703  0.8440749537742811
  0.4877386733853971  0.9341552379749614  0.7508633866884936
  0.8705343311467133  0.6478054456894600  0.4647921706779644
  0.8030209369370154  0.4345818679989073  0.0589251757604825
  0.9116424531276589  0.8464508215099487  0.3519934114377781
  0.1643519085364448  0.0203675835995635  0.5481222992198129
  0.4957364094150593  0.1772603479293740  0.1075653799806648
  0.4699992000514551  0.0623134404262544  0.5907133563481516
  0.9399871129829576  0.7892160559935719  0.5372230306004570
  0.2262791813090613  0.4811618807165781  0.1966064061291230
  0.5249789042532929  0.3820687078530860  0.4058587320831290
  0.8976461536094004  0.7653943763974798  0.8488307589250111
  0.0858129284059466  0.9209180837264965  0.3917794346199495
  0.4441696225837195  0.3494751438338092  0.8273899862554214
  0.1520819498883705  0.6773149549224740  0.5801371075521737
  0.4314753626260864  0.6116590140519985  0.7024653243198793
  0.4481797603698092  0.8581199483035454  0.5673663638926941
  0.7667816406543851  0.0453958758780358  0.8683289301124779
  0.2288383218321145  0.3544345766114284  0.0589530746993164
  0.4361360239688588  0.8117544075514822  0.4095447848710241
  0.2164950227046098  0.1309036898277276  0.7112155297944116
  0.8026446535951726  0.0560591158095457  0.0452303183828760
  0.1881500220931227  0.2979651100854187  0.4360500395165636
  0.5521066412872556  0.9422387383472036  0.4307490454377864
  0.3099795223435095  0.9675128636483954  0.6374307284489132
  0.1307702666760023  0.0055968602795830  0.0065713809738127
  0.2998254528344932  0.1658709172962189  0.5580951874666876
  0.6534666105098633  0.1240644847688874  0.0124967038338739
  0.0073353768041096  0.7551519709304853  0.1324195921180712
  0.2076608511895596  0.4868212551605290  0.5249076459810069
  0.4419731203187401  0.2175399477616371  0.6650224883492879
  0.7935106511273197  0.2477761023413096  0.6722445969080205
  0.7584276013367688  0.7115604596481411  0.3111395628887577
  0.0011933099610013  0.2839819737573859  0.9145083314810412
  0.3475044707885073  0.6858489548346907  0.5315142396155017
  0.3453900845796340  0.4219600327992156  0.3490745264260566
  0.3056110955759523  0.1976104373411411  0.0505093924477408
  0.2223820056893930  0.6456575717807614 -0.0064101381999447
  0.3248954282727492  0.9321997222582162  0.8116106924198172
  0.4026401253503494  0.5064228575844617  0.5502374226786286
  0.0394780120001111  0.3691112423638384  0.5660970024049705
  0.3387515141583734  0.7738460481494003  0.6864591006910544
  0.9146277844199744  0.0518468707329058  0.7372232592161003
  0.8213773647430682  0.6329611176384666  0.9457714764864286
  0.0344630910634477  0.6591074887881070  0.9610959992947239
  0.9840141789746636  0.0057951115420024  0.5429931575122097
  0.7048180505811011  0.4894426151268087  0.8944715824170981
  0.4227529726080765  0.3469487473420367  0.0096364967143191
  0.5268098258038912  0.4880555783588527  0.9376166466802710
  0.3626634610649131  0.5089806450788505  0.0869520270596984
  0.5084167938776152  0.4549465932255309  0.2229502739156952
  0.9054770099101218  0.2010929274415718  0.5083621832994062
  0.3443010515232467  0.8164995241701543  0.9929842888273208
  0.8998103410694399  0.9369684570483315  0.9107427173959464
  0.3577658485278780  0.3318742153248223  0.5339719146529520
  0.2586581849702926  0.9408824547575030  0.3344092392539498
  0.0831232862925411  0.4519057238553715  0.9527589031962995
  0.6156283637872042  0.7703286924639843  0.4833749175023919
  0.1480240634024199  0.0413212531955189  0.2191734414563030
  0.3567204571352536  0.0512358486757050  0.1789842618418398
  0.9467867834318450  0.1035580495864849  0.1863686386962767
  0.6791590261251353  0.6480734724412769  0.5995121363418094
  0.3708770788579256  0.0831473577038459  0.7854982146402050
  0.0416121909278517  0.8889058769427390  0.7853894931418508
  0.7100939178666836  0.5505235089449229  0.1945500109328576
  0.0676409418947021  0.5147602166574329  0.6644787462978785
  0.3663749772797663  0.7162418261064332  0.1424458491189023
  0.0960441063168997  0.8565800444888980  0.6070692709723717
  0.6591934879893460  0.3680797334310513  0.2116816530059587
  0.8059793510390982  0.8890047577758549  0.5271967222905790
  0.8925745891185516  0.0357188018209471  0.3859517570704469
  0.1450234282982425  0.5749994063538851  0.3351057694509301
  0.5806292260492056  0.0164909002872695  0.8706352088727295
  0.2466749456806438  0.8303512554376880  0.4859474355401138
  0.7547499246643818  0.5068008482874669  0.5168180602417034
  0.3608018815003568  0.5743915867877964  0.2660255578663485
  0.8078254791670119  0.8960184924023901  0.7420701357711896
  0.6420197008416247  0.9532235134418978  0.5950736579935930
  0.0528328633273085  0.4165586081460405  0.3328811699548579
  0.9544546198804317  0.5527165789704115  0.8211538463957215
  0.8688060555538947  0.4135836322718429  0.9015112786091747
  0.6365991908664983  0.1464852147500498  0.6308817490129022
  0.0622068184170615  0.0702170962787629  0.8255279526606072
 
  0.00000000E+00  0.00000000E+00  0.00000000E+00
  0.00000000E+00  0.00000000E+00  0.00000000E+00
  0.00000000E+00  0.00000000E+00  0.00000000E+00
  0.00000000E+00  0.00000000E+00  0.00000000E+00
  0.00000000E+00  0.00000000E+00  0.00000000E+00
  0.00000000E+00  0.00000000E+00  0.00000000E+00
  0.00000000E+00  0.00000000E+00  0.00000000E+00
  0.00000000E+00  0.00000000E+00  0.00000000E+00
  0.00000000E+00  0.00000000E+00  0.00000000E+00
  0.00000000E+00  0.00000000E+00  0.00000000E+00
  0.00000000E+00  0.00000000E+00  0.00000000E+00
  0.00000000E+00  0.00000000E+00  0.00000000E+00
  0.00000000E+00  0.00000000E+00  0.00000000E+00
  0.00000000E+00  0.00000000E+00  0.00000000E+00
  0.00000000E+00  0.00000000E+00  0.00000000E+00
  0.00000000E+00  0.00000000E+00  0.00000000E+00
  0.00000000E+00  0.00000000E+00  0.00000000E+00
  0.00000000E+00  0.00000000E+00  0.00000000E+00
  0.00000000E+00  0.00000000E+00  0.00000000E+00
  0.00000000E+00  0.00000000E+00  0.00000000E+00
  0.00000000E+00  0.00000000E+00  0.00000000E+00
  0.00000000E+00  0.00000000E+00  0.00000000E+00
  0.00000000E+00  0.00000000E+00  0.00000000E+00
  0.00000000E+00  0.00000000E+00  0.00000000E+00
  0.00000000E+00  0.00000000E+00  0.00000000E+00
  0.00000000E+00  0.00000000E+00  0.00000000E+00
  0.00000000E+00  0.00000000E+00  0.00000000E+00
  0.00000000E+00  0.00000000E+00  0.00000000E+00
  0.00000000E+00  0.00000000E+00  0.00000000E+00
  0.00000000E+00  0.00000000E+00  0.00000000E+00
  0.00000000E+00  0.00000000E+00  0.00000000E+00
  0.00000000E+00  0.00000000E+00  0.00000000E+00
  0.00000000E+00  0.00000000E+00  0.00000000E+00
  0.00000000E+00  0.00000000E+00  0.00000000E+00
  0.00000000E+00  0.00000000E+00  0.00000000E+00
  0.00000000E+00  0.00000000E+00  0.00000000E+00
  0.00000000E+00  0.00000000E+00  0.00000000E+00
  0.00000000E+00  0.00000000E+00  0.00000000E+00
  0.00000000E+00  0.00000000E+00  0.00000000E+00
  0.00000000E+00  0.00000000E+00  0.00000000E+00
  0.00000000E+00  0.00000000E+00  0.00000000E+00
  0.00000000E+00  0.00000000E+00  0.00000000E+00
  0.00000000E+00  0.00000000E+00  0.00000000E+00
  0.00000000E+00  0.00000000E+00  0.00000000E+00
  0.00000000E+00  0.00000000E+00  0.00000000E+00
  0.00000000E+00  0.00000000E+00  0.00000000E+00
  0.00000000E+00  0.00000000E+00  0.00000000E+00
  0.00000000E+00  0.00000000E+00  0.00000000E+00
  0.00000000E+00  0.00000000E+00  0.00000000E+00
  0.00000000E+00  0.00000000E+00  0.00000000E+00
  0.00000000E+00  0.00000000E+00  0.00000000E+00
  0.00000000E+00  0.00000000E+00  0.00000000E+00
  0.00000000E+00  0.00000000E+00  0.00000000E+00
  0.00000000E+00  0.00000000E+00  0.00000000E+00
  0.00000000E+00  0.00000000E+00  0.00000000E+00
  0.00000000E+00  0.00000000E+00  0.00000000E+00
  0.00000000E+00  0.00000000E+00  0.00000000E+00
  0.00000000E+00  0.00000000E+00  0.00000000E+00
  0.00000000E+00  0.00000000E+00  0.00000000E+00
  0.00000000E+00  0.00000000E+00  0.00000000E+00
  0.00000000E+00  0.00000000E+00  0.00000000E+00
  0.00000000E+00  0.00000000E+00  0.00000000E+00
  0.00000000E+00  0.00000000E+00  0.00000000E+00
  0.00000000E+00  0.00000000E+00  0.00000000E+00
  0.00000000E+00  0.00000000E+00  0.00000000E+00
  0.00000000E+00  0.00000000E+00  0.00000000E+00
  0.00000000E+00  0.00000000E+00  0.00000000E+00
  0.00000000E+00  0.00000000E+00  0.00000000E+00
  0.00000000E+00  0.00000000E+00  0.00000000E+00
  0.00000000E+00  0.00000000E+00  0.00000000E+00
  0.00000000E+00  0.00000000E+00  0.00000000E+00
  0.00000000E+00  0.00000000E+00  0.00000000E+00
  0.00000000E+00  0.00000000E+00  0.00000000E+00
  0.00000000E+00  0.00000000E+00  0.00000000E+00
  0.00000000E+00  0.00000000E+00  0.00000000E+00
  0.00000000E+00  0.00000000E+00  0.00000000E+00
  0.00000000E+00  0.00000000E+00  0.00000000E+00
  0.00000000E+00  0.00000000E+00  0.00000000E+00
  0.00000000E+00  0.00000000E+00  0.00000000E+00
  0.00000000E+00  0.00000000E+00  0.00000000E+00
  0.00000000E+00  0.00000000E+00  0.00000000E+00
  0.00000000E+00  0.00000000E+00  0.00000000E+00
  0.00000000E+00  0.00000000E+00  0.00000000E+00
  0.00000000E+00  0.00000000E+00  0.00000000E+00
  0.00000000E+00  0.00000000E+00  0.00000000E+00
  0.00000000E+00  0.00000000E+00  0.00000000E+00
  0.00000000E+00  0.00000000E+00  0.00000000E+00
  0.00000000E+00  0.00000000E+00  0.00000000E+00
  0.00000000E+00  0.00000000E+00  0.00000000E+00
  0.00000000E+00  0.00000000E+00  0.00000000E+00
  0.00000000E+00  0.00000000E+00  0.00000000E+00
  0.00000000E+00  0.00000000E+00  0.00000000E+00
  0.00000000E+00  0.00000000E+00  0.00000000E+00
  0.00000000E+00  0.00000000E+00  0.00000000E+00
  0.00000000E+00  0.00000000E+00  0.00000000E+00
  0.00000000E+00  0.00000000E+00  0.00000000E+00
  0.00000000E+00  0.00000000E+00  0.00000000E+00
  0.00000000E+00  0.00000000E+00  0.00000000E+00
  0.00000000E+00  0.00000000E+00  0.00000000E+00
  0.00000000E+00  0.00000000E+00  0.00000000E+00
  0.00000000E+00  0.00000000E+00  0.00000000E+00
  0.00000000E+00  0.00000000E+00  0.00000000E+00
  0.00000000E+00  0.00000000E+00  0.00000000E+00
  0.00000000E+00  0.00000000E+00  0.00000000E+00
  0.00000000E+00  0.00000000E+00  0.00000000E+00
  0.00000000E+00  0.00000000E+00  0.00000000E+00
  0.00000000E+00  0.00000000E+00  0.00000000E+00
  0.00000000E+00  0.00000000E+00  0.00000000E+00
  0.00000000E+00  0.00000000E+00  0.00000000E+00
  0.00000000E+00  0.00000000E+00  0.00000000E+00
  0.00000000E+00  0.00000000E+00  0.00000000E+00
  0.00000000E+00  0.00000000E+00  0.00000000E+00
  0.00000000E+00  0.00000000E+00  0.00000000E+00
  0.00000000E+00  0.00000000E+00  0.00000000E+00
  0.00000000E+00  0.00000000E+00  0.00000000E+00
  0.00000000E+00  0.00000000E+00  0.00000000E+00
  0.00000000E+00  0.00000000E+00  0.00000000E+00
  0.00000000E+00  0.00000000E+00  0.00000000E+00
  0.00000000E+00  0.00000000E+00  0.00000000E+00
  0.00000000E+00  0.00000000E+00  0.00000000E+00
  0.00000000E+00  0.00000000E+00  0.00000000E+00
  0.00000000E+00  0.00000000E+00  0.00000000E+00
  0.00000000E+00  0.00000000E+00  0.00000000E+00
  0.00000000E+00  0.00000000E+00  0.00000000E+00
  0.00000000E+00  0.00000000E+00  0.00000000E+00
  0.00000000E+00  0.00000000E+00  0.00000000E+00
  0.00000000E+00  0.00000000E+00  0.00000000E+00
  0.00000000E+00  0.00000000E+00  0.00000000E+00
  0.00000000E+00  0.00000000E+00  0.00000000E+00
  0.00000000E+00  0.00000000E+00  0.00000000E+00
  0.00000000E+00  0.00000000E+00  0.00000000E+00
  0.00000000E+00  0.00000000E+00  0.00000000E+00
  0.00000000E+00  0.00000000E+00  0.00000000E+00
  0.00000000E+00  0.00000000E+00  0.00000000E+00
  0.00000000E+00  0.00000000E+00  0.00000000E+00
  0.00000000E+00  0.00000000E+00  0.00000000E+00
  0.00000000E+00  0.00000000E+00  0.00000000E+00
  0.00000000E+00  0.00000000E+00  0.00000000E+00
  0.00000000E+00  0.00000000E+00  0.00000000E+00
  0.00000000E+00  0.00000000E+00  0.00000000E+00
  0.00000000E+00  0.00000000E+00  0.00000000E+00
  0.00000000E+00  0.00000000E+00  0.00000000E+00
  0.00000000E+00  0.00000000E+00  0.00000000E+00
  0.00000000E+00  0.00000000E+00  0.00000000E+00
  0.00000000E+00  0.00000000E+00  0.00000000E+00
  0.00000000E+00  0.00000000E+00  0.00000000E+00
  0.00000000E+00  0.00000000E+00  0.00000000E+00
  0.00000000E+00  0.00000000E+00  0.00000000E+00
  0.00000000E+00  0.00000000E+00  0.00000000E+00
  0.00000000E+00  0.00000000E+00  0.00000000E+00
  0.00000000E+00  0.00000000E+00  0.00000000E+00
  0.00000000E+00  0.00000000E+00  0.00000000E+00
  0.00000000E+00  0.00000000E+00  0.00000000E+00
  0.00000000E+00  0.00000000E+00  0.00000000E+00
  0.00000000E+00  0.00000000E+00  0.00000000E+00
  0.00000000E+00  0.00000000E+00  0.00000000E+00
  0.00000000E+00  0.00000000E+00  0.00000000E+00
  0.00000000E+00  0.00000000E+00  0.00000000E+00
  0.00000000E+00  0.00000000E+00  0.00000000E+00
  0.00000000E+00  0.00000000E+00  0.00000000E+00
  0.00000000E+00  0.00000000E+00  0.00000000E+00
  0.00000000E+00  0.00000000E+00  0.00000000E+00
  0.00000000E+00  0.00000000E+00  0.00000000E+00
  0.00000000E+00  0.00000000E+00  0.00000000E+00
  0.00000000E+00  0.00000000E+00  0.00000000E+00
  0.00000000E+00  0.00000000E+00  0.00000000E+00
  0.00000000E+00  0.00000000E+00  0.00000000E+00
  0.00000000E+00  0.00000000E+00  0.00000000E+00
  0.00000000E+00  0.00000000E+00  0.00000000E+00
  0.00000000E+00  0.00000000E+00  0.00000000E+00
  0.00000000E+00  0.00000000E+00  0.00000000E+00
  0.00000000E+00  0.00000000E+00  0.00000000E+00
  0.00000000E+00  0.00000000E+00  0.00000000E+00
  0.00000000E+00  0.00000000E+00  0.00000000E+00
  0.00000000E+00  0.00000000E+00  0.00000000E+00
  0.00000000E+00  0.00000000E+00  0.00000000E+00
  0.00000000E+00  0.00000000E+00  0.00000000E+00
  0.00000000E+00  0.00000000E+00  0.00000000E+00
  0.00000000E+00  0.00000000E+00  0.00000000E+00
  0.00000000E+00  0.00000000E+00  0.00000000E+00
  0.00000000E+00  0.00000000E+00  0.00000000E+00
  0.00000000E+00  0.00000000E+00  0.00000000E+00
  0.00000000E+00  0.00000000E+00  0.00000000E+00
  0.00000000E+00  0.00000000E+00  0.00000000E+00
  0.00000000E+00  0.00000000E+00  0.00000000E+00
  0.00000000E+00  0.00000000E+00  0.00000000E+00
  0.00000000E+00  0.00000000E+00  0.00000000E+00
  0.00000000E+00  0.00000000E+00  0.00000000E+00
  0.00000000E+00  0.00000000E+00  0.00000000E+00
  0.00000000E+00  0.00000000E+00  0.00000000E+00
  0.00000000E+00  0.00000000E+00  0.00000000E+00
  0.00000000E+00  0.00000000E+00  0.00000000E+00
  0.00000000E+00  0.00000000E+00  0.00000000E+00
  0.00000000E+00  0.00000000E+00  0.00000000E+00
  0.00000000E+00  0.00000000E+00  0.00000000E+00
  0.00000000E+00  0.00000000E+00  0.00000000E+00
  0.00000000E+00  0.00000000E+00  0.00000000E+00
  0.00000000E+00  0.00000000E+00  0.00000000E+00
  0.00000000E+00  0.00000000E+00  0.00000000E+00
  0.00000000E+00  0.00000000E+00  0.00000000E+00
  0.00000000E+00  0.00000000E+00  0.00000000E+00
  0.00000000E+00  0.00000000E+00  0.00000000E+00
  0.00000000E+00  0.00000000E+00  0.00000000E+00
  0.00000000E+00  0.00000000E+00  0.00000000E+00
  0.00000000E+00  0.00000000E+00  0.00000000E+00
  0.00000000E+00  0.00000000E+00  0.00000000E+00
  0.00000000E+00  0.00000000E+00  0.00000000E+00
  0.00000000E+00  0.00000000E+00  0.00000000E+00
  0.00000000E+00  0.00000000E+00  0.00000000E+00
  0.00000000E+00  0.00000000E+00  0.00000000E+00
  0.00000000E+00  0.00000000E+00  0.00000000E+00
  0.00000000E+00  0.00000000E+00  0.00000000E+00
  0.00000000E+00  0.00000000E+00  0.00000000E+00
  0.00000000E+00  0.00000000E+00  0.00000000E+00
  0.00000000E+00  0.00000000E+00  0.00000000E+00
  0.00000000E+00  0.00000000E+00  0.00000000E+00
  0.00000000E+00  0.00000000E+00  0.00000000E+00
  0.00000000E+00  0.00000000E+00  0.00000000E+00
  0.00000000E+00  0.00000000E+00  0.00000000E+00
  0.00000000E+00  0.00000000E+00  0.00000000E+00
  0.00000000E+00  0.00000000E+00  0.00000000E+00
  0.00000000E+00  0.00000000E+00  0.00000000E+00
  0.00000000E+00  0.00000000E+00  0.00000000E+00
  0.00000000E+00  0.00000000E+00  0.00000000E+00
  0.00000000E+00  0.00000000E+00  0.00000000E+00
  0.00000000E+00  0.00000000E+00  0.00000000E+00
  0.00000000E+00  0.00000000E+00  0.00000000E+00
  0.00000000E+00  0.00000000E+00  0.00000000E+00
  0.00000000E+00  0.00000000E+00  0.00000000E+00
  0.00000000E+00  0.00000000E+00  0.00000000E+00
  0.00000000E+00  0.00000000E+00  0.00000000E+00
  0.00000000E+00  0.00000000E+00  0.00000000E+00