In2O3 structure 2 - random placement wit
   1.00000000000000     
     7.9693895008058542   -0.0865510746122944   -0.0178961154500201
    -0.0867823190253614    7.9690373585974665    0.0205628805629258
    -0.0179815124647945    0.0205076852965011    8.0469469024940459
   In   Ga   O 
    15     1    24
Direct
  0.8122827962915693  0.4039389942356237  0.3177946961584439
  0.8067692350322986  0.8933562475771879  0.3173228353185493
  0.8432434305790224  0.8655700240606379  0.8247309566813215
  0.5933831049352207  0.1174568055111749  0.5512615031262840
  0.3179565439253196  0.8976422978218395  0.3201243796343363
  0.5948206528266127  0.6197043482473248  0.5518030928825013
  0.0940653294133469  0.6165006267121740  0.5489844226344829
  0.3153705630577122  0.3994959947685430  0.3184103128471349
  0.3470613005736212  0.8628168375507670  0.8281523999060880
  0.3483894266571212  0.3706095174037856  0.8258149430231967
  0.0640980325088520  0.1446922658842738  0.0509163485505866
  0.5668292113849489  0.1464641446681441  0.0504185725600834
  0.8435472113859106  0.3680947269536148  0.8235185403713174
  0.0670885378572521  0.6465730708364674  0.0509696835424407
  0.0952238223810866  0.1179190492997222  0.5492164500127785
  0.5661776289809453  0.6407236971390233  0.0440281426691413
  0.1001718930011677  0.8988413558379378  0.9404221696650410
  0.4598360388955953  0.1147847660960082  0.7885727851057638
  0.2123610502378170  0.8642048548981407  0.5899270383911670
  0.7000112366524860  0.1528130036786166  0.2864426624892928
  0.3490987332919602  0.5023538008799875  0.5863869828455961
  0.3225657650884628  0.6102122821785869  0.9515285352689062
  0.8473508245292010  0.6533500067874556  0.4379575240875297
  0.6033942685720959  0.4133216177713734  0.9433987376570272
  0.0582129053610103  0.3626005845982405  0.4328750136840895
  0.4639604604147465  0.8887201292609319  0.0889264128563809
  0.0990736918179280  0.2538551601588708  0.7863878209660129
  0.5592845522043746  0.5255410465624095  0.2702039814918464
  0.8098930258338584  0.1113815052970608  0.9367988236212739
  0.3139244533213486  0.2559766408325572  0.0869022258439571
  0.9637965879008092  0.6142576099456107  0.7863089846523224
  0.9545481033479035  0.3983538412329608  0.0863398540708218
  0.7966991665689420  0.7468905250540772  0.0839723455031915
  0.1975456852226642  0.6519092247262321  0.2885539669207446
  0.0581264555825314  0.0066180855970899  0.2857409552219536
  0.5971645931868323  0.7444716793213288  0.7947551530369807
  0.7067127680448735  0.3661467148347839  0.5861271097624936
  0.5585986004426431  0.8644121835801428  0.4422478754160437
  0.8471094894833371  0.0016226423938477  0.5878918073887718
  0.3493503654911478  0.1535692684716849  0.4333526914935035
 
  0.00000000E+00  0.00000000E+00  0.00000000E+00
  0.00000000E+00  0.00000000E+00  0.00000000E+00
  0.00000000E+00  0.00000000E+00  0.00000000E+00
  0.00000000E+00  0.00000000E+00  0.00000000E+00
  0.00000000E+00  0.00000000E+00  0.00000000E+00
  0.00000000E+00  0.00000000E+00  0.00000000E+00
  0.00000000E+00  0.00000000E+00  0.00000000E+00
  0.00000000E+00  0.00000000E+00  0.00000000E+00
  0.00000000E+00  0.00000000E+00  0.00000000E+00
  0.00000000E+00  0.00000000E+00  0.00000000E+00
  0.00000000E+00  0.00000000E+00  0.00000000E+00
  0.00000000E+00  0.00000000E+00  0.00000000E+00
  0.00000000E+00  0.00000000E+00  0.00000000E+00
  0.00000000E+00  0.00000000E+00  0.00000000E+00
  0.00000000E+00  0.00000000E+00  0.00000000E+00
  0.00000000E+00  0.00000000E+00  0.00000000E+00
  0.00000000E+00  0.00000000E+00  0.00000000E+00
  0.00000000E+00  0.00000000E+00  0.00000000E+00
  0.00000000E+00  0.00000000E+00  0.00000000E+00
  0.00000000E+00  0.00000000E+00  0.00000000E+00
  0.00000000E+00  0.00000000E+00  0.00000000E+00
  0.00000000E+00  0.00000000E+00  0.00000000E+00
  0.00000000E+00  0.00000000E+00  0.00000000E+00
  0.00000000E+00  0.00000000E+00  0.00000000E+00
  0.00000000E+00  0.00000000E+00  0.00000000E+00
  0.00000000E+00  0.00000000E+00  0.00000000E+00
  0.00000000E+00  0.00000000E+00  0.00000000E+00
  0.00000000E+00  0.00000000E+00  0.00000000E+00
  0.00000000E+00  0.00000000E+00  0.00000000E+00
  0.00000000E+00  0.00000000E+00  0.00000000E+00
  0.00000000E+00  0.00000000E+00  0.00000000E+00
  0.00000000E+00  0.00000000E+00  0.00000000E+00
  0.00000000E+00  0.00000000E+00  0.00000000E+00
  0.00000000E+00  0.00000000E+00  0.00000000E+00
  0.00000000E+00  0.00000000E+00  0.00000000E+00
  0.00000000E+00  0.00000000E+00  0.00000000E+00
  0.00000000E+00  0.00000000E+00  0.00000000E+00
  0.00000000E+00  0.00000000E+00  0.00000000E+00
  0.00000000E+00  0.00000000E+00  0.00000000E+00
  0.00000000E+00  0.00000000E+00  0.00000000E+00
