CdTe                                    
   1.00000000000000     
     4.0434256373000004    0.0000000000000000    0.0000000000000000
     0.0000000000000000    4.0434256373000004    0.0000000000000000
     0.0000000000000000    0.0000000000000000   22.5000000000000000
   Zn   Se
     2     2
Direct
  0.5000000000000000  0.5000000000000000  0.5000000000000000
  0.0000000000000000  0.0000000000000000  0.5000000000000000
  0.5000000000000000  0.0000000000000000  0.5673840221378299
  0.0000000000000000  0.5000000000000000  0.4326159778621701
 
  0.00000000E+00  0.00000000E+00  0.00000000E+00
  0.00000000E+00  0.00000000E+00  0.00000000E+00
  0.00000000E+00  0.00000000E+00  0.00000000E+00
  0.00000000E+00  0.00000000E+00  0.00000000E+00
