Amorphous Sb                            
   1.00000000000000     
    22.6970374761353142    0.0000000000000000    0.0000000000000000
     0.0000000000000000   22.6970374761353142    0.0000000000000000
     0.0000000000000000    0.0000000000000000   22.6970374761353142
   In   Te
    90   210
Direct
  0.7067965261530774  0.9329613740817508 -0.0015396220992103
  0.0803610197509149  0.9639778920117470  0.1026643291487941
  0.7392522658710012  0.3121104488022166  0.3478871842536631
  0.9698738166035866  0.8194869155333269  0.6672493517379087
  0.5978087047385878  0.1612632709201202  0.8013424072077280
  0.9050213617296337  0.2696092796440013  0.1637057268298266
  0.4514667288165651  0.1529749700514588  0.4130012509786494
  0.9494215340494530  0.7575419406935933  0.8705409258814250
  0.5928311348415388  0.3918286633958183  0.1995263211170219
  0.7415693130847952  0.3418198590451769  0.0807758308401766
  0.8817772547865357  0.4986191333164027  0.5682255845290621
  0.1877822437549354  0.8034492922079057  0.9041996644948709
  0.3691076812001794  0.6962325978899954  0.0467294305067177
  0.8372492078168950  0.0620086699096311  0.0635608183247800
  0.7872656424163326  0.0966300626605257  0.6937192915913765
  0.8408903823648942  0.8775971317504031  0.5471366023742068
  0.3614378103637230  0.4375181502412269  0.1432059259186550
  0.7363717068373390  0.7678301792732042  0.1231092549594646
  0.8806265302678423  0.3432025178018103  0.4834271424646719
  0.0451848354022061  0.8837713092910467  0.8040148929077237
  0.0511530232969715  0.8403140827893100  0.2527854141405579
  0.6938534045524526  0.3096928794127252  0.7791686785992091
  0.5498781943276621  0.0598006374074064  0.1099872894635025
  0.1998554043101010  0.5402208555238885  0.3048282501496078
  0.7947907766150201  0.8607911359557459  0.7488431550165915
  0.4842026249317144  0.5114120648022119  0.8970609256297848
  0.2526293099493934  0.8027365594172352  0.4385749949382568
  0.2609251580753037  0.4774171077242919  0.4871275781641556
  0.2040668905487678  0.7633991527022579  0.1377453257249426
  0.2008994869902355  0.2234466313035118  0.6066730378556318
  0.8764387319098137  0.9144446028779809  0.9252416330050822
  0.4878319311367495  0.9972603442816237  0.7605238885309918
  0.7857811885367845  0.5007221867653324  0.4358589634987569
  0.7732290350742020  0.9231373345984732  0.3761084857857047
  0.9923028023382255  0.5363204388003251  0.4305338655405798
  0.2565551439284831  0.9503181133461293  0.5408358220739750
  0.1397830314100420  0.3713778638271820  0.3763153958452060
  0.9712189236581549  0.3422736455789653  0.0864422747170246
  0.6187836640394314  0.5512447178727750  0.3226891835792378
  0.3570470080864327  0.6932554303453956  0.4958234198953570
  0.0730507331680760  0.4359355579742245 -0.0106145773072707
  0.4680562737561507  0.9837797685578940  0.4052288209023116
  0.6769767585209748  0.5463564823852411  0.9209536219992654
  0.0566323168337830  0.1130657301365673  0.0072131720667011
  0.8169500983747733  0.1846141529080687  0.5294055007240209
  0.0503228209960110  0.1533322216915008  0.6746039733896168
  0.0576565207853289  0.6092713558008981  0.2273545974453469
  0.1739003801659424  0.2092663806699268  0.8007253586865940
  0.5418587530807780  0.2958316160267254  0.3697073537481687
  0.9226819812109123  0.5959988146529693  0.7348289538875054
  0.0513637021231966  0.2858101716941980  0.5543953865815267
  0.7016496771778301  0.1726424239372512  0.1364621626699178
  0.4227433253740578  0.2827866065317146  0.2171685034630941
  0.7874809027672072  0.0132703921765991  0.2176391451673323
  0.4903069762026212  0.7879947632020211  0.4174845986871396
  0.2874323664748440  0.8789115221604615  0.7094794337106279
  0.7564393774573051  0.5957522410694411  0.7137867916503761
  0.4065733475375512  0.3437595198948613  0.6817169300113332
  0.2673693420296261  0.1587188454375024  0.3085711218061041
  0.8850708973623157  0.4427358884000200  0.9787256855005391
  0.2091118280355253  0.6713960273617544  0.8078162320985902
  0.8412790321127003  0.6092199823159951  0.8915292115945489
  0.5950749804863424  0.7143385965039627  0.2547166260513002
  0.6135678067713340  0.9106248259650079  0.5093045596970484
  0.5850241634269661  0.1852631051835460  0.9682697195438804
  0.5182701918997239  0.5969529387613793  0.1419923400010561
  0.5560439144888281  0.0854636596925355  0.5231064812698268
  0.3324352616393565  0.1694042115280138  0.1501011927440161
  0.3035143893067429  0.5685500662586678  0.9166659191514190
  0.0923810009703920  0.6974412584215165  0.3982248525152042
  0.0948297163106358  0.2805262092691297  0.9480358313542046
  0.1831419021066013  0.0669261462748954  0.2008628229772493
  0.5913084517871527  0.8900807345000497  0.3119554743751149
  0.9727879343411547  0.0869509256012072  0.1974866679531095
  0.1990816139419838  0.9630299718563905  0.3590760841806745
  0.0430735091780081  0.5287677126891592  0.6428493403220424
  0.6146305145389532  0.7842126582927910  0.6444516803176321
  0.0052546905828303  0.7301005661853700  0.1212874024251862
  0.3280062830668548  0.8721268219731637  0.0117454125410658
  0.1924204913311759  0.4951853260719547  0.1141668129550983
  0.4543421472619932  0.7680036723097708  0.7412137246273047
  0.2348330931133584  0.3968736105760360  0.8555405296384814
  0.2328029321185853  0.0681530409651498  0.6868070895156837
  0.5897274374176522  0.8664440164780568  0.7922439721594738
  0.6131916421096683  0.5084026162323549  0.5152802870196777
  0.8881491790930579  0.0217951944689377  0.5014768553329070
  0.5729018824474346  0.6339964784936982  0.7728792440361009
  0.4177473899003808  0.5852984855125414  0.7619530975868820
  0.9328102202428910  0.8483325491509414  0.4020084859852575
  0.2593262489717295  0.5911720810057061  0.6483087033700849
  0.9785626534306872  0.5150652015521905  0.0265831489028014
  0.8079364516135475  0.1561894562073812  0.8278708794809129
  0.4109887132019016  0.7853643195238504  0.9651761147398897
  0.8717142984248408  0.6215058886208219  0.2453273802472282
  0.0740214649768708  0.2604559130771880  0.7394967435416119
  0.4319105389955607  0.0201013892464732  0.1391354280189898
  0.5530564350302318  0.0790189833341765  0.3953355168023769
  0.3294960343518305  0.5049145332418590  0.7221148471532631
  0.1749975003344519  0.8560439859869744  0.2903633339965210
  0.3255229305824310  0.5764787168163069  0.5414591750620737
  0.0172408997451331  0.9338792964720489  0.6850939620243243
  0.6165569839852942  0.9072605179321769  0.1907132766491027
  0.3575537879468841  0.2369347813047036  0.8323113689115329
  0.7846895700722852  0.2747793395038973  0.8551585321764703
  0.8536879773135401  0.0177739737231778  0.3803154249891236
  0.3601004227032419  0.8286128967848897  0.7978283437948632
  0.8130472801198143  0.2572574920579953  0.6332229234266943
  0.4890227733371585  0.8936347370556430  0.4903064112005007
  0.2394043284987336  0.4151260165971083  0.5986227460236885
  0.5308132497727881  0.7338709322044855  0.8345662070664915
  0.7035858261916131  0.6483193690670537  0.6146682117100994
  0.2979118841061822  0.7368819837705413  0.8824596630621595
  0.1540182484942232  0.4931041843265070  0.4161454173131951
  0.6663041819410347  0.1195163306049852  0.8978907887115201
  0.3395805088390290  0.3359465095784575  0.5710700004869462
  0.8723305349827766  0.8201042820255300  0.2497264528153568
  0.1323638052204788  0.7097210436395437  0.5763669780040561
  0.7830252777337716  0.7330194916025934  0.2341861036259505
  0.3130160101718572  0.0003422330589516  0.7598871629907058
  0.2677269130460604  0.0693703103268575  0.5688717707687492
  0.8703929209000266  0.5858063854957186  0.4787344224325484
  0.5475258960397982  0.2791149849696605  0.2431879271308853
  0.2594048577215879  0.6658354250954749  0.9859121534154587
  0.5021248028483755  0.4804687674020396  0.1951487287839900
  0.7981256097467595  0.9897338110394378  0.5826863913189768
  0.0233889874068817  0.8197504591215853  0.9506117392104616
  0.6607023383512337  0.5079559499603322  0.6318394601350167
  0.9332582557193340  0.1325202207014828  0.5302340530083202
  0.5232988820267044  0.5158025052900470  0.7746542456106111
  0.1038211326418797  0.1147720552131120  0.3639195214307005
  0.8758116767713913  0.1851587710040124  0.0610990475956582
  0.1655059850356737  0.8835497739768713  0.6875434980956268
  0.2080365235339841  0.8446430794104813  0.0202152645103055
  0.1013471110512663  0.6221543903467510  0.4973970981021922
  0.2504812079093138  0.3564576462723963  0.2499007784549398
  0.8271231180199181  0.4396857705106349  0.3366427730070585
  0.4656411713410662  0.4342969439225638  0.0757192762547575
  0.2431297148004960  0.7048988534128114  0.6940484947594086
  0.3695633897974149  0.9730854551969697  0.9523049622770947
 -0.0002877440614887  0.4596529944214009  0.5504726884742813
  0.7513468931879703  0.0944772367012446  0.3074654113102759
  0.6742050428769285  0.6211188424978158  0.2354392439710030
  0.4014785230953224  0.8114310955344295  0.3347375244214495
  0.1049806499584989  0.3533956644776641  0.2525914770151037
  0.5068267803253993  0.2694510505622068  0.6674902060513634
  0.5919607238542619  0.3055606782433313  0.9398707109066657
  0.7223046837120527  0.0490456641502510  0.1156034946134389
  0.8114174308901599  0.8201172982726522  0.4374225029014774
  0.6694687639030366  0.8038742173655890  0.5358709550692151
  0.1162450364470581  0.7044676368626185  0.8845495653934342
  0.5019400790884979  0.5906327214228198  0.3495031012823754
  0.3986712393866064  0.0064319802043050  0.6691570891275922
  0.3733866368735425  0.3884548170705702  0.2620565949580829
  0.5722896044009945  0.2854763061527789  0.8182401498377073
  0.7982589889370966  0.3392417674688409  0.1939107604320742
  0.4806923075211159  0.6632824326913622  0.2442422330028986
  0.6135429949278239  0.3832635137622957  0.5102423277547801
  0.2093484518465215  0.1899188913496309  0.1974686887814743
  0.4017685734992961  0.2234952271559846  0.9465638576645581
  0.2625746640969922  0.1912948803129500  0.7121584718107165
  0.8997204746195622  0.9635675308938523  0.7460626195441965
  0.9359613698437450  0.4068812456315283  0.3895114296936720
  0.3851464647308955  0.8718600481687336  0.1270184018797089
  0.7365460031629829  0.4367861716721398  0.8918409241335028
  0.1761361512313118  0.1286333904599055  0.0468186281713677
  0.6333578336232091  0.1915644325029595  0.5245773356839784
  0.0027906605240879  0.4506132485240696  0.7379587797513302
  0.4917169864342388  0.9181430722126477  0.8619406550672420
  0.5825901830519296  0.6691891433798562  0.9808693035311393
  0.4676969893241751  0.9196584521839076  0.2977167538262399
  0.2583216682687148  0.0010700582705693  0.9120265240530083
  0.2063907825028882  0.9907527241868110  0.1012642182820382
  0.1376143528339148  0.3279301581146569  0.6478444470310591
  0.4220428690349675  0.4110326103244237  0.9465714942853966
  0.6916726235252590  0.4339541642703705  0.7745975624742145
  0.9637829093753584  0.7216752291837918  0.3959561455776436
  0.2716718851644991  0.0320184910868704  0.2831773245658106
  0.8343652329628883  0.8129244523346855  0.8637305222732478
  0.6069588936887698  0.7765811344776216  0.3641194672947982
  0.3512020436842188  0.8800336622580091  0.5984240566122713
  0.8348584235396879  0.2456559991684319  0.4210286087078930
  0.8464642092185076  0.7987343714688405  0.6473768320707287
  0.2420384881728363  0.1209456893704836  0.9434379023010879
  0.5780083386445535  0.0380594361484790  0.2326239178823488
  0.8559899684661767  0.4854567404036527  0.8601014121722175
  0.4861453069984609  0.8482492267357014  0.0420200698920638
  0.6874273982301544  0.6211438218958780  0.8189502483822988
  0.9489537326930951  0.7031559734212679  0.5208521903576928
  0.5763293062791461  0.1819218974185278  0.0938568698075332
  0.2122073094473146  0.2707475733658976  0.9043568304579855
  0.6502835807424924  0.1378168632252342  0.6913711876093438
  0.6402600887462850  0.2223489667497501  0.4033889862866003
  0.0345363365559451  0.3763993264899913  0.8842027035895519
  0.1534739124597659  0.0920512485823565  0.8386688330298619
  0.3472291186233522  0.0735867909522258  0.0711968640545205
  0.7782016068012091  0.4547441471479809  0.0389872211624146
  0.6094610822720946  0.0000953856625382  0.5946281155290507
  0.8969784441282648 -0.0042394008987602  0.1536304371183833
  0.9641691367396800  0.4598844553562133  0.1343971047968084
  0.9552229768149110  0.2479168983197398  0.2850267173385296
  0.7226689426988870  0.1006731250289943  0.5326320304850414
  0.9286605046319265  0.8566890785305291  0.0222097381467610
  0.6715784746465639  0.8509197774587338  0.9050992150390802
  0.0993245267327814  0.1652210250154713  0.5592783505434049
  0.4794266873547408  0.7051186502262988  0.5082377704868496
  0.3713816356622180  0.0596831619317017  0.4355207656829956
  0.0760654502369744  0.2302758087281541  0.2582312605119181
  0.7722935610497736  0.9785139671908225  0.7824639832168806
  0.1131928131630076  0.0537400971579845  0.7248474756153795
  0.7668507195289976  0.6048985618153786 -0.0049357381680903
  0.3155329653575771  0.7130410854145358  0.3777692401936486
  0.2887246838978940  0.2350116775968495  0.5210999066963882
  0.4957873085190751  0.5520718094182070  0.4856781500708192
  0.1939671782545258  0.1878521576203366  0.4033904555350796
  0.2565344927380900  0.3267983010064328  0.3769304207320103
  0.2306443109088235  0.5493279853011378  0.8184869071676905
  0.8910460099653915  0.7243593979676197  0.0735675187573818
  0.7531464411416444  0.2257743291735071  0.0309044544632873
  0.6541284636937602  0.9614941317597513  0.3983648534142633
  0.0099463947673882 -0.0006192711784606  0.0073790223018812
  0.1651780268199232  0.5085739256595417  0.6606908153506384
  0.9254938020132319  0.1466429491100662  0.7990071852070242
  0.9563642438492764  0.6425019725087830  0.9228511534571231
  0.6592177949985126  0.4316134378225169  0.2988171486082546
  0.6143802196965578 -0.0040315448240576  0.7620270782226186
  0.0873301270012491  0.6354778141863684  0.1094590318718628
  0.3470139598032473  0.4143492345481979  0.4217659813612365
  0.9819050782467511  0.5402333043018996  0.8309532285273524
  0.6268236146942088  0.6401150851934849  0.0960444058431436
  0.7819798362137235  0.8783697398838129  0.0814950924471374
  0.7899987971724689  0.4182709933119343  0.5324200762749004
  0.8368872466557404  0.6742966668131042  0.7810630434945097
  0.5853423218531794  0.0066045920121110  0.8910253046417466
  0.9296079454805223  0.1306295399103813  0.3062649758225474
  0.1135966182918787  0.0120749912678219  0.4309111741620991
  0.4348008961470067  0.1086229270789400  0.5483051679122625
  0.6861318852413339  0.7903363756208033  0.7493394541116685
  0.2823973031848978  0.7769308314813576  0.5599133513872725
  0.0763495410795420  0.8402440893785454  0.1291776747354434
  0.0451809256614443  0.3162263939477713  0.4338898923985595
  0.7773378568622517  0.2211092193559145  0.2361721267526831
  0.0173123104398048  0.1899970991149091  0.9204516879876028
  0.4770338289449785  0.1243952334100094  0.9320995512175491
  0.6190551747499593  0.3607675338772912  0.0825175323573166
  0.0715438562802437  0.0116383133202118  0.2222557213491955
  0.4368278015117925  0.6680708103889914  0.6691000539800096
  0.5788852551597885  0.6589755804631169  0.6468102285024638
  0.4149911217229871  0.6168786046314052  0.8853178556339910
  0.3533639805481708  0.7552829032116578  0.1557554984407847
  0.2382551791276911  0.8963810735918418  0.1813813609546429
  0.1171966787168998  0.4246977805689063  0.7987318459054876
  0.7994394189383351  0.0121863524611901  0.9502675413634386
  0.9292026747442783  0.1313671453262692  0.6707458873937646
  0.6114788369006098  0.7865619097567890  0.1514008620684954
  0.1529972173319971  0.6605452332547217  0.2948728372839701
  0.6458580742068447  0.1396306027015451  0.2547693776005243
  0.5531871863089658  0.4198631253405353  0.3852972556994308
  0.9732748071085793  0.9197497688697595  0.3085970926980521
  0.3501402134776460  0.5636558046296697  0.1839583202594093
  0.0035901506050472  0.6446888544723254  0.6583085771505368
  0.1207965570847993  0.4888406448451019  0.2204625363193983
  0.8450313528947301  0.5057816394216225  0.6909281241061070
  0.4462865234734398  0.1607102372025666  0.6701679927449697
  0.0969052060735072  0.3351106263044129  0.0635052879069369
  0.2409560707230620  0.6080244368422052  0.1428529891531956
  0.4252177520072916  0.5864105783034088  0.0561597251965380
  0.3576194103654450  0.3556696780290045  0.7995491811371157
  0.2992771190769330  0.9184103304090379  0.4250716355526503
  0.4315166673401329  0.2722768256685877  0.4202202820999347
  0.1303190913625207  0.8167406971104605  0.4163101374751157
  0.0235296718535569  0.7635184906672386  0.7668005740954845
  0.3224057006518852  0.5353346336730208  0.3054076802494247
  0.9331357502524036  0.3089743177978029  0.5931277544400234
  0.9644138347323008  0.9731164911614461  0.8529245187693798
  0.6857971228657621  0.2586951923270897  0.6616252454290522
  0.0018773088861303  0.1695866153835051  0.1102338973093148
  0.7543580373533872  0.7287982414871302  0.0035443983892433
  0.3022412594725480  0.4519459494705836  0.9660326732025558
  0.1695564366975048  0.5123075338231731 -0.0095892829240467
  0.1670553692982535  0.9023326868073497  0.8299836341215393
  0.4155949529166829  0.4610114100056711  0.6375984317171688
  0.5882613265413708  0.9740421251782755  0.0234855010082084
  0.9268965161327560  0.3278442950077859  0.9680471220785698
  0.9637831188705496  0.5443649695518078  0.2775389282058864
 -0.0141003582769464  0.7320857347452859  0.2516391380123220
  0.7655553354036817  0.8936066567284765  0.2539976393303176
  0.5174250061631476  0.8570942312225494  0.6784882575623724
  0.9594428122437260  0.9134459274335829  0.5113505423510547
  0.4739778579860715  0.1242328851665731  0.7959570699953662
  0.1520082801747951  0.8887871919173830  0.5626733743552856
  0.5998511793468291  0.7999910446228631  0.9935162322146639
  0.8752369408367644  0.6110197811649476  0.1224598461359040
  0.6221191912598784  0.3881866865246733  0.6368349099318331
  0.5715910219882943  0.5307032641320263  0.9842826127236228
  0.3871120364943144  0.2684591251330805  0.0996056837342257
  0.6830957539133578  0.5737082671794251  0.4322209061931223
  0.2525004041087960  0.3857707560170589  0.1144657575064168
  0.3882514277185199  0.1699348655479186  0.2682025318782456
  0.4626792181878340  0.4326318093362247  0.4818262599610315
  0.0326798867079901  0.7876851912332323  0.5556817167725023
 
  0.00000000E+00  0.00000000E+00  0.00000000E+00
  0.00000000E+00  0.00000000E+00  0.00000000E+00
  0.00000000E+00  0.00000000E+00  0.00000000E+00
  0.00000000E+00  0.00000000E+00  0.00000000E+00
  0.00000000E+00  0.00000000E+00  0.00000000E+00
  0.00000000E+00  0.00000000E+00  0.00000000E+00
  0.00000000E+00  0.00000000E+00  0.00000000E+00
  0.00000000E+00  0.00000000E+00  0.00000000E+00
  0.00000000E+00  0.00000000E+00  0.00000000E+00
  0.00000000E+00  0.00000000E+00  0.00000000E+00
  0.00000000E+00  0.00000000E+00  0.00000000E+00
  0.00000000E+00  0.00000000E+00  0.00000000E+00
  0.00000000E+00  0.00000000E+00  0.00000000E+00
  0.00000000E+00  0.00000000E+00  0.00000000E+00
  0.00000000E+00  0.00000000E+00  0.00000000E+00
  0.00000000E+00  0.00000000E+00  0.00000000E+00
  0.00000000E+00  0.00000000E+00  0.00000000E+00
  0.00000000E+00  0.00000000E+00  0.00000000E+00
  0.00000000E+00  0.00000000E+00  0.00000000E+00
  0.00000000E+00  0.00000000E+00  0.00000000E+00
  0.00000000E+00  0.00000000E+00  0.00000000E+00
  0.00000000E+00  0.00000000E+00  0.00000000E+00
  0.00000000E+00  0.00000000E+00  0.00000000E+00
  0.00000000E+00  0.00000000E+00  0.00000000E+00
  0.00000000E+00  0.00000000E+00  0.00000000E+00
  0.00000000E+00  0.00000000E+00  0.00000000E+00
  0.00000000E+00  0.00000000E+00  0.00000000E+00
  0.00000000E+00  0.00000000E+00  0.00000000E+00
  0.00000000E+00  0.00000000E+00  0.00000000E+00
  0.00000000E+00  0.00000000E+00  0.00000000E+00
  0.00000000E+00  0.00000000E+00  0.00000000E+00
  0.00000000E+00  0.00000000E+00  0.00000000E+00
  0.00000000E+00  0.00000000E+00  0.00000000E+00
  0.00000000E+00  0.00000000E+00  0.00000000E+00
  0.00000000E+00  0.00000000E+00  0.00000000E+00
  0.00000000E+00  0.00000000E+00  0.00000000E+00
  0.00000000E+00  0.00000000E+00  0.00000000E+00
  0.00000000E+00  0.00000000E+00  0.00000000E+00
  0.00000000E+00  0.00000000E+00  0.00000000E+00
  0.00000000E+00  0.00000000E+00  0.00000000E+00
  0.00000000E+00  0.00000000E+00  0.00000000E+00
  0.00000000E+00  0.00000000E+00  0.00000000E+00
  0.00000000E+00  0.00000000E+00  0.00000000E+00
  0.00000000E+00  0.00000000E+00  0.00000000E+00
  0.00000000E+00  0.00000000E+00  0.00000000E+00
  0.00000000E+00  0.00000000E+00  0.00000000E+00
  0.00000000E+00  0.00000000E+00  0.00000000E+00
  0.00000000E+00  0.00000000E+00  0.00000000E+00
  0.00000000E+00  0.00000000E+00  0.00000000E+00
  0.00000000E+00  0.00000000E+00  0.00000000E+00
  0.00000000E+00  0.00000000E+00  0.00000000E+00
  0.00000000E+00  0.00000000E+00  0.00000000E+00
  0.00000000E+00  0.00000000E+00  0.00000000E+00
  0.00000000E+00  0.00000000E+00  0.00000000E+00
  0.00000000E+00  0.00000000E+00  0.00000000E+00
  0.00000000E+00  0.00000000E+00  0.00000000E+00
  0.00000000E+00  0.00000000E+00  0.00000000E+00
  0.00000000E+00  0.00000000E+00  0.00000000E+00
  0.00000000E+00  0.00000000E+00  0.00000000E+00
  0.00000000E+00  0.00000000E+00  0.00000000E+00
  0.00000000E+00  0.00000000E+00  0.00000000E+00
  0.00000000E+00  0.00000000E+00  0.00000000E+00
  0.00000000E+00  0.00000000E+00  0.00000000E+00
  0.00000000E+00  0.00000000E+00  0.00000000E+00
  0.00000000E+00  0.00000000E+00  0.00000000E+00
  0.00000000E+00  0.00000000E+00  0.00000000E+00
  0.00000000E+00  0.00000000E+00  0.00000000E+00
  0.00000000E+00  0.00000000E+00  0.00000000E+00
  0.00000000E+00  0.00000000E+00  0.00000000E+00
  0.00000000E+00  0.00000000E+00  0.00000000E+00
  0.00000000E+00  0.00000000E+00  0.00000000E+00
  0.00000000E+00  0.00000000E+00  0.00000000E+00
  0.00000000E+00  0.00000000E+00  0.00000000E+00
  0.00000000E+00  0.00000000E+00  0.00000000E+00
  0.00000000E+00  0.00000000E+00  0.00000000E+00
  0.00000000E+00  0.00000000E+00  0.00000000E+00
  0.00000000E+00  0.00000000E+00  0.00000000E+00
  0.00000000E+00  0.00000000E+00  0.00000000E+00
  0.00000000E+00  0.00000000E+00  0.00000000E+00
  0.00000000E+00  0.00000000E+00  0.00000000E+00
  0.00000000E+00  0.00000000E+00  0.00000000E+00
  0.00000000E+00  0.00000000E+00  0.00000000E+00
  0.00000000E+00  0.00000000E+00  0.00000000E+00
  0.00000000E+00  0.00000000E+00  0.00000000E+00
  0.00000000E+00  0.00000000E+00  0.00000000E+00
  0.00000000E+00  0.00000000E+00  0.00000000E+00
  0.00000000E+00  0.00000000E+00  0.00000000E+00
  0.00000000E+00  0.00000000E+00  0.00000000E+00
  0.00000000E+00  0.00000000E+00  0.00000000E+00
  0.00000000E+00  0.00000000E+00  0.00000000E+00
  0.00000000E+00  0.00000000E+00  0.00000000E+00
  0.00000000E+00  0.00000000E+00  0.00000000E+00
  0.00000000E+00  0.00000000E+00  0.00000000E+00
  0.00000000E+00  0.00000000E+00  0.00000000E+00
  0.00000000E+00  0.00000000E+00  0.00000000E+00
  0.00000000E+00  0.00000000E+00  0.00000000E+00
  0.00000000E+00  0.00000000E+00  0.00000000E+00
  0.00000000E+00  0.00000000E+00  0.00000000E+00
  0.00000000E+00  0.00000000E+00  0.00000000E+00
  0.00000000E+00  0.00000000E+00  0.00000000E+00
  0.00000000E+00  0.00000000E+00  0.00000000E+00
  0.00000000E+00  0.00000000E+00  0.00000000E+00
  0.00000000E+00  0.00000000E+00  0.00000000E+00
  0.00000000E+00  0.00000000E+00  0.00000000E+00
  0.00000000E+00  0.00000000E+00  0.00000000E+00
  0.00000000E+00  0.00000000E+00  0.00000000E+00
  0.00000000E+00  0.00000000E+00  0.00000000E+00
  0.00000000E+00  0.00000000E+00  0.00000000E+00
  0.00000000E+00  0.00000000E+00  0.00000000E+00
  0.00000000E+00  0.00000000E+00  0.00000000E+00
  0.00000000E+00  0.00000000E+00  0.00000000E+00
  0.00000000E+00  0.00000000E+00  0.00000000E+00
  0.00000000E+00  0.00000000E+00  0.00000000E+00
  0.00000000E+00  0.00000000E+00  0.00000000E+00
  0.00000000E+00  0.00000000E+00  0.00000000E+00
  0.00000000E+00  0.00000000E+00  0.00000000E+00
  0.00000000E+00  0.00000000E+00  0.00000000E+00
  0.00000000E+00  0.00000000E+00  0.00000000E+00
  0.00000000E+00  0.00000000E+00  0.00000000E+00
  0.00000000E+00  0.00000000E+00  0.00000000E+00
  0.00000000E+00  0.00000000E+00  0.00000000E+00
  0.00000000E+00  0.00000000E+00  0.00000000E+00
  0.00000000E+00  0.00000000E+00  0.00000000E+00
  0.00000000E+00  0.00000000E+00  0.00000000E+00
  0.00000000E+00  0.00000000E+00  0.00000000E+00
  0.00000000E+00  0.00000000E+00  0.00000000E+00
  0.00000000E+00  0.00000000E+00  0.00000000E+00
  0.00000000E+00  0.00000000E+00  0.00000000E+00
  0.00000000E+00  0.00000000E+00  0.00000000E+00
  0.00000000E+00  0.00000000E+00  0.00000000E+00
  0.00000000E+00  0.00000000E+00  0.00000000E+00
  0.00000000E+00  0.00000000E+00  0.00000000E+00
  0.00000000E+00  0.00000000E+00  0.00000000E+00
  0.00000000E+00  0.00000000E+00  0.00000000E+00
  0.00000000E+00  0.00000000E+00  0.00000000E+00
  0.00000000E+00  0.00000000E+00  0.00000000E+00
  0.00000000E+00  0.00000000E+00  0.00000000E+00
  0.00000000E+00  0.00000000E+00  0.00000000E+00
  0.00000000E+00  0.00000000E+00  0.00000000E+00
  0.00000000E+00  0.00000000E+00  0.00000000E+00
  0.00000000E+00  0.00000000E+00  0.00000000E+00
  0.00000000E+00  0.00000000E+00  0.00000000E+00
  0.00000000E+00  0.00000000E+00  0.00000000E+00
  0.00000000E+00  0.00000000E+00  0.00000000E+00
  0.00000000E+00  0.00000000E+00  0.00000000E+00
  0.00000000E+00  0.00000000E+00  0.00000000E+00
  0.00000000E+00  0.00000000E+00  0.00000000E+00
  0.00000000E+00  0.00000000E+00  0.00000000E+00
  0.00000000E+00  0.00000000E+00  0.00000000E+00
  0.00000000E+00  0.00000000E+00  0.00000000E+00
  0.00000000E+00  0.00000000E+00  0.00000000E+00
  0.00000000E+00  0.00000000E+00  0.00000000E+00
  0.00000000E+00  0.00000000E+00  0.00000000E+00
  0.00000000E+00  0.00000000E+00  0.00000000E+00
  0.00000000E+00  0.00000000E+00  0.00000000E+00
  0.00000000E+00  0.00000000E+00  0.00000000E+00
  0.00000000E+00  0.00000000E+00  0.00000000E+00
  0.00000000E+00  0.00000000E+00  0.00000000E+00
  0.00000000E+00  0.00000000E+00  0.00000000E+00
  0.00000000E+00  0.00000000E+00  0.00000000E+00
  0.00000000E+00  0.00000000E+00  0.00000000E+00
  0.00000000E+00  0.00000000E+00  0.00000000E+00
  0.00000000E+00  0.00000000E+00  0.00000000E+00
  0.00000000E+00  0.00000000E+00  0.00000000E+00
  0.00000000E+00  0.00000000E+00  0.00000000E+00
  0.00000000E+00  0.00000000E+00  0.00000000E+00
  0.00000000E+00  0.00000000E+00  0.00000000E+00
  0.00000000E+00  0.00000000E+00  0.00000000E+00
  0.00000000E+00  0.00000000E+00  0.00000000E+00
  0.00000000E+00  0.00000000E+00  0.00000000E+00
  0.00000000E+00  0.00000000E+00  0.00000000E+00
  0.00000000E+00  0.00000000E+00  0.00000000E+00
  0.00000000E+00  0.00000000E+00  0.00000000E+00
  0.00000000E+00  0.00000000E+00  0.00000000E+00
  0.00000000E+00  0.00000000E+00  0.00000000E+00
  0.00000000E+00  0.00000000E+00  0.00000000E+00
  0.00000000E+00  0.00000000E+00  0.00000000E+00
  0.00000000E+00  0.00000000E+00  0.00000000E+00
  0.00000000E+00  0.00000000E+00  0.00000000E+00
  0.00000000E+00  0.00000000E+00  0.00000000E+00
  0.00000000E+00  0.00000000E+00  0.00000000E+00
  0.00000000E+00  0.00000000E+00  0.00000000E+00
  0.00000000E+00  0.00000000E+00  0.00000000E+00
  0.00000000E+00  0.00000000E+00  0.00000000E+00
  0.00000000E+00  0.00000000E+00  0.00000000E+00
  0.00000000E+00  0.00000000E+00  0.00000000E+00
  0.00000000E+00  0.00000000E+00  0.00000000E+00
  0.00000000E+00  0.00000000E+00  0.00000000E+00
  0.00000000E+00  0.00000000E+00  0.00000000E+00
  0.00000000E+00  0.00000000E+00  0.00000000E+00
  0.00000000E+00  0.00000000E+00  0.00000000E+00
  0.00000000E+00  0.00000000E+00  0.00000000E+00
  0.00000000E+00  0.00000000E+00  0.00000000E+00
  0.00000000E+00  0.00000000E+00  0.00000000E+00
  0.00000000E+00  0.00000000E+00  0.00000000E+00
  0.00000000E+00  0.00000000E+00  0.00000000E+00
  0.00000000E+00  0.00000000E+00  0.00000000E+00
  0.00000000E+00  0.00000000E+00  0.00000000E+00
  0.00000000E+00  0.00000000E+00  0.00000000E+00
  0.00000000E+00  0.00000000E+00  0.00000000E+00
  0.00000000E+00  0.00000000E+00  0.00000000E+00
  0.00000000E+00  0.00000000E+00  0.00000000E+00
  0.00000000E+00  0.00000000E+00  0.00000000E+00
  0.00000000E+00  0.00000000E+00  0.00000000E+00
  0.00000000E+00  0.00000000E+00  0.00000000E+00
  0.00000000E+00  0.00000000E+00  0.00000000E+00
  0.00000000E+00  0.00000000E+00  0.00000000E+00
  0.00000000E+00  0.00000000E+00  0.00000000E+00
  0.00000000E+00  0.00000000E+00  0.00000000E+00
  0.00000000E+00  0.00000000E+00  0.00000000E+00
  0.00000000E+00  0.00000000E+00  0.00000000E+00
  0.00000000E+00  0.00000000E+00  0.00000000E+00
  0.00000000E+00  0.00000000E+00  0.00000000E+00
  0.00000000E+00  0.00000000E+00  0.00000000E+00
  0.00000000E+00  0.00000000E+00  0.00000000E+00
  0.00000000E+00  0.00000000E+00  0.00000000E+00
  0.00000000E+00  0.00000000E+00  0.00000000E+00
  0.00000000E+00  0.00000000E+00  0.00000000E+00
  0.00000000E+00  0.00000000E+00  0.00000000E+00
  0.00000000E+00  0.00000000E+00  0.00000000E+00
  0.00000000E+00  0.00000000E+00  0.00000000E+00
  0.00000000E+00  0.00000000E+00  0.00000000E+00
  0.00000000E+00  0.00000000E+00  0.00000000E+00
  0.00000000E+00  0.00000000E+00  0.00000000E+00
  0.00000000E+00  0.00000000E+00  0.00000000E+00
  0.00000000E+00  0.00000000E+00  0.00000000E+00
  0.00000000E+00  0.00000000E+00  0.00000000E+00
  0.00000000E+00  0.00000000E+00  0.00000000E+00
  0.00000000E+00  0.00000000E+00  0.00000000E+00
  0.00000000E+00  0.00000000E+00  0.00000000E+00
  0.00000000E+00  0.00000000E+00  0.00000000E+00
  0.00000000E+00  0.00000000E+00  0.00000000E+00