Sb                                      
   1.00000000000000     
    17.5173007964999954    0.0000000000000000    0.0000000000000000
     0.0000000000000000   17.5173007964999954    0.0000000000000000
     0.0000000000000000    0.0000000000000000   17.5173007964999954
   Cd   S 
   100   100
Direct
  0.2312768661124131  0.0383406122042395  0.8275367167983638
  0.1266490187918486  0.7525457302493876  0.5558323062511217
 -0.0852994294833712  0.0876570433742647  0.3200797624571895
  0.3139989457391928  0.8850277139972915  0.4346207796345910
  0.1262536532872711  0.5262821709141424  0.7603299262131784
  0.2385574592350584  0.6781512061530238  0.8472573898543942
  0.4187500697933676  0.5515728723440660  0.9221406582410174
  0.0556799053463653  0.2505355632746031  0.2780196930487919
  0.5208111632987587  0.9230937852605563  0.7144321432724937
  0.6826214447288260  0.0251230451884334  0.4142417397629823
  0.7143689808638173  0.2488892581020614  0.4200835428206471
  0.7698973042348403  0.4895621728893131  0.5901130743589530
  0.4758069707807742  0.1114500539341965  0.3922467417902866
  0.8045450605188685  0.7024878214566346  0.8122375551752526
  0.2508972311339093  0.0755094633452215  0.3121041588771076
  0.5687064172916833  0.5838897824972549  0.8556246611237303
  0.1448558165252209  0.1605587191230890  0.9489573863466615
  0.3007437535046030  0.4039212573472049  0.0735463588771071
  0.0310197540866623  0.5338933145344271  0.5197003675642796
  0.1505560888574381 -0.0287929086911597  0.6237288199099703
  0.4446222896205564  0.6939501147399227  0.8353339157774067
  0.7949866453357759  0.2511369634614719  0.2417029560112205
  0.2540546667243153  0.5802038009955746  0.4363708603291992
  0.3219087507849521  0.6145796756675469  0.0727149721225041
  0.8222311407376123  0.0948588539107419  0.9794210664787634
  0.0118460534480994  0.6350117585739263 -0.0914237806174427
  0.7095892057328120  0.6888681993332101  0.2210096915980877
  0.3144880355530201  0.8416739293014903  0.6693875969923073
  0.2704099748257319  0.3906014384674680  0.6827804848965779
  0.8387082836168692 -0.0143720467712107  0.1508251284825433
  0.9232889081642730  0.3820149757254856  0.6852156388188572
  0.1415172060107856  0.3749575890747283  0.0831761145929845
  0.9787672147052229  0.6279046064398893  0.7118908109805231
  0.3941021209195825  0.5201080606192999  0.2538554914147306
  0.8245137041326716  0.2655605318650717  0.9711892361210565
  0.6623748195993577  0.4743759324953443  0.1694170116384493
  0.7421730405790165  0.8769552747629885  0.0002986855173101
  0.9127515652221575  0.0680693495979883  0.6927214139766712
  0.8671633328769749  0.7482119264284317  0.5787785128957903
  0.4260392571616107  0.6985878650443578  0.4370458351942416
  0.6660836329900628  0.9192828593129837  0.2041190867861404
  0.9818821895586149  0.3863853567948781  0.8983749674322419
  0.2542012171341183  0.3583495194162091  0.2951340456631718
  0.5562200117893478  0.5955196351151960  0.3432883677184240
  0.2025143087606859  0.4396725429298310  0.9410986116284893
  0.0564033715062140  0.9027888618711445  0.2678669567213394
  0.2780166592909071  0.8742011342165971  0.1788171167494843
  0.9393916727603597  0.3587338282928308  0.4450658527451624
  0.4105028063395472  0.2611829333176137  0.5242146221175967
  0.2770315603378508  0.1662139099040869  0.6644914252987236
  0.9172689718411039  0.4290845541258618  0.0886939471356090
  0.5421501854913293  0.5746274140106045  0.5693624105079312
  0.7170239592401372  0.6292373646825656  0.4347548758604911
  0.7671420916938153  0.8262960576286882  0.3897707573157794
 -0.0054014681663291  0.0431500523533919  0.8775189735251215
  0.4452005519051684  0.1993845275401213  0.1962413541437453
  0.9367802096316520  0.1977952111562792  0.0688093000904200
  0.0844021965545000  0.0445600467048344  0.1373375170746101
  0.7476654923492968  0.4547481548130305  0.8653352161002537
  0.8894980621634951  0.7967640568617471  0.2495198925476265
  0.1186936444736838  0.2695886669340323  0.7649222232555287
  0.6154819446598274  0.4134815834044164  0.4134881617365148
  0.3867474865705157  0.4629845603083461  0.4697840908698113
  0.6259095436587436  0.7897979660614368  0.8501901455416828
  0.7031927826636492  0.3292801792285973  0.6631231283432052
  0.5504221515129525  0.7383599983929499  0.0987736748676742
  0.5489663813315827  0.8405661934412927  0.2995916444132362
  0.4697946991496233  0.1165397986852044  0.8192205228606618
  0.6425797093095089  0.3273147399646611  0.2226624728035602
  0.3501515548673720  0.0421143416020111  0.5437110221755557
 -0.0472271681614722  0.6780309677587064  0.1690971805849545
  0.0132934627298299  0.1538566790321604  0.5043356164242043
  0.1235671472369372  0.8346691770273007  0.8161351036475568
  0.2271224589109128  0.6501603697421512  0.2338049794533401
  0.8312593683198261  0.4760184167952000  0.3106155481999125
  0.1352186024919953  0.7790720510769740  0.0656440593230493
  0.5842452016385589  0.3335745928973531  0.8538722421750689
  0.0636862101187264  0.7055200349941096  0.3599642360717572
  0.5101368571777618  0.9751234026502839  0.2169937892272009
  0.5193079648184949  0.9185915866797102  0.9452615375061959
  0.8056821295329893  0.1451114822519465  0.5565105856818436
  0.5193563019601638  0.4124064670491970  0.6608906050435690
  0.2552200735139029  0.2046743750364177  0.1516517227026356
  0.7148502938357768  0.0392540220100371  0.8028827321635355
  0.1898412294634337  0.3059335074165832  0.4847504702336730
  0.6724799024169006  0.7164033068388072  0.6392014419139436
 -0.0361102014944823  0.9359556264117442  0.4840263152456530
  0.6764116331676218  0.1540124781340735  0.2008689629615041
  0.0450767711167906  0.4904847701823114  0.2754858952142931
  0.7233741110824197  0.6706587226410339  0.0237547790227355
  0.3440977437930360  0.0607952216224990  0.0372869266137797
  0.5524631306487577  0.1638743856627459 -0.0022281684084114
  0.5312548772559322  0.9034764860217187  0.5113671096858425
  0.7461415893316882  0.9077333556143051  0.6198515993298043
  0.3358995629115366  0.2647884057455285  0.8897932538140187
  0.9526895010191263  0.8618236268863722  0.7163725600096055
  0.5026977862762455  0.3845648719274528  0.0583693418760907
  0.9363675647056414  0.8280360173146354 -0.0332570099104878
  0.3580080818736347  0.5890108340986269  0.6763486334961336
  0.5743283899090522  0.1382373183251512  0.6160206178044129
  0.0860647394768377  0.6285466105115006  0.2435995801583044
  0.7121348336054296  0.2448192175435099  0.8809780477877373
 -0.0011859086654065  0.8953663359022468  0.8517338298722980
  0.1915047497132377  0.2825247354497278  0.6299228209178740
  0.3988739837139582  0.4109394530499564  0.9656970245943011
  0.8365520636747640  0.8702351159384355  0.5080309610598976
  0.2728067128440789  0.5749259074695802  0.9393957687302004
  0.6927880761360043  0.5170214923373591  0.3423358029855995
  0.1085821332389552  0.1239017013563379  0.8144701522433658
  0.3743679910625407  0.6011518823100895  0.5287247547504433
  0.0327925263318483  0.0995421730656102  0.0135876232868009
  0.9192042480477574  0.5147010883750187  0.1983278488511402
  0.7738207141407712  0.6351566119987268  0.5680866124870054
  0.2777708428801069  0.5153066251355354  0.1720862309850051
  0.7905274758770243  0.1168306212742054  0.4048537172999752
  0.8202431309976237  0.3364287670251145  0.3579126283121550
  0.2116576692654871  0.0839290633663800  0.5651468050012127
  0.6153969356632297  0.8468682620679414  0.6229360424552833
  0.8644879192358075  0.0854588859431101  0.8319788501070940
  0.3933366050790105  0.3849715312895588  0.5911766582748685
  0.6822219209938588  0.1369785952831700  0.9233640135740939
  0.8533779908714670  0.3751872740787259  0.5599746377513386
  0.3266730189552394  0.1408498285200981  0.7969881578745128
  0.5634477082072042  0.7033593936787373  0.2473762719872157
  0.7483886695769030  0.5825373917216982  0.1298243643423024
  0.0030645644161672  0.7432018792057727  0.6289172881934264
  0.2912546768408166  0.8824542591357588  0.9504967703469920
  0.8113726323201215  0.7552900154812311  0.9463946809242278
  0.1257918775958672  0.6357546384235541  0.4727699833528127
  0.3311629414242403  0.7164515938501455  0.7429039012156144
  0.0031012091056302  0.9649424210496986  0.6282938728083469
  0.4802357020835886  0.4728082149546042  0.3598731335962946
  0.2331133118993930  0.8543170989260850  0.3187807757453363
 -0.0348956344602759  0.4969180217067302  0.3990749413318324
  0.7037095508986626  0.0382633696724113  0.1199400295317675
  0.3962759829808578  0.2460064015199598  0.3818151255986303
  0.4804590412785070  0.2424965642597239  0.8955963071729972
  0.2304891581961993  0.5252647168764109  0.6659587894787762
  0.6853450949003649  0.2253581716619348  0.5637677573996333
  0.4517549071869878  0.8382507470362935  0.0517054785782434
  0.7993248840114056 -0.0875267115915885  0.2728068043507769
  0.9301746164704859  0.2052616483025043  0.2176409379693997
  0.5909268423900020  0.2855145168201243  0.3572745273377656
  0.6410110820747114  0.8887787552924131  0.4074180908445858
 -0.0194746180707253  0.2998008484437629  0.7860799189208492
 -0.0334449852684774  0.0039437964647250  0.2130344033571163
  0.5636626382697183  0.0538680255303866  0.4932954094426683
  0.2675843012691478  0.1960997394277841  0.0052191994273929
  0.5509680980036674  0.2588105302427531  0.1095415739257768
  0.1370029136254081  0.9054875200520138  0.1414179438949048
  0.4158326234210628  0.9256485744138625  0.6109272706833883
  0.1475874398523647  0.1457113358429688  0.2257477830515643
  0.1018217188937153  0.6866911849960158  0.7999473194499300
  0.1208267808247927  0.3743649104205500  0.2318379397490128
  0.6649129563742500  0.6696270889674110  0.7746306937461918
  0.5770827005159235  0.6713465627109605  0.4721062493411026
  0.0567671845211056  0.2727867219787977  0.4264448885978514
  0.0110308563655682  0.7164921403065021  0.0291829009597209
  0.6272720701679619  0.4525446782579555  0.5535700262049745
  0.6150537743685904  0.4595939936932702  0.9179823519823765
  0.4047426614230344  0.9240833628772588  0.1211604080579471
  0.0109789557272723  0.3297197437546975  0.0382307284801253
  0.2762509036186700  0.2265777876966655  0.3802394896266158
  0.2619898953430156  0.7361943484629998  0.1244183614320438
  0.4672088681606873  0.0514121795235178 -0.0396714532283912
  0.2139656885231190  0.9200050394774827  0.7457133491083693
  0.8982116772427839  0.5950974568697518  0.8241492441470399
  0.6863671313701426  0.8027617211226479  0.1165436550053857
  0.4218063141638580  0.1532826633006646  0.6100459941332266
  0.4469568303291784  0.8339224472504124  0.4104887698816075
  0.1683301892683083  0.9523988434176316  0.3476652556618658
  0.5970885452302064  0.6949578545004769  0.9606009973372268
  0.2232519678540203  0.8526240497091048  0.5497814257054664
  0.5035396034529083  0.5108892975070017  0.1423083594568798
  0.6604097556960856  0.9257829318783044  0.8928592709506645
  0.3586578103885359  0.0238303354598274  0.3977551309466291
  0.2058628465344290  0.8023382333140905  0.9351517819269697
  0.5736160333382273  0.0571300555785267  0.7399272274850256
  0.4969043204534917  0.5504044171338741  0.7044882505345714
  0.7970464159006383  0.6978251060460056  0.3360916840225597
  0.4848466336691543  0.8362971162987913  0.8262840219444172
  0.0178837462021467  0.4991054959580772  0.6548472088266191
  0.8480502552150465  0.4118448624030636 -0.0389588363200575
  0.3341450872611258  0.6393769104940324  0.3305489105306033
  0.2482354287820653  0.4310312514450791  0.4220955717088564
  0.8656527173227047  0.9541127269754939  0.0130681026670058
  0.2337760312041067  0.3479080486207168  0.8255707307054945
  0.3437573322821297  0.3161439252761363  0.1874981898702428
  0.3467293211283625  0.0894209896897659  0.1828288739166387
  0.4706728545034219  0.5991852544111044  0.0684540803864908
  0.2354239927406160 -0.0141143550196029  0.9664569070518368
  0.7682429153193976  0.0402494444059086  0.6605918140445207
  0.9314879174111960  0.1878426965277345  0.6124256269038412
  0.0186731136276891  0.0473275192321896  0.4141385622149050
  0.5440671509870826  0.1102281377823993  0.2616865023388835
  0.5732838808204960  0.2955597628964752  0.7163119284279117
  0.7829005884763331  0.4290080552832128  0.7301946301406804
  0.8190746141834772  0.8072150580099914  0.7098748470182970
  0.0756440155198653  0.4983454534617622  0.8921720717289783
 -0.0098149602962695  0.8237321870609489  0.3703479460568799
 
  0.00000000E+00  0.00000000E+00  0.00000000E+00
  0.00000000E+00  0.00000000E+00  0.00000000E+00
  0.00000000E+00  0.00000000E+00  0.00000000E+00
  0.00000000E+00  0.00000000E+00  0.00000000E+00
  0.00000000E+00  0.00000000E+00  0.00000000E+00
  0.00000000E+00  0.00000000E+00  0.00000000E+00
  0.00000000E+00  0.00000000E+00  0.00000000E+00
  0.00000000E+00  0.00000000E+00  0.00000000E+00
  0.00000000E+00  0.00000000E+00  0.00000000E+00
  0.00000000E+00  0.00000000E+00  0.00000000E+00
  0.00000000E+00  0.00000000E+00  0.00000000E+00
  0.00000000E+00  0.00000000E+00  0.00000000E+00
  0.00000000E+00  0.00000000E+00  0.00000000E+00
  0.00000000E+00  0.00000000E+00  0.00000000E+00
  0.00000000E+00  0.00000000E+00  0.00000000E+00
  0.00000000E+00  0.00000000E+00  0.00000000E+00
  0.00000000E+00  0.00000000E+00  0.00000000E+00
  0.00000000E+00  0.00000000E+00  0.00000000E+00
  0.00000000E+00  0.00000000E+00  0.00000000E+00
  0.00000000E+00  0.00000000E+00  0.00000000E+00
  0.00000000E+00  0.00000000E+00  0.00000000E+00
  0.00000000E+00  0.00000000E+00  0.00000000E+00
  0.00000000E+00  0.00000000E+00  0.00000000E+00
  0.00000000E+00  0.00000000E+00  0.00000000E+00
  0.00000000E+00  0.00000000E+00  0.00000000E+00
  0.00000000E+00  0.00000000E+00  0.00000000E+00
  0.00000000E+00  0.00000000E+00  0.00000000E+00
  0.00000000E+00  0.00000000E+00  0.00000000E+00
  0.00000000E+00  0.00000000E+00  0.00000000E+00
  0.00000000E+00  0.00000000E+00  0.00000000E+00
  0.00000000E+00  0.00000000E+00  0.00000000E+00
  0.00000000E+00  0.00000000E+00  0.00000000E+00
  0.00000000E+00  0.00000000E+00  0.00000000E+00
  0.00000000E+00  0.00000000E+00  0.00000000E+00
  0.00000000E+00  0.00000000E+00  0.00000000E+00
  0.00000000E+00  0.00000000E+00  0.00000000E+00
  0.00000000E+00  0.00000000E+00  0.00000000E+00
  0.00000000E+00  0.00000000E+00  0.00000000E+00
  0.00000000E+00  0.00000000E+00  0.00000000E+00
  0.00000000E+00  0.00000000E+00  0.00000000E+00
  0.00000000E+00  0.00000000E+00  0.00000000E+00
  0.00000000E+00  0.00000000E+00  0.00000000E+00
  0.00000000E+00  0.00000000E+00  0.00000000E+00
  0.00000000E+00  0.00000000E+00  0.00000000E+00
  0.00000000E+00  0.00000000E+00  0.00000000E+00
  0.00000000E+00  0.00000000E+00  0.00000000E+00
  0.00000000E+00  0.00000000E+00  0.00000000E+00
  0.00000000E+00  0.00000000E+00  0.00000000E+00
  0.00000000E+00  0.00000000E+00  0.00000000E+00
  0.00000000E+00  0.00000000E+00  0.00000000E+00
  0.00000000E+00  0.00000000E+00  0.00000000E+00
  0.00000000E+00  0.00000000E+00  0.00000000E+00
  0.00000000E+00  0.00000000E+00  0.00000000E+00
  0.00000000E+00  0.00000000E+00  0.00000000E+00
  0.00000000E+00  0.00000000E+00  0.00000000E+00
  0.00000000E+00  0.00000000E+00  0.00000000E+00
  0.00000000E+00  0.00000000E+00  0.00000000E+00
  0.00000000E+00  0.00000000E+00  0.00000000E+00
  0.00000000E+00  0.00000000E+00  0.00000000E+00
  0.00000000E+00  0.00000000E+00  0.00000000E+00
  0.00000000E+00  0.00000000E+00  0.00000000E+00
  0.00000000E+00  0.00000000E+00  0.00000000E+00
  0.00000000E+00  0.00000000E+00  0.00000000E+00
  0.00000000E+00  0.00000000E+00  0.00000000E+00
  0.00000000E+00  0.00000000E+00  0.00000000E+00
  0.00000000E+00  0.00000000E+00  0.00000000E+00
  0.00000000E+00  0.00000000E+00  0.00000000E+00
  0.00000000E+00  0.00000000E+00  0.00000000E+00
  0.00000000E+00  0.00000000E+00  0.00000000E+00
  0.00000000E+00  0.00000000E+00  0.00000000E+00
  0.00000000E+00  0.00000000E+00  0.00000000E+00
  0.00000000E+00  0.00000000E+00  0.00000000E+00
  0.00000000E+00  0.00000000E+00  0.00000000E+00
  0.00000000E+00  0.00000000E+00  0.00000000E+00
  0.00000000E+00  0.00000000E+00  0.00000000E+00
  0.00000000E+00  0.00000000E+00  0.00000000E+00
  0.00000000E+00  0.00000000E+00  0.00000000E+00
  0.00000000E+00  0.00000000E+00  0.00000000E+00
  0.00000000E+00  0.00000000E+00  0.00000000E+00
  0.00000000E+00  0.00000000E+00  0.00000000E+00
  0.00000000E+00  0.00000000E+00  0.00000000E+00
  0.00000000E+00  0.00000000E+00  0.00000000E+00
  0.00000000E+00  0.00000000E+00  0.00000000E+00
  0.00000000E+00  0.00000000E+00  0.00000000E+00
  0.00000000E+00  0.00000000E+00  0.00000000E+00
  0.00000000E+00  0.00000000E+00  0.00000000E+00
  0.00000000E+00  0.00000000E+00  0.00000000E+00
  0.00000000E+00  0.00000000E+00  0.00000000E+00
  0.00000000E+00  0.00000000E+00  0.00000000E+00
  0.00000000E+00  0.00000000E+00  0.00000000E+00
  0.00000000E+00  0.00000000E+00  0.00000000E+00
  0.00000000E+00  0.00000000E+00  0.00000000E+00
  0.00000000E+00  0.00000000E+00  0.00000000E+00
  0.00000000E+00  0.00000000E+00  0.00000000E+00
  0.00000000E+00  0.00000000E+00  0.00000000E+00
  0.00000000E+00  0.00000000E+00  0.00000000E+00
  0.00000000E+00  0.00000000E+00  0.00000000E+00
  0.00000000E+00  0.00000000E+00  0.00000000E+00
  0.00000000E+00  0.00000000E+00  0.00000000E+00
  0.00000000E+00  0.00000000E+00  0.00000000E+00
  0.00000000E+00  0.00000000E+00  0.00000000E+00
  0.00000000E+00  0.00000000E+00  0.00000000E+00
  0.00000000E+00  0.00000000E+00  0.00000000E+00
  0.00000000E+00  0.00000000E+00  0.00000000E+00
  0.00000000E+00  0.00000000E+00  0.00000000E+00
  0.00000000E+00  0.00000000E+00  0.00000000E+00
  0.00000000E+00  0.00000000E+00  0.00000000E+00
  0.00000000E+00  0.00000000E+00  0.00000000E+00
  0.00000000E+00  0.00000000E+00  0.00000000E+00
  0.00000000E+00  0.00000000E+00  0.00000000E+00
  0.00000000E+00  0.00000000E+00  0.00000000E+00
  0.00000000E+00  0.00000000E+00  0.00000000E+00
  0.00000000E+00  0.00000000E+00  0.00000000E+00
  0.00000000E+00  0.00000000E+00  0.00000000E+00
  0.00000000E+00  0.00000000E+00  0.00000000E+00
  0.00000000E+00  0.00000000E+00  0.00000000E+00
  0.00000000E+00  0.00000000E+00  0.00000000E+00
  0.00000000E+00  0.00000000E+00  0.00000000E+00
  0.00000000E+00  0.00000000E+00  0.00000000E+00
  0.00000000E+00  0.00000000E+00  0.00000000E+00
  0.00000000E+00  0.00000000E+00  0.00000000E+00
  0.00000000E+00  0.00000000E+00  0.00000000E+00
  0.00000000E+00  0.00000000E+00  0.00000000E+00
  0.00000000E+00  0.00000000E+00  0.00000000E+00
  0.00000000E+00  0.00000000E+00  0.00000000E+00
  0.00000000E+00  0.00000000E+00  0.00000000E+00
  0.00000000E+00  0.00000000E+00  0.00000000E+00
  0.00000000E+00  0.00000000E+00  0.00000000E+00
  0.00000000E+00  0.00000000E+00  0.00000000E+00
  0.00000000E+00  0.00000000E+00  0.00000000E+00
  0.00000000E+00  0.00000000E+00  0.00000000E+00
  0.00000000E+00  0.00000000E+00  0.00000000E+00
  0.00000000E+00  0.00000000E+00  0.00000000E+00
  0.00000000E+00  0.00000000E+00  0.00000000E+00
  0.00000000E+00  0.00000000E+00  0.00000000E+00
  0.00000000E+00  0.00000000E+00  0.00000000E+00
  0.00000000E+00  0.00000000E+00  0.00000000E+00
  0.00000000E+00  0.00000000E+00  0.00000000E+00
  0.00000000E+00  0.00000000E+00  0.00000000E+00
  0.00000000E+00  0.00000000E+00  0.00000000E+00
  0.00000000E+00  0.00000000E+00  0.00000000E+00
  0.00000000E+00  0.00000000E+00  0.00000000E+00
  0.00000000E+00  0.00000000E+00  0.00000000E+00
  0.00000000E+00  0.00000000E+00  0.00000000E+00
  0.00000000E+00  0.00000000E+00  0.00000000E+00
  0.00000000E+00  0.00000000E+00  0.00000000E+00
  0.00000000E+00  0.00000000E+00  0.00000000E+00
  0.00000000E+00  0.00000000E+00  0.00000000E+00
  0.00000000E+00  0.00000000E+00  0.00000000E+00
  0.00000000E+00  0.00000000E+00  0.00000000E+00
  0.00000000E+00  0.00000000E+00  0.00000000E+00
  0.00000000E+00  0.00000000E+00  0.00000000E+00
  0.00000000E+00  0.00000000E+00  0.00000000E+00
  0.00000000E+00  0.00000000E+00  0.00000000E+00
  0.00000000E+00  0.00000000E+00  0.00000000E+00
  0.00000000E+00  0.00000000E+00  0.00000000E+00
  0.00000000E+00  0.00000000E+00  0.00000000E+00
  0.00000000E+00  0.00000000E+00  0.00000000E+00
  0.00000000E+00  0.00000000E+00  0.00000000E+00
  0.00000000E+00  0.00000000E+00  0.00000000E+00
  0.00000000E+00  0.00000000E+00  0.00000000E+00
  0.00000000E+00  0.00000000E+00  0.00000000E+00
  0.00000000E+00  0.00000000E+00  0.00000000E+00
  0.00000000E+00  0.00000000E+00  0.00000000E+00
  0.00000000E+00  0.00000000E+00  0.00000000E+00
  0.00000000E+00  0.00000000E+00  0.00000000E+00
  0.00000000E+00  0.00000000E+00  0.00000000E+00
  0.00000000E+00  0.00000000E+00  0.00000000E+00
  0.00000000E+00  0.00000000E+00  0.00000000E+00
  0.00000000E+00  0.00000000E+00  0.00000000E+00
  0.00000000E+00  0.00000000E+00  0.00000000E+00
  0.00000000E+00  0.00000000E+00  0.00000000E+00
  0.00000000E+00  0.00000000E+00  0.00000000E+00
  0.00000000E+00  0.00000000E+00  0.00000000E+00
  0.00000000E+00  0.00000000E+00  0.00000000E+00
  0.00000000E+00  0.00000000E+00  0.00000000E+00
  0.00000000E+00  0.00000000E+00  0.00000000E+00
  0.00000000E+00  0.00000000E+00  0.00000000E+00
  0.00000000E+00  0.00000000E+00  0.00000000E+00
  0.00000000E+00  0.00000000E+00  0.00000000E+00
  0.00000000E+00  0.00000000E+00  0.00000000E+00
  0.00000000E+00  0.00000000E+00  0.00000000E+00
  0.00000000E+00  0.00000000E+00  0.00000000E+00
  0.00000000E+00  0.00000000E+00  0.00000000E+00
  0.00000000E+00  0.00000000E+00  0.00000000E+00
  0.00000000E+00  0.00000000E+00  0.00000000E+00
  0.00000000E+00  0.00000000E+00  0.00000000E+00
  0.00000000E+00  0.00000000E+00  0.00000000E+00
  0.00000000E+00  0.00000000E+00  0.00000000E+00
  0.00000000E+00  0.00000000E+00  0.00000000E+00
  0.00000000E+00  0.00000000E+00  0.00000000E+00
  0.00000000E+00  0.00000000E+00  0.00000000E+00
  0.00000000E+00  0.00000000E+00  0.00000000E+00
  0.00000000E+00  0.00000000E+00  0.00000000E+00
  0.00000000E+00  0.00000000E+00  0.00000000E+00
  0.00000000E+00  0.00000000E+00  0.00000000E+00
  0.00000000E+00  0.00000000E+00  0.00000000E+00
  0.00000000E+00  0.00000000E+00  0.00000000E+00
  0.00000000E+00  0.00000000E+00  0.00000000E+00
  0.00000000E+00  0.00000000E+00  0.00000000E+00
