abc                                     
   1.00000000000000     
    14.0076726845294317    0.0000000000000000    0.0000000000000000
     0.0000000000000000   19.2235708099535465    0.0000000000000000
     0.0000000000000000    0.0000000000000000   46.3575678548487033
   Sb   Te
   144   216
Direct
  0.6168589975972220  0.8070466055498655  0.2886935965951909
  0.1574852662262955  0.6899679912605609  0.6295656521225721
  0.8123189281067787  0.6750182688984646  0.3580098575018904
  0.5252264994974619  0.4610287009840431  0.4022432073950528
  0.5102667590621821  0.1858820936665031  0.1718393306313513
  0.5806073138930152  0.2777036879843900  0.4305140846111301
  0.0020084593478313  0.0418552023140393  0.2458256740184893
  0.1269549467246326  0.7385528559062622  0.0800875180562733
  0.8501657766154693  0.9831371335579102  0.7734398796535685
  0.0440999137061022  0.4096368881664187  0.1110874256450948
  0.1856462775071436  0.9767415065261125  0.7241663616859446
  0.4442452266116478  0.2478425240106434  0.8429490249589445
  0.9299317043401353  0.5641741208989597  0.5225708948064394
  0.3814220914392685  0.5558196533610259  0.6473676713011417
  0.3544791861744060  0.2094829597202008  0.6045620239748248
  0.0793742100423900  0.1984167798143743  0.2271499963814310
  0.1998864640049078  0.2039876460488485  0.6650105713755605
  0.2447341068768549  0.0810061400100355  0.5886586106833078
  0.3796275974196021  0.7674017185980766  0.3330168509528511
  0.2563810943451098  0.2754007584668223  0.3244996287055479
  0.3570939661618082  0.1600521625219470  0.3925692084514523
  0.7363848301564223  0.2117795163045491  0.1098881393646952
  0.8531460078389553  0.0283772836472377  0.0170958032878154
  0.1284699029264732  0.2735313651069953  0.0935291321793785
  0.3253960658966792  0.3701411415848994  0.9259348107030538
  0.9550338606788088  0.1298766536904656  0.9034055110617533
  0.0371234801919537  0.8704300258692851  0.1934907099417538
  0.5935412871651204  0.7136487006823484  0.8431659432030170
  0.2450423546616471  0.2826434371644270  0.4070220077795988
  0.4151404188892208  0.2348683137787687  0.6729125161081388
  0.2273391039523501  0.5127071015402094  0.6081831314102323
  0.3342720884835195  0.5779261238747430  0.7640799347799222
  0.4007645530785024  0.2923879832522641  0.2043000503967544
  0.2672613451142178  0.9290629840310652  0.6453844894236002
  0.6942722339272389  0.0467560232630782  0.4744045415174498
  0.2609117393692691  0.1551941962536592  0.5261034079156482
  0.2894084509540988  0.5570050312334734  0.0492911615241512
  0.1704356741071135  0.9492058591396162  0.9774338144041428
  0.5173331495415993  0.5767008150973444  0.2754632437457543
  0.8828165935232268  0.7510644102064278  0.9618216636369520
  0.9364368687780213  0.8276866952023727  0.6184409022388466
  0.1191015433030431  0.8748499410736653  0.8913311583862809
  0.8505358332563927  0.0238682871754819  0.9365127359848248
  0.6340240409460508  0.3829391626752112  0.9739980950194617
  0.7109126920428968  0.8338446966451887  0.5117322545075866
  0.6566839561350498  0.6560773886770177  0.0039643028710466
  0.9182318465258766  0.7595055945200150  0.8726491873232523
  0.3680696594508941  0.8170783444961529  0.7274351678442120
  0.3529389386794731  0.3655777198494509  0.3657598313906459
  0.8077738176811942  0.3848570802881841  0.4208205588517818
  0.0838232349798638  0.9908938547787818  0.3583188314944264
  0.7914318299281157  0.4469224870707893  0.5915317409497151
  0.2232286097381015  0.5727619858541437  0.8183037853302716
  0.8246067762155643  0.1770933115888755  0.3457454533385456
  0.5387251764047685  0.3948230165431518  0.1482705342822036
  0.2505027567144307  0.2919261764152365  0.1603866964871888
  0.5332846052950365  0.1206405482435613  0.6006252906942869
  0.9908752810192474  0.4092869912320943  0.8433504258749982
  0.6054243632135834  0.1136224566909820  0.9475587237775280
  0.6487365441969267  0.1074579191075298  0.8385645114358439
  0.2197995303438160  0.3599989213269103  0.6658261585518481
  0.1372116655303564  0.8696482536897168  0.3931092242106854
  0.8478795196061847  0.9444441161429034  0.5035570733892685
  0.9961805830507681  0.0877868489300840  0.5408257005920910
  0.4304757362817454  0.4769930671496107  0.3157845159801542
  0.1890334584400378  0.2216783550015073  0.4735555809630357
  0.7431359165622292  0.0623395716367045  0.2289518542336784
  0.4967139285902880  0.8455106764811772  0.3765049996503895
  0.2756657521474359  0.4530457358916118  0.2180484072546411
  0.2299888142497300  0.0806010032388303  0.4300458307762881
  0.6075871308790713  0.7457348800768389  0.1806645715566776
  0.4662254182070590  0.7170193592209799  0.1120802595327827
  0.6715034197287479  0.3889009303673355  0.6803965579707727
  0.0334046451219733  0.6979578748895241  0.7775309882580113
  0.3101964844023168  0.8792528406795072  0.1053473215491511
  0.0313224529063465  0.1868821415730266  0.8113066630806123
  0.5103714904451280  0.6408554594441164  0.6097358307090722
  0.1696604351055304  0.1454238735822319  0.9298551344421772
  0.5680900570914832  0.0805140117169635  0.5251213906981368
  0.5383321454058037  0.4289617409014909  0.4902485127896770
  0.1900339781304006  0.1436434736327529  0.1657171703520933
  0.6001809557681413  0.5747678432751404  0.4986036764941689
  0.9401368915463981  0.3028381978198983  0.4970886428675910
  0.2831386195470718  0.1146214560323390  0.3362071988380309
  0.0914793713973217  0.1089246988761706  0.0389960665110467
  0.9275558525627817  0.4208785368668398  0.2348854793715641
  0.1945881925997997  0.3034677371812401  0.0120520474531313
  0.2137810941621539  0.7543297519267994  0.2443790153465423
  0.8652278742876645  0.6345064039569983  0.0058552308759434
  0.5248668298963557  0.7087252672068743  0.9392296206457635
  0.5714132788739137  0.2869051695275046  0.0689078879474936
  0.7876331627195872  0.3398297323219862  0.7839151275414579
  0.2476408432224794  0.3606944655065302  0.6018057795420479
  0.7553110646397169  0.1584252176763639  0.6633482695963429
  0.1646291858732692  0.7828465904948507  0.4687179971828741
  0.1144004102821218  0.7269514760734906  0.3430022386262060
  0.8504605659689596  0.0259548644206823  0.1010431737451693
  0.0082647269191369  0.8703397276298958  0.5344818255982433
  0.9433828384268880  0.7049579544792468  0.4946556331277775
  0.7001312423730635  0.3506337584899454  0.5388339491004346
  0.9402882911651994  0.5898955850729768  0.0738933981811448
  0.0016843389345818  0.6211210940274899  0.2589193312067816
  0.1108861690362801  0.3381994173935781  0.2021178419373554
  0.4543001488073153  0.5967106130259719  0.1856059076711460
  0.7843817017092242  0.3241296609161333  0.6324941761039410
  0.2943235833232380  0.0790866062607506  0.7823122475041512
  0.4569288545966109  0.5839227712090252  0.9021268870982844
  0.0615592032281963  0.5477542452231354  0.7802751254195697
  0.8611545161259307  0.8071350912133016  0.7134917279724416
  0.3283111801278144  0.9637963835003768  0.4895163025811781
  0.5705731674021987  0.4550356024316417  0.7492167995555477
  0.7729383697406691  0.6016251535304780  0.7929048050884184
  0.9703119792835763  0.2726050481183400  0.2723371164513556
  0.3597162303956928  0.8247436162674122  0.4470420263880023
  0.3049935103886894  0.6462073342475745  0.4900756165994473
  0.1001388336236157  0.9273323306140436  0.4504597015610967
  0.2147786816828305  0.4853075927553740  0.3053372051990454
  0.4500680122307658  0.1598625176555450  0.3011603377807566
  0.5334477829943457  0.2693786220739215  0.3674042663525113
  0.0883948566172519  0.5839502875563233  0.0271336155403197
  0.4745180610577398  0.1036100376276304  0.7503406189967123
  0.3760992726064775  0.9765774156822823  0.9707816449656913
  0.5368894920388720  0.7117453592559765  0.6657287962980788
  0.8778200477893363  0.2844460944387325  0.5659537019705330
  0.5080114164212113  0.6530723526301858  0.4230623949958913
  0.8709081006219591  0.2471648253648386  0.7384313678577558
  0.4596268983550015  0.3854107321373580  0.6705157253403266
  0.9695829337092059  0.5555224500303592  0.6900568972107853
  0.7992314951766122  0.1795662090722538  0.4880643026661914
  0.7100686281968729  0.9398816428145800  0.6576620463539113
  0.1868746624875424  0.6243948606438310  0.5628357311329369
  0.3928296822472345  0.9829923285916493  0.3376959113586439
  0.8066878284589514  0.4729269239331977  0.0388937882501167
  0.7581147380020542  0.8311369013604187  0.0944094739231427
  0.2226622777509567  0.9199874634316643  0.3104819178176396
  0.2442636455920121  0.4458461549060428  0.1292863825704957
  0.4917164475102979  0.5274565600806358  0.9783070658876257
  0.6449152278356809  0.0055455810643449  0.0311808776942730
  0.9204498011435408  0.3808837653031572  0.9736443217811194
  0.4726991727207701  0.4777867610463499  0.8449360154311227
  0.8278266667047121  0.0189278795720995  0.4159072728005141
  0.0892464481312314  0.6647925130158161  0.8735674813123264
  0.6534286950493914  0.3558246318354050  0.3273478039535621
  0.0156493527460900  0.3537305972788327  0.6481204810481439
  0.0439139462489538  0.0902520857609236  0.4037239976325075
  0.9553306346446655  0.3497505427402878  0.1617290889161819
  0.1865650939641094  0.5754393900279060  0.4277313309879580
  0.4371616215586218  0.5635642160053400  0.1150792499057420
  0.7853281533957704  0.1047451747640209  0.1525746990019556
  0.7878056617015747  0.7267165086098788  0.1369212463058197
  0.6443854106986351  0.3076066307448738  0.2376925546179244
  0.8055038538603893  0.6793611210567121  0.2534553035723615
  0.6246059234081932  0.7215845536456257  0.0581217548574081
  0.6763629586681190  0.0136269114120610  0.2845788343475908
  0.3852482508530901  0.0067160206706182  0.1367124041624270
  0.5035304532931314  0.8883682274101773  0.1729834072600033
  0.1713056006022466  0.7555650651637339  0.8253699341362287
  0.0374269402526936  0.0537752228602277  0.7736471174171257
  0.5917310142324705  0.2321753541384520  0.8902749980872869
  0.6970861980220413  0.8578007654552970  0.7440746088063672
  0.8026089240923042  0.1373097110650121  0.5505157827331781
  0.7438829758111759  0.7240760440109246  0.6587965460882934
  0.3872219351385136  0.6895835715177671  0.8597199294444474
  0.8707996211134401  0.0466046288068257  0.3059270762977647
  0.5734833364479154  0.1960824384995773  0.7906450397668429
  0.1813728678163944  0.9802620458977439  0.5312954059233885
  0.1531858615017374  0.8271258606395685  0.6053243576868991
  0.9883840326548582  0.4427393167199929  0.9141021095157199
  0.5481336445303675  0.1220899895559547  0.6628619635365897
  0.2361064411075443  0.5829037661335190  0.1873018454487778
  0.9830882738576158  0.4169377774084304  0.5676489900778093
  0.2268617568853126  0.8844620510487405  0.2157790289446773
  0.7623307974104604  0.3300788021153748  0.0200164387246949
  0.9929653790660073  0.3583054953533361  0.7850088194565528
  0.2336915623164940  0.3500045037764556  0.2716501652626550
  0.5806347217476066  0.5291368832118858  0.0342020528487743
  0.5504845119938164  0.6873948188935290  0.3222770648442755
  0.9306916205236645  0.5644056079925744  0.8299918022704413
  0.5754269607727028  0.1494438487650761  0.2305551720940757
  0.0182045004315721  0.1281365017594867  0.4806529402838523
  0.6142320944891239  0.1507118661061950  0.0170920975669196
  0.8635719123101818  0.6530006180420059  0.7398499559856724
  0.0180776179331478  0.4415442899761488  0.0310720481929677
  0.2522658308871101  0.4258190917225930  0.8347882309587465
  0.7246829470075626  0.4449228493919153  0.2272729331071053
  0.9939139500490669  0.7046230684473329  0.6650795204449832
  0.4555209307052577  0.7440790958975889  0.7744479765148993
  0.9185971672699382  0.3986607007486145  0.6983340470751030
  0.5329017643557982  0.5746030836381331  0.7119543961641400
  0.4108084349937708  0.1008180069786570  0.4834399380672711
  0.8067714328771296  0.7402782420944161  0.8213203377472731
  0.6296442871804159  0.5107692128166103  0.6354426030954974
  0.0774027197660107  0.4530323687950130  0.4412038573621411
  0.5010946854975443  0.3439339584433531  0.2808898931961543
  0.8995806660400091  0.8929820933542079  0.4460470925309580
  0.2386915703115666  0.5808328662620382  0.2518637235835074
  0.1657594192986823  0.7064322260747257  0.7313976427167362
  0.0135086546390286  0.5917534794565338  0.1296607192592066
  0.8713410326735175  0.2171170203868933  0.2223361053716824
  0.6266796810205881  0.9745651868936084  0.9712488531772387
  0.6920580914791085  0.8012060792143484  0.9740104134758486
  0.0009512889106010  0.1982437172950350  0.1307659344438525
  0.8624196394568744  0.6165283043044159  0.4226192816896343
  0.5452625689578713  0.8764175625938057  0.1028733097856564
  0.6966895347546064  0.6080498004592395  0.1102496532357294
  0.5725746195431548  0.9203628497567793  0.4662956186461256
  0.3082767883984729  0.6864289002275009  0.6708050760943371
  0.5181824521701283  0.5608293211282459  0.7930221679077206
  0.3855185159738661  0.3012976065326774  0.4523392468522444
  0.2003516397633039  0.0297804029449502  0.2697000095063481
  0.4166404529493996  0.7699522333530875  0.5908249783396738
  0.0896580347090628  0.2051360014259909  0.5662540435106038
  0.9414960314226352  0.8037574019438702  0.3822045521417147
  0.7967715586523487  0.5067768266783780  0.9733571284629612
  0.6831680533545867  0.2477305008099489  0.7134485835279070
  0.7603792470254521  0.0469054439354212  0.7052654964035270
  0.4460348450823959  0.3985859559297826  0.6092823179496714
  0.5808703578530430  0.1312996192776578  0.3493826548558950
  0.9659600437352746  0.2923640080063501  0.4337519359070974
  0.3123583559077976  0.1875382977042252  0.2401660392147540
  0.4727513487476165  0.1473304311622725  0.0637965455986186
  0.6091687495833398  0.4337026503706011  0.0924910059169630
  0.8769125652355558  0.8939560003452449  0.1368995027411164
  0.0167547857905544  0.2585305320126925  0.0399762187510645
  0.3359785324607975  0.7397527584674081  0.0649419502980114
  0.2264420035035682  0.9914931350833365  0.9109932774804691
  0.7227838718652215  0.5350722189635873  0.3523337366162757
  0.4519289489510263  0.0195771028246307  0.2782739466562446
  0.9696468802718622  0.9417492362975619  0.0535301770319465
  0.6107479037177721  0.0051511706910565  0.7940638658756924
  0.1539756711683067  0.8593835444848987  0.6878154418079664
  0.6075827685872849  0.6988139695640352  0.7402743113677663
  0.7689768837177797  0.7206717366169019  0.4645201609306804
  0.1768647657606206  0.4530002241605187  0.3658998284514197
  0.7063609982489091  0.9350406188411932  0.5605025096273647
  0.7388055044546752  0.0447372131639933  0.6150446678297321
  0.4942239642835615  0.9352220875963360  0.5263798950342535
  0.6144442163988978  0.2396771497113063  0.5017527851303860
  0.7195961191913383  0.8268681328587880  0.6078976376535004
  0.8579476144728339  0.7629195439611592  0.5461018559415749
  0.7479520725890805  0.5173791331086615  0.1558973815297680
  0.6943654281183504  0.9489050654707115  0.1878788869761680
  0.0384687181209273  0.0282023824564179  0.1851936025238673
  0.6767605037282605  0.5315684449058788  0.4338860039250329
  0.3507665146004442  0.0782401243625243  0.1956803575700962
  0.5083138259334165  0.8895590036857480  0.8841684322885658
  0.6743995596162891  0.2901997944089224  0.1649540120353986
  0.9032642918901796  0.7321033534774783  0.0577111462330332
  0.2800394727189444  0.4147839767045604  0.0700045129068184
  0.8365199085210847  0.8679842546197886  0.0106125537965825
  0.9411240292381636  0.4845595845534289  0.3951811450334425
  0.7468905168663650  0.2449690264780266  0.2958132512059190
  0.0251577672944825  0.0653670268504250  0.8510998608907490
  0.4907584768459355  0.2752771552360814  0.9718685167371818
  0.7928525935273463  0.1662583652379607  0.9661520878243997
  0.1775553850762789  0.1882789196284126  0.7266304455299100
  0.4883678499065547  0.7293092932452276  0.4786745673186166
  0.3610929757594737  0.0141537551119178  0.6940839231803247
  0.4756630486422774  0.8436049678367586  0.6409103083004080
  0.4232835353188115  0.5840370049813233  0.5382310426315675
  0.1515735314651958  0.5474485652748824  0.5117268279577720
  0.4150958747072470  0.9952511069631299  0.5969090701484839
  0.7688342126708416  0.3097639405390746  0.9353045370587182
  0.6844213964613656  0.0230274143815419  0.8996841046620317
  0.3779735991520803  0.8423879141177969  0.2783456412221754
  0.0492101017100351  0.6889410628033203  0.4192475793234792
  0.9566360487346875  0.4841299205445880  0.2894138723879326
  0.2713165848071022  0.1710770970782923  0.0235101125828053
  0.6615157812655407  0.8927381266616601  0.8292955236359052
  0.5298107506687167  0.8531474517768388  0.0406415059097062
  0.1953483874637217  0.9671093016907059  0.0413641315894664
  0.0317629592423124  0.2694936802699616  0.8693183962731682
  0.8127222527779751  0.4089159496747468  0.1017679983482166
  0.7458404534417159  0.8183258293883277  0.2165280423380323
  0.3418624541564408  0.7900893876128239  0.1542733692363937
  0.4182747300637547  0.5609925570459833  0.3694919497655945
  0.8506547880001187  0.9735523339530019  0.8374972736299309
  0.7266338659297733  0.5818042631984109  0.5464586715758021
  0.3064668143568660  0.4727013237674512  0.9917862702380221
  0.2804193431891063  0.2659554472005716  0.8840198959840697
  0.8154089945900684  0.4173793359656051  0.4897573448367313
  0.1435216594229424  0.3532402505067146  0.4984995021504007
  0.3624165840566862  0.8411096574619217  0.8462663682966101
  0.3952179648859620  0.2555822203705849  0.5464808514736788
  0.0390062650913683  0.5075198976329378  0.6335089387207620
  0.9737386067632603  0.9524554269955158  0.5840795888938841
  0.8184780971097790  0.5647425742938731  0.6311858593586878
  0.9944089593512604  0.1202309867399210  0.7153984055917350
  0.6411621948912406  0.9652563150519933  0.4058587646506383
  0.4805298234962312  0.4748707156822696  0.2221290223238594
  0.5951202872994376  0.1260674929431937  0.4259360614081355
  0.4357388944357831  0.2879806347354611  0.1163068174171604
  0.2751926006457687  0.8990978678597769  0.7691258682749390
  0.6011608500730994  0.0995493992555285  0.1080482501907965
  0.6720383392330053  0.6059919501999508  0.2003791847411792
  0.1210715915809883  0.2914135000052180  0.9539088488006936
  0.8307542968444986  0.2303989851761518  0.8738442561836810
  0.3167016159229532  0.9592537622716226  0.4040974699817945
  0.9301888571953685  0.9024505630470769  0.2453187485931831
  0.0590016535075209  0.7151519013305809  0.2059742671568699
  0.3999331717305940  0.8231415611359866  0.9308940680248220
  0.9830526213325941  0.8736168296679112  0.7565367660118343
  0.8075555357839169  0.6666007056025731  0.9119822279617835
  0.2695048313489669  0.2165484516776437  0.8028605935780185
  0.9107281262798533  0.9208335929478318  0.6675359695408540
  0.7108848531174667  0.5152971794909359  0.2914282760102245
  0.6647489781330820  0.7785848271101886  0.8956971479679229
  0.4051829008801063  0.4985869779860762  0.4499961165539765
  0.1385037101200612  0.0470255852828369  0.6401502304332403
  0.3305644659544967  0.7185242481802405  0.4027193645798205
  0.1617131876666845  0.5549947951095722  0.7187812078266507
  0.4059736648271312  0.9884595671783497  0.0338525484704442
  0.2481434119043345  0.7642462427787867  0.5265094148725130
  0.0686050852533924  0.7917441477653284  0.2885423641453351
  0.6379962667543615  0.7532389874015780  0.3985783752817071
  0.8387137329508877  0.3294792452333123  0.3619847268969419
  0.2677867455819689  0.8080915745422249  0.9914666485948439
  0.0526210103856868  0.0870830474167106  0.9754995132242307
  0.0977887081870986  0.7656597950378055  0.0195654378809967
  0.4431731431843272  0.3434627451498024  0.0240242412468407
  0.0208253902147950  0.1795591961551864  0.3221611585378317
  0.8506112800476616  0.1486820959361850  0.0590468181877293
  0.2821328830924206  0.1178010577137258  0.1095255028290283
  0.4592243616614974  0.7140804862366307  0.2259548474738701
  0.3413555274992783  0.0094812892382692  0.8355691605290279
  0.0197123969925482  0.5894692828692011  0.9297597673018434
  0.2277576235301669  0.4775296039620413  0.8942066952806286
  0.6331037936133020  0.5763798641869289  0.8686269448582725
  0.9788670121103334  0.1952803583437583  0.6582446871068887
  0.5581175431296608  0.3683647283006491  0.8136414743600932
  0.1382893181708842  0.7306878585559878  0.9290637443517942
  0.6421837781373448  0.2701834740424081  0.5940585692275843
  0.7830495462585477  0.3898293103791732  0.8452392779569629
  0.3311740948532841  0.4221491535155618  0.7650624744796174
  0.4638088833664234  0.1034193477636654  0.8670928669726021
  0.5217331090172082  0.4219027485060405  0.9078228526993474
  0.0787292243553740  0.3198430984485467  0.3489750779850384
  0.9674401106168931  0.5490130447933079  0.2058227920012719
  0.8900696406744205  0.9398220284452561  0.3523862433114898
  0.6370129282214130  0.8994782538960107  0.3376792460738279
  0.0505145806167718  0.0617889571854354  0.1077221988918968
  0.9448548625637736  0.8902052650527131  0.9230398936177020
  0.1013987612481497  0.8674517856379337  0.1125435275594081
  0.2202192108923338  0.6031746095260790  0.9578096777255021
  0.2607078133931961  0.6359808175977416  0.3191386349100960
  0.2245833649890891  0.5932553619622393  0.1159467479962210
  0.9858107978137680  0.6139467208106144  0.3364663093381044
  0.8155063034485034  0.7701131745751509  0.3012767728758691
  0.7775388882495070  0.4484707416030316  0.9053523936913170
  0.3951324596288345  0.6616253256662586  0.9871586548524786
  0.3702255924370941  0.1161298629863957  0.9488622685825474
  0.7738633985189124  0.4749586259232613  0.7533407611813502
  0.5190068605573426  0.9200001417881049  0.7139946498365694
  0.3926190212772442  0.4357086963637828  0.5337835410706842
  0.0343602421946065  0.8686415711329926  0.8326031683031454
  0.3996698138290792  0.2395613670598358  0.7350617365266963
  0.8272775869345481  0.1781817029864532  0.7942467652875036
  0.7904804223897951  0.1935092053603172  0.4231182247720482
  0.1698231355885851  0.3970808181826938  0.7316085838096794
  0.9888493721650471  0.6319736941434237  0.5748969174481117
 
  0.00000000E+00  0.00000000E+00  0.00000000E+00
  0.00000000E+00  0.00000000E+00  0.00000000E+00
  0.00000000E+00  0.00000000E+00  0.00000000E+00
  0.00000000E+00  0.00000000E+00  0.00000000E+00
  0.00000000E+00  0.00000000E+00  0.00000000E+00
  0.00000000E+00  0.00000000E+00  0.00000000E+00
  0.00000000E+00  0.00000000E+00  0.00000000E+00
  0.00000000E+00  0.00000000E+00  0.00000000E+00
  0.00000000E+00  0.00000000E+00  0.00000000E+00
  0.00000000E+00  0.00000000E+00  0.00000000E+00
  0.00000000E+00  0.00000000E+00  0.00000000E+00
  0.00000000E+00  0.00000000E+00  0.00000000E+00
  0.00000000E+00  0.00000000E+00  0.00000000E+00
  0.00000000E+00  0.00000000E+00  0.00000000E+00
  0.00000000E+00  0.00000000E+00  0.00000000E+00
  0.00000000E+00  0.00000000E+00  0.00000000E+00
  0.00000000E+00  0.00000000E+00  0.00000000E+00
  0.00000000E+00  0.00000000E+00  0.00000000E+00
  0.00000000E+00  0.00000000E+00  0.00000000E+00
  0.00000000E+00  0.00000000E+00  0.00000000E+00
  0.00000000E+00  0.00000000E+00  0.00000000E+00
  0.00000000E+00  0.00000000E+00  0.00000000E+00
  0.00000000E+00  0.00000000E+00  0.00000000E+00
  0.00000000E+00  0.00000000E+00  0.00000000E+00
  0.00000000E+00  0.00000000E+00  0.00000000E+00
  0.00000000E+00  0.00000000E+00  0.00000000E+00
  0.00000000E+00  0.00000000E+00  0.00000000E+00
  0.00000000E+00  0.00000000E+00  0.00000000E+00
  0.00000000E+00  0.00000000E+00  0.00000000E+00
  0.00000000E+00  0.00000000E+00  0.00000000E+00
  0.00000000E+00  0.00000000E+00  0.00000000E+00
  0.00000000E+00  0.00000000E+00  0.00000000E+00
  0.00000000E+00  0.00000000E+00  0.00000000E+00
  0.00000000E+00  0.00000000E+00  0.00000000E+00
  0.00000000E+00  0.00000000E+00  0.00000000E+00
  0.00000000E+00  0.00000000E+00  0.00000000E+00
  0.00000000E+00  0.00000000E+00  0.00000000E+00
  0.00000000E+00  0.00000000E+00  0.00000000E+00
  0.00000000E+00  0.00000000E+00  0.00000000E+00
  0.00000000E+00  0.00000000E+00  0.00000000E+00
  0.00000000E+00  0.00000000E+00  0.00000000E+00
  0.00000000E+00  0.00000000E+00  0.00000000E+00
  0.00000000E+00  0.00000000E+00  0.00000000E+00
  0.00000000E+00  0.00000000E+00  0.00000000E+00
  0.00000000E+00  0.00000000E+00  0.00000000E+00
  0.00000000E+00  0.00000000E+00  0.00000000E+00
  0.00000000E+00  0.00000000E+00  0.00000000E+00
  0.00000000E+00  0.00000000E+00  0.00000000E+00
  0.00000000E+00  0.00000000E+00  0.00000000E+00
  0.00000000E+00  0.00000000E+00  0.00000000E+00
  0.00000000E+00  0.00000000E+00  0.00000000E+00
  0.00000000E+00  0.00000000E+00  0.00000000E+00
  0.00000000E+00  0.00000000E+00  0.00000000E+00
  0.00000000E+00  0.00000000E+00  0.00000000E+00
  0.00000000E+00  0.00000000E+00  0.00000000E+00
  0.00000000E+00  0.00000000E+00  0.00000000E+00
  0.00000000E+00  0.00000000E+00  0.00000000E+00
  0.00000000E+00  0.00000000E+00  0.00000000E+00
  0.00000000E+00  0.00000000E+00  0.00000000E+00
  0.00000000E+00  0.00000000E+00  0.00000000E+00
  0.00000000E+00  0.00000000E+00  0.00000000E+00
  0.00000000E+00  0.00000000E+00  0.00000000E+00
  0.00000000E+00  0.00000000E+00  0.00000000E+00
  0.00000000E+00  0.00000000E+00  0.00000000E+00
  0.00000000E+00  0.00000000E+00  0.00000000E+00
  0.00000000E+00  0.00000000E+00  0.00000000E+00
  0.00000000E+00  0.00000000E+00  0.00000000E+00
  0.00000000E+00  0.00000000E+00  0.00000000E+00
  0.00000000E+00  0.00000000E+00  0.00000000E+00
  0.00000000E+00  0.00000000E+00  0.00000000E+00
  0.00000000E+00  0.00000000E+00  0.00000000E+00
  0.00000000E+00  0.00000000E+00  0.00000000E+00
  0.00000000E+00  0.00000000E+00  0.00000000E+00
  0.00000000E+00  0.00000000E+00  0.00000000E+00
  0.00000000E+00  0.00000000E+00  0.00000000E+00
  0.00000000E+00  0.00000000E+00  0.00000000E+00
  0.00000000E+00  0.00000000E+00  0.00000000E+00
  0.00000000E+00  0.00000000E+00  0.00000000E+00
  0.00000000E+00  0.00000000E+00  0.00000000E+00
  0.00000000E+00  0.00000000E+00  0.00000000E+00
  0.00000000E+00  0.00000000E+00  0.00000000E+00
  0.00000000E+00  0.00000000E+00  0.00000000E+00
  0.00000000E+00  0.00000000E+00  0.00000000E+00
  0.00000000E+00  0.00000000E+00  0.00000000E+00
  0.00000000E+00  0.00000000E+00  0.00000000E+00
  0.00000000E+00  0.00000000E+00  0.00000000E+00
  0.00000000E+00  0.00000000E+00  0.00000000E+00
  0.00000000E+00  0.00000000E+00  0.00000000E+00
  0.00000000E+00  0.00000000E+00  0.00000000E+00
  0.00000000E+00  0.00000000E+00  0.00000000E+00
  0.00000000E+00  0.00000000E+00  0.00000000E+00
  0.00000000E+00  0.00000000E+00  0.00000000E+00
  0.00000000E+00  0.00000000E+00  0.00000000E+00
  0.00000000E+00  0.00000000E+00  0.00000000E+00
  0.00000000E+00  0.00000000E+00  0.00000000E+00
  0.00000000E+00  0.00000000E+00  0.00000000E+00
  0.00000000E+00  0.00000000E+00  0.00000000E+00
  0.00000000E+00  0.00000000E+00  0.00000000E+00
  0.00000000E+00  0.00000000E+00  0.00000000E+00
  0.00000000E+00  0.00000000E+00  0.00000000E+00
  0.00000000E+00  0.00000000E+00  0.00000000E+00
  0.00000000E+00  0.00000000E+00  0.00000000E+00
  0.00000000E+00  0.00000000E+00  0.00000000E+00
  0.00000000E+00  0.00000000E+00  0.00000000E+00
  0.00000000E+00  0.00000000E+00  0.00000000E+00
  0.00000000E+00  0.00000000E+00  0.00000000E+00
  0.00000000E+00  0.00000000E+00  0.00000000E+00
  0.00000000E+00  0.00000000E+00  0.00000000E+00
  0.00000000E+00  0.00000000E+00  0.00000000E+00
  0.00000000E+00  0.00000000E+00  0.00000000E+00
  0.00000000E+00  0.00000000E+00  0.00000000E+00
  0.00000000E+00  0.00000000E+00  0.00000000E+00
  0.00000000E+00  0.00000000E+00  0.00000000E+00
  0.00000000E+00  0.00000000E+00  0.00000000E+00
  0.00000000E+00  0.00000000E+00  0.00000000E+00
  0.00000000E+00  0.00000000E+00  0.00000000E+00
  0.00000000E+00  0.00000000E+00  0.00000000E+00
  0.00000000E+00  0.00000000E+00  0.00000000E+00
  0.00000000E+00  0.00000000E+00  0.00000000E+00
  0.00000000E+00  0.00000000E+00  0.00000000E+00
  0.00000000E+00  0.00000000E+00  0.00000000E+00
  0.00000000E+00  0.00000000E+00  0.00000000E+00
  0.00000000E+00  0.00000000E+00  0.00000000E+00
  0.00000000E+00  0.00000000E+00  0.00000000E+00
  0.00000000E+00  0.00000000E+00  0.00000000E+00
  0.00000000E+00  0.00000000E+00  0.00000000E+00
  0.00000000E+00  0.00000000E+00  0.00000000E+00
  0.00000000E+00  0.00000000E+00  0.00000000E+00
  0.00000000E+00  0.00000000E+00  0.00000000E+00
  0.00000000E+00  0.00000000E+00  0.00000000E+00
  0.00000000E+00  0.00000000E+00  0.00000000E+00
  0.00000000E+00  0.00000000E+00  0.00000000E+00
  0.00000000E+00  0.00000000E+00  0.00000000E+00
  0.00000000E+00  0.00000000E+00  0.00000000E+00
  0.00000000E+00  0.00000000E+00  0.00000000E+00
  0.00000000E+00  0.00000000E+00  0.00000000E+00
  0.00000000E+00  0.00000000E+00  0.00000000E+00
  0.00000000E+00  0.00000000E+00  0.00000000E+00
  0.00000000E+00  0.00000000E+00  0.00000000E+00
  0.00000000E+00  0.00000000E+00  0.00000000E+00
  0.00000000E+00  0.00000000E+00  0.00000000E+00
  0.00000000E+00  0.00000000E+00  0.00000000E+00
  0.00000000E+00  0.00000000E+00  0.00000000E+00
  0.00000000E+00  0.00000000E+00  0.00000000E+00
  0.00000000E+00  0.00000000E+00  0.00000000E+00
  0.00000000E+00  0.00000000E+00  0.00000000E+00
  0.00000000E+00  0.00000000E+00  0.00000000E+00
  0.00000000E+00  0.00000000E+00  0.00000000E+00
  0.00000000E+00  0.00000000E+00  0.00000000E+00
  0.00000000E+00  0.00000000E+00  0.00000000E+00
  0.00000000E+00  0.00000000E+00  0.00000000E+00
  0.00000000E+00  0.00000000E+00  0.00000000E+00
  0.00000000E+00  0.00000000E+00  0.00000000E+00
  0.00000000E+00  0.00000000E+00  0.00000000E+00
  0.00000000E+00  0.00000000E+00  0.00000000E+00
  0.00000000E+00  0.00000000E+00  0.00000000E+00
  0.00000000E+00  0.00000000E+00  0.00000000E+00