Ge Se                                   
   1.00000000000000     
    20.8706398010253906    0.0000000000000000    0.0000000000000000
     0.0000000000000000   20.8706398010253906    0.0000000000000000
     0.0000000000000000    0.0000000000000000   20.8706398010253906
   Ge   Se
   150   150
Direct
  0.8820213250709493  0.8470317394896353  0.5952920319870163
  0.2210947207673866  0.9522632840646289  0.3650830152352138
  0.3313126206600928  0.9617712548766806  0.5843927728358193
  0.5986643668247421  0.6878582833105895  0.3697366396429358
  0.9672115379876728  0.7035217103854653  0.9566648404419260
  0.1202392232855903  0.5049131771604773  0.3779039564168631
  0.8733230891253704  0.6680110164813533  0.6780206159000652
  0.6274296266631825  0.6353209692684464  0.5665246669798041
  0.7674511480458134  0.1247880785551179  0.4354326051284369
  0.9774723432146507  0.0963444647486223  0.4702795095416021
  0.4416540269276025  0.5529156034328326  0.9726168463703480
  0.0357100517924463  0.2180353744235280  0.5378966184555789
  0.9556830896163108  0.0291183928433182  0.3209503419127280
  0.7636728358249482  0.0058848655207937  0.5723806863400575
  0.2424708722226767  0.8909059121098644  0.5251560086101308
  0.3261750702130165  0.5326187684688657  0.4554198536465902
  0.6637555914948304  0.6132983398349398  0.0619912177576443
  0.9844471458921841  0.2451793567922881 -0.0050255612071363
  0.6621021717072776  0.8518590511394598  0.0811378543823827
  0.0924657439824270  0.5096575149307748  0.6328646184614037
  0.4777843568233506  0.6549566490056363  0.7620056631839329
  0.2019676506827948  0.5483303432807379  0.2196999193334253
  0.8088376052763677  0.9955673629141598  0.1918254322260808
  0.9878475472653370  0.2339891810291432  0.7569427515820903
  0.4999417533446791  0.3354317707232725  0.6195052795282959
  0.9301644235182768  0.8160925431961150  0.1945726629789712
  0.6435466584370816  0.4572569130312537  0.3870151071238599
  0.8521436346933410  0.3147639589178241  0.6591784135891050
  0.0903938761744100  0.9044428611955285  0.5685376184502885
  0.8214461762557452  0.9054068041971708  0.0247516322449061
  0.6968718308528676  0.7625583479051796  0.6250217447752733
  0.7711976646049450  0.8240501807736089  0.5460948999594754
  0.1275383974718146  0.7211120240284500  0.9040031143255757
  0.4578570077558777  0.4905819195300419  0.6009575010174397
  0.2625521693363069  0.0673594196769903  0.2442328491914230
  0.8370034429807385  0.0573039282347291  0.8714857275131510
  0.0751559629112236  0.4378692358398022  0.1720046624095981
  0.9776288062623371  0.0201374771312156  0.1988236654595855
  0.0862597874336254  0.0419000282607457  0.9316089617299759
  0.4749793534429427  0.9472090010056539  0.8859338062895519
  0.6922291417918399  0.5077976902802996  0.9115169296016766
  0.8585744279691840  0.4614365119982167  0.4571554820907542
  0.6038630837988741  0.8580935433941532  0.7606537244395705
  0.5846034682190799  0.6008945106686000  0.1569959827236380
  0.6035996114565978  0.0327479828224427  0.9751520544422329
  0.5886356809524236  0.0205201290735840  0.4934766476337442
  0.1941594517560059  0.2402013917184259  0.8669978382889427
  0.7453698423787729  0.6813511369018109  0.8995453672020957
  0.0708090888214365  0.2946286824998404  0.9200690491101634
  0.4957219963527308  0.0063437546431743  0.2492212480720511
  0.9700206973881575  0.3439060736114131  0.6326602194972780
  0.0236675682980955  0.7623505867920638  0.6126871962519005
  0.5251576527190038  0.5509178994185600  0.4085921992493110
  0.9946219903749594  0.3867009714611936  0.0288150280031595
  0.5426940444336700  0.8464315557019718  0.4510774843265183
  0.8850339071538904  0.1639656303191031  0.2148487801411929
  0.5167914877132465  0.2570175161592061  0.0030171669200574
  0.3493419413707151  0.6994641919401595  0.4439820496227244
  0.4838833644378255  0.6609214884422838  0.1036621058065927
  0.6875639133692756  0.0108729570730855  0.2261829077229367
  0.8398824551737128  0.8942606148663423  0.4309439159724177
  0.9316551930255744  0.5759147204153016  0.3530678527270635
  0.4339232872458109  0.0300372585047589  0.0215761987809599
  0.3561302872449971  0.2492601366446567  0.1761121327140056
  0.7704057926289700  0.2209607863557067  0.2161188834337121
  0.9317678241184904  0.5033353192396656  0.7515378946928077
  0.4816510400371685  0.9149750485693846  0.0052119063447945
  0.5593400734920640  0.0322199533975792  0.8588459591243798
  0.7553860996027183  0.1102136913282816  0.1120093765090459
  0.5739510022987979  0.7708686398515954  0.6459367054743181
  0.0569172690566196  0.9265468447472121  0.0793194226919522
  0.5512687247786879  0.1360294804465425  0.7813215328617290
  0.5032870284191640  0.4239761240640206  0.9953917544859069
  0.6907083705494638  0.5699296664046726  0.2189195631388061
  0.8233004527210683  0.3636331411242092  0.3278108491456495
  0.3817554822631199  0.7020824647338015  0.6444201921549747
  0.6495434675937293  0.4491940004622664  0.5248550352249655
  0.1650173015347233  0.5369963422140492  0.0572689365044343
  0.2320491948150648  0.3748729838665061  0.6237201677253131
  0.3537532310847863  0.2198098862393672  0.2994983137108549
  0.2454951796244241  0.2807007565693899  0.0224115515303018
  0.7523352375081082  0.6655253958950186  0.6745662173207245
  0.2564850281257416  0.3107793606227924  0.4616479431446778
  0.3898652122943935  0.6386227498702673  0.3171662506934911
  0.6824430754054281  0.6883223160116725  0.7759087057521283
  0.4762214979454428  0.4057225425479831  0.7927182606992077
  0.4625337049195256  0.2877667978977580  0.1161795438122530
  0.1008551759609463  0.1060663842118022  0.6992779106822529
  0.4870095708689828  0.6871176084935033  0.9785428011397119
  0.4666539373964330  0.5634318262896015  0.8512065915958807
  0.8674240639527167  0.3906582964384457  0.7522693431467743
  0.7909219362937948  0.7124640902768612  0.0198881247292238
  0.5750703737717487  0.3124499599528073  0.7781078394485212
  0.8876470377175313  0.9237397591674669  0.3219156944659388
  0.1649996227529099  0.3777363580154961  0.0964997424635968
  0.9795205216479724  0.6921493250802965  0.1190149833463750
  0.5917361278617372  0.0895522330847135  0.3916048369570732
  0.0379180013341943  0.7052660125559719  0.2853298483291040
  0.7191924723600615  0.5773977757371689  0.4007334041829088
  0.3903890068487965  0.9475034806020319  0.6933583690691895
  0.3390826252746005  0.9195309067236005  0.1609459775335347
  0.4558930852754958  0.4866580808700960  0.2119019115656991
  0.3927822063302556  0.9096901188907713  0.4036942828025923
  0.4755619213423518  0.8272822971105074  0.8626183233657753
  0.1770210869309875  0.9814986531721639  0.2093816337797380
  0.4056755343126608  0.3568018499833019  0.5338185507285846
  0.7026265819226868  0.0158862765528045  0.7346282953770973
  0.4859379372522614  0.8609513531354525  0.6904201834185792
  0.9523932325621945  0.1710071862967716  0.3586471388412026
  0.6616621294882409  0.1749551519281173  0.2743383338325174
  0.7821865111960026  0.3304997323711035  0.5596610614378427
  0.7199799647173321  0.0682900545492762  0.9965886783709141
  0.5250738183288047  0.8467604408221130  0.2983897698175059
  0.7129806545786205  0.2028313420464351  0.7989607922351756
  0.8887904519878358  0.7388535828124614  0.3382074472340511
  0.5228097423644607  0.3973070450076905  0.2884306397222363
  0.4139395362538957  0.1471117516988655  0.6316379848560637
  0.8845445342336219  0.2933970533412367  0.4996117766589968
  0.5139262801857708  0.3316425876137222  0.4404485188953225
  0.3589694028016976  0.9747907226681781  0.8655742703562529
  0.7179210991641233  0.4727930267932768  0.6324656959616041
  0.2392325425522637  0.6535483807060902  0.3543643585548105
  0.2672897779487713  0.1389727320482060  0.4184331374391861
  0.4336017159049381  0.8185830794091526  0.5828205923148174
  0.1685009205058595  0.0912870016272839  0.5337542543461139
  0.8237997994002410  0.5843180325207344 -0.0026785926829241
  0.0020073333197218  0.9667754398169275  0.6336980875681156
  0.9436663501987977  0.6288888424828822  0.8485251782791453
  0.4144525554727797  0.1388118513882879  0.7889133281087215
  0.9877187957381683  0.4048941679947968  0.3704683698578792
  0.2941785403328104  0.5688543136252605  0.0542556161622531
  0.3635849712872530  0.1357453321605995  0.9578763462151723
  0.9267667393174822  0.3110294220236625  0.1417632005259927
  0.2901742507185560  0.0517085463035018  0.0140985500725900
  0.2458663759666295  0.2470322496126156  0.6126445426050091
  0.3534482471728370  0.4084191958750482  0.2740471176821740
  0.2843355986005213  0.6776546083281008  0.8847895740541913
  0.3506218199420303  0.3731268207456584  0.0012666558365504
  0.6261194968941889  0.3845919222578197  0.1360898196345932
  0.4210414771441952  0.5676598323076287  0.6920652997117763
  0.4185445875416789  0.0562375128529083  0.4655982508790321
  0.0258707684445134  0.8899153627058766  0.8846404917279670
  0.0667576752384685  0.6982147973531915  0.7222965568394221
  0.1875973316431522  0.9175127128819668  0.0098984843446744
  0.4362350645010670  0.7717492685013632  0.7630179455844119
  0.0532683969316043  0.1957484274311553  0.8486269496507366
  0.1587366436429211  0.9066135280772823  0.7471000002340968
  0.1995390136851323  0.5950077813978656  0.6338305506901677
  0.3547701760826264  0.6524310160352872  0.2001355094050974
  0.7536820815692954  0.3962258428887396  0.7919756301432657
  0.6009531424436381  0.9119444812479116  0.9892902908608113
  0.9791702552737679  0.6844713916346934  0.3944145781953078
  0.2436920830045870  0.6503880378975732  0.1615824528196341
  0.2860910743697176  0.7938045072482193  0.9130612110974464
  0.7994160472454506  0.5733094733242632  0.8808547187747208
  0.5862640738058125  0.7895650961406230  0.8569645750866477
  0.4163414525269752  0.3199584482422482  0.3262932723104212
  0.2475612965880476  0.6278901162031189  0.4742020264844623
 -0.0039830942730585  0.9674487526408780  0.9825994763633252
  0.3416890782724077  0.4874138236166282  0.9592107875057093
  0.3307043816171940  0.7680369769363916  0.5502820852832422
  0.9050765378693493  0.7178905737364626  0.7772324003306692
  0.4251764179587587  0.3977736465782289  0.0943559346427530
  0.2907514139984917  0.1946804189192708  0.0956396925614330
  0.9672953077136768  0.8327199071116661  0.3149244620473641
  0.7537833168244038  0.1394314049096987  0.9070504881817764
  0.2021873320901104  0.7821051634051102  0.8363009882694405
  0.3214335754054291  0.0844187697680721  0.8551779116819620
  0.1826961020782795  0.6914820602423244  0.6956956542868870
  0.3775417755364402  0.1204572505195094  0.3601157089041047
  0.1929636064024900  0.6564678562031243  0.9703573933315809
  0.6756981847142283  0.9551082785809785  0.6402293396902157
  0.8974475489109598  0.4476530879463017  0.3011755173836904
  0.8063540277592435  0.7826097194753647  0.4350048348008770
  0.3411478785986237  0.1934424874327827  0.7160892737268605
  0.2503510959197444  0.4671981827518163  0.1218204518682512
  0.1364336864650607  0.9378625275364390  0.8843820083154335
  0.7506228595906834  0.2292686959965403  0.1013981187503282
  0.9222343876779905  0.9144999674276224  0.5083304162064061
  0.0168654340218665  0.4328010419230144  0.6991228480695383
  0.4894235434425180  0.5800694038063630  0.2826664161997421
  0.9299247540573559  0.3139875095534309  0.8191562612879990
  0.7377117655204207  0.5846381237609798  0.5889827110110645
  0.3412441139033575  0.2530600228773027  0.5332086484704982
  0.7105401705639883  0.2262474621556984  0.4073891101957781
  0.6884412035609976  0.0897724446489223  0.5245234804135359
  0.7692351954773746  0.9767026857708450  0.9393514496171805
  0.8388913714680957  0.5795536606449709  0.4376513043397822
  0.5508348708827687  0.3085882682991600  0.1930353516792202
  0.6466459576122222  0.1049437224303197  0.1680034795574280
  0.9692443868432250  0.8531667275840245  0.6814690363249656
  0.1527493831461740  0.9685931416454669  0.4892270953313252
  0.9701184459990088  0.1282409124236191 -0.0025103071446912
  0.0555024823511205  0.8095492142788548  0.5097542325253693
  0.9702901354631206  0.1191995286954396  0.8818080170052611
  0.7399338346614581  0.6824612971941103  0.1190272882638858
  0.4395479527501395  0.8037337084589660  0.9743013185904892
  0.0824646136751532  0.0315027933467120  0.1468295589042603
  0.2223485281060030  0.8975213708999499  0.1373316528061581
  0.0437178105628549  0.7804736046092940  0.1503231860484959
  0.0534002389433838  0.7905969293089948  0.9640185220602782
  0.4468628957516361  0.7972526010625753  0.3913006629950315
  0.6230367467415968  0.8084923473856134  0.3633967364671186
  0.3107644722044758  0.9408394474121576  0.9702981926136232
  0.5966292565277603  0.9380586108937704  0.2216825597245341
  0.3230476202834905  0.9652750980710866  0.2735825527050644
  0.3065180406300610  0.5506149625956365  0.3280300794106162
  0.0668788442481354  0.6397995339163752  0.8452800905739934
  0.8131569622867278  0.0185109663162395  0.7578359947239043
  0.6043624760626226  0.3425883708559931  0.3573932291042918
  0.2898006073451192  0.3411425587602824  0.2005948695618241
  0.1753908728070535  0.2395002497931345  0.5134638062304568
  0.5515147445831526  0.4816181157706156  0.8482659455326973
  0.6586160467591871  0.1225398913567058  0.7162652228053246
  0.9432521728068879  0.6513324887602412  0.2233344803795875
  0.9593594912334382  0.4349682469830225  0.1383273652976348
  0.7336266431403112  0.9210820424687882  0.4859241871970313
  0.9174907181401424  0.0923375820187263  0.1274358297768927
  0.1491317718092404  0.1327532570941712  0.8222673818191539
  0.8040961871361202  0.8881985239090011  0.2529633715641552
  0.3830649122187285  0.5085024823231592  0.7860382066025675
  0.2051905922423072  0.0856073657220697  0.6476278141121098
  0.9116324256658282  0.1848104016306313  0.5370844362461957
  0.6412626900492260  0.6574817094404577  0.9565626850353529
  0.4207960908583253  0.7417195212079190  0.1607402545786007
  0.6792150321689512  0.6744083872128322  0.4618073814494276
  0.8996578771651579  0.7566118086020474  0.0500003467860607
  0.5825390078748587  0.6583908218010109  0.7046388491160509
  0.7026378785364766  0.6530918942590714  0.3062046687647794
  0.9168694601373021  0.5659013717800905  0.6502092750736486
  0.0071117479373507  0.5147149831225326  0.4281650058611192
  0.9206102461845855  0.1476989040833246  0.7197107090768650
  0.1205191149027801  0.4394784795388759  0.0051394794313929
  0.9920993491678152  0.1952772343956509  0.2524477834134927
  0.7398656540773081  0.8166970224351638  0.9875262423183435
  0.5657405295819504  0.5337039916155180  0.5387088549035914
  0.1304222085093955  0.9181562912297240  0.2947443959161111
  0.6432980771472340  0.4721656794160420  0.2695616589543219
  0.5483100991289083  0.4903623837595764  0.1277812094746562
  0.4053294089661546  0.5695611853329324  0.1259785865188367
  0.0398208945888594  0.2868148329807354  0.0936306624578323
  0.7289334271460169  0.5162804140642665  0.0344159301872545
  0.5918375260382315  0.3447414188986368  0.5379651585369702
  0.5332424920350838  0.1140014313837133  0.2932696293911857
  0.5981040575557144  0.2215544016560128  0.8565064841047300
  0.6986237950566485  0.0736387190926405  0.3384797389183484
  0.7767620439067202  0.3388702367524939  0.2260846965384233
  0.3246675112920037  0.5982494247673806  0.6259898426012470
  0.2178020226516605  0.4080208456827891  0.7347683185977338
  0.3050335930016543  0.2368980612192487  0.9192235041054496
  0.1824229593651581  0.8602453760463695  0.6276742075108135
  0.8874944347297024  0.3070539899675243  0.0250527530292787
  0.7555235424625965  0.4046881179466850  0.4157480461110500
  0.4519015684993182  0.0502338277441351  0.7058748615355790
  0.0492301317174657  0.0920553516193706  0.5704872473858152
  0.9094602228461452  0.7254953072124215  0.5776257420640797
  0.1686858078962066  0.5108042592036242  0.7287969413666804
  0.5338046276744152  0.0816391238707543  0.0549664627480522
  0.3359863825783787  0.0771567019316254  0.5555142581678068
  0.0929235830162439  0.5550331583530373  0.1562381657496094
  0.1939924922538027  0.0705827358543709  0.3451235853554349
  0.9870780155221621  0.3525845521013253  0.5160761412491097
  0.2499556278787657  0.2426596247400879  0.3519223463125068
  0.1474383807156691  0.4301037941648749  0.5654854644463343
  0.5364001031058995  0.2452829950279911  0.6865017923108312
  0.1461841815077024  0.2151081290860635  0.9776430517506988
  0.9452926672813775  0.9236207375066292  0.1363905469671600
  0.1759616923297648  0.0391611410386906  0.0328267805052101
  0.1283444861030132  0.6102985686665053  0.3179820707022125
  0.3547968943787085  0.0382620631341171  0.1160589486976972
  0.5022096599857140  0.9520881247284463  0.3621147971752903
  0.6037311295356592  0.1978529503758569  0.4407512274027239
  0.4252931633319255  0.6054878190513456  0.4728876053868371
  0.3693957305159896  0.6546468438065625  0.9818576118215870
  0.7323718540368360  0.5026147490400891  0.7462515739786516
  0.3368384591217092  0.4296200175170991  0.5951014222020725
  0.0712108366499836  0.8175126016216657  0.7618671955787555
  0.7345393045476690  0.3955126999796793  0.9044136767058396
  0.0120918748756944  0.6235537096455149  0.0326654242388400
  0.4474988710909192  0.3324239356776572  0.9332979697074781
  0.3059687244477393  0.9286158486553148  0.7741261006396040
  0.5971735281218329  0.3481440013066129  0.0201340008421468
  0.0661425271027052  0.9898954680026335  0.7327063217680859
  0.5226142088751066  0.7493394088355614  0.5380462375199492
  0.8266426256466830  0.4420342964047242  0.5794762714151881
  0.0563033155064086  0.1746015963404174  0.4175386737976337
  0.0540678446556796  0.2704942100633805  0.6681034958870776
  0.4678862143888388  0.4452251833123852  0.4042756798025560
  0.6879761530671832  0.3204891953314241  0.7288672674268356
  0.5087898254141737  0.1094884475389057  0.5186331901038858
  0.0860029950333251  0.4207041681091312  0.2922675690417289
  0.8495723633280593  0.0797043914691314  0.2941293623974226
  0.7160741657030607  0.8007210103322954  0.7389458423653928
  0.7324985445153414  0.9488264576759651  0.0970086382746328
  0.4347027941058130  0.9262418884761354  0.5238685633572688
  0.8702059811315799  0.2693752527317963  0.3822867247429581
  0.3257354641052582  0.7479748942667588  0.7387974886993545
  0.8245206399639150  0.2044614839105883  0.6966421111026506
  0.6489806693346731  0.9604077171579444  0.8238330024232098
  0.5295531586380312  0.4318658094120663  0.6815184324444732
 
  0.00000000E+00  0.00000000E+00  0.00000000E+00
  0.00000000E+00  0.00000000E+00  0.00000000E+00
  0.00000000E+00  0.00000000E+00  0.00000000E+00
  0.00000000E+00  0.00000000E+00  0.00000000E+00
  0.00000000E+00  0.00000000E+00  0.00000000E+00
  0.00000000E+00  0.00000000E+00  0.00000000E+00
  0.00000000E+00  0.00000000E+00  0.00000000E+00
  0.00000000E+00  0.00000000E+00  0.00000000E+00
  0.00000000E+00  0.00000000E+00  0.00000000E+00
  0.00000000E+00  0.00000000E+00  0.00000000E+00
  0.00000000E+00  0.00000000E+00  0.00000000E+00
  0.00000000E+00  0.00000000E+00  0.00000000E+00
  0.00000000E+00  0.00000000E+00  0.00000000E+00
  0.00000000E+00  0.00000000E+00  0.00000000E+00
  0.00000000E+00  0.00000000E+00  0.00000000E+00
  0.00000000E+00  0.00000000E+00  0.00000000E+00
  0.00000000E+00  0.00000000E+00  0.00000000E+00
  0.00000000E+00  0.00000000E+00  0.00000000E+00
  0.00000000E+00  0.00000000E+00  0.00000000E+00
  0.00000000E+00  0.00000000E+00  0.00000000E+00
  0.00000000E+00  0.00000000E+00  0.00000000E+00
  0.00000000E+00  0.00000000E+00  0.00000000E+00
  0.00000000E+00  0.00000000E+00  0.00000000E+00
  0.00000000E+00  0.00000000E+00  0.00000000E+00
  0.00000000E+00  0.00000000E+00  0.00000000E+00
  0.00000000E+00  0.00000000E+00  0.00000000E+00
  0.00000000E+00  0.00000000E+00  0.00000000E+00
  0.00000000E+00  0.00000000E+00  0.00000000E+00
  0.00000000E+00  0.00000000E+00  0.00000000E+00
  0.00000000E+00  0.00000000E+00  0.00000000E+00
  0.00000000E+00  0.00000000E+00  0.00000000E+00
  0.00000000E+00  0.00000000E+00  0.00000000E+00
  0.00000000E+00  0.00000000E+00  0.00000000E+00
  0.00000000E+00  0.00000000E+00  0.00000000E+00
  0.00000000E+00  0.00000000E+00  0.00000000E+00
  0.00000000E+00  0.00000000E+00  0.00000000E+00
  0.00000000E+00  0.00000000E+00  0.00000000E+00
  0.00000000E+00  0.00000000E+00  0.00000000E+00
  0.00000000E+00  0.00000000E+00  0.00000000E+00
  0.00000000E+00  0.00000000E+00  0.00000000E+00
  0.00000000E+00  0.00000000E+00  0.00000000E+00
  0.00000000E+00  0.00000000E+00  0.00000000E+00
  0.00000000E+00  0.00000000E+00  0.00000000E+00
  0.00000000E+00  0.00000000E+00  0.00000000E+00
  0.00000000E+00  0.00000000E+00  0.00000000E+00
  0.00000000E+00  0.00000000E+00  0.00000000E+00
  0.00000000E+00  0.00000000E+00  0.00000000E+00
  0.00000000E+00  0.00000000E+00  0.00000000E+00
  0.00000000E+00  0.00000000E+00  0.00000000E+00
  0.00000000E+00  0.00000000E+00  0.00000000E+00
  0.00000000E+00  0.00000000E+00  0.00000000E+00
  0.00000000E+00  0.00000000E+00  0.00000000E+00
  0.00000000E+00  0.00000000E+00  0.00000000E+00
  0.00000000E+00  0.00000000E+00  0.00000000E+00
  0.00000000E+00  0.00000000E+00  0.00000000E+00
  0.00000000E+00  0.00000000E+00  0.00000000E+00
  0.00000000E+00  0.00000000E+00  0.00000000E+00
  0.00000000E+00  0.00000000E+00  0.00000000E+00
  0.00000000E+00  0.00000000E+00  0.00000000E+00
  0.00000000E+00  0.00000000E+00  0.00000000E+00
  0.00000000E+00  0.00000000E+00  0.00000000E+00
  0.00000000E+00  0.00000000E+00  0.00000000E+00
  0.00000000E+00  0.00000000E+00  0.00000000E+00
  0.00000000E+00  0.00000000E+00  0.00000000E+00
  0.00000000E+00  0.00000000E+00  0.00000000E+00
  0.00000000E+00  0.00000000E+00  0.00000000E+00
  0.00000000E+00  0.00000000E+00  0.00000000E+00
  0.00000000E+00  0.00000000E+00  0.00000000E+00
  0.00000000E+00  0.00000000E+00  0.00000000E+00
  0.00000000E+00  0.00000000E+00  0.00000000E+00
  0.00000000E+00  0.00000000E+00  0.00000000E+00
  0.00000000E+00  0.00000000E+00  0.00000000E+00
  0.00000000E+00  0.00000000E+00  0.00000000E+00
  0.00000000E+00  0.00000000E+00  0.00000000E+00
  0.00000000E+00  0.00000000E+00  0.00000000E+00
  0.00000000E+00  0.00000000E+00  0.00000000E+00
  0.00000000E+00  0.00000000E+00  0.00000000E+00
  0.00000000E+00  0.00000000E+00  0.00000000E+00
  0.00000000E+00  0.00000000E+00  0.00000000E+00
  0.00000000E+00  0.00000000E+00  0.00000000E+00
  0.00000000E+00  0.00000000E+00  0.00000000E+00
  0.00000000E+00  0.00000000E+00  0.00000000E+00
  0.00000000E+00  0.00000000E+00  0.00000000E+00
  0.00000000E+00  0.00000000E+00  0.00000000E+00
  0.00000000E+00  0.00000000E+00  0.00000000E+00
  0.00000000E+00  0.00000000E+00  0.00000000E+00
  0.00000000E+00  0.00000000E+00  0.00000000E+00
  0.00000000E+00  0.00000000E+00  0.00000000E+00
  0.00000000E+00  0.00000000E+00  0.00000000E+00
  0.00000000E+00  0.00000000E+00  0.00000000E+00
  0.00000000E+00  0.00000000E+00  0.00000000E+00
  0.00000000E+00  0.00000000E+00  0.00000000E+00
  0.00000000E+00  0.00000000E+00  0.00000000E+00
  0.00000000E+00  0.00000000E+00  0.00000000E+00
  0.00000000E+00  0.00000000E+00  0.00000000E+00
  0.00000000E+00  0.00000000E+00  0.00000000E+00
  0.00000000E+00  0.00000000E+00  0.00000000E+00
  0.00000000E+00  0.00000000E+00  0.00000000E+00
  0.00000000E+00  0.00000000E+00  0.00000000E+00
  0.00000000E+00  0.00000000E+00  0.00000000E+00
  0.00000000E+00  0.00000000E+00  0.00000000E+00
  0.00000000E+00  0.00000000E+00  0.00000000E+00
  0.00000000E+00  0.00000000E+00  0.00000000E+00
  0.00000000E+00  0.00000000E+00  0.00000000E+00
  0.00000000E+00  0.00000000E+00  0.00000000E+00
  0.00000000E+00  0.00000000E+00  0.00000000E+00
  0.00000000E+00  0.00000000E+00  0.00000000E+00
  0.00000000E+00  0.00000000E+00  0.00000000E+00
  0.00000000E+00  0.00000000E+00  0.00000000E+00
  0.00000000E+00  0.00000000E+00  0.00000000E+00
  0.00000000E+00  0.00000000E+00  0.00000000E+00
  0.00000000E+00  0.00000000E+00  0.00000000E+00
  0.00000000E+00  0.00000000E+00  0.00000000E+00
  0.00000000E+00  0.00000000E+00  0.00000000E+00
  0.00000000E+00  0.00000000E+00  0.00000000E+00
  0.00000000E+00  0.00000000E+00  0.00000000E+00
  0.00000000E+00  0.00000000E+00  0.00000000E+00
  0.00000000E+00  0.00000000E+00  0.00000000E+00
  0.00000000E+00  0.00000000E+00  0.00000000E+00
  0.00000000E+00  0.00000000E+00  0.00000000E+00
  0.00000000E+00  0.00000000E+00  0.00000000E+00
  0.00000000E+00  0.00000000E+00  0.00000000E+00
  0.00000000E+00  0.00000000E+00  0.00000000E+00
  0.00000000E+00  0.00000000E+00  0.00000000E+00
  0.00000000E+00  0.00000000E+00  0.00000000E+00
  0.00000000E+00  0.00000000E+00  0.00000000E+00
  0.00000000E+00  0.00000000E+00  0.00000000E+00
  0.00000000E+00  0.00000000E+00  0.00000000E+00
  0.00000000E+00  0.00000000E+00  0.00000000E+00
  0.00000000E+00  0.00000000E+00  0.00000000E+00
  0.00000000E+00  0.00000000E+00  0.00000000E+00
  0.00000000E+00  0.00000000E+00  0.00000000E+00
  0.00000000E+00  0.00000000E+00  0.00000000E+00
  0.00000000E+00  0.00000000E+00  0.00000000E+00
  0.00000000E+00  0.00000000E+00  0.00000000E+00
  0.00000000E+00  0.00000000E+00  0.00000000E+00
  0.00000000E+00  0.00000000E+00  0.00000000E+00
  0.00000000E+00  0.00000000E+00  0.00000000E+00
  0.00000000E+00  0.00000000E+00  0.00000000E+00
  0.00000000E+00  0.00000000E+00  0.00000000E+00
  0.00000000E+00  0.00000000E+00  0.00000000E+00
  0.00000000E+00  0.00000000E+00  0.00000000E+00
  0.00000000E+00  0.00000000E+00  0.00000000E+00
  0.00000000E+00  0.00000000E+00  0.00000000E+00
  0.00000000E+00  0.00000000E+00  0.00000000E+00
  0.00000000E+00  0.00000000E+00  0.00000000E+00
  0.00000000E+00  0.00000000E+00  0.00000000E+00
  0.00000000E+00  0.00000000E+00  0.00000000E+00
  0.00000000E+00  0.00000000E+00  0.00000000E+00
  0.00000000E+00  0.00000000E+00  0.00000000E+00
  0.00000000E+00  0.00000000E+00  0.00000000E+00
  0.00000000E+00  0.00000000E+00  0.00000000E+00
  0.00000000E+00  0.00000000E+00  0.00000000E+00
  0.00000000E+00  0.00000000E+00  0.00000000E+00
  0.00000000E+00  0.00000000E+00  0.00000000E+00
  0.00000000E+00  0.00000000E+00  0.00000000E+00
  0.00000000E+00  0.00000000E+00  0.00000000E+00
  0.00000000E+00  0.00000000E+00  0.00000000E+00
  0.00000000E+00  0.00000000E+00  0.00000000E+00
  0.00000000E+00  0.00000000E+00  0.00000000E+00
  0.00000000E+00  0.00000000E+00  0.00000000E+00
  0.00000000E+00  0.00000000E+00  0.00000000E+00
  0.00000000E+00  0.00000000E+00  0.00000000E+00
  0.00000000E+00  0.00000000E+00  0.00000000E+00
  0.00000000E+00  0.00000000E+00  0.00000000E+00
  0.00000000E+00  0.00000000E+00  0.00000000E+00
  0.00000000E+00  0.00000000E+00  0.00000000E+00
  0.00000000E+00  0.00000000E+00  0.00000000E+00
  0.00000000E+00  0.00000000E+00  0.00000000E+00
  0.00000000E+00  0.00000000E+00  0.00000000E+00
  0.00000000E+00  0.00000000E+00  0.00000000E+00
  0.00000000E+00  0.00000000E+00  0.00000000E+00
  0.00000000E+00  0.00000000E+00  0.00000000E+00
  0.00000000E+00  0.00000000E+00  0.00000000E+00
  0.00000000E+00  0.00000000E+00  0.00000000E+00
  0.00000000E+00  0.00000000E+00  0.00000000E+00
  0.00000000E+00  0.00000000E+00  0.00000000E+00
  0.00000000E+00  0.00000000E+00  0.00000000E+00
  0.00000000E+00  0.00000000E+00  0.00000000E+00
  0.00000000E+00  0.00000000E+00  0.00000000E+00
  0.00000000E+00  0.00000000E+00  0.00000000E+00
  0.00000000E+00  0.00000000E+00  0.00000000E+00
  0.00000000E+00  0.00000000E+00  0.00000000E+00
  0.00000000E+00  0.00000000E+00  0.00000000E+00
  0.00000000E+00  0.00000000E+00  0.00000000E+00
  0.00000000E+00  0.00000000E+00  0.00000000E+00
  0.00000000E+00  0.00000000E+00  0.00000000E+00
  0.00000000E+00  0.00000000E+00  0.00000000E+00
  0.00000000E+00  0.00000000E+00  0.00000000E+00
  0.00000000E+00  0.00000000E+00  0.00000000E+00
  0.00000000E+00  0.00000000E+00  0.00000000E+00
  0.00000000E+00  0.00000000E+00  0.00000000E+00
  0.00000000E+00  0.00000000E+00  0.00000000E+00
  0.00000000E+00  0.00000000E+00  0.00000000E+00
  0.00000000E+00  0.00000000E+00  0.00000000E+00
  0.00000000E+00  0.00000000E+00  0.00000000E+00
  0.00000000E+00  0.00000000E+00  0.00000000E+00
  0.00000000E+00  0.00000000E+00  0.00000000E+00
  0.00000000E+00  0.00000000E+00  0.00000000E+00
  0.00000000E+00  0.00000000E+00  0.00000000E+00
  0.00000000E+00  0.00000000E+00  0.00000000E+00
  0.00000000E+00  0.00000000E+00  0.00000000E+00
  0.00000000E+00  0.00000000E+00  0.00000000E+00
  0.00000000E+00  0.00000000E+00  0.00000000E+00
  0.00000000E+00  0.00000000E+00  0.00000000E+00
  0.00000000E+00  0.00000000E+00  0.00000000E+00
  0.00000000E+00  0.00000000E+00  0.00000000E+00
  0.00000000E+00  0.00000000E+00  0.00000000E+00
  0.00000000E+00  0.00000000E+00  0.00000000E+00
  0.00000000E+00  0.00000000E+00  0.00000000E+00
  0.00000000E+00  0.00000000E+00  0.00000000E+00
  0.00000000E+00  0.00000000E+00  0.00000000E+00
  0.00000000E+00  0.00000000E+00  0.00000000E+00
  0.00000000E+00  0.00000000E+00  0.00000000E+00
  0.00000000E+00  0.00000000E+00  0.00000000E+00
  0.00000000E+00  0.00000000E+00  0.00000000E+00
  0.00000000E+00  0.00000000E+00  0.00000000E+00
  0.00000000E+00  0.00000000E+00  0.00000000E+00
  0.00000000E+00  0.00000000E+00  0.00000000E+00
  0.00000000E+00  0.00000000E+00  0.00000000E+00
  0.00000000E+00  0.00000000E+00  0.00000000E+00
  0.00000000E+00  0.00000000E+00  0.00000000E+00
  0.00000000E+00  0.00000000E+00  0.00000000E+00
  0.00000000E+00  0.00000000E+00  0.00000000E+00
  0.00000000E+00  0.00000000E+00  0.00000000E+00
  0.00000000E+00  0.00000000E+00  0.00000000E+00
  0.00000000E+00  0.00000000E+00  0.00000000E+00
  0.00000000E+00  0.00000000E+00  0.00000000E+00
  0.00000000E+00  0.00000000E+00  0.00000000E+00
  0.00000000E+00  0.00000000E+00  0.00000000E+00
  0.00000000E+00  0.00000000E+00  0.00000000E+00
  0.00000000E+00  0.00000000E+00  0.00000000E+00