Ge Se                                   
   1.00000000000000     
    19.7402305603027344    0.0000000000000000    0.0000000000000000
     0.0000000000000000   19.7402305603027344    0.0000000000000000
     0.0000000000000000    0.0000000000000000   19.7402305603027344
   Ge   Se
   150   150
Direct
  0.0435996069046185  0.2736153196773531  0.1316428317941355
  0.7331554256020913  0.7543750301924147  0.3149159178986050
  0.8146864563476091  0.4977935063810109  0.6037003893433782
  0.1988329920471026  0.7912135655633454  0.9880198259200691
  0.6466495776911713  0.7443089653198619  0.5251798019870867
  0.3953906290100145  0.6581940317189745  0.5734018300650598
  0.3082159526684081  0.9709984725590693  0.1823527532023476
  0.3770106213450231  0.2828220388228987  0.2233355238197959
  0.4390426545619330  0.6229685136197046  0.4296712903708293
  0.0640733530733142  0.7528650535568768  0.7139227575708699
  0.2741830977519943  0.6579342817149392  0.2478740708440278
  0.5886958679974146  0.1993548429855606  0.2676477559348018
  0.7210002260897163  0.0173941188293824  0.7380195763409625
  0.4084059294546211  0.4955386830147707  0.6336051834916866
  0.1164469908709716  0.4368210575966279  0.9886793899153687
  0.9864518637190278  0.4421501266527515  0.5468777397531092
  0.7555178437297353  0.1348344621535684  0.5369069194152229
  0.2542751373840503  0.2603087495623846  0.8116456264750633
  0.9131144120910515  0.4441928543344469  0.4453028749038913
  0.5325466410161502  0.5846449830800732  0.5196162521355638
  0.9541622151017563  0.3414579763131951  0.6173643897558494
  0.2483880924818805  0.7376616332543671  0.3445758707946728
  0.3472631989747403  0.4727250667325963  0.2556772450612353
  0.1064770060236409  0.4394192969226985  0.4879213979712517
  0.1652814857792392  0.8736187492560866  0.2030112043986886
  0.2979442098842766  0.7676092312310189  0.0930882686210158
  0.1276679658956784  0.7273655207035371  0.3755897716798734
  0.7748514251695223  0.9224663083101479  0.1979071425993038
  0.6928111378058417  0.6211938554185952  0.0737256199074377
  0.0505314508302774  0.5478771194801912  0.0512848180259226
  0.2206421011440424  0.4178552990563847  0.8411789445245279
  0.9501550097072216  0.5616142135942731  0.7383047080654521
  0.7621997937624829  0.3600973975117990  0.7074089900527223
  0.8708482767928082  0.3080187843723462  0.9001598130949402
  0.7854506322844538  0.8459601814958301  0.4719516170949137
  0.7279475987771061  0.4632180800976922  0.9601343677408506
  0.8108921410141349  0.0502671526412105  0.2287369892273082
  0.6896299193375739  0.7079572866249485  0.8778877586352429
  0.7931174212642165  0.9698947401055543  0.6397884769047788
  0.6662672929001454  0.7410586874700005  0.0101489857593541
  0.0330907361092759  0.0769360630366372  0.9784900229732092
  0.8001119908901962  0.7180828278567205  0.0176253746920429
  0.7237216443328636  0.0908516293629927  0.0397876793520163
  0.6837060613491709  0.8723710345223958  0.0565940544874819
  0.6831081068037241  0.5695200622544433  0.9019973664033459
  0.2810674650497856  0.2405056214108072  0.9840878199511875
  0.3001523438536657  0.0885121516155043  0.5589960054784877
  0.1643952300191532  0.5615646495129030  0.7022365325929054
  0.9677130849138104  0.1504799008258476  0.5144028864135322
  0.4389831739357370  0.4898505570001427 -0.0018040007187064
  0.2473879982098360  0.2857384492053241  0.2262525953439388
  0.0569626368120582  0.9207271793980685  0.0236150205011436
  0.0794751036730797  0.3145390830731650  0.6647001534757223
  0.7207131507146701  0.2192123484875493  0.8131785917888452
  0.6978869171889284  0.3723424473232905  0.3462306837052900
  0.8001393237601386  0.5554081075705833  0.7749824033863816
  0.6301413994417822  0.9840214409378889  0.8980069956841165
  0.9993038525552429  0.2543742631988973  0.3448626378992948
  0.6854123038892060  0.2247507274575869  0.1093276749715167
  0.3535903996080793  0.2465365383611632  0.5200613229144325
  0.1316691817881845  0.8368666185411834  0.5186149449660551
  0.2394729900685183  0.5159597147003120  0.0664888774230630
  0.8081223558145303  0.2149765149704783  0.6273718946752400
  0.9657857241384181  0.2792530318370516  0.5046509218865599
  0.2911519156103053  0.3760766305111817  0.4910052950880719
  0.5433771077835834  0.7910615225947968  0.8607491419548932
  0.4505745415726313  0.1361074293415175  0.4651939148921626
  0.9046631785599937  0.1424580861419902  0.6793472043530620
  0.6006703039122380  0.6882124593853993  0.3532287127284764
  0.9252685748005792  0.8470407958631226  0.2596220499365936
  0.1744955491552608  0.2471099596556344  0.5229752505755804
  0.6322864342011143  0.8650241681070168  0.6023290514105760
  0.5071911140767428  0.1036839877639182  0.9333081866550577
  0.2282906728163596  0.5267573870058067  0.4084434319896380
  0.1360967892603329  0.9639301902419332  0.5506095987523894
  0.1525481454450719  0.9228272847901344  0.8747860015761998
  0.3977517022727413  0.7726878414540521  0.1723196246313832
  0.0024946672718496  0.0010779318661195  0.8649681393643359
  0.3217981749565628  0.1146553799787251  0.0503145855567779
  0.6073434991223720  0.4737688545540957  0.1002130161895691
  0.7232841001465323  0.8870684546540488  0.9055373971975971
  0.2991297058234758  0.8143393484763098  0.9064077652598591
  0.2500961239809287  0.8524551524425709  0.4521503979458844
  0.4976948560232619 -0.0001377362304423  0.0506473847440273
  0.0602636378884765  0.1002412572284091  0.4307927782643438
  0.9830949377981785  0.9117816402901702  0.6472081527208022
  0.5037676351382795  0.0583203912763472  0.7454298436805998
  0.3718329236037766  0.6686131756076673  0.0486132573090761
  0.4469934285764149  0.2658637028962653  0.3813864788284650
  0.9321403571623091  0.4855636533882329  0.9693821870744502
  0.3892679969449216  0.2011831541740845  0.8250821879559754
  0.3174076586334656  0.3456720848831868  0.0565610593134351
  0.7569784522605408  0.3078296202483636  0.2441053635004252
  0.5366826757178302  0.6480277322200992  0.9694625019233537
  0.8292737862090740  0.7097864113114786  0.7972635259605013
  0.9199699032872082  0.7181534068137546  0.0657454923750609
  0.5363334792193807  0.9872846276525383  0.4152196025865182
  0.1741363519259498  0.0639540936796998  0.8182752270835468
  0.6884744059487280  0.2225659626598559  0.6729263366205404
  0.9167527597276514  0.6906468549377944  0.3694766337551098
  0.3202833457508678  0.8922158419862469  0.6216938879134744
  0.9286931255154364  0.3963755149546750  0.2557371244730886
  0.6879152447007771  0.3406810536377683  0.9493260043914793
  0.1387874929246029  0.4471287450487212  0.2092848747879602
  0.6925442191457286  0.5580378965018032  0.2853776914562839
  0.8012798661771681  0.0543997437539174  0.4362893571172646
  0.4262734209352014  0.8273596560330300  0.4443409826077486
  0.4082530125035022  0.8895999747101594  0.2216597136206269
  0.2231330317852844  0.6860157891450495  0.5755534917942678
  0.9004342041039594  0.6490040378939438  0.8880633074783003
  0.6441580092442211  0.2944567707191849  0.5705040279597391
  0.0527127992846731  0.6914901836945915  0.2033885720469877
  0.5186955763710585  0.4408195100033455  0.3156852609917647
  0.5046632598749252  0.2281606206424512  0.0712977054710145
  0.2994133348066388  0.0241400472539102  0.8290606789785047
  0.5314974814397587  0.3063632267517088  0.8661444421448221
  0.5255636409576119  0.7676999967659622  0.6436869679275283
  0.3586557674842935  0.3905357941924950  0.8268086423730040
  0.8488643166422858  0.2496180092554950  0.1147689866131182
  0.8736146735147070  0.0209737590277753  0.8483813302831608
  0.6650896762896776  0.5889841835167975  0.6474981791480587
  0.0949819108243832  0.2048046619398740  0.8714547089134469
  0.9190673293081081  0.1776884208628457  0.9015548590759145
  0.1346806549096944  0.5571023751079924  0.8974000202258510
  0.3412297563624858  0.7715014586730314  0.7237848525914473
  0.5804751871784524  0.1673520227139898  0.4071982990768443
  0.6618216819355422  0.4119392832146334  0.5040756421748572
  0.0844251285357310  0.4016483487771988  0.8169376632909227
  0.2227533561316536  0.2136125258407973  0.3495535406580292
  0.0573961047624021  0.7152466693144536  0.4835580603195440
  0.0635243129683430  0.0870344066538120  0.2130768476448590
  0.4582854833625382  0.9555274769952689  0.6046354231851695
  0.9458992943936178  0.8395230943761771  0.9123489845301945
  0.2086451166247444  0.5529542544471469  0.2832792640904626
  0.4873743312638351  0.6160807850183051  0.2175241874200903
  0.4678151428881263  0.5308235346919304  0.7874578270056913
  0.1829225069861768  0.1267783710661967  0.1777977840844085
  0.1944606708250147  0.7487370692313637  0.7789220965858618
  0.0050315265230051  0.8839772375933453  0.3562475266561745
  0.3986835102030609  0.9322844744429523  0.0031512546475956
  0.9573520757235607  0.0378724234078234  0.3751885723419549
  0.4975765575395596  0.0043620106508363  0.2404018691583044
  0.3001367702478741  0.8971717146772360  0.0761868262790376
  0.2469119832986434  0.0027816018184836  0.3026653188029469
  0.5232779154163243  0.3283904839953141  0.7205617154299500
  0.0979743875663999  0.0388005050092241  0.7050057010848314
  0.4856738787927158  0.8405939074669079  0.3182550206979358
 -0.0043003019186887  0.6076867048108795  0.4267319658586425
  0.9287344546172868  0.8318321593171172  0.1258212360209288
  0.4606034252383207  0.3503858478000232  0.5109757024422660
  0.5408814266052838  0.4571771361729688  0.5049523912096240
  0.0990592537302889  0.6221664108632565  0.3104151334284173
  0.1850595919019465  0.3778083610761065  0.5674305280536044
  0.3469320158275330  0.4973412716765354  0.7498096063471646
  0.3151815746536513  0.4446577750365733  0.9807981118699743
  0.4162539502426834  0.8352187367391690  0.9292024920090372
  0.5273153838792519  0.5782564177662975  0.3414723043256728
  0.0564934722954182  0.4841458943581514  0.7148257357059856
  0.8027752707372093  0.8228399609245354  0.1274128440869713
  0.1708853362652739  0.4190309984387420  0.3826443734257389
  0.3677484303192721  0.3793712948148212  0.5975798625232331
  0.4678040537582562  0.4370152812377925  0.8791068814127533
  0.1512605967392390  0.5596709616220299  0.4994275885008553
  0.9088296197611584  0.6204305133215694  0.5188267205571138
  0.0866800181788718  0.8067945413602082  0.2880313675173339
  0.5799740617149861  0.9304151815441323  0.3148956876233999
  0.8250981975033230  0.3335806763778717  0.5913471361548461
  0.7235596470723610  0.1885996903493156  0.2291964051381706
  0.6441696911688822  0.1047214697147746  0.9366050979922091
  0.2668987414823453  0.8994901941485378  0.8144903131398418
  0.8005857419142514  0.9283645712730809  0.8128670346964982
  0.9250932411276759  0.9038291898023479  0.0210247979966386
  0.4291347757430284  0.3328140070845622  0.1159458626402671
  0.3186546153643152  0.1529383683846977  0.4401344500785415
  0.3975190454038096  0.2698627253152699  0.9356546184931922
  0.8330532310273145  0.4381934008109601  0.8980624367967849
  0.6091749204653298  0.0621931849740156  0.4721610916916641
  0.8012081369672358  0.4929530003649578  0.4585999523515439
  0.8002838282119425  0.6895519110427426  0.4030734440407170
  0.8333729307909787  0.2768265186702754  0.7795631470061364
  0.1901513823974989  0.3162662720673810  0.9177144643092053
  0.3121511056565685  0.6528106260896365  0.6706315398861378
  0.0685438207263380  0.3068736803758056  0.4410907754475651
  0.3935718883728583  0.0566197417243061  0.1392514986248485
  0.5049918911994777  0.6321450456634355  0.6395869608471286
  0.6015539664386987  0.0952761640144683  0.0940762264650524
  0.2065583393049867 -0.0050013691899952  0.6474782266187322
  0.4366120307977718  0.0852982828749995  0.5820470476123296
  0.8898046512874570  0.1428266919343888  0.4036817368267130
  0.8787188594928552  0.2762509211768379  0.2400323980051330
  0.1123784085501506  0.3774864278583279  0.0971708616651498
  0.0220130808465758  0.0067189792631144  0.5780817661948863
  0.6794869720943654  0.5196859615328742  0.7846402860649193
  0.0155277928848907  0.3909373267623339  0.9288125891390037
  0.4772858490876333  0.7164088458682689  0.0958416462510037
  0.9624516336706379  0.6137050952892780  0.1179869362051933
  0.7236521575115933  0.9422725342170771  0.5389603249334353
  0.8535667595298935  0.4493907308055883  0.7201576994277918
  0.8688646038033879  0.8727409969897236  0.6529298913713910
  0.3079896591722670  0.7347462670702662  0.4533573714064107
  0.0445951206736232  0.3341021552104024  0.2504922691627705
  0.9847985071506461  0.7224592005494727  0.9583284550742215
  0.6107906453875339  0.5857700572582644  0.1630812165777102
  0.0870895576457937  0.2017420796347397  0.6048860442146637
  0.2779201107330075  0.2081356427083590  0.6121170802239579
  0.5180113352159325  0.4542080703515416  0.6926908710229042
  0.8885835127560984  0.3277105366899695  0.4136665543784057
  0.6542915037941067  0.6121107534505876  0.5070860209165271
  0.1234835430442136  0.9872300268109924  0.2674469517917763
  0.3082555524182938  0.7120731171689868  0.8369936216641624
  0.1291204303818194  0.5606063600441520  0.1484300977043577
  0.2003587160587480  0.2353500050131092  0.1217081358387862
  0.6577842302232129  0.8919751066117354  0.1789320105844488
  0.0444793093717232  0.9292912989224095  0.7541880598095507
  0.2734782773411769  0.1287415302844884  0.2657425188705678
  0.2148529580069033  0.3505899265147910  0.7313208385880123
  0.9263035885172650  0.7173082981101599  0.2492812894702209
  0.4670242274452047  0.7950613261032756  0.7527801354804560
  0.8892928297983654  0.9632920422957024  0.4457903843080089
  0.3720253135521131  0.3627779463257003  0.3217882651941538
  0.1660959433787087  0.0406444617077848  0.4564011227476423
  0.9381561039174657  0.3335925063208898  0.0737504431572730
  0.0374116994803334  0.0272667047116412  0.0928321021235251
  0.2301610749464849  0.6080106418836783  0.9730807466050803
  0.6787841547870870  0.2224418671621560  0.4696563805446893
  0.5698538340640075  0.6627574312900277  0.8455941466523370
  0.5087451377315650  0.9145661273139835  0.1458749941713673
  0.8264605819146529  0.7889727867718229  0.9050933007236260
  0.7372728397740065  0.4928867240002228  0.0805696472382826
  0.2673731870332078  0.4041956899152573  0.1704071809369082
  0.9221434687342793  0.4366016996454974  0.1348272352583395
  0.3885388900186191  0.6981588082116360  0.2725723532892246
  0.5668459050812025  0.9558503441079074  0.6744656430359522
  0.4599414939664059  0.4793505614465652  0.2015745099421717
  0.5523240196538695  0.7532082974989001  0.2552062627370186
  0.1020252494948608  0.1637666490323862  0.3284439886929712
  0.5782204411004724  0.9114394033357168  0.9905261648406284
  0.7828095213215165  0.4689648301154099  0.3381639078676682
  0.8274172965392744  0.6011224631676633  0.9753479672317454
  0.7377479959138623  0.0365362523043492  0.3329410175174780
  0.2744839991356016  0.8587163969106775  0.3253078750618762
  0.0262189177510903  0.2978467510156437  0.7807224531249932
  0.4468690833170390  0.1922903838231603  0.2683722868575127
  0.7932276526266985  0.6133686570003754  0.6565905697131157
  0.3986146902318425  0.3018300348956650  0.7413567038794386
  0.9312800468723993  0.0099953249154158  0.2575233208536932
  0.9624756604871880  0.7912331460662828  0.4342284940588279
  0.0051990901248126  0.1982978921104498  0.9942303468898571
  0.1243049141100664  0.7976614883883414  0.8790049040745835
  0.6598620292536884  0.8186565181494146  0.8089423980944144
  0.7593673226161975  0.9696828847073642  0.0288677874135000
  0.9799671012097270  0.5558062783790224  0.5936446693625146
  0.9748223626514305  0.5028034989914129  0.3585451341606297
  0.8590313736065704  0.0784374960791885  0.9557735626873597
  0.1327502331275215  0.6374908077357082  0.8008415817333193
  0.3287721806787442  0.9362583383329817  0.5014012457958023
  0.6043061979541325  0.0762150708095337  0.2137531346030001
  0.7695282965907739  0.2487431802707193  0.9570929989674668
  0.7750427454977884  0.6677357987509138  0.1588087170851629
  0.4110440157884965  0.6068269623927488  0.9439558788227450
  0.4119609722333706  0.7888117010124372  0.5835340556053306
  0.4356173693358432  0.0434399054491934  0.3801984717284283
  0.5706383570151300  0.3163878080995760 -0.0067787891747877
  0.3743816060268111  0.0446013998420960  0.7341652446772700
  0.6898576246337701  0.4630099211937550  0.6208881445542230
  0.1985329809610429  0.9180673626676278  0.0058163458005200
  0.5792957913879502  0.2775915328127000  0.1643470946921621
  0.5089113872527258  0.9949010369169913  0.8576783695257237
  0.8156699972971714  0.1028021852502723  0.7686437870585896
  0.1591902243384502  0.0983769793043923  0.9377658884946235
  0.3335741498372905  0.4920782779250910  0.4608759472254916
  0.6357889481472726  0.4389296343207516  0.2549149145633953
  0.6578906535775787  0.3368124699331096  0.8290743105313818
  0.0029576099060786  0.1196556199781325  0.8148919695600201
  0.2208363558550997  0.0516182605475258  0.0896411709674974
  0.8111016666548779  0.8632489705039268  0.3076441474056409
  0.3572284616435244  0.0407834381683914  0.9417382048234658
  0.0733953609701863  0.8338009526080624  0.1149358808063574
  0.5215626663484471  0.2745765126164615  0.5958729195638058
  0.3346065163930232  0.5806593081796763  0.1278846516689117
  0.5776675878687956  0.5257196240486024  0.9739532482261453
  0.9513127587479068  0.6940258663495985  0.7321420873335990
  0.1086909006043636  0.6574752650629954  0.6351047070259375
  0.7708398254903862  0.7545043861506456  0.5643998194764424
  0.7227346273019695  0.7970916937804726  0.6716444928899024
  0.0245096483677090  0.8065283926643640  0.6029057286038105
  0.5594725938089511  0.3156829663319724  0.3728753051336563
  0.6722703427748716  0.1046474903072205  0.6291502652428670
  0.6701277751246634  0.8144119046840042  0.4156045009973672
  0.2123108754593398  0.8113113886201607  0.6126047955815297
  0.5212745444150376  0.1769104272987725  0.8249637489947641
  0.2090912018648635  0.7288792117320880  0.1688029842654847
  0.8691712390240444  0.0556952616739150  0.5927643357968260
  0.1121839643275274  0.6479697443201721  0.9876748734546478
  0.8002634045860029  0.5653039618142846  0.2196501248725172
  0.5224895247310458  0.9010870017259075  0.5002389038517764
  0.9799845936913414  0.5558404617890426  0.8714355694912892
  0.1742441069881120  0.1762672145785949  0.7624464341166233
  0.7559014799774786  0.3392208553406958  0.1207757596743897
  0.5131774765966874  0.7274531981496586  0.4471273543637380
 
  0.00000000E+00  0.00000000E+00  0.00000000E+00
  0.00000000E+00  0.00000000E+00  0.00000000E+00
  0.00000000E+00  0.00000000E+00  0.00000000E+00
  0.00000000E+00  0.00000000E+00  0.00000000E+00
  0.00000000E+00  0.00000000E+00  0.00000000E+00
  0.00000000E+00  0.00000000E+00  0.00000000E+00
  0.00000000E+00  0.00000000E+00  0.00000000E+00
  0.00000000E+00  0.00000000E+00  0.00000000E+00
  0.00000000E+00  0.00000000E+00  0.00000000E+00
  0.00000000E+00  0.00000000E+00  0.00000000E+00
  0.00000000E+00  0.00000000E+00  0.00000000E+00
  0.00000000E+00  0.00000000E+00  0.00000000E+00
  0.00000000E+00  0.00000000E+00  0.00000000E+00
  0.00000000E+00  0.00000000E+00  0.00000000E+00
  0.00000000E+00  0.00000000E+00  0.00000000E+00
  0.00000000E+00  0.00000000E+00  0.00000000E+00
  0.00000000E+00  0.00000000E+00  0.00000000E+00
  0.00000000E+00  0.00000000E+00  0.00000000E+00
  0.00000000E+00  0.00000000E+00  0.00000000E+00
  0.00000000E+00  0.00000000E+00  0.00000000E+00
  0.00000000E+00  0.00000000E+00  0.00000000E+00
  0.00000000E+00  0.00000000E+00  0.00000000E+00
  0.00000000E+00  0.00000000E+00  0.00000000E+00
  0.00000000E+00  0.00000000E+00  0.00000000E+00
  0.00000000E+00  0.00000000E+00  0.00000000E+00
  0.00000000E+00  0.00000000E+00  0.00000000E+00
  0.00000000E+00  0.00000000E+00  0.00000000E+00
  0.00000000E+00  0.00000000E+00  0.00000000E+00
  0.00000000E+00  0.00000000E+00  0.00000000E+00
  0.00000000E+00  0.00000000E+00  0.00000000E+00
  0.00000000E+00  0.00000000E+00  0.00000000E+00
  0.00000000E+00  0.00000000E+00  0.00000000E+00
  0.00000000E+00  0.00000000E+00  0.00000000E+00
  0.00000000E+00  0.00000000E+00  0.00000000E+00
  0.00000000E+00  0.00000000E+00  0.00000000E+00
  0.00000000E+00  0.00000000E+00  0.00000000E+00
  0.00000000E+00  0.00000000E+00  0.00000000E+00
  0.00000000E+00  0.00000000E+00  0.00000000E+00
  0.00000000E+00  0.00000000E+00  0.00000000E+00
  0.00000000E+00  0.00000000E+00  0.00000000E+00
  0.00000000E+00  0.00000000E+00  0.00000000E+00
  0.00000000E+00  0.00000000E+00  0.00000000E+00
  0.00000000E+00  0.00000000E+00  0.00000000E+00
  0.00000000E+00  0.00000000E+00  0.00000000E+00
  0.00000000E+00  0.00000000E+00  0.00000000E+00
  0.00000000E+00  0.00000000E+00  0.00000000E+00
  0.00000000E+00  0.00000000E+00  0.00000000E+00
  0.00000000E+00  0.00000000E+00  0.00000000E+00
  0.00000000E+00  0.00000000E+00  0.00000000E+00
  0.00000000E+00  0.00000000E+00  0.00000000E+00
  0.00000000E+00  0.00000000E+00  0.00000000E+00
  0.00000000E+00  0.00000000E+00  0.00000000E+00
  0.00000000E+00  0.00000000E+00  0.00000000E+00
  0.00000000E+00  0.00000000E+00  0.00000000E+00
  0.00000000E+00  0.00000000E+00  0.00000000E+00
  0.00000000E+00  0.00000000E+00  0.00000000E+00
  0.00000000E+00  0.00000000E+00  0.00000000E+00
  0.00000000E+00  0.00000000E+00  0.00000000E+00
  0.00000000E+00  0.00000000E+00  0.00000000E+00
  0.00000000E+00  0.00000000E+00  0.00000000E+00
  0.00000000E+00  0.00000000E+00  0.00000000E+00
  0.00000000E+00  0.00000000E+00  0.00000000E+00
  0.00000000E+00  0.00000000E+00  0.00000000E+00
  0.00000000E+00  0.00000000E+00  0.00000000E+00
  0.00000000E+00  0.00000000E+00  0.00000000E+00
  0.00000000E+00  0.00000000E+00  0.00000000E+00
  0.00000000E+00  0.00000000E+00  0.00000000E+00
  0.00000000E+00  0.00000000E+00  0.00000000E+00
  0.00000000E+00  0.00000000E+00  0.00000000E+00
  0.00000000E+00  0.00000000E+00  0.00000000E+00
  0.00000000E+00  0.00000000E+00  0.00000000E+00
  0.00000000E+00  0.00000000E+00  0.00000000E+00
  0.00000000E+00  0.00000000E+00  0.00000000E+00
  0.00000000E+00  0.00000000E+00  0.00000000E+00
  0.00000000E+00  0.00000000E+00  0.00000000E+00
  0.00000000E+00  0.00000000E+00  0.00000000E+00
  0.00000000E+00  0.00000000E+00  0.00000000E+00
  0.00000000E+00  0.00000000E+00  0.00000000E+00
  0.00000000E+00  0.00000000E+00  0.00000000E+00
  0.00000000E+00  0.00000000E+00  0.00000000E+00
  0.00000000E+00  0.00000000E+00  0.00000000E+00
  0.00000000E+00  0.00000000E+00  0.00000000E+00
  0.00000000E+00  0.00000000E+00  0.00000000E+00
  0.00000000E+00  0.00000000E+00  0.00000000E+00
  0.00000000E+00  0.00000000E+00  0.00000000E+00
  0.00000000E+00  0.00000000E+00  0.00000000E+00
  0.00000000E+00  0.00000000E+00  0.00000000E+00
  0.00000000E+00  0.00000000E+00  0.00000000E+00
  0.00000000E+00  0.00000000E+00  0.00000000E+00
  0.00000000E+00  0.00000000E+00  0.00000000E+00
  0.00000000E+00  0.00000000E+00  0.00000000E+00
  0.00000000E+00  0.00000000E+00  0.00000000E+00
  0.00000000E+00  0.00000000E+00  0.00000000E+00
  0.00000000E+00  0.00000000E+00  0.00000000E+00
  0.00000000E+00  0.00000000E+00  0.00000000E+00
  0.00000000E+00  0.00000000E+00  0.00000000E+00
  0.00000000E+00  0.00000000E+00  0.00000000E+00
  0.00000000E+00  0.00000000E+00  0.00000000E+00
  0.00000000E+00  0.00000000E+00  0.00000000E+00
  0.00000000E+00  0.00000000E+00  0.00000000E+00
  0.00000000E+00  0.00000000E+00  0.00000000E+00
  0.00000000E+00  0.00000000E+00  0.00000000E+00
  0.00000000E+00  0.00000000E+00  0.00000000E+00
  0.00000000E+00  0.00000000E+00  0.00000000E+00
  0.00000000E+00  0.00000000E+00  0.00000000E+00
  0.00000000E+00  0.00000000E+00  0.00000000E+00
  0.00000000E+00  0.00000000E+00  0.00000000E+00
  0.00000000E+00  0.00000000E+00  0.00000000E+00
  0.00000000E+00  0.00000000E+00  0.00000000E+00
  0.00000000E+00  0.00000000E+00  0.00000000E+00
  0.00000000E+00  0.00000000E+00  0.00000000E+00
  0.00000000E+00  0.00000000E+00  0.00000000E+00
  0.00000000E+00  0.00000000E+00  0.00000000E+00
  0.00000000E+00  0.00000000E+00  0.00000000E+00
  0.00000000E+00  0.00000000E+00  0.00000000E+00
  0.00000000E+00  0.00000000E+00  0.00000000E+00
  0.00000000E+00  0.00000000E+00  0.00000000E+00
  0.00000000E+00  0.00000000E+00  0.00000000E+00
  0.00000000E+00  0.00000000E+00  0.00000000E+00
  0.00000000E+00  0.00000000E+00  0.00000000E+00
  0.00000000E+00  0.00000000E+00  0.00000000E+00
  0.00000000E+00  0.00000000E+00  0.00000000E+00
  0.00000000E+00  0.00000000E+00  0.00000000E+00
  0.00000000E+00  0.00000000E+00  0.00000000E+00
  0.00000000E+00  0.00000000E+00  0.00000000E+00
  0.00000000E+00  0.00000000E+00  0.00000000E+00
  0.00000000E+00  0.00000000E+00  0.00000000E+00
  0.00000000E+00  0.00000000E+00  0.00000000E+00
  0.00000000E+00  0.00000000E+00  0.00000000E+00
  0.00000000E+00  0.00000000E+00  0.00000000E+00
  0.00000000E+00  0.00000000E+00  0.00000000E+00
  0.00000000E+00  0.00000000E+00  0.00000000E+00
  0.00000000E+00  0.00000000E+00  0.00000000E+00
  0.00000000E+00  0.00000000E+00  0.00000000E+00
  0.00000000E+00  0.00000000E+00  0.00000000E+00
  0.00000000E+00  0.00000000E+00  0.00000000E+00
  0.00000000E+00  0.00000000E+00  0.00000000E+00
  0.00000000E+00  0.00000000E+00  0.00000000E+00
  0.00000000E+00  0.00000000E+00  0.00000000E+00
  0.00000000E+00  0.00000000E+00  0.00000000E+00
  0.00000000E+00  0.00000000E+00  0.00000000E+00
  0.00000000E+00  0.00000000E+00  0.00000000E+00
  0.00000000E+00  0.00000000E+00  0.00000000E+00
  0.00000000E+00  0.00000000E+00  0.00000000E+00
  0.00000000E+00  0.00000000E+00  0.00000000E+00
  0.00000000E+00  0.00000000E+00  0.00000000E+00
  0.00000000E+00  0.00000000E+00  0.00000000E+00
  0.00000000E+00  0.00000000E+00  0.00000000E+00
  0.00000000E+00  0.00000000E+00  0.00000000E+00
  0.00000000E+00  0.00000000E+00  0.00000000E+00
  0.00000000E+00  0.00000000E+00  0.00000000E+00
  0.00000000E+00  0.00000000E+00  0.00000000E+00
  0.00000000E+00  0.00000000E+00  0.00000000E+00
  0.00000000E+00  0.00000000E+00  0.00000000E+00
  0.00000000E+00  0.00000000E+00  0.00000000E+00
  0.00000000E+00  0.00000000E+00  0.00000000E+00
  0.00000000E+00  0.00000000E+00  0.00000000E+00
  0.00000000E+00  0.00000000E+00  0.00000000E+00
  0.00000000E+00  0.00000000E+00  0.00000000E+00
  0.00000000E+00  0.00000000E+00  0.00000000E+00
  0.00000000E+00  0.00000000E+00  0.00000000E+00
  0.00000000E+00  0.00000000E+00  0.00000000E+00
  0.00000000E+00  0.00000000E+00  0.00000000E+00
  0.00000000E+00  0.00000000E+00  0.00000000E+00
  0.00000000E+00  0.00000000E+00  0.00000000E+00
  0.00000000E+00  0.00000000E+00  0.00000000E+00
  0.00000000E+00  0.00000000E+00  0.00000000E+00
  0.00000000E+00  0.00000000E+00  0.00000000E+00
  0.00000000E+00  0.00000000E+00  0.00000000E+00
  0.00000000E+00  0.00000000E+00  0.00000000E+00
  0.00000000E+00  0.00000000E+00  0.00000000E+00
  0.00000000E+00  0.00000000E+00  0.00000000E+00
  0.00000000E+00  0.00000000E+00  0.00000000E+00
  0.00000000E+00  0.00000000E+00  0.00000000E+00
  0.00000000E+00  0.00000000E+00  0.00000000E+00
  0.00000000E+00  0.00000000E+00  0.00000000E+00
  0.00000000E+00  0.00000000E+00  0.00000000E+00
  0.00000000E+00  0.00000000E+00  0.00000000E+00
  0.00000000E+00  0.00000000E+00  0.00000000E+00
  0.00000000E+00  0.00000000E+00  0.00000000E+00
  0.00000000E+00  0.00000000E+00  0.00000000E+00
  0.00000000E+00  0.00000000E+00  0.00000000E+00
  0.00000000E+00  0.00000000E+00  0.00000000E+00
  0.00000000E+00  0.00000000E+00  0.00000000E+00
  0.00000000E+00  0.00000000E+00  0.00000000E+00
  0.00000000E+00  0.00000000E+00  0.00000000E+00
  0.00000000E+00  0.00000000E+00  0.00000000E+00
  0.00000000E+00  0.00000000E+00  0.00000000E+00
  0.00000000E+00  0.00000000E+00  0.00000000E+00
  0.00000000E+00  0.00000000E+00  0.00000000E+00
  0.00000000E+00  0.00000000E+00  0.00000000E+00
  0.00000000E+00  0.00000000E+00  0.00000000E+00
  0.00000000E+00  0.00000000E+00  0.00000000E+00
  0.00000000E+00  0.00000000E+00  0.00000000E+00
  0.00000000E+00  0.00000000E+00  0.00000000E+00
  0.00000000E+00  0.00000000E+00  0.00000000E+00
  0.00000000E+00  0.00000000E+00  0.00000000E+00
  0.00000000E+00  0.00000000E+00  0.00000000E+00
  0.00000000E+00  0.00000000E+00  0.00000000E+00
  0.00000000E+00  0.00000000E+00  0.00000000E+00
  0.00000000E+00  0.00000000E+00  0.00000000E+00
  0.00000000E+00  0.00000000E+00  0.00000000E+00
  0.00000000E+00  0.00000000E+00  0.00000000E+00
  0.00000000E+00  0.00000000E+00  0.00000000E+00
  0.00000000E+00  0.00000000E+00  0.00000000E+00
  0.00000000E+00  0.00000000E+00  0.00000000E+00
  0.00000000E+00  0.00000000E+00  0.00000000E+00
  0.00000000E+00  0.00000000E+00  0.00000000E+00
  0.00000000E+00  0.00000000E+00  0.00000000E+00
  0.00000000E+00  0.00000000E+00  0.00000000E+00
  0.00000000E+00  0.00000000E+00  0.00000000E+00
  0.00000000E+00  0.00000000E+00  0.00000000E+00
  0.00000000E+00  0.00000000E+00  0.00000000E+00
  0.00000000E+00  0.00000000E+00  0.00000000E+00
  0.00000000E+00  0.00000000E+00  0.00000000E+00
  0.00000000E+00  0.00000000E+00  0.00000000E+00
  0.00000000E+00  0.00000000E+00  0.00000000E+00
  0.00000000E+00  0.00000000E+00  0.00000000E+00
  0.00000000E+00  0.00000000E+00  0.00000000E+00
  0.00000000E+00  0.00000000E+00  0.00000000E+00
  0.00000000E+00  0.00000000E+00  0.00000000E+00
  0.00000000E+00  0.00000000E+00  0.00000000E+00
  0.00000000E+00  0.00000000E+00  0.00000000E+00
  0.00000000E+00  0.00000000E+00  0.00000000E+00
  0.00000000E+00  0.00000000E+00  0.00000000E+00
  0.00000000E+00  0.00000000E+00  0.00000000E+00
  0.00000000E+00  0.00000000E+00  0.00000000E+00
  0.00000000E+00  0.00000000E+00  0.00000000E+00
  0.00000000E+00  0.00000000E+00  0.00000000E+00
  0.00000000E+00  0.00000000E+00  0.00000000E+00
  0.00000000E+00  0.00000000E+00  0.00000000E+00
  0.00000000E+00  0.00000000E+00  0.00000000E+00