Amorphous Sb                            
   1.00000000000000     
    21.3346025931636838    0.0000000000000000    0.0000000000000000
     0.0000000000000000   21.3346025931636838    0.0000000000000000
     0.0000000000000000    0.0000000000000000   21.3346025931636838
   Ge   Se
   100   200
Direct
  0.7403061740930731  0.1274757013029162  0.0768026618943012
  0.2914865325447926  0.5988134903041902  0.6242528019327644
  0.6084080468159341  0.0088651654917463  0.6079269329117849
 -0.0427042989042595  0.0765936719239908  0.6595263253337255
  0.0041372337588988  0.7641271232902456  0.8019742206712335
  0.3125323790563497  0.6864736703179772  0.0374395384587214
  0.7225474232428170 -0.0220376113440735  0.3545362371158727
  0.3383055178587631  0.7996134104379653  0.7621171330983352
  0.3998912265100579  0.5753318103147403  0.1904870920714900
  0.2331491715603414  0.0170629744529755  0.4196543222372447
 -0.0472988691211667  0.1671703676647260  0.4751002624995888
  0.5990919360281741  0.4678859189117355  0.8837798485473368
  0.3268665208676312  0.4460451343954590  0.6947136345013809
  0.5668723185224478  0.0037149464743367  0.7785416257438077
  0.5463285379208237  0.7803516556003072  0.4596149257963790
  0.4269049256752301  0.7126594013962233  0.7611166286041943
  0.9475321850832925  0.5409824060376053  0.8294632292178254
  0.5190488002730229  0.1554774770217775  0.4319976578679923
  0.1263685181952141  0.6845290370153154  0.0865148354254052
  0.0398450833733422  0.9327274258804269  0.3520017132853062
  0.2913120778150634  0.8404147954049357  0.3234641556741875
  0.5534534778535994  0.6847395388871641  0.8870409292188404
  0.8859989311523073  0.1805726301731425  0.0479492612395096
  0.2033358034706644  0.0109593096828997  0.2545871710346395
  0.5564377559250882  0.2767848847240628  0.1986337740533713
  0.1577359156119696  0.8246960886107390  0.7615436863030590
  0.5409581522167167  0.4209161583583041  0.4861956517265651
  0.0084863554012861  0.0355401145665141  0.8752666345642490
  0.7307099113080571  0.4489940494221891  0.4690356667562792
  0.0478872823697870  0.6993877463639836  0.9219804200458444
  0.1642639190164083  0.1027040291625833  0.8191452876003724
  0.1261556084433941  0.1651075744154612  0.2474860621224841
  0.9124197164055459  0.5803469906109325  0.6142624347443283
  0.5184648618540494  0.4360312942494486  0.1435566738728303
  0.0461425581830786  0.7158768050591919  0.5913547088979617
  0.6278071944027597  0.7993078058887988  0.1651085459081405
  0.4904422091978485  0.7133148842474896  0.0609674999695292
  0.4097611601176540 -0.0005329081625742  0.3248601813855425
  0.0423080176934513  0.6388332318187870  0.2954971354917619
  0.7658103476076341  0.6304792227151714  0.8072573955413986
  0.7896972176513198  0.7716201222191050  0.2384858893349697
  0.8088578011601992  0.4267970968075722  0.5967401978631027
  0.3288179673355026  0.9154110340008730  0.6205963360056872
  0.5473831368161647  0.1900690825939198  0.0227892363864907
  0.4739164901494190  0.6492451038919463  0.3327890993171811
  0.7170353243970136  0.5168105779302595  0.2452628547573695
  0.1645720530434414  0.7628893764354053  0.2554001917014446
  0.9243575852754120  0.4016977927947424  0.2885716282649063
 -0.0924343214122070  0.0418021871675269  0.0918631677869434
  0.4668730728656858  0.3306591164919992  0.5821697173345385
  0.2947442872902719  0.0455391035236162  0.7407088173766671
  0.8003414536618271  0.4127248984968128  0.1515950523727554
  0.8029297851925895  0.5429769135546555  0.9569555718810410
  0.3719162804013458  0.2147747598352173  0.6594251034759590
  0.0369740434622463  0.7589463104808171  0.4113907088780470
  0.1597420805178390  0.5558588381029657  0.3641246980099877
  0.9229775783567484  0.5220794744093348  0.3413278545968819
  0.7392439533969500  0.2557300702387057  0.7508555856866208
  0.0348271534747197  0.3283632905511609  0.6151819361590515
  0.5887631923587313  0.6200499960733900  0.1542827161491196
  0.5383746126954059  0.9100316904296619  0.4678330943481168
  0.4343020992041972  0.8330699989760466  0.2518247657456703
  0.8354798231512099  0.6390554925830446  0.2790549906771680
  0.8898445139610252  0.2606581721222693  0.6355032919315794
  0.6795609803478003 -0.0518545568060194  0.2446525801100888
  0.1174284114340686  0.3481155974483069  0.7466936108766243
  0.8183249604042101  0.8953012737733043  0.6102752238098638
  0.8896384857056614  0.9660362541963601  0.7466983691315414
  0.9021915205571940  0.0576467670535339  0.2911414521658047
  0.5602416989881269  0.2967886783718392  0.7966039480962305
  0.6200372004523199  0.4339881894286882  0.7093959628180746
  0.4570277335933193  0.2342973674373047  0.3479188498576714
  0.0441639862846266  0.5152522373256312  0.6858277970117578
  0.4034875658345378  0.6575552069984572  0.5014964999827211
  0.5903916055511542  0.5764969111928374  0.7672291032919568
  0.8733753824164413  0.8694048672690977  0.0525000866161706
  0.1012913991104080  0.2451205902281246  0.0709671759950603
  0.8259979880038537  0.3400742201091539  0.9812786796822014
  0.3144454795119331  0.8098454702923034  0.0463390329199472
  0.1136803109929075  0.3228455882038473  0.9374250863705802
  0.6595892202701078 -0.0169540837990542  0.9176005303114306
  0.8919266537729278  0.3652595109853056  0.7690364187367108
  0.6732889712717445  0.4902965593874479  0.0688496363091847
  0.7581366965166209  0.2741844597036056  0.3549032098715376
  0.6627550542130490  0.6861465375477622  0.6549362693415283
  0.5583931818819091  0.0970545588180189  0.2285165229000551
  0.8522745711576093  0.1866717077194630  0.8195869193510339
  0.8152374389318510  0.2792724885544571  0.4625520440810870
  0.7516463314689728  0.7137432404584315 -0.0207222774716806
  0.2749874768615338  0.2958076929181455  0.4282230501428675
  0.6729378519135868  0.2038948511558369  0.9043936355609187
  0.8760822056255304  0.9259572239151295  0.2186673522492611
  0.5231562770125688  0.1626433188093156  0.6699070202241958
  0.8080723656773213  0.7221779736518495  0.4282181882825187
  0.8096676083010034  0.8293699116690872  0.7831366753146222
  0.6547212924334207  0.8405797726765720  0.7036515772247918
  0.4349328234512304  0.2875440265583649  0.2004224578065431
  0.9384708859437202 -0.0256106898247663  0.5153785470215508
  0.1002590963373271  0.9148229140960558  0.4786334848975710
  0.4387291828200232  0.2573724957607408  0.9314510214170195
  0.9316161079349132  0.5809295028037195  0.2412506454984334
  0.3611446998283849  0.0911464803129945  0.9351001718380481
  0.1907964018229261  0.4393897833938696  0.1926980576879211
  0.1594675987372507  0.9279633347226321  0.1865679155686961
  0.6108706336045723  0.6870242869077998  0.7678205534689045
  0.9517525558394129  0.6987070738746141  0.0899517878862142
 -0.0466151298699809  0.4181479850997794  0.8537085861573407
  0.1654490334177824  0.6708288280290805  0.3338392964285657
  0.4801469987705100  0.2230847879546270  0.8298112822012488
  0.7135835329922751  0.6226321731276336  0.9142957665160292
  0.8910680619325018  0.8784738076683389  0.4829667852002374
  0.2306095744537368  0.0258390341306577  0.8722379953950173
  0.2757366325285936  0.2276742490349645  0.2118359038472901
  0.9642551657419229  0.9495218080744732  0.0725700006449452
  0.1018228983416620  0.8009268983791578  0.5051245286807380
  0.2029579833914943  0.9569079387425884  0.5240593425594740
  0.3847252933119532  0.0826894149573096  0.6656487624063390
  0.7114492201259551  0.4833660217844038  0.5819749200145733
  0.9146529174266876  0.3329831095927912  0.4597146056034702
  0.1692406114346184  0.2186245670940610  0.9637932214025065
  0.8989515985241920  0.4727745584564543  0.5524691724645218
  0.6986027854112382  0.8594719169175098  0.3776798678845161
  0.6761814519487319  0.5080119565559127  0.7970876021881639
  0.2992071419072307  0.9559076073892943  0.0802443980905585
  0.1835989352455828  0.2615007910446322  0.2651239516538330
  0.2197101600234067  0.8706927797773720  0.6110904962000815
  0.2841895512840156  0.2196074609944724  0.5820258313532740
  0.3780884829828582  0.9029188691580861  0.7189228903888514
  0.2318142741702604  0.1977540553307036  0.1140298265073887
  0.3327364291216232  0.0501643149861416  0.1334611154144775
  0.6567411179936748  0.5418132472454226  0.4317507229358456
  0.7748722810204082  0.8704726117290738  0.9457267839115192
  0.6288812306658600  0.1942937266611019  0.2219628011448996
  0.5576629778736155  0.4674283696861130  0.0407331219037316
  0.8677728274140614  0.0129885039984214  0.5938960898791092
  0.3257435157879621  0.8716104680426898  0.2129754415159208
  0.0964834651803019  0.2722752619562094  0.3942187234564944
  0.8363573946686049  0.7327879317448145  0.5382034872603493
  0.4387679952267504  0.7348131092320862  0.4223853434590701
  0.5769110275261436  0.1371967420515022  0.9144924757995340
  0.8373174969574927 -0.0377831171092210  0.3292712371584017
  0.5514854887857136  0.9195286117589906  0.9250362904035228
  0.1228163584999633  0.2701111227882442  0.6598124665068573
  0.8288860844129510  0.5310747464545840  0.8392306789231596
  0.4635385653158723  0.2160272683280383  0.5769995477459823
  0.7652690392607499  0.1599084803636951  0.3440856582527541
  0.0897434417468709  0.5620307563248522  0.7784933401316575
  0.3774535937445615  0.8731461482031567  0.5261475947804055
  0.3134907804096480  0.3160796690002354  0.5341832029384608
  0.9138399514831250  0.2497962271883631  0.9645280703261561
  0.0728119257408069  0.0547846704308685  0.7765804715952159
  0.7862542786610319  0.5459703786050992  0.3326770811059759
  0.3376326253861895  0.0528868467653824  0.4040182788930555
 -0.0276545287046065  0.1788450622294587  0.5945590296055074
  0.4067343007130680  0.6279031371190079  0.0767916300483533
 -0.0214752610861721  0.1303258622957746  0.0887290487147556
  0.5007556415732379  0.3322613892458282  0.2940597901173181
  0.7037786127385994  0.6125369351666651  0.5054911308428294
  0.6959805630537625  0.3711533338377318  0.1111953308704435
  0.8206315584646605  0.3608858469823442  0.2493192302001358
  0.1195170158078992  0.9692050445146081  0.0957271558308571
 -0.0179057968708732  0.9319053857130589  0.8145767825132173
  0.8000040809891160  0.8160419617796388  0.3574688248695820
  0.0158568981571362  0.1892267240987679  0.2592567689920946
  0.8776425265448315  0.7750796174497042  0.1271122691888789
  0.3582405217297657  0.4087853139997510  0.9127193001238266
  0.6483441320363296  0.3083478267602495  0.8670208294060909
  0.3821711973660219  0.5857971013535935  0.3571886932158498
  0.3959292957327722  0.0845370494346448  0.8305954580683235
  0.5044684966337010  0.0153327197760551  0.4087424668487638
  0.7117110595980284  0.9354773590330160  0.0102521914882972
  0.6225644095273104  0.0676632457469936  0.9918160803032851
  0.3147329995182151  0.0435615436777193  0.2425773311890798
  0.0176170749789341  0.3109475306786404  0.0104388794816040
  0.3350354130284733  0.3020775504279050 -0.0725575957881642
  0.2895754807834512  0.4818308741632308  0.5919608733224002
  0.3111216820204381  0.8517324763369495  0.8610033990713479
  0.3393774705410916  0.2436365323506078  0.3495022362235968
  0.0710569784105154  0.5613865866055582  0.2072567752721279
  0.4414259030929814  0.1790579767876889  0.2466845301687010
  0.5967091310296921  0.2551101851583742  0.6985917874581447
  0.3808247820921137  0.4613728724851129  0.0082958715875496
  0.1387860012688145  0.0793239729337314  0.3219408763691176
  0.4266782601388533  0.8091537180502545  0.0992204010594225
  0.9376550841789113  0.6853424482087381  0.5375234826343001
  0.1998827639353445  0.5467957152671438  0.7667307351329541
  0.5207853206315334  0.5641549287592377  0.8555493997887336
  0.4571691363244483  0.9901853375435791  0.8251092743327058
  0.0786393436408124  0.3869080106850705  0.4151385647066559
  0.6763533789995770  0.7261678177831525  0.2566602999747208
  0.7962916899280662  0.5241603483294316  0.1553962337398435
  0.2108026002985982 -0.0150064331202321  0.0251396147069295
 -0.0318383314616365  0.0532237149839219  0.4419036851824099
 -0.0162565374400010 -0.0200319253016945  0.2536343203261835
  0.5806964128630160  0.8239125523977237  0.9865372124807086
  0.5641697608260055  0.5304777575111268  0.6697748186005212
  0.8331979827209036  0.1690524006534765  0.5081768181238384
  0.9455199874622605  0.3069545435703332  0.3555825878789384
  0.5805847997898292  0.0849266993693314  0.3535849410160420
  0.2957328406768371  0.6662392577815645  0.5247388330431004
  0.8203744569840825  0.3028728377980732  0.8365987792680005
  0.5360130368648672  0.5323246155402309  0.4606742791990739
  0.4241967522811333  0.1654013512347406 -0.0020488389784229
  0.0438289229792168  0.5506841839495166  0.3785991784392800
  0.7465456666632880  0.8741740049460430  0.1843799810133542
  0.6991989571605879  0.6339565798045663  0.1932357990682199
  0.1769438046118934  0.5452743114275701  0.2391452173758379
  0.0308132136083739  0.9414038237319867  0.5792250311086170
  0.9027838241835627  0.4277049879446678  0.9586236428050691
  0.6361599068354985  0.9490850699159814  0.5164296053056376
  0.1616028086087649  0.1167178738220178  0.1484454795954418
  0.5291549423153789  0.4053947604798357  0.7905660347668667
  0.8757292770451063  0.9143591621619154  0.8552162450343529
  0.1766341810773980  0.2429070996885510  0.4613507758252015
  0.7421688253279927  0.9359962235674865  0.6974146579275499
  0.2500783939186239  0.4004226803928985  0.3917482543674077
  0.5387858847462128 -0.0476310847717464  0.6735381806723671
  0.8386867356295646  0.0366364874535453  0.1822942364586104
  0.1150674973879704  0.7542281129927962  0.9978751785176946
  0.1217077786818667  0.3610780776415110  0.0500153847737943
  0.6306263857335521  0.3970815193705936  0.4144975171367448
  0.5720296077815139  0.3762389257364562  0.5867041157631381
  0.7327008312895218  0.1532181964654749  0.8205382884183123
  0.5319815723654612  0.7149683245944638  0.1764550900521353
  0.4668806484367685  0.6645121943531949  0.5949491483312156
  0.1614538388710236  0.9373500734403500  0.8718712738921173
  0.8498338711522078  0.7229122233074075  0.8339687210262667
  0.5267979826948493  0.8663753396752920  0.0754408501288857
  0.0595020809901337  0.5900991660583238  0.9521110080621326
  0.2366572160079301  0.3700613667917825  0.7543982542375902
  0.8368331017640447  0.0835880434143555  0.0069573066271290
  0.7456849542901238  0.7669785602803260  0.6769989923769957
  0.3971914953757060  0.8855874838004363  0.3578760390812832
  0.2437096948720690  0.7646110714282863  0.7072150464945759
  0.7599696424758365  0.3337558950722075  0.5458777519234654
  0.5954356268075442  0.1200711739231809  0.5857898564576802
  0.9574378473331852  0.8301580504332147 -0.0196910950416707
  0.5248620921738641  0.5419401035601360  0.2064432280238191
  0.0122166228821137  0.3682099134167757  0.2180200480357807
  0.0663174345683342  0.8202657863673012  0.3122936911402998
  0.4472370106046764  0.9607766525377386  0.5183151374336102
  0.2095977000379312  0.9305306829456423  0.3408661310190928
  0.8924370751209724  0.6692643569695041  0.3783585035022752
  0.7132902765582445  0.7894341213706546  0.8960962788883826
  0.2327279081012315  0.6494462732781113  0.1136426576330583
  0.7646636696048037  0.1089141336321297  0.4429090257979728
  0.8930769607082965  0.8572767805110637  0.6961001090017213
  0.9374247451186756  0.4970711321448232  0.7167070890623960
  0.7995976585478717  0.3938922386243449  0.7061422610258565
  0.2274795997761509  0.4563571088615224  0.8243410804628667
  0.3451425694896682  0.6249132178552331  0.7730716287051124
  0.9298459685322911  0.6811316488871658  0.7664620356840179
  0.5152358709600418  0.3015535536931283 -0.0018668486888138
  0.7191565778847442  0.2215732321779263  0.0037719170546644
  0.9363472139680870  0.7211991622298183  0.9794121392606959
  0.6149871400030509  0.2140433484268126  0.4761243827952736
  0.1680712948374273  0.9232638245778251  0.6937622458752096
  0.0725700046950299  0.7523377734406198  0.7073714922794681
  0.7046442038554923  0.0351043547882498  0.6599438024432459
  0.4010920255924249  0.3484862659005432  0.6704263739040429
  0.0556387821262796  0.0471663880057770  0.6010783850266248
  0.2346833676379659  0.1491984201307789  0.7469877899593333
  0.1694458688472989  0.4124514775740798  0.4687179916153769
  0.0814874520243841 -0.0322691365853004  0.9419225542763677
  0.1021203982171092  0.4234275279188674  0.6524546058486564
 -0.0072801143583445  0.2659867094772065  0.1807133308507076
  0.2320031500755761  0.7840710643077390  0.9056032509560387
  0.6970455525236625  0.7027659601240147  0.4392649186201149
  0.2454829014611921  0.6792055438569877  0.8742573642358547
  0.0631937965867040  0.5911371765081879  0.0655227341470716
  0.2911814957679998  0.4477887448785985  0.1536426957791575
  0.5177221533539099  0.7985834130239741  0.5710879552426553
  0.1022361968569903  0.1696170921224138  0.8875127909880887
  0.6212113292881202  0.3813176948646057  0.1965916742857874
  0.4414065783402697  0.3660083944892557  0.4770066785669926
  0.4554789268454816  0.7373967740087256  0.8723480745023600
  0.6282509941290524  0.7880348357501813  0.5977602979104931
  0.6487867313140321  0.7163735906732716  0.0472525012700598
  0.6403990265376565  0.2795648277704512  0.3911902270869902
  0.4080193462010921  0.5662402545172766  0.6154403369159726
  0.3853855852708225  0.6696422876527314  0.2551827888351080
 -0.0312994296516185  0.2955870101183175  0.7215158588559322
  0.8262162168021526  0.1825213794830844  0.7010788917061418
  0.5851574636704979  0.8706837213147131  0.2640223337974277
  0.2885131407831075  0.5030563848113296  0.0517586939657888
  0.7192946711209837  0.4580109631515802  0.9640131281580522
  0.4216079536775474  0.5577739075030006  0.7296497334759108
  0.2875367457444128  0.7769813590480442  0.1586818389092158
  0.4096166738214173  0.5471449477298158  0.4663327245088321
  0.3183886813508356  0.6251086166183747  0.9418069756696495
  0.6448070715310248  0.0267461253241862  0.1734934604050213
  0.8814050907639305  0.3858057107906102  0.0788706113599629
  0.8134783141770474  0.2125329115184771  0.1251913224969041
  0.0825504104739704  0.7399489714023741  0.1757295791689550
  0.5011112378883760  0.9255838914731329  0.2126246253411506
  0.9568342416598165  0.8508140736534415  0.3912162122419875
  0.3055301386885802  0.0278797937599268  0.6048741896323171
  0.0308475726608465  0.5802378050191479  0.5929737484435806
  0.6002353322183760  0.6119220236170885  0.0403569495154532
  0.5579298129906849  0.8905876044467430  0.8160544043284177
 
  0.00000000E+00  0.00000000E+00  0.00000000E+00
  0.00000000E+00  0.00000000E+00  0.00000000E+00
  0.00000000E+00  0.00000000E+00  0.00000000E+00
  0.00000000E+00  0.00000000E+00  0.00000000E+00
  0.00000000E+00  0.00000000E+00  0.00000000E+00
  0.00000000E+00  0.00000000E+00  0.00000000E+00
  0.00000000E+00  0.00000000E+00  0.00000000E+00
  0.00000000E+00  0.00000000E+00  0.00000000E+00
  0.00000000E+00  0.00000000E+00  0.00000000E+00
  0.00000000E+00  0.00000000E+00  0.00000000E+00
  0.00000000E+00  0.00000000E+00  0.00000000E+00
  0.00000000E+00  0.00000000E+00  0.00000000E+00
  0.00000000E+00  0.00000000E+00  0.00000000E+00
  0.00000000E+00  0.00000000E+00  0.00000000E+00
  0.00000000E+00  0.00000000E+00  0.00000000E+00
  0.00000000E+00  0.00000000E+00  0.00000000E+00
  0.00000000E+00  0.00000000E+00  0.00000000E+00
  0.00000000E+00  0.00000000E+00  0.00000000E+00
  0.00000000E+00  0.00000000E+00  0.00000000E+00
  0.00000000E+00  0.00000000E+00  0.00000000E+00
  0.00000000E+00  0.00000000E+00  0.00000000E+00
  0.00000000E+00  0.00000000E+00  0.00000000E+00
  0.00000000E+00  0.00000000E+00  0.00000000E+00
  0.00000000E+00  0.00000000E+00  0.00000000E+00
  0.00000000E+00  0.00000000E+00  0.00000000E+00
  0.00000000E+00  0.00000000E+00  0.00000000E+00
  0.00000000E+00  0.00000000E+00  0.00000000E+00
  0.00000000E+00  0.00000000E+00  0.00000000E+00
  0.00000000E+00  0.00000000E+00  0.00000000E+00
  0.00000000E+00  0.00000000E+00  0.00000000E+00
  0.00000000E+00  0.00000000E+00  0.00000000E+00
  0.00000000E+00  0.00000000E+00  0.00000000E+00
  0.00000000E+00  0.00000000E+00  0.00000000E+00
  0.00000000E+00  0.00000000E+00  0.00000000E+00
  0.00000000E+00  0.00000000E+00  0.00000000E+00
  0.00000000E+00  0.00000000E+00  0.00000000E+00
  0.00000000E+00  0.00000000E+00  0.00000000E+00
  0.00000000E+00  0.00000000E+00  0.00000000E+00
  0.00000000E+00  0.00000000E+00  0.00000000E+00
  0.00000000E+00  0.00000000E+00  0.00000000E+00
  0.00000000E+00  0.00000000E+00  0.00000000E+00
  0.00000000E+00  0.00000000E+00  0.00000000E+00
  0.00000000E+00  0.00000000E+00  0.00000000E+00
  0.00000000E+00  0.00000000E+00  0.00000000E+00
  0.00000000E+00  0.00000000E+00  0.00000000E+00
  0.00000000E+00  0.00000000E+00  0.00000000E+00
  0.00000000E+00  0.00000000E+00  0.00000000E+00
  0.00000000E+00  0.00000000E+00  0.00000000E+00
  0.00000000E+00  0.00000000E+00  0.00000000E+00
  0.00000000E+00  0.00000000E+00  0.00000000E+00
  0.00000000E+00  0.00000000E+00  0.00000000E+00
  0.00000000E+00  0.00000000E+00  0.00000000E+00
  0.00000000E+00  0.00000000E+00  0.00000000E+00
  0.00000000E+00  0.00000000E+00  0.00000000E+00
  0.00000000E+00  0.00000000E+00  0.00000000E+00
  0.00000000E+00  0.00000000E+00  0.00000000E+00
  0.00000000E+00  0.00000000E+00  0.00000000E+00
  0.00000000E+00  0.00000000E+00  0.00000000E+00
  0.00000000E+00  0.00000000E+00  0.00000000E+00
  0.00000000E+00  0.00000000E+00  0.00000000E+00
  0.00000000E+00  0.00000000E+00  0.00000000E+00
  0.00000000E+00  0.00000000E+00  0.00000000E+00
  0.00000000E+00  0.00000000E+00  0.00000000E+00
  0.00000000E+00  0.00000000E+00  0.00000000E+00
  0.00000000E+00  0.00000000E+00  0.00000000E+00
  0.00000000E+00  0.00000000E+00  0.00000000E+00
  0.00000000E+00  0.00000000E+00  0.00000000E+00
  0.00000000E+00  0.00000000E+00  0.00000000E+00
  0.00000000E+00  0.00000000E+00  0.00000000E+00
  0.00000000E+00  0.00000000E+00  0.00000000E+00
  0.00000000E+00  0.00000000E+00  0.00000000E+00
  0.00000000E+00  0.00000000E+00  0.00000000E+00
  0.00000000E+00  0.00000000E+00  0.00000000E+00
  0.00000000E+00  0.00000000E+00  0.00000000E+00
  0.00000000E+00  0.00000000E+00  0.00000000E+00
  0.00000000E+00  0.00000000E+00  0.00000000E+00
  0.00000000E+00  0.00000000E+00  0.00000000E+00
  0.00000000E+00  0.00000000E+00  0.00000000E+00
  0.00000000E+00  0.00000000E+00  0.00000000E+00
  0.00000000E+00  0.00000000E+00  0.00000000E+00
  0.00000000E+00  0.00000000E+00  0.00000000E+00
  0.00000000E+00  0.00000000E+00  0.00000000E+00
  0.00000000E+00  0.00000000E+00  0.00000000E+00
  0.00000000E+00  0.00000000E+00  0.00000000E+00
  0.00000000E+00  0.00000000E+00  0.00000000E+00
  0.00000000E+00  0.00000000E+00  0.00000000E+00
  0.00000000E+00  0.00000000E+00  0.00000000E+00
  0.00000000E+00  0.00000000E+00  0.00000000E+00
  0.00000000E+00  0.00000000E+00  0.00000000E+00
  0.00000000E+00  0.00000000E+00  0.00000000E+00
  0.00000000E+00  0.00000000E+00  0.00000000E+00
  0.00000000E+00  0.00000000E+00  0.00000000E+00
  0.00000000E+00  0.00000000E+00  0.00000000E+00
  0.00000000E+00  0.00000000E+00  0.00000000E+00
  0.00000000E+00  0.00000000E+00  0.00000000E+00
  0.00000000E+00  0.00000000E+00  0.00000000E+00
  0.00000000E+00  0.00000000E+00  0.00000000E+00
  0.00000000E+00  0.00000000E+00  0.00000000E+00
  0.00000000E+00  0.00000000E+00  0.00000000E+00
  0.00000000E+00  0.00000000E+00  0.00000000E+00
  0.00000000E+00  0.00000000E+00  0.00000000E+00
  0.00000000E+00  0.00000000E+00  0.00000000E+00
  0.00000000E+00  0.00000000E+00  0.00000000E+00
  0.00000000E+00  0.00000000E+00  0.00000000E+00
  0.00000000E+00  0.00000000E+00  0.00000000E+00
  0.00000000E+00  0.00000000E+00  0.00000000E+00
  0.00000000E+00  0.00000000E+00  0.00000000E+00
  0.00000000E+00  0.00000000E+00  0.00000000E+00
  0.00000000E+00  0.00000000E+00  0.00000000E+00
  0.00000000E+00  0.00000000E+00  0.00000000E+00
  0.00000000E+00  0.00000000E+00  0.00000000E+00
  0.00000000E+00  0.00000000E+00  0.00000000E+00
  0.00000000E+00  0.00000000E+00  0.00000000E+00
  0.00000000E+00  0.00000000E+00  0.00000000E+00
  0.00000000E+00  0.00000000E+00  0.00000000E+00
  0.00000000E+00  0.00000000E+00  0.00000000E+00
  0.00000000E+00  0.00000000E+00  0.00000000E+00
  0.00000000E+00  0.00000000E+00  0.00000000E+00
  0.00000000E+00  0.00000000E+00  0.00000000E+00
  0.00000000E+00  0.00000000E+00  0.00000000E+00
  0.00000000E+00  0.00000000E+00  0.00000000E+00
  0.00000000E+00  0.00000000E+00  0.00000000E+00
  0.00000000E+00  0.00000000E+00  0.00000000E+00
  0.00000000E+00  0.00000000E+00  0.00000000E+00
  0.00000000E+00  0.00000000E+00  0.00000000E+00
  0.00000000E+00  0.00000000E+00  0.00000000E+00
  0.00000000E+00  0.00000000E+00  0.00000000E+00
  0.00000000E+00  0.00000000E+00  0.00000000E+00
  0.00000000E+00  0.00000000E+00  0.00000000E+00
  0.00000000E+00  0.00000000E+00  0.00000000E+00
  0.00000000E+00  0.00000000E+00  0.00000000E+00
  0.00000000E+00  0.00000000E+00  0.00000000E+00
  0.00000000E+00  0.00000000E+00  0.00000000E+00
  0.00000000E+00  0.00000000E+00  0.00000000E+00
  0.00000000E+00  0.00000000E+00  0.00000000E+00
  0.00000000E+00  0.00000000E+00  0.00000000E+00
  0.00000000E+00  0.00000000E+00  0.00000000E+00
  0.00000000E+00  0.00000000E+00  0.00000000E+00
  0.00000000E+00  0.00000000E+00  0.00000000E+00
  0.00000000E+00  0.00000000E+00  0.00000000E+00
  0.00000000E+00  0.00000000E+00  0.00000000E+00
  0.00000000E+00  0.00000000E+00  0.00000000E+00
  0.00000000E+00  0.00000000E+00  0.00000000E+00
  0.00000000E+00  0.00000000E+00  0.00000000E+00
  0.00000000E+00  0.00000000E+00  0.00000000E+00
  0.00000000E+00  0.00000000E+00  0.00000000E+00
  0.00000000E+00  0.00000000E+00  0.00000000E+00
  0.00000000E+00  0.00000000E+00  0.00000000E+00
  0.00000000E+00  0.00000000E+00  0.00000000E+00
  0.00000000E+00  0.00000000E+00  0.00000000E+00
  0.00000000E+00  0.00000000E+00  0.00000000E+00
  0.00000000E+00  0.00000000E+00  0.00000000E+00
  0.00000000E+00  0.00000000E+00  0.00000000E+00
  0.00000000E+00  0.00000000E+00  0.00000000E+00
  0.00000000E+00  0.00000000E+00  0.00000000E+00
  0.00000000E+00  0.00000000E+00  0.00000000E+00
  0.00000000E+00  0.00000000E+00  0.00000000E+00
  0.00000000E+00  0.00000000E+00  0.00000000E+00
  0.00000000E+00  0.00000000E+00  0.00000000E+00
  0.00000000E+00  0.00000000E+00  0.00000000E+00
  0.00000000E+00  0.00000000E+00  0.00000000E+00
  0.00000000E+00  0.00000000E+00  0.00000000E+00
  0.00000000E+00  0.00000000E+00  0.00000000E+00
  0.00000000E+00  0.00000000E+00  0.00000000E+00
  0.00000000E+00  0.00000000E+00  0.00000000E+00
  0.00000000E+00  0.00000000E+00  0.00000000E+00
  0.00000000E+00  0.00000000E+00  0.00000000E+00
  0.00000000E+00  0.00000000E+00  0.00000000E+00
  0.00000000E+00  0.00000000E+00  0.00000000E+00
  0.00000000E+00  0.00000000E+00  0.00000000E+00
  0.00000000E+00  0.00000000E+00  0.00000000E+00
  0.00000000E+00  0.00000000E+00  0.00000000E+00
  0.00000000E+00  0.00000000E+00  0.00000000E+00
  0.00000000E+00  0.00000000E+00  0.00000000E+00
  0.00000000E+00  0.00000000E+00  0.00000000E+00
  0.00000000E+00  0.00000000E+00  0.00000000E+00
  0.00000000E+00  0.00000000E+00  0.00000000E+00
  0.00000000E+00  0.00000000E+00  0.00000000E+00
  0.00000000E+00  0.00000000E+00  0.00000000E+00
  0.00000000E+00  0.00000000E+00  0.00000000E+00
  0.00000000E+00  0.00000000E+00  0.00000000E+00
  0.00000000E+00  0.00000000E+00  0.00000000E+00
  0.00000000E+00  0.00000000E+00  0.00000000E+00
  0.00000000E+00  0.00000000E+00  0.00000000E+00
  0.00000000E+00  0.00000000E+00  0.00000000E+00
  0.00000000E+00  0.00000000E+00  0.00000000E+00
  0.00000000E+00  0.00000000E+00  0.00000000E+00
  0.00000000E+00  0.00000000E+00  0.00000000E+00
  0.00000000E+00  0.00000000E+00  0.00000000E+00
  0.00000000E+00  0.00000000E+00  0.00000000E+00
  0.00000000E+00  0.00000000E+00  0.00000000E+00
  0.00000000E+00  0.00000000E+00  0.00000000E+00
  0.00000000E+00  0.00000000E+00  0.00000000E+00
  0.00000000E+00  0.00000000E+00  0.00000000E+00
  0.00000000E+00  0.00000000E+00  0.00000000E+00
  0.00000000E+00  0.00000000E+00  0.00000000E+00
  0.00000000E+00  0.00000000E+00  0.00000000E+00
  0.00000000E+00  0.00000000E+00  0.00000000E+00
  0.00000000E+00  0.00000000E+00  0.00000000E+00
  0.00000000E+00  0.00000000E+00  0.00000000E+00
  0.00000000E+00  0.00000000E+00  0.00000000E+00
  0.00000000E+00  0.00000000E+00  0.00000000E+00
  0.00000000E+00  0.00000000E+00  0.00000000E+00
  0.00000000E+00  0.00000000E+00  0.00000000E+00
  0.00000000E+00  0.00000000E+00  0.00000000E+00
  0.00000000E+00  0.00000000E+00  0.00000000E+00
  0.00000000E+00  0.00000000E+00  0.00000000E+00
  0.00000000E+00  0.00000000E+00  0.00000000E+00
  0.00000000E+00  0.00000000E+00  0.00000000E+00
  0.00000000E+00  0.00000000E+00  0.00000000E+00
  0.00000000E+00  0.00000000E+00  0.00000000E+00
  0.00000000E+00  0.00000000E+00  0.00000000E+00
  0.00000000E+00  0.00000000E+00  0.00000000E+00
  0.00000000E+00  0.00000000E+00  0.00000000E+00
  0.00000000E+00  0.00000000E+00  0.00000000E+00
  0.00000000E+00  0.00000000E+00  0.00000000E+00
  0.00000000E+00  0.00000000E+00  0.00000000E+00
  0.00000000E+00  0.00000000E+00  0.00000000E+00
  0.00000000E+00  0.00000000E+00  0.00000000E+00
  0.00000000E+00  0.00000000E+00  0.00000000E+00
  0.00000000E+00  0.00000000E+00  0.00000000E+00
  0.00000000E+00  0.00000000E+00  0.00000000E+00
  0.00000000E+00  0.00000000E+00  0.00000000E+00
  0.00000000E+00  0.00000000E+00  0.00000000E+00
  0.00000000E+00  0.00000000E+00  0.00000000E+00
  0.00000000E+00  0.00000000E+00  0.00000000E+00
  0.00000000E+00  0.00000000E+00  0.00000000E+00
  0.00000000E+00  0.00000000E+00  0.00000000E+00
  0.00000000E+00  0.00000000E+00  0.00000000E+00
  0.00000000E+00  0.00000000E+00  0.00000000E+00
  0.00000000E+00  0.00000000E+00  0.00000000E+00
  0.00000000E+00  0.00000000E+00  0.00000000E+00