Amorphous Sb                            
   1.00000000000000     
    22.7383632703414982    0.0000000000000000    0.0000000000000000
     0.0000000000000000   22.7383632703414982    0.0000000000000000
     0.0000000000000000    0.0000000000000000   22.7383632703414982
   Sb   Te
   100   200
Direct
  0.8261875825252828  0.5803058403514673  0.2940692710482977
  0.6163979056012874  0.9389448218648355  0.7409737224877240
  0.8255821469023020  0.1107556528548256  0.2329582481689310
  0.8120549448587622  0.2931148540980270  0.8952077881725056
  0.5800247966673827  0.8264563584116549  0.7898696882472394
  0.9624363484340906  0.3554688246203151  0.5977498327400653
  0.8923968724232819  0.2631536358092639  0.9926835800295164
  0.2525508992915569  0.8098568628069782  0.5065533455031670
  0.7143112925524391  0.2340879836989357  0.1613411806512756
  0.3231896893753148  0.5989335789119968  0.2672504417951094
  0.0237203959552324  0.9155869399038002  0.4461153174304360
  0.1752303577757814  0.1309625609232173  0.1517610705853638
  0.9800964236812039  0.0625149745142998  0.9843497258066454
  0.4756352306951606  0.9885346122016284  0.4186415810959466
  0.9027958816005657  0.1975200085740774  0.4839210114624907
  0.9522306303813886  0.7687202359979624  0.2628282155863821
  0.9855881370349173  0.1394209470888930  0.1832677887488632
  0.6918992727002499  0.2552964440721763  0.7151157587723000
  0.3982523475888043  0.3090772361938145  0.7389180617560334
 -0.0073362815570430  0.4792241600969467  0.5784493321256694
  0.5073314489619227  0.3138869888731130  0.5335195082309226
  0.6882311807827403  0.4379565799489400  0.6595362901679729
  0.7384745335200992  0.5694083651116586  0.0036994126357439
  0.1689002746702195  0.3995673121911367  0.4551003501411114
  0.6007322863038856  0.5944280764246325  0.6420043918900300
  0.1772667907593575  0.7391147164101068  0.4224906984705665
  0.0893698194118634  0.3258785132170710  0.6122474295946821
  0.7768583150255153  0.2786099781411285  0.5715715482885116
  0.4813766126821869  0.4197675561297606  0.9751333313310374
  0.5711048563756875  0.0548064545302502  0.6027830685495239
  0.9952337567103315  0.3254869708547852  0.1005237495567742
  0.2639913090787525  0.5179462849441392  0.3554868572641305
  0.8759010378325860  0.0222790497112029  0.0506676493472981
  0.0042751308304387  0.7439901946623134  0.4546724304331034
  0.2899452634989646  0.0181523930007918  0.7932001782558358
  0.5644206424013362  0.0068805167005211  0.2234578689971590
  0.7999849414857314  0.1179808155513594  0.0909442156338864
  0.6429490033055557  0.1505100323419927  0.5510266416825623
  0.4377201480127590  0.2581114935899673  0.9772763225082485
  0.8484380078431902  0.5918258901088869  0.1383990898865224
  0.0454005026259841  0.8460539115522191  0.0884205445605810
  0.1796132583697096  0.1004598934155287  0.4237847022338843
  0.3262256234535607  0.6439411504803884  0.4493981780304795
  0.1780073179791367  0.9479154374857403  0.0351727279565582
  0.5107833844586072  0.5505206094145698  0.2733337579904469
  0.4107212850777929  0.6179274979450304  0.6881960270864592
  0.4695119037966485  0.9208148527514489  0.8528359352673116
  0.2123333323567111  0.3032233722052373  0.7693086616165241
  0.8387414759702437  0.2399319300336698  0.7780541599273134
  0.6268260097375996  0.8928152452553491  0.2144184074591111
  0.2679063958770626  0.3116911667851945  0.9263717899618265
  0.5313428777312144  0.6604706765265387  0.0880643708321809
  0.9551501375738141  0.0132243935375683  0.8610192001520867
  0.5452613491673771  0.7926422223237211  0.9776587763960125
  0.0197612786360429  0.1943820738424412  0.8595465933842736
  0.0414488624194569  0.6104935890263096  0.9599798925122640
  0.0511368676785595  0.8280707033123403  0.3218738681739134
  0.5557742051062076  0.1746232880005828  0.4572202878743804
  0.6633801543268593  0.3665552176763709  0.0488563535884379
  0.8617732683903002  0.5171266334210691  0.5873556852658999
  0.2939568630552278  0.4666033892262019  0.7577374985628296
  0.4709998316922424  0.5431998064058218  0.7784321324447958
  0.2420256122736595  0.5710986370598202  0.5643525327760636
  0.9375930904745680  0.8790895658761682  0.0277609353653386
  0.7712169570650904  0.6241986015155672  0.5950196758074541
  0.2979467488878346  0.0514322234146832  0.4084306790473746
  0.5509332458605868  0.2568378655762522  0.8305113006765958
  0.0364567970740578  0.0551932038757306  0.6336297117900256
  0.5131669688230099  0.0699295919269204  0.7899400050886232
  0.7054419424042535  0.0920467294538253  0.4561197528970831
  0.1990717710118396  0.7022865720648483  0.2510504623600618
  0.4750290010717586  0.1339850413947639  0.9824466468336958
  0.8672841222492162  0.4123101177647958  0.1300554458995101
  0.3930079421192667  0.3015972273466369  0.1895533735965262
  0.2023366574371631  0.6154948386708422  0.4425166030215153
  0.0799810218385913  0.0019849863480445  0.3681828937434227
  0.0280790714035538  0.8599238028677361  0.7858036327447373
  0.4338532759978206  0.0755937816668051  0.3317416055346324
  0.7273719629301184  0.9183522489298106  0.4000400713673214
  0.7193057583971987  0.7817298147055490  0.9018188863393412
  0.0057890906205010  0.7232557759875370  0.0881565286899670
  0.8367831896880524  0.8370349356529990  0.8927856935567179
  0.2733386076576525  0.6180719913683524  0.1096857112966247
  0.1065398268709995  0.4729196713381860  0.7263658461970278
  0.6724797758236210  0.0690574125482719  0.1932965272220899
  0.1264632065344859  0.2380785859438369  0.2910664195954950
  0.4277674286996546  0.7519500361138007  0.8081878193666304
  0.0656495083620279  0.1590552276590553  0.5623777881019809
  0.4873133100498787  0.7171051207787970  0.2591479659594539
  0.1224908376514170  0.8744281499016309  0.6172704231379048
  0.8136421592681964  0.6679898419324874  0.7648519085639910
  0.4197094750419650  0.0029179848378438  0.0565798354493335
  0.7620541230250830  0.5220010853030433  0.8322517202413999
  0.3899231789972680  0.7818822394078229  0.1323753871440062
  0.3619888959906386  0.0195510447525674  0.6874203535912669
  0.8301868085816909  0.7490545051107942  0.4086926272449302
  0.8304848388535579  0.7664967868736466  0.1315478720405178
  0.1194977264122113  0.6965774410599312  0.5600494271442888
  0.8331821194460493  0.9176250613061773  0.7524251300185214
  0.3254839477380884  0.2105419325920465  0.3205155909375616
  0.5466352612509159  0.7850921305479072  0.6737353028778280
  0.2706187765800113  0.7552789694574217  0.3385946081838202
  0.4764028520176002  0.8976314113789099  0.9775651375892466
  0.7475039020995422  0.2389148023636125  0.4530165939115246
  0.7991881456845534  0.3276962393532301  0.0671950675393101
  0.0098584892100322  0.2777006962057141  0.2145353869698791
  0.8149405153883704  0.8366892405616996  0.6607635718826489
  0.5355621737137789  0.4382672119920054  0.5179536081383570
  0.6301285682343397  0.2681741755376272  0.4219015274698882
  0.5360555757375356  0.6508777487303552  0.7721763581574107
  0.1408316655823103  0.5719762111981053  0.8958551888684034
  0.5619560330940861  0.4782539413080928  0.6702947975398191
  0.2832082822791592  0.0531529636285071  0.0610337801611373
  0.3626284442923159  0.9046608080380851  0.5381011930713062
  0.8765169802426948  0.6661582718918366  0.6569591727970141
  0.7447840675635014  0.6596732027928603  0.1365655890997820
  0.3797229719201283  0.1483055176073894  0.4270929982673172
  0.0582602552509519  0.4317304279603889  0.1199974022315079
  0.2524368944605653  0.7423630600700665  0.1438982634745596
  0.0399786416471362  0.6911836414960497  0.2040597309451387
  0.1533125804312688  0.5859928971819121  0.1378208344325212
  0.0293877681030485  0.2589093136094742  0.3710480593201065
  0.0397969278300803  0.6451664309434876  0.7682418985111573
  0.1622144849187436  0.8981650062508169  0.4983381964164899
  0.3390863633734922  0.7815029255721530  0.0177190527443205
  0.5831481781155416  0.3836029293991013  0.2492711126847357
  0.3491016287872620  0.3382227534981130  0.4109571412904767
  0.5818314327550155  0.6603006825817592  0.8980280253766636
  0.1288228238153379  0.7925855083529882  0.8413489216364685
  0.0188631779138725  0.9392774026202446  0.2767767888911810
  0.6609725920278916  0.3204646089306029  0.5989762736512998
  0.6060518908681340  0.5491152451080674  0.0426083525922195
  0.5778768034716084  0.4349731823911918  0.4020133055642705
  0.7657307301884870  0.4603036209029052  0.9441821194793784
  0.9855150553832136  0.4895606971407037  0.7032772267986391
  0.0633452418047327  0.4844139975415305  0.8579159443836367
  0.9193770077017210  0.9640983769751821  0.3882365882397834
  0.9061137955319620  0.4849761841006333  0.2668839795262899
  0.6308093806014351  0.8606674248646541  0.3347979317303180
  0.6209878756296572  0.4964308957275824  0.2171364093387643
  0.8746012445289115  0.5796739952404800  0.8306864324632887
  0.0583654927886412  0.9901984639014395  0.0804315921392564
  0.6230752229159933  0.0917026990400020  0.7135031830178579
  0.4475470599701487  0.2276771013980156  0.2710295126182757
  0.0566633434406841  0.5432426357663391  0.3762963974245256
  0.0100929899325749  0.1317855572496507  0.4536570873349681
  0.8992892840526281  0.7944046794082568  0.5010468309519227
  0.5477896665142969  0.0153195723636616  0.0965621084867404
  0.9251244479158771  0.2053681308935139  0.6081098358823547
  0.6755455055144098  0.3890399875123094  0.7800761286083737
  0.7671231489273350  0.2144584869126451  0.2937801216594900
  0.4238360976706845  0.0227061717527645  0.5388172215327869
  0.6663541121221017  0.8882114351851222  0.9454011080887501
  0.3417198016398739  0.5166632276764143  0.6531341282479551
  0.2479850758474176  0.1008742180029890  0.9532518638371129
  0.7717191079086965  0.0110980226724074  0.6910257226278004
  0.6254006920180104  0.1785702502018543  0.2323474985857751
  0.2951385121324555  0.2224130440332941  0.1860813544524317
  0.1073094625939328  0.1163677684782835  0.2613940534360084
  0.1999522326611961  0.3647402908181152  0.3406563298799986
  0.9250293724735549  0.0261243625075116  0.1726245921725774
  0.5527336715535033  0.4369427901557600  0.0790589189473100
  0.5042483687017509  0.6749742100004508  0.4964804765926935
  0.2072710499784942  0.2190797755990155  0.3929104523592311
  0.3499350756639961  0.8466251868029491  0.8554973293837239
  0.7448151819796989  0.9264932356435059  0.1893349601220720
  0.8755632136772360  0.5981944245741568  0.0134485452849133
  0.1832298110125019  0.5010844851999670  0.2286302368879880
  0.0736035028146202  0.1182163214467103  0.0716518748481130
  0.3923712712830284  0.1185275976218937  0.1015393170524424
  0.3960149335926179  0.3434416974660830  0.5863756638351671
  0.8129323926694275  0.1148798130626401  0.7894834398664127
  0.3308684910894535  0.6729171123243485  0.7914924211287998
  0.3821371629816931  0.1461988513159136  0.6848737704295971
  0.6496089175574387  0.2418605003693049  0.0443919570290620
  0.4618391473160365  0.8123506774875787  0.4053785987624214
  0.5207397897226335  0.7913692399662309  0.1024999885906815
  0.7460856096807653  0.9243045380791272  0.6003481824457318
  0.2565991561780105 -0.0191487039215747  0.6262433335250431
  0.8136696081644590  0.0764478164706446  0.5220639126181965
  0.0045307943949254  0.9511025668708923  0.5652638154655392
  0.3178507251805927  0.6718438597308966  0.5727029217394201
  0.1751078193321318  0.0211382856171760  0.7105342938403854
  0.5800630915357441 -0.0063420773700979  0.8634001558100964
  0.4937819119046650  0.9034117709232903  0.3057234792132471
  0.1476953587111654  0.9027788637915408  0.7687059257069694
  0.7943167165899243  0.5453211566321153  0.4096128702923154
  0.4963714429201902  0.9680953713984930  0.7123837440599579
  0.3095096373333510  0.9027858915656397  0.0158527213040092
  0.3310177606575049  0.4857889570798943  0.0589656555943810
  0.4826363010491662  0.2767161243473254  0.1010113290676104
  0.5772945869543714  0.5841516473248304  0.3799445847782701
  0.1781679000823293  0.2515078418775393  0.1183143964647698
  0.4813000957723756  0.5842205368782634  0.5801281255635663
  0.8376096280668830  0.8378224461169298  0.3196665224564207
  0.9162633563285240  0.1546816773578745  0.9155406539202097
  0.0623656839150669  0.5096633997378018  0.2589135519584624
  0.6912905145750928  0.3560918044960665  0.1829070631636549
  0.1898050355669032  0.9354402859949155  0.3548460020001734
  0.3825069103512534  0.5019582005146481  0.2142725697142022
  0.2942176282988795  0.0901111724081351  0.2888404378046122
  0.3717835662878905  0.9003985734906046  0.4152722634944096
  0.8432630143585601  0.9623583614609088  0.4859187341370183
  0.8097036619747280  0.4288172083242563  0.5151826360216436
  0.9425326201728383  0.6838688197998695  0.3581453195816334
  0.5191558461649147  0.3367707487058550  0.7130508010568877
  0.1376969876510113  0.8336991887106023  0.0035298170529142
  0.3190817170055753  0.2303741797708678  0.0067655083764024
  0.9359842107804403  0.3221277356149253  0.4791819117387712
  0.3881250778912084  0.9566721145352179  0.2632622347727891
  0.2141234543378704  0.7831375390909044  0.6223260491043175
  0.1127032532001469  0.6830293742247686  0.0339821280602454
  0.7723084013415693  0.4952644934948261  0.1239283707965418
  0.7989809989454528  0.0348808432814070  0.9269253898880959
  0.9018312880525745  0.4737678895897875  0.9839185619873336
  0.8842268795002457  0.2037423091124386  0.1336067206516648
  0.0289678632225253  0.3686484039256393  0.3097574176655635
  0.5608336546377586  0.0846224807619415  0.3661945365153326
  0.1900635859977650 -0.0052040544839913  0.9194873212615936
  0.1478969046822987  0.7102713864776644  0.7529555624570099
  0.5747369506251897  0.7108875069210957  0.3619174648843251
  0.7015414719141444  0.5491730754761869  0.3091965944029625
  0.0926757424001667  0.3486270890571291  0.7612582649630062
  0.6559619363738974  0.5770462882739380  0.5220378095334817
  0.8905888913868593  0.7688418244474801 -0.0153277263184729
  0.2332563840433864  0.5047647075075893  0.9827930220640398
  0.7652275702281973  0.9374720700780902  0.0025278401391332
  0.5660337865206615  0.4474746208994641  0.8897773656317628
  0.8717622870132640  0.6078416526853406  0.4867384043488506
  0.1759798277162735  0.0983882276042360  0.5471292698645300
  0.1975269596752512  0.3765757362399117  0.0062327293576264
  0.0366673568121514  0.7824690097836728  0.6001459037251703
  0.9619378227017863  0.2498686278455135  0.7617279659670693
  0.6266343054244169  0.8788358468344809  0.6234857493975288
  0.1247885038427649  0.3675317530654567  0.8892050120060030
  0.0272869035221699  0.4654054361588978  0.0057208588826198
  0.1697283643377504  0.2415570989493658  0.8925311261574370
 -0.0039306152658691  0.6924611520623115  0.8691668566421976
  0.6018819699097707  0.3369377828325224  0.9320493587956622
  0.7113246642665263  0.1740665660649043  0.8261578307029307
  0.4020389680987227  0.0261938781080651  0.8666460971014289
  0.1273026678873477  0.8066566518961411  0.2207847774213567
  0.6381608661373402  0.6834313169767933  0.0172825861766548
  0.5850341106354680  0.6580749991228657  0.2053117218284649
  0.8828840718960179  0.7777736951889591  0.7915108751718903
  0.3464632191756947  0.5202227761622787  0.4546205942964985
  0.0178813781745844  0.9122213058890132  0.8999353116782008
  0.8012643739325738  0.3897278147773411  0.7833723665026459
  0.7025179411490275  0.8000759417276497  0.7783878259690559
  0.1980633308946690  0.2040419781102343  0.6964157114494679
  0.7422395684028661  0.0284422449459760  0.2906574540418199
  0.5696663944961069  0.2117467278986635  0.7037234460200360
  0.7186617027759609  0.6289747639543167  0.8893879291262514
  0.7531182833834312  0.1726389739991699  0.6388305577131573
  0.9180127517789864  0.0893474679154061  0.6537645616042461
  0.4224964872366790  0.7907950211291461  0.6868954742853991
  0.8203601955545194  0.4030891526807230  0.6582882837194868
  0.2887730935266198  0.1684394174365301  0.7718486357222660
  0.0784320860651697  0.2556453986132933  0.0372182552425886
  0.2654931511498688  0.3761390630139621  0.6767585360436450
  0.4670179459758730  0.6985690120306681  0.9467667555686021
  0.4238802329688555  0.6367443349171416  0.3350817219874408
  0.4663186402617731  0.2878201460644382  0.4173927969883651
  0.7324759382269991  0.8376917125713695  0.0985803332430298
  0.5741552124670563  0.1537864515146367  0.9017907672988585
  0.4253554154848165  0.5315520081995544 -0.0049966225524351
  0.6564487568362060  0.9793215243488450  0.4853304375586435
  0.0542949307295859  0.0801495847273052  0.8214613178409110
  0.5226043597536817  0.1488542567482345  0.1018780044585414
  0.9102388572454095  0.8696937122208421  0.1534706794682537
  0.1320437191333678  0.2887786048190780  0.5011619242755183
  0.1458458768901785  0.6058260409833375  0.6433709589250934
  0.7478754207225600  0.1376334255075125  0.9782195387423760
  0.3796385402395215  0.5816712697385439  0.8620480635951551
  0.7864455575480817  0.7455144715777335  0.2477856473191540
  0.7374425647782310  0.8195156857462856  0.4808041304447980
  0.4349403753037216  0.7747332280227903  0.5291328384441450
  0.9503244653078301  0.9602794334725483  0.7290209498079659
  0.3580517823329182  0.9296757414815484  0.1407262534302588
  0.9210521896628155  0.3548139255296640  0.9108206477224664
  0.1988033982407285  0.9105813926099211  0.2361741123597073
  0.0458724147910893  0.4307523325931167  0.4273867945673477
  0.1282734960447207  0.4438189668697520  0.5999786457118604
  0.7201971248548749  0.5698860285886056  0.7009826914193649
  0.4108754467953932  0.6593698781479685  0.1560405234241385
  0.0162576903726308  0.6333455830189236  0.5118689701778862
  0.2587925803894946  0.6351101189322008  0.9873159648117531
  0.4777978785796462  0.1374766859174644  0.5876467800267196
  0.3183743383420172  0.2816428057068507  0.5154886183142932
  0.8847044513780866  0.2476013106793978  0.3209134150074250
  0.9283906246707891  0.1319320213455610  0.3066973726036500
  0.3052472700099901  0.8955772181033168  0.7505397071131287
  0.8378338647864836  0.3857282706544923  0.2503120743541709
  0.6917482294449613  0.7276349197945137  0.6115736373810050
  0.4788869012063888  0.4390890727167943  0.3269689389704997
  0.4288356398758283  0.2290546053570347  0.8369523318051881
  0.3120942601571773  0.4197063996047463  0.2857686742539730
  0.6798010948790557  0.4542746185512013  0.5208350244409816
  0.6343004708332445  0.7355277190117815  0.5029328477864299
  0.3920059494817075  0.4115288930629354  0.8120499042610118
 
  0.00000000E+00  0.00000000E+00  0.00000000E+00
  0.00000000E+00  0.00000000E+00  0.00000000E+00
  0.00000000E+00  0.00000000E+00  0.00000000E+00
  0.00000000E+00  0.00000000E+00  0.00000000E+00
  0.00000000E+00  0.00000000E+00  0.00000000E+00
  0.00000000E+00  0.00000000E+00  0.00000000E+00
  0.00000000E+00  0.00000000E+00  0.00000000E+00
  0.00000000E+00  0.00000000E+00  0.00000000E+00
  0.00000000E+00  0.00000000E+00  0.00000000E+00
  0.00000000E+00  0.00000000E+00  0.00000000E+00
  0.00000000E+00  0.00000000E+00  0.00000000E+00
  0.00000000E+00  0.00000000E+00  0.00000000E+00
  0.00000000E+00  0.00000000E+00  0.00000000E+00
  0.00000000E+00  0.00000000E+00  0.00000000E+00
  0.00000000E+00  0.00000000E+00  0.00000000E+00
  0.00000000E+00  0.00000000E+00  0.00000000E+00
  0.00000000E+00  0.00000000E+00  0.00000000E+00
  0.00000000E+00  0.00000000E+00  0.00000000E+00
  0.00000000E+00  0.00000000E+00  0.00000000E+00
  0.00000000E+00  0.00000000E+00  0.00000000E+00
  0.00000000E+00  0.00000000E+00  0.00000000E+00
  0.00000000E+00  0.00000000E+00  0.00000000E+00
  0.00000000E+00  0.00000000E+00  0.00000000E+00
  0.00000000E+00  0.00000000E+00  0.00000000E+00
  0.00000000E+00  0.00000000E+00  0.00000000E+00
  0.00000000E+00  0.00000000E+00  0.00000000E+00
  0.00000000E+00  0.00000000E+00  0.00000000E+00
  0.00000000E+00  0.00000000E+00  0.00000000E+00
  0.00000000E+00  0.00000000E+00  0.00000000E+00
  0.00000000E+00  0.00000000E+00  0.00000000E+00
  0.00000000E+00  0.00000000E+00  0.00000000E+00
  0.00000000E+00  0.00000000E+00  0.00000000E+00
  0.00000000E+00  0.00000000E+00  0.00000000E+00
  0.00000000E+00  0.00000000E+00  0.00000000E+00
  0.00000000E+00  0.00000000E+00  0.00000000E+00
  0.00000000E+00  0.00000000E+00  0.00000000E+00
  0.00000000E+00  0.00000000E+00  0.00000000E+00
  0.00000000E+00  0.00000000E+00  0.00000000E+00
  0.00000000E+00  0.00000000E+00  0.00000000E+00
  0.00000000E+00  0.00000000E+00  0.00000000E+00
  0.00000000E+00  0.00000000E+00  0.00000000E+00
  0.00000000E+00  0.00000000E+00  0.00000000E+00
  0.00000000E+00  0.00000000E+00  0.00000000E+00
  0.00000000E+00  0.00000000E+00  0.00000000E+00
  0.00000000E+00  0.00000000E+00  0.00000000E+00
  0.00000000E+00  0.00000000E+00  0.00000000E+00
  0.00000000E+00  0.00000000E+00  0.00000000E+00
  0.00000000E+00  0.00000000E+00  0.00000000E+00
  0.00000000E+00  0.00000000E+00  0.00000000E+00
  0.00000000E+00  0.00000000E+00  0.00000000E+00
  0.00000000E+00  0.00000000E+00  0.00000000E+00
  0.00000000E+00  0.00000000E+00  0.00000000E+00
  0.00000000E+00  0.00000000E+00  0.00000000E+00
  0.00000000E+00  0.00000000E+00  0.00000000E+00
  0.00000000E+00  0.00000000E+00  0.00000000E+00
  0.00000000E+00  0.00000000E+00  0.00000000E+00
  0.00000000E+00  0.00000000E+00  0.00000000E+00
  0.00000000E+00  0.00000000E+00  0.00000000E+00
  0.00000000E+00  0.00000000E+00  0.00000000E+00
  0.00000000E+00  0.00000000E+00  0.00000000E+00
  0.00000000E+00  0.00000000E+00  0.00000000E+00
  0.00000000E+00  0.00000000E+00  0.00000000E+00
  0.00000000E+00  0.00000000E+00  0.00000000E+00
  0.00000000E+00  0.00000000E+00  0.00000000E+00
  0.00000000E+00  0.00000000E+00  0.00000000E+00
  0.00000000E+00  0.00000000E+00  0.00000000E+00
  0.00000000E+00  0.00000000E+00  0.00000000E+00
  0.00000000E+00  0.00000000E+00  0.00000000E+00
  0.00000000E+00  0.00000000E+00  0.00000000E+00
  0.00000000E+00  0.00000000E+00  0.00000000E+00
  0.00000000E+00  0.00000000E+00  0.00000000E+00
  0.00000000E+00  0.00000000E+00  0.00000000E+00
  0.00000000E+00  0.00000000E+00  0.00000000E+00
  0.00000000E+00  0.00000000E+00  0.00000000E+00
  0.00000000E+00  0.00000000E+00  0.00000000E+00
  0.00000000E+00  0.00000000E+00  0.00000000E+00
  0.00000000E+00  0.00000000E+00  0.00000000E+00
  0.00000000E+00  0.00000000E+00  0.00000000E+00
  0.00000000E+00  0.00000000E+00  0.00000000E+00
  0.00000000E+00  0.00000000E+00  0.00000000E+00
  0.00000000E+00  0.00000000E+00  0.00000000E+00
  0.00000000E+00  0.00000000E+00  0.00000000E+00
  0.00000000E+00  0.00000000E+00  0.00000000E+00
  0.00000000E+00  0.00000000E+00  0.00000000E+00
  0.00000000E+00  0.00000000E+00  0.00000000E+00
  0.00000000E+00  0.00000000E+00  0.00000000E+00
  0.00000000E+00  0.00000000E+00  0.00000000E+00
  0.00000000E+00  0.00000000E+00  0.00000000E+00
  0.00000000E+00  0.00000000E+00  0.00000000E+00
  0.00000000E+00  0.00000000E+00  0.00000000E+00
  0.00000000E+00  0.00000000E+00  0.00000000E+00
  0.00000000E+00  0.00000000E+00  0.00000000E+00
  0.00000000E+00  0.00000000E+00  0.00000000E+00
  0.00000000E+00  0.00000000E+00  0.00000000E+00
  0.00000000E+00  0.00000000E+00  0.00000000E+00
  0.00000000E+00  0.00000000E+00  0.00000000E+00
  0.00000000E+00  0.00000000E+00  0.00000000E+00
  0.00000000E+00  0.00000000E+00  0.00000000E+00
  0.00000000E+00  0.00000000E+00  0.00000000E+00
  0.00000000E+00  0.00000000E+00  0.00000000E+00
  0.00000000E+00  0.00000000E+00  0.00000000E+00
  0.00000000E+00  0.00000000E+00  0.00000000E+00
  0.00000000E+00  0.00000000E+00  0.00000000E+00
  0.00000000E+00  0.00000000E+00  0.00000000E+00
  0.00000000E+00  0.00000000E+00  0.00000000E+00
  0.00000000E+00  0.00000000E+00  0.00000000E+00
  0.00000000E+00  0.00000000E+00  0.00000000E+00
  0.00000000E+00  0.00000000E+00  0.00000000E+00
  0.00000000E+00  0.00000000E+00  0.00000000E+00
  0.00000000E+00  0.00000000E+00  0.00000000E+00
  0.00000000E+00  0.00000000E+00  0.00000000E+00
  0.00000000E+00  0.00000000E+00  0.00000000E+00
  0.00000000E+00  0.00000000E+00  0.00000000E+00
  0.00000000E+00  0.00000000E+00  0.00000000E+00
  0.00000000E+00  0.00000000E+00  0.00000000E+00
  0.00000000E+00  0.00000000E+00  0.00000000E+00
  0.00000000E+00  0.00000000E+00  0.00000000E+00
  0.00000000E+00  0.00000000E+00  0.00000000E+00
  0.00000000E+00  0.00000000E+00  0.00000000E+00
  0.00000000E+00  0.00000000E+00  0.00000000E+00
  0.00000000E+00  0.00000000E+00  0.00000000E+00
  0.00000000E+00  0.00000000E+00  0.00000000E+00
  0.00000000E+00  0.00000000E+00  0.00000000E+00
  0.00000000E+00  0.00000000E+00  0.00000000E+00
  0.00000000E+00  0.00000000E+00  0.00000000E+00
  0.00000000E+00  0.00000000E+00  0.00000000E+00
  0.00000000E+00  0.00000000E+00  0.00000000E+00
  0.00000000E+00  0.00000000E+00  0.00000000E+00
  0.00000000E+00  0.00000000E+00  0.00000000E+00
  0.00000000E+00  0.00000000E+00  0.00000000E+00
  0.00000000E+00  0.00000000E+00  0.00000000E+00
  0.00000000E+00  0.00000000E+00  0.00000000E+00
  0.00000000E+00  0.00000000E+00  0.00000000E+00
  0.00000000E+00  0.00000000E+00  0.00000000E+00
  0.00000000E+00  0.00000000E+00  0.00000000E+00
  0.00000000E+00  0.00000000E+00  0.00000000E+00
  0.00000000E+00  0.00000000E+00  0.00000000E+00
  0.00000000E+00  0.00000000E+00  0.00000000E+00
  0.00000000E+00  0.00000000E+00  0.00000000E+00
  0.00000000E+00  0.00000000E+00  0.00000000E+00
  0.00000000E+00  0.00000000E+00  0.00000000E+00
  0.00000000E+00  0.00000000E+00  0.00000000E+00
  0.00000000E+00  0.00000000E+00  0.00000000E+00
  0.00000000E+00  0.00000000E+00  0.00000000E+00
  0.00000000E+00  0.00000000E+00  0.00000000E+00
  0.00000000E+00  0.00000000E+00  0.00000000E+00
  0.00000000E+00  0.00000000E+00  0.00000000E+00
  0.00000000E+00  0.00000000E+00  0.00000000E+00
  0.00000000E+00  0.00000000E+00  0.00000000E+00
  0.00000000E+00  0.00000000E+00  0.00000000E+00
  0.00000000E+00  0.00000000E+00  0.00000000E+00
  0.00000000E+00  0.00000000E+00  0.00000000E+00
  0.00000000E+00  0.00000000E+00  0.00000000E+00
  0.00000000E+00  0.00000000E+00  0.00000000E+00
  0.00000000E+00  0.00000000E+00  0.00000000E+00
  0.00000000E+00  0.00000000E+00  0.00000000E+00
  0.00000000E+00  0.00000000E+00  0.00000000E+00
  0.00000000E+00  0.00000000E+00  0.00000000E+00
  0.00000000E+00  0.00000000E+00  0.00000000E+00
  0.00000000E+00  0.00000000E+00  0.00000000E+00
  0.00000000E+00  0.00000000E+00  0.00000000E+00
  0.00000000E+00  0.00000000E+00  0.00000000E+00
  0.00000000E+00  0.00000000E+00  0.00000000E+00
  0.00000000E+00  0.00000000E+00  0.00000000E+00
  0.00000000E+00  0.00000000E+00  0.00000000E+00
  0.00000000E+00  0.00000000E+00  0.00000000E+00
  0.00000000E+00  0.00000000E+00  0.00000000E+00
  0.00000000E+00  0.00000000E+00  0.00000000E+00
  0.00000000E+00  0.00000000E+00  0.00000000E+00
  0.00000000E+00  0.00000000E+00  0.00000000E+00
  0.00000000E+00  0.00000000E+00  0.00000000E+00
  0.00000000E+00  0.00000000E+00  0.00000000E+00
  0.00000000E+00  0.00000000E+00  0.00000000E+00
  0.00000000E+00  0.00000000E+00  0.00000000E+00
  0.00000000E+00  0.00000000E+00  0.00000000E+00
  0.00000000E+00  0.00000000E+00  0.00000000E+00
  0.00000000E+00  0.00000000E+00  0.00000000E+00
  0.00000000E+00  0.00000000E+00  0.00000000E+00
  0.00000000E+00  0.00000000E+00  0.00000000E+00
  0.00000000E+00  0.00000000E+00  0.00000000E+00
  0.00000000E+00  0.00000000E+00  0.00000000E+00
  0.00000000E+00  0.00000000E+00  0.00000000E+00
  0.00000000E+00  0.00000000E+00  0.00000000E+00
  0.00000000E+00  0.00000000E+00  0.00000000E+00
  0.00000000E+00  0.00000000E+00  0.00000000E+00
  0.00000000E+00  0.00000000E+00  0.00000000E+00
  0.00000000E+00  0.00000000E+00  0.00000000E+00
  0.00000000E+00  0.00000000E+00  0.00000000E+00
  0.00000000E+00  0.00000000E+00  0.00000000E+00
  0.00000000E+00  0.00000000E+00  0.00000000E+00
  0.00000000E+00  0.00000000E+00  0.00000000E+00
  0.00000000E+00  0.00000000E+00  0.00000000E+00
  0.00000000E+00  0.00000000E+00  0.00000000E+00
  0.00000000E+00  0.00000000E+00  0.00000000E+00
  0.00000000E+00  0.00000000E+00  0.00000000E+00
  0.00000000E+00  0.00000000E+00  0.00000000E+00
  0.00000000E+00  0.00000000E+00  0.00000000E+00
  0.00000000E+00  0.00000000E+00  0.00000000E+00
  0.00000000E+00  0.00000000E+00  0.00000000E+00
  0.00000000E+00  0.00000000E+00  0.00000000E+00
  0.00000000E+00  0.00000000E+00  0.00000000E+00
  0.00000000E+00  0.00000000E+00  0.00000000E+00
  0.00000000E+00  0.00000000E+00  0.00000000E+00
  0.00000000E+00  0.00000000E+00  0.00000000E+00
  0.00000000E+00  0.00000000E+00  0.00000000E+00
  0.00000000E+00  0.00000000E+00  0.00000000E+00
  0.00000000E+00  0.00000000E+00  0.00000000E+00
  0.00000000E+00  0.00000000E+00  0.00000000E+00
  0.00000000E+00  0.00000000E+00  0.00000000E+00
  0.00000000E+00  0.00000000E+00  0.00000000E+00
  0.00000000E+00  0.00000000E+00  0.00000000E+00
  0.00000000E+00  0.00000000E+00  0.00000000E+00
  0.00000000E+00  0.00000000E+00  0.00000000E+00
  0.00000000E+00  0.00000000E+00  0.00000000E+00
  0.00000000E+00  0.00000000E+00  0.00000000E+00
  0.00000000E+00  0.00000000E+00  0.00000000E+00
  0.00000000E+00  0.00000000E+00  0.00000000E+00
  0.00000000E+00  0.00000000E+00  0.00000000E+00
  0.00000000E+00  0.00000000E+00  0.00000000E+00
  0.00000000E+00  0.00000000E+00  0.00000000E+00
  0.00000000E+00  0.00000000E+00  0.00000000E+00
  0.00000000E+00  0.00000000E+00  0.00000000E+00
  0.00000000E+00  0.00000000E+00  0.00000000E+00
  0.00000000E+00  0.00000000E+00  0.00000000E+00
  0.00000000E+00  0.00000000E+00  0.00000000E+00
  0.00000000E+00  0.00000000E+00  0.00000000E+00
  0.00000000E+00  0.00000000E+00  0.00000000E+00
  0.00000000E+00  0.00000000E+00  0.00000000E+00
  0.00000000E+00  0.00000000E+00  0.00000000E+00
  0.00000000E+00  0.00000000E+00  0.00000000E+00
  0.00000000E+00  0.00000000E+00  0.00000000E+00
  0.00000000E+00  0.00000000E+00  0.00000000E+00