In2O3 structure 4 - random placement wit
   1.00000000000000     
     8.0191460254520646   -0.0838149342035669   -0.0022709282687948
    -0.0834931254013487    8.0141398635936323    0.0038651466381752
    -0.0023571477749353    0.0037717742140873    8.0794894263889532
   In   O 
    16    24
Direct
  0.3356772363867846  0.4559052101014288  0.5158951808796380
  0.5854664861635207  0.7060686895856664  0.2434005460590856
  0.3379823434241646  0.9580234280172815  0.5159231962702946
  0.3080137932642539  0.4883686158330304  0.0160426307907620
  0.5555035576618778  0.2358601674538762  0.7433486602035849
  0.8080639149690071 -0.0112934623636621  0.0159868489880856
  0.0556933357765877  0.7355653986520806  0.7432986561119699
  0.0875466445320781  0.7079728281699372  0.2434032378451411
  0.5876343020748654  0.2080925075531193  0.2435209315658139
  0.8355405991803090  0.9556807301054683  0.5161191156720716
  0.8378893707321224  0.4580290213417945  0.5158025059570901
  0.8053833094875792  0.4857327692376139  0.0158356364350613
  0.0580511068982384  0.2380334759415768  0.7434337590830252
  0.0854878123896849  0.2059409270297838  0.2435656054650150
  0.5581720154726758  0.7380822816177510  0.7437237279785138
  0.3054362585494345  0.9857963579883200  0.0159118628068059
  0.6935047866718727  0.7405732409249824  0.9797485228325853
  0.7005982089167544  0.9535873903385857  0.2802591495104310
  0.3038341360145836  0.8498244485002968  0.7802909093041637
  0.4508083054253912  0.7038533596933619  0.4796297347744482
  0.5900593985402686  0.3432500699926898  0.4794624418705111
  0.5515232477781365  0.4521487691931858  0.1300590475015185
  0.4431299479712060  0.4899862669441550  0.7798648560932896
  0.9432176311052742  0.9899291591740179  0.7799067250853409
  0.8395841880452484  0.5933006535141953  0.2797120550395781
  0.2006629924442553  0.4534292254800488  0.2800899322487388
  0.3017555428400160  0.2018648874999174  0.6299435429379525
  0.0916777005202259  0.4918692514635767  0.6295377696047098
  0.3396443945533789  0.0932672371129250  0.2797627015801761
  0.3413586254521604  0.7422706383856176  0.1302863860614906
  0.5535281318939018  0.1008384025510270  0.9796675254460345
  0.8017431690397402  0.7017246945701119  0.6300674783081209
  0.8414333731612700  0.2424276984228745  0.1304450231609653
  0.5917488450257761  0.9920702997075258  0.6302095116691924
  0.9504631872657324  0.2036118715306459  0.4794966136698045
  0.0535674429670625  0.6004450930463173  0.9795211101870510
  0.1933885001063058  0.2403339833705223  0.9795695087930341
  0.0901339481392693  0.8429494702548875  0.4795223900290970
  0.0515147443168941  0.9521239378033991  0.1300487967424648
  0.8036735500738202  0.3499834007640369  0.7800851232460989
 
  0.00000000E+00  0.00000000E+00  0.00000000E+00
  0.00000000E+00  0.00000000E+00  0.00000000E+00
  0.00000000E+00  0.00000000E+00  0.00000000E+00
  0.00000000E+00  0.00000000E+00  0.00000000E+00
  0.00000000E+00  0.00000000E+00  0.00000000E+00
  0.00000000E+00  0.00000000E+00  0.00000000E+00
  0.00000000E+00  0.00000000E+00  0.00000000E+00
  0.00000000E+00  0.00000000E+00  0.00000000E+00
  0.00000000E+00  0.00000000E+00  0.00000000E+00
  0.00000000E+00  0.00000000E+00  0.00000000E+00
  0.00000000E+00  0.00000000E+00  0.00000000E+00
  0.00000000E+00  0.00000000E+00  0.00000000E+00
  0.00000000E+00  0.00000000E+00  0.00000000E+00
  0.00000000E+00  0.00000000E+00  0.00000000E+00
  0.00000000E+00  0.00000000E+00  0.00000000E+00
  0.00000000E+00  0.00000000E+00  0.00000000E+00
  0.00000000E+00  0.00000000E+00  0.00000000E+00
  0.00000000E+00  0.00000000E+00  0.00000000E+00
  0.00000000E+00  0.00000000E+00  0.00000000E+00
  0.00000000E+00  0.00000000E+00  0.00000000E+00
  0.00000000E+00  0.00000000E+00  0.00000000E+00
  0.00000000E+00  0.00000000E+00  0.00000000E+00
  0.00000000E+00  0.00000000E+00  0.00000000E+00
  0.00000000E+00  0.00000000E+00  0.00000000E+00
  0.00000000E+00  0.00000000E+00  0.00000000E+00
  0.00000000E+00  0.00000000E+00  0.00000000E+00
  0.00000000E+00  0.00000000E+00  0.00000000E+00
  0.00000000E+00  0.00000000E+00  0.00000000E+00
  0.00000000E+00  0.00000000E+00  0.00000000E+00
  0.00000000E+00  0.00000000E+00  0.00000000E+00
  0.00000000E+00  0.00000000E+00  0.00000000E+00
  0.00000000E+00  0.00000000E+00  0.00000000E+00
  0.00000000E+00  0.00000000E+00  0.00000000E+00
  0.00000000E+00  0.00000000E+00  0.00000000E+00
  0.00000000E+00  0.00000000E+00  0.00000000E+00
  0.00000000E+00  0.00000000E+00  0.00000000E+00
  0.00000000E+00  0.00000000E+00  0.00000000E+00
  0.00000000E+00  0.00000000E+00  0.00000000E+00
  0.00000000E+00  0.00000000E+00  0.00000000E+00
  0.00000000E+00  0.00000000E+00  0.00000000E+00
