Amorphous GeAsSeSi                      
   1.00000000000000     
    20.2865499335999999    0.0000000000000000    0.0000000000000000
     0.0000000000000000   20.2865499335999999    0.0000000000000000
     0.0000000000000000    0.0000000000000000   20.2865499335999999
   Ge   As   Te   Si
    75    75    75    75
Direct
  0.4606752852024678  0.8129615718078089  0.5356477229784560
  0.7148455440217448  0.8117094990823239  0.6513142065447333
  0.0843261174376606  0.4440917007097587  0.7831805718196451
  0.0692100510344726  0.8501785445237234  0.3078454454201943
  0.0428351629662626  0.1538198895504618  0.7572810420961834
  0.6024207361585323  0.2171422723970424  0.3695495830610603
  0.8521026881247900  0.8811646560016094  0.5794294363938800
  0.1413254128398309  0.6785411750187705  0.9272846936374660
  0.8107479241103932  0.0502939625335624  0.9821644426891042
  0.9198812615202501  0.1495730924428134  0.6534690414383202
  0.3881863816908872  0.1146254832193102  0.4622001065069912
  0.7876548026572205  0.4384129041297822  0.2441314146006721
  0.6995659671796928  0.8732306990567105  0.8136145734169583
  0.2160205716830009  0.8031263914333799  0.6496128022393494
  0.0259476059913743  0.4449316280049344  0.6694485208749814
  0.5754858330933065  0.8480589143720525  0.0377031343116950
  0.5871178034515225  0.4655262697729487  0.8080461251998089
  0.5333710185479954  0.2094576274149158  0.5858979934074128
  0.3851380392096519  0.7971937079454757  0.9445124603532359
  0.7187868990711509  0.1521085409410115  0.8317462273764159
  0.2895877922316454  0.2220385097887451  0.1314654784619090
  0.8098527695574982  0.5621571244014771  0.0262960759348703
  0.6313438066066070  0.8641051874445258  0.4969461196248086
  0.2487746707113197  0.6822737561733697  0.6530394577000161
  0.1291042990930339  0.8807236244958127  0.5385249939297425
  0.6362346227452539  0.1354615792552048  0.4574682935310698
  0.6583423212511793  0.5193832369764646  0.4757150665592552
  0.9448801918516077  0.9496411774968573  0.0204081423227234
  0.1823531539957839  0.1575558796070002  0.5367853239623820
  0.4264173389765791  0.3735064044168356  0.4119561014914612
  0.6501817540754373  0.2154747084078312  0.5490861493917789
  0.9714402056710210  0.0199135708153229  0.3420381944192873
  0.3532446681647263  0.9335377594373738  0.3832231495365991
  0.7100599983951990  0.1359770965315690  0.6269828184853569
  0.0021323266996411  0.7488659748872067  0.4613909321845220
  0.6160261592124172  0.7434379644864175  0.3020158445739229
  0.0138505288249850  0.9379967334262698  0.1927036070646544
  0.6937318764117534  0.7823947431929134  0.9417077732073907
  0.5563972425219605  0.6303764254599360  0.8788939670693783
  0.6583162947629670  0.3385829833980372  0.5269983132892231
  0.6381922328304761  0.9069861596885518  0.6204522862912171
  0.3687566960193642  0.5084195345400838  0.8405500346045666
  0.2444570731137419  0.6692057727511831  0.0631049114937105
  0.2718069108076872  0.1198909095923431  0.8972015350876694
  0.5229620496242731  0.0227423858037592  0.5871622628046113
  0.8957692785886521  0.9270340376178454  0.3796079539266016
  0.1513049649112427  0.2558695135417272  0.4047343767636603
  0.9466976305041924  0.2977326487484504  0.2783607350984813
 -0.0011071437547193  0.7603607980695177  0.0225603359242827
  0.7716862151093375  0.3894857818858752  0.5652901574987491
  0.4896092984430341  0.7658913753738165  0.0031759551208386
  0.8036383755029798  0.8941830637958562  0.1114230366509886
  0.7210169180722024  0.7408956499213032  0.5513130253029772
  0.8001446756676163  0.9160910916075520  0.7435189793247943
 -0.0004992702649011  0.1286327674420898  0.3928808273960137
  0.2548649626211438  0.3889963487342585  0.9180798706955838
  0.4646432848508271  0.0979034732166041  0.8595153184590282
  0.3381747191943155  0.9528850888700404  0.8477409023114005
  0.1969361615294364  0.2739864635679509  0.8458927317985132
  0.7191608047286577  0.3896837790479158  0.9376106983330795
  0.4800453329114089  0.2500040309005018  0.7528611980939528
  0.2394636702617793  0.4938968770173416  0.8469132783231690
 -0.0100152644972132  0.6945714334166884  0.8113823279861133
  0.2362368533956909  0.0721127781643979  0.0086578558295122
  0.7743413539435176  0.9664886182645808  0.8943895487329009
  0.8582433784920813  0.3002460199975598  0.5524057133172000
  0.6548142831195419  0.1896221556753500  0.1633475228328029
  0.5762511950568293  0.4215844687359245  0.4694862167562991
  0.3654920583691089  0.6324502681333095  0.2466164984453094
  0.3717034034110047  0.1591374967981441  0.2546998420991453
  0.5263860342809453  0.6449125837484908  0.6061100273332619
  0.1990675852450125  0.7072272115126211  0.4513734261523553
  0.1102499075445607  0.2628248677908827  0.5292746775363197
  0.9583445923335603  0.4626038520307981  0.5062827120851312
  0.0945615678148757  0.6420623200715050  0.3814618348996098
  0.3486350737356755  0.8087095060460330  0.3750989057093357
  0.4696711226119498  0.8040181687967598  0.4007023941085671
  0.7393017958424062  0.0878585000940916  0.4120961923183896
  0.7647463425389103  0.7678793080089544  0.8396662579676616
  0.4774109428001776  0.3659124605177047  0.7059645038524446
  0.4999182248018105  0.6991240410312963  0.3404889127994521
  0.7406872624415641  0.3980964655770055  0.0670664716334797
  0.6460257159340335  0.8005894970420664  0.1293101339581851
  0.4554515337619635  0.9491563016270493 -0.0012855073319860
  0.7536409424600772  0.9575618900138292  0.5965540478076045
  0.8356690130665164  0.8159029481774609  0.6818462742011828
  0.2208966675739526  0.8878234294930918  0.4581890010567981
  0.8997340543074038  0.1239252731996074  0.1838567345410726
  0.4897502265329027  0.6698546129240120  0.0765819778399991
  0.4738631720568504  0.4888892273320548  0.4051809435632666
  0.2903490097988168  0.4678012889937033  0.0118719859840661
  0.5320443377327494  0.8524092250524509  0.8425284577530345
  0.0497203522919769  0.6294770551657966  0.9939547659368595
  0.1518697319303393  0.3457417498097782  0.2200870177223045
  0.1549831821734681  0.8000277078425471  0.9340778690391449
  0.2876936598050422  0.2357524248239214  0.9361018356825823
  0.1869183071518906  0.8136948976640020  0.7781060958250242
  0.8646810166671458  0.0095567700445486  0.4747352637947821
  0.6396342157018402  0.5845156172137587  0.8003598919143998
  0.6660442526819228  0.5900652830011086  0.3734184165304162
  0.5106957751579381  0.5052086172559255  0.5455801785299079
  0.4889501081069019  0.5490207758245629  0.8097408732391239
  0.5555613559303880  0.9459428869024414  0.4352862814158204
 -0.0040323854616470  0.1969170640880295  0.2184839717836237
  0.2511363481528122  0.3324518474687470  0.4090012386633154
  0.6845471030128507  0.0745910088803806  0.1257859824219491
  0.3537934024296516  0.3505625188420411  0.7138870969122240
  0.6188722530346535  0.8896499968604586  0.9232362938629172
  0.6930405192045115  0.7095714416173960  0.3950339829824611
  0.5986408769016216  0.6384047493136505  0.2320930359014171
  0.3951527394939360  0.7143439141986050  0.8543740398426632
  0.3491973436294677  0.0707043259807265  0.8107104488724984
  0.1653308571364857  0.8115555247403768  0.3807444439558812
  0.6162056623221731  0.7382241573486554  0.4875084687383483
  0.9097998844905217  0.3955330196930628  0.7182539243253468
  0.6760831661803102  0.4858070398469232  0.2292980359137893
  0.2786119177010671  0.1078316784931902  0.1877482719455416
  0.1113917599419174  0.6414510494001865  0.8124197754840501
  0.3093715288412089  0.4731301268886926  0.2840930150580055
  0.0950178895623144  0.2662805209495596  0.7392558619179447
  0.4426556170693497  0.4309815870184436  0.1287141577076121
  0.1860538617849948  0.1752572303387569  0.3152104741537008
  0.3447021599868562  0.7985926556672782  0.5813879170121626
  0.5195468453643421  0.4835831065328620  0.2865021046221536
  0.7292047759853383  0.8887660658600948  0.4246269847516775
  0.3520378812135911  0.1367481840056578  0.6293871868425490
  0.2238838603656699  0.5955647039789347  0.9641839134978877
  0.1725577143146356  0.9799960117374001  0.9500966947930813
  0.2404601461564237  0.9833505380039008  0.2515499806843621
  0.6434630879041008  0.4581565043192881  0.1133170820184725
  0.1105036934906240  0.5115294409294355  0.3237144744423859
  0.3715550546970794  0.6810739461371549  0.6179581935851274
  0.9271994038212060  0.2905271708031035  0.6571446323749331
  0.0440507006186433  0.3180380361493221  0.6404486542711623
  0.9780232643563186  0.3902961469914771  0.1946299883951866
  0.3200446750005640  0.2601395460876389  0.3111597470158683
  0.0747081872516005  0.0022393567955068  0.7729579410757539
  0.0852904952997065  0.5970763626066652  0.5403397263438825
  0.2685995583202287  0.0232750707757223  0.3669173432603630
  0.2864247421655952  0.9395886064104229  0.9586825704132619
  0.2079803609377771  0.3198527740935829  0.5972923150852643
  0.0935153415237545  0.4442600775375487  0.4270368537365905
  0.7447459299508358  0.6339300282723722  0.6072662191637626
  0.5695975266968233  0.3367689626078780  0.2525814210150385
  0.1210719332712286  0.5254947709793395  0.9757351562392931
  0.9036904793986468  0.0236218385504050  0.6618715050132442
  0.2377781766137042  0.9188974689779617  0.1208590616092075
  0.8202071235686652  0.1799290560098100  0.5764494518368199
  0.1310463393860976  0.7624915579292406  0.5646799194608487
  0.8556026510188641  0.0071924964985363  0.0884598641659536
  0.4575643091319852  0.2271632493689518  0.8788923797288506
  0.1480351716593970  0.7282469373962170  0.1302335892372567
  0.7994626238177930  0.2276769034504658  0.0515289679002821
  0.8431455428633038  0.1742817647971850  0.7716361781514975
  0.3793357100820937  0.7493162154827899  0.1795030295082348
  0.7996131960230384  0.8621022043290192  0.9745955236559883
  0.2178224368747487  0.6036124864892107  0.5482877053717399
  0.9648695455589107  0.5716227741746053  0.4149665487876901
  0.0396587298937856  0.7203025974422642  0.2851963476149553
  0.9552356640574913  0.5717529003177791  0.2044728493738581
  0.7865193569874066  0.3083638235470412  0.2394629648883421
  0.5221692766734567  0.3127487935483008  0.0604803457620396
  0.8231201291854261  0.9544255217902748  0.2672315745497799
  0.8959280185996940  0.9300114531141237  0.8382135795426201
  0.8758611133426563  0.7601590817019804  0.4032209170972651
  0.5201006528317517  0.8760088936623109  0.2893419267870623
  0.0745407275893854  0.3314937603775908  0.3248678881861323
  0.9100759583850445  0.3046401144067584  0.4302670218779516
  0.3719155716849371  0.3743684870360286  0.8483720413849573
  0.5893789733964953  0.4199499593622403  0.9338376551322298
  0.0199842805210978  0.8032761824971351  0.8926992264556690
  0.8014082267287469  0.6451427313106148  0.2448512033113022
  0.0141109534691262  0.8877960734347320  0.4689776254805247
  0.6319756802824343  0.1771190856489056  0.9598403684330252
  0.3051435614561721  0.5818365748647628  0.1365379130700766
  0.5453434139939138  0.9300909628221071  0.1403275470788464
  0.5474568250254871  0.0333828336475310  0.9574306750317116
  0.0044194541526173  0.8375692480507821  0.7006350239418343
  0.2783775000517820  0.9692714993255420  0.6796492542305785
  0.0459199635127266  0.2362630366150184  0.1052123826571567
  0.8627239555900705  0.6673424710048423  0.9663441920879445
  0.9252725707363373  0.1106716395828184  0.9523806537265115
  0.0597356931465081  0.3318648366946195  0.8495102688274964
  0.2086217782837395  0.4102507425385570  0.7448198226143513
  0.1985969940647097  0.2091255016601611  0.0298501117924424
  0.2790271083825893  0.7923209127414138  0.0198138428622612
  0.6785537064934986  0.2278209862345797  0.7241890735538845
  0.9952171010095555  0.1567665894767545  0.5298440794437467
  0.9134457126113367  0.3678470710808578  0.0185006579811509
  0.8247063723456680  0.3590924786479380  0.8276095016397409
  0.1773391155328164  0.1367381559026050  0.6681899989358937
  0.5860796183161339  0.5977894461435660  0.0085782017343444
  0.9350037871909149  0.7165913947057335  0.5731479318597932
  0.6613774836215811  0.0396845687390736  0.7850755632308263
  0.3803181232444995  0.7909398658153814  0.7456263192144716
  0.3894915998691434  0.6536674128268122  0.4863797128564141
  0.8227534091602026  0.1472094180747822  0.2902483320975399
  0.4807276648184614  0.2507257183524974  0.4099378834606501
  0.1498497320213499  0.5192583193032159  0.1592060754187848
  0.5438385715140527  0.0519607606736633  0.2827565413610327
  0.7436002091080504  0.7265113576582412  0.0756269571935871
  0.6638177239443795  0.7484118828705126  0.7573241691801196
  0.9521521395587113  0.5003200858919933  0.8829434203173431
  0.9330824986443790  0.8445073837672989  0.1135503005437555
  0.3218764158542688  0.3865208681545454  0.1131908491196190
  0.0518082351172889  0.0104471008635859  0.0856926909924169
  0.2434993846921192  0.6285114247787966  0.3454360004291251
  0.3608332133202283  0.9818262647564227  0.5067998969067774
  0.1393576832081688  0.0438329918724159  0.4844100885822192
  0.3661825487733977  0.9431325599064184  0.2148381304348645
  0.4901352366510289  0.9893547669100220  0.7088721354640876
  0.4001493641168167  0.1430227038767919  0.0285537825858154
  0.7457608635886729  0.5210728328670361  0.9183327905475343
  0.9621435083667863  0.5768900109996109  0.6969411734080976
  0.5391361108608471  0.7776255576673365  0.6362970192120280
  0.0951128662255735  0.0197338968386245  0.2821869895954526
  0.8298050876533045  0.4690762903261222  0.3699649420195853
  0.3475147068707370  0.5163093094744304  0.6625776414987165
  0.5979368096213912  0.4866363220201577  0.6490833030829045
  0.1390477062788777  0.1499462014183276  0.8604115761474870
  0.7860445337341285  0.5361796485955469  0.7352640139688715
  0.4716529763098774  0.5521247803723708  0.1877454136730547
  0.6899645068155027  0.3131412533567933  0.3986318103204169
  0.2002044853219743  0.8487713109584640  0.2569645574836276
  0.4039745512111658  0.5153257505919567  0.9684052862540758
  0.3732983280986233  0.5317273959334439  0.4586811055683710
  0.4550158138856533  0.1215848078425168  0.5652994695992222
  0.4977992547443411  0.1229234341323692  0.1072358529212483
  0.4320251089021757  0.8968375514309610  0.8962401087731282
  0.8337473413468168  0.4543716989945383  0.6497275844622684
  0.6161262896465813  0.0235738296082739  0.5042695532656423
  0.5540729617518996  0.5906838970810734  0.7161809408069902
  0.8936813792778120  0.1843783120048821  0.3894283035780001
  0.4879412722173683  0.7625230098818420  0.2389810476048204
  0.3677014288358455  0.3683733810440887  0.3060637458388151
  0.1629886079287313  0.9376899226860964  0.6401701095488344
  0.1840446755111545  0.4313197124743084  0.5633215355355914
  0.3601724050790768  0.0206470712301703  0.0159061817510081
  0.4778648141248049  0.9335473679756662  0.5235921559454884
  0.8346442351019857  0.1255134606419598  0.4707124166076658
  0.3033108446112689  0.1772768031826162  0.5268039911672237
  0.0719630119219885  0.6264965738299224  0.6547372296570655
  0.9661056554472039  0.6235520261807058  0.9087604178773566
  0.0414982839838994  0.7376709125655068  0.6350462613534668
  0.5451924923209459  0.0854233763293876  0.7652810773233026
  0.9557772329679327  0.0197994714594477  0.7696386911682938
  0.3682407497893639  0.0828141287507286  0.3460185849047956
  0.2882673666925109  0.7890416044885992  0.4765215986912457
  0.7980442743746567  0.8167315258454854  0.4915637790096546
  0.2271968807319585  0.2544806064583863  0.2354453042897673
  0.1115547805408938  0.8928359540752194  0.7335902742805350
  0.8567585020850693  0.6350160239069184  0.4345858326449067
  0.3895820172815376  0.2402087557898342  0.6759142973491775
  0.6378437699894099  0.5897268425763421  0.5734448578991368
  0.5753447376198961  0.2009599591794379  0.0737348380000661
  0.1072800512666021  0.8140208426550071  0.0437090051721854
  0.9261684424152286  0.0173511437813741  0.2307918900760109
  0.7350102849961940  0.9926965955046059  0.4855882751476245
  0.7829261176228920  0.5893652155809463  0.3564888639578366
  0.0743004114560594  0.1441069103383518  0.2968397819738169
  0.2083278922860809  0.4382332704712301  0.4485657992596827
  0.4868965369494098  0.1461652959327964  0.2210561358601973
  0.1938677895202707  0.4521115550303082  0.2576632082859816
  0.6120451108796620  0.3468797427584228  0.1422628596958778
  0.7720275173600996  0.4834387041006791  0.4887000589586661
  0.0462662649772388  0.4870282883569205  0.2247143260632158
  0.1245674443711716  0.5321172920456483  0.8566032099414806
  0.4586979645525214  0.3017406995672482  0.6061725012818502
  0.2784307355467961  0.5147327975539167  0.3922985961635345
  0.6995477062038640  0.5949623509791033  0.1913603994189688
  0.7854650033538766  0.0284707439848234  0.6888390817115332
  0.5628681780195761  0.7207664263838153  0.1572879885755000
  0.7060789415346850  0.6073325805881425  0.0756966861380144
  0.0382351515101032  0.0425662350215356  0.5626172746014287
  0.3047547919452152  0.0170824130595940  0.1158502680685599
  0.9431226597055459  0.9661440735970394  0.5556092807420077
  0.8205890467892226  0.5827728670587832  0.5328665803061815
  0.5087712794807289  0.7416446702516946  0.8869998033088377
  0.1741765967684545  0.6018347305763591  0.7080652392927913
  0.2862620978505384  0.8781499710965849  0.7676544195402402
  0.4342913857313928 -0.0084835299095176  0.3125548060809235
  0.5744493583928476  0.2175720291684347  0.2499038407316336
  0.8353511326633574  0.4820364138873682  0.8376753077603682
  0.2906521930851813  0.2960009032646254  0.5152231504131438
  0.1023466753363707  0.0357140462568657  0.6610468901882202
  0.8881022914545146  0.4680972641727000  0.1824687208192188
  0.0737367775779242  0.4789112446037773  0.5490916658967517
  0.5755267685554584  0.0402311943903260  0.0852833775887014
  0.7280930970976985  0.1278973862297517  0.0270541504476681
  0.0264296523172003  0.3628602062576146  0.0866893103843793
  0.8456282834199004  0.4545943327493060  0.0745275460215985
  0.9031775200137265  0.5280352293966513  0.5918900144081721
  0.2194405600242834  0.5017252000155032  0.6523814851868515
  0.5615163825044538  0.1821036774821664  0.7021355937172883
  0.3960560202848099  0.4689830529328423  0.5553583674317154
  0.9441260896174301  0.1231403448007091  0.8279254416328969
  0.3903723704684030  0.3559699608133410  0.5272885203247565
  0.7193419562507658  0.2870276634771478  0.1326738360034932
  0.1434817371133438  0.9278063300668068  0.0538419981930723
  0.4634198997466509  0.3889899784525618  0.2390204218659597
 
  0.00000000E+00  0.00000000E+00  0.00000000E+00
  0.00000000E+00  0.00000000E+00  0.00000000E+00
  0.00000000E+00  0.00000000E+00  0.00000000E+00
  0.00000000E+00  0.00000000E+00  0.00000000E+00
  0.00000000E+00  0.00000000E+00  0.00000000E+00
  0.00000000E+00  0.00000000E+00  0.00000000E+00
  0.00000000E+00  0.00000000E+00  0.00000000E+00
  0.00000000E+00  0.00000000E+00  0.00000000E+00
  0.00000000E+00  0.00000000E+00  0.00000000E+00
  0.00000000E+00  0.00000000E+00  0.00000000E+00
  0.00000000E+00  0.00000000E+00  0.00000000E+00
  0.00000000E+00  0.00000000E+00  0.00000000E+00
  0.00000000E+00  0.00000000E+00  0.00000000E+00
  0.00000000E+00  0.00000000E+00  0.00000000E+00
  0.00000000E+00  0.00000000E+00  0.00000000E+00
  0.00000000E+00  0.00000000E+00  0.00000000E+00
  0.00000000E+00  0.00000000E+00  0.00000000E+00
  0.00000000E+00  0.00000000E+00  0.00000000E+00
  0.00000000E+00  0.00000000E+00  0.00000000E+00
  0.00000000E+00  0.00000000E+00  0.00000000E+00
  0.00000000E+00  0.00000000E+00  0.00000000E+00
  0.00000000E+00  0.00000000E+00  0.00000000E+00
  0.00000000E+00  0.00000000E+00  0.00000000E+00
  0.00000000E+00  0.00000000E+00  0.00000000E+00
  0.00000000E+00  0.00000000E+00  0.00000000E+00
  0.00000000E+00  0.00000000E+00  0.00000000E+00
  0.00000000E+00  0.00000000E+00  0.00000000E+00
  0.00000000E+00  0.00000000E+00  0.00000000E+00
  0.00000000E+00  0.00000000E+00  0.00000000E+00
  0.00000000E+00  0.00000000E+00  0.00000000E+00
  0.00000000E+00  0.00000000E+00  0.00000000E+00
  0.00000000E+00  0.00000000E+00  0.00000000E+00
  0.00000000E+00  0.00000000E+00  0.00000000E+00
  0.00000000E+00  0.00000000E+00  0.00000000E+00
  0.00000000E+00  0.00000000E+00  0.00000000E+00
  0.00000000E+00  0.00000000E+00  0.00000000E+00
  0.00000000E+00  0.00000000E+00  0.00000000E+00
  0.00000000E+00  0.00000000E+00  0.00000000E+00
  0.00000000E+00  0.00000000E+00  0.00000000E+00
  0.00000000E+00  0.00000000E+00  0.00000000E+00
  0.00000000E+00  0.00000000E+00  0.00000000E+00
  0.00000000E+00  0.00000000E+00  0.00000000E+00
  0.00000000E+00  0.00000000E+00  0.00000000E+00
  0.00000000E+00  0.00000000E+00  0.00000000E+00
  0.00000000E+00  0.00000000E+00  0.00000000E+00
  0.00000000E+00  0.00000000E+00  0.00000000E+00
  0.00000000E+00  0.00000000E+00  0.00000000E+00
  0.00000000E+00  0.00000000E+00  0.00000000E+00
  0.00000000E+00  0.00000000E+00  0.00000000E+00
  0.00000000E+00  0.00000000E+00  0.00000000E+00
  0.00000000E+00  0.00000000E+00  0.00000000E+00
  0.00000000E+00  0.00000000E+00  0.00000000E+00
  0.00000000E+00  0.00000000E+00  0.00000000E+00
  0.00000000E+00  0.00000000E+00  0.00000000E+00
  0.00000000E+00  0.00000000E+00  0.00000000E+00
  0.00000000E+00  0.00000000E+00  0.00000000E+00
  0.00000000E+00  0.00000000E+00  0.00000000E+00
  0.00000000E+00  0.00000000E+00  0.00000000E+00
  0.00000000E+00  0.00000000E+00  0.00000000E+00
  0.00000000E+00  0.00000000E+00  0.00000000E+00
  0.00000000E+00  0.00000000E+00  0.00000000E+00
  0.00000000E+00  0.00000000E+00  0.00000000E+00
  0.00000000E+00  0.00000000E+00  0.00000000E+00
  0.00000000E+00  0.00000000E+00  0.00000000E+00
  0.00000000E+00  0.00000000E+00  0.00000000E+00
  0.00000000E+00  0.00000000E+00  0.00000000E+00
  0.00000000E+00  0.00000000E+00  0.00000000E+00
  0.00000000E+00  0.00000000E+00  0.00000000E+00
  0.00000000E+00  0.00000000E+00  0.00000000E+00
  0.00000000E+00  0.00000000E+00  0.00000000E+00
  0.00000000E+00  0.00000000E+00  0.00000000E+00
  0.00000000E+00  0.00000000E+00  0.00000000E+00
  0.00000000E+00  0.00000000E+00  0.00000000E+00
  0.00000000E+00  0.00000000E+00  0.00000000E+00
  0.00000000E+00  0.00000000E+00  0.00000000E+00
  0.00000000E+00  0.00000000E+00  0.00000000E+00
  0.00000000E+00  0.00000000E+00  0.00000000E+00
  0.00000000E+00  0.00000000E+00  0.00000000E+00
  0.00000000E+00  0.00000000E+00  0.00000000E+00
  0.00000000E+00  0.00000000E+00  0.00000000E+00
  0.00000000E+00  0.00000000E+00  0.00000000E+00
  0.00000000E+00  0.00000000E+00  0.00000000E+00
  0.00000000E+00  0.00000000E+00  0.00000000E+00
  0.00000000E+00  0.00000000E+00  0.00000000E+00
  0.00000000E+00  0.00000000E+00  0.00000000E+00
  0.00000000E+00  0.00000000E+00  0.00000000E+00
  0.00000000E+00  0.00000000E+00  0.00000000E+00
  0.00000000E+00  0.00000000E+00  0.00000000E+00
  0.00000000E+00  0.00000000E+00  0.00000000E+00
  0.00000000E+00  0.00000000E+00  0.00000000E+00
  0.00000000E+00  0.00000000E+00  0.00000000E+00
  0.00000000E+00  0.00000000E+00  0.00000000E+00
  0.00000000E+00  0.00000000E+00  0.00000000E+00
  0.00000000E+00  0.00000000E+00  0.00000000E+00
  0.00000000E+00  0.00000000E+00  0.00000000E+00
  0.00000000E+00  0.00000000E+00  0.00000000E+00
  0.00000000E+00  0.00000000E+00  0.00000000E+00
  0.00000000E+00  0.00000000E+00  0.00000000E+00
  0.00000000E+00  0.00000000E+00  0.00000000E+00
  0.00000000E+00  0.00000000E+00  0.00000000E+00
  0.00000000E+00  0.00000000E+00  0.00000000E+00
  0.00000000E+00  0.00000000E+00  0.00000000E+00
  0.00000000E+00  0.00000000E+00  0.00000000E+00
  0.00000000E+00  0.00000000E+00  0.00000000E+00
  0.00000000E+00  0.00000000E+00  0.00000000E+00
  0.00000000E+00  0.00000000E+00  0.00000000E+00
  0.00000000E+00  0.00000000E+00  0.00000000E+00
  0.00000000E+00  0.00000000E+00  0.00000000E+00
  0.00000000E+00  0.00000000E+00  0.00000000E+00
  0.00000000E+00  0.00000000E+00  0.00000000E+00
  0.00000000E+00  0.00000000E+00  0.00000000E+00
  0.00000000E+00  0.00000000E+00  0.00000000E+00
  0.00000000E+00  0.00000000E+00  0.00000000E+00
  0.00000000E+00  0.00000000E+00  0.00000000E+00
  0.00000000E+00  0.00000000E+00  0.00000000E+00
  0.00000000E+00  0.00000000E+00  0.00000000E+00
  0.00000000E+00  0.00000000E+00  0.00000000E+00
  0.00000000E+00  0.00000000E+00  0.00000000E+00
  0.00000000E+00  0.00000000E+00  0.00000000E+00
  0.00000000E+00  0.00000000E+00  0.00000000E+00
  0.00000000E+00  0.00000000E+00  0.00000000E+00
  0.00000000E+00  0.00000000E+00  0.00000000E+00
  0.00000000E+00  0.00000000E+00  0.00000000E+00
  0.00000000E+00  0.00000000E+00  0.00000000E+00
  0.00000000E+00  0.00000000E+00  0.00000000E+00
  0.00000000E+00  0.00000000E+00  0.00000000E+00
  0.00000000E+00  0.00000000E+00  0.00000000E+00
  0.00000000E+00  0.00000000E+00  0.00000000E+00
  0.00000000E+00  0.00000000E+00  0.00000000E+00
  0.00000000E+00  0.00000000E+00  0.00000000E+00
  0.00000000E+00  0.00000000E+00  0.00000000E+00
  0.00000000E+00  0.00000000E+00  0.00000000E+00
  0.00000000E+00  0.00000000E+00  0.00000000E+00
  0.00000000E+00  0.00000000E+00  0.00000000E+00
  0.00000000E+00  0.00000000E+00  0.00000000E+00
  0.00000000E+00  0.00000000E+00  0.00000000E+00
  0.00000000E+00  0.00000000E+00  0.00000000E+00
  0.00000000E+00  0.00000000E+00  0.00000000E+00
  0.00000000E+00  0.00000000E+00  0.00000000E+00
  0.00000000E+00  0.00000000E+00  0.00000000E+00
  0.00000000E+00  0.00000000E+00  0.00000000E+00
  0.00000000E+00  0.00000000E+00  0.00000000E+00
  0.00000000E+00  0.00000000E+00  0.00000000E+00
  0.00000000E+00  0.00000000E+00  0.00000000E+00
  0.00000000E+00  0.00000000E+00  0.00000000E+00
  0.00000000E+00  0.00000000E+00  0.00000000E+00
  0.00000000E+00  0.00000000E+00  0.00000000E+00
  0.00000000E+00  0.00000000E+00  0.00000000E+00
  0.00000000E+00  0.00000000E+00  0.00000000E+00
  0.00000000E+00  0.00000000E+00  0.00000000E+00
  0.00000000E+00  0.00000000E+00  0.00000000E+00
  0.00000000E+00  0.00000000E+00  0.00000000E+00
  0.00000000E+00  0.00000000E+00  0.00000000E+00
  0.00000000E+00  0.00000000E+00  0.00000000E+00
  0.00000000E+00  0.00000000E+00  0.00000000E+00
  0.00000000E+00  0.00000000E+00  0.00000000E+00
  0.00000000E+00  0.00000000E+00  0.00000000E+00
  0.00000000E+00  0.00000000E+00  0.00000000E+00
  0.00000000E+00  0.00000000E+00  0.00000000E+00
  0.00000000E+00  0.00000000E+00  0.00000000E+00
  0.00000000E+00  0.00000000E+00  0.00000000E+00
  0.00000000E+00  0.00000000E+00  0.00000000E+00
  0.00000000E+00  0.00000000E+00  0.00000000E+00
  0.00000000E+00  0.00000000E+00  0.00000000E+00
  0.00000000E+00  0.00000000E+00  0.00000000E+00
  0.00000000E+00  0.00000000E+00  0.00000000E+00
  0.00000000E+00  0.00000000E+00  0.00000000E+00
  0.00000000E+00  0.00000000E+00  0.00000000E+00
  0.00000000E+00  0.00000000E+00  0.00000000E+00
  0.00000000E+00  0.00000000E+00  0.00000000E+00
  0.00000000E+00  0.00000000E+00  0.00000000E+00
  0.00000000E+00  0.00000000E+00  0.00000000E+00
  0.00000000E+00  0.00000000E+00  0.00000000E+00
  0.00000000E+00  0.00000000E+00  0.00000000E+00
  0.00000000E+00  0.00000000E+00  0.00000000E+00
  0.00000000E+00  0.00000000E+00  0.00000000E+00
  0.00000000E+00  0.00000000E+00  0.00000000E+00
  0.00000000E+00  0.00000000E+00  0.00000000E+00
  0.00000000E+00  0.00000000E+00  0.00000000E+00
  0.00000000E+00  0.00000000E+00  0.00000000E+00
  0.00000000E+00  0.00000000E+00  0.00000000E+00
  0.00000000E+00  0.00000000E+00  0.00000000E+00
  0.00000000E+00  0.00000000E+00  0.00000000E+00
  0.00000000E+00  0.00000000E+00  0.00000000E+00
  0.00000000E+00  0.00000000E+00  0.00000000E+00
  0.00000000E+00  0.00000000E+00  0.00000000E+00
  0.00000000E+00  0.00000000E+00  0.00000000E+00
  0.00000000E+00  0.00000000E+00  0.00000000E+00
  0.00000000E+00  0.00000000E+00  0.00000000E+00
  0.00000000E+00  0.00000000E+00  0.00000000E+00
  0.00000000E+00  0.00000000E+00  0.00000000E+00
  0.00000000E+00  0.00000000E+00  0.00000000E+00
  0.00000000E+00  0.00000000E+00  0.00000000E+00
  0.00000000E+00  0.00000000E+00  0.00000000E+00
  0.00000000E+00  0.00000000E+00  0.00000000E+00
  0.00000000E+00  0.00000000E+00  0.00000000E+00
  0.00000000E+00  0.00000000E+00  0.00000000E+00
  0.00000000E+00  0.00000000E+00  0.00000000E+00
  0.00000000E+00  0.00000000E+00  0.00000000E+00
  0.00000000E+00  0.00000000E+00  0.00000000E+00
  0.00000000E+00  0.00000000E+00  0.00000000E+00
  0.00000000E+00  0.00000000E+00  0.00000000E+00
  0.00000000E+00  0.00000000E+00  0.00000000E+00
  0.00000000E+00  0.00000000E+00  0.00000000E+00
  0.00000000E+00  0.00000000E+00  0.00000000E+00
  0.00000000E+00  0.00000000E+00  0.00000000E+00
  0.00000000E+00  0.00000000E+00  0.00000000E+00
  0.00000000E+00  0.00000000E+00  0.00000000E+00
  0.00000000E+00  0.00000000E+00  0.00000000E+00
  0.00000000E+00  0.00000000E+00  0.00000000E+00
  0.00000000E+00  0.00000000E+00  0.00000000E+00
  0.00000000E+00  0.00000000E+00  0.00000000E+00
  0.00000000E+00  0.00000000E+00  0.00000000E+00
  0.00000000E+00  0.00000000E+00  0.00000000E+00
  0.00000000E+00  0.00000000E+00  0.00000000E+00
  0.00000000E+00  0.00000000E+00  0.00000000E+00
  0.00000000E+00  0.00000000E+00  0.00000000E+00
  0.00000000E+00  0.00000000E+00  0.00000000E+00
  0.00000000E+00  0.00000000E+00  0.00000000E+00
  0.00000000E+00  0.00000000E+00  0.00000000E+00
  0.00000000E+00  0.00000000E+00  0.00000000E+00
  0.00000000E+00  0.00000000E+00  0.00000000E+00
  0.00000000E+00  0.00000000E+00  0.00000000E+00
  0.00000000E+00  0.00000000E+00  0.00000000E+00
  0.00000000E+00  0.00000000E+00  0.00000000E+00
  0.00000000E+00  0.00000000E+00  0.00000000E+00
  0.00000000E+00  0.00000000E+00  0.00000000E+00
  0.00000000E+00  0.00000000E+00  0.00000000E+00
  0.00000000E+00  0.00000000E+00  0.00000000E+00
  0.00000000E+00  0.00000000E+00  0.00000000E+00
  0.00000000E+00  0.00000000E+00  0.00000000E+00
  0.00000000E+00  0.00000000E+00  0.00000000E+00