In Ge Sb Te                             
   1.00000000000000     
    17.8640058958300791    0.0000000000000000    0.0000000000000000
     0.0000000000000000   17.8640058958300791    0.0000000000000000
     0.0000000000000000    0.0000000000000000   17.8640058958300791
   In   Ge   Sb   Te
     8    32    32    80
Direct
  0.9906090032025270  0.2736722347260107  0.3644423730870275
  0.3446304493236031  0.6653588561730498  0.5906673457965201
  0.9566089829503104  0.9636862090801026  0.8335541569682330
  0.8275320059444661  0.3053240569272180  0.0468736485007694
  0.6695101158627089  0.9399681845663493  0.6573975211235734
  0.6856815086973091  0.0714876556558968  0.8175739798444902
  0.2111794000308020  0.5748778974545177  0.0795270875449445
  0.1432072984851264  0.3991491777245466  0.5674976752677580
  0.2515631888181936  0.4590735916839910  0.7887371838244187
  0.7629211548415772  0.5259432337673755  0.2719203450453781
  0.5681779594284978  0.5233562054197994  0.7186110269223638
  0.9251727268591303  0.1742859751740825  0.5863115564242801
  0.1158834437786496  0.1185697819780394  0.6938576182104368
  0.0529796590490786  0.7858978596720944  0.9478705244139265
  0.7504937153716357  0.5649360469084538  0.7025264851337587
  0.2017205858599320  0.8196644416020551  0.6205622865237406
  0.4931466222984972  0.8190097582280051  0.5280718840925372
  0.5722042417698787  0.5018671651933705  0.3396388622589545
  0.3650269229132846  0.4861072245437848  0.9991657161047398
  0.5688093454760366  0.7135871721882361  0.5846015587247638
  0.8323487178485662  0.1059350767250382  0.2428686483577675
  0.4819871614114823  0.8331565903148791  0.2777134635592252
  0.0703556779251966  0.3212771462224911  0.8021714354147512
  0.6026228397614217  0.9195701351574614  0.2579611189075982
  0.3355227934674329  0.0371141693528289  0.3476681676485296
  0.8734123418596598  0.3254332619018446  0.5485273864471919
  0.6486242848703391  0.7720385633215231  0.8115158078690731
  0.4966577093444423  0.3449003464924507  0.8611135946760046
  0.0551063027473901  0.7888466672452286  0.5820922657853522
  0.5583160837022859  0.1375686866222358  0.1390193998746010
  0.2456607723198586  0.2638124763555015  0.4896576205970234
  0.9013245621881992  0.6816140034222192  0.5691579949347916
  0.6327628530631422  0.2257916389121920  0.7700816074462312
  0.9064296654874457  0.4407456105132456  0.1573306070521187
  0.5642689914041709  0.8608727027556947  0.0169138619357526
  0.9728112513446026  0.2722257103033199  0.7113280611288334
  0.8707274315507847  0.7997871114596347  0.7364417087731162
  0.1116820064349485  0.1091495601240160  0.2444019083615974
  0.2794032687839149  0.7311818246891000  0.2709289686890725
  0.5053779475890875  0.1900212719346369  0.4918468339418323
  0.0674858816502789  0.6435242229051408  0.7984070324984545
  0.4834588692193174  0.6477077511467332  0.6856747059449592
  0.6862053970799471  0.5394206856951625  0.9810774056087131
  0.1593999207824472  0.9528461994049965  0.9265001416775611
  0.0455020670310469  0.7260596205286777  0.3692051892817957
  0.1322922945218665  0.7285936492093207  0.2249464766084242
  0.9203399911973461  0.4139537429017438  0.6658089524104917
  0.4059914983376764  0.7869492574030363  0.4027795787757868
  0.3837565069829152  0.7075129238594235  0.1668865280655553
  0.7446431726331550  0.0775098004193934  0.0582112994648838
  0.4511614905388133  0.0109569550148555  0.6351089203453261
  0.5411623521684408  0.6906348463918129  0.2338059008979809
  0.0931670586235213  0.0375817809989140  0.0513291646954530
  0.2785320028115569  0.2713859369879781  0.9634064982672191
  0.5229952300328932  0.3404080943546017  0.5265764158096394
  0.1953505600811221  0.8808111603474092  0.3295879967699088
  0.9481995744047671  0.1447985827404000  0.8794210766549747
  0.2719679224632662  0.8597602501672651  0.4671603617921908
  0.0576088642419264  0.5890816886651207  0.1544197287131562
  0.2691100407748886  0.5834234721361052  0.3311413690178239
  0.2002871564414576  0.9460731116679283  0.7290262722737308
  0.5875995057228606  0.2845685403848580  0.2848173166957940
  0.9364890952716636  0.0520391192556067  0.0137932029500633
  0.2510522689677414  0.0745832073765250  0.8654355773315199
  0.4464970945817111  0.9527605950123744  0.0683983121492212
  0.6587292773018085  0.3636440894273825  0.7047190335822284
  0.9191671110282854  0.8978076175101689  0.1318091577223433
  0.3654238957019535  0.8666181318473177  0.1841385455014708
  0.3343764700411017  0.4687672770263243  0.4708199944138834
  0.5839520736324838  0.6085596202712349  0.4720297697209727
  0.8307668306803152  0.7101631042622505  0.9076191737871027
  0.7200240713226588  0.4307386848781480  0.3735790080917572
  0.7893520591092987  0.9239335717379215  0.7810523351096651
  0.4331177367372477  0.3336443285643598  0.9971355335526929
  0.6976218589466545  0.1964792479840355  0.1537367022895800
  0.5838319862479915  0.1485630790109267  0.3677842515210544
  0.0535450312709093  0.4331858569291483  0.1166956287572613
  0.6653874078358967  0.9184790296545973  0.9179888084786924
  0.0368474196588849  0.6394913596924306  0.5353409886045389
  0.8940859601794172  0.6214722350443291  0.7054660666014396
  0.3826441374936347  0.8482740671419958  0.6246498623954652
  0.7983425463394703  0.6766850808768156  0.4582890682442614
  0.0670313167455256  0.2234764295702843  0.5927707543911398
  0.8799431183754789  0.3163898322855243  0.2486997332424957
  0.4590635630689239  0.6340413536524224  0.3674991567215967
  0.5002488515787736  0.7879640854262596  0.7722884000546960
  0.2214035315529619  0.3846944257019695  0.3967934012407954
  0.3222896114200697  0.1684409583174434  0.2699342019509053
  0.3366660013802263  0.6586582205446025  0.0281745413920858
  0.2785744944555807  0.4405249691350176  0.1193921363190065
  0.5678343495607324  0.4797725257607529  0.1856549862308660
  0.7050523142399610  0.6665940119082381  0.3091703515968647
  0.9162259440988728  0.8290548829777006  0.5866164168621630
  0.7983321794690849  0.4301540484707047  0.7687781759765511
  0.9048535438029024  0.5528483426923557  0.2663365748280042
  0.7851057007795604  0.6435813317190461  0.0454434471760279
  0.5864337907331919  0.0686057951793563  0.0075762487328667
  0.2256685216691770  0.7068150448680834  0.4698158936753163
  0.9155156661287273  0.1621838548702169  0.1219803053844946
  0.8922672086613985  0.1574985716132161  0.4216640837733871
  0.1793841109682630  0.0424932403545086  0.3638637787867428
  0.7394337462919426  0.5267505682989219  0.5051604296369835
  0.7193349888285691  0.4609325591588650  0.1416437346438970
  0.2412134947584446  0.0978583552903137  0.1515274988651706
  0.4803740477495463  0.2468865864131835  0.7535629349018739
  0.2190717054658503  0.7002911167753105  0.7014936570694288
  0.5535735344096242  0.9565857846234979  0.5223677995958000
  0.2670978007175582  0.7899877721147042  0.8448431291718658
  0.5594159886257861  0.1363085478480529  0.6234226838250853
  0.2772895968774166  0.8623064831020050  0.9846009730518364
  0.7971596613037748  0.1931767569336069  0.9076486424189749
  0.9778247796603123  0.6388256434008402  0.9478172193698684
  0.9921384948145114  0.3815176638150887  0.4802060938385994
  0.4526676765973448  0.4784975068441409  0.7982721725229183
  0.2072961330270381  0.0407009516838408  0.5969152995568244
  0.3638536263411486  0.1375430120103925  0.9600794476058002
  0.9460030810360637  0.0462443127810595  0.3315459349717854
  0.6880910911617831  0.7780510105731139  0.6480255414248638
  0.8498359828099419  0.7721416067674719  0.1923709045465923
  0.1389221504567587  0.2011288494712215  0.0526365935562334
  0.1141280691294186  0.5505000891917189  0.2994451296904009
  0.0252626719297724  0.8154987466255902  0.7781961703584424
  0.0774104245215828  0.8364322441112572  0.1098299030921222
  0.3774039559748262  0.4983020595770844  0.2295890993639182
  0.2442614823950736  0.5337070768154742  0.5862205361071026
  0.3493705661001546  0.9655935838346146  0.7933723021169201
  0.0647280285151455  0.8653581222293272  0.4387355542299811
  0.7000337509307375  0.3363849375876287  0.5601160101303118
  0.9271427173702945  0.8335394947694370  0.3254979810805225
  0.0557054040995057  0.9945498038200876  0.6230017205448951
  0.4848687122565528  0.5239255334991231  0.5571467294359516
  0.4754064197177898  0.3747966400918839  0.3694439141338310
  0.6314188061564583  0.3383567123020780  0.8883185444462626
  0.4884697797563029  0.2733698436097347  0.1637651976177479
  0.7286469095596160  0.0874150584238660  0.6220870419939327
  0.2251494733075050  0.3053699413894163  0.7917939386412575
  0.6557026452209312  0.6075015046109564  0.8256226056212894
  0.3585495882099889  0.3398053997785352  0.5726150152160057
  0.7673207217916820  0.9764496599648689  0.1878827664952971
  0.5207469860287046  0.7268468371096249  0.9400479851793905
  0.6305308182576914  0.8162428569219449  0.1428857750766270
  0.3600609485095046  0.1482762892132865  0.4580025199469148
  0.2193578933356279  0.4636205903445396  0.9398284728628482
  0.4966012867994812  0.0234725276071749  0.2172789647877931
  0.1354537687606741  0.2290181832262411  0.3212749902896406
  0.5419757618428461  0.9769386374457997  0.7552004209047222
  0.8861294364464670  0.0523374936995113  0.6615174446158381
  0.8859200507393330  0.8594105526345528  0.9752324806929008
  0.1781750465248564  0.6769589944798934  0.9134244263774911
  0.0366240213022210  0.2810276072806727  0.9451979952207571
  0.5519098092575798  0.5976885544428240  0.0321246800766359
  0.0964234406780257  0.4701962968331833  0.7551534487059309
 
 -0.16876964E-02 -0.46467123E-03 -0.24880288E-02
  0.61434342E-04 -0.25913480E-03 -0.55011356E-03
 -0.46365969E-03  0.77116424E-03  0.44008119E-03
 -0.24480271E-02  0.17035033E-02 -0.77813395E-03
  0.25074361E-02 -0.52894128E-03  0.34942668E-02
  0.32275304E-03  0.99209384E-03 -0.49241286E-03
 -0.53981800E-03 -0.29100718E-02 -0.11536264E-03
  0.19686532E-02  0.72499582E-03 -0.11447683E-02
  0.10003232E-02  0.98162880E-04 -0.18715800E-02
  0.13659376E-02 -0.39334398E-04  0.11634841E-02
  0.21574227E-02 -0.11514598E-02 -0.19333400E-03
 -0.66400012E-03  0.44722665E-04 -0.35183004E-04
 -0.21380179E-02 -0.76213241E-03  0.10114534E-02
 -0.43119160E-02 -0.69722329E-03  0.65436922E-03
 -0.62974031E-03 -0.16648351E-02  0.37209296E-03
 -0.79794516E-03  0.52488087E-03 -0.10039523E-02
  0.68833407E-04 -0.73577279E-03  0.99051227E-03
  0.16362541E-05  0.31988850E-02 -0.25495461E-02
  0.19544333E-02  0.23942495E-03  0.92691198E-03
  0.10303223E-02 -0.11870277E-02  0.26030378E-02
  0.31915101E-02  0.49567431E-03 -0.68250898E-03
 -0.52427106E-03  0.93046014E-03 -0.40091691E-04
  0.59882163E-04 -0.45926007E-03  0.10353197E-02
  0.16448593E-02 -0.10822672E-02 -0.20439635E-02
 -0.10201427E-03  0.90744406E-03  0.77229176E-03
  0.69726463E-03 -0.29323232E-02  0.66371946E-03
 -0.15174166E-02 -0.29181089E-02 -0.94796834E-04
 -0.26950234E-02 -0.11196554E-02 -0.61421827E-03
 -0.11514595E-03  0.11712645E-02  0.15035660E-02
  0.13650460E-02 -0.17441959E-03 -0.50150980E-04
 -0.12797663E-02  0.16421003E-02  0.11134490E-02
 -0.74379003E-03  0.58905226E-03  0.36505342E-02
  0.15683688E-02  0.36958921E-02  0.24489181E-02
 -0.21955282E-02  0.10424556E-02 -0.25419693E-02
 -0.29335607E-02 -0.25284790E-02 -0.16250642E-02
  0.29218221E-03 -0.16611221E-02 -0.76517132E-05
 -0.52071535E-03 -0.82399609E-03 -0.32362795E-02
 -0.28641483E-02  0.21404916E-05  0.26558675E-02
 -0.10947823E-02  0.20507129E-03  0.11498054E-02
  0.35489799E-02  0.21176618E-02 -0.53564746E-03
 -0.87140852E-03  0.15204249E-02 -0.37390497E-03
  0.38633583E-03 -0.47676921E-03 -0.23745462E-03
 -0.13450717E-02  0.49612998E-03 -0.11509528E-02
 -0.10970599E-02  0.16821737E-02  0.42636303E-03
 -0.34464146E-02 -0.77050422E-03 -0.25605618E-02
 -0.15330280E-02  0.46866980E-03 -0.50695874E-03
 -0.44629343E-04 -0.70501213E-03  0.54847006E-03
 -0.51432547E-03  0.22399030E-02  0.10463681E-02
  0.10619270E-02 -0.11802590E-03  0.26813482E-02
  0.35117683E-02 -0.10921441E-02  0.11816885E-03
  0.18967853E-02  0.27945097E-03 -0.15287153E-02
  0.17895437E-02 -0.39256055E-04  0.16776306E-02
  0.16423352E-02 -0.37150398E-03 -0.97311160E-03
  0.18157902E-02 -0.21939018E-02  0.96545432E-03
 -0.45221924E-03 -0.11908641E-03 -0.13301101E-02
  0.15600002E-02  0.76786486E-03 -0.93569377E-03
  0.69603796E-04  0.94808582E-03 -0.77689199E-03
 -0.44754389E-03 -0.20079058E-02  0.19905602E-02
  0.12125383E-02 -0.11706793E-03 -0.21726105E-02
  0.31733048E-02  0.17229849E-03  0.36164638E-03
 -0.15125040E-02  0.10348599E-02  0.30597337E-03
  0.15287460E-02 -0.12163055E-02 -0.17387348E-03
  0.32570466E-03 -0.13402266E-02  0.17950879E-02
 -0.46142089E-03 -0.92281141E-03 -0.18318307E-02
 -0.23065656E-02 -0.93921867E-03 -0.32102944E-03
  0.48119095E-03 -0.81867930E-03 -0.13509498E-02
  0.14724873E-02  0.16402503E-02  0.27879361E-02
  0.16694133E-02  0.51390073E-03  0.17130437E-02
 -0.13158764E-02 -0.64693021E-03  0.42214168E-03
 -0.48551821E-03 -0.15124427E-02 -0.21741892E-02
 -0.27317771E-02  0.26160978E-03  0.31973808E-03
 -0.10378064E-02 -0.53252002E-03 -0.47629811E-03
 -0.12052473E-02 -0.41853467E-03  0.26002044E-04
 -0.23370906E-02  0.98468964E-04  0.13640433E-02
 -0.16763101E-02  0.27312656E-02  0.41476949E-03
  0.12782810E-02  0.95851601E-03 -0.39387476E-03
 -0.15323902E-02 -0.23602351E-02  0.17616808E-04
 -0.10769281E-02 -0.97990229E-03  0.64312935E-03
  0.20359861E-02  0.21326442E-03  0.57067037E-04
  0.12905201E-03  0.54731590E-03  0.12356256E-02
 -0.15980491E-02 -0.51042624E-03  0.11444319E-02
  0.24569992E-02 -0.70138582E-03  0.11032648E-03
 -0.10176749E-03 -0.22348808E-03 -0.14852688E-02
 -0.39869036E-02 -0.14478438E-03 -0.29858690E-02
  0.66257214E-03  0.22334722E-02 -0.15848228E-02
 -0.93248541E-03 -0.19797496E-02  0.20796515E-02
  0.35357365E-03  0.41811993E-03  0.18396751E-02
  0.51937617E-03  0.60448827E-03 -0.21615669E-02
  0.16565321E-03  0.16412977E-02  0.55774710E-03
 -0.12764375E-02 -0.14307201E-03  0.15590095E-02
  0.37316161E-02 -0.18272227E-03  0.44884853E-02
  0.58147834E-03  0.20733056E-03 -0.14820486E-02
  0.32297942E-03 -0.73232049E-03 -0.19844752E-02
  0.15706507E-02 -0.17895596E-02  0.19575927E-02
 -0.13874309E-02 -0.48880328E-03 -0.10135372E-02
 -0.10801511E-02  0.18400566E-02 -0.54478972E-03
 -0.12890348E-02 -0.18694803E-03  0.14756225E-03
 -0.35995111E-03 -0.49757176E-04 -0.25740388E-02
  0.19033859E-02  0.48065977E-03  0.47022813E-03
  0.16005840E-02  0.12640943E-03  0.11480732E-02
  0.43128751E-02  0.37639492E-04 -0.50031438E-03
  0.77103910E-03  0.18016655E-03 -0.59401332E-03
  0.17738906E-02  0.23964123E-02 -0.82520114E-03
 -0.35614027E-02  0.99261302E-03  0.61335575E-03
 -0.12647982E-02 -0.19094150E-03 -0.92185757E-03
 -0.56617431E-03 -0.21188818E-02  0.80953633E-03
  0.30590296E-04  0.37127376E-03  0.28326886E-02
  0.15089666E-02  0.69360430E-03  0.80024160E-04
  0.80292664E-03 -0.19874601E-02 -0.32395880E-03
 -0.75621575E-03  0.72846063E-03  0.10564490E-02
  0.10471785E-02 -0.30193865E-03  0.69055003E-03
  0.10509379E-02  0.64515848E-03  0.56363968E-03
 -0.13009952E-02  0.17620884E-02  0.80597667E-03
  0.86991473E-03  0.28143061E-02 -0.78072081E-03
 -0.31152682E-03  0.82598534E-03  0.17861849E-02
 -0.19448524E-02 -0.90435261E-03 -0.14953188E-02
 -0.13393738E-02  0.79331366E-03 -0.30247738E-03
  0.64169407E-03  0.86178966E-03 -0.82835839E-03
  0.14644268E-02  0.63099941E-04 -0.65022145E-03
 -0.52583659E-03  0.18525550E-02  0.21347100E-02
  0.31756850E-03 -0.16164585E-02 -0.17818314E-02
  0.92494838E-03  0.56051592E-03  0.10286586E-02
 -0.11694673E-02  0.51929292E-03  0.26562600E-03
  0.24099152E-02  0.38982084E-03 -0.57442848E-03
  0.54700405E-03 -0.10931681E-02 -0.17754744E-02
 -0.67985521E-03 -0.43719605E-03  0.12687822E-02
 -0.24975468E-02  0.33541769E-02 -0.11248357E-02
 -0.13631697E-03 -0.65750415E-03  0.46896728E-03
 -0.14558954E-02  0.66190166E-03  0.81196358E-03
 -0.49276405E-03 -0.35539180E-03 -0.13555157E-02
 -0.34218686E-03  0.17093464E-02  0.51019292E-04
 -0.22569173E-03 -0.14532880E-02  0.20093857E-02
  0.20120692E-02 -0.35027910E-03  0.94151589E-03
  0.13852978E-02 -0.27329485E-04 -0.40611410E-03
  0.53842932E-04  0.14189958E-02 -0.31858631E-03
 -0.23703113E-02 -0.51869669E-03  0.21482850E-02
 -0.18420007E-02 -0.47191127E-03  0.11633855E-02
 -0.38762319E-02 -0.19689966E-02  0.18729341E-02
  0.27966882E-02  0.23674924E-03 -0.28908044E-02
 -0.26129216E-03 -0.33429396E-02 -0.12177190E-02
  0.18852901E-02 -0.14352198E-02  0.15651403E-02
  0.16154016E-02 -0.14909598E-02 -0.16540812E-03
 -0.53789472E-03  0.16946133E-02 -0.31496204E-02
 -0.35643340E-03 -0.23082879E-02 -0.28070069E-02
  0.50126623E-03 -0.65308785E-03 -0.31158598E-03
 -0.22864914E-02  0.11465249E-02 -0.10247538E-02
  0.54677658E-03  0.12099577E-02  0.24394388E-02
  0.26795852E-02 -0.90207536E-03 -0.41125314E-02
 -0.91897704E-03 -0.10375606E-02 -0.11282697E-02
  0.16799257E-02  0.87829421E-03  0.11115916E-03
  0.10421742E-03  0.34468260E-03  0.24910512E-03
 -0.79781707E-03  0.70619715E-03  0.47442908E-03
 
           1
   3.00000000000000     
  0.10000000E+01  0.00000000E+00  0.00000000E+00  0.00000000E+00
  0.99032558E+00  0.27359420E+00  0.36402454E+00
  0.34464077E+00  0.66531534E+00  0.59057496E+00
  0.95653112E+00  0.96381571E+00  0.83362806E+00
  0.82712090E+00  0.30561014E+00  0.46742972E-01
  0.66993120E+00  0.93987936E+00  0.65798433E+00
  0.68573571E+00  0.71654263E-01  0.81749129E+00
  0.21108875E+00  0.57438919E+00  0.79507714E-01
  0.14353791E+00  0.39927093E+00  0.56730543E+00
  0.25173118E+00  0.45909008E+00  0.78842288E+00
  0.76315054E+00  0.52593663E+00  0.27211574E+00
  0.56854027E+00  0.52316283E+00  0.71857856E+00
  0.92506122E+00  0.17429349E+00  0.58630565E+00
  0.11552439E+00  0.11844179E+00  0.69402748E+00
  0.52255535E-01  0.78578077E+00  0.94798042E+00
  0.75038796E+00  0.56465646E+00  0.70258897E+00
  0.20158658E+00  0.81975259E+00  0.62039369E+00
  0.49315818E+00  0.81888620E+00  0.52823823E+00
  0.57220452E+00  0.50240437E+00  0.33921070E+00
  0.36535514E+00  0.48614743E+00  0.99932138E+00
  0.56898237E+00  0.71338783E+00  0.58503870E+00
  0.83288469E+00  0.10601832E+00  0.24275403E+00
  0.48189912E+00  0.83331285E+00  0.27770673E+00
  0.70365734E-01  0.32120002E+00  0.80234530E+00
  0.60289907E+00  0.91938838E+00  0.25761786E+00
  0.33550566E+00  0.37266561E-01  0.34779786E+00
  0.87352944E+00  0.32494082E+00  0.54863885E+00
  0.64836946E+00  0.77154851E+00  0.81149989E+00
  0.49620512E+00  0.34471232E+00  0.86101045E+00
  0.55086966E-01  0.78904336E+00  0.58234477E+00
  0.55854532E+00  0.13753940E+00  0.13901098E+00
  0.24544585E+00  0.26408824E+00  0.48984461E+00
  0.90119965E+00  0.68171293E+00  0.56977105E+00
  0.63302624E+00  0.22641231E+00  0.77049287E+00
  0.90606096E+00  0.44092068E+00  0.15690372E+00
  0.56377634E+00  0.86044808E+00  0.16640956E-01
  0.97286032E+00  0.27194675E+00  0.71132678E+00
  0.87063998E+00  0.79964873E+00  0.73589822E+00
  0.11120101E+00  0.10914992E+00  0.24484792E+00
  0.27921942E+00  0.73121626E+00  0.27112206E+00
  0.50597395E+00  0.19037690E+00  0.49175688E+00
  0.67339541E-01  0.64377956E+00  0.79834424E+00
  0.48352375E+00  0.64762768E+00  0.68563483E+00
  0.68597951E+00  0.53950400E+00  0.98088412E+00
  0.15921569E+00  0.95312870E+00  0.92657174E+00
  0.44923292E-01  0.72593023E+00  0.36877518E+00
  0.13203484E+00  0.72867236E+00  0.22486134E+00
  0.92033250E+00  0.41383535E+00  0.66590106E+00
  0.40590512E+00  0.78732542E+00  0.40295530E+00
  0.38393484E+00  0.70749310E+00  0.16733682E+00
  0.74523292E+00  0.77326391E-01  0.58231144E-01
  0.45148003E+00  0.11003885E-01  0.63485219E+00
  0.54146288E+00  0.69062825E+00  0.23408763E+00
  0.93442865E-01  0.37519392E-01  0.51165745E-01
  0.27883694E+00  0.27101750E+00  0.96356863E+00
  0.52291929E+00  0.34038810E+00  0.52635304E+00
  0.19561254E+00  0.88094011E+00  0.32943086E+00
  0.94821126E+00  0.14495780E+00  0.87929061E+00
  0.27189276E+00  0.85942305E+00  0.46749465E+00
  0.57812492E-01  0.58906203E+00  0.15405487E+00
  0.26964295E+00  0.58345241E+00  0.33120210E+00
  0.20003315E+00  0.94624690E+00  0.72907766E+00
  0.58785624E+00  0.28436428E+00  0.28478812E+00
  0.93654379E+00  0.51814048E-01  0.14094662E-01
  0.25097478E+00  0.74428235E-01  0.86512795E+00
  0.44610974E+00  0.95260287E+00  0.68344400E-01
  0.65881009E+00  0.36350660E+00  0.70449216E+00
  0.91941439E+00  0.89808307E+00  0.13227735E+00
  0.36570425E+00  0.86670443E+00  0.18442623E+00
  0.33415549E+00  0.46865863E+00  0.47089089E+00
  0.58387054E+00  0.60830563E+00  0.47166465E+00
  0.83030807E+00  0.71020704E+00  0.90767287E+00
  0.71984979E+00  0.43064926E+00  0.37349902E+00
  0.78914966E+00  0.92386328E+00  0.78105670E+00
  0.43272526E+00  0.33366086E+00  0.99736460E+00
  0.69734035E+00  0.19693792E+00  0.15380636E+00
  0.58404665E+00  0.14872405E+00  0.36771811E+00
  0.53287689E-01  0.43278949E+00  0.11669859E+00
  0.66520655E+00  0.91831447E+00  0.91809681E+00
  0.37189334E-01  0.63952717E+00  0.53535057E+00
  0.89410763E+00  0.62156415E+00  0.70567357E+00
  0.38237577E+00  0.84818835E+00  0.62484205E+00
  0.79875516E+00  0.67656729E+00  0.45830760E+00
  0.67014226E-01  0.22343890E+00  0.59252133E+00
  0.87927358E+00  0.31636552E+00  0.24819830E+00
  0.45917483E+00  0.63441643E+00  0.36723301E+00
  0.50009225E+00  0.78763162E+00  0.77263765E+00
  0.22146291E+00  0.38476464E+00  0.39710235E+00
  0.32237683E+00  0.16854247E+00  0.26957120E+00
  0.33669382E+00  0.65893385E+00  0.28268207E-01
  0.27836014E+00  0.44050094E+00  0.11965395E+00
  0.56846102E+00  0.47974184E+00  0.18640876E+00
  0.70514997E+00  0.66662883E+00  0.30892146E+00
  0.91628018E+00  0.82893190E+00  0.58628315E+00
  0.79859595E+00  0.42985352E+00  0.76910693E+00
  0.90462054E+00  0.55276626E+00  0.26616637E+00
  0.78492431E+00  0.64389034E+00  0.45351958E-01
  0.58621732E+00  0.68574400E-01  0.76010297E-02
  0.22560807E+00  0.70680669E+00  0.46938362E+00
  0.91583531E+00  0.16226457E+00  0.12205927E+00
  0.89253600E+00  0.15751980E+00  0.42185689E+00
  0.18010840E+00  0.42499561E-01  0.36377976E+00
  0.73956323E+00  0.52678082E+00  0.50506067E+00
  0.71963289E+00  0.46133500E+00  0.14150515E+00
  0.24061541E+00  0.98025050E-01  0.15163050E+00
  0.48016164E+00  0.24685452E+00  0.75340812E+00
  0.21897662E+00  0.69993528E+00  0.70162961E+00
  0.55357867E+00  0.95664813E+00  0.52284351E+00
  0.26735121E+00  0.79010425E+00  0.84485657E+00
  0.55955083E+00  0.13597478E+00  0.62336828E+00
  0.27716260E+00  0.86242882E+00  0.98477839E+00
  0.79733552E+00  0.19312605E+00  0.90776461E+00
  0.97800127E+00  0.63893399E+00  0.94791187E+00
  0.99192001E+00  0.38181358E+00  0.48034145E+00
  0.45281377E+00  0.47897013E+00  0.79814106E+00
  0.20724382E+00  0.40839664E-01  0.59721526E+00
  0.36352702E+00  0.13739114E+00  0.95982833E+00
  0.94577815E+00  0.46377538E-01  0.33149514E+00
  0.68819885E+00  0.77819574E+00  0.64788643E+00
  0.85008191E+00  0.77215220E+00  0.19226171E+00
  0.13883384E+00  0.20143996E+00  0.52995087E-01
  0.11418140E+00  0.55022863E+00  0.29914590E+00
  0.25418004E-01  0.81559288E+00  0.77836892E+00
  0.77214029E-01  0.83651945E+00  0.10987451E+00
  0.37780867E+00  0.49836752E+00  0.22949263E+00
  0.24435334E+00  0.53352350E+00  0.58592237E+00
  0.34925639E+00  0.96552016E+00  0.79358538E+00
  0.64308602E-01  0.86592141E+00  0.43854665E+00
  0.70001086E+00  0.33627452E+00  0.56019477E+00
  0.92689822E+00  0.83365065E+00  0.32563434E+00
  0.55622652E-01  0.99449012E+00  0.62277408E+00
  0.48481125E+00  0.52421259E+00  0.55715530E+00
  0.47536852E+00  0.37455258E+00  0.36978136E+00
  0.63175670E+00  0.33829789E+00  0.88847666E+00
  0.48870242E+00  0.27336525E+00  0.16369700E+00
  0.72865595E+00  0.87653358E-01  0.62203354E+00
  0.22475141E+00  0.30528283E+00  0.79215471E+00
  0.65539331E+00  0.60742225E+00  0.82581798E+00
  0.35789863E+00  0.33947474E+00  0.57292955E+00
  0.76779038E+00  0.97648942E+00  0.18739730E+00
  0.52070311E+00  0.72628544E+00  0.93984349E+00
  0.63084743E+00  0.81600183E+00  0.14314862E+00
  0.36033223E+00  0.14802590E+00  0.45797474E+00
  0.21926756E+00  0.46390518E+00  0.93929954E+00
  0.49654143E+00  0.23084884E-01  0.21680757E+00
  0.13553795E+00  0.22890851E+00  0.32122266E+00
  0.54159178E+00  0.97713118E+00  0.75502833E+00
  0.88622126E+00  0.52540688E-01  0.66192711E+00
  0.88637005E+00  0.85925906E+00  0.97454184E+00
  0.17802072E+00  0.67678475E+00  0.91323495E+00
  0.36906140E-01  0.28117510E+00  0.94521666E+00
  0.55192731E+00  0.59774644E+00  0.32166514E-01
  0.96289459E-01  0.47031489E+00  0.75523312E+00
 -0.27843803E-03 -0.75855008E-04 -0.40622451E-03
  0.14099994E-04 -0.47880098E-04 -0.90384296E-04
 -0.75069833E-04  0.12956133E-03  0.74578073E-04
 -0.41132559E-03  0.28879360E-03 -0.13267486E-03
  0.42708283E-03 -0.91598334E-04  0.58819984E-03
  0.53030538E-04  0.16139934E-03 -0.82655573E-04
 -0.70539226E-04 -0.50192338E-03 -0.18065918E-04
  0.32946040E-03  0.12880470E-03 -0.19210263E-03
  0.17435134E-03  0.15933377E-04 -0.30953802E-03
  0.23475533E-03 -0.41815809E-04  0.20100990E-03
  0.34518843E-03 -0.17974794E-03 -0.29414516E-04
 -0.91550105E-04 -0.16401069E-04  0.10094981E-04
 -0.36063279E-03 -0.12327215E-03  0.16021752E-03
 -0.71331005E-03 -0.10637911E-03  0.10571122E-03
 -0.10168618E-03 -0.27733369E-03  0.61820922E-04
 -0.13290372E-03  0.66644794E-04 -0.16413104E-03
  0.25950670E-04 -0.13127319E-03  0.17058478E-03
 -0.68235104E-05  0.55307659E-03 -0.42650072E-03
  0.33105627E-03  0.42341399E-04  0.16425476E-03
  0.16209356E-03 -0.20871221E-03  0.44124334E-03
  0.54042654E-03  0.77866583E-04 -0.11974339E-03
 -0.10522461E-03  0.15270400E-03 -0.17136338E-05
 -0.22543250E-04 -0.90546929E-04  0.16751908E-03
  0.27529049E-03 -0.17219010E-03 -0.34587496E-03
 -0.10539575E-04  0.13776868E-03  0.13476084E-03
  0.13252010E-03 -0.47316599E-03  0.10320364E-03
 -0.25158435E-03 -0.48921118E-03 -0.20119896E-04
 -0.40368513E-03 -0.20747222E-03 -0.86262240E-04
 -0.65094820E-04  0.21370466E-03  0.25849574E-03
  0.22373882E-03 -0.51631513E-04  0.57485642E-05
 -0.22034998E-03  0.26965739E-03  0.18818042E-03
 -0.10884352E-03  0.11100437E-03  0.61696206E-03
  0.27013044E-03  0.61536148E-03  0.40153245E-03
 -0.36818641E-03  0.18304220E-03 -0.43433076E-03
 -0.47996647E-03 -0.42073379E-03 -0.26649474E-03
  0.70162959E-04 -0.26400056E-03  0.13114560E-04
 -0.99677664E-04 -0.12157566E-03 -0.53921110E-03
 -0.46069788E-03  0.37445121E-04  0.47075635E-03
 -0.17892329E-03  0.40335363E-04  0.16966951E-03
  0.59614716E-03  0.34990670E-03 -0.73237609E-04
 -0.14383318E-03  0.25337998E-03 -0.66813775E-04
  0.71147541E-04 -0.86910276E-04 -0.53349979E-04
 -0.22651538E-03  0.85580764E-04 -0.18989778E-03
 -0.18456658E-03  0.28161580E-03  0.70965983E-04
 -0.57343864E-03 -0.12098698E-03 -0.42155630E-03
 -0.25346984E-03  0.73303458E-04 -0.79236425E-04
 -0.14228933E-04 -0.11671165E-03  0.94987954E-04
 -0.91209069E-04  0.37526024E-03  0.17654004E-03
  0.17226324E-03 -0.17275818E-04  0.45024293E-03
  0.59111581E-03 -0.17947124E-03  0.20840695E-04
  0.32851240E-03  0.47518210E-04 -0.25019785E-03
  0.29674110E-03 -0.93598779E-05  0.28767223E-03
  0.26973363E-03 -0.60671525E-04 -0.17070430E-03
  0.30092483E-03 -0.37248410E-03  0.16849683E-03
 -0.66535772E-04 -0.20439283E-04 -0.21540294E-03
  0.26852734E-03  0.12149505E-03 -0.14935452E-03
  0.17427378E-04  0.15078816E-03 -0.13306239E-03
 -0.74671403E-04 -0.34172510E-03  0.32813512E-03
  0.19293994E-03 -0.17951595E-04 -0.35703593E-03
  0.52796813E-03  0.22339705E-04  0.61308851E-04
 -0.25218181E-03  0.18202342E-03  0.53279365E-04
  0.25646634E-03 -0.20888245E-03 -0.36529262E-04
  0.51538762E-04 -0.21872085E-03  0.30947062E-03
 -0.82752117E-04 -0.15260490E-03 -0.30193186E-03
 -0.38696991E-03 -0.16052440E-03 -0.58004860E-04
  0.86496993E-04 -0.14632339E-03 -0.24029855E-03
  0.24441578E-03  0.28024370E-03  0.46641012E-03
  0.28119645E-03  0.83267964E-04  0.28950951E-03
 -0.21647735E-03 -0.10299584E-03  0.68720623E-04
 -0.96756831E-04 -0.25551017E-03 -0.35917468E-03
 -0.47211161E-03  0.40196399E-04  0.40514814E-04
 -0.16404140E-03 -0.86245268E-04 -0.89102998E-04
 -0.20631466E-03 -0.73955954E-04  0.15563347E-05
 -0.38418336E-03  0.15039558E-04  0.23494211E-03
 -0.28048160E-03  0.45535651E-03  0.66905339E-04
  0.21452751E-03  0.16093841E-03 -0.70314852E-04
 -0.24914207E-03 -0.39363727E-03  0.40144786E-05
 -0.17568609E-03 -0.16026072E-03  0.10279868E-03
  0.33533452E-03  0.27073263E-04  0.70520359E-05
  0.22806430E-04  0.92100764E-04  0.20176877E-03
 -0.26764108E-03 -0.83767619E-04  0.19176413E-03
  0.41835294E-03 -0.10559446E-03  0.19486207E-04
 -0.23191391E-04 -0.41438678E-04 -0.25419051E-03
 -0.66963090E-03 -0.25666847E-04 -0.50196697E-03
  0.12162676E-03  0.37863314E-03 -0.26226152E-03
 -0.15818899E-03 -0.32742129E-03  0.34938919E-03
  0.59978168E-04  0.75779888E-04  0.30950837E-03
  0.82136040E-04  0.10618110E-03 -0.35786259E-03
  0.27982414E-04  0.27570958E-03  0.10254650E-03
 -0.22375797E-03 -0.90677319E-05  0.25218561E-03
  0.63446158E-03 -0.31847243E-04  0.74793677E-03
  0.10136419E-03  0.42477003E-04 -0.24295876E-03
  0.75815036E-04 -0.13611884E-03 -0.33272547E-03
  0.27080342E-03 -0.29710686E-03  0.33084928E-03
 -0.23998041E-03 -0.79289853E-04 -0.16872109E-03
 -0.18430733E-03  0.30384760E-03 -0.88210929E-04
 -0.21857212E-03 -0.29118073E-04  0.24081685E-04
 -0.61085550E-04 -0.62586042E-05 -0.43430985E-03
  0.32062044E-03  0.71582921E-04  0.72125318E-04
  0.27257796E-03  0.15034217E-04  0.18067973E-03
  0.72049463E-03  0.19323942E-04 -0.91335842E-04
  0.12240571E-03  0.28447144E-04 -0.10042651E-03
  0.28984166E-03  0.40542586E-03 -0.13869902E-03
 -0.59912922E-03  0.15745496E-03  0.10100511E-03
 -0.21707404E-03 -0.30682123E-04 -0.15357674E-03
 -0.93210908E-04 -0.34695611E-03  0.12717857E-03
  0.16621895E-05  0.67535243E-04  0.47765719E-03
  0.25233942E-03  0.11373657E-03  0.19433212E-04
  0.12913239E-03 -0.33415003E-03 -0.48509780E-04
 -0.12663267E-03  0.11824356E-03  0.16623403E-03