SYSTEM = M0_rho_c_seed_2 prep: GGA ISIF=3 cell+ion relax
ENCUT  = 400
PREC   = Accurate
EDIFF  = 1.0e-6
EDIFFG = 1.0e-5
ALGO   = Fast
AMIN   = 0.01
ISMEAR = 0
SIGMA  = 0.05
IBRION = 2
NSW    = 200
ISIF   = 3
NELM   = 200
NELMIN = 4
ISYM   = 0
LREAL  = Auto
LWAVE  = .FALSE.
LCHARG = .FALSE.
NCORE  = 16
