Sn4 Se4                                 
   1.00000000000000     
     4.0696692410943376    0.0000000000000000    0.0000000000000000
     0.0000000000000000    4.0329928021551575    0.0000000000000000
     0.0000000000000000    0.0000000000000000   12.0371544722181056
   Ge   Se
     4     4
Direct
  0.2500000000000000  0.5000000000000000  0.3497773292802983
  0.7500000000000000  0.0000000000000000  0.1502226707197018
  0.2500000000000000  0.0000000000000000  0.8497773292802979
  0.7500000000000000  0.5000000000000000  0.6502226707197021
  0.2500000000000000  0.5000000000000000  0.1391439414468665
  0.7500000000000000  0.0000000000000000  0.3608560585531332
  0.2500000000000000  0.0000000000000000  0.6391439414468668
  0.7500000000000000  0.5000000000000000  0.8608560585531332
 
  0.00000000E+00  0.00000000E+00  0.00000000E+00
  0.00000000E+00  0.00000000E+00  0.00000000E+00
  0.00000000E+00  0.00000000E+00  0.00000000E+00
  0.00000000E+00  0.00000000E+00  0.00000000E+00
  0.00000000E+00  0.00000000E+00  0.00000000E+00
  0.00000000E+00  0.00000000E+00  0.00000000E+00
  0.00000000E+00  0.00000000E+00  0.00000000E+00
  0.00000000E+00  0.00000000E+00  0.00000000E+00
