Amorphous GeS                           
   1.00000000000000     
    19.2276774052841546    0.0000000000000000    0.0000000000000000
     0.0000000000000000   19.2276774052841546    0.0000000000000000
     0.0000000000000000    0.0000000000000000   19.2276774052841546
   Ge   S 
   150   150
Direct
  0.4402296860048100  0.5279828219487143  0.5838641965433893
  0.8518708644032361  0.5478003232254860  0.2644899451812216
  0.5471271769947140  0.8273020140896805  0.6309156614162134
  0.9346956583661675  0.4056347782464121  0.4885063761091795
  0.2997795065553297  0.1128833560296432  0.4254552517670996
  0.9069723467026599  0.7986696894562648  0.7412929338598516
  0.8590928420300608  0.2915930349154377  0.1871987353989163
  0.2702968728048191  0.4926290099710295  0.9629395175687649
  0.3967841503744713  0.8617089188527254  0.7445118390906131
  0.4459522186887268  0.0591336244552872  0.3486028442487731
  0.1976918713988126  0.0346128926437636  0.7281480357678057
  0.5784989005293056  0.2400303997292269  0.1906206683144341
  0.6482956003305712  0.4664885062413421  0.7674853070130223
  0.4659896704769607  0.1396144299762197  0.8131867399290296
  0.5788011691085054  0.0413929637863109  0.9355910697118204
  0.7526422270429937  0.7346648428737237  0.7036720849359613
  0.0485797037960871  0.8531468577931997  0.1665158343630432
  0.3635511751520092  0.9181872941077847  0.2080909940297790
  0.2951170940359307  0.2815982796646329  0.4815946989393984
  0.3206421768713263  0.1899838104692367  0.2495203417150520
  0.8111476630084965  0.1267319294361406  0.4614114692034867
  0.3929267136469288  0.3350093898935428  0.6195005240037008
  0.1562844741576253  0.1309026195204045  0.2243055243415588
  0.5574530803085562  0.6516073272694303  0.7147532292991596
  0.8005750911921007  0.1173024325482214  0.7245031775629843
  0.6192531011784954  0.4141660816577641  0.5873854019494390
  0.5793854541237804  0.8494007474768194  0.9926158103539505
  0.7648242079157930  0.9340386479942171  0.6712629161230234
  0.6682582655716357  0.2559641370889041  0.0306694096889284
  0.5518650823658299  0.6552403463923413  0.2579133448335523
  0.9726732433603168  0.8208364840693068  0.9561980295801266
  0.5814979910308182  0.4241011569180866  0.3034065397537303
  0.2877136772159195  0.0539617574245169  0.1094472324543837
  0.4198784211754836  0.0562813875693761  0.9550861446062727
  0.0176630038395964  0.6737154246859909  0.2918402010929853
  0.8693332528351636  0.5865274701055808  0.4024186012666672
  0.0398012294350642  0.6747477747348005  0.6856586578528684
  0.6791176385697647  0.6911539602473382  0.2853821263241696
  0.0565893245859783  0.4986044148518280  0.9461478782494299
  0.3446607071588197  0.7460600244590689  0.6058624359343517
  0.5709866248196006  0.9845953435641476  0.7533287375705925
  0.1866629351424950  0.3647415110634075  0.6138248724601391
  0.9031337445921558  0.6717368721736922  0.8379920333138950
  0.2355097740268802  0.6722338649858396  0.8801494007993204
  0.7399703458912760  0.8298406491194498  0.8879380378844046
  0.3978387843567177  0.8302521803078293  0.1034010856242580
  0.5465556792955547  0.2362121300971237  0.6651781105325344
  0.0397798144189131  0.2615820650790655  0.2458355820934827
  0.5048409499364007  0.5940078055330613  0.4081242505066993
  0.8384017309545281  0.7439643628445292  0.3303233195313305
  0.9377379677677989  0.5519027625468849  0.5936694239481437
  0.8627329217798234  0.9740342451991018  0.9391460814272498
  0.1789382468119613  0.5365152428444104  0.6974418919068828
  0.9478633327116619  0.1326848577087276  0.8891908907461484
  0.1091653120169151  0.8794834077897229  0.7649282543130239
  0.4438870965758612  0.9383001653009572  0.8815414081339101
  0.8396987305859204  0.8595586910351242  0.1895359192582637
  0.3883235113512797  0.2951609191055715  0.7995808928309337
  0.1506537518024566  0.9024558156306047  0.9407084912618529
  0.0057938532437846  0.0364383656698695  0.1566445223274767
  0.2282657967310896  0.5155911583360751  0.5641326539208409
  0.9265708310531741  0.4083749259213235  0.7933592677946627
  0.9550920152376395  0.0248504671041542  0.5782534641544286
  0.4459730110082431  0.1892319852809038  0.0000516267504966
  0.0958359657426763  0.4713494121241021  0.1289996576450239
  0.6871567636875341  0.4924686767561203 -0.0022001270641115
  0.6820285661990897  0.4631473046927262  0.4334802263440416
  0.4976694509392409  0.5095961899353233  0.8916350776815694
  0.2083349488029870  0.7516789142853424  0.4800042633057910
  0.2826919173963669  0.5678750902280520  0.1564088495802092
  0.0751859763021285  0.2111117965575235  0.0784118347899322
  0.5188802966159535  0.9503662908550108  0.1945185304811710
  0.6979994535405558  0.1732922520659973  0.3627686292143672
  0.1873895459322045  0.4068540989608349  0.8109751916538190
  0.2328645905409273  0.2797617728988647  0.3507175297631714
  0.7184229253448478  0.3234844115817423  0.2316166666336735
  0.2949276522443560  0.8365574050470784  0.8491506275357799
  0.1910155140949743  0.2046305995004572 -0.0172257198744013
  0.4900581933944096  0.1796675509685683  0.4927586011367632
  0.3081441905325685  0.0769032183723459  0.8850332564712110
  0.5872243472132764  0.7577606731647107  0.1054633499477726
  0.2858307007446248  0.3170993129764449  0.9139694444272484
  0.4709754840647880  0.9317011457497509  0.5202762513071739
  0.6306622732641473  0.0911263457696562  0.0999066970228659
  0.9377961347216293  0.1221575475664272  0.2335873217669804
  0.8349744678873208  0.5898186029106072  0.0140458285594271
  0.1516074468808020  0.6682874723067617  0.1260485265879385
  0.4364196439228369  0.7016957255311560  0.8429628706005091
  0.7058749649846182  0.6292471806382086  0.8237057333055191
  0.9115793683154133  0.8460578875093688  0.5799147351435282
  0.7458874941785321  0.1459256503893405  0.9597959110453108
  0.6078782015997467  0.9106225030738284  0.3422495356827560
  0.1787643088332837  0.4151845307558047  0.2243734471777614
  0.7119905859932746  0.5792732093825735  0.6386266399706559
  0.9693955457531572  0.7063365856584426  0.1468285149132176
  0.5903955417259268  0.3036289591664509  0.4558454348769904
  0.0000329804885165  0.3811125003586271  0.6771634559235176
  0.3720831452434302  0.3303908727608752  0.1068195532154693
  0.6023891158676343  0.5389791879848662  0.1419189263845475
  0.5868245847418627  0.3337734324963100  0.8816725017515444
  0.0085943690465494  0.0055135938138650  0.7527390184168113
  0.9763473626913017  0.2367965997490761  0.8120957504367448
  0.2613867405591307  0.6881544104250653  0.0457409721662635
  0.2913144173835573  0.7167008420844708  0.2307826605128331
  0.0622566753725691  0.2093497413797650  0.6978737607481122
  0.4009660854876342  0.4284489567324551  0.4322943750347977
  0.6638154503910835  0.7629191734942299  0.4678103076675850
  0.7537618155668190  0.9741398797655334  0.5446653966604103
  0.3512750762354958  0.4691003962974173  0.7278718889527915
  0.2961061118084532  0.1853475196167605  0.8116664645217569
  0.8583778267115204  0.2747163301768292  0.6045939301304051
  0.0461753672829690  0.8732847709209608  0.5541227363895563
  0.8677316223193046  0.2805126944953245  0.9480998333129719
  0.9503464280326206  0.9734905683495991  0.0526814159548684
  0.0013995372426324  0.5675904106054507  0.1496210701065390
  0.0973978014809481  0.0335649145058275  0.4256778296799324
  0.5720519567872963  0.3490892234161710  0.0865059706521100
  0.4783370749009940  0.6907835045944566  0.4977708059061410
  0.7561054821121221  0.6700670462965809  0.1310769987682573
  0.0881493873283271  0.5961045989275461  0.8319887069246373
  0.0730732562200898  0.3847824492456206  0.5077625946718152
  0.6600166652082533  0.0041907730187445  0.4247286311218036
  0.3149245790282633  0.9159376219458447  0.4344818459175792
  0.1183112479124853  0.1976465493616841  0.4886245594766330
  0.0835079337414022  0.4157715832953647  0.3320445464352024
  0.0934059783943075  0.6045627048619564  0.4516278791620171
  0.8884097349944984  0.9374365879776878  0.3899684417791733
  0.4310434298069040  0.8030090338484431  0.3657103285162850
  0.7094498168547884  0.0393177545166987  0.2515338308883261
  0.4754078968301148  0.7011814506657358  0.9721590503224353
  0.3841840730301126  0.4221712160535012  0.2682991587155194
  0.1938988081747918  0.9226869715729631  0.5674983127812832
  0.6521018021894026  0.2571040821905131  0.7441071777715855
  0.9477198487178913  0.3616419522425135  0.3181504709717875
  0.7046574851230885  0.5734721695915816  0.5038767786105618
  0.7986078109849784  0.2927339279873119  0.3932265930566596
  0.6623454591315361  0.6811725662595459  0.9877928757204951
  0.7955967747924382  0.5274530518908466  0.8412728751983236
  0.2302951125592865  0.8639326117052423  0.0928149899315508
  0.0089153056457594  0.6419885930250301  0.9932811484228563
  0.1154246527342844  0.0331371814404000  0.9171541884233486
  0.7748822476469970  0.2937564671733141  0.8476973805743829
  0.6583080306698355  0.1126550155515981  0.5729516954201688
  0.4288004485326222  0.5003615104864002  0.0428223989482381
  0.2711459372671657  0.0949807100451236  0.5591540426270661
  0.4432411752470753  0.1414711810040958  0.1326724794177012
  0.2899332482808963  0.5646441876777037  0.3286831522241624
  0.9573093130174055  0.4252352295190642  0.0245560659679616
  0.0949700142863322  0.8426260412081343  0.3838507693736129
  0.7058537194766517  0.9677833074181240  0.0597860209963549
  0.8719370018215725  0.1597159836665738  0.9830542859070615
  0.4183183862746012  0.8519505884987595  0.6203058965694693
  0.3247713292951778  0.7166613367433643  0.8024850867924375
  0.8887567972855426  0.2521692176697293  0.3095917016834662
  0.3086143738392098  0.9746790749168697  0.5474762079436915
  0.5973509969638274  0.5362208918626441  0.6748826626831610
  0.7001767936937513  0.8455877019753568  0.7130847775454839
  0.0524405608347155  0.9567266480290384  0.2307261571305752
  0.3237674923913977  0.3927709660969294  0.5275414633262860
  0.1499051637132786  0.6534888134036244  0.7252850879340343
  0.1404481460751979  0.5303336131648592  0.0303266566407868
  0.1148350077074698  0.3052219094235256  0.3763304752237291
  0.7130012097176707  0.1909887298163326  0.6575854432802816
  0.9023024669660853  0.6921412983865819  0.0344813892339409
  0.4805587571156588  0.2523286949245753  0.8792219899406412
  0.8342566907177645  0.0678216747330455  0.5738250561457511
  0.2353449323417046  0.7696147654517735  0.9603644823281666
  0.7040787610756989  0.4463713032860415  0.3190973115313118
  0.8300900362778297  0.8842899783617100  0.4975404962033029
  0.4718037089334831  0.4105502567841368  0.1268729160524250
  0.4354632489505411  0.2137202697329499  0.7103486901254327
  0.1919381981348848  0.7763040011211072  0.1824692762974212
  0.3733429679170460 -0.0098216501082741  0.0466801648107182
  0.1438371577037470  0.0774413110073322  0.5373297584604869
  0.4722745573428182  0.6486845995363891  0.6117799208706873
  0.2591094793429121  0.5237932974871110  0.7907903559660501
  0.9909803638029285  0.1010125413492452  0.4794711805241344
  0.2086160738650862  0.2484242493941827  0.5642107030042882
  0.8668294919692058  0.8593782521781070  0.8927800927129823
  0.6963558783586321  0.2219705278445804  0.1469682826618927
  0.8359334071175085  0.4734445868138669  0.7440037161302123
  0.8385186622076133  0.9856486270497431  0.1998828031985908
  0.8621627591660334  0.3484001818097510  0.0451402229447717
  0.8542501548593524  0.4059697821534413  0.3974427518533712
  0.9790321047478640  0.6028864875222786  0.7586006009516377
  0.1985745479709292  0.5348890694367711  0.2439870125908708
  0.0311019024421697  0.1047148142406423  0.9695175905592404
  0.6374240572379197  0.5772381463406566  0.9176263478021335
  0.6615615896014480  0.1994387441334456  0.4805488617564266
  0.8525360507402397  0.6723773024212453  0.2214286305110204
  0.3210389055423796  0.0134150059339673  0.3571775517824017
  0.4429016955856393  0.9780310277721923  0.7598625089047842
  0.5426839664932710  0.7936699701550455  0.5063014311036504
  0.6854179155117719  0.7631986451705211  0.1811093509529827
  0.0712641835171851  0.7288844707836696  0.0546450072596243
  0.9821760401492999  0.2959529585039845  0.9175372398756449
  0.0175140532746944  0.9268283855394086  0.4427255368485269
  0.0473061183542008  0.1451499484141035  0.2919824360716196
  0.8625258165175418  0.7463861955350750  0.6352669423299556
  0.3785888982152065  0.2239243907093620  0.5531690896006666
  0.4902709906006788  0.7882928858535388  0.7774513092195439
  0.9903204370092141  0.2751573426606896  0.6147781527896515
  0.1247073402806888  0.6613427488020736  0.3456160151651985
  0.6756059443791518  0.6948964579806456  0.6190845745316420
  0.0299058217907636  0.7936406180952883  0.6990559691048053
  0.1933355536773256  0.7997363098551376  0.7913580305100145
  0.1968650236541042  0.2384085286896042  0.8615233825458041
  0.7616875821980159  0.7032015083027153  0.9114800145492027
  0.0447101027864193  0.8908492156323183  0.8744648028976840
  0.7648307176573070  0.4419333372741728  0.9172675124187187
  0.4212992115323073  0.2461661363762391  0.1970265444098687
  0.8889111466543118  0.9130634446334828  0.6827431986334473
  0.6256057862525313  0.2657521952929925  0.3050200788120583
  0.3709731448034627  0.0787356221869717  0.2078972305916268
  0.9362533082823429  0.8630321747305038  0.1066706902489467
  0.4881938400661658  0.9274909611729570  0.3214958221110700
  0.1957573671644299  0.3637078503929501 -0.0090102449836529
  0.3765162975789794  0.1850594295057132  0.3644247012133086
  0.3942888473032485  0.5479250813835851  0.4683398165250269
  0.5491610002619647  0.1157099132233925  0.1917818088069986
  0.7043739162528059  0.5826535836270229  0.1991468947760371
  0.2489967063634220  0.1442476495585402  0.7114841289055700
  0.7166237780083435  0.0269863022224260  0.9454784003032504
  0.3582058170514791  0.7141905407765292  0.1218570188258583
  0.5630393230615089  0.4551870566398736  0.4309640545511965
  0.3943096216399208  0.4412421359508372  0.9372529611683378
  0.5693837741353472  0.9282426564338964  0.8788072462884677
  0.5035933939565873  0.8232542993475301  0.1733713946982854
  0.2491397592957205  0.9531175232042441  0.1800720981609754
  0.4509321299912143  0.6820879546450649  0.3197223188650118
  0.9803791821330085  0.5509262693064321  0.2708074564638724
  0.9098900799312697  0.8367393985704299  0.2916652598488928
  0.1937842185733895  0.1634507960805541  0.3862788203855580
  0.2640184327131447  0.9869211690149914  0.8194421145545504
  0.2057215990603055  0.6256064753770629  0.5078563695294853
  0.8737895596422007  0.2906265736988901  0.7683665125254043
  0.0782808506528821  0.7730992446775411  0.4859399057019830
  0.9363778314105624  0.6900740706472392  0.3901871962576359
  0.9092928597037138  0.0341587082956332  0.8362823958573486
  0.3674187272519391  0.7365320078814073  0.4834464127308472
  0.5294370310569708  0.6552301520505436  0.1390802270074359
  0.1476823834595296  0.2511484485015251  0.1812465407293439
  0.9786015351567294  0.0978217717782748  0.6740238076864487
  0.1069669326379753  0.0922758451663921  0.1149686866490406
  0.1251484362433818  0.4723317169855923  0.4353272784059345
  0.9144620196524049  0.0758312339293585  0.4086505578857035
  0.5847120118916993  0.7454277714512655  0.9172406932910138
  0.3309984892634871  0.8224833625546033  0.2852417491213071
  0.1869271210215081  0.9184741707535439  0.4382937610496478
  0.2180147851858679  0.0837402431063510  0.9667572789108765
  0.6140678099605447  0.0837740078627343  0.3411670366810346
  0.0942999807369601  0.4833488990923089  0.7721576043018487
  0.9539212619190632  0.5271350995798313  0.4696678072236040
  0.5795904681836633  0.4190668576869607  0.9798728551138620
  0.0177628159699250  0.6475146884960691  0.5771611781133271
  0.3271031624979676  0.5498632551200371  0.6351538030946210
  0.7533341554994714  0.1704820785237229  0.8407762840305648
  0.4652981530301138  0.5967398177002525  0.7879291879260002
  0.5786669549722733  0.1062227481940779  0.7892422658151684
  0.4313283265472020  0.8171947113744257  0.9876365799050852
  0.6380425536174363  0.6450642269629916  0.4332479251171638
  0.5344710162265193  0.4201832598497931  0.8055685351609706
  0.8654951176984090  0.3978497677508904  0.5853113845926000
  0.9046955425986850  0.4011596679826560  0.2156340409879330
  0.5355624667280502  0.3203866293984267  0.5746581847230515
  0.5701234043105061  0.9882217887069878  0.0546280857286026
  0.8085635509587210  0.6309810135648831  0.4948393371382624
  0.9614786554890815  0.2159672204989752  0.1514457837909965
  0.3095534582754393  0.2324761644945706  0.0027404919664366
  0.5402148884731625  0.5334970605863211  0.2520443429233134
  0.3745410732088639  0.5444381989620705  0.2327570092801172
  0.2970221477768150  0.3609855709123028  0.2066708693862697
  0.9020176491735246  0.5151826047592520  0.0956133201116834
  0.1178660532105516  0.3877149872328167  0.9212551781070354
  0.6158231474326659  0.7917526894842949  0.3517678359234318
  0.0413193160320239  0.4676587046199339  0.6021853944060778
  0.0387692214209102  0.3741299094923567  0.0946650873852594
  0.8978322015991099  0.5619280412574712  0.9030398949619998
  0.4575091297484994  0.0610544489518733  0.4746111138747122
  0.7336667016208670  0.0163471720784344  0.7488845728482815
  0.8388236217676600  0.0138420346317616  0.0959802062504041
  0.0998873960267502  0.0787675682040256  0.8044651482883257
  0.5644204740214978  0.9463916530495557  0.5930680303408552
  0.2986783315471360  0.4408816509323178  0.3618766825653662
  0.1122854784694707  0.3337102339551921  0.7123872740162867
  0.6444857380720854  0.9316428828173858  0.2279927738667767
  0.1150317383472285  0.9060749665830663  0.0619002288321891
  0.2288620813024805  0.8024736985974671  0.5911400753273673
  0.8694145144243279  0.2370243463828423  0.4811309311818316
  0.7627762822820838 -0.0092302571663146  0.3545286172232175
  0.6785381951023097  0.3704482164470492  0.6883084956094390
  0.0074474482225579  0.7150999076817286  0.8894898662485832
  0.5382690092587238  0.1335817474513250  0.6030864719312962
  0.2848542635150116  0.3595523038124695  0.6947897607508988
  0.7107098463178539  0.8499173899367647  0.0084309196430003
  0.3103721891832592  0.4709341853052192  0.0791802108905473
  0.6507906496292073  0.4041425962048658  0.1630510795310184
  0.7005368432855711  0.3622664525533057  0.4969898383679230
  0.5806634308395930  0.1693163938649330  0.0151133160189933
  0.3175539707865328  0.6172585583216539  0.9652587941970531
 
  0.00000000E+00  0.00000000E+00  0.00000000E+00
  0.00000000E+00  0.00000000E+00  0.00000000E+00
  0.00000000E+00  0.00000000E+00  0.00000000E+00
  0.00000000E+00  0.00000000E+00  0.00000000E+00
  0.00000000E+00  0.00000000E+00  0.00000000E+00
  0.00000000E+00  0.00000000E+00  0.00000000E+00
  0.00000000E+00  0.00000000E+00  0.00000000E+00
  0.00000000E+00  0.00000000E+00  0.00000000E+00
  0.00000000E+00  0.00000000E+00  0.00000000E+00
  0.00000000E+00  0.00000000E+00  0.00000000E+00
  0.00000000E+00  0.00000000E+00  0.00000000E+00
  0.00000000E+00  0.00000000E+00  0.00000000E+00
  0.00000000E+00  0.00000000E+00  0.00000000E+00
  0.00000000E+00  0.00000000E+00  0.00000000E+00
  0.00000000E+00  0.00000000E+00  0.00000000E+00
  0.00000000E+00  0.00000000E+00  0.00000000E+00
  0.00000000E+00  0.00000000E+00  0.00000000E+00
  0.00000000E+00  0.00000000E+00  0.00000000E+00
  0.00000000E+00  0.00000000E+00  0.00000000E+00
  0.00000000E+00  0.00000000E+00  0.00000000E+00
  0.00000000E+00  0.00000000E+00  0.00000000E+00
  0.00000000E+00  0.00000000E+00  0.00000000E+00
  0.00000000E+00  0.00000000E+00  0.00000000E+00
  0.00000000E+00  0.00000000E+00  0.00000000E+00
  0.00000000E+00  0.00000000E+00  0.00000000E+00
  0.00000000E+00  0.00000000E+00  0.00000000E+00
  0.00000000E+00  0.00000000E+00  0.00000000E+00
  0.00000000E+00  0.00000000E+00  0.00000000E+00
  0.00000000E+00  0.00000000E+00  0.00000000E+00
  0.00000000E+00  0.00000000E+00  0.00000000E+00
  0.00000000E+00  0.00000000E+00  0.00000000E+00
  0.00000000E+00  0.00000000E+00  0.00000000E+00
  0.00000000E+00  0.00000000E+00  0.00000000E+00
  0.00000000E+00  0.00000000E+00  0.00000000E+00
  0.00000000E+00  0.00000000E+00  0.00000000E+00
  0.00000000E+00  0.00000000E+00  0.00000000E+00
  0.00000000E+00  0.00000000E+00  0.00000000E+00
  0.00000000E+00  0.00000000E+00  0.00000000E+00
  0.00000000E+00  0.00000000E+00  0.00000000E+00
  0.00000000E+00  0.00000000E+00  0.00000000E+00
  0.00000000E+00  0.00000000E+00  0.00000000E+00
  0.00000000E+00  0.00000000E+00  0.00000000E+00
  0.00000000E+00  0.00000000E+00  0.00000000E+00
  0.00000000E+00  0.00000000E+00  0.00000000E+00
  0.00000000E+00  0.00000000E+00  0.00000000E+00
  0.00000000E+00  0.00000000E+00  0.00000000E+00
  0.00000000E+00  0.00000000E+00  0.00000000E+00
  0.00000000E+00  0.00000000E+00  0.00000000E+00
  0.00000000E+00  0.00000000E+00  0.00000000E+00
  0.00000000E+00  0.00000000E+00  0.00000000E+00
  0.00000000E+00  0.00000000E+00  0.00000000E+00
  0.00000000E+00  0.00000000E+00  0.00000000E+00
  0.00000000E+00  0.00000000E+00  0.00000000E+00
  0.00000000E+00  0.00000000E+00  0.00000000E+00
  0.00000000E+00  0.00000000E+00  0.00000000E+00
  0.00000000E+00  0.00000000E+00  0.00000000E+00
  0.00000000E+00  0.00000000E+00  0.00000000E+00
  0.00000000E+00  0.00000000E+00  0.00000000E+00
  0.00000000E+00  0.00000000E+00  0.00000000E+00
  0.00000000E+00  0.00000000E+00  0.00000000E+00
  0.00000000E+00  0.00000000E+00  0.00000000E+00
  0.00000000E+00  0.00000000E+00  0.00000000E+00
  0.00000000E+00  0.00000000E+00  0.00000000E+00
  0.00000000E+00  0.00000000E+00  0.00000000E+00
  0.00000000E+00  0.00000000E+00  0.00000000E+00
  0.00000000E+00  0.00000000E+00  0.00000000E+00
  0.00000000E+00  0.00000000E+00  0.00000000E+00
  0.00000000E+00  0.00000000E+00  0.00000000E+00
  0.00000000E+00  0.00000000E+00  0.00000000E+00
  0.00000000E+00  0.00000000E+00  0.00000000E+00
  0.00000000E+00  0.00000000E+00  0.00000000E+00
  0.00000000E+00  0.00000000E+00  0.00000000E+00
  0.00000000E+00  0.00000000E+00  0.00000000E+00
  0.00000000E+00  0.00000000E+00  0.00000000E+00
  0.00000000E+00  0.00000000E+00  0.00000000E+00
  0.00000000E+00  0.00000000E+00  0.00000000E+00
  0.00000000E+00  0.00000000E+00  0.00000000E+00
  0.00000000E+00  0.00000000E+00  0.00000000E+00
  0.00000000E+00  0.00000000E+00  0.00000000E+00
  0.00000000E+00  0.00000000E+00  0.00000000E+00
  0.00000000E+00  0.00000000E+00  0.00000000E+00
  0.00000000E+00  0.00000000E+00  0.00000000E+00
  0.00000000E+00  0.00000000E+00  0.00000000E+00
  0.00000000E+00  0.00000000E+00  0.00000000E+00
  0.00000000E+00  0.00000000E+00  0.00000000E+00
  0.00000000E+00  0.00000000E+00  0.00000000E+00
  0.00000000E+00  0.00000000E+00  0.00000000E+00
  0.00000000E+00  0.00000000E+00  0.00000000E+00
  0.00000000E+00  0.00000000E+00  0.00000000E+00
  0.00000000E+00  0.00000000E+00  0.00000000E+00
  0.00000000E+00  0.00000000E+00  0.00000000E+00
  0.00000000E+00  0.00000000E+00  0.00000000E+00
  0.00000000E+00  0.00000000E+00  0.00000000E+00
  0.00000000E+00  0.00000000E+00  0.00000000E+00
  0.00000000E+00  0.00000000E+00  0.00000000E+00
  0.00000000E+00  0.00000000E+00  0.00000000E+00
  0.00000000E+00  0.00000000E+00  0.00000000E+00
  0.00000000E+00  0.00000000E+00  0.00000000E+00
  0.00000000E+00  0.00000000E+00  0.00000000E+00
  0.00000000E+00  0.00000000E+00  0.00000000E+00
  0.00000000E+00  0.00000000E+00  0.00000000E+00
  0.00000000E+00  0.00000000E+00  0.00000000E+00
  0.00000000E+00  0.00000000E+00  0.00000000E+00
  0.00000000E+00  0.00000000E+00  0.00000000E+00
  0.00000000E+00  0.00000000E+00  0.00000000E+00
  0.00000000E+00  0.00000000E+00  0.00000000E+00
  0.00000000E+00  0.00000000E+00  0.00000000E+00
  0.00000000E+00  0.00000000E+00  0.00000000E+00
  0.00000000E+00  0.00000000E+00  0.00000000E+00
  0.00000000E+00  0.00000000E+00  0.00000000E+00
  0.00000000E+00  0.00000000E+00  0.00000000E+00
  0.00000000E+00  0.00000000E+00  0.00000000E+00
  0.00000000E+00  0.00000000E+00  0.00000000E+00
  0.00000000E+00  0.00000000E+00  0.00000000E+00
  0.00000000E+00  0.00000000E+00  0.00000000E+00
  0.00000000E+00  0.00000000E+00  0.00000000E+00
  0.00000000E+00  0.00000000E+00  0.00000000E+00
  0.00000000E+00  0.00000000E+00  0.00000000E+00
  0.00000000E+00  0.00000000E+00  0.00000000E+00
  0.00000000E+00  0.00000000E+00  0.00000000E+00
  0.00000000E+00  0.00000000E+00  0.00000000E+00
  0.00000000E+00  0.00000000E+00  0.00000000E+00
  0.00000000E+00  0.00000000E+00  0.00000000E+00
  0.00000000E+00  0.00000000E+00  0.00000000E+00
  0.00000000E+00  0.00000000E+00  0.00000000E+00
  0.00000000E+00  0.00000000E+00  0.00000000E+00
  0.00000000E+00  0.00000000E+00  0.00000000E+00
  0.00000000E+00  0.00000000E+00  0.00000000E+00
  0.00000000E+00  0.00000000E+00  0.00000000E+00
  0.00000000E+00  0.00000000E+00  0.00000000E+00
  0.00000000E+00  0.00000000E+00  0.00000000E+00
  0.00000000E+00  0.00000000E+00  0.00000000E+00
  0.00000000E+00  0.00000000E+00  0.00000000E+00
  0.00000000E+00  0.00000000E+00  0.00000000E+00
  0.00000000E+00  0.00000000E+00  0.00000000E+00
  0.00000000E+00  0.00000000E+00  0.00000000E+00
  0.00000000E+00  0.00000000E+00  0.00000000E+00
  0.00000000E+00  0.00000000E+00  0.00000000E+00
  0.00000000E+00  0.00000000E+00  0.00000000E+00
  0.00000000E+00  0.00000000E+00  0.00000000E+00
  0.00000000E+00  0.00000000E+00  0.00000000E+00
  0.00000000E+00  0.00000000E+00  0.00000000E+00
  0.00000000E+00  0.00000000E+00  0.00000000E+00
  0.00000000E+00  0.00000000E+00  0.00000000E+00
  0.00000000E+00  0.00000000E+00  0.00000000E+00
  0.00000000E+00  0.00000000E+00  0.00000000E+00
  0.00000000E+00  0.00000000E+00  0.00000000E+00
  0.00000000E+00  0.00000000E+00  0.00000000E+00
  0.00000000E+00  0.00000000E+00  0.00000000E+00
  0.00000000E+00  0.00000000E+00  0.00000000E+00
  0.00000000E+00  0.00000000E+00  0.00000000E+00
  0.00000000E+00  0.00000000E+00  0.00000000E+00
  0.00000000E+00  0.00000000E+00  0.00000000E+00
  0.00000000E+00  0.00000000E+00  0.00000000E+00
  0.00000000E+00  0.00000000E+00  0.00000000E+00
  0.00000000E+00  0.00000000E+00  0.00000000E+00
  0.00000000E+00  0.00000000E+00  0.00000000E+00
  0.00000000E+00  0.00000000E+00  0.00000000E+00
  0.00000000E+00  0.00000000E+00  0.00000000E+00
  0.00000000E+00  0.00000000E+00  0.00000000E+00
  0.00000000E+00  0.00000000E+00  0.00000000E+00
  0.00000000E+00  0.00000000E+00  0.00000000E+00
  0.00000000E+00  0.00000000E+00  0.00000000E+00
  0.00000000E+00  0.00000000E+00  0.00000000E+00
  0.00000000E+00  0.00000000E+00  0.00000000E+00
  0.00000000E+00  0.00000000E+00  0.00000000E+00
  0.00000000E+00  0.00000000E+00  0.00000000E+00
  0.00000000E+00  0.00000000E+00  0.00000000E+00
  0.00000000E+00  0.00000000E+00  0.00000000E+00
  0.00000000E+00  0.00000000E+00  0.00000000E+00
  0.00000000E+00  0.00000000E+00  0.00000000E+00
  0.00000000E+00  0.00000000E+00  0.00000000E+00
  0.00000000E+00  0.00000000E+00  0.00000000E+00
  0.00000000E+00  0.00000000E+00  0.00000000E+00
  0.00000000E+00  0.00000000E+00  0.00000000E+00
  0.00000000E+00  0.00000000E+00  0.00000000E+00
  0.00000000E+00  0.00000000E+00  0.00000000E+00
  0.00000000E+00  0.00000000E+00  0.00000000E+00
  0.00000000E+00  0.00000000E+00  0.00000000E+00
  0.00000000E+00  0.00000000E+00  0.00000000E+00
  0.00000000E+00  0.00000000E+00  0.00000000E+00
  0.00000000E+00  0.00000000E+00  0.00000000E+00
  0.00000000E+00  0.00000000E+00  0.00000000E+00
  0.00000000E+00  0.00000000E+00  0.00000000E+00
  0.00000000E+00  0.00000000E+00  0.00000000E+00
  0.00000000E+00  0.00000000E+00  0.00000000E+00
  0.00000000E+00  0.00000000E+00  0.00000000E+00
  0.00000000E+00  0.00000000E+00  0.00000000E+00
  0.00000000E+00  0.00000000E+00  0.00000000E+00
  0.00000000E+00  0.00000000E+00  0.00000000E+00
  0.00000000E+00  0.00000000E+00  0.00000000E+00
  0.00000000E+00  0.00000000E+00  0.00000000E+00
  0.00000000E+00  0.00000000E+00  0.00000000E+00
  0.00000000E+00  0.00000000E+00  0.00000000E+00
  0.00000000E+00  0.00000000E+00  0.00000000E+00
  0.00000000E+00  0.00000000E+00  0.00000000E+00
  0.00000000E+00  0.00000000E+00  0.00000000E+00
  0.00000000E+00  0.00000000E+00  0.00000000E+00
  0.00000000E+00  0.00000000E+00  0.00000000E+00
  0.00000000E+00  0.00000000E+00  0.00000000E+00
  0.00000000E+00  0.00000000E+00  0.00000000E+00
  0.00000000E+00  0.00000000E+00  0.00000000E+00
  0.00000000E+00  0.00000000E+00  0.00000000E+00
  0.00000000E+00  0.00000000E+00  0.00000000E+00
  0.00000000E+00  0.00000000E+00  0.00000000E+00
  0.00000000E+00  0.00000000E+00  0.00000000E+00
  0.00000000E+00  0.00000000E+00  0.00000000E+00
  0.00000000E+00  0.00000000E+00  0.00000000E+00
  0.00000000E+00  0.00000000E+00  0.00000000E+00
  0.00000000E+00  0.00000000E+00  0.00000000E+00
  0.00000000E+00  0.00000000E+00  0.00000000E+00
  0.00000000E+00  0.00000000E+00  0.00000000E+00
  0.00000000E+00  0.00000000E+00  0.00000000E+00
  0.00000000E+00  0.00000000E+00  0.00000000E+00
  0.00000000E+00  0.00000000E+00  0.00000000E+00
  0.00000000E+00  0.00000000E+00  0.00000000E+00
  0.00000000E+00  0.00000000E+00  0.00000000E+00
  0.00000000E+00  0.00000000E+00  0.00000000E+00
  0.00000000E+00  0.00000000E+00  0.00000000E+00
  0.00000000E+00  0.00000000E+00  0.00000000E+00
  0.00000000E+00  0.00000000E+00  0.00000000E+00
  0.00000000E+00  0.00000000E+00  0.00000000E+00
  0.00000000E+00  0.00000000E+00  0.00000000E+00
  0.00000000E+00  0.00000000E+00  0.00000000E+00
  0.00000000E+00  0.00000000E+00  0.00000000E+00
  0.00000000E+00  0.00000000E+00  0.00000000E+00
  0.00000000E+00  0.00000000E+00  0.00000000E+00
  0.00000000E+00  0.00000000E+00  0.00000000E+00
  0.00000000E+00  0.00000000E+00  0.00000000E+00
  0.00000000E+00  0.00000000E+00  0.00000000E+00
  0.00000000E+00  0.00000000E+00  0.00000000E+00
  0.00000000E+00  0.00000000E+00  0.00000000E+00