I4 Pb, 2(C8 H12 N)                      
   1.00000000000000     
     8.7669285691638663    0.0000000000000000    0.0000000000000000
     0.0000000000000000    9.3310172359347376    0.0000000000000000
     0.0000000000000000    0.0000000000000000   27.7906003247643199
   C    H    N    Pb   I 
    64    96     8     4    16
Direct
  0.8928521645533327  0.4287786783841292  0.1739106252732371
  0.6071478354466673  0.5712213216158710  0.6739106552732379
  0.1071478354466658  0.9287786783841290  0.3260893747267627
  0.3928521645533341  0.0712213216158709  0.8260893447267620
  0.7937173391264231  0.3387901569061906  0.1993519018397978
  0.7062826608735769  0.6612098130938069  0.6993519018397987
  0.2062826608735756  0.8387901869061931  0.3006480981602021
  0.2937173391264246  0.1612098430938090  0.8006480981602013
  0.8160737754967116  0.3127978590031325  0.2482747853325885
  0.6839262245032884  0.6872021409968668  0.7482747703325889
  0.1839262245032880  0.8127978590031332  0.2517252296674091
  0.3160737754967132  0.1872021409968672  0.7517252296674111
  0.9380745834238939  0.3761234968650240  0.2723801966040451
  0.5619254165761061  0.6238765031349742  0.7723801966040449
  0.0619254165761076  0.8761234968650258  0.2276198033959544
  0.4380745834238922  0.1238765031349752  0.7276198033959551
  0.0381784150346861  0.4651175556742189  0.2472749087829285
  0.4618215849653140  0.5348824443257817  0.7472749237829255
  0.9618215849653132  0.9651175556742183  0.2527250762170734
  0.5381784150346870  0.0348824443257813  0.7527250762170745
  0.0160734871563945  0.4910160058912245  0.1983382136165905
  0.4839265128436055  0.5089840241087789  0.6983382436165865
 -0.0160734871563946  0.9910159758912211  0.3016617863834101
  0.5160734871563949  0.0089839941087753  0.8016617563834135
  0.8603151431241798  0.4645648484266210  0.1217931912077090
  0.6396848568758202  0.5354351805733791  0.6217931612077064
  0.1396848568758205  0.9645648194266209  0.3782068087922913
  0.3603151431241793  0.0354351515733795  0.8782068387922936
  0.8473792939931895  0.6243624204688775  0.1117382469586480
  0.6526207060068105  0.3756375795311235  0.6117382469586453
  0.1526207060068099  0.1243624204688764  0.3882617530413521
  0.3473792939931907  0.8756375795311225  0.8882617530413547
  0.4476854451267535  0.0277902774579883  0.1711392144640728
  0.0523145548732465  0.9722097235420147  0.6711392144640735
  0.5523145848732488  0.5277902764579853  0.3288607855359271
  0.9476854151267512  0.4722097235420151  0.8288607855359265
  0.3316681180780191  0.1216997724026208  0.1856857819116261
  0.1683318819219810  0.8783002575973820  0.6856857819116263
  0.6683318819219801  0.6216997424026180  0.3143142180883739
  0.8316681180780199  0.3783002275973794  0.8143142180883737
  0.3225277087033745  0.1670691950574889  0.2333634555653578
  0.1774722912966256  0.8329308199425076  0.7333634555653582
  0.6774722912966259  0.6670691800574925  0.2666365444346410
  0.8225277087033740  0.3329308199425087  0.7666365444346418
  0.4279846915772315  0.1176464029007469  0.2671462554505519
  0.0720153084227695  0.8823536190992555  0.7671462854505545
  0.5720152794227713  0.6176463809007445  0.2328537445494481
  0.9279847205772287  0.3823535890992528  0.7328537145494455
  0.5437539830697868  0.0244222993492573  0.2530514718360188
  0.9562460169302132  0.9755777006507422  0.7530514568360215
  0.4562460169302122  0.5244222993492578  0.2469485431639791
  0.0437539830697882  0.4755777006507420  0.7469485431639785
  0.5543320449244100  0.9811578886267948  0.2051178394127798
  0.9456679550755900  0.0188420923732068  0.7051178684127853
  0.4456679550755904  0.4811579186267984  0.2948821605872203
  0.0543320449244090  0.5188421113732052  0.7948821315872147
  0.4542914430969182  0.9698189784912584  0.1204322116398366
  0.0457085569030817  0.0301810105087427  0.6204321896398353
  0.5457085269030786  0.4698189784912606  0.3795677803601696
  0.9542914730969214  0.5301810215087416  0.8795678103601647
  0.3098300685580657  0.8933641614275409  0.1046705773335291
  0.1901699314419341  0.1066358525724588  0.6046705773335295
  0.6901699314419338  0.3933641614275423  0.3953294226664713
  0.8098300685580662  0.6066358385724591  0.8953294226664705
  0.6961009996597618  0.2909865003589436  0.1809585538126871
  0.8038990003402382  0.7090135296410528  0.6809585688126925
  0.3038990003402384  0.7909864703589471  0.3190414311873084
  0.1961009996597616  0.2090134996410566  0.8190414311873075
  0.7353554887729079  0.2450418730871285  0.2675694445537461
  0.7646445112270921  0.7549581269128712  0.7675694735537439
  0.2646445112270933  0.7450418730871288  0.2324305554462552
  0.2353554887729070  0.2549581269128716  0.7324305264462561
  0.9545735566872103  0.3586722816907229  0.3108634687394640
  0.5454264433127897  0.6413277183092780  0.8108634387394612
  0.0454264433127900  0.8586722816907220  0.1891365312605358
  0.4545735566872104  0.1413277183092777  0.6891365612605388
  0.1316186078607736  0.5175801643488217  0.2662122638333272
  0.3683813921392266  0.4824198356511791  0.7662122638333276
  0.8683813921392274  0.0175801643488215  0.2337877361666722
  0.6316186078607726 -0.0175801643488215  0.7337877361666724
  0.0943479895578525  0.5623337946990214  0.1792788805834080
  0.4056520104421470  0.4376662053009772  0.6792788655834030
  0.9056520104421484  0.0623337946990234  0.3207211344165957
  0.5943479895578516  0.9376662053009786  0.8207211344165970
  0.7536974579360736  0.4116487452371210  0.1107673582197190
  0.7463025420639264  0.5883512547628795  0.6107673432197209
  0.2463025420639255  0.9116487452371205  0.3892326567802785
  0.2536974579360738  0.0883512547628801  0.8892326567802791
  0.8131612290222937  0.6447911644033347  0.0743187714872885
  0.6868387709777063  0.3552088355966664  0.5743187784872865
  0.1868387709777061  0.1447911644033332  0.4256812215127145
  0.3131612290222944  0.8552088355966653  0.9256812215127135
  0.9550840623100720  0.6810714361056422  0.1184198576286494
  0.5449159376899280  0.3189285638943603  0.6184198726286473
  0.0449159376899279  0.1810714361056406  0.3815801273713524
  0.4550840623100720  0.8189285638943578  0.8815801273713527
  0.7597473161011867  0.6705684435166184  0.1352490286936672
  0.7402526838988133  0.3294315564833810  0.6352489986936720
  0.2402526838988130  0.1705684435166183  0.3647509713063338
  0.2597473161011868  0.8294315564833816  0.8647510013063280
  0.2456594155467762  0.1578157640462175  0.1599508816782406
  0.2543405844532245  0.8421842209537842  0.6599508516782389
  0.7543405544532278  0.6578157790462158  0.3400491183217609
  0.7456594455467722  0.3421842209537845  0.8400491483217611
  0.2301507008138643  0.2383856262684257  0.2441992863435623
  0.2698492991861364  0.7616144027315741  0.7441992863435622
  0.7698492991861358  0.7383855972684259  0.2558007136564383
  0.7301507008138642  0.2616143737315743  0.7558007136564378
  0.4198965892186471  0.1500990913493025  0.3047598414509091
  0.0801034107813524  0.8499008936507000  0.8047598414509104
  0.5801034107813512  0.6500991063493000  0.1952401585490906
  0.9198965892186488  0.3499008936507006  0.6952401585490896
  0.6244214679287694  0.9836146495008556  0.2796231656702143
  0.8755785320712306  0.0163853804991471  0.7796231656702156
  0.3755785320712310  0.4836146195008524  0.2203768343297850
  0.1244214679287694  0.5163853504991444  0.7203768343297844
  0.6453220446139890  0.9087637800725777  0.1937948874923388
  0.8546779553860110  0.0912362269274253  0.6937948724923425
  0.3546779553860116  0.4087637800725785  0.3062051275076585
  0.1453220446139887  0.5912362199274223  0.8062051275076575
  0.5520692267429441  0.8964295659508346  0.1172420176549103
  0.9479307732570559  0.1035704570491639  0.6172420326549081
  0.4479307732570556  0.3964295359508387  0.3827579673450917
  0.0520692267429437  0.6035704340491654  0.8827579673450919
  0.3211778296397483  0.8509033538712300  0.0679778243013281
  0.1788221703602520  0.1490966311287705  0.5679778093013305
  0.6788222003602536  0.3509033538712319  0.4320221906986703
  0.8211777996397464  0.6490966461287700  0.9320221906986695
  0.2096480609961328  0.9639145892010000  0.1057867855068419
  0.2903519240038699  0.0360853827989955  0.6057868085068396
  0.7903519240038699  0.4639146192010052  0.3942132214931543
  0.7096480759961301  0.5360854107990000  0.8942131914931604
  0.2894323321069762  0.8018435417372796  0.1286385725748413
  0.2105676678930240  0.1981564582627202  0.6286385945748361
  0.7105676378930200  0.3018435417372802  0.3713614354251589
  0.7894323621069800  0.6981564582627204  0.8713614054251639
  0.9679956795152863  0.4358153546238983  0.0543406235765583
  0.5320043204847137  0.5641846153760987  0.5543406385765626
  0.0320043204847120  0.9358153846239013  0.4456593614234368
  0.4679956795152885  0.0641846453761005  0.9456593614234374
  0.9732729393603229  0.2885693558766182  0.0894685258645334
  0.5267270606396771  0.7114306141233799  0.5894685408645367
  0.0267270606396785  0.7885693858766201  0.4105314591354615
  0.4732729393603200  0.2114306441233814  0.9105314591354633
  0.0921499220633401  0.4295147739388551  0.0992007771635167
  0.4078500779366601  0.5704852260611459  0.5992007621635186
  0.9078500779366603  0.9295147739388541  0.4007992378364810
  0.5921499220633397  0.0704852260611445  0.9007992378364814
  0.6039230452192966  0.1215118121263243  0.0902492619987921
  0.8960769547807034  0.8784881878736758  0.5902492469987951
  0.3960769547807039  0.6215118121263242  0.4097507530012059
  0.1039230452192964  0.3784881878736768  0.9097507530012049
  0.4208232640657523  0.1771923058594521  0.0876241963544440
  0.0791767359342472  0.8228076791405432  0.5876241823544416
  0.5791767359342477  0.6771923208594568  0.4123758176455577
  0.9208232640657523  0.3228076791405426  0.9123758176455584
  0.4891924014168161  0.0473583380756371  0.0503684842778731
  0.0108075985831836  0.9526416389243634  0.5503684622778710
  0.5108076285831856  0.5473583610756366  0.4496315077221331
 -0.0108076285831861  0.4526416689243601  0.9496315377221290
  0.9809799002645870  0.4007395050546557  0.0895067364153619
  0.5190200997354130  0.5992604949453445  0.5895067214153650
  0.0190200997354127  0.9007395050546555  0.4104932785846366
  0.4809799002645875  0.0992604949453443  0.9104932785846350
  0.4915303988435284  0.0879952129720487  0.0852845297194096
  0.0084696011564716  0.9120048090279450  0.5852845297194103
  0.5084696011564709  0.5879951909720550  0.4147154702805902
  0.9915303988435291  0.4120047790279507  0.9147154702805897
  0.8915017531056670  0.0179837591783923  0.9984084292211408
  0.6084982468943330 -0.0179837591783922  0.4984084292211428
  0.1084982468943335  0.5179837591783921  0.5015915707788592
  0.3915017531056667  0.4820162408216074  0.0015915627788574
  0.8870325229849587  0.0312143725690025  0.0939995954605151
  0.6129674770150413  0.9687856274309979  0.5939995874605147
  0.1129674770150423  0.5312143725690021  0.4060004125394867
  0.3870325229849572  0.4687856274309976  0.9060004125394853
  0.1516349394551449  0.1638943782909724 -0.0011498529506467
  0.3483650605448544  0.8361056217090282  0.4988501610493475
  0.8483650605448554  0.6638943782909718  0.5011498389506519
  0.6516349394551446  0.3361056217090280  0.0011498389506527
  0.1415593316426383  0.6450853783055273  0.0014231328925225
  0.3584406683573622  0.3549146216944741  0.5014231428925228
  0.8584406683573618  0.1450853783055263  0.4985768571074767
  0.6415593316426382  0.8549146216944727 -0.0014231428925232
  0.8868829479884454  0.0298968508467997  0.9027343569930579
  0.6131170520115546  0.9701031491531998  0.4027343269930545
  0.1131170520115539  0.5298968508468002  0.5972656430069421
  0.3868829479884461  0.4701031491532007  0.0972656650069442
 
  0.00000000E+00  0.00000000E+00  0.00000000E+00
  0.00000000E+00  0.00000000E+00  0.00000000E+00
  0.00000000E+00  0.00000000E+00  0.00000000E+00
  0.00000000E+00  0.00000000E+00  0.00000000E+00
  0.00000000E+00  0.00000000E+00  0.00000000E+00
  0.00000000E+00  0.00000000E+00  0.00000000E+00
  0.00000000E+00  0.00000000E+00  0.00000000E+00
  0.00000000E+00  0.00000000E+00  0.00000000E+00
  0.00000000E+00  0.00000000E+00  0.00000000E+00
  0.00000000E+00  0.00000000E+00  0.00000000E+00
  0.00000000E+00  0.00000000E+00  0.00000000E+00
  0.00000000E+00  0.00000000E+00  0.00000000E+00
  0.00000000E+00  0.00000000E+00  0.00000000E+00
  0.00000000E+00  0.00000000E+00  0.00000000E+00
  0.00000000E+00  0.00000000E+00  0.00000000E+00
  0.00000000E+00  0.00000000E+00  0.00000000E+00
  0.00000000E+00  0.00000000E+00  0.00000000E+00
  0.00000000E+00  0.00000000E+00  0.00000000E+00
  0.00000000E+00  0.00000000E+00  0.00000000E+00
  0.00000000E+00  0.00000000E+00  0.00000000E+00
  0.00000000E+00  0.00000000E+00  0.00000000E+00
  0.00000000E+00  0.00000000E+00  0.00000000E+00
  0.00000000E+00  0.00000000E+00  0.00000000E+00
  0.00000000E+00  0.00000000E+00  0.00000000E+00
  0.00000000E+00  0.00000000E+00  0.00000000E+00
  0.00000000E+00  0.00000000E+00  0.00000000E+00
  0.00000000E+00  0.00000000E+00  0.00000000E+00
  0.00000000E+00  0.00000000E+00  0.00000000E+00
  0.00000000E+00  0.00000000E+00  0.00000000E+00
  0.00000000E+00  0.00000000E+00  0.00000000E+00
  0.00000000E+00  0.00000000E+00  0.00000000E+00
  0.00000000E+00  0.00000000E+00  0.00000000E+00
  0.00000000E+00  0.00000000E+00  0.00000000E+00
  0.00000000E+00  0.00000000E+00  0.00000000E+00
  0.00000000E+00  0.00000000E+00  0.00000000E+00
  0.00000000E+00  0.00000000E+00  0.00000000E+00
  0.00000000E+00  0.00000000E+00  0.00000000E+00
  0.00000000E+00  0.00000000E+00  0.00000000E+00
  0.00000000E+00  0.00000000E+00  0.00000000E+00
  0.00000000E+00  0.00000000E+00  0.00000000E+00
  0.00000000E+00  0.00000000E+00  0.00000000E+00
  0.00000000E+00  0.00000000E+00  0.00000000E+00
  0.00000000E+00  0.00000000E+00  0.00000000E+00
  0.00000000E+00  0.00000000E+00  0.00000000E+00
  0.00000000E+00  0.00000000E+00  0.00000000E+00
  0.00000000E+00  0.00000000E+00  0.00000000E+00
  0.00000000E+00  0.00000000E+00  0.00000000E+00
  0.00000000E+00  0.00000000E+00  0.00000000E+00
  0.00000000E+00  0.00000000E+00  0.00000000E+00
  0.00000000E+00  0.00000000E+00  0.00000000E+00
  0.00000000E+00  0.00000000E+00  0.00000000E+00
  0.00000000E+00  0.00000000E+00  0.00000000E+00
  0.00000000E+00  0.00000000E+00  0.00000000E+00
  0.00000000E+00  0.00000000E+00  0.00000000E+00
  0.00000000E+00  0.00000000E+00  0.00000000E+00
  0.00000000E+00  0.00000000E+00  0.00000000E+00
  0.00000000E+00  0.00000000E+00  0.00000000E+00
  0.00000000E+00  0.00000000E+00  0.00000000E+00
  0.00000000E+00  0.00000000E+00  0.00000000E+00
  0.00000000E+00  0.00000000E+00  0.00000000E+00
  0.00000000E+00  0.00000000E+00  0.00000000E+00
  0.00000000E+00  0.00000000E+00  0.00000000E+00
  0.00000000E+00  0.00000000E+00  0.00000000E+00
  0.00000000E+00  0.00000000E+00  0.00000000E+00
  0.00000000E+00  0.00000000E+00  0.00000000E+00
  0.00000000E+00  0.00000000E+00  0.00000000E+00
  0.00000000E+00  0.00000000E+00  0.00000000E+00
  0.00000000E+00  0.00000000E+00  0.00000000E+00
  0.00000000E+00  0.00000000E+00  0.00000000E+00
  0.00000000E+00  0.00000000E+00  0.00000000E+00
  0.00000000E+00  0.00000000E+00  0.00000000E+00
  0.00000000E+00  0.00000000E+00  0.00000000E+00
  0.00000000E+00  0.00000000E+00  0.00000000E+00
  0.00000000E+00  0.00000000E+00  0.00000000E+00
  0.00000000E+00  0.00000000E+00  0.00000000E+00
  0.00000000E+00  0.00000000E+00  0.00000000E+00
  0.00000000E+00  0.00000000E+00  0.00000000E+00
  0.00000000E+00  0.00000000E+00  0.00000000E+00
  0.00000000E+00  0.00000000E+00  0.00000000E+00
  0.00000000E+00  0.00000000E+00  0.00000000E+00
  0.00000000E+00  0.00000000E+00  0.00000000E+00
  0.00000000E+00  0.00000000E+00  0.00000000E+00
  0.00000000E+00  0.00000000E+00  0.00000000E+00
  0.00000000E+00  0.00000000E+00  0.00000000E+00
  0.00000000E+00  0.00000000E+00  0.00000000E+00
  0.00000000E+00  0.00000000E+00  0.00000000E+00
  0.00000000E+00  0.00000000E+00  0.00000000E+00
  0.00000000E+00  0.00000000E+00  0.00000000E+00
  0.00000000E+00  0.00000000E+00  0.00000000E+00
  0.00000000E+00  0.00000000E+00  0.00000000E+00
  0.00000000E+00  0.00000000E+00  0.00000000E+00
  0.00000000E+00  0.00000000E+00  0.00000000E+00
  0.00000000E+00  0.00000000E+00  0.00000000E+00
  0.00000000E+00  0.00000000E+00  0.00000000E+00
  0.00000000E+00  0.00000000E+00  0.00000000E+00
  0.00000000E+00  0.00000000E+00  0.00000000E+00
  0.00000000E+00  0.00000000E+00  0.00000000E+00
  0.00000000E+00  0.00000000E+00  0.00000000E+00
  0.00000000E+00  0.00000000E+00  0.00000000E+00
  0.00000000E+00  0.00000000E+00  0.00000000E+00
  0.00000000E+00  0.00000000E+00  0.00000000E+00
  0.00000000E+00  0.00000000E+00  0.00000000E+00
  0.00000000E+00  0.00000000E+00  0.00000000E+00
  0.00000000E+00  0.00000000E+00  0.00000000E+00
  0.00000000E+00  0.00000000E+00  0.00000000E+00
  0.00000000E+00  0.00000000E+00  0.00000000E+00
  0.00000000E+00  0.00000000E+00  0.00000000E+00
  0.00000000E+00  0.00000000E+00  0.00000000E+00
  0.00000000E+00  0.00000000E+00  0.00000000E+00
  0.00000000E+00  0.00000000E+00  0.00000000E+00
  0.00000000E+00  0.00000000E+00  0.00000000E+00
  0.00000000E+00  0.00000000E+00  0.00000000E+00
  0.00000000E+00  0.00000000E+00  0.00000000E+00
  0.00000000E+00  0.00000000E+00  0.00000000E+00
  0.00000000E+00  0.00000000E+00  0.00000000E+00
  0.00000000E+00  0.00000000E+00  0.00000000E+00
  0.00000000E+00  0.00000000E+00  0.00000000E+00
  0.00000000E+00  0.00000000E+00  0.00000000E+00
  0.00000000E+00  0.00000000E+00  0.00000000E+00
  0.00000000E+00  0.00000000E+00  0.00000000E+00
  0.00000000E+00  0.00000000E+00  0.00000000E+00
  0.00000000E+00  0.00000000E+00  0.00000000E+00
  0.00000000E+00  0.00000000E+00  0.00000000E+00
  0.00000000E+00  0.00000000E+00  0.00000000E+00
  0.00000000E+00  0.00000000E+00  0.00000000E+00
  0.00000000E+00  0.00000000E+00  0.00000000E+00
  0.00000000E+00  0.00000000E+00  0.00000000E+00
  0.00000000E+00  0.00000000E+00  0.00000000E+00
  0.00000000E+00  0.00000000E+00  0.00000000E+00
  0.00000000E+00  0.00000000E+00  0.00000000E+00
  0.00000000E+00  0.00000000E+00  0.00000000E+00
  0.00000000E+00  0.00000000E+00  0.00000000E+00
  0.00000000E+00  0.00000000E+00  0.00000000E+00
  0.00000000E+00  0.00000000E+00  0.00000000E+00
  0.00000000E+00  0.00000000E+00  0.00000000E+00
  0.00000000E+00  0.00000000E+00  0.00000000E+00
  0.00000000E+00  0.00000000E+00  0.00000000E+00
  0.00000000E+00  0.00000000E+00  0.00000000E+00
  0.00000000E+00  0.00000000E+00  0.00000000E+00
  0.00000000E+00  0.00000000E+00  0.00000000E+00
  0.00000000E+00  0.00000000E+00  0.00000000E+00
  0.00000000E+00  0.00000000E+00  0.00000000E+00
  0.00000000E+00  0.00000000E+00  0.00000000E+00
  0.00000000E+00  0.00000000E+00  0.00000000E+00
  0.00000000E+00  0.00000000E+00  0.00000000E+00
  0.00000000E+00  0.00000000E+00  0.00000000E+00
  0.00000000E+00  0.00000000E+00  0.00000000E+00
  0.00000000E+00  0.00000000E+00  0.00000000E+00
  0.00000000E+00  0.00000000E+00  0.00000000E+00
  0.00000000E+00  0.00000000E+00  0.00000000E+00
  0.00000000E+00  0.00000000E+00  0.00000000E+00
  0.00000000E+00  0.00000000E+00  0.00000000E+00
  0.00000000E+00  0.00000000E+00  0.00000000E+00
  0.00000000E+00  0.00000000E+00  0.00000000E+00
  0.00000000E+00  0.00000000E+00  0.00000000E+00
  0.00000000E+00  0.00000000E+00  0.00000000E+00
  0.00000000E+00  0.00000000E+00  0.00000000E+00
  0.00000000E+00  0.00000000E+00  0.00000000E+00
  0.00000000E+00  0.00000000E+00  0.00000000E+00
  0.00000000E+00  0.00000000E+00  0.00000000E+00
  0.00000000E+00  0.00000000E+00  0.00000000E+00
  0.00000000E+00  0.00000000E+00  0.00000000E+00
  0.00000000E+00  0.00000000E+00  0.00000000E+00
  0.00000000E+00  0.00000000E+00  0.00000000E+00
  0.00000000E+00  0.00000000E+00  0.00000000E+00
  0.00000000E+00  0.00000000E+00  0.00000000E+00
  0.00000000E+00  0.00000000E+00  0.00000000E+00
  0.00000000E+00  0.00000000E+00  0.00000000E+00
  0.00000000E+00  0.00000000E+00  0.00000000E+00
  0.00000000E+00  0.00000000E+00  0.00000000E+00
  0.00000000E+00  0.00000000E+00  0.00000000E+00
  0.00000000E+00  0.00000000E+00  0.00000000E+00
  0.00000000E+00  0.00000000E+00  0.00000000E+00
  0.00000000E+00  0.00000000E+00  0.00000000E+00
  0.00000000E+00  0.00000000E+00  0.00000000E+00
  0.00000000E+00  0.00000000E+00  0.00000000E+00
  0.00000000E+00  0.00000000E+00  0.00000000E+00
  0.00000000E+00  0.00000000E+00  0.00000000E+00
  0.00000000E+00  0.00000000E+00  0.00000000E+00
  0.00000000E+00  0.00000000E+00  0.00000000E+00
  0.00000000E+00  0.00000000E+00  0.00000000E+00
  0.00000000E+00  0.00000000E+00  0.00000000E+00
  0.00000000E+00  0.00000000E+00  0.00000000E+00
  0.00000000E+00  0.00000000E+00  0.00000000E+00
  0.00000000E+00  0.00000000E+00  0.00000000E+00
  0.00000000E+00  0.00000000E+00  0.00000000E+00
  0.00000000E+00  0.00000000E+00  0.00000000E+00
  0.00000000E+00  0.00000000E+00  0.00000000E+00
