Sn4 Se4                                 
   1.00000000000000     
     4.2409374209214192    0.0000000000000017    0.0000000000000003
     0.0000000000000005    4.4565545210505562    0.0000000000000004
     0.0000000000000000    0.0000000000000000   11.9042991700483238
   Sn   Se
     4     4
Direct
  0.2500000000000000  0.3984731818775877  0.6240312772356732
  0.7500000000000000  0.6015268181224200  0.3759687227643267
  0.7500000000000000  0.8984731818775800  0.8759687227643268
  0.2500000000000000  0.1015268181224122  0.1240312772356730
  0.2500000000000000  0.0217611261302932  0.3550558654329622
  0.7500000000000000 -0.0217611261302930  0.6449441345670389
  0.7500000000000000  0.5217611261302931  0.1449441345670384
  0.2500000000000000  0.4782388738697069  0.8550558654329611
 
  0.00000000E+00  0.00000000E+00  0.00000000E+00
  0.00000000E+00  0.00000000E+00  0.00000000E+00
  0.00000000E+00  0.00000000E+00  0.00000000E+00
  0.00000000E+00  0.00000000E+00  0.00000000E+00
  0.00000000E+00  0.00000000E+00  0.00000000E+00
  0.00000000E+00  0.00000000E+00  0.00000000E+00
  0.00000000E+00  0.00000000E+00  0.00000000E+00
  0.00000000E+00  0.00000000E+00  0.00000000E+00
