Amorphous GeTe6                         
   1.00000000000000     
    22.4344198496002356    0.0000000000000000    0.0000000000000000
     0.0000000000000000   22.4344198496002356    0.0000000000000000
     0.0000000000000000    0.0000000000000000   22.4344198496002356
   Ti   Te
    30   270
Direct
  0.4120472774381440  0.9129014929762626  0.0394555307261822
  0.0293599049611910  0.4758577237704955  0.0223648686339518
  0.8988239684709028  0.7977035649923105  0.6944422777490946
  0.4138503770072468  0.0095173112461085  0.4082710005925085
  0.3846152358724914  0.2142789740541001  0.9781463654517210
  0.5506910225711928  0.5888891402903134  0.8550759682686664
  0.8736282515335896  0.0018755525484993  0.4560380392848372
  0.2932257488403588  0.3250718837006815  0.0103450286439703
  0.6066389698327823  0.2415375022459622  0.4960752977001159
  0.3879976027893285  0.6125942150470429  0.8445472450849101
  0.0674680886437098  0.2722374006032092  0.4002905038569244
  0.2463442935087169  0.6018405391026683  0.6729285111261815
  0.6008417894413270  0.5725836576978872  0.4031907325194615
  0.2422384860526876  0.6437302890900700  0.2969041928999577
  0.9980280430678771  0.1928499413440142  0.5269408601061286
  0.0392310518740093  0.9517403698680097  0.0487071706750194
  0.3832525865825396  0.6957355753663674  0.7031375665460085
  0.2604747020411310  0.4691183198639612  0.9557891158199252
  0.1417374539587883  0.9489548725334632  0.5711649069912412
  0.7248353973921619  0.5280392608426439  0.6965994940850829
  0.9033035091665909  0.5177413383264116  0.5762465140558276
  0.8999593760277715  0.4705454798664661  0.9217509743304008
  0.0999964220945254  0.7316861690533023  0.8372047720778316
  0.5966853939140403  0.7170891985798395  0.0453689276047405
  0.6000126174591739  0.7140091505150771  0.4095428131708310
  0.9349691606977600  0.3838453227083004  0.7345809379881109
  0.3127651513093351  0.0357752626411626  0.2884601779102217
  0.1777663951442059  0.9885173546449689  0.2224274672685136
  0.5274275183349462  0.0464613094532610  0.5107532508090509
  0.0087654720290430  0.6377995921279190  0.5688006200706378
  0.4837806111689100  0.3708008459976235  0.0818264110293951
  0.4077286788232928  0.0297186392459124  0.5261014407116127
  0.5028824406295173  0.4977357640600892  0.3695623997001901
  0.3065869222102376  0.8769922393298840  0.1077264815498136
  0.9481100922341144  0.4781756191451867  0.2158749928641924
  0.0753977822217148  0.8855094087656254  0.6445657896854958
  0.6258107058085264  0.3131683479224048  0.8296570986488899
  0.4544785971670732  0.9418810132790038  0.7439312931014410
  0.5282164776174064  0.9503815418035044  0.0706666854328605
  0.7302344506388839  0.2816546263855956  0.3780472539777885
  0.5632047260814201  0.3312468617047918  0.5759407764360090
  0.4979132109730202  0.2420428352060570  0.4291792443456353
  0.2597286828892762  0.6558810208727310  0.1618248743205153
  0.4597285222275370  0.3699963208397946  0.7307167959706085
  0.8009839517547834  0.5903625419807327  0.6186359102127650
  0.1270084900229601  0.6909256109198417  0.5585596328772078
  0.9548541053856390  0.0304992150323202  0.9916443576256276
  0.0663906387433953  0.5765689138038003  0.3517733808374270
  0.8226799974001174  0.1138038414878959  0.4684860182194740
  0.5318462457750379  0.9640154813347553  0.4115656960007827
  0.6570370303922913  0.6253189183890064  0.4971521777197748
  0.3679163816444281  0.4115835158580090  0.9545559351235923
  0.2677572198539901  0.4282748484455829  0.0740623512420365
  0.5341118788845466  0.4215827837731622  0.9632717726345232
  0.3244315783247517  0.2977539943892200  0.6636021167680339
  0.0053890149355275  0.7432035974165018  0.7439035270716552
  0.2197912882854627  0.3345693294429914  0.2204283257954990
  0.1103930732509880  0.0573459244251792  0.0513995712290441
  0.6955050797203048  0.9539941729060707  0.7894417608210115
  0.6326070643423714  0.9689773831809205  0.5170642762966337
  0.7842069227080712  0.5254818684644402  0.4113107332966259
  0.0010025261448293  0.4017819305956983  0.9203673451674845
  0.0592472773401138  0.6017439096992494  0.6733900382368591
  0.0985547853935994  0.1785071240467862  0.8782130302854526
  0.6631756374603029  0.1644881544047142  0.9311911944249216
  0.3660267470593245  0.6073255640357531  0.2970148265323054
  0.2342310344416073  0.2797757941530220  0.7626063117461563
  0.3558022167923818  0.5697047270424781  0.7264607058764260
  0.7618369363612785  0.1204076168269726  0.0040866142725231
  0.9463685595374970  0.2251749030133975  0.4165664017772020
  0.3833861457458629  0.2838955708898924  0.0799580675219295
  0.4771763206307174  0.8517994090677817  0.9448387492921841
  0.4569882733740731  0.2863570036260706  0.6385621822799490
  0.2512964853669485  0.9923007505983471  0.5965709739460154
  0.9105721543493587  0.5083101073370389  0.0462367738573057
  0.9612112599848749  0.9140995635356781  0.4540519360795137
  0.4236239704985694  0.8245627100953896  0.1307343226256457
  0.5766755824548180  0.2479830845913979  0.0700572352408851
  0.2839558972287305  0.5450088212909441  0.8581539904720984
  0.0400583448078232  0.1687147996759701  0.9875065267454139
  0.4922181146195551  0.7106262785406000  0.9756213716584654
  0.4495577501685982  0.7804532623120994  0.6484595217984136
  0.1404076308819444  0.4921498186274549  0.9709771668404521
  0.2832639951256480  0.9236958449676398  0.2385286372684079
  0.7109185501660517  0.7438758244644272  0.4552779564405782
  0.5204744578166389  0.3675343710158874  0.2347645605747810
  0.6699694178246390  0.0363605877312808  0.1206658027732091
  0.7211990021627122  0.4628183236120230  0.9270561508097502
  0.3802363920656937  0.1336413646495714  0.2588681150117040
  0.4345071307101813  0.6045610317363005  0.6327253344160033
  0.0540770755460359  0.6078081534776049  0.8435678906074284
  0.6969048450498027  0.7787048944579132  0.2332014533317433
  0.6169739391749854  0.8754390655550184  0.8441948191700296
  0.2915344132891523  0.9697555542340285  0.3976367340821113
  0.1834971970947711  0.5719451810396343  0.5737492330404887
  0.8319120323862338  0.4031548298747576  0.0000515102043109
  0.5470730125582258  0.3784043524907770  0.3624950562601590
  0.0591282109457953  0.3725003053756049  0.7489964091091935
  0.3324274702310386  0.1491340449211789  0.5345317082050611
  0.9260511437406371  0.9052637035181591  0.6271128522609087
  0.4998311298678501  0.3003422938199798  0.8244919347734354
  0.3341427436244870  0.8150257416066436  0.6816254901901931
  0.6709120398305803  0.4727054387840131  0.3874128659526520
  0.0516880274018392  0.6921172919404205  0.0372193007392356
  0.6819559371458072  0.9224965460946271  0.1713631416111036
  0.0486920580258023  0.6948581902748568  0.4555973385590352
  0.4393092390676486  0.7013498363574895  0.3391904752524307
  0.8276270116169679  0.4658280027939304  0.2627087506364366
  0.8162762264434120  0.7649088401245648  0.0778878830679669
  0.8062685192836926  0.8033540030159673  0.5969899755947764
  0.5351097190364478  0.8472411813330526  0.7550404372073282
  0.5588583572133359  0.5472278271138321  0.5235001789635755
  0.3304991240932468  0.1573285152570430  0.8852273936494480
  0.8782661017953638  0.1097288835116094  0.2792430605090472
  0.2007587377170001  0.1542115300808425  0.7632042641453047
  0.7095409628268823  0.7641782063799512  0.0058513735291913
  0.1302692969553598  0.6131510671644398  0.2504667967243057
  0.1843689654339707  0.3057205396414555  0.9516919658642934
  0.1783287855356553  0.2270447163155617  0.4098530793401410
  0.2962347132125479  0.6988487526240139  0.6129886858317694
  0.1354046658504486  0.8432459573770587  0.7859232299302713
  0.5446181146833468  0.7573418168473072  0.1496671554453866
  0.2027066689019616  0.7878404833546587  0.8706805592627985
  0.4830110297124546  0.6718577745256451  0.7828002971125120
  0.8075195639136854  0.5543101161545959  0.8957616259627140
  0.2831336321601484  0.0383989733149076  0.1678388410225354
  0.9638685744110216  0.4168808414240440  0.6176195718573558
  0.8107203952400661  0.5773229360042877  0.7658386799524822
  0.8019682188183770  0.6187938456029695  0.1671921959467071
  0.5216782224477758  0.0854271575495705  0.3937359442248332
  0.3164171122551340  0.5778677117495110  0.5690782550121060
  0.0147244284515619  0.1307097767074180  0.3250016628833112
  0.9737179331272070  0.0676648345986975  0.5050239793037588
  0.9030771274650874  0.6187760511012772  0.4991264277264177
  0.9434830292924163  0.0010715515154042  0.7138895902654732
  0.3059472979188279  0.9676251593082770 -0.0062164270894650
  0.8032670601704073  0.7113710024558364  0.6854897764406879
  0.6530862943816318  0.6290148689989906  0.6923997869025063
  0.5928008466805573  0.0649447120367676  0.9069599777119917
  0.6385997510348066  0.3584351836995552 -0.0100351247131712
  0.5987727037258339  0.8322057843824604  0.0002722491973855
  0.6042809480000420  0.4774494103126811  0.8665719884520073
  0.4255182171088577  0.2827862696580179  0.2530217044438378
  0.9330758726022517  0.3011921365999353  0.5195485625685993
  0.0746785947924553  0.7266848254653652  0.2212968116226293
  0.5110162243665871  0.1674962549596994  0.1454451691169286
  0.4091854220986571  0.1642981825927547  0.7854119358907018
  0.8630703885153557  0.9623414705076497  0.8006016574672391
  0.2677461409384785  0.1959940356057013  0.0157374808143582
  0.4587044978403413  0.1200938710595988  0.0208314279785014
  0.5570175440955830  0.7411342281626917  0.5265513267486953
  0.0511138504934904  0.8022676058948269  0.5340017478601264
  0.4670565072364344  0.9769514156409742  0.9437822183907848
  0.0828752475121853  0.0363735825883403  0.6345846411871683
  0.3002673411512961  0.5601395888423103  0.0208836119769119
  0.3529711362046817  0.1154697154242263  0.3798794434390805
  0.6696820147718577  0.1837466561243335  0.5901860858793163
  0.9526209909833298  0.4853105396651083  0.8048280967776950
  0.9686628116329136  0.2916520043745611  0.8130830307228197
  0.1449321356984866  0.7632036381443547  0.0661995230965347
  0.9376285792666577  0.7066338767096658  0.3644303332194898
  0.1402078638702248  0.8760155312397419  0.2476717917631486
  0.1509020941800800  0.9460559834309236  0.1032480968473685
  0.1433360654600943  0.0282771363289863  0.7694392076168473
  0.3810103588137002  0.6283866588387196  0.1714797280223934
  0.6653815272254197  0.4126755105550597  0.1021025404067501
  0.9194565033712526  0.0082698694943591  0.3417781252349835
  0.8422439832274230  0.8787736334886054  0.4310392353529351
  0.7318007792231817  0.4285490434666334  0.7635918748835588
  0.9357203649219618  0.5933761800849586  0.6678537894438225
  0.7747652538873251  0.0196668725295968  0.9264503836424207
  0.3408686408848661  0.4432214352015593  0.5216450252487330
  0.7979622527259109  0.7526464057109616  0.2993577016875934
  0.9298666466561284  0.3451912202352956  0.1131364039641471
  0.6895527587562373  0.6402453237001722  0.3450582187133685
  0.1916497770018019  0.3271410247934793  0.0932091405818468
  0.8582728454600700  0.8644784132376035  0.3039238789037667
  0.8186353635109203  0.2647942660702711  0.5870517727651364
  0.5508456288340152  0.5661657057131583  0.7333280944614837
  0.9183407655977771  0.2224960745297851  0.9694141342185342
  0.6163153123705593  0.0975461325728501  0.2162483227590089
  0.9719725384205196  0.7981103836351982  0.2876969959205546
  0.7153953119208459  0.0663743147517421  0.2940653404964660
  0.9836522259591126  0.3563070373879377  0.2421947373310513
  0.4291852106004249  0.9860576553925731  0.2845302351781210
  0.8049109640460831  0.4629234995817302  0.5176175997975548
  0.1789834947311829  0.3662802874365780  0.6051391666514138
  0.8662000893236722  0.6480933291078295  0.0622344928033718
  0.4240389634501195  0.4772548835664267  0.1035563559944806
  0.8500635984812203  0.3982647795753733  0.8270890831023865
  0.6605729647284978  0.2868683869675160  0.1572338786874282
  0.2046166013805286  0.5974381511235421  0.4055279130446688
  0.5607605521655422  0.8900159277471583  0.1826700162438150
  0.8547949695416758  0.9509974564214609  0.9875865373464111
  0.6234604008285369  0.4512472788775994  0.6979612350261627
  0.0905479134874693  0.1457356871801977  0.4383934967830242
  0.5096945950566751  0.1690900298238781  0.5325587929258114
  0.2302702699232550  0.7159388130336637  0.3923081826557391
  0.2760796547940417  0.2631806358266747  0.5547375953548571
  0.6400099703652192  0.2642235875623677  0.6812885679910866
  0.7831066066365771  0.8374156198480256  0.7276638185060229
  0.4991468151676877  0.2193809378585846  0.9494323731475067
  0.8707398743679838  0.0815818390745559  0.0821771810823014
  0.1832273785158381  0.4069778881555430  0.8781296811475942
  0.9531180991500238  0.5935427381058432  0.2979762771830334
  0.6155864963347867  0.6383804265335804  0.9497258473727036
  0.7972404422076984  0.0598300151476083  0.1953327683704064
  0.8313415160627140  0.2808213055096727  0.3042917641045490
  0.0563739080487676  0.9638155654430116  0.2607622649358009
  0.6946013777045111  0.4768539324103879  0.5895889038909619
  0.1882212445083153  0.7872373864407551  0.6835564278781521
  0.7739809418812565  0.2400042156988142  0.1182713984183705
  0.1283240375607768  0.3750837495789052  0.3748338258849531
  0.6541899859156830  0.6473754304801599  0.8265506240208178
  0.1846137674422243  0.6773746214790023  0.7436989797644751
  0.9807893157027733  0.9818872917165736  0.1565184195443798
  0.7002392486023982  0.9465677479856395  0.3311241878354928
  0.2417673131786710  0.8682170601673787  0.5570189630685075
  0.1770989897976742  0.1993702793687266  0.1997632219489847
  0.7496108793325804  0.0107697962478076  0.4354058330429776
  0.1956220869879464  0.0548120582235775  0.3205132608288840
  0.5326434934394148  0.6301367747370835  0.1135356957995464
  0.9466203182383173  0.7421012458924288  0.5864719291021637
  0.2037619523594701  0.5130385142551577  0.7450814805294076
  0.1972747479771749 -0.0047709144073731  0.8830197996187040
  0.8422345406073599  0.4240738986669949  0.6581271317451721
  0.0627878994773558  0.2994678947436771  0.5187263448831589
  0.7806486495662407  0.2894639693816899  0.8452598282526034
  0.0362946031960274  0.5256879602061093  0.5307665447251069
  0.0425222425659851  0.0930178843940989  0.8073623658019468
  0.9562721712207062  0.8730486961371073  0.0890442071815239
  0.0638923973862859  0.9804103514387456  0.9300079914999042
  0.0010718442578322  0.2053051255287504  0.6523132637939874
  0.3324638635244225  0.3911372006345390  0.2235282181090668
  0.4920479169289428  0.6258664355070691  0.4432060002977929
  0.6568826646415371  0.6349825747766262  0.1252848431112234
  0.5192469156775831  0.8085341430925621  0.4286668801239137
  0.8946275407223161  0.2677481768859326  0.7089547663090607
  0.0945563589372267  0.5627131936499017  0.0812244227638015
  0.3752462009874585  0.7211174931204761  0.0358959647992436
  0.1143308370656386  0.4594548595567384  0.6617315698484482
  0.5908528649914475  0.0835633346382413  0.6202426437439583
  0.3548142131772928  0.3727401084996108  0.3462407982060679
  0.3128842676250894  0.6585748716998231  0.9384993154693628
  0.2876529464997126  0.1701171335149028  0.1433020872999077
  0.2709364899951516  0.1224548665179354  0.6458843811103676
 -0.0170211481017316  0.6878273535397346  0.1470494299393196
  0.6154557132745198  0.0493202098743583  0.7867642589903796
  0.8065968375852239  0.3403160008319942  0.1961866108206381
  0.1066115329010102  0.1520888263258864  0.5874355216918444
  0.6676301727456501  0.7905632981066686  0.5647058537632269
  0.4072141787568547  0.3307495800016614  0.4786814121542867
  0.1054306734151721  0.8620173985038899  0.9882005909734199
  0.4628933508447538  0.4803037152717091  0.2307608012271584
  0.2208856768274794  0.4194013298975204  0.4983247792447458
  0.6536685382179613  0.1966366953912321  0.7930488928460707
  0.3261593048214314  0.8358635600809070  0.9863351890243016
  0.3594824475990548  0.7298233872134368  0.8182113590995055
  0.0563987115723388  0.2385134036905782  0.2758220544952255
  0.3632916887551813  0.0736807546186565  0.7188223357056932
  0.0292796997523391  0.3510685366431194  0.0317737627964790
  0.4222558190819891  0.8594058880504963  0.3058732551996964
  0.0275794859242864  0.8024981521775013  0.9089540690054907
  0.2459799642664613  0.5186328880443890  0.2686301586456106
  0.9106960014947291  0.7847468936741648 -0.0075856721066483
  0.4565636245740768  0.5037806787951470  0.8352919167580137
  0.6203260355100966  0.8123336321501022  0.3261512280429726
  0.7908457710651291  0.2826926534916747  0.9693500055329192
  0.5333528736214427  0.9505692139437391  0.5907388105231015
  0.1129014359174840  0.0893446766881019  0.1787799239076797
  0.6549381147351072  0.1807464281615790  0.4076799435476092
  0.9749802025150619  0.5705802716904669  0.9482218449052434
  0.3476267432676409  0.2998243903409465  0.8979896212074749
  0.5382782984824753  0.2201602916853649  0.2623537642284487
  0.0758300129410407  0.9917460106517080  0.4766023046368479
  0.9522726794050745  0.8713288053435300  0.7793282588385859
  0.4278207308220021  0.0110132809655265  0.1132245174805215
  0.3833739841809743  0.8874996333492730  0.4214831127021462
  0.3293477155219089  0.0046769539647275  0.8745783339987773
  0.1528701722222786  0.8744403135421728  0.4689724365606697
  0.4615753852907353  0.5837708750583588  0.9398850333726030
  0.7718905233833846  0.4986713252356978  0.1506943987230329
  0.6826862384845690  0.3298315161474971  0.4961720818264827
  0.9119215881697336  0.2080762209587965  0.0920014919896487
  0.6873077855985601  0.5342968688737574  0.0406728138565830
  0.2548864609265787  0.7493020855691466  0.2413327143810577
  0.2939034303709988  0.4838080997939633  0.3822670761169707
  0.8210650843525642  0.9516368978445325  0.5609402066619356
  0.8815872074788317  0.1558361932802126  0.5746089974068828
  0.1180054442031652  0.2619499539837046  0.7111130754877372
  0.5705342099464843  0.6513716455260472  0.3071327711449542
  0.5013837651007692  0.4139765828425853  0.4928033107274871
  0.3474707952650279  0.9012886040502396  0.7901594185211001
  0.7857234704210279  0.8291767759849892  0.8561699268434125
  0.7070133032960861  0.0167538317358065  0.6076298947356772
  0.9389438043550800  0.5066787152036539  0.4526314434393511
  0.0687314491127378  0.4560561216001556  0.1410917256394878
  0.0069342384930439  0.3809692609669381  0.3687112062916929
  0.1396836892219156  0.6539263551379727  0.9184925018934751
  0.8922733821603983  0.7679838986923495  0.8228063866600844
 
  0.00000000E+00  0.00000000E+00  0.00000000E+00
  0.00000000E+00  0.00000000E+00  0.00000000E+00
  0.00000000E+00  0.00000000E+00  0.00000000E+00
  0.00000000E+00  0.00000000E+00  0.00000000E+00
  0.00000000E+00  0.00000000E+00  0.00000000E+00
  0.00000000E+00  0.00000000E+00  0.00000000E+00
  0.00000000E+00  0.00000000E+00  0.00000000E+00
  0.00000000E+00  0.00000000E+00  0.00000000E+00
  0.00000000E+00  0.00000000E+00  0.00000000E+00
  0.00000000E+00  0.00000000E+00  0.00000000E+00
  0.00000000E+00  0.00000000E+00  0.00000000E+00
  0.00000000E+00  0.00000000E+00  0.00000000E+00
  0.00000000E+00  0.00000000E+00  0.00000000E+00
  0.00000000E+00  0.00000000E+00  0.00000000E+00
  0.00000000E+00  0.00000000E+00  0.00000000E+00
  0.00000000E+00  0.00000000E+00  0.00000000E+00
  0.00000000E+00  0.00000000E+00  0.00000000E+00
  0.00000000E+00  0.00000000E+00  0.00000000E+00
  0.00000000E+00  0.00000000E+00  0.00000000E+00
  0.00000000E+00  0.00000000E+00  0.00000000E+00
  0.00000000E+00  0.00000000E+00  0.00000000E+00
  0.00000000E+00  0.00000000E+00  0.00000000E+00
  0.00000000E+00  0.00000000E+00  0.00000000E+00
  0.00000000E+00  0.00000000E+00  0.00000000E+00
  0.00000000E+00  0.00000000E+00  0.00000000E+00
  0.00000000E+00  0.00000000E+00  0.00000000E+00
  0.00000000E+00  0.00000000E+00  0.00000000E+00
  0.00000000E+00  0.00000000E+00  0.00000000E+00
  0.00000000E+00  0.00000000E+00  0.00000000E+00
  0.00000000E+00  0.00000000E+00  0.00000000E+00
  0.00000000E+00  0.00000000E+00  0.00000000E+00
  0.00000000E+00  0.00000000E+00  0.00000000E+00
  0.00000000E+00  0.00000000E+00  0.00000000E+00
  0.00000000E+00  0.00000000E+00  0.00000000E+00
  0.00000000E+00  0.00000000E+00  0.00000000E+00
  0.00000000E+00  0.00000000E+00  0.00000000E+00
  0.00000000E+00  0.00000000E+00  0.00000000E+00
  0.00000000E+00  0.00000000E+00  0.00000000E+00
  0.00000000E+00  0.00000000E+00  0.00000000E+00
  0.00000000E+00  0.00000000E+00  0.00000000E+00
  0.00000000E+00  0.00000000E+00  0.00000000E+00
  0.00000000E+00  0.00000000E+00  0.00000000E+00
  0.00000000E+00  0.00000000E+00  0.00000000E+00
  0.00000000E+00  0.00000000E+00  0.00000000E+00
  0.00000000E+00  0.00000000E+00  0.00000000E+00
  0.00000000E+00  0.00000000E+00  0.00000000E+00
  0.00000000E+00  0.00000000E+00  0.00000000E+00
  0.00000000E+00  0.00000000E+00  0.00000000E+00
  0.00000000E+00  0.00000000E+00  0.00000000E+00
  0.00000000E+00  0.00000000E+00  0.00000000E+00
  0.00000000E+00  0.00000000E+00  0.00000000E+00
  0.00000000E+00  0.00000000E+00  0.00000000E+00
  0.00000000E+00  0.00000000E+00  0.00000000E+00
  0.00000000E+00  0.00000000E+00  0.00000000E+00
  0.00000000E+00  0.00000000E+00  0.00000000E+00
  0.00000000E+00  0.00000000E+00  0.00000000E+00
  0.00000000E+00  0.00000000E+00  0.00000000E+00
  0.00000000E+00  0.00000000E+00  0.00000000E+00
  0.00000000E+00  0.00000000E+00  0.00000000E+00
  0.00000000E+00  0.00000000E+00  0.00000000E+00
  0.00000000E+00  0.00000000E+00  0.00000000E+00
  0.00000000E+00  0.00000000E+00  0.00000000E+00
  0.00000000E+00  0.00000000E+00  0.00000000E+00
  0.00000000E+00  0.00000000E+00  0.00000000E+00
  0.00000000E+00  0.00000000E+00  0.00000000E+00
  0.00000000E+00  0.00000000E+00  0.00000000E+00
  0.00000000E+00  0.00000000E+00  0.00000000E+00
  0.00000000E+00  0.00000000E+00  0.00000000E+00
  0.00000000E+00  0.00000000E+00  0.00000000E+00
  0.00000000E+00  0.00000000E+00  0.00000000E+00
  0.00000000E+00  0.00000000E+00  0.00000000E+00
  0.00000000E+00  0.00000000E+00  0.00000000E+00
  0.00000000E+00  0.00000000E+00  0.00000000E+00
  0.00000000E+00  0.00000000E+00  0.00000000E+00
  0.00000000E+00  0.00000000E+00  0.00000000E+00
  0.00000000E+00  0.00000000E+00  0.00000000E+00
  0.00000000E+00  0.00000000E+00  0.00000000E+00
  0.00000000E+00  0.00000000E+00  0.00000000E+00
  0.00000000E+00  0.00000000E+00  0.00000000E+00
  0.00000000E+00  0.00000000E+00  0.00000000E+00
  0.00000000E+00  0.00000000E+00  0.00000000E+00
  0.00000000E+00  0.00000000E+00  0.00000000E+00
  0.00000000E+00  0.00000000E+00  0.00000000E+00
  0.00000000E+00  0.00000000E+00  0.00000000E+00
  0.00000000E+00  0.00000000E+00  0.00000000E+00
  0.00000000E+00  0.00000000E+00  0.00000000E+00
  0.00000000E+00  0.00000000E+00  0.00000000E+00
  0.00000000E+00  0.00000000E+00  0.00000000E+00
  0.00000000E+00  0.00000000E+00  0.00000000E+00
  0.00000000E+00  0.00000000E+00  0.00000000E+00
  0.00000000E+00  0.00000000E+00  0.00000000E+00
  0.00000000E+00  0.00000000E+00  0.00000000E+00
  0.00000000E+00  0.00000000E+00  0.00000000E+00
  0.00000000E+00  0.00000000E+00  0.00000000E+00
  0.00000000E+00  0.00000000E+00  0.00000000E+00
  0.00000000E+00  0.00000000E+00  0.00000000E+00
  0.00000000E+00  0.00000000E+00  0.00000000E+00
  0.00000000E+00  0.00000000E+00  0.00000000E+00
  0.00000000E+00  0.00000000E+00  0.00000000E+00
  0.00000000E+00  0.00000000E+00  0.00000000E+00
  0.00000000E+00  0.00000000E+00  0.00000000E+00
  0.00000000E+00  0.00000000E+00  0.00000000E+00
  0.00000000E+00  0.00000000E+00  0.00000000E+00
  0.00000000E+00  0.00000000E+00  0.00000000E+00
  0.00000000E+00  0.00000000E+00  0.00000000E+00
  0.00000000E+00  0.00000000E+00  0.00000000E+00
  0.00000000E+00  0.00000000E+00  0.00000000E+00
  0.00000000E+00  0.00000000E+00  0.00000000E+00
  0.00000000E+00  0.00000000E+00  0.00000000E+00
  0.00000000E+00  0.00000000E+00  0.00000000E+00
  0.00000000E+00  0.00000000E+00  0.00000000E+00
  0.00000000E+00  0.00000000E+00  0.00000000E+00
  0.00000000E+00  0.00000000E+00  0.00000000E+00
  0.00000000E+00  0.00000000E+00  0.00000000E+00
  0.00000000E+00  0.00000000E+00  0.00000000E+00
  0.00000000E+00  0.00000000E+00  0.00000000E+00
  0.00000000E+00  0.00000000E+00  0.00000000E+00
  0.00000000E+00  0.00000000E+00  0.00000000E+00
  0.00000000E+00  0.00000000E+00  0.00000000E+00
  0.00000000E+00  0.00000000E+00  0.00000000E+00
  0.00000000E+00  0.00000000E+00  0.00000000E+00
  0.00000000E+00  0.00000000E+00  0.00000000E+00
  0.00000000E+00  0.00000000E+00  0.00000000E+00
  0.00000000E+00  0.00000000E+00  0.00000000E+00
  0.00000000E+00  0.00000000E+00  0.00000000E+00
  0.00000000E+00  0.00000000E+00  0.00000000E+00
  0.00000000E+00  0.00000000E+00  0.00000000E+00
  0.00000000E+00  0.00000000E+00  0.00000000E+00
  0.00000000E+00  0.00000000E+00  0.00000000E+00
  0.00000000E+00  0.00000000E+00  0.00000000E+00
  0.00000000E+00  0.00000000E+00  0.00000000E+00
  0.00000000E+00  0.00000000E+00  0.00000000E+00
  0.00000000E+00  0.00000000E+00  0.00000000E+00
  0.00000000E+00  0.00000000E+00  0.00000000E+00
  0.00000000E+00  0.00000000E+00  0.00000000E+00
  0.00000000E+00  0.00000000E+00  0.00000000E+00
  0.00000000E+00  0.00000000E+00  0.00000000E+00
  0.00000000E+00  0.00000000E+00  0.00000000E+00
  0.00000000E+00  0.00000000E+00  0.00000000E+00
  0.00000000E+00  0.00000000E+00  0.00000000E+00
  0.00000000E+00  0.00000000E+00  0.00000000E+00
  0.00000000E+00  0.00000000E+00  0.00000000E+00
  0.00000000E+00  0.00000000E+00  0.00000000E+00
  0.00000000E+00  0.00000000E+00  0.00000000E+00
  0.00000000E+00  0.00000000E+00  0.00000000E+00
  0.00000000E+00  0.00000000E+00  0.00000000E+00
  0.00000000E+00  0.00000000E+00  0.00000000E+00
  0.00000000E+00  0.00000000E+00  0.00000000E+00
  0.00000000E+00  0.00000000E+00  0.00000000E+00
  0.00000000E+00  0.00000000E+00  0.00000000E+00
  0.00000000E+00  0.00000000E+00  0.00000000E+00
  0.00000000E+00  0.00000000E+00  0.00000000E+00
  0.00000000E+00  0.00000000E+00  0.00000000E+00
  0.00000000E+00  0.00000000E+00  0.00000000E+00
  0.00000000E+00  0.00000000E+00  0.00000000E+00
  0.00000000E+00  0.00000000E+00  0.00000000E+00
  0.00000000E+00  0.00000000E+00  0.00000000E+00
  0.00000000E+00  0.00000000E+00  0.00000000E+00
  0.00000000E+00  0.00000000E+00  0.00000000E+00
  0.00000000E+00  0.00000000E+00  0.00000000E+00
  0.00000000E+00  0.00000000E+00  0.00000000E+00
  0.00000000E+00  0.00000000E+00  0.00000000E+00
  0.00000000E+00  0.00000000E+00  0.00000000E+00
  0.00000000E+00  0.00000000E+00  0.00000000E+00
  0.00000000E+00  0.00000000E+00  0.00000000E+00
  0.00000000E+00  0.00000000E+00  0.00000000E+00
  0.00000000E+00  0.00000000E+00  0.00000000E+00
  0.00000000E+00  0.00000000E+00  0.00000000E+00
  0.00000000E+00  0.00000000E+00  0.00000000E+00
  0.00000000E+00  0.00000000E+00  0.00000000E+00
  0.00000000E+00  0.00000000E+00  0.00000000E+00
  0.00000000E+00  0.00000000E+00  0.00000000E+00
  0.00000000E+00  0.00000000E+00  0.00000000E+00
  0.00000000E+00  0.00000000E+00  0.00000000E+00
  0.00000000E+00  0.00000000E+00  0.00000000E+00
  0.00000000E+00  0.00000000E+00  0.00000000E+00
  0.00000000E+00  0.00000000E+00  0.00000000E+00
  0.00000000E+00  0.00000000E+00  0.00000000E+00
  0.00000000E+00  0.00000000E+00  0.00000000E+00
  0.00000000E+00  0.00000000E+00  0.00000000E+00
  0.00000000E+00  0.00000000E+00  0.00000000E+00
  0.00000000E+00  0.00000000E+00  0.00000000E+00
  0.00000000E+00  0.00000000E+00  0.00000000E+00
  0.00000000E+00  0.00000000E+00  0.00000000E+00
  0.00000000E+00  0.00000000E+00  0.00000000E+00
  0.00000000E+00  0.00000000E+00  0.00000000E+00
  0.00000000E+00  0.00000000E+00  0.00000000E+00
  0.00000000E+00  0.00000000E+00  0.00000000E+00
  0.00000000E+00  0.00000000E+00  0.00000000E+00
  0.00000000E+00  0.00000000E+00  0.00000000E+00
  0.00000000E+00  0.00000000E+00  0.00000000E+00
  0.00000000E+00  0.00000000E+00  0.00000000E+00
  0.00000000E+00  0.00000000E+00  0.00000000E+00
  0.00000000E+00  0.00000000E+00  0.00000000E+00
  0.00000000E+00  0.00000000E+00  0.00000000E+00
  0.00000000E+00  0.00000000E+00  0.00000000E+00
  0.00000000E+00  0.00000000E+00  0.00000000E+00
  0.00000000E+00  0.00000000E+00  0.00000000E+00
  0.00000000E+00  0.00000000E+00  0.00000000E+00
  0.00000000E+00  0.00000000E+00  0.00000000E+00
  0.00000000E+00  0.00000000E+00  0.00000000E+00
  0.00000000E+00  0.00000000E+00  0.00000000E+00
  0.00000000E+00  0.00000000E+00  0.00000000E+00
  0.00000000E+00  0.00000000E+00  0.00000000E+00
  0.00000000E+00  0.00000000E+00  0.00000000E+00
  0.00000000E+00  0.00000000E+00  0.00000000E+00
  0.00000000E+00  0.00000000E+00  0.00000000E+00
  0.00000000E+00  0.00000000E+00  0.00000000E+00
  0.00000000E+00  0.00000000E+00  0.00000000E+00
  0.00000000E+00  0.00000000E+00  0.00000000E+00
  0.00000000E+00  0.00000000E+00  0.00000000E+00
  0.00000000E+00  0.00000000E+00  0.00000000E+00
  0.00000000E+00  0.00000000E+00  0.00000000E+00
  0.00000000E+00  0.00000000E+00  0.00000000E+00
  0.00000000E+00  0.00000000E+00  0.00000000E+00
  0.00000000E+00  0.00000000E+00  0.00000000E+00
  0.00000000E+00  0.00000000E+00  0.00000000E+00
  0.00000000E+00  0.00000000E+00  0.00000000E+00
  0.00000000E+00  0.00000000E+00  0.00000000E+00
  0.00000000E+00  0.00000000E+00  0.00000000E+00
  0.00000000E+00  0.00000000E+00  0.00000000E+00
  0.00000000E+00  0.00000000E+00  0.00000000E+00
  0.00000000E+00  0.00000000E+00  0.00000000E+00
  0.00000000E+00  0.00000000E+00  0.00000000E+00
  0.00000000E+00  0.00000000E+00  0.00000000E+00
  0.00000000E+00  0.00000000E+00  0.00000000E+00
  0.00000000E+00  0.00000000E+00  0.00000000E+00
  0.00000000E+00  0.00000000E+00  0.00000000E+00
  0.00000000E+00  0.00000000E+00  0.00000000E+00
  0.00000000E+00  0.00000000E+00  0.00000000E+00
  0.00000000E+00  0.00000000E+00  0.00000000E+00
  0.00000000E+00  0.00000000E+00  0.00000000E+00