Ge Se                                   
   1.00000000000000     
    19.5812452329683211    0.0000000000000000    0.0000000000000000
     0.0000000000000000   19.5812452329683211    0.0000000000000000
     0.0000000000000000    0.0000000000000000   19.5812452329683211
   Ge   Se
   270    30
Direct
  0.0050812743219085  0.8646642039961279  0.5281154164369842
  0.5217142905082877  0.3754215391915338  0.5347804065791796
  0.1201728747535197  0.1325085214353243  0.5080628326218437
  0.6174082226208865  0.7765541000768627  0.3641583536013922
  0.6963041549570465  0.2498184101561175  0.3106263751969035
  0.1931168937449613  0.6172108099779752  0.9666235724046485
  0.2796142407579457  0.9548308226216836  0.6639855826766939
  0.9140138093635166  0.6717554363588543  0.5274460238065279
  0.8906526172848794  0.5717384981239182  0.4280909677031093
  0.3925734295765469  0.9288863221040339  0.8344389379112683
  0.1780018330445543  0.2708483322089028  0.8191248858497502
  0.5924534338697327  0.0992705198372036  0.4571306575311275
  0.6608921489757447  0.4957976845769576  0.0533118148856046
  0.8090544365825850  0.1904776953132327  0.3193044703131230
  0.7800879356033813  0.9173690688369235  0.8149157334621314
  0.6749609388707755  0.7717440937881674  0.5992355871955006
  0.5282545151788873  0.9056865998520929  0.0413340204204894
  0.7676177434678294  0.8523308458736008  0.0121170275326166
  0.6706606368138383  0.3556466668466157  0.9517955421160680
  0.3565848571255325  0.5837190154744278  0.8197205812892071
  0.5798027195605860  0.9048185664233874  0.3594290582407353
  0.9593864155555067  0.9730193622866784  0.0298396070116671
  0.0997025896943479  0.9845449403293575  0.5158863472257321
  0.0254848474981020  0.3196086748892685  0.0409483876332624
  0.6456269038006758  0.3851182920591680  0.5057475348882187
  0.6988290180001333  0.6155290844023237  0.3139174855772139
  0.8130041612156093  0.9292338035810461  0.1683688482285733
  0.7319970336964619  0.5994767257382820  0.0750878751553444
  0.0506676534630435  0.5461660178280445  0.0992367371510498
  0.9609764341749651  0.5735171795203459  0.3143440221633207
  0.4494075816932893  0.1084404535345026  0.2047211792586749
  0.0723219781324336  0.5248774964741991  0.6648094984330423
  0.3584319246810463  0.0877360179519401  0.1143780985675070
  0.3578478625638801  0.2451246439997070  0.5686098996998151
  0.2978971657078825  0.6343011227357065  0.1316717462746081
  0.6456603571731879  0.9002147346824897 -0.0215446304963447
  0.1196495966427523  0.2221757379080496  0.2914264369022048
  0.1168177742910632  0.9665728957834794  0.7814495798553762
  0.4319314148092041  0.8956791847680909  0.2051456619173598
  0.6947343917164349  0.2888431523226671  0.4337261733483426
  0.4667813607539528  0.4464243107605031  0.7328210066374269
  0.9309356500341158  0.4317940250971687  0.5898784485810067
  0.8118980472687189  0.8969655823780430  0.3005009921160188
  0.0967012001288723  0.4727904364872281  0.1985309710582168
  0.4803771646006994  0.6521698751160544  0.9575627379135231
  0.4572923723939271  0.7128704944271076  0.4191812314763490
  0.1713713138002559  0.4693390960215486  0.5942649850464509
  0.4615436799001075  0.4808590225963962  0.4914623495734453
  0.1962977436414061  0.3101253674157140  0.4735614555230221
  0.6630768665416744  0.9443837703693840  0.7670750492131655
  0.7584463814457081 -0.0057115242591512  0.3657212978150890
  0.7001016449140210  0.6928543458247611  0.4232752605572883
  0.2751157560553353  0.4124489135140450  0.4916732072119184
  0.7987588633981472  0.3005173332138726  0.0968955991414490
  0.9586833059346885  0.0849998272671326  0.4037320905524411
  0.9176461716987897  0.3690005399496971  0.0976602153510586
  0.7282140127638941  0.3390734267666471  0.5916642645753194
  0.9836142616713207  0.3386220186889263  0.6683396153737938
  0.3350667658331048  0.3230386393948477  0.3452838935162057
  0.7845101916600756  0.8459943406164737  0.5129250324964811
  0.3984374343609176  0.2204401709936174  0.9536498501940291
  0.9656532074816809  0.7648102502545659  0.0899723525420775
  0.3337951561185309  0.7787360646108935  0.7260956882435134
  0.1859463708373635  0.2751686931808781  0.1903199034996329
  0.5965799794482929  0.2179091806242708  0.8470401344986258
  0.8949757068014156  0.6921662816302397  0.8128572347724788
  0.5948136596955174  0.8166858465060192  0.8896152870412333
  0.0578442057266430  0.1146274986223690  0.6836374282131435
  0.5408006505024495  0.3645945520733858  0.6631177140284844
  0.7170990355606267  0.5087722049032888  0.3839582547265471
  0.5777768664509204  0.7304282782978426 -0.0125982575809250
 -0.0003783591871334  0.8291228077593544  0.1981793953908017
  0.1530350941076417  0.0252202429095145  0.1023917269121516
  0.7153326674015629  0.5426782353617144  0.8994390942070165
  0.0361233387352602  0.6236624097789187  0.8385850222390469
  0.7614260026984044  0.7118090234668899  0.8073347627530205
  0.7518033718787570  0.4064978590465717  0.0336904916007256
  0.5161349910911832  0.2214465664466579  0.2043516073324856
  0.3250505254560686  0.7339668919411735  0.6047996154169931
  0.2017821401146163  0.5752879776909953  0.6747218081396126
  0.3461832454348253  0.1214295056315564  0.6037525448350509
  0.1208259765519614  0.1612079683520851  0.8603952916049993
  0.8045993471522429  0.4387062733750453  0.6181752652312839
  0.1229523925155539  0.3868383827738741  0.8530303183271022
  0.3152607387531425  0.3236013392077540  0.6636588936985369
  0.5622325396963269  0.3182110780248164  0.0055430422175503
  0.1280508389578232  0.8484613179204823  0.3327048436694891
  0.3495475160616233  0.8037923985724227  0.0240812261605356
  0.0448857188739026  0.4310295592671691  0.7565681208931435
  0.4179629927786558  0.7827493065535199  0.1326740426512801
  0.4360567954722658  0.3153215484526659  0.2509147399561533
  0.1042326656623491  0.6944317934589678  0.5560789429076919
  0.2768004310068726  0.2491409649307362  0.9012487113139264
  0.2249604521472102  0.6573636320359953  0.5770396505288308
  0.0016215346716029  0.6891873229050756  0.7326775342385360
  0.6600700088539386  0.3248121746346626  0.6955198775191909
  0.2609074812030237  0.2027083648794242  0.4930804532437572
  0.8804402493148328  0.1050829368211899  0.6793479304515885
  0.0886401783756882  0.3455326787867804  0.5335637759583296
  0.9685028971246625  0.9634177128891636  0.6008515737584949
  0.0907342336670562  0.8119081713911082  0.6078766455065616
  0.9688170953667332  0.1673755439545777  0.6029954972924293
  0.7100242536814592  0.1084114732573070  0.1795196927691041
  0.3098771280873500  0.7633022513389014  0.2546238515976132
  0.7914545768658043  0.7448367010387363  0.2079478504050316
  0.0815231778999921  0.7013862777671676  0.9341871078240810
  0.9303218755525900  0.8402994337517138  0.3089274998412175
  0.9941995394337906  0.1557736013477594  0.8971571273856850
  0.0163592575513935  0.2418465716373038  0.4967172722027515
  0.6151278717897453  0.6902027620343278  0.6884949808287062
  0.0217236649937696  0.8592614848036111  0.0217213806782746
  0.2202733255493517  0.8163111926339901  0.0401494921378864
  0.3618422010460992  0.2065627527479287  0.2513636108070392
  0.3056402942835453  0.5366415371624007  0.9270723611251031
  0.4219945374801158  0.1026945666855476 -0.0005387278401689
  0.2870321544069956  0.1972325828727259  0.1440294016331171
  0.4644001513560704  0.4570251974254554 -0.0031067764912981
  0.0812453553929225  0.0439362605461590  0.2619999344542411
  0.1133333763245570  0.3627723867639831  0.1278577151503554
  0.4882423935988232  0.3967229195357717  0.3411869407737457
  0.4610574820583693  0.7848005593040381  0.7387977975642244
  0.9953038085881925  0.9823575621138564  0.8223170728749014
 -0.0038263583094249  0.0671947480914216  0.5278931116985940
  0.4931558576843126  0.8899837181626645  0.6659611315221075
  0.6155773163545930  0.8510866122042958  0.6880298576944986
  0.2775115872518822  0.5759892086901690  0.4925896176398454
  0.4895955187564520  0.6652797964479343  0.6974968812486706
  0.0835642655423237  0.9878503160600403  0.6575676829161805
  0.0787506192794826  0.6383676010859787  0.3145488250354438
  0.7317911312185029  0.3658374647568456  0.7919466549996735
  0.2050335175426476  0.4883458564185560  0.8510080104183232
  0.8768896634949348  0.5584136933664927  0.7206487550303200
  0.5802825125180900  0.1883337400626795  0.3086495621511302
  0.9148839401517331  0.3213014145332442  0.5233354949847228
  0.6889239343232015  0.1354208734042080  0.6461694206912046
  0.0102801384375219  0.1994566596268934  0.3640110239053160
  0.5854925984251536  0.4939078621395406  0.1574759641136633
  0.5721871141229727  0.0597338040903878  0.3306893134355166
  0.4249680727911835  0.6521332366080177  0.5889454673540599
  0.3428865001564830  0.8355240168291297  0.5253705589305643
  0.8307386813798819  0.0971301325705279  0.4039866002233244
  0.4485861526326340  0.2811660585580076  0.4826841207395611
  0.1384327019986563  0.0576922660077478  0.3865825365233994
  0.7772150790007913  0.7571396034097541  0.6855523060754299
  0.2822993517080782  0.8864237976024134  0.7724603848507798
  0.1321655257176173  0.8625493091435000  0.9507903068685589
  0.0482144458093630  0.3997043976547576  0.3769475077100924
  0.5333356593869356  0.6870959931970265  0.5206612820467624
  0.6640330096888228  0.5130886837154980  0.4993823910820750
  0.4135075313045793  0.8318058189627896  0.4186282463403696
  0.8376648181732841  0.0146948193865026  0.8826461823834878
  0.0746531552978480  0.7092838466639483  0.4298667539998355
  0.9087463594084547  0.0234079267677957  0.1963818394858408
  0.2425994981026723  0.0732128047796807  0.5236654920563759
  0.1892975503253438  0.7063827642943177  0.8540408121782418
  0.5640834655686624  0.6089783282310571  0.8693971477921698
  0.2785281699293730  0.3438000319588597  0.9885518286001445
  0.2334106708105903  0.8812494754086383  0.4829764564728545
  0.0855056972482369  0.4677210659243967  0.4800660201200049
  0.5709040816226401  0.5859080002197831  0.3366475951905628
  0.5602075215658767  0.9803663556607215  0.8447153327435745
  0.2380368277553110  0.3704138303177145  0.2680506804665377
  0.1272691483061439  0.5079080816814633  0.0026565911232430
  0.4791759450383355  0.5691457791712216  0.7826105104588668
  0.9354853140015210  0.3450376370945185  0.4035558407044745
  0.1937982920809498  0.6953480024438721  0.0809934143716410
  0.2502109492600922 -0.0084843393530067  0.4163215464739215
  0.3531659289629374  0.2737566621253907  0.0633598587313304
  0.0638550991361959  0.6723597192558636  0.0665657630822384
  0.7998205128224356  0.2732085330554375  0.5063880033130026
  0.7925595469431479  0.8135188914895335  0.8879989371948663
  0.1942467423504052  0.0684222383337440  0.8029339810443479
  0.0085824479037786  0.6283440697022658  0.6122738164048681
  0.7102480490493652  0.3081379164501623  0.1943622397992213
  0.5544697800547291  0.0996347084622834 -0.0019740895346966
  0.8186566600731138  0.4742970448657699  0.9484447946048082
  0.3195129169625897  0.1880402327766485  0.3780008162166357
  0.4096246439572770  0.0971835962911211  0.4002286878552899
  0.0478423503497204  0.4163130215732003  0.9552734091815592
  0.8406838814260387  0.8712219675576764  0.7121525003633826
  0.9125577333835576  0.2659785714122688  0.3075857419257623
  0.3751092266597230  0.5327282215549942  0.5692599639802431
  0.3944594091698039  0.9212825184182541  0.0234487253422000
  0.9785879045037210  0.5277490879864356  0.5178125856201379
  0.9252459763917590  0.5660552468150806  0.8440600051841909
  0.7540486110874711  0.0675200187273263  0.0643847685247549
  0.7642653080030700  0.6212023448039330  0.1994235950024488
  0.5044000537809447  0.1856880158867736  0.4127794151538015
  0.1600303826503342  0.8454526936025601  0.8182946934544153
  0.3727262002602397  0.4381345554504302  0.4038859523781937
  0.3163802857229341  0.7029823711955612  0.8278213307714068
  0.4489581728186504  0.0194384615186974  0.3011334613856991
  0.6879417660930042  0.4324463717977282  0.2186629213713562
  0.1166934782445865  0.3673205523135261  0.6597993086093962
  0.4008366192939262  0.3631494306203178  0.1395963881400114
  0.1524875332350848  0.5964332377780867  0.7945830123213489
  0.4291110779710292  0.3716529934712975  0.8301319002374261
  0.1790715216866945  0.9065725905900877  0.5970360019378609
  0.4688048493264448  0.8261784909381505  0.8596379394163014
  0.0606385848412258  0.8015663658761792  0.7330795448914426
  0.1848161343543336  0.7792138171604792  0.4206407085364264
  0.3526352419581269  0.5491487568006884  0.0499850628078101
  0.3947722083452481  0.6785444574773234  0.2058574497411174
  0.0636176346276240  0.9217606729018885  0.1312274772524242
  0.9357020011636557  0.4485184948863032  0.8961495009847614
  0.9291419956213433  0.3609697525493056  0.7957354723750444
  0.3528619809494277  0.6360624108157564  0.4041350379303100
  0.1989377704412101  0.4956594533117490  0.4208026675171764
  0.0211166553021130  0.8276129088406887  0.4045895592029430
  0.1671224677515344  0.1599888949284808  0.6348913623596085
  0.3423859354084611  0.9598653795211464  0.1358645789804197
  0.3629797892555552  0.5376743344070249  0.3202979764874208
  0.1756875211992497  0.9502134170771571  0.2712090934358676
  0.1683578425133331  0.5337176544964508  0.2931246258339739
  0.8266860589978898  0.9833483834270511  0.6451618039552310
  0.5172378588451123  0.3964048061739139  0.0974645087246885
  0.6315720495653626  0.7124539319178683  0.8171936947331125
  0.7015473099670663  0.8140150540764910  0.2699592773578600
  0.1408195245840739  0.9891126858457057  0.9779704892402471
  0.6341842316092935  0.2154610100175133  0.1484800443938865
  0.5375512730151407  0.2094865738191989  0.5562409795956580
  0.3668571199499620  0.0077263301323301  0.9342276142281628
  0.3951532068684853  0.7422296234021857  0.9220674923826681
  0.5526403353303202  0.9386632914246850  0.1625170908684285
  0.0913455947396366  0.7562527862178812  0.2505430736696501
  0.9151285079818436  0.3675755323406175  0.2263736355784941
  0.2412909272789824  0.0430848794147231  0.9192720340193009
  0.3562124750823919  0.4472578126840503  0.6659403089035471
  0.7642497123365991  0.5789216124887162  0.7841650876661150
  0.8746871167670313  0.5581085390663334  0.2175425244814343
  0.8449079961836896  0.8144386740348611  0.1113498725423499
  0.8174169189463685  0.4477846808146129  0.2522709497893197
  0.1999613955318512  0.7829957461638769  0.1876531443435016
  0.9560032494789878  0.8696943285021312  0.7714517191717546
  0.4972601444621620  0.2869733826348961  0.8998703339642501
  0.6263922246232588  0.2058777362131683  0.0219754376241066
  0.6122510190758256  0.2095054776411911  0.7217989732191359
  0.9242306461393478  0.5059226386946833  0.1078814629731228
  0.7591210341286706  0.1931793538266355  0.0197282279858585
  0.8338571761694107  0.4318925608491456  0.7413278774422500
  0.8298659181324604  0.9719192356863651  0.0121722985447429
  0.3098654892028868  0.4563707602306121  0.1288324092821586
  0.1969892263548318  0.2744263840278374  0.6919572339728944
  0.9683138069347302  0.0996173724657625  0.7793935320560130
  0.4818564520652291  0.5767321718023086  0.0630401919642493
  0.3889627112187061  0.9317157173937386  0.5942008630177151
  0.8098612543693622  0.1753973418271582  0.9008349238788150
  0.3575172915057593  0.8707944066456672  0.3088664966410440
  0.5517494375905853  0.5704492770147339  0.4664545095409079
  0.2819834144512876  0.5079928326062753  0.7486320743120467
  0.0256151196300079  0.0329662553744466  0.9366913715154430
  0.2775639228828012  0.5398972760221524  0.2224999267615373
  0.6656877268587825  0.1862241146781871  0.5195060865581630
  0.6777074848129075  0.9188968185410654  0.1992889558520000
  0.7437372021812891  0.5529010647085988  0.5957659693481084
  0.3621726462250833  0.4205659642057930  0.9277834487137105
  0.2547196853164225  0.0802222802743290  0.6870818115167698
  0.7162362930781704  0.2630696241832365  0.8759273104223094
  0.1521749377815917  0.3276751245940366  0.3556922346280372
  0.0196063189028928  0.0506292313976919  0.1232740723491811
 -0.0011385089318099  0.4554089963957570  0.2757161339763586
  0.4130287872381063  0.0428672316383096  0.5257973780438949
  0.5696688243286058  0.5170883096018035  0.9613407830196888
  0.8313887646958040  0.6465862335620848  0.6268239046669490
  0.6791311650322700  0.0245945780231998  0.2712913605694666
  0.2151491380990705  0.9090712619943114  0.1424176066474152
  0.6634800571705060  0.0298979466440487  0.9807791325028469
  0.2051910174548936  0.4211174569788499  0.0594557937171877
  0.7834770126963002  0.7906689908792448  0.3883307977705219
  0.3029290039106491 -0.0125762824410785  0.2972638952399065
  0.5216041808074862  0.7026497991335748  0.3084668671594464
  0.5419779617278533  0.7885844594238058  0.0952532347832551
  0.6393806335462672  0.4213587417340924  0.3348360337328080
  0.2046052074528662  0.1585412216642197  0.9651536081447537
  0.6802653487784988  0.9296691910055177  0.4398350909178133
  0.5585889725737619  0.0630396067453637  0.1443323498528985
  0.8074512833393714  0.1456345996436393  0.5177996282473640
  0.4697434822797488  0.9862014031141227  0.7484753204611417
  0.3608972581833376  0.2824332073176894  0.7742816392443758
  0.8295750670606037  0.9664685347562387  0.5209306529779306
  0.8361881756906657  0.1387075550531542  0.2055673539224960
  0.4973641362882551  0.2430476910103934  0.6795103873955841
  0.9227833681990446  0.8031321598159769  0.8794386546619327
  0.7235873551680285  0.0786997251882747  0.8760422416378624
 -0.0309775955827569 -0.0050650953574535  0.3135876611209427
  0.6936553876774764  0.0033116870409223  0.6556393510590294
  0.8527468176735382  0.5748958891364896  0.0228788709257838
  0.4807040839628929  0.5135619071141435  0.2724386503641184
  0.2550697680340164  0.6975875355181529  0.3492729446309604
  0.2133006018905083  0.1385607451909140  0.3158311275214500
  0.8274769108717011  0.4462804833792736  0.3797572548339216
  0.5291855268980652  0.0764305618698843  0.5683503811417552
  0.5009287392569325  0.9078703913910415  0.4603420058330535
  0.8710608750726405  0.7257664977923273  0.3096212705573437
  0.6478686797077956  0.4388447720764895  0.8556836458566550
  0.6996133055545037  0.7043907617323800  0.0119712488826105
  0.9016381277789645  0.7957671066533163  0.5623999429233461
  0.6661850558099331  0.5656690968607517  0.6984582591819227
  0.5361750782407242  0.1089460843200373  0.8649346466183665
  0.7864197825196539  0.1784013516869452  0.7134593276230186
 
  0.00000000E+00  0.00000000E+00  0.00000000E+00
  0.00000000E+00  0.00000000E+00  0.00000000E+00
  0.00000000E+00  0.00000000E+00  0.00000000E+00
  0.00000000E+00  0.00000000E+00  0.00000000E+00
  0.00000000E+00  0.00000000E+00  0.00000000E+00
  0.00000000E+00  0.00000000E+00  0.00000000E+00
  0.00000000E+00  0.00000000E+00  0.00000000E+00
  0.00000000E+00  0.00000000E+00  0.00000000E+00
  0.00000000E+00  0.00000000E+00  0.00000000E+00
  0.00000000E+00  0.00000000E+00  0.00000000E+00
  0.00000000E+00  0.00000000E+00  0.00000000E+00
  0.00000000E+00  0.00000000E+00  0.00000000E+00
  0.00000000E+00  0.00000000E+00  0.00000000E+00
  0.00000000E+00  0.00000000E+00  0.00000000E+00
  0.00000000E+00  0.00000000E+00  0.00000000E+00
  0.00000000E+00  0.00000000E+00  0.00000000E+00
  0.00000000E+00  0.00000000E+00  0.00000000E+00
  0.00000000E+00  0.00000000E+00  0.00000000E+00
  0.00000000E+00  0.00000000E+00  0.00000000E+00
  0.00000000E+00  0.00000000E+00  0.00000000E+00
  0.00000000E+00  0.00000000E+00  0.00000000E+00
  0.00000000E+00  0.00000000E+00  0.00000000E+00
  0.00000000E+00  0.00000000E+00  0.00000000E+00
  0.00000000E+00  0.00000000E+00  0.00000000E+00
  0.00000000E+00  0.00000000E+00  0.00000000E+00
  0.00000000E+00  0.00000000E+00  0.00000000E+00
  0.00000000E+00  0.00000000E+00  0.00000000E+00
  0.00000000E+00  0.00000000E+00  0.00000000E+00
  0.00000000E+00  0.00000000E+00  0.00000000E+00
  0.00000000E+00  0.00000000E+00  0.00000000E+00
  0.00000000E+00  0.00000000E+00  0.00000000E+00
  0.00000000E+00  0.00000000E+00  0.00000000E+00
  0.00000000E+00  0.00000000E+00  0.00000000E+00
  0.00000000E+00  0.00000000E+00  0.00000000E+00
  0.00000000E+00  0.00000000E+00  0.00000000E+00
  0.00000000E+00  0.00000000E+00  0.00000000E+00
  0.00000000E+00  0.00000000E+00  0.00000000E+00
  0.00000000E+00  0.00000000E+00  0.00000000E+00
  0.00000000E+00  0.00000000E+00  0.00000000E+00
  0.00000000E+00  0.00000000E+00  0.00000000E+00
  0.00000000E+00  0.00000000E+00  0.00000000E+00
  0.00000000E+00  0.00000000E+00  0.00000000E+00
  0.00000000E+00  0.00000000E+00  0.00000000E+00
  0.00000000E+00  0.00000000E+00  0.00000000E+00
  0.00000000E+00  0.00000000E+00  0.00000000E+00
  0.00000000E+00  0.00000000E+00  0.00000000E+00
  0.00000000E+00  0.00000000E+00  0.00000000E+00
  0.00000000E+00  0.00000000E+00  0.00000000E+00
  0.00000000E+00  0.00000000E+00  0.00000000E+00
  0.00000000E+00  0.00000000E+00  0.00000000E+00
  0.00000000E+00  0.00000000E+00  0.00000000E+00
  0.00000000E+00  0.00000000E+00  0.00000000E+00
  0.00000000E+00  0.00000000E+00  0.00000000E+00
  0.00000000E+00  0.00000000E+00  0.00000000E+00
  0.00000000E+00  0.00000000E+00  0.00000000E+00
  0.00000000E+00  0.00000000E+00  0.00000000E+00
  0.00000000E+00  0.00000000E+00  0.00000000E+00
  0.00000000E+00  0.00000000E+00  0.00000000E+00
  0.00000000E+00  0.00000000E+00  0.00000000E+00
  0.00000000E+00  0.00000000E+00  0.00000000E+00
  0.00000000E+00  0.00000000E+00  0.00000000E+00
  0.00000000E+00  0.00000000E+00  0.00000000E+00
  0.00000000E+00  0.00000000E+00  0.00000000E+00
  0.00000000E+00  0.00000000E+00  0.00000000E+00
  0.00000000E+00  0.00000000E+00  0.00000000E+00
  0.00000000E+00  0.00000000E+00  0.00000000E+00
  0.00000000E+00  0.00000000E+00  0.00000000E+00
  0.00000000E+00  0.00000000E+00  0.00000000E+00
  0.00000000E+00  0.00000000E+00  0.00000000E+00
  0.00000000E+00  0.00000000E+00  0.00000000E+00
  0.00000000E+00  0.00000000E+00  0.00000000E+00
  0.00000000E+00  0.00000000E+00  0.00000000E+00
  0.00000000E+00  0.00000000E+00  0.00000000E+00
  0.00000000E+00  0.00000000E+00  0.00000000E+00
  0.00000000E+00  0.00000000E+00  0.00000000E+00
  0.00000000E+00  0.00000000E+00  0.00000000E+00
  0.00000000E+00  0.00000000E+00  0.00000000E+00
  0.00000000E+00  0.00000000E+00  0.00000000E+00
  0.00000000E+00  0.00000000E+00  0.00000000E+00
  0.00000000E+00  0.00000000E+00  0.00000000E+00
  0.00000000E+00  0.00000000E+00  0.00000000E+00
  0.00000000E+00  0.00000000E+00  0.00000000E+00
  0.00000000E+00  0.00000000E+00  0.00000000E+00
  0.00000000E+00  0.00000000E+00  0.00000000E+00
  0.00000000E+00  0.00000000E+00  0.00000000E+00
  0.00000000E+00  0.00000000E+00  0.00000000E+00
  0.00000000E+00  0.00000000E+00  0.00000000E+00
  0.00000000E+00  0.00000000E+00  0.00000000E+00
  0.00000000E+00  0.00000000E+00  0.00000000E+00
  0.00000000E+00  0.00000000E+00  0.00000000E+00
  0.00000000E+00  0.00000000E+00  0.00000000E+00
  0.00000000E+00  0.00000000E+00  0.00000000E+00
  0.00000000E+00  0.00000000E+00  0.00000000E+00
  0.00000000E+00  0.00000000E+00  0.00000000E+00
  0.00000000E+00  0.00000000E+00  0.00000000E+00
  0.00000000E+00  0.00000000E+00  0.00000000E+00
  0.00000000E+00  0.00000000E+00  0.00000000E+00
  0.00000000E+00  0.00000000E+00  0.00000000E+00
  0.00000000E+00  0.00000000E+00  0.00000000E+00
  0.00000000E+00  0.00000000E+00  0.00000000E+00
  0.00000000E+00  0.00000000E+00  0.00000000E+00
  0.00000000E+00  0.00000000E+00  0.00000000E+00
  0.00000000E+00  0.00000000E+00  0.00000000E+00
  0.00000000E+00  0.00000000E+00  0.00000000E+00
  0.00000000E+00  0.00000000E+00  0.00000000E+00
  0.00000000E+00  0.00000000E+00  0.00000000E+00
  0.00000000E+00  0.00000000E+00  0.00000000E+00
  0.00000000E+00  0.00000000E+00  0.00000000E+00
  0.00000000E+00  0.00000000E+00  0.00000000E+00
  0.00000000E+00  0.00000000E+00  0.00000000E+00
  0.00000000E+00  0.00000000E+00  0.00000000E+00
  0.00000000E+00  0.00000000E+00  0.00000000E+00
  0.00000000E+00  0.00000000E+00  0.00000000E+00
  0.00000000E+00  0.00000000E+00  0.00000000E+00
  0.00000000E+00  0.00000000E+00  0.00000000E+00
  0.00000000E+00  0.00000000E+00  0.00000000E+00
  0.00000000E+00  0.00000000E+00  0.00000000E+00
  0.00000000E+00  0.00000000E+00  0.00000000E+00
  0.00000000E+00  0.00000000E+00  0.00000000E+00
  0.00000000E+00  0.00000000E+00  0.00000000E+00
  0.00000000E+00  0.00000000E+00  0.00000000E+00
  0.00000000E+00  0.00000000E+00  0.00000000E+00
  0.00000000E+00  0.00000000E+00  0.00000000E+00
  0.00000000E+00  0.00000000E+00  0.00000000E+00
  0.00000000E+00  0.00000000E+00  0.00000000E+00
  0.00000000E+00  0.00000000E+00  0.00000000E+00
  0.00000000E+00  0.00000000E+00  0.00000000E+00
  0.00000000E+00  0.00000000E+00  0.00000000E+00
  0.00000000E+00  0.00000000E+00  0.00000000E+00
  0.00000000E+00  0.00000000E+00  0.00000000E+00
  0.00000000E+00  0.00000000E+00  0.00000000E+00
  0.00000000E+00  0.00000000E+00  0.00000000E+00
  0.00000000E+00  0.00000000E+00  0.00000000E+00
  0.00000000E+00  0.00000000E+00  0.00000000E+00
  0.00000000E+00  0.00000000E+00  0.00000000E+00
  0.00000000E+00  0.00000000E+00  0.00000000E+00
  0.00000000E+00  0.00000000E+00  0.00000000E+00
  0.00000000E+00  0.00000000E+00  0.00000000E+00
  0.00000000E+00  0.00000000E+00  0.00000000E+00
  0.00000000E+00  0.00000000E+00  0.00000000E+00
  0.00000000E+00  0.00000000E+00  0.00000000E+00
  0.00000000E+00  0.00000000E+00  0.00000000E+00
  0.00000000E+00  0.00000000E+00  0.00000000E+00
  0.00000000E+00  0.00000000E+00  0.00000000E+00
  0.00000000E+00  0.00000000E+00  0.00000000E+00
  0.00000000E+00  0.00000000E+00  0.00000000E+00
  0.00000000E+00  0.00000000E+00  0.00000000E+00
  0.00000000E+00  0.00000000E+00  0.00000000E+00
  0.00000000E+00  0.00000000E+00  0.00000000E+00
  0.00000000E+00  0.00000000E+00  0.00000000E+00
  0.00000000E+00  0.00000000E+00  0.00000000E+00
  0.00000000E+00  0.00000000E+00  0.00000000E+00
  0.00000000E+00  0.00000000E+00  0.00000000E+00
  0.00000000E+00  0.00000000E+00  0.00000000E+00
  0.00000000E+00  0.00000000E+00  0.00000000E+00
  0.00000000E+00  0.00000000E+00  0.00000000E+00
  0.00000000E+00  0.00000000E+00  0.00000000E+00
  0.00000000E+00  0.00000000E+00  0.00000000E+00
  0.00000000E+00  0.00000000E+00  0.00000000E+00
  0.00000000E+00  0.00000000E+00  0.00000000E+00
  0.00000000E+00  0.00000000E+00  0.00000000E+00
  0.00000000E+00  0.00000000E+00  0.00000000E+00
  0.00000000E+00  0.00000000E+00  0.00000000E+00
  0.00000000E+00  0.00000000E+00  0.00000000E+00
  0.00000000E+00  0.00000000E+00  0.00000000E+00
  0.00000000E+00  0.00000000E+00  0.00000000E+00
  0.00000000E+00  0.00000000E+00  0.00000000E+00
  0.00000000E+00  0.00000000E+00  0.00000000E+00
  0.00000000E+00  0.00000000E+00  0.00000000E+00
  0.00000000E+00  0.00000000E+00  0.00000000E+00
  0.00000000E+00  0.00000000E+00  0.00000000E+00
  0.00000000E+00  0.00000000E+00  0.00000000E+00
  0.00000000E+00  0.00000000E+00  0.00000000E+00
  0.00000000E+00  0.00000000E+00  0.00000000E+00
  0.00000000E+00  0.00000000E+00  0.00000000E+00
  0.00000000E+00  0.00000000E+00  0.00000000E+00
  0.00000000E+00  0.00000000E+00  0.00000000E+00
  0.00000000E+00  0.00000000E+00  0.00000000E+00
  0.00000000E+00  0.00000000E+00  0.00000000E+00
  0.00000000E+00  0.00000000E+00  0.00000000E+00
  0.00000000E+00  0.00000000E+00  0.00000000E+00
  0.00000000E+00  0.00000000E+00  0.00000000E+00
  0.00000000E+00  0.00000000E+00  0.00000000E+00
  0.00000000E+00  0.00000000E+00  0.00000000E+00
  0.00000000E+00  0.00000000E+00  0.00000000E+00
  0.00000000E+00  0.00000000E+00  0.00000000E+00
  0.00000000E+00  0.00000000E+00  0.00000000E+00
  0.00000000E+00  0.00000000E+00  0.00000000E+00
  0.00000000E+00  0.00000000E+00  0.00000000E+00
  0.00000000E+00  0.00000000E+00  0.00000000E+00
  0.00000000E+00  0.00000000E+00  0.00000000E+00
  0.00000000E+00  0.00000000E+00  0.00000000E+00
  0.00000000E+00  0.00000000E+00  0.00000000E+00
  0.00000000E+00  0.00000000E+00  0.00000000E+00
  0.00000000E+00  0.00000000E+00  0.00000000E+00
  0.00000000E+00  0.00000000E+00  0.00000000E+00
  0.00000000E+00  0.00000000E+00  0.00000000E+00
  0.00000000E+00  0.00000000E+00  0.00000000E+00
  0.00000000E+00  0.00000000E+00  0.00000000E+00
  0.00000000E+00  0.00000000E+00  0.00000000E+00
  0.00000000E+00  0.00000000E+00  0.00000000E+00
  0.00000000E+00  0.00000000E+00  0.00000000E+00
  0.00000000E+00  0.00000000E+00  0.00000000E+00
  0.00000000E+00  0.00000000E+00  0.00000000E+00
  0.00000000E+00  0.00000000E+00  0.00000000E+00
  0.00000000E+00  0.00000000E+00  0.00000000E+00
  0.00000000E+00  0.00000000E+00  0.00000000E+00
  0.00000000E+00  0.00000000E+00  0.00000000E+00
  0.00000000E+00  0.00000000E+00  0.00000000E+00
  0.00000000E+00  0.00000000E+00  0.00000000E+00
  0.00000000E+00  0.00000000E+00  0.00000000E+00
  0.00000000E+00  0.00000000E+00  0.00000000E+00
  0.00000000E+00  0.00000000E+00  0.00000000E+00
  0.00000000E+00  0.00000000E+00  0.00000000E+00
  0.00000000E+00  0.00000000E+00  0.00000000E+00
  0.00000000E+00  0.00000000E+00  0.00000000E+00
  0.00000000E+00  0.00000000E+00  0.00000000E+00
  0.00000000E+00  0.00000000E+00  0.00000000E+00
  0.00000000E+00  0.00000000E+00  0.00000000E+00
  0.00000000E+00  0.00000000E+00  0.00000000E+00
  0.00000000E+00  0.00000000E+00  0.00000000E+00
  0.00000000E+00  0.00000000E+00  0.00000000E+00
  0.00000000E+00  0.00000000E+00  0.00000000E+00
  0.00000000E+00  0.00000000E+00  0.00000000E+00
  0.00000000E+00  0.00000000E+00  0.00000000E+00
  0.00000000E+00  0.00000000E+00  0.00000000E+00
  0.00000000E+00  0.00000000E+00  0.00000000E+00
  0.00000000E+00  0.00000000E+00  0.00000000E+00
  0.00000000E+00  0.00000000E+00  0.00000000E+00
  0.00000000E+00  0.00000000E+00  0.00000000E+00
  0.00000000E+00  0.00000000E+00  0.00000000E+00
  0.00000000E+00  0.00000000E+00  0.00000000E+00