In2O3 structure 22 - random placement wi
   1.00000000000000     
     8.0149017624804504    0.0019705675102358   -0.0842025135904023
     0.0019941288987076    8.0805561350480044    0.0011990027675665
    -0.0836011857315392    0.0012714835693732    8.0183162630634754
   In   O 
    16    24
Direct
  0.4456439400161030  0.1309523323644314  0.8737286880184261
  0.4758700467071891  0.6312497620690529  0.3439898811831312
  0.1981260951484115  0.8585378991186432  0.1256206863262360
  0.7258073469615464  0.3583553400632820  0.5935912543146493
  0.1957835660285474  0.8586723799543883  0.6234514746390259
  0.2258065902610839  0.3589420722787765  0.0936288138785177
  0.6981157031756245  0.8588487171003372  0.6259250750254729
  0.9481632998514354  0.1312637071115129  0.8762454811719739
  0.4782431366477611  0.6311044433319339  0.8460566765660185
  0.2281522616775712  0.3584966900888608  0.5962862571062346
  0.7279697461459839  0.3586266654712234  0.0962587031744443
  0.4481086650209692  0.1311163959588311  0.3760390894846820
  0.9784395483140521  0.6310869928234345  0.3460038616024254
  0.9754860391498369  0.6312283006285840  0.8432619394753672
  0.9458462347683270  0.1310552584372255  0.3734562483775117
  0.6958576264779953  0.8584150158063455  0.1235551916705204
  0.8402492519920898  0.3950610258216701  0.8416024421641022
  0.6922230394903864  0.2444831010358016  0.3400704264596903
  0.4821710538565429  0.2445753620055085  0.6298530406462334
  0.7306549770716523  0.5944172188611356  0.2316634704519712
  0.4421487251678061  0.7442819590529719  0.0901311100022844
  0.9421128102236437  0.7446975770948713  0.5897463338787576
  0.7319154139057739  0.7454438526416235  0.8796531315892137
  0.0899412591152261  0.5950426273671726  0.0910455652613293
  0.1933057127662330  0.0948707755990368  0.4884926096341821
  0.2305324774195637  0.5944785765088045  0.7314360288929163
  0.9437748989328208  0.8949182908975892  0.2383489514039500
  0.3328452315964299  0.0946595130142454  0.1286050877456557
  0.0836299555455732  0.8954008461904635  0.8777304998666428
  0.9818807321611777  0.2455115607935602  0.1297684746726732
  0.5837813062536522  0.8953593384656738  0.3778217613728433
  0.5907516032411264  0.5947052015214116  0.5915979490949487
  0.1922168257197136  0.2446744518849019  0.8401093584953517
  0.3405035428634289  0.3951235075223189  0.3417527563854525
  0.4801749782923921  0.3950769281198483  0.9812531157546319
  0.4436226585806700  0.8947824959827743  0.7384200950100464
  0.6932340915546655  0.0947419566963078  0.9886024092656737
  0.8335921278033075  0.0945382358154013  0.6286052095391355
  0.2321745202916179  0.7456544624164638  0.3795378836639787
  0.9802222598065681  0.3950650958123951  0.4812299739941792
 
  0.00000000E+00  0.00000000E+00  0.00000000E+00
  0.00000000E+00  0.00000000E+00  0.00000000E+00
  0.00000000E+00  0.00000000E+00  0.00000000E+00
  0.00000000E+00  0.00000000E+00  0.00000000E+00
  0.00000000E+00  0.00000000E+00  0.00000000E+00
  0.00000000E+00  0.00000000E+00  0.00000000E+00
  0.00000000E+00  0.00000000E+00  0.00000000E+00
  0.00000000E+00  0.00000000E+00  0.00000000E+00
  0.00000000E+00  0.00000000E+00  0.00000000E+00
  0.00000000E+00  0.00000000E+00  0.00000000E+00
  0.00000000E+00  0.00000000E+00  0.00000000E+00
  0.00000000E+00  0.00000000E+00  0.00000000E+00
  0.00000000E+00  0.00000000E+00  0.00000000E+00
  0.00000000E+00  0.00000000E+00  0.00000000E+00
  0.00000000E+00  0.00000000E+00  0.00000000E+00
  0.00000000E+00  0.00000000E+00  0.00000000E+00
  0.00000000E+00  0.00000000E+00  0.00000000E+00
  0.00000000E+00  0.00000000E+00  0.00000000E+00
  0.00000000E+00  0.00000000E+00  0.00000000E+00
  0.00000000E+00  0.00000000E+00  0.00000000E+00
  0.00000000E+00  0.00000000E+00  0.00000000E+00
  0.00000000E+00  0.00000000E+00  0.00000000E+00
  0.00000000E+00  0.00000000E+00  0.00000000E+00
  0.00000000E+00  0.00000000E+00  0.00000000E+00
  0.00000000E+00  0.00000000E+00  0.00000000E+00
  0.00000000E+00  0.00000000E+00  0.00000000E+00
  0.00000000E+00  0.00000000E+00  0.00000000E+00
  0.00000000E+00  0.00000000E+00  0.00000000E+00
  0.00000000E+00  0.00000000E+00  0.00000000E+00
  0.00000000E+00  0.00000000E+00  0.00000000E+00
  0.00000000E+00  0.00000000E+00  0.00000000E+00
  0.00000000E+00  0.00000000E+00  0.00000000E+00
  0.00000000E+00  0.00000000E+00  0.00000000E+00
  0.00000000E+00  0.00000000E+00  0.00000000E+00
  0.00000000E+00  0.00000000E+00  0.00000000E+00
  0.00000000E+00  0.00000000E+00  0.00000000E+00
  0.00000000E+00  0.00000000E+00  0.00000000E+00
  0.00000000E+00  0.00000000E+00  0.00000000E+00
  0.00000000E+00  0.00000000E+00  0.00000000E+00
  0.00000000E+00  0.00000000E+00  0.00000000E+00
