Amorphous GeS                           
   1.00000000000000     
    19.3276774052841560    0.0000000000000000    0.0000000000000000
     0.0000000000000000   19.3276774052841560    0.0000000000000000
     0.0000000000000000    0.0000000000000000   19.3276774052841560
   Ge   S 
   150   150
Direct
  0.0320637265842820  0.6515281378437640  0.7370053201308637
  0.6768548461678104  0.9100936080587058  0.3124999391229627
  0.3661702192094091  0.6534146701904443  0.7046695124734400
  0.4064677732697704  0.6868169150521037  0.5134432097088435
  0.2077601925550262  0.7933354202789580  0.1843823245579549
  0.0990889013214996  0.6002076531271455  0.0778556262780733
  0.5791294853640714  0.9404462931411769  0.6344409100855406
  0.1388870632579873  0.3279237068184506  0.7742638052504613
  0.0885006049502535  0.0242735469001854  0.0706574700529426
  0.5944672037133253  0.7631765093799390  0.5702266155426268
  0.0648626817218698  0.9573789940203310  0.9031587045093872
  0.8058767081706355  0.3012670358504265  0.1057554409222604
  0.6089365028275910  0.3624414138689907  0.6058107330485093
  0.6502625499830541  0.0597015215781915  0.7413485116389249
  0.6031428594223119  0.8389426796527653  0.0989884266259472
  0.9435879648820265  0.9521200331475507  0.9594881265147417
  0.7630859657418049  0.1134532026106175  0.4252853894282789
  0.3357918405401097  0.6790801696656692  0.2930251771711320
  0.0262945487300157  0.2708337498864377  0.4287782696755935
  0.6119191881148625  0.2857394601745306  0.3937451562122672
  0.8597232781495407  0.0210776239983956  0.2939932269104815
  0.1544941630802869  0.1661089091363470  0.4463588778377304
  0.3361424717235950  0.3534612048577255  0.3652039688875924
  0.8704463479019524  0.9094559161078947  0.4043077357877372
  0.2531439108415077  0.1880425129825727  0.8214438208443806
  0.4571067935134816  0.5393202157209434  0.8539799414955800
  0.6716194481551283  0.9018688830446884  0.8008319719235872
  0.1384048941865740  0.8665146691987676  0.7367082373945057
  0.4362755226205320  0.3157042427476545  0.1356171774014839
  0.8444218489555733  0.8047577016238030  0.0447973745454509
  0.2532739064804306  0.8818893814205804  0.9063575782006035
  0.1185048936189260  0.1356195444546554  0.2077681225014393
  0.6485446832727766  0.2545729253403922  0.1724652672835334
  0.2970428746372430  0.0083149802500072  0.5682577164374227
  0.0059004619309440  0.6881858188127308  0.2421789045988152
  0.1658525186010679  0.6334649641361698  0.2624897870310169
  0.0285297738393132  0.4592830850558188  0.4623180973624335
  0.8245068837746026  0.9447148038899158  0.9050635167163968
  0.9633666236560989  0.5004694121030627  0.6802357807800773
  0.4941969860919326  0.6613581469764575  0.4138846315071630
  0.9630128199336349  0.7567219174259094  0.8792635012848821
  0.4308538686117551  0.4782409993861860  0.0348635605195280
  0.8125029868248700  0.8995261722732319  0.7777907939554877
  0.4188192291490281  0.4060496571450543  0.6618362957988165
  0.3350224191828235  0.1632910452772723  0.6510579835470446
  0.1808299039275201  0.1652533194273676  0.0655865943681461
  0.3211601638701942  0.6040518151619721  0.1260207325389574
  0.0889743168484498  0.2849649554245092  0.0223907397590535
  0.4839537986711322  0.7080921419240639  0.2119727942914780
  0.6801037693107510  0.8504966669343346  0.5111601785348453
  0.3375989525733707  0.5082728844858059  0.4944071558926700
  0.7645059578261778  0.0046746850654110  0.6176475130153825
  0.2127500114245064  0.6817485023379608  0.4789200268208083
  0.0018390299236200  0.7768671863959030  0.5050099151366553
  0.6979154023713532  0.5295861326385638  0.6789925945240038
  0.9435276064100296  0.2621838104088588  0.1780348292182516
  0.6052432113130592  0.6828221386608644  0.7412530188573601
  0.1822077636370581  0.7422454598641705  0.8471631113488063
  0.4916519836163837  0.0069524508922797  0.9170919179797105
  0.9435373457505901  0.3538233262498329  0.8663599915574529
  0.7300057208728571  0.5530997372177247  0.0177084003358461
  0.7664672232501806  0.7208331808998217  0.6364064368211678
  0.8333956844127054  0.2001917654202460  0.2621258131959477
  0.3304186058621454  0.9933892512514220  0.7690981640842769
  0.3071692797813817  0.8060146970158735  0.7434288423730726
  0.6699420732384636  0.3627597747546987  0.8509866548304382
  0.4825063301765901  0.0532083875872449  0.2103517230797726
  0.2133233451617736  0.3279372041832467  0.4432753521625175
  0.2445790013943604  0.6972744166624527  0.0163700746512815
  0.4148952073398720  0.2391160573441762  0.5655369017531212
  0.8386960662473314  0.8072862650248466  0.2445792728861902
  0.0805032557774610  0.5797483334081109  0.4635364661557007
  0.4576934189050292  0.1357121330995756  0.0502271142860386
  0.8135038400944120  0.2510057038010243  0.5332918145411196
  0.4434075225579335  0.3761169000888611  0.4524028768111355
  0.2409404221956813  0.0697964322401138  0.9253896744687503
  0.2275859613505361  0.9840503288514668  0.4142268010403139
  0.0505735417450990  0.4408771813130960  0.8951035928252765
  0.1748576267990530  0.8614251890247739  0.5556491308987768
  0.5588875956876969  0.0094560169341846  0.1107581716746154
  0.4252780144273220  0.0287175000846364  0.3872160447428378
  0.5734769660767997  0.2471795824038807  0.7160976199938281
  0.0023329000035279  0.2162265470355794  0.6255585019746392
  0.1224305737746387  0.3080862994702624  0.2349410980632718
  0.0421019253932854  0.0007083521699301  0.5554064551428057
  0.9579502193606483  0.9351859186594599  0.1361267532995732
  0.0485379111262150  0.9457075163288126  0.3337220674413613
  0.1552520434600061  0.5840947671882841  0.9262491089941863
  0.5051524983080922  0.4110582039394072  0.8417612020329160
  0.8558724948259081  0.6723351053205660  0.3981790596050288
  0.8223667884885483  0.1041011864066516  0.0332756836300727
  0.8496892478264911  0.4471935398228748  0.4218600812658341
  0.5058999132965610  0.3560043602711639  0.3051386741922868
  0.6691840201567013  0.4415713479305861  0.3372160274539244
  0.7968332683036004  0.3670012691387581  0.6037636434782850
  0.4616543319876619  0.2285084516488672  0.2871870061687417
  0.6601836337906722  0.5264479101447537  0.1932209593940415
  0.9057666506929162  0.1950618978956565  0.9636961582111574
  0.4682080595262816  0.7421283385614821  0.8303699521843113
  0.3019448847585228  0.6122845974214769  0.8872984689387097
  0.0849322886881061  0.3822270058958112  0.5610384091184544
  0.3429907890512653  0.7945852885263552  0.5830491021845071
  0.5357454903162093  0.5532718605172863  0.3420832991029772
  0.5344369526498194  0.5542559169271396  0.5598554678411947
  0.1527050175354903  0.4183547974528867  0.1194340947229348
  0.4008537219867822  0.2859022389611406  0.9529456097570876
  0.8871869759000899  0.7347073757726448  0.7064156421974643
  0.9636887777528481  0.9393533460606148  0.7034488794506925
  0.2105849301819275  0.4829972508215547  0.5518563350317343
  0.8632367473311480  0.4478308801096150  0.9455375141625679
  0.6934455615647037  0.6236219155646857  0.4683077101748399
  0.1359828619830620  0.5159686008197226  0.7120301067472622
  0.9586897802064177  0.6005739002804561  0.9848241475678696
  0.0559154453565873  0.8094942980868387  0.3371472687874434
  0.2398049896622841  0.9148241334669288  0.0802834435533542
  0.4100184825565248  0.8958238202089885  0.2994731570611125
  0.3072158144475139  0.3654222928426093  0.1202888622763318
  0.6610721710873154  0.1915581123457168  0.4733549170604224
  0.6025458598055511  0.6097779348363174  0.9198379909319793
  0.2535258022508552  0.3914051018065174  0.9360997228205891
  0.8042782046857238  0.3480744306171997  0.2831158993572218
  0.4107953521240617  0.2056726881918307  0.8464173726465171
  0.5255685823346853  0.9436135369272707  0.4664599927358995
  0.6931882200327587  0.0900930009197028  0.2375408394552673
  0.7365566838318571  0.3018569196599857  0.9514677144938165
  0.4245883765120163  0.8401123268592370  0.0963871655475699
  0.4766423117841913  0.0239391193955224  0.6907211752604749
  0.0341282019952908  0.0955389976717955  0.3762416845833055
  0.3483083066130340  0.0471748087471163  0.1837903064289075
  0.6672640705939092  0.7269606930685962  0.2961220246836227
  0.5606473307581084  0.4229784578097910  0.0476485635111476
  0.4943658420843644  0.8683309018538299  0.7716586303156894
  0.9068971963581932  0.0829943315879109  0.5954086974452198
  0.1584603699415802  0.2269854740140524  0.6803723117259692
  0.8107283053936134  0.8521426929838132  0.5101980112530915
  0.9902014865644230  0.3822308250520661  0.3017443776667397
  0.8408876305736338  0.1251825790523266  0.8179118503748887
  0.9678856138379142  0.5254341865495357  0.1571313429419435
  0.8284926872364434  0.6734623771352142  0.1467508277082029
  0.7683278916172440  0.6764023331238300  0.8768253871949661
  0.0680115080193968  0.2015035752433038  0.8750186179920497
  0.5023971110570832  0.1382292790270533  0.5610217414069200
  0.8028331402019790  0.4560336883984461  0.7508449442559304
  0.5042370747080588  0.6279154513310248  0.0852470232411208
  0.6180221042585643  0.1617582921919981  0.8806347379430315
  0.2916454478337576  0.1481986033621721  0.3250007735128083
  0.3697752028650989  0.5220671853425753  0.3094148973637776
  0.7672035954177482  0.9813437210182508  0.0906386323514367
  0.8901204884010872  0.5773030480706818  0.5666800921548957
  0.6249076252611877  0.8052614600624819  0.9401200830150687
  0.7201890470063935  0.2285382920514099  0.0447719551101286
  0.7122164659485869  0.0317954656114165  0.3470158265363120
  0.3502165626312161  0.7253989654570299  0.8493196438653410
  0.1386707782339459  0.1517621682165874  0.7805535800036258
  0.5748721249180666  0.0930339176178774  0.0302841735052074
  0.8007827967913350  0.6026745525978088  0.6539258034246018
  0.7570992809555961  0.4466714599826350  0.8648699536738461
 -0.0049106452110623  0.9883855230314401  0.4376320262766670
  0.0780216912065634  0.8654675857443541  0.6313058032185141
  0.3473845770760404  0.5288348120282098  0.8125966123275253
  0.9231551680585648  0.3154264082963184  0.3799242442935776
  0.3686007433517721  0.3816016666542414  0.5489208458118099
  0.7685980569233931  0.5651740699991985  0.1374476080213870
  0.8687823451742008  0.0070977748258227  0.7566020069028553
  0.9016814323952334  0.3760720590765088  0.2075007362937290
  0.5780502740735998  0.1065614512721902  0.4770391412353295
  0.2568948618482752  0.7360380038052172  0.6526747032103525
  0.6152096246645630  0.8697820121158532  0.4098064378394841
  0.6925571608567224  0.1651924209259589  0.7800932538120516
  0.0559371302442626  0.3428674906688643  0.1285376278922697
  0.6657584150750731  0.9646655964220096  0.5489105753920307
  0.5088519440104942  0.9778467552738778  0.3000033017360733
  0.2204734660500104  0.7412938271493795  0.2974914586348821
  0.4569028682055449  0.2836722236794001  0.6727325598933259
  0.4372681663748464  0.0371628086248885  0.5716066646914952
  0.4351101815549961  0.5828754890566070  0.9724214126778632
  0.7753140618313430  0.8405473274510796  0.3471510731336448
  0.0620714349055055  0.9635042845237966  0.7831985067569601
  0.7876320012453069  0.0602033134717538  0.9178417574893705
  0.2270768281481280  0.0050404305039364  0.8175746379241078
  0.8408703713685839  0.5702400133110638  0.9499125891468548
  0.7104155299959501  0.2040393853416949  0.2830904826290227
  0.8281062167457948  0.8997033390968837  0.6188597605351110
  0.0579474278637225  0.1438106924309628  0.0952806418350391
  0.9238834397109407  0.8373474702679865  0.7738250932261985
  0.6258027719147817  0.5249869618112702  0.4230278962365635
  0.1486756773121156  0.4408871583939221  0.8184314283232668
  0.5962602198744008  0.5403601861345192  0.0779590829599039
  0.3973344536667063  0.1861671528301489  0.3766599093324984
  0.6917172664390303  0.7837365525992912  0.8393223858177569
  0.1978082894207327  0.2394854683390219  0.3537828093400457
  0.0244796026052436  0.2880759136946927  0.7953030971867066
  0.8220262231881612  0.0460172320350434  0.5073697557483553
  0.1155317907569376  0.8074641549746590  0.4591068971000661
  0.5322450334619253  0.7212367718384382  0.9310580599694048
  0.7869545823896034  0.3407981876992477  0.7177080029425764
  0.9568770242411226  0.4901903472807428  0.3679284586095669
  0.0982780516813957  0.3756924395347456  0.4023193532599358
  0.0382864741517272  0.5600737655207292  0.8873925090147403
  0.5933297913920049  0.4321114745306850  0.9239310759300838
  0.7040179846291628  0.4416970687191765  0.5757011293833296
  0.8280986216148398  0.2521957384681372  0.8872784559219883
  0.1707339912083634  0.6030318051050811  0.3904721644965832
  0.6974116489966791  0.6716943695247398  0.9826388135062669
  0.3607289978172166  0.7211820967715493  0.1772039887634023
  0.5437314553308622  0.3219425227781090  0.4981119384198634
  0.9208762727090902  0.6651281248763167  0.8024296194138026
  0.8226236633890508  0.5648541554417986  0.4629099959298471
  0.0813603707358812  0.7624406065113364  0.7832619818537445
 -0.0024867897456575  0.8155176173613397  0.2117620527097903
  0.7087278958864393  0.3524680059413072  0.4108021775534608
  0.4162002756495436  0.7694953396961450  0.6813371163115988
  0.7792754232471746  0.3925061895514004  0.0224450783441672
  0.3484442205295241  0.9237523965082343  0.1496002909936695
 -0.0119432651854118  0.0296887894909494  0.2675771537011074
  0.3325477436863129  0.0050884053125282  0.3007199688962897
  0.2879166619900306  0.4662126802188341  0.3857421527301003
  0.1789481802398679  0.2516086116033279  0.5306328064157489
  0.3821390089240067  0.0993945610566279  0.7485814298202638
  0.5314268985352233  0.2484453677757817  0.8363054875201759
  0.8505524231537280  0.7615031465501653  0.9308791858702334
  0.5570635145485124  0.0670265025929562  0.8272344869552783
  0.4133441922493248  0.1185718529786453  0.9333601654516943
  0.3227133792918792  0.6298381850863725  0.4474058817884646
  0.8317225437049058  0.7358181887996651  0.5309594711617610
  0.7217945089682206  0.3551732555511589  0.1821225858785458
  0.9780386187130148  0.7026129572936025  0.6400327220365246
  0.9707079314245868  0.2963551475809368 -0.0122548997459236
  0.9582828382702586  0.8576272584961682  0.0328600071770642
  0.7887412921123120  0.4702726278817115  0.3112876267847588
  0.9288369552831208  0.0325077091944535  0.0457714718801705
  0.7400566501740482  0.7505095829305561  0.1928917583639655
  0.3922946401757711  0.4033611168994051  0.2650141500240250
  0.0988204604602477  0.5164670403088029  0.1713813561781417
  0.2714533231227551  0.5572660976063405  0.2325529755735390
  0.8749892872129378  0.1964084143704874  0.6324942524519717
  0.8198972225901398  0.0950638070420516  0.1978383816592671
  0.1816126170299283  0.6827421872412599  0.1272636079366212
  0.2414021932782519  0.0976421433345568  0.6284396343296357
  0.5137606658206594  0.8630930429488824  0.5619126056836152
  0.4354295271875614  0.5474376641771044  0.1449183582509808
  0.4519631904129262  0.7416695291223516  0.3309787351488654
 -0.0034295556641421  0.6597074782487932  0.4548613039726078
  0.1387952932126979  0.0256217731619085  0.3346275390398830
  0.9863496149534657  0.3090707467468239  0.5456022227943138
  0.5449530107682886  0.1474584520039548  0.2500128422757502
  0.4866704890276298  0.6342015585113315  0.7751104351481156
  0.5124960692784037  0.8277442946148510  0.1898275437334220
  0.1619361500367894  0.9854236561429160  0.5256447803696833
  0.5651627884774332  0.8956986760056426  0.8722786841908774
  0.0304668968056957  0.2319173319982017  0.2661340000962385
  0.9216855071161358  0.4620509057844501  0.7873039604386787
  0.9951086504814898  0.6490511478955614  0.1238393607326119
  0.3257448502863958  0.9325665000193766  0.6694850420566461
  0.8873020365955935  0.4504988492398760  0.5924791115737577
  0.5950444117794632  0.7114800729028941  0.4525601644148712
  0.5179443443823524  0.9175905047915541  0.0444541899131379
  0.2833586683538863  0.8136571051689743  0.0146965149779994
  0.4108923450627933  0.4005578461583824  0.9209212676609964
  0.1960746027332344  0.0531692073786937  0.1257322644419689
  0.7405807839238163  0.6485741615474044  0.3545270661313931
  0.3113497196830325  0.4686526470696515  0.0523246534402271
  0.8655511393556069  0.1374634134477265  0.3650886537492364
  0.3877134855179872  0.2236941905903282  0.1947726748417909
  0.4868432959549913  0.2593925580941456  0.0354798007113948
  0.9430892463489755  0.8084469572413714  0.3899851034994079
  0.1514296202443280  0.5960674293565354  0.5611164536117811
  0.7652851496235369  0.8958353644848209  0.0004196708704012
  0.2000882067557626  0.2274650533945395  0.1731607769644877
  0.9685730449100408  0.4907905709026116  0.0388062345352357
  0.6227329849523542  0.6211863069425703  0.6314054209137526
  0.5335062509168979  0.4554679371427039  0.6397706410438132
  0.5440631725525249  0.3467980490606087  0.1872048098904637
  0.2396237898769263  0.4708237183972883  0.6651073061217990
  0.5556360133383318  0.1239346257738076  0.6714926792133374
  0.4038418914777677  0.9369897395388844  0.8423768465077021
  0.6571704467700475  0.9482162719578399  0.1457865133997290
  0.1307914058409650  0.8732401036149955  0.9451352312912791
  0.1966558272573868  0.2867942633756517  0.8749955405607979
  0.2786471825838188  0.2517048330734661  0.7131718323788649
  0.8361729549970547  0.9204754870677637  0.1740881420965887
  0.6287469875815951  0.8518250349602811  0.6985317778780855
  0.1987377152275574  0.6229023822430230  0.8112805895325211
  0.2660570234677629  0.1000664768460565  0.4394992275093622
  0.6630786429328884  0.6014731791983834  0.8109635580496521
  0.4110877107673183  0.9053304883040936  0.4242272233989829
  0.9583241523722479  0.1304200532501324  0.8755307482096386
  0.4551924974557684  0.4953118660806382  0.4507041297485352
  0.1142421681041686  0.0579872001459826  0.9457195695275077
  0.0078975416792309  0.1265976550438083  0.5345930390175311
  0.0568743064266438  0.4189248355646114  0.6739311039794575
  0.0974544275644329  0.8499535457374793  0.1824090460419434
  0.8883884171169097  0.6604700332827281  0.2603921051721866
  0.2958083909796185  0.2934752594658045  0.0147276677404221
  0.2941791206825567  0.9750227910823479  0.9833817211146413
  0.1344106977845548  0.4093842896346689  0.9914488509028258
  0.6065354531550148  0.6245045915889181  0.2497001932074097
  0.7037156599316212  0.2149741184126446  0.5798248707194884
  0.4209717165101727  0.5993109900048342  0.5980888993189618
  0.1307154009373708  0.7027605832955652  0.9555212342542745
 
  0.00000000E+00  0.00000000E+00  0.00000000E+00
  0.00000000E+00  0.00000000E+00  0.00000000E+00
  0.00000000E+00  0.00000000E+00  0.00000000E+00
  0.00000000E+00  0.00000000E+00  0.00000000E+00
  0.00000000E+00  0.00000000E+00  0.00000000E+00
  0.00000000E+00  0.00000000E+00  0.00000000E+00
  0.00000000E+00  0.00000000E+00  0.00000000E+00
  0.00000000E+00  0.00000000E+00  0.00000000E+00
  0.00000000E+00  0.00000000E+00  0.00000000E+00
  0.00000000E+00  0.00000000E+00  0.00000000E+00
  0.00000000E+00  0.00000000E+00  0.00000000E+00
  0.00000000E+00  0.00000000E+00  0.00000000E+00
  0.00000000E+00  0.00000000E+00  0.00000000E+00
  0.00000000E+00  0.00000000E+00  0.00000000E+00
  0.00000000E+00  0.00000000E+00  0.00000000E+00
  0.00000000E+00  0.00000000E+00  0.00000000E+00
  0.00000000E+00  0.00000000E+00  0.00000000E+00
  0.00000000E+00  0.00000000E+00  0.00000000E+00
  0.00000000E+00  0.00000000E+00  0.00000000E+00
  0.00000000E+00  0.00000000E+00  0.00000000E+00
  0.00000000E+00  0.00000000E+00  0.00000000E+00
  0.00000000E+00  0.00000000E+00  0.00000000E+00
  0.00000000E+00  0.00000000E+00  0.00000000E+00
  0.00000000E+00  0.00000000E+00  0.00000000E+00
  0.00000000E+00  0.00000000E+00  0.00000000E+00
  0.00000000E+00  0.00000000E+00  0.00000000E+00
  0.00000000E+00  0.00000000E+00  0.00000000E+00
  0.00000000E+00  0.00000000E+00  0.00000000E+00
  0.00000000E+00  0.00000000E+00  0.00000000E+00
  0.00000000E+00  0.00000000E+00  0.00000000E+00
  0.00000000E+00  0.00000000E+00  0.00000000E+00
  0.00000000E+00  0.00000000E+00  0.00000000E+00
  0.00000000E+00  0.00000000E+00  0.00000000E+00
  0.00000000E+00  0.00000000E+00  0.00000000E+00
  0.00000000E+00  0.00000000E+00  0.00000000E+00
  0.00000000E+00  0.00000000E+00  0.00000000E+00
  0.00000000E+00  0.00000000E+00  0.00000000E+00
  0.00000000E+00  0.00000000E+00  0.00000000E+00
  0.00000000E+00  0.00000000E+00  0.00000000E+00
  0.00000000E+00  0.00000000E+00  0.00000000E+00
  0.00000000E+00  0.00000000E+00  0.00000000E+00
  0.00000000E+00  0.00000000E+00  0.00000000E+00
  0.00000000E+00  0.00000000E+00  0.00000000E+00
  0.00000000E+00  0.00000000E+00  0.00000000E+00
  0.00000000E+00  0.00000000E+00  0.00000000E+00
  0.00000000E+00  0.00000000E+00  0.00000000E+00
  0.00000000E+00  0.00000000E+00  0.00000000E+00
  0.00000000E+00  0.00000000E+00  0.00000000E+00
  0.00000000E+00  0.00000000E+00  0.00000000E+00
  0.00000000E+00  0.00000000E+00  0.00000000E+00
  0.00000000E+00  0.00000000E+00  0.00000000E+00
  0.00000000E+00  0.00000000E+00  0.00000000E+00
  0.00000000E+00  0.00000000E+00  0.00000000E+00
  0.00000000E+00  0.00000000E+00  0.00000000E+00
  0.00000000E+00  0.00000000E+00  0.00000000E+00
  0.00000000E+00  0.00000000E+00  0.00000000E+00
  0.00000000E+00  0.00000000E+00  0.00000000E+00
  0.00000000E+00  0.00000000E+00  0.00000000E+00
  0.00000000E+00  0.00000000E+00  0.00000000E+00
  0.00000000E+00  0.00000000E+00  0.00000000E+00
  0.00000000E+00  0.00000000E+00  0.00000000E+00
  0.00000000E+00  0.00000000E+00  0.00000000E+00
  0.00000000E+00  0.00000000E+00  0.00000000E+00
  0.00000000E+00  0.00000000E+00  0.00000000E+00
  0.00000000E+00  0.00000000E+00  0.00000000E+00
  0.00000000E+00  0.00000000E+00  0.00000000E+00
  0.00000000E+00  0.00000000E+00  0.00000000E+00
  0.00000000E+00  0.00000000E+00  0.00000000E+00
  0.00000000E+00  0.00000000E+00  0.00000000E+00
  0.00000000E+00  0.00000000E+00  0.00000000E+00
  0.00000000E+00  0.00000000E+00  0.00000000E+00
  0.00000000E+00  0.00000000E+00  0.00000000E+00
  0.00000000E+00  0.00000000E+00  0.00000000E+00
  0.00000000E+00  0.00000000E+00  0.00000000E+00
  0.00000000E+00  0.00000000E+00  0.00000000E+00
  0.00000000E+00  0.00000000E+00  0.00000000E+00
  0.00000000E+00  0.00000000E+00  0.00000000E+00
  0.00000000E+00  0.00000000E+00  0.00000000E+00
  0.00000000E+00  0.00000000E+00  0.00000000E+00
  0.00000000E+00  0.00000000E+00  0.00000000E+00
  0.00000000E+00  0.00000000E+00  0.00000000E+00
  0.00000000E+00  0.00000000E+00  0.00000000E+00
  0.00000000E+00  0.00000000E+00  0.00000000E+00
  0.00000000E+00  0.00000000E+00  0.00000000E+00
  0.00000000E+00  0.00000000E+00  0.00000000E+00
  0.00000000E+00  0.00000000E+00  0.00000000E+00
  0.00000000E+00  0.00000000E+00  0.00000000E+00
  0.00000000E+00  0.00000000E+00  0.00000000E+00
  0.00000000E+00  0.00000000E+00  0.00000000E+00
  0.00000000E+00  0.00000000E+00  0.00000000E+00
  0.00000000E+00  0.00000000E+00  0.00000000E+00
  0.00000000E+00  0.00000000E+00  0.00000000E+00
  0.00000000E+00  0.00000000E+00  0.00000000E+00
  0.00000000E+00  0.00000000E+00  0.00000000E+00
  0.00000000E+00  0.00000000E+00  0.00000000E+00
  0.00000000E+00  0.00000000E+00  0.00000000E+00
  0.00000000E+00  0.00000000E+00  0.00000000E+00
  0.00000000E+00  0.00000000E+00  0.00000000E+00
  0.00000000E+00  0.00000000E+00  0.00000000E+00
  0.00000000E+00  0.00000000E+00  0.00000000E+00
  0.00000000E+00  0.00000000E+00  0.00000000E+00
  0.00000000E+00  0.00000000E+00  0.00000000E+00
  0.00000000E+00  0.00000000E+00  0.00000000E+00
  0.00000000E+00  0.00000000E+00  0.00000000E+00
  0.00000000E+00  0.00000000E+00  0.00000000E+00
  0.00000000E+00  0.00000000E+00  0.00000000E+00
  0.00000000E+00  0.00000000E+00  0.00000000E+00
  0.00000000E+00  0.00000000E+00  0.00000000E+00
  0.00000000E+00  0.00000000E+00  0.00000000E+00
  0.00000000E+00  0.00000000E+00  0.00000000E+00
  0.00000000E+00  0.00000000E+00  0.00000000E+00
  0.00000000E+00  0.00000000E+00  0.00000000E+00
  0.00000000E+00  0.00000000E+00  0.00000000E+00
  0.00000000E+00  0.00000000E+00  0.00000000E+00
  0.00000000E+00  0.00000000E+00  0.00000000E+00
  0.00000000E+00  0.00000000E+00  0.00000000E+00
  0.00000000E+00  0.00000000E+00  0.00000000E+00
  0.00000000E+00  0.00000000E+00  0.00000000E+00
  0.00000000E+00  0.00000000E+00  0.00000000E+00
  0.00000000E+00  0.00000000E+00  0.00000000E+00
  0.00000000E+00  0.00000000E+00  0.00000000E+00
  0.00000000E+00  0.00000000E+00  0.00000000E+00
  0.00000000E+00  0.00000000E+00  0.00000000E+00
  0.00000000E+00  0.00000000E+00  0.00000000E+00
  0.00000000E+00  0.00000000E+00  0.00000000E+00
  0.00000000E+00  0.00000000E+00  0.00000000E+00
  0.00000000E+00  0.00000000E+00  0.00000000E+00
  0.00000000E+00  0.00000000E+00  0.00000000E+00
  0.00000000E+00  0.00000000E+00  0.00000000E+00
  0.00000000E+00  0.00000000E+00  0.00000000E+00
  0.00000000E+00  0.00000000E+00  0.00000000E+00
  0.00000000E+00  0.00000000E+00  0.00000000E+00
  0.00000000E+00  0.00000000E+00  0.00000000E+00
  0.00000000E+00  0.00000000E+00  0.00000000E+00
  0.00000000E+00  0.00000000E+00  0.00000000E+00
  0.00000000E+00  0.00000000E+00  0.00000000E+00
  0.00000000E+00  0.00000000E+00  0.00000000E+00
  0.00000000E+00  0.00000000E+00  0.00000000E+00
  0.00000000E+00  0.00000000E+00  0.00000000E+00
  0.00000000E+00  0.00000000E+00  0.00000000E+00
  0.00000000E+00  0.00000000E+00  0.00000000E+00
  0.00000000E+00  0.00000000E+00  0.00000000E+00
  0.00000000E+00  0.00000000E+00  0.00000000E+00
  0.00000000E+00  0.00000000E+00  0.00000000E+00
  0.00000000E+00  0.00000000E+00  0.00000000E+00
  0.00000000E+00  0.00000000E+00  0.00000000E+00
  0.00000000E+00  0.00000000E+00  0.00000000E+00
  0.00000000E+00  0.00000000E+00  0.00000000E+00
  0.00000000E+00  0.00000000E+00  0.00000000E+00
  0.00000000E+00  0.00000000E+00  0.00000000E+00
  0.00000000E+00  0.00000000E+00  0.00000000E+00
  0.00000000E+00  0.00000000E+00  0.00000000E+00
  0.00000000E+00  0.00000000E+00  0.00000000E+00
  0.00000000E+00  0.00000000E+00  0.00000000E+00
  0.00000000E+00  0.00000000E+00  0.00000000E+00
  0.00000000E+00  0.00000000E+00  0.00000000E+00
  0.00000000E+00  0.00000000E+00  0.00000000E+00
  0.00000000E+00  0.00000000E+00  0.00000000E+00
  0.00000000E+00  0.00000000E+00  0.00000000E+00
  0.00000000E+00  0.00000000E+00  0.00000000E+00
  0.00000000E+00  0.00000000E+00  0.00000000E+00
  0.00000000E+00  0.00000000E+00  0.00000000E+00
  0.00000000E+00  0.00000000E+00  0.00000000E+00
  0.00000000E+00  0.00000000E+00  0.00000000E+00
  0.00000000E+00  0.00000000E+00  0.00000000E+00
  0.00000000E+00  0.00000000E+00  0.00000000E+00
  0.00000000E+00  0.00000000E+00  0.00000000E+00
  0.00000000E+00  0.00000000E+00  0.00000000E+00
  0.00000000E+00  0.00000000E+00  0.00000000E+00
  0.00000000E+00  0.00000000E+00  0.00000000E+00
  0.00000000E+00  0.00000000E+00  0.00000000E+00
  0.00000000E+00  0.00000000E+00  0.00000000E+00
  0.00000000E+00  0.00000000E+00  0.00000000E+00
  0.00000000E+00  0.00000000E+00  0.00000000E+00
  0.00000000E+00  0.00000000E+00  0.00000000E+00
  0.00000000E+00  0.00000000E+00  0.00000000E+00
  0.00000000E+00  0.00000000E+00  0.00000000E+00
  0.00000000E+00  0.00000000E+00  0.00000000E+00
  0.00000000E+00  0.00000000E+00  0.00000000E+00
  0.00000000E+00  0.00000000E+00  0.00000000E+00
  0.00000000E+00  0.00000000E+00  0.00000000E+00
  0.00000000E+00  0.00000000E+00  0.00000000E+00
  0.00000000E+00  0.00000000E+00  0.00000000E+00
  0.00000000E+00  0.00000000E+00  0.00000000E+00
  0.00000000E+00  0.00000000E+00  0.00000000E+00
  0.00000000E+00  0.00000000E+00  0.00000000E+00
  0.00000000E+00  0.00000000E+00  0.00000000E+00
  0.00000000E+00  0.00000000E+00  0.00000000E+00
  0.00000000E+00  0.00000000E+00  0.00000000E+00
  0.00000000E+00  0.00000000E+00  0.00000000E+00
  0.00000000E+00  0.00000000E+00  0.00000000E+00
  0.00000000E+00  0.00000000E+00  0.00000000E+00
  0.00000000E+00  0.00000000E+00  0.00000000E+00
  0.00000000E+00  0.00000000E+00  0.00000000E+00
  0.00000000E+00  0.00000000E+00  0.00000000E+00
  0.00000000E+00  0.00000000E+00  0.00000000E+00
  0.00000000E+00  0.00000000E+00  0.00000000E+00
  0.00000000E+00  0.00000000E+00  0.00000000E+00
  0.00000000E+00  0.00000000E+00  0.00000000E+00
  0.00000000E+00  0.00000000E+00  0.00000000E+00
  0.00000000E+00  0.00000000E+00  0.00000000E+00
  0.00000000E+00  0.00000000E+00  0.00000000E+00
  0.00000000E+00  0.00000000E+00  0.00000000E+00
  0.00000000E+00  0.00000000E+00  0.00000000E+00
  0.00000000E+00  0.00000000E+00  0.00000000E+00
  0.00000000E+00  0.00000000E+00  0.00000000E+00
  0.00000000E+00  0.00000000E+00  0.00000000E+00
  0.00000000E+00  0.00000000E+00  0.00000000E+00
  0.00000000E+00  0.00000000E+00  0.00000000E+00
  0.00000000E+00  0.00000000E+00  0.00000000E+00
  0.00000000E+00  0.00000000E+00  0.00000000E+00
  0.00000000E+00  0.00000000E+00  0.00000000E+00
  0.00000000E+00  0.00000000E+00  0.00000000E+00
  0.00000000E+00  0.00000000E+00  0.00000000E+00
  0.00000000E+00  0.00000000E+00  0.00000000E+00
  0.00000000E+00  0.00000000E+00  0.00000000E+00
  0.00000000E+00  0.00000000E+00  0.00000000E+00
  0.00000000E+00  0.00000000E+00  0.00000000E+00
  0.00000000E+00  0.00000000E+00  0.00000000E+00
  0.00000000E+00  0.00000000E+00  0.00000000E+00
  0.00000000E+00  0.00000000E+00  0.00000000E+00
  0.00000000E+00  0.00000000E+00  0.00000000E+00
  0.00000000E+00  0.00000000E+00  0.00000000E+00
  0.00000000E+00  0.00000000E+00  0.00000000E+00
  0.00000000E+00  0.00000000E+00  0.00000000E+00
  0.00000000E+00  0.00000000E+00  0.00000000E+00
  0.00000000E+00  0.00000000E+00  0.00000000E+00
  0.00000000E+00  0.00000000E+00  0.00000000E+00
  0.00000000E+00  0.00000000E+00  0.00000000E+00
  0.00000000E+00  0.00000000E+00  0.00000000E+00
  0.00000000E+00  0.00000000E+00  0.00000000E+00
  0.00000000E+00  0.00000000E+00  0.00000000E+00