Ge4 Se4                                 
   1.00000000000000     
     4.0301194191000000    0.0000000000000000    0.0000000000000000
     0.0000000000000000    4.1408591269999997    0.0000000000000000
     0.0000000000000000    0.0000000000000000   11.8636980056999999
   Ge   Se
     4     4
Direct
  0.2500000000000000  0.5296403769999998  0.3548278210000007
  0.7500000000000000  0.0296403620000021  0.1451721939999970
  0.2500000000000000  0.9703596230000002  0.8548278210000007
  0.7500000000000000  0.4703596530000027  0.6451721789999993
  0.2500000000000000  0.5016350750000029  0.1409464330000034
  0.7500000000000000  0.0016350759999995  0.3590535519999989
  0.2500000000000000  0.9983649249999971  0.6409464480000011
  0.7500000000000000  0.4983649249999971  0.8590535519999989
 
  0.00000000E+00  0.00000000E+00  0.00000000E+00
  0.00000000E+00  0.00000000E+00  0.00000000E+00
  0.00000000E+00  0.00000000E+00  0.00000000E+00
  0.00000000E+00  0.00000000E+00  0.00000000E+00
  0.00000000E+00  0.00000000E+00  0.00000000E+00
  0.00000000E+00  0.00000000E+00  0.00000000E+00
  0.00000000E+00  0.00000000E+00  0.00000000E+00
  0.00000000E+00  0.00000000E+00  0.00000000E+00
