Amorphous GeAsSeSi                      
   1.00000000000000     
    19.4303233545911326    0.0000000000000000    0.0000000000000000
     0.0000000000000000   19.4303233545911326    0.0000000000000000
     0.0000000000000000    0.0000000000000000   19.4303233545911326
   Ge   As   Te   Si   N 
    67    67    67    67    32
Direct
  0.4720557916342294  0.8826525831762813  0.5358575936735489
  0.5976922237287604  0.7904061351286708  0.5917244188889556
  0.1615299407983311  0.5327185075724856  0.7591353798828689
  0.1938609712798807  0.7702019178742023  0.3981657171470452
  0.0250856170833818  0.1025536077672230  0.8506148749823835
  0.5840651993037338  0.1747410432255588  0.3512527711727185
  0.7571473352469394  0.8883298982681319  0.5813731585231793
  0.0841608558738689  0.7309190246740279  0.0137023765505842
  0.8804405903967714  0.1380821112830368  0.8306132541620782
  0.7679650823297187  0.3430973491068520  0.5909573500254772
  0.4073898530213990  0.9915892380886537  0.6265404470865692
  0.9478882811879856  0.4998748565701279  0.2420228032070279
  0.4924398254949240  0.1800152161097356  0.7510374646045450
  0.2542211511879248  0.9200946642461051  0.6646984568438598
  0.9482887607871311  0.5357873634676844  0.8508776855095006
  0.4527669232395438  0.7758918643876654  0.0953368346058414
  0.5220556850311171  0.6082803855421518  0.7839538337973913
  0.4830975578335550  0.3565043660895701  0.6005097597620174
  0.3748538899656177  0.8864490449776312  0.0713327382582129
  0.6628153914946098  0.1312654015008327  0.7484186356389659
  0.3182256134673626  0.2969175198871122  0.1368592411661339
  0.7919888335038275  0.7037179666478243  0.9970715061162606
  0.6547727361204744  0.8411160726947116  0.4406634765109991
  0.0057865101043849  0.7263461783239937  0.8317926249809803
  0.3373205514959087  0.9599097856025610  0.5107620890745252
  0.6869258280276761  0.1007383951544322  0.2698964401248004
  0.6308076540477262  0.5592373593651485  0.5205204469289841
  0.8295594091950662  0.9689961785389345  0.0299346492278573
  0.2286454371942677  0.0652555969684923  0.5894663359568445
  0.5082574380193402  0.3669541567845295  0.4702586050857623
  0.6772498865389391  0.2936037271909033  0.4079485090449558
  0.0788151768255422  0.9089514202820371  0.3732477111017161
  0.6368025620620620  0.8886202350820995  0.2863099828528021
  0.7072563048421360  0.2009678457982754  0.5604061571508642
  0.0407357821467644  0.7709308039226790  0.6629930143848932
  0.5504243640613465  0.5796513363004901  0.3290342730648431
  0.9627037631673862  0.0402955901115448  0.0886576941120158
  0.8593507451100102  0.8088418154555345  0.9074666311566312
  0.5077134746293017  0.6974170203316531  0.9787350539064718
  0.6632279735590968  0.4344812189435477  0.6049734551962049
  0.5501503223825304  0.9112505454874739  0.6395742243779359
  0.3785235470941297  0.5148207162005107  0.9185397278478730
  0.2474464522036557  0.8297244018500208  0.9885388025981424
  0.1532849301401712  0.1383436840918148  0.7255584100311746
  0.6031036444046495  0.9779165851979574  0.4753590676865791
  0.8760642137519220  0.7387233513893837  0.2024743132502864
  0.2159796636305822  0.2782470619501643  0.4433301234268430
  0.9157677464928218  0.3160937700883595  0.3464494591515669
  0.9165709858331483  0.7703398990904722  0.0626370813402653
  0.7785392703393648  0.5540633884776208  0.3648789579078275
  0.3253041421185076  0.7147714140444789  0.1226846866856117
  0.0627896009307357  0.8905449925550570  0.2254052023735378
  0.7182241444898454  0.7139279311956358  0.5390526036739016
  0.7974307247963892  0.0398883108068039  0.6976521684473000
  0.0513478035138035  0.1036388015690649  0.3605405126078720
  0.2765338574502160  0.4679982573946210  0.7433758585093293
  0.5256433938922661  0.9765273913001802  0.9956689375639591
  0.3770709043665112  0.9885805564959483  0.8794472915206105
  0.1730427003792065  0.3387338504038080  0.8896730445175028
  0.8320039849359314  0.5218020894526018  0.9679062669503365
  0.3430578203222581  0.1992051993074751  0.6774099684808047
  0.4201755069546753  0.5171190515332590  0.7693267190959835
  0.0214004065370901  0.5751989310565484  0.9525316329782498
  0.2717335221081951  0.1535922527167307  0.9407082077102971
  0.6893500546949770  0.9694329290856756  0.8238024356625530
  0.9194035508333727  0.3575419266102557  0.5415149594426509
  0.8134201711579995  0.1947546589594515  0.1781157923120473
  0.5946169526986328  0.5292876225166118  0.6942553451372612
  0.4791715407725259  0.4815139309498946  0.2679599593111808
  0.3948894790936953  0.2728015899760954  0.3512361792079476
  0.3281243156501761  0.7037900901894037  0.5479767826148716
  0.1347059129059180  0.6573717292594395  0.3454140235793086
  0.0189012449544367  0.2128491493450714  0.4277254033112287
  0.9739634768697288  0.5257572756225394  0.6649345012123741
  0.0502254073165525  0.4427338752151012  0.4090433268626031
  0.3700640476412182  0.9021495042138539  0.3699670020262699
  0.4873775133383097  0.8291217958438466  0.3592827291108814
  0.8318286699415077  0.1001636508504429  0.3237110454722340
  0.6548934429644573  0.7948048625855419  0.8441506055036837
  0.3192300414094562  0.3770476428468880  0.6405021166660555
  0.4622410424540510  0.6762645170293676  0.2896677789175556
  0.6665815128529584  0.3495226673539806  0.9335767056584563
  0.6053802493173530  0.6970209368562428  0.0925905121976284
  0.2533078310484018  0.8328124821521253  0.1152713145921587
  0.6586239336726075  0.9775940433503491  0.5991579227982500
  0.7626012790060123  0.8787951766887455  0.7120987473205485
  0.3599145736027560  0.0538586924285119  0.4059267874952289
  0.9322359794785249  0.2051685008539361  0.2441457300219833
  0.5536579462141717  0.5724679385388796  0.0044962139971024
  0.6661083796374231  0.5861470191069696  0.2602076586128586
  0.2386197467748944  0.3435774856106736  0.0063268273998046
  0.4380464027137744  0.9058810627582319  0.7682701432953698
  0.8630462527817607  0.4410549727775204  0.8458837729583844
  0.1410966986834452  0.3299140605024294  0.1737344987259386
  0.1501436735628807  0.7256663868484586  0.1608747663770614
  0.3703662723470530  0.2383458330799584  0.9371086482981360
  0.2436992498762244  0.9394296034312473  0.8170692365034669
  0.9487451778278305  0.8417413608128340  0.3624015551799193
  0.6006082051945165  0.6721558715297095  0.8787930665975960
  0.7797623224584970  0.7029945017406470  0.3092129741892034
  0.3080469984758095  0.5484566048296733  0.5712042462573592
  0.4725072401482985  0.7181590714824870  0.7158039997338507
  0.7652520451636381  0.9102162148965997  0.3213162509253015
  0.9369763099076556  0.0716224711943133  0.4341416689127825
  0.2245934873282917  0.4017453550002654  0.4975760483532082
  0.7748310599123092  0.0940143176636259  0.9815070394430526
  0.3632456787840260  0.2990874294408943  0.8177129856647400
  0.5699379636475822  0.8438094180237232  0.0547026491704888
  0.6550325431972082  0.7441081165466703  0.2980271128629526
  0.6851451760428052  0.6021523718441337  0.1293831040423932
  0.4162652932183205  0.7568736350568404  0.8762062035339827
  0.4892562972214047  0.0675582486214725  0.8330548172116516
  0.3097242681421662  0.7538622926638635  0.3286637266191362
  0.6476144657365325  0.6711706113234586  0.4322005651795701
  0.0474485652462064  0.4681095981888589  0.7913692091923576
  0.7116750274608683  0.4447728870845623  0.2461990816419919
  0.4702033083550288  0.2236065665181315  0.1439096979044258
  0.1928188832753253  0.5076461621650273  0.9360200339005184
  0.2494634864562977  0.4770197837762051  0.3785950873516303
  0.2533932795677349  0.2347674847299224  0.7743690057902514
  0.3530320193290390  0.4574454587959656  0.0438518937904090
  0.2248629179626135  0.1802526684490156  0.2999905343033422
  0.3743817184984630  0.8260799382957927  0.6344148558483358
  0.5268897229237529  0.4237588034879723  0.1389364178468553
  0.8134049657470578  0.7999158019107323  0.4217130123390365
  0.3172441613473262  0.0815195280704938  0.7559866489339482
  0.3327864532754637  0.6540131766629885  0.9762346150534162
  0.0714142422075409  0.0875345889353145  0.9939703526774730
  0.3780091264667890  0.0384746458237626  0.2175097473970025
  0.5273194833994987  0.3375040062667515  0.9710113459495546
  0.0883626944137215  0.4932772948564869  0.2622276994861922
  0.4386291391288852  0.5334082812040674  0.6335096921543522
  0.6047554583058047  0.2676982904452175  0.7740518788776769
  0.1925549571229879  0.3473697340854485  0.7088759025983083
  0.9006450698715430  0.3517426216922244  0.1357188705720882
  0.2830117228196660  0.3633269580404340  0.2919322944578788
  0.0302833555090171  0.9570929907104919  0.8149599750746147
  0.0097403935735332  0.6575346623026319  0.4608158228003844
  0.3623290313269734  0.2503116153784891  0.4953198958672877
  0.1578172820871130  0.9231750277999963  0.9408068231417319
  0.1516355239926714  0.2387245021111593  0.5813091057416570
  0.0341596446121631  0.4009444382405830  0.6337522505961621
  0.7174841427746559  0.4318392363442353  0.4601060037070561
  0.5849615961260223  0.3691307537447102  0.3377782301409413
  0.9692100092327011  0.3795430269260894  0.9787498814917843
  0.9379497985513671  0.9299718484716055  0.6123074995367909
  0.2165289384282610  0.0475887858388395  0.1077126815960222
  0.8697089576114465  0.0789366563017190  0.5620420808733901
  0.2665412462396332  0.6826398353299092  0.7141390618103000
  0.8887900830528570  0.1606185377126569  0.0530117282451390
  0.5589391629597074  0.1840364131789259  0.0276076595512944
  0.1721153630222369  0.6117594344029668  0.0696290457610266
  0.7199340850438278  0.2732878565601942  0.0407373150170777
  0.7819186059877630  0.2019427694999645  0.6907262400400080
  0.4538954602441917  0.8818562033235615  0.2069289770390901
  0.7339193891843980  0.8576366060649434  0.0270395333569847
  0.2383759656939835  0.6170432745499709  0.4508120011369289
  0.9099316450959107  0.5121235003130092  0.4994365025526367
  0.0325564915535002  0.6691101423828648  0.2383319944097520
  0.0544802245098372  0.5023311459558329  0.1087138673955051
  0.7757991712651851  0.3020643912193935  0.2894841707327360
  0.6153884298876594  0.2532627940404412  0.2070056866989932
  0.8870086264261923  0.9718806699760486  0.2470418298468600
  0.8197248273879515  0.9588807092835246  0.8826930906012374
  0.8475629263169884  0.6696702398796252  0.5158769247737038
  0.7285873501366218  0.7827616448025627  0.1654912946375481
  0.1003039858501322  0.3166248635284882  0.3652808768213904
  0.8291645342027766  0.2580474251918522  0.4637201177568993
  0.5087704561670504  0.3931827704487166  0.7567382847438968
  0.5270745419036409  0.4801352336594741  0.8985216175442706
  0.9863638992058738  0.8562337383542605  0.9520299987484739
  0.8630979855809146  0.5903365102367621  0.1531412023217512
  0.1679735611414812  0.7904996932072575  0.5328461270695199
  0.6297377053576825  0.0613811136826423  0.9176118385659408
  0.2773306813911655  0.5543067547446086  0.2273943783588208
  0.5991808642739691  0.0379834565759185  0.1278250095727220
  0.3848564807513996  0.0550461013464381  0.0086971617920872
  0.8769724247673275  0.7968831805091497  0.6780857851110222
  0.1009215316204422  0.9431695373459155  0.6567035286007435
  0.0452798745414573  0.1675853729499399  0.1526496475613847
  0.9745429488955215  0.6124166929697967  0.0675672246834700
  0.9554607024589076  0.0235221826663332  0.7207387868302993
  0.0849096660072975  0.4328552784390127  0.9089832884010043
  0.1368726026738197  0.6559416604720852  0.8716621338144469
  0.2172340774452893  0.2170991705807176  0.0375280975463092
  0.2319557389129331  0.7234167298996775  0.9175274443146404
  0.5989091591314357  0.2671026059814683  0.6216536463796891
  0.0855309070955496  0.1445380295720820  0.5170211965152177
  0.7779070719548437  0.3927487468153035  0.0886612690427202
  0.8438993146697007  0.6956816934243374  0.8339299496637268
  0.0521265451779455  0.0758424853807010  0.6569159485470691
  0.6473422409801943  0.4845584566671866  0.0994211361895445
  0.7200344607253644  0.7562304062447254  0.7376543298418995
  0.6435943337180788  0.1038455364397354  0.6185150525544590
  0.3023102162812732  0.7608181882242930  0.8199522161684724
  0.4463135574206649  0.6880917718578149  0.5079933643069436
  0.0070813353821032  0.0606319302247545  0.2356169444953203
  0.4863902597194957  0.0633635864601935  0.3522827113342730
  0.0697229501098049  0.3254702381301724  0.0550987932565123
  0.5816050747340146  0.9036371892059365  0.1669214526857502
  0.6992386424294138  0.4623464639396895  0.9829355893696803
  0.5455218235023561  0.8158016527844213  0.7781584734365689
  0.8217896567227702  0.5419968182114805  0.7785335423979783
  0.1643471974906139  0.9932857196353756  0.2191169638623241
  0.1032768776574488  0.2187104304451128  0.9919462481179867
  0.2168328132343209  0.8945443443388013  0.2945065785977385
  0.1087650483709997  0.4623960957644966  0.5227063410059123
  0.3388816231569194  0.1184788755004581  0.5211234189418001
  0.1457183622338316  0.0555357330014690  0.4458113944972179
  0.5000108600602057  0.6772314215028751  0.1633111389978400
  0.4820713884676786  0.1600321187162006  0.6195210495598479
  0.4601569074958038  0.1457723328644472  0.9329174799816576
  0.7115428331025967  0.6082803680200133  0.8771011943054013
  0.0330567908401697  0.7873903342223725  0.5043457772008326
  0.5435436691820246  0.7647014725020750  0.4697895613146505
  0.2445994035260315  0.0595228254766695  0.3592650702872644
  0.8710834478214223  0.4436728249621782  0.3282576163505669
  0.1310309333794359  0.6492900045582347  0.7159110884456009
  0.6660704847841092  0.6771615416593850  0.6470563993837009
  0.1667111759713412  0.2015111681428898  0.8800054630197393
  0.7180787422037810  0.5731561873000109  0.7032231287948713
  0.4585669725019217  0.5343996617473228  0.0768664772560109
  0.5177476130348778  0.5488834260395048  0.4525151337086196
  0.2304371725762686  0.6839624586991907  0.2493392273007251
  0.2787123609910558  0.4280342388724388  0.8712878588096269
  0.3634498723601208  0.5630917671156884  0.4577334064085684
  0.5135687908906845  0.0804373346483122  0.5060055690792880
  0.4926263402296249  0.1070362439231412  0.1977326972680085
  0.3514586826539666  0.8636809396589034  0.9228865904012440
  0.8544899519699778  0.4811205800124860  0.6246689876458722
  0.7264995508692145  0.9929994078716391  0.4123176633070109
  0.5088916020770768  0.6559311334714298  0.6157911645208849
  0.9009819276066711  0.9568247403540167  0.4025063060570459
  0.4088688460223288  0.5792558902956270  0.2266508451178674
  0.4226255514156754  0.4420574508485544  0.3762733220079056
  0.1610928630066883  0.9267932443413696  0.5317177019561856
  0.0534168696778562  0.5974062482062519  0.5814770680148378
  0.2896933408455010  0.1554794667283773  0.1706403922311441
  0.5422321796168575  0.9459386109089902  0.3630214124105057
  0.8204727579808986  0.9629011177838223  0.4961255769645905
  0.3060598657351467  0.0172301125362353  0.6666288955716219
  0.8057460460837487  0.7229278050178867  0.7522465340748402
  0.8834420732188736  0.6082134808617398  0.8080890136370869
  0.9899483389601758  0.8032234044794452  0.5806691935556882
  0.5558944018997974  0.1088456076780270  0.5846555728033884
  0.1136817811380998  0.1511573358925943  0.8199054687916117
  0.4295580801456880  0.1008771753145699  0.5543953881126237
  0.3355330210859606  0.8748828677341395  0.4594151710239994
  0.6946616889918541  0.8170898013778637  0.5407214282125659
  0.2327028575888502  0.2227525207812746  0.1272154680217609
  0.2448675977771455  0.9615257109114366  0.5556956821048387
  0.9590446881888458  0.7447830213511261  0.2603684224451664
  0.4085802882446243  0.2426656566546329  0.7434841003441635
  0.5936265966344919  0.6156944350900762  0.6253673143179096
  0.5202596360821952  0.1169833930444332  0.4216222004552426
  0.9944986247389518  0.7024832443228810  0.0705135406310102
  0.0709764684704504  0.9985174684069171  0.2196163102552252
  0.7435680294598500  0.0699490458030112  0.3610341283294615
  0.8735042183763572  0.5089411087376164  0.3978706031257065
  0.2223989231481109  0.9919768898026454  0.2954433839278215
  0.0734205990683465  0.6704075104572063  0.6436739289653730
  0.3056993067816605  0.8562307571280096  0.3003511540901639
  0.1547220600244192  0.3648712330053645  0.0689023127385435
  0.5463344743969452  0.2700342808844153  0.2984075938967060
  0.7964705049227558  0.4846356074362691  0.2851741241856685
  0.0499157409431452  0.3072092002939574  0.1440665452903338
  0.1810007780799645  0.5747802175784875  0.8568979618711320
  0.5910722789192066  0.3595327599675326  0.6063151706921546
  0.3481590467986064  0.4937527222593122  0.3973445122015953
  0.7199623883587594  0.4398127160842888  0.1447502810816625
  0.7221337784362382  0.0476784485260350  0.7694882545912721
  0.4448111421915618  0.6006239543923965  0.1418147187536590
  0.7743791904111500  0.6760396269883625  0.8957386762185677
  0.0274823742320482  0.1065330128115355  0.5755683956085571
  0.3693460967094980  0.2096920276331902  0.1570000717492375
  0.0216870109716740  0.8380418698339712  0.4290897100192695
  0.7973457039202457  0.5242004993453072  0.6854463178522796
  0.4722163757937084  0.8328545792514281  0.8328810759476196
  0.0565162830234877  0.6707608191603918  0.9236769291013879
  0.3066267266093663  0.8582921593596986  0.8305436658109739
  0.5181365527615602  0.1181758326642922  0.2856115089030571
  0.7824430275258547  0.1134555363239836  0.2274396837811752
  0.7357219806014459  0.5729612276730517  0.7950469771502778
  0.2962054035908959  0.4329789720807786  0.5670510648454741
  0.1232908335161543  0.9629861297116374  0.4554887871754228
  0.9516389557837134  0.4521422004569413  0.1513139497887300
  0.1243883341173274  0.5459530284026042  0.5533717417969307
  0.1637066160820620  0.8550499183518685  0.3580835783373660
  0.8212703826998776  0.0770732083849897  0.8948978093863503
  0.7852712202733391  0.4386142335726119  0.0097845017044488
  0.7243999198012937  0.5408088479258906  0.9404839636255776
  0.8555232336413927  0.3883282985340273  0.6199713972061552
  0.1001231766770559  0.6902943557104044  0.7932882836233937
  0.5090158188933998  0.2484912640593747  0.6008100078315259
  0.4449697580538130  0.6077440828372446  0.4554700926602006
  0.8793696367567944  0.0623120884302477  0.7541224951286554
  0.4789151425649221  0.4658800410298660  0.4472951318475848
  0.5371893224055031  0.9015537731918768  0.7377999633266193
  0.1663744933059973  0.8989755290491300  0.2156040362987081
  0.4337552204200880  0.3516897350790776  0.3911985805595002
 
 -0.30161293E-02  0.10545112E-02 -0.28690661E-02
  0.11002537E-02  0.61385647E-04  0.17747572E-02
  0.20613127E-03 -0.11933284E-02 -0.40773565E-02
  0.29587414E-02 -0.11685912E-02 -0.31844843E-03
  0.19537199E-02 -0.20487172E-02  0.79835611E-04
  0.17997715E-03 -0.43290760E-02 -0.30996550E-02
 -0.11302050E-02  0.25719708E-02  0.10326841E-02
  0.13530801E-02  0.10869224E-03 -0.91189201E-03
  0.52450799E-02  0.16031018E-02  0.32754450E-02
 -0.14951982E-02  0.47710010E-03  0.18385570E-02
 -0.29007583E-02 -0.60087107E-03  0.16210647E-03
  0.12740969E-02 -0.51450612E-03  0.55005871E-03
 -0.84873153E-03  0.19301199E-02 -0.15599781E-02
  0.15100415E-02  0.20401907E-02  0.22605451E-03
  0.14333159E-03 -0.44379119E-03 -0.17267348E-02
  0.14388990E-02  0.12739874E-02 -0.55227405E-03
  0.97185264E-03  0.15373762E-02  0.19794607E-02
  0.87295929E-04 -0.18851968E-02 -0.16508572E-02
  0.63822502E-03  0.22751516E-02 -0.36949309E-02
 -0.15797073E-02 -0.35552855E-02 -0.27920611E-02
 -0.14389387E-02  0.17436483E-02 -0.18268231E-02
 -0.20372966E-02  0.32932580E-02 -0.32587193E-02
 -0.29559873E-02 -0.33229618E-02  0.84423850E-03
 -0.81773042E-03  0.48156696E-03 -0.16220670E-02
 -0.91748046E-03 -0.26098749E-02  0.53108361E-03
 -0.30487718E-03 -0.13098491E-02  0.20639254E-02
 -0.15205026E-03  0.74586710E-03  0.13123835E-02
 -0.23232826E-02  0.39998647E-02 -0.10157175E-03
  0.15495591E-02 -0.52816260E-03  0.34260193E-02
 -0.14170530E-02 -0.64515983E-03  0.22765644E-02
  0.86475356E-03 -0.51417250E-02 -0.93561858E-03
 -0.87200548E-03  0.12009907E-02 -0.20912047E-03
  0.90334203E-03  0.21581184E-03 -0.40425437E-03
  0.12090451E-02  0.16141195E-02  0.11669914E-02
 -0.23718398E-02 -0.23900644E-02  0.33157663E-03
  0.46342253E-03  0.62280487E-03 -0.84244935E-03
  0.23069541E-02  0.17726522E-02  0.30602314E-02
  0.11847963E-02  0.41475541E-02 -0.61477535E-05
 -0.11818057E-02 -0.92092405E-03 -0.38872907E-03
 -0.28815430E-02 -0.24713931E-03 -0.66072652E-03
 -0.29410244E-02  0.33735706E-02 -0.81005904E-04
  0.36262649E-02 -0.10150316E-02 -0.85847973E-03
  0.20175720E-02 -0.29660182E-02 -0.22716383E-03
 -0.27710582E-02  0.37140763E-02  0.15540420E-02
  0.27941443E-03 -0.84163639E-03  0.24829449E-02
  0.66867403E-03  0.15873820E-02  0.23718038E-02
  0.64483050E-03 -0.11170982E-02  0.24244062E-02
  0.18887065E-02  0.37998672E-02  0.47751345E-02
  0.10968352E-02 -0.51088079E-02  0.87191503E-04
 -0.19440126E-02  0.15058892E-02  0.19593476E-02
 -0.91532854E-03  0.39229730E-03  0.21145445E-02
  0.43760939E-03  0.15429009E-02 -0.13400334E-02
  0.12169285E-02 -0.55142916E-03  0.10929463E-02
 -0.26954469E-02  0.49023454E-02  0.41844587E-02
  0.39160302E-03 -0.83426617E-03  0.28059544E-02
  0.83249421E-03 -0.84361853E-03  0.95037560E-03
  0.19583464E-02 -0.37980207E-02 -0.15168861E-02
 -0.24537340E-02  0.95895763E-03 -0.14098000E-02
 -0.63858633E-03 -0.29963852E-02 -0.37016775E-02
 -0.55040357E-03  0.13116559E-02 -0.27430230E-03
 -0.15426711E-02  0.13252740E-02  0.42018420E-03
 -0.15800801E-02  0.55701941E-03 -0.50177402E-03
  0.74785800E-04  0.62973058E-03 -0.18462068E-02
  0.23417125E-02 -0.22367405E-02  0.47256485E-03
  0.40068804E-03  0.16199603E-02 -0.21578574E-02
 -0.44400466E-03 -0.34235398E-02 -0.43684991E-03
  0.18677620E-03  0.60112348E-03 -0.63000290E-04
 -0.31735633E-02 -0.72310224E-03 -0.17387013E-02
 -0.11306626E-02 -0.62664417E-03  0.73126718E-03
 -0.10484366E-02  0.17013962E-02  0.37807062E-03
  0.82566625E-03  0.73248759E-03 -0.36919209E-02
  0.12782863E-02 -0.14180952E-02 -0.77651384E-03
 -0.61275539E-04 -0.11856122E-02  0.31725757E-02
 -0.26342295E-03  0.24178934E-02 -0.18758341E-02
 -0.40249536E-02  0.29105936E-02 -0.10135094E-02
  0.21465042E-02 -0.56069093E-03  0.19711727E-02
 -0.13382018E-02  0.14756986E-02 -0.15464468E-02
  0.40439842E-02 -0.16786249E-02  0.30110199E-02
  0.11225169E-02 -0.52806186E-03  0.74153055E-03
 -0.68277153E-02 -0.12780140E-02 -0.20297458E-02
 -0.26674399E-02  0.34987509E-03  0.53263798E-03
  0.34480960E-04 -0.15182448E-03  0.36939477E-03
  0.11460414E-02 -0.29141357E-02  0.20539845E-02
  0.79495625E-03 -0.12854132E-02  0.99255064E-03
 -0.63083630E-03  0.32242404E-03  0.16670746E-02
 -0.53223601E-04  0.65865911E-03  0.14680414E-02
  0.13363779E-02 -0.23406575E-02 -0.11145705E-02
 -0.45075914E-04  0.41616304E-02  0.51149108E-03
  0.19205063E-02 -0.13828440E-02  0.28469377E-02
 -0.20572793E-02 -0.17403459E-02  0.41404491E-03
  0.15592478E-02 -0.19477037E-02 -0.34373954E-02
 -0.50713506E-03 -0.12748156E-02  0.10946221E-02
 -0.17017543E-02 -0.37045674E-03  0.16492503E-02
  0.24427641E-03  0.49695418E-02 -0.31544780E-02
  0.18274946E-02  0.12787399E-02  0.15423636E-03
  0.18101477E-02  0.19627083E-02 -0.94173574E-03
  0.10532102E-02  0.11400728E-02 -0.29531714E-03
 -0.84263615E-03 -0.23706538E-02 -0.29114190E-02
  0.42266238E-03  0.11901808E-02 -0.29246004E-03
 -0.16178890E-03 -0.62605962E-03  0.32015477E-02
 -0.10483893E-02  0.11256099E-02 -0.71932736E-03
 -0.12166653E-02 -0.60189807E-03 -0.16411391E-02
  0.49426775E-03 -0.36216561E-04 -0.40551760E-02
 -0.10762182E-02 -0.31895961E-02  0.13611289E-04
  0.30232499E-03  0.58594960E-03 -0.87837916E-03
  0.85475917E-03 -0.11280548E-02  0.12904651E-02
  0.51637362E-02  0.19823611E-02  0.13221774E-02
  0.35525518E-03 -0.76772062E-03  0.18973562E-02
  0.21360748E-02 -0.15551724E-02 -0.32035808E-02
  0.33566975E-02  0.58650472E-04  0.22500156E-02
  0.18284835E-03  0.88900613E-03  0.31379320E-02
 -0.33263435E-02  0.35462129E-03 -0.36334133E-02
  0.13948225E-02 -0.88555823E-04 -0.17707121E-02
  0.63409799E-03  0.38599213E-02 -0.31585413E-02
 -0.27783310E-02 -0.23072152E-02 -0.34472032E-03
 -0.94637585E-03  0.51370372E-03  0.47701237E-03
  0.23853665E-02 -0.83995965E-03  0.91660129E-03
  0.33183615E-02  0.45362718E-02 -0.51110364E-02
 -0.10667057E-02 -0.54089346E-03  0.13849390E-02
  0.16002466E-02  0.21304980E-05  0.74177207E-03
 -0.50964772E-04 -0.60421906E-03 -0.22283821E-02
 -0.44570029E-03 -0.32309503E-02 -0.32462454E-02
  0.14853215E-02 -0.70194916E-03 -0.91931488E-03
 -0.49387409E-03 -0.34734019E-02 -0.47608220E-03
 -0.15032520E-02  0.56462187E-03 -0.69271383E-03
 -0.11409877E-02  0.32858783E-02  0.29647424E-02
 -0.12065347E-02  0.11707934E-02 -0.29055656E-02
  0.15751455E-02 -0.15366716E-02  0.24133275E-02
  0.10294439E-02  0.42455529E-03 -0.28992431E-03
  0.31196852E-03 -0.19043114E-03 -0.75852292E-03
 -0.98173278E-03  0.96797339E-04  0.31213107E-02
 -0.30176134E-02 -0.14875426E-02 -0.62435106E-03
  0.10177963E-03 -0.23411880E-02 -0.25438174E-02
 -0.12170419E-02  0.12784648E-02  0.47809578E-04
  0.47807893E-03  0.38941848E-02  0.30160192E-02
  0.12202466E-02  0.21547457E-02 -0.22155363E-02
  0.44781413E-03 -0.36837893E-03  0.71733127E-03
 -0.73131102E-03 -0.61123376E-03 -0.20096178E-02
  0.25409592E-02 -0.29135721E-02  0.10087424E-02
 -0.81095964E-03  0.40812226E-03 -0.10223000E-02
 -0.11253837E-02  0.41743422E-02 -0.51198114E-02
  0.11161402E-02 -0.35705488E-02  0.11324639E-03
  0.80611786E-03 -0.31574854E-02  0.16166466E-02
 -0.29292165E-02 -0.27851345E-02  0.26104862E-02
 -0.42749790E-03  0.32061914E-02  0.94695825E-03
 -0.62770985E-03 -0.21674976E-02 -0.12559307E-03
 -0.12949106E-02 -0.53197154E-03 -0.99984217E-03
  0.26454768E-02  0.80790506E-03  0.17593623E-02
  0.11834249E-02 -0.32735834E-02  0.17816319E-02
  0.12853953E-03  0.35198464E-02  0.23388382E-03
 -0.80582120E-03 -0.12097507E-02  0.21808759E-02
 -0.51836354E-03  0.12247967E-03 -0.26516062E-02
  0.58386355E-03  0.62577493E-03  0.11024403E-02
  0.31321489E-02 -0.54777953E-03  0.19032269E-02
  0.14327790E-02  0.22815632E-02  0.62121714E-03
 -0.57584869E-04  0.26780671E-02 -0.20934584E-04
 -0.15367796E-02  0.51835904E-03  0.68061948E-03
  0.15066670E-02 -0.13362773E-02 -0.52140435E-03
  0.27842131E-03  0.32344055E-03  0.36754015E-03
  0.14005506E-02  0.71345444E-03  0.13230937E-02
  0.19032002E-02  0.52220857E-03  0.21141496E-02
 -0.21771293E-02 -0.22023764E-02 -0.68531272E-03
  0.16586717E-03  0.17064256E-06 -0.47786963E-03
 -0.13469919E-02 -0.27274718E-03  0.29709842E-02
  0.79487030E-03 -0.10529483E-02 -0.23896188E-02
 -0.88025374E-03  0.12737709E-02 -0.24596684E-03
 -0.14671107E-02 -0.15109583E-02  0.59381792E-03
 -0.16411525E-02 -0.75717678E-03  0.15010001E-02
  0.67244752E-03  0.24191474E-02  0.15791313E-02
 -0.11232778E-02 -0.21788724E-03 -0.23757381E-02
 -0.32212274E-03 -0.10999986E-02  0.18903817E-02
  0.46386925E-03  0.27232479E-02 -0.16608357E-02
 -0.87747565E-03  0.62293259E-03 -0.22846028E-02
 -0.18689382E-02 -0.30077908E-02 -0.17004583E-02
 -0.22489830E-02  0.26288161E-03  0.31143907E-02
 -0.46283621E-03 -0.19733436E-02 -0.31143260E-02
 -0.10137722E-02  0.26898673E-03  0.10114178E-02
 -0.76092531E-03 -0.34753307E-03  0.26620003E-02
 -0.59481220E-03 -0.21014493E-02  0.18621365E-03
  0.48509114E-03  0.11637918E-03  0.14150738E-02
  0.23915233E-02 -0.13707219E-02  0.82154852E-03
 -0.66871133E-04 -0.16311703E-02  0.10336134E-02
  0.13130280E-03  0.66266036E-03  0.94209941E-03
 -0.36859529E-03  0.27745532E-02 -0.35747319E-02
 -0.46354902E-03  0.26375418E-02 -0.14617963E-02
  0.48645567E-03 -0.26099933E-02 -0.35186245E-02
  0.25997524E-02  0.44721742E-03 -0.16355001E-02
 -0.49481659E-02  0.15022538E-02  0.18098533E-02
  0.21842402E-02 -0.49090504E-03  0.31531457E-02
  0.50602796E-02  0.25751712E-02  0.12287274E-03
  0.18591918E-02 -0.17447349E-02  0.68220077E-03
 -0.11343206E-02 -0.15964490E-02 -0.52494860E-03
 -0.36251105E-02  0.20601478E-02 -0.45941902E-02
  0.83503006E-03  0.10728636E-02  0.13349947E-02
  0.12374254E-03  0.54781936E-03 -0.23109642E-03
  0.38914790E-03  0.21853484E-02 -0.25867406E-02
  0.53330201E-02 -0.11841331E-02 -0.13394344E-02
  0.50256628E-03 -0.42065586E-02 -0.97901497E-03
 -0.14068859E-02  0.53870160E-02 -0.33420239E-02
  0.14755721E-02  0.65922425E-03  0.16955715E-02
 -0.37262717E-02 -0.17549307E-02  0.54948105E-03
  0.26145812E-02  0.79815955E-04 -0.25564175E-02
 -0.17781280E-02  0.17069328E-02  0.29797529E-03
  0.48615399E-02 -0.11352218E-02  0.33335584E-02
  0.14156491E-02 -0.69841791E-03 -0.83385316E-05
  0.12221957E-02 -0.99377227E-03  0.40355663E-02
 -0.11052266E-02  0.25343873E-02 -0.77603156E-03
  0.10682317E-02 -0.22107709E-02 -0.13965830E-02
  0.16446599E-03  0.11642589E-02 -0.83205427E-03
  0.29354843E-02 -0.12383752E-02 -0.10093766E-02
  0.38456516E-02  0.90988526E-04 -0.37452139E-02
  0.11583031E-02 -0.18422543E-02 -0.45098569E-03
  0.17218011E-02  0.11393883E-02  0.44659041E-03
 -0.12889439E-02  0.52634421E-03 -0.29801688E-02
  0.14994574E-02  0.14241788E-02  0.30963259E-02
 -0.33052765E-02  0.41539506E-02  0.17432769E-02
  0.54574662E-03  0.18838848E-02 -0.78210687E-04
 -0.42809198E-03  0.35958778E-04 -0.17956958E-02
 -0.21650690E-02 -0.18899182E-02 -0.50215349E-03
 -0.36473219E-02 -0.24659630E-02  0.17220398E-02
  0.39978354E-04 -0.25696516E-03  0.32389727E-03
  0.14305427E-02 -0.28518018E-03 -0.10935507E-02
 -0.14120432E-02 -0.81159207E-03 -0.11619757E-02
 -0.21883850E-02  0.40290037E-03  0.11645296E-02
  0.68417176E-03 -0.49845329E-03  0.34353756E-02
 -0.32228361E-02 -0.13568741E-02 -0.14689798E-02
  0.22271380E-02  0.20684630E-02  0.32697092E-02
  0.26603245E-04 -0.30742641E-02  0.43059882E-03
 -0.44018764E-03  0.96901188E-04  0.26413232E-04
 -0.44611809E-03  0.30837085E-02 -0.50172654E-02
  0.79469717E-03 -0.11234451E-02 -0.65376096E-03