Amorphous Sb                            
  0.980000000000000     
    20.7576774052841522    0.0000000000000000    0.0000000000000000
     0.0000000000000000   20.7576774052841522    0.0000000000000000
     0.0000000000000000    0.0000000000000000   20.7576774052841522
   Sn   Se
   150   150
Direct
  0.0774548245407644  0.5013092617956655  0.7591478297832829
  0.7061795944217073  0.4738014690911019  0.7803281679572588
  0.9541191956283867  0.2019405105555866  0.6107323774911989
  0.0985344668764667  0.7425219928124686  0.3826369079286229
  0.0998470384336325  0.0190982411681172  0.4866544667327993
  0.4051996805894714  0.7420231193197030  0.8352396167073655
  0.9689400651014523  0.6545214545170651  0.6716331534272313
  0.8680403746504254  0.1911128241787248  0.4710941061508142
  0.9533563666269851  0.1265864974422620  0.0052243058450183
  0.3441022436772589  0.9520021067397755  0.5582435351395268
  0.5588220673375459  0.6133854679267189  0.7098775163845904
  0.7750361194570252  0.5418454975029307  0.3242726368359352
  0.4271434150432117  0.2390746964858988  0.0739370468926475
  0.7322065020034769 -0.0108050065070189  0.2725612420221479
  0.5639223941214321  0.7321921699186404  0.3102048186815842
  0.3988236399474032  0.6895299826220461  0.1936084286580559
  0.8222195915764103  0.6664825138229536  0.1941096558746239
  0.1776423282937036  0.7300281398308833  0.5407819910457263
  0.1231826873457775  0.1134992112671592  0.8585850582560657
  0.1931386375996972  0.3941528083694641  0.0311105649458900
  0.8824116674564145  0.1033300919668505  0.2818359159199510
  0.1212589957141465  0.6785583842857034  0.8242363006123716
  0.6115370254155694  0.4143658817705985  0.3823482994992107
  0.9733733507410747  0.9281272097697419  0.8876278701353369
  0.6925660992811674  0.7351287577382574  0.0557240936254853
  0.3786674943749107  0.0223349887498217  0.9897493792188168
  0.1808461718324912  0.6545728386766050  0.6822385477598282
  0.6437648621937538  0.9032890517465497  0.5209962292772448
  0.7343507798000254  0.5512378168081443  0.0731911369592265
  0.8206056113546562  0.0384725468342114  0.8866574200306269
  0.7378314218992527  0.2057678878898423  0.9785682053055189
  0.1739606161225743  0.1098030798898459  0.3414514852869554
  0.0393561794359643  0.3728457182845971  0.1384154564531463
  0.0885956642041236  0.8713054845374084  0.0149263387380709
  0.9165353956657654  0.1716213331792202  0.8056946457967508
  0.2815525430597884  0.9168454883475845  0.1048934193390487
  0.3644944435000476  0.1376131264034019  0.2857112624558425
  0.1778791197406159  0.3885177465481363  0.3016311302283913
  0.2490269629284101  0.0190428297448459  0.8631333227733793
  0.4142249331520840  0.7220752591203885  0.6637395819223258
  0.5717588466580821  0.4446845109968488  0.8150016730505197
  0.2423069873416324  0.3933963810262460  0.6904618753058948
  0.6963737432570039  0.3987713497951990  0.2063636531869391
  0.1109396240917384  0.3069294009908389  0.9294459289272188
  0.2798168353369191  0.1325305274467420  0.6201831646572907
  0.8975234795973710  0.3917008000932756  0.8129922937560254
  0.1887601510326835  0.7404138226944125 -0.0097912218935650
  0.2022335965075049  0.7359934932024401  0.1898150093422046
  0.5156434996036728  0.3324483746865983  0.6377311757750590
  0.3191579658507945  0.3586517408873907  0.1649550881413187
  0.8551310037558573  0.5329029413666954  0.8577551223747716
  0.5849731236224747  0.3784619215269830  0.9536480847230759
  0.2353517811597987  0.7924038229602977  0.7566073209445492
  0.1149882118974528  0.5430850015360688  0.1643320193925224
  0.5304411133035519  0.4619338627040484  0.1842041531898791
  0.6184152194068634  0.9855526480849763  0.6490702419792185
  0.5427906055513411  0.6550872947831911  0.4942261322958902
  0.6569345535223012  0.4717812267534721  0.5750364551574405
  0.5163412636006245  0.6166404470445541  0.0641056925920722
  0.4131462219616066  0.8082337292881270  0.0025253926259402
  0.7348350926927311  0.0520704916823010  0.0453044848569243
  0.5361600384309205  0.2223047226728071  0.2044306498200643
  0.6069343488104247  0.0835140771970329  0.3672889692342412
  0.5939190841499978  0.9090139099796309  0.9633881252425958
  0.7041341533905177  0.9013340049947027  0.8010002070299991
  0.7656325425782569  0.8782029893985107  0.1749317309830995
  0.0135416300774169  0.8435565319511149  0.7633484969235880
  0.8813523155759901  0.6313828350614371  0.0533386241368234
  0.7575434642480342  0.0319578139297493  0.5328267512401419
  0.1317870868476939  0.4076316665262209  0.5297846969569290
  0.2450527247631145  0.8673260180712694  0.4448889549927802
  0.8056633046285134  0.6859286264808123  0.6844693562966787
  0.1047475625777442  0.0862041595833387  0.0069722308823652
  0.3510090690547470  0.3478582680495990  0.3348476563702091
  0.4734337167140858  0.2374065783972265  0.4630704891483918
  0.9150508709111107  0.8193678516343633  0.2594638790903797
  0.1175426744006889  0.0292331450886469  0.7142868238401520
  0.1035105965721383  0.2531201789563543  0.7226731474692761
  0.9096054076544564  0.0295288137763623  0.6484866015408475
  0.3792636120147735  0.7901124704571143  0.3123293907611420
  0.9759441713562708  0.6715369255236137  0.2313921233365646
  0.8765773414048208  0.6913375992797371  0.3947237075690720
  0.3225347717118914  0.5894184646398645  0.3825623645763728
  0.2741303956965440  0.1451329907051959  0.0322550795688664
  0.5682897834516529  0.0656732385994528  0.0493102714635252
  0.4264044546939663  0.9391907354999101  0.8120240490306186
  0.4038541448411501  0.4598902672962775  0.4688013912327013
  0.9213604860985957  0.3376032589214392 -0.0074196875055473
  0.9296450275030315  0.0026602651321451  0.4311844070478955
  0.9695205443795181  0.8211736648491799  0.5783020346731015
  0.9723940892729758  0.2533633696590021  0.2110182381644497
  0.0626480245488760  0.0680755989225090  0.2120793120314738
  0.5516934617162752  0.9253642822902027  0.3325406693210851
  0.7972787579617983  0.3100952443307285  0.2871472898518876
  0.7649195399206253  0.3368700247927035  0.7469659600031597
  0.0271989187531301  0.1867025540359646  0.4348703274331888
  0.3519806840721951  0.0834903420360978  0.4734903420360979
  0.9550604179845614  0.3338649132214471  0.5016292667176339
  0.3045436503942444  0.2106915500723607  0.7989217165741357
  0.5303117605164300  0.0043249940751748  0.4988881515350334
  0.2243813461545457  0.9860066151569997  0.2563447786464653
  0.7517560661024754  0.1816516177784222  0.7175477644417250
  0.3494455914714565  0.2968244706690316  0.5406813399466428
  0.4675295241087135  0.5435369683410661  0.6149258264250581
  0.1247961870588933  0.8988292466209079  0.1832851932064997
  0.1777116492461655  0.5443707968324371  0.5162303328204338
  0.5782374337701865  0.2872942519445559  0.0703934664065794
  0.4145818806982351 -0.0055812717465324  0.2028722128179078
  0.8124293383308399  0.8609966589019300  0.4185361661090976
  0.5760343093152914  0.8969064257153512  0.1324500616831978
  0.4562879948395551  0.1693631082826836  0.9266135858663763
  0.4620643958067833  0.3431033879754468  0.7915654420530820
  0.5744101315884750  0.1891154767529262  0.5877118326478489
  0.0213162523548265  0.5452951516644824  0.9453303194817227
  0.5082120179919146  0.5612009695630480  0.3288579545815479
  0.9230836404827304  0.9332824877681111  0.1081019449618868
  0.1530997495743346  0.8791274031128744  0.6269491348799294
  0.8106421301876113  0.5094304398127075  0.6511666925878659
  0.6110426998690740  0.2646478323516198  0.8475089189447818
  0.9922493036795290  0.3702958131266332  0.3546407990727403
  0.9037237299788823  0.4485995312738075  0.1235147010370658
  0.4427625684402646  0.0825799226339613  0.7120559120632087
  0.0496098661717074  0.9137532497390279  0.3696579790838292
  0.4797434069379081  0.8081570741327615  0.5379587609840482
  0.9644131702126979  0.3900562332664839  0.6349705762787331
  0.7648893390672203  0.3762286253696430  0.0523440326125458
  0.2896562049221966  0.3510342146351553  0.8803466244795487
  0.1827084771446827  0.2794246843336216  0.4737988796357442
  0.2758057491153000  0.5801446894326349  0.8852790015553550
  0.6599999999999998  0.1325144725402031  0.1814285714285714
  0.7121162344333375  0.2741909586936045  0.5717566103322695
  0.2588987650424464  0.5083539362242958  0.2350911908689577
  0.9456181670005678  0.7298132197598087  0.8964281907843358
  0.7726165058465942  0.8441722933155249  0.6096511209013225
  0.7090432640999589  0.6570423799062161  0.8621300700065234
  0.6076680143042474  0.7912467977927665  0.6407381378266522
  0.5935420695517825  0.0698246922527214  0.8201262301931697
  0.6431677633744228  0.2529461691729324  0.3861877972811855
  0.4354251458533822  0.5463425009729010  0.8823164000207020
  0.3057464359757828  0.6166645418396458  0.0423980177145431
  0.8262653348054108  0.4165913177499775  0.4689659527031632
  0.5587044506442040  0.7226013096136968  0.9222061705417465
  0.8231919306449453  0.6603144126660935  0.5321973418048924
  0.7980026806787087  0.8464503044648921  0.9696440401826012
  0.3896899536618049  0.4276019288777035  0.0007742963660835
  0.3230052651730989  0.5265350618044723  0.6781311964474072
  0.3559120260259301  0.7288975852003912  0.4943766288749706
  0.6944717507001065  0.7389276954949484  0.4606704056958524
  0.1318154921961097  0.2139099928030508  0.2169549964029578
  0.0679542890408712  0.5582478785208013  0.3677133103153314
  0.2005149844731422  0.1494116804280867  0.7364663185678388
  0.9286907434404014  0.5926254928761667  0.3286869718792132
  0.0492554503728356  0.9901529518602106  0.0839719889940261
  0.9835329369588512  0.5689003542444625  0.1492131617732146
  0.0274884520955229  0.9354263295156831  0.6662951043661878
  0.2744216600294944  0.7384220653152315  0.8750043773881365
  0.4058931691590716  0.2483759479723253  0.2148631703514159
  0.2717122319566074  0.0275612306442193  0.3785263685653135
  0.2901051906020992  0.3839516766079250  0.4529242801295143
  0.3959012446361052  0.5757547628903343  0.1291827974142120
  0.9665992156603939  0.0657123863583903  0.8795991470233359
  0.9339160203979702  0.4860385455907583  0.7182568595399333
  0.7335434063793181  0.3337089710970191  0.9323305897936398
  0.7038243368179001  0.9205614355038577  0.0659733869519186
  0.0008337612863698  0.3953561125681250  0.8952597902421235
  0.8796318708297268  0.8050318069890033  0.6829867593948171
  0.6515569057993019  0.6813955193628610  0.5758864847736977
  0.6712592052314844  0.8616094145763045  0.3123333080230177
  0.2915093571808825  0.8258887973388520  0.5789523531754208
  0.5357125892314806  0.7740131465791927  0.0537741508149114
  0.9509449285486686  0.6923062179070942  0.5388066651096530
  0.4689589488817484  0.3608136224381303  0.4039560839937580
  0.1805841247837018  0.3404769802993722  0.7957087072174873
  0.4453075447352556  0.0223448669022647  0.4021029748250740
  0.2476660599812401  0.2098220593665694  0.2868729553304863
  0.2780494669447926  0.6078945813019728  0.5710118599774411
  0.1562810175375154  0.1413346491271721  0.4691014398130530
  0.3785614922610240  0.4855437319973682  0.3012911345571622
  0.3040363111385665  0.2952488595421599  0.0482654153530222
  0.2379982109811715  0.2824843934620659  0.6113100892116236
  0.3551204977766608  0.2041751922542250  0.4077586384244553
  0.7303363493290457  0.5246194274173132  0.8987644247128763
  0.6555432217861562  0.8063718869055569  0.2023737727454363
  0.6387052476413226  0.4512642357237935  0.0932041268865567
  0.7793619507360889  0.0771200642301802  0.1696537334093511
  0.3525792180752390  0.4200467804206928  0.7821478037460161
  0.5573831275871589  0.5782744182175389  0.8365742507349598
  0.1557236755951144  0.1761265377635065  0.0880837315618647
  0.8381329281421359  0.6603863362251329  0.8091648527305222
  0.3830652455148981  0.1982518364279310  0.6770489862325844
  0.9046407768037208  0.2332484945772139  0.3273987826321496
  0.5078897488599594  0.4963548187335005  0.9884007431787991
  0.9528851181092719  0.1314218318867491  0.1619175582025622
  0.5246807078303872  0.1883890747564910  0.3456527860795707
  0.4331943316413073  0.6601386090459926  0.9607657266456676
  0.8914081079539024  0.5136169856775840 -0.0113736061863105
  0.9538450513364714  0.8539713163037146  0.0019952241401834
  0.0652320213765340  0.2701703660666476  0.5523833272410154
  0.2134050902357691  0.5473334694131802  0.7620411445212266
  0.2435476742284932  0.7299638669300030  0.4180305859262736
  0.1565815799215511  0.8540078974296812  0.3148391885972862
  0.1007981228093242  0.2851575725814522  0.3564055505862320
  0.6799704728881143  0.0000067310859859  0.9040721094185341
  0.6759668335556619  0.8136191430634965  0.9081237453999919
  0.5478468970125518  0.4580827126804906  0.6786834353272614
  0.4720357563624260  0.9267831526981102  0.5944229702548305
  0.4019437028776492  0.4060457973498169  0.5952737029858010
  0.0970014504040747  0.4031828539370868  0.6592654907617828
  0.1400080479969999  0.8726895356883392  0.8216572014825914
  0.1106385696630557  0.8438837487452764  0.4956942243429337
  0.7098178644049260  0.7761460059340870  0.7229283340982685
  0.6083011992791992  0.3518646796104660  0.5314751706237086
  0.8647172884229620  0.0204283390734191  0.0226172009874534
  0.0128644615005111  0.9394354090810630  0.2395604401905621
  0.8748194530028126  0.2180008026217864  0.9462506615376796
  0.6509755969768820  0.5021036493159592  0.2808961519383960
  0.9416116231039888  0.2972817549418289  0.7216065304492535
  0.1785727336628870  0.6419566221624400  0.0985139785023413
  0.2953715019966704  0.0472257338976918  0.1579957361248310
  0.6368764713105605  0.6308067105265501 -0.0107660416692056
  0.4867291264083025  0.8444526387435651  0.2484718123966669
  0.4193205602589859  0.9273276469256601  0.0789149950385756
  0.4912024441480436  0.8499033146718428  0.8889727247244726
  0.4486419996019523  0.6783392488294786  0.3774206097284701
  0.6953368369008587  0.6452567776455803  0.1591897076580858
  0.5866924731523345  0.1833307270629565  0.9846816796704514
  0.8631342379221456  0.9362161323568535  0.3190977315777547
  0.4548021405152349  0.3256513372133872  0.9256524039839702
  0.7047197428406906  0.2689638208580394  0.1112987348539431
  0.3843356802806430  0.6243107109358313  0.7532287684293668
  0.5736909263620021  0.8175001607287004  0.4456591306439568
  0.6337684878270539  0.6378559440278287  0.3960876389733492
  0.7057770469923549  0.1638653986210206  0.3058005039834882
  0.6352423991797929  0.3102303815096090  0.7227175741890371
  0.3100381208443108  0.7491883459652194  0.0906959924922023
  0.8480249895476158  0.9101184039780961  0.8490153358837277
  0.0911742062925081  0.6385457377139695  0.4891255602903135
  0.0208054819022163  0.4492258601165736  0.4692499243770344
  0.3703519554910153  0.8305886426375072  0.7341066576727761
  0.5010589345607336  0.0332547446581624  0.9307542981410974
  0.0826703325420692  0.4700714471215544  0.0534893963553313
  0.9642491874257980  0.7953749805213817  0.3893108230181202
  0.0005384297845006  0.1229591101775246  0.7051687328166059
  0.3610860184757715  0.0953716241628421  0.8383620053668572
  0.1802860755611355  0.0085624000167645  0.5904084376256392
  0.5769585706303366  0.9287823600081000  0.7587043465896840
  0.0473061872275112  0.2217755786848386  0.8470453397927308
  0.2735607464183854  0.4769140721068020  0.1005587640082065
  0.0588459823511188  0.7565131240374964  0.6699164977494259
  0.7957251502873848  0.3752185731160368  0.6216042532902153
  0.5298765729548093  0.7402145498961451  0.7361458942491940
  0.7055378031463663  0.9491981390788831  0.4145887139365343
  0.3303949841966733  0.9228879304897171  0.9078822504759807
  0.2184536149992269  0.4588922875156527  0.9169664282623534
  0.6392630155568780  0.1148722803563331  0.6821739180844848
  0.5956498305288419  0.0103256949431457  0.2261751901556809
  0.5295872636692293  0.6350912436973108  0.2221587995377038
  0.7717444097648934  0.2842695777389974  0.4495905194746189
  0.0619014321118034  0.4523936342167341  0.2725184469856088
  0.8245506652806220  0.0750791451807061  0.7546041946926140
  0.4760186711651037  0.1020896812315967  0.5683640002702374
  0.4443224606522652  0.3823420129709075  0.1135555084805256
  0.8252412113304366  0.1357374570137417  0.5944763186752144
  0.7998190338435297  0.7028608108557158  0.9660016634927452
  0.7012171678278696  0.1681986301682098  0.8452189153203434
  0.1035269020336321  0.6549518281195267  0.2722521044346470
  0.2172870670125069  0.0168251803889235  0.0000948912932218
  0.8577457275555938  0.9318109229580971  0.5312294197532822
  0.8623663449528042  0.3146043632801683  0.1671341561065790
  0.7501082123622124  0.9606773162700619  0.6670520659844611
  0.8522989389355026  0.4279278789965320  0.3352777619711490
  0.0016379795200881  0.6224493283067067  0.8183224942724048
  0.0769936940870221  0.7794807258220341  0.8991884977277623
  0.3302900290796068  0.0151281461703091  0.6756102616610098
  0.5452968764549619  0.5181132582837372  0.5063246816851505
  0.6886770931450293  0.5869221445182171  0.7117262402255967
  0.2859257864935491  0.6374792190887762  0.2598348883030505
  0.5735234479122467  0.3499717072161576  0.2476299480896808
  0.2175179949714062  0.9363161329524479  0.7479066212304274
  0.5062470758988095  0.1939058051091503  0.8052445674214127
  0.2149244650522513  0.1961387714194531  0.9163947124693017
  0.1562502484299302  0.6180257564624729  0.9356002213696054
  0.8392350866380276  0.7860654009848650  0.1210878860707506
  0.2036250407141754  0.5217999389726616  0.3872480074564254
  0.7152959893213957  0.4832817484993069  0.4485721546571949
  0.3940708573202867  0.8493815730925689  0.4337557750297349
  0.0282108200251550  0.2757609561307351  0.0416264936246060
  0.8726764025442085  0.5375052099071912  0.5377323088213612
  0.0093742417062356  0.0837266416908447  0.3413789774633785
 -0.0037259971532329  0.6704921645459055  0.0052606880910315
  0.1651853079617604  0.3362220610802178  0.1739243460761364
  0.3145272829169967  0.8915400603676730  0.2358551302559571
 -0.0101868062650504  0.0827411011546969  0.5333810055325388
  0.8049578618120645  0.5092385658468884  0.1862459499976502
  0.6518272221146241  0.1513874709953235  0.4829346835564153
  0.8203818005676361  0.0813997376386430  0.4147645678211515
  0.4670677203050240  0.1083436156001332  0.1210511163083223
  0.0760469599143376  0.5760098506914032  0.6464102651562644
  0.0784388566054700  0.7915923937335766  0.1252443222510154
  0.8011195427267813  0.7495911330814544  0.3030007616477123
 
  0.00000000E+00  0.00000000E+00  0.00000000E+00
  0.00000000E+00  0.00000000E+00  0.00000000E+00
  0.00000000E+00  0.00000000E+00  0.00000000E+00
  0.00000000E+00  0.00000000E+00  0.00000000E+00
  0.00000000E+00  0.00000000E+00  0.00000000E+00
  0.00000000E+00  0.00000000E+00  0.00000000E+00
  0.00000000E+00  0.00000000E+00  0.00000000E+00
  0.00000000E+00  0.00000000E+00  0.00000000E+00
  0.00000000E+00  0.00000000E+00  0.00000000E+00
  0.00000000E+00  0.00000000E+00  0.00000000E+00
  0.00000000E+00  0.00000000E+00  0.00000000E+00
  0.00000000E+00  0.00000000E+00  0.00000000E+00
  0.00000000E+00  0.00000000E+00  0.00000000E+00
  0.00000000E+00  0.00000000E+00  0.00000000E+00
  0.00000000E+00  0.00000000E+00  0.00000000E+00
  0.00000000E+00  0.00000000E+00  0.00000000E+00
  0.00000000E+00  0.00000000E+00  0.00000000E+00
  0.00000000E+00  0.00000000E+00  0.00000000E+00
  0.00000000E+00  0.00000000E+00  0.00000000E+00
  0.00000000E+00  0.00000000E+00  0.00000000E+00
  0.00000000E+00  0.00000000E+00  0.00000000E+00
  0.00000000E+00  0.00000000E+00  0.00000000E+00
  0.00000000E+00  0.00000000E+00  0.00000000E+00
  0.00000000E+00  0.00000000E+00  0.00000000E+00
  0.00000000E+00  0.00000000E+00  0.00000000E+00
  0.00000000E+00  0.00000000E+00  0.00000000E+00
  0.00000000E+00  0.00000000E+00  0.00000000E+00
  0.00000000E+00  0.00000000E+00  0.00000000E+00
  0.00000000E+00  0.00000000E+00  0.00000000E+00
  0.00000000E+00  0.00000000E+00  0.00000000E+00
  0.00000000E+00  0.00000000E+00  0.00000000E+00
  0.00000000E+00  0.00000000E+00  0.00000000E+00
  0.00000000E+00  0.00000000E+00  0.00000000E+00
  0.00000000E+00  0.00000000E+00  0.00000000E+00
  0.00000000E+00  0.00000000E+00  0.00000000E+00
  0.00000000E+00  0.00000000E+00  0.00000000E+00
  0.00000000E+00  0.00000000E+00  0.00000000E+00
  0.00000000E+00  0.00000000E+00  0.00000000E+00
  0.00000000E+00  0.00000000E+00  0.00000000E+00
  0.00000000E+00  0.00000000E+00  0.00000000E+00
  0.00000000E+00  0.00000000E+00  0.00000000E+00
  0.00000000E+00  0.00000000E+00  0.00000000E+00
  0.00000000E+00  0.00000000E+00  0.00000000E+00
  0.00000000E+00  0.00000000E+00  0.00000000E+00
  0.00000000E+00  0.00000000E+00  0.00000000E+00
  0.00000000E+00  0.00000000E+00  0.00000000E+00
  0.00000000E+00  0.00000000E+00  0.00000000E+00
  0.00000000E+00  0.00000000E+00  0.00000000E+00
  0.00000000E+00  0.00000000E+00  0.00000000E+00
  0.00000000E+00  0.00000000E+00  0.00000000E+00
  0.00000000E+00  0.00000000E+00  0.00000000E+00
  0.00000000E+00  0.00000000E+00  0.00000000E+00
  0.00000000E+00  0.00000000E+00  0.00000000E+00
  0.00000000E+00  0.00000000E+00  0.00000000E+00
  0.00000000E+00  0.00000000E+00  0.00000000E+00
  0.00000000E+00  0.00000000E+00  0.00000000E+00
  0.00000000E+00  0.00000000E+00  0.00000000E+00
  0.00000000E+00  0.00000000E+00  0.00000000E+00
  0.00000000E+00  0.00000000E+00  0.00000000E+00
  0.00000000E+00  0.00000000E+00  0.00000000E+00
  0.00000000E+00  0.00000000E+00  0.00000000E+00
  0.00000000E+00  0.00000000E+00  0.00000000E+00
  0.00000000E+00  0.00000000E+00  0.00000000E+00
  0.00000000E+00  0.00000000E+00  0.00000000E+00
  0.00000000E+00  0.00000000E+00  0.00000000E+00
  0.00000000E+00  0.00000000E+00  0.00000000E+00
  0.00000000E+00  0.00000000E+00  0.00000000E+00
  0.00000000E+00  0.00000000E+00  0.00000000E+00
  0.00000000E+00  0.00000000E+00  0.00000000E+00
  0.00000000E+00  0.00000000E+00  0.00000000E+00
  0.00000000E+00  0.00000000E+00  0.00000000E+00
  0.00000000E+00  0.00000000E+00  0.00000000E+00
  0.00000000E+00  0.00000000E+00  0.00000000E+00
  0.00000000E+00  0.00000000E+00  0.00000000E+00
  0.00000000E+00  0.00000000E+00  0.00000000E+00
  0.00000000E+00  0.00000000E+00  0.00000000E+00
  0.00000000E+00  0.00000000E+00  0.00000000E+00
  0.00000000E+00  0.00000000E+00  0.00000000E+00
  0.00000000E+00  0.00000000E+00  0.00000000E+00
  0.00000000E+00  0.00000000E+00  0.00000000E+00
  0.00000000E+00  0.00000000E+00  0.00000000E+00
  0.00000000E+00  0.00000000E+00  0.00000000E+00
  0.00000000E+00  0.00000000E+00  0.00000000E+00
  0.00000000E+00  0.00000000E+00  0.00000000E+00
  0.00000000E+00  0.00000000E+00  0.00000000E+00
  0.00000000E+00  0.00000000E+00  0.00000000E+00
  0.00000000E+00  0.00000000E+00  0.00000000E+00
  0.00000000E+00  0.00000000E+00  0.00000000E+00
  0.00000000E+00  0.00000000E+00  0.00000000E+00
  0.00000000E+00  0.00000000E+00  0.00000000E+00
  0.00000000E+00  0.00000000E+00  0.00000000E+00
  0.00000000E+00  0.00000000E+00  0.00000000E+00
  0.00000000E+00  0.00000000E+00  0.00000000E+00
  0.00000000E+00  0.00000000E+00  0.00000000E+00
  0.00000000E+00  0.00000000E+00  0.00000000E+00
  0.00000000E+00  0.00000000E+00  0.00000000E+00
  0.00000000E+00  0.00000000E+00  0.00000000E+00
  0.00000000E+00  0.00000000E+00  0.00000000E+00
  0.00000000E+00  0.00000000E+00  0.00000000E+00
  0.00000000E+00  0.00000000E+00  0.00000000E+00
  0.00000000E+00  0.00000000E+00  0.00000000E+00
  0.00000000E+00  0.00000000E+00  0.00000000E+00
  0.00000000E+00  0.00000000E+00  0.00000000E+00
  0.00000000E+00  0.00000000E+00  0.00000000E+00
  0.00000000E+00  0.00000000E+00  0.00000000E+00
  0.00000000E+00  0.00000000E+00  0.00000000E+00
  0.00000000E+00  0.00000000E+00  0.00000000E+00
  0.00000000E+00  0.00000000E+00  0.00000000E+00
  0.00000000E+00  0.00000000E+00  0.00000000E+00
  0.00000000E+00  0.00000000E+00  0.00000000E+00
  0.00000000E+00  0.00000000E+00  0.00000000E+00
  0.00000000E+00  0.00000000E+00  0.00000000E+00
  0.00000000E+00  0.00000000E+00  0.00000000E+00
  0.00000000E+00  0.00000000E+00  0.00000000E+00
  0.00000000E+00  0.00000000E+00  0.00000000E+00
  0.00000000E+00  0.00000000E+00  0.00000000E+00
  0.00000000E+00  0.00000000E+00  0.00000000E+00
  0.00000000E+00  0.00000000E+00  0.00000000E+00
  0.00000000E+00  0.00000000E+00  0.00000000E+00
  0.00000000E+00  0.00000000E+00  0.00000000E+00
  0.00000000E+00  0.00000000E+00  0.00000000E+00
  0.00000000E+00  0.00000000E+00  0.00000000E+00
  0.00000000E+00  0.00000000E+00  0.00000000E+00
  0.00000000E+00  0.00000000E+00  0.00000000E+00
  0.00000000E+00  0.00000000E+00  0.00000000E+00
  0.00000000E+00  0.00000000E+00  0.00000000E+00
  0.00000000E+00  0.00000000E+00  0.00000000E+00
  0.00000000E+00  0.00000000E+00  0.00000000E+00
  0.00000000E+00  0.00000000E+00  0.00000000E+00
  0.00000000E+00  0.00000000E+00  0.00000000E+00
  0.00000000E+00  0.00000000E+00  0.00000000E+00
  0.00000000E+00  0.00000000E+00  0.00000000E+00
  0.00000000E+00  0.00000000E+00  0.00000000E+00
  0.00000000E+00  0.00000000E+00  0.00000000E+00
  0.00000000E+00  0.00000000E+00  0.00000000E+00
  0.00000000E+00  0.00000000E+00  0.00000000E+00
  0.00000000E+00  0.00000000E+00  0.00000000E+00
  0.00000000E+00  0.00000000E+00  0.00000000E+00
  0.00000000E+00  0.00000000E+00  0.00000000E+00
  0.00000000E+00  0.00000000E+00  0.00000000E+00
  0.00000000E+00  0.00000000E+00  0.00000000E+00
  0.00000000E+00  0.00000000E+00  0.00000000E+00
  0.00000000E+00  0.00000000E+00  0.00000000E+00
  0.00000000E+00  0.00000000E+00  0.00000000E+00
  0.00000000E+00  0.00000000E+00  0.00000000E+00
  0.00000000E+00  0.00000000E+00  0.00000000E+00
  0.00000000E+00  0.00000000E+00  0.00000000E+00
  0.00000000E+00  0.00000000E+00  0.00000000E+00
  0.00000000E+00  0.00000000E+00  0.00000000E+00
  0.00000000E+00  0.00000000E+00  0.00000000E+00
  0.00000000E+00  0.00000000E+00  0.00000000E+00
  0.00000000E+00  0.00000000E+00  0.00000000E+00
  0.00000000E+00  0.00000000E+00  0.00000000E+00
  0.00000000E+00  0.00000000E+00  0.00000000E+00
  0.00000000E+00  0.00000000E+00  0.00000000E+00
  0.00000000E+00  0.00000000E+00  0.00000000E+00
  0.00000000E+00  0.00000000E+00  0.00000000E+00
  0.00000000E+00  0.00000000E+00  0.00000000E+00
  0.00000000E+00  0.00000000E+00  0.00000000E+00
  0.00000000E+00  0.00000000E+00  0.00000000E+00
  0.00000000E+00  0.00000000E+00  0.00000000E+00
  0.00000000E+00  0.00000000E+00  0.00000000E+00
  0.00000000E+00  0.00000000E+00  0.00000000E+00
  0.00000000E+00  0.00000000E+00  0.00000000E+00
  0.00000000E+00  0.00000000E+00  0.00000000E+00
  0.00000000E+00  0.00000000E+00  0.00000000E+00
  0.00000000E+00  0.00000000E+00  0.00000000E+00
  0.00000000E+00  0.00000000E+00  0.00000000E+00
  0.00000000E+00  0.00000000E+00  0.00000000E+00
  0.00000000E+00  0.00000000E+00  0.00000000E+00
  0.00000000E+00  0.00000000E+00  0.00000000E+00
  0.00000000E+00  0.00000000E+00  0.00000000E+00
  0.00000000E+00  0.00000000E+00  0.00000000E+00
  0.00000000E+00  0.00000000E+00  0.00000000E+00
  0.00000000E+00  0.00000000E+00  0.00000000E+00
  0.00000000E+00  0.00000000E+00  0.00000000E+00
  0.00000000E+00  0.00000000E+00  0.00000000E+00
  0.00000000E+00  0.00000000E+00  0.00000000E+00
  0.00000000E+00  0.00000000E+00  0.00000000E+00
  0.00000000E+00  0.00000000E+00  0.00000000E+00
  0.00000000E+00  0.00000000E+00  0.00000000E+00
  0.00000000E+00  0.00000000E+00  0.00000000E+00
  0.00000000E+00  0.00000000E+00  0.00000000E+00
  0.00000000E+00  0.00000000E+00  0.00000000E+00
  0.00000000E+00  0.00000000E+00  0.00000000E+00
  0.00000000E+00  0.00000000E+00  0.00000000E+00
  0.00000000E+00  0.00000000E+00  0.00000000E+00
  0.00000000E+00  0.00000000E+00  0.00000000E+00
  0.00000000E+00  0.00000000E+00  0.00000000E+00
  0.00000000E+00  0.00000000E+00  0.00000000E+00
  0.00000000E+00  0.00000000E+00  0.00000000E+00
  0.00000000E+00  0.00000000E+00  0.00000000E+00
  0.00000000E+00  0.00000000E+00  0.00000000E+00
  0.00000000E+00  0.00000000E+00  0.00000000E+00
  0.00000000E+00  0.00000000E+00  0.00000000E+00
  0.00000000E+00  0.00000000E+00  0.00000000E+00
  0.00000000E+00  0.00000000E+00  0.00000000E+00
  0.00000000E+00  0.00000000E+00  0.00000000E+00
  0.00000000E+00  0.00000000E+00  0.00000000E+00
  0.00000000E+00  0.00000000E+00  0.00000000E+00
  0.00000000E+00  0.00000000E+00  0.00000000E+00
  0.00000000E+00  0.00000000E+00  0.00000000E+00
  0.00000000E+00  0.00000000E+00  0.00000000E+00
  0.00000000E+00  0.00000000E+00  0.00000000E+00
  0.00000000E+00  0.00000000E+00  0.00000000E+00
  0.00000000E+00  0.00000000E+00  0.00000000E+00
  0.00000000E+00  0.00000000E+00  0.00000000E+00
  0.00000000E+00  0.00000000E+00  0.00000000E+00
  0.00000000E+00  0.00000000E+00  0.00000000E+00
  0.00000000E+00  0.00000000E+00  0.00000000E+00
  0.00000000E+00  0.00000000E+00  0.00000000E+00
  0.00000000E+00  0.00000000E+00  0.00000000E+00
  0.00000000E+00  0.00000000E+00  0.00000000E+00
  0.00000000E+00  0.00000000E+00  0.00000000E+00
  0.00000000E+00  0.00000000E+00  0.00000000E+00
  0.00000000E+00  0.00000000E+00  0.00000000E+00
  0.00000000E+00  0.00000000E+00  0.00000000E+00
  0.00000000E+00  0.00000000E+00  0.00000000E+00
  0.00000000E+00  0.00000000E+00  0.00000000E+00
  0.00000000E+00  0.00000000E+00  0.00000000E+00
  0.00000000E+00  0.00000000E+00  0.00000000E+00
  0.00000000E+00  0.00000000E+00  0.00000000E+00
  0.00000000E+00  0.00000000E+00  0.00000000E+00
  0.00000000E+00  0.00000000E+00  0.00000000E+00
  0.00000000E+00  0.00000000E+00  0.00000000E+00
  0.00000000E+00  0.00000000E+00  0.00000000E+00
  0.00000000E+00  0.00000000E+00  0.00000000E+00
  0.00000000E+00  0.00000000E+00  0.00000000E+00
  0.00000000E+00  0.00000000E+00  0.00000000E+00
  0.00000000E+00  0.00000000E+00  0.00000000E+00
  0.00000000E+00  0.00000000E+00  0.00000000E+00
  0.00000000E+00  0.00000000E+00  0.00000000E+00