Ge Se                                   
   1.00000000000000     
    20.8706398010253906    0.0000000000000000    0.0000000000000000
     0.0000000000000000   20.8706398010253906    0.0000000000000000
     0.0000000000000000    0.0000000000000000   20.8706398010253906
   Ge   Se
   150   150
Direct
  0.7258027015685973  0.8251670500149009  0.1293362061722720
  0.2683977602842004  0.5985262714987414  0.1469216769234213
  0.2689204191622802  0.7205848752425807  0.6545272147944059
  0.5258597152914717  0.5476048919968680  0.8711857313490760
  0.6136903974145692  0.2674322605880430  0.4358412798884971
  0.9126666477651504  0.0215430593583329  0.7482695988894156
  0.0953709433898379  0.6678776670326140  0.0263408905809719
  0.4522651594945015  0.9343998460176067  0.0874521842731117
  0.2783675599415669  0.1478840277848506  0.9243995627801148
  0.0556859836930704  0.3693542209616810  0.2728045783564793
  0.4464570363257443  0.0679253102976952  0.8071950443135094
  0.5419643996104710  0.6071729569166791  0.6163875896259546
  0.4211492357049884  0.7426090705018524  0.0815633537150905
  0.6169124558302423  0.7529387751687309  0.0573466067830032
  0.8969967412002100  0.5278586287023562  0.6153354546873178
  0.1327028099263934  0.9689260843814150  0.0858644325634020
  0.3838140643633183  0.8956252153728721  0.9881538757830879
  0.4719316141522414 -0.0030874215224718  0.5819055347070512
  0.8082551800589133  0.0407178528573316  0.3624442046463541
  0.7080362633512352  0.8955429973583724 -0.0217639160886418
  0.6773241503605831  0.3473780816151105  0.7412049197838245
  0.1843031797871836  0.2863371008529396  0.9895354537359532
  0.1866166971367582  0.7552572159044781  0.2966231179631903
  0.6189817593443191  0.8700655297450682  0.8378994745592973
  0.4975711020873012  0.8295963769724017  0.6166748927343791
  0.2512932935625424  0.6608351479763851  0.5004967084151604
  0.0971119287800831  0.5505653953608426  0.2027007809036383
  0.4221188806127682  0.0593753773423252  0.6832372049012970
  0.8654610483436832  0.0918228132150826  0.5829885537662037
  0.3595980859795173  0.1523720808411605  0.3524506885653396
  0.5183194715623241  0.7754680100912588  0.7485265673892774
  0.1679464727719971  0.1181173752292596 -0.0054206223913633
  0.9757049326179064  0.6098372602308816  0.8124313892572437
  0.5511513722069236  0.0844891020381716  0.9421878502072366
  0.9256264427696451  0.0668497452434962  0.1963196204169203
  0.5121198366895134  0.6611796320909638  0.2911254131700326
  0.2362026657051112  0.3734742633536594  0.4906632406020561
  0.7384035141085964  0.9650791214800902  0.6249506903357108
  0.5404498703617963  0.2139018791208802  0.2224510205603692
  0.4781116689065660  0.5627683829623211  0.7543344581864697
  0.6034175436215273  0.2565170816057574  0.6233794026004499
  0.9126421901138002  0.8537180015153789  0.6843672087975935
  0.5248664711512449  0.9282583962826630  0.8932615335896840
  0.5499719019320132  0.5928628087014867  0.4797602438408262
  0.8262548019031781  0.6165382212853833  0.7370319670889280
  0.2735664753932890  0.8866540482549561  0.7644237366880645
  0.5302330341964310  0.6212461365013308  0.0571015873010025
  0.3280320931699260  0.3652660608629355  0.9425369521135529
  0.4273904417506453  0.5615599595537869  0.1333870053714324
  0.1592791586360032  0.0855718587079930  0.5964787300144667
  0.2229137309773683  0.6407915461067872  0.7381019551640725
  0.1278973470419428  0.0008984662633352  0.8848728285682991
  0.3562392370921010  0.7436983253347003  0.8688291292467525
  0.6976935368981928  0.6446533885579437  0.4040000608662458
  0.4773853322284470  0.3652715375419298  0.0491700337329738
  0.0314129403085628  0.1359279992292679  0.1600991794548587
  0.7381431037213360  0.7610225375099654  0.3558702721935554
  0.2883916637778308  0.0597046777025017  0.4316890134152723
  0.0150858916641338  0.5263058813658508  0.0116812239953903
  0.9366242090114922  0.1336886925735453  0.8570299302019136
  0.9588118167005026  0.2318374728524198  0.5612126269643711
  0.6075353708460947  0.7517009036848735  0.4638345043058092
  0.6318843905514736  0.0180412745422057  0.3465053712906592
  0.5549443253733712  0.4063091279689888  0.6139054160411235
  0.7640196693922531  0.2154925821768167  0.0827714397424324
  0.9415196431266498  0.3994321234335074  0.1091895461710539
  0.4363735992217611  0.7253013285744839  0.5668442943390508
  0.8340895371099966  0.8652024274502809  0.0848025004118840
  0.3859611359151506 -0.0153938053296143  0.2162361111204287
  0.9429503183691355  0.8738933818143136  0.4465317882787076
  0.6549624335565342  0.1168127247903233  0.4190400650392063
  0.1948877762692742  0.5944004234823935  0.4025609176380867
  0.2527898748067301  0.9099826235725582  0.2954658603852045
  0.0945563784290168  0.4259286223588458  0.0220382287214072
  0.4448723262467195  0.0340083297646144  0.9749328094809507
 -0.0128956152908915  0.1657992482427963  0.7033550369108800
  0.0564661025215033  0.3561952798631240  0.4794963760374003
  0.5859542377413949  0.0500643516091996  0.7183086703934403
  0.5431882306792576  0.9377380638741561  0.6865273373311117
  0.3932606187321846  0.7946329814955345  0.2817279604870407
  0.5384364019423996  0.1764405568420030  0.0674612623129087
  0.9006683155042751  0.5543373412349248  0.8853989332264526
  0.1816124493168624  0.0591987271800256  0.1811102936177726
  0.3436554785556249  0.5018845143919253  0.7656995613495514
  0.3572982299806139  0.7426054544854203  0.3938459757697543
  0.3807167774857772  0.8652777990059820  0.7019881644980812
  0.4438090020220021  0.0829849248146780  0.5005512047933288
  0.6309856668364016  0.0503234327868183  0.1279386661472749
  0.7463328941719920  0.0559335455107217  0.9254081090007572
  0.3138436803543990  0.3170762805134075  0.7605570416143788
  0.6461737537273584  0.0450478012526605  0.0052473463258901
  0.0868623696959603  0.9560975548420169  0.6422724400521196
  0.5908727484051899  0.0980288554010504  0.8306444670834277
  0.1393371369883613  0.2053795362118401  0.5750220847591572
  0.4926257304806600  0.1958279876832627  0.5018694201280319
  0.5487556882774403  0.1644043960474629  0.6857004046291282
  0.2633953266214168  0.4955759820809242  0.6319660449720181
  0.5129495150211497  0.9265038487520467  0.3754420867556995
  0.3195572211610617  0.5723094436060453  0.5550900691589190
  0.6899469575241487  0.4894594229656673  0.3138546579147076
  0.4511059590641272  0.3300357329243050  0.3468548922088823
  0.1587777490408359  0.6320765596312549  0.2910995624905025
  0.6654847118415504  0.1087834235771391  0.5822022374526948
  0.0944185644417336  0.7556049831596930  0.4498345567278740
  0.1618150622685988  0.2509623074915567  0.7635364939823621
  0.6637151061584995  0.9213297999945396  0.5152855205153666
  0.0067490887319514  0.8468820866393791  0.1143318321056572
  0.1072815478673115  0.8016625522300534  0.7639899740729863
  0.1234386705717352  0.4894449219375634  0.3980361948317223
  0.6788865797199913  0.2318973980742219  0.9397923753669553
  0.9161681599562969  0.7043428370296695  0.8603864516447526
  0.7637061394672517  0.3326092282812073  0.5930710196504516
  0.7740845355735039  0.7302654008608772  0.7288286158337371
  0.9301988725721110  0.2865480147660510  0.9528679057673708
  0.8177984043701680  0.2003785869464005  0.2637784933392842
  0.9068447455534554  0.8512528716553249  0.8042881608596412
  0.5536502557022887  0.7457181358583400  0.9478911841133162
  0.5634040935928689  0.8341010545449524  0.2210780431392523
  0.6043895172465373  0.3203192983770473  0.2492352650056227
  0.6952059311541002  0.6936271931025673  0.2537506460662506
  0.5090025242494844  0.0553504780374785  0.0903443249116612
  0.0180298091008805  0.2403313676069226  0.0856812840217616
  0.9054098876828188  0.4645549033550938  0.2779450395784594
  0.4292286256267948  0.5631528440234579  0.4039044836489739
  0.0880358398605085  0.2341334850589199  0.8811361305348131
  0.9601578106260243  0.7017001786264224  0.5729299371261727
  0.0714221431749689  0.6688342172999463  0.8622619254324825
  0.3616768745447275  0.3789503177326034  0.4849824872951736
  0.8537500663935327  0.7750389484209258  0.2269934615885475
  0.0048986760705476  0.9761122588100249  0.2562270609031989
  0.4418407484601073  0.4962765989003277  0.2937179264907985
  0.2618761024376093  0.7057003050132341  0.0135093828699033
  0.2462213570923249  0.0820800060189934  0.7383310480409470
  0.1780428093278499  0.9552993721139249  0.4751440495721327
  0.9420320158817798  0.9418759629505840  0.0053205240513784
  0.2072637706298175  0.4515291300836931  0.0719955746852055
  0.8629672397561498  0.9587804754312863  0.6546910099251843
  0.7305663937937762  0.4619695393371934  0.6975255882598628
  0.1503670791643598  0.9194594934680936  0.3631188331683883
  0.3425759207461612  0.0913878022123239  0.0954534853425497
  0.5699408766077073  0.3815157961188061  0.8902141111411119
  0.1872774839226432  0.7597049880047897  0.8604423292181947
  0.6371339604185670  0.4706504414312881  0.0172150608908302
  0.8365067190596271  0.9209885940258056  0.3347689370415887
  0.1763996095644847  0.5279342327956207  0.7140145127974651
  0.0127713732121249  0.0920368988186664  0.4830850382571055
  0.9318523311036631  0.4181189384072149  0.4290957893168503
  0.7730495759129368  0.3545749873247408  0.1968260370715323
  0.8246881841229677  0.5801057866370252  0.3014748847613439
  0.2638150553099115  0.5310284344436507  0.2524664523964784
  0.9117020382862605  0.9817301333113913  0.5529230955667138
  0.4128465467746947  0.6201717972645180  0.6188287522411022
  0.5131658323571171  0.1830862422653969  0.7980012953692750
  0.6083748951695793  0.8191193150319080  0.5652387546284133
  0.4427369553504245  0.1670262051522297  0.6376110781918098
  0.1605503092834358  0.7632472435174386  0.9787891129977146
  0.7935617788403014  0.4197180676346647  0.2959375673005510
  0.9134688238779106  0.6076128155392894  0.5254062213841079
  0.7832253251358260  0.5698795002584833  0.6389563345606549
  0.8208723140852763  0.7742568777167377  0.8362405579158263
  0.3279418873785346  0.0824027969582007  0.8325026248535997
  0.6459589880389726  0.1733778966286410  0.1218722783458486
  0.7772700269600512  0.9621985993872336  0.0401251019878978
  0.2600464341787407  0.2229487633021891  0.7051412492082859
  0.8934368056596536  0.1095734569569179  0.3082418493167183
  0.2474341711167345  0.1450460930110455  0.1255984430844274
  0.9409334417541859  0.3580575119044478  0.2239191085789629
  0.3433600379060645  0.5003000221495015  0.4634240527919424
  0.1310390896747458  0.3742060026530582  0.9263515512255094
  0.9858883114199988  0.2381900367205276  0.8129168427127412
  0.8895969586965859  0.9567288784150694  0.8464083767802533
  0.3333046595065983  0.7545400941576249  0.5179096356246052
  0.7019511284220474  0.1581604833962720  0.3031920033013602
  0.7230777933807977  0.5777624454487684  0.2314991567203559
  0.4285235012046337  0.4314163280886902  0.8163745054615764
  0.7250053654275607  0.0429676390381905  0.2721589724400043
  0.8239735434447588  0.3907467722147089  0.6767041022386333
  0.0889298398272912  0.3347241784531744  0.1022507711779192
  0.4252752797319908  0.3016125956197615  0.9623746329235510
  0.1577414854864053  0.0704196758744572  0.4748331258468669
  0.8579613860617751  0.1215647587054746  0.7640685018646296
  0.4399061597566335  0.8955661582087598  0.5369606281835674
  0.2860944930355073  0.5363266383922523  0.0491930150859836
  0.4164453087101095  0.0506501016159386  0.3902901836772644
  0.9460210241350883  0.4623705635762537  0.9363479372710483
  0.2556639092755487  0.6604112589469361  0.8533704253580463
  0.2298225209605548  0.2627459622865613  0.5308707040061523
  0.3734501823967104  0.2153313056465238  0.4607831504621593
  0.3430010448632002  0.6281421070721769  0.3557641020542381
  0.5459314238763702 -0.0097855394520451  0.2742199581776843
  0.2073973201587764  0.3678654581709156  0.7388829026165739
  0.9400596394441054  0.3499019252673744  0.5339847761145571
  0.0569416803613950  0.8979474327289011  0.0141906467509549
  0.5571837893053151  0.6603584457340180  0.7237489468060324
  0.9065132633019390  0.2815514766498760  0.0759488256426989
  0.1909795499858495  0.6820645267929264  0.1127426813696337
  0.2682046348038248  0.3509351900308786  0.0568876960957132
  0.3629985207058412  0.8991583031729320  0.3316518654238275
  0.1847354758734056  0.4604482596548174  0.1907174777765328
  0.9023573595981291  0.6463034185536877  0.9608194538091894
  0.9907131966113673  0.7960304879074519  0.8652704896359443
  0.7620893769362204  0.5447690983261202  0.4030277099686524
  0.2918241259551501  0.9532786185201466  0.4864242147386867
  0.7128680320571491  0.2504255110090015  0.6752403245944719
  0.9178119088088679  0.9335363845623145  0.1327509245559682
  0.3226580333652808  0.8078066078135399  0.0564854153619094
  0.7005803802270959  0.0618676563649770  0.6916645047077844
  0.3522770995722441  0.4272800472247116  0.6715941074854396
  0.6803981647927374  0.3271788122646753  0.8625005181556173
  0.4819805282025922  0.2615915598584860  0.1246515679979430
  0.7683772431587379  0.8581237802442472  0.2582415448338061
  0.2066961448576421  0.8206827477341169  0.6915512831568393
  0.9418448239815888  0.6178090697212870  0.7012040634410157
  0.3892435253720223  0.7536329156516687  0.7520697011685076
  0.3336685603619430  0.1268510399581696  0.5298739289206306
  0.0235367836855499  0.8425984799344532  0.6567130736725180
  0.0098235563811670  0.1961600343174771  0.9758611730814775
  0.5262975775129147  0.5034658852722007  0.0474912562217462
  0.8995615607552682  0.1543220314308243  0.4855369085370191
  0.8227842708127495  0.4376098037612113  0.1147430238105477
  0.5640280540949139  0.5103953154811670  0.6839163814185349
  0.8217032385884571  0.8585808566928693  0.4325284378072046
  0.1077188085283703  0.8948742612328136  0.5405455335649162
  0.2254837134025121  0.4633257340508987  0.8043850024838983
  0.6371896599022684  0.8708568707203627  0.7237709104647824
  0.8139449316340406  0.1370412553141616 -0.0003139240093311
  0.0566792290607523  0.2100262448794327  0.4891336717239220
  0.6970012586086705  0.1462955020708452  0.8509801216098576
  0.8350243720014717  0.2151258371697984  0.9180991168970435
  0.5023859828619260  0.3935803288822042  0.2646903370252431
  0.5541219313506148  0.2040951787870979  0.9526351762377018
  0.1081117401486680  0.6806519515037676  0.7425050477655959
  0.5076420749310518  0.8114824394408322  0.3282695530037987
  0.0795909502584294  0.9118038526433514  0.1919131949063010
  0.5575727931408462  0.3324045952585922  0.7108323284450280
  0.9690863772330210  0.7531563577812420  0.4561888932269842
  0.3870124110006121  0.1389172575489179 -0.0010553929970268
  0.7229835789589178  0.9148718783419870  0.8663040343863383
  0.7590307814010893  0.0468635412424718  0.5345947550318043
  0.6746876646750960  0.4235860222766628  0.5922165977809869
  0.8087160086894544  0.1369230425897695  0.1633689669397154
  0.0377383434695695  0.0747056428553304  0.6040134332531667
  0.2793706954817179  0.8404520497612630  0.8752661508220362
  0.0915199775780465  0.8191815361304513  0.3384060553584775
  0.6293676351076680  0.4956435243071294  0.8931273049604712
  0.5884325180651151  0.0179904699510158  0.5368777687068585
  0.5138227958577604  0.3376200532609797  0.4423585535657693
  0.4318563859437647  0.2335333357489662  0.2864239486713706
  0.1904707716925450  0.9695005059023756  0.7754071514625875
  0.1828763251556504  0.4470163629958648  0.5623861630098859
  0.0193908584594325  0.0633225367927537  0.7733039047839613
  0.5147564377976173  0.5588777174089347  0.2226345820420370
  0.1438871474463194  0.1219786843914474  0.8654456279401735
  0.1106816681330830  0.5780412282198294  0.9426552680432424
  0.5997776296969137  0.9294302761492764  0.0039135325995264
  0.4507254407775933  0.4740925545784979  0.9231856239603746
  0.4938067825029520  0.7009858095769838  0.4642100328304650
  0.2735988657340316  0.0245606678921124  0.2638890263791859
  0.8401977987468617  0.7023566549092010  0.3290975512750448
  0.0820242901088203  0.6474164122098061  0.3845700315452887
  0.1759940072433004  0.6790641722405447  0.5882740019096198
  0.8049825702919069  0.5358290560065504  0.8233184671962275
  0.2408451425118815  0.7775712562988322  0.3965268543903520
  0.6139488084011426  0.7514121763999576  0.8467368738195082
  0.0611727776704131  0.0672727955316712  0.0665167129289636
  0.7236488478505230  0.7838254369236598  0.0028131572649827
  0.4507347841191577  0.8309087499208996  0.1650937943698421
  0.6788098085980011  0.2977376086702301  0.3363995999041194
  0.2687063840429800  0.2676501242067232  0.8899358816457256
  0.4896593881978411  0.6450149601495562  0.9391294888269075
  0.6382472583320724  0.9078526987541921  0.3907479165287798
  0.5942447587546396  0.3535328804886324  0.0080649147423489
  0.0843452393548204  0.0096933534980472  0.3368636254317071
  0.7675006039720250  0.7155761332242775  0.1592470799718831
  0.4295278771019218  0.0997413468436352  0.1739456660323296
  0.1727360346691739  0.3808066194325182  0.3909310433604171
  0.3654590852081109  0.6663207418580976  0.1668096563718373
  0.1223538688854751  0.1534777209663715  0.2285350856630207
  0.8813947354526801  0.5187908576328967  0.1699117177647281
  0.3468145055893462  0.3710483711814244  0.3655246723506670
  0.6577264980696689  0.6518938466601962  0.5171929571369975
  0.3628706858028571  0.4750258233121302  0.2077840899944909
  0.5526886485837044  0.1718406184132612  0.3896872420584722
  0.5935304924321358  0.5964660278507927  0.3615230046519495
  0.9456990949369771  0.8823798315733208  0.3130141311047591
  0.8507432935753094  0.7661224384629317  0.6408851353557505
  0.6587082376238075  0.3949856444999688  0.1805381794946451
  0.5859476119211295  0.7091188141543696  0.2039333161462537
  0.2398425287918161  0.8234620248233443  0.2167801078015014
  0.4595752646383180  0.9268250496528733  0.7725845720687651
  0.3151494290612450  0.0279172991815522  0.6525174578099908
  0.0317851660101296  0.4786283898479622  0.4745702343988840
  0.9006567095603288  0.8259608532395474 -0.0001073470085193
  0.0506924774621168  0.4931396847440455  0.2966088272646535
 -0.0042407244702716  0.3309810697683526  0.3734000873536511
  0.6451514347012307  0.6401816568781163  0.0368074805823051
  0.0827593104841397  0.2503848775548623  0.6683557619480929
  0.4657265653010482  0.8255536144761120  0.9196805021316303
  0.3328805597983639  0.9730291677086960  0.0975918359390979
  0.2091979324255419  0.0061280750928011  0.9748326429944411
 
  0.00000000E+00  0.00000000E+00  0.00000000E+00
  0.00000000E+00  0.00000000E+00  0.00000000E+00
  0.00000000E+00  0.00000000E+00  0.00000000E+00
  0.00000000E+00  0.00000000E+00  0.00000000E+00
  0.00000000E+00  0.00000000E+00  0.00000000E+00
  0.00000000E+00  0.00000000E+00  0.00000000E+00
  0.00000000E+00  0.00000000E+00  0.00000000E+00
  0.00000000E+00  0.00000000E+00  0.00000000E+00
  0.00000000E+00  0.00000000E+00  0.00000000E+00
  0.00000000E+00  0.00000000E+00  0.00000000E+00
  0.00000000E+00  0.00000000E+00  0.00000000E+00
  0.00000000E+00  0.00000000E+00  0.00000000E+00
  0.00000000E+00  0.00000000E+00  0.00000000E+00
  0.00000000E+00  0.00000000E+00  0.00000000E+00
  0.00000000E+00  0.00000000E+00  0.00000000E+00
  0.00000000E+00  0.00000000E+00  0.00000000E+00
  0.00000000E+00  0.00000000E+00  0.00000000E+00
  0.00000000E+00  0.00000000E+00  0.00000000E+00
  0.00000000E+00  0.00000000E+00  0.00000000E+00
  0.00000000E+00  0.00000000E+00  0.00000000E+00
  0.00000000E+00  0.00000000E+00  0.00000000E+00
  0.00000000E+00  0.00000000E+00  0.00000000E+00
  0.00000000E+00  0.00000000E+00  0.00000000E+00
  0.00000000E+00  0.00000000E+00  0.00000000E+00
  0.00000000E+00  0.00000000E+00  0.00000000E+00
  0.00000000E+00  0.00000000E+00  0.00000000E+00
  0.00000000E+00  0.00000000E+00  0.00000000E+00
  0.00000000E+00  0.00000000E+00  0.00000000E+00
  0.00000000E+00  0.00000000E+00  0.00000000E+00
  0.00000000E+00  0.00000000E+00  0.00000000E+00
  0.00000000E+00  0.00000000E+00  0.00000000E+00
  0.00000000E+00  0.00000000E+00  0.00000000E+00
  0.00000000E+00  0.00000000E+00  0.00000000E+00
  0.00000000E+00  0.00000000E+00  0.00000000E+00
  0.00000000E+00  0.00000000E+00  0.00000000E+00
  0.00000000E+00  0.00000000E+00  0.00000000E+00
  0.00000000E+00  0.00000000E+00  0.00000000E+00
  0.00000000E+00  0.00000000E+00  0.00000000E+00
  0.00000000E+00  0.00000000E+00  0.00000000E+00
  0.00000000E+00  0.00000000E+00  0.00000000E+00
  0.00000000E+00  0.00000000E+00  0.00000000E+00
  0.00000000E+00  0.00000000E+00  0.00000000E+00
  0.00000000E+00  0.00000000E+00  0.00000000E+00
  0.00000000E+00  0.00000000E+00  0.00000000E+00
  0.00000000E+00  0.00000000E+00  0.00000000E+00
  0.00000000E+00  0.00000000E+00  0.00000000E+00
  0.00000000E+00  0.00000000E+00  0.00000000E+00
  0.00000000E+00  0.00000000E+00  0.00000000E+00
  0.00000000E+00  0.00000000E+00  0.00000000E+00
  0.00000000E+00  0.00000000E+00  0.00000000E+00
  0.00000000E+00  0.00000000E+00  0.00000000E+00
  0.00000000E+00  0.00000000E+00  0.00000000E+00
  0.00000000E+00  0.00000000E+00  0.00000000E+00
  0.00000000E+00  0.00000000E+00  0.00000000E+00
  0.00000000E+00  0.00000000E+00  0.00000000E+00
  0.00000000E+00  0.00000000E+00  0.00000000E+00
  0.00000000E+00  0.00000000E+00  0.00000000E+00
  0.00000000E+00  0.00000000E+00  0.00000000E+00
  0.00000000E+00  0.00000000E+00  0.00000000E+00
  0.00000000E+00  0.00000000E+00  0.00000000E+00
  0.00000000E+00  0.00000000E+00  0.00000000E+00
  0.00000000E+00  0.00000000E+00  0.00000000E+00
  0.00000000E+00  0.00000000E+00  0.00000000E+00
  0.00000000E+00  0.00000000E+00  0.00000000E+00
  0.00000000E+00  0.00000000E+00  0.00000000E+00
  0.00000000E+00  0.00000000E+00  0.00000000E+00
  0.00000000E+00  0.00000000E+00  0.00000000E+00
  0.00000000E+00  0.00000000E+00  0.00000000E+00
  0.00000000E+00  0.00000000E+00  0.00000000E+00
  0.00000000E+00  0.00000000E+00  0.00000000E+00
  0.00000000E+00  0.00000000E+00  0.00000000E+00
  0.00000000E+00  0.00000000E+00  0.00000000E+00
  0.00000000E+00  0.00000000E+00  0.00000000E+00
  0.00000000E+00  0.00000000E+00  0.00000000E+00
  0.00000000E+00  0.00000000E+00  0.00000000E+00
  0.00000000E+00  0.00000000E+00  0.00000000E+00
  0.00000000E+00  0.00000000E+00  0.00000000E+00
  0.00000000E+00  0.00000000E+00  0.00000000E+00
  0.00000000E+00  0.00000000E+00  0.00000000E+00
  0.00000000E+00  0.00000000E+00  0.00000000E+00
  0.00000000E+00  0.00000000E+00  0.00000000E+00
  0.00000000E+00  0.00000000E+00  0.00000000E+00
  0.00000000E+00  0.00000000E+00  0.00000000E+00
  0.00000000E+00  0.00000000E+00  0.00000000E+00
  0.00000000E+00  0.00000000E+00  0.00000000E+00
  0.00000000E+00  0.00000000E+00  0.00000000E+00
  0.00000000E+00  0.00000000E+00  0.00000000E+00
  0.00000000E+00  0.00000000E+00  0.00000000E+00
  0.00000000E+00  0.00000000E+00  0.00000000E+00
  0.00000000E+00  0.00000000E+00  0.00000000E+00
  0.00000000E+00  0.00000000E+00  0.00000000E+00
  0.00000000E+00  0.00000000E+00  0.00000000E+00
  0.00000000E+00  0.00000000E+00  0.00000000E+00
  0.00000000E+00  0.00000000E+00  0.00000000E+00
  0.00000000E+00  0.00000000E+00  0.00000000E+00
  0.00000000E+00  0.00000000E+00  0.00000000E+00
  0.00000000E+00  0.00000000E+00  0.00000000E+00
  0.00000000E+00  0.00000000E+00  0.00000000E+00
  0.00000000E+00  0.00000000E+00  0.00000000E+00
  0.00000000E+00  0.00000000E+00  0.00000000E+00
  0.00000000E+00  0.00000000E+00  0.00000000E+00
  0.00000000E+00  0.00000000E+00  0.00000000E+00
  0.00000000E+00  0.00000000E+00  0.00000000E+00
  0.00000000E+00  0.00000000E+00  0.00000000E+00
  0.00000000E+00  0.00000000E+00  0.00000000E+00
  0.00000000E+00  0.00000000E+00  0.00000000E+00
  0.00000000E+00  0.00000000E+00  0.00000000E+00
  0.00000000E+00  0.00000000E+00  0.00000000E+00
  0.00000000E+00  0.00000000E+00  0.00000000E+00
  0.00000000E+00  0.00000000E+00  0.00000000E+00
  0.00000000E+00  0.00000000E+00  0.00000000E+00
  0.00000000E+00  0.00000000E+00  0.00000000E+00
  0.00000000E+00  0.00000000E+00  0.00000000E+00
  0.00000000E+00  0.00000000E+00  0.00000000E+00
  0.00000000E+00  0.00000000E+00  0.00000000E+00
  0.00000000E+00  0.00000000E+00  0.00000000E+00
  0.00000000E+00  0.00000000E+00  0.00000000E+00
  0.00000000E+00  0.00000000E+00  0.00000000E+00
  0.00000000E+00  0.00000000E+00  0.00000000E+00
  0.00000000E+00  0.00000000E+00  0.00000000E+00
  0.00000000E+00  0.00000000E+00  0.00000000E+00
  0.00000000E+00  0.00000000E+00  0.00000000E+00
  0.00000000E+00  0.00000000E+00  0.00000000E+00
  0.00000000E+00  0.00000000E+00  0.00000000E+00
  0.00000000E+00  0.00000000E+00  0.00000000E+00
  0.00000000E+00  0.00000000E+00  0.00000000E+00
  0.00000000E+00  0.00000000E+00  0.00000000E+00
  0.00000000E+00  0.00000000E+00  0.00000000E+00
  0.00000000E+00  0.00000000E+00  0.00000000E+00
  0.00000000E+00  0.00000000E+00  0.00000000E+00
  0.00000000E+00  0.00000000E+00  0.00000000E+00
  0.00000000E+00  0.00000000E+00  0.00000000E+00
  0.00000000E+00  0.00000000E+00  0.00000000E+00
  0.00000000E+00  0.00000000E+00  0.00000000E+00
  0.00000000E+00  0.00000000E+00  0.00000000E+00
  0.00000000E+00  0.00000000E+00  0.00000000E+00
  0.00000000E+00  0.00000000E+00  0.00000000E+00
  0.00000000E+00  0.00000000E+00  0.00000000E+00
  0.00000000E+00  0.00000000E+00  0.00000000E+00
  0.00000000E+00  0.00000000E+00  0.00000000E+00
  0.00000000E+00  0.00000000E+00  0.00000000E+00
  0.00000000E+00  0.00000000E+00  0.00000000E+00
  0.00000000E+00  0.00000000E+00  0.00000000E+00
  0.00000000E+00  0.00000000E+00  0.00000000E+00
  0.00000000E+00  0.00000000E+00  0.00000000E+00
  0.00000000E+00  0.00000000E+00  0.00000000E+00
  0.00000000E+00  0.00000000E+00  0.00000000E+00
  0.00000000E+00  0.00000000E+00  0.00000000E+00
  0.00000000E+00  0.00000000E+00  0.00000000E+00
  0.00000000E+00  0.00000000E+00  0.00000000E+00
  0.00000000E+00  0.00000000E+00  0.00000000E+00
  0.00000000E+00  0.00000000E+00  0.00000000E+00
  0.00000000E+00  0.00000000E+00  0.00000000E+00
  0.00000000E+00  0.00000000E+00  0.00000000E+00
  0.00000000E+00  0.00000000E+00  0.00000000E+00
  0.00000000E+00  0.00000000E+00  0.00000000E+00
  0.00000000E+00  0.00000000E+00  0.00000000E+00
  0.00000000E+00  0.00000000E+00  0.00000000E+00
  0.00000000E+00  0.00000000E+00  0.00000000E+00
  0.00000000E+00  0.00000000E+00  0.00000000E+00
  0.00000000E+00  0.00000000E+00  0.00000000E+00
  0.00000000E+00  0.00000000E+00  0.00000000E+00
  0.00000000E+00  0.00000000E+00  0.00000000E+00
  0.00000000E+00  0.00000000E+00  0.00000000E+00
  0.00000000E+00  0.00000000E+00  0.00000000E+00
  0.00000000E+00  0.00000000E+00  0.00000000E+00
  0.00000000E+00  0.00000000E+00  0.00000000E+00
  0.00000000E+00  0.00000000E+00  0.00000000E+00
  0.00000000E+00  0.00000000E+00  0.00000000E+00
  0.00000000E+00  0.00000000E+00  0.00000000E+00
  0.00000000E+00  0.00000000E+00  0.00000000E+00
  0.00000000E+00  0.00000000E+00  0.00000000E+00
  0.00000000E+00  0.00000000E+00  0.00000000E+00
  0.00000000E+00  0.00000000E+00  0.00000000E+00
  0.00000000E+00  0.00000000E+00  0.00000000E+00
  0.00000000E+00  0.00000000E+00  0.00000000E+00
  0.00000000E+00  0.00000000E+00  0.00000000E+00
  0.00000000E+00  0.00000000E+00  0.00000000E+00
  0.00000000E+00  0.00000000E+00  0.00000000E+00
  0.00000000E+00  0.00000000E+00  0.00000000E+00
  0.00000000E+00  0.00000000E+00  0.00000000E+00
  0.00000000E+00  0.00000000E+00  0.00000000E+00
  0.00000000E+00  0.00000000E+00  0.00000000E+00
  0.00000000E+00  0.00000000E+00  0.00000000E+00
  0.00000000E+00  0.00000000E+00  0.00000000E+00
  0.00000000E+00  0.00000000E+00  0.00000000E+00
  0.00000000E+00  0.00000000E+00  0.00000000E+00
  0.00000000E+00  0.00000000E+00  0.00000000E+00
  0.00000000E+00  0.00000000E+00  0.00000000E+00
  0.00000000E+00  0.00000000E+00  0.00000000E+00
  0.00000000E+00  0.00000000E+00  0.00000000E+00
  0.00000000E+00  0.00000000E+00  0.00000000E+00
  0.00000000E+00  0.00000000E+00  0.00000000E+00
  0.00000000E+00  0.00000000E+00  0.00000000E+00
  0.00000000E+00  0.00000000E+00  0.00000000E+00
  0.00000000E+00  0.00000000E+00  0.00000000E+00
  0.00000000E+00  0.00000000E+00  0.00000000E+00
  0.00000000E+00  0.00000000E+00  0.00000000E+00
  0.00000000E+00  0.00000000E+00  0.00000000E+00
  0.00000000E+00  0.00000000E+00  0.00000000E+00
  0.00000000E+00  0.00000000E+00  0.00000000E+00
  0.00000000E+00  0.00000000E+00  0.00000000E+00
  0.00000000E+00  0.00000000E+00  0.00000000E+00
  0.00000000E+00  0.00000000E+00  0.00000000E+00
  0.00000000E+00  0.00000000E+00  0.00000000E+00
  0.00000000E+00  0.00000000E+00  0.00000000E+00
  0.00000000E+00  0.00000000E+00  0.00000000E+00
  0.00000000E+00  0.00000000E+00  0.00000000E+00
  0.00000000E+00  0.00000000E+00  0.00000000E+00
  0.00000000E+00  0.00000000E+00  0.00000000E+00
  0.00000000E+00  0.00000000E+00  0.00000000E+00
  0.00000000E+00  0.00000000E+00  0.00000000E+00
  0.00000000E+00  0.00000000E+00  0.00000000E+00
  0.00000000E+00  0.00000000E+00  0.00000000E+00
  0.00000000E+00  0.00000000E+00  0.00000000E+00
  0.00000000E+00  0.00000000E+00  0.00000000E+00
  0.00000000E+00  0.00000000E+00  0.00000000E+00
  0.00000000E+00  0.00000000E+00  0.00000000E+00
  0.00000000E+00  0.00000000E+00  0.00000000E+00
  0.00000000E+00  0.00000000E+00  0.00000000E+00
  0.00000000E+00  0.00000000E+00  0.00000000E+00
  0.00000000E+00  0.00000000E+00  0.00000000E+00
  0.00000000E+00  0.00000000E+00  0.00000000E+00
  0.00000000E+00  0.00000000E+00  0.00000000E+00
  0.00000000E+00  0.00000000E+00  0.00000000E+00
  0.00000000E+00  0.00000000E+00  0.00000000E+00
  0.00000000E+00  0.00000000E+00  0.00000000E+00
  0.00000000E+00  0.00000000E+00  0.00000000E+00
  0.00000000E+00  0.00000000E+00  0.00000000E+00
  0.00000000E+00  0.00000000E+00  0.00000000E+00
  0.00000000E+00  0.00000000E+00  0.00000000E+00
  0.00000000E+00  0.00000000E+00  0.00000000E+00