Amorphous Sb                            
   1.00000000000000     
    20.1278877258000009    0.0000000000000000    0.0000000000000000
     0.0000000000000000   20.1278877258000009    0.0000000000000000
     0.0000000000000000    0.0000000000000000   20.1278877258000009
   Ge   Se   Sn
   149   150     1
Direct
  0.5152113713579733  0.6889123396303150  0.7877813314985705
  0.2113955964517439  0.4268594051579167  0.8029855467024203
  0.3862059066015839  0.3156141713642363  0.6076521975571747
  0.8247462761369477  0.0275726993199835  0.6499089623726769
  0.9024533915177211  0.6224194092269784  0.6645583293575824
  0.2220436929987271  0.7109378178359339  0.9278312808760459
  0.1200152617064530  0.1634105565551087  0.3627795563237666
  0.3297936557636558  0.6307107998460642  0.8051643196223693
  0.3539553210603303  0.8506102389472651  0.2207413411267400
  0.3688001645030176  0.0167881641958792  0.4208478754329207
  0.0097185988618925  0.0325020903949258  0.4552234833679876
  0.6067466182829281  0.3341539296546575  0.8503165902189911
  0.6040281307511000  0.4387298632645600  0.5888269791015426
  0.2556407566861136  0.0168739410086656  0.8611511091171791
  0.6805232377615595  0.9514915330840336  0.3952770171865826
  0.0398018833397960  0.7760990933142868  0.0831371858960345
  0.0469834075993925  0.7634723717280002  0.3330400333188334
  0.8165449614941894  0.3948457732256764  0.3575780054495876
  0.1077344332263846  0.4562106449778757  0.9667044899889211
  0.0573898389959422  0.9146962514066888  0.5041832600027832
  0.1498981040343932  0.8307484926854788  0.2006794772304774
  0.4311707387895866  0.7585213517244571  0.9576718706615759
  0.9826452607513778  0.1594439980147195  0.9361042364247686
  0.0335764482584962  0.0755987122779198  0.1294789961071611
  0.5525284700472389  0.3329950117277320  0.1872023494328096
  0.3749353486808773  0.1383117709589222  0.5830857120020130
  0.4373651905582338  0.7537118454796312  0.5213665548686198
  0.7997013254457783  0.9201774518881869  0.9997336250573807
  0.7578372373702649  0.5523444194524063  0.6032024850309907
  0.9519614219965260  0.7705206952020577  0.5835570453298684
  0.0837843371628563  0.3536069033954069  0.7485010187582116
  0.0345178333445978  0.1004795823501607  0.2568059980357563
  0.9019294813074571  0.4908174554901603  0.4840123765163832
  0.3985384727669966  0.4539042761025784  0.2779537771097185
  0.0359826314542054  0.5432488698664711  0.5863131331829942
  0.7496601037892349  0.6807421900825534  0.1853270652517577
  0.4470940639539328  0.4718507775045964  0.9192733544209009
  0.2729888474263598  0.0492916263818726  0.2286556800749466
  0.2519742125074376  0.3734528985461966  0.1326789653109947
  0.7435205589343841  0.3795825711353134  0.7731198290871988
  0.8411241213118545  0.8265539596850694  0.3792521271255035
  0.9199232316445088  0.1866067590517229  0.5609764898564723
  0.5937531581856307  0.8531607710097615  0.5236592433940523
  0.3746121740199126  0.9827088623532981  0.0943342747750701
  0.3501962156148550  0.6496013989459916  0.2137509353997545
  0.3989713000637916  0.4515078660271566  0.5041590760277098
  0.9026564813187608  0.7741979797637896  0.1773495614951833
  0.0367727740713051  0.3509910253118259  0.4056486763513744
  0.9915940006131284  0.7382900409512525  0.8049641472362756
  0.5514416004057380  0.0731779641499311  0.2959730003180795
  0.2597691642912939  0.4370501564190311  0.9518610659234253
  0.0516679021135791  0.2814605967663866  0.1520661886044793
  0.6243752202505587  0.7521407390612341  0.8098489655185696
  0.5771566917522529  0.2900244801816912  0.7321909373596515
  0.0540265542774501  0.5799272391595648  0.3528820949756507
  0.0324077692817863  0.9232380411084357  0.2189725206768783
  0.1907343708413394  0.5802856718134872  0.4542182415571281
  0.9514231597816302  0.3284971414971054  0.5898274759840461
  0.0990134762965360  0.0602927092239217  0.8244340924449765
  0.5190747378679141  0.4503261372521742  0.3357608290401436
  0.6870529228882456  0.1041142911201629  0.1526090594378653
  0.5316229059845838  0.6767026580584180  0.2037711974887785
  0.9246550422523226  0.6566506999545136  0.3257225981488761
  0.8584992814533459  0.0215503587377987  0.8371930784592005
  0.5603098307988763  0.8214028848512530  0.0069168439909536
  0.0689067733617529  0.3367364544547254  0.9312983098711347
  0.8240661093996798  0.8632079057552257  0.5331581729693433
  0.8234466820096686  0.2310359679027331  0.1553428890832621
  0.8344108338842875  0.3220995276176279  0.0369678091991194
  0.9497572226091432  0.4088177160720743  0.7440535919357170
  0.4082219683575325  0.1622232203213345  0.1648689441383753
  0.3597279750717634  0.5525379400119697  0.4333021269089772
  0.4897532004242157  0.8404663026732765  0.3702526471853818
  0.3300827925189037  0.4465332628540568  0.6577252875251574
  0.6841280887829855  0.9378996536594759  0.0926919566839125
  0.2477991868824750  0.2482221196202999  0.1757775465216988
  0.8714582655857633  0.0495444101971677  0.0647143338437404
  0.2596402946706899  0.8568495528160112  0.9264359153263447
  0.3586047131065500  0.2603831578268860  0.0270288093398059
  0.6454534381646555  0.9952448531260045  0.8823320557217322
  0.9685263557295696  0.5912435665744270  0.8426922994950808
  0.7944001219955885  0.4838306590712852  0.0635016639894085
  0.7703928947558198  0.5200163911656218  0.3523653476001528
  0.3524109426385370  0.0798549256466353  0.7085507542143269
  0.5977996795988484  0.1369819509095769  0.0307323167720513
  0.5390875386928589  0.6538011213516537  0.6149772849545327
  0.7570273741062170  0.3363079599896801  0.5189678026161442
  0.6548556911758160  0.5663711905158071  0.1682417138483328
  0.5221960576536597  0.2338831604607269  0.3497767390726759
  0.6075566482998559  0.1161141421772507  0.9003675211560306
  0.1117315968703348  0.1197555992013014  0.5795341177151034
  0.3011473806878845  0.5951228307953034  0.5993126057333615
  0.7580155434340803  0.0481639279277816  0.4823457388948069
  0.6662495180708150  0.9304346819628947  0.6136818951727133
  0.6843893698831253  0.7006940079944556  0.5199142174305673
  0.4228803198995320  0.9627090823380374  0.9342954246796900
  0.1627414098353954  0.4656755572411254  0.6472413406990984
  0.1593035926467304  0.7600975221571663  0.4685361766013795
  0.2048667643109288  0.1312932310447908  0.8375152097195220
  0.1089436069953169  0.4275382916828328  0.2347536279301886
  0.5315002002926856  0.2899835847195546  0.9432220780259158
  0.2364119857798948  0.5106554937832174  0.0833656855707836
  0.8739271469313293  0.0615343124919926  0.1998178546050459
  0.4410093559909724  0.8431975736344943  0.7107237804162335
  0.7227321751525073  0.7195033605639923  0.9772724297007725
  0.9879377376438973  0.4724189782322096  0.0121958870836901
  0.0584236650707809  0.6543816658374276  0.0367029442811699
  0.6915367012029197  0.1720444191726118  0.7262143511068976
  0.7101454086329102  0.9244479628007655  0.7951396398069038
  0.1114459311348663  0.8904628772718838  0.6821610896568105
  0.1613295745311402  0.9602844681351942  0.0611677489514149
  0.1563421491721493  0.9605297238440992  0.3653633992607684
  0.7432583920401855  0.1496072469535550  0.3126267354443734
  0.7434918436132274  0.8139635169497137  0.2939200096626248
  0.7311945847879040  0.6465837005715893  0.4006546506032150
  0.4103106373868649  0.2863005849824012  0.3016051777837045
  0.6806839031924397  0.5900122466913856  0.7322630424830529
  0.3082521450616156  0.2297209626149996  0.4568847974935124
  0.0824670468543875  0.9359875790997954  0.7972543791040314
  0.9211645314731365  0.4469567554584687  0.2032494388530148
  0.8366584045486886  0.2164813717407999  0.3786166268548455
  0.8041901647333488  0.6270923455274313  0.8218991947024618
  0.9536019847390631  0.9070150105579555  0.9506147327566381
  0.2181112085236636  0.4207426464826147  0.4019934806239837
  0.2284665809616503  0.7030415721535854  0.6747948995285395
  0.3808537721359337  0.9470502428322189  0.5422045053807346
  0.5513855994700759  0.8588791213477867  0.7825469710734119
  0.1584095818027056  0.1518260014746115  0.9856312441351487
  0.2792635517341322  0.8127526574607863  0.0633164028604346
  0.5506799967502770  0.5880976679847012  0.4284626192913383
  0.8956972851280751  0.7354675194239539  0.8979052450662328
  0.4616233998395707  0.1850262513746989  0.9293399080242016
  0.4448248247250651  0.5080060010725078  0.0954949968667921
  0.0559321390440280  0.7135506764894455  0.6324662136342477
  0.1757605025689143  0.6342608517134809  0.2024183802316792
  0.3001382012241595  0.2735446542712662  0.8060243469306583
  0.5406625947196937  0.0742263960234350  0.4829868082748666
  0.3620405876535493  0.7074881317767512  0.3444631742245134
  0.3099834856550351  0.8545841134679181  0.7208997855310875
  0.7206857709830131  0.3976312586717105  0.2196959121989280
  0.6029994796009079  0.4541158002281693  0.0334365045174912
  0.1798197990632330  0.9810853052245400  0.6145034319865338
  0.9093648794455900  0.2302296769053198  0.7562959837189169
  0.5806310455217659  0.2057391670923546  0.5550236824750645
  0.0923021046327619  0.2318530334731553  0.5105681361203479
  0.1376951813920262  0.6036667175441257  0.8261970928500040
  0.5330306258231404  0.8674970198369877  0.1787642369529852
  0.4369692766942185  0.4110631446054959  0.7455810222298466
  0.9076550218527455  0.4398162014665494  0.9165129856812418
  0.8648614286354429  0.1041452854480549  0.9178591134958135
  0.8589555251474464  0.9821643878555013  0.5116005052431118
  0.0748692056144891  0.7284406827649085  0.1982743038244513
  0.9423045995368627  0.4600260000983690  0.6242225376048784
  0.3265889023369166  0.7081125840785983  0.0054673510645797
  0.1254893812474915  0.0087057952161943  0.2480110006471167
  0.5748930539918266  0.4621372225261482  0.1602551136688265
  0.7045329616837991  0.0510435459566669  0.6020369318438855
  0.6067724194644138  0.2600814595621112  0.0308822991548501
  0.1311900459925176  0.0747170582817798  0.4623049210231938
  0.9306503182932805  0.8256329870625090  0.2887483287568041
  0.7602199115916979  0.0391633124847309  0.7695945441602626
  0.7945941967952865  0.6985531082283041  0.5764909880048497
  0.2910822258719612  0.7910690485390606  0.6157071359276699
  0.8720973831202272  0.6541404758638288  0.2094844576823654
  0.4740787669861051  0.1160424009465666  0.0287441148411458
  0.2868652716708913  0.1683616094834309  0.0896074964953052
  0.3776137794952243  0.8162790574130830  0.4287157710162698
  0.9469591103488688  0.0031955006760349  0.7554639137392661
  0.7081850024682358  0.2183239569436874  0.2144615767638329
  0.7097341371233057  0.0121089268000551  0.9888074669898430
  0.5656413281248310  0.1788626413745490  0.6814827766003976
  0.1491609787232744  0.0925227912587245  0.0960074858665144
  0.8803022180901304  0.4937258330303226  0.8089775240335153
  0.2045220018712449  0.3816686504236854  0.2833741711346044
  0.3258968873045178  0.3956724946824537  0.8498742328515332
  0.2693158152147317  0.7586433960691216  0.1792708893562188
  0.2813753353697993  0.9741153588222070  0.3348096208569866
  0.3396094849361236  0.5178985310709754  0.0124292616247102
  0.4017267275179870  0.0407366542034374  0.2073622484682944
  0.4546056378999965  0.2291586415901075  0.5376546411626332
  0.4232268698604966  0.3542284300667987  0.1979001921252146
  0.9515831819836377  0.0049132787251795  0.2805560461269221
  0.4171510975948891  0.8600254964799874  0.1122197871233934
  0.0986302632723490  0.4857877637783971  0.4220962881038763
  0.0660902643712911  0.4984935670595281  0.8528149418700316
  0.5308210618590097  0.4358505866994346  0.8275901151817158
  0.3028647967826144  0.9702725586421240  0.6499506814349156
  0.5298078667429831  0.1838834763811942  0.2342630900532927
  0.8979019225129622  0.5341478761109512  0.3512563181641076
  0.6081402553743243  0.5344740949713483  0.3300553216031842
  0.3415363830743969  0.2022930769398527  0.9125609371182575
  0.1788882594766320  0.9033339851501277  0.5179718834593022
  0.0147501680295494  0.2160043882455958  0.4133916680831916
  0.5408226984003979  0.9202559576079239  0.8934727584876117
  0.6066243420176323  0.9562540917660252  0.7267154225623442
  0.6946229128540803  0.4660335601081940  0.6848162315823437
  0.1567895107068325  0.8352312482162526  0.3276957096682724
  0.9107425482223486  0.3672767655279540  0.4376451615093513
  0.5461352407977860  0.7540959462514972  0.4446187936189903
  0.8505467172940463  0.3385912789769894  0.7110999046306598
  0.3144982106857170  0.6515965826149147  0.4869859795281406
  0.6763217895960055  0.2021079606432427  0.8488223272541222
  0.3014952660789388  0.1020011556045856  0.4855924617911574
  0.7777881823285401  0.8074646828777371  0.1743310917123683
  0.7636243156322721  0.5185532112166666  0.2177808293802079
  0.1477365118421101  0.6696690692577825  0.3689914281337063
  0.0317466418558203  0.8495782817166913  0.8685907595015068
  0.7948505640042963  0.4133532332500688  0.9517414421425003
  0.9922656041632059  0.0764559738995037  0.5731741549639292
  0.2620211340430116  0.9463211549789585  0.1503438966154715
  0.5530722574838263  0.5876832990838667  0.7253182874361299
  0.0066285753716277  0.8941603747396164  0.6184854015383277
  0.1284812224479880  0.2818658334839057  0.8419026718170762
  0.5183609977097474  0.3694009788240500  0.6551753851544284
  0.2827299576921116  0.2499314337794198  0.5774243052153459
  0.2671429875563168  0.9767929885605666  0.9770655051833338
  0.7808769115548525  0.1392837888979106  0.0756722086621403
  0.8744276764610814  0.6172873389729923  0.9312559150069513
  0.8990524988247882  0.1743211088299218  0.2378702306943638
  0.5181079091610442  0.4660934670280075  0.4620618509462382
  0.5810464382134951  0.3463126836328338  0.3096607475358279
  0.6423768393367280  0.5846929094942868  0.5541432362659280
  0.6866026421321411  0.7018805638094189  0.2974008980712268
  0.4481606456898919  0.7612115928616250  0.2659788641069518
  0.1209259982998469  0.7727974147910412  0.7206438104452765
  0.7769814073709721  0.7504415256855946  0.8647458078143693
  0.5866993402090259  0.7632058407202024  0.1277260476900300
  0.9036973631180806  0.7495018731904344  0.7056002270558329
  0.0762060745917071  0.2477335776930182  0.0164860832060890
  0.8446158357005739  0.9084880465031233  0.8778769417286004
  0.6967171582173903  0.8449697592656825  0.9948203979177829
  0.7624725025621942  0.0422249351522067  0.2520765108088697
  0.2478673076797552  0.5235958743470395  0.7259434337047920
  0.7743697923617059  0.4718582914203679  0.4974904646073692
  0.4083227972970593  0.2848082515624106  0.7372959766826664
  0.0081626954509518  0.9595176193482809  0.1009338400474515
  0.4380506086176009  0.6031123453446994  0.3535485235559729
  0.1372391092686229  0.2175367976675673  0.2184131444777428
  0.0357339960995684  0.7970223253176038  0.4652408810475605
  0.7414053868571585  0.3048902785127137  0.3933825082696576
  0.4385297770188814  0.7199351646188225  0.6994285257889599
  0.6483664338628142  0.8860450412080472  0.2899634839045447
  0.3825195871017380  0.8516875769359669  0.8853346036802677
  0.1514894343421986  0.8173952592736267  0.0367892970036405
  0.8125764090185613  0.1673269353417690  0.4941119786642248
  0.7147480862011165  0.8459746324725568  0.4663210446853885
  0.0132038302286091  0.2633925950236202  0.6849172350697735
  0.6991215142509535  0.5700579645231422  0.8508816417897542
  0.2516720525201018  0.3270232486412238  0.0140922799807699
  0.4376816325187030  0.6554030995701401  0.8792584411214712
  0.0684860677821617  0.6708482855528043  0.9138885285666918
  0.5635600367495391  0.9458589916214911  0.0834824671876570
  0.4581345165170571  0.3715086121917688  0.9950563531595082
  0.9089120648766947  0.7992532812209034  0.9998355679259797
  0.6390191317186534  0.1283704821589048  0.3727727956176213
  0.2414736395389440  0.5844741457369604  0.8951153436282460
  0.2484225222492469  0.4840284019094312  0.5547440419647500
  0.5034035532110116  0.1207760690265861  0.8384718623855737
  0.4126429613076049  0.5337058788280812  0.6066747029597135
  0.2062112916001937  0.9102733160109722  0.8179516274213070
  0.0650294084368225  0.0621549269106938  0.9421328847862366
  0.2647304114830107  0.5323003460695432  0.3597177998132222
  0.9551567976254802  0.1453559825739072  0.0626407224428932
  0.2071064795386821  0.3528968606833917  0.6958169756949681
  0.3233859186629988  0.2037960018686617  0.2665311155347241
  0.2710788493532658  0.7399987911028190  0.8081156756207111
  0.8422592730257561  0.7034655126569588  0.4097408944678387
  0.0799608757448238  0.5447421304375301  0.2293242325185457
  0.9705975271403706  0.5756978686185739  0.0706347196550723
  0.1833832066007105  0.2550219055601228  0.4277157983145586
  0.2482476313253386  0.1435170214223576  0.7228768206613300
  0.9514088838242268  0.3286727482671924  0.8898723660705999
  0.8425857393018259  0.3525188127142181  0.2437097697250290
  0.5606556293540425  0.9555607057141512  0.4387527233628292
  0.6889812852348629  0.5519888696895443  0.0452154764284033
  0.3710066722281637  0.0147957099155569  0.8276237407715178
  0.5193606408721746  0.5441508169274540  0.0000755376210470
  0.6298163009695815  0.3318767887667348  0.5246232422886495
  0.6193070259842918  0.7545206618936946  0.6239491138336837
  0.2829355761302164  0.5457820269383309  0.1927171607205733
  0.0663793177824875  0.3496921003934872  0.5368388967819367
  0.7747237389634727  0.8819150198939673  0.6537316567816616
  0.4372090264467058  0.6376261683960046  0.1263651323145689
  0.1742690194118649  0.6268694015677044  0.0736777154390550
  0.6052337136873822  0.7190469711940241  0.9295229027749855
  0.6938680191024863  0.2968286375664882  0.6907780072423089
  0.4685961432023941  0.8651361455387673  0.5883103736682164
  0.3582862290385707  0.3756149467067909  0.3705897008165248
  0.1471895841241395  0.6712730635503461  0.5644927394742504
  0.8500209119861807  0.1623522949648162  0.6620815135768158
  0.0072850138204915  0.3700273287036099  0.2618007566336094
  0.9387799808348264  0.3843681305825853  0.0865444361071522
  0.1242429057506061  0.3847143117601886  0.1212979277685586
  0.4624398223966696  0.1032279408445006  0.3858135443766926
  0.9464772296571962  0.6275651930147643  0.5452504580762774
  0.0067614868234666  0.1043287798061022  0.7562382038303154
  0.0311098993430031  0.6096974544455598  0.6978437243134031
  0.7338713862167666  0.3768081037305884  0.0958561851808504
  0.4607956642492281  0.0393942919006190  0.5740544947236620
  0.7473047933629723  0.7448379797878757  0.6929455599833620
 
  0.00000000E+00  0.00000000E+00  0.00000000E+00
  0.00000000E+00  0.00000000E+00  0.00000000E+00
  0.00000000E+00  0.00000000E+00  0.00000000E+00
  0.00000000E+00  0.00000000E+00  0.00000000E+00
  0.00000000E+00  0.00000000E+00  0.00000000E+00
  0.00000000E+00  0.00000000E+00  0.00000000E+00
  0.00000000E+00  0.00000000E+00  0.00000000E+00
  0.00000000E+00  0.00000000E+00  0.00000000E+00
  0.00000000E+00  0.00000000E+00  0.00000000E+00
  0.00000000E+00  0.00000000E+00  0.00000000E+00
  0.00000000E+00  0.00000000E+00  0.00000000E+00
  0.00000000E+00  0.00000000E+00  0.00000000E+00
  0.00000000E+00  0.00000000E+00  0.00000000E+00
  0.00000000E+00  0.00000000E+00  0.00000000E+00
  0.00000000E+00  0.00000000E+00  0.00000000E+00
  0.00000000E+00  0.00000000E+00  0.00000000E+00
  0.00000000E+00  0.00000000E+00  0.00000000E+00
  0.00000000E+00  0.00000000E+00  0.00000000E+00
  0.00000000E+00  0.00000000E+00  0.00000000E+00
  0.00000000E+00  0.00000000E+00  0.00000000E+00
  0.00000000E+00  0.00000000E+00  0.00000000E+00
  0.00000000E+00  0.00000000E+00  0.00000000E+00
  0.00000000E+00  0.00000000E+00  0.00000000E+00
  0.00000000E+00  0.00000000E+00  0.00000000E+00
  0.00000000E+00  0.00000000E+00  0.00000000E+00
  0.00000000E+00  0.00000000E+00  0.00000000E+00
  0.00000000E+00  0.00000000E+00  0.00000000E+00
  0.00000000E+00  0.00000000E+00  0.00000000E+00
  0.00000000E+00  0.00000000E+00  0.00000000E+00
  0.00000000E+00  0.00000000E+00  0.00000000E+00
  0.00000000E+00  0.00000000E+00  0.00000000E+00
  0.00000000E+00  0.00000000E+00  0.00000000E+00
  0.00000000E+00  0.00000000E+00  0.00000000E+00
  0.00000000E+00  0.00000000E+00  0.00000000E+00
  0.00000000E+00  0.00000000E+00  0.00000000E+00
  0.00000000E+00  0.00000000E+00  0.00000000E+00
  0.00000000E+00  0.00000000E+00  0.00000000E+00
  0.00000000E+00  0.00000000E+00  0.00000000E+00
  0.00000000E+00  0.00000000E+00  0.00000000E+00
  0.00000000E+00  0.00000000E+00  0.00000000E+00
  0.00000000E+00  0.00000000E+00  0.00000000E+00
  0.00000000E+00  0.00000000E+00  0.00000000E+00
  0.00000000E+00  0.00000000E+00  0.00000000E+00
  0.00000000E+00  0.00000000E+00  0.00000000E+00
  0.00000000E+00  0.00000000E+00  0.00000000E+00
  0.00000000E+00  0.00000000E+00  0.00000000E+00
  0.00000000E+00  0.00000000E+00  0.00000000E+00
  0.00000000E+00  0.00000000E+00  0.00000000E+00
  0.00000000E+00  0.00000000E+00  0.00000000E+00
  0.00000000E+00  0.00000000E+00  0.00000000E+00
  0.00000000E+00  0.00000000E+00  0.00000000E+00
  0.00000000E+00  0.00000000E+00  0.00000000E+00
  0.00000000E+00  0.00000000E+00  0.00000000E+00
  0.00000000E+00  0.00000000E+00  0.00000000E+00
  0.00000000E+00  0.00000000E+00  0.00000000E+00
  0.00000000E+00  0.00000000E+00  0.00000000E+00
  0.00000000E+00  0.00000000E+00  0.00000000E+00
  0.00000000E+00  0.00000000E+00  0.00000000E+00
  0.00000000E+00  0.00000000E+00  0.00000000E+00
  0.00000000E+00  0.00000000E+00  0.00000000E+00
  0.00000000E+00  0.00000000E+00  0.00000000E+00
  0.00000000E+00  0.00000000E+00  0.00000000E+00
  0.00000000E+00  0.00000000E+00  0.00000000E+00
  0.00000000E+00  0.00000000E+00  0.00000000E+00
  0.00000000E+00  0.00000000E+00  0.00000000E+00
  0.00000000E+00  0.00000000E+00  0.00000000E+00
  0.00000000E+00  0.00000000E+00  0.00000000E+00
  0.00000000E+00  0.00000000E+00  0.00000000E+00
  0.00000000E+00  0.00000000E+00  0.00000000E+00
  0.00000000E+00  0.00000000E+00  0.00000000E+00
  0.00000000E+00  0.00000000E+00  0.00000000E+00
  0.00000000E+00  0.00000000E+00  0.00000000E+00
  0.00000000E+00  0.00000000E+00  0.00000000E+00
  0.00000000E+00  0.00000000E+00  0.00000000E+00
  0.00000000E+00  0.00000000E+00  0.00000000E+00
  0.00000000E+00  0.00000000E+00  0.00000000E+00
  0.00000000E+00  0.00000000E+00  0.00000000E+00
  0.00000000E+00  0.00000000E+00  0.00000000E+00
  0.00000000E+00  0.00000000E+00  0.00000000E+00
  0.00000000E+00  0.00000000E+00  0.00000000E+00
  0.00000000E+00  0.00000000E+00  0.00000000E+00
  0.00000000E+00  0.00000000E+00  0.00000000E+00
  0.00000000E+00  0.00000000E+00  0.00000000E+00
  0.00000000E+00  0.00000000E+00  0.00000000E+00
  0.00000000E+00  0.00000000E+00  0.00000000E+00
  0.00000000E+00  0.00000000E+00  0.00000000E+00
  0.00000000E+00  0.00000000E+00  0.00000000E+00
  0.00000000E+00  0.00000000E+00  0.00000000E+00
  0.00000000E+00  0.00000000E+00  0.00000000E+00
  0.00000000E+00  0.00000000E+00  0.00000000E+00
  0.00000000E+00  0.00000000E+00  0.00000000E+00
  0.00000000E+00  0.00000000E+00  0.00000000E+00
  0.00000000E+00  0.00000000E+00  0.00000000E+00
  0.00000000E+00  0.00000000E+00  0.00000000E+00
  0.00000000E+00  0.00000000E+00  0.00000000E+00
  0.00000000E+00  0.00000000E+00  0.00000000E+00
  0.00000000E+00  0.00000000E+00  0.00000000E+00
  0.00000000E+00  0.00000000E+00  0.00000000E+00
  0.00000000E+00  0.00000000E+00  0.00000000E+00
  0.00000000E+00  0.00000000E+00  0.00000000E+00
  0.00000000E+00  0.00000000E+00  0.00000000E+00
  0.00000000E+00  0.00000000E+00  0.00000000E+00
  0.00000000E+00  0.00000000E+00  0.00000000E+00
  0.00000000E+00  0.00000000E+00  0.00000000E+00
  0.00000000E+00  0.00000000E+00  0.00000000E+00
  0.00000000E+00  0.00000000E+00  0.00000000E+00
  0.00000000E+00  0.00000000E+00  0.00000000E+00
  0.00000000E+00  0.00000000E+00  0.00000000E+00
  0.00000000E+00  0.00000000E+00  0.00000000E+00
  0.00000000E+00  0.00000000E+00  0.00000000E+00
  0.00000000E+00  0.00000000E+00  0.00000000E+00
  0.00000000E+00  0.00000000E+00  0.00000000E+00
  0.00000000E+00  0.00000000E+00  0.00000000E+00
  0.00000000E+00  0.00000000E+00  0.00000000E+00
  0.00000000E+00  0.00000000E+00  0.00000000E+00
  0.00000000E+00  0.00000000E+00  0.00000000E+00
  0.00000000E+00  0.00000000E+00  0.00000000E+00
  0.00000000E+00  0.00000000E+00  0.00000000E+00
  0.00000000E+00  0.00000000E+00  0.00000000E+00
  0.00000000E+00  0.00000000E+00  0.00000000E+00
  0.00000000E+00  0.00000000E+00  0.00000000E+00
  0.00000000E+00  0.00000000E+00  0.00000000E+00
  0.00000000E+00  0.00000000E+00  0.00000000E+00
  0.00000000E+00  0.00000000E+00  0.00000000E+00
  0.00000000E+00  0.00000000E+00  0.00000000E+00
  0.00000000E+00  0.00000000E+00  0.00000000E+00
  0.00000000E+00  0.00000000E+00  0.00000000E+00
  0.00000000E+00  0.00000000E+00  0.00000000E+00
  0.00000000E+00  0.00000000E+00  0.00000000E+00
  0.00000000E+00  0.00000000E+00  0.00000000E+00
  0.00000000E+00  0.00000000E+00  0.00000000E+00
  0.00000000E+00  0.00000000E+00  0.00000000E+00
  0.00000000E+00  0.00000000E+00  0.00000000E+00
  0.00000000E+00  0.00000000E+00  0.00000000E+00
  0.00000000E+00  0.00000000E+00  0.00000000E+00
  0.00000000E+00  0.00000000E+00  0.00000000E+00
  0.00000000E+00  0.00000000E+00  0.00000000E+00
  0.00000000E+00  0.00000000E+00  0.00000000E+00
  0.00000000E+00  0.00000000E+00  0.00000000E+00
  0.00000000E+00  0.00000000E+00  0.00000000E+00
  0.00000000E+00  0.00000000E+00  0.00000000E+00
  0.00000000E+00  0.00000000E+00  0.00000000E+00
  0.00000000E+00  0.00000000E+00  0.00000000E+00
  0.00000000E+00  0.00000000E+00  0.00000000E+00
  0.00000000E+00  0.00000000E+00  0.00000000E+00
  0.00000000E+00  0.00000000E+00  0.00000000E+00
  0.00000000E+00  0.00000000E+00  0.00000000E+00
  0.00000000E+00  0.00000000E+00  0.00000000E+00
  0.00000000E+00  0.00000000E+00  0.00000000E+00
  0.00000000E+00  0.00000000E+00  0.00000000E+00
  0.00000000E+00  0.00000000E+00  0.00000000E+00
  0.00000000E+00  0.00000000E+00  0.00000000E+00
  0.00000000E+00  0.00000000E+00  0.00000000E+00
  0.00000000E+00  0.00000000E+00  0.00000000E+00
  0.00000000E+00  0.00000000E+00  0.00000000E+00
  0.00000000E+00  0.00000000E+00  0.00000000E+00
  0.00000000E+00  0.00000000E+00  0.00000000E+00
  0.00000000E+00  0.00000000E+00  0.00000000E+00
  0.00000000E+00  0.00000000E+00  0.00000000E+00
  0.00000000E+00  0.00000000E+00  0.00000000E+00
  0.00000000E+00  0.00000000E+00  0.00000000E+00
  0.00000000E+00  0.00000000E+00  0.00000000E+00
  0.00000000E+00  0.00000000E+00  0.00000000E+00
  0.00000000E+00  0.00000000E+00  0.00000000E+00
  0.00000000E+00  0.00000000E+00  0.00000000E+00
  0.00000000E+00  0.00000000E+00  0.00000000E+00
  0.00000000E+00  0.00000000E+00  0.00000000E+00
  0.00000000E+00  0.00000000E+00  0.00000000E+00
  0.00000000E+00  0.00000000E+00  0.00000000E+00
  0.00000000E+00  0.00000000E+00  0.00000000E+00
  0.00000000E+00  0.00000000E+00  0.00000000E+00
  0.00000000E+00  0.00000000E+00  0.00000000E+00
  0.00000000E+00  0.00000000E+00  0.00000000E+00
  0.00000000E+00  0.00000000E+00  0.00000000E+00
  0.00000000E+00  0.00000000E+00  0.00000000E+00
  0.00000000E+00  0.00000000E+00  0.00000000E+00
  0.00000000E+00  0.00000000E+00  0.00000000E+00
  0.00000000E+00  0.00000000E+00  0.00000000E+00
  0.00000000E+00  0.00000000E+00  0.00000000E+00
  0.00000000E+00  0.00000000E+00  0.00000000E+00
  0.00000000E+00  0.00000000E+00  0.00000000E+00
  0.00000000E+00  0.00000000E+00  0.00000000E+00
  0.00000000E+00  0.00000000E+00  0.00000000E+00
  0.00000000E+00  0.00000000E+00  0.00000000E+00
  0.00000000E+00  0.00000000E+00  0.00000000E+00
  0.00000000E+00  0.00000000E+00  0.00000000E+00
  0.00000000E+00  0.00000000E+00  0.00000000E+00
  0.00000000E+00  0.00000000E+00  0.00000000E+00
  0.00000000E+00  0.00000000E+00  0.00000000E+00
  0.00000000E+00  0.00000000E+00  0.00000000E+00
  0.00000000E+00  0.00000000E+00  0.00000000E+00
  0.00000000E+00  0.00000000E+00  0.00000000E+00
  0.00000000E+00  0.00000000E+00  0.00000000E+00
  0.00000000E+00  0.00000000E+00  0.00000000E+00
  0.00000000E+00  0.00000000E+00  0.00000000E+00
  0.00000000E+00  0.00000000E+00  0.00000000E+00
  0.00000000E+00  0.00000000E+00  0.00000000E+00
  0.00000000E+00  0.00000000E+00  0.00000000E+00
  0.00000000E+00  0.00000000E+00  0.00000000E+00
  0.00000000E+00  0.00000000E+00  0.00000000E+00
  0.00000000E+00  0.00000000E+00  0.00000000E+00
  0.00000000E+00  0.00000000E+00  0.00000000E+00
  0.00000000E+00  0.00000000E+00  0.00000000E+00
  0.00000000E+00  0.00000000E+00  0.00000000E+00
  0.00000000E+00  0.00000000E+00  0.00000000E+00
  0.00000000E+00  0.00000000E+00  0.00000000E+00
  0.00000000E+00  0.00000000E+00  0.00000000E+00
  0.00000000E+00  0.00000000E+00  0.00000000E+00
  0.00000000E+00  0.00000000E+00  0.00000000E+00
  0.00000000E+00  0.00000000E+00  0.00000000E+00
  0.00000000E+00  0.00000000E+00  0.00000000E+00
  0.00000000E+00  0.00000000E+00  0.00000000E+00
  0.00000000E+00  0.00000000E+00  0.00000000E+00
  0.00000000E+00  0.00000000E+00  0.00000000E+00
  0.00000000E+00  0.00000000E+00  0.00000000E+00
  0.00000000E+00  0.00000000E+00  0.00000000E+00
  0.00000000E+00  0.00000000E+00  0.00000000E+00
  0.00000000E+00  0.00000000E+00  0.00000000E+00
  0.00000000E+00  0.00000000E+00  0.00000000E+00
  0.00000000E+00  0.00000000E+00  0.00000000E+00
  0.00000000E+00  0.00000000E+00  0.00000000E+00
  0.00000000E+00  0.00000000E+00  0.00000000E+00
  0.00000000E+00  0.00000000E+00  0.00000000E+00
  0.00000000E+00  0.00000000E+00  0.00000000E+00
  0.00000000E+00  0.00000000E+00  0.00000000E+00
  0.00000000E+00  0.00000000E+00  0.00000000E+00
  0.00000000E+00  0.00000000E+00  0.00000000E+00
  0.00000000E+00  0.00000000E+00  0.00000000E+00
  0.00000000E+00  0.00000000E+00  0.00000000E+00
  0.00000000E+00  0.00000000E+00  0.00000000E+00
  0.00000000E+00  0.00000000E+00  0.00000000E+00
  0.00000000E+00  0.00000000E+00  0.00000000E+00