Amorphous Sb                            
   1.00000000000000     
    20.1278869700586895    0.0000000000000000    0.0000000000000000
     0.0000000000000000   20.1278869700586895    0.0000000000000000
     0.0000000000000000    0.0000000000000000   20.1278869700586895
   Ge   As   Se
   105    45   150
Direct
  0.4887205079295158  0.7192742743829926  0.7955279371217343
  0.2382179739313833  0.4697942998002926  0.7734658649019825
  0.4182041047292174  0.3280984264833126  0.6093664731347528
  0.8108185902866992  0.9818270096523198  0.6381474321438012
  0.8639398655043180  0.5795531297677415  0.7022893961336202
  0.1790590404453677  0.7017635317363149  0.9662131175305754
  0.0934618202511643  0.2004130184233290  0.3240793839130214
  0.3309798840485260  0.6451072973679345  0.8032430263615777
  0.3624766681106441  0.8750666205651392  0.2357198762213141
  0.3605849843911700  0.0470987465608597  0.4331667568772526
  0.9864056978974093  0.0676161129174894  0.4564686352618090
  0.6261696502389592  0.3216466027538882  0.8681199291839951
  0.6422515395537085  0.4442442157424853  0.6260758343924864
  0.2698159107963363  0.0104253643054126  0.8499497030048483
  0.6220782877290305  0.9596126372956718  0.3669570377096988
  0.0569698658678562  0.7182248993218010  0.0732530570042795
  0.9947038034562162  0.7718653387114519  0.3608948626255026
  0.8149966178384868  0.4058163024747463  0.3594240486814665
  0.1061603373484572  0.4389422847019079  0.9963306674118581
  0.0251724450657491  0.9223070793488691  0.4950399485721780
  0.1119156711926603  0.8286040952652696  0.1774791830992969
  0.4227117790709254  0.7488727589053241  0.9678293247327610
  0.0210622490376143  0.1630083777536164  0.9286921863395418
  0.0239109137355614  0.0771112273070293  0.1316216063749256
  0.5836443593715532  0.3041270430438986  0.2035009506327347
  0.3498223238197060  0.1686633232508966  0.5781706562338965
  0.3804457728077970  0.7696078505076945  0.5408230322836486
  0.8211852093857319  0.9285039083907438  0.0216213364202950
  0.7433749899281931  0.5671766825855445  0.7349018793432005
  0.9193261102964185  0.8303991827169523  0.6350848365754156
  0.0836838097785949  0.3602000029509622  0.7507454350849601
  0.0419674576226403  0.0912161427812155  0.2540137960244924
  0.8859031241183627  0.5394832244089584  0.4405262986275190
  0.4584677415087288  0.4521718485887800  0.2636980202187773
  0.0248615040671374  0.5765682248260912  0.5682147340402104
  0.7089014415814407  0.7260241454333926  0.1395982865817771
  0.4471096148876334  0.4718819362069177  0.9067655253463083
  0.2891759810865581  0.0692544099187797  0.2227389568207223
  0.2469336604342628  0.3619922348437735  0.1254683353431295
  0.8229387455329830  0.3831216311141264  0.7667546306238966
  0.8116719542905660  0.8159974998076128  0.3979624985376414
  0.9469605666396167  0.1912952088323303  0.5625622957809926
  0.5400786525287825  0.8528053591171394  0.5494680340884890
  0.3894731550323826  0.9893732447435526  0.1011390133143446
  0.3393409785631419  0.6343286862041303  0.1723253994361951
  0.3893817167405609  0.4364332096370685  0.4839230867034381
  0.8636936223099431  0.8079278963915607  0.1781321782188948
  0.0404829577314754  0.3554465216783941  0.4079908311527433
  0.9644842446437152  0.7841985052053438  0.8161139685819265
  0.5614027284296701  0.0745353218769199  0.3115906121341809
  0.2569139184427363  0.4423799950669132  0.9186240758886164
  0.0654367869332550  0.2502873263421350  0.1109370487378316
  0.6577562393885769  0.7622654030573088  0.8232592801830816
  0.6130278419964235  0.2722218035964675  0.7489870664736116
  0.0703321293371807  0.6520492202989561  0.2950641166689860
  0.0279551333343120  0.9187205374604447  0.2611619263706236
  0.1881882794128055  0.5991747937581049  0.4355844228126906
  0.0391999699948821  0.2866254655722287  0.5520391531779614
  0.1164821572634434  0.0555170927054608  0.8017460134159718
  0.5485588449330343  0.4284168406280078  0.3518617166696412
  0.7044285259223091  0.0913487265449816  0.1184045684982176
  0.5302955452861844  0.6447181999494940  0.2155084289199027
  0.9099848611621579  0.6697645029620301  0.2903367743478997
  0.8550840327834554  0.9982850030700674  0.8365914806061751
  0.6459063543108052  0.8289012372134378  0.0272063763599030
  0.0887978275124729  0.3293300383616622  0.9367728783773804
  0.8240907780400344  0.8268854499182032  0.5447657661331318
  0.7211022139922562  0.7429463606725057  0.6779546632202361
  0.8337156332383279  0.2140286855807458  0.1555000756804626
  0.7991665752978838  0.3024588847284702  0.0211976939395269
  0.9918068016136747  0.4550977995600558  0.6720848164278508
  0.4285413325559760  0.1806729143356084  0.1645652948429630
  0.3524793123779391  0.5424645550683239  0.4160155820089181
  0.4453262429196597  0.8408370428600215  0.3921349084673317
  0.3935071324659316  0.4530435742583664  0.6648987678388830
  0.7278107781756277  0.9742354177430133  0.1779480287376919
  0.2570500914598795  0.2358354958113234  0.1638632689815780
  0.8695955480480235  0.0579329886258472  0.0072120502930068
  0.2295689489581996  0.8253411317890665  0.8865143795935229
  0.3538521104288084  0.2603152227492296  0.9955904407345408
  0.6592808504489074  0.9860612814958317  0.9010786318276518
  0.9770635136642665  0.5709343321186779  0.8781646064200868
  0.7889835452258132  0.4869648769645334  0.0378593881367775
  0.7646779200894710  0.5304686929419818  0.3318488671404720
  0.3422235246769257  0.1038216529932578  0.6919333043248196
  0.6163850057931762  0.1450414250003575  0.0402100390189943
  0.5233935409051191  0.6576395788297378  0.6045849040446656
  0.7419131019848889  0.3045717897856317  0.5433863630297755
  0.6412745583992284  0.5693598223991692  0.1785596853353845
  0.5585642394137480  0.2451873775594119  0.3803366333474399
  0.6344422100087780  0.1091659564762170  0.9220817074078915
  0.1234921228154232  0.1017980298619030  0.5247753236255822
  0.3022859703520043  0.6026441356488799  0.5831154994689709
  0.7804968267778393  0.0213879500323155  0.4584535847342958
  0.6496976849214517  0.9560350455785281  0.5631534978372816
  0.6565242694022230  0.7009493370130291  0.5208746389348510
  0.4514213973912701  0.0306716809222028  0.9396247350191107
  0.1449933783366938  0.5045086072236387  0.6215246631118957
  0.1445272076459953  0.7752466356295628  0.4594505049770160
  0.2172338093571432  0.1327601190371686  0.8470704694704206
  0.1041497654949427  0.4149268473914945  0.2483846163518533
  0.5322006141720534  0.2853416651472647  0.9536821734671966
  0.2571045714392211  0.4927901803705948  0.1021771513215929
  0.8736503214234163  0.0049077441818715  0.2326848119759643
  0.4040021281065512  0.8877665634037264  0.8024165240082608
  0.7231569388883464  0.6728338745069745  0.9639981484458121
  0.9760721360788503  0.4286299225375700  0.0302372962323484
  0.9775079041067302  0.6287643560314191  0.0153554668587467
  0.7399718979532026  0.1745868109783383  0.7654701550742108
  0.6807672350343218  0.9246570713910265  0.7839178331657874
  0.1126144632865191  0.8777871069746910  0.6617903757797721
  0.0611399709145636  0.9192228235420579  0.0783963867457255
  0.1791736473224649  0.9661650780040372  0.3680313257587097
  0.7501456144905565  0.1349915703588591  0.3139226434095824
  0.7118573378902244  0.7854155617474323  0.3147913369053770
  0.7263973106391360  0.6355374692434396  0.4074113888560538
  0.4281053641790002  0.2745672929337167  0.3176756470493299
  0.6418510626402277  0.6351102130547231  0.7712697370966626
  0.3093324211721323  0.2642520765498196  0.4397095111761102
  0.1098330154786670  0.9237046479058668  0.7879087184973231
  0.8985706600789588  0.4221483054842672  0.1970430371899506
  0.8673284855240584  0.2104519177717534  0.3803898051418873
  0.7636607298184275  0.5749496709986452  0.8552293393758567
  0.9981473607058654  0.9123745614620508  0.9656675577861855
  0.2198265077736173  0.4274472285523314  0.3707270467789680
  0.1814449152881396  0.6995990536224509  0.6479662598654411
  0.3965521566061273  0.9496539534000940  0.5339084129589129
  0.5296556962291968  0.8832179594583407  0.8240618342159493
  0.1879673429800769  0.0741353927735811  0.9864555318415277
  0.2885690364046851  0.8204161666530263  0.0758499934252884
  0.5318140259383760  0.5548034348335837  0.4575857697754678
  0.8806855823854436  0.7719192383994604  0.9255305991190593
  0.4611396235389968  0.1777738213913594  0.9590089382189885
  0.4358349708292292  0.5256097723975024  0.0811916555388734
  0.9861330207746843  0.7224580297760926  0.6394391019863495
  0.2015768094748051  0.6057309149694488  0.1446665948720037
  0.3013658753362908  0.2782732268519741  0.7776375931387771
  0.5341941021459289  0.0808067443201364  0.5000728687557807
  0.3765115605042142  0.6864586104795561  0.2897992033069411
  0.3200438783385688  0.8049662232119184  0.7185164713362285
  0.7186675466109290  0.4674059627240574  0.2335060542719274
  0.5995952972138143  0.4592935134140029  0.0410345073668102
  0.1671132772371715  0.0064150520494986  0.6015153554278416
  0.9504922663587477  0.2614889278936665  0.7264298720954375
  0.5492538555118885  0.1873809081348809  0.5641727947446956
  0.1497747274218906  0.2269968184647086  0.5354121515269880
  0.1431419854892053  0.5752702897765142  0.8181984397579072
  0.5419720251901678  0.8626881242373186  0.1934093997581323
  0.5246997722047478  0.4446108302082416  0.7157872446196436
  0.9302179802521896  0.4190168590078430  0.9146187152093860
  0.8728735345236398  0.0993331236342079  0.8949123678561313
  0.8667448498431142  0.9477040532841725  0.5151872171662678
  0.0403545774343545  0.7255502660782865  0.1991346747455375
  0.9012589134677468  0.5319206269764322  0.5992692016436870
  0.3006665031158873  0.7081812270703632  0.0104054791396723
  0.1298027013902857  0.9984176105790088  0.2559977262105012
  0.5618177797382781  0.4730529028243000  0.1575740323782761
  0.7248049593560997  0.0589636503688017  0.5764653619593694
  0.6190524489666065  0.2599700406694685  0.0493121737153165
  0.1196322721814140  0.0795965214809769  0.4078351390942003
  0.8919398020368970  0.8371894707740940  0.3074642191723773
  0.7575200539378657  0.0279067263388913  0.7681905748349135
  0.7629500850643037  0.6822680248882663  0.5847765975079189
  0.2281046100201085  0.8035664822944908  0.6105217227693098
  0.8476316370746667  0.6810408708085706  0.1811400291064754
  0.5020952147042829  0.1084655054835565  0.0511722077782465
  0.3076674010555087  0.1641834395330360  0.0642677570322549
  0.3375821450604015  0.8525416675116184  0.4537503928240328
  0.9523480122861867  0.9785538705750459  0.7664916222992658
  0.7179808187705606  0.1970348734472500  0.2135437223660291
  0.7097424107102799  0.9823111873967941  0.0135032580333351
  0.6245876251014729  0.1591796548522685  0.7106962885047865
  0.1402497129204388  0.0185147393068911  0.0976334670710261
  0.9050536760001808  0.5040190068231244  0.7787899640628363
  0.2196599513567537  0.3657863142574447  0.2662115657379411
  0.3354338214875433  0.3990075092620638  0.8293452692138646
  0.2824492428480757  0.7769155460948507  0.1888635962295435
  0.2994007391167446  0.0047977446565603  0.3306591513784740
  0.3300296869486369  0.5306161027232535  0.9962682018827400
  0.4105285497518478  0.0581469881144199  0.2064349075788985
  0.4431177649706884  0.2360787211232732  0.5223801992657642
  0.4628231247770918  0.3336588142894290  0.2099127695333957
  0.9678237588706651  0.0087411364756368  0.3217846021986682
  0.4404889287634886  0.8721346885524177  0.1210071196375916
  0.1027741576939155  0.4690615710670225  0.3688431228083150
  0.0691101237973664  0.4845576290813715  0.8678600153333295
  0.5394013304679780  0.4186324016701660  0.8332443045261931
  0.2839989611243214  0.0000450978547460  0.6316947151977400
  0.5412868268961272  0.1826952780460993  0.2327939170734143
  0.8843578337537379  0.5445621863537223  0.3135199885851201
  0.6157103819089720  0.5202596946716157  0.3813309894761324
  0.3341475262905179  0.2062976096705721  0.8723611549424846
  0.1522397610002781  0.9155451961774353  0.5185455292515695
  0.9976567355299619  0.1901455697169370  0.4108892118205995
  0.5453796261816712  0.9270028482423481  0.9389886268801442
  0.5626812202125694  0.9670976766244822  0.7458498969397428
  0.7200356664141585  0.4447657969987501  0.7339434087007591
  0.0835368618954018  0.8521511433768587  0.3397203193121782
  0.9255013811932128  0.4183515135194916  0.4176107816492775
  0.5006191730622637  0.7557255992627704  0.4812494320023051
  0.9086485073933062  0.3557692117281289  0.6546466686389911
  0.3036061944679860  0.6492276881295840  0.4569899929882437
  0.6984909810598062  0.2065845460739806  0.8879670823353296
  0.2877412303447611  0.1444204337008817  0.4701210519735301
  0.7429913720490530  0.8304176504292594  0.1989357197055752
  0.8080080262408362  0.5090400351753352  0.1633350462461950
  0.1651856379242229  0.7063770154675083  0.3557873550192038
  0.0628886587962834  0.8484128655321169  0.8922376098986748
  0.8171822150162210  0.3767952083064518  0.9179618806049462
  0.0173841206455858  0.0906177266410586  0.5839037998410953
  0.2875021729739864  0.9499880489368465  0.1653188463566225
  0.5263914730127534  0.6116120193997966  0.7289168583316016
  0.9965277391700350  0.9229049435212103  0.6244076681755624
  0.1597944556697612  0.3129382414030062  0.8382610847888869
  0.5583214449036078  0.3441524553292678  0.6548087276381187
  0.3024162803543501  0.2932533006358913  0.5683035546748479
  0.2637862267752338  0.9848951789545617  0.9678090740570081
  0.7944448967380763  0.1415458938120937  0.0556699187564953
  0.8733071157172992  0.6586007382629765  0.9577283647541772
  0.8995032509637340  0.1258084308875287  0.2240637662114219
  0.5208338939347958  0.4399162065124927  0.4760174710445362
  0.6295257619934991  0.3389535008608900  0.3254805599047013
  0.6172403905953127  0.5829965893018818  0.5499439299340215
  0.6614112374646156  0.6745677371138399  0.3096456907988607
  0.4719530082755920  0.7483482323065328  0.2659445699267737
  0.0845753556523502  0.7573524051407106  0.7105149455485862
  0.7704151237560937  0.7087489055574933  0.8494352697247030
  0.5840972973623416  0.7616996451563923  0.1281370013556489
  0.8719913657348978  0.8344695760447882  0.7497921008897420
  0.1113212378783813  0.2212450120334859  0.9872839882515759
  0.8173303071725173  0.8993814510632443  0.9004471267832526
  0.7641054012669035  0.7816554908222380  0.0373938389112305
  0.7269758512051605  0.0056149201713196  0.2964912108285981
  0.3245120031431594  0.5426091429986171  0.7189548209929324
  0.7262121899699719  0.4210286773215621  0.5444925222153530
  0.4047763630501049  0.2690407777508365  0.7255879319248827
  0.9441943141119438  0.9802543293819874  0.1258258194967919
  0.4343408239727858  0.5865310444787687  0.3339284017191125
  0.1386913597528948  0.1816372378531059  0.1814313103482974
  0.0113408571942352  0.7949622532609479  0.4840196263746443
  0.7816854523927673  0.2947078722905323  0.4172418985263433
  0.3956781387057627  0.7126971282441854  0.7052600171315432
  0.6055939781507683  0.8479400428190590  0.3204349941013797
  0.3586011453226852  0.8503590513005137  0.9091899316573736
  0.1599130225586421  0.8130950549545751  0.0591585572456563
  0.8567083123521324  0.1325911563997645  0.4801145007643797
  0.6953024408987466  0.9114839009527225  0.4519565035056854
  0.0644154779417412  0.2541194149309042  0.6793326490083474
  0.6471733374546601  0.5644025511206268  0.8731787813621105
  0.2502955031644667  0.3395675689896182  0.9916640603975663
  0.4402847652418397  0.6504451530757527  0.8885160147971783
  0.0703245705350371  0.6652619196059987  0.8622839819336843
  0.5999581992624111  0.9606289380382588  0.1542860885722697
  0.4648917007320230  0.3817618353482776  0.0022372639405352
  0.9516025355406024  0.8104295759937575  0.0161728328233153
  0.6472687712449935  0.1445606880695086  0.3815847692995643
  0.2340754840123626  0.6038899818827452  0.8971144649569238
  0.2393180530097395  0.5018743167517993  0.5472000281615430
  0.5190695647481383  0.1155223977696610  0.8703788350181495
  0.4186621225796491  0.5411884770074478  0.5703111493795779
  0.2314845867352976  0.9090375790644030  0.7894424825855954
  0.0793553172156438  0.0428992062294836  0.9245635665553703
  0.2593849071310709  0.5321447193527347  0.3330965150025136
  0.9609220448366852  0.1405830223844023  0.0395150774271149
  0.1868562616106879  0.4001172027357839  0.6896602742634799
  0.3369138853868431  0.2036958554231222  0.2648982978643458
  0.2398009558933393  0.7416111841391350  0.7862590368657831
  0.8380717362876238  0.6906946623815690  0.3969401219797938
  0.1238918998969950  0.5556896364978504  0.2151639672357862
  0.9386122360795310  0.5289540041686887  0.0817844679608905
  0.1762356705069596  0.2743425747437371  0.4248049900349116
  0.2359211843043633  0.1633713750653352  0.7188635459746473
  0.9751631205183002  0.3037786448343998  0.9011287634377609
  0.8259091349308572  0.3383121930601392  0.2576695804927556
  0.4905353239261676  0.9448678017094660  0.4491332918056943
  0.6750290631209908  0.5598472849324565  0.0518584756654079
  0.3878305140890452  0.0135351208580405  0.8129500180096673
  0.5255580533753482  0.5401732671662975  0.9817520571566124
  0.6109331580502075  0.2766920725592351  0.4997970823165384
  0.6039803812142431  0.7535747355526976  0.6317856255228573
  0.3521042079644687  0.5021808164760629  0.1808180458658387
  0.0654174082588989  0.4330732070130119  0.5594135911578749
  0.7340669494138740  0.8787264187933691  0.6326768114059772
  0.4560674832362407  0.6460414032832712  0.1157783937885473
  0.1324849948641719  0.6174678617966757  0.0406844128401592
  0.6099113861920815  0.7440226156510901  0.9370995396158289
  0.7354927877065399  0.2929894714812899  0.7143314123729162
  0.4290845345566541  0.8629598222812168  0.6212041603459184
  0.3815993434206042  0.3959564323483032  0.3532131921153197
  0.1230587297883335  0.6688286056099298  0.5366167403555469
  0.8871880474484505  0.1719509052900190  0.6676405308341132
  0.0294561511841517  0.3122063190969089  0.2862351917531062
  0.9207592720618778  0.3489183742906666  0.1067791042030431
  0.1269458286023257  0.3602760926170910  0.1202091084115001
  0.4724799227669376  0.1181469623292401  0.4013093747072222
  0.9943652236135120  0.5991358757799510  0.4480721910395400
  0.0095488017610707  0.0790693674573010  0.7603843858063905
  0.9457126890689637  0.6686201809590627  0.7403225436234071
  0.7293753655766035  0.3849574623072413  0.0750977892586607
  0.4429497455837922  0.0631221571343655  0.5797050143324571
 
  0.77808899E-03  0.16510947E-02  0.39572607E-02
  0.31620084E-02  0.11732223E-02  0.17338931E-02
 -0.16656818E-02  0.11889873E-02 -0.52233989E-03
 -0.13979688E-02 -0.35668614E-02 -0.17775670E-02
 -0.95276780E-04  0.10213502E-02  0.65499230E-03
  0.17343135E-02 -0.45169031E-02  0.25274945E-03
 -0.29529059E-02  0.53301994E-03 -0.97460177E-03
 -0.34757878E-03  0.59188881E-03  0.64978395E-03
  0.11537165E-02 -0.49855439E-02  0.14203382E-02
 -0.27619905E-02  0.57725111E-03 -0.59232580E-03
  0.58128190E-03 -0.77118370E-03  0.75578596E-03
 -0.64600229E-03  0.10000743E-02  0.32136113E-03
 -0.46840153E-03  0.18315880E-02 -0.38033301E-02
 -0.62084216E-03 -0.22469551E-02 -0.69484512E-03
 -0.38493756E-02  0.97077615E-03  0.43656544E-03
 -0.15809564E-02  0.17027509E-02 -0.31705917E-02
 -0.97990677E-03  0.31742098E-04  0.10475160E-02
  0.29344697E-02  0.44057360E-02 -0.16453105E-02
  0.16950910E-02  0.47660704E-03 -0.84233781E-03
 -0.35356949E-03 -0.23625830E-02  0.74178645E-03
 -0.29910169E-02  0.32517358E-03 -0.25085874E-02
 -0.90382548E-03  0.16351514E-03  0.14370686E-02
  0.28447243E-02  0.10869813E-02 -0.17801282E-03
 -0.11806557E-02 -0.17458796E-02  0.67103442E-03
 -0.15419820E-02 -0.15564787E-03 -0.15662444E-02
 -0.35335477E-02  0.95203618E-03 -0.16422653E-02
 -0.69893432E-03 -0.11301414E-02 -0.95498183E-03
  0.78968743E-03  0.29391515E-02 -0.25179098E-02
  0.39002646E-02  0.18293183E-02 -0.14768142E-02
  0.17915192E-02  0.24781238E-02 -0.10056259E-02
 -0.11916908E-02 -0.10977757E-03 -0.40765622E-03
 -0.20341484E-02 -0.32769108E-02  0.42486103E-03
 -0.97645328E-03  0.12217719E-02 -0.54434036E-03
 -0.30342350E-03 -0.94384371E-03  0.24975084E-02
  0.11060683E-02  0.29434655E-02  0.99609108E-03
  0.56381027E-03 -0.84995606E-03 -0.26102119E-02
 -0.13235693E-02 -0.85377902E-03  0.59174182E-04
  0.48292605E-04 -0.73595094E-04  0.59740620E-03
 -0.21484816E-02  0.28431244E-04  0.63875455E-03
 -0.12235998E-02  0.11667847E-02  0.33612831E-02
  0.16225260E-02  0.16802956E-02 -0.14067942E-02
 -0.23003876E-02  0.41291580E-02  0.53623628E-03
 -0.23759368E-02  0.63631211E-03  0.19744636E-02
 -0.16839372E-02  0.19195995E-02  0.38530023E-03
 -0.12770796E-02  0.27016608E-02  0.41244853E-02
  0.11211103E-02  0.34250750E-02 -0.73194260E-03
  0.10068280E-02 -0.16855461E-02 -0.55139901E-03
  0.19414584E-02 -0.27108861E-02 -0.52746891E-02
  0.19053675E-02  0.14263688E-02  0.98665950E-03
  0.25179819E-02  0.89011437E-03 -0.49664446E-04
  0.22438724E-03 -0.15344383E-02 -0.21104417E-03
 -0.38139477E-02 -0.48740018E-02 -0.62337885E-04
 -0.26496447E-02  0.15815363E-03 -0.20284083E-02
  0.23573476E-02  0.95312896E-03 -0.19411556E-03
 -0.25872072E-02  0.46774216E-03 -0.58492319E-04
  0.90687308E-03  0.11926469E-02  0.11004120E-02
 -0.16280677E-02 -0.82952663E-03  0.21400920E-02
  0.10268305E-03 -0.29695412E-02 -0.12331400E-02
  0.62270729E-03  0.11049500E-02 -0.26589057E-03
 -0.64921427E-03 -0.13773099E-02  0.66239307E-03
 -0.16184650E-02  0.44791526E-03 -0.63738562E-03
 -0.10948615E-02  0.65986956E-03  0.27390460E-03
 -0.11863140E-02  0.69360402E-03  0.15895437E-02
  0.41748759E-03 -0.85891932E-03 -0.97862813E-03
  0.31530579E-03  0.72072612E-03  0.15611478E-02
 -0.20508869E-02  0.42128164E-02  0.14625390E-02
  0.31296764E-02  0.31675647E-02 -0.21426571E-02
 -0.40588195E-03 -0.23120505E-02 -0.29052334E-02
 -0.47404656E-03 -0.37907287E-02  0.14280980E-02
 -0.59963928E-03  0.21197892E-02  0.38765422E-03
  0.79627713E-03  0.24470385E-03 -0.56895861E-03
 -0.22780152E-02 -0.79451188E-03  0.11877568E-02
 -0.19468173E-02 -0.17434197E-02  0.23048176E-02
  0.26213413E-02  0.39059002E-03 -0.29287395E-04
  0.81290781E-03  0.30196205E-02 -0.26987620E-03
 -0.11719474E-02 -0.33198975E-02  0.31104194E-02
 -0.21723683E-02 -0.65475930E-03  0.19494142E-02
  0.64840618E-03 -0.94501979E-03 -0.17782914E-02
  0.18596660E-02 -0.25615261E-02  0.11688797E-02
  0.18183372E-02  0.26816407E-02 -0.36003258E-02
 -0.30121276E-02 -0.13311796E-02  0.52857668E-03
  0.41344196E-02 -0.21991718E-02  0.32624214E-02
  0.22509826E-02  0.27148859E-03 -0.12760826E-02
 -0.25719739E-02 -0.10823509E-02  0.22990888E-02
 -0.28265472E-02 -0.69490350E-03 -0.43546353E-02
 -0.13768790E-02 -0.68383281E-03  0.42223059E-03
  0.14361195E-03 -0.28513887E-02 -0.85018255E-03
  0.64342278E-03 -0.20210274E-02 -0.17294107E-02
 -0.40234629E-02 -0.86241466E-03  0.87736823E-03
 -0.84146774E-03  0.35147296E-02 -0.23216071E-02
  0.31851393E-03 -0.32596051E-02 -0.14795549E-02
  0.36087569E-04 -0.28365165E-03 -0.13080832E-02
  0.23941236E-03  0.15889363E-03 -0.19275338E-02
 -0.35115556E-02  0.24612230E-02 -0.33493107E-02
 -0.97993088E-03  0.89544402E-03  0.10797323E-02
  0.21215092E-02 -0.26463474E-02 -0.17547249E-02
 -0.12049282E-02  0.96565700E-03 -0.18561464E-02
 -0.25510071E-03  0.75803298E-03 -0.16420075E-02
  0.13644865E-02  0.14887336E-03  0.28444624E-02
  0.15389017E-02 -0.73327750E-03  0.10113851E-02
 -0.22243302E-02  0.26101662E-03 -0.10723122E-02
 -0.36774079E-03  0.45644743E-03 -0.22050591E-03
 -0.26110790E-02  0.29466147E-02 -0.45085957E-03
 -0.21518423E-02  0.87251139E-03 -0.39073869E-02
  0.24396980E-02 -0.22757370E-02  0.24970930E-02
 -0.30561356E-03  0.43060271E-03  0.22445048E-02
 -0.51226260E-04 -0.24055267E-02  0.75584221E-03
  0.34077890E-03  0.44685781E-03 -0.91775253E-03
  0.82124612E-03  0.28186045E-02  0.22718247E-02
  0.53930354E-03  0.27989564E-02 -0.88717536E-03
  0.36858484E-02 -0.42992181E-02  0.15297740E-02
  0.78799681E-04  0.47624015E-03 -0.31665286E-03
 -0.95736886E-03  0.13845343E-02  0.11620895E-02
 -0.13105226E-02 -0.20513713E-02  0.25975589E-03
  0.38976340E-03  0.11401671E-02 -0.20914384E-02
 -0.26433367E-03 -0.35930705E-03 -0.25729939E-02
 -0.68331018E-03  0.10021011E-02 -0.12609170E-02
  0.13839299E-03  0.20333412E-02 -0.60383732E-03
 -0.82358128E-03 -0.52850766E-03 -0.12935545E-02
  0.26445801E-02 -0.19389635E-02  0.22664917E-02
  0.10933220E-02 -0.26144912E-02  0.59124887E-03
  0.22772831E-02 -0.42128996E-03 -0.18639886E-03
  0.22625946E-02  0.44154879E-03 -0.17060134E-02
  0.10276425E-02 -0.13257394E-02 -0.74409160E-03
 -0.23848204E-02 -0.37594427E-04  0.11336748E-02
 -0.22522615E-03  0.15296868E-02 -0.27110772E-02
  0.23328407E-02  0.12183780E-02  0.87183300E-03
  0.27095409E-03 -0.13477472E-02 -0.17054661E-02
  0.18130422E-02  0.94819822E-04  0.81264860E-03
  0.28240671E-02  0.10986596E-03 -0.20045710E-03
  0.15020708E-02 -0.38388908E-02 -0.12257922E-02
 -0.13447883E-02  0.60411145E-04  0.33168431E-02
 -0.23392050E-02  0.47068408E-03 -0.37847773E-02
 -0.92562340E-03 -0.15339542E-02  0.18280925E-02
 -0.74175041E-03  0.76277310E-03 -0.16063216E-02
 -0.18049790E-03  0.10698252E-02 -0.34366937E-03
  0.36747579E-02 -0.12809450E-02 -0.27302842E-03
 -0.14330888E-03  0.18965986E-02  0.76204506E-03
  0.26181224E-02 -0.22573903E-02  0.12442504E-02
 -0.38044969E-03 -0.59979040E-03  0.20978774E-03
 -0.19752643E-02 -0.12479056E-02  0.35328930E-02
 -0.14036286E-02 -0.24394258E-02 -0.16958167E-03
 -0.13094960E-02  0.15850898E-02  0.77855318E-03
 -0.15418783E-02  0.23914802E-02  0.18563335E-02
 -0.16656939E-03  0.54005255E-03  0.67563656E-03
  0.83277233E-03 -0.14774000E-02  0.74211048E-03
  0.15366650E-02  0.94565826E-04 -0.25482683E-02
  0.63498732E-03  0.10480217E-03 -0.12727341E-02
 -0.16627452E-02 -0.21958190E-02 -0.17635591E-02
  0.32561909E-02  0.24245873E-02 -0.22995812E-04
 -0.90982019E-03 -0.12225218E-02 -0.12734421E-02
 -0.10372433E-02  0.23092408E-02 -0.83878777E-03
  0.11938438E-02 -0.61800795E-03  0.84311883E-03
 -0.51445396E-03  0.43405554E-03 -0.95009216E-05
  0.10055734E-02  0.11906006E-02  0.29345463E-02
 -0.47572733E-03 -0.10194185E-03  0.15677840E-02
 -0.13372455E-02  0.25428955E-02  0.61420130E-03
 -0.12162642E-02  0.21144217E-02  0.85361424E-03
  0.94898515E-03 -0.62263693E-03 -0.92000691E-03
 -0.29122839E-02 -0.64653192E-04 -0.23692953E-02
 -0.31882257E-02  0.30085943E-02 -0.16062792E-02
  0.24387897E-03 -0.12619232E-02  0.87282634E-03
  0.26972876E-02  0.18293277E-02  0.20084733E-02
 -0.17421419E-02  0.52289649E-03 -0.26549051E-03
 -0.32157378E-02  0.87778829E-04  0.10005527E-02
  0.18116752E-02 -0.15628769E-02  0.12220864E-02
 -0.42293843E-03  0.86781091E-03 -0.24489866E-02
 -0.43749279E-03  0.11267540E-02 -0.50090626E-03
  0.22823336E-02 -0.10590696E-02  0.66871876E-03
  0.31122378E-02  0.86970911E-03 -0.11041060E-02
  0.36927355E-02 -0.51869916E-04  0.54548422E-03
 -0.14533182E-02  0.12273908E-02  0.14043524E-02
  0.24132976E-03  0.44776170E-03 -0.20792258E-02
  0.10542285E-02 -0.31083562E-02  0.87648813E-03
 -0.73165789E-03 -0.20189294E-02 -0.19390899E-02
 -0.41265619E-02  0.18880341E-02  0.36910794E-03
  0.15576331E-02 -0.31746094E-02  0.32129427E-02
  0.20457351E-03 -0.84984856E-03 -0.18691326E-02
  0.16526350E-02 -0.10445133E-02  0.14058525E-02
  0.14213097E-02  0.26873481E-03 -0.79897848E-03
  0.18406852E-02 -0.10855473E-02  0.26360426E-02
 -0.28100897E-02  0.75553881E-03  0.44875418E-03
  0.11688202E-02 -0.42353520E-02 -0.16004901E-02
 -0.28012647E-02 -0.26290692E-02  0.62785565E-03
  0.47104668E-02 -0.27878409E-02  0.17759173E-02
  0.56395194E-03 -0.73746196E-03  0.20250023E-03
  0.34933556E-04 -0.19755882E-02 -0.89901744E-03
 -0.80322686E-03 -0.15230410E-02  0.54091061E-03
 -0.90480727E-03  0.12124159E-02 -0.47826887E-04
 -0.22085094E-03 -0.56991240E-03 -0.13105349E-02
  0.21079953E-02 -0.21382726E-02 -0.18409504E-02
  0.13108583E-02  0.11334744E-02 -0.99336323E-04
 -0.67206297E-03 -0.28220828E-03 -0.11707847E-02
  0.10885526E-02  0.15467035E-02  0.19952043E-02
  0.33577360E-03  0.13168682E-05 -0.21337089E-03
  0.32539976E-02 -0.60357140E-03 -0.28665514E-02
 -0.12014755E-02  0.94467324E-03 -0.23140322E-02
 -0.15323151E-02  0.19739299E-02  0.83868272E-03
 -0.21756990E-03 -0.19222581E-02 -0.37090322E-03
  0.18686090E-02 -0.18205961E-02  0.42153226E-03
 -0.39022682E-04  0.21033080E-02  0.25652477E-02
 -0.64633440E-03  0.24731632E-03  0.77286268E-03
 -0.20745516E-02  0.83604059E-03  0.36362579E-02
 -0.16582104E-02 -0.17358618E-03  0.11898782E-02
 -0.64179875E-03 -0.56153767E-03  0.24997448E-03
 -0.30422449E-02  0.28339173E-02 -0.12086659E-02
  0.20116677E-02  0.89408151E-03 -0.65342146E-03
 -0.68593326E-03 -0.72137840E-03  0.28179816E-02
  0.10439042E-03  0.19741970E-02  0.17663967E-02
  0.67589573E-03  0.35414137E-03  0.11752480E-02
  0.20288751E-02  0.11510439E-02  0.50567462E-03
  0.79181463E-03  0.26706557E-02  0.19604972E-02
 -0.79340744E-03  0.12077088E-02 -0.50394916E-03
 -0.22855981E-02 -0.13951974E-02 -0.37159443E-03
  0.25936641E-02  0.97852540E-03 -0.24345394E-03
  0.98713819E-03  0.21828447E-02  0.73081478E-03
  0.57687573E-03 -0.36809530E-02  0.63896945E-04
 -0.13377451E-02  0.18697312E-02 -0.15098670E-02
 -0.34597552E-02 -0.12737757E-03  0.72258204E-03
  0.21537759E-02  0.42825344E-03  0.20436656E-02
 -0.42977633E-02 -0.55292367E-04 -0.30446728E-02
  0.99815868E-03 -0.13515725E-02 -0.28979066E-02
 -0.32062636E-03  0.76036349E-03  0.11422519E-03
 -0.11030710E-02  0.15071122E-02  0.14688919E-02
 -0.17278372E-02  0.15326729E-02 -0.11416180E-02
 -0.18874442E-03  0.84860707E-03 -0.18714316E-02
 -0.21228207E-02 -0.33512340E-02  0.70241292E-03
  0.12744198E-03  0.21677200E-03 -0.37744511E-02
  0.14323367E-02  0.26281180E-02 -0.35108605E-02
 -0.30503820E-02 -0.82177345E-03 -0.64876714E-03
 -0.18546301E-02 -0.72216568E-03 -0.23110756E-02
  0.96365997E-03  0.23441330E-02  0.18533092E-02