Primitive Cell                          
   1.00000000000000     
    -5.0883616347977298    5.0883616347977298    5.0883616347977298
     5.0883616347977298   -5.0883616347977298    5.0883616347977298
     5.0883616347977298    5.0883616347977298   -5.0883616347977298
   In   O 
    16    23
Direct
  0.7476937330475611  0.9630222146563949  0.2130849899315873
  0.2542589106893249  0.0390604471008548  0.7886759751432362
 -0.0008047910753550  0.5036371081142681  0.5003612865832220
  0.5002133939059501 -0.0036402789174397  0.5018921394526998
  0.5382227903676396  0.2683156050136370  0.2521204637621870
  0.4638861031262509  0.7158489135901136  0.7464779997704610
  0.7479652551005517  0.4640894017292437  0.7137321744426621
  0.2435853974845531  0.5351666861775431  0.2852200877486122
  0.2817514035153136  0.2479468053761582  0.5326040386824343
  0.0343271685808663  0.7846558213049801  0.2501337179600957
 -0.0003682041162621 -0.0004168964909098  0.0028197439835320
  0.5017863635853747  0.5025066492417889 -0.0097474958229088
  0.9675669784181816  0.2205653154870957  0.7523456386860817
  0.7335912576586296  0.7653743938450240  0.4765488510884084
  0.2125552485237537  0.7487859817214989  0.9637316436302140
  0.7851844158224643  0.2516388309709215  0.0357279478497190
  0.5441472794091367  0.5105673250284062  0.7673870972649069
  0.5376517932186786  0.2771243957442782  0.0066293388523833
  0.9713789785304466  0.9612857183291597  0.7356420303268280
  0.2640857662545162  0.9886671567860209  0.5374136258371552
  0.4625138090124463  0.7360470964316151  0.0092327184571904
  0.0602568707394541  0.2773231557407199  0.0404251216844647
  0.2295396939018529  0.2762664020561250  0.7660148323100147
  0.9871038183087842  0.5360941378638961  0.2623119991632056
  0.2719645539334674  0.0359907695708387  0.0473093273927875
  0.2377210691751544  0.7748808277072063  0.7267893881758054
  0.5103248704803410  0.7557143887242779  0.5298350069917362
  0.0054195237736145  0.4655645190330596  0.7331309450749823
  0.7696296521878141  0.2273834317370770  0.2742089498999284
  0.9515409993362671  0.7261332155820110  0.9638365237424449
  0.2238249748244207  0.4535016534862290  0.4892256000410605
  0.7262211294079555  0.2361885106673248  0.7753104744785486
  0.7555453810252671  0.5381247294130153  0.4943775831220837
  0.7263207322938242  0.9653789570098514  0.9499645188924641
  0.7392269304055517  0.0148499333701780  0.4664128379106705
  0.0318762737190826  0.0416797807658041  0.2729241802228908
  0.2744291525111551  0.7614068233653219  0.2267954485253570
  0.4883941512405897  0.2219254737556172  0.4560267137715119
  0.7642306916753849  0.7192202889107916  0.2356794249693324
 
  0.00000000E+00  0.00000000E+00  0.00000000E+00
  0.00000000E+00  0.00000000E+00  0.00000000E+00
  0.00000000E+00  0.00000000E+00  0.00000000E+00
  0.00000000E+00  0.00000000E+00  0.00000000E+00
  0.00000000E+00  0.00000000E+00  0.00000000E+00
  0.00000000E+00  0.00000000E+00  0.00000000E+00
  0.00000000E+00  0.00000000E+00  0.00000000E+00
  0.00000000E+00  0.00000000E+00  0.00000000E+00
  0.00000000E+00  0.00000000E+00  0.00000000E+00
  0.00000000E+00  0.00000000E+00  0.00000000E+00
  0.00000000E+00  0.00000000E+00  0.00000000E+00
  0.00000000E+00  0.00000000E+00  0.00000000E+00
  0.00000000E+00  0.00000000E+00  0.00000000E+00
  0.00000000E+00  0.00000000E+00  0.00000000E+00
  0.00000000E+00  0.00000000E+00  0.00000000E+00
  0.00000000E+00  0.00000000E+00  0.00000000E+00
  0.00000000E+00  0.00000000E+00  0.00000000E+00
  0.00000000E+00  0.00000000E+00  0.00000000E+00
  0.00000000E+00  0.00000000E+00  0.00000000E+00
  0.00000000E+00  0.00000000E+00  0.00000000E+00
  0.00000000E+00  0.00000000E+00  0.00000000E+00
  0.00000000E+00  0.00000000E+00  0.00000000E+00
  0.00000000E+00  0.00000000E+00  0.00000000E+00
  0.00000000E+00  0.00000000E+00  0.00000000E+00
  0.00000000E+00  0.00000000E+00  0.00000000E+00
  0.00000000E+00  0.00000000E+00  0.00000000E+00
  0.00000000E+00  0.00000000E+00  0.00000000E+00
  0.00000000E+00  0.00000000E+00  0.00000000E+00
  0.00000000E+00  0.00000000E+00  0.00000000E+00
  0.00000000E+00  0.00000000E+00  0.00000000E+00
  0.00000000E+00  0.00000000E+00  0.00000000E+00
  0.00000000E+00  0.00000000E+00  0.00000000E+00
  0.00000000E+00  0.00000000E+00  0.00000000E+00
  0.00000000E+00  0.00000000E+00  0.00000000E+00
  0.00000000E+00  0.00000000E+00  0.00000000E+00
  0.00000000E+00  0.00000000E+00  0.00000000E+00
  0.00000000E+00  0.00000000E+00  0.00000000E+00
  0.00000000E+00  0.00000000E+00  0.00000000E+00
  0.00000000E+00  0.00000000E+00  0.00000000E+00
