Ge Sb Te
 1.0000000000000000
    22.0610166378171009    0.0000000000000000    0.0000000000000000
     0.0000000000000000   22.0610166378171009    0.0000000000000000
     0.0000000000000000    0.0000000000000000   22.0610166378171009
 Ge  Sb  Te 
  68  68 170
Direct
  1.1731095596036047  1.1907646069133480  1.4990542081115001
  1.3734464403122362  0.6722254449819750  0.7302203665930760
  1.3147683389471065  0.6018208342945408  0.0726716949861471
  0.0536383193267624 -0.3287177553349760  0.9082993601782374
 -0.1261264098949988  1.2782286420356723  1.0502124049261881
  0.2692866091050301  0.3057848433782801  0.2595069743160144
  0.1043116983455910  1.5437810487997419  0.6369332986379763
  1.5064348054165133  0.6894919723587746  0.9499781836774448
 -0.2109912857993970  0.9564942240376781  0.1826768366532646
  0.2292590823002357  0.3781595929895322  1.0961623480783265
  1.5278545596611270  0.3610623530319192  0.7849859366362416
  0.2882472483551642 -0.1547986121510443  0.6791931299791976
  0.2616427852206039  0.6193188710142737  0.3180650762499072
  0.7510927549036959  0.8434116193751783  0.1273200453537232
  1.0326660246813655 -0.2430727748161942  1.5203806996837921
  0.7410770438267338  0.2190129633520049  0.4225762421223614
  1.5315807056734758  0.8130475023728873  0.2886704312103957
  0.8292353934834579  0.7233472557035905  0.9057758137512811
  0.4963710316837830  1.0931108222718129  0.0696450155238116
 -0.2550666269977876 -0.1032908453170669  0.7024869755042853
  1.3341941016845125  0.3182459667014318  0.0931623774994216
  0.2270099969570087 -0.2328398863268083  1.0139107955360100
 -0.5870705137277443  0.7839852651270939  0.5242910344478217
  0.3662304112702646 -0.2897808397633365  1.0384305712814930
  0.7563058043537038  1.1670006565462934  0.5594795643994293
  0.4611197804716577  0.3627925093677635  0.3781301843161873
  0.0898078599194094  0.7140476946006310  0.6885777424121076
  0.9302854762112364  0.5931405356680071  0.0042844346346257
  1.5990801951100564  0.9105849107317421  0.6941567099554038
 -0.3614672758165267  0.0113810771849063  0.0308798641159009
  0.0204956289815582  0.0878316087096286 -0.4219225806157678
  0.5820975422805126  1.2224246522201474  1.2864495459008236
 -0.1489057709032240  0.8093648310048401  0.5898502815860241
  0.0494022585917929  0.0404138760169606  0.7457941272555800
  0.2818019602391761 -1.1709288209368753  0.1066332145723058
  0.9661779604128266  0.7543321435256831  1.0413387776089158
  0.6951897989962109  1.3507604624239791  0.6873598205584525
  1.1537407016092138  0.3930437472313798  1.0081062711367990
  1.3968459550815884  0.6683894466125497  1.2281691748250838
  1.7250889177967794  1.5214031450602550  0.6825666914454385
  0.9129646599837659  0.1593259585235415  1.1219726396264378
 -0.0036932437068975 -0.5633351780979463  0.3913322345696135
  0.4607590549853946  1.0699539405304093  0.3381233164915283
  0.7888775587587636  0.8733122129324778  0.0055474875411158
 -0.1952135917192611  0.8251161419551959  0.2920906351118716
  0.0854769610839329 -0.1147020070596110 -0.3247922752746771
  0.6658754481362653 -0.1834835554622597 -0.0197389082677584
 -0.2176084300875342  0.1681513595866216 -0.1133481853417844
  1.4995831380943203 -0.7328330754963833  0.5372957059449761
  0.4987215695305511  0.4503687790718541  0.9199980735382571
 -0.0608527879349239  2.2442866906677672  0.3229064522007789
  0.5389803340923930 -0.0638914378655437  1.4616046062461432
  0.1485199727745885  0.5748628407052603  0.1758296537995348
  0.7642193982637757  1.2804375673577353  0.2149224897067990
  0.8362586468016044  1.0621361690087527  0.7183335758590235
  1.2321715123813690 -0.0306459828636699 -0.0176527819800363
  0.3926463821681788  1.5723209234941427 -0.1231039083375025
  0.5080693361294887 -0.0890946702923773  1.0967162698874997
  1.1659338164680670  0.2372415425277671  0.6068960358511309
  0.6453234483340238  1.4078922854504932 -0.5495774541760806
  1.6039984951884751  0.1101313159416239  0.4514480881374272
  1.4062740319375757  0.1969608963477763  1.0068555468927776
  1.4927045105464243  0.5024574311234953  0.5147477670100807
  0.2753640417313907 -0.5048959238137698  0.7366537348550110
  1.3804588106390103 -0.0691108052022019  0.2939960478915242
  0.7258116163000122  0.8040958985714919  0.8096094626115653
  0.7876890179980871  1.2770980748269078  0.7253888309226723
  0.4737452694809127  0.3212598871195161  0.2236757316561050
  0.4602042579066069  0.8423206709925961  0.8844591227180882
 -0.0220266872223113  0.1114744536991150  0.9020310145350100
  0.1880436918676824  0.5817004122495721 -0.0782850996429650
  0.6335746947034649  0.4674483509868612  0.0130415260512037
  0.0074575287515751 -0.3433248274723996  0.3323208748089903
  0.9455765995384056  0.3512050211870273 -0.2177301786959426
 -0.4288920937864729  1.0329906574078762  1.2116956714671536
  0.0347750666166771  0.5629693556204218  0.8423794924552133
  0.3767791277384325  0.4587020940588455  0.5542065366667407
  1.0521153419322256 -0.0826544735666267  0.5017021134792821
  1.1024819915902608 -0.6646763351360012 -0.5584321509873721
 -0.5197208236101417  0.1266905625455793  0.4500881340563020
  0.9903615504177555  1.2343015585829198  0.6745121230665880
  0.3142192846116666  0.0508315610831655  0.9280068905179673
 -0.3318990272268814  0.4930052336288674 -0.8165439523332438
  0.5041665295688162  0.9656541734173644  0.8275303321285886
  0.4873984879303221  0.5369465906960063  0.3283740260659514
 -0.2039144023383773  0.5853206680995946  0.3308431611203645
  1.1002467328706298  0.4275001925588861  0.6813974040481650
  0.5296744964025004  0.7634648341212499  0.1425344109435533
  0.1615233151054638  0.1869875926782286  0.1226142963542276
 -0.1070808907654955  0.9956358966502342  0.5378840040072361
  0.6686191785535595  0.7065412045659797  1.3051294062168202
 -0.4023981707625590  1.2535311218685368  1.0806280268271691
  1.2692277275379147  0.1976151239697375 -0.5769322926786035
  0.7830441941568140  0.5432460701568116  0.0675127403806277
  0.1191355779417693  0.6140510526455598  0.4442716443016304
  1.0846966246257619  0.4011392838748456  0.8609516310935913
  0.3381232835595213  1.3455581935535441  0.6112972526288715
  0.8524738481315551  0.6208369106508766  0.6229030830354746
 -0.3145111631247439  0.5054382967264375  0.5606252733093318
  0.6769759504771787  1.0677849371956005  0.7860827782334127
  0.8915089119521880  1.1590269262731976 -0.5403683123761148
  0.4674956881018939  1.0375669797994822 -0.3542691515353734
  0.8630335620041231  0.4465841479939305  0.9256882685225384
  0.9596909353396220  0.5515178240933148  0.1853984924174522
  0.9201102109802901 -0.0122255017367214  0.9079408113118099
  0.5912216379754612  1.2323385070329229 -0.0513958600095278
  1.0716442736090146 -0.2016675339650601  0.3111583425149865
  0.6710548257080706  1.9327344838446912  0.3412426060197416
  1.1549449887114407 -0.0276749410151210  0.8872466455838652
  1.0172796125981762  1.0650051590575178  1.1588449337336320
  1.0612487934980670  0.8743864565925015 -0.0881859782032615
  0.3477519103889217  1.3592885773259655 -0.1307723070554571
  0.2393465163081599  0.4807878036671035  0.5133772950501483
 -0.6447122444277124  0.6326412289803652  1.6180776600467257
  1.3885201003517715 -0.0866874910114908 -0.0260060350803401
  0.8803836873943407  0.6411551022000940  0.4517407675675169
 -0.6613303597282905  1.0364663685377600  0.6815807048826427
  1.2489193627256749 -0.7827551414212044  0.7637233969701184
  0.5713429614994973  0.6348845430700205  0.6440589576526147
  0.1435043342780932  0.9401983384910153  0.1253336091354723
  0.4484521155560247  0.4807904851911995  0.0818305487866689
  1.0765531973711089  1.0532697024414532  0.4768515448998114
  0.9142839156737319  0.1403689234876421  0.5877192196325316
  0.2551301726528942  0.7983118550476571  0.2284236046835399
 -0.3389383724984644  0.5749562504907475  0.3064507898975934
  0.8356094902005280  1.0044246723301047  0.3453166300311798
  1.4000296137239927  0.8248477146071826  0.0713252120941593
  0.9115892726165457  0.8183315250983642 -0.2207313216393461
  0.0691896003213064  0.2307890863199183 -0.1078906346081625
  0.6474621853656624  0.8101858239560757  1.5609907022363914
  1.7452950022693952  0.6942045586469521  0.6273878163051525
  1.0455176259322612  0.3400456566659961 -0.9506353658507932
  1.2042490803400283  0.4317660012103485  0.2901536431198273
  0.4411154415316122  1.2026181093478123 -0.2906828065047968
  0.2264741499546263 -0.0892809205012819  0.7794978648824121
  0.2221479754580261  0.7496001927094676  0.4725518730073849
  1.2443770270980012  0.3854149978396867  0.4155318579422887
  0.9647747108996807  0.3454457517399590  0.4838950509523632
 -0.0917991642547760  0.8742741511517634 -0.5097627977048705
  0.4468660862608065  1.0062128052513037  0.4974558647227391
  1.4754916205704842 -0.3391683803657576  0.0864467007883578
 -0.2832564427414921  0.0187753269061959 -0.3255594842618230
  0.8223383613362583  1.2673016386540370  0.5192768920577009
  1.1178362318477733  0.0847784710133353 -0.1598127727413812
 -0.4380195500437917  0.4153768856980812  0.1078879746505133
  0.8376532337722834  0.5378890673484910  0.7202861009129382
  1.3082941486141395  0.5244151369923922  0.9618620627090098
  0.2457644156079448  0.4941375189905873  0.1421636011875265
 -0.8526531101648002  0.8602326494593274  0.5693529137995187
  0.0002173795114206  0.6311897204942410  0.7361706094441516
  0.3499850690533486  0.9186736959652311  0.6076039562458906
  0.6738528279831293  0.6247649501679872  0.7235881616823735
  0.3836009781371162 -0.6968703086233494  0.4941257167700874
  0.6579286923348402  1.7418405751614678  0.0861042148319750
  0.1088510872699272  0.8294316041594432  0.0349635691993872
  0.5204143661193988  0.2424036855306205 -0.6105458769291955
  0.7934790372283267  0.2922694319170319  0.8418380275720329
  0.6557939893493383  0.6485887963612194  0.5478175274985781
  0.6240462691056831  0.1114273993302083  0.1102193654668389
  1.5466405199327526  1.8278951918463113  0.9701828150035138
 -0.5027780489891662  0.1424649052989560  0.9439993324443449
  0.8690275317152376  1.0231545760487426  0.1105417961170046
 -0.2667657475944664  1.4094285430646987  0.0947962528211187
 -0.4848437875385399  0.9593055579065334  1.3228443146999687
  1.0478615513767642 -0.3591364702734038  0.0321881129367854
  0.3516302614410746 -0.0875536346922755  1.4186078220407436
  0.6840861287833846  0.1315096846590699  0.9480724462513013
  1.1208381102026168  1.0490209199544163  0.0574568691884623
  0.2228513091326460 -0.0868155107141990  0.4049589795993448
 -0.0972597029472367  0.3621679485647158  0.3624203329682414
  0.8970753991832064  0.8534969031412959  1.0758909318625791
  1.0644833336507238  0.1986995282237689 -0.5546963977568031
 -0.2081829763719087  0.3400673015977389 -0.0111201343729286
  1.5985028275444038  0.3764823220361935  0.9014181803434405
  0.1341363777583620 -0.1900776501841382  0.1948887987397691
  0.6247377021140300  0.9349729345571774  0.1318380786109210
  0.7072229454738735  0.7276804443726663 -0.0940916207247491
  0.4271431934587656  1.3877533734578218 -0.0004675579993666
  0.6407828373685780  0.7916313220319756  0.7042726381383385
  0.4288564414221993  0.1629432155966292 -0.4162867565029043
  0.5899596070581185  0.5522270836638865  0.4131495808366121
  1.8751158353482560  1.1515441869835066 -0.0280450255293452
 -0.2070975397339283  0.1912352697393097  0.1118914096148126
  0.5327648213827457  1.5535910392522705  0.9603708711694362
  0.1010122715848678  0.4909715468676049  0.9670872415640500
  0.7493234493008817  0.5215266848718276  0.9374098790086209
  0.5403871766705343  0.3903725065103747 -0.5009827818169742
  0.2502587150483770 -0.0742774275113771  0.2703352000800318
 -0.2110906330876189  0.4726142393663204  0.3997703911149705
  0.5303406156290946 -0.5837759985815641 -0.7099987699740982
  1.3912499877937541  0.6511698885396017  0.3567663322421238
 -0.0422841428579344  0.0261782087915575  1.4246524981797175
  0.9137103414315459  0.4829490513817459  0.0535714110298553
 -0.7325451268575141  1.3440752287095576  0.7698400749370730
  0.8852246744767535  1.3212394097319187 -0.3295722197624875
  1.0746186861532081  0.3723735455340777  0.3197601598772097
  0.7349109237652118  1.0364937866286994  0.2533981836742552
 -0.0150175502924850 -0.6754596682769732 -0.0706379391889532
  1.3881018165922598  0.2762020763287826  0.3032922901199397
  0.3876949968262743  0.4860688652032897  1.3953001879038700
  0.3005557551636903  0.6057416831509423  0.8010290036917164
  0.7165197749031620  1.3757190535083588  0.5658205700768008
 -0.6069416105887401  0.7078430408998834  0.9177683708619155
  0.3835138570888300  0.7881472929158754  0.7469297743637028
 -0.0387935237186138  0.2658927389979858  0.1990415318755224
  0.2836270567865470  1.6680847715542513  0.1841472799344502
 -0.5252499106447888 -0.0907345693254010  1.7182107594373333
 -0.2119431184890946  1.0539084444151510  0.8476541799313931
 -0.0303137756227742  1.7617246874448658  1.9100800412031995
  1.3007271827043831  0.2284036575139071  1.1660148973386324
  0.0793888997207919 -0.0921286153004184  0.3748307547496839
  0.2786747696320496  0.1934186607426106  0.6427549267838277
  0.4532495844852263  0.6601139675499036  0.5417391555940032
  0.4492518001847204  1.2813911521016146 -0.1526683368760779
  0.9996400436052013  0.9362624756603247  0.8026916925505296
  0.7772086635072547  0.8965589945908645  0.4023588816632106
  1.0777320796326160 -0.7070177381938408 -0.2254550291683581
 -0.2142577386453215  1.0825019803037077  0.4564905384022336
  0.3341688200195145  0.5079401967429145  0.2793797296988388
  1.9981944408393144 -0.3645065738115815 -0.4875558162769943
 -0.3295254644501148 -0.1605874360270358  0.2452642918195672
 -0.1662633037601131  0.8640137503130463  0.8842730394116655
 -0.0078253810552007  0.9437769291614305  0.0011040000457505
 -1.0052532299285843 -1.0138704772788056  0.6311226197563580
  0.3616820451929129  0.0906314231401625  2.0500711819422257
  0.3448887287340979  0.9705577204340297  0.7918831353544414
  0.8511435950230984 -0.3248773560529782  0.0444221173192438
  0.4978389995467001  0.0987102734714852  0.7647439463423791
  0.4969169123467414  0.3337077607620871  0.6447001137462751
  0.1970506654336519  1.6365103921926667  1.0446757969761140
  0.1403158777874189  0.3201301271994471  2.1578216964318568
  0.2776134389011263 -0.0488253471131032  1.1370091548917631
  0.6536356937343180  0.1355835127353919  0.3417244020443417
  0.9977004933869081 -0.2206858283180679  1.6406376722250609
  1.2287493946095778  0.5512343996719185  0.6410165591823623
  0.4789319890037671  0.6202087581782321  0.7675307292805927
  0.6325210371478266 -0.0556891350371495 -0.1809876511874214
  0.2016520779979394  0.0758411664479391  1.5319312309866284
  0.6485753605665271  0.0034681107608105  0.4853248214938157
  0.2495471559392248  1.6115424558252083  1.4437659071925186
  0.3465388678876001  1.0546612853406991  0.2993082173781644
  0.3007991965840716  1.7590348277997256  0.5911923584553951
 -0.1171327655532451 -0.0904081272686728  1.2535708150547455
  0.9054230261613516 -0.2742630668101017  0.3547864921706973
  1.0765866523596705  1.1601426442975380  0.2208996788187299
  0.8675669675297454 -0.0923738869252784  0.7000467501340266
 -0.3608705783556266 -0.1737877336473983  1.4267646623660339
  0.1065007144194464  0.4971447192712137  0.5117479909680691
  0.6516779063139821  0.5743354106422695  0.0821581252173598
 -0.1974968016977262  0.7294329596657164  1.5057217916700611
  1.1659088941853470 -0.2794306196187279  0.8886105199352442
  0.3525755023921244  1.1484943526558458 -0.2168260184825026
  0.7541012618400185  0.8866067115162626  0.5797565697653714
  1.2103300259333489  0.3702934617533435  0.5844452426339874
 -0.1752041181593287  0.2236804153209714  0.3041573429765335
  0.8094975293846020  1.9888473496153676  0.0054023916946438
  0.8191372575316469  0.7273016977750715 -0.2273250351631262
  0.3667641553942069 -0.2300785663635349 -0.5943776138462227
 -0.4940445074058009  0.7918057159181128  0.4141277161437646
  1.0983829864861994  0.1403268948748230  0.6490559918910305
 -0.1762807965806121  0.4123217115465820  0.8051318296328706
  1.1461359486020304  0.5499584087814826  0.3057270049667196
  0.3030607658219772  0.2545770950912337  0.9705061458120955
  0.4218279225937135 -0.2007644680295958  1.2345892666999581
  0.8664087651624960  0.3472104990616029  1.1682229979401877
  0.0629969663834802  1.2081490956372301  0.0354885231914290
  0.9930612033395860  0.4638558850164351  0.7419189514035012
  0.6679253646239842  0.3104429634689622  0.3745692430024243
  0.7350503579403888  0.4012665811189035  0.2989290645864527
  0.3900230286975244  0.5128109137748490  0.6716998699841437
  0.5497206648438004  0.7133038117223678 -0.1824774482430758
 -0.5236987966806786  0.2395265797752809  1.1073046474873329
  0.8027989677190324  0.5149199321613536  0.2170431810697916
  0.8348009290427215 -0.2293063832601231  0.1700992186159309
  0.7515046832930320  0.6732544977290296  1.2170694968596720
  0.0484951620725533  1.3281939912057772  1.5970929026466854
 -0.8201361477478064  1.3174143014815787 -0.0961107765485201
 -0.4074736843064986  1.2732888528505781 -0.2962425598194693
  0.7586807724591859  1.1667935521290824  0.7030823539282683
  0.0659494785542518  0.4931509190947754  0.1481811534502465
 -0.0947205623192590  0.5740468871563912  0.8813430853562475
  0.3891895546803675  0.3980268200432049  1.1749585946018513
 -0.3252033701967941  0.4418038100101225  1.7563337808530630
  1.0234594508093038  0.6694916781000555  0.2006128407764300
  1.4951390700098324  0.1433594306091791  0.2462606362485033
  0.0552641086964846 -0.0420725267037670  1.2142519756681316
  0.5424376422044107 -0.1223002577126547  0.5796478034776513
  0.5178647129202754  0.9910459815514482  0.9977619643016339
  0.2056733864621998  0.2197072724544255  1.3126029205697827
 -0.0587976493540636  0.1196843845855067 -0.2192473288674207
  0.5562148805625043 -0.3077353984256569  0.2504650782625720
 -0.0606657126323541  0.5392616536284748  0.3223748392122341
  0.2768094812460398 -1.1357904582659493  0.9251788235129693
 -0.0867530460954888  0.0954245038403526  0.2284277465385216
  0.1231986843722803 -0.1952560195360705  1.7679786989341131
 -0.1833591313290169 -0.4743764122131309  0.5295265767114664
  0.1616496034331656  0.4996226004884550 -0.2134793784636264
  1.1373745003773674  0.6946843336050852  0.5608692354611180
  1.1729910190303221  0.7309953395280091  0.3522068473974674
  0.6448494566180828  0.2079704108244863  0.5202685862764413
  0.4478317759501761 -0.0003607805177701  1.1726881824987709
  0.2305386946570515  0.1462651242886520  0.9211010677169935
 -0.5707687988298271  1.4536717165307294  0.8163291297041684
  0.2680813515591716  0.0684506367395008  0.4157794801930760
  0.5621351179980175  0.5062164923856839 -0.3801040723858577
  0.1632353625675543 -0.0146502695939168  0.6972684631613983
Cartesian
  0.0042607694569197  0.0017288210173865  0.0003178130825218
  0.0012374423975790 -0.0014047557751097  0.0014073926125128
 -0.0002729711677005 -0.0008308991008858  0.0010405390380378
  0.0005644000023126  0.0009224856702601  0.0006360227977150
 -0.0021730399498890 -0.0012274546868451 -0.0007807004516957
  0.0024175102729580 -0.0002484847386929 -0.0027365730690981
  0.0025944037799546  0.0006100400636432 -0.0009283200457849
 -0.0028003425927663  0.0008823341006554  0.0004037531359124
 -0.0013045269973492 -0.0023746595435128  0.0016258413986795
  0.0008344150270270 -0.0012597392221131  0.0013797666036735
  0.0042225222993657 -0.0002585385156347 -0.0007714230738588
 -0.0004094344843530 -0.0001548793953135  0.0013088427944587
 -0.0004703254766811  0.0002430302323128  0.0002074038678700
 -0.0000577177207758  0.0005851158483761 -0.0015336237044455
  0.0006314369310926 -0.0007503180083502 -0.0025027082036640
 -0.0004398583573124 -0.0007348118632656 -0.0001096774627098
  0.0006228946604861 -0.0002708819777882 -0.0008524544146781
 -0.0027629262378091  0.0006322455837074 -0.0005685231606509
  0.0003453094692187 -0.0034339575068663  0.0020589766032689
 -0.0018945811945125  0.0008764097066922 -0.0010394235116129
  0.0008708529951873  0.0012945706926532 -0.0001408049534787
 -0.0013025040374313 -0.0012327672184398  0.0003308452405473
 -0.0007395969618122  0.0001534953615571 -0.0011392009524384
 -0.0017418308883616  0.0009330520570189  0.0015851912887688
  0.0011134612486446 -0.0000437872292585  0.0004623369584062
 -0.0012435790350525 -0.0004257556198647 -0.0021755802311164
 -0.0005347774290426  0.0006706222125987  0.0004049484023547
 -0.0031487780059098 -0.0031562974171599 -0.0004662019974829
  0.0022812979189619 -0.0020836522117912 -0.0012018020004224
  0.0003067424013669 -0.0014913914959965 -0.0012656362781201
  0.0007673720906098  0.0013874880463618  0.0027046670271203
  0.0021914604179919 -0.0015632520898165 -0.0018638952298660
  0.0012762244197900  0.0003587198308576  0.0041191180774208
 -0.0009936790858961 -0.0000334409663729 -0.0008571642379057
 -0.0000848466997201  0.0015236247851014 -0.0009975828722851
 -0.0020019702246351  0.0023852186179956 -0.0009369031778238
 -0.0019877127540495  0.0005436287183448  0.0010637108264084
 -0.0022315730587361  0.0000976690921080  0.0035730126520936
  0.0006961918525152  0.0004807502227079  0.0015642430259223
 -0.0016520377833448 -0.0033590942160904  0.0004323295936101
  0.0012053036155598 -0.0027187285882102  0.0010986682076992
  0.0005119048851551 -0.0016665744593563  0.0002785560543768
 -0.0021941835338768  0.0013474210067255 -0.0000156070400804
 -0.0009178923412619  0.0052898982865637  0.0010447286756562
 -0.0006059206209473  0.0010246143562633  0.0019990026275197
 -0.0024502173643708  0.0007045224623203 -0.0016144646182852
  0.0007821127798508  0.0026205286029302 -0.0016837175282792
  0.0030758917219253  0.0017914354816144  0.0004496371886844
  0.0017262294845385  0.0016691651693987 -0.0008506152398217
 -0.0022145667724635  0.0026584293912314  0.0015787152848015
  0.0010436023331654  0.0028411060170551 -0.0023151345608088
 -0.0010631397193688  0.0000636524219978  0.0032646538694779
  0.0040604787773458  0.0018397179318612  0.0007392047271671
 -0.0018026280828432  0.0042005483184173  0.0017367155860176
 -0.0011617174758483  0.0014945024097650 -0.0003371463138118
  0.0042116420597635  0.0005242249584776  0.0057115892415230
 -0.0020254761641528  0.0023250073705492  0.0031485324619769
 -0.0012479843493390 -0.0009363992887405 -0.0028373992775825
  0.0019997224764309  0.0041410804859910 -0.0016361716163222
 -0.0011128417150649  0.0008297688426196  0.0010317243258128
  0.0018686396541666 -0.0023469046107598 -0.0021402640017609
 -0.0003872034849080 -0.0016324032988313  0.0027347242932626
 -0.0022874955614754 -0.0017641881840701 -0.0036131094479328
  0.0030708822419443 -0.0026800303458871 -0.0010231793675400
  0.0010781718086968  0.0003234841786017 -0.0024631108210661
 -0.0010889143793375  0.0003908012204628  0.0024156619783421
  0.0021898122088545 -0.0014744824626187  0.0013678138852767
 -0.0024763780720803 -0.0001449468851952  0.0050080734442761
 -0.0000233276227277 -0.0001777057165642  0.0005942853730249
  0.0009011915734814  0.0011333431460360 -0.0009389854522569
 -0.0006653661708237 -0.0007300175344065  0.0011431977924043
 -0.0007864785392500 -0.0000108571721730  0.0001160294974924
 -0.0003517515607053  0.0008750946843974  0.0035733154329538
 -0.0002016984509172 -0.0015827252642619  0.0010734249297809
  0.0008222727388430  0.0005116203257411  0.0017536678481182
 -0.0001374729687392 -0.0023473294035926 -0.0006611597661022
 -0.0026352399048989 -0.0009741115472431 -0.0007060196735595
 -0.0015840367391787 -0.0001558390119698 -0.0007585210774337
  0.0031888686018071 -0.0006759236734727  0.0002320325448866
  0.0005662584502697 -0.0028171349010243  0.0013502500711789
 -0.0016663223729005  0.0024056878090344 -0.0001054790410314
  0.0008939702191026 -0.0000549018246576  0.0014257490589443
  0.0003164327280766  0.0001723656783146 -0.0017405309903971
 -0.0002324516714739 -0.0009702598387564 -0.0004148879874256
 -0.0009172578466149 -0.0015473933402654  0.0007093536247850
 -0.0008203113585376 -0.0015875597735888  0.0009299884721620
  0.0018303261161639 -0.0007295103201393 -0.0008249050132520
  0.0013508904637053  0.0009397434079388 -0.0016545697519889
  0.0008667815857744  0.0005384791830978 -0.0003986691325570
 -0.0011341483233535  0.0012421495251833 -0.0014762096773921
  0.0001417376060449  0.0013964759855303  0.0010969982974011
 -0.0011154660804960  0.0003721227800786 -0.0015352454126551
 -0.0001948165360187  0.0000474215511060  0.0007612793402117
  0.0013517814977188 -0.0013927879662415 -0.0017896520800072
  0.0000037552620916  0.0000761608317607 -0.0016755996182627
 -0.0019958127855328  0.0012957694134414 -0.0009576664804679
 -0.0009726048476299  0.0011808197385883  0.0026415561102022
 -0.0013317098443738 -0.0009630446959438  0.0009870789889221
  0.0030392145879130 -0.0031438719564296 -0.0021597159669006
  0.0000980406165660 -0.0002762694855563  0.0019007836474158
  0.0018663259706201 -0.0015354758882748  0.0012268130704999
  0.0018379710161934 -0.0005650423212644 -0.0025195536217402
 -0.0007116048077748  0.0031163183783534  0.0018360548040125
 -0.0024381066585236  0.0011608536440139  0.0012525570972055
 -0.0026983468137173 -0.0005422773598873 -0.0010809854978040
  0.0006335150305558  0.0019298330321603 -0.0001664904105796
  0.0007986476907322 -0.0000158949940249  0.0004306833087012
 -0.0001537276182183  0.0008337730575118 -0.0001491636530357
 -0.0019797718007809  0.0006923243600160  0.0017790920574789
  0.0022826525814014  0.0004361468949370  0.0005963603951113
 -0.0000523302050648  0.0013186790923438 -0.0030356496628360
  0.0024777927228622 -0.0007607805122677  0.0015127252218981
 -0.0009374116891726 -0.0024918519360075 -0.0018026328496935
  0.0014146816443087 -0.0000987991592822 -0.0024191012349943
 -0.0039188120159681 -0.0003216515635999  0.0003487825726517
  0.0004089578639741  0.0013804231285839  0.0015876057643791
 -0.0022135264418790 -0.0019437765036717  0.0018814106381094
  0.0002286214629698  0.0011353588368124  0.0001424818097954
  0.0017511390457887  0.0007252045043359 -0.0034144174330021
  0.0001116895426102 -0.0014215515874631 -0.0009835723875840
 -0.0006020301847355  0.0022312097023477 -0.0000812343658791
 -0.0026015710047405  0.0000700195751470  0.0004841757390867
 -0.0008233300952063  0.0000255969003038  0.0012200645248833
  0.0009428418655290  0.0011393244648319  0.0018690429962921
 -0.0015513752074802 -0.0010436467463022 -0.0015923629809690
  0.0000928153194131 -0.0022299763913142 -0.0019334975790032
 -0.0005781526563574  0.0004772071892285 -0.0005080445321570
 -0.0036899923980233  0.0006882410823229  0.0009910097283212
 -0.0008740417349437 -0.0002752816205087 -0.0000196445133579
 -0.0014365677840708  0.0034618534024697  0.0024047244823127
 -0.0001789030108968  0.0009514194355694 -0.0023349264330492
  0.0009825758206148 -0.0018293013972518  0.0014950243616301
 -0.0016839674884469 -0.0005242322272916  0.0018376796547609
  0.0000714170752198  0.0007684732099474 -0.0023133402906580
 -0.0004206526829975 -0.0012361833613784  0.0005441061414802
  0.0032439208400993 -0.0017285191445990 -0.0005981626117227
  0.0007516244116491  0.0010904333928488  0.0012500324757609
 -0.0002007318768111  0.0005975435158768  0.0009151337777519
  0.0009380846862553 -0.0004737934824054  0.0013254197012461
 -0.0010285438126154 -0.0015362754715140 -0.0005811123395635
  0.0027345669014167 -0.0011865168970358 -0.0012143123189585
 -0.0011788742573451  0.0028011451208615 -0.0025566675258928
  0.0014170309643002 -0.0023198614896349 -0.0007780823375124
 -0.0021151576980031 -0.0016062733918015  0.0001019606242193
  0.0008547539934159  0.0008320391254875  0.0011812086583004
 -0.0015806126465230 -0.0000247175971351  0.0001104802432550
 -0.0003278456180413  0.0001841737876673  0.0016140147393523
 -0.0008631507159431 -0.0013209920880425 -0.0001876734200707
 -0.0000717545204665 -0.0005278986748321 -0.0016613884024151
  0.0008612538626848  0.0030453496192319  0.0018511256205745
  0.0002195448756996 -0.0036032453201991 -0.0000171475740148
 -0.0007203614913922  0.0010134878540172  0.0008136791078694
 -0.0015351884294493  0.0013342516746716  0.0013108398627569
 -0.0023725792218255  0.0018099874169262 -0.0011810618424531
  0.0015254282370253  0.0010259238324600 -0.0010367686163755
 -0.0003151900519586 -0.0012708647855479  0.0005373812161614
  0.0008738559060982  0.0011594797322948 -0.0007474563010469
 -0.0014481275944372  0.0001765740755046  0.0011654887092248
 -0.0005247735591255  0.0000895079785957 -0.0012631929501232
 -0.0006612687626539 -0.0016807880555726  0.0008061710925270
 -0.0002838103806092  0.0006698860054461 -0.0012632049815368
  0.0004130479892389  0.0001303878723034 -0.0036879670936936
 -0.0006934972715259  0.0000329946646801  0.0009661466121818
  0.0000038305491917  0.0003099593081485  0.0015714189111963
 -0.0005951326381465  0.0013854715517432 -0.0010479163097411
  0.0008533239223488 -0.0015609807397786  0.0007512693709006
  0.0006505085767107 -0.0009991680034062  0.0003961385957275
 -0.0001665202907698  0.0015932046945422 -0.0018016389791266
  0.0010805710998742 -0.0003290317880590 -0.0017055640471317
  0.0002530513348815 -0.0010883987156050 -0.0015976900308534
 -0.0017082654657211  0.0006846199560426 -0.0028507188857135
  0.0000631510164220 -0.0015545613264090  0.0023442620685607
 -0.0036807702922454 -0.0021393371055584  0.0007353488679565
  0.0020375037829451  0.0018037582586226 -0.0007009862520236
  0.0005490530775527 -0.0008935916196244 -0.0009075336640678
  0.0006938270932471 -0.0012685613444781 -0.0025943273827169
 -0.0003475758012455 -0.0011551136826574  0.0016579645974629
 -0.0002221123178563 -0.0005259054320615 -0.0023176181969667
  0.0003694618545231  0.0011922129484165  0.0002128808979745
  0.0021891940386540  0.0009741657179618 -0.0027367087640247
  0.0000956064404653 -0.0023283744779972 -0.0000145988236494