Amorphous Sb                            
   1.00000000000000     
    22.2283632703415037    0.0000000000000000    0.0000000000000000
     0.0000000000000000   22.2283632703415037    0.0000000000000000
     0.0000000000000000    0.0000000000000000   22.2283632703415037
   Sb   Se   Te
   120    90    90
Direct
  0.5773678129763360  0.4602624046491716  0.7722545993399944
  0.4625128719558805  0.9313977430902312  0.5974441829435707
  0.5251799859415398  0.8498622326037256  0.1679516424358611
  0.7053430058851555  0.2321647348702402  0.0807921144618739
  0.1334806816660273  0.2721445269835232  0.7169961016087639
  0.7261100164332254  0.1901803199824522  0.7625959309846895
  0.9162663466250671  0.8271640134747735  0.0948069054835857
  0.6745238866785234  0.2824967981085804  0.3295976861814342
  0.4110425387077244  0.3214417473205278  0.3297326146939207
  0.1994135675540699  0.1117743915396615  0.5019961952704834
  0.5866801812242792  0.9678933029492399  0.1519557895477781
  0.4572759235953501  0.0832050222904200  0.9699188600552430
  0.0731883245761551  0.7960204901176644  0.1669093961044888
  0.3938023431452453  0.0047765074386135  0.1694514504292771
  0.3453847567199290  0.4550976685556851  0.3872474395216638
  0.5193030720612654  0.1734943883732756  0.6122605612739387
  0.9851905417376549  0.8456111481060201  0.4231187610942810
  0.2149705479778333  0.7138039982455473  0.6074507959268057
  0.4992904986692527  0.1343950380003123  0.7849339797604185
  0.0010576974259195  0.0653058173128952  0.2349672119064387
  0.2052024419758477  0.8836919601819796  0.3577752481288467
  0.8552818069975174  0.5406282769749229  0.3374812419073099
  0.9794448641737880  0.4598147950973193  0.0319167595695338
  0.8145557396556564  0.0756818293751634  0.5693074423669829
  0.8031716166949480  0.6401072388169801  0.0304556021692250
  0.8877920858688426  0.2451739008938801  0.5049091394279390
  0.5276146318276710  0.4196713963066170  0.2513603925303316
  0.2253766938114315  0.0065622643796009  0.5781302633126348
  0.5746767967963955  0.6688567743080193  0.3663648376058985
  0.1490085660334770  0.4677606321046350  0.3354590582858694
  0.3978852257521754  0.5526935103239807  0.9373904366175482
  0.4761404212034568  0.7833792708756302  0.7490396881679968
  0.3274097182864956  0.8882772129077007  0.7631153864412126
  0.2462781792068146  0.7812543961722452  0.1107431123034110
  0.0639268768252378  0.0948459456967077  0.8586072478030295
  0.7141342906904726  0.6872061291016127  0.3396843213354948
  0.4100883261681162  0.6964174888174277  0.1519139720285797
  0.7029966424516800  0.3213945135468992  0.5170311270716245
  0.7803791953605081  0.4038928115268606  0.4234007754801618
  0.5835769159267207  0.4361866165194961  0.4068123824569611
  0.9426563891736434  0.6144040007053239  0.0991855697550363
  0.5426361790010695  0.3876268335664287  0.8776640911906584
  0.9553044396913957  0.7217086885020677  0.6614761650543031
  0.0453533438302536  0.1723272720341238  0.4559553921434035
  0.0156151064459861  0.9358872488766172  0.9458043316134379
  0.9603198547771887  0.2421686237398559  0.1477687068698027
  0.2790031493087192  0.5815161460327450  0.0897986810570448
  0.4043406221159361  0.8730857618498671  0.9910797986363659
  0.0834916920709060  0.6567200842713949  0.0314050372941793
  0.0990849144454444  0.4549533159567127  0.8657295674511609
  0.3489242502986232  0.0272842123529916  0.8394584315061705
  0.6881186332084163  0.5647284819432209  0.2545780929837028
  0.6784685659504657  0.8656876597046070  0.4088321933514563
  0.4965636513460448  0.8653537847569429  0.3807596496565263
  0.1781978292023175  0.9816376979380140  0.9641867284463062
  0.6102553094609778  0.9928772474157753  0.9567832086888246
  0.2703106696841330  0.3434796042021798  0.6031997099037776
  0.9691775908346678  0.6619345673016318  0.8190795381974518
  0.7915930011048052  0.2271949484794223  0.3612770010102596
  0.1460666772177497  0.6927126028364508  0.7395253515222537
  0.6873811091760265  0.8440949760074549  0.9237532585668138
  0.5252266488693720  0.5251219580915042  0.1668388811691648
  0.8799632264100713  0.9628561592291217  0.3317764295170674
  0.7271266986314130  0.6328919542564193  0.8036753957127255
  0.7728658347932517  0.9780360503000063  0.0372320668648091
  0.3296570388569406  0.0509075335807373  0.9682915571309033
  0.2011613413600925  0.1606331078896794  0.1116767348870585
  0.1874335475919695  0.4652217368289918  0.9683508908712402
  0.6784630741713478  0.7230681885764685  0.1164954745923239
  0.2710179550887860  0.1611051900911930  0.6728976376118129
  0.8110153288589175  0.7706775182038942  0.5607919827366131
  0.5210256554252586  0.8279071186326976  0.8663552305496033
  0.0940368739796444  0.6386568389002266  0.8526871427321816
  0.0135684004668644  0.3880940509835336  0.6829829583603463
  0.3789397318374515  0.7387083329759803  0.6151462715596845
  0.1799458946857273  0.7437788897884754  0.0004184989741458
  0.1251327336653764  0.9643126275998301  0.4977526597217388
  0.3123589225877424  0.8746795388974583  0.5181851521306685
  0.0162168819720959  0.3465915409691082  0.4520340974437002
  0.3314480128815048  0.7807225579265593  0.4281203750879454
  0.7419067838069167  0.5258636703244789  0.4660778709168669
  0.4566263822113344  0.2792107304765600  0.1492556635650554
  0.7084432094344598  0.3399853358285123  0.9401052763854630
  0.3320268574909002  0.1685596682996059  0.2561347256828705
  0.5182779415518870  0.6542552964289841  0.7798045004505957
  0.3656128312862890  0.5442981810154336  0.6167594674282878
  0.6986689401057459  0.6172438251132581  0.6063787874653707
  0.6592308023912292  0.8333743630404382  0.6659565661582004
  0.2054736998408521  0.0277432331214570  0.2395055719541218
  0.7579383223873833  0.1541414709185071  0.9735313921121931
  0.4166409321358855  0.1620168939677979  0.4647994820007336
  0.9730093020633174  0.1560349909236575  0.6477882427893369
  0.8032424478291996  0.6786217757717817  0.6520603451963330
  0.3885809402144552  0.1737611009343401  0.5934233285149966
  0.6689693525748152  0.0960540051930334  0.6463891974505294
  0.5339968355497865  0.5903724229502381  0.6634503856242627
  0.8116052094046124  0.8281116071393019  0.1743491847647477
  0.9639939329807590  0.0081830404805762  0.5090883736262473
  0.3103083913500678  0.3760858388236820  0.0727596253481184
  0.4341895438891828  0.3662489153142573  0.6409935416548570
  0.7713328161033302  0.3434187647963531  0.1118024934699129
  0.0358609607248357  0.7638416527435731  0.5615213408339064
  0.9955907917509842  0.6698980150559836  0.3080518749436080
  0.0442911875021454  0.2236294817952630  0.8840552641150714
  0.2511797499818134  0.9017344099393922  0.2344862565906368
  0.1257744563645265  0.5857634443020052  0.6635315568284469
  0.1326054223769262  0.7345676291999090  0.4177126004192995
  0.2154497372376526  0.3047179585965271  0.2049700100566697
  0.7808589818551428  0.6377880894161679  0.1939971341495851
  0.0730729558440429  0.3951831577035504  0.1528991842051143
  0.8605145070782425  0.5349048694605640  0.1642413608664977
  0.4380323553241127  0.8213457542223224  0.5274686526053874
  0.8575476748960313  0.3385860106500386  0.0090795319039838
  0.3071281680605114  0.7203624905445408  0.8722352549079220
  0.5087762580608217  0.2016533619975856  0.0518170767135478
  0.6173372412316206  0.3890637868264673  0.0804226864591746
  0.8570004122103739  0.6920181620785810  0.4507354627589865
  0.2838672019701940  0.5539201237982846  0.5114692816104861
  0.5643866994157183  0.5580302219229889  0.8571581936379494
  0.5787195814901887  0.1084949473073682  0.1170194047212445
  0.2157310049117446  0.4102666132248101  0.1459470040105008
  0.7369622112402709  0.6969570845591780  0.4558653236204389
  0.4208562093602095  0.8492288731448574  0.1132593844722532
  0.0916176141877180 -0.0003406184761614  0.2036831676289456
  0.9952618925436427  0.7216037782794904  0.4509231491213039
  0.6633168183605638  0.0687455348764293  0.0330191931882920
  0.2717720183723856  0.5482025681956230  0.9087758167801522
  0.0881720696167689  0.2798620643045908  0.1717159537076615
  0.0106341599782740  0.2818234225557347  0.7322094092674034
  0.7751853685688853  0.0560636377972551  0.6792888332857543
  0.0445486395554204  0.5352500431788731  0.9330274943268984
  0.9672137763723662  0.8650402563333482  0.5421360793704306
  0.3059216506099882  0.6914637694087806  0.5271001570245929
  0.2711979409732594  0.4380939273448188  0.4769548171204833
  0.3746403317174111  0.5639100527141138  0.4343327041812233
  0.0196025493312096  0.4390533383678387  0.5265835387163528
  0.8100941113314744  0.5233563225536362  0.0551147909549004
  0.4457836556591615  0.9003203572477216  0.7402886508724675
  0.4591495727051251  0.3271526611809328  0.8162206563832261
  0.4777462450699783  0.4955617801333224  0.7145041954354002
  0.0225407085837027  0.2592720657737947  0.5359291436147059
  0.3756657031225314  0.3096534913412674  0.5547625707596403
  0.7470540890150558  0.7576994996180482  0.7197804861157039
  0.1371919566998529  0.5435026980829910  0.7954306794591813
  0.6287756159566458  0.2934685573911987  0.6083961060607167
  0.9315210048260737  0.0458980133893308  0.6249556474244088
  0.1320228752985229  0.3482804728186150  0.4254070557844646
  0.6476672898056280  0.3391883952312833  0.8366876240413013
  0.5272632787283017  0.2270118542177081  0.7167612855210432
  0.6216213279837183  0.2909710531143677  0.4341574116296009
  0.5198612287417723  0.5158393991254958  0.9635343059637494
  0.2924585707754676  0.8288530046101301  0.6289004636164651
  0.0046575003799248  0.5701379212952263  0.6432150206043418
  0.8984600669828927  0.8273295442661949  0.6630842167670480
  0.5622863042484110  0.7651961007991319  0.6676557968872158
  0.6773815189642736  0.5670982800762727  0.8871969200515528
  0.6296899084809973  0.8905199541760758  0.0186939863496737
  0.5843298014457282  0.9320852399760744  0.6048233111424854
  0.1709050060079569  0.8731396790469821  0.1468339566970829
  0.8175209927120750  0.6440820897495005  0.9137165180026163
  0.6632496746783956  0.7322667837811550  0.8157130230414537
  0.1189889508921591  0.5409435465751732  0.2457227328997695
  0.3790594392371405  0.3716177525816424  0.8765196424931698
  0.9847021836588461  0.9729671391514570  0.3826155653354577
  0.7764797847054691  0.5317233236535422  0.5800298272240625
  0.0364190213999920  0.5411500753515511  0.1022726809349051
  0.6217234895678525  0.8893047108378362  0.8367047308079094
  0.7576554922796676  0.7983631025888397  0.0727392593416682
  0.3287991799965145  0.0891668755860767  0.4375666763660589
  0.3192985672121889  0.7703104543842768  0.7659169990298190
  0.6569285876901594  0.1803286590259188  0.1738803027239102
  0.1236013862809165  0.6492331561562684  0.5586358211125936
  0.3576834262217162  0.5018988174393147  0.0473015953109206
  0.0907837279361692  0.9618426263356371  0.0400393476721186
  0.1759513682909379  0.0006291728834178  0.3985641916327351
  0.4125606198525352  0.3998803010425487  0.2405987116136960
  0.8729599538340095  0.5718782699461773  0.4516958124725305
  0.6896858089219798  0.7916856660689261  0.5608469480809769
  0.3696394697318962  0.0575888092217311  0.6236934464243331
  0.3824201814579998  0.4768522227848558  0.8456654894516916
  0.3232278807155596  0.9092259993280448  0.8788034447933567
  0.1538746897926312  0.0999977171590846  0.9522798017760741
  0.8325575787346770  0.0804636603019340  0.0261245707626857
  0.8593594203732480  0.2239599911995423  0.9783000137433484
  0.3265295625965949  0.4263886023766825  0.6676924619031517
  0.8112848576568571  0.3929911233106165  0.9171452612640688
  0.0420546275449343  0.1607876937731141  0.2895831074232011
  0.5639773538658176  0.3248929446102971  0.1903939183187578
  0.1204834025847689  0.4733193966538067  0.5151795105780349
  0.4501148628729481  0.6308209909708883  0.5854204534916225
  0.1948096902946956  0.1698439151246570  0.2281749379175725
  0.5061758405342501 -0.0001647080852223  0.0390255921170712
  0.9752230319881696  0.1230286878538277  0.1292447930088739
  0.4967809948597637  0.9700368019839676  0.2302326404630105
  0.7701432086888808  0.2125262508302984  0.4774335019252222
  0.2169530363400143  0.2044638200264549  0.5757799648989249
  0.3832769885249463  0.5858719693608720  0.1873597138353540
  0.9527349119542333  0.3966765736649023  0.1332155291831422
  0.3331119913117364  0.6830020137875867  0.0590428854398568
  0.6545499780202070  0.4372880087057648  0.9760441628166063
  0.2374618051974079  0.7557639695840884  0.3573629617474799
  0.4438732217967374  0.2225392885600932  0.2750700154892089
  0.9900556433827027  0.8851479808985837  0.1657261271560352
  0.0830529160579401  0.0991305996736684  0.5400721687887519
  0.6048028137396767  0.2733902989013228  0.0225644070730927
  0.2218366052977238  0.6122473620159173  0.9805396305070093
  0.6687277679717687  0.5735998766819347  0.7134400884273647
  0.9787998168248200  0.4457301993522305  0.7828176654511037
  0.5294433450172468  0.2876188109478210  0.5651622631551182
  0.6862580072190821  0.6542525825563026  0.0215844849277354
  0.0825113279466152  0.3855867166737085  0.0146787034788266
  0.8791498789975982  0.9081413691674673  0.0029808794547166
  0.4000000375548846  0.6202796383348584  0.8104557731757186
  0.9695370302620603  0.8607039765546289  0.8231841907016271
  0.4763734765007885  0.0514769029144324  0.6830697821254758
  0.4723062780129564  0.0067854654963439  0.8657536205256872
  0.8902885482351208  0.4172031662226416  0.3627574817596440
  0.4680729951474907  0.4031989727080537  0.4587088443823966
  0.8392846863230325  0.6840209722432768  0.3041147392175794
  0.9625961740830555  0.7072355783007553  0.1848164173755014
  0.5917371062808032  0.7297807434441315  0.9113702622106027
  0.2891794095582759  0.8853586727072510  0.0436144722024258
  0.0820407454874856  0.7961241947513275  0.3180879050255171
  0.0749356209832991  0.1084244213276871  0.0479758032367373
  0.0621874830468337  0.7931888137262616  0.0356218290712238
  0.2784564826951904  0.2821171659865259  0.7170705084786404
  0.9692058278694305  0.5451460097725140  0.2794663182780143
  0.8760550465648358  0.3793571837546322  0.5296362704524387
  0.2748183020741158  0.5102334099626397  0.2923035477951406
  0.8638752559103089  0.8424897346232130  0.3773618632355792
  0.8170561789327193  0.2793027204874133  0.7739818638743239
  0.9642551522600141  0.0512289206280705  0.9270888363598015
  0.6782928842686846  0.9512519304599174  0.2473979039076161
  0.5646470840353746  0.7711191370505600  0.0636267028418401
  0.9246735650955614  0.5834786016713271  0.9114234151261168
  0.4474702654279863  0.9754211939629021  0.4753824467405989
  0.1161485017710200  0.5500617800299052  0.4280149770803147
  0.5107054371812222  0.6561264729126287  0.0832908472866687
  0.7402394224030083  0.9651142910462135  0.9098885410908734
  0.3075784593960044  0.2532655006690558  0.1258420908771025
  0.5847133621450241  0.6403699180213183  0.2404895439486404
  0.2512038223289245  0.3549323644844053  0.9603397578070314
  0.1208708531577550  0.6487720560760344  0.2929317700257176
  0.7879298068817512  0.1095118965811629  0.8422539357597594
  0.9881452429543673  0.7635972542554900  0.9000145364581369
  0.7520405984538031  0.3551127013776863  0.6909169158592987
  0.6502362787963956  0.5157619665257857  0.1369412651244790
  0.3348115407943433  0.9019783516907854  0.3716787254114583
  0.6920211028232031  0.8057045905359820  0.2946549795687737
  0.8626073077451719  0.2187741554566016  0.6273288788498614
  0.9412781768917065  0.5459124465830352  0.7356097323692622
  0.4788080772410606  0.4628474834803083  0.5686750455761492
  0.7456054539647076  0.1179574798315289  0.3149044469227094
  0.4130754530424831  0.7544004846642146  0.9379305326873804
  0.0616589681626248  0.7817406765360420  0.7042314488278969
  0.6473965350056857  0.0769309112261556  0.8279965063336102
  0.2104740488364703  0.8066215152353540  0.8969404897269099
  0.0683215763430042  0.2317217690661975  0.0118086617148158
  0.7935178446705469  0.9535542975499335  0.1824181294026329
  0.1648591466850108  0.2451794918374659  0.8393503671441827
  0.5878422781951987  0.5657737481103325  0.4380389043761881
  0.2516121390891431  0.0413664708575839  0.1184393459092444
  0.1639835595556751  0.1244570816608072  0.7465093019857341
  0.4512283479411645  0.6989660911844018  0.3787598798483063
  0.1386942425397443  0.0221838463829210  0.6698279764650086
  0.4878298067508485  0.7771457792135215  0.2776813501652655
  0.8602356320676573  0.4029700308750501  0.6524155064650260
  0.9270535012138617  0.1209871649858235  0.4469965518018870
  0.2903499869867006  0.1711220258488891  0.9613987105599084
  0.6343037585905037  0.2046463400315587  0.8518526971324638
  0.1062822021735373  0.3009022298384624  0.3198969730094279
  0.8257390417233790  0.2441788906397058  0.1723124991228118
  0.7064942118033510  0.4065353755021754  0.3141957576551350
  0.1132485897296795  0.9454150829673250  0.8585683523818400
  0.6042719422249075 -0.0032811107071915  0.7036040816843200
  0.5951171935484092  0.9502732377733859  0.3592603410190255
  0.5773547090015493  0.8057470871473608  0.4604418723349096
  0.4308776896566178  0.3166477132804548  0.0175044256264879
  0.4976831417373392  0.4424346559754100  0.0674843282429446
  0.6460114883366165  0.4477301004707787  0.5185703879371124
  0.6859753710781029  0.0612502945945375  0.5278726087794005
  0.2917177036202879  0.1918515094949890  0.3793509240452229
  0.1421212881883927  0.4013449837809884  0.7001812815625619
  0.2739560729231594  0.6218290034186665  0.6801409730326575
  0.4328291553490065  0.1240776604471293  0.1463821960630883
  0.3928664909063391  0.2289438436310572  0.9158340656551111
  0.2829072541587976  0.3222791571095522  0.3252189388978937
  0.9508327058011921  0.1046622770156836  0.7655686341283829
  0.3510143257262758  0.0416257716200575  0.2857707954107969
  0.1593126517854781  0.8347688207158778  0.5020629735641119
  0.3726045360726922  0.1597122564921838  0.7990163263966333
  0.8438893898585482  0.9599228844782534  0.5151584630430708
  0.3649949867122965  0.6011999583104114  0.3087389814037181
  0.7922793876084089  0.0321996594970686  0.4029813293594825
  0.1496574147547262  0.6683922173707461  0.1384117007449014
  0.9423671976226904  0.2181897277704194  0.2730330063923633
  0.8586227697675143  0.8262284168950892  0.7748539369871261
  0.0375367568815299  0.4038501729573368  0.2932172133185296
  0.5162106145798315  0.0791645894717327  0.4801563468790853
  0.8972593076926008  0.1845237066685804  0.8509587133917857
 
  0.00000000E+00  0.00000000E+00  0.00000000E+00
  0.00000000E+00  0.00000000E+00  0.00000000E+00
  0.00000000E+00  0.00000000E+00  0.00000000E+00
  0.00000000E+00  0.00000000E+00  0.00000000E+00
  0.00000000E+00  0.00000000E+00  0.00000000E+00
  0.00000000E+00  0.00000000E+00  0.00000000E+00
  0.00000000E+00  0.00000000E+00  0.00000000E+00
  0.00000000E+00  0.00000000E+00  0.00000000E+00
  0.00000000E+00  0.00000000E+00  0.00000000E+00
  0.00000000E+00  0.00000000E+00  0.00000000E+00
  0.00000000E+00  0.00000000E+00  0.00000000E+00
  0.00000000E+00  0.00000000E+00  0.00000000E+00
  0.00000000E+00  0.00000000E+00  0.00000000E+00
  0.00000000E+00  0.00000000E+00  0.00000000E+00
  0.00000000E+00  0.00000000E+00  0.00000000E+00
  0.00000000E+00  0.00000000E+00  0.00000000E+00
  0.00000000E+00  0.00000000E+00  0.00000000E+00
  0.00000000E+00  0.00000000E+00  0.00000000E+00
  0.00000000E+00  0.00000000E+00  0.00000000E+00
  0.00000000E+00  0.00000000E+00  0.00000000E+00
  0.00000000E+00  0.00000000E+00  0.00000000E+00
  0.00000000E+00  0.00000000E+00  0.00000000E+00
  0.00000000E+00  0.00000000E+00  0.00000000E+00
  0.00000000E+00  0.00000000E+00  0.00000000E+00
  0.00000000E+00  0.00000000E+00  0.00000000E+00
  0.00000000E+00  0.00000000E+00  0.00000000E+00
  0.00000000E+00  0.00000000E+00  0.00000000E+00
  0.00000000E+00  0.00000000E+00  0.00000000E+00
  0.00000000E+00  0.00000000E+00  0.00000000E+00
  0.00000000E+00  0.00000000E+00  0.00000000E+00
  0.00000000E+00  0.00000000E+00  0.00000000E+00
  0.00000000E+00  0.00000000E+00  0.00000000E+00
  0.00000000E+00  0.00000000E+00  0.00000000E+00
  0.00000000E+00  0.00000000E+00  0.00000000E+00
  0.00000000E+00  0.00000000E+00  0.00000000E+00
  0.00000000E+00  0.00000000E+00  0.00000000E+00
  0.00000000E+00  0.00000000E+00  0.00000000E+00
  0.00000000E+00  0.00000000E+00  0.00000000E+00
  0.00000000E+00  0.00000000E+00  0.00000000E+00
  0.00000000E+00  0.00000000E+00  0.00000000E+00
  0.00000000E+00  0.00000000E+00  0.00000000E+00
  0.00000000E+00  0.00000000E+00  0.00000000E+00
  0.00000000E+00  0.00000000E+00  0.00000000E+00
  0.00000000E+00  0.00000000E+00  0.00000000E+00
  0.00000000E+00  0.00000000E+00  0.00000000E+00
  0.00000000E+00  0.00000000E+00  0.00000000E+00
  0.00000000E+00  0.00000000E+00  0.00000000E+00
  0.00000000E+00  0.00000000E+00  0.00000000E+00
  0.00000000E+00  0.00000000E+00  0.00000000E+00
  0.00000000E+00  0.00000000E+00  0.00000000E+00
  0.00000000E+00  0.00000000E+00  0.00000000E+00
  0.00000000E+00  0.00000000E+00  0.00000000E+00
  0.00000000E+00  0.00000000E+00  0.00000000E+00
  0.00000000E+00  0.00000000E+00  0.00000000E+00
  0.00000000E+00  0.00000000E+00  0.00000000E+00
  0.00000000E+00  0.00000000E+00  0.00000000E+00
  0.00000000E+00  0.00000000E+00  0.00000000E+00
  0.00000000E+00  0.00000000E+00  0.00000000E+00
  0.00000000E+00  0.00000000E+00  0.00000000E+00
  0.00000000E+00  0.00000000E+00  0.00000000E+00
  0.00000000E+00  0.00000000E+00  0.00000000E+00
  0.00000000E+00  0.00000000E+00  0.00000000E+00
  0.00000000E+00  0.00000000E+00  0.00000000E+00
  0.00000000E+00  0.00000000E+00  0.00000000E+00
  0.00000000E+00  0.00000000E+00  0.00000000E+00
  0.00000000E+00  0.00000000E+00  0.00000000E+00
  0.00000000E+00  0.00000000E+00  0.00000000E+00
  0.00000000E+00  0.00000000E+00  0.00000000E+00
  0.00000000E+00  0.00000000E+00  0.00000000E+00
  0.00000000E+00  0.00000000E+00  0.00000000E+00
  0.00000000E+00  0.00000000E+00  0.00000000E+00
  0.00000000E+00  0.00000000E+00  0.00000000E+00
  0.00000000E+00  0.00000000E+00  0.00000000E+00
  0.00000000E+00  0.00000000E+00  0.00000000E+00
  0.00000000E+00  0.00000000E+00  0.00000000E+00
  0.00000000E+00  0.00000000E+00  0.00000000E+00
  0.00000000E+00  0.00000000E+00  0.00000000E+00
  0.00000000E+00  0.00000000E+00  0.00000000E+00
  0.00000000E+00  0.00000000E+00  0.00000000E+00
  0.00000000E+00  0.00000000E+00  0.00000000E+00
  0.00000000E+00  0.00000000E+00  0.00000000E+00
  0.00000000E+00  0.00000000E+00  0.00000000E+00
  0.00000000E+00  0.00000000E+00  0.00000000E+00
  0.00000000E+00  0.00000000E+00  0.00000000E+00
  0.00000000E+00  0.00000000E+00  0.00000000E+00
  0.00000000E+00  0.00000000E+00  0.00000000E+00
  0.00000000E+00  0.00000000E+00  0.00000000E+00
  0.00000000E+00  0.00000000E+00  0.00000000E+00
  0.00000000E+00  0.00000000E+00  0.00000000E+00
  0.00000000E+00  0.00000000E+00  0.00000000E+00
  0.00000000E+00  0.00000000E+00  0.00000000E+00
  0.00000000E+00  0.00000000E+00  0.00000000E+00
  0.00000000E+00  0.00000000E+00  0.00000000E+00
  0.00000000E+00  0.00000000E+00  0.00000000E+00
  0.00000000E+00  0.00000000E+00  0.00000000E+00
  0.00000000E+00  0.00000000E+00  0.00000000E+00
  0.00000000E+00  0.00000000E+00  0.00000000E+00
  0.00000000E+00  0.00000000E+00  0.00000000E+00
  0.00000000E+00  0.00000000E+00  0.00000000E+00
  0.00000000E+00  0.00000000E+00  0.00000000E+00
  0.00000000E+00  0.00000000E+00  0.00000000E+00
  0.00000000E+00  0.00000000E+00  0.00000000E+00
  0.00000000E+00  0.00000000E+00  0.00000000E+00
  0.00000000E+00  0.00000000E+00  0.00000000E+00
  0.00000000E+00  0.00000000E+00  0.00000000E+00
  0.00000000E+00  0.00000000E+00  0.00000000E+00
  0.00000000E+00  0.00000000E+00  0.00000000E+00
  0.00000000E+00  0.00000000E+00  0.00000000E+00
  0.00000000E+00  0.00000000E+00  0.00000000E+00
  0.00000000E+00  0.00000000E+00  0.00000000E+00
  0.00000000E+00  0.00000000E+00  0.00000000E+00
  0.00000000E+00  0.00000000E+00  0.00000000E+00
  0.00000000E+00  0.00000000E+00  0.00000000E+00
  0.00000000E+00  0.00000000E+00  0.00000000E+00
  0.00000000E+00  0.00000000E+00  0.00000000E+00
  0.00000000E+00  0.00000000E+00  0.00000000E+00
  0.00000000E+00  0.00000000E+00  0.00000000E+00
  0.00000000E+00  0.00000000E+00  0.00000000E+00
  0.00000000E+00  0.00000000E+00  0.00000000E+00
  0.00000000E+00  0.00000000E+00  0.00000000E+00
  0.00000000E+00  0.00000000E+00  0.00000000E+00
  0.00000000E+00  0.00000000E+00  0.00000000E+00
  0.00000000E+00  0.00000000E+00  0.00000000E+00
  0.00000000E+00  0.00000000E+00  0.00000000E+00
  0.00000000E+00  0.00000000E+00  0.00000000E+00
  0.00000000E+00  0.00000000E+00  0.00000000E+00
  0.00000000E+00  0.00000000E+00  0.00000000E+00
  0.00000000E+00  0.00000000E+00  0.00000000E+00
  0.00000000E+00  0.00000000E+00  0.00000000E+00
  0.00000000E+00  0.00000000E+00  0.00000000E+00
  0.00000000E+00  0.00000000E+00  0.00000000E+00
  0.00000000E+00  0.00000000E+00  0.00000000E+00
  0.00000000E+00  0.00000000E+00  0.00000000E+00
  0.00000000E+00  0.00000000E+00  0.00000000E+00
  0.00000000E+00  0.00000000E+00  0.00000000E+00
  0.00000000E+00  0.00000000E+00  0.00000000E+00
  0.00000000E+00  0.00000000E+00  0.00000000E+00
  0.00000000E+00  0.00000000E+00  0.00000000E+00
  0.00000000E+00  0.00000000E+00  0.00000000E+00
  0.00000000E+00  0.00000000E+00  0.00000000E+00
  0.00000000E+00  0.00000000E+00  0.00000000E+00
  0.00000000E+00  0.00000000E+00  0.00000000E+00
  0.00000000E+00  0.00000000E+00  0.00000000E+00
  0.00000000E+00  0.00000000E+00  0.00000000E+00
  0.00000000E+00  0.00000000E+00  0.00000000E+00
  0.00000000E+00  0.00000000E+00  0.00000000E+00
  0.00000000E+00  0.00000000E+00  0.00000000E+00
  0.00000000E+00  0.00000000E+00  0.00000000E+00
  0.00000000E+00  0.00000000E+00  0.00000000E+00
  0.00000000E+00  0.00000000E+00  0.00000000E+00
  0.00000000E+00  0.00000000E+00  0.00000000E+00
  0.00000000E+00  0.00000000E+00  0.00000000E+00
  0.00000000E+00  0.00000000E+00  0.00000000E+00
  0.00000000E+00  0.00000000E+00  0.00000000E+00
  0.00000000E+00  0.00000000E+00  0.00000000E+00
  0.00000000E+00  0.00000000E+00  0.00000000E+00
  0.00000000E+00  0.00000000E+00  0.00000000E+00
  0.00000000E+00  0.00000000E+00  0.00000000E+00
  0.00000000E+00  0.00000000E+00  0.00000000E+00
  0.00000000E+00  0.00000000E+00  0.00000000E+00
  0.00000000E+00  0.00000000E+00  0.00000000E+00
  0.00000000E+00  0.00000000E+00  0.00000000E+00
  0.00000000E+00  0.00000000E+00  0.00000000E+00
  0.00000000E+00  0.00000000E+00  0.00000000E+00
  0.00000000E+00  0.00000000E+00  0.00000000E+00
  0.00000000E+00  0.00000000E+00  0.00000000E+00
  0.00000000E+00  0.00000000E+00  0.00000000E+00
  0.00000000E+00  0.00000000E+00  0.00000000E+00
  0.00000000E+00  0.00000000E+00  0.00000000E+00
  0.00000000E+00  0.00000000E+00  0.00000000E+00
  0.00000000E+00  0.00000000E+00  0.00000000E+00
  0.00000000E+00  0.00000000E+00  0.00000000E+00
  0.00000000E+00  0.00000000E+00  0.00000000E+00
  0.00000000E+00  0.00000000E+00  0.00000000E+00
  0.00000000E+00  0.00000000E+00  0.00000000E+00
  0.00000000E+00  0.00000000E+00  0.00000000E+00
  0.00000000E+00  0.00000000E+00  0.00000000E+00
  0.00000000E+00  0.00000000E+00  0.00000000E+00
  0.00000000E+00  0.00000000E+00  0.00000000E+00
  0.00000000E+00  0.00000000E+00  0.00000000E+00
  0.00000000E+00  0.00000000E+00  0.00000000E+00
  0.00000000E+00  0.00000000E+00  0.00000000E+00
  0.00000000E+00  0.00000000E+00  0.00000000E+00
  0.00000000E+00  0.00000000E+00  0.00000000E+00
  0.00000000E+00  0.00000000E+00  0.00000000E+00
  0.00000000E+00  0.00000000E+00  0.00000000E+00
  0.00000000E+00  0.00000000E+00  0.00000000E+00
  0.00000000E+00  0.00000000E+00  0.00000000E+00
  0.00000000E+00  0.00000000E+00  0.00000000E+00
  0.00000000E+00  0.00000000E+00  0.00000000E+00
  0.00000000E+00  0.00000000E+00  0.00000000E+00
  0.00000000E+00  0.00000000E+00  0.00000000E+00
  0.00000000E+00  0.00000000E+00  0.00000000E+00
  0.00000000E+00  0.00000000E+00  0.00000000E+00
  0.00000000E+00  0.00000000E+00  0.00000000E+00
  0.00000000E+00  0.00000000E+00  0.00000000E+00
  0.00000000E+00  0.00000000E+00  0.00000000E+00
  0.00000000E+00  0.00000000E+00  0.00000000E+00
  0.00000000E+00  0.00000000E+00  0.00000000E+00
  0.00000000E+00  0.00000000E+00  0.00000000E+00
  0.00000000E+00  0.00000000E+00  0.00000000E+00
  0.00000000E+00  0.00000000E+00  0.00000000E+00
  0.00000000E+00  0.00000000E+00  0.00000000E+00
  0.00000000E+00  0.00000000E+00  0.00000000E+00
  0.00000000E+00  0.00000000E+00  0.00000000E+00
  0.00000000E+00  0.00000000E+00  0.00000000E+00
  0.00000000E+00  0.00000000E+00  0.00000000E+00
  0.00000000E+00  0.00000000E+00  0.00000000E+00
  0.00000000E+00  0.00000000E+00  0.00000000E+00
  0.00000000E+00  0.00000000E+00  0.00000000E+00
  0.00000000E+00  0.00000000E+00  0.00000000E+00
  0.00000000E+00  0.00000000E+00  0.00000000E+00
  0.00000000E+00  0.00000000E+00  0.00000000E+00
  0.00000000E+00  0.00000000E+00  0.00000000E+00
  0.00000000E+00  0.00000000E+00  0.00000000E+00
  0.00000000E+00  0.00000000E+00  0.00000000E+00
  0.00000000E+00  0.00000000E+00  0.00000000E+00
  0.00000000E+00  0.00000000E+00  0.00000000E+00
  0.00000000E+00  0.00000000E+00  0.00000000E+00
  0.00000000E+00  0.00000000E+00  0.00000000E+00
  0.00000000E+00  0.00000000E+00  0.00000000E+00
  0.00000000E+00  0.00000000E+00  0.00000000E+00
  0.00000000E+00  0.00000000E+00  0.00000000E+00
  0.00000000E+00  0.00000000E+00  0.00000000E+00
  0.00000000E+00  0.00000000E+00  0.00000000E+00
  0.00000000E+00  0.00000000E+00  0.00000000E+00
  0.00000000E+00  0.00000000E+00  0.00000000E+00
  0.00000000E+00  0.00000000E+00  0.00000000E+00
  0.00000000E+00  0.00000000E+00  0.00000000E+00
  0.00000000E+00  0.00000000E+00  0.00000000E+00
  0.00000000E+00  0.00000000E+00  0.00000000E+00
  0.00000000E+00  0.00000000E+00  0.00000000E+00