Amorphous GeAsSeSi                      
   1.00000000000000     
    20.4271757306331949    0.0000000000000000    0.0000000000000000
     0.0000000000000000   20.4271757306331949    0.0000000000000000
     0.0000000000000000    0.0000000000000000   20.4271757306331949
   Ge   As   Se
   100   100   100
Direct
  0.9184457180670975  0.8388916686295289  0.1673123297754131
  0.3210144736543938  0.2945247133707340  0.6895721224290128
  0.5951693353706347  0.5486378703481876  0.7691822236758767
  0.3719978039837954  0.7404320750310518  0.3291715246774629
  0.6012640672427736  0.6094100533431259  0.9340566804282346
  0.2427920150767235  0.3823270074890814  0.6500580697858211
  0.5476340861132485  0.5525269457186184  0.5631648030896912
  0.5489475297482898  0.2460297475091977  0.5374601547610425
  0.3621020698985475  0.9893424087013116  0.5114607878499413
  0.5557465053588189  0.3409380396379120  0.8147973040876977
  0.2088163944663606  0.6026047257384093  0.6946761564349657
  0.6245229256088507  0.6530844703623302  0.5870823908514282
  0.0141064062490770  0.6721149073200081  0.5046768842907525
  0.7002777363785668  0.3600776090850886  0.1376783469829945
  0.1684928954057909  0.7588239872895244  0.5258805929222419
  0.5415271512432938  0.4593267247572399  0.0080245170013313
  0.1477282136046725  0.4493661887552705  0.7983699123070309
  0.5976323894609976  0.8722684160028962  0.4862570974119365
  0.7375947841289587  0.7991943390106826  0.4312324752838848
  0.2158274681727335  0.2225749203559957  0.5538080912873795
  0.1991664597314298  0.9082847215176599  0.5364244749880740
  0.5944979735366687  0.0419778299871538  0.3039892703708489
  0.1805440824978390  0.0523910569910058  0.0294159957978621
  0.6107069345407155  0.0403845725009617  0.6585799964918522
  0.1938142819658992  0.7741794667109687  0.0765399418247270
  0.4871264803585973  0.3889249340992009  0.4401895144033361
  0.9955432219340281  0.4699743114124857  0.4113450131414993
  0.2937616716515947  0.9692616198396209  0.7546966844682927
  0.7263693248237644  0.8030438402820863  0.5897036336668577
  0.6839959727740279  0.1855130183727383  0.3861381014265461
  0.1816689365230317  0.4703107383368774  0.0967105130613390
  0.2435837816131681  0.0664115859327055  0.1474395795746020
  0.9826809570118726  0.1871042936639569  0.9689549822011756
  0.6956247183082098  0.9870006200812611  0.1699252205358093
  0.0944805289865158  0.4418624945615122  0.0065709524712858
  0.0194687503474924  0.8470379745477672  0.5255734572859438
  0.3128039753504552  0.7013638205291173  0.1785983096338057
  0.8862142350627451  0.3948222515211270  0.5728822194163286
  0.4037719638913870  0.8181629075171699  0.9586058260035415
  0.1038280427443610  0.3697432974684034  0.5129029495162314
  0.0868128158499104  0.6438810124768821  0.9330709072418202
  0.7512612104606262  0.4526363170000565  0.8282554859188309
  0.3175182970109276  0.0499134568321438  0.3152528302513886
  0.4599747840369517  0.8016598702740794  0.4009979559031791
  0.0414971425704564  0.7158296767263153  0.3787703698381719
  0.3955102426869956  0.2458573194594891  0.4148550688306756
  0.8052072941858697  0.1228112927813712  0.1591583180681511
  0.1412085375768015  0.1965583619380311  0.3046724990699090
  0.2750563141460844  0.8359161552116774  0.6100327288116887
  0.9617394505091355  0.4752929584512415  0.8332664884157808
  0.4205129492838324  0.3387951169168133  0.9276497783077033
  0.1023649633744270  0.0207905159489883  0.3852637788465501
  0.7961634766670898  0.1959324957104869  0.9856700891500836
  0.3211490536406458  0.2476605269779526  0.0622752276575369
  0.7547229516252543  0.6945789280530192  0.9487404257802794
  0.4986830356518368  0.3879613316941217  0.6684478453671403
  0.8801022853642735  0.0004778213951155  0.9305690713348085
  0.6565600053690872  0.9814216212766667  0.0485204813331421
  0.7693873824398594  0.9828862484315053  0.7962823785506856
  0.4137195604184356  0.5358640584674461  0.1277138798716067
  0.5863293541368009  0.9125774106504991  0.3227219073061889
  0.3556821564350443  0.3704437461120378  0.0329542724326757
  0.2058289020513584  0.0461626758785485  0.4722501154074692
  0.4849288710461437  0.5990147799026744  0.8843677328880588
  0.7153770922120373  0.4981069503408122  0.0383210277192987
  0.2043623811678401  0.2771572735915271  0.3906746118755322
  0.0771686418056206  0.0414511002371896  0.5585614842994175
  0.5512577609400822  0.7887204403496071  0.0014491682512343
  0.2089468939645727  0.2706191736867538  0.1128301947101988
  0.0728847342504650  0.1601513160952592  0.7796320172629265
  0.7301117961975905  0.6348412100744483  0.7288312214009665
  0.5714338816453193  0.4002090805121270  0.2657329949861307
  0.5988457040291166  0.6549127455888240  0.0553874533397547
  0.1945873758652965  0.0647127042108266  0.2907025405302903
  0.0922488562668846  0.5656858473580115  0.6619327382367217
  0.5046112430354910  0.2738286274577177  0.0736089683311150
  0.8603435081724768  0.7975638683024755  0.7319980386999134
  0.3508915680352800  0.2162677489837748  0.8367362824636615
  0.7771840460660400  0.6985139666363338  0.5453035330830858
  0.9401350060262672  0.0880826028832686  0.4117039974295977
  0.6252400179438595  0.4639245713157933  0.1674168967604714
  0.8234042003723658  0.3149835384906652  0.0398974541717436
  0.9609269059428414  0.2958934598120777  0.2968011308453811
  0.4676273503568780  0.0939049083151033  0.0468054197578311
  0.0689660373852803  0.3731529709860411  0.1968195353029429
  0.5751281252660405  0.4449876193281312  0.5066216695015910
  0.3024846160551391  0.7193284341974788  0.6369288899383250
  0.2881524784955403  0.4954204326172444  0.2088945990040045
  0.9372922860242028  0.3602556172404618  0.4010382425836951
  0.0857965012511741  0.3164110615222526  0.8413401668376679
  0.1282396454013650  0.8286563949242094  0.8677632524045222
  0.9252924737874793  0.8845686851844548  0.8737910400298503
  0.8740460317636618  0.1347674958877505  0.6513118577630621
  0.0818493645310383  0.0212462244352452  0.8775131276595047
  0.8314264028237517  0.3800662636622008  0.7509614454296809
  0.2874025920071475  0.2387141930632097  0.2780623032949094
  0.4810516796898483  0.5645635900320514  0.3347957325844888
  0.2783684463684821  0.4500144316499615  0.3297316981291232
  0.3930371587104773  0.5731339485519342  0.4295820952793932
  0.5001497190563242  0.0623649413612313  0.2192084426145158
  0.2741369027753393  0.1836881601539773  0.6534869458303945
  0.0011058239676558  0.8476194340989522  0.2612400886895969
  0.8950077634465856  0.6183353505267917  0.9484147928854938
  0.2407127972191745  0.6623721559837819  0.0891242730139936
  0.3498749804504868  0.3195670769976360  0.2031673166574990
  0.9051337217720814  0.6747395129603859  0.1353394816399813
  0.4723590922352088  0.7169854099061581  0.9253482534414204
  0.9111186485131029  0.6393460013137542  0.7703495237314684
  0.0346602293586713  0.6258947697043737  0.7564041589084312
  0.9471279113687103  0.8014723437555489  0.3610418106518267
  0.4136418543130489  0.4497129821521568  0.5808947079673956
  0.0897438921483342  0.9184523430693758  0.9467042045976584
  0.0547907696239065  0.3664350906406924  0.6277274510630093
  0.2886124240361880  0.5502331503822404  0.9571343060423771
  0.6744843222640924  0.4342048522947834  0.3288176485097765
  0.1350659786233166  0.0169336763941814  0.7656895977998275
  0.7792972119546206  0.0622461861057388  0.7036535108771247
  0.5818508816151109  0.2728102506956631  0.2625177121525013
  0.9788041493364403  0.0612014718085305  0.6427938086559024
  0.1017918527641726  0.2417761806234466  0.0581962314775737
  0.7324339336734695  0.8211804698156371  0.9589065741373233
  0.6166034269878367  0.8587987431100004  0.6066224843747037
  0.4548057956388192  0.1090122682503605  0.6661538742290602
  0.4259766121764130  0.5705836177626580  0.5503574273409839
  0.9108429186802383  0.8385486477348252  0.6230889984957741
  0.5271066977904724  0.1878683635033269  0.9200374504820132
  0.4327887080608974  0.7177137541625598  0.1460920395695027
  0.8336767288048037  0.1533253426399739  0.5120035984912903
  0.0185913602344812  0.9796379333267566  0.7340333489480457
  0.2893035330597726  0.3178319387916204  0.8089728940698322
  0.8678103237459709  0.5516550582249735  0.8457348590009772
  0.8141221578993409  0.3960771523218440  0.2622243571804788
  0.4333554832272242  0.2883838314007434  0.5827525243317737
  0.8553758590699019  0.7814214484514324  0.8734081082488174
  0.5209294517711811  0.7821669752607860  0.8383208435681269
  0.3056134640171848  0.4845354462174924  0.0622164981296365
  0.3805782602150884  0.3618503691078345  0.4981793374238208
  0.5449614475783591  0.2152118032866426  0.8000803326659351
  0.4053249355727289  0.1411419988898075  0.1910218364578640
  0.3770763928021879  0.1583320304156217  0.3097897827424276
  0.6026752824598418  0.7521591058038766  0.4585215720487952
  0.2456704066811852  0.7099222396248450  0.7442334151149979
  0.8515550792246387  0.7344607388172903  0.3165188413830151
  0.8437559918582025  0.2565674189934057  0.1880359264288600
  0.3681254049031892  0.1319305011913343  0.4776848639398921
  0.9716927843187619  0.4558567559218361  0.6391972887377335
  0.2243170698632255  0.7337740412842990  0.2618995575463288
  0.8221656135450104  0.3274252893129344  0.3647476179066516
  0.6601727388642828  0.4965997859090763  0.4329513233300730
  0.4104515491005998  0.2157732628663851  0.9437529030026610
  0.6932550565988862  0.9490615333069528  0.6466293158856544
  0.8439543202454729  0.5077641568713034  0.3058834987174777
  0.0107293209644723  0.9682621325286220  0.2954673891509429
  0.4277035640189268  0.6380124794658926  0.0551897382220190
  0.3415413193700871  0.6979208087975763  0.8209073659822366
  0.8220366442493301  0.8689042373107014  0.5447686439734838
  0.3782605970206063  0.1783793681345571  0.5890541509625251
  0.9150862244822875  0.3589731143438328  0.2001702223906534
  0.2732497682124801  0.6117753184631596  0.5848170271108231
  0.7292688160944607  0.1949733232881172  0.5622034276578844
  0.1965864939767741  0.6387716313868026  0.4927381595067146
  0.6637305971751104  0.5359982014665903  0.2612001765673142
  0.7306457973341765  0.2398322659076939  0.8043282536852203
  0.1358424682719601  0.9383084310256322  0.0587699909185417
  0.4560562655936238  0.8106917636712012  0.5784251569665813
  0.8489571784219763  0.9137245423507636  0.0931494679630802
  0.0648199029409398  0.5398438635891836  0.8347826657402848
  0.5303177995024626  0.0813875859453290  0.5736038378276405
  0.8420258417420214  0.3913478338213281  0.9393198023929088
  0.3211285541281015  0.6627410905093285  0.9988578619578448
  0.9395192257300877  0.9773404970710047  0.0416578673875136
  0.1344412030758377  0.4463348337165911  0.6739734591821644
  0.8638727589865738  0.2241611721909038  0.3112424245640284
  0.2106004328269506  0.1789849213130807  0.1992937322007933
  0.4102222551091899  0.7828550988813703  0.7577399080719758
  0.4037960773854437  0.3665814463263075  0.8081152706019381
  0.1196956171221544  0.4676376833894835  0.4394787798500133
  0.0838819047642048  0.2697436945691081  0.4462538644650067
  0.1548294014641627  0.2711205049825693  0.9501812991616632
  0.4367371354890466  0.2560284012385310  0.7604066158416742
  0.4242811724409989  0.7173031415674274  0.6542332601535463
  0.3336418062520110  0.0564493221431874  0.8999314948890529
  0.9385799780205062  0.5205109000354753  0.2278898012400887
  0.2529303515954240  0.1621624944551172  0.4532477762721001
  0.1580518399096249  0.9868330784816735  0.2021279384134687
  0.4685549251278474  0.4360463029965800  0.3286300775825737
  0.5096284793914307  0.8740884516059069  0.9158688970916913
  0.9821170690868968  0.8778954866644852  0.9898028371055787
  0.4850206210522430  0.7249908139284429  0.4952835223341907
  0.3947348476730710  0.9420576991966030  0.1329894109077330
  0.9473040938502706  0.7011050015699141  0.8713704814293521
  0.2461362092499968  0.8823144824906493  0.0423137201234738
  0.7764236317655531  0.1088221247366263  0.4102822957565735
  0.8835174273857831  0.7619889839083029  0.5324511198336950
  0.4558463803995920  0.9958473680874746  0.6235890826864718
  0.9027304530636613  0.5494626289174676  0.4508029141632761
  0.7365121237452925  0.0788787930722279  0.5209080855912305
  0.3687073494148834  0.3575670642858029  0.3185700665024527
  0.9554560045432794  0.3923350768769680  0.7435288818789232
  0.2886010511850898  0.9756467783471265  0.4085128156861870
  0.2548952223725109  0.2058357955319821  0.9664993380936906
  0.9140314721453109  0.1789361772587483  0.1309173597180049
  0.3003110905986546  0.1156957125760627  0.7988680164786288
  0.6487367823859458  0.4988881074809157  0.9276506685205419
  0.6565392561277505  0.8905180050509927  0.2247642864850548
  0.9997243030708418  0.5937180225658594  0.0061196600968643
  0.0297754382879987  0.5047108973497814  0.3026151973803621
  0.5807661551226602  0.1270285132824540  0.3894720350138385
  0.1646494466772310  0.3963968847141572  0.3473239196450066
  0.5347115098865416  0.0097767815740397  0.1126600283296071
  0.5405589443075414  0.3441558751267380  0.9418067899442804
  0.3544729910664657  0.8499876521972922  0.5192589154430109
  0.2257734999281098  0.3462998203498202  0.5308265434791934
  0.7189730549583047  0.6337459591734742  0.0543659651288309
  0.5725678283046207  0.5771521212109150  0.4202381002575493
  0.3590829026168123  0.5987461268625438  0.2283230024354097
  0.6775738317897932  0.3499167043813856  0.7937840874338065
  0.7994674976882905  0.3491210412973373  0.6371525786911860
  0.2582916825219357  0.0128742113226963  0.5822061689510107
  0.5176221801775114  0.5109764730412749  0.6793048063636462
  0.8432829880853276  0.2749073568017124  0.8118607493271668
  0.6733794505954052  0.9278786610398626  0.4145528344797995
  0.6699458294674869  0.9277360237697891  0.7623068918928695
  0.5208358803259685  0.2748592180532370  0.4162243400187506
  0.3564651839835022  0.8794299390335496  0.6975512164784163
  0.5237062174608482  0.9991620847773319  0.7291531844114871
  0.4923026086411326  0.9124521386060778  0.4483211424075861
  0.1403858418328170  0.2601645048512680  0.7502556052944200
  0.2277916677124452  0.0051927999545427  0.9290837826143843
  0.7061689339636033  0.3502912885499185  0.0173555143923352
  0.0387986618897571  0.3396117845802138  0.0768872631208382
  0.7033923828854043  0.1914702503679919  0.9084313865498146
  0.6972818581223308  0.2588258443323284  0.2920121888213174
  0.8678363156682920  0.9228306108748541  0.7603836853634505
  0.0936179086599722  0.9206640339583032  0.6010713989779717
  0.2803349222152320  0.8194693958262604  0.3230804893519093
  0.4396208765326080  0.5097444996885230  0.9496885062356952
  0.3682709494757361  0.9542117637577050  0.8508913744644673
  0.8198803997229618  0.9948745387062701  0.1810803682762483
  0.8818594429404385  0.1295187485511278  0.9216899799438352
  0.3020211542939961  0.4920096184873159  0.4395812830706589
  0.8464834931499112  0.8014429183559670  0.9978646203858972
  0.1102570859788443  0.7568625898531565  0.9945019428545621
  0.9747793531318649  0.0467879451899691  0.8238055171367122
  0.5949826347059783  0.3561436169565795  0.5876316900280827
  0.0882971869811016  0.1099354130860348  0.9588658915185277
  0.2853038786991817  0.8950416046314658  0.1550385688674680
  0.9632134781478214  0.6378617781935603  0.2324694607462590
  0.3639031305727087  0.0200116223571882  0.0502993407600414
  0.0068218446341106  0.9950513996388324  0.4671029077799744
  0.0617444324547733  0.7438513494886720  0.5914305512837927
  0.4050630024594923  0.9849151956824045  0.2550730622639890
  0.0539727255716187  0.1319476203500614  0.3734726556064345
  0.0981617602930100  0.2089015742908913  0.5480487081060517
  0.1694643319986184  0.5592453919810652  0.9831108166130278
  0.7449246378576859  0.7765906755357292  0.7055161829539784
  0.9973526665159156  0.2288129621937571  0.8503934080042796
  0.6759737753067867  0.8535672314155676  0.0599944940403745
  0.9938784867478319  0.1738969669079466  0.6794543284861518
  0.8319092558913326  0.7561291419366540  0.1950666332880715
  0.3244646424117832  0.4713016623138131  0.6559799604101855
  0.0963505947231695  0.5816535285209596  0.5364992090471219
  0.0209356811237242  0.8502795191607788  0.8064399658010757
  0.1957926686135423  0.3692560697852088  0.1796746242118843
  0.1486111958614842  0.7899382203402112  0.1883227718350184
  0.4518345285601058  0.2518577887288131  0.1923711567747546
  0.7789446451643158  0.8290442557525424  0.3246828317926784
  0.7413563439913204  0.1149947911887637  0.0545608035037048
  0.6636003107932282  0.6785561978957944  0.8622210837171167
  0.2437051285906904  0.5253150374371671  0.7786962390318166
  0.8299115500432208  0.4650848508144705  0.4912261988910345
  0.5644650535035822  0.7676054757532071  0.3463921709185982
  0.7583666080689326  0.9986509175095151  0.9128562317994238
  0.6779622602889503  0.1233762725144913  0.7145731862245057
  0.6801054750968021  0.0869696037695675  0.2349604859982293
  0.4137375789994948  0.6085926256414922  0.7852260777724993
  0.0544815190699808  0.2510538651718122  0.2330560992597697
  0.9263858807081320  0.6035706940093064  0.5552444897328570
  0.6861835879765437  0.2638366878202589  0.4755879140397212
  0.7015667557672600  0.5045478491541218  0.7251208704924963
  0.0435406665463915  0.0250154364874859  0.1960712392021620
  0.7762881172053753  0.5647762753087804  0.2261829317156128
  0.3332548157015580  0.6785531745815305  0.4310223337583210
  0.1071145449785575  0.8084921925803528  0.4290767546814394
  0.9806565509350662  0.7600398668469523  0.1002073395381800
  0.9059514077005275  0.0147440221217607  0.3202168828086585
  0.9420985281632070  0.3078072451941196  0.5095905617265473
  0.4590816302842029  0.3885946182516378  0.0983728702641926
  0.1839662356322265  0.9072218407334702  0.7703884720730443
  0.5536914014831780  0.5504864628955062  0.1168814721511282
  0.9623186806973436  0.3976557282651640  0.9248709574286167
  0.6132524859158650  0.2688690997530330  0.1448747583488554
  0.8354144118534350  0.4870917525533542  0.0120904346309345
  0.7746171129969923  0.6765157110186379  0.4295575061739783
  0.6069675672617194  0.6601695058015480  0.7093207738714113
  0.5035598584756329  0.0697480060995801  0.9307686402976856
  0.1967727618076793  0.3797126272725322  0.9691413190486102
  0.4516580829431192  0.8183668070193661  0.0796512704561252
  0.7394095321559746  0.6000020572371625  0.6012813107324035
  0.1783027594559528  0.5424947880602531  0.1927998890730507
 
  0.00000000E+00  0.00000000E+00  0.00000000E+00
  0.00000000E+00  0.00000000E+00  0.00000000E+00
  0.00000000E+00  0.00000000E+00  0.00000000E+00
  0.00000000E+00  0.00000000E+00  0.00000000E+00
  0.00000000E+00  0.00000000E+00  0.00000000E+00
  0.00000000E+00  0.00000000E+00  0.00000000E+00
  0.00000000E+00  0.00000000E+00  0.00000000E+00
  0.00000000E+00  0.00000000E+00  0.00000000E+00
  0.00000000E+00  0.00000000E+00  0.00000000E+00
  0.00000000E+00  0.00000000E+00  0.00000000E+00
  0.00000000E+00  0.00000000E+00  0.00000000E+00
  0.00000000E+00  0.00000000E+00  0.00000000E+00
  0.00000000E+00  0.00000000E+00  0.00000000E+00
  0.00000000E+00  0.00000000E+00  0.00000000E+00
  0.00000000E+00  0.00000000E+00  0.00000000E+00
  0.00000000E+00  0.00000000E+00  0.00000000E+00
  0.00000000E+00  0.00000000E+00  0.00000000E+00
  0.00000000E+00  0.00000000E+00  0.00000000E+00
  0.00000000E+00  0.00000000E+00  0.00000000E+00
  0.00000000E+00  0.00000000E+00  0.00000000E+00
  0.00000000E+00  0.00000000E+00  0.00000000E+00
  0.00000000E+00  0.00000000E+00  0.00000000E+00
  0.00000000E+00  0.00000000E+00  0.00000000E+00
  0.00000000E+00  0.00000000E+00  0.00000000E+00
  0.00000000E+00  0.00000000E+00  0.00000000E+00
  0.00000000E+00  0.00000000E+00  0.00000000E+00
  0.00000000E+00  0.00000000E+00  0.00000000E+00
  0.00000000E+00  0.00000000E+00  0.00000000E+00
  0.00000000E+00  0.00000000E+00  0.00000000E+00
  0.00000000E+00  0.00000000E+00  0.00000000E+00
  0.00000000E+00  0.00000000E+00  0.00000000E+00
  0.00000000E+00  0.00000000E+00  0.00000000E+00
  0.00000000E+00  0.00000000E+00  0.00000000E+00
  0.00000000E+00  0.00000000E+00  0.00000000E+00
  0.00000000E+00  0.00000000E+00  0.00000000E+00
  0.00000000E+00  0.00000000E+00  0.00000000E+00
  0.00000000E+00  0.00000000E+00  0.00000000E+00
  0.00000000E+00  0.00000000E+00  0.00000000E+00
  0.00000000E+00  0.00000000E+00  0.00000000E+00
  0.00000000E+00  0.00000000E+00  0.00000000E+00
  0.00000000E+00  0.00000000E+00  0.00000000E+00
  0.00000000E+00  0.00000000E+00  0.00000000E+00
  0.00000000E+00  0.00000000E+00  0.00000000E+00
  0.00000000E+00  0.00000000E+00  0.00000000E+00
  0.00000000E+00  0.00000000E+00  0.00000000E+00
  0.00000000E+00  0.00000000E+00  0.00000000E+00
  0.00000000E+00  0.00000000E+00  0.00000000E+00
  0.00000000E+00  0.00000000E+00  0.00000000E+00
  0.00000000E+00  0.00000000E+00  0.00000000E+00
  0.00000000E+00  0.00000000E+00  0.00000000E+00
  0.00000000E+00  0.00000000E+00  0.00000000E+00
  0.00000000E+00  0.00000000E+00  0.00000000E+00
  0.00000000E+00  0.00000000E+00  0.00000000E+00
  0.00000000E+00  0.00000000E+00  0.00000000E+00
  0.00000000E+00  0.00000000E+00  0.00000000E+00
  0.00000000E+00  0.00000000E+00  0.00000000E+00
  0.00000000E+00  0.00000000E+00  0.00000000E+00
  0.00000000E+00  0.00000000E+00  0.00000000E+00
  0.00000000E+00  0.00000000E+00  0.00000000E+00
  0.00000000E+00  0.00000000E+00  0.00000000E+00
  0.00000000E+00  0.00000000E+00  0.00000000E+00
  0.00000000E+00  0.00000000E+00  0.00000000E+00
  0.00000000E+00  0.00000000E+00  0.00000000E+00
  0.00000000E+00  0.00000000E+00  0.00000000E+00
  0.00000000E+00  0.00000000E+00  0.00000000E+00
  0.00000000E+00  0.00000000E+00  0.00000000E+00
  0.00000000E+00  0.00000000E+00  0.00000000E+00
  0.00000000E+00  0.00000000E+00  0.00000000E+00
  0.00000000E+00  0.00000000E+00  0.00000000E+00
  0.00000000E+00  0.00000000E+00  0.00000000E+00
  0.00000000E+00  0.00000000E+00  0.00000000E+00
  0.00000000E+00  0.00000000E+00  0.00000000E+00
  0.00000000E+00  0.00000000E+00  0.00000000E+00
  0.00000000E+00  0.00000000E+00  0.00000000E+00
  0.00000000E+00  0.00000000E+00  0.00000000E+00
  0.00000000E+00  0.00000000E+00  0.00000000E+00
  0.00000000E+00  0.00000000E+00  0.00000000E+00
  0.00000000E+00  0.00000000E+00  0.00000000E+00
  0.00000000E+00  0.00000000E+00  0.00000000E+00
  0.00000000E+00  0.00000000E+00  0.00000000E+00
  0.00000000E+00  0.00000000E+00  0.00000000E+00
  0.00000000E+00  0.00000000E+00  0.00000000E+00
  0.00000000E+00  0.00000000E+00  0.00000000E+00
  0.00000000E+00  0.00000000E+00  0.00000000E+00
  0.00000000E+00  0.00000000E+00  0.00000000E+00
  0.00000000E+00  0.00000000E+00  0.00000000E+00
  0.00000000E+00  0.00000000E+00  0.00000000E+00
  0.00000000E+00  0.00000000E+00  0.00000000E+00
  0.00000000E+00  0.00000000E+00  0.00000000E+00
  0.00000000E+00  0.00000000E+00  0.00000000E+00
  0.00000000E+00  0.00000000E+00  0.00000000E+00
  0.00000000E+00  0.00000000E+00  0.00000000E+00
  0.00000000E+00  0.00000000E+00  0.00000000E+00
  0.00000000E+00  0.00000000E+00  0.00000000E+00
  0.00000000E+00  0.00000000E+00  0.00000000E+00
  0.00000000E+00  0.00000000E+00  0.00000000E+00
  0.00000000E+00  0.00000000E+00  0.00000000E+00
  0.00000000E+00  0.00000000E+00  0.00000000E+00
  0.00000000E+00  0.00000000E+00  0.00000000E+00
  0.00000000E+00  0.00000000E+00  0.00000000E+00
  0.00000000E+00  0.00000000E+00  0.00000000E+00
  0.00000000E+00  0.00000000E+00  0.00000000E+00
  0.00000000E+00  0.00000000E+00  0.00000000E+00
  0.00000000E+00  0.00000000E+00  0.00000000E+00
  0.00000000E+00  0.00000000E+00  0.00000000E+00
  0.00000000E+00  0.00000000E+00  0.00000000E+00
  0.00000000E+00  0.00000000E+00  0.00000000E+00
  0.00000000E+00  0.00000000E+00  0.00000000E+00
  0.00000000E+00  0.00000000E+00  0.00000000E+00
  0.00000000E+00  0.00000000E+00  0.00000000E+00
  0.00000000E+00  0.00000000E+00  0.00000000E+00
  0.00000000E+00  0.00000000E+00  0.00000000E+00
  0.00000000E+00  0.00000000E+00  0.00000000E+00
  0.00000000E+00  0.00000000E+00  0.00000000E+00
  0.00000000E+00  0.00000000E+00  0.00000000E+00
  0.00000000E+00  0.00000000E+00  0.00000000E+00
  0.00000000E+00  0.00000000E+00  0.00000000E+00
  0.00000000E+00  0.00000000E+00  0.00000000E+00
  0.00000000E+00  0.00000000E+00  0.00000000E+00
  0.00000000E+00  0.00000000E+00  0.00000000E+00
  0.00000000E+00  0.00000000E+00  0.00000000E+00
  0.00000000E+00  0.00000000E+00  0.00000000E+00
  0.00000000E+00  0.00000000E+00  0.00000000E+00
  0.00000000E+00  0.00000000E+00  0.00000000E+00
  0.00000000E+00  0.00000000E+00  0.00000000E+00
  0.00000000E+00  0.00000000E+00  0.00000000E+00
  0.00000000E+00  0.00000000E+00  0.00000000E+00
  0.00000000E+00  0.00000000E+00  0.00000000E+00
  0.00000000E+00  0.00000000E+00  0.00000000E+00
  0.00000000E+00  0.00000000E+00  0.00000000E+00
  0.00000000E+00  0.00000000E+00  0.00000000E+00
  0.00000000E+00  0.00000000E+00  0.00000000E+00
  0.00000000E+00  0.00000000E+00  0.00000000E+00
  0.00000000E+00  0.00000000E+00  0.00000000E+00
  0.00000000E+00  0.00000000E+00  0.00000000E+00
  0.00000000E+00  0.00000000E+00  0.00000000E+00
  0.00000000E+00  0.00000000E+00  0.00000000E+00
  0.00000000E+00  0.00000000E+00  0.00000000E+00
  0.00000000E+00  0.00000000E+00  0.00000000E+00
  0.00000000E+00  0.00000000E+00  0.00000000E+00
  0.00000000E+00  0.00000000E+00  0.00000000E+00
  0.00000000E+00  0.00000000E+00  0.00000000E+00
  0.00000000E+00  0.00000000E+00  0.00000000E+00
  0.00000000E+00  0.00000000E+00  0.00000000E+00
  0.00000000E+00  0.00000000E+00  0.00000000E+00
  0.00000000E+00  0.00000000E+00  0.00000000E+00
  0.00000000E+00  0.00000000E+00  0.00000000E+00
  0.00000000E+00  0.00000000E+00  0.00000000E+00
  0.00000000E+00  0.00000000E+00  0.00000000E+00
  0.00000000E+00  0.00000000E+00  0.00000000E+00
  0.00000000E+00  0.00000000E+00  0.00000000E+00
  0.00000000E+00  0.00000000E+00  0.00000000E+00
  0.00000000E+00  0.00000000E+00  0.00000000E+00
  0.00000000E+00  0.00000000E+00  0.00000000E+00
  0.00000000E+00  0.00000000E+00  0.00000000E+00
  0.00000000E+00  0.00000000E+00  0.00000000E+00
  0.00000000E+00  0.00000000E+00  0.00000000E+00
  0.00000000E+00  0.00000000E+00  0.00000000E+00
  0.00000000E+00  0.00000000E+00  0.00000000E+00
  0.00000000E+00  0.00000000E+00  0.00000000E+00
  0.00000000E+00  0.00000000E+00  0.00000000E+00
  0.00000000E+00  0.00000000E+00  0.00000000E+00
  0.00000000E+00  0.00000000E+00  0.00000000E+00
  0.00000000E+00  0.00000000E+00  0.00000000E+00
  0.00000000E+00  0.00000000E+00  0.00000000E+00
  0.00000000E+00  0.00000000E+00  0.00000000E+00
  0.00000000E+00  0.00000000E+00  0.00000000E+00
  0.00000000E+00  0.00000000E+00  0.00000000E+00
  0.00000000E+00  0.00000000E+00  0.00000000E+00
  0.00000000E+00  0.00000000E+00  0.00000000E+00
  0.00000000E+00  0.00000000E+00  0.00000000E+00
  0.00000000E+00  0.00000000E+00  0.00000000E+00
  0.00000000E+00  0.00000000E+00  0.00000000E+00
  0.00000000E+00  0.00000000E+00  0.00000000E+00
  0.00000000E+00  0.00000000E+00  0.00000000E+00
  0.00000000E+00  0.00000000E+00  0.00000000E+00
  0.00000000E+00  0.00000000E+00  0.00000000E+00
  0.00000000E+00  0.00000000E+00  0.00000000E+00
  0.00000000E+00  0.00000000E+00  0.00000000E+00
  0.00000000E+00  0.00000000E+00  0.00000000E+00
  0.00000000E+00  0.00000000E+00  0.00000000E+00
  0.00000000E+00  0.00000000E+00  0.00000000E+00
  0.00000000E+00  0.00000000E+00  0.00000000E+00
  0.00000000E+00  0.00000000E+00  0.00000000E+00
  0.00000000E+00  0.00000000E+00  0.00000000E+00
  0.00000000E+00  0.00000000E+00  0.00000000E+00
  0.00000000E+00  0.00000000E+00  0.00000000E+00
  0.00000000E+00  0.00000000E+00  0.00000000E+00
  0.00000000E+00  0.00000000E+00  0.00000000E+00
  0.00000000E+00  0.00000000E+00  0.00000000E+00
  0.00000000E+00  0.00000000E+00  0.00000000E+00
  0.00000000E+00  0.00000000E+00  0.00000000E+00
  0.00000000E+00  0.00000000E+00  0.00000000E+00
  0.00000000E+00  0.00000000E+00  0.00000000E+00
  0.00000000E+00  0.00000000E+00  0.00000000E+00
  0.00000000E+00  0.00000000E+00  0.00000000E+00
  0.00000000E+00  0.00000000E+00  0.00000000E+00
  0.00000000E+00  0.00000000E+00  0.00000000E+00
  0.00000000E+00  0.00000000E+00  0.00000000E+00
  0.00000000E+00  0.00000000E+00  0.00000000E+00
  0.00000000E+00  0.00000000E+00  0.00000000E+00
  0.00000000E+00  0.00000000E+00  0.00000000E+00
  0.00000000E+00  0.00000000E+00  0.00000000E+00
  0.00000000E+00  0.00000000E+00  0.00000000E+00
  0.00000000E+00  0.00000000E+00  0.00000000E+00
  0.00000000E+00  0.00000000E+00  0.00000000E+00
  0.00000000E+00  0.00000000E+00  0.00000000E+00
  0.00000000E+00  0.00000000E+00  0.00000000E+00
  0.00000000E+00  0.00000000E+00  0.00000000E+00
  0.00000000E+00  0.00000000E+00  0.00000000E+00
  0.00000000E+00  0.00000000E+00  0.00000000E+00
  0.00000000E+00  0.00000000E+00  0.00000000E+00
  0.00000000E+00  0.00000000E+00  0.00000000E+00
  0.00000000E+00  0.00000000E+00  0.00000000E+00
  0.00000000E+00  0.00000000E+00  0.00000000E+00
  0.00000000E+00  0.00000000E+00  0.00000000E+00
  0.00000000E+00  0.00000000E+00  0.00000000E+00
  0.00000000E+00  0.00000000E+00  0.00000000E+00
  0.00000000E+00  0.00000000E+00  0.00000000E+00
  0.00000000E+00  0.00000000E+00  0.00000000E+00
  0.00000000E+00  0.00000000E+00  0.00000000E+00
  0.00000000E+00  0.00000000E+00  0.00000000E+00
  0.00000000E+00  0.00000000E+00  0.00000000E+00
  0.00000000E+00  0.00000000E+00  0.00000000E+00
  0.00000000E+00  0.00000000E+00  0.00000000E+00
  0.00000000E+00  0.00000000E+00  0.00000000E+00
  0.00000000E+00  0.00000000E+00  0.00000000E+00
  0.00000000E+00  0.00000000E+00  0.00000000E+00
  0.00000000E+00  0.00000000E+00  0.00000000E+00
  0.00000000E+00  0.00000000E+00  0.00000000E+00
  0.00000000E+00  0.00000000E+00  0.00000000E+00
  0.00000000E+00  0.00000000E+00  0.00000000E+00