Sb                                      
   1.00000000000000     
    18.8726841790578099    0.0000000000000000    0.0000000000000000
     0.0000000000000000   18.8726841790578099    0.0000000000000000
     0.0000000000000000    0.0000000000000000   18.8726841790578099
   Sb   Ge
   205    11
Selective dynamics
Direct
  0.7470535800000000  0.9184693000000000  0.4958178900000000   T   T   T
  0.5979933200000001  0.7620191900000000  0.3336638700000000   T   T   T
  0.9131777400000000  0.9164583200000000  0.0056672290000000   T   T   T
  0.2513561500000000  0.2487792300000000  0.0183602510000000   T   T   T
  0.7449060600000000  0.9239199600000000  0.8350484700000000   T   T   T
  0.2365973300000000  0.9122918000000000  0.9844356500000000   T   T   T
  0.0844517420000000  0.0956725700000000  0.6752962000000000   T   T   T
  0.7615734500000000  0.2438339100000000  0.6717875900000000   T   T   T
  0.4146897000000000  0.5743922400000000  0.1736329700000000   T   T   T
  0.4198685300000000  0.0859919790000000  0.1787431800000000   T   T   T
  0.2630511900000000  0.5992185000000000  0.4980377300000000   T   T   T
  0.4085791700000000  0.2491465500000000  0.3451942800000000   T   T   T
  0.5767670400000000  0.0807441090000000  0.1859865100000000   T   T   T
  0.4250113700000000  0.9143311100000000  0.8359350700000000   T   T   T
  0.2625313700000000  0.2558911000000000  0.5121584200000000   T   T   T
  0.9191146900000000  0.2718083600000000  0.8395690000000000   T   T   T
  0.5996967200000000  0.2521626900000000  0.0316877420000000   T   T   T
  0.0690124530000000  0.9152017500000000  0.1516777200000000   T   T   T
  0.0668466260000000  0.2438875700000000  0.8487153300000000   T   T   T
  0.5886466700000000  0.0950337470000000  0.8547377400000000   T   T   T
  0.7540729300000000  0.7701912800000000  0.8255222800000001   T   T   T
  0.5803211100000000  0.7553075000000000  0.5034929600000000   T   T   T
  0.7465332400000000  0.0886268310000000  0.6777069300000000   T   T   T
  0.5817143900000000  0.9167981200000000  0.1709546200000000   T   T   T
  0.9348597199999999  0.5734134900000000  0.1620853200000000   T   T   T
  0.4215192100000000  0.4266367900000000  0.1755830000000000   T   T   T
  0.7593349000000000  0.6015904900000000  0.9885301399999999   T   T   T
  0.9042911100000000  0.9207800100000000  0.3439214800000000   T   T   T
  0.2592833200000000  0.0919551070000000  0.8391161900000000   T   T   T
  0.6006265200000001  0.7696846300000000  0.6543973600000000   T   T   T
  0.0929445880000000  0.4184935700000000  0.5274094400000000   T   T   T
  0.0860328350000000  0.2499937800000000  0.5136637400000000   T   T   T
  0.7640701300000000  0.5835637299999999  0.6554196900000000   T   T   T
  0.4238176700000000  0.4166781000000000  0.0239402300000000   T   T   T
  0.0805855230000000  0.0823375250000000  0.0195720910000000   T   T   T
  0.5987781599999999  0.5820966300000000  0.1588931900000000   T   T   T
  0.2478246200000000  0.0749492660000000  0.5057195200000000   T   T   T
  0.2565211900000000  0.5776804000000000  0.0035975253000000   T   T   T
  0.4285510300000000  0.5873914400000000  0.9985389200000000   T   T   T
  0.5963149300000000  0.9186445900000000  0.5071414700000000   T   T   T
  0.9083820500000001  0.2495833400000000  0.3406819400000000   T   T   T
  0.4126879900000000  0.2598237100000000  0.8460330600000000   T   T   T
  0.0726053030000000  0.7499874300000000  0.9932748500000000   T   T   T
  0.0771439280000000  0.5941163300000000  0.3423805500000000   T   T   T
  0.4187789100000000  0.4288088500000000  0.8417773800000000   T   T   T
  0.7553866600000000  0.4108727300000000  0.1727859300000000   T   T   T
  0.0746196370000000  0.7450839700000000  0.3443855900000000   T   T   T
  0.7533223600000000  0.7378759600000000  0.6695372300000000   T   T   T
  0.7361283300000000  0.9088161500000000  0.1783089700000000   T   T   T
  0.9199508000000000  0.7271432700000000  0.1631752200000000   T   T   T
  0.0861712540000000  0.7710197100000000  0.8206242800000000   T   T   T
  0.2427049400000000  0.5815578100000000  0.3406094600000000   T   T   T
  0.7584771600000000  0.2522591000000000  0.9960114700000000   T   T   T
  0.7621704400000000  0.7465078100000000  0.1604162200000000   T   T   T
  0.9234048700000000  0.9191905100000000  0.8200731300000000   T   T   T
  0.7517200300000000  0.0864916860000000  0.0200112310000000   T   T   T
  0.4261714500000000  0.7531998000000000  0.8265611500000000   T   T   T
  0.4154216400000000  0.5941990900000000  0.8397141500000000   T   T   T
  0.9195304800000000  0.5884411800000000  0.4966558100000000   T   T   T
  0.5764045300000000  0.7430602100000000  0.1712170900000000   T   T   T
  0.0966029270000000  0.4199404900000000  0.1786933700000000   T   T   T
  0.4317389500000000  0.9348935600000000  0.3427280400000000   T   T   T
  0.0848735310000000  0.4036714200000000  0.3474315200000000   T   T   T
  0.2446716700000000  0.1024895500000000  0.3412587800000000   T   T   T
  0.1022852500000000  0.7504269600000000  0.1444263500000000   T   T   T
  0.4149900600000000  0.2495185700000000  0.1901325200000000   T   T   T
  0.9192207999999999  0.9168947700000000  0.1653636600000000   T   T   T
  0.7388850500000000  0.4196888600000000  0.6782517700000000   T   T   T
  0.9166968800000000  0.2416003800000000  0.6717802200000000   T   T   T
  0.2550438900000000  0.9172053000000000  0.4661187000000000   T   T   T
  0.2443789500000000  0.9277119400000000  0.3128882900000000   T   T   T
  0.4279676800000000  0.2577617000000000  0.0180368640000000   T   T   T
  0.7749618800000000  0.9245016000000000  0.6542645000000000   T   T   T
  0.0707159360000000  0.0838694420000000  0.3560733700000000   T   T   T
  0.7566226200000000  0.4064290900000000  0.3433949100000000   T   T   T
  0.6079588600000000  0.2628566100000000  0.8360569900000000   T   T   T
  0.2594478000000000  0.0876304730000000  0.6717775800000000   T   T   T
  0.3984838100000000  0.0958465560000000  0.3521704800000000   T   T   T
  0.4158144300000000  0.7440446900000000  0.0057967093000000   T   T   T
  0.2571803500000000  0.9396927200000000  0.1530891200000000   T   T   T
  0.2515892000000000  0.0907236000000000  0.9933886900000000   T   T   T
  0.2365888400000000  0.5669417600000000  0.6532064000000000   T   T   T
  0.5884923399999999  0.6014093000000000  0.8193467000000000   T   T   T
  0.2645215000000000  0.4276274300000000  0.0141879020000000   T   T   T
  0.2478737800000000  0.7364330900000000  0.6569281600000000   T   T   T
  0.0950104310000000  0.1065667600000000  0.1798319100000000   T   T   T
  0.9173659500000000  0.5811712000000000  0.3318829100000000   T   T   T
  0.9304675800000000  0.0799240590000000  0.1746159000000000   T   T   T
  0.5945479299999999  0.0977972920000000  0.6900247200000000   T   T   T
  0.7464482300000000  0.2497017700000000  0.5094966200000000   T   T   T
  0.4334137800000000  0.0921421360000000  0.8432393200000000   T   T   T
  0.2515559900000000  0.2533499000000000  0.3498481500000000   T   T   T
  0.2532338600000000  0.7536352400000000  0.1744683400000000   T   T   T
  0.9315888200000000  0.4305411300000000  0.9923543500000001   T   T   T
  0.2455725200000000  0.2399483900000000  0.6791074700000000   T   T   T
  0.2534880600000000  0.2642425500000000  0.1759033900000000   T   T   T
  0.4308200300000000  0.1031675900000000  0.5069374500000000   T   T   T
  0.0785827590000000  0.7373906800000000  0.6651361300000000   T   T   T
  0.5740325400000000  0.5787569299999999  0.9963938700000000   T   T   T
  0.0973772120000000  0.4124918800000000  0.0245713840000000   T   T   T
  0.2528937000000000  0.4204289000000000  0.6806788300000000   T   T   T
  0.2547204300000000  0.7586990400000000  0.3291946500000000   T   T   T
  0.5773229900000000  0.2555135300000000  0.3497151200000000   T   T   T
  0.7604676200000000  0.7488659900000000  0.4901484400000000   T   T   T
  0.5963813500000000  0.4178095600000000  0.0037123691000000   T   T   T
  0.7334139800000000  0.0704928870000000  0.3564705900000000   T   T   T
  0.4202176500000000  0.9330963900000000  0.0131210750000000   T   T   T
  0.7512978600000000  0.9365677500000000  0.0064528257000000   T   T   T
  0.5791933100000000  0.9337842400000000  0.0200715350000000   T   T   T
  0.4113487300000000  0.9088322800000000  0.1914459700000000   T   T   T
  0.7513953200000000  0.4275698200000000  0.8328102800000000   T   T   T
  0.9246561100000000  0.9278741800000000  0.5126286000000000   T   T   T
  0.2510090600000000  0.4206086600000000  0.1863757400000000   T   T   T
  0.9183238800000000  0.4045047200000000  0.1788495600000000   T   T   T
  0.7326118900000000  0.2409936200000000  0.1817587800000000   T   T   T
  0.9184291999999999  0.7537240100000000  0.3265526600000000   T   T   T
  0.2385439100000000  0.7593663899999999  0.9825838700000000   T   T   T
  0.5832550000000000  0.9334905400000000  0.8408080800000000   T   T   T
  0.4304160200000000  0.7426123900000000  0.1586692400000000   T   T   T
  0.7498839600000000  0.7509917500000000  0.9946605300000000   T   T   T
  0.0984420180000000  0.0990198370000000  0.8398817800000000   T   T   T
  0.7547061300000000  0.4172794000000000  0.0049420062000000   T   T   T
  0.5796782100000000  0.9183294300000000  0.3486984200000000   T   T   T
  0.9061106600000000  0.7420719600000000  0.4964844800000000   T   T   T
  0.4294867400000000  0.7503709900000000  0.4890526900000000   T   T   T
  0.7516798700000000  0.7470237700000000  0.3366738500000000   T   T   T
  0.5835516900000000  0.9210408300000000  0.6856779800000000   T   T   T
  0.7564489700000000  0.5925571100000000  0.3170874600000000   T   T   T
  0.7539994500000000  0.1067058400000000  0.8402774400000000   T   T   T
  0.0816966410000000  0.0871285440000000  0.5078958500000000   T   T   T
  0.0801267370000000  0.9314355000000000  0.9804704700000000   T   T   T
  0.2561505900000000  0.0941219900000000  0.1732683100000000   T   T   T
  0.1101264600000000  0.9347289300000000  0.6519324600000000   T   T   T
  0.4319551700000000  0.2672090800000000  0.6847593800000000   T   T   T
  0.0917168110000000  0.2541731900000000  0.0177004550000000   T   T   T
  0.0807987080000000  0.4411390100000000  0.8528750400000000   T   T   T
  0.2579796500000000  0.9073966800000000  0.6519026999999999   T   T   T
  0.7620799200000000  0.4221221200000000  0.4969552600000000   T   T   T
  0.4174925200000000  0.0675160730000000  0.6767881400000000   T   T   T
  0.5822598600000000  0.2606907400000000  0.6807724400000000   T   T   T
  0.5809301500000000  0.0970800110000000  0.3389824100000000   T   T   T
  0.4018963400000000  0.0911058730000000  0.0100667080000000   T   T   T
  0.9120643200000000  0.7603748700000000  0.8201958900000000   T   T   T
  0.9187094400000000  0.5977177100000000  0.8082066200000000   T   T   T
  0.0803680870000000  0.9241141899999999  0.8156630400000000   T   T   T
  0.9119509700000000  0.4252761600000000  0.8334914200000000   T   T   T
  0.0712942310000000  0.4162750000000000  0.6840809300000000   T   T   T
  0.9151702600000000  0.2569728100000000  0.5029033900000000   T   T   T
  0.0908724420000000  0.2502039000000000  0.3192177000000000   T   T   T
  0.7567797200000000  0.9121335000000000  0.3353606200000000   T   T   T
  0.9070420400000000  0.2520565300000000  0.0153782380000000   T   T   T
  0.7650007900000000  0.0925431210000000  0.5113670100000000   T   T   T
  0.9259745500000000  0.5846293400000000  0.9929731700000000   T   T   T
  0.7498033000000000  0.2544907500000000  0.3340297300000000   T   T   T
  0.0928936730000000  0.5888364900000000  0.9810319500000000   T   T   T
  0.0889999190000000  0.5676644400000000  0.1876483500000000   T   T   T
  0.9170485700000000  0.4030695500000000  0.4938563100000000   T   T   T
  0.5756499400000000  0.4012121800000000  0.1824857300000000   T   T   T
  0.2510530300000000  0.7555036800000000  0.8328201200000001   T   T   T
  0.0779572050000000  0.5900476600000000  0.5133680900000001   T   T   T
  0.7424964700000000  0.5927451900000000  0.5032790300000000   T   T   T
  0.5936496999999999  0.4099839800000000  0.8451603400000000   T   T   T
  0.9219469400000000  0.0865492610000000  0.3275367500000000   T   T   T
  0.5842532600000000  0.0848581570000000  0.5240403700000000   T   T   T
  0.7549410600000001  0.5670162100000000  0.1766190100000000   T   T   T
  0.2512479900000000  0.4090989200000000  0.8615839700000000   T   T   T
  0.5852235500000000  0.7745875700000000  0.9947471600000000   T   T   T
  0.9117582200000000  0.7596543400000000  0.9927544000000000   T   T   T
  0.4353399600000000  0.9261337400000000  0.6530011300000000   T   T   T
  0.4048438000000000  0.9038945600000000  0.4961321200000000   T   T   T
  0.2536945000000000  0.4190799400000000  0.3432384500000000   T   T   T
  0.2466133400000000  0.4081800800000000  0.5250794500000000   T   T   T
  0.7679489300000000  0.0764521140000000  0.1865614100000000   T   T   T
  0.0940787030000000  0.7473186500000000  0.5004099300000000   T   T   T
  0.0779868590000000  0.9352227300000000  0.3230309600000000   T   T   T
  0.2552402700000000  0.2521725000000000  0.8324256100000000   T   T   T
  0.2635328300000000  0.9301675400000000  0.8060526000000000   T   T   T
  0.9242317000000000  0.7725341400000000  0.6436960300000000   T   T   T
  0.0903798310000000  0.2620698100000000  0.6727594400000000   T   T   T
  0.9223421900000000  0.2557605700000000  0.1672233000000000   T   T   T
  0.4102267600000000  0.7504482600000000  0.6729050500000000   T   T   T
  0.7517128300000000  0.5994931999999999  0.8362256000000000   T   T   T
  0.2597628600000000  0.5957952200000000  0.1539893600000000   T   T   T
  0.0739357680000000  0.9198224500000000  0.4905161700000000   T   T   T
  0.9320186200000000  0.0895267970000000  0.0027495624000000   T   T   T
  0.5912878499999999  0.2615269000000000  0.5123340900000000   T   T   T
  0.0781168230000000  0.5951691300000000  0.8326652500000000   T   T   T
  0.5865172700000000  0.0995718560000000  0.0128258220000000   T   T   T
  0.4097324500000000  0.7501273600000000  0.3361159900000000   T   T   T
  0.9176682000000000  0.4340762400000000  0.6543431199999999   T   T   T
  0.2597819000000000  0.5948311300000000  0.8264961100000000   T   T   T
  0.9196355500000000  0.0771596170000000  0.8285919500000000   T   T   T
  0.5761179300000000  0.7510525800000000  0.8183757699999999   T   T   T
  0.4098299700000000  0.4105500000000000  0.3493199900000000   F   F   F
  0.4210000000000000  0.5906100300000000  0.3288600100000000   F   F   F
  0.5893000400000000  0.4294100100000000  0.3294600000000000   F   F   F
  0.4098299700000000  0.5795900200000000  0.5097299800000000   F   F   F
  0.5778700100000000  0.5859400000000000  0.3337799900000000   F   F   F
  0.4100900300000000  0.4120700100000000  0.6862800100000001   F   F   F
  0.4212600000000000  0.4230700100000000  0.5054100200000000   F   F   F
  0.5893000400000000  0.5984500000000000  0.4898800000000000   F   F   F
  0.5781300100000000  0.5874400100000000  0.6707500199999999   F   F   F
  0.4212600000000000  0.5921099800000000  0.6658300200000000   F   F   F
  0.5895600300000000  0.4309099900000000  0.6664199800000000   F   F   F
  0.5781300100000000  0.4183900100000000  0.5103300200000001   F   F   F
  0.2498321000000000  0.7490779000000000  0.5164443800000000   T   T   T
  0.9286906800000000  0.9211217600000000  0.6700490600000000   T   T   T
  0.4183796100000000  0.2540068100000000  0.5182728500000000   T   T   T
  0.0705743210000000  0.2626342100000000  0.1744365100000000   T   T   T
  0.7605878400000000  0.2497527600000000  0.8513941700000000   T   T   T
  0.0812725400000000  0.5827091000000000  0.6498124900000000   T   T   T
  0.5822721100000000  0.2522139800000000  0.1862981700000000   T   T   T
  0.9330428600000000  0.0862037890000000  0.6676564100000000   T   T   T
  0.9388156900000000  0.4226088000000000  0.3286606100000000   T   T   T
  0.9162795400000000  0.5813518600000001  0.6583398600000000   T   T   T
  0.9138181300000000  0.0794864440000000  0.5085262400000000   T   T   T
 
  0.00000000E+00  0.00000000E+00  0.00000000E+00
  0.00000000E+00  0.00000000E+00  0.00000000E+00
  0.00000000E+00  0.00000000E+00  0.00000000E+00
  0.00000000E+00  0.00000000E+00  0.00000000E+00
  0.00000000E+00  0.00000000E+00  0.00000000E+00
  0.00000000E+00  0.00000000E+00  0.00000000E+00
  0.00000000E+00  0.00000000E+00  0.00000000E+00
  0.00000000E+00  0.00000000E+00  0.00000000E+00
  0.00000000E+00  0.00000000E+00  0.00000000E+00
  0.00000000E+00  0.00000000E+00  0.00000000E+00
  0.00000000E+00  0.00000000E+00  0.00000000E+00
  0.00000000E+00  0.00000000E+00  0.00000000E+00
  0.00000000E+00  0.00000000E+00  0.00000000E+00
  0.00000000E+00  0.00000000E+00  0.00000000E+00
  0.00000000E+00  0.00000000E+00  0.00000000E+00
  0.00000000E+00  0.00000000E+00  0.00000000E+00
  0.00000000E+00  0.00000000E+00  0.00000000E+00
  0.00000000E+00  0.00000000E+00  0.00000000E+00
  0.00000000E+00  0.00000000E+00  0.00000000E+00
  0.00000000E+00  0.00000000E+00  0.00000000E+00
  0.00000000E+00  0.00000000E+00  0.00000000E+00
  0.00000000E+00  0.00000000E+00  0.00000000E+00
  0.00000000E+00  0.00000000E+00  0.00000000E+00
  0.00000000E+00  0.00000000E+00  0.00000000E+00
  0.00000000E+00  0.00000000E+00  0.00000000E+00
  0.00000000E+00  0.00000000E+00  0.00000000E+00
  0.00000000E+00  0.00000000E+00  0.00000000E+00
  0.00000000E+00  0.00000000E+00  0.00000000E+00
  0.00000000E+00  0.00000000E+00  0.00000000E+00
  0.00000000E+00  0.00000000E+00  0.00000000E+00
  0.00000000E+00  0.00000000E+00  0.00000000E+00
  0.00000000E+00  0.00000000E+00  0.00000000E+00
  0.00000000E+00  0.00000000E+00  0.00000000E+00
  0.00000000E+00  0.00000000E+00  0.00000000E+00
  0.00000000E+00  0.00000000E+00  0.00000000E+00
  0.00000000E+00  0.00000000E+00  0.00000000E+00
  0.00000000E+00  0.00000000E+00  0.00000000E+00
  0.00000000E+00  0.00000000E+00  0.00000000E+00
  0.00000000E+00  0.00000000E+00  0.00000000E+00
  0.00000000E+00  0.00000000E+00  0.00000000E+00
  0.00000000E+00  0.00000000E+00  0.00000000E+00
  0.00000000E+00  0.00000000E+00  0.00000000E+00
  0.00000000E+00  0.00000000E+00  0.00000000E+00
  0.00000000E+00  0.00000000E+00  0.00000000E+00
  0.00000000E+00  0.00000000E+00  0.00000000E+00
  0.00000000E+00  0.00000000E+00  0.00000000E+00
  0.00000000E+00  0.00000000E+00  0.00000000E+00
  0.00000000E+00  0.00000000E+00  0.00000000E+00
  0.00000000E+00  0.00000000E+00  0.00000000E+00
  0.00000000E+00  0.00000000E+00  0.00000000E+00
  0.00000000E+00  0.00000000E+00  0.00000000E+00
  0.00000000E+00  0.00000000E+00  0.00000000E+00
  0.00000000E+00  0.00000000E+00  0.00000000E+00
  0.00000000E+00  0.00000000E+00  0.00000000E+00
  0.00000000E+00  0.00000000E+00  0.00000000E+00
  0.00000000E+00  0.00000000E+00  0.00000000E+00
  0.00000000E+00  0.00000000E+00  0.00000000E+00
  0.00000000E+00  0.00000000E+00  0.00000000E+00
  0.00000000E+00  0.00000000E+00  0.00000000E+00
  0.00000000E+00  0.00000000E+00  0.00000000E+00
  0.00000000E+00  0.00000000E+00  0.00000000E+00
  0.00000000E+00  0.00000000E+00  0.00000000E+00
  0.00000000E+00  0.00000000E+00  0.00000000E+00
  0.00000000E+00  0.00000000E+00  0.00000000E+00
  0.00000000E+00  0.00000000E+00  0.00000000E+00
  0.00000000E+00  0.00000000E+00  0.00000000E+00
  0.00000000E+00  0.00000000E+00  0.00000000E+00
  0.00000000E+00  0.00000000E+00  0.00000000E+00
  0.00000000E+00  0.00000000E+00  0.00000000E+00
  0.00000000E+00  0.00000000E+00  0.00000000E+00
  0.00000000E+00  0.00000000E+00  0.00000000E+00
  0.00000000E+00  0.00000000E+00  0.00000000E+00
  0.00000000E+00  0.00000000E+00  0.00000000E+00
  0.00000000E+00  0.00000000E+00  0.00000000E+00
  0.00000000E+00  0.00000000E+00  0.00000000E+00
  0.00000000E+00  0.00000000E+00  0.00000000E+00
  0.00000000E+00  0.00000000E+00  0.00000000E+00
  0.00000000E+00  0.00000000E+00  0.00000000E+00
  0.00000000E+00  0.00000000E+00  0.00000000E+00
  0.00000000E+00  0.00000000E+00  0.00000000E+00
  0.00000000E+00  0.00000000E+00  0.00000000E+00
  0.00000000E+00  0.00000000E+00  0.00000000E+00
  0.00000000E+00  0.00000000E+00  0.00000000E+00
  0.00000000E+00  0.00000000E+00  0.00000000E+00
  0.00000000E+00  0.00000000E+00  0.00000000E+00
  0.00000000E+00  0.00000000E+00  0.00000000E+00
  0.00000000E+00  0.00000000E+00  0.00000000E+00
  0.00000000E+00  0.00000000E+00  0.00000000E+00
  0.00000000E+00  0.00000000E+00  0.00000000E+00
  0.00000000E+00  0.00000000E+00  0.00000000E+00
  0.00000000E+00  0.00000000E+00  0.00000000E+00
  0.00000000E+00  0.00000000E+00  0.00000000E+00
  0.00000000E+00  0.00000000E+00  0.00000000E+00
  0.00000000E+00  0.00000000E+00  0.00000000E+00
  0.00000000E+00  0.00000000E+00  0.00000000E+00
  0.00000000E+00  0.00000000E+00  0.00000000E+00
  0.00000000E+00  0.00000000E+00  0.00000000E+00
  0.00000000E+00  0.00000000E+00  0.00000000E+00
  0.00000000E+00  0.00000000E+00  0.00000000E+00
  0.00000000E+00  0.00000000E+00  0.00000000E+00
  0.00000000E+00  0.00000000E+00  0.00000000E+00
  0.00000000E+00  0.00000000E+00  0.00000000E+00
  0.00000000E+00  0.00000000E+00  0.00000000E+00
  0.00000000E+00  0.00000000E+00  0.00000000E+00
  0.00000000E+00  0.00000000E+00  0.00000000E+00
  0.00000000E+00  0.00000000E+00  0.00000000E+00
  0.00000000E+00  0.00000000E+00  0.00000000E+00
  0.00000000E+00  0.00000000E+00  0.00000000E+00
  0.00000000E+00  0.00000000E+00  0.00000000E+00
  0.00000000E+00  0.00000000E+00  0.00000000E+00
  0.00000000E+00  0.00000000E+00  0.00000000E+00
  0.00000000E+00  0.00000000E+00  0.00000000E+00
  0.00000000E+00  0.00000000E+00  0.00000000E+00
  0.00000000E+00  0.00000000E+00  0.00000000E+00
  0.00000000E+00  0.00000000E+00  0.00000000E+00
  0.00000000E+00  0.00000000E+00  0.00000000E+00
  0.00000000E+00  0.00000000E+00  0.00000000E+00
  0.00000000E+00  0.00000000E+00  0.00000000E+00
  0.00000000E+00  0.00000000E+00  0.00000000E+00
  0.00000000E+00  0.00000000E+00  0.00000000E+00
  0.00000000E+00  0.00000000E+00  0.00000000E+00
  0.00000000E+00  0.00000000E+00  0.00000000E+00
  0.00000000E+00  0.00000000E+00  0.00000000E+00
  0.00000000E+00  0.00000000E+00  0.00000000E+00
  0.00000000E+00  0.00000000E+00  0.00000000E+00
  0.00000000E+00  0.00000000E+00  0.00000000E+00
  0.00000000E+00  0.00000000E+00  0.00000000E+00
  0.00000000E+00  0.00000000E+00  0.00000000E+00
  0.00000000E+00  0.00000000E+00  0.00000000E+00
  0.00000000E+00  0.00000000E+00  0.00000000E+00
  0.00000000E+00  0.00000000E+00  0.00000000E+00
  0.00000000E+00  0.00000000E+00  0.00000000E+00
  0.00000000E+00  0.00000000E+00  0.00000000E+00
  0.00000000E+00  0.00000000E+00  0.00000000E+00
  0.00000000E+00  0.00000000E+00  0.00000000E+00
  0.00000000E+00  0.00000000E+00  0.00000000E+00
  0.00000000E+00  0.00000000E+00  0.00000000E+00
  0.00000000E+00  0.00000000E+00  0.00000000E+00
  0.00000000E+00  0.00000000E+00  0.00000000E+00
  0.00000000E+00  0.00000000E+00  0.00000000E+00
  0.00000000E+00  0.00000000E+00  0.00000000E+00
  0.00000000E+00  0.00000000E+00  0.00000000E+00
  0.00000000E+00  0.00000000E+00  0.00000000E+00
  0.00000000E+00  0.00000000E+00  0.00000000E+00
  0.00000000E+00  0.00000000E+00  0.00000000E+00
  0.00000000E+00  0.00000000E+00  0.00000000E+00
  0.00000000E+00  0.00000000E+00  0.00000000E+00
  0.00000000E+00  0.00000000E+00  0.00000000E+00
  0.00000000E+00  0.00000000E+00  0.00000000E+00
  0.00000000E+00  0.00000000E+00  0.00000000E+00
  0.00000000E+00  0.00000000E+00  0.00000000E+00
  0.00000000E+00  0.00000000E+00  0.00000000E+00
  0.00000000E+00  0.00000000E+00  0.00000000E+00
  0.00000000E+00  0.00000000E+00  0.00000000E+00
  0.00000000E+00  0.00000000E+00  0.00000000E+00
  0.00000000E+00  0.00000000E+00  0.00000000E+00
  0.00000000E+00  0.00000000E+00  0.00000000E+00
  0.00000000E+00  0.00000000E+00  0.00000000E+00
  0.00000000E+00  0.00000000E+00  0.00000000E+00
  0.00000000E+00  0.00000000E+00  0.00000000E+00
  0.00000000E+00  0.00000000E+00  0.00000000E+00
  0.00000000E+00  0.00000000E+00  0.00000000E+00
  0.00000000E+00  0.00000000E+00  0.00000000E+00
  0.00000000E+00  0.00000000E+00  0.00000000E+00
  0.00000000E+00  0.00000000E+00  0.00000000E+00
  0.00000000E+00  0.00000000E+00  0.00000000E+00
  0.00000000E+00  0.00000000E+00  0.00000000E+00
  0.00000000E+00  0.00000000E+00  0.00000000E+00
  0.00000000E+00  0.00000000E+00  0.00000000E+00
  0.00000000E+00  0.00000000E+00  0.00000000E+00
  0.00000000E+00  0.00000000E+00  0.00000000E+00
  0.00000000E+00  0.00000000E+00  0.00000000E+00
  0.00000000E+00  0.00000000E+00  0.00000000E+00
  0.00000000E+00  0.00000000E+00  0.00000000E+00
  0.00000000E+00  0.00000000E+00  0.00000000E+00
  0.00000000E+00  0.00000000E+00  0.00000000E+00
  0.00000000E+00  0.00000000E+00  0.00000000E+00
  0.00000000E+00  0.00000000E+00  0.00000000E+00
  0.00000000E+00  0.00000000E+00  0.00000000E+00
  0.00000000E+00  0.00000000E+00  0.00000000E+00
  0.00000000E+00  0.00000000E+00  0.00000000E+00
  0.00000000E+00  0.00000000E+00  0.00000000E+00
  0.00000000E+00  0.00000000E+00  0.00000000E+00
  0.00000000E+00  0.00000000E+00  0.00000000E+00
  0.00000000E+00  0.00000000E+00  0.00000000E+00
  0.00000000E+00  0.00000000E+00  0.00000000E+00
  0.00000000E+00  0.00000000E+00  0.00000000E+00
  0.00000000E+00  0.00000000E+00  0.00000000E+00
  0.00000000E+00  0.00000000E+00  0.00000000E+00
  0.00000000E+00  0.00000000E+00  0.00000000E+00
  0.00000000E+00  0.00000000E+00  0.00000000E+00
  0.00000000E+00  0.00000000E+00  0.00000000E+00
  0.00000000E+00  0.00000000E+00  0.00000000E+00
  0.00000000E+00  0.00000000E+00  0.00000000E+00
  0.00000000E+00  0.00000000E+00  0.00000000E+00
  0.00000000E+00  0.00000000E+00  0.00000000E+00
  0.00000000E+00  0.00000000E+00  0.00000000E+00
  0.00000000E+00  0.00000000E+00  0.00000000E+00
  0.00000000E+00  0.00000000E+00  0.00000000E+00
  0.00000000E+00  0.00000000E+00  0.00000000E+00
  0.00000000E+00  0.00000000E+00  0.00000000E+00
  0.00000000E+00  0.00000000E+00  0.00000000E+00
  0.00000000E+00  0.00000000E+00  0.00000000E+00
  0.00000000E+00  0.00000000E+00  0.00000000E+00
  0.00000000E+00  0.00000000E+00  0.00000000E+00
  0.00000000E+00  0.00000000E+00  0.00000000E+00
  0.00000000E+00  0.00000000E+00  0.00000000E+00
  0.00000000E+00  0.00000000E+00  0.00000000E+00
  0.00000000E+00  0.00000000E+00  0.00000000E+00
  0.00000000E+00  0.00000000E+00  0.00000000E+00
  0.00000000E+00  0.00000000E+00  0.00000000E+00
  0.00000000E+00  0.00000000E+00  0.00000000E+00
  0.00000000E+00  0.00000000E+00  0.00000000E+00
  0.00000000E+00  0.00000000E+00  0.00000000E+00
  0.00000000E+00  0.00000000E+00  0.00000000E+00
  0.00000000E+00  0.00000000E+00  0.00000000E+00
 
           1
   4.00000000000000     
  0.10000000E+01  0.00000000E+00  0.00000000E+00  0.00000000E+00
  0.74705358E+00  0.91846930E+00  0.49581789E+00
  0.59799332E+00  0.76201919E+00  0.33366387E+00
  0.91317774E+00  0.91645832E+00  0.56672290E-02
  0.25135615E+00  0.24877923E+00  0.18360251E-01
  0.74490606E+00  0.92391996E+00  0.83504847E+00
  0.23659733E+00  0.91229180E+00  0.98443565E+00
  0.84451742E-01  0.95672570E-01  0.67529620E+00
  0.76157345E+00  0.24383391E+00  0.67178759E+00
  0.41468970E+00  0.57439224E+00  0.17363297E+00
  0.41986853E+00  0.85991979E-01  0.17874318E+00
  0.26305119E+00  0.59921850E+00  0.49803773E+00
  0.40857917E+00  0.24914655E+00  0.34519428E+00
  0.57676704E+00  0.80744109E-01  0.18598651E+00
  0.42501137E+00  0.91433111E+00  0.83593507E+00
  0.26253137E+00  0.25589110E+00  0.51215842E+00
  0.91911469E+00  0.27180836E+00  0.83956900E+00
  0.59969672E+00  0.25216269E+00  0.31687742E-01
  0.69012453E-01  0.91520175E+00  0.15167772E+00
  0.66846626E-01  0.24388757E+00  0.84871533E+00
  0.58864667E+00  0.95033747E-01  0.85473774E+00
  0.75407293E+00  0.77019128E+00  0.82552228E+00
  0.58032111E+00  0.75530750E+00  0.50349296E+00
  0.74653324E+00  0.88626831E-01  0.67770693E+00
  0.58171439E+00  0.91679812E+00  0.17095462E+00
  0.93485972E+00  0.57341349E+00  0.16208532E+00
  0.42151921E+00  0.42663679E+00  0.17558300E+00
  0.75933490E+00  0.60159049E+00  0.98853014E+00
  0.90429111E+00  0.92078001E+00  0.34392148E+00
  0.25928332E+00  0.91955107E-01  0.83911619E+00
  0.60062652E+00  0.76968463E+00  0.65439736E+00
  0.92944588E-01  0.41849357E+00  0.52740944E+00
  0.86032835E-01  0.24999378E+00  0.51366374E+00
  0.76407013E+00  0.58356373E+00  0.65541969E+00
  0.42381767E+00  0.41667810E+00  0.23940230E-01
  0.80585523E-01  0.82337525E-01  0.19572091E-01
  0.59877816E+00  0.58209663E+00  0.15889319E+00
  0.24782462E+00  0.74949266E-01  0.50571952E+00
  0.25652119E+00  0.57768040E+00  0.35975253E-02
  0.42855103E+00  0.58739144E+00  0.99853892E+00
  0.59631493E+00  0.91864459E+00  0.50714147E+00
  0.90838205E+00  0.24958334E+00  0.34068194E+00
  0.41268799E+00  0.25982371E+00  0.84603306E+00
  0.72605303E-01  0.74998743E+00  0.99327485E+00
  0.77143928E-01  0.59411633E+00  0.34238055E+00
  0.41877891E+00  0.42880885E+00  0.84177738E+00
  0.75538666E+00  0.41087273E+00  0.17278593E+00
  0.74619637E-01  0.74508397E+00  0.34438559E+00
  0.75332236E+00  0.73787596E+00  0.66953723E+00
  0.73612833E+00  0.90881615E+00  0.17830897E+00
  0.91995080E+00  0.72714327E+00  0.16317522E+00
  0.86171254E-01  0.77101971E+00  0.82062428E+00
  0.24270494E+00  0.58155781E+00  0.34060946E+00
  0.75847716E+00  0.25225910E+00  0.99601147E+00
  0.76217044E+00  0.74650781E+00  0.16041622E+00
  0.92340487E+00  0.91919051E+00  0.82007313E+00
  0.75172003E+00  0.86491686E-01  0.20011231E-01
  0.42617145E+00  0.75319980E+00  0.82656115E+00
  0.41542164E+00  0.59419909E+00  0.83971415E+00
  0.91953048E+00  0.58844118E+00  0.49665581E+00
  0.57640453E+00  0.74306021E+00  0.17121709E+00
  0.96602927E-01  0.41994049E+00  0.17869337E+00
  0.43173895E+00  0.93489356E+00  0.34272804E+00
  0.84873531E-01  0.40367142E+00  0.34743152E+00
  0.24467167E+00  0.10248955E+00  0.34125878E+00
  0.10228525E+00  0.75042696E+00  0.14442635E+00