Amorphous GeAsSeSi                      
   1.00000000000000     
    19.0036188657994742    0.0000000000000000    0.0000000000000000
     0.0000000000000000   19.0036188657994742    0.0000000000000000
     0.0000000000000000    0.0000000000000000   19.0036188657994742
   Ge   Si   Se
   108    24   108
Direct
  0.9915790797701766  0.2059595941892754  0.7840988823959518
  0.1207127332984016  0.5001457481747962  0.1527300228046110
  0.8209936638804582  0.7130618375629617  0.7858334253565200
  0.6996411644283022  0.9607565645317752  0.1674492482484950
  0.1776730862164346  0.2464773125969291  0.2652408376633987
  0.9318288883229061  0.5878731120846616  0.9699924992591141
  0.2529956970003487  0.9520020001996475  0.1744950850383454
  0.8807621968597013  0.2909598186426328  0.3545158680302788
  0.7445686145842896  0.5674249673789773  0.6321512655430485
  0.7096548806404968  0.5534161394521965  0.4918778412891557
  0.0957291066075399  0.1187699126421246  0.0787425312058200
  0.7733210213811058  0.8539219518088469  0.1962725942740493
  0.3831635342265320  0.6727377106625224  0.1792262093131229
  0.9831157210978528  0.7967210238634967  0.5623075003363674
  0.4015974639392469  0.8893302618767199  0.9277891109724786
  0.4747377770844841  0.7962825711674807  0.6761066521108884
  0.3729731956161042  0.1626164268670619  0.4737262139636078
  0.3040849771148512  0.2854654032258137  0.6105695776917509
  0.2208139398235980  0.3110079897045680  0.4887824782828898
  0.1762795959526693  0.4554299140338126  0.4995866871560525
  0.0736494937219071  0.5256857340623239  0.8705292426714315
  0.7781797103639472  0.5858655098986921  0.7747338795737485
  0.7899742273793088  0.1960304537050859  0.6643530652043678
  0.5876704611095488  0.2574091104544052  0.2834490134363603
  0.9779203201848020  0.5102185957763031  0.6106994866418437
  0.9075118517965914  0.4320667690117628  0.8268383413686620
  0.8297791618913699  0.6641340030009596  0.4952148729650106
  0.6147015731578687  0.7307690181697376  0.8105304642203647
  0.7828986192000973  0.1617964819646104  0.4471809119871210
  0.5656411750455967  0.9949625729389961  0.6700734908699346
  0.5782900859275418  0.4144404733508562  0.6229655891066250
  0.8266305197855952  0.3932365042017071  0.2112057355582063
  0.6601198312091453  0.7910152248883898  0.9235247592874476
  0.8076018555382122  0.2537696279573735  0.2483357049595023
  0.8398350183259781  0.5307024069957369  0.8902549629888318
  0.9110771525359397  0.0710159694116121  0.2718472530157509
  0.1447170400051767  0.8944316193345502  0.7204497283291448
  0.8569977332333889  0.6484179349851549  0.2029137635619919
  0.8297464593991768  0.6742866891740317  0.0174941680592544
  0.5957619041757284  0.5182488240872201  0.7996931883799370
  0.7025355485468755  0.2701561618655445  0.7358534280389566
  0.3895497204232632  0.6824504751603280  0.9667254021605104
  0.6214901133655367  0.5371721001867946  0.6730647173323386
  0.8418320275406170  0.7609215629260578  0.1279752210697235
  0.2993158374443910  0.3930038431105814  0.3332239873470046
  0.1119326730674837  0.3878832312102898  0.7041940992203571
  0.0188632337811515  0.1195820600924955  0.3390898907236889
  0.0436594115136812  0.3991673157739004  0.8166627755249660
  0.7368895662102352  0.3567775332785873  0.9605725039885961
  0.2218536566790581  0.0487254101662301  0.0103780079924672
  0.3412002688737687  0.6270936418437886  0.7268798645031109
  0.5115294421157605  0.3005625500222301  0.5970897433268163
  0.7273060184166116  0.5473133590082560  0.3498525159535010
  0.3982016856310279  0.0162394603306247  0.7534052497006616
  0.9069363525802400  0.8655885115912432  0.0795760308086227
  0.4353784087670113  0.9839426466654296  0.3338185204071916
  0.6874391296707019  0.2567287685905801  0.1828547585805249
  0.1347811910898084  0.6614523859678872  0.4637911956028974
  0.5827253325925120  0.2199319407144880  0.6874581099855512
  0.0909589360700543  0.7580730913689472  0.0895661249363836
  0.7643402963033923  0.3787915159343025  0.3711338225477006
  0.8642111014998314  0.0243607451187878  0.8668366632610278
  0.3653479018648549  0.5332655580234227  0.1651375856178743
  0.7017834489135237  0.7067041898511338  0.6305158505718356
  0.6778920391031213  0.8055227971143254  0.0777438982601278
  0.2019537885590012  0.2897470114899221  0.7064107486993683
  0.7299888241051589  0.0064222720910345  0.3010769552501594
  0.3698377100354937  0.8384565226289494  0.3028655720632379
  0.2364290766926275  0.6388096225444749  0.5567686914634773
  0.0785418522653040  0.5177876150771220  0.3210942640128179
  0.9506814410633400  0.3414595022972067  0.6834896478070838
  0.1091731621206341  0.3189518196031947  0.8938330885913884
  0.3950903106831968  0.9966460784476874  0.6040812692507790
  0.6529983915167344  0.4571152033508871  0.2687866872062872
  0.9100115755701196  0.2797999502496832  0.1359795921368556
  0.5523449721992313  0.5949057380256472  0.3085111022252218
  0.2699689859724773  0.6067844418676555  0.9781863749591068
  0.4459940742172384  0.1558205321209972  0.1799635483973648
  0.2306835226997957  0.0862175358766888  0.5596146342685578
  0.6756217342794348  0.0908018229485285  0.3983640992959573
  0.9304337521512654  0.9645501221463281  0.1771589821965079
  0.1597297651748536  0.3990300727861374  0.9791371528202343
  0.4888470050955830  0.6847934785418636  0.8796993169072027
  0.2992720282034644  0.2406832227142236  0.1659201184728799
  0.5158646700189359  0.0036201191236585  0.4612994181542585
  0.0037090447090554  0.3733389409915500  0.0476738054933162
  0.5008457375987705  0.2367280966248697  0.7967168885180151
  0.8796095553650191  0.1454161807076990  0.7520727404164680
  0.3167635885457337  0.6725401082391207  0.4539347805492340
  0.1426121285382065  0.8747686005289413  0.5190470660944494
  0.6097178056842953  0.8835778462023347  0.2387195795930516
  0.5025755197590573  0.5658520432729738  0.5166253265285717
  0.3259912707299057  0.5012908053073388  0.9189214767645784
  0.4167784432149769  0.3522033069534264  0.8666008545913128
  0.9973281192435741  0.6664538742975497  0.4102723426474359
  0.8879120154835827  0.2369488186820469  0.9178390595767716
  0.3936761557364976  0.8282365022982331  0.0869440129191740
  0.4991125490834899  0.2275528865782345  0.4664504472056953
  0.0719814779383317  0.4926486148951808  0.0104739579099559
  0.6524936914702750  0.0934264108279102  0.8859602588977512
  0.5676988273813339  0.7287616353088811  0.5882707685678276
  0.8788230681602732  0.8361982157880704  0.6377968497580677
  0.8856672435091913  0.4584674454239847  0.0931542799088637
  0.9765548130034463  0.9682845484098966  0.4322601011032963
  0.3413139392518026  0.0111221149946102  0.9806970398791939
  0.4623876675248315  0.4034311970017264  0.2651705249865658
  0.0450882310041724  0.2235321255633564  0.2584272173670419
  0.5623775502718744  0.1598181236706082  0.3741675932244585
  0.2655255079574503  0.3640902803907552  0.0475825711083902
  0.6946387281171874  0.0411762305362099  0.5771982705181087
  0.2851110662186843  0.2250593290529007  0.4142189579292110
  0.5944068922715411  0.1106453982002354  0.6237797217257940
  0.1838572763064474  0.5348518732772388  0.8101096573320905
  0.7809643654215539  0.6620736754416197  0.3040292630234804
  0.7136333138011526  0.7705979139752137  0.2794606072206199
  0.0573577560679740  0.9273045213112783  0.1688582423051065
  0.5934662928282335  0.1239296164561361  0.0484927825210821
  0.7620433404799211  0.3466776463332446  0.5535620859168661
  0.0085279112564214  0.0169049743241099  0.7398242172280687
  0.1329920631172590  0.1970011668479395  0.6475943026495450
  0.8508687223310315  0.9707967141400227  0.3420393503896939
  0.5379358119607661  0.3966724387004520  0.9319777022824767
  0.7744157341577260  0.8557080888955143  0.9163673686271864
  0.5468388620413639  0.2249217121634030  0.9921596827167964
  0.0962249215608865  0.0014044727575896  0.6551850930323911
  0.1562453149426559  0.5062211224607478  0.6903902010293431
  0.4299013879140418  0.1047678762731254  0.9449085939813500
  0.4944488490725023  0.5571471831238057  0.8657550235757215
  0.3716829392529493  0.6090154365846182  0.3506831358560239
  0.0759613045769698  0.9355765018609158  0.0506280036377338
  0.3653067991458864  0.8005552922022887  0.5977393137930527
  0.9790940187350500  0.6202578748333412  0.1961632629304979
  0.0206225550546386  0.8460342931337297  0.9968953464044463
  0.4243114284238572  0.1278832778282374  0.8241087089052744
  0.3228926209436919  0.7923269605511176  0.9735695466320522
  0.4940249323682060  0.2831567557334956  0.1963208548449221
  0.8578210140277266  0.7692946985165350  0.8996799309497893
  0.1818863774724050  0.5512527593196265  0.4005189645289732
  0.5331652891053077  0.5180634625975629  0.9696583147284412
  0.2656724591106455  0.2415741788031072  0.0416166820596931
  0.9928933667212052  0.6702762688505594  0.0846813084782559
  0.0297991127183244  0.8411319603475814  0.4474994170611474
  0.1701234309182924  0.2301100752667873  0.8217254144643188
  0.2495003137848369  0.6399646721855258  0.8253241035967055
  0.2483487365013286  0.5190349074562152  0.6201100291754011
  0.3456007213396251  0.1635405403028448  0.6004728811395551
  0.0972592623152101  0.7875269761638227  0.6170013972078424
  0.3726915810242921  0.4143300302118191  0.0022820791835956
  0.6996054771669811  0.3961729094632699  0.1654950530322948
  0.2931845915416398  0.5576820321789305  0.2770478350649583
  0.3622580581615400  0.0340596883083275  0.4613383632063637
  0.4525458239970057  0.6890247545624854  0.2934313835359010
  0.3265225138477958  0.0521757011374425  0.1166357308936385
  0.8850896851495998  0.8709844595756677  0.2700114756700928
  0.8173314367005038  0.2789859292308992  0.0374025576720704
  0.9852267995850263  0.3290105922614535  0.2855316870993351
  0.6460815455659592  0.8397468781640699  0.3575938140570696
  0.8104803507507723  0.9203092476239267  0.0131903392798323
  0.8006307594541681  0.0968661301542356  0.5690664183287101
  0.4053292885310636  0.7390926492445830  0.7872991397704296
  0.7906762365507948  0.1173891075492905  0.2360880336999008
  0.6945316153336528  0.6889467404282510  0.0100907255388018
  0.8542983289538406  0.9574221704193839  0.4632380708518597
  0.8360147090015790  0.4924801111288267  0.3158953882840795
  0.2087202586603472  0.1556418671127908  0.3547697872201561
  0.0672954400039600  0.5797774831585826  0.6723088025888876
  0.6059859849696088  0.2247319076516928  0.8853112729950093
  0.3237963708343879  0.9551092927984646  0.8436635819959494
  0.0257262151678102  0.0376810951984401  0.0099080373075510
  0.0292968926039723  0.0921782970476451  0.8377263701500335
  0.7049142883537245  0.0863427937507490  0.0088326180045032
  0.2703215639556920  0.7261758239207822  0.6525430068622154
  0.4468014228958000  0.1182734236716844  0.3079265677810467
  0.0109919259749210  0.1795729303909176  0.6573516612382546
  0.5093259266013447  0.9557716054046993  0.7764450708864855
  0.9188469027441414  0.7345575846395688  0.7104296850637476
  0.0592419238353213  0.6520732412086732  0.2751543384613875
  0.9782730373967365  0.4976969223595850  0.1925333568834880
  0.7552315585184466  0.9412297354485063  0.8400377637998299
  0.8596621969752778  0.2798149101438291  0.5890520848077057
  0.3100890154792885  0.4233361947117337  0.4717579764656102
  0.7063151536613329  0.3773719660173498  0.6552163003293283
  0.2197392001635252  0.7421681809532162  0.4064783545509897
  0.6142481166856711  0.7544238394861575  0.2007433627544803
  0.7683616588052393  0.4792020560137618  0.9848999122277093
  0.0696914439958736  0.8146757464425133  0.2070070207822829
  0.3004645355259286  0.9007230735302383  0.5836595647574266
  0.1754718432237549  0.3499319238092892  0.3527540142320663
  0.5984898872245231  0.4575287388132125  0.5005290712115321
  0.5268694558116728  0.6273670875493300  0.6590760982619938
  0.8265936206336585  0.3399004350690550  0.8363255013033593
  0.5699677544625772  0.3434100823981301  0.0377535251229288
  0.7149065543383476  0.7816311533974895  0.7424428422320026
  0.0157005680191347  0.2675809793469902  0.9741264974182726
  0.6890327682594938  0.9614925783262546  0.6668674604563819
  0.0270792486822934  0.9025116639030633  0.7843188392163116
  0.2566061080595736  0.5496042509210847  0.0962496309791090
  0.6990772555312035  0.2701038961251070  0.4820062575668454
  0.3055094735763109  0.9644659490391073  0.2957651296677543
  0.5377941990256925  0.0499840261857170  0.9740692993933384
  0.6789748206283073  0.6177010774997664  0.8530322215486794
  0.4157517512608392  0.4818845452717057  0.8127945249175124
  0.4617500168737206  0.7084218040573868  0.0764981634046384
  0.6630104797371937  0.9809914075839814  0.4788416214705671
  0.3005515697577442  0.3777099607422435  0.1677729700665579
  0.8593053184325197  0.7193546452504684  0.3796394971055504
  0.1292096818974661  0.0275078269899026  0.1983738315183225
  0.5672697849384182  0.0945616762176422  0.1573480408761163
  0.1055373381192354  0.3706591559706409  0.1315149290426702
  0.4293934386315390  0.2168092932044678  0.9890586617445175
  0.8109935564399586  0.4391878684729998  0.4818360290200393
  0.8852233942332091  0.0165745951837407  0.7247319708374308
  0.5433127813057620  0.5062187162793405  0.2079463962983821
  0.7916512266441632  0.1433829102222924  0.8541565094676034
  0.3089044694828527  0.7861929100877031  0.1829019588334478
  0.4120201104306331  0.3130074151002409  0.6820116853069136
  0.0426448758281108  0.3937266698758015  0.5924653513452131
  0.9503384833579872  0.6695998507705567  0.5394258289362498
  0.8797793106384432  0.4632513583827526  0.7035649585446057
  0.4814243301269515  0.9106135898082429  0.2335719614799401
  0.1891425845634890  0.9259027424520544  0.0158278445881924
  0.9929849689098911  0.5382907347932187  0.4142068893459459
  0.1815812201832771  0.0919670258834899  0.6901591232501830
  0.4090989412646235  0.7513239649721685  0.4930576480799749
  0.6257469871673710  0.4049811633897913  0.8421361675281660
  0.0830572138519688  0.9913274614147867  0.5402049472333533
  0.5923451578740777  0.6617886270431985  0.4660609033897525
  0.9842758919874594  0.1719104538853552  0.1577816740197090
  0.7988776252953127  0.5720919024875273  0.1234651781598270
  0.2252933681899828  0.4318616150579946  0.8601768124912099
  0.5765034230363679  0.8449403596580065  0.0052526425617454
  0.9316406490841241  0.1851040168761189  0.4130353752258221
  0.3643163213110190  0.2794065850502703  0.3430863605434545
  0.9903137463812116  0.6163826295616885  0.8559343146509052
  0.5040643142398541  0.1121332587882412  0.5401556669264411
  0.1452072221521241  0.1844730445511587  0.5244715856036640
  0.4618772846534719  0.5299062835182645  0.3883103204026296
  0.7811861744174481  0.7789762646063583  0.5548763048948644
  0.5788858991274702  0.3732675285689547  0.3370324427579424
  0.5008175558268962  0.9228577921445571  0.5725701150547440
 
  0.95433821E-05 -0.66006452E-03 -0.11276913E-02
  0.10787794E-02  0.14705433E-02 -0.30093287E-02
 -0.24944992E-03  0.19181731E-02 -0.27059981E-02
  0.10667248E-02  0.36034444E-02 -0.19805891E-02
  0.21697268E-02  0.62974376E-03  0.30534856E-02
 -0.29538487E-02 -0.46675485E-03  0.23433572E-02
 -0.18358805E-02  0.85501167E-04  0.13699278E-02
  0.22230718E-02  0.48662037E-04  0.36764824E-03
 -0.43814768E-03 -0.14151841E-02 -0.10412725E-02
  0.87755389E-03 -0.37163279E-03  0.82299081E-03
 -0.14085966E-02 -0.53133284E-03  0.23188337E-02
 -0.29879407E-03 -0.31622919E-02 -0.43680114E-03
 -0.25863191E-02  0.12229704E-02 -0.60779435E-03
 -0.10232231E-03  0.10718511E-03  0.36916850E-02
  0.24121806E-02 -0.13458996E-02  0.14756754E-02
  0.14050377E-02 -0.19462094E-02 -0.61211325E-03
 -0.32700886E-02 -0.64473583E-03 -0.68512491E-03
 -0.31287341E-02 -0.25362780E-02 -0.51498541E-02
 -0.10651198E-02 -0.29479266E-03 -0.47803632E-02
 -0.19570321E-02  0.10480043E-02  0.30419933E-02
  0.27089959E-02 -0.30198166E-02  0.29481970E-02
 -0.52595058E-03  0.20579342E-02  0.62614679E-03
  0.62675705E-04 -0.19744161E-02 -0.26254842E-02
  0.15269693E-02  0.21401111E-02 -0.23946912E-02
  0.67673701E-03  0.17910500E-02  0.87391380E-03
  0.34817915E-02  0.71793965E-03  0.80853910E-03
 -0.30073170E-04  0.54991728E-03  0.17021897E-02
  0.18468144E-02  0.24425157E-03  0.27727203E-02
 -0.19289974E-03 -0.99581301E-03  0.23885783E-03
  0.13422348E-02  0.17068887E-02  0.23201730E-03
 -0.52063788E-03  0.67992396E-03 -0.62910838E-03
  0.86263566E-03  0.39174816E-02 -0.16009854E-02
 -0.48028299E-02 -0.12560852E-02 -0.45725063E-03
  0.30095914E-03  0.18249584E-02  0.70723985E-03
 -0.30312353E-02 -0.76038300E-03  0.19533098E-02
 -0.25102216E-02  0.18510064E-02 -0.14304601E-03
 -0.11169834E-02 -0.34553601E-02  0.21642261E-03
 -0.23700623E-03 -0.25725199E-03 -0.33525680E-02
 -0.22444157E-02 -0.90165818E-03 -0.18554708E-02
 -0.41219342E-03  0.25066165E-02  0.37096122E-03
 -0.11479911E-02 -0.55636163E-04  0.30693614E-02
 -0.46269073E-03 -0.34657436E-02 -0.22158097E-03
  0.73313667E-03 -0.11950314E-02 -0.19271836E-02
  0.26647480E-02 -0.18631571E-03  0.25394184E-03
 -0.14483631E-02  0.91460070E-03  0.14404504E-02
  0.23686852E-02 -0.15788471E-02  0.96645546E-03
 -0.28449078E-02  0.10873151E-02 -0.17349741E-02
 -0.41142867E-02 -0.15294147E-02  0.98214179E-03
  0.35028097E-02  0.10033837E-02  0.10549003E-02
 -0.17285256E-02  0.47524234E-03  0.17687909E-02
  0.13443467E-02 -0.38741262E-03  0.58115528E-03
 -0.61784529E-03  0.22669508E-03  0.10959885E-02
 -0.19772616E-02  0.19318955E-02 -0.19314958E-03
 -0.92474161E-03 -0.67810808E-03  0.18416891E-02
 -0.43699463E-03 -0.16588797E-02 -0.24847640E-02
  0.16910986E-02  0.25366523E-02 -0.29041681E-02
 -0.30502659E-03  0.27451064E-02 -0.21900321E-02
  0.19110110E-02 -0.11897015E-02 -0.20942936E-02
  0.68525008E-03  0.70483469E-03  0.19514618E-02
 -0.36536356E-02 -0.86278714E-04 -0.28961798E-03
 -0.89166642E-03 -0.25680151E-03  0.79552867E-03
  0.54079945E-03 -0.24478219E-03 -0.47926333E-03
  0.17813419E-02 -0.38783559E-02  0.22163864E-02
 -0.20859800E-02  0.13761138E-02  0.29106942E-02
  0.41305096E-03  0.17597002E-02 -0.45491516E-03
  0.76476176E-03 -0.12058856E-02 -0.34164242E-03
  0.73297722E-03 -0.53121572E-03 -0.13948423E-03
  0.17026938E-02 -0.22495565E-02 -0.69759438E-03
  0.11534912E-03  0.40007825E-02  0.13214824E-02
 -0.50261372E-02  0.32942062E-02 -0.32565641E-02
 -0.12025073E-02  0.35454752E-02  0.13194255E-02
  0.14845847E-02  0.14442017E-03  0.13172712E-02
 -0.73607094E-03 -0.23973711E-02  0.46655385E-02
  0.48733407E-02  0.18010819E-02 -0.26307040E-03
 -0.22882031E-02 -0.12111523E-03 -0.43011511E-03
 -0.88114790E-03 -0.26367664E-03 -0.56549774E-03
 -0.12484535E-02  0.11542626E-02  0.40694986E-02
  0.72932023E-04 -0.14610481E-02 -0.24299651E-02
  0.67689250E-03  0.15198875E-03 -0.27185921E-02
 -0.77289660E-03 -0.36142487E-03 -0.53131864E-03
 -0.30774201E-03 -0.37268371E-03 -0.39683108E-02
 -0.15970505E-03 -0.27140822E-02  0.10009953E-02
  0.27979256E-02  0.30341259E-02  0.14711292E-02
  0.73185215E-03 -0.99971675E-04  0.19768710E-02
  0.50618198E-03 -0.29273613E-02  0.51815073E-03
  0.22828370E-02 -0.43554161E-02 -0.16073421E-03
 -0.26333826E-02 -0.10161965E-02 -0.59814219E-03
 -0.16792167E-02 -0.14659819E-02 -0.77469713E-03
 -0.10796957E-02 -0.14170187E-03 -0.70785626E-03
  0.17198427E-02  0.41370001E-03 -0.23727822E-02
 -0.30068397E-03 -0.10738625E-02  0.46563059E-03
  0.30225137E-03 -0.21540492E-02 -0.32859695E-03
  0.14237223E-02  0.16325819E-02 -0.57502472E-03
 -0.81353430E-03  0.10469179E-02  0.17345062E-02
  0.29887027E-02  0.11195339E-02  0.29062528E-02
 -0.29353103E-02 -0.80527408E-04  0.55828577E-03
 -0.81201373E-03  0.20803385E-02 -0.16825413E-02
 -0.76730029E-03  0.22248627E-02 -0.94741735E-03
 -0.15688575E-02 -0.24675773E-02 -0.16950002E-02
 -0.18009718E-02  0.19330218E-02 -0.46098378E-03
  0.46113132E-03  0.29048962E-02  0.31549147E-02
  0.31659081E-02 -0.75684061E-04 -0.26585956E-04
 -0.22204220E-02 -0.40865866E-03  0.13617735E-02
  0.18738736E-02  0.15987532E-02  0.31437114E-02
 -0.11626989E-02  0.46032620E-02  0.15239162E-02
  0.85397848E-05  0.13367319E-02  0.13900538E-02
  0.23156626E-03  0.32267484E-03  0.32609089E-04
  0.36496056E-02 -0.23676103E-02 -0.85391775E-03
  0.83226364E-03  0.71579344E-02  0.34080715E-02
  0.48841570E-03 -0.32517082E-02  0.42235730E-02
 -0.40109353E-02  0.42637858E-02 -0.22408808E-03
  0.58208079E-02  0.47704094E-02 -0.25168391E-02
  0.91506426E-03 -0.32379296E-02 -0.43887317E-02
  0.46728739E-03 -0.14521299E-02 -0.30163167E-02
  0.16505206E-02  0.61639900E-03 -0.15522587E-02
 -0.21645795E-02  0.29170672E-02  0.97254030E-03
  0.54593364E-02  0.47560266E-03  0.70243632E-03
  0.18189243E-02  0.13511766E-02  0.19394937E-02
  0.28425090E-02 -0.63254849E-02 -0.16072075E-03
 -0.66105286E-03 -0.34962782E-02  0.61748889E-03
  0.66631568E-02 -0.26988061E-02 -0.20756743E-02
 -0.51558266E-02 -0.38460544E-02  0.24493301E-02
  0.87354801E-03 -0.40273222E-02 -0.64231223E-02
  0.31285620E-02 -0.14354262E-03  0.28621791E-03
 -0.37926090E-02 -0.31046958E-02  0.46100093E-03
  0.25486234E-02  0.11195909E-02 -0.47902129E-03
 -0.14781720E-02 -0.41740080E-02  0.37751842E-03
 -0.24718771E-02  0.33273178E-02 -0.22662104E-02
 -0.39644256E-03  0.10547897E-03  0.67974864E-03
 -0.20963364E-02  0.43175174E-02 -0.12577454E-02
  0.93026304E-03  0.29509813E-03  0.13323888E-02
 -0.32366660E-02 -0.32724683E-02  0.15716613E-02
 -0.56326749E-03  0.12050455E-02  0.22156433E-02
 -0.18565482E-02  0.14922931E-02 -0.17378354E-02
 -0.16944114E-02  0.19423702E-02 -0.57549502E-03
 -0.11077786E-03  0.14173554E-02  0.28821908E-02
 -0.22904829E-02 -0.16000824E-02 -0.74892006E-04
 -0.20823827E-02  0.20494477E-03 -0.24350978E-03
 -0.19944635E-02  0.86896415E-03 -0.37158146E-02
  0.11471053E-02  0.15154598E-02  0.94386954E-03
  0.23970285E-02 -0.26544582E-03 -0.16807160E-02
 -0.35308392E-03 -0.25235078E-02 -0.34464999E-02
 -0.20976593E-03 -0.10231302E-02 -0.76587989E-03
 -0.83233426E-03  0.24159041E-03  0.15814074E-02
 -0.11897884E-02 -0.22149761E-02 -0.22698485E-02
  0.18188410E-02  0.51043811E-02 -0.92172529E-03
 -0.48108356E-03 -0.10526635E-02 -0.29898844E-02
 -0.24719566E-02 -0.22617638E-02 -0.13075539E-03
  0.25618492E-02 -0.46040415E-04 -0.72643196E-04
  0.28841607E-02 -0.47361182E-02 -0.14238246E-02
  0.19232171E-02 -0.83098190E-03 -0.65893091E-03
 -0.21662917E-02  0.18388931E-02 -0.25870299E-02
 -0.80740432E-03  0.22941375E-02 -0.84428285E-03
  0.12104713E-02  0.77212650E-03  0.28050282E-02
 -0.19911607E-03  0.17963786E-02 -0.10376626E-02
 -0.51291955E-04 -0.96307534E-03  0.49077837E-03
  0.65178390E-03  0.82213402E-03 -0.60475647E-03
 -0.12602597E-02  0.11023039E-02 -0.66100309E-03
 -0.35162858E-03 -0.23011843E-03 -0.27918837E-02
 -0.20475939E-03  0.22432994E-02  0.81520516E-03
 -0.22230745E-02  0.13948064E-02  0.33192618E-02
  0.30752797E-02  0.24455167E-02  0.14778036E-02
  0.12592415E-02  0.42129000E-02  0.72268533E-03
 -0.13028175E-02  0.26573498E-02 -0.15511964E-02
  0.15447628E-02 -0.87610588E-03  0.14848430E-02
  0.23034889E-02 -0.38976154E-03 -0.34061340E-02
 -0.16508048E-03 -0.41684214E-03 -0.54255410E-03
  0.22657784E-03  0.16366370E-02  0.11487731E-02
  0.10158160E-02 -0.84975894E-04 -0.32784885E-02
 -0.11843268E-02 -0.33433744E-03 -0.23921150E-02
 -0.16456873E-02 -0.32061614E-04 -0.20077003E-02
  0.66251706E-03 -0.98174107E-03  0.56101004E-03
  0.10252059E-02  0.75395303E-03 -0.67681870E-03
  0.12826385E-02 -0.17794570E-02 -0.20459337E-02
  0.87432630E-03 -0.25778951E-02  0.25821228E-02
  0.23843361E-02  0.21219356E-02  0.36789872E-02
  0.68932247E-03  0.54320056E-03  0.53625919E-03
 -0.48153289E-04  0.76041208E-03 -0.15243092E-02
 -0.11178492E-02  0.32952501E-02  0.24343937E-02
 -0.14709290E-02 -0.18343437E-02 -0.28163437E-02
 -0.29253141E-02 -0.24214906E-02 -0.16110695E-02
  0.10821639E-02  0.21287261E-02 -0.38729275E-03
 -0.20649921E-02  0.11476309E-02  0.13499812E-02
  0.12616917E-02  0.22515034E-02  0.17771706E-02
 -0.85802589E-03 -0.59560637E-03 -0.80790505E-04
 -0.95019555E-03 -0.23039080E-02  0.22844273E-02
 -0.20557315E-02 -0.15421946E-02  0.24038828E-02
  0.17044312E-02 -0.89961395E-04 -0.58193901E-03
  0.28477399E-02 -0.25524418E-02  0.52035140E-03
  0.17670418E-02 -0.21046696E-02  0.83779743E-03
 -0.12416362E-04 -0.34793926E-02  0.35427879E-04
  0.10474908E-02 -0.22094109E-02 -0.11729324E-03
  0.18241832E-02 -0.14956723E-02  0.12919673E-02
  0.17157320E-02  0.17404175E-02 -0.11531273E-02
 -0.10007008E-02  0.18093373E-02  0.20326080E-03
 -0.80759625E-03  0.11576174E-02  0.31298053E-02
  0.17794143E-02  0.23624251E-02 -0.15042587E-02
  0.20641823E-02  0.83524060E-03  0.69839354E-03
  0.21666982E-02 -0.14608713E-02 -0.33504018E-02
 -0.10488739E-02  0.80898707E-03 -0.10881050E-02
  0.13877002E-04 -0.18314205E-02  0.11764748E-02
 -0.18867689E-02  0.20376912E-02  0.85736222E-03
 -0.44172789E-03 -0.91387396E-03 -0.48380466E-03
  0.10982843E-02  0.24617109E-02 -0.44383006E-03
 -0.26888322E-02 -0.77951989E-03  0.22118391E-02
  0.18295287E-02  0.73634586E-03  0.54074410E-03
  0.69086468E-03 -0.87986050E-03  0.32355950E-02
  0.24225960E-02 -0.28989958E-02  0.11256166E-02
  0.15641533E-02 -0.89328289E-04  0.14100104E-02
  0.74253973E-03 -0.13508273E-02  0.48610831E-03
 -0.21185189E-02 -0.39053057E-02  0.86272575E-03
 -0.22112139E-02 -0.17264700E-02 -0.20637437E-02
 -0.11959634E-02  0.10168654E-02 -0.21179972E-02
  0.15424380E-02 -0.13773960E-02  0.45561865E-04
 -0.73340775E-03 -0.84274970E-03  0.21172648E-02
 -0.18187323E-02 -0.31114254E-02 -0.11290701E-03
  0.38372089E-02  0.96864491E-03  0.11996672E-02
  0.32882989E-02 -0.22813005E-02  0.15218665E-02
 -0.86535548E-03  0.14603151E-02 -0.26652861E-02
 -0.54593535E-03 -0.43713004E-03 -0.14663552E-02
  0.31729533E-03  0.15383089E-02  0.19430115E-02
 -0.80711485E-03 -0.32311892E-03  0.28216062E-02
 -0.31988923E-02 -0.46792337E-03 -0.21619096E-03
  0.71038681E-03 -0.10943091E-02 -0.15870983E-02
  0.26115738E-02 -0.85202662E-03 -0.89962139E-03
 -0.17797771E-02  0.18886672E-02 -0.16297403E-02
  0.16773378E-02 -0.27892615E-02 -0.50476662E-03
  0.26096508E-02 -0.22568212E-02  0.10484403E-02
 -0.35448686E-03  0.13176267E-02  0.15321336E-02
  0.13425106E-02  0.25870606E-02  0.19908095E-02
 -0.26033055E-02 -0.71254743E-03 -0.33932804E-03
  0.30125283E-02  0.51699295E-03 -0.15072042E-04
 -0.27691061E-02  0.20970680E-03 -0.20216041E-03
 -0.63533265E-03 -0.24878370E-02 -0.14816935E-02
  0.39659121E-02 -0.13089079E-02 -0.36787217E-03
 -0.89687405E-03 -0.25696866E-03  0.11437941E-02
  0.15481120E-02  0.20276087E-02 -0.11530545E-02
 -0.22489767E-02 -0.20733922E-02 -0.41794981E-03
 -0.11330053E-02 -0.67018801E-03 -0.13685070E-02
 -0.26321065E-02  0.61281246E-03  0.14643044E-04
 
           1
   5.00000000000000     
  0.10000000E+01  0.00000000E+00  0.00000000E+00  0.00000000E+00
  0.99158159E+00  0.20578593E+00  0.78380218E+00
  0.12099657E+00  0.50053266E+00  0.15193824E+00
  0.82092803E+00  0.71356652E+00  0.78512146E+00
  0.69992183E+00  0.96170466E+00  0.16692814E+00
  0.17824396E+00  0.24664300E+00  0.26604423E+00
  0.93105171E+00  0.58775031E+00  0.97060905E+00
  0.25251266E+00  0.95202450E+00  0.17485552E+00
  0.88134710E+00  0.29097262E+00  0.35461260E+00
  0.74445333E+00  0.56705262E+00  0.63187730E+00
  0.70988577E+00  0.55331836E+00  0.49209438E+00
  0.95358494E-01  0.11863011E+00  0.79352634E-01
  0.77324241E+00  0.85308993E+00  0.19615767E+00
  0.38248305E+00  0.67305948E+00  0.17906629E+00
  0.98308880E+00  0.79674923E+00  0.56327881E+00
  0.40223213E+00  0.88897615E+00  0.92817737E+00
  0.47510745E+00  0.79577051E+00  0.67594560E+00
  0.37211281E+00  0.16244679E+00  0.47354595E+00
  0.30326178E+00  0.28479809E+00  0.60921461E+00
  0.22053370E+00  0.31093043E+00  0.48752473E+00
  0.17576469E+00  0.45570565E+00  0.50038706E+00
  0.74362252E-01  0.52489120E+00  0.87130494E+00
  0.77804133E+00  0.58640697E+00  0.77489862E+00
  0.78999072E+00  0.19551097E+00  0.66366228E+00
  0.58807222E+00  0.25797219E+00  0.28281895E+00
  0.97809837E+00  0.51068983E+00  0.61092942E+00
  0.90842794E+00  0.43225566E+00  0.82705107E+00
  0.82977125E+00  0.66427869E+00  0.49566273E+00
  0.61518748E+00  0.73083328E+00  0.81125999E+00
  0.78284787E+00  0.16153448E+00  0.44724376E+00
  0.56599433E+00  0.99541167E+00  0.67013454E+00
  0.57815310E+00  0.41461937E+00  0.62280007E+00
  0.82685749E+00  0.39426722E+00  0.21078450E+00
  0.65885617E+00  0.79068474E+00  0.92340445E+00
  0.80768104E+00  0.25424979E+00  0.24852179E+00
  0.83903748E+00  0.53050234E+00  0.89076889E+00
  0.91041669E+00  0.71502984E-01  0.27180962E+00
  0.14442315E+00  0.89352249E+00  0.72050667E+00
  0.85693538E+00  0.64835025E+00  0.20203168E+00
  0.82915594E+00  0.67404946E+00  0.17005979E-01
  0.59565345E+00  0.51890833E+00  0.79979079E+00
  0.70223350E+00  0.27014152E+00  0.73666100E+00
  0.38942798E+00  0.68153861E+00  0.96666710E+00
  0.62168301E+00  0.53685768E+00  0.67255766E+00
  0.84253314E+00  0.76087254E+00  0.12804204E+00
  0.29893476E+00  0.39324448E+00  0.33360298E+00
  0.11255589E+00  0.38746782E+00  0.70444838E+00
  0.18114716E-01  0.11986814E+00  0.33863341E+00
  0.42576911E-01  0.39876491E+00  0.81692118E+00
  0.73781118E+00  0.35704153E+00  0.96085006E+00
  0.22139887E+00  0.48850450E-01  0.10843391E-01
  0.34155398E+00  0.62699171E+00  0.72703277E+00
  0.51136688E+00  0.30062220E+00  0.59737811E+00
  0.72678579E+00  0.54782166E+00  0.34980170E+00
  0.39795838E+00  0.16061045E-01  0.75388981E+00
  0.90682138E+00  0.86515205E+00  0.78922270E-01
  0.43582335E+00  0.98461006E+00  0.33305441E+00
  0.68735887E+00  0.25745103E+00  0.18227854E+00
  0.13528399E+00  0.66113937E+00  0.46324017E+00
  0.58290563E+00  0.22011739E+00  0.68797155E+00
  0.89997636E-01  0.75805039E+00  0.89489924E-01
  0.76410569E+00  0.37872395E+00  0.37134313E+00
  0.86435339E+00  0.24296341E-01  0.86671057E+00
  0.36581659E+00  0.53224513E+00  0.16572073E+00
  0.70123461E+00  0.70706626E+00  0.63128168E+00