Ge2 Sb2 Te5                             
   1.00000000000000     
     8.1174220904300558   -0.0000000000000306   -0.0000000000000000
    -4.0587110451650812    7.0298937435071416    0.0000000000000000
    -0.0000000000000001    0.0000000000000001   34.5164566826775143
   Ge   Sb   Se   Te
    16    16    32     8
Direct
 -0.0000000000000000  0.0000000000000000  0.1635957301289894
 -0.0000000000000000  0.0000000000000000  0.6635957001289872
 -0.0000000000000000  0.5000000000000000  0.1635957301289894
 -0.0000000000000000  0.5000000000000000  0.6635957001289872
  0.5000000000000000  0.0000000000000000  0.1635957301289894
  0.5000000000000000  0.0000000000000000  0.6635957001289872
  0.5000000000000000  0.5000000000000000  0.1635957301289894
  0.5000000000000000  0.5000000000000000  0.6635957001289872
  0.0000000000000000 -0.0000000000000000  0.3348990357001802
  0.0000000000000000 -0.0000000000000000  0.8348990057001778
  0.0000000000000000  0.5000000000000000  0.3348990357001802
  0.0000000000000000  0.5000000000000000  0.8348990057001778
  0.5000000000000000 -0.0000000000000000  0.3348990357001802
  0.5000000000000000 -0.0000000000000000  0.8348990057001778
  0.5000000000000000  0.5000000000000000  0.3348990357001802
  0.5000000000000000  0.5000000000000000  0.8348990057001778
  0.1666666719999981  0.3333333429999996  0.0536964650564615
  0.1666666719999981  0.3333333429999996  0.5536964910564567
  0.1666666719999981  0.8333333730000021  0.0536964650564615
  0.1666666719999981  0.8333333730000021  0.5536964910564567
  0.6666666870000029  0.3333333429999996  0.0536964650564615
  0.6666666870000029  0.3333333429999996  0.5536964910564567
  0.6666666870000029  0.8333333730000021  0.0536964650564615
  0.6666666870000029  0.8333333730000021  0.5536964910564567
  0.3333333429999996  0.1666666719999981  0.4448525108710962
  0.3333333429999996  0.1666666719999981  0.9448525108710961
  0.3333333429999996  0.6666666870000029  0.4448525108710962
  0.3333333429999996  0.6666666870000029  0.9448525108710961
  0.8333333730000021  0.1666666719999981  0.4448525108710962
  0.8333333730000021  0.1666666719999981  0.9448525108710961
  0.8333333730000021  0.6666666870000029  0.4448525108710962
  0.8333333730000021  0.6666666870000029  0.9448525108710961
 -0.0000000000000000  0.0000000000000000  0.9991381433605885
 -0.0000000000000000  0.0000000000000000  0.4991381433605887
 -0.0000000000000000  0.5000000000000000  0.9991381433605885
 -0.0000000000000000  0.5000000000000000  0.4991381433605887
  0.5000000000000000  0.0000000000000000  0.9991381433605885
  0.5000000000000000  0.0000000000000000  0.4991381433605887
  0.5000000000000000  0.5000000000000000  0.9991381433605885
  0.5000000000000000  0.5000000000000000  0.4991381433605887
  0.3333333429999996  0.1666666719999981  0.0992566673419613
  0.3333333429999996  0.1666666719999981  0.5992566893419631
  0.3333333429999996  0.6666666870000029  0.0992566673419613
  0.3333333429999996  0.6666666870000029  0.5992566893419631
  0.8333333730000021  0.1666666719999981  0.0992566673419613
  0.8333333730000021  0.1666666719999981  0.5992566893419631
  0.8333333730000021  0.6666666870000029  0.0992566673419613
  0.8333333730000021  0.6666666870000029  0.5992566893419631
  0.3333333429999996  0.1666666719999981  0.2981158317056289
  0.3333333429999996  0.1666666719999981  0.7981158317056288
  0.3333333429999996  0.6666666870000029  0.2981158317056289
  0.3333333429999996  0.6666666870000029  0.7981158317056288
  0.8333333730000021  0.1666666719999981  0.2981158317056289
  0.8333333730000021  0.1666666719999981  0.7981158317056288
  0.8333333730000021  0.6666666870000029  0.2981158317056289
  0.8333333730000021  0.6666666870000029  0.7981158317056288
  0.1666666719999981  0.3333333429999996  0.3993247094303559
  0.1666666719999981  0.3333333429999996  0.8993246794303533
  0.1666666719999981  0.8333333730000021  0.3993247094303559
  0.1666666719999981  0.8333333730000021  0.8993246794303533
  0.6666666870000029  0.3333333429999996  0.3993247094303559
  0.6666666870000029  0.3333333429999996  0.8993246794303533
  0.6666666870000029  0.8333333730000021  0.3993247094303559
  0.6666666870000029  0.8333333730000021  0.8993246794303533
  0.1666666719999981  0.3333333429999996  0.2071209324047329
  0.1666666719999981  0.3333333429999996  0.7071209464047341
  0.1666666719999981  0.8333333730000021  0.2071209324047329
  0.1666666719999981  0.8333333730000021  0.7071209464047341
  0.6666666870000029  0.3333333429999996  0.2071209324047329
  0.6666666870000029  0.3333333429999996  0.7071209464047341
  0.6666666870000029  0.8333333730000021  0.2071209324047329
  0.6666666870000029  0.8333333730000021  0.7071209464047341
 
  0.00000000E+00  0.00000000E+00  0.00000000E+00
  0.00000000E+00  0.00000000E+00  0.00000000E+00
  0.00000000E+00  0.00000000E+00  0.00000000E+00
  0.00000000E+00  0.00000000E+00  0.00000000E+00
  0.00000000E+00  0.00000000E+00  0.00000000E+00
  0.00000000E+00  0.00000000E+00  0.00000000E+00
  0.00000000E+00  0.00000000E+00  0.00000000E+00
  0.00000000E+00  0.00000000E+00  0.00000000E+00
  0.00000000E+00  0.00000000E+00  0.00000000E+00
  0.00000000E+00  0.00000000E+00  0.00000000E+00
  0.00000000E+00  0.00000000E+00  0.00000000E+00
  0.00000000E+00  0.00000000E+00  0.00000000E+00
  0.00000000E+00  0.00000000E+00  0.00000000E+00
  0.00000000E+00  0.00000000E+00  0.00000000E+00
  0.00000000E+00  0.00000000E+00  0.00000000E+00
  0.00000000E+00  0.00000000E+00  0.00000000E+00
  0.00000000E+00  0.00000000E+00  0.00000000E+00
  0.00000000E+00  0.00000000E+00  0.00000000E+00
  0.00000000E+00  0.00000000E+00  0.00000000E+00
  0.00000000E+00  0.00000000E+00  0.00000000E+00
  0.00000000E+00  0.00000000E+00  0.00000000E+00
  0.00000000E+00  0.00000000E+00  0.00000000E+00
  0.00000000E+00  0.00000000E+00  0.00000000E+00
  0.00000000E+00  0.00000000E+00  0.00000000E+00
  0.00000000E+00  0.00000000E+00  0.00000000E+00
  0.00000000E+00  0.00000000E+00  0.00000000E+00
  0.00000000E+00  0.00000000E+00  0.00000000E+00
  0.00000000E+00  0.00000000E+00  0.00000000E+00
  0.00000000E+00  0.00000000E+00  0.00000000E+00
  0.00000000E+00  0.00000000E+00  0.00000000E+00
  0.00000000E+00  0.00000000E+00  0.00000000E+00
  0.00000000E+00  0.00000000E+00  0.00000000E+00
  0.00000000E+00  0.00000000E+00  0.00000000E+00
  0.00000000E+00  0.00000000E+00  0.00000000E+00
  0.00000000E+00  0.00000000E+00  0.00000000E+00
  0.00000000E+00  0.00000000E+00  0.00000000E+00
  0.00000000E+00  0.00000000E+00  0.00000000E+00
  0.00000000E+00  0.00000000E+00  0.00000000E+00
  0.00000000E+00  0.00000000E+00  0.00000000E+00
  0.00000000E+00  0.00000000E+00  0.00000000E+00
  0.00000000E+00  0.00000000E+00  0.00000000E+00
  0.00000000E+00  0.00000000E+00  0.00000000E+00
  0.00000000E+00  0.00000000E+00  0.00000000E+00
  0.00000000E+00  0.00000000E+00  0.00000000E+00
  0.00000000E+00  0.00000000E+00  0.00000000E+00
  0.00000000E+00  0.00000000E+00  0.00000000E+00
  0.00000000E+00  0.00000000E+00  0.00000000E+00
  0.00000000E+00  0.00000000E+00  0.00000000E+00
  0.00000000E+00  0.00000000E+00  0.00000000E+00
  0.00000000E+00  0.00000000E+00  0.00000000E+00
  0.00000000E+00  0.00000000E+00  0.00000000E+00
  0.00000000E+00  0.00000000E+00  0.00000000E+00
  0.00000000E+00  0.00000000E+00  0.00000000E+00
  0.00000000E+00  0.00000000E+00  0.00000000E+00
  0.00000000E+00  0.00000000E+00  0.00000000E+00
  0.00000000E+00  0.00000000E+00  0.00000000E+00
  0.00000000E+00  0.00000000E+00  0.00000000E+00
  0.00000000E+00  0.00000000E+00  0.00000000E+00
  0.00000000E+00  0.00000000E+00  0.00000000E+00
  0.00000000E+00  0.00000000E+00  0.00000000E+00
  0.00000000E+00  0.00000000E+00  0.00000000E+00
  0.00000000E+00  0.00000000E+00  0.00000000E+00
  0.00000000E+00  0.00000000E+00  0.00000000E+00
  0.00000000E+00  0.00000000E+00  0.00000000E+00
  0.00000000E+00  0.00000000E+00  0.00000000E+00
  0.00000000E+00  0.00000000E+00  0.00000000E+00
  0.00000000E+00  0.00000000E+00  0.00000000E+00
  0.00000000E+00  0.00000000E+00  0.00000000E+00
  0.00000000E+00  0.00000000E+00  0.00000000E+00
  0.00000000E+00  0.00000000E+00  0.00000000E+00
  0.00000000E+00  0.00000000E+00  0.00000000E+00
  0.00000000E+00  0.00000000E+00  0.00000000E+00
