Ge3 Te3                                 
   1.00000000000000     
     4.2463709418683306    0.0000000000000000    0.0000000000000000
    -2.1231854709341653    3.6774651095391331    0.0000000000000000
     0.0000000000000000    0.0000000000000000   10.9523394993207059
   Ge   Te
     3     3
Direct
  0.0000000000000000  0.0000000000000000  0.0081276339809025
  0.6666666870000029  0.3333333429999996  0.3414609799809061
  0.3333333429999996  0.6666666870000029  0.6747942939809064
  0.0000000000000000  0.0000000000000000  0.4708723650190929
  0.6666666870000029  0.3333333429999996  0.8042056780190976
  0.3333333429999996  0.6666666870000029  0.1375390370190982
 
  0.00000000E+00  0.00000000E+00  0.00000000E+00
  0.00000000E+00  0.00000000E+00  0.00000000E+00
  0.00000000E+00  0.00000000E+00  0.00000000E+00
  0.00000000E+00  0.00000000E+00  0.00000000E+00
  0.00000000E+00  0.00000000E+00  0.00000000E+00
  0.00000000E+00  0.00000000E+00  0.00000000E+00
