Sn4 Se4                                 
   1.00000000000000     
     3.9114694709005868    0.0000000000000002    0.0000000000000003
     0.0000000000000007    4.4644589844413343    0.0000000000000003
     0.0000000000000000    0.0000000000000000   11.3433295369176186
   Ge   Se
     4     4
Direct
  0.7500000000000000  0.3814385571279288  0.6300207435096965
  0.2500000000000000  0.8814385571279288  0.8699792564903035
  0.2500000000000000  0.6185614428720712  0.3699792564903035
  0.7500000000000000  0.1185614428720712  0.1300207435096965
  0.2500000000000000  0.5065403038299721  0.1463539113224996
  0.2500000000000000  0.9934596961700279  0.6463539113224996
  0.7500000000000000  0.0065403038299721  0.3536460886775004
  0.7500000000000000  0.4934596961700279  0.8536460886775004
 
  0.00000000E+00  0.00000000E+00  0.00000000E+00
  0.00000000E+00  0.00000000E+00  0.00000000E+00
  0.00000000E+00  0.00000000E+00  0.00000000E+00
  0.00000000E+00  0.00000000E+00  0.00000000E+00
  0.00000000E+00  0.00000000E+00  0.00000000E+00
  0.00000000E+00  0.00000000E+00  0.00000000E+00
  0.00000000E+00  0.00000000E+00  0.00000000E+00
  0.00000000E+00  0.00000000E+00  0.00000000E+00
