Amorphous Sb                            
   1.00000000000000     
    21.2291714401205631    0.0000000000000000    0.0000000000000000
     0.0000000000000000   21.2291714401205631    0.0000000000000000
     0.0000000000000000    0.0000000000000000   21.2291714401205631
   Sb
   300
Direct
  0.4872506453265298  0.0967961399130014  0.7123661202836147
  0.8879881220377159  0.0163271059662449  0.1863611466856903
  0.8320370556554199  0.6141248227134203  0.3082425923128995
  0.2188586646472034  0.8319579828394935  0.7614735718020499
  0.4057926556191506  0.7681707449769326  0.1525473492453985
  0.3496012574261854  0.5312933306039367  0.9137038891202239
  0.0435773093571935  0.0484794815971694  0.8687510660932231
  0.7689165381401309  0.4183950636722325  0.0339209004253604
  0.4520919276379688  0.1440407019593545  0.5869632078163294
  0.1471093276622726  0.3856527290588041  0.7728472485020660
  0.6680869436089419  0.6778136265507757  0.8534677146695053
  0.8380687390711287  0.4622538023198837  0.6516737127981643
  0.5874185946850090  0.1534055980582223  0.8640299031968274
  0.2341858661833367  0.2740594788036248  0.7530445405163059
  0.0798734926503522  0.9226397431889400  0.8241642508423229
  0.2925281975064265  0.9960359811124390  0.6150880703835834
  0.0352959075014813  0.3167287572279310  0.7158316284017227
  0.1475465455891169  0.8294662814778944  0.0877559226895045
  0.7420927455651813  0.4590027454235990  0.3152529067867342
  0.8367469822202837  0.3439080619946699  0.7969885159465661
  0.7424197042512813  0.1462126586301496  0.5816792437076485
  0.9371435097421101  0.5006174264573576  0.7527241533422727
  0.3422019566267200  0.3383364889879958  0.8220376480276927
  0.7309658423619818  0.5032797679079736  0.4645023378286353
  0.5403366372788250  0.7928701601490182  0.8581100258677153
  0.3263899050966774  0.4535556700300162  0.0343048148925217
  0.8422656874888537  0.1231522857279824  0.0097387216237051
  0.0395153527027639  0.0917661992436580  0.4702694830250593
  0.6767983046067705  0.7268237845178261  0.9965941878022929
  0.0462601336980462  0.5847100646029838  0.9104448734052789
  0.6902798969937687  0.8356809511920551  0.8358124721900919
  0.8950426398331729  0.6709160001858171  0.4310817609848638
  0.8423098468466589  0.8188455672665650  0.9728412864755542
  0.4770528496702904  0.5805722333738056  0.6368278498509444
  0.5318647791549224  0.8942824740320974  0.7380649234832536
  0.0214152348679781  0.4142245794242209  0.5050360188396966
  0.7733962236265030  0.0935920596113449  0.1223537208822228
  0.6651535320649694  0.4098423073590707  0.7607531955127439
  0.7531649817944981  0.7084439102239982  0.7082797216027298
  0.4190143951780591  0.1636210547754345  0.3023021197088173
  0.9163604903690260  0.7917405703126730  0.5321659211091180
  0.6096955440525121  0.7155698947194448  0.5812585024447149
  0.0114906249310501  0.1058977995137783  0.7430736288507911
  0.9911576265376917  0.8356695353311463  0.9703547760443850
  0.2554658720850189  0.9079747879851560  0.9055713609935216
  0.3757543044026462  0.2435764389176192  0.1823191470184666
  0.5886653559007494  0.4802989839354844  0.4651099796774900
  0.7481631837952251  0.5667438860852912  0.7231733662095547
  0.7487575762895147  0.1019511435903094  0.4438067843196403
  0.3112906018577956  0.4412979778725798  0.5014119792267678
  0.0696037007349533  0.8141541320384532  0.3655390379372435
  0.9470124784514367  0.1758181467666279  0.9123508018194724
  0.9827006874150306  0.5461173117443882  0.2443599610975518
  0.0481580205720497  0.2876273744850517  0.5769951992726711
  0.1518445705246568  0.1656683652251999  0.9712656881102784
  0.6425179269249978  0.1381158153243441  0.1436319772315333
  0.8813645512151194  0.3691607417577692  0.4869984058030210
  0.7239288680660650  0.7455761237263656  0.1227984272220857
  0.4458693861370780  0.2782762286543136  0.6315297754237498
  0.4249259198072152  0.6805598630766184  0.5239131200136951
  0.0739713515167431  0.4428757350856477  0.9165854899331393
  0.7270683969916133  0.0016316931466263  0.9204763317278983
  0.3132068402842168  0.7499890756986825  0.8582714577336271
  0.0422416784573570  0.0761102293067517  0.0244738221948667
  0.9939344098264559  0.3771123383865478  0.3463650932723595
  0.5922550816726236  0.3243199567201734  0.4776062746169641
  0.6491638612573931  0.6429693469396007  0.1807026979328090
  0.9158537552192985  0.2729555553716655  0.1432143649975255
  0.0706864155612421  0.4174064934629491  0.0580889085872168
  0.4365413823931647  0.7072575457409334  0.8118505634672478
  0.1973336237803005  0.4791300202757939  0.9514609712405814
  0.1265323052584278  0.1362491106431244  0.3149558410771147
  0.6065612010573147  0.7208564437172409  0.7237220860098448
  0.0767667042624424  0.5536531966631894  0.7735706912641074
  0.4093219973908999  0.8501810171531090  0.8721525381930321
  0.2719304678157289  0.8921965954085747  0.0475451255083680
  0.8802667438070815  0.2429046068326601  0.4501307671454680
  0.5771577681996036  0.0331410016194097  0.2834005848631178
  0.2937521172872368  0.5874831844289901  0.4700448031961798
  0.1622407859181765  0.4585984078482249  0.2270477761958177
  0.6155683466413224  0.4023337970812376  0.0350142012955352
  0.7166371117021468  0.0863486682695551  0.7191636173859427
  0.0942674102126284  0.5763311654130241  0.0784536614263416
  0.6086435534779696  0.1746637267519119  0.7279885591852741
  0.1173462416125749  0.4478485320842819  0.3647454307139844
  0.4476778041005449  0.4173939827738270  0.7702380681987250
  0.0868391519699917  0.8699648844870987  0.5058225087079055
  0.1552520760942049  0.8943558198273025  0.2144332059470931
  0.7377371455347116  0.3610120598103286  0.4809001483195616
  0.2082677570576517  0.0190290437849771  0.1720397065335531
  0.9092592200226853  0.9845438175768415  0.8569495323406905
  0.2914009829158247  0.6023995784514523  0.7603630169844100
  0.8375694316922254  0.0956488627746050  0.8071359336667955
  0.6143152561303850  0.4972554779061111  0.1299979423535808
  0.7038374740004812  0.9466600706323336  0.2138801128222788
  0.8181201047796195  0.9302168657608741  0.7449974085400761
  0.3120164238005186  0.1371898139449088  0.4621664680669320
  0.0302299024568051  0.5975140520071565  0.5859861044405541
  0.4948708716236005  0.2186638118070292  0.0315803600945886
  0.6251823633980674  0.2102854799125590  0.0352656235115332
  0.0325687672363647  0.3958950155821649  0.2181613184193409
  0.3979523321641665  0.8640367942533164  0.7376452207735792
  0.5944956454174745  0.4785977250548700  0.3230769543715541
  0.1860058849783496  0.0958221708783418  0.8506471339434718
  0.6375800996300514  0.7308659814264624  0.2851471203027592
  0.0729110169036851  0.7331006759572201  0.5403745874019753
  0.2627055066066320  0.0413978558808315  0.9426968888165884
  0.3845564013549336  0.0687487835001101  0.0692106601500749
  0.5429191267884921  0.0544904381591964  0.4160979519092255
  0.4519957790330542  0.3110875500532346  0.4691340302959545
  0.0373101318601744  0.1479906939774578  0.5986018852753610
  0.9217138718065294  0.5749442758280047  0.1145136035017253
  0.4020630070108100  0.8584584593872679  0.5816146130195951
  0.0180129735577788  0.2245202109450999  0.4312828323276991
  0.0313878135913757  0.2884437296763885  0.0408130653016046
  0.2633965493466036  0.4672299529227652  0.8206191679261766
  0.4417563861992821  0.1621778141934844  0.4440992423624182
  0.1741156640474746  0.2792871443121999  0.5346676035109653
  0.8865499172152482  0.6523536643780274  0.8628160022675743
  0.1504423953142668  0.2139446595975834  0.1000189804024831
  0.7925340709075083  0.5811768582069942  0.1698165786754837
  0.7136076354298331  0.8556770985361837  0.9682736421110532
  0.1923738379247187  0.5728800521245209  0.6292825848609999
  0.4688110011666630  0.5899883742364769  0.3965422586230985
  0.8881186054293111  0.4038189375787216  0.1774772328752818
  0.1602766337068521  0.4451212109027234  0.6458192655193584
  0.5488686713551501  0.3230492253078208  0.7613419445936161
  0.6776865187756583  0.6199724942075509  0.3535670957819166
  0.7196384529847316  0.2786248600823081  0.7535185592773598
  0.4664848397831346  0.8886742244209586  0.1809043794184849
  0.7210111029607676  0.8691289587510764  0.6474066990320378
  0.8884311338271877  0.3242679515762715  0.6170419149966413
  0.4747996805849982  0.4372212909375139  0.6315632623588460
  0.4724894094099623  0.4608822585341976  0.9082557675539065
  0.6198472958168106  0.5779558630146995  0.0142438816899953
  0.4865033912837370  0.3472101513102313  0.0739401403711761
  0.3647021920077071  0.7864174456081628  0.4636044421998337
  0.5869372961385904  0.0178975659243786  0.1272598953505606
  0.1466454515244238  0.3118298025955847  0.3780395273501880
  0.3056583157311528  0.7214875275752027  0.6270747221300090
  0.7444141422255923  0.6960835168269499  0.5638631654190793
  0.1607461521189055  0.0110588794320056  0.4844443108909363
  0.4981259444783304  0.5933525039251623  0.2280570470364428
  0.6954514439694692  0.9221765663598096  0.3702210581487033
  0.8823386589525688  0.9548465974653239  0.5313027667729767
  0.8703308725669210  0.6722976727025280  0.0099769057956629
  0.8390231706391239  0.9433444224172396  0.3754735081813431
  0.0333488871849116  0.0262915424439191  0.3348291215966874
  0.8594884612866696  0.9622016747413905  0.9829520393353331
  0.5155077900976378  0.7612493838726692  0.4621836975141760
  0.2292978491727346  0.5812289103525750  0.3498654396634499
  0.8589625084352382  0.8657138070520934  0.1086062135597610
  0.3917043775578962  0.9153771881551235  0.3516868670197829
  0.5606174417770842  0.8864871688215009  0.0734110078532209
  0.6637272022490396  0.8082687898199957  0.4541272762857495
  0.4686532950138976  0.9529550359554101  0.9950996831992432
  0.7463408993205309  0.4505600053835433  0.1714261749477928
  0.8294433884339588  0.7973845167678487  0.8151043351718616
  0.7230980197536756  0.9792416618812412  0.0808286488038016
  0.8124789550532699  0.2632968860727294  0.0494699623670665
  0.5334008982793964  0.0009820737103701  0.8172543401003978
  0.7261452135886954  0.0853215343623473  0.3029163522501647
  0.2790537368286082  0.1643849578143238  0.1307186208305089
  0.3365387219422483  0.4510725160366350  0.2103045209678986
  0.4377978380671804  0.9839612151513553  0.5549139932456142
  0.7041472219212359  0.2074044603185251  0.2513067239933865
  0.3225290518999477  0.2604619378521815  0.0493251043156808
  0.9539144457513229  0.8858266177586969  0.4396461077734903
  0.2003935224411299  0.3204752666539560  0.9295837961395494
  0.1566136287840566  0.9857348404706040  0.6426027483624523
  0.6144731894931169  0.4856017290907431  0.9003749907333286
  0.5848948861957444  0.6185758468354148  0.4599541805909763
  0.1752722618215558  0.6814152219872285  0.0162325813783350
  0.7627253171861106  0.5654855486647227  0.0269445416994433
  0.3358490558111212  0.9674748146476990  0.1527382483809337
  0.2596197198846683  0.0073154465472862  0.3276207604799707
  0.1085233960438088  0.2061636058441839  0.7668243109712205
  0.2877513348144941  0.2137500197652180  0.9206854527168838
  0.7514183054047250  0.2832581042044248  0.6089020877483770
  0.3334915720908225  0.6046515080930827  0.2537188046334545
  0.0182866734746063  0.9540147535198499  0.2117076380535282
  0.2615215221419550  0.3282023257745436  0.2065705432385529
  0.9283328889222674  0.4533417858592024  0.0487010680507456
  0.8638693453801080  0.7251428517221282  0.1507688726636865
  0.5475971412085912  0.0679434090952299  0.0060358694406320
  0.5981978318137134  0.9430212998195354  0.9374932952957205
  0.5914513862891329  0.2938346884050431  0.8914094852878108
  0.6323658864981060  0.8323566315687470  0.1802241550515405
  0.9637928901273416  0.6753905217870080  0.2861529623925543
  0.3092919020620857  0.3078745668136913  0.4800051040901194
  0.9975060052412459  0.9587113637506782  0.6153354665958022
  0.9693568848659246  0.3777937880603459  0.8279763584949517
  0.0310161580459395  0.7240011004643333  0.8462661519160547
  0.1344316045158183  0.9451643772668291  0.3576918137818674
  0.8630319398253778  0.5156568681591972  0.5247935890383691
  0.1165397156224706  0.8251117117858799  0.6512536951997819
  0.1009579539117983  0.2724348211286438  0.2472017449563477
  0.3078852917490336  0.1468635619441005  0.6124984525440660
  0.0438134214219201  0.6766255224572084  0.4049829494939870
  0.5862686222151097  0.2763609491513307  0.6044819501241778
  0.1659741814372440  0.7649221485208556  0.8756995466277168
  0.2927594247578931  0.9867098828216738  0.4763001925416127
  0.9729244312246838  0.8345695636115494  0.6677979163396758
  0.4189820726574424  0.2196190956569666  0.7701253883948755
  0.8646824723597791  0.0681363111410608  0.3145974370570979
  0.2878075896182268  0.6535766989092493  0.1357703690336071
  0.6695551689101058  0.0038954496167278  0.4721098365651399
  0.9756433422192774  0.9292565340083820  0.0631354645537702
  0.7061341739405079  0.4201994888962120  0.6273890461780457
  0.3372345006174106  0.4273011296738938  0.6346952356163753
  0.7794784503508705  0.8233286459436853  0.5367093792342926
  0.3050668324445995  0.1505184083486976  0.7651404792364188
  0.4991825623514199  0.9283453160632811  0.4411696016157524
  0.6225616346750308  0.1923489303023365  0.4272626943479773
  0.7492742348229589  0.3198945788239649  0.3420466620093822
  0.2768653687074793  0.1492022030061618  0.3296188085823056
  0.1501959294588761  0.5671165618968552  0.4900628445068895
  0.2281512983965425  0.5293885792503072  0.1081181234059639
  0.0089898763936521  0.7066657520016200  0.0201472126039868
  0.3392071724876182  0.7308436536149375  0.3281904262404068
  0.7711028785027084  0.4350254387498950  0.8824910743677523
  0.3318610557168473  0.5680208490727815  0.6304507774530688
  0.7582159223631657  0.7148177675308877  0.4093350768712785
  0.2230646884762895  0.3597993157295393  0.0590533033819703
  0.0010951159953532  0.1820581927395364  0.2967840588817567
  0.1674668219346293  0.1244123736114288  0.6409571572340957
  0.2190286099353237  0.9687711115360642  0.7766764891004296
  0.8872191120447503  0.0815020149221788  0.4734290481579420
  0.5251217136159937  0.6781910606175817  0.1281182987739160
  0.4915152632119260  0.4691303501953408  0.1929550740415543
  0.6714981019741719  0.3117461262746652  0.1295578610384747
  0.9772299318632460  0.8419103728335123  0.2727257767407878
  0.1127273576532540  0.5901895070815429  0.2119358808359987
  0.4375342459459943  0.0262941865789615  0.2642920916217810
  0.7492323567060485  0.9989525953042557  0.6014610918607117
  0.7671352789055590  0.5865354283728477  0.8793877644299138
  0.9671770202292020  0.8467025816705251  0.8169182293591678
  0.5561422462958390  0.3024991096652053  0.2005254487409785
  0.4460074646434096  0.7362119467397470  0.6798323969465370
  0.2878682894600310  0.8058700509562130  0.2243786992354158
  0.4168748909392690  0.0254647676659511  0.8717701762164356
  0.5905268233143469  0.3435208758616634  0.3245870907849469
  0.1882804603344219  0.6990738443427678  0.7092388594459633
  0.6011931460734308  0.1418405302739954  0.5689225076487757
  0.1761458046043911  0.7282546282017796  0.1844847651051506
  0.3882093152009813  0.8063668215338206  0.0145681089144581
  0.8292164104894335  0.8819171644341741  0.2453515556535563
  0.3662643234798497  0.0050847798692423  0.7428388451451361
  0.0669874838453631  0.2681519591832243  0.9040482430305213
  0.9212532936464775  0.2117023754987190  0.7848949782176298
  0.6913715464065525  0.5509904891550246  0.5970217067095445
  0.0152116135804377  0.4584149284060451  0.6366170418763291
  0.2619094402584107  0.8559921099846566  0.6052197048262764
  0.7616130236096460  0.2942534895798996  0.8957836211091000
  0.2781514558429268  0.2860487719700953  0.6167773032340969
  0.3283478379580346  0.6847901106213850  0.9903446825745857
  0.7453197263923981  0.1336083019692351  0.9087744179058701
  0.5662150793744758  0.1676766701229321  0.2637262446387457
  0.0329773766252185  0.6681823615686634  0.7170425162718654
  0.9535640750340301  0.1280324896878726  0.1333631108634413
  0.8780591713340055  0.2911262428931209  0.3128692115190249
  0.5951521462221998  0.8580277689505493  0.5644377160331349
  0.1654773470920039  0.4260685134226860  0.4995072239397221
  0.7910780419578309  0.7494000052048028  0.2785677409007915
  0.9879097808893266  0.5436683634378496  0.4451390133702819
  0.0838773046509902  0.1206916511630828  0.1720027370493014
  0.4978964925087646  0.7208132768833220  0.3234859639996575
  0.8896726673031111  0.6376384526765227  0.7184630182902787
  0.8879165707847008  0.6453168639873176  0.5718006900031466
  0.4698358715548513  0.1322165101491171  0.1470048447975538
  0.4548649000457899  0.4884084630800220  0.0550095979820924
  0.9158409566678439  0.3032514059538128  0.9594004141615066
  0.2284207488580515  0.8513899481547128  0.4784550454079234
  0.1972344908629714  0.7120373749523377  0.3458973033244211
  0.5111325263026996  0.8644879589607692  0.3069532272919790
  0.4561499148508784  0.3286495508573591  0.3365558840845423
  0.1250807334364103  0.8777508904871610  0.9455505636683714
  0.4175801708725556  0.4578726898444835  0.3448508132757829
  0.1663452936033841  0.1496899347966576  0.4764659471304633
  0.4468558854012925  0.4529719143130617  0.4827891560399395
  0.8507695156413115  0.1873493612732162  0.2308312113081699
  0.4783873200160396  0.6204684119262470  0.0021708813124510
  0.1701146115728914  0.0105224288898559  0.0344137402667008
  0.5513597826740200  0.9805797515066927  0.6348288626462287
  0.9173036336796744  0.5281231358628211  0.8878723079834629
  0.5282504379484456  0.7614805376514560  0.0017970110755487
  0.5608414606827101  0.6004937321565246  0.8496991960926182
  0.8890293183045379  0.0433640260156438  0.6697085014576298
  0.4242474817287568  0.5578224511707541  0.7783436919851545
  0.2766553522876473  0.4369293805863898  0.3357278917006155
  0.5921166260176907  0.5819311323586061  0.7097964839729831
  0.6944740739505471  0.9655796199636776  0.7853351419206894
  0.4616399916917486  0.3227216602596542  0.9363754136196688
  0.1884866941794107  0.6114071424636490  0.8931939601415645
  0.8990659992018047  0.4820932356601996  0.3569833599846777
  0.2834917834319010  0.3003074497971287  0.3428867500364968
  0.2129760299831767  0.7059758648921191  0.4949258425438296
  0.8795162173507244  0.1654856429023590  0.5871482292048213
  0.4545136327320273  0.1605440359609652  0.8930347268570403
  0.0104457931011763  0.7388821462959586  0.1580221983568466
 
 -0.59897226E-03 -0.21101301E-02 -0.18902452E-04
 -0.41507451E-03 -0.68716724E-03  0.10374593E-02
  0.20760754E-02 -0.15343553E-02 -0.20155863E-02
 -0.78880724E-03 -0.25022990E-02  0.19118582E-03
 -0.60969144E-03 -0.11033619E-02 -0.69335728E-04
 -0.60084472E-03  0.12234522E-02 -0.21514220E-02
  0.61753763E-03  0.54813892E-03 -0.47278171E-02
 -0.41326754E-03  0.14042039E-02 -0.27236441E-02
 -0.31810356E-03  0.11224736E-02 -0.12775180E-03
 -0.13081278E-02 -0.48991748E-02 -0.26843748E-02
 -0.43305070E-03  0.28594995E-02 -0.22031692E-02
 -0.14410638E-02  0.19206674E-02 -0.10278512E-02
  0.13963460E-02 -0.36625978E-03 -0.71231942E-03
 -0.35692604E-03  0.32858326E-02  0.12358144E-02
 -0.14967534E-02 -0.86862074E-03 -0.35352776E-03
  0.27624401E-02 -0.37598763E-02 -0.62684984E-03
 -0.21726073E-02 -0.42890325E-02 -0.12258464E-03
  0.24618074E-02 -0.31206527E-03 -0.10844218E-02
 -0.24227905E-02 -0.16690884E-02 -0.50069173E-03
  0.31145007E-02  0.10823226E-02 -0.19375328E-02
  0.30542376E-02 -0.12670130E-03  0.18937742E-04
 -0.44668090E-03 -0.20639843E-02 -0.51669623E-03
 -0.66414114E-04  0.21955658E-04  0.10261496E-02
  0.63987270E-03  0.10225758E-02  0.31339810E-03
  0.19096310E-02  0.15919852E-02  0.15965424E-02
  0.23859564E-02 -0.22945863E-02  0.93814000E-03
  0.52176537E-02  0.40724838E-03 -0.96595685E-03
 -0.11076083E-02  0.22039110E-03  0.10248470E-03
 -0.24168309E-02 -0.69916800E-03  0.90728756E-03
 -0.31086720E-04  0.26884143E-03  0.54659832E-04
 -0.20827145E-02  0.52768114E-03 -0.64791945E-03
 -0.22269912E-02  0.81531554E-03  0.32314930E-02
  0.15415037E-02  0.24446774E-03 -0.12242202E-02
  0.12797241E-02  0.26041930E-02 -0.12297025E-04
  0.26902377E-02 -0.44303606E-04  0.23005403E-02
 -0.15481783E-02  0.15183552E-02 -0.22247670E-02
  0.19901699E-02 -0.51519364E-04  0.15753212E-02
 -0.40559277E-03  0.85063924E-03 -0.17352989E-03
  0.12745039E-02 -0.35449720E-03 -0.94459972E-03
  0.11874283E-02 -0.99660599E-04  0.50815389E-03
  0.21641229E-03  0.55839834E-03 -0.41307268E-02
 -0.15949399E-02  0.17691892E-04  0.98139599E-03
 -0.12944253E-02 -0.17303218E-02 -0.34606746E-03
 -0.34712008E-02  0.18666256E-02 -0.67690085E-03
  0.17505143E-02 -0.85687734E-03  0.13833257E-02
 -0.25651978E-02  0.61062647E-03 -0.46324563E-03
 -0.75238951E-03  0.70831309E-03  0.27336259E-03
 -0.83222686E-03  0.69129304E-03  0.29265123E-02
  0.84582989E-03  0.11817141E-03  0.15638475E-02
 -0.36826598E-02  0.10046295E-02 -0.38316997E-02
  0.10495037E-02  0.30801044E-02 -0.59994115E-03
  0.15626517E-02 -0.27490767E-02 -0.18439433E-02
 -0.45547437E-02  0.89749406E-03  0.19755318E-02
  0.64973086E-03 -0.26047541E-02 -0.47243577E-02
  0.17119272E-02  0.13088928E-02 -0.27215470E-03
 -0.10728554E-02 -0.33347040E-02 -0.32930266E-02
  0.13299870E-02 -0.37341095E-02  0.16387904E-02
 -0.70262937E-03  0.10480427E-02 -0.58718367E-03
  0.20494275E-02  0.88373446E-03  0.21535815E-02
 -0.81718670E-03  0.19810140E-03 -0.89033436E-03
 -0.60498866E-03  0.12439438E-02  0.52626823E-03
  0.93043243E-03 -0.26831238E-02  0.13132846E-02
 -0.33787225E-03 -0.33864676E-03 -0.25792775E-02
  0.20396763E-02  0.42649451E-02 -0.17675116E-02
 -0.20300969E-02  0.16477533E-02 -0.85583168E-03
  0.43345369E-03 -0.85382654E-03  0.84571599E-03
  0.15814480E-02  0.39774112E-02 -0.11539563E-02
  0.16732542E-03  0.35953214E-02  0.88198617E-03
 -0.47881097E-02  0.26282605E-03  0.10240000E-02
 -0.26101823E-02  0.72089578E-03  0.12008597E-02
  0.61048274E-03 -0.22461172E-03 -0.18140474E-02
 -0.23183509E-03  0.28473865E-02 -0.85465509E-03
  0.13071956E-03  0.80789196E-04 -0.19249416E-02
 -0.15126925E-02  0.21929659E-02 -0.24570467E-02
 -0.73349119E-03 -0.12054001E-02 -0.98290806E-03
 -0.24566251E-02  0.12804482E-02  0.12442961E-02
  0.12495230E-02 -0.73006922E-04  0.56896537E-03
  0.24018523E-02  0.93501067E-03 -0.20047603E-02
  0.17288850E-02 -0.11258178E-03 -0.93506664E-03
  0.29527403E-02 -0.16605940E-02 -0.16018404E-02
  0.19134849E-02 -0.12738144E-02 -0.17056867E-02
 -0.28537846E-03  0.54698951E-04 -0.19287424E-02
 -0.26805204E-02 -0.37900393E-02  0.31239027E-03
 -0.70636244E-03  0.83535839E-03 -0.18304736E-02
  0.41958128E-02 -0.95819406E-03 -0.54804063E-04
 -0.25573245E-02 -0.45971120E-03  0.43482547E-04
  0.14118212E-03 -0.24056113E-03 -0.24789521E-02
 -0.93544462E-03 -0.60348167E-03  0.44445149E-03
  0.11687928E-02  0.12464065E-02 -0.18199108E-02
 -0.43228526E-03 -0.16038942E-02 -0.92572155E-03
  0.54209403E-02 -0.11609735E-02  0.30289364E-02
  0.41280997E-03  0.34469561E-02 -0.21089338E-02
 -0.53605072E-03 -0.24908381E-03 -0.27343222E-03
 -0.16536270E-02  0.86312723E-03  0.68188561E-03
  0.62352895E-03  0.53548820E-04  0.13512455E-02
 -0.24384253E-03 -0.20634756E-02 -0.56656139E-03
 -0.11640054E-02 -0.10550458E-03  0.83352748E-03
  0.53679857E-03 -0.39287205E-03 -0.57078138E-03
 -0.10218784E-02  0.49110468E-04  0.18795532E-02
 -0.84847210E-03 -0.14196048E-02 -0.92261823E-03
 -0.72450495E-03 -0.78659300E-03  0.16576601E-02
 -0.89527092E-04  0.17037578E-02 -0.17270774E-02
 -0.17195943E-02 -0.32645967E-02  0.15633128E-03
 -0.19901206E-02  0.21260355E-02 -0.19060522E-02
 -0.16878835E-02 -0.16456372E-02  0.11394013E-02
 -0.20273853E-03 -0.22608407E-04 -0.80739113E-03
  0.76350578E-03 -0.19652609E-02  0.25581245E-02
 -0.19332189E-02  0.49221289E-03 -0.14659303E-03
  0.24667444E-02 -0.10764269E-02 -0.58152334E-03
  0.12689144E-02 -0.59352866E-03  0.38226501E-02
  0.71131468E-03  0.16418620E-02 -0.13128098E-02
 -0.25270529E-03  0.10749093E-02 -0.10608643E-03
 -0.27076706E-02 -0.28483366E-02 -0.23738229E-02
  0.18751797E-02 -0.16965353E-02  0.15895417E-02
 -0.72962104E-03 -0.15198010E-02  0.62757761E-03
 -0.48999400E-02  0.19823843E-02  0.11899518E-02
  0.14796429E-02 -0.46127220E-02 -0.45045010E-02
 -0.33567305E-03  0.14986408E-02 -0.61303438E-03
 -0.19061501E-02 -0.11874848E-02 -0.31846720E-03
 -0.32085570E-03 -0.28286704E-02  0.21660808E-02
  0.14130440E-02 -0.21526417E-02  0.32598193E-03
 -0.44289483E-03  0.50210728E-03  0.78453391E-03
  0.89856489E-03  0.13064201E-02  0.18972027E-02
  0.94585752E-03 -0.21123813E-02 -0.19254411E-02
  0.14053709E-02 -0.16584102E-03 -0.96886190E-03
 -0.60846931E-03  0.18686927E-02 -0.72142062E-03
  0.44026357E-03  0.26776268E-02 -0.23654013E-03
  0.11609210E-02  0.79081547E-03  0.27467360E-03
  0.14035751E-02  0.25201923E-02  0.23555970E-02
  0.11555105E-02  0.99791288E-04 -0.19393171E-02
 -0.16589578E-02 -0.26713027E-02 -0.15384508E-03
  0.89066169E-04  0.11469149E-04 -0.11799174E-02
 -0.10955115E-02  0.20223243E-02  0.20587862E-03
 -0.68199690E-03  0.11933943E-02  0.13495383E-02
  0.27973759E-02 -0.19752995E-02 -0.15515889E-02
 -0.12303449E-02 -0.86605236E-04 -0.57074883E-03
 -0.86288858E-03  0.18918138E-02  0.59223286E-03
 -0.59550974E-03  0.14922375E-02 -0.23339165E-03
  0.14226576E-02  0.27530460E-02  0.24721750E-02
  0.22204358E-03 -0.30868244E-03  0.37499385E-02
 -0.26969163E-02  0.12665550E-02  0.10322306E-02
  0.35265262E-03  0.27106925E-03  0.38083323E-03
  0.30448322E-02 -0.19984006E-02  0.74420471E-03
 -0.76124294E-03 -0.32476032E-02  0.18649537E-02
 -0.22275492E-02 -0.35007913E-02 -0.95858703E-03
 -0.25280788E-02  0.62850919E-03  0.75509723E-03
 -0.13360576E-02 -0.35960329E-03 -0.74237588E-03
  0.75785535E-03  0.64108129E-03  0.18264956E-02
 -0.14197722E-02  0.13916605E-02 -0.26125525E-03
  0.17558415E-02  0.43536631E-03 -0.27389403E-03
  0.45264854E-03 -0.93894843E-03  0.11718761E-02
 -0.25153516E-02  0.28861957E-03 -0.17051504E-02
 -0.25848265E-02  0.49922333E-03  0.26218054E-02
  0.13591271E-02 -0.14153073E-02 -0.13775182E-03
  0.17364612E-03  0.17222737E-02 -0.62668453E-03
  0.12569416E-02  0.49697368E-03  0.80005369E-03
  0.16613520E-02 -0.13873824E-02  0.19658435E-02
 -0.18116821E-02 -0.12269905E-04 -0.16121025E-02
  0.15275852E-02 -0.88512094E-03  0.17374515E-02
  0.22640019E-02 -0.24430324E-03 -0.22407044E-03
 -0.79675662E-03 -0.24822077E-02  0.19224633E-02
  0.18429334E-02  0.16316555E-03 -0.19721056E-03
 -0.47829575E-03  0.14729399E-02  0.88922208E-04
  0.64827138E-03 -0.19952402E-02  0.41996055E-03
 -0.18745834E-02  0.20786139E-02 -0.48084141E-03
  0.49110280E-03 -0.14702502E-02  0.60384451E-03
 -0.13829298E-02 -0.70410111E-03 -0.24049180E-03
  0.69509623E-04 -0.27124336E-02 -0.15353673E-02
  0.27018555E-02 -0.13359723E-02  0.69237409E-03
  0.10020489E-02  0.81975978E-03  0.16849977E-02
 -0.10090982E-02 -0.72103199E-03  0.24743105E-02
  0.46924063E-03  0.13796452E-02  0.19443963E-03
 -0.21920956E-02 -0.48248711E-03  0.51605604E-03
 -0.73656591E-03  0.54132347E-03 -0.50540079E-03
 -0.45125995E-03 -0.58299021E-03 -0.37222052E-02
  0.86674240E-03 -0.22122098E-02 -0.78548362E-03
 -0.14046830E-02 -0.74184919E-03 -0.16862699E-02
 -0.91113472E-03 -0.24616165E-02 -0.43887588E-03
  0.29111575E-02  0.41004676E-05  0.19339897E-02
 -0.36232956E-04  0.11581184E-02  0.37969921E-02
  0.20914174E-02  0.88898953E-03  0.12651960E-02
 -0.17644988E-03 -0.81855004E-03 -0.20760830E-02
  0.18258192E-03 -0.15268674E-02  0.27503483E-02
 -0.12834318E-02  0.12985217E-02  0.10609569E-02
  0.16694514E-02  0.33748370E-02  0.76037137E-03
  0.14709762E-02 -0.27249637E-02 -0.73086990E-03
 -0.95659506E-03 -0.52246206E-03 -0.16381013E-02
 -0.27981282E-03  0.34688734E-02 -0.12080985E-02
  0.13484167E-02  0.16802347E-02 -0.24129901E-02
 -0.16293244E-02  0.43596053E-02 -0.39883681E-03
 -0.70133469E-04 -0.24490840E-03 -0.20990305E-02
  0.12199875E-03  0.88939611E-03  0.37516570E-03
  0.46229207E-02  0.40637100E-03  0.22956245E-02
  0.25338998E-03  0.32645549E-03 -0.13701405E-02
  0.13712062E-02  0.15392676E-02 -0.16522099E-02
 -0.27621961E-02  0.85779818E-03 -0.70162338E-03
  0.94401468E-03 -0.17802220E-02  0.83420088E-03
 -0.37477628E-02 -0.29580070E-02  0.42141284E-03
 -0.33511886E-02  0.12653108E-02  0.30493978E-02
  0.21963435E-02  0.99570108E-03 -0.41893635E-03
  0.65166998E-03  0.23220159E-02  0.30986606E-03
 -0.39818762E-03  0.21092775E-03  0.50086392E-03
 -0.20051679E-03 -0.16907601E-02  0.59544184E-04
  0.19744730E-02 -0.24850286E-04 -0.46549903E-03
 -0.15852021E-02  0.49500591E-02  0.26922373E-03
  0.17864695E-03  0.12138440E-02  0.21068608E-03
  0.20752934E-02 -0.13489552E-02  0.31908222E-02
  0.87097139E-03 -0.28845331E-03 -0.10234809E-02
 -0.97300507E-03  0.11445309E-02 -0.65939548E-03
 -0.15144363E-03 -0.50715348E-03  0.10993450E-02
 -0.98299297E-03 -0.93219218E-03  0.15735825E-02
 -0.34870815E-03  0.10109297E-02  0.18533815E-02
 -0.30824959E-02  0.10491624E-03  0.21658059E-02
 -0.70738344E-03  0.11685240E-03  0.50422317E-03
  0.22040533E-02  0.10071872E-02 -0.17004231E-03
  0.16008274E-03  0.10205856E-02 -0.16806273E-04
  0.12781728E-03 -0.94192152E-03  0.13281647E-02
 -0.11137492E-02  0.52185353E-03 -0.16200932E-02
 -0.16868870E-02  0.62532173E-03  0.17499016E-02
  0.17228998E-03  0.42900297E-03  0.62136278E-05
 -0.13217253E-02  0.65555494E-04  0.18074205E-03
  0.37922675E-02 -0.10358577E-02  0.27126414E-02
  0.31690518E-03 -0.15935884E-02  0.94557178E-03
 -0.23057277E-02  0.12386913E-02  0.13901417E-02
  0.51511401E-03 -0.66023496E-03  0.14481203E-02
  0.16383580E-02 -0.19213668E-02 -0.18810858E-03
  0.37241405E-02 -0.10868790E-02 -0.11294993E-02
 -0.18722505E-02  0.13833635E-02 -0.14455559E-02
 -0.50947048E-03 -0.39989680E-03 -0.86870463E-03
 -0.16765509E-02  0.23633399E-02 -0.27841271E-02
  0.26651656E-02 -0.39100685E-02  0.53681021E-03
 -0.27481556E-02 -0.56179471E-03  0.14568227E-02