Sb14
1.0
   6.6098189999999999    0.0000000000000000    0.0000000000000000
   2.6342219999999998    7.4513679999999987    0.0000000000000000
   1.3597660000000000    3.3259829999999999    9.8030069999999991
Sb
14
direct
   0.0000000000000000    0.0000000000000000    0.0000000000000000 Sb
   0.5000000000000000    0.5000000000000000    0.5000000000000000 Sb
   0.5000000000000000    0.0000000000000000    0.5000000000000000 Sb
   0.0000000000000000    0.5000000000000000    0.0000000000000000 Sb
   0.3345349999999990    0.0801009999999990    0.7719840000000000 Sb
   0.6654650000000000    0.9198989999999990    0.2280160000000000 Sb
   0.9767960000000000    0.8856900000000001    0.7413240000000000 Sb
   0.0232040000000000    0.1143100000000000    0.2586759999999990 Sb
   0.3266880000000000    0.7541610000000000    0.2202380000000000 Sb
   0.6733120000000000    0.2458390000000000    0.7797620000000000 Sb
   0.1163400000000000    0.4884810000000000    0.6968719999999990 Sb
   0.8836600000000001    0.5115189999999999    0.3031280000000000 Sb
   0.6610500000000000    0.6683169999999991    0.7679460000000000 Sb
   0.3389500000000000    0.3316830000000000    0.2320539999999990 Sb
