Zr Ge Sb Te                             
   1.00000000000000     
    17.7481213822600417    0.0000000000000000    0.0000000000000000
     0.0000000000000000   17.7481213822600417    0.0000000000000000
     0.0000000000000000    0.0000000000000000   17.7481213822600417
   Zr   Ge   Sb   Te
     8    32    32    80
Direct
  0.8072431684670686  0.8079443615241834  0.4084847370053710
  0.5416396636852244  0.0212062199863462  0.6394928954431168
  0.7874558195687568  0.5024187060191120  0.0440411384606509
  0.5812557789499510  0.0656522251584104  0.0110563369749716
  0.9341392949732376  0.8517660693472729  0.2296427130829258
  0.2832988893820125  0.6091896204921212  0.7669037497797208
  0.7597911106819659  0.6632253297639628  0.6315216138204297
  0.8945838494349644  0.3828959972845106  0.4168574889191483
  0.6638437100014817  0.1846559926979190  0.0649969386421278
  0.4265192889028241  0.1287008240672345  0.8091109887323937
  0.1801863841740063  0.4692057963609258  0.5431436650991993
  0.1528332551048488  0.1120660729950779  0.3318038509224371
  0.2200206858309511  0.3986183267717482  0.7426075426748874
  0.6289388648102426  0.2365693268950627  0.7046842400382233
  0.4730964754725346  0.9995097803205452  0.4072775459336493
  0.8441704946643919  0.4169463102670570  0.6010424886463904
  0.8038258294115763  0.2589366038235653  0.5471719228217902
  0.1334161975105698  0.3326787665960798  0.8336428355158557
  0.2762877274994308  0.0343064249413397  0.8936609268533865
  0.4897206119921779  0.1592997464315534  0.2149904997721349
  0.9005482506442108  0.1683990122409689  0.7440488254437879
  0.4390978408160746  0.7738210084211274  0.9368992448719338
  0.3662382403999049  0.3536978534327268  0.4938384787832076
  0.1082448045682484  0.8490307969011633  0.0143991024172144
  0.0362384996400915  0.0229658679190204  0.5903748706100849
  0.0944819368845187  0.2514281454391900  0.5871374435243191
  0.3500650685901213  0.6382665116624067  0.4240308866389926
  0.5523959484891202  0.6066841525608152  0.4509125719140919
  0.8057248686693788  0.1169822630691938  0.4845206349346509
  0.7919493801274962  0.6940323502831049  0.2339524920353186
  0.4592523700677806  0.4918670664070781  0.7202151006016749
  0.2931976437427357  0.5663337196098570  0.5355233977864724
  0.8455365679275442  0.9627651073519439  0.0957595979638783
  0.2166717294510127  0.3289646123343957  0.3102183244829625
  0.2186617178358847  0.3462119254942292  0.1074436823926279
  0.9375769621216939  0.3094936487605529  0.8754817372529602
  0.0455444839706003  0.0354673468805574  0.7899269830760151
  0.1749701188273327  0.2127742803104805  0.9201757551458318
  0.4675656341354147  0.9885481429855916  0.1957809298885067
  0.4446066545639599  0.7870708366810630  0.3451232049269680
  0.3069090610203157  0.1064320344174293  0.3508284235783961
  0.6193405710552283  0.9189508355362247  0.0840451193546093
  0.0447721426325436  0.4155910651970772  0.0809952932553028
  0.2719721698057050  0.1389393743657034  0.0990882309284696
  0.3586069272530457  0.2724574154070910  0.2547072856985451
  0.6901348021316774  0.5790502884309966  0.1594268534320156
  0.9472385960374587  0.5596948441627634  0.5056065859387057
  0.1227961532232055  0.6845729974177247  0.5924627150863940
  0.9314057532047380  0.0411055081286317  0.3109063820205135
  0.6834663804753539  0.6325564111184029  0.8017024703633813
  0.9396849687714053  0.2204187356994722  0.2366561709431782
  0.6400549288589233  0.3152799714999386  0.9211489631698533
  0.5474151659315996  0.5043647317463020  0.1226075944678239
  0.2929272326410441  0.1151855863079681  0.5150933004259411
  0.9272580369238149  0.5266900407262732  0.3377118801383673
  0.9056070430483768  0.3820123298977104  0.2066810845061514
  0.8660047588005878  0.9521649799149746  0.7542910788203921
  0.5355465446380719  0.9519584309603145  0.8867484827139943
  0.6543077962990504  0.5138676771816256  0.3037968366780050
  0.1010812057530907  0.5827419285666641  0.4455556596922333
  0.8533837602097615  0.7835011472226320  0.7742266107819051
  0.7448486123128403  0.9510517029511094  0.4751930312692657
  0.5334614797380047  0.7625694476486879  0.0672650118965119
  0.0504203675928036  0.2422920710503494  0.7397930199033972
  0.7339364554717062  0.4305909240166549  0.4914550860203543
  0.2581593950345789  0.6479836496501603  0.0150977668001277
  0.4258745012702154  0.9866158891580027  0.7625360271911296
  0.6539296167584965  0.1491055019932994  0.8783508308966552
  0.5014953149927749  0.1917140078502404  0.9315825729201156
  0.8216426168959161  0.2525460228265765  0.0461020572745219
  0.7663071343608980  0.5764984049286745  0.4101103069549419
  0.7334963718823030  0.4947056971549907  0.7429412097728366
  0.0834925327348651  0.7008446940868301  0.0557237343329762
  0.0145461397035085  0.2659600102100064  0.0100652951788365
  0.8720908291375229  0.5580677416379617  0.6824252706661416
  0.5835056655479679  0.2807779582504517  0.1503119722255380
  0.8000842208346455  0.9256776582854674  0.2936101243247504
  0.8897696984951691  0.2276398176906709  0.3907795810851463
  0.1868295006079645  0.7427236147494775  0.8056310271444569
  0.2970694823338532  0.2740779578028506  0.9997869242386260
  0.4513850286321772  0.7214037897291384  0.4971518236124558
  0.8505218332044885  0.1435260900713366  0.9110450869917416
  0.5245344389301578  0.1811365381135434  0.3795446951547543
  0.1535905825728471  0.2382647852366123  0.4170122641561667
  0.8857943038226902  0.7208729330434024  0.5433006464755757
  0.9041632566045770  0.9228589659314961  0.4887537896753667
  0.9249209130563919  0.7289769149376637  0.3306284536884089
  0.5312965488393800  0.8557530981182061  0.6517660901291037
  0.5416114605610831  0.6622669575601999  0.2996021726887430
  0.8214633409969663  0.1431546674156642  0.1736455145279370
  0.4496822712801114  0.8312369939141578  0.1764986997452804
  0.8002169555121772  0.7922078299146100  0.9197105643367436
  0.4366328040065628  0.5446825068272135  0.3413838812807503
  0.9914228945876207  0.3901353993035506  0.5522612810540790
  0.4707623066212703  0.3314550459217918  0.3557001690492850
  0.8412082836781438  0.7904147105274681  0.1196614642282110
  0.3800908396456631  0.6340489118397866  0.8963838250584354
  0.2763441787574245  0.6941236433167962  0.6257596254030587
  0.1786076180627835  0.0544491452451243  0.0077424190420853
  0.5698616237097900  0.9082150623526916  0.5074353296029873
  0.7335191067187098  0.3806352566500833  0.3413161883211079
  0.0511555925663344  0.0014663101964872  0.4162105712974707
  0.6552901141395729  0.2688974029493953  0.5515164920379299
  0.4821436765480419  0.1708780659963483  0.6759423856373796
  0.2392206034947134  0.3230969799031379  0.6075012937786201
  0.6341404885847700  0.1159591606723784  0.5387052699808416
  0.1707994504998519  0.6045080517851834  0.8839415751374857
  0.1081353460263678  0.7504492276013216  0.4546605995671402
  0.0029394439657428  0.9865311770963034  0.1817200993424775
  0.1396833070211359  0.1846848043446308  0.1979041429953769
  0.2065356981890636  0.9839324430450748  0.5492664075605298
  0.3371931295479353  0.4539256750938004  0.8167530017035849
  0.8158443094178827  0.2906119415914367  0.6985549758539877
  0.7893522515153907  0.3912031642535458  0.9276181562477442
  0.4545741606908006  0.6227077189933828  0.0975233919162118
  0.6861199745449055  0.7981614270290041  0.2979328777527483
  0.7321968930776085  0.9508554447716393  0.6355812581471347
  0.4363040333617378  0.6493079708751924  0.7134823187667469
  0.3497092986822226  0.9563249511479798  0.3265583155172084
  0.5947273312352090  0.3695732843950373  0.7735160522639947
  0.9268005172513951  0.9282714735970636  0.9623420453843941
  0.2698543521194293  0.8183679788582492  0.0273254330435539
  0.0162790905380357  0.4367129318158817  0.8375162171353134
  0.4043270433768404  0.0083516032512773  0.5482836114812003
  0.3420497121597504  0.8797331937809620  0.8874033129821866
  0.2804130802267990  0.1739292028701237  0.8076039027562327
  0.6480386810377006  0.5446323925845705  0.6175716808846982
  0.8993183302058547  0.5840800087251393  0.1273327886445820
  0.7002395381837343  0.7889702328317203  0.7029689364233910
  0.0379512903094320  0.4105684799072022  0.3430295780538268
  0.5466047197703928  0.7967936312442512  0.8305751031736335
  0.9112833541912199  0.1193383122177365  0.5945003562737152
  0.1567491889501611  0.5260610673667561  0.6951159820455470
  0.7201942070630404  0.9872404305023401  0.9831155198661718
  0.9466260792341059  0.5250101787784838  0.9859121167339803
  0.6212822957567271  0.0574914046171775  0.1743823314457230
  0.4131058837222739  0.4859304461007939  0.5698366591501878
  0.8045025971174462  0.6326611830424959  0.9114816356081482
  0.2753416961884086  0.4345675348849815  0.4000407957187706
  0.2017380856028545  0.4648874068455754  0.0084083558459019
  0.6304057270844683  0.4906037638180174  0.9894844968938088
  0.3416600608609304  0.4096717289526129  0.1759916029640974
  0.7624908207153946  0.3750393155815948  0.1564861514829428
  0.6913591448745302  0.6987755155786634  0.4818751402281539
  0.1553986304703928  0.9474609882596214  0.8417974962195920
  0.3040938510268972  0.7323826915687225  0.3240395901391995
  0.0057225999746264  0.9047444447060590  0.7080563480834421
  0.9881961971136841  0.0868138316884993  0.9639322441670096
  0.0912310747892656  0.8151381147883078  0.1650568824764528
  0.1297037097308095  0.1119667530262171  0.6793155293370462
  0.4182974100080750  0.0443989251355633  0.0572621835616520
  0.6336120196628433  0.0164916510470870  0.7788046882692488
 
 -0.25124556E-03  0.16814783E-02  0.86867633E-03
 -0.15070662E-03  0.72402843E-03 -0.27330037E-02
  0.15069815E-02 -0.18233025E-03  0.61791989E-03
 -0.99506191E-03 -0.71004494E-03  0.14543067E-03
  0.86082666E-04  0.59236603E-03  0.33877292E-02
  0.16944531E-02  0.28078218E-02  0.22377683E-02
  0.15155830E-02 -0.34564520E-02  0.18206970E-02
 -0.10527812E-02  0.11096382E-02 -0.10428710E-02
 -0.10641588E-02  0.24230594E-02  0.99725224E-03
  0.64309570E-03  0.29222097E-03 -0.10003417E-02
  0.49197946E-03  0.12205143E-02  0.17136787E-02
 -0.18647905E-02 -0.61265026E-03 -0.43098198E-05
 -0.24948592E-02 -0.35676346E-03  0.50459011E-03
 -0.57513189E-03 -0.31152481E-02 -0.12615025E-02
 -0.10958515E-02  0.18667270E-02  0.65143906E-02
  0.89224490E-03 -0.10998971E-02  0.31624484E-02
 -0.25010449E-02  0.14302388E-02  0.17448801E-02
 -0.49611848E-02 -0.26612256E-02  0.29828749E-02
 -0.19688202E-02 -0.33528694E-02 -0.40495074E-02
 -0.89407933E-03  0.19844769E-04  0.27787285E-02
  0.14602632E-03  0.35773939E-02  0.40062650E-02
  0.14192333E-02  0.31038532E-02  0.33444135E-02
 -0.46913757E-03  0.30589102E-03  0.16675915E-02
  0.10743938E-02 -0.23704073E-02 -0.51365675E-03
  0.38754214E-02 -0.24501647E-03  0.10133792E-02
  0.21861875E-02  0.15838545E-02  0.62438298E-03
  0.11129014E-02  0.13270787E-02  0.52398121E-03
  0.14682010E-02 -0.34065593E-03  0.10945342E-02
  0.13623305E-02 -0.25376260E-02 -0.25850364E-04
 -0.13808596E-02  0.33861832E-02  0.53405787E-03
  0.12917579E-02 -0.11186388E-03  0.18881760E-02
 -0.28749132E-02  0.10113674E-02  0.63718216E-04
 -0.53551615E-03 -0.21950674E-02 -0.17734826E-02
 -0.44021214E-03  0.19767219E-02  0.11325857E-02
 -0.96929201E-03 -0.75635226E-03  0.44941171E-03
 -0.11309327E-02 -0.52758049E-03 -0.32498906E-02
  0.19919837E-02  0.32143680E-02 -0.21230832E-02
 -0.93022785E-03  0.27501257E-02  0.20628813E-02
  0.50833942E-02  0.26498188E-02  0.18882655E-02
  0.16330375E-03  0.11936852E-02  0.29493220E-03
  0.56781385E-03  0.18603119E-02  0.18943940E-03
 -0.10279461E-02  0.48787954E-03 -0.14954598E-02
 -0.30750267E-03  0.17953895E-03  0.10499861E-02
  0.67295623E-04 -0.65645813E-03  0.25017166E-02
 -0.11907126E-02 -0.61021823E-03 -0.22307314E-02
  0.12812660E-02 -0.12688336E-02 -0.92085372E-03
 -0.26181810E-02  0.24047164E-02 -0.10610881E-02
  0.70272074E-03  0.10534935E-02  0.80853167E-03
  0.20514333E-03 -0.19635107E-02 -0.10406535E-02
 -0.50672518E-05 -0.26789681E-02 -0.29502049E-03
  0.73292152E-03  0.13489352E-02 -0.41392308E-03
  0.78448775E-03  0.52395352E-03  0.14431130E-03
  0.33317125E-03  0.17251247E-02  0.33980028E-03
  0.21013376E-02  0.12200374E-02 -0.23490677E-03
  0.13848283E-02 -0.88961374E-03 -0.63842555E-03
 -0.22199553E-02  0.10437100E-02  0.41429069E-03
 -0.76040953E-03  0.17558307E-03 -0.12801475E-03
 -0.26150346E-02  0.18734589E-02 -0.16050582E-02
 -0.67991934E-03 -0.12698390E-02 -0.21227406E-02
 -0.79231528E-03 -0.74405175E-03  0.20629597E-02
  0.28072033E-03 -0.12711595E-02 -0.12557795E-02
  0.19934675E-02  0.12646711E-02  0.20772691E-02
 -0.35964212E-03  0.12687191E-03  0.65471475E-03
  0.14292362E-02 -0.56934954E-03  0.21262164E-02
 -0.33633539E-03  0.11060068E-02 -0.35261389E-03
 -0.15171008E-02  0.20462217E-04 -0.58711978E-04
 -0.75327744E-03 -0.61883836E-03  0.15504117E-02
  0.10683030E-02 -0.19684906E-02  0.14153162E-02
 -0.22639355E-02 -0.11786757E-02 -0.52526586E-03
  0.55918442E-03 -0.12803978E-02 -0.12921163E-02
  0.14306663E-02  0.49415449E-03  0.74068047E-03
  0.10748363E-03  0.25941000E-03 -0.33715085E-02
 -0.11787264E-02 -0.20585569E-02  0.22160086E-02
  0.24654377E-04  0.96537013E-03  0.19984061E-02
 -0.20163326E-02  0.25749086E-02  0.78216110E-03
 -0.11796510E-02  0.10671070E-04 -0.17570764E-05
  0.82402446E-03  0.68880354E-04  0.14437293E-02
  0.20806125E-02 -0.17692727E-02 -0.18446725E-02
  0.39118808E-02  0.62990590E-03  0.20751745E-02
  0.62558798E-03  0.11687793E-02 -0.15683336E-02
  0.74761175E-03  0.41156103E-03  0.58866846E-04
 -0.46338704E-03 -0.47136556E-04  0.13633932E-03
  0.10562148E-03  0.18118076E-02 -0.81614640E-03
  0.22266897E-02  0.22774867E-03  0.32251378E-03
 -0.94937198E-04  0.13027638E-02 -0.21866576E-02
 -0.44008538E-03 -0.42081642E-03  0.13583712E-02
  0.22437211E-02  0.12006046E-02 -0.13413187E-02
 -0.10570912E-02 -0.54251544E-04  0.82121448E-03
  0.24482009E-02  0.13394430E-02  0.16054383E-02
 -0.71596455E-03  0.21872992E-03 -0.15163156E-02
 -0.28443925E-03  0.15226106E-04  0.22795487E-02
  0.17634397E-02 -0.13316148E-02 -0.93411167E-03
 -0.89727163E-03 -0.19215933E-02  0.61502611E-03
 -0.50372249E-03  0.12724041E-02 -0.36070997E-03
  0.73881118E-03  0.38221072E-03  0.13201044E-04
  0.15721262E-02 -0.56214452E-04 -0.10737253E-02
 -0.85596153E-03 -0.73263755E-03  0.40190190E-03
  0.11719247E-03 -0.14349709E-02 -0.31501208E-02
  0.32966266E-02 -0.71620655E-03 -0.17908213E-02
 -0.23820466E-02  0.90154802E-03 -0.10113898E-03
  0.29182952E-02 -0.78481814E-03 -0.55788720E-03
 -0.31078527E-04  0.10204765E-02 -0.34443598E-03
  0.25332243E-03 -0.13056618E-02 -0.85332265E-03
 -0.13490029E-03  0.84559867E-03  0.25085470E-02
 -0.87303133E-03  0.14118323E-02  0.41011198E-03
  0.16222311E-02 -0.14158750E-02 -0.57831569E-04
  0.12869290E-03  0.73506514E-03 -0.10168752E-03
  0.29610148E-03  0.32500092E-02 -0.28397600E-03
 -0.25256470E-03  0.19005785E-02  0.48617466E-03
 -0.17995501E-02 -0.68704480E-03  0.12222001E-02
  0.20458518E-02  0.63639056E-04 -0.32772527E-03
  0.18253558E-02 -0.14293717E-02  0.27996188E-04
  0.84660232E-03 -0.36142335E-03 -0.29945137E-02
  0.12872809E-03  0.23341886E-03  0.36183606E-05
 -0.46202130E-03  0.17989549E-02  0.48825203E-03
 -0.27924568E-03  0.25578748E-02  0.46222792E-03
 -0.89011137E-03 -0.20732892E-02 -0.81483693E-03
  0.10529128E-02 -0.59879993E-03  0.27231696E-04
 -0.15712664E-02  0.11504806E-03  0.10715625E-03
 -0.23821243E-02 -0.13666252E-02  0.38192848E-03
 -0.25028922E-04  0.14298682E-03 -0.15922554E-02
 -0.32121325E-03  0.27925358E-03 -0.53588114E-03
  0.18891692E-02 -0.85810878E-03 -0.45330303E-03
  0.61996367E-03  0.88664234E-03  0.15117157E-02
  0.12468314E-02  0.15189490E-02  0.17658787E-02
 -0.14707556E-02 -0.74849837E-03 -0.24183180E-03
 -0.86014789E-03 -0.15509449E-02  0.19142926E-03
 -0.35032188E-02  0.38455618E-03 -0.54398487E-03
 -0.96770549E-03 -0.53891932E-03  0.55205210E-03
 -0.11386418E-02  0.25811754E-02 -0.23633574E-02
 -0.42937871E-03  0.11051068E-02 -0.46924917E-03
  0.62546257E-03 -0.25716698E-03 -0.14062393E-03
  0.18417161E-03 -0.60932420E-03  0.10597843E-02
 -0.27052318E-02 -0.18656797E-03  0.15963861E-02
 -0.65119867E-03 -0.29005814E-03 -0.13110032E-02
  0.41169181E-03 -0.17352056E-03  0.90407878E-03
  0.64089767E-03 -0.23616353E-02  0.23875955E-04
 -0.25199762E-03 -0.32100472E-02  0.90225285E-03
  0.32792406E-03 -0.14950098E-02 -0.63599266E-03
  0.13389198E-02 -0.56632153E-03 -0.29936513E-02
 -0.20172763E-02  0.18340295E-02 -0.16811639E-02
 -0.23554183E-03  0.75220859E-03 -0.18550263E-02
 -0.81744461E-03 -0.13800207E-02  0.49234560E-03
 -0.74523097E-03 -0.95080485E-03 -0.15368186E-02
  0.33605517E-03 -0.19594078E-02 -0.11186900E-02
 -0.69597891E-04 -0.27506757E-02  0.50559914E-03
 -0.13453618E-02  0.41999682E-03 -0.12834533E-02
 -0.19033320E-02  0.10330833E-03 -0.76064657E-04
  0.97675482E-04 -0.31533120E-02 -0.28694507E-02
 -0.40744235E-03 -0.41536350E-02 -0.22592192E-02
  0.16369853E-02 -0.21979496E-02  0.16382971E-03
 -0.28749210E-03  0.20633723E-02 -0.12551803E-02
 
           1
   3.00000000000000     
  0.10000000E+01  0.00000000E+00  0.00000000E+00  0.00000000E+00
  0.80720070E+00  0.80822859E+00  0.40863157E+00
  0.54161419E+00  0.21328604E-01  0.63903093E+00
  0.78771055E+00  0.50238789E+00  0.44145587E-01
  0.58108758E+00  0.65532205E-01  0.11080919E-01
  0.93415385E+00  0.85186620E+00  0.23021535E+00
  0.28358531E+00  0.60966423E+00  0.76728200E+00
  0.76004729E+00  0.66264108E+00  0.63182937E+00
  0.89440590E+00  0.38308356E+00  0.41668121E+00
  0.66366383E+00  0.18506557E+00  0.65165506E-01
  0.42662799E+00  0.12875022E+00  0.80894190E+00
  0.18026954E+00  0.46941210E+00  0.54343333E+00
  0.15251805E+00  0.11196252E+00  0.33180312E+00
  0.21959897E+00  0.39855802E+00  0.74269283E+00
  0.62884165E+00  0.23604275E+00  0.70447101E+00
  0.47291124E+00  0.99982532E+00  0.40837869E+00
  0.84432131E+00  0.41676039E+00  0.60157704E+00
  0.80340307E+00  0.25917836E+00  0.54746686E+00
  0.13257760E+00  0.33222893E+00  0.83414704E+00
  0.27595493E+00  0.33739683E-01  0.89297643E+00
  0.48956948E+00  0.15930310E+00  0.21546019E+00
  0.90057293E+00  0.16900371E+00  0.74472601E+00
  0.43933774E+00  0.77434566E+00  0.93746456E+00
  0.36615894E+00  0.35374956E+00  0.49412036E+00
  0.10842641E+00  0.84863012E+00  0.14312278E-01
  0.36893570E-01  0.22924452E-01  0.59054616E+00
  0.94851472E-01  0.25169587E+00  0.58724298E+00
  0.35025318E+00  0.63849083E+00  0.42411946E+00
  0.55264412E+00  0.60662657E+00  0.45109758E+00
  0.80595515E+00  0.11655332E+00  0.48451627E+00
  0.79171597E+00  0.69460472E+00  0.23404276E+00
  0.45947072E+00  0.49184816E+00  0.72053426E+00
  0.29271169E+00  0.56650467E+00  0.53553417E+00
  0.84544605E+00  0.96239407E+00  0.95459823E-01
  0.21659732E+00  0.32929874E+00  0.31040977E+00
  0.21849788E+00  0.34608408E+00  0.10751965E+00
  0.93738580E+00  0.30940447E+00  0.87493240E+00
  0.45881193E-01  0.36010678E-01  0.78956811E+00
  0.17481288E+00  0.21323914E+00  0.92052445E+00
  0.46842489E+00  0.98899605E+00  0.19610011E+00
  0.44463426E+00  0.78727261E+00  0.34517306E+00
  0.30700504E+00  0.10674649E+00  0.35086044E+00
  0.61916682E+00  0.91903330E+00  0.83792339E-01
  0.44720165E-01  0.41562141E+00  0.81172774E-01
  0.27198354E+00  0.13882841E+00  0.99511101E-01
  0.35840566E+00  0.27235427E+00  0.25433022E+00
  0.69035138E+00  0.57883581E+00  0.15927120E+00
  0.94679604E+00  0.56010132E+00  0.50542723E+00
  0.12291494E+00  0.68475107E+00  0.59259938E+00
  0.93144043E+00  0.40773612E-01  0.31073048E+00
  0.68346552E+00  0.63210358E+00  0.80165260E+00
  0.93980886E+00  0.22064675E+00  0.23658620E+00
  0.64018753E+00  0.31536854E+00  0.92117336E+00
  0.54747148E+00  0.50465633E+00  0.12266503E+00
  0.29328243E+00  0.11539181E+00  0.51505359E+00
  0.92749212E+00  0.52653967E+00  0.33760397E+00
  0.90523180E+00  0.38218875E+00  0.20675111E+00
  0.86587623E+00  0.95219466E+00  0.75426944E+00
  0.53510452E+00  0.95227511E+00  0.88647718E+00
  0.65419287E+00  0.51365303E+00  0.30343803E+00
  0.10094728E+00  0.58261616E+00  0.44590437E+00
  0.85343121E+00  0.78328628E+00  0.77401434E+00
  0.74518557E+00  0.95126547E+00  0.47554416E+00
  0.53340069E+00  0.76259089E+00  0.67375680E-01
  0.50661954E-01  0.24219583E+00  0.74015242E+00
  0.73387960E+00  0.43077787E+00  0.49139548E+00
  0.25790296E+00  0.64798711E+00  0.15087843E-01
  0.42574717E+00  0.98651129E+00  0.76279810E+00
  0.65411019E+00  0.14877276E+00  0.87859006E+00
  0.50111264E+00  0.19151477E+00  0.93149379E+00
  0.82173714E+00  0.25232959E+00  0.45883648E-01
  0.76654896E+00  0.57658193E+00  0.41023551E+00
  0.73351454E+00  0.49474955E+00  0.74237132E+00
  0.83293290E-01  0.70049673E+00  0.56098311E-01
  0.14550307E-01  0.26612319E+00  0.10403090E-01
  0.87175000E+00  0.55850298E+00  0.68255748E+00
  0.58330627E+00  0.28077976E+00  0.15031168E+00
  0.80022351E+00  0.92568930E+00  0.29385416E+00
  0.89012139E+00  0.22734075E+00  0.39046777E+00
  0.18749073E+00  0.74283009E+00  0.80598180E+00
  0.29717523E+00  0.27427552E+00  0.99952183E+00
  0.45151140E+00  0.72147336E+00  0.49716177E+00
  0.85044351E+00  0.14351812E+00  0.91106813E+00
  0.52455229E+00  0.18144279E+00  0.37940674E+00
  0.15396696E+00  0.23830328E+00  0.41706678E+00
  0.88577826E+00  0.72109314E+00  0.54293103E+00
  0.90408887E+00  0.92278783E+00  0.48898340E+00
  0.92530017E+00  0.72917986E+00  0.33040173E+00
  0.53111787E+00  0.85574393E+00  0.65190490E+00
  0.54202528E+00  0.66249337E+00  0.29987354E+00
  0.82134232E+00  0.14319164E+00  0.17338921E+00
  0.44963419E+00  0.83123957E+00  0.17688402E+00
  0.80051503E+00  0.79198274E+00  0.91955267E+00
  0.43648114E+00  0.54435770E+00  0.34148784E+00
  0.99133775E+00  0.39035048E+00  0.55220031E+00
  0.47088719E+00  0.33151965E+00  0.35570240E+00
  0.84147402E+00  0.79040521E+00  0.11947997E+00
  0.37994615E+00  0.63392507E+00  0.89645176E+00
  0.27636399E+00  0.69388109E+00  0.62522715E+00
  0.17916485E+00  0.54328083E-01  0.74397130E-02
  0.56945898E+00  0.90836745E+00  0.50741823E+00
  0.73401239E+00  0.38050260E+00  0.34122189E+00
  0.51150339E-01  0.16388034E-02  0.41615235E+00
  0.65533293E+00  0.26867670E+00  0.55137225E+00
  0.48212087E+00  0.17102100E+00  0.67636641E+00
  0.23907303E+00  0.32333562E+00  0.60757062E+00
  0.63441470E+00  0.11571983E+00  0.53869549E+00
  0.17082120E+00  0.60463230E+00  0.88392439E+00
  0.10818540E+00  0.75099858E+00  0.45461260E+00
  0.28967525E-02  0.98685244E+00  0.18180228E+00
  0.13937913E+00  0.18456867E+00  0.19811073E+00
  0.20688151E+00  0.98394320E+00  0.54921101E+00
  0.33750167E+00  0.45368407E+00  0.81675773E+00
  0.81598741E+00  0.29055085E+00  0.69804881E+00
  0.78937401E+00  0.39124262E+00  0.92761877E+00
  0.45449606E+00  0.62301180E+00  0.97605922E-01
  0.68607277E+00  0.79859379E+00  0.29801101E+00
  0.73204644E+00  0.95050499E+00  0.63544352E+00
  0.43648201E+00  0.64920675E+00  0.71348692E+00
  0.34944370E+00  0.95634440E+00  0.32657643E+00
  0.59432468E+00  0.36934228E+00  0.77358061E+00
  0.92679629E+00  0.92829564E+00  0.96207290E+00
  0.26980006E+00  0.81841518E+00  0.27234852E-01
  0.16598421E-01  0.43656788E+00  0.83743959E+00
  0.40443184E+00  0.85014742E-02  0.54853914E+00
  0.34226047E+00  0.87998994E+00  0.88770180E+00
  0.28016448E+00  0.17380268E+00  0.80756303E+00
  0.64789329E+00  0.54437023E+00  0.61760404E+00
  0.89872617E+00  0.58414501E+00  0.12724084E+00
  0.70007597E+00  0.78887914E+00  0.70306225E+00
  0.37758823E-01  0.41100478E+00  0.34263010E+00
  0.54653214E+00  0.79698043E+00  0.83049579E+00
  0.91138908E+00  0.11929484E+00  0.59447659E+00
  0.15678032E+00  0.52595807E+00  0.69529512E+00
  0.71973694E+00  0.98720889E+00  0.98338536E+00
  0.94651601E+00  0.52496115E+00  0.98569052E+00
  0.62135188E+00  0.57462074E-01  0.17453515E+00
  0.41321422E+00  0.48553125E+00  0.56984069E+00
  0.80446000E+00  0.63211858E+00  0.91163415E+00
  0.27539713E+00  0.43431483E+00  0.39993329E+00
  0.20196441E+00  0.46479168E+00  0.79023331E-02
  0.63006474E+00  0.49091377E+00  0.98920033E+00
  0.34162025E+00  0.40979888E+00  0.17567804E+00
  0.76235265E+00  0.37480605E+00  0.15656937E+00
  0.69123318E+00  0.69861480E+00  0.48161537E+00
  0.15545543E+00  0.94712979E+00  0.84160840E+00
  0.30408209E+00  0.73191774E+00  0.32412505E+00
  0.54951908E-02  0.90481544E+00  0.70783940E+00
  0.98787447E+00  0.86831294E-01  0.96391939E+00
  0.91247585E-01  0.81460510E+00  0.16457185E+00
  0.12963484E+00  0.11126466E+00  0.67893365E+00
  0.41857411E+00  0.44027401E-01  0.57289876E-01
  0.63356342E+00  0.16840427E-01  0.77859252E+00
 -0.53731908E-04  0.29903232E-03  0.12920949E-03
 -0.41845158E-04  0.13159684E-03 -0.45370838E-03
  0.26016097E-03 -0.27707526E-04  0.91862086E-04
 -0.14947907E-03 -0.11973394E-03  0.13208068E-04
  0.21142597E-04  0.10094994E-03  0.57374909E-03
  0.28196989E-03  0.46253894E-03  0.39386660E-03
  0.25356014E-03 -0.56021570E-03  0.31106896E-03
 -0.17141819E-03  0.18354881E-03 -0.18296718E-03
 -0.19153617E-03  0.38239261E-03  0.16694049E-03
  0.10218661E-03  0.31518117E-04 -0.18508933E-03
  0.80069001E-04  0.20010275E-03  0.29622139E-03
 -0.31697484E-03 -0.96993678E-04 -0.64643153E-05
 -0.41919979E-03 -0.58271612E-04  0.10645885E-03
 -0.10512618E-03 -0.51352927E-03 -0.22652416E-03
 -0.19303946E-03  0.30636618E-03  0.10770656E-02
  0.12611633E-03 -0.18155269E-03  0.52643076E-03
 -0.44107662E-03  0.23407450E-03  0.30252697E-03
 -0.82836443E-03 -0.45041130E-03  0.48167578E-03
 -0.33081865E-03 -0.56505763E-03 -0.67268983E-03
 -0.16274630E-03 -0.11787289E-04  0.46323612E-03
  0.13392727E-04  0.59841449E-03  0.67260943E-03
  0.24307091E-03  0.53213761E-03  0.57827632E-03
 -0.79064926E-04  0.53959134E-04  0.28880653E-03
  0.17547201E-03 -0.40188453E-03 -0.77695575E-04
  0.65161636E-03 -0.24077305E-04  0.18456775E-03
  0.36904635E-03  0.26075741E-03  0.10613047E-03
  0.18180187E-03  0.22816745E-03  0.83807363E-04
  0.25571701E-03 -0.72121136E-04  0.19551690E-03
  0.24207591E-03 -0.42533347E-03 -0.94902476E-05
 -0.22823996E-03  0.55910651E-03  0.80809277E-04
  0.22514603E-03 -0.34789449E-04  0.31856803E-03
 -0.45937284E-03  0.16384497E-03  0.75315839E-05
 -0.93517738E-04 -0.36732404E-03 -0.29671208E-03
 -0.66609928E-04  0.34412557E-03  0.21202329E-03
 -0.15844081E-03 -0.14082926E-03  0.63102010E-04
 -0.18699827E-03 -0.90166013E-04 -0.54751176E-03
  0.34877164E-03  0.54159381E-03 -0.36835212E-03
 -0.15760887E-03  0.45437142E-03  0.34420624E-03
  0.86577104E-03  0.44277446E-03  0.32370332E-03
  0.21797894E-04  0.20518523E-03  0.44875856E-04
  0.98457519E-04  0.30581062E-03  0.31755075E-04
 -0.17490091E-03  0.84847372E-04 -0.25719346E-03
 -0.51374002E-04  0.29455192E-04  0.19064549E-03
  0.30420455E-05 -0.12148507E-03  0.40965528E-03
 -0.20219742E-03 -0.10400784E-03 -0.38093500E-03
  0.21529273E-03 -0.21761879E-03 -0.15339638E-03
 -0.44121432E-03  0.40404369E-03 -0.17557771E-03
  0.13519666E-03  0.18672201E-03  0.13051080E-03
  0.34713712E-04 -0.32990918E-03 -0.18054526E-03
  0.70462512E-05 -0.45890434E-03 -0.51022680E-04
  0.11203771E-03  0.22408752E-03 -0.74434819E-04
  0.14183417E-03  0.82221874E-04  0.28550991E-04
  0.49548649E-04  0.30031576E-03  0.49477907E-04
  0.36658665E-03  0.20263782E-03 -0.41261950E-04
  0.23509597E-03 -0.15072251E-03 -0.10790944E-03
 -0.40212713E-03  0.17023997E-03  0.61298993E-04
 -0.12086432E-03  0.37710154E-04 -0.24641325E-04
 -0.42754279E-03  0.31871616E-03 -0.26474207E-03
 -0.11230394E-03 -0.22376191E-03 -0.36367736E-03
 -0.13694378E-03 -0.13786086E-03  0.33910283E-03
  0.46815539E-04 -0.22336425E-03 -0.19650098E-03
  0.33445449E-03  0.21171464E-03  0.35051612E-03
 -0.61468765E-04  0.28980538E-04  0.11918048E-03
  0.25037626E-03 -0.96770269E-04  0.36107505E-03
 -0.53711771E-04  0.17726327E-03 -0.64058559E-04
 -0.25882821E-03  0.10372087E-06 -0.12066056E-04
 -0.12501121E-03 -0.95604775E-04  0.25255815E-03
  0.18648273E-03 -0.33499263E-03  0.23682219E-03
 -0.38606520E-03 -0.19891875E-03 -0.82135452E-04
  0.11040067E-03 -0.20823786E-03 -0.22404839E-03
  0.23928421E-03  0.86388905E-04  0.12915903E-03
  0.16610610E-04  0.56296546E-04 -0.56919406E-03
 -0.19842512E-03 -0.34522200E-03  0.37282736E-03
  0.16330405E-05  0.14979431E-03  0.33487644E-03
 -0.34433585E-03  0.43098983E-03  0.13193098E-03
 -0.19281840E-03  0.16113468E-04 -0.94843526E-06
  0.13221575E-03  0.44324535E-05  0.24802555E-03
  0.34887686E-03 -0.29752972E-03 -0.30749142E-03
  0.65828780E-03  0.12054193E-03  0.35113723E-03
  0.10886781E-03  0.21063897E-03 -0.26455279E-03
  0.12174712E-03  0.72894192E-04  0.13602588E-04
 -0.74919017E-04 -0.79129444E-05  0.21686285E-04
  0.23576190E-04  0.30757534E-03 -0.12587409E-03
  0.37630806E-03  0.42521365E-04  0.48676484E-04
 -0.15846076E-04  0.21731272E-03 -0.36556037E-03
 -0.76010397E-04 -0.63251308E-04  0.23184061E-03
  0.37862437E-03  0.20119754E-03 -0.22312515E-03
 -0.17228782E-03 -0.91033808E-05  0.13284267E-03
  0.41699309E-03  0.22656877E-03  0.26279430E-03
 -0.11378407E-03  0.40565406E-04 -0.24649543E-03
 -0.40765417E-04 -0.14632040E-05  0.37868468E-03
  0.29945418E-03 -0.23032286E-03 -0.16861446E-03
 -0.15174764E-03 -0.32224879E-03  0.10700979E-03
 -0.78111266E-04  0.21270711E-03 -0.57529416E-04
  0.12681177E-03  0.67721110E-04  0.10956678E-06
  0.26185804E-03 -0.12738182E-04 -0.18006494E-03
 -0.14644410E-03 -0.12654912E-03  0.55061586E-04
  0.85114088E-05 -0.23725961E-03 -0.52468815E-03
  0.56260376E-03 -0.11955362E-03 -0.30079166E-03
 -0.40169620E-03  0.14812654E-03 -0.98333685E-05
  0.48217585E-03 -0.11493600E-03 -0.89143734E-04
 -0.25573462E-05  0.16757408E-03 -0.54099862E-04
  0.63846394E-04 -0.23885215E-03 -0.14324082E-03
 -0.24209843E-04  0.13301831E-03  0.42652242E-03
 -0.14023496E-03  0.23743895E-03  0.63056844E-04
  0.27233365E-03 -0.21893715E-03 -0.68417443E-05
  0.31829985E-04  0.11738717E-03 -0.24862611E-04
  0.51206049E-04  0.55508500E-03 -0.36369810E-04
 -0.46654242E-04  0.31713467E-03  0.88377596E-04
 -0.30474864E-03 -0.11794122E-03  0.20921795E-03