Amorphous GeS                           
   1.00000000000000     
    19.6576774052841543    0.0000000000000000    0.0000000000000000
     0.0000000000000000   19.6576774052841543    0.0000000000000000
     0.0000000000000000    0.0000000000000000   19.6576774052841543
   Ge   S 
   150   150
Direct
  0.0281222156716869  0.6796845540211083  0.8284802002644812
  0.7321440184488993  0.0836396768846148  0.1543843907584402
  0.4546775305480910  0.6302077469054617  0.7199523078118046
  0.1889128542294049  0.6696211801807889  0.5145262727902387
  0.1973592736237370  0.8175598156371929  0.2865464691460269
  0.9584477091788931  0.6538452123219898  0.1236639263159926
  0.6885393947027731  0.8902000579688198  0.7026282330979924
  0.2085397408271456  0.3159562468000585  0.7703806073046608
  0.2170279719125147  0.1821454368279471  0.9821337462892661
  0.5082505196088551  0.8154581290223388  0.4189926303827757
  0.1787932385674094  0.9908236877820397  0.8407012019385466
  0.6581254802631525  0.2052652871095212  0.2672731203202357
  0.6211782150483606  0.3820497791343334  0.6329528540203266
  0.6192310720986322  0.0710401597235696  0.6392552476722999
  0.4905087375135371  0.9378822905162154  0.0604668988923220
  0.0969973144024515  0.7938708142999246  0.0886003122005051
  0.7246771840160097  0.9981473372231386  0.3156123666726680
  0.3301028659461521  0.7011378501939698  0.3977268923214823
  0.9573016841696429  0.1664145140619849  0.4186695747788867
  0.7473529040789288  0.3134933130857299  0.1761452248651200
  0.8371987138921831  0.9412672482319286  0.2039333870163214
  0.2219423618304419  0.1199173428427435  0.5327050455419673
  0.4031535796594157  0.4155850468352894  0.3536561845155254
  0.8341454802281270  0.0740944422001044  0.3239395818629280
  0.1381194500370032  0.1864719815917614  0.7763304531550635
  0.6098692166263956  0.5141089527823538  0.9304588791914079
  0.6233267054821549  0.8981503957579935  0.8227056272785428
  0.1383584720153940  0.8085317775520758  0.7022934793732404
  0.4286602848942410  0.3196995150451026  0.1505960421256825
  0.8106392986010210  0.8160454313174874  0.0376576284927971
  0.1187296485015020  0.8267728089330736  0.8757036944689761
  0.9251534629790878  0.2721241977799769  0.2900567973416019
  0.9031530850468268  0.0932014527907475  0.0390788675493016
  0.2290725474920176  0.9831716305218759  0.7119532712695665
  0.8370704294629461  0.6279271843216400  0.3799717675962072
  0.0680320993982783  0.6874355937907782  0.2760530450823596
  0.0754793479758086  0.4087927751261202  0.4698960857611451
  0.8100146942456228  0.8407831858278874  0.8706855790769102
  0.0015919080958973  0.5041544374758066  0.6874136544545170
  0.3993027464646718  0.6094795636165561  0.5285380091098123
  0.0789408027456061  0.6786693574231307  0.0205736207749162
  0.4423487077087798  0.3885477899283961  0.9388124580435833
  0.8943569772714927  0.1028621809339924  0.7409513651492664
  0.4210070561284161  0.3720521136570781  0.6457395252496555
  0.2846042528985178  0.1386401027397277  0.7893217158359472
  0.2636882811734811  0.2222040861254398  0.1108155587240837
  0.3990924108831320  0.4994618815601418  0.0772433456865707
  0.1511348858716707  0.3726861385966850  0.1020358569599831
  0.4880571175645663  0.6991786906390698  0.3030977761490375
  0.6231029754916421  0.8061188105213103  0.3545340776956600
  0.3005567782703746  0.5864916660812477  0.7202286462486600
  0.7837334161084434  0.0374229992580904  0.5980789695184473
  0.1423867307000189  0.6583428047080796  0.3818752387855843
  0.9850946426041655  0.7427251263332257  0.6253397972302677
  0.6835029308291350  0.5099605561261340  0.7649191271462452
  0.0855465489546595  0.1469990596959014  0.1710043721828286
  0.6430408958606471  0.6933166421810073  0.7445073350008692
  0.2446399894260559  0.7293294460625003  0.9056637398240390
  0.5287754822372176  0.9903754033667088  0.8487040255239909
  0.8595009261399114  0.2478374362816105  0.8906899246623149
  0.7372955369970723  0.3911286069815250  0.8935193621823428
  0.7311099233027536  0.7357563908203727  0.6022259046767668
  0.8429869743063197  0.1503634805045782  0.1756804286886573
  0.3528896386932481  0.9969661443736733  0.8970083261911866
  0.2572874972374129  0.7609910600031384  0.7381805390773942
  0.5423985054139261  0.2449246842353770  0.9575895165422146
  0.4967601608035007  0.9105027427794077  0.2566548439575945
  0.2258143971352667  0.4718417294298460  0.4078606577780033
  0.3536987152795004  0.6903003984579172  0.0517165983419580
  0.4491716232474109  0.2064994878861000  0.4888288821568192
  0.8993882829780981  0.9004023308643593  0.0911775048141854
  0.0513293674236088  0.5422479922864277  0.4468233741797412
  0.5227171333040489  0.2261419183006241  0.1324341999962703
  0.8923098261957867  0.3384182692963839  0.4611407605081829
  0.3804600718370958  0.3138379427282202  0.4396149427690170
  0.3344568896853464  0.0738739504647693  0.0578585671242960
  0.2623014139687865  0.9630973248107996  0.3066511738003924
  0.0267873332976954  0.4395957842865568  0.8831187600207490
  0.1584083574067767  0.8860104715572993  0.5610153867199522
  0.5461834496711790  0.1040998435309348  0.0386083256252779
  0.3276067324292339  0.9836048002502052  0.4728742579639871
  0.6143980431082146  0.3053689937708654  0.7409087912031236
  0.0466776848130669  0.2392346012869319  0.5722973492772214
  0.1451084399482115  0.1555806295856538  0.3538110255567141
  0.9356631637267140  0.9349766556066068  0.5093612347479688
  0.9439099330316247  0.9194565628304805  0.9019008503894715
  0.0876013374023042  0.9850379430684501  0.3097763475633203
  0.1769345266059144  0.5495448243250399  0.9118617559002937
  0.5373512861652462  0.3915877036471767  0.8043245382599342
  0.8735706504320597  0.7690271862626774  0.4992873688379892
  0.6532176946924976  0.1153960690619698  0.8964714888115187
  0.8294491051566645  0.4843568536441100  0.4284569180044379
  0.6011462341906598  0.3750692036408358  0.3041365050739896
  0.6017824618407182  0.6331478885030652  0.2474658986598229
  0.9397850045448398  0.2920931094312028  0.6263279074266110
  0.5186101349375342  0.2718589668827975  0.3343818192537154
  0.6793109988309234  0.4976610511924988  0.0774188315004719
  0.0687445011325015  0.0818078164642408  0.0002013144664217
  0.4174574440575955  0.7581197035285436  0.9155342722343439
  0.3292464578202403  0.5850837888530703  0.9714725470956743
  0.1700652253688245  0.2729760802792194  0.4346409776666850
  0.3490870651523391  0.7492570118975761  0.5894731611572595
  0.4934064760168413  0.5141918561945088  0.3785360316831873
  0.5983377853786901  0.5599478420677764  0.5765183640443211
  0.1359722275798207  0.5637511981926387  0.1401830523651787
  0.3769443629023456  0.2731391395477459  0.8309025522302599
  0.8532513712233494  0.7235132940293518  0.7172542039691093
  0.9081752182904426  0.9180996882439173  0.7311566778647411
  0.2190195444434425  0.4840281469497669  0.5603202506746627
  0.0027914105683092  0.2442183548196726  0.9670638217653421
  0.6136274792939507  0.6276255247364709  0.4241225935196734
  0.1228789868975151  0.5357617534484866  0.7462267689322605
  0.0440437403866753  0.5108827204237297  0.0595828401280769
  0.0056322511583375  0.8353935118872349  0.3420346295985513
  0.1209338568446780  0.9615095137834597  0.0962280441328600
  0.4189146694339823  0.8569816496140800  0.5188629152162972
  0.2745269363123492  0.4718775619100656  0.1892750199871563
  0.5582066280948869  0.3347001333281301  0.4871362163063722
  0.5516843046131584  0.6979580058729861  0.8453883565578520
  0.3121637362827360  0.4122107649565170  0.0140947263926711
  0.7715199053894656  0.4921986905384382  0.2566767435669667
  0.3986839511167925  0.1907126624118776  0.6847084737134096
  0.6066191596690504  0.9490120449272270  0.4326347979741700
  0.5844597130500738  0.1155808058514865  0.4198882361844280
  0.6934988684042310  0.3223084806925672  0.0041889093828316
  0.3427353360067842  0.8875927362250779  0.1628457222705405
  0.4143376067399752  0.9929183279099880  0.6558600181517116
  0.1500240356790641  0.9733042635986534  0.4279135506531117
  0.3161770942799251  0.2013157583079349  0.2763776144831812
  0.6459793557744853  0.8111953258671680  0.1396251378298565
  0.5852889217041207  0.4256746087075140  0.1381782104473883
  0.4126040301616090  0.8247810993463861  0.7397155449107659
  0.8637195980994780  0.1440850235406674  0.5535912585516032
  0.2701658840327491  0.2703785594396920  0.5817542821303132
  0.7086407048895031  0.8737577821840934  0.5419071829288934
  0.9226018354444973  0.2526098172903427  0.1189720577004633
  0.7602723476622972  0.1328305991917366  0.7523221702331683
  0.9025221319978313  0.5206152922173318  0.2220133553214270
  0.7759698914068689  0.6621454156906296  0.1118820838035557
  0.8241410918926643  0.6570956227633306  0.9120884645803953
  0.9702710117788358  0.2322609730173018  0.7930025566405344
  0.7043686631289741  0.2013632212240852  0.5595178515806430
  0.8738630547723349  0.4160973396702963  0.7621951337715830
  0.5326884097334084  0.6203276237089760  0.0363962098883824
  0.4702095926500533  0.1049988767140248  0.8020662249209175
  0.3057264343434651  0.1078395365429844  0.4278462141673811
  0.3291858140727379  0.6087683337117830  0.2078451361376427
  0.7525235288648900  0.1315261807140074  0.9854956721971300
  0.9454452267955823  0.5795892624020917  0.5413307027641285
  0.6805280689457804  0.8080450550912390  0.9686616174752958
  0.7899671550487846  0.2468964652014785  0.0021137426566084
  0.6854156824817641  0.0429428999969647  0.4221739855287753
  0.3471902195567158  0.6578613716740384  0.8794399813752624
  0.0371147391258336  0.1610379440803975  0.7202598128304966
  0.5909778300605445  0.0252311121163160  0.9494435758157748
  0.7490146470940594  0.6533287981108415  0.7088985083132627
  0.7054335636660584  0.3866735307501060  0.7770859527884112
  0.9059298996164150  0.0573621052873158  0.4117627790139571
  0.1020228333826711  0.7706959698040958  0.5978724017389797
  0.3929927276191330  0.5547473202373997  0.6408146269786074
  0.8255024849153866  0.1908550936896302  0.2898921008563736
  0.3404493307447354  0.3622163419970350  0.5405864421759963
  0.7003597365016890  0.5522085476970865  0.1854689776729406
  0.8910758935541212  0.0148676554383802  0.6541619634985378
  0.0416707668494651  0.3956519827393175  0.0590331863725035
  0.8499950269533442  0.2207614969467253  0.4619143403246872
  0.3122876321238152  0.8455765349762641  0.6646522737791913
  0.6216983020486618  0.8628511352045524  0.2525379587556238
  0.6731944970603743  0.1795509748248189  0.6785414938957183
  0.1538106481043031  0.4551312345357751  0.1992587889490836
  0.6092003520223646  0.9368833864908134  0.5506386579314344
  0.4417577154242092  0.8125915611853604  0.3191339949330279
  0.1647167113824971  0.9578505298330454  0.2237826191512717
  0.4831447260502677  0.2692605926349416  0.6570256816930963
  0.4371394523142231  0.9765210927536608  0.5245502420610919
  0.4476191995205102  0.5456644634222182  0.9768546539767654
  0.7036065902251299  0.8689734911639487  0.4122955758449355
  0.1214221205972357  0.9235431960162352  0.6750813703640974
  0.6843369833026435  0.0548762394936993  0.8018359149863149
  0.3752902329657718  0.0984562771555597  0.9509111099141863
  0.8559661773944733  0.3719759562768888  0.8788380398065601
  0.6427782262500394  0.2163250091970292  0.3857170105140818
  0.7972417678173709  0.8481202912738115  0.7445976790788477
  0.8765132085583965  0.3361732109841848  0.1961175726480595
  0.8870136052019636  0.9918098072560836  0.8255800441355651
  0.5901405360813418  0.4297096412936722  0.4099903642321074
  0.1328290266373952  0.4475826555418549  0.8249028831345705
  0.5530888047030367  0.4616743538012174  0.2433517250279603
  0.4135489203720997  0.1331342171127405  0.3984281105353170
  0.7392244892676167  0.7425540325538214  0.8824159644731189
  0.2833906845933152  0.2560422850534007  0.3914212380161426
  0.0618329303111077  0.2648463664014160  0.8631292704064771
  0.7969458396582025  0.9534926181966766  0.5165290651863896
  0.1140860684220253  0.8236925499901072  0.3794098874899831
  0.4670900933815462  0.7226696696463935  0.0250308427267305
  0.9691000185368012  0.3405030356439546  0.7297505303096098
  0.9153230575417745  0.5361926062762041  0.3521993495059051
  0.1425651511914760  0.3752255674071792  0.3763380097202889
  0.0545626939481329  0.5488960887524043  0.9449159731005400
  0.5663630693490936  0.3639519903050791  0.9172627242188667
  0.6804788212086743  0.4836316653716957  0.6336619892453423
  0.9658378235638790  0.1257755438989188  0.9403123505012420
  0.1421004639669688  0.5393927197847795  0.3528895335780957
  0.6076282203837099  0.6411091047839351  0.9363155848562017
  0.3229437752990788  0.7175134482457398  0.1599848140209036
  0.5240592873136964  0.4162342757024216  0.5755261780581966
  0.8955327627196472  0.7187341476175156  0.8302117882622291
  0.8299190872229326  0.5852997951949983  0.4995714288990247
  0.0462802369903308  0.7944748886992682  0.7755467814456465
  0.9660069465853425  0.7407379139633334  0.2906836934034328
  0.7233625790265734  0.3820957007668607  0.2797305718685999
  0.5738039031417344  0.6159005469752147  0.6821774445013196
  0.0100971398038595  0.2422525329794204  0.2018942302818479
  0.3607523171182069  0.9745729637372313  0.2447169819294188
  0.9936878727243090  0.9253854529539028  0.2724052238596421
  0.2503410851591046  0.0971384132768718  0.3199753317981157
  0.2967037757216205  0.4498718530434487  0.3108484583153959
  0.3568975192775369  0.1767210566687562  0.5673845660222495
  0.3481338346486310  0.0313821962406987  0.7865031538613003
  0.5667199633930013  0.1847303274035337  0.8523986063254646
  0.8635740690869265  0.7099423672416768  0.0209614183563980
  0.4951366895752881  0.0894061914157331  0.6802156749614130
  0.3670959090183414  0.1558231142488099  0.1323958846851792
  0.2851531669504629  0.6063182522764242  0.4653561232286464
  0.9167193108668287  0.8406864254329931  0.5903984761688824
  0.7551577573874885  0.4012019268213791  0.0822839938670703
  0.9314480761992880  0.5982227522431952  0.6589596715002338
  0.1036700946454324  0.1990219072350528  0.0292626338976914
  0.0198842198061362  0.8844456371316658  0.0798710717247234
  0.7415640747971105  0.5443418674399544  0.3615449640971486
  0.0788395901508871  0.9420241226492942  0.8920140971492171
  0.7489782270957392  0.9743065079939384  0.1264026898851401
  0.4218987672759249  0.3275567152702092  0.2692621290928005
  0.0359550458483666  0.5942434625560702  0.2115548368400852
  0.2357054499722142  0.6980101073761460  0.3187182035511970
  0.8585128131105588  0.2086201290698502  0.6539555363932484
  0.0059490487640770  0.0715298168764281  0.1071275588328410
  0.1318279269857814  0.7557900058720023  0.2024343147633600
  0.2086140866015006  0.1055975728771304  0.6997426587755810
  0.4488937281089043  0.7355788060438755  0.6566411087543325
  0.4351475724669119  0.5760217732122350  0.1562326884863817
  0.3909105472174030  0.6281454665789812  0.3154364190564629
  0.9732746378369576  0.6968647711731991  0.5100168887402564
  0.0580195836964885  0.0997416525714722  0.2896677089925898
  0.0139846081056619  0.3054916267219222  0.4674311320770903
  0.6619906775346477  0.0810043941726224  0.2488186592951404
  0.5746497386090642  0.8099584584802605  0.8882862661169346
  0.4650919675009137  0.8572479407412655  0.1537926980428786
  0.0664285606965418  0.9438248772574208  0.5094271374440685
  0.4871386276836397  0.9092349881606108  0.6991512749808062
  0.1245896687102492  0.0923405178999327  0.4516241544126615
  0.9543660243820473  0.5021870941879250  0.8011870507494879
  0.8611360424242623  0.6367041081805239  0.2026556295844460
  0.2538401461156010  0.9463990443952972  0.9218344447842467
  0.8796001895643406  0.3748992052668706  0.5737743523542952
  0.5048931242646892  0.6933477718818986  0.4258926136962440
  0.5240626295127941  0.0308251169847954  0.1267501891963360
  0.3215476022894010  0.7881377227258711  0.9900938679413320
  0.4185078996901818  0.3934803788583611  0.8136227764760994
  0.2205085821156075  0.0824081549031388  0.0570972478870061
  0.6709181492675181  0.6999490019805453  0.3391005827882301
  0.4792542526109212  0.4078174990406040  0.0846333893680178
  0.8951120514844773  0.0514254680625004  0.2215637436245045
  0.5334418721209957  0.1899736901595053  0.2485845813311270
  0.4219451015285107  0.2658465694978636  0.9510542019774373
  0.9148498757480091  0.8530729352283187  0.4139898480032997
  0.1262928843884260  0.5675880124973156  0.5435482210625273
  0.7121615338999969  0.9096114448511211  0.9047878822773848
  0.2156447180378109  0.2334566496837904  0.2177741389304028
  0.9340203851259931  0.5456446284731213  0.0752236251569061
  0.6684041677967175  0.6549610161550973  0.5312955991534015
  0.5655795207896361  0.5074721858647007  0.8117306310513083
  0.6107784353815240  0.3117973499628667  0.1441539790977708
  0.2225833957144851  0.4977414502998062  0.6890764067004481
  0.5975637067903408  0.1454905357109104  0.5411347360373259
  0.4419288766664883  0.9247206595030113  0.8983991375805706
  0.6672280350837424  0.1404978861181920  0.0747206818443023
  0.0370656514121562  0.7506141221766618  0.9322774583954752
  0.2701601987661373  0.3120788793179923  0.8710843594622691
  0.3064284485101935  0.2920140288553740  0.6975444638597336
  0.8910758865455247  0.9771448776340187  0.9987756620030356
  0.6354103570864420  0.7849248061328182  0.6667652186671646
  0.1609143233994971  0.6306619556725951  0.8117917192499587
  0.2486798130827259  0.0044596590443676  0.5600322669564267
  0.7296990016665164  0.5084188985311039  0.9026211397676185
  0.3237340291602191  0.8694941695308230  0.4480780658504633
  0.7579693317431770  0.2208016938616538  0.8304135894561222
  0.4265282195094577  0.5052897543700141  0.4770260047414556
  0.1765776205112213  0.1094563022297698  0.8700997270531312
  0.9838596464509238  0.1382319792282940  0.5375523934307286
  0.1432591119274749  0.3878670499434080  0.5617705753404254
  0.1851967543887400  0.8636300484944657  0.0669654795396021
  0.7690422516342214  0.7826829162234175  0.1498063827102671
  0.3156250461961741  0.3425787314833561  0.1206051985349481
  0.3624635324685521  0.9625880774773519  0.0614405494666364
  0.2079173199377982  0.4598949749771008  0.0350169252415915
  0.6076811005391998  0.6982549513008983  0.1498437048103637
  0.6708823534475576  0.3238846221726472  0.5407987281085936
  0.2565419881559413  0.6782882223126973  0.6483411450340854
  0.1946241838724247  0.6569324730990889  0.9925203703822485
 
  0.00000000E+00  0.00000000E+00  0.00000000E+00
  0.00000000E+00  0.00000000E+00  0.00000000E+00
  0.00000000E+00  0.00000000E+00  0.00000000E+00
  0.00000000E+00  0.00000000E+00  0.00000000E+00
  0.00000000E+00  0.00000000E+00  0.00000000E+00
  0.00000000E+00  0.00000000E+00  0.00000000E+00
  0.00000000E+00  0.00000000E+00  0.00000000E+00
  0.00000000E+00  0.00000000E+00  0.00000000E+00
  0.00000000E+00  0.00000000E+00  0.00000000E+00
  0.00000000E+00  0.00000000E+00  0.00000000E+00
  0.00000000E+00  0.00000000E+00  0.00000000E+00
  0.00000000E+00  0.00000000E+00  0.00000000E+00
  0.00000000E+00  0.00000000E+00  0.00000000E+00
  0.00000000E+00  0.00000000E+00  0.00000000E+00
  0.00000000E+00  0.00000000E+00  0.00000000E+00
  0.00000000E+00  0.00000000E+00  0.00000000E+00
  0.00000000E+00  0.00000000E+00  0.00000000E+00
  0.00000000E+00  0.00000000E+00  0.00000000E+00
  0.00000000E+00  0.00000000E+00  0.00000000E+00
  0.00000000E+00  0.00000000E+00  0.00000000E+00
  0.00000000E+00  0.00000000E+00  0.00000000E+00
  0.00000000E+00  0.00000000E+00  0.00000000E+00
  0.00000000E+00  0.00000000E+00  0.00000000E+00
  0.00000000E+00  0.00000000E+00  0.00000000E+00
  0.00000000E+00  0.00000000E+00  0.00000000E+00
  0.00000000E+00  0.00000000E+00  0.00000000E+00
  0.00000000E+00  0.00000000E+00  0.00000000E+00
  0.00000000E+00  0.00000000E+00  0.00000000E+00
  0.00000000E+00  0.00000000E+00  0.00000000E+00
  0.00000000E+00  0.00000000E+00  0.00000000E+00
  0.00000000E+00  0.00000000E+00  0.00000000E+00
  0.00000000E+00  0.00000000E+00  0.00000000E+00
  0.00000000E+00  0.00000000E+00  0.00000000E+00
  0.00000000E+00  0.00000000E+00  0.00000000E+00
  0.00000000E+00  0.00000000E+00  0.00000000E+00
  0.00000000E+00  0.00000000E+00  0.00000000E+00
  0.00000000E+00  0.00000000E+00  0.00000000E+00
  0.00000000E+00  0.00000000E+00  0.00000000E+00
  0.00000000E+00  0.00000000E+00  0.00000000E+00
  0.00000000E+00  0.00000000E+00  0.00000000E+00
  0.00000000E+00  0.00000000E+00  0.00000000E+00
  0.00000000E+00  0.00000000E+00  0.00000000E+00
  0.00000000E+00  0.00000000E+00  0.00000000E+00
  0.00000000E+00  0.00000000E+00  0.00000000E+00
  0.00000000E+00  0.00000000E+00  0.00000000E+00
  0.00000000E+00  0.00000000E+00  0.00000000E+00
  0.00000000E+00  0.00000000E+00  0.00000000E+00
  0.00000000E+00  0.00000000E+00  0.00000000E+00
  0.00000000E+00  0.00000000E+00  0.00000000E+00
  0.00000000E+00  0.00000000E+00  0.00000000E+00
  0.00000000E+00  0.00000000E+00  0.00000000E+00
  0.00000000E+00  0.00000000E+00  0.00000000E+00
  0.00000000E+00  0.00000000E+00  0.00000000E+00
  0.00000000E+00  0.00000000E+00  0.00000000E+00
  0.00000000E+00  0.00000000E+00  0.00000000E+00
  0.00000000E+00  0.00000000E+00  0.00000000E+00
  0.00000000E+00  0.00000000E+00  0.00000000E+00
  0.00000000E+00  0.00000000E+00  0.00000000E+00
  0.00000000E+00  0.00000000E+00  0.00000000E+00
  0.00000000E+00  0.00000000E+00  0.00000000E+00
  0.00000000E+00  0.00000000E+00  0.00000000E+00
  0.00000000E+00  0.00000000E+00  0.00000000E+00
  0.00000000E+00  0.00000000E+00  0.00000000E+00
  0.00000000E+00  0.00000000E+00  0.00000000E+00
  0.00000000E+00  0.00000000E+00  0.00000000E+00
  0.00000000E+00  0.00000000E+00  0.00000000E+00
  0.00000000E+00  0.00000000E+00  0.00000000E+00
  0.00000000E+00  0.00000000E+00  0.00000000E+00
  0.00000000E+00  0.00000000E+00  0.00000000E+00
  0.00000000E+00  0.00000000E+00  0.00000000E+00
  0.00000000E+00  0.00000000E+00  0.00000000E+00
  0.00000000E+00  0.00000000E+00  0.00000000E+00
  0.00000000E+00  0.00000000E+00  0.00000000E+00
  0.00000000E+00  0.00000000E+00  0.00000000E+00
  0.00000000E+00  0.00000000E+00  0.00000000E+00
  0.00000000E+00  0.00000000E+00  0.00000000E+00
  0.00000000E+00  0.00000000E+00  0.00000000E+00
  0.00000000E+00  0.00000000E+00  0.00000000E+00
  0.00000000E+00  0.00000000E+00  0.00000000E+00
  0.00000000E+00  0.00000000E+00  0.00000000E+00
  0.00000000E+00  0.00000000E+00  0.00000000E+00
  0.00000000E+00  0.00000000E+00  0.00000000E+00
  0.00000000E+00  0.00000000E+00  0.00000000E+00
  0.00000000E+00  0.00000000E+00  0.00000000E+00
  0.00000000E+00  0.00000000E+00  0.00000000E+00
  0.00000000E+00  0.00000000E+00  0.00000000E+00
  0.00000000E+00  0.00000000E+00  0.00000000E+00
  0.00000000E+00  0.00000000E+00  0.00000000E+00
  0.00000000E+00  0.00000000E+00  0.00000000E+00
  0.00000000E+00  0.00000000E+00  0.00000000E+00
  0.00000000E+00  0.00000000E+00  0.00000000E+00
  0.00000000E+00  0.00000000E+00  0.00000000E+00
  0.00000000E+00  0.00000000E+00  0.00000000E+00
  0.00000000E+00  0.00000000E+00  0.00000000E+00
  0.00000000E+00  0.00000000E+00  0.00000000E+00
  0.00000000E+00  0.00000000E+00  0.00000000E+00
  0.00000000E+00  0.00000000E+00  0.00000000E+00
  0.00000000E+00  0.00000000E+00  0.00000000E+00
  0.00000000E+00  0.00000000E+00  0.00000000E+00
  0.00000000E+00  0.00000000E+00  0.00000000E+00
  0.00000000E+00  0.00000000E+00  0.00000000E+00
  0.00000000E+00  0.00000000E+00  0.00000000E+00
  0.00000000E+00  0.00000000E+00  0.00000000E+00
  0.00000000E+00  0.00000000E+00  0.00000000E+00
  0.00000000E+00  0.00000000E+00  0.00000000E+00
  0.00000000E+00  0.00000000E+00  0.00000000E+00
  0.00000000E+00  0.00000000E+00  0.00000000E+00
  0.00000000E+00  0.00000000E+00  0.00000000E+00
  0.00000000E+00  0.00000000E+00  0.00000000E+00
  0.00000000E+00  0.00000000E+00  0.00000000E+00
  0.00000000E+00  0.00000000E+00  0.00000000E+00
  0.00000000E+00  0.00000000E+00  0.00000000E+00
  0.00000000E+00  0.00000000E+00  0.00000000E+00
  0.00000000E+00  0.00000000E+00  0.00000000E+00
  0.00000000E+00  0.00000000E+00  0.00000000E+00
  0.00000000E+00  0.00000000E+00  0.00000000E+00
  0.00000000E+00  0.00000000E+00  0.00000000E+00
  0.00000000E+00  0.00000000E+00  0.00000000E+00
  0.00000000E+00  0.00000000E+00  0.00000000E+00
  0.00000000E+00  0.00000000E+00  0.00000000E+00
  0.00000000E+00  0.00000000E+00  0.00000000E+00
  0.00000000E+00  0.00000000E+00  0.00000000E+00
  0.00000000E+00  0.00000000E+00  0.00000000E+00
  0.00000000E+00  0.00000000E+00  0.00000000E+00
  0.00000000E+00  0.00000000E+00  0.00000000E+00
  0.00000000E+00  0.00000000E+00  0.00000000E+00
  0.00000000E+00  0.00000000E+00  0.00000000E+00
  0.00000000E+00  0.00000000E+00  0.00000000E+00
  0.00000000E+00  0.00000000E+00  0.00000000E+00
  0.00000000E+00  0.00000000E+00  0.00000000E+00
  0.00000000E+00  0.00000000E+00  0.00000000E+00
  0.00000000E+00  0.00000000E+00  0.00000000E+00
  0.00000000E+00  0.00000000E+00  0.00000000E+00
  0.00000000E+00  0.00000000E+00  0.00000000E+00
  0.00000000E+00  0.00000000E+00  0.00000000E+00
  0.00000000E+00  0.00000000E+00  0.00000000E+00
  0.00000000E+00  0.00000000E+00  0.00000000E+00
  0.00000000E+00  0.00000000E+00  0.00000000E+00
  0.00000000E+00  0.00000000E+00  0.00000000E+00
  0.00000000E+00  0.00000000E+00  0.00000000E+00
  0.00000000E+00  0.00000000E+00  0.00000000E+00
  0.00000000E+00  0.00000000E+00  0.00000000E+00
  0.00000000E+00  0.00000000E+00  0.00000000E+00
  0.00000000E+00  0.00000000E+00  0.00000000E+00
  0.00000000E+00  0.00000000E+00  0.00000000E+00
  0.00000000E+00  0.00000000E+00  0.00000000E+00
  0.00000000E+00  0.00000000E+00  0.00000000E+00
  0.00000000E+00  0.00000000E+00  0.00000000E+00
  0.00000000E+00  0.00000000E+00  0.00000000E+00
  0.00000000E+00  0.00000000E+00  0.00000000E+00
  0.00000000E+00  0.00000000E+00  0.00000000E+00
  0.00000000E+00  0.00000000E+00  0.00000000E+00
  0.00000000E+00  0.00000000E+00  0.00000000E+00
  0.00000000E+00  0.00000000E+00  0.00000000E+00
  0.00000000E+00  0.00000000E+00  0.00000000E+00
  0.00000000E+00  0.00000000E+00  0.00000000E+00
  0.00000000E+00  0.00000000E+00  0.00000000E+00
  0.00000000E+00  0.00000000E+00  0.00000000E+00
  0.00000000E+00  0.00000000E+00  0.00000000E+00
  0.00000000E+00  0.00000000E+00  0.00000000E+00
  0.00000000E+00  0.00000000E+00  0.00000000E+00
  0.00000000E+00  0.00000000E+00  0.00000000E+00
  0.00000000E+00  0.00000000E+00  0.00000000E+00
  0.00000000E+00  0.00000000E+00  0.00000000E+00
  0.00000000E+00  0.00000000E+00  0.00000000E+00
  0.00000000E+00  0.00000000E+00  0.00000000E+00
  0.00000000E+00  0.00000000E+00  0.00000000E+00
  0.00000000E+00  0.00000000E+00  0.00000000E+00
  0.00000000E+00  0.00000000E+00  0.00000000E+00
  0.00000000E+00  0.00000000E+00  0.00000000E+00
  0.00000000E+00  0.00000000E+00  0.00000000E+00
  0.00000000E+00  0.00000000E+00  0.00000000E+00
  0.00000000E+00  0.00000000E+00  0.00000000E+00
  0.00000000E+00  0.00000000E+00  0.00000000E+00
  0.00000000E+00  0.00000000E+00  0.00000000E+00
  0.00000000E+00  0.00000000E+00  0.00000000E+00
  0.00000000E+00  0.00000000E+00  0.00000000E+00
  0.00000000E+00  0.00000000E+00  0.00000000E+00
  0.00000000E+00  0.00000000E+00  0.00000000E+00
  0.00000000E+00  0.00000000E+00  0.00000000E+00
  0.00000000E+00  0.00000000E+00  0.00000000E+00
  0.00000000E+00  0.00000000E+00  0.00000000E+00
  0.00000000E+00  0.00000000E+00  0.00000000E+00
  0.00000000E+00  0.00000000E+00  0.00000000E+00
  0.00000000E+00  0.00000000E+00  0.00000000E+00
  0.00000000E+00  0.00000000E+00  0.00000000E+00
  0.00000000E+00  0.00000000E+00  0.00000000E+00
  0.00000000E+00  0.00000000E+00  0.00000000E+00
  0.00000000E+00  0.00000000E+00  0.00000000E+00
  0.00000000E+00  0.00000000E+00  0.00000000E+00
  0.00000000E+00  0.00000000E+00  0.00000000E+00
  0.00000000E+00  0.00000000E+00  0.00000000E+00
  0.00000000E+00  0.00000000E+00  0.00000000E+00
  0.00000000E+00  0.00000000E+00  0.00000000E+00
  0.00000000E+00  0.00000000E+00  0.00000000E+00
  0.00000000E+00  0.00000000E+00  0.00000000E+00
  0.00000000E+00  0.00000000E+00  0.00000000E+00
  0.00000000E+00  0.00000000E+00  0.00000000E+00
  0.00000000E+00  0.00000000E+00  0.00000000E+00
  0.00000000E+00  0.00000000E+00  0.00000000E+00
  0.00000000E+00  0.00000000E+00  0.00000000E+00
  0.00000000E+00  0.00000000E+00  0.00000000E+00
  0.00000000E+00  0.00000000E+00  0.00000000E+00
  0.00000000E+00  0.00000000E+00  0.00000000E+00
  0.00000000E+00  0.00000000E+00  0.00000000E+00
  0.00000000E+00  0.00000000E+00  0.00000000E+00
  0.00000000E+00  0.00000000E+00  0.00000000E+00
  0.00000000E+00  0.00000000E+00  0.00000000E+00
  0.00000000E+00  0.00000000E+00  0.00000000E+00
  0.00000000E+00  0.00000000E+00  0.00000000E+00
  0.00000000E+00  0.00000000E+00  0.00000000E+00
  0.00000000E+00  0.00000000E+00  0.00000000E+00
  0.00000000E+00  0.00000000E+00  0.00000000E+00
  0.00000000E+00  0.00000000E+00  0.00000000E+00
  0.00000000E+00  0.00000000E+00  0.00000000E+00
  0.00000000E+00  0.00000000E+00  0.00000000E+00
  0.00000000E+00  0.00000000E+00  0.00000000E+00
  0.00000000E+00  0.00000000E+00  0.00000000E+00
  0.00000000E+00  0.00000000E+00  0.00000000E+00
  0.00000000E+00  0.00000000E+00  0.00000000E+00
  0.00000000E+00  0.00000000E+00  0.00000000E+00
  0.00000000E+00  0.00000000E+00  0.00000000E+00
  0.00000000E+00  0.00000000E+00  0.00000000E+00
  0.00000000E+00  0.00000000E+00  0.00000000E+00
  0.00000000E+00  0.00000000E+00  0.00000000E+00
  0.00000000E+00  0.00000000E+00  0.00000000E+00
  0.00000000E+00  0.00000000E+00  0.00000000E+00
  0.00000000E+00  0.00000000E+00  0.00000000E+00
  0.00000000E+00  0.00000000E+00  0.00000000E+00
  0.00000000E+00  0.00000000E+00  0.00000000E+00
  0.00000000E+00  0.00000000E+00  0.00000000E+00
  0.00000000E+00  0.00000000E+00  0.00000000E+00