Amorphous GeTe6                         
   1.00000000000000     
    22.2044198496002423    0.0000000000000000    0.0000000000000000
     0.0000000000000000   22.2044198496002423    0.0000000000000000
     0.0000000000000000    0.0000000000000000   22.2044198496002423
   B    Te
    30   270
Direct
  0.8303711553389088  0.0754851856545577  0.8196291705742389
  0.2382454911290896  0.7687238638888372  0.8339078896876624
  0.6045048351139087  0.8534915979228692  0.3636827784451690
  0.2028795901744559  0.2191041846669436  0.9382869480878803
  0.5866281825495554  0.1559335671198555  0.4091752596011540
  0.7868750544674470  0.0129304367275946  0.8037111437683317
  0.5635426934072271  0.3635182284795944  0.2365326697214742
  0.7155136969864703  0.5251592210062657  0.9569652282075759
  0.2694801920426598  0.9673255816196061  0.2548781381939924
  0.0464318714152295  0.8193936313108668  0.3599323672305307
  0.0986019776070992  0.8045491019933405  0.3051392593369554
  0.2473825007699639  0.8964378975994334  0.2735183041097314
  0.8699178440235306  0.5259805371849301  0.1717079969339763
  0.9606859142834959  0.1350534964590593  0.2739576162093943
  0.3622901552093304  0.9624852581454298  0.0193921255590767
  0.1783147375178103  0.6145290502749886  0.2059533318480246
  0.6008635452397061  0.4120426473762714  0.2869453069333979
  0.4232873504642767  0.0472168447178027  0.6602191017015256
  0.2601627867590228  0.7101232360244343  0.7857719381683951
  0.4332216083609867  0.9420751454322697  0.9980706745074845
  0.2910453401748939  0.7129578538797881  0.8604997353681578
  0.4927974151294864  0.3519098030971560  0.2585114341740965
  0.5949390463234622  0.7822940990540991  0.3869981044107857
  0.6036002233785370  0.7217169608694155  0.3425752652718048
  0.2246974391835153  0.3174205050722440  0.8190102070406360
  0.6219544595682002  0.3363034164345926  0.2789752556849723
  0.5254813157682777  0.4229304276283794  0.2741707299996620
  0.0202404332865254  0.6691674664809586  0.6832698570927255
  0.9309963997272336  0.1045302878403003  0.3355843093684802
  0.3170303420058680  0.8122363181491571  0.6582466954487644
  0.0729506513245309  0.2777298635379662  0.4544205637714853
  0.6236686015805394  0.2684945332325858  0.8413162209806898
  0.8119905315563041  0.1417563509479454  0.5969077931088325
  0.4096628971829550  0.6152268763661632  0.9275807204200450
  0.1481630712945019  0.0890471433206082  0.4902439493547707
  0.5280232190677919  0.1303865052767871  0.1556179578082076
  0.9385463251256172  0.9726797766169718  0.9605646006679956
  0.4951888578238040  0.0074525468332072  0.0485112234547290
  0.4674231873646622  0.2016428745708579  0.8369268002481849
  0.7880342923035178  0.7581825588248927  0.9126923258907701
  0.9886300774237089  0.9471472791063110  0.8131688648662490
  0.3370361523114474  0.1814772762143199  0.8383550942343375
  0.7412586562091540  0.2906041621675910  0.1076638111591003
  0.9222925568064263  0.2102197425356262  0.6575528993453886
  0.8076730196350690  0.1409749203000321  0.2334072878829176
  0.6666208490228319  0.6108894222249099  0.9261464911341261
  0.4172573629685642  0.8225365788429425  0.4113247330327682
  0.5075203746655276  0.6908198014410529  0.1816466532626495
  0.2775435178112929  0.2198221264803069  0.4563253987637881
  0.4614148762371907  0.8503514456328303  0.0335671516278590
  0.4257537516833075  0.1325541472073903  0.3845960550076752
  0.5961710114544434  0.6750311251459472  0.7166305401015018
  0.6714851596618769  0.8180844006034821  0.7311297994281659
  0.8850216529496908  0.2788085177898704  0.3343801248862535
  0.3127049587053207  0.4824261841198283  0.0216343312454019
  0.7654218117279763  0.1386411020159663  0.1063780117676740
  0.5092052648390969  0.2026034681239429  0.4563967638690936
  0.6122751331968075  0.2837262761810673  0.5190266127906875
  0.5589540173867201  0.5686599743741706  0.7847713363106862
  0.7067247883459242  0.0372631266569975  0.7441158690782083
  0.9939759416807895  0.8493841569201046  0.9719991277826512
  0.5896191269736619  0.2464012720031272  0.6424001933301136
  0.8780561461339018  0.4685482038760057  0.5730066212519355
  0.1992905454657005  0.2179734558509223  0.8357989773531929
  0.4248824141182551  0.1605006687305479  0.0803922469927557
  0.4653527781225876  0.3793304542863959  0.8183480922735096
  0.9548493597536131  0.8958039285021435  0.5172617507261758
  0.1766996813174900  0.1859900786341048  0.3854902045369396
  0.7233429019288865  0.6297499842674519  0.7905196924663784
  0.6892008300905021  0.6632834242829563  0.0386636488119550
  0.8886933197124416  0.8424148312643378  0.1544582615439918
  0.3703888349711658  0.4759985906240327  0.5066954543474409
  0.1322826355125176  0.5370597932335875  0.8303039518067663
  0.2573450548418665  0.3595430606013232  0.9085068030952119
  0.2535827574292918  0.0999634302313866  0.5665362438641741
  0.0068162940664747  0.2633117233952502  0.9748136367843815
  0.2248087650769555  0.4906715309982499  0.9061941925178623
  0.0946883992058893  0.2838188601951247  0.6904183543615677
  0.2212515165172756  0.4060937348364459  0.2114314072959983
  0.2708660969494113  0.2984968700917917  0.0817028670676935
  0.3629350691087624  0.3827210212685218  0.0889714626949507
  0.0612090525123178  0.1262555416123579  0.2656353135419234
  0.5558159582367219  0.1234543036454986  0.7163649943335020
  0.2488963276656579  0.1173552278998907  0.1661535467280342
  0.2152482872604334  0.6774439617214751  0.5409225887684522
  0.2870056197504121  0.6171883984469891  0.8235478265460849
  0.1713295050074280  0.7395760477066474  0.3293821589840485
  0.0189952287297439  0.5319026853464645  0.4267128441472824
  0.7289800194547611  0.0637705352673514  0.9540603267061244
  0.4988697399612047  0.7363545607104053  0.7744460944501883
  0.7156305928737694  0.0783903202001992  0.5379903539768476
  0.3125688718786050  0.7186891234833925  0.7018073316486754
  0.3505024717100119  0.4313449903492512  0.8362606163713878
  0.1353150277534589  0.3891532372059117  0.6074024972403037
  0.4978313577590711  0.9235933573536985  0.5460784030526205
  0.5466170101014225  0.4322146295509679  0.5509250827689809
  0.6585936870264684  0.4877298344378782  0.2617463637490327
  0.7087194650087486  0.2962447937757721  0.2601376270676697
  0.4749496479513297  0.2937248017130142  0.6487743965830227
  0.8113109647482227  0.5454218433321812 -0.0060407010425476
  0.9015254986111765  0.2670133703297376  0.8082662875732890
  0.6319032508153496  0.8943878761620007  0.8352562427223660
  0.0347943962227556  0.5822016882901120  0.6286514657095561
  0.6895059675869135  0.7308020113070570  0.4055198718493150
  0.9544686557413354  0.3869028821291117  0.8048102632561736
  0.0868630626974324  0.8706653290020392  0.4396031944330093
  0.2433964999306643  0.6068386759414098  0.4409436881205145
  0.9960493851419512  0.7386922379277989  0.4027723033587128
  0.3662468101493901  0.9737651996787444  0.2892239947018647
  0.9684678296753439  0.8705367312035321  0.3120088000502844
  0.5451957060213902  0.6405748117343171  0.3451489478072077
  0.2643239776949086  0.0293743853946202  0.7509821935088417
  0.9895926271077494  0.0476260272402125  0.3948939753112589
  0.8315032981777318  0.8288503941116930  0.5435362699354105
  0.2075581846089843  0.8175911660658822  0.4432060766531376
  0.8185144593469590  0.5587677265211342  0.8373535611430911
  0.2659383146647116  0.6686140246665522  0.2177890111888143
  0.3534913585705237  0.2297000984688101  0.3552372067909336
  0.6561733335200394  0.4741254634160135  0.0225293554694315
  0.4429346688511752  0.7489233704064567  0.2753203592697910
  0.9215161618186435  0.7025469680553325  0.9449908351815186
  0.4776691714884074  0.0232329555752523  0.7431792316075487
  0.7023700343307325  0.5371705289496026  0.4507782498487831
  0.6977717233721383  0.4053623341401043  0.6036433775741977
  0.9078056748398248  0.0463010810931819  0.2439951955299166
  0.4530731065001730  0.9364654642875789  0.8967960792662646
  0.3453259252562499  0.7483575820317486  0.4877811701158112
  0.7897664078325964  0.4997824616316762  0.1117614918836149
  0.2289764657828356  0.3089731688199207  0.5642755719333432
  0.2236879857599865  0.8273128960267043  0.6238558165460815
  0.4948234750288737  0.2946265102403713  0.0987900329884627
  0.8648728932803036  0.3682665893287166  0.4473697831510118
  0.1522794714817952  0.7177323416296294  0.8041857215721380
  0.8163455347034496  0.5600898869958388  0.2520813432501454
  0.5032904770783181  0.5152211882224832  0.2427302079878705
  0.3779488921889113  0.9846194544547348  0.1196614745802731
  0.7778685013064237  0.8269204532208997  0.3193005644049263
  0.4771407036029693  0.1064235870081989  0.5940539276178124
  0.8947471455754565  0.6841547159122393  0.8204418518847252
  0.7550639755639886  0.2184039465962740  0.6833003122814362
  0.0876781017438880  0.1960099678661178  0.5777547651950219
  0.6309364988573340  0.9149799197446780  0.1651305503453602
  0.8159702621312724  0.3813892784071180  0.6394466095362195
  0.7684633963509170  0.4242156445278270  0.2812605474183787
  0.7286074950687292  0.0743841163356680  0.3906908819258277
  0.0226791145463292  0.9888422610787710  0.2830631592532840
  0.1587249379358896  0.1389211987575919  0.9847512342377124
  0.4187988760631629  0.5682436763242821  0.6523083382115583
  0.4888887105663077  0.2877432096185219  0.9250522065051110
  0.8366660393177312  0.6022134746461951  0.4272263994148823
  0.3947030020880339  0.7971862820108380  0.5928670344212804
  0.5739865117470582  0.5068619742432794  0.4515515504627792
  0.4944279326070061  0.6740289410622690  0.0024371392393247
  0.6264968390398294  0.7496720667048519  0.2481402620761985
  0.7650731576569001  0.9124321338155668  0.1762143043709809
  0.7924209151318605  0.1707075403482410  0.8004234809673113
  0.5555766144964788  0.1703633951330914  0.3115073199267553
  0.7452479334262202  0.3987885763048274  0.4067566963063520
  0.8392303358074505  0.4221982447645963  0.9380150115767628
  0.0305936275973956  0.4814599330973494  0.9130263012429585
  0.0126714863047333  0.3514957975422747  0.0689466913539968
  0.6229122155310227  0.3774481940491601  0.9474967381590512
  0.0203514117313894  0.8235527545193365  0.8353122412716403
  0.9203729566179238  0.4375111610708527  0.1930572059000425
  0.4763831955519668  0.3771829309492358  0.3551319322236795
  0.2931014187405526  0.8887361074535836  0.3669710354423430
  0.8808063126693005  0.2371298566128428  0.0045050250509710
  0.1535059933753515  0.5527376327515841  0.2824332377283116
  0.2262743002203009  0.5686542476468679  0.1268090467272067
  0.7213710452245479  0.3196577681352845  0.7879023405697617
  0.5436954015170951  0.0268159330177055  0.3090212678496671
  0.1166109362200103  0.3753183812214128  0.3874917080695284
  0.0432549722659732  0.9860545571635649  0.1314579047933457
  0.5289318130473872  0.6372890980235688  0.4687971632038125
  0.2264985295696021  0.3996065298712396  0.4444726705735780
  0.6656463518467638  0.4761312086212642  0.7023669411873598
  0.2389309928516083  0.9118030392061945  0.5313779496016037
  0.3935369226084692  0.2141298830406577  0.5945446866881453
  0.7705010763117747  0.0124866910930663  0.0699249927408235
  0.3172636694950048  0.5783214879994678  0.2928346317399054
  0.2536313044646563  0.0532496118465001  0.3127302549905396
  0.1451384284685242  0.8919038371018648  0.2716958220269771
  0.8480726347087005  0.1062599584166991  0.9169598209970854
  0.4148934736416525  0.3154567008983959  0.2117440813897817
  0.9044276912223519  0.5502285645764158  0.6690191236263409
  0.8482982382572721  0.1469782906758722  0.3740950748818010
  0.2670589932481994  0.8638541449064939  0.8240981897856733
  0.0422939379600229  0.7784411852219794  0.2215950589172674
  0.3907581355414392  0.9625151225714799  0.6124771305057652
  0.7606783349012147  0.9510628061691803  0.8838058314351701
  0.7219663516898672  0.8418581809992209  0.0799632056644017
  0.8534858099240592  0.6505510128170111  0.6124165590798047
  0.1314524426621177  0.3576273385774496  0.7983784913173428
  0.8620158951271774  0.8513232790750530  0.4122863979313408
  0.6143061153901769  0.8425324118896979  0.5682830578295957
  0.9972750832151464  0.6267223127901392  0.7746356700431395
  0.7734477344604040  0.9652286170912411  0.5610181433965549
  0.5221111905490391  0.8999843854935135  0.3371257135835560
  0.9204036179192300  0.2143782711435571  0.2258058148533262
  0.0168175197305173  0.1242773275410003  0.6542042422693080
  0.9136383179961886  0.4077410112738966  0.3232597208989005
  0.2939014364028897  0.3346461687104123  0.7468446779192857
  0.6919933947443139  0.6497194408927780  0.5057990012368045
  0.2234274856912978  0.2483220358820176  0.2811212673596872
  0.2139874596384982  0.0312545040631280  0.9448540627857350
  0.1064749209400675  0.9914447296971448  0.8431369939088569
  0.1890189853469710  0.4847903894518386  0.5345753126120115
  0.3355164199089707  0.0549320718391126  0.9790878624988512
  0.7239386275236988  0.7731197143846018  0.5826614977774508
  0.8659315614438904  0.3239724469630553  0.0940533942527723
  0.2880270071796536  0.8336278672654897  0.2018044424379355
  0.9306811274581116  0.6011604991858712  0.1389780364639811
  0.5378367128810314  0.4658013602754574  0.8772112913400343
  0.9508661691535810  0.4486946033251661  0.0116996402485788
  0.6504392464844346  0.1596390400225511  0.2259381527561562
  0.2527214811951439  0.9879386655506525  0.1552931641366504
  0.3029509611091385  0.2329538835482534  0.9674393092087820
  0.9754033979675154  0.1578812512952831  0.8788851131801436
  0.1649403478161362  0.4573549939948356  0.1041370458776022
  0.9854385845722557  0.3453308628026889  0.5220257033784024
  0.3215156324034129  0.4884918028195969  0.2008288302184548
  0.4264010988084922  0.5883512001027484  0.7807926798580072
  0.4248898109534898  0.6157957061089804  0.1119736497478236
  0.5355965331505516  0.8565302147918648  0.7550266453460884
  0.5291536533377365  0.7723306206183767  0.4647219754472490
  0.1688270893473344  0.5978337312448782  0.6301975711479453
  0.5608887631876029  0.7399353558655143  0.9052598281376911
  0.7028069588821743  0.0485279832848362  0.2657674631133225
  0.0405488515725887  0.5348610583604685  0.1273157850981664
  0.6836601516691078  0.9093984697285732  0.3517660433800487
  0.8413330648336819  0.8054664867138389  0.0346766651000903
  0.3401669605011668  0.3926769979067525  0.2925646913005645
  0.2865776146305805  0.8982055650276132  0.9970232455840393
  0.1070024330676681  0.6708370570094910  0.1566615651045648
  0.6962972109925943  0.2723621529066566  0.9865936165658714
  0.9422332142879345  0.5954880618022521  0.5055271945529177
  0.9173381641488558  0.5568169270993703  0.3382251548986586
  0.5951852369556797  0.2034020141196572  0.0734207146244023
  0.1134366138060392  0.8726913776835563 -0.0058324847931370
  0.8586233937018414  0.7409504020067865  0.2277664554457712
  0.0829176653744714  0.5710812567340811  0.9862064237089888
  0.0468141782312836  0.6850077362609177  0.9451850584949174
  0.5375078877243153  0.5010944935207671  0.6587826997130628
  0.2048551118577342  0.9969857074731698  0.4183801939524979
  0.8102758884142224  0.2942401108158555  0.8959270677681476
  0.6373787977375470  0.1147975814956023  0.8174481342236245
  0.1478010191371848  0.2990488024191108  0.9701706375009008
  0.6719897058641262  0.1997383776774866  0.4432315689679464
  0.7201783005260977  0.5887099771002453  0.6702670607644352
  0.1943298616162476  0.7558171648173946  0.1173057945568574
  0.1173275331456963  0.3057065889941638  0.2412055430796951
  0.6156034385625088  0.5954111416289677  0.1219229934655046
  0.5767624727583209  0.0147869193142681  0.5770685545201949
  0.0794882545526274  0.1246179230718902  0.1412333734509561
  0.3100772160500111  0.5027482237988726  0.6115011812750265
  0.3907000498758688  0.0491981025074018  0.8556707252003571
  0.1135929845270728  0.2544218466674484  0.1259510664119146
  0.0338209384289754  0.7899771758437145  0.5341072088256640
  0.6501082911349905  0.9273815125222092  0.6587064300294384
  0.0371295439990423  0.4924654666652047  0.2481583875028227
  0.3690173982995734  0.5918792330998515  0.4599417167274532
  0.0886917739236483  0.6432094945911760  0.3628698943955235
  0.9527131601237608  0.7390692135954986  0.6475747511626410
  0.1663917413858319  0.9166528062250866  0.7518633190463180
  0.1089389524187916  0.7238072482763894  0.6769811842039247
  0.5793588603310657  0.3816638784759650  0.1381164504572084
  0.6056721077469386  0.3564907770644440  0.3776638428534208
  0.9193425673529587  0.9872664018166856  0.0888274396260598
  0.2323323549756060  0.2437443573731065  0.6747133382554461
  0.4113483422967575  0.8607691058536797  0.2168947983880392
  0.1542147803895763  0.4622752905886571  0.7277041622047464
  0.7291729723721305  0.4686121142447086  0.8723367413805125
  0.1202709556954958  0.8721363320221276  0.1222373121379467
  0.3440519639819689  0.1099130498842526  0.6816208037514259
  0.6053793750663431  0.9403193208130891  0.0409294816919522
  0.9779502632576235  0.0137208912403195  0.5856442249259267
  0.1036968143552893  0.9778023575899274  0.6473035185026228
  0.1774286063081424  0.0781751991584982  0.6685936061559935
  0.0384697632163926  0.8312410914038834  0.7048363046571046
  0.8775390382114800  0.0092112900422710  0.5007552133972397
  0.3555011025014428  0.8878408805385565  0.7175007378530824
  0.6925785738688242  0.6514588427481752  0.2045412557018179
  0.6155699068773229  0.7660458247499993  0.0178665045674744
  0.7980997191641790  0.8096416100545915  0.7143763002941738
  0.3668994090958279  0.1441639051010213  0.1938563342396184
  0.5667939541621347  0.9899882919894281  0.9044027861566445
  0.8491536628201566  0.9642203173254972  0.7355165251055924
  0.5291171032990506  0.1700570411176336  0.9648470639289493
  0.9022986968132087  0.2494819259910653  0.5403633474327105
  0.2192792508076532  0.7349842189541841  0.9301822363161611
  0.4305145253712684  0.4932322688580227  0.9685024040147262
  0.3828526477404883  0.7504501071085524  0.8778836181168040
  0.5934236866174181  0.0522020467937918  0.4224177386276087
  0.9698822456870202  0.6851782250140331  0.2795382514576598
  0.9865991997976529  0.3691327333944698  0.6861314765803492
  0.9217603067835037  0.0657482890436489  0.7713540920864624
  0.0342601767755869  0.0641428563314621  0.9516929241193763
  0.8338992645792568  0.8474380890334753  0.8330720756704966
  0.3550426792373567  0.7920709881227731  0.0024688987501946
  0.4867900098432555  0.5003093651055573  0.1158871029716620
 
  0.00000000E+00  0.00000000E+00  0.00000000E+00
  0.00000000E+00  0.00000000E+00  0.00000000E+00
  0.00000000E+00  0.00000000E+00  0.00000000E+00
  0.00000000E+00  0.00000000E+00  0.00000000E+00
  0.00000000E+00  0.00000000E+00  0.00000000E+00
  0.00000000E+00  0.00000000E+00  0.00000000E+00
  0.00000000E+00  0.00000000E+00  0.00000000E+00
  0.00000000E+00  0.00000000E+00  0.00000000E+00
  0.00000000E+00  0.00000000E+00  0.00000000E+00
  0.00000000E+00  0.00000000E+00  0.00000000E+00
  0.00000000E+00  0.00000000E+00  0.00000000E+00
  0.00000000E+00  0.00000000E+00  0.00000000E+00
  0.00000000E+00  0.00000000E+00  0.00000000E+00
  0.00000000E+00  0.00000000E+00  0.00000000E+00
  0.00000000E+00  0.00000000E+00  0.00000000E+00
  0.00000000E+00  0.00000000E+00  0.00000000E+00
  0.00000000E+00  0.00000000E+00  0.00000000E+00
  0.00000000E+00  0.00000000E+00  0.00000000E+00
  0.00000000E+00  0.00000000E+00  0.00000000E+00
  0.00000000E+00  0.00000000E+00  0.00000000E+00
  0.00000000E+00  0.00000000E+00  0.00000000E+00
  0.00000000E+00  0.00000000E+00  0.00000000E+00
  0.00000000E+00  0.00000000E+00  0.00000000E+00
  0.00000000E+00  0.00000000E+00  0.00000000E+00
  0.00000000E+00  0.00000000E+00  0.00000000E+00
  0.00000000E+00  0.00000000E+00  0.00000000E+00
  0.00000000E+00  0.00000000E+00  0.00000000E+00
  0.00000000E+00  0.00000000E+00  0.00000000E+00
  0.00000000E+00  0.00000000E+00  0.00000000E+00
  0.00000000E+00  0.00000000E+00  0.00000000E+00
  0.00000000E+00  0.00000000E+00  0.00000000E+00
  0.00000000E+00  0.00000000E+00  0.00000000E+00
  0.00000000E+00  0.00000000E+00  0.00000000E+00
  0.00000000E+00  0.00000000E+00  0.00000000E+00
  0.00000000E+00  0.00000000E+00  0.00000000E+00
  0.00000000E+00  0.00000000E+00  0.00000000E+00
  0.00000000E+00  0.00000000E+00  0.00000000E+00
  0.00000000E+00  0.00000000E+00  0.00000000E+00
  0.00000000E+00  0.00000000E+00  0.00000000E+00
  0.00000000E+00  0.00000000E+00  0.00000000E+00
  0.00000000E+00  0.00000000E+00  0.00000000E+00
  0.00000000E+00  0.00000000E+00  0.00000000E+00
  0.00000000E+00  0.00000000E+00  0.00000000E+00
  0.00000000E+00  0.00000000E+00  0.00000000E+00
  0.00000000E+00  0.00000000E+00  0.00000000E+00
  0.00000000E+00  0.00000000E+00  0.00000000E+00
  0.00000000E+00  0.00000000E+00  0.00000000E+00
  0.00000000E+00  0.00000000E+00  0.00000000E+00
  0.00000000E+00  0.00000000E+00  0.00000000E+00
  0.00000000E+00  0.00000000E+00  0.00000000E+00
  0.00000000E+00  0.00000000E+00  0.00000000E+00
  0.00000000E+00  0.00000000E+00  0.00000000E+00
  0.00000000E+00  0.00000000E+00  0.00000000E+00
  0.00000000E+00  0.00000000E+00  0.00000000E+00
  0.00000000E+00  0.00000000E+00  0.00000000E+00
  0.00000000E+00  0.00000000E+00  0.00000000E+00
  0.00000000E+00  0.00000000E+00  0.00000000E+00
  0.00000000E+00  0.00000000E+00  0.00000000E+00
  0.00000000E+00  0.00000000E+00  0.00000000E+00
  0.00000000E+00  0.00000000E+00  0.00000000E+00
  0.00000000E+00  0.00000000E+00  0.00000000E+00
  0.00000000E+00  0.00000000E+00  0.00000000E+00
  0.00000000E+00  0.00000000E+00  0.00000000E+00
  0.00000000E+00  0.00000000E+00  0.00000000E+00
  0.00000000E+00  0.00000000E+00  0.00000000E+00
  0.00000000E+00  0.00000000E+00  0.00000000E+00
  0.00000000E+00  0.00000000E+00  0.00000000E+00
  0.00000000E+00  0.00000000E+00  0.00000000E+00
  0.00000000E+00  0.00000000E+00  0.00000000E+00
  0.00000000E+00  0.00000000E+00  0.00000000E+00
  0.00000000E+00  0.00000000E+00  0.00000000E+00
  0.00000000E+00  0.00000000E+00  0.00000000E+00
  0.00000000E+00  0.00000000E+00  0.00000000E+00
  0.00000000E+00  0.00000000E+00  0.00000000E+00
  0.00000000E+00  0.00000000E+00  0.00000000E+00
  0.00000000E+00  0.00000000E+00  0.00000000E+00
  0.00000000E+00  0.00000000E+00  0.00000000E+00
  0.00000000E+00  0.00000000E+00  0.00000000E+00
  0.00000000E+00  0.00000000E+00  0.00000000E+00
  0.00000000E+00  0.00000000E+00  0.00000000E+00
  0.00000000E+00  0.00000000E+00  0.00000000E+00
  0.00000000E+00  0.00000000E+00  0.00000000E+00
  0.00000000E+00  0.00000000E+00  0.00000000E+00
  0.00000000E+00  0.00000000E+00  0.00000000E+00
  0.00000000E+00  0.00000000E+00  0.00000000E+00
  0.00000000E+00  0.00000000E+00  0.00000000E+00
  0.00000000E+00  0.00000000E+00  0.00000000E+00
  0.00000000E+00  0.00000000E+00  0.00000000E+00
  0.00000000E+00  0.00000000E+00  0.00000000E+00
  0.00000000E+00  0.00000000E+00  0.00000000E+00
  0.00000000E+00  0.00000000E+00  0.00000000E+00
  0.00000000E+00  0.00000000E+00  0.00000000E+00
  0.00000000E+00  0.00000000E+00  0.00000000E+00
  0.00000000E+00  0.00000000E+00  0.00000000E+00
  0.00000000E+00  0.00000000E+00  0.00000000E+00
  0.00000000E+00  0.00000000E+00  0.00000000E+00
  0.00000000E+00  0.00000000E+00  0.00000000E+00
  0.00000000E+00  0.00000000E+00  0.00000000E+00
  0.00000000E+00  0.00000000E+00  0.00000000E+00
  0.00000000E+00  0.00000000E+00  0.00000000E+00
  0.00000000E+00  0.00000000E+00  0.00000000E+00
  0.00000000E+00  0.00000000E+00  0.00000000E+00
  0.00000000E+00  0.00000000E+00  0.00000000E+00
  0.00000000E+00  0.00000000E+00  0.00000000E+00
  0.00000000E+00  0.00000000E+00  0.00000000E+00
  0.00000000E+00  0.00000000E+00  0.00000000E+00
  0.00000000E+00  0.00000000E+00  0.00000000E+00
  0.00000000E+00  0.00000000E+00  0.00000000E+00
  0.00000000E+00  0.00000000E+00  0.00000000E+00
  0.00000000E+00  0.00000000E+00  0.00000000E+00
  0.00000000E+00  0.00000000E+00  0.00000000E+00
  0.00000000E+00  0.00000000E+00  0.00000000E+00
  0.00000000E+00  0.00000000E+00  0.00000000E+00
  0.00000000E+00  0.00000000E+00  0.00000000E+00
  0.00000000E+00  0.00000000E+00  0.00000000E+00
  0.00000000E+00  0.00000000E+00  0.00000000E+00
  0.00000000E+00  0.00000000E+00  0.00000000E+00
  0.00000000E+00  0.00000000E+00  0.00000000E+00
  0.00000000E+00  0.00000000E+00  0.00000000E+00
  0.00000000E+00  0.00000000E+00  0.00000000E+00
  0.00000000E+00  0.00000000E+00  0.00000000E+00
  0.00000000E+00  0.00000000E+00  0.00000000E+00
  0.00000000E+00  0.00000000E+00  0.00000000E+00
  0.00000000E+00  0.00000000E+00  0.00000000E+00
  0.00000000E+00  0.00000000E+00  0.00000000E+00
  0.00000000E+00  0.00000000E+00  0.00000000E+00
  0.00000000E+00  0.00000000E+00  0.00000000E+00
  0.00000000E+00  0.00000000E+00  0.00000000E+00
  0.00000000E+00  0.00000000E+00  0.00000000E+00
  0.00000000E+00  0.00000000E+00  0.00000000E+00
  0.00000000E+00  0.00000000E+00  0.00000000E+00
  0.00000000E+00  0.00000000E+00  0.00000000E+00
  0.00000000E+00  0.00000000E+00  0.00000000E+00
  0.00000000E+00  0.00000000E+00  0.00000000E+00
  0.00000000E+00  0.00000000E+00  0.00000000E+00
  0.00000000E+00  0.00000000E+00  0.00000000E+00
  0.00000000E+00  0.00000000E+00  0.00000000E+00
  0.00000000E+00  0.00000000E+00  0.00000000E+00
  0.00000000E+00  0.00000000E+00  0.00000000E+00
  0.00000000E+00  0.00000000E+00  0.00000000E+00
  0.00000000E+00  0.00000000E+00  0.00000000E+00
  0.00000000E+00  0.00000000E+00  0.00000000E+00
  0.00000000E+00  0.00000000E+00  0.00000000E+00
  0.00000000E+00  0.00000000E+00  0.00000000E+00
  0.00000000E+00  0.00000000E+00  0.00000000E+00
  0.00000000E+00  0.00000000E+00  0.00000000E+00
  0.00000000E+00  0.00000000E+00  0.00000000E+00
  0.00000000E+00  0.00000000E+00  0.00000000E+00
  0.00000000E+00  0.00000000E+00  0.00000000E+00
  0.00000000E+00  0.00000000E+00  0.00000000E+00
  0.00000000E+00  0.00000000E+00  0.00000000E+00
  0.00000000E+00  0.00000000E+00  0.00000000E+00
  0.00000000E+00  0.00000000E+00  0.00000000E+00
  0.00000000E+00  0.00000000E+00  0.00000000E+00
  0.00000000E+00  0.00000000E+00  0.00000000E+00
  0.00000000E+00  0.00000000E+00  0.00000000E+00
  0.00000000E+00  0.00000000E+00  0.00000000E+00
  0.00000000E+00  0.00000000E+00  0.00000000E+00
  0.00000000E+00  0.00000000E+00  0.00000000E+00
  0.00000000E+00  0.00000000E+00  0.00000000E+00
  0.00000000E+00  0.00000000E+00  0.00000000E+00
  0.00000000E+00  0.00000000E+00  0.00000000E+00
  0.00000000E+00  0.00000000E+00  0.00000000E+00
  0.00000000E+00  0.00000000E+00  0.00000000E+00
  0.00000000E+00  0.00000000E+00  0.00000000E+00
  0.00000000E+00  0.00000000E+00  0.00000000E+00
  0.00000000E+00  0.00000000E+00  0.00000000E+00
  0.00000000E+00  0.00000000E+00  0.00000000E+00
  0.00000000E+00  0.00000000E+00  0.00000000E+00
  0.00000000E+00  0.00000000E+00  0.00000000E+00
  0.00000000E+00  0.00000000E+00  0.00000000E+00
  0.00000000E+00  0.00000000E+00  0.00000000E+00
  0.00000000E+00  0.00000000E+00  0.00000000E+00
  0.00000000E+00  0.00000000E+00  0.00000000E+00
  0.00000000E+00  0.00000000E+00  0.00000000E+00
  0.00000000E+00  0.00000000E+00  0.00000000E+00
  0.00000000E+00  0.00000000E+00  0.00000000E+00
  0.00000000E+00  0.00000000E+00  0.00000000E+00
  0.00000000E+00  0.00000000E+00  0.00000000E+00
  0.00000000E+00  0.00000000E+00  0.00000000E+00
  0.00000000E+00  0.00000000E+00  0.00000000E+00
  0.00000000E+00  0.00000000E+00  0.00000000E+00
  0.00000000E+00  0.00000000E+00  0.00000000E+00
  0.00000000E+00  0.00000000E+00  0.00000000E+00
  0.00000000E+00  0.00000000E+00  0.00000000E+00
  0.00000000E+00  0.00000000E+00  0.00000000E+00
  0.00000000E+00  0.00000000E+00  0.00000000E+00
  0.00000000E+00  0.00000000E+00  0.00000000E+00
  0.00000000E+00  0.00000000E+00  0.00000000E+00
  0.00000000E+00  0.00000000E+00  0.00000000E+00
  0.00000000E+00  0.00000000E+00  0.00000000E+00
  0.00000000E+00  0.00000000E+00  0.00000000E+00
  0.00000000E+00  0.00000000E+00  0.00000000E+00
  0.00000000E+00  0.00000000E+00  0.00000000E+00
  0.00000000E+00  0.00000000E+00  0.00000000E+00
  0.00000000E+00  0.00000000E+00  0.00000000E+00
  0.00000000E+00  0.00000000E+00  0.00000000E+00
  0.00000000E+00  0.00000000E+00  0.00000000E+00
  0.00000000E+00  0.00000000E+00  0.00000000E+00
  0.00000000E+00  0.00000000E+00  0.00000000E+00
  0.00000000E+00  0.00000000E+00  0.00000000E+00
  0.00000000E+00  0.00000000E+00  0.00000000E+00
  0.00000000E+00  0.00000000E+00  0.00000000E+00
  0.00000000E+00  0.00000000E+00  0.00000000E+00
  0.00000000E+00  0.00000000E+00  0.00000000E+00
  0.00000000E+00  0.00000000E+00  0.00000000E+00
  0.00000000E+00  0.00000000E+00  0.00000000E+00
  0.00000000E+00  0.00000000E+00  0.00000000E+00
  0.00000000E+00  0.00000000E+00  0.00000000E+00
  0.00000000E+00  0.00000000E+00  0.00000000E+00
  0.00000000E+00  0.00000000E+00  0.00000000E+00
  0.00000000E+00  0.00000000E+00  0.00000000E+00
  0.00000000E+00  0.00000000E+00  0.00000000E+00
  0.00000000E+00  0.00000000E+00  0.00000000E+00
  0.00000000E+00  0.00000000E+00  0.00000000E+00
  0.00000000E+00  0.00000000E+00  0.00000000E+00
  0.00000000E+00  0.00000000E+00  0.00000000E+00
  0.00000000E+00  0.00000000E+00  0.00000000E+00
  0.00000000E+00  0.00000000E+00  0.00000000E+00
  0.00000000E+00  0.00000000E+00  0.00000000E+00
  0.00000000E+00  0.00000000E+00  0.00000000E+00
  0.00000000E+00  0.00000000E+00  0.00000000E+00
  0.00000000E+00  0.00000000E+00  0.00000000E+00
  0.00000000E+00  0.00000000E+00  0.00000000E+00
  0.00000000E+00  0.00000000E+00  0.00000000E+00
  0.00000000E+00  0.00000000E+00  0.00000000E+00
  0.00000000E+00  0.00000000E+00  0.00000000E+00
  0.00000000E+00  0.00000000E+00  0.00000000E+00
  0.00000000E+00  0.00000000E+00  0.00000000E+00
  0.00000000E+00  0.00000000E+00  0.00000000E+00
  0.00000000E+00  0.00000000E+00  0.00000000E+00
  0.00000000E+00  0.00000000E+00  0.00000000E+00