Sb                                      
   1.00000000000000     
    18.4673007965000004    0.0000000000000000    0.0000000000000000
     0.0000000000000000   18.4673007965000004    0.0000000000000000
     0.0000000000000000    0.0000000000000000   18.4673007965000004
   Ge   Sb   Te
    70    30   100
Direct
  0.5923473059410365  0.0149023194218319  0.1278376572440399
  0.8137160070959536  0.7538021353148836  0.8256407075569542
  0.0373030492944207  0.4392509770069392  0.2396227718668953
  0.1873115539573173  0.6216880746371252  0.2175537754326767
  0.7710155780818030  0.0440211515229654  0.6839380632043602
  0.9199140007654794  0.2312870231065723  0.7764475466479770
  0.3696149276881013  0.1746487886496588  0.5019480657848804
  0.2354592663442874  0.2308273153625843  0.1435897801492347
  0.2350079642680173  0.8219348735633788  0.8932639226131721
  0.6311272334408886  0.9103949645729702  0.2508836766107754
  0.1356297027239530  0.9476759321325696  0.1370701556279337
  0.1370784973678571  0.8759165619335845  0.5602091250038540
  0.9932375293887845  0.6710907572757845  0.0518584330993506
  0.5847776934768703  0.6555092503277276  0.2940617525675603
  0.4400479724732246  0.1323688800190151  0.0527400177608588
  0.9257861459075176  0.1553344521169132  0.1487628342172762
  0.1352821071669169  0.7315093684022909  0.7718340049239083
  0.2711623608734137  0.3581392378198533  0.5512276121943196
  0.7546430697560728  0.8685846336937512  0.5585077442502648
  0.5484091220436459  0.7811666500162433  0.1145058829450012
  0.4964187362944977  0.2541283890068932  0.5777922952746253
  0.7963278663393097  0.3042894477131620  0.0973047868103447
  0.1039672121335544  0.0669717813678930  0.9343148997865919
  0.1152292283413082  0.0984258804629883  0.5771712413215275
  0.5388089680890783  0.2951430775289160  0.8212879569931503
  0.3735075598116478  0.5679319448695082  0.5263025200783332
  0.7530576145778149  0.0661253350679646  0.0304682634562202
  0.6470201201231396  0.6224282742839233  0.1782356379756216
  0.5109646752953293  0.8381883510616011  0.5507971023586711
  0.2361089173116338  0.0790261499110647  0.9996978931115738
  0.5034588324149124  0.0745602183447992  0.4519386529168271
  0.6959642110805727  0.1924289577574672  0.9865329302605862
  0.3919673650507460  0.5348281917382316  0.7247071319114124
  0.6310945295756329  0.8789570860906469  0.8236069021844115
  0.4371385099449904  0.9287179787735225  0.7279044357763407
  0.9477711219425250  0.3884915844508472  0.4601770185393526
  0.8608157785736267  0.6314069672193383  0.1924732326166901
  0.7871555762234216  0.4315310783079386  0.6854525361687730
  0.9750862045809937  0.4929686850200562  0.6224584968535757
  0.4632571935732372  0.8420044439900354  0.9250290978866209
  0.8056838922300451  0.0815862408081903  0.5451639190117097
  0.7036541886506600  0.8982308129804435  0.0066972278374980
  0.0955024355610915  0.0230232370467313  0.6998759919270838
  0.4808845363794037  0.2529493821771270  0.1289536283184324
  0.3596193645841104  0.0171734957001827  0.9755584305887508
  0.6558754312781709  0.3366465516200139  0.0148893518925237
  0.0230974025397680  0.6315294156455256  0.9231203648490079
  0.7813137168633600  0.6560423588020355  0.9906019651233904
  0.9241821910100730  0.1661017228010033  0.5241213271006195
  0.6826150580499221  0.9941259111204145  0.4159294211212249
  0.6902433515692871  0.7114089995150579  0.8941812073998689
  0.0609088571061023  0.2372229422593810  0.7864711649831770
  0.2317814082118939  0.2330607360880480  0.4995335082800192
  0.5471241438313517  0.2670574978969216  0.4356692213518433
  0.1392352393155724  0.2887779484496623  0.6840933536754114
  0.6094443200305103  0.7076093574263613  0.4226904021193913
  0.2242175602858243  0.4002854580247733  0.6894926853522297
  0.1463796316732588  0.8285094802189156  0.3987848941673466
  0.2037349087642943  0.9339754623454821  0.8192733988010494
  0.5750214427947294  0.8735450998056691  0.6710550960395956
  0.3496219407247725  0.3100431094876944  0.7482717352943251
  0.4679728524764336  0.9249698465707210  0.2462073285608648
  0.6219173825335257  0.0827413727036697  0.7112258508901056
  0.6107469342944838  0.8009995331905908  0.9488125941478522
  0.8627313597085278  0.7291597401011148  0.0872307437651330
  0.5793589683561737  0.3162304159812342  0.6843646516279616
  0.7620819139324395  0.2641807783269903  0.7785910886406883
  0.1361928513026283  0.4327603187741740  0.5049141913906816
  0.6337093162159310  0.5227646117351640  0.7340734126285513
  0.0649058947103072  0.6127657176587594  0.7893253404729910
  0.0281292510517959  0.2954377106389279  0.0916724951007093
  0.6464172545708490  0.5244165066183111  0.4009837137775722
  0.0505455836384908  0.3342978988531973  0.5813089564890782
  0.3467147660314958  0.9396679603264740  0.4888217274029051
  0.4058943685309999  0.4327557854598987  0.9900418928617687
  0.4899856543673645  0.1391884464788680  0.6625014210015029
  0.5948806850259289  0.6752265335592694  0.0282530119310833
  0.0677370635559532  0.9616971704393904  0.8398811544210597
  0.8557318954796488  0.7968716975298595  0.3342974410945299
  0.3895615085911577  0.3416847415350600  0.6146188366332873
  0.4227269125730903  0.2125892462080911  0.2843372029589177
  0.0119264109377892  0.9852685162126662  0.4475554518700969
  0.5153513390576662  0.6886248329875937  0.8162896049684446
  0.5317855258529488  0.4344311632367971  0.2368491409053039
  0.2230398216348110  0.2801823659196802  0.8623953590006361
  0.4095101853593666  0.6254305821194929  0.1703396440180411
  0.7421888008519617  0.3215935228461986  0.5057085622451722
  0.2697804764025538  0.6810035811649404  0.8512463913171140
  0.1950851734736865  0.3793755013971160  0.2876710214305119
  0.7075445210130148  0.6638120885225751  0.5322875059109319
  0.9636186074733240  0.7743319449742172  0.6621273033526307
  0.8754425802409357  0.5942695421384262  0.4057772687764202
  0.8414398394228125  0.4348942543125283  0.9032454894787676
  0.0952344801286364  0.1637138227871779  0.2849020074557791
  0.8414094289522522  0.4889879820478982  0.1717731459875705
  0.8662722210013859  0.9665811175360898  0.8483253760777699
  0.3563805643846175  0.4837881265242058  0.2418478193978703
  0.0834396952959097  0.4622418767514333  0.8082442932734824
  0.1330116212242055  0.7338682734919518  0.0766334852993119
  0.1340854278795294  0.7626238229019864  0.2614082374838804
  0.2261049521485226  0.1779431350297723  0.6426779156765398
  0.1525286161922759  0.3762685245765963  0.1348959089935829
  0.1008085382288908  0.8290267904318447  0.9588872012297742
  0.5725614964897652  0.0960072974653816  0.9993572058174003
  0.7547753568209271  0.5881705758155453  0.7056862332421094
  0.8330015684792345  0.9602711977615161  0.4576310302761677
  0.8247103389546475  0.8377637790015737  0.9615111242943165
  0.3708897650773929  0.8413604238268614  0.6020343538195324
  0.8643690296346567  0.2857314064307033  0.9663568312793747
  0.6688519266228115  0.7583876627628928  0.6520320009673092
  0.3118828084047166  0.9394941232725206  0.2814276345900054
  0.4031326830342952  0.7996384624046622  0.7890619580930791
  0.9822129347222953  0.9704229024320531  0.2773203453410308
  0.3832147149244924  0.0604510838893014  0.6093231383451915
  0.2229454639860041  0.9538185075702853  0.6716865710747182
  0.9920467985398059  0.5377179519474784  0.1217576175526873
  0.4984286525020468  0.5511223869371646  0.3579003504670736
  0.0662964185971072  0.2106208050191140  0.4854692395930527
  0.2796008322066039  0.0566359234226485  0.1372030998915190
  0.1319838356876820  0.9984447829334919  0.2766338015424153
  0.5264570422020851  0.5254824867292018  0.1113663623893696
  0.0485186860150557  0.3171957168760825  0.3318553522433246
  0.2744405846306134  0.7307166128479932  0.5246186553908060
  0.6434106431599811  0.3669915172516284  0.3892760353231642
  0.3006119382847643  0.5359940066690918  0.1022228795263561
  0.0713996824911784  0.2951328776069551  0.9248533935394709
  0.4747449319095031  0.7219153133208394  0.4647684419310202
  0.8650101387542317  0.8533486689242091  0.1781239319398871
  0.1122465157679360  0.7439838623147773  0.6299589689081738
  0.9968842415055565  0.8329343811742714  0.4223876872792360
  0.5135076544710157  0.3144935979930522  0.9822731155889169
  0.8717147170425172  0.6234141913878792  0.8750856808597974
  0.4876362541304433  0.9121647761453295  0.0993885166071322
  0.9283267520325239  0.4029381270832015  0.7685783385358728
  0.0110225583045280  0.5555641950772106  0.4874703886341533
  0.2008491827789778  0.6202432024964805  0.9781281184274442
  0.5172844502344249  0.6219637918179470  0.6752259486166131
  0.6537615936476642  0.1907659077004411  0.8407729621027503
  0.7351696629652090  0.0122275628916171  0.2825804130186977
  0.2816826470099645  0.6085534242332362  0.6314960085596405
  0.4661394165122763  0.0759769797990525  0.1935991592792593
  0.0066590371189211  0.8062711400242143  0.8072643335130589
  0.8938177194655118  0.0267202591036994  0.0021074723989930
  0.8339170984954184  0.4532594973525370  0.5264577539302052
  0.0322034449829919  0.8353184201520355  0.1666053462474952
  0.2518080150262600  0.2267569625749938  0.3016580272110169
  0.4230345721723494  0.3259942922428394  0.3970838595758732
  0.9895402144732297  0.1608218174999036  0.9638457267655867
  0.4873998659975147  0.7608554430871044  0.2504349984983922
  0.4486160956721682  0.7035919259544303  0.0307740728512360
  0.8676491459666925  0.2655768096967185  0.4227382388310915
  0.7463994064176898  0.5140493733348960  0.0467001230668616
  0.9127385011644428  0.0786799830912454  0.7406414538427066
  0.9576546758956800  0.6756949049842258  0.2995338776081800
  0.3146201281365610  0.8247409049759751  0.3854539316987091
  0.4311779172864154  0.1915197737741895  0.7931922035792857
  0.9073853594094371  0.2701193123849495  0.6277739761762886
  0.3632671922308424  0.3557040442026496  0.1339141695510319
  0.7014391239391869  0.3981181919900112  0.8237448089071241
  0.6765012510016473  0.4921975497967961  0.2525145665154632
  0.8367096425963486  0.7442158364864709  0.5040954423709328
  0.8076701515833701  0.9021277982883656  0.6949401965655185
  0.1146257224464528  0.5251124395754676  0.3198848484242264
  0.5181558778309957  0.9708410761069752  0.8625260789225317
  0.2431494931691565  0.4164439164038279  0.9553597978722600
  0.6846526427388379  0.2140323631007564  0.6478510241985305
  0.0193568545487825  0.4856204611169341  0.9496596496233890
  0.7574847909453484  0.6746899581530816  0.2972522924428465
  0.7708337317009909  0.1651964771013107  0.1483717933318282
  0.1549850665966520  0.1266613929083078  0.8070641724367416
  0.9063390679914031  0.4611795538951142  0.3189141156938701
  0.9127382871252214  0.2978579317591225  0.1910757837676097
  0.2423409239775597  0.8421364568536640  0.1790866308776823
  0.0925030409045433  0.1592040297225447  0.1284192158920069
  0.6349589965004809  0.9873356979964004  0.5934556856306102
  0.1287165920222786  0.5092039672436046  0.6363441564839291
  0.4488148815670207  0.4656398898917183  0.5891778263365035
  0.3258603666401174  0.0210861390555211  0.8199528313368876
  0.0082732786026347  0.9373983268621441  0.6034652795843971
  0.1712011131446914  0.0067408183138426  0.4726880890294533
  0.6734298983085886  0.8325467527378513  0.3734523937169181
  0.9378857163588094  0.1320958291261912  0.3015656941879218
  0.6241001068780072  0.3013827279136745  0.1682138515339840
  0.9463353975345411  0.6151324620282967  0.7086217513172181
  0.3758028694741580  0.0885882110228483  0.3807305445018039
  0.1525392334798368  0.6900228159652266  0.4313584302372813
  0.3261131742451275  0.8717349050935654  0.9960954216327390
  0.4054035346109571  0.5995750547394830  0.8746391362942467
  0.3054679437250064  0.6258733933244361  0.3065740100021805
  0.6153143102540740  0.5829570032291006  0.8895753415432320
  0.7064716185451976  0.9928765164008938  0.8746743524467190
  0.4875895051215999  0.9248036812369386  0.4312702952735345
  0.2966160429612092  0.2130044750831933  0.9882307740375593
  0.5699522796036719  0.1598676747061528  0.3377480211717366
  0.6358184236235307  0.4265939473799238  0.6161779417853119
  0.7178903335133395  0.1471291059243204  0.4501576425629136
  0.7126238205448751  0.8254591125789501  0.1523208896524005
  0.2802781499007443  0.4684169992088802  0.4489678093642253
  0.4417232564365566  0.4182778472846023  0.8263492370946730
  0.2490374792938862  0.4883327137718538  0.8166384788855088
 
 -0.28378989E-02  0.92345713E-03 -0.57206179E-03
  0.19104709E-02  0.41499659E-03  0.11590658E-02
  0.30018975E-03 -0.29461557E-02 -0.39647425E-02
 -0.19919102E-02 -0.40571324E-03 -0.18329776E-03
  0.34983644E-02  0.19829360E-02  0.26254638E-03
 -0.20829798E-02 -0.68035622E-04  0.12183264E-02
 -0.94636315E-03  0.18480216E-02  0.47264789E-03
  0.16410525E-02  0.46041742E-03  0.40858241E-03
  0.93854506E-04  0.56669348E-03  0.10731469E-02
 -0.75345305E-03 -0.10594917E-02  0.10881686E-03
  0.51154775E-03  0.20635684E-02  0.44677903E-04
  0.48141198E-03 -0.20347742E-02 -0.75510483E-03
  0.11278387E-02 -0.25652861E-02  0.39626946E-02
 -0.11496541E-02 -0.10742269E-02  0.79520635E-03
 -0.86402250E-03 -0.91754764E-03 -0.16560295E-03
 -0.14510021E-02 -0.19675642E-02 -0.93007829E-03
 -0.29034445E-02 -0.11435135E-02 -0.75678473E-03
 -0.20598381E-02  0.41022142E-03  0.11691404E-02
  0.66289119E-03  0.47908673E-02 -0.14539750E-02
  0.20082625E-02 -0.19540551E-02  0.37506696E-02
 -0.74888661E-03 -0.90587848E-03  0.22927953E-02
 -0.52526351E-03 -0.14047806E-03 -0.22275661E-02
  0.18417503E-02  0.16939576E-02  0.16858476E-03
 -0.25266243E-02  0.36061876E-03  0.12359882E-02
 -0.13808506E-02 -0.18539291E-02 -0.87844750E-03
  0.44230193E-03  0.52013588E-04 -0.47112772E-02
  0.44504125E-03  0.69692405E-03  0.22889716E-03
 -0.20020023E-02 -0.83109869E-03 -0.17624959E-04
 -0.15738789E-02 -0.73953673E-04 -0.46531718E-03
  0.32764151E-02  0.18567759E-02  0.19269317E-02
  0.40140043E-03 -0.28772887E-02  0.11947626E-02
  0.94789458E-03 -0.10445219E-02  0.15399639E-02
 -0.18523726E-02  0.29989194E-02 -0.13139676E-02
  0.15628846E-02 -0.18218377E-02 -0.13735179E-03
  0.91211446E-03  0.20643524E-02 -0.98020091E-03
  0.10248765E-02  0.13349882E-02 -0.17214319E-02
 -0.27312463E-02 -0.93199920E-03  0.35924146E-02
  0.23966584E-02  0.76683874E-03 -0.37419688E-03
 -0.21058854E-02 -0.55732357E-03 -0.14552491E-02
 -0.53876611E-02 -0.21714447E-02  0.86747989E-03
 -0.10610200E-02  0.94809386E-03  0.13253871E-02
 -0.50148318E-03 -0.38302345E-02 -0.11976864E-02
  0.17433898E-02  0.72271665E-03 -0.42832435E-02
 -0.15576192E-02 -0.89860186E-03 -0.29725343E-02
 -0.71971069E-03 -0.29195599E-03  0.50117254E-03
 -0.76856524E-04  0.98822960E-03 -0.21938895E-02
 -0.12925656E-03 -0.20627187E-02  0.16071281E-02
  0.16388463E-03 -0.12328360E-02  0.31602540E-02
  0.20954461E-02  0.26776367E-03  0.17045907E-03
  0.30430607E-03  0.44752573E-03 -0.74803684E-04
  0.40701959E-02 -0.54042098E-03 -0.13873308E-02
  0.22818884E-03 -0.23084109E-02 -0.88881288E-03
 -0.47816959E-03 -0.17726260E-02 -0.52681691E-02
 -0.55374443E-03  0.29890670E-02  0.20974015E-02
 -0.77799737E-04  0.88902259E-03  0.56615867E-03
 -0.46311077E-03  0.34650492E-02 -0.21348924E-03
 -0.14619880E-02 -0.11735956E-02 -0.15007409E-02
 -0.14674110E-02 -0.37680730E-03  0.20758156E-02
  0.10580791E-02  0.18290007E-02  0.18354662E-02
  0.10364636E-02  0.10581099E-02 -0.16032852E-02
  0.31743145E-02  0.90064723E-03 -0.49115573E-04
 -0.15789686E-02 -0.23908764E-02  0.35551294E-02
  0.22271891E-03 -0.17971086E-02 -0.13466234E-02
  0.43638386E-02  0.17014381E-02  0.12125769E-02
  0.81149755E-03 -0.24677881E-02  0.24778768E-02
 -0.24287353E-03 -0.12137335E-03 -0.13387600E-02
 -0.80236893E-03 -0.24799186E-02  0.33574767E-02
  0.57924011E-03  0.65617767E-03 -0.18788863E-02
 -0.23315720E-02  0.15603380E-03  0.70919349E-03
  0.14616121E-02 -0.28428774E-02  0.26174048E-02
  0.12677158E-02 -0.20419357E-02 -0.72020428E-03
 -0.61453502E-03 -0.26542427E-02  0.32768808E-02
  0.12655164E-02 -0.16132232E-02  0.21103654E-02
 -0.37974541E-04  0.30538826E-03  0.22681647E-02
 -0.29629673E-02 -0.80736044E-03 -0.30959861E-03
 -0.13631041E-02  0.31677789E-02  0.20051006E-02
  0.13420415E-02 -0.19674754E-02 -0.13312897E-02
  0.17434526E-02  0.23916538E-02 -0.65823005E-03
 -0.44692660E-03 -0.87386134E-03 -0.12750654E-02
  0.13714686E-02 -0.85444731E-03 -0.53537574E-03
 -0.20676111E-02 -0.20692435E-03 -0.24513054E-03
  0.19840155E-02 -0.42915426E-03 -0.21499912E-02
 -0.19357664E-02 -0.15419199E-03 -0.31949427E-02
  0.14010370E-02  0.49743621E-02 -0.16191265E-02
 -0.15875018E-02 -0.38787138E-02 -0.14241531E-02
  0.18964004E-02 -0.14289990E-03  0.15147376E-02
 -0.65545028E-03  0.68183890E-03 -0.71553037E-03
  0.16241005E-02  0.57408941E-03  0.30930324E-03
  0.12787110E-02  0.24327657E-02 -0.12411435E-02
  0.23188779E-02  0.18137703E-02  0.98177446E-03
  0.21304828E-03 -0.36110067E-03  0.77904828E-03
 -0.26419867E-02 -0.83523483E-03  0.90902032E-03
  0.68638003E-03  0.17686143E-02 -0.93918459E-03
  0.26704200E-02  0.63430306E-03 -0.31411436E-03
  0.40061643E-03  0.19894648E-02 -0.18029377E-02
 -0.23101515E-02  0.14060057E-02 -0.22558004E-03
 -0.16856839E-02 -0.10256429E-02 -0.19242978E-02
 -0.15070210E-03 -0.22194797E-02  0.13587577E-02
  0.12422609E-02  0.15829320E-03 -0.17751512E-03
  0.25210577E-03 -0.30293713E-04  0.48568686E-03
 -0.17425011E-02  0.17083824E-03  0.15376058E-02
  0.98908427E-03  0.98568123E-03  0.22541376E-03
  0.18564560E-02  0.38784276E-03 -0.12662540E-02
 -0.23463575E-02  0.29193044E-02  0.50621827E-03
 -0.20756238E-02  0.91234512E-03  0.18130098E-02
 -0.22451085E-02 -0.25784413E-02 -0.36655070E-03
  0.26001103E-02 -0.79454026E-03 -0.30417984E-03
  0.13547937E-02 -0.13312944E-02 -0.12123490E-02
 -0.67427546E-03  0.16356025E-02 -0.88507894E-03
  0.24885071E-03  0.77129724E-03 -0.20547946E-02
  0.62669519E-04  0.17783658E-02  0.18322420E-02
 -0.71266773E-03  0.18605472E-02 -0.20898902E-02
  0.42407187E-03 -0.50085609E-03 -0.88946841E-04
 -0.93782985E-03  0.20742019E-02  0.77510863E-03
 -0.11579364E-02  0.70286362E-03 -0.54243753E-03
 -0.24586971E-03 -0.71323278E-03 -0.97205020E-03
  0.54498212E-03  0.25666696E-02  0.76263371E-03
  0.19680238E-03  0.15432149E-02 -0.34429685E-03
  0.13676392E-02 -0.96108501E-03  0.19569050E-03
 -0.12666681E-02  0.62993763E-03  0.24990618E-03
 -0.14284488E-03  0.10300393E-02  0.15185248E-02
  0.15823015E-03  0.86579129E-03  0.63388543E-03
 -0.23851237E-02 -0.14139783E-02  0.41346265E-03
 -0.38966480E-02 -0.22542445E-02 -0.21443007E-02
  0.70303957E-04  0.27952746E-03  0.21310609E-02
  0.16324304E-02  0.99725204E-03  0.15158220E-03
  0.84629245E-03  0.22375707E-02  0.19860199E-02
  0.69340135E-03  0.65434098E-03 -0.52071832E-03
  0.15451037E-02 -0.22606175E-03  0.17493016E-02
 -0.18768862E-02  0.63164657E-03  0.54742996E-03
 -0.40781621E-03  0.28860983E-02 -0.31735480E-03
 -0.49436285E-03  0.21716469E-02 -0.87082240E-03
  0.77584060E-03  0.21599080E-03  0.42910312E-03
  0.55356158E-03 -0.10423160E-02  0.13205473E-02
  0.75661481E-03 -0.95091380E-03 -0.11660578E-02
 -0.16317369E-02 -0.54139489E-03 -0.88028759E-03
  0.10826830E-02 -0.98900440E-03 -0.10525294E-03
  0.28319652E-02 -0.37986665E-03  0.86245137E-04
 -0.42806249E-03 -0.15943112E-02 -0.28598641E-03
  0.44898204E-04  0.72722596E-03  0.19707009E-02
  0.58967230E-03 -0.20549306E-02  0.12402013E-02
  0.20043755E-02  0.49681527E-03  0.11047659E-02
  0.97600811E-03  0.24476524E-02 -0.49863627E-04
  0.19586905E-02  0.12562290E-02 -0.51624098E-03
 -0.21209233E-02  0.10777817E-02 -0.69227131E-03
  0.24860088E-04 -0.10344414E-02 -0.73535598E-03
 -0.57135058E-03 -0.40397221E-02 -0.56518950E-03
 -0.22444798E-02 -0.61536047E-03 -0.62993032E-03
 -0.29484095E-04  0.55623586E-03  0.22099623E-02
 -0.11778235E-02  0.14446645E-02 -0.12253631E-02
  0.36587980E-02 -0.10318827E-02  0.30626614E-03
 -0.41577067E-03  0.12510917E-02  0.10624062E-02
 -0.90380530E-03 -0.33880893E-03  0.87468640E-03
 -0.20019500E-02  0.21415472E-02  0.57932893E-04
 -0.98068898E-03 -0.17383832E-03  0.93680039E-03
 -0.75381408E-03 -0.21868230E-02  0.78028796E-03
 -0.15594765E-02  0.83520452E-03 -0.15670314E-02
  0.15278976E-02  0.57959369E-03 -0.14790662E-02
 -0.11635753E-02  0.21571129E-03 -0.37448053E-02
  0.24765859E-02 -0.29524479E-02  0.22209401E-03
  0.19440574E-02 -0.20938377E-02 -0.14537989E-02
  0.80756327E-03 -0.13328255E-03 -0.13831448E-03
  0.23309432E-03  0.58687558E-03 -0.22286768E-02
  0.23939419E-02  0.31929133E-02 -0.40973004E-02
  0.14408405E-02  0.26117799E-02 -0.13681824E-03
 -0.24350753E-04 -0.15301319E-02  0.10885817E-04
  0.10583240E-02 -0.36064594E-02 -0.71070651E-03
 -0.61066552E-03 -0.18111062E-03 -0.40591251E-03
  0.10937101E-02 -0.20196543E-03  0.50783995E-03
 -0.13451574E-02  0.15653346E-02  0.89801854E-03
 -0.52640216E-03  0.43379044E-03  0.12106424E-02
 -0.19469500E-02 -0.23516310E-03  0.15273214E-02
 -0.46788906E-03 -0.14677439E-02  0.83808996E-03
 -0.36858017E-03 -0.45357206E-03 -0.18172189E-02
 -0.16415249E-03 -0.58935459E-03 -0.10619923E-03
 -0.30101429E-03 -0.16487334E-02  0.23592174E-02
 -0.15136593E-04  0.31912729E-02 -0.27653868E-02
  0.12843164E-02 -0.10016055E-02 -0.13297224E-02
 -0.22255127E-02 -0.16941977E-02  0.10271184E-02
  0.13453394E-02 -0.15551200E-02  0.36332260E-04
  0.22419400E-02 -0.53557127E-03  0.10738656E-02
 -0.14552359E-02 -0.74398265E-03  0.78692891E-03
  0.64550310E-03  0.99010587E-03  0.19559292E-03
  0.11693981E-03 -0.83138925E-04  0.12629587E-02
  0.68935960E-03 -0.65358360E-03 -0.60121286E-03
 -0.19300124E-02 -0.55506667E-03  0.14223828E-02
 -0.30359947E-03 -0.94124353E-03  0.75486052E-03
  0.55081390E-03 -0.12939543E-02  0.10836572E-02
  0.83024404E-03  0.11012409E-02  0.22782691E-02
 -0.34645434E-03  0.17328710E-02 -0.86828277E-03
  0.28608500E-03 -0.10446724E-02  0.17534341E-02
 -0.33505337E-03 -0.20557262E-02  0.11581667E-02
  0.44887699E-03  0.11678151E-02 -0.53572532E-03
 -0.17739333E-03 -0.15530291E-02  0.12307218E-02
  0.19812745E-02 -0.95574353E-03  0.14240307E-02
 -0.37842909E-02  0.93407441E-03 -0.65391403E-03
 -0.19200418E-04  0.46774553E-03  0.64687562E-03
  0.12360923E-03  0.13139931E-02  0.34710749E-03
 -0.47376720E-03  0.49305944E-03  0.80122785E-03
  0.43845478E-03 -0.51216325E-04  0.15837477E-02
 
           1
   3.00000000000000     
  0.10000000E+01  0.00000000E+00  0.00000000E+00  0.00000000E+00
  0.59188378E+00  0.15053151E-01  0.12774422E+00
  0.81402805E+00  0.75386992E+00  0.82583002E+00
  0.37352080E-01  0.43876977E+00  0.23897520E+00
  0.18698621E+00  0.62162181E+00  0.21752384E+00
  0.77158698E+00  0.44345032E-01  0.68398095E+00
  0.91957378E+00  0.23127591E+00  0.77664654E+00
  0.36946035E+00  0.17495063E+00  0.50202527E+00
  0.23572731E+00  0.23090252E+00  0.14365652E+00
  0.23502329E+00  0.82202743E+00  0.89343920E+00
  0.63100417E+00  0.91022191E+00  0.25090145E+00
  0.13571326E+00  0.94801298E+00  0.13707745E+00
  0.13715713E+00  0.87558421E+00  0.56008579E+00
  0.99342174E+00  0.67067176E+00  0.52505675E-01
  0.58458992E+00  0.65533379E+00  0.29419164E+00
  0.43990685E+00  0.13221901E+00  0.52712969E-01
  0.92554915E+00  0.15501308E+00  0.14861092E+00
  0.13480788E+00  0.73132259E+00  0.77171040E+00
  0.27082592E+00  0.35820624E+00  0.55141857E+00
  0.75475134E+00  0.86936714E+00  0.55827026E+00
  0.54873714E+00  0.78084749E+00  0.11511849E+00
  0.49629642E+00  0.25398043E+00  0.57816679E+00
  0.79624207E+00  0.30426650E+00  0.96940950E-01
  0.10426803E+00  0.67248462E-01  0.93434244E+00
  0.11481655E+00  0.98484782E-01  0.57737312E+00
  0.53858343E+00  0.29484027E+00  0.82114448E+00
  0.37357980E+00  0.56794044E+00  0.52553301E+00
  0.75313030E+00  0.66239166E-01  0.30505650E-01
  0.64669313E+00  0.62229253E+00  0.17823276E+00
  0.51070761E+00  0.83817627E+00  0.55072110E+00
  0.23664407E+00  0.79329424E-01  0.12626085E-04
  0.50352439E+00  0.74090260E-01  0.45213380E+00
  0.69611903E+00  0.19225835E+00  0.98678446E+00
  0.39166481E+00  0.53531802E+00  0.72449252E+00
  0.63134980E+00  0.87865952E+00  0.82358447E+00
  0.43728749E+00  0.92905516E+00  0.72774434E+00
  0.94793852E+00  0.38870963E+00  0.45989585E+00
  0.86036967E+00  0.63125474E+00  0.19306000E+00
  0.78754703E+00  0.43165633E+00  0.68539142E+00
  0.97474224E+00  0.49287766E+00  0.62222081E+00
  0.46237721E+00  0.84164977E+00  0.92517079E+00
  0.80551059E+00  0.81741097E-01  0.54538040E+00
  0.70357228E+00  0.89760521E+00  0.65016052E-02
  0.95787190E-01  0.23141281E-01  0.69917639E+00
  0.48063012E+00  0.25280261E+00  0.12846811E+00
  0.35950181E+00  0.17125809E-01  0.97564029E+00
  0.65586288E+00  0.33680796E+00  0.14531016E-01
  0.23076291E-01  0.63119250E+00  0.92338286E+00
  0.78134048E+00  0.65584100E+00  0.99111814E+00
  0.92452445E+00  0.16614546E+00  0.52414917E+00
  0.68266476E+00  0.99419901E+00  0.41591720E+00
  0.69090815E+00  0.71132073E+00  0.89395461E+00
  0.60946128E-01  0.23684590E+00  0.78632599E+00
  0.23170331E+00  0.23277121E+00  0.49867304E+00
  0.54703370E+00  0.26754571E+00  0.43601180E+00
  0.13922253E+00  0.28892316E+00  0.68418583E+00
  0.60936868E+00  0.70817532E+00  0.42265553E+00
  0.22397877E+00  0.40009377E+00  0.68924756E+00
  0.14613995E+00  0.82844793E+00  0.39912394E+00
  0.20390773E+00  0.93427420E+00  0.81957319E+00
  0.57519073E+00  0.87371792E+00  0.67079323E+00
  0.35014041E+00  0.31019022E+00  0.74826371E+00
  0.46771495E+00  0.92457934E+00  0.24678800E+00
  0.62195376E+00  0.82447844E-01  0.71100590E+00
  0.61145970E+00  0.80127744E+00  0.94901065E+00
  0.86286390E+00  0.72875667E+00  0.87635465E-01
  0.57931930E+00  0.31621059E+00  0.68414599E+00
  0.76195086E+00  0.26377572E+00  0.77913948E+00
  0.13628746E+00  0.43286749E+00  0.50460731E+00
  0.63332849E+00  0.52279010E+00  0.73418925E+00
  0.65144625E-01  0.61230138E+00  0.78975285E+00
  0.28336312E-01  0.29510419E+00  0.91554861E-01
  0.64631688E+00  0.52398298E+00  0.40151894E+00
  0.50752285E-01  0.33403441E+00  0.58165365E+00
  0.34670856E+00  0.93971784E+00  0.48919220E+00
  0.40541042E+00  0.43262392E+00  0.98999132E+00
  0.48976301E+00  0.13970585E+00  0.66282892E+00
  0.59509989E+00  0.67490518E+00  0.28035567E-01
  0.68021828E-01  0.96208781E+00  0.83977364E+00
  0.85565890E+00  0.79672897E+00  0.33408918E+00
  0.38978552E+00  0.34154518E+00  0.61453139E+00
  0.42238920E+00  0.21255545E+00  0.28429716E+00
  0.12250468E-01  0.98519842E+00  0.44720429E+00
  0.51503516E+00  0.68859965E+00  0.81576776E+00
  0.53201436E+00  0.43524364E+00  0.23658468E+00
  0.22278053E+00  0.27954884E+00  0.86216275E+00
  0.40981993E+00  0.62540724E+00  0.17058705E+00
  0.74208174E+00  0.32170489E+00  0.50559169E+00
  0.27004575E+00  0.68109735E+00  0.85129691E+00
  0.19529403E+00  0.37977285E+00  0.28746830E+00
  0.70792327E+00  0.66410834E+00  0.53244786E+00
  0.96365341E+00  0.77427297E+00  0.66225455E+00
  0.87501105E+00  0.59413312E+00  0.40592574E+00
  0.84155195E+00  0.43518313E+00  0.90309209E+00
  0.95670650E-01  0.16381743E+00  0.28485070E+00
  0.84147486E+00  0.48931293E+00  0.17147867E+00
  0.86589490E+00  0.96681077E+00  0.84828853E+00
  0.35610524E+00  0.48362060E+00  0.24153352E+00
  0.83415081E-01  0.46187936E+00  0.80846622E+00
  0.13321452E+00  0.73389413E+00  0.76604491E-01
  0.13412661E+00  0.76261887E+00  0.26148757E+00
  0.22582034E+00  0.17797104E+00  0.64292906E+00
  0.15269017E+00  0.37642952E+00  0.13493273E+00
  0.10111176E+00  0.82909014E+00  0.95868038E+00
  0.57217826E+00  0.96484118E-01  0.99943989E+00
  0.75443634E+00  0.58831959E+00  0.70598236E+00
  0.83263487E+00  0.95985005E+00  0.45757116E+00
  0.82513502E+00  0.83763400E+00  0.96146144E+00
  0.37111105E+00  0.84114298E+00  0.60183634E+00
  0.86425890E+00  0.28599856E+00  0.96621227E+00
  0.66889257E+00  0.75851364E+00  0.65169638E+00
  0.31189304E+00  0.93978459E+00  0.28172690E+00
  0.40301628E+00  0.79994235E+00  0.78872061E+00
  0.98228220E+00  0.97034110E+00  0.27730582E+00
  0.38306154E+00  0.60789871E-01  0.60944974E+00
  0.22275633E+00  0.95393331E+00  0.67159797E+00
  0.99200664E+00  0.53760146E+00  0.12159885E+00
  0.49851767E+00  0.55154161E+00  0.35802491E+00
  0.66328563E-01  0.21087286E+00  0.48541300E+00
  0.27982421E+00  0.56478946E-01  0.13723506E+00
  0.13177695E+00  0.99854767E+00  0.27667462E+00
  0.52643371E+00  0.52565073E+00  0.11161439E+00
  0.48544530E-01  0.31733713E+00  0.33195889E+00
  0.27405101E+00  0.73048566E+00  0.52468619E+00
  0.64277419E+00  0.36662332E+00  0.38892580E+00
  0.30062342E+00  0.53603966E+00  0.10257095E+00
  0.71666313E-01  0.29529576E+00  0.92487815E+00
  0.47488316E+00  0.72228078E+00  0.46509283E+00
  0.86512339E+00  0.85345554E+00  0.17803888E+00
  0.11249888E+00  0.74394694E+00  0.63024469E+00
  0.99657768E+00  0.83303755E+00  0.42247710E+00
  0.51344104E+00  0.31496500E+00  0.98222128E+00
  0.87163397E+00  0.62376889E+00  0.87494345E+00
  0.48776298E+00  0.91220005E+00  0.99458604E-01
  0.92841717E+00  0.40276788E+00  0.76879403E+00
  0.11146139E-01  0.55540888E+00  0.48727993E+00
  0.20058267E+00  0.62015477E+00  0.97798434E+00
  0.51746129E+00  0.62180225E+00  0.67520876E+00
  0.65422415E+00  0.19070386E+00  0.84078705E+00
  0.73509975E+00  0.11967158E-01  0.28253370E+00
  0.28168998E+00  0.60867220E+00  0.63181789E+00
  0.46623573E+00  0.75641340E-01  0.19380173E+00
  0.69864193E-02  0.80635229E+00  0.80744478E+00
  0.89397713E+00  0.27120043E-01  0.20993280E-02
  0.83423702E+00  0.45346468E+00  0.52637343E+00
  0.31857027E-01  0.83549446E+00  0.16649227E+00
  0.25181208E+00  0.22658800E+00  0.30153792E+00
  0.42294125E+00  0.32533447E+00  0.39699155E+00
  0.98917362E+00  0.16072131E+00  0.96374284E+00
  0.48739505E+00  0.76094630E+00  0.25079596E+00
  0.44842372E+00  0.70382789E+00  0.30573930E-01
  0.86824675E+00  0.26540827E+00  0.42278826E+00
  0.74633150E+00  0.51425372E+00  0.46873650E-01
  0.91259088E+00  0.78624644E-01  0.74078432E+00
  0.95732769E+00  0.67604469E+00  0.29954334E+00