Ge3 Sb6 Te12                            
   1.00000000000000     
     2.1498893189431576   -3.7237175310591990    0.0000000000000000
     2.1498893189431576    3.7237175310591990    0.0000000000000000
     0.0000000000000003    0.0000000000000002   42.2509710960793967
   Ge   Sb   Te
     3     6    12
Direct
  0.3333333333333357  0.6666666666666643  0.2378413649644551
  0.0000000000000000  0.0000000000000000  0.5711746982977840
  0.6666666666666643  0.3333333333333357  0.9045080316311197
  0.3333333333333357  0.6666666666666643  0.0927525697863229
  0.6666666666666643  0.3333333333333357  0.3310547314398152
  0.0000000000000000  0.0000000000000000  0.4260859031196515
  0.3333333333333357  0.6666666666666643  0.6643880647731442
  0.6666666666666643  0.3333333333333357  0.7594192364529873
  0.0000000000000000  0.0000000000000000  0.9977213981064799
  0.6666666666666643  0.3333333333333357  0.2043398973902397
  0.0000000000000000  0.0000000000000000  0.1333038537643597
  0.6666666666666643  0.3333333333333357  0.0443576551990556
  0.0000000000000000  0.0000000000000000  0.2896822607890901
  0.3333333333333357  0.6666666666666643  0.5376732307235754
  0.6666666666666643  0.3333333333333357  0.4666371870976881
  0.3333333333333357  0.6666666666666643  0.3776909885323912
  0.6666666666666643  0.3333333333333357  0.6230155941224257
  0.0000000000000000  0.0000000000000000  0.8710065640569111
  0.3333333333333357  0.6666666666666643  0.7999705204310240
  0.0000000000000000  0.0000000000000000  0.7110243218657267
  0.3333333333333357  0.6666666666666643  0.9563489274557543
 
  0.00000000E+00  0.00000000E+00  0.00000000E+00
  0.00000000E+00  0.00000000E+00  0.00000000E+00
  0.00000000E+00  0.00000000E+00  0.00000000E+00
  0.00000000E+00  0.00000000E+00  0.00000000E+00
  0.00000000E+00  0.00000000E+00  0.00000000E+00
  0.00000000E+00  0.00000000E+00  0.00000000E+00
  0.00000000E+00  0.00000000E+00  0.00000000E+00
  0.00000000E+00  0.00000000E+00  0.00000000E+00
  0.00000000E+00  0.00000000E+00  0.00000000E+00
  0.00000000E+00  0.00000000E+00  0.00000000E+00
  0.00000000E+00  0.00000000E+00  0.00000000E+00
  0.00000000E+00  0.00000000E+00  0.00000000E+00
  0.00000000E+00  0.00000000E+00  0.00000000E+00
  0.00000000E+00  0.00000000E+00  0.00000000E+00
  0.00000000E+00  0.00000000E+00  0.00000000E+00
  0.00000000E+00  0.00000000E+00  0.00000000E+00
  0.00000000E+00  0.00000000E+00  0.00000000E+00
  0.00000000E+00  0.00000000E+00  0.00000000E+00
  0.00000000E+00  0.00000000E+00  0.00000000E+00
  0.00000000E+00  0.00000000E+00  0.00000000E+00
  0.00000000E+00  0.00000000E+00  0.00000000E+00
