Amorphous Sb                            
   1.00000000000000     
    19.6671579077798064    0.0000000000000000    0.0000000000000000
     0.0000000000000000   19.6671579077798064    0.0000000000000000
     0.0000000000000000    0.0000000000000000   19.6671579077798064
   Ag   Sb
    45   255
Direct
  0.0623540589098290  0.4711156553848029  0.4607247087170270
  0.7249051518578007  0.1417754409799618  0.7558546928665953
  0.3511957268350585  0.6438280591727746  0.9988563603153554
  0.9206977815311158  0.4545384082390355  0.2559440152703856
  0.0258535908588356  0.0355140547544916  0.5661650401249017
  0.5157004327475130  0.4817528134729459  0.1509422940352416
  0.1925061526609683  0.7120814889926262  0.8765415401113917
  0.0750671062615018  0.6131395202827935  0.5481968768283990
  0.4828571082963777  0.1132684070489464  0.4641223177057282
  0.6578536991877245  0.6283286984620264  0.8747757038713700
  0.6129631955736929  0.9120691395753386  0.6223959576775203
  0.3691103952294316  0.1721521139195636  0.9391579538243161
  0.9776983279068538  0.5852264831471919  0.4234118530532990
  0.5387691529370541  0.2205234429302346  0.3941591810236584
  0.1124317968183215  0.7755168993975265  0.5095142190357786
  0.2472090851180306  0.1721740069900720  0.8578407115655298
  0.2970680650940025  0.4807049514059357  0.4925277136637416
  0.9853891974586584  0.5542880265708690  0.9840793930734784
  0.5591044096344081  0.4697898009936406  0.5294702005204974
  0.1388348021014754  0.8560812032131492  0.9007988485258897
  0.2105999029582080  0.2189506799671040  0.5653822887777815
  0.2103955430436206  0.4187651025100703  0.2535490647728862
  0.4211776090439736  0.5879268399017699  0.2014216018466202
  0.9532676314588883  0.4308590390140641  0.0546921865360746
  0.6250561987412454  0.1409841720363866  0.5401259302093822
  0.4929396750716564  0.1206780690436801  0.3005381300195240
  0.2414052295574335  0.1369433298109460  0.0892386000619154
  0.8551895776997795  0.2258616768723790  0.8801014026728290
  0.1681614137096936  0.0334305407556434  0.5729049749832945
  0.2926945540909801  0.5230150521523790  0.1953378439079544
  0.8863059298758406  0.7568865356945681  0.3192416864342993
  0.5374677969394688  0.0021275470716633  0.7853431579111675
  0.6305723815736893  0.5885258967851246  0.4473249098188551
  0.1826928697501145  0.5649768259912188  0.3048807700468438
  0.2657120991702900  0.0954093973356960  0.2207388105236277
  0.8246979710540456  0.7836208944687729  0.2044477705447850
  0.4016331181185839  0.3987874418812337  0.8527837839733966
  0.3815516975485591  0.5066236422248641  0.9377179833073852
  0.1460423676564739  0.5367886590486058  0.1776852702222877
  0.1259002271725004  0.7501023230207474  0.9910078892398517
  0.2074449652269396  0.7894607584971456  0.2859180868116108
  0.0577054133666861  0.4204894626268343  0.9574379177812700
  0.2746976008374000  0.3433887348955101  0.5301443520967309
  0.1102414140220125  0.0978314285450924  0.8379248609189192
  0.2799339440873795  0.6631518007191989  0.2251134867938925
  0.6637235022624257  0.3544363666979962  0.5602615827892607
  0.8984984223224105  0.0691540200541026  0.3000145764065573
  0.6627831184071409  0.5081781943728726  0.6206126322052691
  0.7682346787419863  0.3402754693365152  0.2811780321308713
  0.3865647309905193  0.7113566915224394  0.1384490365693820
  0.9616802905138270  0.9407499377018311  0.1387735375661640
  0.6051238888273861  0.5871545773385589  0.7454725165376651
  0.2016150016789144  0.0017457614082513  0.3187407021280143
  0.6112161411256022  0.0881287213326818  0.6680881678898588
  0.8934588900156648  0.9769256572552473  0.5898413393620753
  0.2022575659812992  0.3501531576588931  0.1186965187701400
  0.9326234073302975  0.8615738785270525  0.4282807899181527
  0.9660521017077810  0.6044931465629102  0.2771745321925541
  0.0865067702429404  0.3775698993782132  0.7393414330358677
  0.8740780271206676  0.1731191012254955  0.0503502625371474
  0.2459506804590673  0.2694307183278116  0.9982860479056838
  0.0278627027977868  0.4997854709845577  0.8317513693227285
  0.0632949619158725  0.4868324143571420  0.3208440440079158
  0.1492257709886802  0.6255654548099193  0.4249353831431840
  0.9801803278577003  0.3133293241401590  0.5614939775867539
  0.3239894282669571  0.4677417942267571  0.6305213149457037
  0.2333946539538236  0.6400826140957520  0.7587430526564098
  0.0685922323491078  0.2901070978836454  0.4246572014110873
  0.2176753838289795  0.8989055721221351  0.4877888608513658
  0.8589761118029364  0.6676349006022904  0.4251819797262909
  0.9807911965413694  0.2561730572273663  0.2126657218740547
  0.1551955634863522  0.4719328138169274  0.0445699162568844
  0.3725385939469890  0.2007786107567820  0.7827297731141049
  0.6300693844657201  0.4930801248018333  0.0651478776203446
  0.0846350474664522  0.6732145006598953  0.1069700042570543
  0.0953853247467552  0.0615532425267197  0.6959943459300988
  0.6090352707992769  0.3350738892966063  0.0190222827821836
  0.7653357893498823  0.8181924575695187  0.7360352217984334
  0.5361425092336859  0.5233567983046293  0.3625155250173128
  0.5380030540108925  0.1941983232517235  0.1857249816795973
  0.8181738304074623  0.2150245192002195  0.2006882333082733
  0.4121824811361245  0.3331606007165656  0.7222215391843169
  0.1164436469805748  0.6024178578361468  0.9617832634933997
  0.6887580903577004  0.4807328927129471  0.9226656861275754
  0.5226261306411835  0.1633397649453513  0.7573762928258283
  0.1855384543989864  0.6980541436891839  0.6048931787841368
  0.3369745014058070  0.6431492946462435  0.3591783965577405
  0.6702016460461891  0.9264265562503594  0.0469416911189056
  0.1782325294317754  0.3965646993467879  0.4085043228259169
  0.7386407883450223  0.5288428729617131  0.7848048872972297
  0.4095006661889337  0.0134102622694875  0.3940581446166169
  0.3972238185858217  0.2193984289286803  0.4471752319263784
  0.8711171957964484  0.4376988101454190  0.8489320472959283
  0.3140880856165195  0.8919375895555147  0.9446524137394201
  0.3846300058696028  0.3639440698401568  0.4265948315694733
  0.5919114716887813  0.7893802611274963  0.2996592533664826
  0.5658159198498567  0.9092337231914477  0.9310717255444754
  0.0736927854656245  0.6000241922981842  0.6973678099235653
  0.6229826127031663  0.0556270281753503  0.8809494470954319
  0.8556995781578219  0.5190445029095555  0.3702877513325548
  0.9682870883492227  0.3293874110075072  0.8704449946678258
  0.8966127189184818  0.3105211009319201  0.0060874292801747
  0.7996023583422522  0.3445984315783178  0.4262470553624634
  0.5956240054916163  0.8748152934572073  0.7525578428480845
  0.6196638201125587  0.7163579150051538  0.9833525789519149
  0.5115650493175521  0.4674716360230340  0.7638178856939057
  0.3361155743520745  0.0334279242389615  0.0994779106001261
  0.7569717400807688  0.3554939911003623  0.9987407346571644
  0.7221805471169154  0.4859330352373631  0.2900873705308569
  0.2818758876821119  0.3254332835384775  0.8479879293086073
  0.0722850652939059  0.8591831889464000  0.3776153182814372
  0.5897475980376546  0.3942604102670593  0.2594375582583037
  0.2709848817812603  0.7610833429909593  0.9847297485105379
  0.0394030635370817  0.0107654941596668  0.2773884429969343
  0.1101739504523286  0.2948970377102267  0.9290253593298667
  0.8919901534355916  0.5107487241477464  0.7166369909487931
  0.1121989367537453  0.9963534155791248  0.4381843583124485
  0.2974863757008502  0.3211048109328432  0.2994275560166304
  0.0446722777563897  0.2120445026395300  0.6483945323789676
  0.0374653398949487  0.6580948001195406  0.8445890495338817
  0.3074641142335165  0.4985086454560101  0.3480916482868678
  0.9768222143576438  0.1091257941817367  0.1445768895364123
  0.8449035595111221  0.2274358687887860  0.7299605788880271
  0.4708314624408073  0.5166625139072157  0.6241047466351860
  0.1276606410999014  0.6853847524682062  0.2511890658128144
  0.3615249152128474  0.8005135995973083  0.5076944469129477
  0.6371299442580804  0.7306818941541942  0.6888516477035429
  0.2751324189559328  0.6282089829210223  0.5085440968579426
  0.3645078730542690  0.5283833358213398  0.7882487900901517
  0.5600923627376341  0.1953990277748305  0.9852103489736371
  0.7958870993428725  0.1284417194302344  0.4723789900592102
  0.1572239421221390  0.1372308919661991  0.9689662457262413
  0.4318596802177846  0.5210695489903385  0.4774902812829566
  0.1180310916703617  0.2394905127455969  0.7940008973352214
  0.7032157515003313  0.9976524044390227  0.7561434216424887
  0.4847644619850675  0.4164582886010172  0.9759401465337940
  0.6010383877663340  0.3653163020749921  0.8569722445745841
  0.7283732506247785  0.2069835395179212  0.9794709062990752
  0.7675931588122044  0.3303003853172545  0.8422507106628190
  0.1684179685445835  0.4399290053192368  0.8537285680373302
  0.0932324886876326  0.8622601472377266  0.0688847503195132
  0.3877676548762138  0.8621795037349622  0.0844686156103840
  0.9195003039393457  0.4388089130793965  0.4895307260618315
  0.8589119057441692  0.9143833159443063  0.8205567047174734
  0.6974549275865859  0.6199687174990454  0.1123604974332984
  0.4699068601037109  0.8797606406732382  0.2007697921492347
  0.3828720472861606  0.5279249433693345  0.0789725382987881
  0.6738148197148889  0.2583788547631146  0.4456659181319205
  0.3611305752806998  0.9553725287847304  0.5376955788229263
  0.0132369417670707  0.1817122674145501  0.9636092259562157
  0.6531429931831647  0.9204864818042370  0.2093180768360624
  0.8161801621885579  0.6426757905186049  0.2567147156808327
  0.3717864513396986  0.1741754620227028  0.2881528369985282
  0.8129805487271455  0.9644740563474672  0.4611349584929951
  0.9533118773517338  0.8699202010757329  0.6878287636690655
  0.3532100479507809  0.2392236574714566  0.5899307430047859
  0.0457134423229516  0.4338893205588147  0.1635884750158585
  0.4687313103649561  0.3069411720932539  0.2921738128654195
  0.2975294541897996  0.9013565471726850  0.3598141464574787
  0.9927558038318161  0.9889783645731541  0.8618515276453412
  0.7508955595953177  0.8188705129054958  0.3276622157317361
  0.9400046516827381  0.3436229015055096  0.7141400249657686
  0.7778760775845370  0.8135562337432807  0.4789149721361288
  0.1744255804028125  0.9954223152974903  0.9244404731063585
  0.7207433457977293  0.3802702297056900  0.1409584806361198
  0.4398212252400082  0.1618709673636838  0.0748976677796316
  0.9787972612078194  0.1689597007852682  0.8004999486054604
  0.8443642636788498  0.6826265084201438  0.1026259596639056
  0.9222444909525125  0.6684065355761093  0.7106477307902663
  0.0200640411111435  0.8862022051604571  0.5476147368996646
  0.4451827467221133  0.8497839305335819  0.7365141940486158
  0.6985004116840487  0.3969975254591678  0.7277346317428398
  0.8209133706777579  0.0547551205389571  0.1621548382757252
  0.5696108312529915  0.6256747565528556  0.5747399705156844
  0.1059141501307496  0.1471157807229650  0.5093065601534592
  0.4962768588498406  0.8307553366163654  0.5747196507852587
  0.8166699256431098  0.4003702902284472  0.6344961251915977
  0.7327361528683709  0.6616709648428477  0.5060628050280973
  0.8744593732530687  0.9125948339785097  0.0075298780203195
  0.9559630340231152  0.7884363764493749  0.0991330342575681
  0.1637735675200993  0.4943402841269469  0.5553941575856199
  0.7405968780582498  0.7850170957348935  0.0300521039334835
  0.5622106657516406  0.3735553649691683  0.4083312869568843
  0.3088363980235952  0.7730146990982965  0.6507053346058063
  0.5635725298125190  0.8277114750085963  0.0854320426439268
  0.5589962016282646  0.2997993594717297  0.7173123226781722
  0.9687421403569745  0.5650957900944344  0.1318090711355218
  0.3567226567847647  0.0743552395485717  0.7023051308190419
  0.6991418029033948  0.2291939629454643  0.6500954025612871
  0.4841714298320864  0.7177366185985184  0.6916680691987430
  0.2281045375095564  0.0380697236818279  0.7756760246579180
  0.1204319851182946  0.8908994923000053  0.2144209710532977
  0.3081731274714148  0.9280192287730105  0.6736966376716412
  0.0415109202831232  0.7548410230892623  0.6584584662822458
  0.7545393567994175  0.9167204034144315  0.6200507956825518
  0.3233807367449948  0.0473248234449963  0.9486785122994235
  0.5149074182520366  0.9721759563758308  0.5044476780246061
  0.9003164260738677  0.9021616954953108  0.2808684121455496
  0.7597412684781055  0.9790488258269341  0.3161083202959622
  0.0093207158440919  0.4759757674020845  0.6264033137142171
  0.2226979899818573  0.1876514514570967  0.7036994827443102
  0.5451299953227809  0.7185821253100398  0.8318662069611925
  0.4437367721478044  0.8449728089880693  0.8860960140184072
  0.9128350535450784  0.1329985414120329  0.6298929097470780
  0.7940695872537218  0.9069515879086639  0.1361700240542204
  0.2525301549594132  0.5657104655165428  0.8995713827548423
  0.6782183743311098  0.6694695559318484  0.3283455894038916
  0.4272408950760537  0.6655390420717617  0.5265760068739762
  0.1461255395313580  0.0367214331763435  0.1567303382792228
  0.6737971672009555  0.0725722602556734  0.1934035824270571
  0.1362815196533695  0.3422620965128860  0.5973331310353138
  0.6753215393284957  0.9980716759268407  0.5121094704226643
  0.3505072356786030  0.3953516185111011  0.1481020453239654
  0.8906589704652756  0.5949807227762403  0.8789031844970984
  0.1867249939651228  0.5027344462473087  0.7116447502255792
  0.0216983295481117  0.7134415897898118  0.3741639467518827
  0.2489303808365716  0.8826239282921911  0.8103456614272956
  0.6868305794144727  0.8076528035915618  0.8664662233789782
  0.9481644638434475  0.1713635928905737  0.4806076561025749
  0.9905966056413642  0.8592693475185987  0.9384378581514675
  0.0773017098035571  0.9197075547870074  0.7505316772334010
  0.6764039711834372  0.7706867521324688  0.1709192438618379
  0.3239264245824386  0.7574450867193980  0.8152664768950165
  0.7662215270534762  0.6314808034852134  0.6498663105891794
  0.9153321338155795  0.0508400365994617  0.9700407403428546
  0.1135496813943225  0.1876226479105522  0.1321015457558307
  0.9549530204286762  0.0278601472290621  0.4333753061846705
  0.3972056167731242  0.3050597624879990  0.0260746099936623
  0.8037584095405473  0.5160582265027224  0.1515253043591918
  0.4011679518050787  0.9849427287423174  0.8141408938000803
  0.9480908870471559  0.3589453394322587  0.3584928405431791
  0.2256578336115589  0.7603578462151411  0.1350203480810725
  0.4809410085902684  0.6599730448347400  0.3350081632974213
  0.9737686521026800  0.7376751291601709  0.5209113301191592
  0.8747397153520619  0.3647127231442167  0.1665646548946683
  0.4349665634228659  0.3670718893743772  0.5610448528976841
  0.2275146340939773  0.9456121594398942  0.0663563711377213
  0.3650355493097064  0.6332317780973665  0.6607060352765818
  0.7625241753017584  0.0556503135116259  0.0164054347262191
  0.1772130868014516  0.1956385988964378  0.2725777373320102
  0.5238096845670321  0.0247342174712134  0.1709957306428580
  0.0043332363323952  0.7958074131153674  0.2397625574167485
  0.8968712985059775  0.0378805120815232  0.7487087294747615
  0.4675878469643628  0.1365221536575519  0.6078439497747715
  0.5309052817297640  0.6088740617572720  0.0527930271480134
  0.1701706870850445  0.8874556269325946  0.6249382177394220
  0.6802392500677856  0.2139476389249509  0.1278335150686260
  0.6932531462707974  0.4614703623885605  0.4404657865279589
  0.0515298332245169  0.0138678994758679  0.0324101875535088
  0.6363943237788473  0.8899532112657316  0.4152963926796610
  0.0472333400686653  0.1686809565263450  0.3249077842137101
  0.6109743233488113  0.5718733317873177  0.2336241737252585
  0.7316747738868034  0.1280256675983154  0.3338327988252983
  0.9254953603675032  0.5974506373182882  0.5700386580128909
  0.4776633156268326  0.0845814512452396  0.9011008151265498
  0.8838035060770235  0.2124426643863688  0.3505384590618132
  0.4822568308546282  0.9848574423002248  0.6521348552876873
  0.6454030390717204  0.7874076003742083  0.5450895916297076
  0.8506291586501493  0.7694915735528116  0.6188231543194727
  0.4318758259072362  0.4627094158165866  0.2693977847417386
  0.7594982245198321  0.6260240804611852  0.9728631173087229
  0.3804526623603091  0.0008769355599323  0.2379524532357689
  0.3801754417936982  0.7847163692742597  0.2767857437677936
  0.1055251956971141  0.3272801774661151  0.2720412782018841
  0.0460236926725269  0.3157782311179481  0.0710558934590976
  0.5403764676149172  0.7291466064599325  0.4525481574303705
  0.8420975409072191  0.7786913787967722  0.9086935636665580
  0.4551339587616007  0.8575026009856064  0.4004143793597170
  0.6185418043478724  0.0671522846929923  0.0418488641267592
  0.5282459995130110  0.6913143030761917  0.1848790495979308
  0.2900493635921151  0.4142900178845720  0.9899372469100047
  0.9591914380349198  0.7836228014719512  0.8066433916304072
  0.6488586188220792  0.2552174029394895  0.2819043144229846
  0.2327286726947179  0.7543045687966802  0.4233009207918807
  0.6087578094523843  0.0918920790889130  0.3898576443479750
  0.2798616009765439  0.1043476071111212  0.4003387614680070
  0.2308600650960016  0.2432789707083197  0.4155068818808869
  0.2332996422059994  0.6041486923094752  0.0859428517069486
  0.5526692478013212  0.9727689685854278  0.3156019120757509
  0.6392583158306850  0.2045519880982979  0.8508660496431460
  0.8209078038647714  0.0896806944110508  0.8559811890693628
  0.4694709347921845  0.2786478225457287  0.8903875219757617
  0.7771706022237571  0.0806826181728551  0.6130635336908208
  0.8387122328347486  0.4922456976878595  0.9934307322266100
  0.3021824015335203  0.0913602010761830  0.5516632357336685
  0.5327837040969852  0.5405976529732092  0.9125515560485893
  0.7344092674938651  0.9470967282287566  0.9093557804922556
  0.1298403339242678  0.7826203558845912  0.7721758230855742
  0.4812241565241093  0.9882564944141373  0.0197258447672684
  0.2588052166951720  0.3366148278393398  0.6926490191720797
  0.4578801885468433  0.7427593855133825  0.0002908613088348
  0.3212262205718112  0.2336002012840864  0.1501304745474109
  0.5431492116839577  0.2645833653335800  0.5704913062832183
  0.9579340924022388  0.6959637981236627  0.9838382415650208
  0.7819449410458350  0.6831274701642116  0.8050264935222492
  0.2782788233500871  0.8937882881780066  0.1951597438420987
  0.5065578289337467  0.3363726326577778  0.1421700806831409
  0.4189489099404341  0.6378986654284133  0.8734334838918605
  0.7904450167151340  0.5155739630163132  0.5377128934222305
  0.8272493853754499  0.2633758611438065  0.5639243588721555
 
 -0.21732481E-03 -0.10707075E-02 -0.36750085E-03
 -0.17772926E-03  0.23151493E-03  0.13212903E-02
 -0.13791925E-02  0.12770778E-03 -0.23734403E-02
  0.13581936E-02  0.12115278E-02  0.11360696E-02
 -0.45430203E-03  0.62808370E-03 -0.28034104E-02
 -0.94671348E-03  0.17160970E-02 -0.85139923E-03
 -0.12582808E-02 -0.73307756E-03 -0.18775783E-02
 -0.17620911E-02 -0.89706954E-03 -0.10759059E-02
  0.24524874E-03 -0.11019142E-02  0.66979622E-03
  0.89456793E-03 -0.18844827E-02 -0.13429901E-02
 -0.64613438E-03  0.11253143E-02  0.28339689E-03
 -0.16894414E-02  0.16298324E-02  0.79636427E-03
  0.11521597E-02  0.51666712E-03  0.19702615E-02
 -0.31916528E-03  0.22730488E-02  0.24245280E-02
 -0.37490221E-03  0.78191878E-03 -0.23795662E-02
  0.95394652E-03  0.98586367E-03 -0.41401814E-03
 -0.30829092E-02 -0.83733684E-03 -0.26087671E-02
 -0.10074573E-02 -0.77332888E-03 -0.16565455E-02
  0.15536142E-02  0.31531496E-02  0.55785565E-03
  0.10337945E-02 -0.28021936E-02  0.14414653E-02
 -0.16017506E-02 -0.32296608E-03  0.11790466E-02
  0.47063910E-03 -0.31979927E-02  0.31196691E-03
  0.26365778E-03 -0.42352414E-03  0.22814590E-02
  0.33173218E-02  0.50707794E-04  0.32337994E-02
  0.80946536E-03  0.68768074E-03  0.38926341E-03
  0.67143292E-03  0.52303386E-03  0.23623307E-03
 -0.50496484E-03  0.15476830E-02 -0.19573283E-02
 -0.61351753E-03  0.11995568E-02 -0.16823570E-02
  0.52228728E-03 -0.84629118E-03 -0.76815567E-03
  0.81355073E-03  0.30361206E-03  0.12569546E-02
  0.35833266E-03 -0.20394680E-02 -0.97457107E-03
  0.44642358E-03 -0.63097613E-02 -0.63247346E-03
 -0.13772337E-02  0.11229221E-03 -0.15832709E-02
  0.20712259E-03  0.70813554E-04  0.25481922E-03
  0.83702061E-03  0.14997816E-02  0.30430545E-03
 -0.74380989E-03  0.18192597E-02 -0.22445533E-02
 -0.11433534E-02 -0.21456875E-02 -0.81893515E-03
 -0.11312856E-02 -0.12457047E-03 -0.17563929E-02
  0.15097570E-02 -0.16573205E-02 -0.29160071E-03
  0.10409089E-02 -0.18618882E-02  0.37076167E-03
  0.18327087E-02  0.37720166E-03 -0.28741078E-03
  0.35123692E-03 -0.22397823E-03  0.87041338E-03
 -0.37235216E-04 -0.10304624E-02 -0.10118554E-02
 -0.63150783E-03  0.15593878E-03 -0.21186768E-03
  0.38052562E-02  0.17711562E-02  0.93754470E-03
  0.82562107E-03  0.83973667E-03  0.17515636E-02
 -0.41802120E-03  0.10256539E-02  0.14205893E-02
  0.11782967E-02  0.20673446E-02  0.11483325E-02
 -0.32224780E-03 -0.89847659E-03 -0.11941105E-02
 -0.73039221E-03 -0.92753085E-04 -0.90466593E-03
  0.11074075E-02  0.50654244E-03 -0.41132458E-03
  0.17580999E-02 -0.24632028E-02  0.16090849E-03
 -0.10876285E-02  0.97820725E-05  0.26720378E-02
  0.46677383E-03  0.13947179E-02 -0.20514231E-02
  0.52888960E-04  0.93839291E-03  0.19190197E-03
  0.88480310E-03 -0.44523545E-03  0.15285435E-02
 -0.31700440E-03 -0.34874565E-03 -0.94799754E-03
 -0.11453612E-02  0.97693951E-03 -0.16185176E-02
 -0.22851835E-02 -0.13085135E-02 -0.52193595E-03
 -0.96571676E-03  0.49980843E-03  0.13149095E-02
  0.11113824E-02 -0.69019936E-03 -0.29115896E-02
  0.27743199E-02 -0.23033624E-03  0.11848074E-02
  0.36873494E-03  0.14915442E-02 -0.23397553E-03
  0.17998108E-02  0.17964611E-02  0.87329028E-03
  0.39126998E-03 -0.16680440E-02  0.40115456E-04
 -0.76245856E-04 -0.46872614E-03 -0.10749487E-02
 -0.18278717E-03  0.37654354E-03  0.12991724E-03
  0.27432301E-02  0.15281499E-02 -0.58429350E-03
 -0.46780347E-03  0.24182978E-03 -0.41515334E-03
  0.41452599E-03  0.12939807E-03  0.13600024E-02
 -0.20685902E-02 -0.18685746E-02  0.12156616E-02
 -0.18462658E-02 -0.15812491E-02 -0.14499261E-03
  0.21863248E-02 -0.15446731E-02  0.23530822E-02
  0.90290576E-03  0.71482544E-03  0.13438439E-02
  0.81993794E-03 -0.20021614E-02  0.92811450E-03
 -0.27432890E-03 -0.68031555E-03 -0.17893090E-03
 -0.11423668E-03 -0.18178790E-02 -0.32149575E-03
 -0.28534575E-03 -0.22367591E-02  0.31389037E-03
 -0.28117037E-03 -0.16426318E-02 -0.31714354E-02
 -0.19534848E-02 -0.50583239E-02 -0.35546486E-04
 -0.42780688E-03 -0.25037852E-02 -0.87163866E-03
  0.70082233E-03  0.46527239E-03 -0.33363022E-05
 -0.53027360E-04  0.12258685E-02 -0.16933131E-02
  0.70088710E-03  0.40645230E-03 -0.70459616E-03
 -0.99030998E-03 -0.11322884E-02 -0.75415780E-04
  0.13048825E-02 -0.57993479E-03  0.10930003E-02
  0.17488069E-02  0.16984152E-02 -0.24322940E-04
 -0.13800121E-02  0.64094280E-03 -0.10239728E-03
  0.49231047E-03  0.25130544E-02  0.59895062E-03
  0.96756804E-03  0.20357395E-02 -0.59782405E-03
  0.25722479E-03 -0.15269936E-02 -0.41721224E-03
 -0.10412813E-03 -0.19282633E-02 -0.15146422E-02
 -0.12124045E-02  0.83276169E-03 -0.28052543E-02
 -0.69610709E-03  0.33152519E-03  0.22639920E-02
  0.88529624E-03 -0.20782478E-02  0.16717352E-02
 -0.33993780E-03  0.13048853E-02 -0.76990999E-03
 -0.14011140E-02 -0.14988519E-02  0.27453702E-02
 -0.87021175E-03 -0.15000619E-02  0.15787290E-02
  0.13008301E-02  0.87998698E-03 -0.21497023E-03
 -0.13383768E-02 -0.19163794E-02  0.21859423E-03
  0.21270620E-02 -0.15132487E-02 -0.83349409E-03
 -0.11354540E-03 -0.42360106E-03 -0.54525748E-03
 -0.36048486E-03 -0.17714694E-03  0.18325163E-02
 -0.81473666E-03 -0.23658100E-02  0.79452049E-03
 -0.30376995E-03 -0.44429095E-03 -0.13890016E-02
  0.35111856E-03 -0.22139724E-02  0.14835858E-02
  0.17552053E-02 -0.54901108E-04  0.23554052E-02
  0.66224314E-03  0.17155746E-02  0.12191766E-02
 -0.28366369E-03  0.18610707E-02 -0.92002399E-03
 -0.58194421E-03 -0.10376849E-02 -0.30956469E-03
 -0.15649668E-02 -0.69297369E-03  0.26393178E-03
  0.95551287E-03 -0.14788529E-02 -0.63136185E-03
 -0.69097266E-03 -0.61500765E-03  0.85620537E-03
  0.38570414E-03  0.18104253E-02 -0.19556278E-02
  0.15302596E-02 -0.31770762E-03  0.18669374E-02
 -0.52533523E-04  0.30343662E-02  0.18948157E-02
 -0.92464354E-03  0.14296794E-02 -0.19050224E-02
  0.53463365E-03 -0.27167982E-03  0.92864882E-03
  0.52410797E-03 -0.28706284E-02  0.29444045E-02
  0.11504793E-02 -0.81692752E-03  0.21523694E-03
 -0.11517579E-02 -0.17040662E-02  0.12887803E-02
  0.32181527E-03 -0.13700756E-02 -0.13198214E-02
 -0.76993176E-03 -0.14072736E-02 -0.73261182E-03
 -0.20181783E-02  0.18952439E-02  0.21478174E-02
  0.13494461E-02  0.11966329E-02 -0.32513213E-03
 -0.23988967E-03  0.28030784E-02  0.11357128E-03
  0.14504998E-02 -0.11591711E-02 -0.94861874E-03
 -0.93904555E-03 -0.23873996E-02 -0.11295484E-03
 -0.14701617E-02 -0.11646689E-02  0.12736265E-02
  0.23123876E-02  0.46098195E-03 -0.13201238E-02
  0.11475568E-02 -0.22287612E-02  0.12500986E-02
 -0.26161816E-02 -0.61900279E-03  0.82274863E-03
 -0.41268838E-03 -0.37405085E-03  0.34083132E-02
  0.15380463E-02 -0.17141581E-02  0.67321737E-03
  0.57398495E-03  0.71824313E-03 -0.12005200E-02
  0.31394201E-03  0.28087004E-02  0.53512058E-04
  0.19195369E-02  0.15834259E-02  0.19467315E-02
  0.38692630E-03 -0.28307596E-03  0.80851355E-03
  0.20988701E-02  0.11242723E-02 -0.63692604E-03
 -0.22231108E-02  0.67839208E-03  0.19982431E-02
  0.17411493E-02  0.52059030E-04  0.12224347E-02
 -0.90234051E-03 -0.24092157E-03 -0.46466166E-03
  0.49747410E-03  0.14027346E-02 -0.28346160E-02
 -0.11197957E-02 -0.18432225E-02  0.13527517E-03
  0.23027200E-03 -0.52205947E-03  0.80332399E-03
 -0.25690260E-02 -0.27806136E-03  0.20337283E-02
  0.11494488E-02  0.11106327E-02 -0.97536612E-03
  0.17077072E-02  0.64416919E-03  0.65040780E-03
  0.23441711E-03 -0.58816816E-03  0.12002525E-02
  0.10782541E-03 -0.14727665E-02 -0.38512657E-03
 -0.35484104E-04 -0.63093313E-03  0.38085235E-03
  0.16892728E-02 -0.51354285E-03 -0.20966058E-02
  0.53510621E-03 -0.15998831E-02 -0.17191394E-02
  0.20912739E-03  0.89967569E-03 -0.14805607E-03
  0.22219837E-02  0.59683466E-03  0.25524531E-02
  0.91057694E-03  0.16411558E-02  0.16202294E-02
 -0.19846256E-02 -0.70006488E-03 -0.77877285E-03
  0.12786267E-04  0.12169629E-02  0.98270913E-03
  0.26984192E-02  0.19306870E-02  0.71176221E-03
  0.98595040E-03 -0.53481445E-03  0.59932955E-04
  0.19124021E-02 -0.79326573E-03  0.19795318E-02
 -0.54392937E-03  0.90790536E-03 -0.25306130E-02
  0.46599993E-03  0.20509209E-02  0.16869716E-02
 -0.19174422E-02 -0.12229223E-02 -0.18194333E-02
 -0.25060901E-02  0.19554766E-02  0.16875531E-02
  0.89571098E-03  0.46997483E-03  0.78492080E-03
 -0.29701021E-03  0.26157970E-03 -0.32390708E-03
 -0.34710954E-03 -0.10507687E-02 -0.30150631E-02
 -0.90643435E-03  0.70553429E-03 -0.60692412E-03
 -0.83145257E-03 -0.59013894E-03 -0.33197031E-02
  0.32919165E-04  0.18438442E-02 -0.11493214E-02
 -0.92401909E-03 -0.10245743E-02 -0.13220928E-02
 -0.16181052E-02 -0.24043173E-02  0.16422980E-02
 -0.67747752E-03  0.19942462E-02  0.39061321E-03
  0.11344178E-03  0.17384716E-02  0.16493788E-02
  0.16393030E-02 -0.28989713E-02 -0.23436103E-02
 -0.60775327E-03  0.79179452E-03  0.10825850E-02
 -0.11050244E-02  0.83446908E-04  0.88916645E-03
 -0.16287839E-02 -0.28034917E-03  0.33695142E-05
 -0.49060384E-03  0.91880248E-03 -0.25456003E-02
  0.12638446E-02  0.24589388E-02 -0.24376982E-02
  0.77775248E-03  0.44845927E-03 -0.29888060E-03
 -0.18527804E-02  0.54235195E-03  0.14974231E-02
 -0.10330708E-02  0.25163718E-02 -0.54777694E-03
 -0.12192178E-02 -0.58136653E-03  0.17147831E-02
  0.11480887E-03  0.70668787E-03 -0.31027177E-02
 -0.15314884E-02  0.16699011E-02 -0.15541367E-02
  0.92582829E-03 -0.87918980E-03 -0.38478848E-03
  0.77419554E-03  0.27717487E-02  0.34514466E-03
  0.70206554E-05  0.78589387E-03 -0.71071022E-03
  0.46781685E-03  0.11436009E-02  0.16318521E-02
  0.53921212E-03  0.66069274E-03  0.34935813E-02
 -0.34194646E-03  0.27710343E-02  0.27404943E-02
 -0.29718107E-02  0.79545013E-03 -0.20112713E-02
 -0.96726117E-03 -0.48208998E-03 -0.29144312E-02
 -0.13644081E-02  0.71580712E-03 -0.20709301E-02
 -0.17033661E-02  0.81270560E-03 -0.22108551E-02
  0.58194516E-03 -0.21201725E-02 -0.97572947E-03
  0.13390557E-02  0.44391206E-03 -0.18043439E-02
  0.12127942E-03 -0.21587473E-03 -0.29515795E-02
  0.98012604E-03  0.25379503E-02  0.41641425E-02
 -0.14494671E-02  0.22227455E-03  0.97949519E-03
 -0.28763786E-03  0.19393602E-03  0.18450601E-03
  0.14109343E-02 -0.11258162E-03  0.63946743E-03
  0.15932367E-02 -0.79341499E-04  0.11095157E-03
  0.90061113E-03 -0.52419692E-03  0.16189843E-02
  0.13401786E-02 -0.23403122E-03  0.48858891E-03
 -0.79835886E-03 -0.78090079E-03  0.62013885E-03
  0.30331052E-02  0.27879718E-02 -0.48423977E-03
 -0.14315051E-02 -0.81838429E-04  0.15423721E-02
 -0.37757812E-04  0.43357431E-03 -0.20326789E-02
  0.92536007E-03  0.22811675E-02 -0.17334080E-03
 -0.52102993E-04 -0.15055379E-02 -0.70876920E-03
 -0.89899278E-04  0.42674437E-03 -0.36756964E-04
 -0.34895050E-03 -0.13459573E-02  0.15112515E-02
 -0.16371159E-02  0.16172567E-02 -0.78317853E-03
 -0.44282369E-04 -0.21128997E-02  0.14476908E-02
 -0.15188370E-02 -0.19823488E-02 -0.60120452E-03
 -0.31948433E-03 -0.12074376E-02  0.10977855E-02
  0.12098372E-02 -0.22074085E-03 -0.10302152E-02
  0.78034258E-03  0.18516999E-02 -0.16697970E-02
 -0.12583444E-02 -0.31444640E-04  0.71146992E-03
 -0.18128377E-02  0.19402670E-02  0.20721514E-03
  0.32738559E-02  0.40819553E-03 -0.17533684E-02
  0.14571020E-02 -0.30895103E-02  0.34432210E-02
 -0.17808416E-03 -0.10140465E-02  0.99271521E-03
  0.30400350E-04 -0.13103522E-02 -0.10052143E-02
  0.16915951E-02  0.35159561E-03  0.19374664E-02
  0.90477358E-03  0.94556131E-03 -0.28352761E-02
  0.14671941E-02  0.25496217E-02  0.22960453E-02
  0.19935979E-02  0.31346453E-03  0.10922958E-02
  0.28179272E-03  0.21916412E-02 -0.15131730E-02