Ru Ge Sb Te                             
   1.00000000000000     
    17.6437623494907356    0.0000000000000000    0.0000000000000000
     0.0000000000000000   17.6437623494907356    0.0000000000000000
     0.0000000000000000    0.0000000000000000   17.6437623494907356
   Ru   Ge   Sb   Te
     8    32    32    80
Direct
  0.8113018362250235  0.5993791206969805  0.0800604508491920
  0.4172756762942624  0.5715950575130818  0.8671476684330298
  0.4275617028586109  0.2014227014644068  0.9055838712287205
  0.8074828056087161  0.4032603078036073  0.5093255614558947
  0.9229586678759918  0.8237334089124185  0.9984436807230191
  0.8832833712303489  0.1735365328651187  0.1244501264943660
  0.6471688615790813  0.6476530371873491  0.8972752491533644
  0.4195621903377348  0.0667830195568153  0.7888009847211618
  0.3173234077454626  0.9821423741835910  0.4905255902039023
  0.9960578560762717  0.0726704358832804  0.4004817010388583
  0.2391848600435347  0.2004853728764047  0.7531230069455407
  0.8280112066731654  0.3716200585734721  0.6465268113771583
  0.6785721649942729  0.6212370075258393  0.0321858897765622
  0.2464290043274161  0.0824076106395096  0.5840368666250990
  0.0619891242401356  0.8377264070671923  0.2352776683572417
  0.0186680945576631  0.9560840851179748  0.5741773983101771
  0.3995105455648056  0.8526250166919694  0.6082518083952638
  0.5461654473953406  0.1153203824932963  0.0983815161667169
  0.2042445910462452  0.6933386870305771  0.3063626100421031
  0.0027681109633222  0.1142373576543050  0.1707095236676083
  0.4479065796332858  0.7411604145755576  0.1686869557685404
  0.2650864956982524  0.5432506277220317  0.4124176021761740
  0.8181143861649569  0.9442150585006637  0.5498718591983659
  0.8990318166264383  0.5555007582181362  0.7736329203561081
  0.9603675586750481  0.8966470074320918  0.1204887494476322
  0.8299723075026429  0.5967942841662078  0.9285460246485504
  0.7840210342280066  0.7091295067013733  0.6418732427134878
  0.2242269208600694  0.4718754950892180  0.2887493578833142
  0.0760875857523196  0.4269723053943042  0.4873223274743232
  0.6205112810057253  0.2710809292390073  0.8829756903662850
  0.7778853596475234  0.4757053611417192  0.0133296137226820
  0.1110604359960573  0.1943070431892212  0.0161324130187935
  0.6871502404853561  0.0005562822281057  0.5776499078338387
  0.5413643285331575  0.6493179612263033  0.3123978037545928
  0.5407151868600099  0.6061010364968660  0.8180039592680293
  0.1990446926320886  0.0568170424973885  0.2919878905160048
  0.4391487298431109  0.8450104697104259  0.8387132771989457
  0.8274374849904189  0.2752746380454403  0.0440919340284127
  0.8369054410413779  0.0779933066649585  0.2224120089009438
  0.9528662830519525  0.5929600939149930  0.0546853966483143
  0.3477697045543576  0.7235126323607547  0.3978699517314930
  0.7977058320792507  0.1288682460931595  0.3848464274779727
  0.2485909818458886  0.6356638561158965  0.5655865791612772
  0.3566194519793438  0.3195329989128378  0.3685249160749852
  0.5039630493388825  0.6920313417541227  0.9465343951397125
  0.5216704275361852  0.0001373505489994  0.6873894184786049
  0.2191133178589732  0.4802340780705735  0.7619764318481841
  0.3198270953993046  0.2736331401139810  0.6329384724651520
  0.0066221696211459  0.7328790521974943  0.0787080684562539
  0.5808285439535057  0.5084198597309922  0.6199106848973063
  0.7148557809859184  0.5921191200909065  0.4230832397395281
  0.9006426974178628  0.6665312080711016  0.2076294590981070
  0.9339633268858973  0.4910438732287077  0.5298041332298438
  0.3117357621727322  0.4759207560541301  0.5434770227400402
  0.3852635669561369  0.5754807541897696  0.0156457883118147
  0.9748072325843815  0.8079975646830644  0.7389284273030475
  0.7183734815206929  0.2397560205281761  0.3055058793171581
  0.0138510617871094  0.1771003942211873  0.6579489860258533
  0.3585636283770083  0.1598406851082312  0.3034843856711174
  0.8133737474802282  0.7539945844357377  0.0643990505844795
  0.5720322163943350  0.6726724513648483  0.6779917784855185
  0.4771142608543686  0.9846520027616495  0.9065055046126645
  0.3392122613451678  0.7428751119437562  0.0029097867986237
  0.0085053475889850  0.1925309545259546  0.8304665775943406
  0.8809950916670787  0.3015065593392638  0.8244389058941379
  0.8763853260362936  0.2804539290553977  0.4831552472141566
  0.4015551800372906  0.8720013363101210  0.3330463219879075
  0.8202451857621604  0.4690767840038615  0.1877577673833853
  0.3467721813605633  0.6969716832502201  0.8404039443609507
  0.3066539166157454  0.3082562453758642  0.9303912447981680
  0.0493500069408956  0.7654031622666931  0.9111076060417190
  0.2845556243687883  0.3647801037445145  0.1919688165768743
  0.4102543903573916  0.7030653233938358  0.6531445383635054
  0.8001151484699642  0.7226677557311095  0.4463977362437687
  0.9872787846413899  0.5221904709342767  0.1941945708947879
  0.0607259742879522  0.0312555501827939  0.0579970878903937
  0.5501412428962472  0.0052665541638577  0.2182642005410653
  0.1156459897583741  0.0481175354322442  0.4945053226664129
  0.5770327571021844  0.8679305214093899  0.7755850133125169
  0.0279358741652994  0.2692076335944699  0.4813395221972290
  0.5121459439115545  0.1733357172061229  0.2364517594557880
  0.3462382046254581  0.9354151030789869  0.7397875690429572
  0.3038679463437793  0.1304923829804607  0.8673448678187182
  0.6473168164553924  0.4960620390736026  0.9391210193354714
  0.7387408493240030  0.5956601724814129  0.2213637313315271
  0.0421546921607453  0.9883305798237869  0.2822032741114212
  0.7355233611170624  0.1456098389427048  0.1204712677262508
  0.5365547564133177  0.1280016003698317  0.8460758696627895
  0.2093822050582550  0.8082182599026441  0.1986871639167470
  0.9392598831585549  0.6607255486034537  0.6673906296162974
  0.7633364090784791  0.2181276207674852  0.9032486604975996
  0.2368320075512184  0.1583701411598277  0.0987782314198080
  0.8561500463626387  0.7483990530076887  0.8807254237912769
  0.5574736166178074  0.7969422688838131  0.2594719191384629
  0.7395122194780158  0.4246765983561412  0.7687979452551167
  0.9134495408080788  0.3881439998274406  0.9804682011981883
  0.4278221003207227  0.3046484103857764  0.7924987162393733
  0.8509413556082041  0.4978795004236120  0.3891365051910395
  0.9973879955076645  0.9216914653944025  0.9044108012222154
  0.9582538889411972  0.4238873841842350  0.7040500617827756
  0.8302881172097731  0.9536537406804625  0.9936089779107617
  0.2414030605047505  0.9173730498130224  0.3603418492033565
  0.7201517609556221  0.6247062844525778  0.7673074544192660
  0.9163398955514326  0.1023497505177893  0.9995472618346585
  0.8824408337097482  0.2444695359947621  0.2621421873041997
  0.1857418842980214  0.3940057877908151  0.5937453489727759
  0.1378490106370960  0.2896592084318858  0.8239259853841334
  0.5167915094153163  0.2953208075068488  0.9952834633546186
  0.6593596509915559  0.0377458471570359  0.4287061711530071
  0.4721642541589337  0.3175205095247826  0.4800675965794712
  0.7015626165811768  0.7741536415089099  0.9255879873761887
  0.0745030593086498  0.1778471712262989  0.2987965978932385
  0.1840184030811063  0.5870860660750392  0.1985360990413140
  0.2319226093586566  0.2146218222439366  0.5075821125599549
  0.2113107656056213  0.0134968603255971  0.1418057878261915
  0.6996818437112716  0.3654809011259277  0.4157714887783644
  0.3882229737061445  0.6395956301548675  0.2627984000706000
  0.7321877411960231  0.5224256881575612  0.5708802800556273
  0.5988099622808727  0.3527149504915963  0.7602333653258029
  0.4995946386497670  0.6929713203270310  0.4636655906021283
  0.1070513204467417  0.3863763627264736  0.3412642262529351
  0.4860935081310181  0.3605721220602696  0.2787657563840479
  0.6995697821669545  0.3525259341513882  0.0816167117847082
  0.1006916768558068  0.8538009615674589  0.6446871238787801
  0.8497378050734181  0.2200911713132343  0.6664621408169539
  0.8151938621161666  0.8613792896138500  0.6896386768254952
  0.5300517068373742  0.6133986744785733  0.1250488060906939
  0.1630450564174589  0.7384668119641700  0.0282061552057301
  0.1282392644032342  0.5901029247314954  0.4674642328339491
  0.0569554058475275  0.7283635760947167  0.3400242887666193
  0.6331080069800988  0.8480654166178108  0.5911448353688070
  0.3799562105999297  0.5145153099798073  0.7333372884116142
  0.4958666369691500  0.5117976334488331  0.4769098079343153
  0.2551553841234525  0.5610172182067936  0.9167894281855750
  0.1674088769648022  0.6205892130071378  0.7079687003881699
  0.9358279968832174  0.0331285033339164  0.6696402619304956
  0.3883723495985553  0.1200846639943475  0.6473003120928230
  0.1549794455373062  0.0859629156461338  0.7039301516329439
  0.4209670029967580  0.1048405754017519  0.4401748408643378
  0.4306492626959392  0.4372533964241695  0.9000707121658933
  0.7461700506564645  0.9755184289492788  0.1356695678092685
  0.9346571472164619  0.9061046888280557  0.4575868755129188
  0.6618351126995614  0.0884539158977947  0.6964204176066408
  0.9911513166441895  0.5856119312730171  0.9027347430969105
  0.7048424133699356  0.8610251654916372  0.4461266245784908
  0.2121651460305178  0.3486522875333664  0.0548134702321885
  0.2603930240125085  0.8401466667829335  0.5484169624948363
  0.4129343654964252  0.0989631835701227  0.0252169025150761
  0.4591581242635497  0.9298266763762224  0.4775622829013587
  0.4239550296541002  0.4256875559115998  0.1407866565466148
  0.0098546553894948  0.2651898510680202  0.1079801527604612
  0.8165171649148194  0.8380362221197603  0.2014600380006132
 
 -0.13022695E-02  0.61317933E-03 -0.10308842E-02
 -0.16356658E-02  0.40626608E-03  0.31618209E-03
  0.20520917E-02 -0.14417243E-02 -0.87867487E-03
  0.11099077E-02 -0.40465853E-03  0.10317531E-02
 -0.25476723E-03 -0.10073957E-02  0.28673600E-03
  0.14253336E-02  0.15543500E-02 -0.96650131E-03
 -0.39632258E-02  0.11058211E-02 -0.16747720E-02
  0.85830774E-04 -0.56678066E-03 -0.89720062E-03
 -0.53286158E-03 -0.28371201E-02  0.15606837E-03
  0.18562123E-03  0.54815324E-02  0.58737889E-03
 -0.26960516E-02 -0.17077232E-02 -0.16753649E-02
 -0.16091938E-02  0.66506703E-03 -0.26443956E-02
  0.22044342E-02 -0.12141558E-02 -0.52692901E-04
  0.28770642E-02 -0.18815441E-03 -0.27092439E-02
 -0.94396970E-03 -0.10789025E-03 -0.19002678E-02
 -0.17669265E-02 -0.51232989E-03 -0.30566431E-02
 -0.21466279E-02  0.26950430E-04  0.17266847E-03
  0.30295509E-02 -0.17904813E-02  0.15481386E-02
 -0.41952594E-03  0.42505703E-03 -0.37430455E-04
  0.25967535E-02 -0.31927567E-03  0.24453065E-02
  0.17265836E-03  0.75097949E-03 -0.25007850E-02
 -0.18880956E-02  0.13715284E-02 -0.64834582E-03
  0.13923588E-02 -0.64964477E-03 -0.13717991E-02
  0.15417495E-02  0.10491499E-02 -0.31470027E-02
  0.85354558E-03 -0.85787631E-03 -0.13913517E-02
  0.81284748E-03  0.25251380E-02  0.20438960E-02
 -0.18593462E-03 -0.11844211E-02 -0.90427591E-03
  0.19706952E-02 -0.80738340E-03 -0.96680405E-03
 -0.21493522E-02 -0.15236063E-02  0.99255196E-03
 -0.17500389E-02 -0.12832366E-02  0.23085777E-02
 -0.89681274E-03  0.73432142E-03  0.62826887E-03
  0.25911433E-02  0.28132783E-02  0.24274572E-02
 -0.24871147E-02  0.35341297E-03  0.24100747E-02
  0.12243152E-02 -0.15628541E-02  0.19068766E-03
  0.27641798E-02 -0.66874667E-03  0.24869947E-03
 -0.63144517E-04 -0.13583263E-02  0.24981291E-03
  0.16709180E-02  0.63139334E-03 -0.12119686E-02
  0.14279685E-02  0.12848278E-02  0.79199371E-03
  0.19733304E-02  0.46536719E-02 -0.89191819E-04
  0.19139520E-02 -0.25913146E-02 -0.13954240E-02
 -0.33795949E-03  0.58734343E-03  0.48931935E-03
 -0.45583538E-03  0.68829992E-03 -0.18865416E-02
 -0.75698855E-03  0.12600745E-02 -0.15813688E-03
  0.10093018E-02 -0.17234234E-02  0.14004903E-02
  0.12481578E-02 -0.40152964E-03 -0.49316812E-03
 -0.64680735E-03 -0.19943033E-02 -0.76093381E-03
  0.93755186E-03  0.10137269E-02 -0.97898881E-03
 -0.37569936E-02 -0.42522745E-03  0.14652966E-03
  0.27100380E-04  0.13448231E-02 -0.11634778E-02
 -0.17098772E-02 -0.70683742E-03 -0.41837186E-02
  0.32021135E-02 -0.14425360E-03 -0.19206611E-03
 -0.12936992E-02  0.19306578E-02 -0.88850189E-04
  0.13998896E-02 -0.21043693E-02 -0.61674933E-03
  0.16610058E-02  0.14886431E-02  0.59972387E-03
  0.80018604E-03  0.25686951E-02 -0.10851905E-02
  0.24597356E-02 -0.17043330E-04  0.11848948E-02
 -0.14183781E-02 -0.28955276E-02  0.11723198E-02
  0.18123633E-03  0.13027679E-02  0.19500999E-02
 -0.81905723E-04 -0.17056676E-02  0.49250024E-03
 -0.66859072E-03 -0.18624532E-03  0.22548345E-02
  0.17436066E-03 -0.19763340E-03  0.18608671E-02
 -0.17096548E-02  0.54602403E-03  0.73307854E-04
  0.89883313E-03 -0.82097298E-03 -0.32741910E-03
  0.10499692E-02  0.11023139E-02  0.14142501E-02
  0.44984145E-03  0.10243365E-02 -0.11042331E-02
  0.11922961E-02  0.40941648E-03 -0.75910220E-03
 -0.13985242E-02  0.25955793E-02 -0.14302694E-02
 -0.12745210E-02  0.45424818E-03 -0.10111267E-02
 -0.61340141E-03  0.11503179E-02 -0.83741625E-03
  0.35936259E-02  0.69920078E-04 -0.13366903E-02
 -0.18302847E-02 -0.51793805E-04 -0.74291554E-03
  0.52551835E-03  0.17365838E-02  0.16389299E-02
 -0.10055820E-02 -0.63307489E-03  0.12140537E-02
  0.39082374E-03 -0.28642085E-02 -0.54158978E-03
  0.81381343E-03  0.10750171E-02  0.58056213E-03
 -0.98912155E-03  0.98773323E-03  0.17716665E-02
 -0.17439628E-02  0.34560931E-02  0.13241479E-02
 -0.21919190E-04 -0.23683758E-02 -0.17279552E-02
 -0.11569845E-02 -0.12496369E-02 -0.71946343E-03
  0.10943101E-03  0.14143819E-02 -0.95613048E-04
 -0.10067300E-02 -0.34660042E-03 -0.15799359E-03
  0.31407714E-02 -0.18880116E-02  0.75904987E-03
 -0.41329353E-03  0.18390883E-02  0.47216455E-03
 -0.67139311E-03 -0.13450163E-02  0.20471521E-03
 -0.17986459E-03 -0.78226943E-03  0.73063709E-03
 -0.19208305E-03 -0.28736525E-02 -0.28293346E-03
 -0.10149991E-02  0.20034296E-02 -0.65593841E-03
 -0.20610844E-03 -0.85351541E-03 -0.89855717E-04
 -0.29873255E-03  0.15284801E-02  0.27412846E-02
  0.84081721E-03 -0.38563853E-03 -0.19166518E-03
 -0.62909177E-03  0.50935334E-03 -0.12616196E-02
 -0.13750416E-03 -0.17013872E-02  0.13909135E-02
  0.62515334E-03  0.25123715E-03  0.53972792E-03
 -0.93290736E-04  0.22452929E-02 -0.51114702E-04
 -0.43914541E-03 -0.39190570E-03  0.35538408E-03
 -0.21388519E-02 -0.12889010E-02  0.13995554E-02
 -0.12766425E-03 -0.18461830E-02  0.13579030E-03
  0.64945391E-03 -0.12221141E-02 -0.34780277E-02
  0.14918172E-02 -0.38790728E-03 -0.10126121E-02
  0.30341076E-02 -0.13392961E-02 -0.20161148E-02
  0.23125685E-02 -0.15487247E-02 -0.29270874E-02
 -0.66413803E-03 -0.29182462E-02  0.13342226E-04
 -0.10164873E-02  0.18416042E-03  0.45566960E-03
  0.19308921E-03  0.17061366E-02 -0.62156321E-03
 -0.19381252E-02  0.19795297E-02  0.97627556E-03
  0.10983337E-02  0.18324775E-02  0.27718934E-03
 -0.26203937E-02  0.36694933E-02  0.26367814E-02
 -0.14624582E-03  0.88925751E-03 -0.59419765E-03
 -0.60701171E-03 -0.12778555E-02  0.62994355E-03
  0.86903844E-03  0.93657791E-03 -0.31919274E-03
 -0.75698368E-03 -0.54196981E-03  0.29808259E-02
  0.37213786E-03 -0.15434492E-03 -0.57553377E-03
  0.87582086E-03 -0.13104070E-02  0.38237898E-02
  0.98347411E-03  0.90534557E-03 -0.39762246E-02
 -0.77121736E-03  0.14576843E-03 -0.19350186E-02
  0.10156104E-04  0.18384023E-02  0.13627035E-03
 -0.20111160E-02 -0.51008986E-03 -0.38788156E-02
 -0.14517937E-02 -0.18997124E-02  0.10779779E-05
 -0.10201635E-03  0.65977948E-04  0.40108944E-03
 -0.65847689E-03 -0.43163862E-03  0.12680082E-03
 -0.54860361E-03 -0.43438567E-03  0.28017251E-03
  0.22800307E-03 -0.68675422E-03  0.36983219E-03
 -0.25575591E-02 -0.22687387E-02 -0.27687457E-02
 -0.55721008E-04  0.94886430E-04  0.16493595E-02
 -0.22580522E-02 -0.83284891E-03 -0.10612299E-02
  0.44240441E-03 -0.31823455E-02 -0.11194262E-03
  0.72625315E-03 -0.15550740E-02  0.22484941E-02
  0.45355206E-03  0.13459221E-02  0.93728482E-03
  0.91254258E-03 -0.61289916E-04  0.10850195E-02
  0.19588179E-02  0.32325730E-02  0.94493082E-03
 -0.59266718E-03 -0.44299710E-04  0.28044443E-02
  0.10810085E-02 -0.14965240E-02  0.92632875E-03
 -0.21740514E-03  0.25493757E-03  0.27963506E-02
 -0.12464608E-02  0.10190235E-02 -0.18383783E-02
 -0.16121122E-02  0.11803564E-02 -0.48589557E-03
 -0.39782982E-04 -0.39813137E-03 -0.14235915E-02
 -0.16340798E-02  0.12396446E-03  0.18026686E-02
  0.29080529E-03  0.35733218E-03 -0.94568833E-03
  0.16232391E-02  0.10231640E-02 -0.79945379E-04
 -0.58836196E-03 -0.34837279E-03 -0.88992870E-03
  0.18175442E-02 -0.16379634E-02  0.37849851E-02
  0.36794905E-03  0.28339024E-03 -0.15019612E-02
 -0.11136169E-02  0.10916834E-02  0.17262603E-02
  0.16512596E-02 -0.36538810E-03  0.51169287E-03
  0.12241773E-02 -0.10636861E-02 -0.17063521E-02
  0.69399951E-03  0.11400582E-02  0.29869663E-02
 -0.10403711E-02 -0.12222901E-02 -0.88480114E-05
 -0.23607062E-02  0.42926048E-04  0.72841604E-03
 -0.76197324E-03  0.90753524E-03  0.96325425E-03
  0.27054885E-02 -0.22789785E-02  0.11899316E-02
  0.20994707E-03  0.96740632E-03  0.59938476E-03
  0.24097441E-03  0.10558844E-02 -0.23500849E-02
 
           1
   3.00000000000000     
  0.10000000E+01  0.00000000E+00  0.00000000E+00  0.00000000E+00
  0.81108041E+00  0.59948338E+00  0.79885168E-01
  0.41699756E+00  0.57166414E+00  0.86720143E+00
  0.42791062E+00  0.20117756E+00  0.90543447E+00
  0.80767153E+00  0.40319150E+00  0.50950099E+00
  0.92291535E+00  0.82356212E+00  0.99849243E+00
  0.88352572E+00  0.17380082E+00  0.12428579E+00
  0.64649499E+00  0.64784106E+00  0.89699048E+00
  0.41957678E+00  0.66686649E-01  0.78864843E+00
  0.31723280E+00  0.98165997E+00  0.49055213E+00
  0.99608942E+00  0.73602470E-01  0.40058157E+00
  0.23872645E+00  0.20019501E+00  0.75283814E+00
  0.82773759E+00  0.37173314E+00  0.64607718E+00
  0.67894699E+00  0.62103056E+00  0.32176930E-01
  0.24691820E+00  0.82375618E-01  0.58357621E+00
  0.61828619E-01  0.83770806E+00  0.23495456E+00
  0.18367661E-01  0.95599697E+00  0.57365767E+00
  0.39914555E+00  0.85262960E+00  0.60828117E+00
  0.54668057E+00  0.11501594E+00  0.98644749E-01
  0.20417326E+00  0.69341096E+00  0.30635625E+00
  0.32096415E-02  0.11418307E+00  0.17112530E+00
  0.44793594E+00  0.74128810E+00  0.16826174E+00
  0.26476546E+00  0.54348383E+00  0.41230736E+00
  0.81835113E+00  0.94410460E+00  0.54963861E+00
  0.89929396E+00  0.55567915E+00  0.77309783E+00
  0.96051269E+00  0.89650114E+00  0.12025218E+00
  0.83011052E+00  0.59722364E+00  0.92889355E+00
  0.78398942E+00  0.70892812E+00  0.64171949E+00
  0.22456200E+00  0.47173821E+00  0.28858497E+00
  0.75722128E-01  0.42671324E+00  0.48749109E+00
  0.62021372E+00  0.27086274E+00  0.88336822E+00
  0.77773287E+00  0.47583022E+00  0.13436439E-01
  0.11150101E+00  0.19478539E+00  0.16545158E-01
  0.68672735E+00  0.61637366E-03  0.57805970E+00
  0.54157250E+00  0.64905223E+00  0.31243023E+00
  0.54118519E+00  0.60598733E+00  0.81804625E+00
  0.19903396E+00  0.56586084E-01  0.29203037E+00
  0.43943284E+00  0.84511783E+00  0.83850720E+00
  0.82768028E+00  0.27549310E+00  0.44226598E-01
  0.83724097E+00  0.78784579E-01  0.22239684E+00
  0.95319172E+00  0.59251949E+00  0.54448130E-01
  0.34771224E+00  0.72361250E+00  0.39795315E+00
  0.79762833E+00  0.12898528E+00  0.38452566E+00
  0.24846227E+00  0.63587811E+00  0.56555969E+00
  0.35679107E+00  0.31923996E+00  0.36876304E+00
  0.50417528E+00  0.69196307E+00  0.94645054E+00
  0.52156045E+00  0.99979826E+00  0.68726004E+00
  0.21927273E+00  0.48040644E+00  0.76180997E+00
  0.31918829E+00  0.27356084E+00  0.63296339E+00
  0.66267775E-02  0.73310771E+00  0.78510240E-01
  0.58053781E+00  0.50829967E+00  0.61919932E+00
  0.71540024E+00  0.59209459E+00  0.42305058E+00
  0.90042273E+00  0.66685948E+00  0.20761435E+00
  0.93420135E+00  0.49068606E+00  0.52969927E+00
  0.31201819E+00  0.47617387E+00  0.54357899E+00
  0.38539962E+00  0.57591751E+00  0.15461271E-01
  0.97522547E+00  0.80799467E+00  0.73912990E+00
  0.71813231E+00  0.23926369E+00  0.30570521E+00
  0.13881878E-01  0.17732191E+00  0.65828056E+00
  0.35854970E+00  0.15955067E+00  0.30356813E+00
  0.81326007E+00  0.75396292E+00  0.64782444E-01
  0.57206186E+00  0.67263885E+00  0.67830818E+00
  0.47682357E+00  0.98474484E+00  0.90651797E+00
  0.33936509E+00  0.74273552E+00  0.28541152E-02
  0.86838757E-02  0.19271838E+00  0.83070705E+00
  0.88107158E+00  0.30168073E+00  0.82425115E+00
  0.87658805E+00  0.28052354E+00  0.48302618E+00
  0.40131739E+00  0.87244267E+00  0.33280313E+00
  0.82002848E+00  0.46915402E+00  0.18758584E+00
  0.34666788E+00  0.69716727E+00  0.84026156E+00
  0.30726495E+00  0.30826813E+00  0.93016396E+00
  0.49038800E-01  0.76539436E+00  0.91098129E+00
  0.28464498E+00  0.36507538E+00  0.19224749E+00
  0.41008341E+00  0.70295768E+00  0.65335097E+00
  0.80018160E+00  0.72218075E+00  0.44630565E+00
  0.98741716E+00  0.52237326E+00  0.19429328E+00
  0.60557792E-01  0.31423496E-01  0.58298327E-01
  0.54984471E+00  0.58541998E-02  0.21848935E+00
  0.11564226E+00  0.47714836E-01  0.49421152E+00
  0.57683603E+00  0.86771804E+00  0.77546268E+00
  0.27954481E-01  0.26944812E+00  0.48132326E+00
  0.51197477E+00  0.17327678E+00  0.23642490E+00
  0.34677224E+00  0.93509408E+00  0.73991663E+00
  0.30379767E+00  0.13080509E+00  0.86742515E+00
  0.64720266E+00  0.49583334E+00  0.93915583E+00
  0.73871027E+00  0.59552716E+00  0.22148796E+00
  0.42122032E-01  0.98784197E+00  0.28215517E+00
  0.73535078E+00  0.14595049E+00  0.12035974E+00
  0.53651971E+00  0.12785648E+00  0.84606059E+00
  0.20933141E+00  0.80847815E+00  0.19915327E+00
  0.93940285E+00  0.66065998E+00  0.66735804E+00
  0.76322944E+00  0.21821423E+00  0.90303415E+00
  0.23680863E+00  0.15808085E+00  0.99014731E-01
  0.85625634E+00  0.74844177E+00  0.88081719E+00
  0.55745775E+00  0.79732404E+00  0.25946323E+00
  0.73943755E+00  0.42460996E+00  0.76885837E+00
  0.91308587E+00  0.38792485E+00  0.98070617E+00
  0.42780039E+00  0.30433450E+00  0.79252180E+00
  0.85105178E+00  0.49767170E+00  0.38854513E+00
  0.99764165E+00  0.92162551E+00  0.90423862E+00
  0.95876978E+00  0.42365966E+00  0.70370726E+00
  0.83068133E+00  0.95339041E+00  0.99311128E+00
  0.24129014E+00  0.91687686E+00  0.36034412E+00
  0.71997893E+00  0.62473760E+00  0.76738493E+00
  0.91637273E+00  0.10263985E+00  0.99944158E+00
  0.88211129E+00  0.24480612E+00  0.26230819E+00
  0.18592864E+00  0.39431737E+00  0.59379248E+00
  0.13740346E+00  0.29028314E+00  0.82437432E+00
  0.51676664E+00  0.29547201E+00  0.99518243E+00
  0.65925644E+00  0.37528571E-01  0.42881328E+00
  0.47231202E+00  0.31767976E+00  0.48001332E+00
  0.70143391E+00  0.77406149E+00  0.92609482E+00
  0.74566335E-01  0.17782093E+00  0.29869874E+00
  0.18416732E+00  0.58686326E+00  0.19918626E+00
  0.23208983E+00  0.21477576E+00  0.50690603E+00
  0.21117963E+00  0.13521646E-01  0.14147677E+00
  0.69968357E+00  0.36579349E+00  0.41579466E+00
  0.38788102E+00  0.63950890E+00  0.26213888E+00
  0.73194089E+00  0.52210268E+00  0.57088046E+00
  0.59879262E+00  0.35272617E+00  0.76030156E+00
  0.49948268E+00  0.69289793E+00  0.46368715E+00
  0.10695804E+00  0.38630250E+00  0.34131186E+00
  0.48613228E+00  0.36045535E+00  0.27882864E+00
  0.69913492E+00  0.35214018E+00  0.81145937E-01
  0.10068220E+00  0.85381710E+00  0.64496757E+00
  0.84935386E+00  0.21994956E+00  0.66628170E+00
  0.81526908E+00  0.86083819E+00  0.68961964E+00
  0.53017519E+00  0.61313426E+00  0.12543112E+00
  0.16312217E+00  0.73869566E+00  0.28365523E-01
  0.12839443E+00  0.59009250E+00  0.46764872E+00
  0.57288467E-01  0.72891322E+00  0.34018496E+00
  0.63300723E+00  0.84805788E+00  0.59162168E+00
  0.38014002E+00  0.51426085E+00  0.73349479E+00
  0.49582967E+00  0.51184098E+00  0.47738528E+00
  0.25494345E+00  0.56119048E+00  0.91647685E+00
  0.16713477E+00  0.62078991E+00  0.70788608E+00
  0.93582123E+00  0.33060808E-01  0.66939821E+00
  0.38809450E+00  0.12010574E+00  0.64760682E+00
  0.15502889E+00  0.86023673E-01  0.70376935E+00
  0.42124301E+00  0.10501455E+00  0.44016125E+00
  0.43054922E+00  0.43719416E+00  0.89991940E+00
  0.74647909E+00  0.97523992E+00  0.13631314E+00
  0.93471971E+00  0.90615287E+00  0.45733149E+00
  0.66164576E+00  0.88639537E-01  0.69671394E+00
  0.99143208E+00  0.58554980E+00  0.90282175E+00
  0.70505056E+00  0.86084431E+00  0.44583649E+00
  0.21228315E+00  0.34884613E+00  0.55321349E-01
  0.26021613E+00  0.83993884E+00  0.54841546E+00
  0.41253297E+00  0.98970482E-01  0.25340756E-01
  0.45902856E+00  0.92998099E+00  0.47772607E+00
  0.42441505E+00  0.42530006E+00  0.14098898E+00
  0.98903531E-02  0.26535434E+00  0.10808207E+00
  0.81655814E+00  0.83821576E+00  0.20106045E+00
 -0.22191692E-03  0.10013408E-03 -0.18775640E-03
 -0.28593233E-03  0.44076082E-04  0.54304115E-04
  0.36236078E-03 -0.25701893E-03 -0.16763175E-03
  0.18047073E-03 -0.82405809E-04  0.18157569E-03
 -0.54821160E-04 -0.19174489E-03  0.71886616E-04
  0.22699106E-03  0.26563724E-03 -0.15787011E-03
 -0.66384376E-03  0.20888171E-03 -0.28615867E-03
  0.26252430E-04 -0.83799039E-04 -0.14771869E-03
 -0.55320001E-04 -0.48199542E-03  0.43312206E-04
  0.42153448E-04  0.91507003E-03  0.99157813E-04
 -0.45184108E-03 -0.31175947E-03 -0.26739802E-03
 -0.26513284E-03  0.10775335E-03 -0.43636497E-03
  0.38304832E-03 -0.19914107E-03 -0.13935927E-04
  0.46373345E-03 -0.29434513E-04 -0.44973818E-03
 -0.15078873E-03 -0.91504570E-05 -0.31209858E-03
 -0.32139137E-03 -0.85745713E-04 -0.49803297E-03
 -0.36306826E-03  0.18334931E-04  0.20686201E-04
  0.50473373E-03 -0.29551407E-03  0.26496972E-03
 -0.63084099E-04  0.66369751E-04 -0.17103148E-05
  0.43096596E-03 -0.68915634E-04  0.38707812E-03
  0.22859364E-04  0.11751439E-03 -0.39887185E-03
 -0.32929700E-03  0.21933096E-03 -0.94730199E-04
  0.22818120E-03 -0.91685350E-04 -0.23774842E-03
  0.27503294E-03  0.18103257E-03 -0.54467457E-03
  0.15244036E-03 -0.12831737E-03 -0.24074097E-03
  0.13664444E-03  0.41185726E-03  0.34183230E-03
 -0.39184507E-04 -0.20338801E-03 -0.15442869E-03
  0.35055776E-03 -0.14410450E-03 -0.16384712E-03
 -0.36074277E-03 -0.26036583E-03  0.18185599E-03
 -0.28184533E-03 -0.20797896E-03  0.38618493E-03
 -0.16033602E-03  0.13824804E-03  0.86841783E-04
  0.43530500E-03  0.48874297E-03  0.42493483E-03
 -0.41299333E-03  0.55538231E-04  0.41465969E-03
  0.21094273E-03 -0.26983611E-03  0.32144415E-04
  0.46711724E-03 -0.11348303E-03  0.56551156E-04
 -0.25183276E-05 -0.23100640E-03  0.45018827E-04
  0.29896948E-03  0.11541400E-03 -0.19939561E-03
  0.25650204E-03  0.21075162E-03  0.14193949E-03
  0.34092402E-03  0.78904721E-03 -0.22680544E-04
  0.34954514E-03 -0.42054244E-03 -0.24587270E-03
 -0.56263577E-04  0.10075287E-03  0.80082526E-04
 -0.87072880E-04  0.12385933E-03 -0.32254558E-03
 -0.13594218E-03  0.21566104E-03 -0.37109184E-04
  0.16908230E-03 -0.28782041E-03  0.24079182E-03
  0.21570779E-03 -0.60941829E-04 -0.84668509E-04
 -0.10921609E-03 -0.33869752E-03 -0.14020404E-03
  0.14777583E-03  0.16867328E-03 -0.16758447E-03
 -0.64263660E-03 -0.66487713E-04  0.23196554E-04
  0.62708337E-05  0.22184195E-03 -0.21710178E-03
 -0.27327007E-03 -0.12494227E-03 -0.70928620E-03
  0.54265339E-03 -0.21240407E-04 -0.24852681E-04
 -0.21741036E-03  0.33588404E-03 -0.17141684E-04
  0.24494140E-03 -0.35606939E-03 -0.11353392E-03
  0.27576475E-03  0.24531996E-03  0.10100319E-03
  0.13537534E-03  0.42448015E-03 -0.20060058E-03
  0.42793658E-03 -0.58166766E-05  0.19778289E-03
 -0.23926871E-03 -0.50659211E-03  0.20285589E-03
  0.33654816E-04  0.21849817E-03  0.32452608E-03
 -0.13929427E-04 -0.29048719E-03  0.81722069E-04
 -0.10921156E-03 -0.14899806E-04  0.38798700E-03
  0.28986460E-04 -0.21546854E-04  0.31526757E-03
 -0.28848628E-03  0.85434477E-04  0.11305373E-04
  0.15201295E-03 -0.13423310E-03 -0.61425970E-04
  0.17379657E-03  0.19443536E-03  0.24551024E-03
  0.72566155E-04  0.16657280E-03 -0.18136331E-03
  0.21716613E-03  0.78537995E-04 -0.12819495E-03
 -0.24489649E-03  0.44303385E-03 -0.24173483E-03
 -0.22866534E-03  0.81367642E-04 -0.15863870E-03
 -0.93460307E-04  0.18270376E-03 -0.13999388E-03
  0.59644830E-03  0.93046470E-05 -0.21533792E-03
 -0.29895700E-03 -0.10810860E-04 -0.12254156E-03
  0.77514245E-04  0.30635211E-03  0.26126467E-03
 -0.16566300E-03 -0.10750446E-03  0.20559355E-03
  0.64119286E-04 -0.49051859E-03 -0.97472925E-04
  0.13865593E-03  0.17882969E-03  0.97416003E-04
 -0.17067035E-03  0.16716570E-03  0.31378307E-03
 -0.29226215E-03  0.57018701E-03  0.23221800E-03
  0.62339829E-05 -0.39279393E-03 -0.29347439E-03
 -0.19577186E-03 -0.21680726E-03 -0.11822516E-03
  0.92767570E-05  0.24261768E-03 -0.18671372E-04
 -0.17356626E-03 -0.51859672E-04 -0.38868121E-04
  0.52519430E-03 -0.32198277E-03  0.11901785E-03
 -0.75714084E-04  0.32863489E-03  0.81911686E-04
 -0.10651223E-03 -0.23567991E-03  0.42529435E-04
 -0.27192814E-04 -0.14555456E-03  0.12309985E-03
 -0.39717910E-04 -0.47756269E-03 -0.40811257E-04
 -0.16227846E-03  0.34291356E-03 -0.11790354E-03
 -0.58320566E-04 -0.14549819E-03 -0.19669568E-04
 -0.53851085E-04  0.25404257E-03  0.46390619E-03
  0.14548531E-03 -0.69197887E-04 -0.22166854E-04
 -0.11306188E-03  0.94140718E-04 -0.22157329E-03
 -0.27576636E-04 -0.30794899E-03  0.23551520E-03
  0.10556693E-03  0.40854452E-04  0.87700514E-04
 -0.19140634E-04  0.37702919E-03 -0.16487030E-04
 -0.86423044E-04 -0.70567972E-04  0.66826233E-04
 -0.35717361E-03 -0.21907509E-03  0.23974640E-03
 -0.17964077E-04 -0.31495965E-03  0.21938772E-04
  0.11851483E-03 -0.20396503E-03 -0.59846155E-03
  0.24971122E-03 -0.68771637E-04 -0.16787235E-03
  0.50677850E-03 -0.22808541E-03 -0.34422836E-03
  0.38462589E-03 -0.25380551E-03 -0.49785496E-03
 -0.11526617E-03 -0.50060454E-03 -0.22233258E-05
 -0.17667199E-03  0.29136367E-04  0.81988337E-04
  0.34115452E-04  0.29598203E-03 -0.10712675E-03
 -0.32174457E-03  0.32838316E-03  0.15837141E-03
  0.19508469E-03  0.31171828E-03  0.41161160E-04
 -0.44289930E-03  0.61810731E-03  0.44451366E-03
 -0.21429294E-04  0.16128594E-03 -0.92036085E-04
 -0.10090880E-03 -0.21824390E-03  0.10268802E-03
  0.14897158E-03  0.15395639E-03 -0.52302794E-04