Amorphous Sb                            
   1.00000000000000     
    19.7867014927297191    0.0000000000000000    0.0000000000000000
     0.0000000000000000   19.7867014927297191    0.0000000000000000
     0.0000000000000000    0.0000000000000000   19.7867014927297191
   Si   Se
   150   150
Direct
  0.1499016191071689  0.3931165782691011  0.2429845510955673
  0.7556817075039248  0.9532140336816255  0.9868049561168561
  0.2743906214116834  0.4458910194691086  0.5409740504124656
  0.7917615429830036  0.4471012682619389  0.0185485461916812
  0.3376472732451532  0.2078018930166721  0.3253859091425824
  0.1163845523440656  0.3612158279662125  0.1005979223913016
  0.4350456676042427  0.3351945140079025  0.5010465703385165
  0.2598361468050641  0.1419004055441349  0.1739203898179866
  0.6798530065827819  0.1717230111096484  0.2270571560103818
  0.5457875258787297  0.7795404556579584  0.0048487016725716
  0.3126302859218768  0.9238328894418331  0.0100363740852600
  0.7625623102966728  0.8110845284633896  0.4684995448846152
  0.8384077835588215  0.3329699526627223  0.1566950803202047
  0.2592709433476088  0.8402961025335500  0.1754352367014391
  0.7326951611444201  0.7995866188434775  0.8955623063329412
  0.8028099261734454  0.6973546648467064  0.3332885145907198
  0.4373257256942580  0.6162623050181040  0.2655602023274426
  0.9229044946405196  0.3936341971389368  0.9238823883366862
  0.6704272077677018  0.5113304597797779  0.1219823442129169
  0.6481179856608890  0.6517492893216996  0.7623037423414232
  0.1909509236902736  0.1896318131504771  0.7923268560849550
  0.9724385248424881  0.0987084594164074  0.4232122193109191
  0.8005559293801383  0.9500877964402790  0.2058200022553081
  0.9513820863931812  0.3359666621753803  0.5991759813673241
  0.7473276462466316  0.3139028745217090  0.5677691986850704
  0.5806488796028120  0.4089436338802770  0.8241903515046971
  0.9528299338414996  0.7347029222316337  0.6156850261606763
  0.3630405267909751  0.0142832294176642  0.8729100287699367
  0.6311731796146987  0.4468534038076157  0.9471945692870918
  0.3428516068945129  0.5108587614553315  0.4699354898185746
  0.7667609294647519  0.5284854520426521  0.4056637936314260
  0.3223165447459664  0.6765399764576401  0.5273816203645367
  0.6039976685696686  0.9917870768690094  0.2938342954110098
  0.8927169939763289  0.7344723345710165  0.4062142389134422
  0.5779761257866767  0.4974580022099104  0.6651162245266136
  0.9744754681109029  0.4388199509362209  0.1253768964409332
  0.9164061405229873  0.7040854619603465  0.8868235568860499
  0.1500064452274827  0.8774659185935150  0.1549429209765378
  0.3105149288797193  0.3786261686917172  0.3479460616009504
  0.5061613075798377  0.4135153689880227  0.2423619952867853
  0.2846934209321574  0.2544428983812352  0.8225905285708421
  0.6438566178252429  0.2135092825767160  0.6995311507462318
  0.9191801235903583  0.6529496964923780  0.2019483436570511
  0.3288976218205590  0.2382355575737449  0.2069068564171630
  0.9866349637832670  0.8566315495641987  0.2098212953177168
  0.8494120544058248  0.4480269202809311  0.1225658971148178
  0.2583117334557556  0.6343217542631265  0.6166604168884291
  0.9853461532376002  0.3718950168357935  0.0241628596909180
  0.1438450909875684  0.4551961000785099  0.3446420790108320
  0.1486251812846788  0.8574051967608582  0.4519745422609844
  0.8603813310517836  0.7993166881466891  0.6602157183159605
  0.9620987771315441  0.2832899760394980  0.4906096385411658
  0.9751496963941761  0.0761111378192254  0.7953294383130398
  0.7228533816179592  0.7772405112429226  0.0137021978239744
  0.6978602271832770  0.5217457493054667  0.0083561733242874
  0.6529350340993432  0.6975084036080332  0.8784337147694146
  0.8116217264975134  0.6470499684591644  0.1479782412780182
  0.5874245546771490  0.2393740150942136  0.5889011491690113
  0.9917496451817627  0.9918398185446193  0.4785359617205813
  0.0470525259936565  0.7270689997475870  0.6900120070621654
  0.7135652051298393  0.6290599670923882  0.9604748256240399
  0.0681665918457597  0.1435558712567726  0.3688639647890355
  0.9486037992874898  0.8320032691188857  0.4491012090616380
  0.0231661181677865  0.6142624972619402  0.7229758616385809
  0.2731015881736951  0.0759737783917558  0.9209159955814457
  0.0663027638474247  0.2224450308106043  0.7165017144399641
  0.3850585725529143  0.4929786332029877  0.1120188270533760
  0.6452570347826949  0.8661300904110902  0.1290010836192934
  0.4716853075273022  0.0216227304944709  0.7410738586754704
  0.6205430136400238  0.9660517802452020  0.8542172410638216
  0.3927579505753727  0.3013358703522684  0.3849522502696701
  0.0371772128475314  0.4165270983258722  0.3912605903812789
  0.8886324308831490  0.6159630290966334  0.3125213528316380
  0.2937871397613705  0.5209207147516395  0.6331817773356576
  0.2446223946843276  0.6193796878383253  0.9137954162559652
  0.2331841291997350  0.6432742160642206  0.2877465376804835
  0.8340950465715835  0.7176958225353260  0.5117436555816397
  0.8233340267207083  0.5443771645855691  0.6836069482224829
  0.0328558529203775  0.3604890387167572  0.1994033456035140
  0.4764437991281341  0.5214553206254564  0.1966356738084016
  0.5711459789990414  0.9004839880085029  0.0427182919247855
  0.6294206519322856  0.7114478081387503  0.0507465190490208
  0.7781187495756328  0.7318713984235856  0.7174056801640205
  0.9230109106247326  0.5877988521370554  0.8520530487628974
  0.6456780739842642  0.0613431954665984  0.2039648819821096
  0.3456310639221769  0.0918666179433174  0.3570731617401535
  0.3242181514020217  0.7709616618918531  0.4563682936466407
  0.6212644047079223  0.2441763097904186  0.1497068210340657
  0.4702648131861977  0.3235121039924209  0.0456301012267417
  0.7121824397512526  0.1309524956460280  0.6371608110301210
  0.2024931768905986  0.1718548089415535  0.0706075291007480
  0.8710708875422668  0.5531301765024921  0.5737378854309938
  0.4015897418064966  0.8791221045353126  0.6260507267485096
  0.8900350675249911  0.1176933721134716  0.3365402659977548
  0.6515545403296983  0.3277418242332644  0.9579046918495706
  0.0864476453779304  0.4717919293458976  0.8273247823863628
  0.6344793371385435  0.9776628956597619  0.9736564820864047
  0.6152208563948065  0.0722501733858465  0.5937987877220650
  0.5319053192472865  0.5043830186702820  0.5543509835896785
  0.5666792951814656  0.0683547146406838  0.1146373943327674
  0.0546610557891043  0.5265647629277197  0.1164745306609305
  0.8196681096429046  0.3774819736786199  0.4942386989904648
  0.6570272820692225  0.7554813360904475  0.4549900555404065
  0.6581744345687497  0.1486694675962568  0.8416664565226810
  0.9083563394958531  0.0251912295861914  0.9199826087074641
  0.5674923500994851  0.8939322922743997  0.5123623014870660
  0.2887557531752876  0.1750373548708026  0.9864903418646946
  0.3691989430552312  0.9703851134955457  0.6984600386036206
  0.9110676378796256  0.4412988651200180  0.5450658153241363
  0.7692128765857404  0.3340333691050645  0.9849322222600989
  0.9810125250200485  0.7676682574496283  0.7755983446482517
  0.2578680976097019  0.3311101418536992  0.2477267670368946
  0.6522543781360568  0.3259483276994928  0.2309233023447987
  0.9469937800614119  0.2787837136173934  0.1700910862946614
  0.6949280822160659  0.5861154622368971  0.5813270356019657
  0.1591144915486566  0.4643854831195142  0.1483507381381131
  0.7192632260437435  0.6615569160124650  0.4124121736643573
  0.4568876484535238  0.6368954101200472  0.9780818232777904
  0.7367256610776352  0.6247530704373219  0.6884887157432615
  0.3976204288084375  0.6884950230551325  0.7350144311468725
  0.5650334697914161  0.2009081641140469  0.7940254497834047
  0.7952025387881676  0.1986302190808331  0.2518966019865516
  0.2707652012245774  0.8473543948300417  0.2953026354417290
  0.0711698096704225  0.0162775516208740  0.9049853153417118
  0.2136517272802934  0.7706312827823822  0.0261582858153702
  0.5923775089617465  0.9032757797995288  0.3921712155909844
  0.5755024981657186  0.2982040931145491  0.8688395005255671
  0.7855112022996096  0.3472847107994923  0.6742656088072891
  0.2088477746395512  0.0473151282069253  0.2352606622642099
  0.9245605597381328  0.1719422572261990  0.2321861839940667
  0.7932162906669120  0.6852486805846212  0.0322322660063321
  0.3195591274670448  0.0155483919465027  0.2673502446059146
  0.1957256092739001  0.8664871957359850  0.5664045402555544
  0.7108493607085720  0.9019434517587186  0.4162437206378087
  0.7832790208783607  0.6018614213118880  0.5018110924568546
  0.3639180114381801  0.6483452605119240  0.8981995909644240
  0.2606865778813159  0.5949197209739836  0.7956910338190397
  0.4834149837895438  0.7304595492759276  0.3600466287347288
  0.2682754402376943  0.7320079074073718  0.1291180716227487
  0.1769162297851139  0.0710510233676871  0.4421934166612544
  0.8102850511952653  0.7315379460343507  0.8355380354877298
  0.2537923179933657  0.7454966140539483  0.3586992762354058
  0.8418140359879089  0.9867087530614782  0.5752872266158704
  0.1381341940055947  0.5186523940975718  0.6350045247172247
  0.1149666555545110  0.4855814379519217  0.9427407190432788
  0.4237286690440882  0.5469902474304646  0.5537829987415535
  0.3815234398066707  0.6813961235513233  0.1305538569377589
  0.7478486452762070  0.0118612414836150  0.3994518207994204
  0.4183300876141303  0.2318367504652059  0.1096262981030165
  0.9122487092268443  0.9871226944027782  0.1785386403876785
  0.2308503002236861  0.5077245054415727  0.9530831699711229
  0.2292377189773518  0.0058494552403019  0.0048187935760780
  0.5287350888200919  0.4815411244757257  0.9015621558865732
  0.8830554347699220  0.2828614108320551  0.6765511793989489
  0.2240908267341482  0.2403060866775988  0.3203222173473463
  0.9055225545587504  0.6938718462611106  0.0054460056772996
  0.7104685447079646  0.2986495638494944  0.7488899285487278
  0.3991725842020344  0.4175301633808743  0.0220419272545413
  0.7469729229705706  0.7055978608806583  0.2262295520761910
  0.4339109984551257  0.8051149609559261  0.4328817814885042
  0.8859586176948042  0.9295977551465384  0.4500092436031906
  0.8010300005580717  0.1838470582578111  0.3703667352303697
  0.4501166902186711  0.7313182445467277  0.2465561203196813
  0.1453771620124158  0.5758480415716889  0.3373977454175119
  0.8272311382133921  0.0441071498353338  0.0054527703442631
  0.9693669519189285  0.9098545079405014  0.1079392730724820
  0.9809816943613967  0.9427471128463765  0.9461079861027457
  0.9717882839884098  0.1545767781836531  0.7085451594796055
  0.4328541451430041  0.6623079974135209  0.5573239947604236
  0.8005401869225039  0.0563884072231744  0.6674173535169885
  0.3453030406799158  0.8992896158434291  0.1209737244736573
  0.3688296653150829  0.5575666635330165  0.8200539067275443
  0.1451326450468784  0.6249801404074873  0.5907044207274197
  0.5393913573087801  0.7327348851569440  0.8945018266588889
  0.5327033060412418  0.3861253105009013  0.1314947448276200
  0.4505488653263825  0.7900905441769055  0.6734640728539247
  0.8467433921838250  0.3064994432060004  0.9015439869642563
  0.4027299894549472  0.5042524510851720  0.6622591350324214
  0.0659107825465384  0.3169120657588778  0.4467674514399960
  0.6083899295534962  0.7601613667133691  0.1578242621819399
  0.3829002757245235  0.2342685029132596  0.7669015000308477
  0.8672381472988846  0.0338769648730093  0.8108472623974663
  0.3705893286331801  0.9124611054625902  0.2975705000467883
  0.7751024813357787  0.3208962740851362  0.2576928992134313
  0.8444958249000720  0.4380020125746285  0.7245589046105678
  0.2800069176382465  0.2809638536323789  0.9349539844267198
  0.0362037433909776  0.2126200216557521  0.2851388804463895
  0.7861859876728516  0.6146295049813588  0.8592990277267631
  0.4305990017065398  0.7483622679375230  0.0258038182761666
  0.9871375948395027  0.1172131956299864  0.9073056706892686
  0.1431302626131412  0.1805717443233448  0.4514366385587749
  0.6616888858360142  0.7558293681314368  0.7028475767152145
  0.1186702407775186  0.8381254165461414  0.0490097045716666
  0.7372774744694581  0.0310500131469453  0.1385267550550680
  0.5933029461016588  0.2557575300825476  0.0356700217947505
  0.4692698252354575  0.2972201597123956  0.9259454184718408
  0.0918856749560675  0.8170945453957330  0.2363884715941253
  0.2072260897736768  0.2868967515292695  0.1075077817327781
  0.7791912460920827  0.8325694255920979  0.3477355218197076
  0.9172949284196648  0.8598543479508862  0.7444998148051951
  0.9570413300878045  0.6324414281202522  0.5551944229403176
  0.6482801381859886  0.9631095928064255  0.5666200176105036
  0.2755618420064749  0.4430934137040836  0.1201401883585191
  0.5120181757509172  0.4198305961831608  0.4703412588819091
  0.1160338401160885  0.0086382698645906  0.5183347335399517
  0.6360302336018364  0.3335455921594672  0.5403640548842858
  0.2111563016828697  0.9443823381591017  0.6539232037026252
  0.0594655921461182  0.3167048814911126  0.6438045717420593
  0.7592334060021457  0.8693501204657892  0.0814446601936751
  0.6726460696389722  0.5723025891498565  0.3524054914713446
  0.9891190238644256  0.4003910797521186  0.8284879475503786
  0.5146936115047041  0.1761033158964835  0.1638027104873032
  0.3105670146761597  0.8677296251170077  0.5283236084202585
  0.4517769509553560  0.3173165864276157  0.2806245731269854
  0.5868469208262255  0.7814953999224628  0.5462538077308139
  0.0091413870165056  0.7767733448277312  0.8862883156577652
  0.2923805854935893  0.0615646461903978  0.4591103845023810
  0.0283202913366765  0.6330620682570185  0.1657118577396872
  0.2812384904504412  0.8276034640987149  0.9514554104038169
  0.1301816282771071  0.0442763523926928  0.3334346501360557
  0.3256627762811704  0.5905157989692640  0.2366823639011955
  0.9736709295609103  0.2595108138646367  0.0561989467073545
  0.9745720884120388  0.4127544663015215  0.2931833199169631
  0.5172265348914706  0.0924206765704625  0.6583787987367060
  0.1378386072557447  0.9955974160357783  0.1571873581505798
  0.3973531582805663  0.1514539599300448  0.0261537750199352
  0.1676239409385119  0.1781921885121065  0.6788667081409443
  0.6427120846789194  0.0613737259196014  0.3841426047015872
  0.2186430027597126  0.4975907020689263  0.7265431871040988
  0.7989427477643787  0.0620115874012086  0.4914776676754400
  0.0116227904031163  0.8060387704540020  0.5431417384621042
  0.3281097380186324  0.3426479031510041  0.5566770947039217
  0.1537334897170624  0.7977285591069148  0.6475688789678316
  0.0426546890782120  0.8966199362303158  0.4066615374055331
  0.9051499297839598  0.7714152850385716  0.2197429284980714
  0.8595554166859714  0.5062029285305201  0.3388869871515965
  0.1096647041166179  0.1313850344613172  0.0291541982915433
  0.6495342897651497  0.8928400839927590  0.2442068711102650
  0.4140305272977400  0.9573085907214107  0.9615641568607245
  0.6902061500693861  0.3986569017833972  0.1219827164439309
  0.3741665042302031  0.7477173236566230  0.8369362305075612
  0.1507827967916455  0.7444863746826016  0.4167483025062069
  0.8663780434521655  0.4929543948501873  0.9397112331221678
  0.3218057353524415  0.9327442051269301  0.7981901439037813
  0.6530591171878797  0.8572119859898208  0.8297626549879666
  0.4595535094466001  0.0797851827890739  0.3852752713297036
  0.2166255600007148  0.3955493545640607  0.4163437433701347
  0.2244225774874664  0.9139305602735774  0.3818760279872322
  0.6827608523787347  0.0432275572998790  0.7938776226889317
  0.9587036327007397  0.0013674204802570  0.5920608608839970
  0.3533357108521500  0.0674878790899385  0.1662184101944391
  0.3153278171841478  0.3407653232566048  0.7540380615062290
  0.3550294697478051  0.5918390172808898  0.0523885899699010
  0.5939759131464157  0.5983815018621996  0.5212556696726480
  0.0305608166611506  0.5069786316345031  0.6716978093097268
  0.5025531112184751  0.9696104719487550  0.1154184218821683
  0.8077747110272853  0.0355754850997414  0.2967503486887253
  0.7822588020060408  0.2627118113523395  0.0798146601563161
  0.6104747170933180  0.0879795523068694  0.0078141565437591
  0.5779036291716366  0.5745311004954772  0.1614704114006358
  0.5224224788617420  0.9325039815171792  0.7954774412461063
  0.9536630745845329  0.0937379731073804  0.1492437788666479
  0.9032054299436680  0.6226548588743128  0.7327465792390839
  0.0999728709836418  0.3703226091136571  0.9795289645376499
  0.7919800269898332  0.8806039904648841  0.6073783170291733
  0.6263893418584914  0.2361468579912795  0.3085331155899738
  0.4670366745063035  0.9419281517944711  0.5509449109090312
  0.1837113620531383  0.6699508094960294  0.1839901596300351
  0.6124287966600406  0.4201756171521822  0.2904903601775004
  0.0559307590809439  0.9993849457395427  0.7805205712725538
  0.6888285600192319  0.4790480667151158  0.6313954535561308
  0.0950794723984885  0.2478195865156465  0.8266067478154824
  0.1585465264422652  0.4324087859106598  0.5604655811127941
  0.8840777089948801  0.3234318819687587  0.4143008953643914
  0.4715812162453545  0.2699445032930541  0.5923018738401353
  0.6910874698589424  0.4446109547667660  0.8436373336562468
  0.9568042966748180  0.1687583467102201  0.5165014169232407
  0.9904780430768909  0.4889113747679517  0.4706755827027109
  0.9770642159042708  0.6589883711478635  0.3757035565261404
  0.0495317735076597  0.5591267907218125  0.0044614024292997
  0.5850456980196341  0.1488466316816144  0.5113038967339065
  0.2665094707194129  0.6900388422427497  0.7206360117720365
  0.5380391632857666  0.4020260917612504  0.7162966396891335
  0.4927932838317162  0.0306170059202771  0.2776997830835342
  0.2940809252348444  0.0345118432517708  0.6361082066839288
  0.8130023037827172  0.8927942174633614  0.9090328178390763
  0.5499390454902127  0.5935328240665427  0.7280185947877698
  0.0583969710407928  0.5926492025297563  0.8323829368252689
  0.7285710065830386  0.4241300400622805  0.4376785140645438
  0.1625590665525607  0.6915382697792154  0.9548017581872799
  0.4362811821248371  0.0946260840845881  0.8264083752772891
  0.2768233143226482  0.6037216613790051  0.4485264659270811
  0.4775495640868499  0.6161698537127194  0.3780786677220149
  0.7783473287764764  0.5340844910301854  0.1816358902816120
  0.7300445555973951  0.1778328956529975  0.9178751448292957
  0.3733620569481459  0.4785903302507535  0.3617120116486845
  0.9546301481743171  0.9429329039658825  0.2804198722969247
  0.2019383325835022  0.0798433917863051  0.8283538576175289
  0.5941038452809408  0.7815382483702109  0.3554368118669515
  0.7682377317776172  0.1999524305226714  0.5572952948304888
 
  0.00000000E+00  0.00000000E+00  0.00000000E+00
  0.00000000E+00  0.00000000E+00  0.00000000E+00
  0.00000000E+00  0.00000000E+00  0.00000000E+00
  0.00000000E+00  0.00000000E+00  0.00000000E+00
  0.00000000E+00  0.00000000E+00  0.00000000E+00
  0.00000000E+00  0.00000000E+00  0.00000000E+00
  0.00000000E+00  0.00000000E+00  0.00000000E+00
  0.00000000E+00  0.00000000E+00  0.00000000E+00
  0.00000000E+00  0.00000000E+00  0.00000000E+00
  0.00000000E+00  0.00000000E+00  0.00000000E+00
  0.00000000E+00  0.00000000E+00  0.00000000E+00
  0.00000000E+00  0.00000000E+00  0.00000000E+00
  0.00000000E+00  0.00000000E+00  0.00000000E+00
  0.00000000E+00  0.00000000E+00  0.00000000E+00
  0.00000000E+00  0.00000000E+00  0.00000000E+00
  0.00000000E+00  0.00000000E+00  0.00000000E+00
  0.00000000E+00  0.00000000E+00  0.00000000E+00
  0.00000000E+00  0.00000000E+00  0.00000000E+00
  0.00000000E+00  0.00000000E+00  0.00000000E+00
  0.00000000E+00  0.00000000E+00  0.00000000E+00
  0.00000000E+00  0.00000000E+00  0.00000000E+00
  0.00000000E+00  0.00000000E+00  0.00000000E+00
  0.00000000E+00  0.00000000E+00  0.00000000E+00
  0.00000000E+00  0.00000000E+00  0.00000000E+00
  0.00000000E+00  0.00000000E+00  0.00000000E+00
  0.00000000E+00  0.00000000E+00  0.00000000E+00
  0.00000000E+00  0.00000000E+00  0.00000000E+00
  0.00000000E+00  0.00000000E+00  0.00000000E+00
  0.00000000E+00  0.00000000E+00  0.00000000E+00
  0.00000000E+00  0.00000000E+00  0.00000000E+00
  0.00000000E+00  0.00000000E+00  0.00000000E+00
  0.00000000E+00  0.00000000E+00  0.00000000E+00
  0.00000000E+00  0.00000000E+00  0.00000000E+00
  0.00000000E+00  0.00000000E+00  0.00000000E+00
  0.00000000E+00  0.00000000E+00  0.00000000E+00
  0.00000000E+00  0.00000000E+00  0.00000000E+00
  0.00000000E+00  0.00000000E+00  0.00000000E+00
  0.00000000E+00  0.00000000E+00  0.00000000E+00
  0.00000000E+00  0.00000000E+00  0.00000000E+00
  0.00000000E+00  0.00000000E+00  0.00000000E+00
  0.00000000E+00  0.00000000E+00  0.00000000E+00
  0.00000000E+00  0.00000000E+00  0.00000000E+00
  0.00000000E+00  0.00000000E+00  0.00000000E+00
  0.00000000E+00  0.00000000E+00  0.00000000E+00
  0.00000000E+00  0.00000000E+00  0.00000000E+00
  0.00000000E+00  0.00000000E+00  0.00000000E+00
  0.00000000E+00  0.00000000E+00  0.00000000E+00
  0.00000000E+00  0.00000000E+00  0.00000000E+00
  0.00000000E+00  0.00000000E+00  0.00000000E+00
  0.00000000E+00  0.00000000E+00  0.00000000E+00
  0.00000000E+00  0.00000000E+00  0.00000000E+00
  0.00000000E+00  0.00000000E+00  0.00000000E+00
  0.00000000E+00  0.00000000E+00  0.00000000E+00
  0.00000000E+00  0.00000000E+00  0.00000000E+00
  0.00000000E+00  0.00000000E+00  0.00000000E+00
  0.00000000E+00  0.00000000E+00  0.00000000E+00
  0.00000000E+00  0.00000000E+00  0.00000000E+00
  0.00000000E+00  0.00000000E+00  0.00000000E+00
  0.00000000E+00  0.00000000E+00  0.00000000E+00
  0.00000000E+00  0.00000000E+00  0.00000000E+00
  0.00000000E+00  0.00000000E+00  0.00000000E+00
  0.00000000E+00  0.00000000E+00  0.00000000E+00
  0.00000000E+00  0.00000000E+00  0.00000000E+00
  0.00000000E+00  0.00000000E+00  0.00000000E+00
  0.00000000E+00  0.00000000E+00  0.00000000E+00
  0.00000000E+00  0.00000000E+00  0.00000000E+00
  0.00000000E+00  0.00000000E+00  0.00000000E+00
  0.00000000E+00  0.00000000E+00  0.00000000E+00
  0.00000000E+00  0.00000000E+00  0.00000000E+00
  0.00000000E+00  0.00000000E+00  0.00000000E+00
  0.00000000E+00  0.00000000E+00  0.00000000E+00
  0.00000000E+00  0.00000000E+00  0.00000000E+00
  0.00000000E+00  0.00000000E+00  0.00000000E+00
  0.00000000E+00  0.00000000E+00  0.00000000E+00
  0.00000000E+00  0.00000000E+00  0.00000000E+00
  0.00000000E+00  0.00000000E+00  0.00000000E+00
  0.00000000E+00  0.00000000E+00  0.00000000E+00
  0.00000000E+00  0.00000000E+00  0.00000000E+00
  0.00000000E+00  0.00000000E+00  0.00000000E+00
  0.00000000E+00  0.00000000E+00  0.00000000E+00
  0.00000000E+00  0.00000000E+00  0.00000000E+00
  0.00000000E+00  0.00000000E+00  0.00000000E+00
  0.00000000E+00  0.00000000E+00  0.00000000E+00
  0.00000000E+00  0.00000000E+00  0.00000000E+00
  0.00000000E+00  0.00000000E+00  0.00000000E+00
  0.00000000E+00  0.00000000E+00  0.00000000E+00
  0.00000000E+00  0.00000000E+00  0.00000000E+00
  0.00000000E+00  0.00000000E+00  0.00000000E+00
  0.00000000E+00  0.00000000E+00  0.00000000E+00
  0.00000000E+00  0.00000000E+00  0.00000000E+00
  0.00000000E+00  0.00000000E+00  0.00000000E+00
  0.00000000E+00  0.00000000E+00  0.00000000E+00
  0.00000000E+00  0.00000000E+00  0.00000000E+00
  0.00000000E+00  0.00000000E+00  0.00000000E+00
  0.00000000E+00  0.00000000E+00  0.00000000E+00
  0.00000000E+00  0.00000000E+00  0.00000000E+00
  0.00000000E+00  0.00000000E+00  0.00000000E+00
  0.00000000E+00  0.00000000E+00  0.00000000E+00
  0.00000000E+00  0.00000000E+00  0.00000000E+00
  0.00000000E+00  0.00000000E+00  0.00000000E+00
  0.00000000E+00  0.00000000E+00  0.00000000E+00
  0.00000000E+00  0.00000000E+00  0.00000000E+00
  0.00000000E+00  0.00000000E+00  0.00000000E+00
  0.00000000E+00  0.00000000E+00  0.00000000E+00
  0.00000000E+00  0.00000000E+00  0.00000000E+00
  0.00000000E+00  0.00000000E+00  0.00000000E+00
  0.00000000E+00  0.00000000E+00  0.00000000E+00
  0.00000000E+00  0.00000000E+00  0.00000000E+00
  0.00000000E+00  0.00000000E+00  0.00000000E+00
  0.00000000E+00  0.00000000E+00  0.00000000E+00
  0.00000000E+00  0.00000000E+00  0.00000000E+00
  0.00000000E+00  0.00000000E+00  0.00000000E+00
  0.00000000E+00  0.00000000E+00  0.00000000E+00
  0.00000000E+00  0.00000000E+00  0.00000000E+00
  0.00000000E+00  0.00000000E+00  0.00000000E+00
  0.00000000E+00  0.00000000E+00  0.00000000E+00
  0.00000000E+00  0.00000000E+00  0.00000000E+00
  0.00000000E+00  0.00000000E+00  0.00000000E+00
  0.00000000E+00  0.00000000E+00  0.00000000E+00
  0.00000000E+00  0.00000000E+00  0.00000000E+00
  0.00000000E+00  0.00000000E+00  0.00000000E+00
  0.00000000E+00  0.00000000E+00  0.00000000E+00
  0.00000000E+00  0.00000000E+00  0.00000000E+00
  0.00000000E+00  0.00000000E+00  0.00000000E+00
  0.00000000E+00  0.00000000E+00  0.00000000E+00
  0.00000000E+00  0.00000000E+00  0.00000000E+00
  0.00000000E+00  0.00000000E+00  0.00000000E+00
  0.00000000E+00  0.00000000E+00  0.00000000E+00
  0.00000000E+00  0.00000000E+00  0.00000000E+00
  0.00000000E+00  0.00000000E+00  0.00000000E+00
  0.00000000E+00  0.00000000E+00  0.00000000E+00
  0.00000000E+00  0.00000000E+00  0.00000000E+00
  0.00000000E+00  0.00000000E+00  0.00000000E+00
  0.00000000E+00  0.00000000E+00  0.00000000E+00
  0.00000000E+00  0.00000000E+00  0.00000000E+00
  0.00000000E+00  0.00000000E+00  0.00000000E+00
  0.00000000E+00  0.00000000E+00  0.00000000E+00
  0.00000000E+00  0.00000000E+00  0.00000000E+00
  0.00000000E+00  0.00000000E+00  0.00000000E+00
  0.00000000E+00  0.00000000E+00  0.00000000E+00
  0.00000000E+00  0.00000000E+00  0.00000000E+00
  0.00000000E+00  0.00000000E+00  0.00000000E+00
  0.00000000E+00  0.00000000E+00  0.00000000E+00
  0.00000000E+00  0.00000000E+00  0.00000000E+00
  0.00000000E+00  0.00000000E+00  0.00000000E+00
  0.00000000E+00  0.00000000E+00  0.00000000E+00
  0.00000000E+00  0.00000000E+00  0.00000000E+00
  0.00000000E+00  0.00000000E+00  0.00000000E+00
  0.00000000E+00  0.00000000E+00  0.00000000E+00
  0.00000000E+00  0.00000000E+00  0.00000000E+00
  0.00000000E+00  0.00000000E+00  0.00000000E+00
  0.00000000E+00  0.00000000E+00  0.00000000E+00
  0.00000000E+00  0.00000000E+00  0.00000000E+00
  0.00000000E+00  0.00000000E+00  0.00000000E+00
  0.00000000E+00  0.00000000E+00  0.00000000E+00
  0.00000000E+00  0.00000000E+00  0.00000000E+00
  0.00000000E+00  0.00000000E+00  0.00000000E+00
  0.00000000E+00  0.00000000E+00  0.00000000E+00
  0.00000000E+00  0.00000000E+00  0.00000000E+00
  0.00000000E+00  0.00000000E+00  0.00000000E+00
  0.00000000E+00  0.00000000E+00  0.00000000E+00
  0.00000000E+00  0.00000000E+00  0.00000000E+00
  0.00000000E+00  0.00000000E+00  0.00000000E+00
  0.00000000E+00  0.00000000E+00  0.00000000E+00
  0.00000000E+00  0.00000000E+00  0.00000000E+00
  0.00000000E+00  0.00000000E+00  0.00000000E+00
  0.00000000E+00  0.00000000E+00  0.00000000E+00
  0.00000000E+00  0.00000000E+00  0.00000000E+00
  0.00000000E+00  0.00000000E+00  0.00000000E+00
  0.00000000E+00  0.00000000E+00  0.00000000E+00
  0.00000000E+00  0.00000000E+00  0.00000000E+00
  0.00000000E+00  0.00000000E+00  0.00000000E+00
  0.00000000E+00  0.00000000E+00  0.00000000E+00
  0.00000000E+00  0.00000000E+00  0.00000000E+00
  0.00000000E+00  0.00000000E+00  0.00000000E+00
  0.00000000E+00  0.00000000E+00  0.00000000E+00
  0.00000000E+00  0.00000000E+00  0.00000000E+00
  0.00000000E+00  0.00000000E+00  0.00000000E+00
  0.00000000E+00  0.00000000E+00  0.00000000E+00
  0.00000000E+00  0.00000000E+00  0.00000000E+00
  0.00000000E+00  0.00000000E+00  0.00000000E+00
  0.00000000E+00  0.00000000E+00  0.00000000E+00
  0.00000000E+00  0.00000000E+00  0.00000000E+00
  0.00000000E+00  0.00000000E+00  0.00000000E+00
  0.00000000E+00  0.00000000E+00  0.00000000E+00
  0.00000000E+00  0.00000000E+00  0.00000000E+00
  0.00000000E+00  0.00000000E+00  0.00000000E+00
  0.00000000E+00  0.00000000E+00  0.00000000E+00
  0.00000000E+00  0.00000000E+00  0.00000000E+00
  0.00000000E+00  0.00000000E+00  0.00000000E+00
  0.00000000E+00  0.00000000E+00  0.00000000E+00
  0.00000000E+00  0.00000000E+00  0.00000000E+00
  0.00000000E+00  0.00000000E+00  0.00000000E+00
  0.00000000E+00  0.00000000E+00  0.00000000E+00
  0.00000000E+00  0.00000000E+00  0.00000000E+00
  0.00000000E+00  0.00000000E+00  0.00000000E+00
  0.00000000E+00  0.00000000E+00  0.00000000E+00
  0.00000000E+00  0.00000000E+00  0.00000000E+00
  0.00000000E+00  0.00000000E+00  0.00000000E+00
  0.00000000E+00  0.00000000E+00  0.00000000E+00
  0.00000000E+00  0.00000000E+00  0.00000000E+00
  0.00000000E+00  0.00000000E+00  0.00000000E+00
  0.00000000E+00  0.00000000E+00  0.00000000E+00
  0.00000000E+00  0.00000000E+00  0.00000000E+00
  0.00000000E+00  0.00000000E+00  0.00000000E+00
  0.00000000E+00  0.00000000E+00  0.00000000E+00
  0.00000000E+00  0.00000000E+00  0.00000000E+00
  0.00000000E+00  0.00000000E+00  0.00000000E+00
  0.00000000E+00  0.00000000E+00  0.00000000E+00
  0.00000000E+00  0.00000000E+00  0.00000000E+00
  0.00000000E+00  0.00000000E+00  0.00000000E+00
  0.00000000E+00  0.00000000E+00  0.00000000E+00
  0.00000000E+00  0.00000000E+00  0.00000000E+00
  0.00000000E+00  0.00000000E+00  0.00000000E+00
  0.00000000E+00  0.00000000E+00  0.00000000E+00
  0.00000000E+00  0.00000000E+00  0.00000000E+00
  0.00000000E+00  0.00000000E+00  0.00000000E+00
  0.00000000E+00  0.00000000E+00  0.00000000E+00
  0.00000000E+00  0.00000000E+00  0.00000000E+00
  0.00000000E+00  0.00000000E+00  0.00000000E+00
  0.00000000E+00  0.00000000E+00  0.00000000E+00
  0.00000000E+00  0.00000000E+00  0.00000000E+00
  0.00000000E+00  0.00000000E+00  0.00000000E+00
  0.00000000E+00  0.00000000E+00  0.00000000E+00
  0.00000000E+00  0.00000000E+00  0.00000000E+00
  0.00000000E+00  0.00000000E+00  0.00000000E+00
  0.00000000E+00  0.00000000E+00  0.00000000E+00
  0.00000000E+00  0.00000000E+00  0.00000000E+00
  0.00000000E+00  0.00000000E+00  0.00000000E+00
  0.00000000E+00  0.00000000E+00  0.00000000E+00
  0.00000000E+00  0.00000000E+00  0.00000000E+00
  0.00000000E+00  0.00000000E+00  0.00000000E+00