Fe Ge Sb Te                             
   1.00000000000000     
    17.6728636061715584    0.0000000000000000    0.0000000000000000
     0.0000000000000000   17.6728636061715584    0.0000000000000000
     0.0000000000000000    0.0000000000000000   17.6728636061715584
   Fe   Ge   Sb   Te
     8    32    32    80
Direct
  0.5695723693528797  0.5325783732665722  0.3288773001104372
  0.5274605071620692  0.1073049876850985  0.6385692394709668
  0.6896409309614461  0.9493024056218142  0.3730675775209364
  0.4120759784716989  0.1970545380512725  0.1208076222478447
  0.3405326417811174  0.5539616484811328  0.6415446038325776
  0.5599870193203812  0.5183674486730524  0.1791235072142217
  0.4836517869666173  0.0626555978797586  0.7743037112583542
  0.4279378474700882  0.9779372493911460  0.4396106344972646
  0.4344719863482793  0.5308867542241312  0.1358475502922927
  0.5417119891797683  0.4579470208654848  0.6465494818271527
  0.8172576020211132  0.9898262531591981  0.0780140233221794
  0.5835941463609535  0.0969746814612365  0.0899035686197950
  0.1407616187772030  0.1359019781846931  0.0222171494176244
  0.3330744496491559  0.6258630878821917  0.0153710440477780
  0.0895653512198331  0.9786845180747481  0.8447181635146962
  0.0199979905896648  0.6957863136196391  0.4837835263083844
  0.0100448105768814  0.0127166456993243  0.7285014530081787
  0.0664247536192656  0.9844131526545270  0.0250601292038338
  0.7375920806306362  0.4906677853159083  0.1410530621000237
  0.0910166362991129  0.3103995479919704  0.8398803573131414
  0.5734963616260005  0.5935536863942412  0.5800397460764111
  0.1251143806384644  0.5317060682995591  0.6912147200593832
  0.0298868358275857  0.7597001546487963  0.7021068127371454
  0.0263751978472277  0.1764071085420806  0.8614991251470548
  0.8525849810527757  0.8511491933884573  0.9306557022387841
  0.2647423956261492  0.2789473029531062  0.8439592670292572
  0.7488767890924862  0.1576769282664628  0.4807562920978400
  0.2298289182414042  0.0578412777340171  0.4427122588756166
  0.4226869486972828  0.4406046258231699  0.0149748174525519
  0.1128679752303925  0.0370662900410577  0.2850477478940555
  0.6218846983450111  0.1226073412231483  0.5461099590714706
  0.6870221286993040  0.5519396598726543  0.7764314799832799
  0.3878725961455020  0.5531821003420073  0.7747063166856384
  0.5076862781722379  0.0118034430950235  0.5418059173323140
  0.1528364916596492  0.7877463853180476  0.8790522867394239
  0.3080589839575243  0.9343617059826962  0.1406593580560635
  0.9443538691210771  0.0797560001487643  0.9518940150664539
  0.4758824744780486  0.4639023125076994  0.2665284101054620
  0.7892673305031098  0.9894098730749532  0.4315525335687702
  0.2046601960591350  0.3473875337768623  0.6865902656131525
  0.7824201318891444  0.7103109656503713  0.3972337108283689
  0.3132778817705800  0.1149017745518278  0.1817705073199542
  0.3097724580896877  0.6431754050937470  0.5365561229045154
  0.1094823873482244  0.7727347361087529  0.2739701373943776
  0.5197523519826316  0.9503615281772825  0.7013975747250002
  0.9446737807926915  0.9698821105089758  0.4263707436056050
  0.4599431858030545  0.8306450363906029  0.0731939867983645
  0.9596685866718868  0.0630151411006503  0.1127301895963087
  0.9055753150078676  0.8498439623775523  0.5642096094654809
  0.6669760532718974  0.0805165156923942  0.3257239610542853
  0.4896599105662661  0.2105518015155811  0.7387449931763550
  0.9259030394242147  0.5312849207786802  0.7452430106269023
  0.1437456200634492  0.7722518635564199  0.0535593961341031
  0.5640250087173022  0.6187092438719979  0.0551481722342874
  0.3875282191574599  0.3393328402378535  0.3056403410670181
  0.7843945286295140  0.9132665048303091  0.2665194117146443
  0.0389230800252171  0.3353464493167866  0.4316815001856995
  0.0136409501262935  0.5748788696934377  0.2192330574189836
  0.4417480585891579  0.5875843722843538  0.3866047258394467
  0.1500764536079693  0.1562297152495229  0.6370462782134655
  0.6434404991664797  0.9271372329184411  0.4981804058690594
  0.5227037377116773  0.9499350714300872  0.9709163259125251
  0.0551536658743175  0.4022086524073838  0.0494171696883349
  0.9177385130391488  0.1656633133435381  0.6118202493401659
  0.5593960440239338  0.4049516372192262  0.4221802781672184
  0.2290948603527254  0.8073744605664117  0.3715545390417271
  0.8215134709829205  0.7662582094981436  0.7990257255986760
  0.2955435463192454  0.4420029032093711  0.8459088068667178
  0.8626150963329754  0.2419861744778439  0.1848230591204524
  0.9915869820917617  0.2442245841549820  0.0651047772272584
  0.1664799540534254  0.3384223248560136  0.2475778243673956
  0.7260193074523514  0.6623549560734739  0.1579731408366632
  0.6231131330288838  0.0757783023519338  0.7323627028951070
  0.8048050822750167  0.8358519837116144  0.0785855905663950
  0.4515716687971578  0.5810752149891435  0.9387707483954373
  0.2204547235438241  0.6879024067270193  0.1700733231977861
  0.0171911396288958  0.2791545768058827  0.2781736571846022
  0.5102367045643229  0.2291123194278239  0.5490874155860603
  0.2753616855509754  0.4871250327606884  0.9929656054861717
  0.5612868918697936  0.7677221054441566  0.4900747486006988
  0.7882032603455347  0.4467530498226567  0.7496282339382931
  0.7202962513630852  0.6213960975671036  0.9024925414635523
  0.9587689577047047  0.4599531928184925  0.3617733343509506
  0.0401679517160281  0.3107583289169306  0.6858533736103799
  0.5504982127098351  0.7939872069816516  0.9540431484062152
  0.3006396235779727  0.1853003272466513  0.3277550662647070
  0.2525293637492604  0.6284752351885562  0.7340668246062230
  0.0043882865479974  0.8674579674905248  0.9399361510957904
  0.5214670947059109  0.2720538421700464  0.3272160639431039
  0.7478286940045217  0.3198783902094345  0.1153773036960302
  0.4277320306998907  0.8423307725847363  0.4441725422564011
  0.1186632290659117  0.6398644180519187  0.3718663544606224
  0.5406938711287967  0.9669899216181569  0.3420139066253536
  0.1233973044360276  0.6620591872023764  0.5915760321416548
  0.8062224100988468  0.2711487171749017  0.5678274150698526
  0.6451666827534509  0.4371763557670296  0.2625305131708741
  0.5485852646445362  0.4811909056039924  0.7911359251459109
  0.0933885867340293  0.8742302357818874  0.4359542158793178
  0.9857845241688130  0.4460424303438024  0.6118888190194434
  0.3918869211618605  0.4240097826548705  0.6757330807443829
  0.5446639729527412  0.2402315912906930  0.1006864536458952
  0.3829678726828628  0.1542275246382898  0.9980599577172340
  0.4829186771466669  0.1034819476994246  0.2069145558270782
  0.9254548904561031  0.5654391537527693  0.4826818101311713
  0.3032478321706326  0.9604005449268045  0.3529497701123926
  0.2611361490200702  0.0445120020960799  0.0040345637290063
  0.6051579915087358  0.4671473860870543  0.0534683974181659
  0.3907267442137330  0.0944902874248911  0.6771671755995051
  0.1068851388471603  0.1242023951588465  0.4154119074420773
  0.3780366870181756  0.1082052480109777  0.4559180239462478
  0.1736565608849171  0.1195025324649214  0.7965314359332881
  0.2611055998898782  0.2414931765542257  0.5795865723224387
  0.4424486615644244  0.6591957247860728  0.6272802332407323
  0.6174659179635790  0.3284935399700848  0.6361187963527680
  0.7786075458678450  0.0425189019984653  0.5801997087646994
  0.8940624952748800  0.6649857497992762  0.6628010337138006
  0.8170041651053523  0.0069057456651651  0.9167284830998430
  0.5856601803999162  0.6397264957054767  0.2421037998796461
  0.3518193968100175  0.3210686710005605  0.1495527401891621
  0.0594232471029334  0.6695464165669166  0.8271081798074876
  0.6628271237726781  0.6579163343409329  0.6842405387385554
  0.8850667486262374  0.6461435021671990  0.8927885525776332
  0.3400774576307983  0.7694825070884801  0.2318314827680956
  0.9593116838238928  0.0526181423592206  0.2751864805042835
  0.7264603504723194  0.0929658650974268  0.1543276434789763
  0.2275553273294550  0.4775006887461372  0.5905939550102305
  0.0356870581460647  0.4360771162481433  0.8955002575414598
  0.4225650473751712  0.3392221866944813  0.8815336310834456
  0.6489691350549923  0.5668342659609408  0.4374971333361288
  0.0338484263687134  0.6601744727321063  0.0830589894513095
  0.3021904428589379  0.7218917269426561  0.8870749896719509
  0.4153647430644858  0.9838152380970271  0.8623808508397818
  0.9107360788546250  0.1294456399737657  0.7713404704010030
  0.8860701592005913  0.2300780592141000  0.9551199629545887
  0.1623058176821998  0.9086637570736646  0.1501587705521148
  0.8268770265117379  0.6147063632189315  0.2769864519732286
  0.4141400215361586  0.4486267312249391  0.4695249076853988
  0.9170517113666656  0.4802295163219397  0.1120362923278908
  0.2007914776589967  0.0086291312343875  0.5794409061550758
  0.7544697486972785  0.8061666190044761  0.5645647577313049
  0.1664040387782481  0.8725342824842018  0.7577911086102141
  0.8855182611365326  0.9056969119403179  0.7226153498348754
  0.1997511164219023  0.2853406443146103  0.9875425640823696
  0.1954035039099191  0.3789236763014003  0.4004983408024974
  0.6716708984700055  0.8144246374881938  0.3300239904615546
  0.9025823325804815  0.8296360551578909  0.3542953536858993
  0.1499625034413921  0.4801674384868124  0.1733618420230492
  0.3595487541812452  0.9299031515383027  0.5604652489325953
  0.5345279750278749  0.1389827949621377  0.8857236607629770
  0.3400399358860194  0.5557746674367243  0.2768887752803806
  0.1552728701855758  0.1514693539856096  0.1795506760951184
  0.3144670517013166  0.8446318485090245  0.0090539528795019
 
 -0.46992712E-02  0.21299706E-03 -0.33315431E-02
  0.81104607E-03  0.26837685E-02  0.18869491E-02
 -0.15822656E-02  0.31999623E-02 -0.11842719E-03
  0.29034460E-02  0.34339432E-03  0.11230199E-02
  0.25496754E-02  0.40261949E-03  0.82292886E-03
  0.21455946E-02  0.10224141E-02  0.11575223E-02
 -0.13185519E-02 -0.31092547E-02  0.87822179E-03
 -0.20833053E-02  0.31260826E-02 -0.15757260E-02
  0.10234210E-02 -0.82646545E-03  0.18136378E-02
 -0.34793092E-02 -0.27506436E-03  0.17384343E-02
 -0.16911889E-03 -0.72965432E-03  0.31408435E-02
  0.27382685E-02  0.22303123E-02 -0.14146258E-03
 -0.17406285E-03 -0.14329374E-02  0.59600966E-03
  0.10084300E-03  0.75736270E-03 -0.80743905E-03
 -0.21057034E-02  0.14472203E-02 -0.30387959E-02
 -0.15272430E-02 -0.72749065E-03  0.26925307E-02
  0.29940797E-02 -0.89681033E-04 -0.12850794E-02
  0.27949509E-02 -0.23685266E-02  0.21585014E-02
 -0.25607509E-03 -0.14578771E-02  0.11987711E-02
  0.11999302E-02 -0.30548553E-02  0.13865281E-03
  0.23055046E-02 -0.44891646E-03  0.59985973E-03
 -0.20686725E-02 -0.29548642E-02 -0.10806755E-02
  0.18192062E-03  0.20765726E-02 -0.23235538E-02
  0.19764689E-02 -0.24082745E-02  0.12330600E-02
 -0.13085122E-02 -0.79374057E-03  0.62052512E-03
 -0.99002262E-03 -0.14480203E-02  0.21589279E-02
 -0.11502121E-02 -0.39583260E-02 -0.10885223E-02
  0.16404985E-02  0.22015504E-02  0.64921652E-03
  0.51175437E-02  0.82157901E-03 -0.78611487E-04
  0.20530607E-02 -0.25968442E-02 -0.17552310E-02
  0.21008386E-02  0.10955921E-02  0.88659440E-03
 -0.34657140E-02 -0.28743517E-05  0.19928693E-02
  0.49220353E-03  0.59476599E-03  0.23012588E-02
 -0.24147810E-02  0.11011787E-02 -0.10064970E-02
 -0.35539835E-03 -0.16001222E-02 -0.11341783E-02
 -0.34943348E-02 -0.20721365E-02 -0.51599665E-03
  0.79896767E-03  0.26407990E-02 -0.72010647E-03
 -0.80139142E-03  0.72899116E-03 -0.10335377E-02
  0.18059859E-02 -0.11700445E-03  0.93305110E-03
 -0.38830266E-03 -0.14821211E-03 -0.20389661E-03
  0.53205069E-03 -0.45478808E-03  0.12424766E-02
  0.94363631E-03 -0.12363839E-03  0.36148691E-02
  0.13764697E-03  0.47193923E-03 -0.27909150E-03
  0.72215270E-03 -0.93526483E-03  0.17248717E-02
  0.18847555E-02  0.41034919E-03 -0.14271027E-03
  0.16063477E-02 -0.91998196E-03 -0.87502966E-03
 -0.33085794E-03  0.22265795E-02 -0.19313739E-02
 -0.19202547E-02  0.12701406E-03  0.70219520E-04
  0.26009525E-02 -0.78841734E-03  0.56603699E-04
  0.82560375E-03  0.10782578E-02  0.14405432E-02
  0.53999393E-03 -0.39948513E-02 -0.67567120E-03
  0.19762004E-03 -0.30355242E-02 -0.11663204E-02
 -0.36409760E-03 -0.32938891E-02  0.74231298E-03
  0.97638681E-03  0.44109322E-03 -0.17215591E-03
 -0.49631035E-03  0.13902969E-02 -0.57541271E-03
 -0.14825910E-02 -0.12444670E-02 -0.23511399E-02
 -0.12734632E-02  0.26989587E-03  0.88983729E-03
  0.13980368E-02  0.48749049E-03  0.33060921E-03
 -0.14893090E-02 -0.18324667E-02 -0.10575863E-02
  0.10873593E-03 -0.17699253E-02 -0.75333843E-03
  0.46399089E-03  0.27429972E-02  0.14376430E-02
  0.69111138E-03  0.20844560E-02 -0.16522918E-02
 -0.15065016E-02 -0.16149223E-02  0.18851035E-02
 -0.15630798E-02  0.15690142E-03 -0.85396364E-03
 -0.10091954E-02 -0.21890797E-03  0.60686067E-04
  0.13978884E-02  0.11279862E-02  0.14005714E-02
 -0.60677186E-03 -0.22180713E-02  0.53895339E-03
 -0.51540840E-03  0.19267966E-02  0.11592737E-02
 -0.22768551E-02 -0.11485323E-02  0.18541984E-02
  0.72462682E-03  0.32752239E-03  0.27876400E-02
  0.88186312E-03 -0.13422108E-02  0.20839666E-03
 -0.28522390E-02 -0.82464830E-03 -0.11406746E-02
 -0.26025639E-03  0.95392564E-03  0.16325166E-02
  0.14053329E-03  0.75266607E-03 -0.15670893E-02
 -0.19545647E-02  0.19569132E-02 -0.76799875E-03
 -0.95005098E-03  0.10379633E-02  0.16896412E-02
  0.11389404E-03  0.14909591E-02  0.81673149E-03
 -0.22442296E-02 -0.43932997E-03 -0.70050831E-03
 -0.95140037E-03 -0.10743184E-03 -0.21855384E-02
  0.11543478E-02 -0.69312696E-03  0.69290895E-03
  0.15428127E-02  0.30599157E-03 -0.14499878E-02
  0.90518440E-03 -0.17307219E-02  0.21544198E-03
 -0.58434593E-03 -0.10817456E-02  0.19595812E-03
  0.96139336E-03 -0.86003428E-03 -0.12137230E-02
 -0.86500174E-03 -0.16571728E-02 -0.30273003E-03
 -0.19070360E-03  0.43272302E-03 -0.12646021E-02
 -0.17574401E-02 -0.17131328E-02  0.20057235E-03
  0.59158956E-03 -0.16833330E-02 -0.26046109E-02
 -0.12983763E-02  0.11528763E-02 -0.10479963E-02
  0.51009349E-03  0.47866407E-03 -0.10635333E-02
 -0.18158164E-03 -0.56057775E-04  0.18053579E-02
 -0.12491562E-02  0.16039277E-02 -0.25273957E-02
 -0.64805455E-03 -0.16109924E-02 -0.11021268E-03
 -0.86811097E-03 -0.16350492E-02  0.48995212E-03
 -0.89672465E-03 -0.34717447E-03 -0.28186578E-03
 -0.79522421E-03 -0.14484411E-04 -0.27281403E-03
  0.15845697E-02 -0.17285586E-02 -0.97294195E-04
 -0.38061118E-03  0.20766411E-02 -0.28389770E-02
 -0.35117379E-02 -0.23427689E-02 -0.81675765E-03
  0.10826863E-03  0.28687778E-03  0.42976506E-03
  0.60397722E-03 -0.17347293E-02 -0.70630638E-03
  0.94050150E-03  0.15353379E-02 -0.23443734E-02
 -0.10817516E-02  0.12389594E-02  0.31256580E-02
 -0.20757096E-02  0.25287559E-02 -0.20193304E-02
  0.64718449E-03  0.36087576E-03 -0.10967525E-02
 -0.18083569E-03  0.25089648E-02  0.13191353E-02
  0.60734822E-03  0.38621837E-03  0.17695877E-02
  0.15923590E-02 -0.45361673E-03  0.27928208E-03
  0.48004698E-03  0.22492301E-03 -0.16496470E-03
  0.26116561E-03 -0.64054750E-04  0.29160486E-02
  0.23253896E-05 -0.18016039E-02 -0.15577938E-02
 -0.70009663E-04 -0.20147205E-04  0.21616004E-02
 -0.75233185E-03 -0.11739311E-02 -0.24277681E-03
 -0.30619030E-02  0.17424456E-03  0.30114488E-03
  0.18347456E-02  0.22208589E-02  0.73444424E-03
 -0.64783659E-03  0.17594078E-02  0.70449615E-03
  0.70875982E-03  0.53572833E-03  0.11912925E-02
 -0.95298736E-03  0.20963725E-02 -0.35871314E-03
  0.13715457E-02 -0.43310878E-03 -0.29261031E-02
  0.15151878E-02 -0.51722035E-03 -0.10635569E-02
  0.13714068E-02 -0.11927957E-02  0.25586804E-03
 -0.16200770E-02  0.21694693E-02 -0.42199649E-02
  0.18061595E-02  0.19602758E-02  0.54846154E-03
 -0.48423548E-03  0.39611874E-04  0.96062382E-03
  0.10245918E-02 -0.59684206E-03 -0.11137096E-02
  0.11714211E-03  0.20117289E-02 -0.59678782E-03
  0.40281824E-02 -0.22292328E-02  0.44151864E-04
 -0.67091418E-04 -0.23498264E-02 -0.11769985E-02
 -0.65944566E-03 -0.15290294E-02 -0.12116642E-02
 -0.23456326E-03 -0.10487418E-02  0.20072906E-02
  0.38498104E-03  0.26318730E-03 -0.12879550E-02
  0.17015055E-02 -0.17148508E-03  0.50893088E-03
  0.77734715E-03  0.81605024E-03  0.90114018E-03
 -0.89742317E-03  0.24479119E-02 -0.17285061E-02
 -0.14814175E-02  0.34871041E-02 -0.18267976E-02
  0.36356304E-04  0.31337605E-03  0.11641419E-02
  0.31204018E-02 -0.13358441E-03  0.20291874E-03
 -0.17730836E-03  0.71751799E-03  0.27309495E-03
 -0.31994081E-02  0.32150311E-03  0.91543479E-03
 -0.11593261E-02 -0.29322746E-03  0.13031968E-02
  0.27002230E-02  0.24410563E-02  0.38380985E-03
  0.50937597E-03  0.13516854E-02  0.20936993E-04
 -0.11207162E-02 -0.62184264E-03  0.40831137E-03
 -0.73442179E-03  0.25075834E-02  0.15679622E-02
  0.81718382E-03  0.70440567E-03  0.33872767E-02
  0.97514847E-03  0.17881764E-05  0.73050883E-03
 -0.11334612E-02 -0.31799460E-03 -0.36009338E-03
  0.26719677E-02 -0.18394556E-02 -0.13219701E-03
  0.12198568E-02 -0.13211965E-02 -0.18036908E-02
 -0.22390413E-03 -0.14840916E-02 -0.18656991E-02
  0.39644062E-03  0.15715453E-02 -0.55050464E-03
 -0.16148632E-02  0.22244188E-02  0.46866449E-03
 
           1
   3.00000000000000     
  0.10000000E+01  0.00000000E+00  0.00000000E+00  0.00000000E+00
  0.56877915E+00  0.53261433E+00  0.32831495E+00
  0.52759741E+00  0.10775800E+00  0.63888775E+00
  0.68937385E+00  0.94984255E+00  0.37304759E+00
  0.41256607E+00  0.19711250E+00  0.12099718E+00
  0.34096302E+00  0.55402961E+00  0.64168351E+00
  0.56034919E+00  0.51854003E+00  0.17931889E+00
  0.48342922E+00  0.62130766E-01  0.77445195E+00
  0.42758619E+00  0.97846492E+00  0.43934466E+00
  0.43464474E+00  0.53074725E+00  0.13615369E+00
  0.54112469E+00  0.45790059E+00  0.64684292E+00
  0.81722906E+00  0.98970309E+00  0.78544187E-01
  0.58405636E+00  0.97351151E-01  0.89879690E-01
  0.14073224E+00  0.13566010E+00  0.22317754E-01
  0.33309147E+00  0.62599093E+00  0.15234751E-01
  0.89209916E-01  0.97892880E+00  0.84420522E+00
  0.19740197E-01  0.69566352E+00  0.48423802E+00
  0.10550201E-01  0.12701508E-01  0.72828454E+00
  0.66896532E-01  0.98401335E+00  0.25424477E-01
  0.73754886E+00  0.49042170E+00  0.14125541E+00
  0.91219181E-01  0.30988390E+00  0.83990376E+00
  0.57388552E+00  0.59347791E+00  0.58014100E+00
  0.12476520E+00  0.53120730E+00  0.69103231E+00
  0.29917543E-01  0.76005067E+00  0.70171460E+00
  0.26708819E-01  0.17600060E+00  0.86170726E+00
  0.85236411E+00  0.85101521E+00  0.93076044E+00
  0.26457528E+00  0.27870288E+00  0.84432369E+00
  0.74868264E+00  0.15700878E+00  0.48057255E+00
  0.23010583E+00  0.58212892E-01  0.44282184E+00
  0.42355077E+00  0.44074331E+00  0.14961548E-01
  0.11321453E+00  0.36627951E-01  0.28475147E+00
  0.62223931E+00  0.12279227E+00  0.54625961E+00
  0.68643713E+00  0.55193917E+00  0.77676787E+00
  0.38795568E+00  0.55328249E+00  0.77509476E+00
  0.50727867E+00  0.11989318E-01  0.54163602E+00
  0.15277650E+00  0.78747629E+00  0.87886084E+00
  0.30746915E+00  0.93401194E+00  0.14057226E+00
  0.94448873E+00  0.80201758E-01  0.95177246E+00
  0.47574720E+00  0.46402536E+00  0.26635395E+00
  0.78957217E+00  0.98939012E+00  0.43171003E+00
  0.20459465E+00  0.34736252E+00  0.68655585E+00
  0.78250994E+00  0.71023420E+00  0.39744344E+00
  0.31343716E+00  0.11488090E+00  0.18238069E+00
  0.30979569E+00  0.64325507E+00  0.53650901E+00
  0.10960428E+00  0.77257687E+00  0.27426129E+00
  0.52007049E+00  0.95043079E+00  0.70137349E+00
  0.94494493E+00  0.96972682E+00  0.42622304E+00
  0.45988734E+00  0.83102088E+00  0.72867977E-01
  0.95934445E+00  0.63036581E-01  0.11274204E+00
  0.90601435E+00  0.84971088E+00  0.56421916E+00
  0.66711541E+00  0.80698522E-01  0.32596712E+00
  0.48975106E+00  0.20987748E+00  0.73863094E+00
  0.92593640E+00  0.53077253E+00  0.74504614E+00
  0.14368416E+00  0.77169587E+00  0.53684696E-01
  0.56418982E+00  0.61878370E+00  0.55119113E-01
  0.38744444E+00  0.33956752E+00  0.30554321E+00
  0.78414427E+00  0.91305644E+00  0.26612255E+00
  0.38708124E-01  0.33539201E+00  0.43183170E+00
  0.13876934E-01  0.57496116E+00  0.21928886E+00
  0.44149667E+00  0.58727506E+00  0.38642621E+00
  0.15009481E+00  0.15593096E+00  0.63691912E+00
  0.64351882E+00  0.92760024E+00  0.49842308E+00
  0.52282040E+00  0.95028692E+00  0.97063742E+00
  0.54899373E-01  0.40193606E+00  0.49735369E-01
  0.91747467E+00  0.16568980E+00  0.61167610E+00
  0.55922570E+00  0.40491469E+00  0.42219052E+00
  0.22933082E+00  0.80756486E+00  0.37179095E+00
  0.82141105E+00  0.76588381E+00  0.79911670E+00
  0.29545655E+00  0.44232814E+00  0.84610449E+00
  0.86223077E+00  0.24179231E+00  0.18513604E+00
  0.99170930E+00  0.24427987E+00  0.65575322E-01
  0.16662881E+00  0.33819576E+00  0.24761300E+00
  0.72553786E+00  0.66221576E+00  0.15778060E+00
  0.62306920E+00  0.75939322E-01  0.73263827E+00
  0.80482880E+00  0.83597903E+00  0.78321071E-01
  0.45124174E+00  0.58140554E+00  0.93864111E+00
  0.22029436E+00  0.68807761E+00  0.17035853E+00
  0.17210365E-01  0.27940625E+00  0.27831152E+00
  0.50985789E+00  0.22903816E+00  0.54896917E+00
  0.27520109E+00  0.48710690E+00  0.99259669E+00
  0.56148174E+00  0.76760511E+00  0.49019171E+00
  0.78846368E+00  0.44680470E+00  0.74938348E+00
  0.72044904E+00  0.62110396E+00  0.90252891E+00
  0.95867032E+00  0.45977060E+00  0.36180641E+00
  0.40330232E-01  0.31061316E+00  0.68564850E+00
  0.55035220E+00  0.79370748E+00  0.95399205E+00
  0.30060743E+00  0.18537337E+00  0.32754161E+00
  0.25223271E+00  0.62818606E+00  0.73410068E+00
  0.44881449E-02  0.86717383E+00  0.93949650E+00
  0.52124793E+00  0.27224844E+00  0.32703917E+00
  0.74791480E+00  0.31995919E+00  0.11519778E+00
  0.42770138E+00  0.84232131E+00  0.44447728E+00
  0.11845238E+00  0.64013516E+00  0.37143974E+00
  0.54058448E+00  0.96671799E+00  0.34199530E+00
  0.12325077E+00  0.66178320E+00  0.59165873E+00
  0.80607105E+00  0.27109012E+00  0.56777984E+00
  0.64503245E+00  0.43717391E+00  0.26248446E+00
  0.54885273E+00  0.48089913E+00  0.79111950E+00
  0.93324341E-01  0.87458077E+00  0.43547501E+00
  0.98519175E+00  0.44564698E+00  0.61175095E+00
  0.39190520E+00  0.42405821E+00  0.67580562E+00
  0.54476592E+00  0.23993877E+00  0.10056723E+00
  0.38312663E+00  0.15448668E+00  0.99766424E+00
  0.48273608E+00  0.10369108E+00  0.20744216E+00
  0.92510452E+00  0.56586600E+00  0.48234095E+00
  0.30335707E+00  0.96046146E+00  0.35276464E+00
  0.26110562E+00  0.44935507E-01  0.42572294E-02
  0.60526051E+00  0.46721258E+00  0.53767098E-01
  0.39099553E+00  0.94413718E-01  0.67721432E+00
  0.10696617E+00  0.12424036E+00  0.41538406E+00
  0.37808077E+00  0.10819444E+00  0.45641024E+00
  0.17365695E+00  0.11919843E+00  0.79626849E+00
  0.26109378E+00  0.24148978E+00  0.57995144E+00
  0.44232167E+00  0.65899757E+00  0.62723925E+00
  0.61694908E+00  0.32852295E+00  0.63616963E+00
  0.77891724E+00  0.42893776E-01  0.58032368E+00
  0.89395314E+00  0.66528273E+00  0.66291995E+00
  0.81712380E+00  0.69961748E-02  0.91692957E+00
  0.58549932E+00  0.64008036E+00  0.24204325E+00
  0.35205091E+00  0.32099556E+00  0.14905882E+00
  0.59679006E-01  0.66945911E+00  0.82692865E+00
  0.66305861E+00  0.65771499E+00  0.68428373E+00
  0.88479329E+00  0.64650970E+00  0.89207624E+00
  0.34038233E+00  0.76981340E+00  0.23192406E+00
  0.95922995E+00  0.52624829E-01  0.27534863E+00
  0.72663330E+00  0.92865120E-01  0.15413965E+00
  0.22757510E+00  0.47784026E+00  0.59049322E+00
  0.36367002E-01  0.43570083E+00  0.89550771E+00
  0.42255372E+00  0.33882554E+00  0.88133496E+00
  0.64885782E+00  0.56657617E+00  0.43729261E+00
  0.33808833E-01  0.65999745E+00  0.83397813E-01
  0.30225543E+00  0.72193615E+00  0.88685759E+00
  0.41565195E+00  0.98378629E+00  0.86246676E+00
  0.91086729E+00  0.12958339E+00  0.77149258E+00
  0.88591868E+00  0.23049126E+00  0.95482820E+00
  0.16205576E+00  0.90925237E+00  0.14985041E+00
  0.82688316E+00  0.61475926E+00  0.27718296E+00
  0.41466673E+00  0.44860418E+00  0.46955916E+00
  0.91702178E+00  0.48035063E+00  0.11208239E+00
  0.20025143E+00  0.86833999E-02  0.57959543E+00
  0.75427406E+00  0.80611712E+00  0.56478473E+00
  0.16685983E+00  0.87294632E+00  0.75785589E+00
  0.88560424E+00  0.90592507E+00  0.72261888E+00
  0.19956194E+00  0.28523568E+00  0.98761149E+00
  0.19527954E+00  0.37934695E+00  0.40076301E+00
  0.67180884E+00  0.81454354E+00  0.33059575E+00
  0.90274693E+00  0.82963636E+00  0.35441866E+00
  0.14977118E+00  0.48011376E+00  0.17330106E+00
  0.35999977E+00  0.92959266E+00  0.56044293E+00
  0.53473388E+00  0.13875978E+00  0.88541920E+00
  0.34000214E+00  0.55552416E+00  0.27657385E+00
  0.15533979E+00  0.15173463E+00  0.17945775E+00
  0.31419447E+00  0.84500732E+00  0.91330619E-02
 -0.79482415E-03  0.42221227E-04 -0.58723048E-03
  0.14174574E-03  0.45791159E-03  0.34250764E-03
 -0.24664324E-03  0.53263139E-03  0.27189516E-04
  0.47688035E-03  0.43031521E-04  0.19225765E-03
  0.44677676E-03  0.58785033E-04  0.12249061E-03
  0.37352476E-03  0.17053208E-03  0.21419346E-03
 -0.22965642E-03 -0.55026978E-03  0.13883981E-03
 -0.34587730E-03  0.48521244E-03 -0.27703418E-03
  0.16955270E-03 -0.14582567E-03  0.29813227E-03
 -0.58087492E-03 -0.45126597E-04  0.30299049E-03
 -0.37511796E-04 -0.12398613E-03  0.53384802E-03
  0.46514730E-03  0.38874424E-03 -0.18609338E-04
 -0.23091304E-04 -0.24979411E-03  0.10180683E-03
  0.27878462E-04  0.10182861E-03 -0.14326985E-03
 -0.36143871E-03  0.24409767E-03 -0.51849205E-03
 -0.25725245E-03 -0.11438077E-03  0.46996538E-03
  0.51798909E-03 -0.10604812E-04 -0.20314012E-03
  0.46327435E-03 -0.40712911E-03  0.36376748E-03
 -0.38349128E-04 -0.24917011E-03  0.19905433E-03
  0.18751860E-03 -0.50678643E-03  0.23456056E-04
  0.39051778E-03 -0.62278441E-04  0.10781762E-03
 -0.34227956E-03 -0.51752121E-03 -0.17393246E-03
  0.24549545E-04  0.36693340E-03 -0.38552909E-03
  0.33491483E-03 -0.40336063E-03  0.19992076E-03
 -0.21559678E-03 -0.14860226E-03  0.88343126E-04
 -0.16279556E-03 -0.24535701E-03  0.35551101E-03
 -0.18665537E-03 -0.66646732E-03 -0.18356115E-03
  0.25693621E-03  0.37927594E-03  0.93173593E-04
  0.86893878E-03  0.14417450E-03 -0.83879946E-05
  0.34811001E-03 -0.43389603E-03 -0.29921460E-03
  0.35729076E-03  0.18793554E-03  0.14940808E-03
 -0.57562783E-03  0.26417893E-04  0.32101056E-03
  0.78970010E-04  0.99488592E-04  0.38846982E-03
 -0.41250440E-03  0.18111405E-03 -0.17467570E-03
 -0.58418241E-04 -0.25333827E-03 -0.20058266E-03
 -0.59953265E-03 -0.35248527E-03 -0.88488099E-04
  0.12384602E-03  0.42493485E-03 -0.12046130E-03
 -0.12112002E-03  0.12263634E-03 -0.17921419E-03
  0.27862376E-03 -0.25995208E-04  0.14896729E-03
 -0.70453846E-04 -0.19632340E-04 -0.23749012E-04
  0.92495816E-04 -0.80072004E-04  0.19584620E-03
  0.15319300E-03 -0.91809728E-05  0.61463189E-03
  0.18025209E-04  0.82473711E-04 -0.49507237E-04
  0.12349473E-03 -0.15652160E-03  0.28544722E-03
  0.31309582E-03  0.59386527E-04 -0.14198901E-04
  0.27125875E-03 -0.15270576E-03 -0.15262177E-03
 -0.53513085E-04  0.37071435E-03 -0.32930794E-03
 -0.31804440E-03  0.22952438E-04  0.18366098E-04
  0.43953628E-03 -0.13352136E-03  0.55152751E-05
  0.14536985E-03  0.19290555E-03  0.24227821E-03
  0.87679298E-04 -0.67272103E-03 -0.11420895E-03
  0.34915830E-04 -0.51366002E-03 -0.20125469E-03
 -0.66844884E-04 -0.56161893E-03  0.12414824E-03
  0.16082089E-03  0.76714401E-04 -0.37451614E-04
 -0.71606996E-04  0.22753950E-03 -0.99868749E-04
 -0.24510066E-03 -0.20368711E-03 -0.40377243E-03
 -0.22028823E-03  0.34279603E-04  0.15714845E-03
  0.23816560E-03  0.96190340E-04  0.58034023E-04
 -0.26710063E-03 -0.31094464E-03 -0.19187313E-03
  0.33966456E-04 -0.28417919E-03 -0.13085334E-03
  0.80633205E-04  0.47841615E-03  0.22754255E-03
  0.10681509E-03  0.34927959E-03 -0.29020116E-03
 -0.24318212E-03 -0.27223990E-03  0.31312758E-03
 -0.26200418E-03  0.24753485E-04 -0.14006880E-03
 -0.17307427E-03 -0.44356961E-04  0.13104405E-04
  0.22664053E-03  0.19304402E-03  0.23251745E-03
 -0.10416052E-03 -0.36488127E-03  0.93604609E-04
 -0.94251847E-04  0.33120087E-03  0.20918424E-03
 -0.38449673E-03 -0.19663754E-03  0.32105250E-03
  0.12441199E-03  0.62021889E-04  0.44995591E-03
  0.14269002E-03 -0.22038663E-03  0.35580973E-04
 -0.48318078E-03 -0.12756750E-03 -0.19690335E-03
 -0.47149826E-04  0.16814263E-03  0.27305859E-03
  0.26050703E-04  0.12405181E-03 -0.26160388E-03
 -0.34365762E-03  0.33347608E-03 -0.12357886E-03
 -0.16155722E-03  0.17516270E-03  0.27862169E-03
  0.21692024E-04  0.24743432E-03  0.13442200E-03
 -0.38499726E-03 -0.76899544E-04 -0.12568660E-03
 -0.14495017E-03 -0.12506681E-04 -0.38422585E-03
  0.19112352E-03 -0.12584205E-03  0.11827905E-03
  0.26357881E-03  0.50079359E-04 -0.24315617E-03
  0.14473167E-03 -0.29977493E-03  0.32268315E-04
 -0.96783394E-04 -0.18040679E-03  0.23396559E-04
  0.15709622E-03 -0.14528972E-03 -0.20515018E-03
 -0.15117911E-03 -0.27536165E-03 -0.41668404E-04
 -0.33691780E-04  0.70528350E-04 -0.21744160E-03
 -0.29607468E-03 -0.28400446E-03  0.38239971E-04
  0.96621696E-04 -0.28462796E-03 -0.44209154E-03
 -0.23429507E-03  0.20252744E-03 -0.17882303E-03
  0.79733758E-04  0.81607264E-04 -0.18214064E-03
 -0.32446885E-04  0.19070646E-04  0.30587412E-03
 -0.20711118E-03  0.26306326E-03 -0.42501614E-03
 -0.11066806E-03 -0.28242340E-03 -0.16334614E-04
 -0.14243423E-03 -0.27862029E-03  0.66727860E-04
 -0.15742292E-03 -0.53713340E-04 -0.50749206E-04
 -0.14679062E-03 -0.39123730E-05 -0.31763921E-04
  0.24871015E-03 -0.29381002E-03 -0.25143995E-04
 -0.65032321E-04  0.35219291E-03 -0.47785630E-03
 -0.59463701E-03 -0.39892241E-03 -0.12903042E-03
  0.13060685E-04  0.43702704E-04  0.83622946E-04
  0.10724033E-03 -0.30347240E-03 -0.11528716E-03
  0.15752708E-03  0.25877364E-03 -0.39588630E-03
 -0.18653030E-03  0.21050050E-03  0.52423174E-03
 -0.35340123E-03  0.42887721E-03 -0.34002296E-03
  0.10683796E-03  0.63778754E-04 -0.17948378E-03
 -0.37665005E-04  0.42707562E-03  0.22555080E-03
  0.95042272E-04  0.73325216E-04  0.29814972E-03
  0.27593771E-03 -0.74983899E-04  0.46526833E-04
  0.93379277E-04  0.33576750E-04 -0.20679265E-04
  0.40620644E-04 -0.16715337E-04  0.49744600E-03