Amorphous GeAsSeSi                      
   1.00000000000000     
    18.9436188657994720    0.0000000000000000    0.0000000000000000
     0.0000000000000000   18.9436188657994720    0.0000000000000000
     0.0000000000000000    0.0000000000000000   18.9436188657994720
   Ge   N    Se
   114    12   114
Direct
  0.5035295854931601  0.7634881646971708  0.5015440108003045
  0.2090134106439726  0.4241610510588537  0.6151527848134283
  0.3323817983857812  0.9171657515163405  0.0672994295200657
  0.7884415438954259  0.3383314537685082  0.3688392589747895
  0.5645739810634282  0.9467396613128661  0.6274045121313149
  0.0702333805860278  0.3432870025011784  0.8633193889331878
  0.5815544204315417  0.2944496818788834  0.8126869839498416
  0.9542721606506654  0.5703139990466701  0.0574658389973802
  0.2508356400712494  0.7248057595210498  0.7966934319268009
  0.9168756747909016  0.5340563847786856  0.2753734125773413
  0.0030816661167242  0.4521948579322745  0.6333320874257282
  0.0673435217515619  0.8352948651627434  0.7708143153738428
  0.8626385793882688  0.8904005232709633  0.7773480797655808
  0.1012813244097844  0.1533745856060001  0.8664903929987110
  0.3361206338642584  0.4113626262842849  0.1714128767590657
  0.2097319535408607  0.4122815905562242  0.4464748678061132
  0.0010357679574724  0.0869564034144683  0.3126485000336485
  0.6008553223382103  0.6749576924033306  0.9387033637276726
  0.6648274076759771  0.9690523396573686  0.8408588321604221
  0.5445540892423668  0.4199949583236309  0.2453515059460426
  0.0554295470598968  0.6150785785990447  0.6032832379877402
  0.3737350084566129  0.9387243968243159  0.5389219362930703
  0.8128267987742259  0.4366196081971591  0.1467542961791394
  0.6052892429268131  0.5446120950878980  0.6556160971447527
  0.9604090848400223  0.1673108775450668  0.0244163599438412
  0.4276172443934413  0.0875961498616241  0.9857029805471833
  0.7187113366859000  0.9677871775708815  0.0312153524651241
  0.8605704726385375  0.7055893428865615  0.3938475307034151
  0.1370285131483836  0.2678044721921011  0.3331002198349630
  0.4177827743752777  0.4421053160404209  0.4629663034536246
  0.6434148538027233  0.2278214266694401  0.4207012618123325
  0.4521800496198983  0.8846399869862840  0.2928720866334644
  0.2577454005620213  0.1722841678634006  0.0118500637553972
  0.1617414482867931  0.5517623572553642  0.1068047980935783
  0.2071019275905751  0.3141361008616028  0.1053450380875300
  0.4923405036752477  0.8750956977501042  0.0448084985546681
  0.6317578576572508  0.5848753158808159  0.0909724842723467
  0.6534860134773527  0.0109011636710514  0.1787219219778575
  0.0371537985064948  0.1994797347460379  0.6381538315418106
  0.4758165854602363  0.4368290806896011  0.8453636651448962
  0.5431022006165807  0.2795019779616691  0.5818075994597703
  0.2916497403207188  0.9299245245299500  0.7589504793421721
  0.2603037743383376  0.0264982891292769  0.6262780384798402
  0.7918071304899461  0.3007555858653894  0.8202594303352574
  0.3177922723105469  0.6682340335051542  0.2465380207964463
  0.9310806755633347  0.0813912702722586  0.7509939142386983
  0.3299836686355122  0.0656477545181640  0.3488986819462611
  0.0275963327160859  0.8434832808377006  0.5331317047137382
  0.5103898599464828  0.1043957111671999  0.4439032068015146
  0.8399333715912020  0.0043034615933745  0.9309431024266853
  0.9654588857370500  0.3612222542958530  0.1379253277745014
  0.6477029550292198  0.8725585572383499  0.3140240620923046
  0.3579051448461467  0.6831267490078315  0.4588041260843882
  0.1331246085226342  0.0202736006858241  0.4627103553646995
  0.9218676922984613  0.1025471809563422  0.8838993185247634
  0.7648254384191768  0.2357544027894823  0.2631542546981012
  0.6438169067544444  0.6605797999546508  0.4053794763020424
  0.7846735469311976  0.4004523842831503  0.6623794940403871
  0.5797307248625336  0.5883215615388394  0.2178952200118990
  0.7499894752728212  0.1344510998540364  0.0807812268369808
  0.2974332849205365  0.0459265551383159  0.0851305304594466
  0.5991836329112469  0.0881201312008929  0.0244456180816746
  0.5765560619856323  0.4763355053556835  0.9433543678860649
  0.4344844971716068  0.7783930763092703  0.8377979932690198
  0.9090427442621516  0.2845058388477050  0.8998062163250884
  0.1544041399843339  0.0554716951336360  0.7476236938008929
  0.2762695213332129  0.5309285942945129  0.4800065332430239
  0.7614394983921642  0.6951595717845248  0.9491155208438756
  0.8805536411883261  0.8264931855024915  0.6580768660175700
  0.7654868857749995  0.0646866717883221  0.3604766118556917
  0.5403300474754499  0.1517787135833978  0.2243165924801697
  0.1900120159991893  0.1386654328708333  0.1926102515620137
  0.0227197617283584  0.9892595545664281  0.7078437354424882
  0.3352615383364396  0.6895936330934728  0.9885425463555710
  0.4342341599043253  0.7443374078069638  0.3271356566391718
  0.8620096272456559  0.7107340797641700  0.0455619637597442
  0.3183925640811901  0.4720390499356958  0.8463870442518793
  0.0289151468501035  0.1878668046273154  0.5015917563060748
  0.2194749292171013  0.8302021853521071  0.1046279878487527
  0.5267843146614052  0.1166646674094699  0.8474285519052540
  0.2164456010813805  0.2572730292517122  0.5591628622331497
  0.7413853238393583  0.8293504360996901  0.8075142911907930
  0.4963892016280086  0.6739312880226808  0.7081187339514424
  0.2715494626767312  0.6327786537690483  0.6718810023421151
  0.6189640665112377  0.7687301937746506  0.6105235002053044
  0.7416952204443342  0.6296423493717200  0.7195723621533461
  0.0693132659433380  0.4550698104404361  0.2938770111585613
  0.1709131087379238  0.2521891368161655  0.6916118538484816
  0.5951689962246726  0.1747454524041737  0.6440694087472271
  0.4634090456401291  0.3773834237482985  0.6413398833510929
  0.8951228275478283  0.3948296380189470  0.9894367990428594
  0.3044456580233140  0.1789729639105214  0.8354528831629836
  0.7553301043751711  0.2774675153879252  0.5711437757553032
  0.4206979459770497  0.9482482043632197  0.1759151607937662
  0.4823498047736109  0.8505339317338589  0.7199395481960755
  0.9285121061357540  0.3317462232400716  0.7308282622379544
  0.3468576252933592  0.5533607220922964  0.3659000294536552
  0.3375006581674425  0.3302630290392015  0.5049269866282461
  0.7044197493305542  0.4725905269273794  0.0560755753270495
  0.8234481398256438  0.5310757485463187  0.3829785382973879
  0.9638276061319333  0.5011167728055504  0.4832606117716814
  0.1560009181016214  0.6558313630525223  0.3609059819718674
  0.3855728471176155  0.1779955077485264  0.5793774250332240
  0.3610179510643700  0.4301772421250084  0.3069814660464813
  0.0894251046513294  0.6097107012682165  0.8064935135151236
  0.2162781185705763  0.3267907242099103  0.9609299736981077
  0.2300652991467120  0.9092819491344425  0.3015453590384447
  0.2531244067652310  0.5159570391690089  0.0000067545599814
  0.7365448738179083  0.8839539774731130  0.4879100988137023
  0.8534343757546464  0.4726363804548682  0.7964644420125823
  0.8024752214937960  0.9657568286772631  0.1946233743201058
  0.1476706911242078  0.8987641280742958  0.6675346640246046
  0.4635037728257993  0.5866182008190520  0.5650100634854007
  0.4205444129243764  0.4888253765926572  0.0868854987538985
  0.9194057481456717  0.1925063642663271  0.9321718386069212
  0.3430132732867893  0.1165044908537316  0.0314086574121602
  0.2359627027038130  0.3569133971478895  0.5313500885437168
  0.2094474218314230  0.9757515778154197  0.7055370606672798
  0.8323797758757093  0.3746533239820038  0.7553440149716548
  0.2157516289290780  0.1078882334764409  0.0894224716311307
  0.3137858487523590  0.2395170651352887  0.5388203036592921
  0.6820263945373731  0.0507287730828897  0.0852690229120062
  0.0141301307983343  0.5273134507563565  0.5711376215568731
  0.4337723278876552  0.7430038169021811  0.4280755359373895
  0.8906819637233234  0.4140091258083943  0.0876643321291116
  0.5163399092699100  0.5952850828923589  0.6531387073312389
  0.9407976205386931  0.4016208536681139  0.2735664349022327
  0.2874405703300639  0.3379875968950801  0.3715592220946804
  0.8589465468166898  0.7792129925134006  0.1687347998949008
  0.4734152766835191  0.3139672971192074  0.8856610248378640
  0.5256977927478517  0.5838341012167926  0.0119576357877686
  0.6962621433408075  0.1603893789042909  0.9535034137005370
  0.3951537094779039  0.0821570119984675  0.8497766018146465
  0.0905291968915178  0.3768214868228783  0.4079159046010968
  0.0047346448792178  0.2268742382905288  0.3171706033143736
  0.2598732943001936  0.1419238475872813  0.7077610993832223
  0.2277105892351582  0.7073058247695366  0.5689884382739981
  0.1147480736526759  0.2512659295073569  0.1705237328126346
  0.6433535325915939  0.3284037969393058  0.5166206804772286
  0.9507026180904227  0.9310373522666536  0.6086016052164765
  0.2120327388159580  0.7269160764151650  0.0276532577124574
  0.5847132951870714  0.0693963434390085  0.5721108987443760
  0.6412215684499282  0.7994766293555108  0.2098334070332364
  0.0988744583129490  0.2522326537113707  0.9574407698146452
  0.1621556927032079  0.8342476364824342  0.3949393315822842
  0.8241341391210705  0.5374965148146986  0.6788035205423691
  0.4706687072274370  0.3778497426987147  0.3569784297853243
  0.6426622612272097  0.5828744159375151  0.7798157702827949
  0.3162765255703084  0.8008211469025177  0.8867364049392593
  0.4640835228776304  0.5308976083578584  0.2169091046302735
  0.2053851839562461  0.4367072176263617  0.1702630058975393
  0.5563692794313189  0.9591817235922224  0.3272930034555260
  0.1265121151530844  0.0616033180539338  0.1084977667567763
  0.7647934497329932  0.9258483696459666  0.3198069929878770
  0.0628024200044701  0.9117911591149344  0.4184066192059763
  0.6032226461852896  0.9672269382028482  0.9613522635143900
  0.6430671970666387  0.7995819262127738  0.4244115842381848
  0.2210351593655027  0.5390629584136337  0.3229149432832362
  0.6929152537111354  0.8812864438888047  0.6153325296973731
  0.9086919917034753  0.1800648066232191  0.6700308755707257
  0.5633287518268560  0.0119627278435621  0.7742031441122857
  0.5156079337058208  0.0394522353223662  0.1452172760067470
  0.7163696361227851  0.1998301189851329  0.6707116440861596
  0.9984957269324530  0.7616656887633934  0.6841113093317999
  0.8210999561829301  0.0094052571096560  0.7431616729487168
  0.8684523652544796  0.6015065138543862  0.4836544453939619
  0.0873227639486714  0.3590868852169504  0.6168760774815963
  0.5571414719681574  0.4089840229554367  0.7349898743768386
  0.7530904472045177  0.6366534136994690  0.3325934531233184
  0.0420449724540592  0.7704042937561265  0.2641749508542822
  0.3540901963609449  0.9307999610460542  0.3693480943899768
  0.0326379256067384  0.0671324999085948  0.9423430403552484
  0.9884845784466771  0.4740803243182137  0.7593018553483644
  0.4731505069715037  0.2312638194754875  0.4841186673931214
  0.2735349724637635  0.7310870031406609  0.3599474069972112
  0.0880097172838109  0.0746968552289308  0.6252867090688441
  0.6991055312219911  0.5256693331334379  0.9369302214068556
  0.9342691577675524  0.5098858360758088  0.9462418628925169
  0.1747132014196445  0.6133695595762491  0.5024393238703719
  0.1298760696238254  0.4333052129621018  0.9401545660148295
  0.3438748949739945  0.4218437112775282  0.9676746005377799
  0.7560732037550804  0.4425325596998185  0.4461811834518605
  0.0200051182923601  0.5596496305138441  0.3648449894065194
  0.1532236615444644  0.1942764181364411  0.4586387794295786
  0.9563597452749517  0.2634181364270962  0.4274051811090600
  0.3193506353408905  0.2846795725611244  0.1665108828497630
  0.9234266580128888  0.8412924707706141  0.4485693348881037
  0.3850630029820172  0.9827546535636376  0.6701340212231104
  0.9837499185038115  0.6859056845017384  0.0123579746682519
  0.5012019317460702  0.9030856644878179  0.5122615943797272
  0.2526113177043723  0.8167416220561419  0.6913507087394746
  0.5110679613155394  0.2006768035379310  0.7414144200113707
  0.4264267189099477  0.7549948887386764  0.6362354109086201
  0.2684970412749871  0.3461556192096358  0.7093988291681629
  0.7042706656365305  0.6656823995706547  0.6028262519982043
  0.5889241204204070  0.7611573300462078  0.7435390994671289
  0.7329594920524349  0.8222411323688835  0.9352797234274687
  0.3243635281684868  0.0267452590049522  0.2133301775763547
  0.3835111695531224  0.0678607450812434  0.4915062376041583
  0.8706816907235407  0.0750188288500848  0.2798412485202023
  0.4323841337263576  0.6482004375585395  0.8132973056100314
  0.2188224275534797  0.0963776371031691  0.9010013752231588
  0.2613963988794028  0.5870998460904604  0.8881211470983689
  0.0333935957925914  0.5180064078335487  0.1425702307937254
  0.9039864967268684  0.3753240317503294  0.5980330793796382
  0.1542491497799679  0.5692733043996757  0.6934249159245059
  0.3267533967181412  0.7917585801457911  0.1845489358987927
  0.7441989562388224  0.0800283853547976  0.8637366090998305
  0.8812411640455416  0.2479657922999627  0.1329744999669364
  0.6662116545593614  0.7052886779489472  0.0551658957439202
  0.6790930188827125  0.1221921667866433  0.2652416241518810
  0.7767096788473292  0.2195700100041868  0.4442625146367501
  0.9743661950106298  0.8979552328439608  0.8419406982651725
  0.3285949723366399  0.5844304187970181  0.0919710746460235
  0.8244613092412714  0.7820673716585357  0.5063483279494290
  0.7803847679061690  0.3549334378719396  0.9408124746394173
  0.0035972258458023  0.0715212521413854  0.4467360610066157
  0.5026189666304384  0.7730770992048720  0.9523184981718043
  0.8105215445945443  0.7106434919944575  0.7871424400949720
  0.1830805651103738  0.0297516849111598  0.3382411332015193
  0.3364269862676089  0.5306151363879260  0.6001306214990966
  0.4090966105192162  0.7650052418551602  0.0864682248412660
  0.6620126685611432  0.3122940537495977  0.3167162359628562
  0.6393059455887774  0.5011235191939595  0.2877619038577389
  0.7655048709225609  0.3003454935206373  0.1441818373680348
  0.7180216163681080  0.8691585866007902  0.1269898683751696
  0.1182668649786148  0.7421794193351490  0.1641372090614559
  0.5983997560302269  0.3987255215998710  0.0448836981094960
  0.9131198196766539  0.8898079848875539  0.1734068481545526
  0.9458509511284112  0.6995510487892570  0.2350682176230486
  0.1790520845167960  0.6399031619479341  0.2184393552984774
  0.5191032239752413  0.4599985482279165  0.5473838527975676
  0.9802991053308393  0.6408080196700540  0.7301052616767221
  0.8620463202253844  0.0647859498887533  0.0478496389002450
  0.4084239252964959  0.9437206497491220  0.9655548773133809
  0.5683423858082192  0.6950515440403299  0.2974064396061627
  0.4566233283829411  0.1390636868838301  0.3193441352505232
  0.1225041083524575  0.7390469213801965  0.8419624078265884
  0.1975637674468083  0.3927737953811594  0.8198152059890444
  0.8425397407241586  0.5996574477555031  0.1133431421068472
 
  0.00000000E+00  0.00000000E+00  0.00000000E+00
  0.00000000E+00  0.00000000E+00  0.00000000E+00
  0.00000000E+00  0.00000000E+00  0.00000000E+00
  0.00000000E+00  0.00000000E+00  0.00000000E+00
  0.00000000E+00  0.00000000E+00  0.00000000E+00
  0.00000000E+00  0.00000000E+00  0.00000000E+00
  0.00000000E+00  0.00000000E+00  0.00000000E+00
  0.00000000E+00  0.00000000E+00  0.00000000E+00
  0.00000000E+00  0.00000000E+00  0.00000000E+00
  0.00000000E+00  0.00000000E+00  0.00000000E+00
  0.00000000E+00  0.00000000E+00  0.00000000E+00
  0.00000000E+00  0.00000000E+00  0.00000000E+00
  0.00000000E+00  0.00000000E+00  0.00000000E+00
  0.00000000E+00  0.00000000E+00  0.00000000E+00
  0.00000000E+00  0.00000000E+00  0.00000000E+00
  0.00000000E+00  0.00000000E+00  0.00000000E+00
  0.00000000E+00  0.00000000E+00  0.00000000E+00
  0.00000000E+00  0.00000000E+00  0.00000000E+00
  0.00000000E+00  0.00000000E+00  0.00000000E+00
  0.00000000E+00  0.00000000E+00  0.00000000E+00
  0.00000000E+00  0.00000000E+00  0.00000000E+00
  0.00000000E+00  0.00000000E+00  0.00000000E+00
  0.00000000E+00  0.00000000E+00  0.00000000E+00
  0.00000000E+00  0.00000000E+00  0.00000000E+00
  0.00000000E+00  0.00000000E+00  0.00000000E+00
  0.00000000E+00  0.00000000E+00  0.00000000E+00
  0.00000000E+00  0.00000000E+00  0.00000000E+00
  0.00000000E+00  0.00000000E+00  0.00000000E+00
  0.00000000E+00  0.00000000E+00  0.00000000E+00
  0.00000000E+00  0.00000000E+00  0.00000000E+00
  0.00000000E+00  0.00000000E+00  0.00000000E+00
  0.00000000E+00  0.00000000E+00  0.00000000E+00
  0.00000000E+00  0.00000000E+00  0.00000000E+00
  0.00000000E+00  0.00000000E+00  0.00000000E+00
  0.00000000E+00  0.00000000E+00  0.00000000E+00
  0.00000000E+00  0.00000000E+00  0.00000000E+00
  0.00000000E+00  0.00000000E+00  0.00000000E+00
  0.00000000E+00  0.00000000E+00  0.00000000E+00
  0.00000000E+00  0.00000000E+00  0.00000000E+00
  0.00000000E+00  0.00000000E+00  0.00000000E+00
  0.00000000E+00  0.00000000E+00  0.00000000E+00
  0.00000000E+00  0.00000000E+00  0.00000000E+00
  0.00000000E+00  0.00000000E+00  0.00000000E+00
  0.00000000E+00  0.00000000E+00  0.00000000E+00
  0.00000000E+00  0.00000000E+00  0.00000000E+00
  0.00000000E+00  0.00000000E+00  0.00000000E+00
  0.00000000E+00  0.00000000E+00  0.00000000E+00
  0.00000000E+00  0.00000000E+00  0.00000000E+00
  0.00000000E+00  0.00000000E+00  0.00000000E+00
  0.00000000E+00  0.00000000E+00  0.00000000E+00
  0.00000000E+00  0.00000000E+00  0.00000000E+00
  0.00000000E+00  0.00000000E+00  0.00000000E+00
  0.00000000E+00  0.00000000E+00  0.00000000E+00
  0.00000000E+00  0.00000000E+00  0.00000000E+00
  0.00000000E+00  0.00000000E+00  0.00000000E+00
  0.00000000E+00  0.00000000E+00  0.00000000E+00
  0.00000000E+00  0.00000000E+00  0.00000000E+00
  0.00000000E+00  0.00000000E+00  0.00000000E+00
  0.00000000E+00  0.00000000E+00  0.00000000E+00
  0.00000000E+00  0.00000000E+00  0.00000000E+00
  0.00000000E+00  0.00000000E+00  0.00000000E+00
  0.00000000E+00  0.00000000E+00  0.00000000E+00
  0.00000000E+00  0.00000000E+00  0.00000000E+00
  0.00000000E+00  0.00000000E+00  0.00000000E+00
  0.00000000E+00  0.00000000E+00  0.00000000E+00
  0.00000000E+00  0.00000000E+00  0.00000000E+00
  0.00000000E+00  0.00000000E+00  0.00000000E+00
  0.00000000E+00  0.00000000E+00  0.00000000E+00
  0.00000000E+00  0.00000000E+00  0.00000000E+00
  0.00000000E+00  0.00000000E+00  0.00000000E+00
  0.00000000E+00  0.00000000E+00  0.00000000E+00
  0.00000000E+00  0.00000000E+00  0.00000000E+00
  0.00000000E+00  0.00000000E+00  0.00000000E+00
  0.00000000E+00  0.00000000E+00  0.00000000E+00
  0.00000000E+00  0.00000000E+00  0.00000000E+00
  0.00000000E+00  0.00000000E+00  0.00000000E+00
  0.00000000E+00  0.00000000E+00  0.00000000E+00
  0.00000000E+00  0.00000000E+00  0.00000000E+00
  0.00000000E+00  0.00000000E+00  0.00000000E+00
  0.00000000E+00  0.00000000E+00  0.00000000E+00
  0.00000000E+00  0.00000000E+00  0.00000000E+00
  0.00000000E+00  0.00000000E+00  0.00000000E+00
  0.00000000E+00  0.00000000E+00  0.00000000E+00
  0.00000000E+00  0.00000000E+00  0.00000000E+00
  0.00000000E+00  0.00000000E+00  0.00000000E+00
  0.00000000E+00  0.00000000E+00  0.00000000E+00
  0.00000000E+00  0.00000000E+00  0.00000000E+00
  0.00000000E+00  0.00000000E+00  0.00000000E+00
  0.00000000E+00  0.00000000E+00  0.00000000E+00
  0.00000000E+00  0.00000000E+00  0.00000000E+00
  0.00000000E+00  0.00000000E+00  0.00000000E+00
  0.00000000E+00  0.00000000E+00  0.00000000E+00
  0.00000000E+00  0.00000000E+00  0.00000000E+00
  0.00000000E+00  0.00000000E+00  0.00000000E+00
  0.00000000E+00  0.00000000E+00  0.00000000E+00
  0.00000000E+00  0.00000000E+00  0.00000000E+00
  0.00000000E+00  0.00000000E+00  0.00000000E+00
  0.00000000E+00  0.00000000E+00  0.00000000E+00
  0.00000000E+00  0.00000000E+00  0.00000000E+00
  0.00000000E+00  0.00000000E+00  0.00000000E+00
  0.00000000E+00  0.00000000E+00  0.00000000E+00
  0.00000000E+00  0.00000000E+00  0.00000000E+00
  0.00000000E+00  0.00000000E+00  0.00000000E+00
  0.00000000E+00  0.00000000E+00  0.00000000E+00
  0.00000000E+00  0.00000000E+00  0.00000000E+00
  0.00000000E+00  0.00000000E+00  0.00000000E+00
  0.00000000E+00  0.00000000E+00  0.00000000E+00
  0.00000000E+00  0.00000000E+00  0.00000000E+00
  0.00000000E+00  0.00000000E+00  0.00000000E+00
  0.00000000E+00  0.00000000E+00  0.00000000E+00
  0.00000000E+00  0.00000000E+00  0.00000000E+00
  0.00000000E+00  0.00000000E+00  0.00000000E+00
  0.00000000E+00  0.00000000E+00  0.00000000E+00
  0.00000000E+00  0.00000000E+00  0.00000000E+00
  0.00000000E+00  0.00000000E+00  0.00000000E+00
  0.00000000E+00  0.00000000E+00  0.00000000E+00
  0.00000000E+00  0.00000000E+00  0.00000000E+00
  0.00000000E+00  0.00000000E+00  0.00000000E+00
  0.00000000E+00  0.00000000E+00  0.00000000E+00
  0.00000000E+00  0.00000000E+00  0.00000000E+00
  0.00000000E+00  0.00000000E+00  0.00000000E+00
  0.00000000E+00  0.00000000E+00  0.00000000E+00
  0.00000000E+00  0.00000000E+00  0.00000000E+00
  0.00000000E+00  0.00000000E+00  0.00000000E+00
  0.00000000E+00  0.00000000E+00  0.00000000E+00
  0.00000000E+00  0.00000000E+00  0.00000000E+00
  0.00000000E+00  0.00000000E+00  0.00000000E+00
  0.00000000E+00  0.00000000E+00  0.00000000E+00
  0.00000000E+00  0.00000000E+00  0.00000000E+00
  0.00000000E+00  0.00000000E+00  0.00000000E+00
  0.00000000E+00  0.00000000E+00  0.00000000E+00
  0.00000000E+00  0.00000000E+00  0.00000000E+00
  0.00000000E+00  0.00000000E+00  0.00000000E+00
  0.00000000E+00  0.00000000E+00  0.00000000E+00
  0.00000000E+00  0.00000000E+00  0.00000000E+00
  0.00000000E+00  0.00000000E+00  0.00000000E+00
  0.00000000E+00  0.00000000E+00  0.00000000E+00
  0.00000000E+00  0.00000000E+00  0.00000000E+00
  0.00000000E+00  0.00000000E+00  0.00000000E+00
  0.00000000E+00  0.00000000E+00  0.00000000E+00
  0.00000000E+00  0.00000000E+00  0.00000000E+00
  0.00000000E+00  0.00000000E+00  0.00000000E+00
  0.00000000E+00  0.00000000E+00  0.00000000E+00
  0.00000000E+00  0.00000000E+00  0.00000000E+00
  0.00000000E+00  0.00000000E+00  0.00000000E+00
  0.00000000E+00  0.00000000E+00  0.00000000E+00
  0.00000000E+00  0.00000000E+00  0.00000000E+00
  0.00000000E+00  0.00000000E+00  0.00000000E+00
  0.00000000E+00  0.00000000E+00  0.00000000E+00
  0.00000000E+00  0.00000000E+00  0.00000000E+00
  0.00000000E+00  0.00000000E+00  0.00000000E+00
  0.00000000E+00  0.00000000E+00  0.00000000E+00
  0.00000000E+00  0.00000000E+00  0.00000000E+00
  0.00000000E+00  0.00000000E+00  0.00000000E+00
  0.00000000E+00  0.00000000E+00  0.00000000E+00
  0.00000000E+00  0.00000000E+00  0.00000000E+00
  0.00000000E+00  0.00000000E+00  0.00000000E+00
  0.00000000E+00  0.00000000E+00  0.00000000E+00
  0.00000000E+00  0.00000000E+00  0.00000000E+00
  0.00000000E+00  0.00000000E+00  0.00000000E+00
  0.00000000E+00  0.00000000E+00  0.00000000E+00
  0.00000000E+00  0.00000000E+00  0.00000000E+00
  0.00000000E+00  0.00000000E+00  0.00000000E+00
  0.00000000E+00  0.00000000E+00  0.00000000E+00
  0.00000000E+00  0.00000000E+00  0.00000000E+00
  0.00000000E+00  0.00000000E+00  0.00000000E+00
  0.00000000E+00  0.00000000E+00  0.00000000E+00
  0.00000000E+00  0.00000000E+00  0.00000000E+00
  0.00000000E+00  0.00000000E+00  0.00000000E+00
  0.00000000E+00  0.00000000E+00  0.00000000E+00
  0.00000000E+00  0.00000000E+00  0.00000000E+00
  0.00000000E+00  0.00000000E+00  0.00000000E+00
  0.00000000E+00  0.00000000E+00  0.00000000E+00
  0.00000000E+00  0.00000000E+00  0.00000000E+00
  0.00000000E+00  0.00000000E+00  0.00000000E+00
  0.00000000E+00  0.00000000E+00  0.00000000E+00
  0.00000000E+00  0.00000000E+00  0.00000000E+00
  0.00000000E+00  0.00000000E+00  0.00000000E+00
  0.00000000E+00  0.00000000E+00  0.00000000E+00
  0.00000000E+00  0.00000000E+00  0.00000000E+00
  0.00000000E+00  0.00000000E+00  0.00000000E+00
  0.00000000E+00  0.00000000E+00  0.00000000E+00
  0.00000000E+00  0.00000000E+00  0.00000000E+00
  0.00000000E+00  0.00000000E+00  0.00000000E+00
  0.00000000E+00  0.00000000E+00  0.00000000E+00
  0.00000000E+00  0.00000000E+00  0.00000000E+00
  0.00000000E+00  0.00000000E+00  0.00000000E+00
  0.00000000E+00  0.00000000E+00  0.00000000E+00
  0.00000000E+00  0.00000000E+00  0.00000000E+00
  0.00000000E+00  0.00000000E+00  0.00000000E+00
  0.00000000E+00  0.00000000E+00  0.00000000E+00
  0.00000000E+00  0.00000000E+00  0.00000000E+00
  0.00000000E+00  0.00000000E+00  0.00000000E+00
  0.00000000E+00  0.00000000E+00  0.00000000E+00
  0.00000000E+00  0.00000000E+00  0.00000000E+00
  0.00000000E+00  0.00000000E+00  0.00000000E+00
  0.00000000E+00  0.00000000E+00  0.00000000E+00
  0.00000000E+00  0.00000000E+00  0.00000000E+00
  0.00000000E+00  0.00000000E+00  0.00000000E+00
  0.00000000E+00  0.00000000E+00  0.00000000E+00
  0.00000000E+00  0.00000000E+00  0.00000000E+00
  0.00000000E+00  0.00000000E+00  0.00000000E+00
  0.00000000E+00  0.00000000E+00  0.00000000E+00
  0.00000000E+00  0.00000000E+00  0.00000000E+00
  0.00000000E+00  0.00000000E+00  0.00000000E+00
  0.00000000E+00  0.00000000E+00  0.00000000E+00
  0.00000000E+00  0.00000000E+00  0.00000000E+00
  0.00000000E+00  0.00000000E+00  0.00000000E+00
  0.00000000E+00  0.00000000E+00  0.00000000E+00
  0.00000000E+00  0.00000000E+00  0.00000000E+00
  0.00000000E+00  0.00000000E+00  0.00000000E+00
  0.00000000E+00  0.00000000E+00  0.00000000E+00
  0.00000000E+00  0.00000000E+00  0.00000000E+00
  0.00000000E+00  0.00000000E+00  0.00000000E+00
  0.00000000E+00  0.00000000E+00  0.00000000E+00
  0.00000000E+00  0.00000000E+00  0.00000000E+00
  0.00000000E+00  0.00000000E+00  0.00000000E+00
  0.00000000E+00  0.00000000E+00  0.00000000E+00
  0.00000000E+00  0.00000000E+00  0.00000000E+00
  0.00000000E+00  0.00000000E+00  0.00000000E+00
  0.00000000E+00  0.00000000E+00  0.00000000E+00
  0.00000000E+00  0.00000000E+00  0.00000000E+00
  0.00000000E+00  0.00000000E+00  0.00000000E+00
  0.00000000E+00  0.00000000E+00  0.00000000E+00
  0.00000000E+00  0.00000000E+00  0.00000000E+00
  0.00000000E+00  0.00000000E+00  0.00000000E+00
  0.00000000E+00  0.00000000E+00  0.00000000E+00
  0.00000000E+00  0.00000000E+00  0.00000000E+00
  0.00000000E+00  0.00000000E+00  0.00000000E+00
  0.00000000E+00  0.00000000E+00  0.00000000E+00
  0.00000000E+00  0.00000000E+00  0.00000000E+00
  0.00000000E+00  0.00000000E+00  0.00000000E+00
  0.00000000E+00  0.00000000E+00  0.00000000E+00
  0.00000000E+00  0.00000000E+00  0.00000000E+00
  0.00000000E+00  0.00000000E+00  0.00000000E+00
  0.00000000E+00  0.00000000E+00  0.00000000E+00
  0.00000000E+00  0.00000000E+00  0.00000000E+00
  0.00000000E+00  0.00000000E+00  0.00000000E+00
  0.00000000E+00  0.00000000E+00  0.00000000E+00
  0.00000000E+00  0.00000000E+00  0.00000000E+00
