Amorphous Sb                            
   1.00000000000000     
    20.5278877257999994    0.0000000000000000    0.0000000000000000
     0.0000000000000000   20.5278877257999994    0.0000000000000000
     0.0000000000000000    0.0000000000000000   20.5278877257999994
   Ge   Sn   Se
    75    75   150
Direct
  0.8225992362531752  0.3990617115966909  0.3600978102926340
  0.7674478263153188  0.5237007890386810  0.3489983976605680
  0.7216136872135633  0.7010170243885242  0.4884046063251148
  0.7618659260035798  0.6522908898662726  0.3817715406268846
  0.5042088548012007  0.6640675013790164  0.7979395574692023
  0.2144177967769568  0.4265865868484895  0.7955100798088804
  0.3839872581120206  0.3301750281209420  0.5921497349230354
  0.8233593829306424  0.0340807544481236  0.6481615409452341
  0.9095393197474618  0.5921724611549755  0.6559881142808139
  0.2489096173085029  0.6784784346192854  0.9629405693503494
  0.1193804891679589  0.1534189936686642  0.3520524293931316
  0.3254537224595312  0.6265471371804576  0.7970305422699163
  0.3560741639315164  0.8871408323199340  0.2113469032846665
  0.3586757012816222  0.0103890080461252  0.4285214095216668
  0.0128832882934973  0.0671925856633020  0.4529008696825688
  0.6203786797674303  0.3792926859730077  0.8446548216076916
  0.6049937326912974  0.4549106907640063  0.5920315064592169
  0.2517479711844933  0.0086892068407942  0.8604075939318694
  0.6555992100490132  0.9760998644285689  0.4016330476462484
  0.0417437837025959  0.7913570515446211  0.1225017030554862
  0.0772194490660587  0.7625828259879417  0.3229246669816652
  0.1194813812264078  0.4565541126274545  0.9569824759146697
  0.0467375595461402  0.9341343412785845  0.4990997092809002
  0.1778519839163653  0.8363716952872989  0.1999400915383037
  0.4385963586237708  0.7247331116945666  0.9542681145345856
  0.9951406599078919  0.1744867871483659  0.9505661286183028
  0.0299620223787523  0.0703542711101774  0.1303278930697620
  0.5495428779545054  0.3193523942935928  0.1928558918629422
  0.3923431411402737  0.1620158951988700  0.5987972578847955
  0.4048659289399946  0.7608976852027226  0.5292353465862015
  0.7813713322500020  0.9229610833431058  0.0666872226390928
  0.9437956062377830  0.8218594189716455  0.5636386250478703
  0.0897795719939501  0.3444582086421323  0.7546233170340606
  0.0299926045229350  0.0867068679473330  0.2575728410187584
  0.3995058561528477  0.4450153787347229  0.2688039180042094
  0.0450503632090258  0.5440171059268374  0.5722405880538749
  0.4367753928068933  0.4665313994340550  0.9317721728334625
  0.2646728476696895  0.0503057469561520  0.2260187181501778
  0.2543188841057165  0.3599591240956299  0.1137477057271692
  0.7588511884751050  0.3794187754768488  0.7524983266434000
  0.9183616671851191  0.1925595029168514  0.5722726430661392
  0.3646534242840656  0.9968607869754741  0.0896938847078257
  0.3706691196400205  0.6473226824546664  0.2263189722797162
  0.3943331049884439  0.4580666195749797  0.4921564969148376
  0.8736463930834527  0.7934250030534820  0.1639243471876782
  0.0117984266727551  0.7671082732768154  0.8389465638830543
  0.5174832738954801  0.0552418271557617  0.2912384298740942
  0.2568800082017647  0.4206873722736573  0.9430080104565151
  0.0512860327170075  0.2760769203519157  0.1269089402630509
  0.6249040805066591  0.7057404565444658  0.8422694651372450
  0.5950866142493092  0.3050732038132047  0.7437416306090329
  0.0367709874913133  0.5625144013041986  0.3136529459145337
  0.0379442781449049  0.9139371882655900  0.2169510071782929
  0.1620502130758665  0.5664966825400551  0.4523888765544491
  0.9729979908790223  0.3309457441386041  0.5707914903792696
  0.0926384898587513  0.0549869345290341  0.8258319617259335
  0.5130795168950528  0.4435839883169160  0.3341171570649941
  0.6960330298572859  0.1081284459714130  0.1129911996052012
  0.5347180367524852  0.6913465420687812  0.2523137662336736
  0.8539917352708389  0.0099290387983605  0.8336403929803178
  0.5697109914939741  0.8653247711357116  0.0503239194022886
  0.0740385733574073  0.3392764695124383  0.9298126347953045
  0.8183964341119048  0.8554995202635681  0.5259407691349310
  0.8200395206708317  0.2221074223184996  0.1582669439966728
  0.8346511100732737  0.3313323147594348  0.0303821581274534
  0.9555656657087293  0.4107404804666172  0.7281648385401507
  0.4028793550481811  0.1630018961253933  0.1706532079541264
  0.3483067454013315  0.5513323337472321  0.4160178075965342
  0.4765107950104988  0.8446949466592910  0.3914508429046382
  0.3202352869418104  0.4496585714400403  0.6419626711912940
  0.7092812319696432  0.9888071508009905  0.1470136955676615
  0.2411038763872093  0.2403629360168185  0.1611130798223905
  0.8607912728775603  0.0599998312782966  0.0179948845571646
  0.2508981607469260  0.7977916847773012  0.9035509755978343
  0.3595345382365330  0.2500337388777855  0.0183179287381645
  0.6765120480807357  0.9260887373939326  0.9120744171344353
  0.9722193645219146  0.5963827969806295  0.8265791094452353
  0.7987154277263161  0.5000239462260191  0.0611847056042055
  0.3712590591778021  0.0696669005809461  0.7220557478427252
  0.6089684644492556  0.1414665971383085  0.0195674499110119
  0.5290861594735765  0.2206502083637196  0.3630599836809795
  0.6389122169707013  0.0866199090251443  0.8876744679951258
  0.0836713614287646  0.1400720870927404  0.6481400179801829
  0.2770971744778969  0.5968136564233766  0.5773989642201143
  0.7635598944263872  0.0581369397748855  0.4713693586379155
  0.6700589744487324  0.9411648471526619  0.5910134936785058
  0.4454538637915630  0.0137228397963888  0.9447621181490794
  0.1457587225517755  0.4487595463538852  0.6304921664340088
  0.2135582048488991  0.7799822104079978  0.4960168806708348
  0.2020760614632132  0.1328197106167364  0.8291417777605437
  0.1194124162722762  0.4204465941377508  0.2243234433636074
  0.5601906461193354  0.3037789619978780  0.9375752343028644
  0.2173462456424232  0.5208076218147116  0.0888757935803171
  0.8674197012605446  0.0222533138161921  0.1865632458264765
  0.4118288938202811  0.8411986174358003  0.7665696126285071
  0.7221598311827709  0.7112416494051169  0.9902475607804123
  0.9995886530810092  0.4793697547505073  0.0171775904431365
  0.0540302891140214  0.6791382419549306  0.0409706248071890
  0.6853647263378639  0.1650967332153870  0.7314197439536533
  0.7180937089092516  0.8977716187397199  0.7658619786203743
  0.1333280670907625  0.9001450847635518  0.6611825387643204
  0.1191497843145695  0.9518641598289097  0.0126710203179792
  0.1536704744842119  0.9522047991660731  0.3737196488899082
  0.7548986008839025  0.1244455592637522  0.3079280607510884
  0.4038074675245255  0.2738241313227131  0.3082170221817558
  0.6585472945881160  0.5924527661867346  0.7163008108946085
  0.3239470585625812  0.2255170689515671  0.4466351118388854
  0.0697836833896517  0.9243669957650624  0.7997070729837096
  0.7889853081629918  0.6235815556638171  0.8117836013244332
  0.9161295802966598  0.9073425006882936  0.9820736528367058
  0.2198092050513177  0.3908855149440754  0.3970666041571126
  0.1850293685468791  0.6845694667588984  0.6652476056032512
  0.4206847970884119  0.9687720383747620  0.5506442757715738
  0.5641526517268851  0.8316187138461785  0.7699891595814914
  0.1912584065839203  0.1242499406063142  0.9915194580719534
  0.3055273749568825  0.8128638288707583  0.0586952804157668
  0.5415673091636747  0.6025090351068063  0.3931830857650068
  0.8903943303269135  0.7394462399853516  0.9004525335415188
  0.4778029122758120  0.1869709637892603  0.9174811360767700
  0.4515828816629925  0.4967548085825297  0.1143327619910406
  0.0175852899116734  0.7203470728613581  0.6222754102288631
  0.2145384700595133  0.6203178133587202  0.2655144031182169
  0.2932129273576495  0.2674098397484173  0.7896334712716165
  0.5481180325820184  0.1045927802839558  0.4906097296458351
  0.3136882771220323  0.7444296911103259  0.3455628498821038
  0.2735938811286340  0.8484239406466317  0.7145270351816398
  0.6069808934091028  0.4515848574190858  0.0180826026404811
  0.2202297714898886  0.0520201800872164  0.5971048411187000
  0.9107214106195597  0.2303400456497454  0.7619061844425780
  0.5825021119263891  0.2552016927746091  0.5833086307646034
  0.1213062443565791  0.2184503199045004  0.5129526069366486
  0.1498481605774974  0.6102602802766337  0.8154012046340473
  0.5243360103077550  0.8861925233111905  0.2225826127917035
  0.4293897317617414  0.4141039420118430  0.7382452606425738
  0.9159563237351973  0.4481488078503645  0.9042229207001117
  0.7636619589173013  0.5703841499261429  0.5936005373014595
  0.9209868474995900  0.4988560579671525  0.4639111348429807
  0.7112503485357013  0.7136904006663523  0.1819712232275475
  0.8818876504450235  0.8443441281347757  0.3835592714040951
  0.5700526397052332  0.8318992495024855  0.5631050611930623
  0.0516663175406320  0.3456535035098455  0.3929579791784181
  0.9344237662113098  0.6730283724397350  0.2835858238666968
  0.7725545200686937  0.7403346715723992  0.6820282368575314
  0.5021861760584490  0.6691159871787148  0.6221487151716958
  0.7666958765886566  0.3553874869094432  0.5233773305586419
  0.6372302666163064  0.5686579603146381  0.1757485527806761
  0.7315204343343408  0.8394524979601852  0.3296027797585329
  0.9128300247490770  0.4622485162615605  0.2031661935127657
  0.8674797485345939  0.2354306488358271  0.3791469578436913
  0.7174331038179419  0.3980659150816496  0.2236794539802489
  0.8716234286456063  0.1033296673163955  0.9005218468462923
  0.8544166906995878  0.9732346223412340  0.5073814726304061
  0.1105811943875341  0.7278343546026332  0.2069200046406218
  0.9587586417960732  0.4535829792211886  0.6070299161855307
  0.3507887415956715  0.6834291034037137  0.0321365167165138
  0.1245028281828118  0.0050942144331454  0.2505260120358208
  0.5768168657628321  0.4443054327332350  0.1519337295100979
  0.7113810084784231  0.0702793909857005  0.5960825569529726
  0.6195996768347800  0.2661612873653790  0.0424281636515084
  0.1365384614415761  0.0748796245229836  0.4495653186026805
  0.9415721946104135  0.8177780326033840  0.2675812718832356
  0.7582513781117017  0.0272512488249270  0.7644884017522121
  0.2851355050419296  0.7579554570933609  0.6134157420212935
  0.8494741306879893  0.6736824020834499  0.1835730437656914
  0.4799096534127870  0.1241097397038156  0.0340433973637903
  0.2919700059936629  0.1581656099415041  0.0842921389122722
  0.3503898873614724  0.8357153061907162  0.4437134648750244
  0.9390116614396538  0.0004536369127052  0.7499198848254627
  0.7024767188700903  0.1908285685859219  0.2025145055718873
  0.7331122582335367  0.0124744543546544  0.9928265985760335
  0.5524222050442338  0.1987499905009877  0.7119927096753327
  0.1438933885110346  0.0574363476816701  0.0973922311714837
  0.8813266386876285  0.4948817364119565  0.7845841572855154
  0.2218652113577138  0.3683401510241366  0.2666323842316976
  0.3278781282918664  0.3916023543729485  0.8401946337798788
  0.2902297064605855  0.7792489938027986  0.1899296073757173
  0.2776835811935947  0.9820815447319002  0.3321212472698692
  0.3277734405498520  0.4814960425082663  0.0202924654287679
  0.3937344334618122  0.0440124092545374  0.2058953209400115
  0.4551288969275744  0.2454632755529827  0.5274571694064323
  0.4251081802803104  0.3371392019005711  0.1947978354417676
  0.9566526963027624  0.9877504166189688  0.2810977679492007
  0.4201462225233198  0.8798429294449337  0.1001207807029970
  0.0771637205820518  0.4847427420986701  0.4048750824844216
  0.0745206536084550  0.4955928594325258  0.8488897087740894
  0.5220228290234037  0.4469867640221161  0.8309846612648033
  0.3169334601824707  0.9723213452523632  0.6415360079173242
  0.5199955930226371  0.1700296420645595  0.2397551464039977
  0.6059970588038185  0.5166913159715508  0.3152749958791071
  0.3503397749543595  0.1942494050931005  0.9054939540054989
  0.1654983633992526  0.9052991701030492  0.5279695794877923
  0.0223777001032273  0.2001231291399811  0.4203494292346832
  0.5462818933965274  0.9234303282129519  0.9400251853487283
  0.6031261165557654  0.9462855562902464  0.7113208306796766
  0.7014176390471432  0.4651139727743837  0.6748583975208893
  0.1898922539535983  0.8132026680882412  0.3461731035801561
  0.5199279381486054  0.7543794682463774  0.4641528238571597
  0.8607295323252321  0.3395644821433716  0.6901501936605562
  0.3152481624932430  0.6563323465795511  0.4615453784962683
  0.6753594305712495  0.2069863118245840  0.8563891137996504
  0.3151705082053283  0.1022583856184188  0.5070480549157529
  0.7589832061877677  0.8362678324074879  0.1918614029882801
  0.1019700039577207  0.6486059262610508  0.3733179705056108
  0.0296665379344740  0.8653692894804809  0.9136932484506884
  0.7985290502592530  0.4150503858552028  0.9447738398876273
  0.9868104129084642  0.0862646108577937  0.5741320960938107
  0.2644318472789334  0.9496251963314960  0.1488683120363516
  0.5262690225027994  0.5743318590119196  0.7154679045315606
  0.0035866840657512  0.9161461706097495  0.6143678290581153
  0.1403247153307107  0.2834579806060011  0.8475492343031461
  0.5352579387466463  0.3690773496163906  0.6547873196157837
  0.2809900840750841  0.2765659474649927  0.5581785542957854
  0.2530941613396475  0.0019136240044106  0.9796042776968134
  0.7881321098894194  0.1578363025511154  0.0522816360733573
  0.8695179988943843  0.6104019413427474  0.9204460876380574
  0.8810164491435347  0.1448381374663474  0.2340515106894060
  0.5108716122519021  0.4788327696106999  0.4531657181116134
  0.5759358856706697  0.3393704972163942  0.3142240730731970
  0.4446587732057631  0.7730029741603728  0.2924566943454218
  0.1003815065056200  0.7800758378073268  0.7100028605072655
  0.7639173719606548  0.7497419901476468  0.8617122254575947
  0.5815640418648811  0.7732893711224430  0.1736273987091110
  0.9008322699046872  0.7041568696573262  0.7157740747463149
  0.0857136906861670  0.2458659543183257  0.0066188143235163
  0.8395949922274568  0.9005686950905405  0.8698867473158827
  0.6958921093664463  0.8453822856884795  0.0219987005143233
  0.7545044335838897  0.9982164046939209  0.2631678069587070
  0.2422625090418016  0.5195641216742574  0.7159031707566634
  0.7868533461026412  0.4901361212634156  0.4878699369422296
  0.4014795000407831  0.2830152747761181  0.7108773903938308
 -0.0016421847325155  0.9556883471976488  0.1051949449742266
  0.4213793530594676  0.5760936498987719  0.3246960255028579
  0.1311352249513980  0.2069499528701590  0.1908324072425993
  0.0034906626870617  0.8255602597499053  0.4564354298676485
  0.4199974143402516  0.7112482566081481  0.7240247883134296
  0.6049710759600012  0.8846378868560975  0.3324254872017021
  0.3739792297820483  0.8186164618582762  0.9007599594880166
  0.1478714723719824  0.8291913318037594  0.0731490382103061
  0.8282322151554536  0.1759829234673489  0.4923435180783292
  0.6998411868103678  0.8190172531283356  0.4762609310586795
  0.0224473598759930  0.2584151296806196  0.6828711807169819
  0.6633351649104519  0.5816442227206666  0.8488887932957890
  0.2506867282729539  0.3091871641160283  0.0000447148454017
  0.4218983919190967  0.6235994694845447  0.8788701078179095
  0.0695984008161794  0.6810918621647548  0.9095862934548361
  0.5916762295087630  0.9644927863477784  0.1305533724981570
  0.4626607753111264  0.3649008238063779  0.9972256873722257
  0.8890284797770680  0.7830839778090888  0.0196782509204597
  0.6233048193833950  0.0860663455230652  0.3547301341859825
  0.2516578349995751  0.5747545512252689  0.8941157114350115
  0.2414409956365579  0.4668548373381668  0.5396933542252547
  0.5077666150510738  0.0851865666458803  0.8468601455124743
  0.3961267303142829  0.5381925029988616  0.5953465218420922
  0.1989113731067461  0.9047747609591240  0.8316732485771274
  0.0575152355263040  0.0679006009005561  0.9387907104167070
  0.2438552792181753  0.5250725617372834  0.3616944410277099
  0.9580698664633918  0.1429183041753424  0.0650940427179771
  0.2037728151899855  0.3430218251229916  0.6961553618700728
  0.3088281527722978  0.1973547573904673  0.2576140296864477
  0.2497534424899496  0.7300649927602163  0.8000153574876762
  0.1148087440910345  0.5462467860524958  0.2083276489054201
  0.9706008240023372  0.5866324732035182  0.0764174434636111
  0.1947411394054069  0.2433997289671051  0.4059623247350974
  0.2508996028693583  0.1350140880559116  0.7060485631859590
  0.9647441718861521  0.3298788130978272  0.8784595921493158
  0.5685711096341293  0.9738493178261250  0.4914579092424737
  0.6819700758011864  0.5614892917456443  0.0430784303344481
  0.3636398797747583  0.9842231815950493  0.8243064849026479
  0.5087386366915106  0.5419331661277044  0.0035782790937055
  0.6370107227307498  0.3710637114814435  0.5104669527241464
  0.3016329218219474  0.5489756981186410  0.1891679800745601
  0.0896235566543871  0.3487432843313521  0.5317587892537432
  0.7956475045180691  0.8702953106775360  0.6491497004309777
  0.4703250713605490  0.6309600815006674  0.1598425020738983
  0.1833732240558461  0.6492561581313659  0.0619171038692787
  0.5954603996581237  0.7202752108994515  0.9561873514560670
  0.6998729637801353  0.2929626354058668  0.6833734202784909
  0.4448728455866919  0.8540661918543558  0.6117655607826777
  0.3587982148057353  0.3815144882317365  0.3738664236599685
  0.1219330602045648  0.6846557712261500  0.5446848067806720
  0.8445221691774315  0.1613287675407258  0.6664256713325943
  0.0073270764776807  0.3789200275958001  0.2593165014920810
  0.9379759735731306  0.3857675986568618  0.0831349885971185
  0.1287131376998804  0.3756825053102068  0.1046421066563734
  0.4481303552259371  0.0909307120441347  0.3936724173331274
  0.9494791787389539  0.6165016524898695  0.5366996485383848
  0.0000646870493107  0.0997231348396209  0.7608852386108307
  0.0351625235116051  0.5970848082386568  0.6850874870490756
  0.7391517031170788  0.3838292804830360  0.0923521817150989
  0.4828631819362484  0.0748810107921117  0.6053402997243702
  0.8157672276291668  0.7048907536205844  0.5600906354165388
  0.8903130529070195  0.5407314416114554  0.3332347155166495
  0.9219947412502471  0.3512402315831002  0.4373760476773307
  0.7589676806381170  0.5258535457871555  0.2149109561029038
  0.6471980403752431  0.6224184235357256  0.5383468675301639
  0.6832123155247714  0.7143091362071406  0.3155481145272847
  0.7517169255297090  0.3066797250903103  0.3948032588635583
  0.8678699165957727  0.7089900567465578  0.3931234631312096
  0.8468209605077300  0.3532050748366008  0.2482390919909219
  0.6008499857607453  0.7501873516691497  0.6682889770544556
 
  0.00000000E+00  0.00000000E+00  0.00000000E+00
  0.00000000E+00  0.00000000E+00  0.00000000E+00
  0.00000000E+00  0.00000000E+00  0.00000000E+00
  0.00000000E+00  0.00000000E+00  0.00000000E+00
  0.00000000E+00  0.00000000E+00  0.00000000E+00
  0.00000000E+00  0.00000000E+00  0.00000000E+00
  0.00000000E+00  0.00000000E+00  0.00000000E+00
  0.00000000E+00  0.00000000E+00  0.00000000E+00
  0.00000000E+00  0.00000000E+00  0.00000000E+00
  0.00000000E+00  0.00000000E+00  0.00000000E+00
  0.00000000E+00  0.00000000E+00  0.00000000E+00
  0.00000000E+00  0.00000000E+00  0.00000000E+00
  0.00000000E+00  0.00000000E+00  0.00000000E+00
  0.00000000E+00  0.00000000E+00  0.00000000E+00
  0.00000000E+00  0.00000000E+00  0.00000000E+00
  0.00000000E+00  0.00000000E+00  0.00000000E+00
  0.00000000E+00  0.00000000E+00  0.00000000E+00
  0.00000000E+00  0.00000000E+00  0.00000000E+00
  0.00000000E+00  0.00000000E+00  0.00000000E+00
  0.00000000E+00  0.00000000E+00  0.00000000E+00
  0.00000000E+00  0.00000000E+00  0.00000000E+00
  0.00000000E+00  0.00000000E+00  0.00000000E+00
  0.00000000E+00  0.00000000E+00  0.00000000E+00
  0.00000000E+00  0.00000000E+00  0.00000000E+00
  0.00000000E+00  0.00000000E+00  0.00000000E+00
  0.00000000E+00  0.00000000E+00  0.00000000E+00
  0.00000000E+00  0.00000000E+00  0.00000000E+00
  0.00000000E+00  0.00000000E+00  0.00000000E+00
  0.00000000E+00  0.00000000E+00  0.00000000E+00
  0.00000000E+00  0.00000000E+00  0.00000000E+00
  0.00000000E+00  0.00000000E+00  0.00000000E+00
  0.00000000E+00  0.00000000E+00  0.00000000E+00
  0.00000000E+00  0.00000000E+00  0.00000000E+00
  0.00000000E+00  0.00000000E+00  0.00000000E+00
  0.00000000E+00  0.00000000E+00  0.00000000E+00
  0.00000000E+00  0.00000000E+00  0.00000000E+00
  0.00000000E+00  0.00000000E+00  0.00000000E+00
  0.00000000E+00  0.00000000E+00  0.00000000E+00
  0.00000000E+00  0.00000000E+00  0.00000000E+00
  0.00000000E+00  0.00000000E+00  0.00000000E+00
  0.00000000E+00  0.00000000E+00  0.00000000E+00
  0.00000000E+00  0.00000000E+00  0.00000000E+00
  0.00000000E+00  0.00000000E+00  0.00000000E+00
  0.00000000E+00  0.00000000E+00  0.00000000E+00
  0.00000000E+00  0.00000000E+00  0.00000000E+00
  0.00000000E+00  0.00000000E+00  0.00000000E+00
  0.00000000E+00  0.00000000E+00  0.00000000E+00
  0.00000000E+00  0.00000000E+00  0.00000000E+00
  0.00000000E+00  0.00000000E+00  0.00000000E+00
  0.00000000E+00  0.00000000E+00  0.00000000E+00
  0.00000000E+00  0.00000000E+00  0.00000000E+00
  0.00000000E+00  0.00000000E+00  0.00000000E+00
  0.00000000E+00  0.00000000E+00  0.00000000E+00
  0.00000000E+00  0.00000000E+00  0.00000000E+00
  0.00000000E+00  0.00000000E+00  0.00000000E+00
  0.00000000E+00  0.00000000E+00  0.00000000E+00
  0.00000000E+00  0.00000000E+00  0.00000000E+00
  0.00000000E+00  0.00000000E+00  0.00000000E+00
  0.00000000E+00  0.00000000E+00  0.00000000E+00
  0.00000000E+00  0.00000000E+00  0.00000000E+00
  0.00000000E+00  0.00000000E+00  0.00000000E+00
  0.00000000E+00  0.00000000E+00  0.00000000E+00
  0.00000000E+00  0.00000000E+00  0.00000000E+00
  0.00000000E+00  0.00000000E+00  0.00000000E+00
  0.00000000E+00  0.00000000E+00  0.00000000E+00
  0.00000000E+00  0.00000000E+00  0.00000000E+00
  0.00000000E+00  0.00000000E+00  0.00000000E+00
  0.00000000E+00  0.00000000E+00  0.00000000E+00
  0.00000000E+00  0.00000000E+00  0.00000000E+00
  0.00000000E+00  0.00000000E+00  0.00000000E+00
  0.00000000E+00  0.00000000E+00  0.00000000E+00
  0.00000000E+00  0.00000000E+00  0.00000000E+00
  0.00000000E+00  0.00000000E+00  0.00000000E+00
  0.00000000E+00  0.00000000E+00  0.00000000E+00
  0.00000000E+00  0.00000000E+00  0.00000000E+00
  0.00000000E+00  0.00000000E+00  0.00000000E+00
  0.00000000E+00  0.00000000E+00  0.00000000E+00
  0.00000000E+00  0.00000000E+00  0.00000000E+00
  0.00000000E+00  0.00000000E+00  0.00000000E+00
  0.00000000E+00  0.00000000E+00  0.00000000E+00
  0.00000000E+00  0.00000000E+00  0.00000000E+00
  0.00000000E+00  0.00000000E+00  0.00000000E+00
  0.00000000E+00  0.00000000E+00  0.00000000E+00
  0.00000000E+00  0.00000000E+00  0.00000000E+00
  0.00000000E+00  0.00000000E+00  0.00000000E+00
  0.00000000E+00  0.00000000E+00  0.00000000E+00
  0.00000000E+00  0.00000000E+00  0.00000000E+00
  0.00000000E+00  0.00000000E+00  0.00000000E+00
  0.00000000E+00  0.00000000E+00  0.00000000E+00
  0.00000000E+00  0.00000000E+00  0.00000000E+00
  0.00000000E+00  0.00000000E+00  0.00000000E+00
  0.00000000E+00  0.00000000E+00  0.00000000E+00
  0.00000000E+00  0.00000000E+00  0.00000000E+00
  0.00000000E+00  0.00000000E+00  0.00000000E+00
  0.00000000E+00  0.00000000E+00  0.00000000E+00
  0.00000000E+00  0.00000000E+00  0.00000000E+00
  0.00000000E+00  0.00000000E+00  0.00000000E+00
  0.00000000E+00  0.00000000E+00  0.00000000E+00
  0.00000000E+00  0.00000000E+00  0.00000000E+00
  0.00000000E+00  0.00000000E+00  0.00000000E+00
  0.00000000E+00  0.00000000E+00  0.00000000E+00
  0.00000000E+00  0.00000000E+00  0.00000000E+00
  0.00000000E+00  0.00000000E+00  0.00000000E+00
  0.00000000E+00  0.00000000E+00  0.00000000E+00
  0.00000000E+00  0.00000000E+00  0.00000000E+00
  0.00000000E+00  0.00000000E+00  0.00000000E+00
  0.00000000E+00  0.00000000E+00  0.00000000E+00
  0.00000000E+00  0.00000000E+00  0.00000000E+00
  0.00000000E+00  0.00000000E+00  0.00000000E+00
  0.00000000E+00  0.00000000E+00  0.00000000E+00
  0.00000000E+00  0.00000000E+00  0.00000000E+00
  0.00000000E+00  0.00000000E+00  0.00000000E+00
  0.00000000E+00  0.00000000E+00  0.00000000E+00
  0.00000000E+00  0.00000000E+00  0.00000000E+00
  0.00000000E+00  0.00000000E+00  0.00000000E+00
  0.00000000E+00  0.00000000E+00  0.00000000E+00
  0.00000000E+00  0.00000000E+00  0.00000000E+00
  0.00000000E+00  0.00000000E+00  0.00000000E+00
  0.00000000E+00  0.00000000E+00  0.00000000E+00
  0.00000000E+00  0.00000000E+00  0.00000000E+00
  0.00000000E+00  0.00000000E+00  0.00000000E+00
  0.00000000E+00  0.00000000E+00  0.00000000E+00
  0.00000000E+00  0.00000000E+00  0.00000000E+00
  0.00000000E+00  0.00000000E+00  0.00000000E+00
  0.00000000E+00  0.00000000E+00  0.00000000E+00
  0.00000000E+00  0.00000000E+00  0.00000000E+00
  0.00000000E+00  0.00000000E+00  0.00000000E+00
  0.00000000E+00  0.00000000E+00  0.00000000E+00
  0.00000000E+00  0.00000000E+00  0.00000000E+00
  0.00000000E+00  0.00000000E+00  0.00000000E+00
  0.00000000E+00  0.00000000E+00  0.00000000E+00
  0.00000000E+00  0.00000000E+00  0.00000000E+00
  0.00000000E+00  0.00000000E+00  0.00000000E+00
  0.00000000E+00  0.00000000E+00  0.00000000E+00
  0.00000000E+00  0.00000000E+00  0.00000000E+00
  0.00000000E+00  0.00000000E+00  0.00000000E+00
  0.00000000E+00  0.00000000E+00  0.00000000E+00
  0.00000000E+00  0.00000000E+00  0.00000000E+00
  0.00000000E+00  0.00000000E+00  0.00000000E+00
  0.00000000E+00  0.00000000E+00  0.00000000E+00
  0.00000000E+00  0.00000000E+00  0.00000000E+00
  0.00000000E+00  0.00000000E+00  0.00000000E+00
  0.00000000E+00  0.00000000E+00  0.00000000E+00
  0.00000000E+00  0.00000000E+00  0.00000000E+00
  0.00000000E+00  0.00000000E+00  0.00000000E+00
  0.00000000E+00  0.00000000E+00  0.00000000E+00
  0.00000000E+00  0.00000000E+00  0.00000000E+00
  0.00000000E+00  0.00000000E+00  0.00000000E+00
  0.00000000E+00  0.00000000E+00  0.00000000E+00
  0.00000000E+00  0.00000000E+00  0.00000000E+00
  0.00000000E+00  0.00000000E+00  0.00000000E+00
  0.00000000E+00  0.00000000E+00  0.00000000E+00
  0.00000000E+00  0.00000000E+00  0.00000000E+00
  0.00000000E+00  0.00000000E+00  0.00000000E+00
  0.00000000E+00  0.00000000E+00  0.00000000E+00
  0.00000000E+00  0.00000000E+00  0.00000000E+00
  0.00000000E+00  0.00000000E+00  0.00000000E+00
  0.00000000E+00  0.00000000E+00  0.00000000E+00
  0.00000000E+00  0.00000000E+00  0.00000000E+00
  0.00000000E+00  0.00000000E+00  0.00000000E+00
  0.00000000E+00  0.00000000E+00  0.00000000E+00
  0.00000000E+00  0.00000000E+00  0.00000000E+00
  0.00000000E+00  0.00000000E+00  0.00000000E+00
  0.00000000E+00  0.00000000E+00  0.00000000E+00
  0.00000000E+00  0.00000000E+00  0.00000000E+00
  0.00000000E+00  0.00000000E+00  0.00000000E+00
  0.00000000E+00  0.00000000E+00  0.00000000E+00
  0.00000000E+00  0.00000000E+00  0.00000000E+00
  0.00000000E+00  0.00000000E+00  0.00000000E+00
  0.00000000E+00  0.00000000E+00  0.00000000E+00
  0.00000000E+00  0.00000000E+00  0.00000000E+00
  0.00000000E+00  0.00000000E+00  0.00000000E+00
  0.00000000E+00  0.00000000E+00  0.00000000E+00
  0.00000000E+00  0.00000000E+00  0.00000000E+00
  0.00000000E+00  0.00000000E+00  0.00000000E+00
  0.00000000E+00  0.00000000E+00  0.00000000E+00
  0.00000000E+00  0.00000000E+00  0.00000000E+00
  0.00000000E+00  0.00000000E+00  0.00000000E+00
  0.00000000E+00  0.00000000E+00  0.00000000E+00
  0.00000000E+00  0.00000000E+00  0.00000000E+00
  0.00000000E+00  0.00000000E+00  0.00000000E+00
  0.00000000E+00  0.00000000E+00  0.00000000E+00
  0.00000000E+00  0.00000000E+00  0.00000000E+00
  0.00000000E+00  0.00000000E+00  0.00000000E+00
  0.00000000E+00  0.00000000E+00  0.00000000E+00
  0.00000000E+00  0.00000000E+00  0.00000000E+00
  0.00000000E+00  0.00000000E+00  0.00000000E+00
  0.00000000E+00  0.00000000E+00  0.00000000E+00
  0.00000000E+00  0.00000000E+00  0.00000000E+00
  0.00000000E+00  0.00000000E+00  0.00000000E+00
  0.00000000E+00  0.00000000E+00  0.00000000E+00
  0.00000000E+00  0.00000000E+00  0.00000000E+00
  0.00000000E+00  0.00000000E+00  0.00000000E+00
  0.00000000E+00  0.00000000E+00  0.00000000E+00
  0.00000000E+00  0.00000000E+00  0.00000000E+00
  0.00000000E+00  0.00000000E+00  0.00000000E+00
  0.00000000E+00  0.00000000E+00  0.00000000E+00
  0.00000000E+00  0.00000000E+00  0.00000000E+00
  0.00000000E+00  0.00000000E+00  0.00000000E+00
  0.00000000E+00  0.00000000E+00  0.00000000E+00
  0.00000000E+00  0.00000000E+00  0.00000000E+00
  0.00000000E+00  0.00000000E+00  0.00000000E+00
  0.00000000E+00  0.00000000E+00  0.00000000E+00
  0.00000000E+00  0.00000000E+00  0.00000000E+00
  0.00000000E+00  0.00000000E+00  0.00000000E+00
  0.00000000E+00  0.00000000E+00  0.00000000E+00
  0.00000000E+00  0.00000000E+00  0.00000000E+00
  0.00000000E+00  0.00000000E+00  0.00000000E+00
  0.00000000E+00  0.00000000E+00  0.00000000E+00
  0.00000000E+00  0.00000000E+00  0.00000000E+00
  0.00000000E+00  0.00000000E+00  0.00000000E+00
  0.00000000E+00  0.00000000E+00  0.00000000E+00
  0.00000000E+00  0.00000000E+00  0.00000000E+00
  0.00000000E+00  0.00000000E+00  0.00000000E+00
  0.00000000E+00  0.00000000E+00  0.00000000E+00
  0.00000000E+00  0.00000000E+00  0.00000000E+00
  0.00000000E+00  0.00000000E+00  0.00000000E+00
  0.00000000E+00  0.00000000E+00  0.00000000E+00
  0.00000000E+00  0.00000000E+00  0.00000000E+00
  0.00000000E+00  0.00000000E+00  0.00000000E+00
  0.00000000E+00  0.00000000E+00  0.00000000E+00
  0.00000000E+00  0.00000000E+00  0.00000000E+00
  0.00000000E+00  0.00000000E+00  0.00000000E+00
  0.00000000E+00  0.00000000E+00  0.00000000E+00
  0.00000000E+00  0.00000000E+00  0.00000000E+00
  0.00000000E+00  0.00000000E+00  0.00000000E+00
  0.00000000E+00  0.00000000E+00  0.00000000E+00
  0.00000000E+00  0.00000000E+00  0.00000000E+00
  0.00000000E+00  0.00000000E+00  0.00000000E+00
  0.00000000E+00  0.00000000E+00  0.00000000E+00
  0.00000000E+00  0.00000000E+00  0.00000000E+00
  0.00000000E+00  0.00000000E+00  0.00000000E+00