Sb6 Te9                                 
   1.00000000000000     
     2.1687811338884653   -3.7564391143916582    0.0000000000000000
     2.1687811338884653    3.7564391143916582    0.0000000000000000
    -0.0000000000000002    0.0000000000000003   31.2472793285038044
   Sb   Te
     6     9
Direct
  0.3333333333333357  0.6666666666666643  0.0636326595063113
  0.3333333333333357  0.6666666666666643  0.2697006738270243
  0.0000000000000000  0.0000000000000000  0.3969659928396400
  0.0000000000000000  0.0000000000000000  0.6030340071603600
  0.6666666666666643  0.3333333333333357  0.7302993261729757
  0.6666666666666643  0.3333333333333357  0.9363673404936886
  0.0000000000000000  0.0000000000000000  0.2151109379227055
  0.6666666666666643  0.3333333333333357  0.1182223954106302
  0.0000000000000000  0.0000000000000000  0.0000000000000000
  0.6666666666666643  0.3333333333333357  0.5484442712560341
  0.3333333333333357  0.6666666666666643  0.4515557287439659
  0.6666666666666643  0.3333333333333357  0.3333333333333357
  0.3333333333333357  0.6666666666666643  0.8817776045893698
  0.0000000000000000  0.0000000000000000  0.7848890620772945
  0.3333333333333357  0.6666666666666643  0.6666666666666643
 
  0.00000000E+00  0.00000000E+00  0.00000000E+00
  0.00000000E+00  0.00000000E+00  0.00000000E+00
  0.00000000E+00  0.00000000E+00  0.00000000E+00
  0.00000000E+00  0.00000000E+00  0.00000000E+00
  0.00000000E+00  0.00000000E+00  0.00000000E+00
  0.00000000E+00  0.00000000E+00  0.00000000E+00
  0.00000000E+00  0.00000000E+00  0.00000000E+00
  0.00000000E+00  0.00000000E+00  0.00000000E+00
  0.00000000E+00  0.00000000E+00  0.00000000E+00
  0.00000000E+00  0.00000000E+00  0.00000000E+00
  0.00000000E+00  0.00000000E+00  0.00000000E+00
  0.00000000E+00  0.00000000E+00  0.00000000E+00
  0.00000000E+00  0.00000000E+00  0.00000000E+00
  0.00000000E+00  0.00000000E+00  0.00000000E+00
  0.00000000E+00  0.00000000E+00  0.00000000E+00
