Amorphous Sb2Se3                        
   1.00000000000000     
    20.9283632703415066    0.0000000000000000    0.0000000000000000
     0.0000000000000000   20.9283632703415066    0.0000000000000000
     0.0000000000000000    0.0000000000000000   20.9283632703415066
   Sb   Se
   120   180
Direct
  0.2420374272091579  0.6113292391080352  0.1635194787822558
  0.1751134647584383  0.5189313488387641  0.4370918779112173
  0.5095078925218034  0.9444186470679755  0.2326252193442656
  0.6004600028668414  0.2654913826673039  0.0378753395678524
  0.3009954031540489  0.7681061214793359  0.5649338736061059
  0.7243906310406876  0.8900214122042329  0.3366144015620815
  0.6322159568205432  0.4923644352794536  0.3286894442217038
  0.0307028844929615  0.8056112904667847  0.2517893529757529
  0.9375079459181407  0.0015460305414886  0.6243147587116459
  0.4682170599752299  0.7375431858058437  0.1095619676973304
  0.9274363639183330  0.5221288397883996  0.3260036943879948
  0.5174342922545268  0.5169342534291786  0.4999489950340220
  0.7922191711306943  0.9435689282138264  0.7524098666216501
  0.6977939654220294  0.0405479299025272  0.2487351888669248
  0.5060115824655276  0.5277172296332862  0.2831039892160912
  0.2795351404090801  0.2764739675759439  0.8765757657436085
  0.9101999076186463  0.6117696357906489  0.5017883760926913
  0.9964814435115258  0.9003790164580414  0.7698285227446924
  0.5620524779916674  0.6671528195382728  0.2632328278198000
  0.5212813213183890  0.3566597401441102  0.1340413240989860
  0.6895001228561026  0.3329923006061090  0.8288559836101926
  0.6525936917900592  0.4753906814907852  0.9276177902122256
  0.2774061854913413  0.5647798108854492  0.8727713776051605
  0.9791025454948219  0.3167931837639709  0.1254069912773594
  0.7753149080381240  0.4562026055099670  0.9931437327773347
  0.6729659261088545  0.0679068749002425  0.6333676319616335
  0.5927461864778801  0.8556446698749488  0.4215617269395787
  0.4438117201498727  0.3541131690979920  0.9072084127180973
  0.3537387323670054  0.3676574900337957  0.5121789205054166
  0.7420396968818186  0.1736065188964854  0.1339557844670030
  0.9376242409060807  0.7935790784043634  0.9408463833556746
  0.7224781423504939  0.3597629826917478  0.1579991257454288
  0.7027252946753524  0.4538218090537773  0.5293296272538659
  0.3471931866854887  0.8291017919187196  0.2170977505707823
  0.0643529747308305  0.8924423604671363  0.5253202033488735
  0.4451832470126110  0.5413945947091967  0.1382316468948812
  0.7942120702440855  0.6440696469159137  0.3621000904116976
  0.0265013963794677  0.4956674968725923  0.1167773434773399
  0.6881135657070634  0.2596696501076109  0.5628193963622447
  0.6483693936229711  0.0341234050236730  0.4953396131497493
  0.5611017273282493  0.9749198472798400  0.8905995229631251
  0.4511877764773204  0.5873272195769171  0.3975846837424853
  0.6251125579400829  0.8363751354928293  0.7879100461182875
  0.0608383759849363  0.2958226315738112  0.6314377133875093
  0.8438787546326808  0.2257214033091632  0.0170931574316018
  0.1065132415923848  0.3962516049581448  0.3859568500096962
  0.8822388761647278  0.2356678595344752  0.6066576166872886
  0.3421329832198793  0.0215797805126385  0.2345698348244570
  0.0280621682390427  0.6971310927848089  0.4030449005118387
  0.0213485372892885  0.6387455204571245  0.7742857188796938
  0.3254345829227749  0.6200406323081777  0.6773090593623712
  0.2132787424006388  0.2060219185730968  0.7141463507737892
  0.9965223462500546  0.4918414769000420  0.6588819744799279
  0.5439388134608258  0.3189706442281272  0.4718501748651583
  0.0446038927185267  0.1284431444660236  0.0355940137773949
  0.8620901346702701  0.7543378050980769  0.7649816625010701
  0.9732806692142091  0.2732234895187495  0.9936757874507727
  0.7394483984692134  0.0142306527191351  0.0674825027014367
  0.0535106840427981  0.6498152697381030  0.0160001560609497
  0.5488777613193150  0.2234628810890671  0.6167664624838521
  0.9726652955035154  0.7752820578965686  0.5976180409792318
  0.6486936160401363  0.3955561043665031  0.7096925485197310
  0.0771672993640891  0.8904872949961077  0.0011564517746664
  0.1743525292964534  0.8402997325744379  0.6873590715852187
  0.6509493777046068  0.6121497646886253  0.8951532555441120
  0.1680909026050014  0.7707326821553139  0.1021461995748046
  0.5096027959007583  0.4562024856306806  0.6726342696004239
  0.5647690523711391  0.0125329745875834  0.3492285597091544
  0.2987812730887429  0.1272493642911520  0.5671132400950402
  0.4988499806320750  0.7277107631858128  0.7600803255606504
  0.6852757835379727  0.2024032706434911  0.9427325838195841
  0.4723160021503326  0.1967530235471068  0.3348251561483368
  0.3049209399877675  0.8503638017639039  0.0172560210938522
  0.1321241860434819  0.4805150047170833  0.8223017605693839
  0.1921923317385255  0.0049589834346739  0.9079705218999222
  0.2837968488013392  0.3545826491407119  0.0148777143933173
  0.1751977271660128  0.0885617508923915  0.1429913834842078
  0.6374901078901006  0.9344080870340784  0.6521845655625359
  0.3771662328143111  0.1025519357051126  0.8328616625999700
  0.1262385563810916  0.9626461117735527  0.3706466249102011
  0.3395522849241717  0.6753651641218086  0.4678278492387382
  0.8254328486720177  0.3651416601603267  0.3576141228107755
  0.5197892262614675  0.1263448724142035  0.9597656402174410
  0.2688847453451189  0.5489691309126440  0.0389457966908234
  0.8553073728326289  0.5161734733644590  0.1628329738279849
  0.7122193862897027  0.7007793971355019  0.5164290288559805
  0.6727175697887354  0.2231296131828306  0.3536377584313726
  0.8513426971348917  0.1894177797493574  0.4347883379465660
  0.9756236301150689  0.1031990165126248  0.2110912696857528
  0.9624747243015638  0.3842305924036374  0.5221726891547837
  0.5810698281313821  0.8064204428954903  0.9652968659595772
  0.3739330933354110  0.3000471646758840  0.7031422552905611
  0.3631636962761408  0.9308346161563293  0.7283217371442438
  0.6501684989308514  0.7568618869751763  0.6312392546721400
  0.0643527484295670  0.1046137648370562  0.6797843950936833
  0.9083258764334001  0.3516933599039509  0.8250129936206596
  0.9165148554203558  0.8760891983615604  0.1336193563056268
  0.2314608792587386  0.2303813475910780  0.4186453020158068
  0.8079409334087615  0.9324685327235069  0.4928103373657806
  0.9063162115764885  0.0549447077849091  0.9478040947629978
  0.0611039793878732  0.0738322769209106  0.8145857622558307
  0.2391624782194030  0.8279719546994508  0.4106767030665440
  0.1176818856039195  0.1364755028772619  0.5205736582109177
  0.6652797297475155  0.5514971444479689  0.6248672994578179
  0.7555813712647899  0.8548440068688379  0.2000974590091754
  0.4972324920647251  0.0296248351550913  0.5748775493898440
  0.3269791966780555  0.2848733577755784  0.2445825781328574
  0.8179149038901055  0.1081202028001381  0.8054175025035193
  0.1463828982891076  0.6652973497700242  0.6355108010054622
  0.5570775555087784  0.5567166430198796  0.7608211531084988
  0.3907144417476457  0.0014341315986094  0.0288194875720915
  0.4829087153306935  0.1531312946030972  0.4714268954604319
  0.0104103620232815  0.0729706399665986  0.3810204721824618
  0.2918759484336708  0.4740376557404060  0.2748263452048154
  0.1594330345662773  0.3794929925530652  0.2107163398029149
  0.4227832600622713  0.7748744986508339  0.4134553197485732
  0.7165188761973517  0.2355811943870596  0.7300363197875258
  0.1780234449407610  0.4651359136613276  0.6090558303883103
  0.1700018735786468  0.6811659116229649  0.2952185032950468
  0.3687852221906164  0.2030741183099432  0.0856460722671223
  0.6377820590976927  0.5429671636123324  0.4509683020295851
  0.4996114952911253  0.4237577523921577  0.4192591455736347
  0.0446299170512069  0.2046925852133852  0.1423427405182437
  0.4247386684238367  0.2226178884740082  0.1969740515280551
  0.8835861473411504  0.1139041932496378  0.0629343171948244
  0.4883584616808839  0.9246177268883241  0.4705679841523583
  0.0444677985235104  0.6650854309766093  0.2763523445648585
  0.8408868739231420  0.2288269933556246  0.7471904759050201
  0.7264279235079134  0.3442064988955438  0.0207468163440475
  0.8951333240590325  0.1678877462106175  0.8867617058811805
  0.0802426849004986  0.5284949843397360  0.0093366773073225
  0.4098638053174291  0.8670249429979932  0.1083003780338412
  0.0697974238800573  0.4928246246668119  0.5512438355627243
  0.5661810590598235  0.2746959920634002  0.7246600252595884
  0.8004988474688780  0.9740760593946025  0.1768984604147568
  0.9659003183270344  0.9831706772753231  0.2852952731554591
  0.2903611893456415  0.3460173564645447  0.6154726086596720
  0.6881170090688075  0.7692235406701387  0.3570132152431446
  0.9460293059372492  0.9114085831258288  0.0050289599653606
  0.1877259338836258  0.0873933959205573  0.6708554718388250
  0.7456676901209999  0.3549597781965128  0.6323534353310871
  0.3407097432026675  0.1752970747940083  0.6836626272073554
  0.6786681535910548  0.7897824264954422  0.8888348691009872
  0.0286709327986446  0.7639692103307004  0.7088030137448218
  0.1152428947587686  0.5621820267533890  0.7045968911209424
  0.7754036365932553  0.1710732274812345  0.5721937016031660
  0.9609863697726474  0.4113281561640256  0.3975261839442233
  0.3425145361270713  0.8594003895013750  0.4828255677909952
  0.6481914838055940  0.2527808649418935  0.1663632168290728
  0.3530929641850385  0.5853882273550541  0.2236018849524491
  0.5395259154059470  0.6297969537525906  0.1324459786382759
  0.2961515591058146  0.0134661502594599  0.7934724556636706
  0.2191108796303975  0.7237968492435114  0.7215309238198732
  0.1523691211614879  0.5905174356756961  0.8786547975645925
  0.5718252607119972  0.2419693522325042  0.9036972125582738
  0.3863972857659071  0.5912924200615068  0.0370659011578993
  0.3409445228155766  0.1112290277781264  0.3286380038702360
  0.5168043810040598 -0.0010172699783576  0.0110961464575534
  0.6446166799225277  0.7416157471817584  0.0573324606569772
  0.2734355441097943  0.9047429853520970  0.6424774991212994
  0.4054452359979756  0.6925593360625878  0.5767048278270992
  0.7159062193958826  0.3391484845795495  0.2960754978707835
  0.3600434114040447  0.1968968572318271  0.4847275404799151
  0.8187089356391388  0.6510228197187445  0.9443782050746174
  0.8638925847698539  0.7120972863893127  0.6186739128909944
  0.9383155053943228  0.1498581493575453  0.5232870125056388
  0.7677825054185285  0.6039582270673467  0.5713135352993994
  0.8641174877025417  0.6252867363357972  0.2617436129454020
  0.5003044078641656  0.7183344081239723  0.9193129976497851
  0.0081514132594306  0.7886126172372402  0.1272835156210940
  0.3734075767685832  0.0233185767699314  0.5870976801680372
  0.5064682957125463  0.8124203188841167  0.5089706242297530
  0.7024196540579157  0.3115812684489194  0.4455196550092590
  0.0602241420138743  0.9358975451270078  0.2400107383032077
  0.1579423603325947  0.4151402222298986  0.9306431677889914
  0.9429775671645468  0.6317683858460049  0.0827018269734930
  0.5358364733837649  0.1109389745125294  0.6694123002763246
  0.2089517363741978  0.4085380844626454  0.4949110576666524
  0.2880402099622189  0.6950271314548083  0.9764317478692974
  0.0354538970554579  0.0352463170292688  0.1197190614050651
  0.9273404848252313  0.6827446309432585  0.8564713796980833
  0.3719630839230185  0.9195835719375421  0.9377231887638123
  0.3008041536664896  0.7503645678121271  0.3333668628832065
  0.3597754665651225  0.1056215171403016  0.9582350935859253
  0.6430478442732868  0.0863325258677229  0.9663918800835727
  0.1679179211156426  0.9637413689373879  0.1179017377563500
  0.7156754585099806  0.6449399042274383  0.0004783366300334
  0.4118817048962826  0.9090897651675194  0.3002348814350147
  0.2438224365060414  0.6049672860906071  0.5783108572821413
  0.2833655699281396  0.5435826136870655  0.3785782888495624
  0.8850608828223916  0.8591822996127001  0.8478591312533966
  0.3363329122041710  0.4161468129823694  0.9054898601674056
  0.2757045602964968  0.9262014833339292  0.1168160145213460
  0.5918261834543984  0.1153230224461462  0.2842520081723990
  0.4068844027042090  0.3195992567429828  0.0289987873709659
  0.7927560779534523  0.4033983917297705  0.8431282387907120
  0.8715166100043060  0.4180506705052669  0.2454229860113409
  0.8386864470923416  0.8840380925326715  0.3808489892193229
  0.5972501656888631  0.5047635794683852  0.0361959111669220
  0.1704917241874064  0.1371364587743718  0.0287912775533991
  0.1144584691020207  0.2549251497910255  0.3696363593337172
  0.5133936139638386  0.9343505873703150  0.6563701491561608
  0.0708637080466633  0.2227455423268444  0.7339340056134924
  0.2707054006904492  0.3334790855189761  0.7657745625071261
  0.6423039580240979  0.0584018498503716  0.1387421441887370
  0.3420288479097008  0.8311761795195621  0.8026224658881292
  0.4433406252516136  0.4175687216047035  0.2940966002928748
  0.7849974384194486  0.8758548378162536  0.9975410658619843
  0.4560702394253879  0.0430037987177730  0.4047902154082885
  0.1908137767960933  0.2339745015374450  0.5506934476584697
  0.6238148307363033  0.1573479132279168  0.4693487053517953
  0.2854363101091599  0.7298011699414769  0.1233661155695246
  0.5648549890053078  0.2848703539236638  0.3318398216016882
  0.6727199395377649  0.8801067692158526  0.5141989689370164
  0.1544512878535936  0.8044203288449119  0.5690392675707800
  0.5037998082104266  0.4400813515748484  0.0353970687942131
  0.9225823469405672  0.4753757552017321  0.7937728982642193
  0.6097855708935327  0.4281871676468342  0.1833321775864830
  0.6948788824652397  0.1377313881720561  0.8085970687405799
  0.9533140059747119  0.3483878215650759  0.6655570589363934
  0.0729560220458888  0.1242439110030038  0.2847315828095844
  0.3855758906695588  0.7700115621042689  0.7168185704254836
  0.7920816204828991  0.0259755342503228  0.9103448655335238
  0.4090377947972774  0.4042307745236207  0.1854982592544321
  0.7779457970414909  0.6615392030053764  0.7836400597223493
  0.1348518784865695  0.9749937976521349  0.7977375715198624
  0.0705951010185196  0.8535351050596369  0.3999927670016006
  0.2008055154230304  0.1069711121861942  0.4324583674088856
  0.8840494091732086  0.5768575088710045  0.0003170460714698
  0.5419930749652386  0.6181883508118831  0.9568967241203636
  0.5731865297178749  0.8063951488750526  0.1299995013396565
  0.4579885359914938  0.3280459506009734  0.5744288193002205
  0.4973225238049550  0.0556192488263155  0.8204317684402354
  0.1506646306235111  0.9765907618575478  0.4978787077146844
  0.0385321694233106  0.2065487035629904  0.4440512305911060
  0.0090250504312253  0.5201976086145608  0.8534241785256018
  0.7854287973557669  0.0001816940556995  0.6371474263995839
  0.7750104680010009  0.1384856250433080  0.2488939970857144
  0.6770352679519496  0.6765408656849862  0.7277525838676857
  0.1570442790140940  0.8002066053310729  0.2454623894947984
  0.1546921657757025  0.6831267013829799  0.4196171048402032
  0.0552117385339721  0.8128227248345611  0.9033581959311825
  0.6707651518519282  0.5979633679448757  0.2729353067050952
  0.4324171123443768  0.7352387556040233  0.2294714311084567
  0.6574119373298055  0.9628288124538004  0.7802102504601169
  0.0515960029032633  0.3898172507269591  0.2694703749335299
  0.8794909650240761  0.7123936618032123  0.4275506241902745
  0.1308126201851027  0.3785811647558483  0.6905216086569466
  0.8537552950223767  0.3156690513968746  0.5103258506064691
  0.2000136281727688  0.8839420112171925  0.9369258827344231
  0.3026595386403400  0.0928153070835517  0.1349880668485095
  0.9005043992127971  0.8930680858239237  0.6826350614655071
  0.4543871652009920  0.0465233733671104  0.1861699622212201
  0.5471402701875998  0.6841518016430426  0.6491867111884119
  0.5208338975009206  0.1734686571526526  0.0770331107911681
  0.8624503555481547  0.8054747661234513  0.2357243123446483
  0.2585494954130262  0.1802687035533665  0.2890442285827890
  0.8349436483703145  0.2607359906302829  0.1428515708396061
  0.1109154168426530  0.6602429460666348  0.1282939020349129
  0.9003070211224002  0.4814650179141678  0.5713197831923644
  0.2226205798690518  0.3670752142739627  0.3300434146805930
  0.1761608294277989  0.5061799702880604  0.2280707482348536
  0.2639463685120353  0.2667204720111875  0.1170412150381339
  0.2784858685364655  0.4419688408224550  0.1032858624129023
  0.9368864683687725  0.9639060793157930  0.5050360529271685
  0.8927876124768679  0.0972502748743402  0.3516935592494847
  0.0066208658986846  0.5738664646886126  0.4229142768020451
  0.1775809296574840  0.7327184236665558  0.9724578157522912
  0.1532150696719326  0.3090149735729643  0.8905259087414374
  0.9360518654729296  0.6032403909987849  0.6915166513940971
  0.5142615989167675  0.4439412389868570  0.7981165433830534
  0.9460888391067821  0.3821173008625017  0.9414314836600474
  0.5963461328007661  0.3947035714959974  0.5603035847678783
  0.9497471280822951  0.0176680839949292  0.7991541880721406
  0.0567919804504227  0.9594293043570483  0.6546368512077481
  0.2309126638973254  0.1650691574832669  0.8336409082139014
  0.7525021011138885  0.8280462193600255  0.7304946552049190
  0.3909042448154883  0.2887024297355993  0.3588949755771252
  0.6269406469053302  0.7785783642143239  0.2511919343531014
  0.5106885377438931  0.8675173616474426  0.8500130332340011
  0.4467978279575192  0.6151989167045877  0.7776027672909762
  0.2814917885217516  0.5221271422208718  0.7565235223086467
  0.4178501850407342  0.2521632147458279  0.8395029330602841
  0.7926064935293298  0.7875102766561387  0.5662000381526633
  0.2449178045929815  0.9322484814788327  0.3409811427381792
  0.7168345343818084  0.5033537682903833  0.7277361192885523
  0.0710523737453699  0.0066532748361729  0.9520385046854930
  0.8261909788703502  0.8058720328241962  0.0780233869565160
  0.6841021535798447  0.9055615842595967  0.0423233025765865
  0.7619096005994848  0.0403653648532994  0.4429889425735481
  0.3788709769646828  0.4991353626392080  0.6475901482186579
  0.8822970787570082  0.2572837988095394  0.3322189206238779
  0.5307938006296913  0.6830245393873503  0.3975120656488987
  0.7428704433260453  0.5008522232158865  0.1117131210573136
  0.0213829176112307  0.6733342952944004  0.5433264787156594
  0.9188145954245100  0.4436018937658469  0.0759688215554351
  0.8320934693519362  0.5298487723236215  0.4099717633272617
  0.0843886984378132  0.3839619095705522  0.0926412085871097
  0.3777181302468478  0.4954016604502925  0.5336173196983541
  0.3127899524897509  0.6846610136168865  0.8650874931834474
 
  0.00000000E+00  0.00000000E+00  0.00000000E+00
  0.00000000E+00  0.00000000E+00  0.00000000E+00
  0.00000000E+00  0.00000000E+00  0.00000000E+00
  0.00000000E+00  0.00000000E+00  0.00000000E+00
  0.00000000E+00  0.00000000E+00  0.00000000E+00
  0.00000000E+00  0.00000000E+00  0.00000000E+00
  0.00000000E+00  0.00000000E+00  0.00000000E+00
  0.00000000E+00  0.00000000E+00  0.00000000E+00
  0.00000000E+00  0.00000000E+00  0.00000000E+00
  0.00000000E+00  0.00000000E+00  0.00000000E+00
  0.00000000E+00  0.00000000E+00  0.00000000E+00
  0.00000000E+00  0.00000000E+00  0.00000000E+00
  0.00000000E+00  0.00000000E+00  0.00000000E+00
  0.00000000E+00  0.00000000E+00  0.00000000E+00
  0.00000000E+00  0.00000000E+00  0.00000000E+00
  0.00000000E+00  0.00000000E+00  0.00000000E+00
  0.00000000E+00  0.00000000E+00  0.00000000E+00
  0.00000000E+00  0.00000000E+00  0.00000000E+00
  0.00000000E+00  0.00000000E+00  0.00000000E+00
  0.00000000E+00  0.00000000E+00  0.00000000E+00
  0.00000000E+00  0.00000000E+00  0.00000000E+00
  0.00000000E+00  0.00000000E+00  0.00000000E+00
  0.00000000E+00  0.00000000E+00  0.00000000E+00
  0.00000000E+00  0.00000000E+00  0.00000000E+00
  0.00000000E+00  0.00000000E+00  0.00000000E+00
  0.00000000E+00  0.00000000E+00  0.00000000E+00
  0.00000000E+00  0.00000000E+00  0.00000000E+00
  0.00000000E+00  0.00000000E+00  0.00000000E+00
  0.00000000E+00  0.00000000E+00  0.00000000E+00
  0.00000000E+00  0.00000000E+00  0.00000000E+00
  0.00000000E+00  0.00000000E+00  0.00000000E+00
  0.00000000E+00  0.00000000E+00  0.00000000E+00
  0.00000000E+00  0.00000000E+00  0.00000000E+00
  0.00000000E+00  0.00000000E+00  0.00000000E+00
  0.00000000E+00  0.00000000E+00  0.00000000E+00
  0.00000000E+00  0.00000000E+00  0.00000000E+00
  0.00000000E+00  0.00000000E+00  0.00000000E+00
  0.00000000E+00  0.00000000E+00  0.00000000E+00
  0.00000000E+00  0.00000000E+00  0.00000000E+00
  0.00000000E+00  0.00000000E+00  0.00000000E+00
  0.00000000E+00  0.00000000E+00  0.00000000E+00
  0.00000000E+00  0.00000000E+00  0.00000000E+00
  0.00000000E+00  0.00000000E+00  0.00000000E+00
  0.00000000E+00  0.00000000E+00  0.00000000E+00
  0.00000000E+00  0.00000000E+00  0.00000000E+00
  0.00000000E+00  0.00000000E+00  0.00000000E+00
  0.00000000E+00  0.00000000E+00  0.00000000E+00
  0.00000000E+00  0.00000000E+00  0.00000000E+00
  0.00000000E+00  0.00000000E+00  0.00000000E+00
  0.00000000E+00  0.00000000E+00  0.00000000E+00
  0.00000000E+00  0.00000000E+00  0.00000000E+00
  0.00000000E+00  0.00000000E+00  0.00000000E+00
  0.00000000E+00  0.00000000E+00  0.00000000E+00
  0.00000000E+00  0.00000000E+00  0.00000000E+00
  0.00000000E+00  0.00000000E+00  0.00000000E+00
  0.00000000E+00  0.00000000E+00  0.00000000E+00
  0.00000000E+00  0.00000000E+00  0.00000000E+00
  0.00000000E+00  0.00000000E+00  0.00000000E+00
  0.00000000E+00  0.00000000E+00  0.00000000E+00
  0.00000000E+00  0.00000000E+00  0.00000000E+00
  0.00000000E+00  0.00000000E+00  0.00000000E+00
  0.00000000E+00  0.00000000E+00  0.00000000E+00
  0.00000000E+00  0.00000000E+00  0.00000000E+00
  0.00000000E+00  0.00000000E+00  0.00000000E+00
  0.00000000E+00  0.00000000E+00  0.00000000E+00
  0.00000000E+00  0.00000000E+00  0.00000000E+00
  0.00000000E+00  0.00000000E+00  0.00000000E+00
  0.00000000E+00  0.00000000E+00  0.00000000E+00
  0.00000000E+00  0.00000000E+00  0.00000000E+00
  0.00000000E+00  0.00000000E+00  0.00000000E+00
  0.00000000E+00  0.00000000E+00  0.00000000E+00
  0.00000000E+00  0.00000000E+00  0.00000000E+00
  0.00000000E+00  0.00000000E+00  0.00000000E+00
  0.00000000E+00  0.00000000E+00  0.00000000E+00
  0.00000000E+00  0.00000000E+00  0.00000000E+00
  0.00000000E+00  0.00000000E+00  0.00000000E+00
  0.00000000E+00  0.00000000E+00  0.00000000E+00
  0.00000000E+00  0.00000000E+00  0.00000000E+00
  0.00000000E+00  0.00000000E+00  0.00000000E+00
  0.00000000E+00  0.00000000E+00  0.00000000E+00
  0.00000000E+00  0.00000000E+00  0.00000000E+00
  0.00000000E+00  0.00000000E+00  0.00000000E+00
  0.00000000E+00  0.00000000E+00  0.00000000E+00
  0.00000000E+00  0.00000000E+00  0.00000000E+00
  0.00000000E+00  0.00000000E+00  0.00000000E+00
  0.00000000E+00  0.00000000E+00  0.00000000E+00
  0.00000000E+00  0.00000000E+00  0.00000000E+00
  0.00000000E+00  0.00000000E+00  0.00000000E+00
  0.00000000E+00  0.00000000E+00  0.00000000E+00
  0.00000000E+00  0.00000000E+00  0.00000000E+00
  0.00000000E+00  0.00000000E+00  0.00000000E+00
  0.00000000E+00  0.00000000E+00  0.00000000E+00
  0.00000000E+00  0.00000000E+00  0.00000000E+00
  0.00000000E+00  0.00000000E+00  0.00000000E+00
  0.00000000E+00  0.00000000E+00  0.00000000E+00
  0.00000000E+00  0.00000000E+00  0.00000000E+00
  0.00000000E+00  0.00000000E+00  0.00000000E+00
  0.00000000E+00  0.00000000E+00  0.00000000E+00
  0.00000000E+00  0.00000000E+00  0.00000000E+00
  0.00000000E+00  0.00000000E+00  0.00000000E+00
  0.00000000E+00  0.00000000E+00  0.00000000E+00
  0.00000000E+00  0.00000000E+00  0.00000000E+00
  0.00000000E+00  0.00000000E+00  0.00000000E+00
  0.00000000E+00  0.00000000E+00  0.00000000E+00
  0.00000000E+00  0.00000000E+00  0.00000000E+00
  0.00000000E+00  0.00000000E+00  0.00000000E+00
  0.00000000E+00  0.00000000E+00  0.00000000E+00
  0.00000000E+00  0.00000000E+00  0.00000000E+00
  0.00000000E+00  0.00000000E+00  0.00000000E+00
  0.00000000E+00  0.00000000E+00  0.00000000E+00
  0.00000000E+00  0.00000000E+00  0.00000000E+00
  0.00000000E+00  0.00000000E+00  0.00000000E+00
  0.00000000E+00  0.00000000E+00  0.00000000E+00
  0.00000000E+00  0.00000000E+00  0.00000000E+00
  0.00000000E+00  0.00000000E+00  0.00000000E+00
  0.00000000E+00  0.00000000E+00  0.00000000E+00
  0.00000000E+00  0.00000000E+00  0.00000000E+00
  0.00000000E+00  0.00000000E+00  0.00000000E+00
  0.00000000E+00  0.00000000E+00  0.00000000E+00
  0.00000000E+00  0.00000000E+00  0.00000000E+00
  0.00000000E+00  0.00000000E+00  0.00000000E+00
  0.00000000E+00  0.00000000E+00  0.00000000E+00
  0.00000000E+00  0.00000000E+00  0.00000000E+00
  0.00000000E+00  0.00000000E+00  0.00000000E+00
  0.00000000E+00  0.00000000E+00  0.00000000E+00
  0.00000000E+00  0.00000000E+00  0.00000000E+00
  0.00000000E+00  0.00000000E+00  0.00000000E+00
  0.00000000E+00  0.00000000E+00  0.00000000E+00
  0.00000000E+00  0.00000000E+00  0.00000000E+00
  0.00000000E+00  0.00000000E+00  0.00000000E+00
  0.00000000E+00  0.00000000E+00  0.00000000E+00
  0.00000000E+00  0.00000000E+00  0.00000000E+00
  0.00000000E+00  0.00000000E+00  0.00000000E+00
  0.00000000E+00  0.00000000E+00  0.00000000E+00
  0.00000000E+00  0.00000000E+00  0.00000000E+00
  0.00000000E+00  0.00000000E+00  0.00000000E+00
  0.00000000E+00  0.00000000E+00  0.00000000E+00
  0.00000000E+00  0.00000000E+00  0.00000000E+00
  0.00000000E+00  0.00000000E+00  0.00000000E+00
  0.00000000E+00  0.00000000E+00  0.00000000E+00
  0.00000000E+00  0.00000000E+00  0.00000000E+00
  0.00000000E+00  0.00000000E+00  0.00000000E+00
  0.00000000E+00  0.00000000E+00  0.00000000E+00
  0.00000000E+00  0.00000000E+00  0.00000000E+00
  0.00000000E+00  0.00000000E+00  0.00000000E+00
  0.00000000E+00  0.00000000E+00  0.00000000E+00
  0.00000000E+00  0.00000000E+00  0.00000000E+00
  0.00000000E+00  0.00000000E+00  0.00000000E+00
  0.00000000E+00  0.00000000E+00  0.00000000E+00
  0.00000000E+00  0.00000000E+00  0.00000000E+00
  0.00000000E+00  0.00000000E+00  0.00000000E+00
  0.00000000E+00  0.00000000E+00  0.00000000E+00
  0.00000000E+00  0.00000000E+00  0.00000000E+00
  0.00000000E+00  0.00000000E+00  0.00000000E+00
  0.00000000E+00  0.00000000E+00  0.00000000E+00
  0.00000000E+00  0.00000000E+00  0.00000000E+00
  0.00000000E+00  0.00000000E+00  0.00000000E+00
  0.00000000E+00  0.00000000E+00  0.00000000E+00
  0.00000000E+00  0.00000000E+00  0.00000000E+00
  0.00000000E+00  0.00000000E+00  0.00000000E+00
  0.00000000E+00  0.00000000E+00  0.00000000E+00
  0.00000000E+00  0.00000000E+00  0.00000000E+00
  0.00000000E+00  0.00000000E+00  0.00000000E+00
  0.00000000E+00  0.00000000E+00  0.00000000E+00
  0.00000000E+00  0.00000000E+00  0.00000000E+00
  0.00000000E+00  0.00000000E+00  0.00000000E+00
  0.00000000E+00  0.00000000E+00  0.00000000E+00
  0.00000000E+00  0.00000000E+00  0.00000000E+00
  0.00000000E+00  0.00000000E+00  0.00000000E+00
  0.00000000E+00  0.00000000E+00  0.00000000E+00
  0.00000000E+00  0.00000000E+00  0.00000000E+00
  0.00000000E+00  0.00000000E+00  0.00000000E+00
  0.00000000E+00  0.00000000E+00  0.00000000E+00
  0.00000000E+00  0.00000000E+00  0.00000000E+00
  0.00000000E+00  0.00000000E+00  0.00000000E+00
  0.00000000E+00  0.00000000E+00  0.00000000E+00
  0.00000000E+00  0.00000000E+00  0.00000000E+00
  0.00000000E+00  0.00000000E+00  0.00000000E+00
  0.00000000E+00  0.00000000E+00  0.00000000E+00
  0.00000000E+00  0.00000000E+00  0.00000000E+00
  0.00000000E+00  0.00000000E+00  0.00000000E+00
  0.00000000E+00  0.00000000E+00  0.00000000E+00
  0.00000000E+00  0.00000000E+00  0.00000000E+00
  0.00000000E+00  0.00000000E+00  0.00000000E+00
  0.00000000E+00  0.00000000E+00  0.00000000E+00
  0.00000000E+00  0.00000000E+00  0.00000000E+00
  0.00000000E+00  0.00000000E+00  0.00000000E+00
  0.00000000E+00  0.00000000E+00  0.00000000E+00
  0.00000000E+00  0.00000000E+00  0.00000000E+00
  0.00000000E+00  0.00000000E+00  0.00000000E+00
  0.00000000E+00  0.00000000E+00  0.00000000E+00
  0.00000000E+00  0.00000000E+00  0.00000000E+00
  0.00000000E+00  0.00000000E+00  0.00000000E+00
  0.00000000E+00  0.00000000E+00  0.00000000E+00
  0.00000000E+00  0.00000000E+00  0.00000000E+00
  0.00000000E+00  0.00000000E+00  0.00000000E+00
  0.00000000E+00  0.00000000E+00  0.00000000E+00
  0.00000000E+00  0.00000000E+00  0.00000000E+00
  0.00000000E+00  0.00000000E+00  0.00000000E+00
  0.00000000E+00  0.00000000E+00  0.00000000E+00
  0.00000000E+00  0.00000000E+00  0.00000000E+00
  0.00000000E+00  0.00000000E+00  0.00000000E+00
  0.00000000E+00  0.00000000E+00  0.00000000E+00
  0.00000000E+00  0.00000000E+00  0.00000000E+00
  0.00000000E+00  0.00000000E+00  0.00000000E+00
  0.00000000E+00  0.00000000E+00  0.00000000E+00
  0.00000000E+00  0.00000000E+00  0.00000000E+00
  0.00000000E+00  0.00000000E+00  0.00000000E+00
  0.00000000E+00  0.00000000E+00  0.00000000E+00
  0.00000000E+00  0.00000000E+00  0.00000000E+00
  0.00000000E+00  0.00000000E+00  0.00000000E+00
  0.00000000E+00  0.00000000E+00  0.00000000E+00
  0.00000000E+00  0.00000000E+00  0.00000000E+00
  0.00000000E+00  0.00000000E+00  0.00000000E+00
  0.00000000E+00  0.00000000E+00  0.00000000E+00
  0.00000000E+00  0.00000000E+00  0.00000000E+00
  0.00000000E+00  0.00000000E+00  0.00000000E+00
  0.00000000E+00  0.00000000E+00  0.00000000E+00
  0.00000000E+00  0.00000000E+00  0.00000000E+00
  0.00000000E+00  0.00000000E+00  0.00000000E+00
  0.00000000E+00  0.00000000E+00  0.00000000E+00
  0.00000000E+00  0.00000000E+00  0.00000000E+00
  0.00000000E+00  0.00000000E+00  0.00000000E+00
  0.00000000E+00  0.00000000E+00  0.00000000E+00
  0.00000000E+00  0.00000000E+00  0.00000000E+00
  0.00000000E+00  0.00000000E+00  0.00000000E+00
  0.00000000E+00  0.00000000E+00  0.00000000E+00
  0.00000000E+00  0.00000000E+00  0.00000000E+00
  0.00000000E+00  0.00000000E+00  0.00000000E+00
  0.00000000E+00  0.00000000E+00  0.00000000E+00
  0.00000000E+00  0.00000000E+00  0.00000000E+00
  0.00000000E+00  0.00000000E+00  0.00000000E+00