Sb6 Te6                                 
   1.00000000000000     
     2.1724989209933145   -3.7628785105489846    0.0000000000000000
     2.1724989209933145    3.7628785105489846    0.0000000000000000
     0.0000000000000000   -0.0000000000000001   24.5798939576250675
   Sb   Te
     6     6
Direct
  0.0000000000000000  0.0000000000000000  0.1311418828765759
  0.0000000000000000  0.0000000000000000  0.8688581171234234
  0.3333333333333357  0.6666666666666643  0.2918819653205250
  0.6666666666666643  0.3333333333333357  0.7081180346794751
  0.3333333333333357  0.6666666666666643  0.5315699341471913
  0.6666666666666643  0.3333333333333357  0.4684300658528083
  0.3333333333333357  0.6666666666666643  0.0615445517114057
  0.6666666666666643  0.3333333333333357  0.9384554482885943
  0.3333333333333357  0.6666666666666643  0.7884974450301385
  0.6666666666666643  0.3333333333333357  0.2115025549698612
  0.0000000000000000  0.0000000000000000  0.3615997591763603
  0.0000000000000000  0.0000000000000000  0.6384002408236393
 
  0.00000000E+00  0.00000000E+00  0.00000000E+00
  0.00000000E+00  0.00000000E+00  0.00000000E+00
  0.00000000E+00  0.00000000E+00  0.00000000E+00
  0.00000000E+00  0.00000000E+00  0.00000000E+00
  0.00000000E+00  0.00000000E+00  0.00000000E+00
  0.00000000E+00  0.00000000E+00  0.00000000E+00
  0.00000000E+00  0.00000000E+00  0.00000000E+00
  0.00000000E+00  0.00000000E+00  0.00000000E+00
  0.00000000E+00  0.00000000E+00  0.00000000E+00
  0.00000000E+00  0.00000000E+00  0.00000000E+00
  0.00000000E+00  0.00000000E+00  0.00000000E+00
  0.00000000E+00  0.00000000E+00  0.00000000E+00
