In2O3 structure 4 - random placement wit
   1.00000000000000     
     8.0831237270620182    0.0020641322800976    0.0018195695148040
     0.0022387530861745    8.0161029766111369    0.0817527317831090
     0.0016837431381404    0.0819946101969276    8.0131892383307690
   In   O 
    16    24
Direct
  0.3573657918568429  0.1256414617000914  0.8305488279136810
  0.6300121804929049  0.8764218387137959  0.0811968779948273
  0.1299929069511947  0.8432947937872015  0.0530340089667405
  0.3572713929194720  0.1232653329099662  0.3327163872245507
  0.6298044735959891  0.3763459233526660  0.5811653948626088
  0.6300705893368743  0.3739468725503983  0.0833688910509167
  0.1298334042188927  0.3458323761403861  0.0505459015494409
  0.6298595141073733  0.8739643564040094  0.5834931298539985
  0.8574115874004207  0.5964499336776683  0.8009410719442513
  0.3573512193913686  0.6235069667720197  0.8327787408818068
  0.3574815496505082  0.6253631560830257  0.3304731670709415
  0.1299094514790156  0.8456784173872407  0.5503815974619286
  0.8576324143479468  0.0939153966226769  0.8033352369616225
  0.8573875570167289  0.5938757932367125  0.3034013107571027
  0.1299075687719409  0.3433484746442161  0.5531514930888264
  0.8574050704244129  0.0964143352347051  0.3010212285412308
  0.7435793423597801  0.3406001839837955  0.3375868243914368
  0.2435569515985634  0.3797984334781290  0.7971154968797762
  0.8938764399272543  0.9809573515288648  0.5485339880075060
  0.7436831934033350  0.8407417318500450  0.8376113651098009
  0.5935629544726453  0.9885950162549832  0.3355539646819636
  0.8939445618348714  0.8414896048307696  0.1885152018607812
  0.5934477055298686  0.6285662137300250  0.1954520114159024
  0.0933129485877444  0.5911343875613042  0.4385485764827450
  0.0934727507037039  0.2313257835819300  0.2984734337618278
  0.5934918677682361  0.4888479386669715  0.8357471854663885
  0.0933978500084862  0.7313970664742655  0.7984254221242821
  0.7440088774137124  0.1305678228028029  0.0478240662012936
  0.3936550053158641  0.3777800045326813  0.4456188979857956
  0.8938689472434262  0.4808977083462054  0.0485320560549596
  0.2436766948478848  0.8794446592303160  0.2968436655639479
  0.2433678987227310  0.5896972780511049  0.0869722802847690
  0.2431685329566449  0.0896749804013339  0.5870273595968669
  0.3940074019030746  0.8780603109417626  0.9455143154025691
  0.0934771423701477  0.0911630993067334  0.9386049151541229
  0.8938393257303474  0.3416762768492561  0.6884610796294908
  0.3938620297393314  0.7383738620175109  0.5848562373442761
  0.3940341729978911  0.2385891426646154  0.0849683841470039
  0.7433991581920907  0.6305137712193982  0.5477431150964378
  0.5934301033852449  0.1286946831723057  0.6955146665678171
 
  0.00000000E+00  0.00000000E+00  0.00000000E+00
  0.00000000E+00  0.00000000E+00  0.00000000E+00
  0.00000000E+00  0.00000000E+00  0.00000000E+00
  0.00000000E+00  0.00000000E+00  0.00000000E+00
  0.00000000E+00  0.00000000E+00  0.00000000E+00
  0.00000000E+00  0.00000000E+00  0.00000000E+00
  0.00000000E+00  0.00000000E+00  0.00000000E+00
  0.00000000E+00  0.00000000E+00  0.00000000E+00
  0.00000000E+00  0.00000000E+00  0.00000000E+00
  0.00000000E+00  0.00000000E+00  0.00000000E+00
  0.00000000E+00  0.00000000E+00  0.00000000E+00
  0.00000000E+00  0.00000000E+00  0.00000000E+00
  0.00000000E+00  0.00000000E+00  0.00000000E+00
  0.00000000E+00  0.00000000E+00  0.00000000E+00
  0.00000000E+00  0.00000000E+00  0.00000000E+00
  0.00000000E+00  0.00000000E+00  0.00000000E+00
  0.00000000E+00  0.00000000E+00  0.00000000E+00
  0.00000000E+00  0.00000000E+00  0.00000000E+00
  0.00000000E+00  0.00000000E+00  0.00000000E+00
  0.00000000E+00  0.00000000E+00  0.00000000E+00
  0.00000000E+00  0.00000000E+00  0.00000000E+00
  0.00000000E+00  0.00000000E+00  0.00000000E+00
  0.00000000E+00  0.00000000E+00  0.00000000E+00
  0.00000000E+00  0.00000000E+00  0.00000000E+00
  0.00000000E+00  0.00000000E+00  0.00000000E+00
  0.00000000E+00  0.00000000E+00  0.00000000E+00
  0.00000000E+00  0.00000000E+00  0.00000000E+00
  0.00000000E+00  0.00000000E+00  0.00000000E+00
  0.00000000E+00  0.00000000E+00  0.00000000E+00
  0.00000000E+00  0.00000000E+00  0.00000000E+00
  0.00000000E+00  0.00000000E+00  0.00000000E+00
  0.00000000E+00  0.00000000E+00  0.00000000E+00
  0.00000000E+00  0.00000000E+00  0.00000000E+00
  0.00000000E+00  0.00000000E+00  0.00000000E+00
  0.00000000E+00  0.00000000E+00  0.00000000E+00
  0.00000000E+00  0.00000000E+00  0.00000000E+00
  0.00000000E+00  0.00000000E+00  0.00000000E+00
  0.00000000E+00  0.00000000E+00  0.00000000E+00
  0.00000000E+00  0.00000000E+00  0.00000000E+00
  0.00000000E+00  0.00000000E+00  0.00000000E+00
