Amorphous Sb                            
  0.930000000000000     
    19.5257677405284156    0.0000000000000000    0.0000000000000000
     0.0000000000000000   19.5276774052841517    0.0000000000000000
     0.0000000000000000    0.0000000000000000   19.5276774052841517
   Ge   S 
   150   150
Direct
  0.9910030548135345  0.6672757909203108  0.7192064658657344
  0.7971338639918716  0.1583514147247861  0.4573319817291441
  0.3811009004657481  0.3646598245855059  0.7167967390943317
  0.3094455065477626  0.8128961508268396  0.3941034949141130
  0.2573397680235294  0.7531265281488769  0.1400424438170449
  0.9334474556290669  0.4995826026655344  0.1627871607875484
  0.6665497754486663  0.0978591127294417  0.8344614213552096
  0.1403621105166126  0.1734302550253338  0.9166819986559909
  0.1182658697678573  0.0287340492142378  0.2603454571740585
  0.5020973666229388  0.7672705902478770  0.6342027272538939
  0.0119852007718016  0.0062798848832138  0.8978585268908715
  0.9174256265514424  0.1983392285744148  0.8388301192694021
  0.9573136619198426  0.4318577646264027  0.6654152833225644
  0.7162363406266490  0.2175680689062560  0.9001695360022894
  0.6993918128231005  0.8883686445992099  0.9463436246681196
  0.8836235310338845  0.9404288043768992  0.8729249843015860
  0.6902901576156143  0.0190257428038752  0.2589353201440326
  0.5592472648218340  0.6166554879215073 -0.0022728267472824
  0.1244770317252167  0.2175698885422374  0.5024600232695301
  0.7207871665017864  0.3124546098390964  0.2830927463770796
  0.8092011672667211  0.1128786089775739  0.3233511714024627
  0.2443689843535499  0.0078415677777372  0.3554010008985666
  0.4449171494681283  0.4033072604898358  0.4832250344952747
  0.8994403572724368  0.7248899737188402  0.3415384623399643
  0.0675851811082580  0.0799009483710058  0.6995134132517504
  0.6422030552490872  0.4519630947351197  0.7903674027699890
  0.6025389247892536  0.8570871402401570  0.8520440029992215
  0.2966480143077855  0.0466781999257588  0.9411427047971803
  0.1720783144500027  0.2052412493690607  0.1498912296573867
  0.7783134240615113  0.8488390872468258  0.1627355787138909
  0.3925917704613492  0.7106900178895014  0.8829989842870762
  0.0087670762065179  0.1800739773452144  0.1911046039237822
  0.3141762651585042  0.4549892294107513  0.1254900587027795
  0.4186000830361233  0.0710675094486824  0.4529616408823018
  0.1122316293913124  0.4956592399840148  0.3297575928365118
  0.1440004496852917  0.6208963869902208  0.1868696401573307
  0.1906373358900739  0.3771286787616999  0.4669762383373756
  0.8500750972979522  0.0237295823241319  0.7456702233641687
  0.1372070893278566  0.5472357270830768  0.6847109413989075
  0.5341560479362171  0.5430956626518129  0.5901768389961987
  0.9399327240819737  0.6853384329401810  0.0100902711860100
  0.4894437318063616  0.5425126894918350  0.8354911213737375
  0.6578348072198836  0.0264981239265567  0.5759269867590789
  0.3413795769034004  0.6592308300759246  0.5055321127782783
  0.2456269953424766  0.9561491651479872  0.8464618327495153
  0.3161219571601460  0.1665958660562010  0.0122336016423716
  0.9757011272905792  0.8430166711561172  0.1564661580198251
  0.0330928003842528  0.2864944780747270  0.7799392675655704
  0.4396539225302342  0.9463481966283382  0.1088996169180815
  0.7605457759644783  0.8672662725383168  0.5283414439108859
  0.3408710112505884  0.5253749918293318  0.8421130182050416
  0.6299189839677656  0.8400260094394407  0.6660025010810564
  0.9811973346961145  0.6014995960322566  0.4650743035719637
  0.1368393389025368  0.7475264603153514  0.4922991678300250
  0.8293334505588371  0.5755016649834797  0.7872894580718244
 -0.0101850090448319  0.9782035559621161  0.0876448085019668
  0.4487334009922267  0.6401866095075196  0.6563149272981128
  0.8971627295587637  0.7276033528281158  0.8321941921892170
  0.4682581343025097  0.7878038863023704  0.9835683968233081
  0.8022361916482968  0.6096384657680183  0.1181644601751586
  0.6911808696552968  0.7611830181352862  0.0930379107732815
  0.6220001408186520  0.6448300270677233  0.7330897694890111
  0.8537570363830697  0.3107064987821119  0.3330447149057965
  0.2105463307202176  0.7819892892491119  0.8166469037352699
  0.0651399028975878  0.8428510698449003  0.6526981767815518
  0.7555728802291514  0.3546028840522737  0.7170719800710766
  0.4033431593924193  0.8893921124608992  0.3024835447162168
  0.4451520899679597  0.2276466109629068  0.5716522203322243
  0.1839357961719586  0.7356388690794468  0.9639565851593003
  0.5395485361755171  0.2674291643786733  0.4012771958659266
  0.7581452166940819  0.6806985768965262  0.4768243115761087
  0.1623846770829926  0.5569170318285477  0.5310647622921569
  0.5917363531314757  0.2327892305349241  0.1891794513155351
  0.9907366895147902  0.3700890878448944  0.4710847127544416
  0.4583893496266412  0.4018495093401664  0.2137432576650562
  0.2209799395608527  0.9651966104269104  0.7088772146446838
  0.2833556242553267  0.0435494776062125  0.1318725364780810
  0.8584320094623851  0.1115913511890198  0.0098666153010698
  0.2707941910755011  0.9568999483773195  0.5662049727184754
  0.7895187216185022  0.8019153069709180  0.2979822568496699
  0.5717646617373757  0.3422636938465561  0.6821232173586114
  0.8025569093864690  0.1835974071752089  0.6557392859787651
  0.3034555532367406  0.1568864114306959  0.8270541624557065
  0.1377347647350902  0.3489831470721860  0.1624864275448221
  0.0863068083799916  0.0663287051196945  0.4771360619121018
  0.8516081935283438  0.9645161844098066  0.1231749483843708
  0.2185443395607297  0.8564793336683535  0.2297994850214878
  0.2373943399585402  0.4811793618794796  0.2766823922780289
  0.6529746754992360  0.1788900838817198  0.6217652653887696
  0.9414379923584615  0.0152201562804674  0.3461047542277648
  0.5434814511443654  0.1571885889591037  0.9913931258141671
  0.8078950607951515  0.4686544163035576  0.4431221207461952
  0.4280661500292544  0.6341464687989327  0.2098611953664328
  0.7751691988285839  0.4667947925103174  0.2681037838892191
  0.2163723274465065  0.1735732686241996  0.6431570866764827
  0.4912881391112855  0.5718891737239263  0.3894730307559594
  0.4172124174450986  0.4565486906695109  0.9977131581600831
  0.8590452913604595  0.3757046280487424  0.8989598053980558
  0.1596903837220652  0.5819620749368221  0.8908164295828574
  0.2641214509388513  0.5955229745531851  0.0522505800271446
  0.2087047793763777  0.3429807645068474  0.6442707832842649
  0.1581832659479204  0.7277223554635022  0.6342485828332117
  0.5151135976109665  0.7376690398514597  0.4240900614187985
  0.6804122789613487  0.4220465597727085  0.5924526305225944
  0.8712095483596338  0.2231387993942290  0.1189460417754917
  0.1811668968527169  0.4031478189137829  0.8307207800430840
  0.8858218348251932  0.7444314015585121  0.6200800996308967
  0.9781315984051480  0.8969241019914098  0.4997522504835695
  0.3602014891038571  0.5220642717768913  0.6511954248009946
  0.7230406919530974  0.4934970390751552  0.9678416105658396
  0.5956743540020502  0.4550184688475969  0.3507224415493566
  0.1314665339804640  0.3918859963880999  0.9849662093441027
  0.9579261126083851  0.6795840364583340  0.2214329939997342
  0.0469177798016664  0.8436224596441204  0.3166578225575606
  0.1419073567557770  0.9380658224070602  0.0449885609402355
  0.5913565710159667  0.8477358955862492  0.2718713523981332
  0.3076827102551019  0.3374543760746355  0.2219781765438852
  0.7974203569750552  0.3418291039902541  0.5219774995767351
  0.7698225652323604  0.6460795788299343  0.9173621981245924
  0.8939845186296125  0.4211692805319429  0.0503827394635088
  0.7353366287229098  0.3464897017676122  0.1212649641605935
  0.4077795544033175  0.8562883089027030  0.7846781601270303
  0.4577679109670596  0.9228377475160057  0.5058211057203111
  0.7314743429620781  0.1870467563424473  0.1452515905914396
  0.6020772800019280  0.3259229444037672  0.0222790138381054
  0.3909871221632280  0.1441696913033081  0.1291905727575532
  0.4840564859303675  0.0045886764933798  0.6785862944481960
  0.2702626983685305  0.2212190792100512  0.3634533574616241
  0.4411083580358623  0.0976680443408367  0.8343904380982108
  0.6284169511405160  0.5968002851019962  0.2214758805220374
  0.2866218408228456  0.3328547287547357  0.9422994303927056
  0.3302565901471539  0.7110152384464157  0.6939870778354758
  0.5932145202151439  0.1374556334241898  0.4350199544830495
  0.3345513891289560  0.4357904903023170  0.3806436543517009
  0.6398751919948084  0.8213457227449452  0.4667715319110748
  0.0538315025360835  0.1887858367306768  0.3308783366807899
  0.8768575595786134  0.0144463158902184  0.6020299726710757
  0.0104872993181086  0.4390989785892645  0.2570410715839878
  0.5992325679381246  0.5004280887076292  0.1200960363150971
  0.0671247536516177  0.8041250777899152  0.8745602611096929
  0.0125908187585687  0.2604510424672559  0.0374994794091175
  0.3950908234148955  0.1186083490781126  0.6428458558381198
  0.9543269034163965  0.5295766492560448  0.8620311964350407
  0.5634053323195928  0.7854984892127077  0.1409078333696734
  0.5176497127932482  0.3779804259566539  0.8497465493808559
  0.4646845704786505  0.0936810985388115  0.2638005851721129
  0.2132879759749843  0.6716619005032002  0.3540403135858662
  0.6714764023882955  0.0229651773477345  0.0477522911268296
  0.8313806856275899  0.5815787740174400  0.5905249259891641
  0.7864171485588524  0.7768979463693420  0.7461157354916443
  0.8042487868183485  0.9887166920440615  0.0057780688017570
  0.5242275148148032  0.0483178457555465  0.3715105397399492
  0.4327218104479906  0.6027759107533737  0.9469478921529766
  0.0374695632464000  0.1103786357813522  0.8270240353044372
  0.8311014348720134  0.1126664201005373  0.8839986626331875
  0.7035810747005190  0.7377016821837256  0.3703941866625572
  0.8469310460868636  0.5549576460358919  0.9800753741896586
  0.9837840891199221  0.1285370253028963  0.4208406401405482
  0.1100765502193672  0.8707961455822694  0.5321155373783126
  0.2317986005179777  0.5033964691432926  0.7674035936893508
  0.2496790282441378  0.2563325661204263  0.4961233839893880
  0.5629878513811217  0.2704306422381896  0.5706687433760236
  0.8569434221568700  0.6225041534378952  0.4062664088631403
  0.0016511195457170  0.0103407560143100  0.5708071883143866
  0.8615287126418431  0.3486572151161265  0.1603631123171020
  0.5446333943277347  0.0911731990096615  0.5483688687642254
  0.2458537255058900  0.8113219044418749  0.6857455227287034
  0.6587021730146111  0.9186840018760706  0.3730179223321741
  0.8078786969093594  0.2852117272663395  0.8164113943837705
 -0.0098764564163545  0.0505421615293486  0.2222539880675743
  0.5867002328655447  0.9131636266420164  0.5618900653734957
  0.4976214904406445  0.9396104850018889  0.2257622724262281
  0.3718342747060990  0.8164715896571942  0.1278324372238770
  0.6638988665163038  0.2566382690601413  0.7277861480965020
  0.5038883524545287  0.8623197269232821  0.3774332724450365
  0.2864541402995928  0.6711281869622654  0.8103230128294404
  0.8471601291929040  0.7792297559918805  0.4986349682925013
  0.2763638793272344  0.9565407414845161  0.0384419385383033
  0.9091489865993786  0.1427400809549484  0.7187719376799693
  0.3099195989464839  0.8515244937265442  0.8792040459620941
  0.0077165628167222  0.5979864914639609  0.1370042117831470
  0.8845534762146774  0.2733165147084223  0.4525816840077024
  0.6147432014697508  0.7133923287615261  0.5827578434064474
  0.0299408400515338  0.3213465940997647  0.2253131390041982
  0.7589783511007822  0.8810048755016803  0.6543728662716853
  0.4012278735553271  0.6725756708084892  0.3813913787859439
  0.0812699014658496  0.4754814360571056  0.8964807178340024
  0.4440777710869377  0.5053938054589121  0.1291654845141039
  0.4296490614756335  0.2090721834146331  0.4482154111311174
  0.6654176864336894  0.7552735370108719  0.7953893746036739
  0.4971399002851097  0.2234570567256772  0.2806193445152942
  0.0254329295911019  0.3934667086173694  0.0621816460390290
  0.6975693726701674  0.0661875825398298  0.4524418366080659
  0.1914858576605520  0.8513285212145997  0.3523779967309903
  0.4828747910857195  0.8800971880530071  0.8868967713314424
  0.9506525853476598  0.3851735753882489  0.7912990007048776
  0.0780829571622833  0.2945612732548025  0.4007663049511443
  0.4129776350762492  0.5235610080796387  0.5252942861554019
  0.1573863993743297  0.4860836911972907  0.1676206401135054
  0.3772136075713881  0.3981596438647240  0.8635620231079371
  0.1027703279940495  0.3323967109222454  0.5665010796658548
  0.5816835803238769  0.2706295010728774  0.9053506470401698
  0.9948302338390663  0.6764035547936605  0.5847680951567352
  0.7028533096637167  0.6477760805925350  0.0325134683179083
  0.5005274050369325  0.6817458640567593  0.1025285369733929
  0.6798890744665289  0.3668405447083005  0.3921172295985562
  0.8376793496567277  0.7512635894134908  0.9507833354528253
  0.9310181355523424  0.4130464881247675  0.3528415132338771
  0.9567369398181520  0.8443049739322370  0.8126418646003795
  0.1126016389465691  0.9158247286829111  0.1939436561816088
  0.5907828060099010  0.4090627168177459  0.2200207810972561
  0.1204216490927049  0.6698779454147750  0.7423085295185304
  0.5460242093599106  0.4352072696918498  0.9768382255662992
  0.1589841139685516  0.0788619938744270  0.1284668003958322
  0.8308117467522503  0.9677226497546801  0.4944071553228780
  0.3282616158470921  0.9399461240357603  0.4388963127383372
  0.0899551743109519  0.6192383112762623  0.3158362845862369
  0.1965133625497993  0.0891832456538720  0.7421055291556768
  0.2923833591899024  0.0923190566242302  0.5653540840152650
  0.4706803928307133  0.4626223242084024  0.6987477359109286
  0.5777464879741648  0.7321355832290259  0.9436109722486489
  0.6305977578219795  0.0067099271680490  0.9232840119218818
  0.6829703074899409  0.1566350315731621  0.0255070938262630
  0.0594597770894367  0.7546491506583979  0.2055951271630829
  0.5832217204122320  0.6317700077476314  0.5035270007579165
  0.7343521018550405  0.4856807353072538  0.1375563130631520
  0.7585034128120259  0.6458872722566393  0.7057645436780972
  0.8938096048941889  0.2644124899248591  0.9899661825105471
  0.9255773597625050  0.8874683623236003  0.9955497513257888
  0.6973413983920019  0.1843869273623168  0.3125884437966912
 -0.0081857210939065  0.0846313733827888  0.0044059037978828
  0.6683822825739165  0.9184595625467290  0.1775801083623672
  0.2532913610112308  0.5785658170978630  0.4377267233426173
  0.3733879717544086  0.3256798840970705  0.3299459716963447
  0.0798381215556691  0.4814254567365447  0.4500912229387372
  0.7153908879904500  0.2414882312948912  0.5105746247512798
  0.7877589541535682  0.0658843655057659  0.1768548417500693
  0.1636843423775995  0.8083845637950109  0.0667199369991219
  0.0901172672125556  0.9471276492282995  0.7266710726036124
  0.4421175263707783  0.7881846988776918  0.5221564226808924
  0.2680619687548054  0.6070141327324763  0.2535385310319516
  0.3916446102941935  0.7734021333066845  0.2315016843786194
  0.0081696833598736  0.5395985565201873  0.7344108760212770
  0.2957368735281938  0.2063443638264108  0.1991850122514649
  0.3284588296004662  0.2087291203877391  0.7080537684110889
  0.5857186654511544  0.0932797034847773  0.1873050048611099
  0.7661057580102300  0.4699775215499133  0.8414990736198515
  0.7172334372840934  0.6866384635449095  0.2012037379459211
  0.0578131159619592  0.9687480516284319  0.3841463291121155
  0.5890543980891130  0.9278565974548928  0.7478256296050044
  0.1627056765738356  0.1368857958872764  0.3742250867449255
  0.0018466727470742  0.6555851644102376  0.8810880583048608
  0.8648486285569470  0.5594242133970383  0.2509512180738115
  0.9409549244840330  0.8637167021485661  0.6310264606830797
  0.8388626500222294  0.4900958170084450  0.6839575208710549
  0.7688977845243451  0.9215599863611000  0.3467675166137124
  0.5348315225411238  0.0587714503835688  0.0915400524330267
  0.3047101350324184  0.7067716599075283 -0.0050912948313603
  0.2074846917948522  0.2422054744206124  0.8291381524703335
  0.3891987852035047  0.9914130978394673  0.7725202573497423
  0.6886249898152257  0.5484013572610444  0.3248832982268901
  0.2607590059971617  0.5125549493882399  0.9476498491939683
  0.8944572612986217  0.2033013306650812  0.2768846269353324
  0.4217656732744795  0.4982519657771897  0.3035697280215937
  0.5058978055023686  0.2437382167983413  0.0862436370186968
 -0.0003574675832421  0.7558753078344179  0.4077029717696900
  0.2385114681461002  0.4535194412546459  0.5707440035136667
  0.7674342953958649  0.8973879695281779  0.8376179583528303
  0.2094168502081058  0.2355465642593692  0.0281283186416270
  0.7466612789720848  0.3642509274851730  0.9857128601064317
  0.6505003456582703  0.5125043169391701  0.6774608279053812
  0.8523885950482474  0.3093236712286573  0.6355597744953453
  0.3607566366508654  0.3498944658573991  0.0565963786029980
  0.2502510245500147  0.6305479370704892  0.6271140346618107
  0.5556598825756088  0.1067028528911906  0.7709650596972892
  0.3868771684104126  0.9244099199318594  0.6179469543417787
  0.5373679760119172  0.8776730136007586  0.0529013121774233
  0.8858557870680244  0.7417525832454366  0.1339601329483828
  0.4786855700819662  0.2808689353715562  0.7467534800805850
  0.3859547073193622  0.3396922592067241  0.5788163254718282
  0.9232455510496572  0.8816578901676522  0.2723441890018587
  0.7272311120323823  0.0565230587981408  0.7300799175612857
  0.1368128105715337  0.6259317325083800  0.0189517611478115
  0.3402189032524414  0.0999387142987848  0.3476093865480979
  0.6202866935162454  0.5686278845276403  0.8509414649413413
  0.2653605228289651  0.7735928756280334  0.5092575565684629
  0.0675563587219693  0.2871251379028265  0.9152679418102319
  0.5723991137245245  0.4417091393193856  0.5173925962824271
  0.1330389716861873  0.9258987459104681  0.9063148345342433
  0.8738583792216933  0.1369568581683838  0.5568676140930507
  0.1105684472123470  0.3855686424530414  0.7242825005469542
  0.2969476831623488  0.9621242320434059  0.2314195394412715
  0.9160352559533417  0.4984064266052092  0.5218817282727261
  0.3741230845895606  0.2322637495837659  0.9208087052050772
  0.4237661414152534  0.0422124196412375  0.9525796844019599
  0.1955016080755913  0.3340069448738209  0.2811859056612519
  0.5381279336937811  0.6551128466467232  0.2873444287781128
  0.7279869368086404  0.5275363542858337  0.5263933565020658
  0.4809616636147754  0.6613674652185665  0.7790121141081536
  0.0082206079254910  0.8091760995267057 -0.0010708643009211
 
  0.00000000E+00  0.00000000E+00  0.00000000E+00
  0.00000000E+00  0.00000000E+00  0.00000000E+00
  0.00000000E+00  0.00000000E+00  0.00000000E+00
  0.00000000E+00  0.00000000E+00  0.00000000E+00
  0.00000000E+00  0.00000000E+00  0.00000000E+00
  0.00000000E+00  0.00000000E+00  0.00000000E+00
  0.00000000E+00  0.00000000E+00  0.00000000E+00
  0.00000000E+00  0.00000000E+00  0.00000000E+00
  0.00000000E+00  0.00000000E+00  0.00000000E+00
  0.00000000E+00  0.00000000E+00  0.00000000E+00
  0.00000000E+00  0.00000000E+00  0.00000000E+00
  0.00000000E+00  0.00000000E+00  0.00000000E+00
  0.00000000E+00  0.00000000E+00  0.00000000E+00
  0.00000000E+00  0.00000000E+00  0.00000000E+00
  0.00000000E+00  0.00000000E+00  0.00000000E+00
  0.00000000E+00  0.00000000E+00  0.00000000E+00
  0.00000000E+00  0.00000000E+00  0.00000000E+00
  0.00000000E+00  0.00000000E+00  0.00000000E+00
  0.00000000E+00  0.00000000E+00  0.00000000E+00
  0.00000000E+00  0.00000000E+00  0.00000000E+00
  0.00000000E+00  0.00000000E+00  0.00000000E+00
  0.00000000E+00  0.00000000E+00  0.00000000E+00
  0.00000000E+00  0.00000000E+00  0.00000000E+00
  0.00000000E+00  0.00000000E+00  0.00000000E+00
  0.00000000E+00  0.00000000E+00  0.00000000E+00
  0.00000000E+00  0.00000000E+00  0.00000000E+00
  0.00000000E+00  0.00000000E+00  0.00000000E+00
  0.00000000E+00  0.00000000E+00  0.00000000E+00
  0.00000000E+00  0.00000000E+00  0.00000000E+00
  0.00000000E+00  0.00000000E+00  0.00000000E+00
  0.00000000E+00  0.00000000E+00  0.00000000E+00
  0.00000000E+00  0.00000000E+00  0.00000000E+00
  0.00000000E+00  0.00000000E+00  0.00000000E+00
  0.00000000E+00  0.00000000E+00  0.00000000E+00
  0.00000000E+00  0.00000000E+00  0.00000000E+00
  0.00000000E+00  0.00000000E+00  0.00000000E+00
  0.00000000E+00  0.00000000E+00  0.00000000E+00
  0.00000000E+00  0.00000000E+00  0.00000000E+00
  0.00000000E+00  0.00000000E+00  0.00000000E+00
  0.00000000E+00  0.00000000E+00  0.00000000E+00
  0.00000000E+00  0.00000000E+00  0.00000000E+00
  0.00000000E+00  0.00000000E+00  0.00000000E+00
  0.00000000E+00  0.00000000E+00  0.00000000E+00
  0.00000000E+00  0.00000000E+00  0.00000000E+00
  0.00000000E+00  0.00000000E+00  0.00000000E+00
  0.00000000E+00  0.00000000E+00  0.00000000E+00
  0.00000000E+00  0.00000000E+00  0.00000000E+00
  0.00000000E+00  0.00000000E+00  0.00000000E+00
  0.00000000E+00  0.00000000E+00  0.00000000E+00
  0.00000000E+00  0.00000000E+00  0.00000000E+00
  0.00000000E+00  0.00000000E+00  0.00000000E+00
  0.00000000E+00  0.00000000E+00  0.00000000E+00
  0.00000000E+00  0.00000000E+00  0.00000000E+00
  0.00000000E+00  0.00000000E+00  0.00000000E+00
  0.00000000E+00  0.00000000E+00  0.00000000E+00
  0.00000000E+00  0.00000000E+00  0.00000000E+00
  0.00000000E+00  0.00000000E+00  0.00000000E+00
  0.00000000E+00  0.00000000E+00  0.00000000E+00
  0.00000000E+00  0.00000000E+00  0.00000000E+00
  0.00000000E+00  0.00000000E+00  0.00000000E+00
  0.00000000E+00  0.00000000E+00  0.00000000E+00
  0.00000000E+00  0.00000000E+00  0.00000000E+00
  0.00000000E+00  0.00000000E+00  0.00000000E+00
  0.00000000E+00  0.00000000E+00  0.00000000E+00
  0.00000000E+00  0.00000000E+00  0.00000000E+00
  0.00000000E+00  0.00000000E+00  0.00000000E+00
  0.00000000E+00  0.00000000E+00  0.00000000E+00
  0.00000000E+00  0.00000000E+00  0.00000000E+00
  0.00000000E+00  0.00000000E+00  0.00000000E+00
  0.00000000E+00  0.00000000E+00  0.00000000E+00
  0.00000000E+00  0.00000000E+00  0.00000000E+00
  0.00000000E+00  0.00000000E+00  0.00000000E+00
  0.00000000E+00  0.00000000E+00  0.00000000E+00
  0.00000000E+00  0.00000000E+00  0.00000000E+00
  0.00000000E+00  0.00000000E+00  0.00000000E+00
  0.00000000E+00  0.00000000E+00  0.00000000E+00
  0.00000000E+00  0.00000000E+00  0.00000000E+00
  0.00000000E+00  0.00000000E+00  0.00000000E+00
  0.00000000E+00  0.00000000E+00  0.00000000E+00
  0.00000000E+00  0.00000000E+00  0.00000000E+00
  0.00000000E+00  0.00000000E+00  0.00000000E+00
  0.00000000E+00  0.00000000E+00  0.00000000E+00
  0.00000000E+00  0.00000000E+00  0.00000000E+00
  0.00000000E+00  0.00000000E+00  0.00000000E+00
  0.00000000E+00  0.00000000E+00  0.00000000E+00
  0.00000000E+00  0.00000000E+00  0.00000000E+00
  0.00000000E+00  0.00000000E+00  0.00000000E+00
  0.00000000E+00  0.00000000E+00  0.00000000E+00
  0.00000000E+00  0.00000000E+00  0.00000000E+00
  0.00000000E+00  0.00000000E+00  0.00000000E+00
  0.00000000E+00  0.00000000E+00  0.00000000E+00
  0.00000000E+00  0.00000000E+00  0.00000000E+00
  0.00000000E+00  0.00000000E+00  0.00000000E+00
  0.00000000E+00  0.00000000E+00  0.00000000E+00
  0.00000000E+00  0.00000000E+00  0.00000000E+00
  0.00000000E+00  0.00000000E+00  0.00000000E+00
  0.00000000E+00  0.00000000E+00  0.00000000E+00
  0.00000000E+00  0.00000000E+00  0.00000000E+00
  0.00000000E+00  0.00000000E+00  0.00000000E+00
  0.00000000E+00  0.00000000E+00  0.00000000E+00
  0.00000000E+00  0.00000000E+00  0.00000000E+00
  0.00000000E+00  0.00000000E+00  0.00000000E+00
  0.00000000E+00  0.00000000E+00  0.00000000E+00
  0.00000000E+00  0.00000000E+00  0.00000000E+00
  0.00000000E+00  0.00000000E+00  0.00000000E+00
  0.00000000E+00  0.00000000E+00  0.00000000E+00
  0.00000000E+00  0.00000000E+00  0.00000000E+00
  0.00000000E+00  0.00000000E+00  0.00000000E+00
  0.00000000E+00  0.00000000E+00  0.00000000E+00
  0.00000000E+00  0.00000000E+00  0.00000000E+00
  0.00000000E+00  0.00000000E+00  0.00000000E+00
  0.00000000E+00  0.00000000E+00  0.00000000E+00
  0.00000000E+00  0.00000000E+00  0.00000000E+00
  0.00000000E+00  0.00000000E+00  0.00000000E+00
  0.00000000E+00  0.00000000E+00  0.00000000E+00
  0.00000000E+00  0.00000000E+00  0.00000000E+00
  0.00000000E+00  0.00000000E+00  0.00000000E+00
  0.00000000E+00  0.00000000E+00  0.00000000E+00
  0.00000000E+00  0.00000000E+00  0.00000000E+00
  0.00000000E+00  0.00000000E+00  0.00000000E+00
  0.00000000E+00  0.00000000E+00  0.00000000E+00
  0.00000000E+00  0.00000000E+00  0.00000000E+00
  0.00000000E+00  0.00000000E+00  0.00000000E+00
  0.00000000E+00  0.00000000E+00  0.00000000E+00
  0.00000000E+00  0.00000000E+00  0.00000000E+00
  0.00000000E+00  0.00000000E+00  0.00000000E+00
  0.00000000E+00  0.00000000E+00  0.00000000E+00
  0.00000000E+00  0.00000000E+00  0.00000000E+00
  0.00000000E+00  0.00000000E+00  0.00000000E+00
  0.00000000E+00  0.00000000E+00  0.00000000E+00
  0.00000000E+00  0.00000000E+00  0.00000000E+00
  0.00000000E+00  0.00000000E+00  0.00000000E+00
  0.00000000E+00  0.00000000E+00  0.00000000E+00
  0.00000000E+00  0.00000000E+00  0.00000000E+00
  0.00000000E+00  0.00000000E+00  0.00000000E+00
  0.00000000E+00  0.00000000E+00  0.00000000E+00
  0.00000000E+00  0.00000000E+00  0.00000000E+00
  0.00000000E+00  0.00000000E+00  0.00000000E+00
  0.00000000E+00  0.00000000E+00  0.00000000E+00
  0.00000000E+00  0.00000000E+00  0.00000000E+00
  0.00000000E+00  0.00000000E+00  0.00000000E+00
  0.00000000E+00  0.00000000E+00  0.00000000E+00
  0.00000000E+00  0.00000000E+00  0.00000000E+00
  0.00000000E+00  0.00000000E+00  0.00000000E+00
  0.00000000E+00  0.00000000E+00  0.00000000E+00
  0.00000000E+00  0.00000000E+00  0.00000000E+00
  0.00000000E+00  0.00000000E+00  0.00000000E+00
  0.00000000E+00  0.00000000E+00  0.00000000E+00
  0.00000000E+00  0.00000000E+00  0.00000000E+00
  0.00000000E+00  0.00000000E+00  0.00000000E+00
  0.00000000E+00  0.00000000E+00  0.00000000E+00
  0.00000000E+00  0.00000000E+00  0.00000000E+00
  0.00000000E+00  0.00000000E+00  0.00000000E+00
  0.00000000E+00  0.00000000E+00  0.00000000E+00
  0.00000000E+00  0.00000000E+00  0.00000000E+00
  0.00000000E+00  0.00000000E+00  0.00000000E+00
  0.00000000E+00  0.00000000E+00  0.00000000E+00
  0.00000000E+00  0.00000000E+00  0.00000000E+00
  0.00000000E+00  0.00000000E+00  0.00000000E+00
  0.00000000E+00  0.00000000E+00  0.00000000E+00
  0.00000000E+00  0.00000000E+00  0.00000000E+00
  0.00000000E+00  0.00000000E+00  0.00000000E+00
  0.00000000E+00  0.00000000E+00  0.00000000E+00
  0.00000000E+00  0.00000000E+00  0.00000000E+00
  0.00000000E+00  0.00000000E+00  0.00000000E+00
  0.00000000E+00  0.00000000E+00  0.00000000E+00
  0.00000000E+00  0.00000000E+00  0.00000000E+00
  0.00000000E+00  0.00000000E+00  0.00000000E+00
  0.00000000E+00  0.00000000E+00  0.00000000E+00
  0.00000000E+00  0.00000000E+00  0.00000000E+00
  0.00000000E+00  0.00000000E+00  0.00000000E+00
  0.00000000E+00  0.00000000E+00  0.00000000E+00
  0.00000000E+00  0.00000000E+00  0.00000000E+00
  0.00000000E+00  0.00000000E+00  0.00000000E+00
  0.00000000E+00  0.00000000E+00  0.00000000E+00
  0.00000000E+00  0.00000000E+00  0.00000000E+00
  0.00000000E+00  0.00000000E+00  0.00000000E+00
  0.00000000E+00  0.00000000E+00  0.00000000E+00
  0.00000000E+00  0.00000000E+00  0.00000000E+00
  0.00000000E+00  0.00000000E+00  0.00000000E+00
  0.00000000E+00  0.00000000E+00  0.00000000E+00
  0.00000000E+00  0.00000000E+00  0.00000000E+00
  0.00000000E+00  0.00000000E+00  0.00000000E+00
  0.00000000E+00  0.00000000E+00  0.00000000E+00
  0.00000000E+00  0.00000000E+00  0.00000000E+00
  0.00000000E+00  0.00000000E+00  0.00000000E+00
  0.00000000E+00  0.00000000E+00  0.00000000E+00
  0.00000000E+00  0.00000000E+00  0.00000000E+00
  0.00000000E+00  0.00000000E+00  0.00000000E+00
  0.00000000E+00  0.00000000E+00  0.00000000E+00
  0.00000000E+00  0.00000000E+00  0.00000000E+00
  0.00000000E+00  0.00000000E+00  0.00000000E+00
  0.00000000E+00  0.00000000E+00  0.00000000E+00
  0.00000000E+00  0.00000000E+00  0.00000000E+00
  0.00000000E+00  0.00000000E+00  0.00000000E+00
  0.00000000E+00  0.00000000E+00  0.00000000E+00
  0.00000000E+00  0.00000000E+00  0.00000000E+00
  0.00000000E+00  0.00000000E+00  0.00000000E+00
  0.00000000E+00  0.00000000E+00  0.00000000E+00
  0.00000000E+00  0.00000000E+00  0.00000000E+00
  0.00000000E+00  0.00000000E+00  0.00000000E+00
  0.00000000E+00  0.00000000E+00  0.00000000E+00
  0.00000000E+00  0.00000000E+00  0.00000000E+00
  0.00000000E+00  0.00000000E+00  0.00000000E+00
  0.00000000E+00  0.00000000E+00  0.00000000E+00
  0.00000000E+00  0.00000000E+00  0.00000000E+00
  0.00000000E+00  0.00000000E+00  0.00000000E+00
  0.00000000E+00  0.00000000E+00  0.00000000E+00
  0.00000000E+00  0.00000000E+00  0.00000000E+00
  0.00000000E+00  0.00000000E+00  0.00000000E+00
  0.00000000E+00  0.00000000E+00  0.00000000E+00
  0.00000000E+00  0.00000000E+00  0.00000000E+00
  0.00000000E+00  0.00000000E+00  0.00000000E+00
  0.00000000E+00  0.00000000E+00  0.00000000E+00
  0.00000000E+00  0.00000000E+00  0.00000000E+00
  0.00000000E+00  0.00000000E+00  0.00000000E+00
  0.00000000E+00  0.00000000E+00  0.00000000E+00
  0.00000000E+00  0.00000000E+00  0.00000000E+00
  0.00000000E+00  0.00000000E+00  0.00000000E+00
  0.00000000E+00  0.00000000E+00  0.00000000E+00
  0.00000000E+00  0.00000000E+00  0.00000000E+00
  0.00000000E+00  0.00000000E+00  0.00000000E+00
  0.00000000E+00  0.00000000E+00  0.00000000E+00
  0.00000000E+00  0.00000000E+00  0.00000000E+00
  0.00000000E+00  0.00000000E+00  0.00000000E+00
  0.00000000E+00  0.00000000E+00  0.00000000E+00
  0.00000000E+00  0.00000000E+00  0.00000000E+00
  0.00000000E+00  0.00000000E+00  0.00000000E+00
  0.00000000E+00  0.00000000E+00  0.00000000E+00
  0.00000000E+00  0.00000000E+00  0.00000000E+00
  0.00000000E+00  0.00000000E+00  0.00000000E+00
  0.00000000E+00  0.00000000E+00  0.00000000E+00