Amorphous Sb                            
   1.00000000000000     
    20.5299602001815451    0.0000000000000000    0.0000000000000000
     0.0000000000000000   20.5299602001815451    0.0000000000000000
     0.0000000000000000    0.0000000000000000   20.5299602001815451
   Ge   Te   Se
   150    45   105
Direct
  0.8326881696244973  0.9889383938238188  0.8310542991250754
  0.2764749883943045  0.6713040160673758  0.9453318769064804
  0.9905719127786050  0.7825772057412921  0.0578629036604587
  0.0995743462275831  0.6325701351675792  0.4423039177560683
  0.9310307769894738  0.8855086195118428  0.4694929018364961
  0.2551112491360752  0.1707602460304719  0.5027240407292617
  0.9587816127886297  0.2145154345077727  0.1503017553695985
  0.4325108534675986  0.7908166523045757  0.3990197141787323
  0.7838000892928285  0.1392761849822536  0.4302106313051648
  0.9135057621244742  0.8868351182501371  0.7131130725986459
  0.1035346919494151  0.2507522148964204  0.1747047510133402
  0.5914104593969904  0.1905033353351881  0.3384754413504162
  0.3872627375682533  0.4281134406135129  0.4069506732404774
  0.2748208973783483  0.4945683861508774  0.3308597990450786
  0.4986753195275627  0.4895907472081277  0.7599182381378552
  0.1721325888936231  0.5637320449965590  0.2905861018034393
  0.0564754576658765  0.5310773928343921  0.3318480150896976
  0.6823288031372134  0.9903632632247774  0.2202652562115616
  0.3821369287469640  0.6245397604848240  0.5065942131569615
  0.4258450547577447  0.0107707111085862  0.8016396241780667
  0.7710197729673638  0.1540216181405407  0.5575631180683599
  0.4080860953818286  0.0073818909353138  0.9413441133684578
  0.5483469301296953  0.9422062700732236  0.7889747329604387
  0.8095311923305581  0.3026411998969485  0.1810343387964173
  0.7326490518273235  0.0923262518143325  0.0546761704329150
  0.4777256884502869  0.6492487007873270  0.8865061566785918
  0.1058524763401261  0.8025369970466932  0.0109887406481340
  0.0162911899243483  0.3454959486060212  0.9090414949610968
  0.0944604038916525  0.6172814195758607  0.6057584612006743
  0.6739090525131332  0.6511167594225726  0.4905771285219446
  0.2431269356085046  0.0181508426199511  0.0908403195943149
  0.4769373323255262  0.5849652739157173  0.4322946746749731
  0.6319547837992445  0.9484224617519925  0.3265170067520374
  0.2143124658698569  0.3667203218937797  0.0282852512449546
  0.7452662013472954  0.9079639010875266  0.3565691729084932
  0.3281176955066211  0.0210156056329657  0.1844790417681642
  0.7667302276521870  0.2992067135788703  0.7323692521802593
  0.7774644703756465  0.3627442982439248  0.9045379708333473
  0.4319135695647819  0.0211728381101657  0.6687817192801767
  0.5281534463924354  0.2313516648489291  0.2091745456383596
  0.5853744239685904  0.7525274530376215  0.7432761398172317
  0.5008932484712274  0.8620387084754931  0.2121996168132853
  0.9264441519149282  0.5926282491058904  0.0218070441492794
  0.8017923399408265  0.6677788762327532  0.8502884220890641
  0.0491019720244503  0.0324817093863599  0.0692257888409370
  0.5028585504828155  0.0283504045158130  0.0855556140152804
  0.5914999849123133  0.3072156551794782  0.7343904516767551
  0.7978122610885694  0.5293918773461364  0.9996035111469295
  0.3762242793828681  0.3272584280137896  0.4919467602167376
  0.1843450576736749  0.4071247879429793  0.5247089450064274
  0.0343933315389676  0.6829236650166361  0.7017432203693766
  0.9586465792014378  0.2888735593057752  0.4124903802234939
  0.1535634031571571  0.0913895616621218  0.2482442428505034
  0.3707203222013286  0.5218983601989463  0.9056711767439580
  0.0233422961930438  0.1387604074260083  0.2356343388384603
  0.2148095704803478  0.8986469214529857  0.2949499424803457
  0.1439324692760601  0.1377976288451018  0.8531511278732595
  0.8503916638991350  0.7241816238428587  0.1321348723822760
  0.5402749945084291  0.9037994255409795  0.6185386964495805
  0.9281595132215541  0.3830968526666920  0.2874603563472979
  0.1698805070321215  0.6742448797855196  0.3500113435349435
  0.4108907477962818  0.7911385800892294  0.9243447883408615
  0.6143417443020091  0.1826509018998604  0.5378678479774205
  0.2541564375441427  0.9824285683619476  0.5706700002035006
  0.5836293909660352  0.9932024091225193  0.4322221186194042
  0.8976018045566608  0.2200732859242095  0.8494689422402223
  0.5626982466954963  0.9249565216403127  0.0388507749208992
  0.6055524112641509  0.8525001136985381  0.4622385125172487
  0.2672647167807664  0.6188897300825770  0.7633032099699590
  0.3210666994851292  0.3628365696165058  0.7423816730617061
  0.6863454122823535  0.9231570685948904  0.0227999215917825
  0.9055621242125904  0.2075055012622365  0.9726007985743947
  0.6981230042919114  0.0440954352991297  0.4536622105765882
  0.4011346196790760  0.7383356861826222  0.2840947882782711
  0.6537190137787945  0.5493083427169864  0.0952524357581644
  0.0404379269916600  0.0239071138366000  0.4070862748256905
  0.7416349792427638  0.4190542446202494  0.6894551905010534
  0.7559040481628945  0.6532827674614978  0.2462405147189568
  0.1850790966169540  0.2603305638635445  0.3280961396020595
  0.8501934955378981  0.6857845626962628  0.7111442243444653
  0.3343538786734262  0.7360409632951600  0.4634257551851656
  0.3658429594740047  0.6040234802787309  0.1167662373530846
  0.0852464672608620  0.8441703181089369  0.3922603083904511
  0.6288609801767727  0.2259803810103125  0.0583432610945677
  0.1122925373246931  0.3326473882605827  0.7717641703697729
  0.2679418181898724  0.1495876325132470  0.8160337995362873
  0.7677434799504078  0.3174728236740785  0.4946897353225135
  0.2029096298459921  0.7726899213633628  0.9372958505625129
  0.5771575495326851  0.4149344345058485  0.0020750560086471
  0.2060159463686961  0.7203250092916693  0.7157333046911509
  0.4261829703341518  0.1931221151698438  0.0237597167626052
  0.7495750199515032  0.9755550682259330  0.1163786306251244
  0.0810795438850978  0.5006253641810711  0.5216318550940018
  0.3929980571950580  0.7495412928247034  0.7963856175827906
  0.2478031831868851  0.0309396713040210  0.7452777692415267
  0.8617191698264400  0.0369322286156565  0.4686884825778376
  0.4680797000931184  0.1369570027997001  0.6987835876654908
  0.0086338595411569  0.3204998268967861  0.6017987615274704
  0.7452508225936724  0.8059537284118342  0.8090233440716816
  0.6626902230503852  0.7666188557585905  0.9262491981620545
  0.4881430616114112  0.8259701474363407  0.0239973845682821
  0.6914236713676909  0.1757774936560418  0.2523986154443054
  0.2247110269398279  0.9997588964169788  0.9634450331421521
  0.4628832354235286  0.9811014044690329  0.5522786126460756
  0.5257024787068550  0.4949328374999739  0.1994659430217089
  0.6726979713708757  0.5622448360458638  0.3033159533311782
  0.1418455319209738  0.4187300532760891  0.2213258095671872
  0.3296318019386112  0.9460853747360102  0.4396649904617581
  0.0963467426095799  0.6310435882102174  0.9687492202728499
  0.8865364196711959  0.5264593234239489  0.1499678225316619
  0.3094141005458734  0.8034782632801245  0.0828004372562721
  0.4895089352758034  0.4857246526007484  0.5977570087851896
  0.6180654248466521  0.7367469043034037  0.3071018855699651
  0.8324558946699959  0.1062535829480773  0.9722783891521281
  0.2836536468380269  0.4723495412809848  0.5817436881057160
  0.0559537761909034  0.7807991641309523  0.8085788713190426
  0.1038652324875228  0.9118270917761542  0.0780792274144138
  0.2725461840840167  0.3399204711101652  0.3735088017078154
  0.3486991717122951  0.6430710884721972  0.8517407902547134
  0.1314890852608223  0.2009235944487676  0.6854159425111570
  0.7181566098255389  0.5422114941916260  0.6571649976238010
  0.0660398312205262  0.1739568015787959  0.4934025442831154
  0.6905556757774374  0.0070254748435551  0.7513559940077397
  0.3777238314423099  0.0963117300361918  0.3396361619303650
  0.0678699066542299  0.2407023403591409  0.8457765074462451
  0.9904856107000075  0.5480624962556172  0.8510096096008418
  0.2380039857077670  0.6115410436482895  0.1075918418555318
  0.9699880847317048  0.9297896017660819  0.2359890112873515
  0.7429547181209819  0.4858797041439712  0.5003959658697159
  0.4797683662116696  0.3702342464918154  0.3354136503874504
  0.8349137614952584  0.1705516556359924  0.2999387605026451
  0.9139678170904477  0.8200022668169673  0.9546270929073655
  0.3360100162620425  0.8944498678675491  0.6958602361566377
  0.7936543037860146  0.8326336708398466  0.2618764285913566
  0.3447063630633095  0.6260391399792634  0.2786363410808044
  0.6339232149697267  0.5920489778625871  0.9163085479678561
  0.6967529563141134  0.7545847086792457  0.5937782632943255
  0.8666112730199994  0.5965674927561356  0.5171164658225623
  0.6636418121144073  0.3570229318050243  0.3322652849090112
  0.3962993341457650  0.9233454907129807  0.2505034676929249
  0.1834910799698846  0.5329792814278042  0.7966153074056640
  0.9144549753322619  0.3865297535367370  0.0309561511357163
  0.9547053290054496  0.1704204650426192  0.5802092604436949
  0.3518890664436642  0.2500734915402527  0.2409378226867310
  0.0247491339699224  0.9710500100962630  0.8194425096677661
  0.2976574622231268  0.2479565298660429  0.8967368263460086
  0.9523301552555009  0.7062148048577712  0.4452142133971922
  0.1832303551708842  0.4100457035107724  0.8385422787231314
  0.3224789154772589  0.5511823024601156  0.6717910589653104
  0.8798151333848331  0.4648904478289412  0.5398524383039929
  0.2218487539955951  0.7663610321721569  0.5211603088525473
  0.7795579844503966  0.0294731482186804  0.3019986698345675
  0.9411936454644876  0.7528927268642660  0.6422937835150782
  0.9201544645840195  0.9401505834875277  0.0217771555961249
  0.8469991450736901  0.8950141352484484  0.1574736529419301
  0.9293817491367095  0.6626527844113176  0.9055398656373775
  0.4905727567876307  0.7366538384080021  0.1899817067973113
  0.1377776009665138  0.7800700122403861  0.2840720686173610
  0.3933129363262586  0.9515587030423235  0.0687410562173257
  0.1114530356777983  0.0609256202955491  0.7519773229511877
  0.9569585563119041  0.5816498571670694  0.7219323124933384
  0.8673489775083288  0.3994078903919286  0.4289670094570626
  0.2137916603533000  0.2349179552885284  0.9959203591623450
  0.8692150999799040  0.7235446373767584  0.2687644707133782
  0.7317209885360614  0.4539159030256869  0.2446392787707313
  0.7781707478986454  0.5409841066578599  0.8174521946083058
  0.5163384037736183  0.1035061001447938  0.4001479612563455
  0.9513059543422754  0.0237983269030434  0.5715205177067544
  0.2136804314843656  0.5647723097586507  0.9854796561020007
  0.6083614736645934  0.0763639714999750  0.8331457214694181
  0.6633127812385363  0.5964889105870480  0.7610460106260976
  0.6305376759175493  0.5400159458595797  0.5597339811681658
  0.5085948948120036  0.7695183741433503  0.5028061987848371
  0.3865388219126187  0.3907083475286504  0.6070999436981187
  0.5481391557519095  0.6147577856722228  0.0273751327104890
  0.1952899437360182  0.7353059015161294  0.1101232895759703
  0.7047205241688351  0.7757641801126144  0.4060447754084630
  0.6983478921568503  0.7658364016691216  0.1987278288487158
  0.3952015369465541  0.5051151005134511  0.0377873567010212
  0.1451579274133143  0.5103977587463936  0.6756534081082215
  0.6522087184995609  0.2840508806450545  0.1838344243631191
  0.8766085692680183  0.4618262958959190  0.9146657943362722
  0.3174903026945455  0.1767771938564075  0.0905040574181585
  0.6228561800480733  0.0957076488343422  0.1741409381334545
  0.1636966488370612  0.1517094402569955  0.3997952248648508
  0.2778252619591546  0.3935682687601190  0.2402506775478895
  0.5055977015722689  0.3717328709756570  0.8259617755121229
  0.3157635428471038  0.0819297402327280  0.6356188127045045
  0.4114113499790355  0.1251412260801475  0.1888260448057783
  0.0502048752167366  0.9377427505422646  0.5139897887649358
  0.7946053000073386  0.1410428846945367  0.8520593010422305
  0.8346110223857724  0.1676988076012796  0.1601019731575698
  0.1347701798646866  0.5564609910836072  0.1654088355516233
  0.4353988289354194  0.2129222063889421  0.5157430680137066
  0.5953902831423361  0.7421603309446387  0.0471808091138516
  0.7919609634856513  0.6113703916803233  0.1367426344585503
  0.2177832393428777  0.9278229661728210  0.6770982266617078
  0.3209160161829864  0.9466989389997098  0.8099769493597716
  0.8165298816305946  0.4433851845656217  0.0884693786523875
  0.9759775707987574  0.0386709928532241  0.1748185612537637
  0.6750980579357505  0.3957993793491363  0.4532323762598947
  0.0629112987781313  0.3008808316122759  0.4911434910186858
  0.7925553780394908  0.6308430234746242  0.6116461194888962
  0.6068598305512621  0.4377874089503467  0.1228665463339494
  0.5943024536124061  0.7034226577545423  0.6325373785586621
  0.6494238589583896  0.8728629076267080  0.5769124637027943
  0.2322051314708149  0.8836389334385255  0.4211941007715306
  0.1204900962674348  0.0598937210849446  0.9401681548295255
  0.4942645756003368  0.5263495869661742  0.8815483135407288
  0.1778646053688953  0.8015643971706724  0.8233913895025461
  0.4259119620151491  0.9132741891644844  0.3761958606674009
  0.0844350525254799  0.9463793234489216  0.3162000585729795
  0.9132609592423180  0.0241969373917596  0.9260204438143798
  0.9838437699881041  0.1959288480892805  0.7737340293932795
  0.6019193446460813  0.5954723745584640  0.2068526667699940
  0.7296878833218622  0.6658933684698495  0.9560301739977632
  0.3417911135654307  0.0618647640936371  0.4568758308206516
  0.6782494496275608  0.0765978879625609  0.5716940796861126
  0.8621848887779640  0.8593453708341402  0.8278057506359496
  0.5947586375668864  0.9017918221261635  0.1552292691489814
  0.5596148351099210  0.8489535053013634  0.3187575345036029
  0.3611477226441329  0.9078865862235458  0.5495384759350573
  0.4934967720392972  0.8754489291239367  0.9060530643760407
  0.7048032554624105  0.2454712249548041  0.5984516969232074
  0.1543742766739865  0.1419988721523788  0.5751936553365756
  0.9567532426004463  0.1524390328628834  0.3331027898703526
  0.3972212775936433  0.1323823717757452  0.8004159646057193
  0.3064461521683663  0.5351517345862533  0.4842007357324085
  0.0151368206271791  0.6450641526410170  0.3496049895480978
  0.9926597743874106  0.4477106433370818  0.5944517262176411
  0.2929999640056851  0.3706507559839414  0.8718475479915986
  0.0314631611046392  0.5359053224760704  0.0051969431504018
  0.9664694842969713  0.6759101124391536  0.1104216805095473
  0.7014421632040496  0.0208182304324166  0.9573976020938487
  0.6757198041240020  0.2080906284335503  0.4285233542655371
  0.9258895684157515  0.0132126830244430  0.7542472455018193
  0.0039363936259635  0.2118730909753423  0.0377852844739521
  0.6487612106211450  0.3169851021168296  0.9852344501203053
  0.0328711360562643  0.8501036236943929  0.1569935141282070
  0.1264083432587380  0.3278792373851435  0.6502633052705740
  0.2859326278791047  0.6585906656708183  0.3821610360906962
  0.4244560681439983  0.5986559855230050  0.6163891724299119
  0.4490264704843887  0.2416218148106495  0.6409374506689851
  0.3608998557789268  0.6922328782699956  0.0302460246613741
  0.4554020731873288  0.3319286384314836  0.2247487220823275
  0.1486579033400585  0.0900362451688086  0.1218263140212663
  0.9253292805102670  0.9778662265797217  0.3845421694354247
  0.6753664166172323  0.4844294829791941  0.9592235053508940
  0.2126541059467673  0.2026003482211734  0.2244208287405138
  0.1902941449780823  0.4293341824165496  0.3995116697074156
  0.5740747454811953  0.1659961778544830  0.7464754874162257
  0.0050512598722230  0.4795340456458905  0.2401557256337523
  0.6825441969567567  0.2877922185413165  0.8142258662228922
  0.7482705289399408  0.8320915222960950  0.9831977781155637
  0.2644348861601926  0.0353761155443452  0.2878123946084124
  0.8911876008232692  0.2211359510726138  0.4908394351645106
  0.7732214365962528  0.5888409208906928  0.4333038284018105
  0.5066836639537114  0.2575880410575619  0.0853749036307240
  0.0188532589158132  0.4000219456117878  0.7999917386861926
  0.3201485525558080  0.7675175745663485  0.6961713096146681
  0.4209506385168364  0.2978492766263877  0.7682548235221921
  0.1021111608407866  0.6108500727245060  0.8423871106366880
  0.8554324949216250  0.1259930446024022  0.6383354961874812
  0.1206576906999879  0.3604055216394583  0.1117666536044872
  0.5854524188537710  0.6234026406352837  0.4028260091250710
  0.7686391992083855  0.7929407182276266  0.6901979006838592
  0.7738125448815474  0.9452745709316633  0.4735961180774805
  0.0303712398850482  0.8452772625698933  0.9132043795083580
  0.0573190093197891  0.7249673626411912  0.5059468671625219
  0.0839262829871918  0.3073022923953849  0.2841955400018774
  0.6302043295966545  0.3953723540585704  0.6556303079917087
  0.8535640273742354  0.4862201329683451  0.2662695584176044
  0.3261583813425244  0.8260759328615971  0.2454641491739367
  0.0156127230088850  0.4721842905578879  0.4252528853152255
  0.2111780672771174  0.6580262306743009  0.5945315751288128
  0.8165845607085188  0.2955307488660786  0.3049702763104050
  0.5715645335677444  0.4475180535290460  0.3088237310980332
  0.3562465374731595  0.2163622154058778  0.3594213908661255
  0.2559965585254388  0.3022704990331039  0.5075834210439191
  0.2092510664699926  0.9099514592392555  0.1369736251096575
  0.5804664763455447  0.0002339329100967  0.6803229721843876
  0.8314404022165808  0.2955883648143693  0.0052043103988038
  0.3722962588750085  0.4798113744447834  0.7585141499034744
  0.3077430375597874  0.0823531026612951  0.9378486653822514
  0.9651846216879518  0.8118244852455342  0.3746315003629661
  0.5007160825627793  0.8415489234977580  0.7137032451130658
  0.4076026951399234  0.2699276870074990  0.9387936726692917
  0.4903681842920745  0.4713647337541746  0.4718250511688618
  0.0376732183835445  0.8790919250371031  0.7336510994016162
  0.2940874844687863  0.8476464033118084  0.9618707492985964
  0.8588805797890510  0.3276444664548634  0.8138599438314391
  0.6685925902726341  0.9077743740118237  0.8206035939520875
  0.4367542104588941  0.5594961973786333  0.3226468626309514
  0.5519175489077909  0.2943286975474462  0.3916010768229593
  0.4866859216558914  0.6732588633494542  0.7637704786205461
  0.8202481411898884  0.3767259564373867  0.5998321901589148
  0.1255339030348807  0.4039580506421867  0.9435913105380855
  0.2474981370721315  0.2241103809749192  0.7226245765639991
  0.4874881693163943  0.0985197613235117  0.9807755446135422
  0.9351001404274486  0.3340590792921690  0.1638868365493017
 
  0.00000000E+00  0.00000000E+00  0.00000000E+00
  0.00000000E+00  0.00000000E+00  0.00000000E+00
  0.00000000E+00  0.00000000E+00  0.00000000E+00
  0.00000000E+00  0.00000000E+00  0.00000000E+00
  0.00000000E+00  0.00000000E+00  0.00000000E+00
  0.00000000E+00  0.00000000E+00  0.00000000E+00
  0.00000000E+00  0.00000000E+00  0.00000000E+00
  0.00000000E+00  0.00000000E+00  0.00000000E+00
  0.00000000E+00  0.00000000E+00  0.00000000E+00
  0.00000000E+00  0.00000000E+00  0.00000000E+00
  0.00000000E+00  0.00000000E+00  0.00000000E+00
  0.00000000E+00  0.00000000E+00  0.00000000E+00
  0.00000000E+00  0.00000000E+00  0.00000000E+00
  0.00000000E+00  0.00000000E+00  0.00000000E+00
  0.00000000E+00  0.00000000E+00  0.00000000E+00
  0.00000000E+00  0.00000000E+00  0.00000000E+00
  0.00000000E+00  0.00000000E+00  0.00000000E+00
  0.00000000E+00  0.00000000E+00  0.00000000E+00
  0.00000000E+00  0.00000000E+00  0.00000000E+00
  0.00000000E+00  0.00000000E+00  0.00000000E+00
  0.00000000E+00  0.00000000E+00  0.00000000E+00
  0.00000000E+00  0.00000000E+00  0.00000000E+00
  0.00000000E+00  0.00000000E+00  0.00000000E+00
  0.00000000E+00  0.00000000E+00  0.00000000E+00
  0.00000000E+00  0.00000000E+00  0.00000000E+00
  0.00000000E+00  0.00000000E+00  0.00000000E+00
  0.00000000E+00  0.00000000E+00  0.00000000E+00
  0.00000000E+00  0.00000000E+00  0.00000000E+00
  0.00000000E+00  0.00000000E+00  0.00000000E+00
  0.00000000E+00  0.00000000E+00  0.00000000E+00
  0.00000000E+00  0.00000000E+00  0.00000000E+00
  0.00000000E+00  0.00000000E+00  0.00000000E+00
  0.00000000E+00  0.00000000E+00  0.00000000E+00
  0.00000000E+00  0.00000000E+00  0.00000000E+00
  0.00000000E+00  0.00000000E+00  0.00000000E+00
  0.00000000E+00  0.00000000E+00  0.00000000E+00
  0.00000000E+00  0.00000000E+00  0.00000000E+00
  0.00000000E+00  0.00000000E+00  0.00000000E+00
  0.00000000E+00  0.00000000E+00  0.00000000E+00
  0.00000000E+00  0.00000000E+00  0.00000000E+00
  0.00000000E+00  0.00000000E+00  0.00000000E+00
  0.00000000E+00  0.00000000E+00  0.00000000E+00
  0.00000000E+00  0.00000000E+00  0.00000000E+00
  0.00000000E+00  0.00000000E+00  0.00000000E+00
  0.00000000E+00  0.00000000E+00  0.00000000E+00
  0.00000000E+00  0.00000000E+00  0.00000000E+00
  0.00000000E+00  0.00000000E+00  0.00000000E+00
  0.00000000E+00  0.00000000E+00  0.00000000E+00
  0.00000000E+00  0.00000000E+00  0.00000000E+00
  0.00000000E+00  0.00000000E+00  0.00000000E+00
  0.00000000E+00  0.00000000E+00  0.00000000E+00
  0.00000000E+00  0.00000000E+00  0.00000000E+00
  0.00000000E+00  0.00000000E+00  0.00000000E+00
  0.00000000E+00  0.00000000E+00  0.00000000E+00
  0.00000000E+00  0.00000000E+00  0.00000000E+00
  0.00000000E+00  0.00000000E+00  0.00000000E+00
  0.00000000E+00  0.00000000E+00  0.00000000E+00
  0.00000000E+00  0.00000000E+00  0.00000000E+00
  0.00000000E+00  0.00000000E+00  0.00000000E+00
  0.00000000E+00  0.00000000E+00  0.00000000E+00
  0.00000000E+00  0.00000000E+00  0.00000000E+00
  0.00000000E+00  0.00000000E+00  0.00000000E+00
  0.00000000E+00  0.00000000E+00  0.00000000E+00
  0.00000000E+00  0.00000000E+00  0.00000000E+00
  0.00000000E+00  0.00000000E+00  0.00000000E+00
  0.00000000E+00  0.00000000E+00  0.00000000E+00
  0.00000000E+00  0.00000000E+00  0.00000000E+00
  0.00000000E+00  0.00000000E+00  0.00000000E+00
  0.00000000E+00  0.00000000E+00  0.00000000E+00
  0.00000000E+00  0.00000000E+00  0.00000000E+00
  0.00000000E+00  0.00000000E+00  0.00000000E+00
  0.00000000E+00  0.00000000E+00  0.00000000E+00
  0.00000000E+00  0.00000000E+00  0.00000000E+00
  0.00000000E+00  0.00000000E+00  0.00000000E+00
  0.00000000E+00  0.00000000E+00  0.00000000E+00
  0.00000000E+00  0.00000000E+00  0.00000000E+00
  0.00000000E+00  0.00000000E+00  0.00000000E+00
  0.00000000E+00  0.00000000E+00  0.00000000E+00
  0.00000000E+00  0.00000000E+00  0.00000000E+00
  0.00000000E+00  0.00000000E+00  0.00000000E+00
  0.00000000E+00  0.00000000E+00  0.00000000E+00
  0.00000000E+00  0.00000000E+00  0.00000000E+00
  0.00000000E+00  0.00000000E+00  0.00000000E+00
  0.00000000E+00  0.00000000E+00  0.00000000E+00
  0.00000000E+00  0.00000000E+00  0.00000000E+00
  0.00000000E+00  0.00000000E+00  0.00000000E+00
  0.00000000E+00  0.00000000E+00  0.00000000E+00
  0.00000000E+00  0.00000000E+00  0.00000000E+00
  0.00000000E+00  0.00000000E+00  0.00000000E+00
  0.00000000E+00  0.00000000E+00  0.00000000E+00
  0.00000000E+00  0.00000000E+00  0.00000000E+00
  0.00000000E+00  0.00000000E+00  0.00000000E+00
  0.00000000E+00  0.00000000E+00  0.00000000E+00
  0.00000000E+00  0.00000000E+00  0.00000000E+00
  0.00000000E+00  0.00000000E+00  0.00000000E+00
  0.00000000E+00  0.00000000E+00  0.00000000E+00
  0.00000000E+00  0.00000000E+00  0.00000000E+00
  0.00000000E+00  0.00000000E+00  0.00000000E+00
  0.00000000E+00  0.00000000E+00  0.00000000E+00
  0.00000000E+00  0.00000000E+00  0.00000000E+00
  0.00000000E+00  0.00000000E+00  0.00000000E+00
  0.00000000E+00  0.00000000E+00  0.00000000E+00
  0.00000000E+00  0.00000000E+00  0.00000000E+00
  0.00000000E+00  0.00000000E+00  0.00000000E+00
  0.00000000E+00  0.00000000E+00  0.00000000E+00
  0.00000000E+00  0.00000000E+00  0.00000000E+00
  0.00000000E+00  0.00000000E+00  0.00000000E+00
  0.00000000E+00  0.00000000E+00  0.00000000E+00
  0.00000000E+00  0.00000000E+00  0.00000000E+00
  0.00000000E+00  0.00000000E+00  0.00000000E+00
  0.00000000E+00  0.00000000E+00  0.00000000E+00
  0.00000000E+00  0.00000000E+00  0.00000000E+00
  0.00000000E+00  0.00000000E+00  0.00000000E+00
  0.00000000E+00  0.00000000E+00  0.00000000E+00
  0.00000000E+00  0.00000000E+00  0.00000000E+00
  0.00000000E+00  0.00000000E+00  0.00000000E+00
  0.00000000E+00  0.00000000E+00  0.00000000E+00
  0.00000000E+00  0.00000000E+00  0.00000000E+00
  0.00000000E+00  0.00000000E+00  0.00000000E+00
  0.00000000E+00  0.00000000E+00  0.00000000E+00
  0.00000000E+00  0.00000000E+00  0.00000000E+00
  0.00000000E+00  0.00000000E+00  0.00000000E+00
  0.00000000E+00  0.00000000E+00  0.00000000E+00
  0.00000000E+00  0.00000000E+00  0.00000000E+00
  0.00000000E+00  0.00000000E+00  0.00000000E+00
  0.00000000E+00  0.00000000E+00  0.00000000E+00
  0.00000000E+00  0.00000000E+00  0.00000000E+00
  0.00000000E+00  0.00000000E+00  0.00000000E+00
  0.00000000E+00  0.00000000E+00  0.00000000E+00
  0.00000000E+00  0.00000000E+00  0.00000000E+00
  0.00000000E+00  0.00000000E+00  0.00000000E+00
  0.00000000E+00  0.00000000E+00  0.00000000E+00
  0.00000000E+00  0.00000000E+00  0.00000000E+00
  0.00000000E+00  0.00000000E+00  0.00000000E+00
  0.00000000E+00  0.00000000E+00  0.00000000E+00
  0.00000000E+00  0.00000000E+00  0.00000000E+00
  0.00000000E+00  0.00000000E+00  0.00000000E+00
  0.00000000E+00  0.00000000E+00  0.00000000E+00
  0.00000000E+00  0.00000000E+00  0.00000000E+00
  0.00000000E+00  0.00000000E+00  0.00000000E+00
  0.00000000E+00  0.00000000E+00  0.00000000E+00
  0.00000000E+00  0.00000000E+00  0.00000000E+00
  0.00000000E+00  0.00000000E+00  0.00000000E+00
  0.00000000E+00  0.00000000E+00  0.00000000E+00
  0.00000000E+00  0.00000000E+00  0.00000000E+00
  0.00000000E+00  0.00000000E+00  0.00000000E+00
  0.00000000E+00  0.00000000E+00  0.00000000E+00
  0.00000000E+00  0.00000000E+00  0.00000000E+00
  0.00000000E+00  0.00000000E+00  0.00000000E+00
  0.00000000E+00  0.00000000E+00  0.00000000E+00
  0.00000000E+00  0.00000000E+00  0.00000000E+00
  0.00000000E+00  0.00000000E+00  0.00000000E+00
  0.00000000E+00  0.00000000E+00  0.00000000E+00
  0.00000000E+00  0.00000000E+00  0.00000000E+00
  0.00000000E+00  0.00000000E+00  0.00000000E+00
  0.00000000E+00  0.00000000E+00  0.00000000E+00
  0.00000000E+00  0.00000000E+00  0.00000000E+00
  0.00000000E+00  0.00000000E+00  0.00000000E+00
  0.00000000E+00  0.00000000E+00  0.00000000E+00
  0.00000000E+00  0.00000000E+00  0.00000000E+00
  0.00000000E+00  0.00000000E+00  0.00000000E+00
  0.00000000E+00  0.00000000E+00  0.00000000E+00
  0.00000000E+00  0.00000000E+00  0.00000000E+00
  0.00000000E+00  0.00000000E+00  0.00000000E+00
  0.00000000E+00  0.00000000E+00  0.00000000E+00
  0.00000000E+00  0.00000000E+00  0.00000000E+00
  0.00000000E+00  0.00000000E+00  0.00000000E+00
  0.00000000E+00  0.00000000E+00  0.00000000E+00
  0.00000000E+00  0.00000000E+00  0.00000000E+00
  0.00000000E+00  0.00000000E+00  0.00000000E+00
  0.00000000E+00  0.00000000E+00  0.00000000E+00
  0.00000000E+00  0.00000000E+00  0.00000000E+00
  0.00000000E+00  0.00000000E+00  0.00000000E+00
  0.00000000E+00  0.00000000E+00  0.00000000E+00
  0.00000000E+00  0.00000000E+00  0.00000000E+00
  0.00000000E+00  0.00000000E+00  0.00000000E+00
  0.00000000E+00  0.00000000E+00  0.00000000E+00
  0.00000000E+00  0.00000000E+00  0.00000000E+00
  0.00000000E+00  0.00000000E+00  0.00000000E+00
  0.00000000E+00  0.00000000E+00  0.00000000E+00
  0.00000000E+00  0.00000000E+00  0.00000000E+00
  0.00000000E+00  0.00000000E+00  0.00000000E+00
  0.00000000E+00  0.00000000E+00  0.00000000E+00
  0.00000000E+00  0.00000000E+00  0.00000000E+00
  0.00000000E+00  0.00000000E+00  0.00000000E+00
  0.00000000E+00  0.00000000E+00  0.00000000E+00
  0.00000000E+00  0.00000000E+00  0.00000000E+00
  0.00000000E+00  0.00000000E+00  0.00000000E+00
  0.00000000E+00  0.00000000E+00  0.00000000E+00
  0.00000000E+00  0.00000000E+00  0.00000000E+00
  0.00000000E+00  0.00000000E+00  0.00000000E+00
  0.00000000E+00  0.00000000E+00  0.00000000E+00
  0.00000000E+00  0.00000000E+00  0.00000000E+00
  0.00000000E+00  0.00000000E+00  0.00000000E+00
  0.00000000E+00  0.00000000E+00  0.00000000E+00
  0.00000000E+00  0.00000000E+00  0.00000000E+00
  0.00000000E+00  0.00000000E+00  0.00000000E+00
  0.00000000E+00  0.00000000E+00  0.00000000E+00
  0.00000000E+00  0.00000000E+00  0.00000000E+00
  0.00000000E+00  0.00000000E+00  0.00000000E+00
  0.00000000E+00  0.00000000E+00  0.00000000E+00
  0.00000000E+00  0.00000000E+00  0.00000000E+00
  0.00000000E+00  0.00000000E+00  0.00000000E+00
  0.00000000E+00  0.00000000E+00  0.00000000E+00
  0.00000000E+00  0.00000000E+00  0.00000000E+00
  0.00000000E+00  0.00000000E+00  0.00000000E+00
  0.00000000E+00  0.00000000E+00  0.00000000E+00
  0.00000000E+00  0.00000000E+00  0.00000000E+00
  0.00000000E+00  0.00000000E+00  0.00000000E+00
  0.00000000E+00  0.00000000E+00  0.00000000E+00
  0.00000000E+00  0.00000000E+00  0.00000000E+00
  0.00000000E+00  0.00000000E+00  0.00000000E+00
  0.00000000E+00  0.00000000E+00  0.00000000E+00
  0.00000000E+00  0.00000000E+00  0.00000000E+00
  0.00000000E+00  0.00000000E+00  0.00000000E+00
  0.00000000E+00  0.00000000E+00  0.00000000E+00
  0.00000000E+00  0.00000000E+00  0.00000000E+00
  0.00000000E+00  0.00000000E+00  0.00000000E+00
  0.00000000E+00  0.00000000E+00  0.00000000E+00
  0.00000000E+00  0.00000000E+00  0.00000000E+00
  0.00000000E+00  0.00000000E+00  0.00000000E+00
  0.00000000E+00  0.00000000E+00  0.00000000E+00
  0.00000000E+00  0.00000000E+00  0.00000000E+00
  0.00000000E+00  0.00000000E+00  0.00000000E+00
  0.00000000E+00  0.00000000E+00  0.00000000E+00
  0.00000000E+00  0.00000000E+00  0.00000000E+00
  0.00000000E+00  0.00000000E+00  0.00000000E+00
  0.00000000E+00  0.00000000E+00  0.00000000E+00
  0.00000000E+00  0.00000000E+00  0.00000000E+00
  0.00000000E+00  0.00000000E+00  0.00000000E+00
  0.00000000E+00  0.00000000E+00  0.00000000E+00
  0.00000000E+00  0.00000000E+00  0.00000000E+00