Ge13-Sb13-Te32-N3 2x2x2 cubic-NaCl gst22
   1.00000000000000     
    12.4466185708430110    0.1491712945126630   -0.1456793547988361
     0.1455007226415635   12.2351483849940657    0.1201720368698752
    -0.1421130815618745    0.1198167124479109   12.2397359658054956
   Ge   Sb   Te   N 
    13    13    32     3
Direct
  0.2250337998159344  0.2446874222735992  0.5139133506494493
  0.2605720539584786 -0.0259591276264863  0.7598668558569189
  0.2367324347990023  0.7361361024696410  0.0050764762427313
  0.2449587084584203  0.4932631605706940  0.2348471190411904
  0.0100013539468468  0.7652122435440590  0.2588458090857850
 -0.0102182998991091  0.4949192017158812  0.5194064058490685
  0.0011051438373958  0.7413848291317501  0.7596239920239303
  0.4974509789872957 -0.0098341146619204  0.0291465720458140
  0.4920154604450319  0.2386458709647078  0.2391056331788909
  0.7750676277215467 -0.0131128650654137  0.7587686626066047
  0.7311088622389437  0.7431719882920886  0.0002124151836559
  0.7399305685836762  0.5105680074609334  0.2389506538190236
  0.4891389004972425  0.4897332617134423  0.5081674366075780
  0.2259311258588257  0.2353783369742935 -0.0065511306520874
  0.2467597370477740 -0.0134540032935855  0.2522966166577472
 -0.0063888860038948  0.2569114830388401  0.2211647621260023
 -0.0052833630311979  0.0012200601652467  0.5201889638355814
  0.2499901855989848  0.7409879474080310  0.5111824473902339
  0.2423645130351416  0.4760531310152227  0.7459470427143994
  0.7332901721944934  0.2363372321185297 -0.0100854992061732
  0.7534813013942544 -0.0052260077192449  0.2467558363404856
  0.4934645361096253 -0.0209918269322572  0.5357413255006235
  0.7277594570314440  0.2502366138682064  0.5023119491314172
  0.5072518546912631  0.4910462338056560 -0.0145587446085026
  0.7426963161099486  0.7473552428604884  0.5070401435064711
  0.7320890167344259  0.4868452452350497  0.7488356308944888
  0.2593512410019230 -0.0068187364540040 -0.0020970021494553
 -0.0036047370104037  0.2620623403295919 -0.0145597547564092
 -0.0025819143559039  0.0062737664650941  0.2459916913586026
  0.2516903712986004  0.2596375675929564  0.2432949486642163
  0.2439875041058862  0.0067068236028199  0.5081231417742210
  0.0041998005298509  0.2620606454936662  0.4914222490623595
  0.0001475534939405 -0.0078652347944849  0.7576684878617725
  0.2687072866842459  0.2424021124630491  0.7417913774303475
  0.2593733075769269  0.5045482727083451 -0.0037579105751058
  0.0095301741641080  0.7209348314619830  0.0061801435814943
  0.0149277924107238  0.5262251357952946  0.2095748894038381
  0.2538213237461118  0.7503312966478222  0.2425182572445635
  0.2588322432882581  0.4968610581609626  0.4868648361001738
  0.0026673433161910  0.7505735613099692  0.4983041656019268
  0.0041636841148833  0.4981302016970097  0.7425825046205567
  0.2513061006922487  0.7499896212896767  0.7532333028859216
  0.7454748254504376 -0.0039655637813394 -0.0029095550434231
  0.4964822780612453  0.2454578780239939 -0.0045483128379578
  0.4972906130330447  0.0106441719561380  0.2579300273317424
  0.7446511307455078  0.2669472469726187  0.2408533270147015
  0.7424891670900763 -0.0011012349992343  0.5085736859515907
  0.4952799335591417  0.2613520570820325  0.4886286315778119
  0.5015855194368404 -0.0411456745283175  0.7819284539025196
  0.7600977679778057  0.2496612942856201  0.7441751247651663
  0.7555191313573829  0.5072060860667800 -0.0033170979111097
  0.5053265100176491  0.7556153939233778  0.0101526849192150
  0.5117561850377118  0.5578760185409207  0.2242916791826271
  0.7720928002351970  0.7541186244071303  0.2415006953184208
  0.7566420960921220  0.4997548176702714  0.4876919466461612
  0.5019321847261413  0.7530636425726087  0.4839457163142445
  0.5027119661473943  0.5295232327812146  0.7322595528459286
  0.7646531989261600  0.7575580366038117  0.7556309521748666
 -0.0038160399985150  0.5572642149988826  0.0449101608932362
  0.4905513342517820  0.7162906908356562  0.1818335673984443
  0.5464567626334917  0.8103101334906316  0.8331327056254637
 
  0.00000000E+00  0.00000000E+00  0.00000000E+00
  0.00000000E+00  0.00000000E+00  0.00000000E+00
  0.00000000E+00  0.00000000E+00  0.00000000E+00
  0.00000000E+00  0.00000000E+00  0.00000000E+00
  0.00000000E+00  0.00000000E+00  0.00000000E+00
  0.00000000E+00  0.00000000E+00  0.00000000E+00
  0.00000000E+00  0.00000000E+00  0.00000000E+00
  0.00000000E+00  0.00000000E+00  0.00000000E+00
  0.00000000E+00  0.00000000E+00  0.00000000E+00
  0.00000000E+00  0.00000000E+00  0.00000000E+00
  0.00000000E+00  0.00000000E+00  0.00000000E+00
  0.00000000E+00  0.00000000E+00  0.00000000E+00
  0.00000000E+00  0.00000000E+00  0.00000000E+00
  0.00000000E+00  0.00000000E+00  0.00000000E+00
  0.00000000E+00  0.00000000E+00  0.00000000E+00
  0.00000000E+00  0.00000000E+00  0.00000000E+00
  0.00000000E+00  0.00000000E+00  0.00000000E+00
  0.00000000E+00  0.00000000E+00  0.00000000E+00
  0.00000000E+00  0.00000000E+00  0.00000000E+00
  0.00000000E+00  0.00000000E+00  0.00000000E+00
  0.00000000E+00  0.00000000E+00  0.00000000E+00
  0.00000000E+00  0.00000000E+00  0.00000000E+00
  0.00000000E+00  0.00000000E+00  0.00000000E+00
  0.00000000E+00  0.00000000E+00  0.00000000E+00
  0.00000000E+00  0.00000000E+00  0.00000000E+00
  0.00000000E+00  0.00000000E+00  0.00000000E+00
  0.00000000E+00  0.00000000E+00  0.00000000E+00
  0.00000000E+00  0.00000000E+00  0.00000000E+00
  0.00000000E+00  0.00000000E+00  0.00000000E+00
  0.00000000E+00  0.00000000E+00  0.00000000E+00
  0.00000000E+00  0.00000000E+00  0.00000000E+00
  0.00000000E+00  0.00000000E+00  0.00000000E+00
  0.00000000E+00  0.00000000E+00  0.00000000E+00
  0.00000000E+00  0.00000000E+00  0.00000000E+00
  0.00000000E+00  0.00000000E+00  0.00000000E+00
  0.00000000E+00  0.00000000E+00  0.00000000E+00
  0.00000000E+00  0.00000000E+00  0.00000000E+00
  0.00000000E+00  0.00000000E+00  0.00000000E+00
  0.00000000E+00  0.00000000E+00  0.00000000E+00
  0.00000000E+00  0.00000000E+00  0.00000000E+00
  0.00000000E+00  0.00000000E+00  0.00000000E+00
  0.00000000E+00  0.00000000E+00  0.00000000E+00
  0.00000000E+00  0.00000000E+00  0.00000000E+00
  0.00000000E+00  0.00000000E+00  0.00000000E+00
  0.00000000E+00  0.00000000E+00  0.00000000E+00
  0.00000000E+00  0.00000000E+00  0.00000000E+00
  0.00000000E+00  0.00000000E+00  0.00000000E+00
  0.00000000E+00  0.00000000E+00  0.00000000E+00
  0.00000000E+00  0.00000000E+00  0.00000000E+00
  0.00000000E+00  0.00000000E+00  0.00000000E+00
  0.00000000E+00  0.00000000E+00  0.00000000E+00
  0.00000000E+00  0.00000000E+00  0.00000000E+00
  0.00000000E+00  0.00000000E+00  0.00000000E+00
  0.00000000E+00  0.00000000E+00  0.00000000E+00
  0.00000000E+00  0.00000000E+00  0.00000000E+00
  0.00000000E+00  0.00000000E+00  0.00000000E+00
  0.00000000E+00  0.00000000E+00  0.00000000E+00
  0.00000000E+00  0.00000000E+00  0.00000000E+00
  0.00000000E+00  0.00000000E+00  0.00000000E+00
  0.00000000E+00  0.00000000E+00  0.00000000E+00
  0.00000000E+00  0.00000000E+00  0.00000000E+00
