Ge Se                                   
   1.00000000000000     
    20.8706398010253906    0.0000000000000000    0.0000000000000000
     0.0000000000000000   20.8706398010253906    0.0000000000000000
     0.0000000000000000    0.0000000000000000   20.8706398010253906
   Ge   Se
   150   150
Direct
  0.1043017535579052  0.8328850565810592  0.9338481726055661
  0.2715435038119820  0.2842570068567473  0.6558746448152748
  0.8195534961752441  0.5443343894072583  0.1077633135917461
  0.2607759992597888  0.6143380492876493  0.0409717326201222
  0.2754064850190697  0.0994989481500859  0.6740018556775105
  0.1265769584684142  0.5140660106266295  0.1519284615579391
  0.3183717355047462  0.4171419126409616  0.1929784159875925
  0.8205520573036302  0.4549189658860662  0.3584871728671146
  0.5643185966011992  0.4662692078644625  0.7071484524091164
  0.9136913799283851  0.8390082894068920  0.6515688666280303
  0.1437247372692690  0.6876671115513331  0.7516811627889828
  0.9495572011057797  0.5711158470897649  0.0499951689720268
  0.0977953531141743  0.2591781916286478  0.7480314809758388
  0.7450061641087870  0.3869676890134495  0.0311017441353919
  0.9412735944220408  0.6731402562267098  0.3178138888425945
  0.4883297862557321  0.1593070344858686  0.8967497673566346
  0.9723554846671437  0.9726328349117976  0.1549992998447996
  0.6892593973800731  0.5390816628448251  0.2813656669978868
 -0.0073156524699809  0.9687242453112858  0.5102847154358522
  0.9869436000322472  0.7805883389839997  0.1777272698802470
  0.3310265894504050  0.6716927788901398  0.8713916646433931
  0.6103641657639698  0.0256949807570815  0.7579096238585930
  0.7132057457156992  0.2798347774493004  0.5803407573122898
  0.0517841853579263  0.2747039372580203  0.4241526645151630
  0.5986549189710769  0.0277729190456705  0.9205884788844297
  0.9832883726339521  0.3738518528294025  0.7611737640168198
  0.1378990968553630  0.4929978128009333  0.0326698219986815
  0.3571857022673233  0.2238744131892171  0.8587213860468942
  0.0311761116642223  0.3269871935997991  0.6068920611143204
  0.7110108227528047  0.9739028646606844  0.2520048254584256
  0.1543007111603111 -0.0029170692827215  0.5411196784368542
  0.5175158738784620  0.8640815594095748  0.7943607472567540
  0.3473854921046012  0.6713251355472372  0.2973145607181972
  0.7997666244305742  0.7926521248579995  0.8546751610699362
  0.0170474748708950  0.0252435363449749  0.9814851190045478
  0.0085408051775164  0.9431779263646003  0.8186012336096904
  0.5424535189413138  0.5092525442076967  0.8509435609446463
  0.2173208895669781  0.2464797349774339  0.7619571408783326
  0.6547545019677732  0.7611109417413457  0.9270895156043719
  0.4811294214962027  0.3192899831090991  0.6312641151923463
  0.2481785133261868  0.5576682868210705  0.5884546712302674
  0.8457742823851808  0.2737701351350905  0.8940107714441942
  0.3353783826412455  0.1115458919710386  0.8095665817604470
  0.0317251582774704  0.4571687374927313  0.4460545510824313
  0.5179827253550475  0.6049174324771075  0.3410858461132243
  0.9168355017007206  0.3467013960004863  0.3706874844821895
  0.2762209337420852  0.3808514976165168  0.0420370400548342
  0.6236407061344797  0.5055702169181189  0.0833879531376539
  0.4127621178709599  0.7333198296048092  0.7187960655481868
  0.7023073996336895  0.8598612810500789  0.4340822255631367
  0.7279112364474173  0.9853402418807458  0.8445625952743806
  0.6068251054492706  0.5986619294213151  0.6243456047348455
  0.9951848152781703  0.3980349163331716  0.0829772796770611
  0.0326650375888212  0.2009701424990354  0.6565674442685905
  0.5304460471013520  0.7915957894152723  0.3781170700957620
  0.8813297642006107  0.5958021988102206  0.9124255858368359
  0.7400045048906253  0.7026979390431489  0.4962592190705499
  0.4195465198791243  0.0150409521416989  0.7101600688289275
  0.2945334406772043  0.5375022407250708  0.2050078635342574
  0.8080706896775499  0.1232854252556792  0.1736550255309426
  0.8131897514712971  0.2524898234330706  0.3146514917252012
  0.8208169573648042  0.9934625432500821  0.5247911678336157
  0.6324961548623107  0.8934774432394266  0.8431259885930205
  0.0683989979718866  0.9314748991244534  0.4197857876821476
  0.5988423445980121  0.6548702325347996  0.9422036840945535
  0.9323183007659895  0.1815356641281812  0.8980560070589307
  0.0600364679090485  0.6783382122972078  0.9292576995753441
  0.3779235692794405  0.6247299425000613  0.4549455578929323
  0.1206055101682496  0.5444167752965541  0.8392168551782079
  0.1661698164725763  0.4947741553280076  0.4630222322076840
  0.8760444616430452  0.3087769212265067  0.6025408929983777
  0.3146042083086647  0.7062856515997420  0.1838723108742268
  0.6129940432434295  0.0066453255645018  0.5556181204838949
  0.1636770239740404  0.6150350723335448  0.3311989049221097
  0.7994984362355384  0.2729388208339479  0.7428488275605319
  0.5703994167948658  0.4226250609119780  0.0034486230343273
  0.8247386056944764  0.7496147301252291  0.1300424411614212
  0.6874431508803758  0.1213687484579598  0.5916786809289905
  0.9508284777052542  0.1785661180821103  0.0793671063924987
  0.5581803910811466  0.6787441380238152  0.4834770173529010
  0.8613280889089916  0.9892189620246110  0.7350886347618113
  0.7614979748258527  0.5319435058498644  0.8341138664859484
  0.9560022406777555  0.0823928724896979  0.5523270348327048
  0.8401609467296521  0.9114395530375502  0.1867626336844528
  0.3119405545867205  0.9233517775628879  0.5921649045663796
  0.4706103856804773  0.3584290602976785  0.4208800523659929
  0.7809844724303838  0.6876515153995569  0.6185566507452932
  0.3297466033914463  0.5037205204055074  0.3952836183562537
  0.4850825563402718  0.6432816212792155  0.9798770836246574
  0.5814100184026010  0.2009481627951974  0.5133820254891097
  0.1067165928062521  0.0753226429876827  0.1220083901498330
  0.0532102338778259  0.1046206941296220  0.3942276998334507
  0.4835953986668591  0.1794346005175967  0.2394585869249060
  0.8543131893865048  0.5930133653852506  0.2795720995490875
  0.7201143364677101  0.1258556400897532  0.8804557001164781
  0.9028667925792878  0.1149669903057822  0.2523365802971099
  0.2887359377997877  0.0035865623640965  0.1137662310380518
  0.7658824160792217  0.1911321203684366  0.0342331608078977
  0.0021107775133863  0.0693376266868904  0.8433254056418612
  0.3824223880608504  0.5660458015850031  0.6334504364579484
  0.3287136760354739  0.8749047660277589  0.8546736561873631
  0.6016071480231407  0.4033500040867746  0.2217538396076776
  0.9053900533455845  0.1194409852165034  0.6919919500403876
  0.9352817469473574  0.7690561845813445  0.3959104085029021
  0.2340211977593095  0.9057107744850181  0.6897483128057447
  0.4513060629411805  0.0152693624886334  0.4827117332320998
  0.0428923137929387  0.8258975492228512  0.6806763845379504
  0.6587713450985209  0.6144008632685554  0.0402080197409522
  0.1440210100750632  0.7392129481964625  0.8638200545537104
  0.9479833259804691  0.0555112044600793  0.3508904395740958
  0.7093960291707797  0.4121674346917365  0.2838443271786970
  0.1164831452128810  0.3815411037785135  0.8755331000384633
  0.0853505721320905  0.6235105975206453  0.5747998583688265
  0.2435561117307684  0.2717016830852542  0.9706426778439367
  0.8854586957365599  0.3277198232555913  0.9928403582914188
  0.4146789588961589  0.3808329950866859  0.2631387432284278
  0.7146079595272342  0.2314618086190310  0.1778783253645346
  0.5759100555269636  0.3248522009664881  0.8510998684827283
  0.1561383358155524  0.0788418447743642  0.2714118487410531
  0.0293314978410102  0.6777529336207385  0.4757679353707112
  0.1309888658660536  0.8412393866886652  0.4802027644961320
  0.8913235084591022  0.6321675074203909  0.7560599653112162
  0.5560662597333096  0.4022164420995524  0.3357416474734030
  0.4948281808230095  0.3996470346694963  0.5380475260928133
  0.4977792407300426  0.2359034794052330  0.4269847606932988
  0.7378130031888003  0.5595841558977742  0.7132250739231651
  0.6849642094406321  0.4182465702880451  0.4641666934737325
  0.3377485339451421  0.0529089754851809  0.2935566193703283
  0.2662943692675163  0.1351030394637549  0.9653059587170162
  0.1936155966673536  0.5190922610525300  0.7400496519867638
  0.8800684250129965  0.8827340142138762  0.3686178578003750
  0.4580736441698983  0.2687853359281199  0.8024898697695644
  0.4360547782320661  0.2947443757856648  0.1050685801415873
  0.2150142810328298  0.4037864698994484  0.6234075095117851
  0.5576641889799192  0.3220640989414687  0.1422778614167293
  0.4408277020984253  0.0219004361747761  0.8747995463054421
  0.4984911426932799  0.8391495692171532  0.5948633243548032
  0.7536512934771777  0.8749511367802002  0.0160334517987853
  0.4702873609363504  0.3399238317652292  0.9763457024708074
  0.6868060651539368  0.7862351816588861  0.2726698235330361
  0.3343461488620522  0.9100530427117108  0.2256571443796321
  0.5631035270534204  0.7580746001043589  0.0927799901730082
  0.9111456888426008  0.5710888341690200  0.4768397668109429
  0.2865332338720336  0.8476037767573337  0.9760112205519790
  0.9391617935854236  0.7724089863541163  0.9940558419940698
  0.5380074034887324  0.1702506717040098  0.7044602185331202
  0.8129223317658304  0.2234505883962423  0.4480423214128013
  0.2196976074605126  0.6335409178719296  0.2220211145147750
  0.3385259644928462  0.7456909518082350  0.6170858882430872
  0.9853122863795051  0.9382484863566442  0.3336251029392386
  0.8856999236195575  0.5201880129014440  0.8116260662922007
  0.2707080411516709  0.4560736518261884  0.5212042487534930
  0.4561347784786942  0.8969029018216248  0.6977353756009377
  0.7455567259494713  0.9518946966007168  0.7255079635865342
  0.8341600628400467  0.7613298236456335  0.6945599074243167
  0.8003575202947708  0.9084237126448690  0.9043574724972200
  0.7345293237508076  0.2453328044193201  0.9260953592012664
  0.9275065261936640  0.2438312163124010  0.7084293717047851
  0.4379578520751286  0.0984372514268834  0.3414983293013734
  0.0442107184265169  0.2849071186649683  0.8498103575673657
  0.3853129886756886  0.4101273604302624  0.0924227853327875
  0.4709191738031718  0.5326621372061251  0.9489039007028882
  0.4951895877170536  0.0644036734227244  0.9773936382612360
  0.8699754495026332  0.1325632229621144  0.9927455743004318
  0.7631856971392288  0.0176243282528691  0.1493411261759104
  0.6207541865891147  0.6027446062664611  0.8434478684557618
  0.9037479170745228  0.4460157965015094  0.4535333400853341
  0.6031948451840883  0.5094386057212587  0.3684615581335324
  0.3789319975709458  0.5532479223627764  0.2895849989738309
  0.4160774382477496  0.7138352131535066  0.3816550185710195
  0.0082135478293992  0.0757736963894881  0.2124187481314747
  0.2365175380915868  0.1880283393545700  0.6013962573866365
  0.8926138600779377  0.9002170598195112  0.4914313580300825
  0.2229259871046569  0.3680075206551313  0.1448034191175361
  0.4436829924612525  0.8964146412469869  0.8876247090941427
  0.0712605189307373  0.9662603034906734  0.0776117876512384
  0.0969555482788223  0.3688016260105434  0.7014355312684470
  0.0269926057879067  0.6874634715513649  0.2427836432796406
  0.7408912160817580  0.1581489857756328  0.2722048956918623
  0.1038195202978510  0.1821063650523896  0.3265097698773275
  0.0677213735498767  0.8954821890771886  0.5766268045355796
  0.3284022585412193  0.9504185293359972  0.3403980930013132
  0.9854145565909501  0.2740347897674829  0.0115147426146426
  0.6807670628172416  0.7826398330077451  0.8144408273091689
  0.6035983395844825  0.6907605235148079  0.3697160950522111
  0.6571739763490488  0.6126013732323019  0.5143835307287062
  0.8802254883323226  0.7901809664250194  0.2342307524688214
  0.7180742252515134  0.9721084627826981  0.4607252838198319
  0.6272880673821251  0.8699822406493894  0.3452815376643740
  0.0966053241161230  0.8838809780894875  0.7670408097212236
  0.6879186712611810  0.6670570231373593  0.6922614491200669
  0.3911069440393548  0.3064898864772782  0.7070618620222244
  0.4015265123825081  0.1663696992142316  0.4257334551305626
  0.9446688581879165  0.4050346115253252  0.6306700222750112
  0.2177440467132788  0.1317880428065908  0.7865510199158093
  0.0543376878474163  0.5696018087737981  0.9752557877188881
  0.2506585026563801  0.4964067001944251 -0.0041564773333463
  0.2339982934989007  0.7208890693550783  0.9339433950617497
  0.1394301473748536  0.0232743374770510  0.3898496604334156
  0.5693615242592647  0.3447264658765435  0.7039192023341250
  0.0577759179058079  0.6120570379227015  0.7611766716221515
  0.0901290709844445  0.3644090231384988  0.5110886088970913
  0.0025516114650492  0.8877967133767266  0.9251209208683070
  0.8228534695537643  0.9714022320578986  0.3097960027522035
  0.9198743340461333  0.7175917367438203  0.5018078409500499
  0.1820762484244632  0.6126589659109335  0.4975677375444950
  0.7787225812256786  0.3343290718141828  0.2297058995315708
  0.8537883350007868  0.1373780531097958  0.8092161030685096
  0.8358862337886874  0.5831258607514936  0.6497461071363652
  0.5942611678949388  0.1247521564813426  0.8361032322377268
  0.2420779426128579  0.6302754842247796  0.7380453695400486
  0.9292234321842529  0.6903099254237314  0.0869083980377736
  0.0042146343187556  0.5359686412383674  0.5486387572057835
  0.1355024184998363  0.7550161472078354  0.6580122574695911
  0.7898797533950257  0.8034624077906969  0.3831394567000604
  0.5393633013107718  0.0546048033351399  0.6645076088798915
  0.9526541914870903  0.6948857664951422  0.8851289271147806
  0.7844690942322295  0.6269100091873543  0.1928749427181063
  0.6024202680168259  0.3543108947483359  0.5293682810761222
  0.4897471334838723  0.5737855588425361  0.4561195394340758
  0.5084232861851721  0.6492345957371225  0.0925793147135218
  0.3853330509456567  0.8357465718410045  0.5486910982470605
  0.7676526146671087  0.5862367579676180  0.0085024506804102
  0.7918892296182136  0.1811494853213962  0.5770009879793592
  0.2542884395077975  0.6847328596149912  0.3657448032688430
  0.8352362218202291  0.3589202356234674  0.8162059839352721
  0.1865688194498270  0.0135355859356882  0.6584359775638224
  0.9187914520771031  0.2298133693820301  0.2651120279455492
  0.7192489337662603  0.8691472588318826  0.1876017890754864
  0.7968469208827956  0.6502052702845972  0.8378188081739089
  0.0516790719490944  0.1373938808807304  0.5070460125614558
  0.8904156532520197  0.4844390367494216  0.2652540572708219
  0.3833178117428395  0.0232937485965026  0.1868142789229057
  0.6732597355298267  0.7063818539071641  0.1091377655266009
  0.2861924265359825  0.4536208215595486  0.7092128676607328
  0.1605903741429492  0.6269036701299723  0.1185050269118703
  0.6308415187622149  0.4298894837676236  0.9018094445634365
  0.0332674087512059  0.4611494843855724  0.8425826320598888
  0.1422519095922996  0.5115587385124457  0.6325209120169929
  0.6692541811379924  0.4933158371295083  0.6410430344818930
  0.7744633722376940  0.3538257325389327  0.6595168080655426
  0.0562074289595334  0.1368724088905308  0.0306350137833893
  0.0974233620501965  0.3882853933289975  0.0026595585791422
  0.6034176672645685  0.8605695197965837  0.9552505052858761
  0.3799933893641529  0.0228350379135295  0.5924994000347795
 -0.0022292817947253  0.5952825332757474  0.3903238488778800
  0.2582906083412066  0.1317611597340202  0.3065271578323189
  0.5745086001851154  0.7482142507414192  0.2147494863523484
  0.0062161513020584  0.5157592490507377  0.1417776871721051
  0.8642637178565103  0.8595919712987655  0.0678851595220136
  0.4145760960794980  0.6165612437719110  0.7372578794946424
  0.3515048658782944  0.6036976861679689  0.1228317590385884
  0.7271326554007582  0.4602172774859436  0.1285130480180598
  0.5300432906666827  0.9235389972619865  0.5115652058123217
  0.6370205020728945  0.3310010616415771  0.0495638581932752
  0.3458782957707707  0.9349827586474050  0.0439983023346165
  0.3068463923689335  0.9581406701965692  0.7689124970542444
  0.2455543976696557  0.9346982268915557  0.4961798487879965
  0.7116434717422485  0.0754218924020307  0.7081491074116124
  0.0316631037270709  0.9005788123931732  0.2354864118861469
  0.9080085075474800  0.8825355343344489  0.7668394321156222
  0.2672226791615657  0.3071160368363850  0.8546674837951318
  0.9077172890722861  0.4400964592039655  0.0092582381532578
  0.3982458570884082  0.7170626876262118  0.9628820943449489
  0.3960108286615420  0.2690678349420049  0.2188059932976651
  0.7775436036528722  0.3353610276075608  0.4900915796565407
  0.6574321993395392  0.3462057645037256  0.3697053128591106
  0.3235243246601826  0.0436863094627342  0.9096777097701579
  0.5484508335949509  0.2471457473379097  0.9554607895365810
  0.8501449525678209  0.0281208566177644  0.8510905744806797
  0.4639148073678762  0.3778992314544549  0.8607695567370479
  0.3244546901138644  0.7697412263386884  0.7945296431872908
  0.5131443559014438  0.7496774822685651  0.7769476257094234
  0.8821542914412241  0.0769788333194083  0.4532109133208932
  0.5905313498370051  0.2136125902231348  0.1680889427813353
  0.2218873799594587  0.9538502347516630  0.1902299835879984
  0.2386374917677158  0.1018023916051883  0.0784645277067726
  0.0309268053805311  0.3638096870473012  0.3442318400308079
  0.9282574904128105  0.2671436486643485  0.4619898475689301
  0.2165555705932240  0.4992314666324178  0.3498742585122506
  0.1842796936388247  0.9060245214733251  0.9707886886634625
  0.6882303882855970  0.0736239234581061  0.9840932807462536
  0.3584078279367829  0.2219042053643693  0.9802680361494041
  0.7633841062927338  0.7586617545083045  0.9721436633023696
  0.8165897091958035  0.2978439373623254  0.0827366456876650
  0.3632321146452847  0.3737181859582733  0.3731189980726586
  0.4142537272722617  0.6671279714521358  0.5661159505537188
  0.5567981966569651  0.0817446985276344  0.4788575825952346
  0.5480536766039090  0.2325544535111191  0.3235496660426398
  0.0661214071665232  0.7578666529606368  0.0193378637435814
  0.0575914018976270  0.7698230946602777  0.4045892288014302
  0.4923768269936871  0.8113178620448752  0.2653346798333819
  0.1037658418129819  0.0363386288096563  0.8951056997491734
  0.7759717018478174  0.5734174658641601  0.3672428204261057
  0.4997798703437066  0.4957035560084673  0.6067717923118039
  0.6665076441520288  0.7961239860084168  0.5231893688057297
  0.0205578820387911  0.0887200865694291  0.7242966820147828
  0.4903435122350649  0.2065807151864535  0.5946679035060266
  0.5621762040618035  0.5068159577516864  0.1824175167006556
  0.6574903431063290  0.1918771272729752  0.6854643600865624
 
  0.00000000E+00  0.00000000E+00  0.00000000E+00
  0.00000000E+00  0.00000000E+00  0.00000000E+00
  0.00000000E+00  0.00000000E+00  0.00000000E+00
  0.00000000E+00  0.00000000E+00  0.00000000E+00
  0.00000000E+00  0.00000000E+00  0.00000000E+00
  0.00000000E+00  0.00000000E+00  0.00000000E+00
  0.00000000E+00  0.00000000E+00  0.00000000E+00
  0.00000000E+00  0.00000000E+00  0.00000000E+00
  0.00000000E+00  0.00000000E+00  0.00000000E+00
  0.00000000E+00  0.00000000E+00  0.00000000E+00
  0.00000000E+00  0.00000000E+00  0.00000000E+00
  0.00000000E+00  0.00000000E+00  0.00000000E+00
  0.00000000E+00  0.00000000E+00  0.00000000E+00
  0.00000000E+00  0.00000000E+00  0.00000000E+00
  0.00000000E+00  0.00000000E+00  0.00000000E+00
  0.00000000E+00  0.00000000E+00  0.00000000E+00
  0.00000000E+00  0.00000000E+00  0.00000000E+00
  0.00000000E+00  0.00000000E+00  0.00000000E+00
  0.00000000E+00  0.00000000E+00  0.00000000E+00
  0.00000000E+00  0.00000000E+00  0.00000000E+00
  0.00000000E+00  0.00000000E+00  0.00000000E+00
  0.00000000E+00  0.00000000E+00  0.00000000E+00
  0.00000000E+00  0.00000000E+00  0.00000000E+00
  0.00000000E+00  0.00000000E+00  0.00000000E+00
  0.00000000E+00  0.00000000E+00  0.00000000E+00
  0.00000000E+00  0.00000000E+00  0.00000000E+00
  0.00000000E+00  0.00000000E+00  0.00000000E+00
  0.00000000E+00  0.00000000E+00  0.00000000E+00
  0.00000000E+00  0.00000000E+00  0.00000000E+00
  0.00000000E+00  0.00000000E+00  0.00000000E+00
  0.00000000E+00  0.00000000E+00  0.00000000E+00
  0.00000000E+00  0.00000000E+00  0.00000000E+00
  0.00000000E+00  0.00000000E+00  0.00000000E+00
  0.00000000E+00  0.00000000E+00  0.00000000E+00
  0.00000000E+00  0.00000000E+00  0.00000000E+00
  0.00000000E+00  0.00000000E+00  0.00000000E+00
  0.00000000E+00  0.00000000E+00  0.00000000E+00
  0.00000000E+00  0.00000000E+00  0.00000000E+00
  0.00000000E+00  0.00000000E+00  0.00000000E+00
  0.00000000E+00  0.00000000E+00  0.00000000E+00
  0.00000000E+00  0.00000000E+00  0.00000000E+00
  0.00000000E+00  0.00000000E+00  0.00000000E+00
  0.00000000E+00  0.00000000E+00  0.00000000E+00
  0.00000000E+00  0.00000000E+00  0.00000000E+00
  0.00000000E+00  0.00000000E+00  0.00000000E+00
  0.00000000E+00  0.00000000E+00  0.00000000E+00
  0.00000000E+00  0.00000000E+00  0.00000000E+00
  0.00000000E+00  0.00000000E+00  0.00000000E+00
  0.00000000E+00  0.00000000E+00  0.00000000E+00
  0.00000000E+00  0.00000000E+00  0.00000000E+00
  0.00000000E+00  0.00000000E+00  0.00000000E+00
  0.00000000E+00  0.00000000E+00  0.00000000E+00
  0.00000000E+00  0.00000000E+00  0.00000000E+00
  0.00000000E+00  0.00000000E+00  0.00000000E+00
  0.00000000E+00  0.00000000E+00  0.00000000E+00
  0.00000000E+00  0.00000000E+00  0.00000000E+00
  0.00000000E+00  0.00000000E+00  0.00000000E+00
  0.00000000E+00  0.00000000E+00  0.00000000E+00
  0.00000000E+00  0.00000000E+00  0.00000000E+00
  0.00000000E+00  0.00000000E+00  0.00000000E+00
  0.00000000E+00  0.00000000E+00  0.00000000E+00
  0.00000000E+00  0.00000000E+00  0.00000000E+00
  0.00000000E+00  0.00000000E+00  0.00000000E+00
  0.00000000E+00  0.00000000E+00  0.00000000E+00
  0.00000000E+00  0.00000000E+00  0.00000000E+00
  0.00000000E+00  0.00000000E+00  0.00000000E+00
  0.00000000E+00  0.00000000E+00  0.00000000E+00
  0.00000000E+00  0.00000000E+00  0.00000000E+00
  0.00000000E+00  0.00000000E+00  0.00000000E+00
  0.00000000E+00  0.00000000E+00  0.00000000E+00
  0.00000000E+00  0.00000000E+00  0.00000000E+00
  0.00000000E+00  0.00000000E+00  0.00000000E+00
  0.00000000E+00  0.00000000E+00  0.00000000E+00
  0.00000000E+00  0.00000000E+00  0.00000000E+00
  0.00000000E+00  0.00000000E+00  0.00000000E+00
  0.00000000E+00  0.00000000E+00  0.00000000E+00
  0.00000000E+00  0.00000000E+00  0.00000000E+00
  0.00000000E+00  0.00000000E+00  0.00000000E+00
  0.00000000E+00  0.00000000E+00  0.00000000E+00
  0.00000000E+00  0.00000000E+00  0.00000000E+00
  0.00000000E+00  0.00000000E+00  0.00000000E+00
  0.00000000E+00  0.00000000E+00  0.00000000E+00
  0.00000000E+00  0.00000000E+00  0.00000000E+00
  0.00000000E+00  0.00000000E+00  0.00000000E+00
  0.00000000E+00  0.00000000E+00  0.00000000E+00
  0.00000000E+00  0.00000000E+00  0.00000000E+00
  0.00000000E+00  0.00000000E+00  0.00000000E+00
  0.00000000E+00  0.00000000E+00  0.00000000E+00
  0.00000000E+00  0.00000000E+00  0.00000000E+00
  0.00000000E+00  0.00000000E+00  0.00000000E+00
  0.00000000E+00  0.00000000E+00  0.00000000E+00
  0.00000000E+00  0.00000000E+00  0.00000000E+00
  0.00000000E+00  0.00000000E+00  0.00000000E+00
  0.00000000E+00  0.00000000E+00  0.00000000E+00
  0.00000000E+00  0.00000000E+00  0.00000000E+00
  0.00000000E+00  0.00000000E+00  0.00000000E+00
  0.00000000E+00  0.00000000E+00  0.00000000E+00
  0.00000000E+00  0.00000000E+00  0.00000000E+00
  0.00000000E+00  0.00000000E+00  0.00000000E+00
  0.00000000E+00  0.00000000E+00  0.00000000E+00
  0.00000000E+00  0.00000000E+00  0.00000000E+00
  0.00000000E+00  0.00000000E+00  0.00000000E+00
  0.00000000E+00  0.00000000E+00  0.00000000E+00
  0.00000000E+00  0.00000000E+00  0.00000000E+00
  0.00000000E+00  0.00000000E+00  0.00000000E+00
  0.00000000E+00  0.00000000E+00  0.00000000E+00
  0.00000000E+00  0.00000000E+00  0.00000000E+00
  0.00000000E+00  0.00000000E+00  0.00000000E+00
  0.00000000E+00  0.00000000E+00  0.00000000E+00
  0.00000000E+00  0.00000000E+00  0.00000000E+00
  0.00000000E+00  0.00000000E+00  0.00000000E+00
  0.00000000E+00  0.00000000E+00  0.00000000E+00
  0.00000000E+00  0.00000000E+00  0.00000000E+00
  0.00000000E+00  0.00000000E+00  0.00000000E+00
  0.00000000E+00  0.00000000E+00  0.00000000E+00
  0.00000000E+00  0.00000000E+00  0.00000000E+00
  0.00000000E+00  0.00000000E+00  0.00000000E+00
  0.00000000E+00  0.00000000E+00  0.00000000E+00
  0.00000000E+00  0.00000000E+00  0.00000000E+00
  0.00000000E+00  0.00000000E+00  0.00000000E+00
  0.00000000E+00  0.00000000E+00  0.00000000E+00
  0.00000000E+00  0.00000000E+00  0.00000000E+00
  0.00000000E+00  0.00000000E+00  0.00000000E+00
  0.00000000E+00  0.00000000E+00  0.00000000E+00
  0.00000000E+00  0.00000000E+00  0.00000000E+00
  0.00000000E+00  0.00000000E+00  0.00000000E+00
  0.00000000E+00  0.00000000E+00  0.00000000E+00
  0.00000000E+00  0.00000000E+00  0.00000000E+00
  0.00000000E+00  0.00000000E+00  0.00000000E+00
  0.00000000E+00  0.00000000E+00  0.00000000E+00
  0.00000000E+00  0.00000000E+00  0.00000000E+00
  0.00000000E+00  0.00000000E+00  0.00000000E+00
  0.00000000E+00  0.00000000E+00  0.00000000E+00
  0.00000000E+00  0.00000000E+00  0.00000000E+00
  0.00000000E+00  0.00000000E+00  0.00000000E+00
  0.00000000E+00  0.00000000E+00  0.00000000E+00
  0.00000000E+00  0.00000000E+00  0.00000000E+00
  0.00000000E+00  0.00000000E+00  0.00000000E+00
  0.00000000E+00  0.00000000E+00  0.00000000E+00
  0.00000000E+00  0.00000000E+00  0.00000000E+00
  0.00000000E+00  0.00000000E+00  0.00000000E+00
  0.00000000E+00  0.00000000E+00  0.00000000E+00
  0.00000000E+00  0.00000000E+00  0.00000000E+00
  0.00000000E+00  0.00000000E+00  0.00000000E+00
  0.00000000E+00  0.00000000E+00  0.00000000E+00
  0.00000000E+00  0.00000000E+00  0.00000000E+00
  0.00000000E+00  0.00000000E+00  0.00000000E+00
  0.00000000E+00  0.00000000E+00  0.00000000E+00
  0.00000000E+00  0.00000000E+00  0.00000000E+00
  0.00000000E+00  0.00000000E+00  0.00000000E+00
  0.00000000E+00  0.00000000E+00  0.00000000E+00
  0.00000000E+00  0.00000000E+00  0.00000000E+00
  0.00000000E+00  0.00000000E+00  0.00000000E+00
  0.00000000E+00  0.00000000E+00  0.00000000E+00
  0.00000000E+00  0.00000000E+00  0.00000000E+00
  0.00000000E+00  0.00000000E+00  0.00000000E+00
  0.00000000E+00  0.00000000E+00  0.00000000E+00
  0.00000000E+00  0.00000000E+00  0.00000000E+00
  0.00000000E+00  0.00000000E+00  0.00000000E+00
  0.00000000E+00  0.00000000E+00  0.00000000E+00
  0.00000000E+00  0.00000000E+00  0.00000000E+00
  0.00000000E+00  0.00000000E+00  0.00000000E+00
  0.00000000E+00  0.00000000E+00  0.00000000E+00
  0.00000000E+00  0.00000000E+00  0.00000000E+00
  0.00000000E+00  0.00000000E+00  0.00000000E+00
  0.00000000E+00  0.00000000E+00  0.00000000E+00
  0.00000000E+00  0.00000000E+00  0.00000000E+00
  0.00000000E+00  0.00000000E+00  0.00000000E+00
  0.00000000E+00  0.00000000E+00  0.00000000E+00
  0.00000000E+00  0.00000000E+00  0.00000000E+00
  0.00000000E+00  0.00000000E+00  0.00000000E+00
  0.00000000E+00  0.00000000E+00  0.00000000E+00
  0.00000000E+00  0.00000000E+00  0.00000000E+00
  0.00000000E+00  0.00000000E+00  0.00000000E+00
  0.00000000E+00  0.00000000E+00  0.00000000E+00
  0.00000000E+00  0.00000000E+00  0.00000000E+00
  0.00000000E+00  0.00000000E+00  0.00000000E+00
  0.00000000E+00  0.00000000E+00  0.00000000E+00
  0.00000000E+00  0.00000000E+00  0.00000000E+00
  0.00000000E+00  0.00000000E+00  0.00000000E+00
  0.00000000E+00  0.00000000E+00  0.00000000E+00
  0.00000000E+00  0.00000000E+00  0.00000000E+00
  0.00000000E+00  0.00000000E+00  0.00000000E+00
  0.00000000E+00  0.00000000E+00  0.00000000E+00
  0.00000000E+00  0.00000000E+00  0.00000000E+00
  0.00000000E+00  0.00000000E+00  0.00000000E+00
  0.00000000E+00  0.00000000E+00  0.00000000E+00
  0.00000000E+00  0.00000000E+00  0.00000000E+00
  0.00000000E+00  0.00000000E+00  0.00000000E+00
  0.00000000E+00  0.00000000E+00  0.00000000E+00
  0.00000000E+00  0.00000000E+00  0.00000000E+00
  0.00000000E+00  0.00000000E+00  0.00000000E+00
  0.00000000E+00  0.00000000E+00  0.00000000E+00
  0.00000000E+00  0.00000000E+00  0.00000000E+00
  0.00000000E+00  0.00000000E+00  0.00000000E+00
  0.00000000E+00  0.00000000E+00  0.00000000E+00
  0.00000000E+00  0.00000000E+00  0.00000000E+00
  0.00000000E+00  0.00000000E+00  0.00000000E+00
  0.00000000E+00  0.00000000E+00  0.00000000E+00
  0.00000000E+00  0.00000000E+00  0.00000000E+00
  0.00000000E+00  0.00000000E+00  0.00000000E+00
  0.00000000E+00  0.00000000E+00  0.00000000E+00
  0.00000000E+00  0.00000000E+00  0.00000000E+00
  0.00000000E+00  0.00000000E+00  0.00000000E+00
  0.00000000E+00  0.00000000E+00  0.00000000E+00
  0.00000000E+00  0.00000000E+00  0.00000000E+00
  0.00000000E+00  0.00000000E+00  0.00000000E+00
  0.00000000E+00  0.00000000E+00  0.00000000E+00
  0.00000000E+00  0.00000000E+00  0.00000000E+00
  0.00000000E+00  0.00000000E+00  0.00000000E+00
  0.00000000E+00  0.00000000E+00  0.00000000E+00
  0.00000000E+00  0.00000000E+00  0.00000000E+00
  0.00000000E+00  0.00000000E+00  0.00000000E+00
  0.00000000E+00  0.00000000E+00  0.00000000E+00
  0.00000000E+00  0.00000000E+00  0.00000000E+00
  0.00000000E+00  0.00000000E+00  0.00000000E+00
  0.00000000E+00  0.00000000E+00  0.00000000E+00
  0.00000000E+00  0.00000000E+00  0.00000000E+00
  0.00000000E+00  0.00000000E+00  0.00000000E+00
  0.00000000E+00  0.00000000E+00  0.00000000E+00
  0.00000000E+00  0.00000000E+00  0.00000000E+00
  0.00000000E+00  0.00000000E+00  0.00000000E+00
  0.00000000E+00  0.00000000E+00  0.00000000E+00
  0.00000000E+00  0.00000000E+00  0.00000000E+00
  0.00000000E+00  0.00000000E+00  0.00000000E+00
  0.00000000E+00  0.00000000E+00  0.00000000E+00
  0.00000000E+00  0.00000000E+00  0.00000000E+00
  0.00000000E+00  0.00000000E+00  0.00000000E+00
  0.00000000E+00  0.00000000E+00  0.00000000E+00
  0.00000000E+00  0.00000000E+00  0.00000000E+00
  0.00000000E+00  0.00000000E+00  0.00000000E+00
  0.00000000E+00  0.00000000E+00  0.00000000E+00