Amorphous GeTe6                         
   1.00000000000000     
    22.2628235405677266    0.0000000000000000    0.0000000000000000
     0.0000000000000000   22.2628235405677266    0.0000000000000000
     0.0000000000000000    0.0000000000000000   22.2628235405677266
   Ge   Te
    43   257
Direct
  0.9282244298442589  0.4736925989057712  0.9320431959779766
  0.7683913364363550  0.6005432252099879  0.8790728653306510
  0.5207565290306359  0.9244903052367691  0.7186984947358307
  0.7568717257023275  0.4029902075662102  0.9503434665805804
  0.9897022523373582  0.1221434682994155 -0.0104163807298388
  0.8358790457727069  0.3811876424208171  0.3784720539219816
  0.0453685978069110  0.5687496548356278  0.2256269253859223
  0.5962577783903125  0.8876672896885799  0.9117965330592238
  0.8211221731106634  0.3194884822583453  0.5485551246805043
  0.0066505068583104  0.0442129474143490  0.3628435237361203
  0.8339438281401486  0.9974665168015616  0.6602139586445634
  0.7204922836327842  0.4478483142612819  0.4802332363760682
  0.8826478207522354  0.2024505676948500  0.8708729976974328
  0.1647653096926084  0.4637869921147650  0.2003519442008398
  0.1488826701399163  0.3002358604424037  0.8279514389283970
  0.1543749464174753  0.7603940892495911  0.2751810771825940
  0.4439935548721497  0.2022469593443921  0.7049390247986212
  0.4760170273805941  0.0489031331397421  0.1415776749612950
  0.3418070239434985  0.9691267520176446  0.5801741691160806
  0.6024751147952379  0.9516487288414139  0.2644645787943483
  0.3579184941555614  0.2206673177857779  0.8696875981590079
  0.6335389791170899  0.4995342798430815  0.6894209086519102
  0.1724303199692565  0.8602463521180732  0.1920000695602662
  0.7494231846726006  0.0673102279657461  0.2385073757858091
  0.0079793391221780  0.3000328820250653  0.9374656622717901
  0.7452614544038422  0.8952995768941795  0.9762012781878482
  0.3435559995231889  0.1755413267636789  0.3535749275747370
  0.7279384667060430  0.2917738778198302  0.8902436396004541
  0.7984059071428580  0.8629398033819765  0.6905853930019266
  0.3019189915489170  0.7606908673062508  0.3869714921815531
  0.1059990477978641  0.3492894156784503  0.3124162661115354
  0.0137499571542174  0.0765163338577895  0.6344666698555479
  0.4907873687638312  0.4680925498756513  0.5687270802180920
  0.7773629867589483  0.5770659665402540  0.6807273896826103
  0.9422840865150246  0.5729196810123556  0.7841362153790877
  0.3118784137370543  0.5549597873506055  0.2207239402749819
  0.9666979645406722  0.9697687737469368  0.5115949225723984
  0.6022467405186869  0.1245850948955322  0.7619689722552284
  0.9504017108931484  0.9704586542569427  0.0707529403528930
  0.8654486426910873  0.9973553082008846  0.9241192261459024
  0.7393060061100283  0.5689494810875928  0.4769134225361541
  0.5356438656510514  0.9197708588259548  0.0288411429347338
  0.3413493784731241  0.3590787198160517  0.5145011283974751
  0.9967879103688907  0.7870879995731230  0.7570451360449700
  0.3771958917721732  0.6313373139901961  0.7618978955343326
  0.0390394344830965  0.8943101450946168  0.2274972846063414
  0.3968769512589915  0.9493233494227885  0.7472541349687581
  0.8742455337607228  0.2421980570112898  0.7564370231739629
  0.6804722353661411  0.0511757679329547  0.5773600426611715
  0.4757861985859501  0.2064543188533932  0.9448802894004210
  0.0681935921929840  0.1414677718481573  0.5506131494103558
  0.0324158768874613  0.9598041784520850  0.6114262738288349
  0.1838060977679171  0.5735941127059759  0.7459555640716032
  0.8677454310230014  0.2909655491250216  0.9513838424079036
  0.4201118039877612  0.3765393197060348  0.9586034735603939
  0.2901309482684005  0.2144295293349658  0.0237878957577996
  0.8584694994251229  0.5913978013750639  0.4543538234215040
  0.9142366849175673  0.8311113028554930  0.5942386679732562
  0.6109338627053026  0.3182552470594961  0.0103151603091311
  0.8524576816825729  0.4027676797665047  0.8676629215536831
  0.3162803079017470  0.7698423890080777  0.8694136782491640
  0.4526922992398813  0.0919749635545156  0.6165635722452921
  0.8263190630734538  0.9120922867822927  0.8045247286340450
  0.7221274418042147  0.9515285520617648  0.2666905547116484
  0.3475221432810743  0.8672438831339537  0.6607982862708894
  0.1531637412682403  0.4588784670438126  0.3249929630197848
  0.7553153859254215  0.7288952736177641  0.2436046932097621
  0.3386420086814642  0.0660578627544881  0.9104030367912013
  0.4626253677233776  0.8073369991784918  0.7805293932737205
  0.2242805744886035  0.1894728548025063  0.3646766914238252
  0.4446522121781600  0.2569232373569751  0.5919800899197704
  0.9778892351792992  0.4003538804971838  0.0157657452159991
  0.0131298196779602  0.3668419717668937  0.8216078022961859
  0.7438872273209552  0.4683004214564936  0.6290831083712304
  0.2851094022340108  0.9097639795585294  0.4824578570555240
  0.5705705782509292  0.2362498020410598  0.7164722699517964
  0.2678355055414510  0.0129036051133584  0.8111446996150553
  0.8358219708135667  0.7195377264351202  0.4416722415495964
  0.6027107417200683  0.5271071176844844  0.5420979576737136
  0.2808241939170255  0.8041079556017491  0.1591070988198895
  0.7344867464163921  0.1560181653941588  0.3222303798794449
  0.3916515424281100  0.1652457483628960  0.4637552090240953
  0.7130444952947487  0.1979520168418272  0.9671587967189148
  0.6758115795116266  0.3004488481446182  0.4628558185944865
  0.7728251333186338  0.5846707088098422  0.1935958714926322
  0.6411847878790742  0.2352469985811270  0.1659449835008588
  0.1315225212640143  0.8497531364433704  0.9142818537342162
  0.6562883757278669  0.0112302848484137  0.0903690532615709
  0.5809654019872001  0.1795253748535758  0.4344160803731901
  0.4230970136415869  0.6596124840191023  0.1193568454656054
  0.2115051234927213  0.0878871022451708  0.5068604649708622
  0.3528087212896717  0.0626959015653880  0.7012070510430045
  0.1301648391972474  0.7398739857176749  0.4479165047790314
  0.6575303297895321  0.3299693878568495  0.3377920243039272
  0.5746756500502470  0.9679018829460314  0.8210105295558763
  0.7388836136090091  0.2095418889538753  0.7928770498021979
  0.8693170612930052  0.8438598711450719  0.1742944012130049
  0.2885199499417416  0.4580010437673325  0.3361595048264234
  0.0555837004362669  0.4985227224985790  0.6408019808964479
  0.1731402165349759  0.2807677222594239  0.2416953420285727
  0.4104863804884260  0.6909910534838775  0.3965422378127358
  0.1117328514578243  0.9203847740132793  0.8033954874889134
  0.0451602654763684  0.6983559980615699  0.6039146278561915
  0.2791486502736459  0.0077597952008445  0.1495850000509178
  0.8707326321820693  0.0497537306983114  0.2408769612160854
  0.6935052484909134  0.8111409363288009  0.3222408326112287
  0.4940301654773119  0.5506991759807716  0.8424577190149414
  0.1725242489573738  0.8047508406691865  0.6520992586652921
  0.7927230275494274  0.2915399944711315  0.1985401192110514
  0.8548873101890505  0.9352965492671189  0.5402621199854510
  0.7066290433638622  0.8406622651138413  0.8777198706909497
  0.7009817342823567  0.6617947723900377  0.4024187965434348
  0.7936785573000739  0.2695318591725849  0.4337011265722229
  0.7447737547029926  0.1096928847548586  0.1256250923374162
  0.0807794817529852  0.0554456461447478  0.0360204524152286
  0.1012211184216262  0.5576272618937074  0.4715965695311648
  0.5239158713284744  0.7876956235328483  0.8900649340795203
  0.5225081434868279  0.6520945192555261  0.6843685495292556
  0.4795578494234957  0.5573253015651959  0.9734074652130971
  0.5686813205446231  0.2891184586411249  0.5883272462677683
  0.5622633128353264  0.6434420237813798  0.5027104447879653
  0.5368343366982168  0.0569916645533119  0.0328009879171052
  0.2813389105905690  0.7192945763096963  0.2493328445526058
  0.6955319972989836  0.5114657674164400  0.9329462330593794
  0.2268074827369588  0.9328325262111021  0.2754849480246290
  0.3309329701851116  0.4944770525117214  0.6585518697465104
  0.3193579112510243  0.0383712072949085  0.4640576363636895
  0.9855644920427047  0.9815160688582713  0.8928114196698733
  0.8448436160216110  0.9623140021810606  0.1370065940019478
  0.1568896201862950  0.0374367058973470  0.8686449668272117
  0.7017540555909964  0.9075492889549921  0.4363272959754856
  0.2708157788320957  0.4504053145241196  0.4884741365312466
  0.1647467232703309  0.5885163715553052  0.2193345450189511
  0.0857961696714723  0.4617002919284053  0.0383364707764361
  0.5961982008286735  0.6933075362484221  0.1507725854683682
  0.2730451687954563  0.2596381624283432  0.5235718482895597
  0.7329697062991766  0.0261583421592383  0.4001234330949721
  0.4590302044268936  0.9500756547678378  0.5367752257793766
  0.8134492005910091  0.4359540326803302  0.0587984354750086
 -0.0037086930026536  0.3672846302118956  0.5813362313575429
  0.8053222379024229  0.7426440158744794  0.7238540486115790
  0.1076897505376807  0.1980216868373067  0.0923761595370252
  0.2172201739539009  0.6899754289990702  0.5228784106754468
  0.7876117459875389  0.0637380530645154  0.5086520799140377
  0.8675220648153456  0.5670150051577528  0.9828016817247034
  0.4365060530685644  0.9026773022189036  0.9543117846057442
  0.3674170892696205  0.4888779674769019  0.0199382975696125
  0.3149632009311080  0.6825115528497905  0.6676548561307702
  0.3255499968949267  0.0784066656761126  0.2881573015756553
  0.8102182114775013  0.5755310482199826  0.3298001352776804
  0.9284387279138293  0.2628378332918889  0.5581856231435142
  0.4256629517580687  0.3340362658901443  0.4270319653094236
  0.1195576030722454  0.8129952847599539  0.0525397703003151
  0.3656459639395289  0.9742442240079505  0.0409180470102588
  0.3079851546545450  0.5301667996805063  0.8000915042883621
  0.4865915983691679  0.1383672203774033  0.8238444066159428
  0.9137703508079458  0.2392460047747252  0.2842183367345432
  0.9575086545754796  0.0468371864524508  0.7891379126615721
  0.7372010415764921  0.2304205321274333  0.6007653560909760
  0.3897804250107405  0.8474368580747332  0.3908856352641548
  0.9365967835107275  0.4901421999720477  0.6897932044598766
  0.3536309133362418  0.6885316634963735  0.9556735053685167
  0.1208171204719795  0.6272351344654049  0.0155046006068874
  0.6151814601467543  0.6207941276281695  0.0378847613870490
  0.9861129661031364  0.8376673500985800  0.1248952000344285
  0.1954035121180348  0.8388470306475723  0.3610159843984074
  0.4136884307539347  0.2460471975828933  0.2912197258047620
  0.4905004978703446  0.0911581972550465  0.4310777005445021
  0.0285599074881754  0.4600396561996106  0.1798600096863574
  0.5310215410382086  0.3768060614517055  0.4853235475256568
  0.7059012278842710  0.3090284437600291  0.6980161489026074
  0.1421988318599208  0.2941343125944549  0.6824021603735636
  0.0389019564857699  0.1343887817628062  0.2925858853557630
  0.7235969907025396  0.4420701868101529  0.3532394382978272
  0.5515842864864812  0.4483630154217114  0.9891893554161213
  0.1113011325819257  0.3262429008061111  0.5609105091817932
  0.6355022584525637  0.7720605244384094  0.5513127494117395
  0.2341874160825997  0.3896742122097738  0.8157015823083980
  0.2932763558789259  0.4363464895799970  0.1944971269271932
  0.7672478090398950  0.0213001344455484  0.7728550897473982
  0.3219586504705084  0.1969783746619694  0.6388754438577354
  0.1946109879998822  0.7141175729035224  0.0723996495580578
  0.5941869928085627  0.6240215203792674  0.3413494398297980
  0.1980529826489471  0.9222898000987383  0.0899423232199286
  0.5184139458099404  0.2149919467454513  0.1620092647981900
  0.2143835177197516  0.8945947844454487  0.7318277045096848
  0.0348906580521431  0.7902900900957350  0.2954962033772711
  0.9296099179155808  0.8135999429994177  0.8599893808991582
  0.7218323996476350  0.6330908981642754  0.5824232604880116
  0.0017817780714310  0.2548681516854568  0.7606463809909572
  0.5989702429615615  0.2877035851322573  0.8871206146637433
  0.2104460986522742  0.7149719970111656  0.7375971140870164
  0.9152101652288260  0.9659677423224717  0.3442915362300729
  0.8460420571104068  0.4327679000649076  0.4906557764812030
  0.4613786582367531  0.5234199460232019  0.4327394165172970
  0.6745671375893336  0.4333346032106940  0.7947025395763171
  0.9569588277154830  0.3011648539075093  0.3910284270083847
  0.7155463574493157  0.5363466551190307  0.0590212752937745
  0.2335023017399417  0.2059091508071528  0.8229847583329197
  0.8982440130199588  0.1019323977772180  0.6438850568352802
  0.9933057062347295  0.3779820755003220  0.2822670048794230
  0.3967015689061322  0.8907714040924094  0.2723186938215648
  0.7447991753610337  0.3309163344172560  0.0892093452095948
  0.8641426378132716  0.8886967493389034  0.9822287814517683
  0.4664452768687873  0.4340450761735499  0.1691712471542158
  0.8230618795471981  0.5166175985450843  0.8024561639880567
  0.0816090969517874  0.7102119697679354  0.8120507660553656
  0.4011015089920441  0.2998557162954117  0.7786605486842428
  0.1501214300673193  0.4299697731486068  0.9330852276411641
  0.9248685705544762  0.6942095985769133  0.1339057235993856
  0.5468134946193984  0.7855909220370093  0.0423742260093968
  0.1501329065409194  0.0742256278308946  0.2860511408390540
  0.4468057304855423 -0.0026274722453591  0.3178871934405181
  0.7604565165023970  0.7448490935742690  0.0472433135393806
  0.1890963981630019  0.1508151011580368  0.9313668326930618
  0.0896232087034682  0.2922031142883674  0.4159961185048731
  0.1554284660420448  0.1657177381741395  0.6509779739442405
  0.9056429907395031  0.4958912590784609  0.3097842452932874
  0.0458371885258719  0.6615418172187594  0.1521103711868705
  0.6840319732304582  0.6139132430693152  0.7798159508776026
  0.3572330526825400  0.5868471289671476  0.4476465966486696
  0.4536866529881317  0.0190447525226218  0.8702249946355111
  0.4204893331972774  0.7691044857469245  0.0444710743330078
  0.4391400877090048  0.5517702238613548  0.2343737285848874
  0.6766032683944188  0.8785069153688927  0.7074652907442454
  0.8622608271220857  0.7389251303513089  0.3048156923129582
  0.7209616303977652  0.1195011673067233  0.6742510582017655
  0.9279959091145831  0.9401404678892608  0.7208524856058414
  0.2437023903640000  0.1257943011249373  0.1166045737050559
  0.5685574734577670  0.4832796577469377  0.1105795644970502
  0.1386804877228019  0.6586757634339629  0.3451078177085250
  0.4189387450709857  0.1114379320064018  0.0113983648948412
  0.0792039777390745  0.0997445370720917  0.7317049683165691
  0.5840006336552082  0.0522833385801716  0.2047905470910645
  0.8709820672945092  0.1372200291192730  0.3445684045905417
  0.8427550108354296  0.7176711995859701  0.8633706730436398
  0.0036019057834576  0.1701595065596997  0.8760948128369621
  0.7044856759805469  0.0053195640404051  0.9672214618018785
  0.4477168568906370  0.8268123464637014  0.5567687369092322
  0.6270501716839697  0.5884026026285131  0.2250857756572281
  0.4157050208656903  0.6831469994703113  0.2682398079385276
  0.1398313574125445  0.4426666345973115  0.7337616435805674
  0.0607715521309589  0.6117551312570350  0.7261824201099076
  0.2063767753423691  0.0141974335229580  0.6098305746521637
  0.5539899215480553  0.0457885452634264  0.6738391539713421
  0.9899943794839408  0.2261282061508921  0.0533582006892439
  0.7807203739695058  0.1240815861708906  0.8853419217266846
  0.3390918166405458  0.1808748776053000  0.1998588946459313
  0.6835759105336433  0.8882509116883579  0.5750112766656819
  0.5624871539945375  0.4018639331026401  0.8432365308405256
  0.3213739599163813  0.7672667686990381  0.5154521333717509
  0.5724510217040495  0.8652371828418836  0.1876295497428103
  0.1028478525442466  0.9726475653962541  0.3510141905161861
  0.0146199401887221  0.5093036065585630  0.8629353145610177
  0.4492489802398389  0.9255048403475770  0.1281871371716854
  0.6830910061103644  0.6990474101716208  0.9616224051485666
  0.1396299222203240  0.3053849940689921  0.9540489361804035
  0.8895603232019815  0.6006975276552738  0.6358112690428243
  0.2541697762541992  0.8619037938820741  0.9265967033722261
  0.0177404592713231  0.7903289231874471  0.5201124665550013
  0.2846174390118407  0.2953798357848256  0.7219544695125317
  0.4763674027694224  0.2890414787130199  0.0606963974115736
  0.9315035029004667  0.6612715281018345  0.9377271135929749
  0.8198180147707381  0.7230739950578712  0.5790231882019927
  0.3165363466053965  0.5911562456877772  0.0957965471870184
  0.1363175550893937  0.3171712009302080  0.1274511478192782
  0.6405712345481850  0.3629974519727036  0.1953144674728064
  0.3101421120214480  0.3178100169574138  0.9333300972123808
  0.6743223290768645  0.7493670844051830  0.7304488103284428
  0.5442735891653807  0.7804456725690593  0.6870623084099030
  0.9983079568637135  0.8983084309408812  0.4196938406039092
  0.5409368458863602  0.3818581635756828  0.2675823648367907
  0.2517243387414856  0.4521577554816282  0.0722623795369484
  0.5724157696318933  0.6522696010464952  0.8374111579938258
  0.0012038767961007  0.6021219867370391  0.5363046180769542
  0.5749248519200992  0.7648172022558889  0.2671139173872722
  0.0245433143362382  0.0354346259482022  0.1453033795823162
  0.5455128315262460  0.4113094110781541  0.6663254031325181
  0.2256136787913855  0.4386567300835524  0.6141771259272287
  0.5535391767687189  0.9465026041987121  0.3706643752282395
  0.8862018905485706  0.0729780552485905  0.0255167104471219
  0.4781198053870023  0.5171135041017692  0.7045165427386728
  0.1548556816849710  0.6092463752794746  0.8938917784571071
  0.2734058165947768  0.5715621352762977  0.9203240057893826
 -0.0008599488294370  0.5789030441458498  0.3351310341549216
  0.6951510649624664  0.8484125119664909  0.0745076910633780
  0.1783124883258072  0.5589509457056008  0.5689774445648335
  0.8903774178936018  0.5739168459363755  0.1520694427537740
  0.2297417889763675  0.3089016273273223  0.4091158530191144
  0.1683648110886344  0.9169568548280115  0.5418827200493754
  0.8070138561772964  0.8448364070430082  0.3814648263365712
  0.6061775591319346  0.1915301373740880  0.3123625599218489
  0.4192871632128297  0.4518690310212999  0.3363293014712028
  0.3937222877097713  0.3780001351205974  0.6210299453770284
  0.9669285634594763  0.0846717114408457  0.4749400065419003
  0.3539755489347274  0.2841551258476389  0.1104850644980471
  0.4604868565831011  0.6521199735242635  0.5759414276648265
  0.8510831733589345  0.1894165810012246  0.1590899127110789
  0.5412074085009309  0.7954877013744827  0.4725469552973344
  0.8139023709620842  0.3771928342257173  0.6900635903030906
 
  0.00000000E+00  0.00000000E+00  0.00000000E+00
  0.00000000E+00  0.00000000E+00  0.00000000E+00
  0.00000000E+00  0.00000000E+00  0.00000000E+00
  0.00000000E+00  0.00000000E+00  0.00000000E+00
  0.00000000E+00  0.00000000E+00  0.00000000E+00
  0.00000000E+00  0.00000000E+00  0.00000000E+00
  0.00000000E+00  0.00000000E+00  0.00000000E+00
  0.00000000E+00  0.00000000E+00  0.00000000E+00
  0.00000000E+00  0.00000000E+00  0.00000000E+00
  0.00000000E+00  0.00000000E+00  0.00000000E+00
  0.00000000E+00  0.00000000E+00  0.00000000E+00
  0.00000000E+00  0.00000000E+00  0.00000000E+00
  0.00000000E+00  0.00000000E+00  0.00000000E+00
  0.00000000E+00  0.00000000E+00  0.00000000E+00
  0.00000000E+00  0.00000000E+00  0.00000000E+00
  0.00000000E+00  0.00000000E+00  0.00000000E+00
  0.00000000E+00  0.00000000E+00  0.00000000E+00
  0.00000000E+00  0.00000000E+00  0.00000000E+00
  0.00000000E+00  0.00000000E+00  0.00000000E+00
  0.00000000E+00  0.00000000E+00  0.00000000E+00
  0.00000000E+00  0.00000000E+00  0.00000000E+00
  0.00000000E+00  0.00000000E+00  0.00000000E+00
  0.00000000E+00  0.00000000E+00  0.00000000E+00
  0.00000000E+00  0.00000000E+00  0.00000000E+00
  0.00000000E+00  0.00000000E+00  0.00000000E+00
  0.00000000E+00  0.00000000E+00  0.00000000E+00
  0.00000000E+00  0.00000000E+00  0.00000000E+00
  0.00000000E+00  0.00000000E+00  0.00000000E+00
  0.00000000E+00  0.00000000E+00  0.00000000E+00
  0.00000000E+00  0.00000000E+00  0.00000000E+00
  0.00000000E+00  0.00000000E+00  0.00000000E+00
  0.00000000E+00  0.00000000E+00  0.00000000E+00
  0.00000000E+00  0.00000000E+00  0.00000000E+00
  0.00000000E+00  0.00000000E+00  0.00000000E+00
  0.00000000E+00  0.00000000E+00  0.00000000E+00
  0.00000000E+00  0.00000000E+00  0.00000000E+00
  0.00000000E+00  0.00000000E+00  0.00000000E+00
  0.00000000E+00  0.00000000E+00  0.00000000E+00
  0.00000000E+00  0.00000000E+00  0.00000000E+00
  0.00000000E+00  0.00000000E+00  0.00000000E+00
  0.00000000E+00  0.00000000E+00  0.00000000E+00
  0.00000000E+00  0.00000000E+00  0.00000000E+00
  0.00000000E+00  0.00000000E+00  0.00000000E+00
  0.00000000E+00  0.00000000E+00  0.00000000E+00
  0.00000000E+00  0.00000000E+00  0.00000000E+00
  0.00000000E+00  0.00000000E+00  0.00000000E+00
  0.00000000E+00  0.00000000E+00  0.00000000E+00
  0.00000000E+00  0.00000000E+00  0.00000000E+00
  0.00000000E+00  0.00000000E+00  0.00000000E+00
  0.00000000E+00  0.00000000E+00  0.00000000E+00
  0.00000000E+00  0.00000000E+00  0.00000000E+00
  0.00000000E+00  0.00000000E+00  0.00000000E+00
  0.00000000E+00  0.00000000E+00  0.00000000E+00
  0.00000000E+00  0.00000000E+00  0.00000000E+00
  0.00000000E+00  0.00000000E+00  0.00000000E+00
  0.00000000E+00  0.00000000E+00  0.00000000E+00
  0.00000000E+00  0.00000000E+00  0.00000000E+00
  0.00000000E+00  0.00000000E+00  0.00000000E+00
  0.00000000E+00  0.00000000E+00  0.00000000E+00
  0.00000000E+00  0.00000000E+00  0.00000000E+00
  0.00000000E+00  0.00000000E+00  0.00000000E+00
  0.00000000E+00  0.00000000E+00  0.00000000E+00
  0.00000000E+00  0.00000000E+00  0.00000000E+00
  0.00000000E+00  0.00000000E+00  0.00000000E+00
  0.00000000E+00  0.00000000E+00  0.00000000E+00
  0.00000000E+00  0.00000000E+00  0.00000000E+00
  0.00000000E+00  0.00000000E+00  0.00000000E+00
  0.00000000E+00  0.00000000E+00  0.00000000E+00
  0.00000000E+00  0.00000000E+00  0.00000000E+00
  0.00000000E+00  0.00000000E+00  0.00000000E+00
  0.00000000E+00  0.00000000E+00  0.00000000E+00
  0.00000000E+00  0.00000000E+00  0.00000000E+00
  0.00000000E+00  0.00000000E+00  0.00000000E+00
  0.00000000E+00  0.00000000E+00  0.00000000E+00
  0.00000000E+00  0.00000000E+00  0.00000000E+00
  0.00000000E+00  0.00000000E+00  0.00000000E+00
  0.00000000E+00  0.00000000E+00  0.00000000E+00
  0.00000000E+00  0.00000000E+00  0.00000000E+00
  0.00000000E+00  0.00000000E+00  0.00000000E+00
  0.00000000E+00  0.00000000E+00  0.00000000E+00
  0.00000000E+00  0.00000000E+00  0.00000000E+00
  0.00000000E+00  0.00000000E+00  0.00000000E+00
  0.00000000E+00  0.00000000E+00  0.00000000E+00
  0.00000000E+00  0.00000000E+00  0.00000000E+00
  0.00000000E+00  0.00000000E+00  0.00000000E+00
  0.00000000E+00  0.00000000E+00  0.00000000E+00
  0.00000000E+00  0.00000000E+00  0.00000000E+00
  0.00000000E+00  0.00000000E+00  0.00000000E+00
  0.00000000E+00  0.00000000E+00  0.00000000E+00
  0.00000000E+00  0.00000000E+00  0.00000000E+00
  0.00000000E+00  0.00000000E+00  0.00000000E+00
  0.00000000E+00  0.00000000E+00  0.00000000E+00
  0.00000000E+00  0.00000000E+00  0.00000000E+00
  0.00000000E+00  0.00000000E+00  0.00000000E+00
  0.00000000E+00  0.00000000E+00  0.00000000E+00
  0.00000000E+00  0.00000000E+00  0.00000000E+00
  0.00000000E+00  0.00000000E+00  0.00000000E+00
  0.00000000E+00  0.00000000E+00  0.00000000E+00
  0.00000000E+00  0.00000000E+00  0.00000000E+00
  0.00000000E+00  0.00000000E+00  0.00000000E+00
  0.00000000E+00  0.00000000E+00  0.00000000E+00
  0.00000000E+00  0.00000000E+00  0.00000000E+00
  0.00000000E+00  0.00000000E+00  0.00000000E+00
  0.00000000E+00  0.00000000E+00  0.00000000E+00
  0.00000000E+00  0.00000000E+00  0.00000000E+00
  0.00000000E+00  0.00000000E+00  0.00000000E+00
  0.00000000E+00  0.00000000E+00  0.00000000E+00
  0.00000000E+00  0.00000000E+00  0.00000000E+00
  0.00000000E+00  0.00000000E+00  0.00000000E+00
  0.00000000E+00  0.00000000E+00  0.00000000E+00
  0.00000000E+00  0.00000000E+00  0.00000000E+00
  0.00000000E+00  0.00000000E+00  0.00000000E+00
  0.00000000E+00  0.00000000E+00  0.00000000E+00
  0.00000000E+00  0.00000000E+00  0.00000000E+00
  0.00000000E+00  0.00000000E+00  0.00000000E+00
  0.00000000E+00  0.00000000E+00  0.00000000E+00
  0.00000000E+00  0.00000000E+00  0.00000000E+00
  0.00000000E+00  0.00000000E+00  0.00000000E+00
  0.00000000E+00  0.00000000E+00  0.00000000E+00
  0.00000000E+00  0.00000000E+00  0.00000000E+00
  0.00000000E+00  0.00000000E+00  0.00000000E+00
  0.00000000E+00  0.00000000E+00  0.00000000E+00
  0.00000000E+00  0.00000000E+00  0.00000000E+00
  0.00000000E+00  0.00000000E+00  0.00000000E+00
  0.00000000E+00  0.00000000E+00  0.00000000E+00
  0.00000000E+00  0.00000000E+00  0.00000000E+00
  0.00000000E+00  0.00000000E+00  0.00000000E+00
  0.00000000E+00  0.00000000E+00  0.00000000E+00
  0.00000000E+00  0.00000000E+00  0.00000000E+00
  0.00000000E+00  0.00000000E+00  0.00000000E+00
  0.00000000E+00  0.00000000E+00  0.00000000E+00
  0.00000000E+00  0.00000000E+00  0.00000000E+00
  0.00000000E+00  0.00000000E+00  0.00000000E+00
  0.00000000E+00  0.00000000E+00  0.00000000E+00
  0.00000000E+00  0.00000000E+00  0.00000000E+00
  0.00000000E+00  0.00000000E+00  0.00000000E+00
  0.00000000E+00  0.00000000E+00  0.00000000E+00
  0.00000000E+00  0.00000000E+00  0.00000000E+00
  0.00000000E+00  0.00000000E+00  0.00000000E+00
  0.00000000E+00  0.00000000E+00  0.00000000E+00
  0.00000000E+00  0.00000000E+00  0.00000000E+00
  0.00000000E+00  0.00000000E+00  0.00000000E+00
  0.00000000E+00  0.00000000E+00  0.00000000E+00
  0.00000000E+00  0.00000000E+00  0.00000000E+00
  0.00000000E+00  0.00000000E+00  0.00000000E+00
  0.00000000E+00  0.00000000E+00  0.00000000E+00
  0.00000000E+00  0.00000000E+00  0.00000000E+00
  0.00000000E+00  0.00000000E+00  0.00000000E+00
  0.00000000E+00  0.00000000E+00  0.00000000E+00
  0.00000000E+00  0.00000000E+00  0.00000000E+00
  0.00000000E+00  0.00000000E+00  0.00000000E+00
  0.00000000E+00  0.00000000E+00  0.00000000E+00
  0.00000000E+00  0.00000000E+00  0.00000000E+00
  0.00000000E+00  0.00000000E+00  0.00000000E+00
  0.00000000E+00  0.00000000E+00  0.00000000E+00
  0.00000000E+00  0.00000000E+00  0.00000000E+00
  0.00000000E+00  0.00000000E+00  0.00000000E+00
  0.00000000E+00  0.00000000E+00  0.00000000E+00
  0.00000000E+00  0.00000000E+00  0.00000000E+00
  0.00000000E+00  0.00000000E+00  0.00000000E+00
  0.00000000E+00  0.00000000E+00  0.00000000E+00
  0.00000000E+00  0.00000000E+00  0.00000000E+00
  0.00000000E+00  0.00000000E+00  0.00000000E+00
  0.00000000E+00  0.00000000E+00  0.00000000E+00
  0.00000000E+00  0.00000000E+00  0.00000000E+00
  0.00000000E+00  0.00000000E+00  0.00000000E+00
  0.00000000E+00  0.00000000E+00  0.00000000E+00
  0.00000000E+00  0.00000000E+00  0.00000000E+00
  0.00000000E+00  0.00000000E+00  0.00000000E+00
  0.00000000E+00  0.00000000E+00  0.00000000E+00
  0.00000000E+00  0.00000000E+00  0.00000000E+00
  0.00000000E+00  0.00000000E+00  0.00000000E+00
  0.00000000E+00  0.00000000E+00  0.00000000E+00
  0.00000000E+00  0.00000000E+00  0.00000000E+00
  0.00000000E+00  0.00000000E+00  0.00000000E+00
  0.00000000E+00  0.00000000E+00  0.00000000E+00
  0.00000000E+00  0.00000000E+00  0.00000000E+00
  0.00000000E+00  0.00000000E+00  0.00000000E+00
  0.00000000E+00  0.00000000E+00  0.00000000E+00
  0.00000000E+00  0.00000000E+00  0.00000000E+00
  0.00000000E+00  0.00000000E+00  0.00000000E+00
  0.00000000E+00  0.00000000E+00  0.00000000E+00
  0.00000000E+00  0.00000000E+00  0.00000000E+00
  0.00000000E+00  0.00000000E+00  0.00000000E+00
  0.00000000E+00  0.00000000E+00  0.00000000E+00
  0.00000000E+00  0.00000000E+00  0.00000000E+00
  0.00000000E+00  0.00000000E+00  0.00000000E+00
  0.00000000E+00  0.00000000E+00  0.00000000E+00
  0.00000000E+00  0.00000000E+00  0.00000000E+00
  0.00000000E+00  0.00000000E+00  0.00000000E+00
  0.00000000E+00  0.00000000E+00  0.00000000E+00
  0.00000000E+00  0.00000000E+00  0.00000000E+00
  0.00000000E+00  0.00000000E+00  0.00000000E+00
  0.00000000E+00  0.00000000E+00  0.00000000E+00
  0.00000000E+00  0.00000000E+00  0.00000000E+00
  0.00000000E+00  0.00000000E+00  0.00000000E+00
  0.00000000E+00  0.00000000E+00  0.00000000E+00
  0.00000000E+00  0.00000000E+00  0.00000000E+00
  0.00000000E+00  0.00000000E+00  0.00000000E+00
  0.00000000E+00  0.00000000E+00  0.00000000E+00
  0.00000000E+00  0.00000000E+00  0.00000000E+00
  0.00000000E+00  0.00000000E+00  0.00000000E+00
  0.00000000E+00  0.00000000E+00  0.00000000E+00
  0.00000000E+00  0.00000000E+00  0.00000000E+00
  0.00000000E+00  0.00000000E+00  0.00000000E+00
  0.00000000E+00  0.00000000E+00  0.00000000E+00
  0.00000000E+00  0.00000000E+00  0.00000000E+00
  0.00000000E+00  0.00000000E+00  0.00000000E+00
  0.00000000E+00  0.00000000E+00  0.00000000E+00
  0.00000000E+00  0.00000000E+00  0.00000000E+00
  0.00000000E+00  0.00000000E+00  0.00000000E+00
  0.00000000E+00  0.00000000E+00  0.00000000E+00
  0.00000000E+00  0.00000000E+00  0.00000000E+00
  0.00000000E+00  0.00000000E+00  0.00000000E+00
  0.00000000E+00  0.00000000E+00  0.00000000E+00
  0.00000000E+00  0.00000000E+00  0.00000000E+00
  0.00000000E+00  0.00000000E+00  0.00000000E+00
  0.00000000E+00  0.00000000E+00  0.00000000E+00
  0.00000000E+00  0.00000000E+00  0.00000000E+00
  0.00000000E+00  0.00000000E+00  0.00000000E+00
  0.00000000E+00  0.00000000E+00  0.00000000E+00
  0.00000000E+00  0.00000000E+00  0.00000000E+00
  0.00000000E+00  0.00000000E+00  0.00000000E+00
  0.00000000E+00  0.00000000E+00  0.00000000E+00
  0.00000000E+00  0.00000000E+00  0.00000000E+00
  0.00000000E+00  0.00000000E+00  0.00000000E+00
  0.00000000E+00  0.00000000E+00  0.00000000E+00
  0.00000000E+00  0.00000000E+00  0.00000000E+00
  0.00000000E+00  0.00000000E+00  0.00000000E+00
  0.00000000E+00  0.00000000E+00  0.00000000E+00
  0.00000000E+00  0.00000000E+00  0.00000000E+00
  0.00000000E+00  0.00000000E+00  0.00000000E+00