Sb                                      
   1.00000000000000     
    17.9273007964999991    0.0000000000000000    0.0000000000000000
     0.0000000000000000   17.9273007964999991    0.0000000000000000
     0.0000000000000000    0.0000000000000000   17.9273007964999991
   Ga   Se
    66   132
Direct
  0.0645010873214718  0.5973274701410777  0.7390477642817831
  0.1111743819274410  0.6856132470689985  0.0762469734285547
  0.6806377734655467  0.5806134012613735  0.8349688915334724
  0.3924888483015372  0.9530078871999663  0.3485277800682429
  0.6494233239948042  0.5471525615468678  0.3770396569067651
  0.4542774080331262  0.0986448228726040  0.1879687737482825
  0.4794875346219197  0.6927556805875346  0.0273321511883896
  0.3896926187089025  0.0762383111102836  0.9797602119052542
  0.5744750964058745  0.9817671399398044  0.2481811849202261
  0.5949552199922290  0.5424994447006460  0.6947242376427726
  0.9797278982656420  0.7942554313071299  0.6417325784677210
  0.9145536044274112  0.2155788986154451  0.9017958650719137
  0.2367663724495727  0.1067325454300633  0.3148570835243791
  0.6904008997386717  0.0522162541196848  0.5220176778494923
  0.7664040539881244  0.2417095319622527  0.8077834734481940
  0.8316840358540937  0.1560284797979209  0.1132914229127176
  0.0849773522648890  0.2202803613300441  0.7569484072584026
  0.3658521865564381  0.7545956612451584  0.6787777778432955
  0.5598873070007898  0.2427640260165836  0.4924463474177632
  0.9174738707939263  0.8040941521126020  0.4214901743374035
  0.0054748396070868  0.4739452719875634  0.3073529111229377
  0.7982610131128809  0.4260919174074710  0.9260392890387572
  0.6917706465514188  0.6308405907660496  0.2104851081775460
  0.4136127426734215  0.4737110161662025 -0.0228645341220132
  0.0521497738180378  0.1316620511829622  0.4058794802117376
  0.7604159149878164  0.6142033145631546  0.0323487009067735
  0.8199349351113062  0.8570928266274698  0.7945080604842755
  0.3747802943389451  0.5650123103409075  0.2738473124326104
  0.9043707883376744  0.1962741398735911  0.2722124488447780
  0.4055608720783113  0.9105370855260138  0.5917303846401546
  0.4135007733944487  0.7765965720068215  0.8753079251508739
  0.7940208276753477  0.4223126061401113  0.7299506428955633
  0.6175773185319425  0.4494542779153577  0.0441225122817211
  0.6740784258862001  0.7900147159248402  0.9032563760577564
  0.7475601847251501  0.8284837950278581  0.2617957173999303
  0.7624859765792125  0.0530092245903219  0.2986639384630335
  0.1592662515536235  0.0655717363951660  0.8168687474638358
  0.4025336758418330  0.5214420537545609  0.6081545661830169
  0.4147525563036808  0.0124064676118118  0.7896421741853500
  0.3714242089518223  0.2339820273324086  0.0694635031449924
  0.0930606375117478  0.5720308234870901  0.9224536151999924
  0.9726639618668368  0.5106880417026589  0.5336313396500590
  0.8034999312055517  0.4868385566900787  0.3272196348178143
  0.4921815978483896  0.2215471768556657  0.8786860775402672
  0.2087712199102391  0.3992673285281136  0.3308147831350040
  0.8492603946306632  0.6479423949571119  0.4676316131130935
  0.0371717191725610  0.0944766341173053  0.0418459659649048
  0.4628069859004617  0.4375427733276445  0.3995718693390645
  0.3006244603978037  0.6405803008019639  0.9567596312973023
  0.1051935511932284  0.5075813544501840  0.1533842728126343
  0.3001162419503002  0.5591094436608471  0.4372936591645846
  0.2093365894447090  0.8958035861215790  0.2729009585964475
  0.6403712065718565  0.0874868899412922  0.9860689392971993
  0.0307680826223912  0.3953056821744655  0.6995704550406368
  0.6278812131718121  0.3777490703009846  0.4170109374102029
  0.6963454894217299  0.7762005172105453  0.3795428294494749
  0.8542793526169098  0.1213100531191920  0.4750797430170054
  0.0465396902109270  0.6709554960072919  0.4191812669170905
  0.9552500928614930  0.5467309728218521  0.0681074618992790
  0.6159372863100347  0.2470005220136908  0.0797436749656779
  0.8117891950953935  0.0882323783613427  0.7144343257690268
  0.0735022554428882  0.9256647814401083  0.9784855037359372
  0.3172942210045686  0.7225675832920180  0.5097810890565206
  0.2519813553735195  0.2637962008967510  0.4390043077530265
  0.5175047670018013  0.0896290196850784  0.6264823850627780
  0.0055308646710468  0.7503174116829163  0.8160072352142178
  0.7715720200923368  0.1425202948064734  0.5887537657088775
  0.1945913089676958  0.1380366438578697  0.4429295228605030
  0.9048382901545312  0.1137318935728844  0.9946114801953843
  0.6640586232463390  0.4592767970996179  0.9077055414311503
  0.1985711547759598  0.9662007056653805  0.7354774300279134
  0.0944220649376150  0.1990844065159857  0.1107623115096928
  0.7872523763736395  0.0062279591255655  0.4291156950220850
  0.2437907245156946  0.5315609828010296  0.3164176656403354
  0.3872714288733205  0.0305568542283669  0.6517263689428462
  0.1048735406343119  0.8039887472913007  0.2754358740635450
  0.0387039876475863  0.2654416174701091  0.8794227627086981
  0.2700685347407203  0.3238950133259100  0.0827926097444875
  0.7073075760507366  0.1176524404502843  0.7972624419308458
  0.6987934926390683  0.1689491367100827  0.3247694755819974
  0.3732497979453216  0.0839135304690219  0.3156986977187309
  0.5428598832794774  0.7894329838896058  0.9515153185594539
  0.0616707749297330  0.4738532458843493  0.0193824207382905
  0.3485371140233826  0.7546700891279615  0.3823356153896454
  0.7972241186672685  0.7732356007694741  0.4840000600060196
  0.7308733213355019  0.5439160579563068  0.7074154174596751
  0.4963358481488490  0.3465427855205377  0.8251357288606148
  0.0741154329548120 -0.0003655372916540  0.3800613224071286
  0.8786400414168364  0.4574111928122639  0.8274648492063396
  0.1886510876654411  0.8545839303525028  0.0028619366972736
  0.4901678589971339  0.5834648662364310  0.9391270934886017
  0.7549398117151559  0.6696426620933870  0.9063406762373072
  0.1329417737668776  0.0488511561054008  0.9482947597419263
  0.0897660267899031  0.2885953435133495  0.6428885979061432
  0.5750398210221549  0.6430282169095589  0.7758262330803549
  0.2143979028364457  0.1911725208793011  0.8022435493131450
  0.0934068357357673  0.7316137824373427  0.7091365680555592
  0.3590690303167746  0.7588980560723337  0.0047122639662483
  0.8642939163433440  0.2722121530906765  0.1681178757527181
  0.3711296781271395  0.2051128069013489  0.9344933072010305
  0.4519882821501479  0.4573197355714704  0.2678490234490467
  0.6905259432280451  0.1301205108739737  0.1087745655125132
  0.4918504282370051  0.6768733769151321  0.1595739633854673
  0.8649527887136557  0.8767645528672304  0.9212913977211000
  0.4967372602959672  0.8007592899552795  0.4569732567928347
  0.9122706347047125  0.3912644981846712  0.5202464517383668
  0.3034275579310473  0.2967818466801672  0.3094562990363043
  0.9656359327065995  0.9323691131645356  0.6406302652093533
  0.2210254606255144  0.2171682981974406  0.2368130684132845
  0.0731287213278120  0.5083322828780193  0.6329945051494177
  0.6131531155796884  0.2165935333652761  0.9441783188769521
  0.6154268751010751  0.6625588027540982  0.3188658574317370
  0.7660519626171857  0.5406197367576459  0.4508512229730241
  0.6378622321545969  0.5838514804781073  0.0869145418902307
  0.7997841665340137  0.2849115395095035  0.9382835601867675
  0.3180182697547062  0.3201158500709722  0.7066781821709760
  0.5669018306096274  0.4953577419013583  0.4695733019236444
  0.3291955002349746  0.9927681557224348  0.8910314684841286
  0.9784919829748384  0.6753905463331853  0.0388385239394533
  0.4715565724349649  0.9331149428293607  0.4725723364708146
  0.8399288070609127  0.9492701636106298  0.6857603714253204
  0.4136262223775513  0.6278407328082847  0.3929465957634559
  0.3001945101250690  0.7607421589608327  0.7925677023817538
  0.9063699690485758  0.6148901276909493  0.5826889873659652
  0.3350050715117460  0.1043581890651940  0.1044301320039544
  0.1397450037100483  0.0177684037946965  0.2651538021103706
  0.1743622534676537  0.2606574107270430  0.0183507247585697
  0.8167184462220503  0.2176433521748302  0.3806324463869277
  0.0759934160756839  0.4083333961937083  0.8293770536046962
  0.0235864728034318  0.7838545123850604  0.5103970813421420
  0.2726733650789820  0.2019192359895607  0.6741648685701626
  0.5601187753163750  0.1039284391050017  0.4945565556420246
  0.2910693798858955  0.5187532485525910  0.0100283042400855
  0.9794088009331309  0.1267647641529590  0.5186292921781791
  0.6070483724740555  0.0110755177308472  0.6916033784574183
  0.0140937122502015  0.9697366602019166  0.0897446093490710
  0.3026601938750949  0.8946447573054475  0.1740225472656114
  0.5134843646551445  0.4532331048210289  0.6489559866181763
  0.9816258508408953  0.6178501620565277  0.8514521230097295
  0.4829345955266454  0.8858149890727949  0.2729372359170033
  0.4206330009648447  0.6622550650582808  0.5899112687896407
  0.0318355003778143  0.2163154756297989  0.3058841756647685
  0.9265724149285813  0.6815470772890552  0.3557190512745548
  0.1689480155525040  0.3668778616862601  0.4547135373541386
  0.8922227875994341  0.1905142176821783  0.7629349768654184
  0.2176825814798463  0.6325211061385924  0.5134361173460495
  0.4893625029788320  0.2297574521227171  0.1428768417527263
  0.3007904607610447  0.5110457792100492  0.6959311653095274
  0.2287748017362912  0.4077675065426775  0.6562092318811057
  0.2909643679771293  0.8330129626162041  0.5895022961237565
  0.5158614086914693  0.1022975135610465  0.8104750532102092
  0.0079609041673504  0.8770679721938408  0.8652723264212857
  0.9230136552782363  0.9030641872127048  0.3302183243561868
  0.4524631721537815  0.2808807517827411  0.5742438106422455
  0.3986877169848979  0.6356988726319902  0.8526304704121940
  0.1668626918046409  0.6848147564009328  0.9446003832047205
  0.1373807444867415  0.8058722093704835  0.1295615279806556
  0.8177682263468818  0.7237219596913691  0.0936028211853424
  0.6978986916289512  0.7566672674878148  0.1496231292545116
  0.6777656216059643  0.4332011631776745  0.3008461817275463
  0.6910581655421116  0.8264664719866177  0.7761976869406154
  0.1578709431303184  0.5216329523854705  0.8123916068911259
  0.4867668322505935  0.8290689639786999  0.6754400311843560
  0.7036568483051344  0.9555314381061734  0.2199768499202492
  0.0429274299175681  0.0880675020053137  0.7325303292231005
  0.2786159606399213  0.8936767661712560  0.3907297499149992
  0.1387971996747449  0.0476534838300662  0.6471543948414508
  0.6766505348621008  0.3031659982598500  0.5149265911984884
  0.1601439856908022  0.7195681592068888  0.3661026760273834
  0.6550592785434479  0.9407179846882004  0.5903469742296933
  0.2454415770456741  0.9569880567646698  0.0741741179440599
  0.4906123066361470  0.4143785938257469  0.0678385154701040
  0.1939074678543522  0.6044563744753129  0.1458099312876881
  0.8778802609227978  0.8276150644005548  0.2307803046600395
  0.8298091001754270  0.4937282975997025  0.0478151177132963
  0.3482559383836858  0.2068530704914198  0.5247776478811306
  0.5176966669894657  0.0183697903053920 -0.0004698567397230
  0.1028091283162757  0.3970544027452459  0.2386636061718917
  0.8891748402417934  0.7499627605957219  0.7362416340906819
  0.8749075485212865  0.0696026475651336  0.2193616765796743
  0.0609467616156863  0.5323023598137386  0.4264899271320924
  0.9026916598835747  0.3977842816622078  0.3448607946609865
  0.3596079738448019  0.4484916484189211  0.4937733585383930
  0.4875547542992076  0.2076119289488045  0.6846146089506094
  0.5546441937043607  0.1044929742370047  0.2912669876454177
  0.3827723356945162  0.3951457601497212  0.8681397193029547
  0.7137405321351928  0.0035978822925483  0.9082994610032290
  0.7361190821079748  0.8861964647520467  0.9834426893443847
 -0.0090455160893745  0.5665656505047326  0.2050180613130183
  0.4827603967317872  0.8846115980588777  0.7964136791212600
  0.5146366421342465  0.3059806900934859  0.3767361282715957
  0.7009199173452459  0.3272117332898540  0.7314501429023681
  0.3614996294777615  0.6642113280177526  0.1830607691916967
  0.6238893041816583  0.7906489289487435  0.4926552793561699
  0.8129460411185434  0.5807667341304602  0.2311923453818585
  0.6901157063066983  0.3550748566367866  0.1057911956583338
  0.4936835841712642  0.9734482008184209  0.1290029347762343
  0.9001057947880585  0.3687957711167004  0.6535008215661198
 
  0.00000000E+00  0.00000000E+00  0.00000000E+00
  0.00000000E+00  0.00000000E+00  0.00000000E+00
  0.00000000E+00  0.00000000E+00  0.00000000E+00
  0.00000000E+00  0.00000000E+00  0.00000000E+00
  0.00000000E+00  0.00000000E+00  0.00000000E+00
  0.00000000E+00  0.00000000E+00  0.00000000E+00
  0.00000000E+00  0.00000000E+00  0.00000000E+00
  0.00000000E+00  0.00000000E+00  0.00000000E+00
  0.00000000E+00  0.00000000E+00  0.00000000E+00
  0.00000000E+00  0.00000000E+00  0.00000000E+00
  0.00000000E+00  0.00000000E+00  0.00000000E+00
  0.00000000E+00  0.00000000E+00  0.00000000E+00
  0.00000000E+00  0.00000000E+00  0.00000000E+00
  0.00000000E+00  0.00000000E+00  0.00000000E+00
  0.00000000E+00  0.00000000E+00  0.00000000E+00
  0.00000000E+00  0.00000000E+00  0.00000000E+00
  0.00000000E+00  0.00000000E+00  0.00000000E+00
  0.00000000E+00  0.00000000E+00  0.00000000E+00
  0.00000000E+00  0.00000000E+00  0.00000000E+00
  0.00000000E+00  0.00000000E+00  0.00000000E+00
  0.00000000E+00  0.00000000E+00  0.00000000E+00
  0.00000000E+00  0.00000000E+00  0.00000000E+00
  0.00000000E+00  0.00000000E+00  0.00000000E+00
  0.00000000E+00  0.00000000E+00  0.00000000E+00
  0.00000000E+00  0.00000000E+00  0.00000000E+00
  0.00000000E+00  0.00000000E+00  0.00000000E+00
  0.00000000E+00  0.00000000E+00  0.00000000E+00
  0.00000000E+00  0.00000000E+00  0.00000000E+00
  0.00000000E+00  0.00000000E+00  0.00000000E+00
  0.00000000E+00  0.00000000E+00  0.00000000E+00
  0.00000000E+00  0.00000000E+00  0.00000000E+00
  0.00000000E+00  0.00000000E+00  0.00000000E+00
  0.00000000E+00  0.00000000E+00  0.00000000E+00
  0.00000000E+00  0.00000000E+00  0.00000000E+00
  0.00000000E+00  0.00000000E+00  0.00000000E+00
  0.00000000E+00  0.00000000E+00  0.00000000E+00
  0.00000000E+00  0.00000000E+00  0.00000000E+00
  0.00000000E+00  0.00000000E+00  0.00000000E+00
  0.00000000E+00  0.00000000E+00  0.00000000E+00
  0.00000000E+00  0.00000000E+00  0.00000000E+00
  0.00000000E+00  0.00000000E+00  0.00000000E+00
  0.00000000E+00  0.00000000E+00  0.00000000E+00
  0.00000000E+00  0.00000000E+00  0.00000000E+00
  0.00000000E+00  0.00000000E+00  0.00000000E+00
  0.00000000E+00  0.00000000E+00  0.00000000E+00
  0.00000000E+00  0.00000000E+00  0.00000000E+00
  0.00000000E+00  0.00000000E+00  0.00000000E+00
  0.00000000E+00  0.00000000E+00  0.00000000E+00
  0.00000000E+00  0.00000000E+00  0.00000000E+00
  0.00000000E+00  0.00000000E+00  0.00000000E+00
  0.00000000E+00  0.00000000E+00  0.00000000E+00
  0.00000000E+00  0.00000000E+00  0.00000000E+00
  0.00000000E+00  0.00000000E+00  0.00000000E+00
  0.00000000E+00  0.00000000E+00  0.00000000E+00
  0.00000000E+00  0.00000000E+00  0.00000000E+00
  0.00000000E+00  0.00000000E+00  0.00000000E+00
  0.00000000E+00  0.00000000E+00  0.00000000E+00
  0.00000000E+00  0.00000000E+00  0.00000000E+00
  0.00000000E+00  0.00000000E+00  0.00000000E+00
  0.00000000E+00  0.00000000E+00  0.00000000E+00
  0.00000000E+00  0.00000000E+00  0.00000000E+00
  0.00000000E+00  0.00000000E+00  0.00000000E+00
  0.00000000E+00  0.00000000E+00  0.00000000E+00
  0.00000000E+00  0.00000000E+00  0.00000000E+00
  0.00000000E+00  0.00000000E+00  0.00000000E+00
  0.00000000E+00  0.00000000E+00  0.00000000E+00
  0.00000000E+00  0.00000000E+00  0.00000000E+00
  0.00000000E+00  0.00000000E+00  0.00000000E+00
  0.00000000E+00  0.00000000E+00  0.00000000E+00
  0.00000000E+00  0.00000000E+00  0.00000000E+00
  0.00000000E+00  0.00000000E+00  0.00000000E+00
  0.00000000E+00  0.00000000E+00  0.00000000E+00
  0.00000000E+00  0.00000000E+00  0.00000000E+00
  0.00000000E+00  0.00000000E+00  0.00000000E+00
  0.00000000E+00  0.00000000E+00  0.00000000E+00
  0.00000000E+00  0.00000000E+00  0.00000000E+00
  0.00000000E+00  0.00000000E+00  0.00000000E+00
  0.00000000E+00  0.00000000E+00  0.00000000E+00
  0.00000000E+00  0.00000000E+00  0.00000000E+00
  0.00000000E+00  0.00000000E+00  0.00000000E+00
  0.00000000E+00  0.00000000E+00  0.00000000E+00
  0.00000000E+00  0.00000000E+00  0.00000000E+00
  0.00000000E+00  0.00000000E+00  0.00000000E+00
  0.00000000E+00  0.00000000E+00  0.00000000E+00
  0.00000000E+00  0.00000000E+00  0.00000000E+00
  0.00000000E+00  0.00000000E+00  0.00000000E+00
  0.00000000E+00  0.00000000E+00  0.00000000E+00
  0.00000000E+00  0.00000000E+00  0.00000000E+00
  0.00000000E+00  0.00000000E+00  0.00000000E+00
  0.00000000E+00  0.00000000E+00  0.00000000E+00
  0.00000000E+00  0.00000000E+00  0.00000000E+00
  0.00000000E+00  0.00000000E+00  0.00000000E+00
  0.00000000E+00  0.00000000E+00  0.00000000E+00
  0.00000000E+00  0.00000000E+00  0.00000000E+00
  0.00000000E+00  0.00000000E+00  0.00000000E+00
  0.00000000E+00  0.00000000E+00  0.00000000E+00
  0.00000000E+00  0.00000000E+00  0.00000000E+00
  0.00000000E+00  0.00000000E+00  0.00000000E+00
  0.00000000E+00  0.00000000E+00  0.00000000E+00
  0.00000000E+00  0.00000000E+00  0.00000000E+00
  0.00000000E+00  0.00000000E+00  0.00000000E+00
  0.00000000E+00  0.00000000E+00  0.00000000E+00
  0.00000000E+00  0.00000000E+00  0.00000000E+00
  0.00000000E+00  0.00000000E+00  0.00000000E+00
  0.00000000E+00  0.00000000E+00  0.00000000E+00
  0.00000000E+00  0.00000000E+00  0.00000000E+00
  0.00000000E+00  0.00000000E+00  0.00000000E+00
  0.00000000E+00  0.00000000E+00  0.00000000E+00
  0.00000000E+00  0.00000000E+00  0.00000000E+00
  0.00000000E+00  0.00000000E+00  0.00000000E+00
  0.00000000E+00  0.00000000E+00  0.00000000E+00
  0.00000000E+00  0.00000000E+00  0.00000000E+00
  0.00000000E+00  0.00000000E+00  0.00000000E+00
  0.00000000E+00  0.00000000E+00  0.00000000E+00
  0.00000000E+00  0.00000000E+00  0.00000000E+00
  0.00000000E+00  0.00000000E+00  0.00000000E+00
  0.00000000E+00  0.00000000E+00  0.00000000E+00
  0.00000000E+00  0.00000000E+00  0.00000000E+00
  0.00000000E+00  0.00000000E+00  0.00000000E+00
  0.00000000E+00  0.00000000E+00  0.00000000E+00
  0.00000000E+00  0.00000000E+00  0.00000000E+00
  0.00000000E+00  0.00000000E+00  0.00000000E+00
  0.00000000E+00  0.00000000E+00  0.00000000E+00
  0.00000000E+00  0.00000000E+00  0.00000000E+00
  0.00000000E+00  0.00000000E+00  0.00000000E+00
  0.00000000E+00  0.00000000E+00  0.00000000E+00
  0.00000000E+00  0.00000000E+00  0.00000000E+00
  0.00000000E+00  0.00000000E+00  0.00000000E+00
  0.00000000E+00  0.00000000E+00  0.00000000E+00
  0.00000000E+00  0.00000000E+00  0.00000000E+00
  0.00000000E+00  0.00000000E+00  0.00000000E+00
  0.00000000E+00  0.00000000E+00  0.00000000E+00
  0.00000000E+00  0.00000000E+00  0.00000000E+00
  0.00000000E+00  0.00000000E+00  0.00000000E+00
  0.00000000E+00  0.00000000E+00  0.00000000E+00
  0.00000000E+00  0.00000000E+00  0.00000000E+00
  0.00000000E+00  0.00000000E+00  0.00000000E+00
  0.00000000E+00  0.00000000E+00  0.00000000E+00
  0.00000000E+00  0.00000000E+00  0.00000000E+00
  0.00000000E+00  0.00000000E+00  0.00000000E+00
  0.00000000E+00  0.00000000E+00  0.00000000E+00
  0.00000000E+00  0.00000000E+00  0.00000000E+00
  0.00000000E+00  0.00000000E+00  0.00000000E+00
  0.00000000E+00  0.00000000E+00  0.00000000E+00
  0.00000000E+00  0.00000000E+00  0.00000000E+00
  0.00000000E+00  0.00000000E+00  0.00000000E+00
  0.00000000E+00  0.00000000E+00  0.00000000E+00
  0.00000000E+00  0.00000000E+00  0.00000000E+00
  0.00000000E+00  0.00000000E+00  0.00000000E+00
  0.00000000E+00  0.00000000E+00  0.00000000E+00
  0.00000000E+00  0.00000000E+00  0.00000000E+00
  0.00000000E+00  0.00000000E+00  0.00000000E+00
  0.00000000E+00  0.00000000E+00  0.00000000E+00
  0.00000000E+00  0.00000000E+00  0.00000000E+00
  0.00000000E+00  0.00000000E+00  0.00000000E+00
  0.00000000E+00  0.00000000E+00  0.00000000E+00
  0.00000000E+00  0.00000000E+00  0.00000000E+00
  0.00000000E+00  0.00000000E+00  0.00000000E+00
  0.00000000E+00  0.00000000E+00  0.00000000E+00
  0.00000000E+00  0.00000000E+00  0.00000000E+00
  0.00000000E+00  0.00000000E+00  0.00000000E+00
  0.00000000E+00  0.00000000E+00  0.00000000E+00
  0.00000000E+00  0.00000000E+00  0.00000000E+00
  0.00000000E+00  0.00000000E+00  0.00000000E+00
  0.00000000E+00  0.00000000E+00  0.00000000E+00
  0.00000000E+00  0.00000000E+00  0.00000000E+00
  0.00000000E+00  0.00000000E+00  0.00000000E+00
  0.00000000E+00  0.00000000E+00  0.00000000E+00
  0.00000000E+00  0.00000000E+00  0.00000000E+00
  0.00000000E+00  0.00000000E+00  0.00000000E+00
  0.00000000E+00  0.00000000E+00  0.00000000E+00
  0.00000000E+00  0.00000000E+00  0.00000000E+00
  0.00000000E+00  0.00000000E+00  0.00000000E+00
  0.00000000E+00  0.00000000E+00  0.00000000E+00
  0.00000000E+00  0.00000000E+00  0.00000000E+00
  0.00000000E+00  0.00000000E+00  0.00000000E+00
  0.00000000E+00  0.00000000E+00  0.00000000E+00
  0.00000000E+00  0.00000000E+00  0.00000000E+00
  0.00000000E+00  0.00000000E+00  0.00000000E+00
  0.00000000E+00  0.00000000E+00  0.00000000E+00
  0.00000000E+00  0.00000000E+00  0.00000000E+00
  0.00000000E+00  0.00000000E+00  0.00000000E+00
  0.00000000E+00  0.00000000E+00  0.00000000E+00
  0.00000000E+00  0.00000000E+00  0.00000000E+00
  0.00000000E+00  0.00000000E+00  0.00000000E+00
  0.00000000E+00  0.00000000E+00  0.00000000E+00
  0.00000000E+00  0.00000000E+00  0.00000000E+00
  0.00000000E+00  0.00000000E+00  0.00000000E+00
  0.00000000E+00  0.00000000E+00  0.00000000E+00
  0.00000000E+00  0.00000000E+00  0.00000000E+00
  0.00000000E+00  0.00000000E+00  0.00000000E+00
  0.00000000E+00  0.00000000E+00  0.00000000E+00
  0.00000000E+00  0.00000000E+00  0.00000000E+00
  0.00000000E+00  0.00000000E+00  0.00000000E+00
  0.00000000E+00  0.00000000E+00  0.00000000E+00
  0.00000000E+00  0.00000000E+00  0.00000000E+00
  0.00000000E+00  0.00000000E+00  0.00000000E+00
  0.00000000E+00  0.00000000E+00  0.00000000E+00
