Sb4
1.0
   3.8315360900000002   -0.0000000100000000    1.3151869600000001
   1.9157685300000000    5.6992958500000004    0.6575939700000000
   0.0654373999999990   -0.0000000100000000    6.0481636200000004
Sb
4
direct
   0.6512630600000000    0.1974748900000000    0.5000000000000000 Sb
   0.1512630600000000    0.5000000000000000    0.1974748900000000 Sb
   0.3487369400000000    0.8025251100000000    0.5000000000000000 Sb
   0.8487369400000000    0.5000000000000000    0.8025251100000000 Sb
