Ge Se                                   
   1.00000000000000     
    20.2881475498721393    0.0000000000000000    0.0000000000000000
     0.0000000000000000   20.2881475498721393    0.0000000000000000
     0.0000000000000000    0.0000000000000000   20.2881475498721393
   Ge   Se
   180   120
Direct
  0.6196984082276016  0.8061344808230120  0.7729805167634246
  0.9312306874867176  0.9947821994095627  0.4460660726481272
  0.2866935494035254  0.0065948979332574  0.2965063495055793
  0.6273643323449704  0.7582324177294575  0.4409031054404741
  0.3019303025656704  0.9862639930620370  0.0118075473916442
  0.5379803281942439  0.5791269410451652  0.6540589608575913
  0.8009297691742061  0.3749843634302299  0.4179598083942452
  0.5098968326048744  0.1751489682264446  0.3826350778770820
  0.3958658732003141  0.8647269811282623  0.5982506544398761
  0.8801819843953151  0.8726141503723501  0.1313522644599236
  0.5137415057590514  0.6915658216586898  0.4484266403139673
  0.5180268022506241  0.0367111456276455  0.2400885242751434
  0.8535353309496339  0.7794648032041266  0.3834737206203491
  0.0139338336063965  0.8672428318415990  0.3190746354942901
  0.8218573985097734  0.1546429069056307  0.4289556493520187
  0.2990978778828988  0.6126189682444314  0.0438466012590627
  0.4286515194713978  0.8070238493113125  0.2593748627481127
  0.6331660872849137  0.4980855617905033  0.4908416995191154
  0.0905516927081779  0.8159698797916991  0.4701433274754860
  0.1105395214192897  0.3405158463213699  0.1842254371521945
  0.2054421522412851  0.5224210017754509  0.3887797139103144
  0.3287495394707393  0.8672817944577654  0.7934124083218149
  0.2523651087977362  0.9100223908858580  0.4710440540792730
  0.2279529833820639  0.7751687822177563  0.3244986519105067
  0.7848248010076746  0.5610656937323404  0.3729423735407216
  0.6020824701269089  0.4729587420295435  0.3693102934883497
  0.5735442801627108  0.4745982173918182  0.1442274228420307
  0.8172857900892208  0.7705891436263073  0.5052201685659382
  0.4854351919099479  0.1534510624484774  0.5906078343652231
  0.7043104591678155  0.4713342419942478  0.6648789103323712
  0.4365777012630617  0.3376115289579525  0.4467729948046366
  0.9407309223175462  0.2464843123059888  0.0256965766257981
  0.8525546297157973  0.0393725930421684  0.0779938671990586
  0.9549890655539200  0.6221076655314026  0.5039670972196321
  0.9253951985348099  0.3682030562787113  0.3029617041326176
  0.2365950657559444  0.8982650213506346  0.3470482979401630
  0.2438799426939595  0.0485595865505757  0.1815553762454615
  0.4690424916728484  0.6850790806496423  0.1021435058060201
  0.7175536140611050  0.1613271736850903  0.0471120948070924
  0.1873074524779735  0.7739296573844103  0.2030339802881759
  0.8140870223136523  0.7764145506841386  0.1922462770358710
  0.4070155117780733  0.3926725300687565  0.5584151304474211
  0.6225659231034432  0.5309688011653988  0.9863868002138458
  0.0394808063753367  0.6280284590467442  0.9144600705950890
  0.6818940153917693  0.7556119035846479  0.2396015188667561
  0.1179926139105863  0.2950031100493989  0.9860763056744116
  0.9105132383545133  0.4293406948170683  0.9737863529638743
  0.0665183289764994  0.8730765011278673  0.0207248632186152
  0.2566606705579721  0.5063205808223958  0.1803320436137429
  0.4901336001923752  0.7766818476096455  0.5555657027612345
  0.4639355675911143  0.1438895856631226  0.0034710762913616
  0.5516658630880630  0.0141369370762403  0.0620116081320447
  0.9244302187667243  0.4195398519410691  0.8032594816016935
  0.4455128243048549  0.3168575954097659  0.0550033701180368
  0.5865114106748730  0.9908932156319704  0.8632841358316411
  0.4383216719105240  0.9926156144504024  0.1500322116548654
  0.2074391856698074  0.0968527263741174  0.3421605194184179
  0.0349185877304827  0.6985544620098403  0.3450877733372263
  0.7680497686006849  0.0638854325360810  0.9610611738886791
  0.0138993581373683  0.4417010443298550  0.6425348837361736
  0.3784416889384046  0.5757973232148916  0.5217703321882984
  0.6537076298637889  0.8701145229073627  0.9662439777676706
  0.7693885745183782  0.0602498389713629  0.5584316693573095
  0.2290769705412952  0.7010515769512465  0.8252072599530643
  0.3635875235475074  0.1891439352513052  0.5958630307906907
  0.9884973429232862  0.3802446240081677  0.4972259864717380
  0.0178350499332760  0.6783948537412450  0.2214606327836970
  0.7725664727066186  0.2946407245716012  0.2216469948663785
  0.6822696948762688  0.5790135104810524  0.2289057948157057
  0.2755535056263887  0.2364518805438620  0.1082653503586448
  0.2028129301855409  0.1729527541128009  0.7477372573497731
  0.0208858645570585  0.7404875941933003  0.8639818513867121
  0.1198960996899825  0.1774749018951667  0.9401690053058002
  0.1969656395706932  0.0367742358125802  0.6125496518068887
  0.9085781361093340  0.7250173997266303  0.0127978724683754
  0.1655216979491480  0.2694534543934292  0.5125362912633918
  0.5200771369302558  0.5776714291998439  0.3784694915036398
  0.4774252249260467  0.4304984501460977  0.8760449077498487
  0.8912196337204523  0.2408446487667995  0.5856889424841217
  0.1331734956892533  0.6429352533757661  0.0532000099295737
  0.4427605664659878  0.3006397854541201  0.7352822845688561
  0.6758458163554338  0.1925020406523328  0.8022145380256498
  0.3272087375610688  0.0083894264250826  0.4978391371236391
  0.4674734755293150  0.5290981453872459  0.7949586603277450
  0.3210699743017861  0.3015780359199789  0.5640769666685308
  0.2074189429372107  0.6111885287205199  0.2240958321575984
  0.2007561351995492  0.2590584861758288  0.2124048924055661
  0.2149173228704040  0.0581264999649265  0.9572087642610988
  0.4482500548194823  0.4100563774462206  0.6753699316951053
  0.8666370281432048  0.6546648664505105  0.3511250808502221
  0.4441843424718103  0.4312919425229158  0.9946356774028290
  0.4049633638543482  0.0502874721905268  0.3138238159423922
  0.7489040956815076  0.3545248599110736  0.5373739061001439
  0.2693174547640865  0.8527599094810263  0.5839827538981796
  0.8594144690693157  0.7089738994193485  0.8951096043775266
  0.8550658847454553  0.4509516347785563  0.1551515035397656
  0.3649647122022934  0.2596306343468495  0.8668874344628622
  0.3840008841894640  0.6086895799971046  0.2434144316975293
  0.1777959716612896  0.4342127431306515  0.1169764840342894
  0.2271917397517290  0.6851015925809673  0.1261265301133292
  0.6544045972159126  0.2367962242500442  0.2738821910053988
  0.3117042976897322  0.3122957308945764  0.4367164892687178
  0.4181035913173610  0.7272588877906264  0.8941465684388898
  0.3003286947877272  0.4439076005054780  0.4232075246626125
  0.1523022400671569  0.4215479167369861  0.2988579088253153
  0.5035987555522957  0.9234206269889050  0.4234915742605604
  0.2982986897114855  0.1304073960776149  0.5088412648976338
  0.3577741036320665  0.9086962658349876  0.2090810484424830
  0.1318285282784412  0.9401869599563349  0.4758000162379449
  0.1206712651545302  0.9346083121944379  0.3093154482195829
  0.6114110916211427  0.3531209608451223  0.8121762150477904
  0.9387236221334752  0.8455820075099539  0.0218678002971026
  0.2385551350827310  0.8802174229415946  0.1649695302109532
  0.2457849634099428  0.1549227565000994  0.8780383929924633
  0.4324991952419490  0.7552323030293768  0.3723301901536134
  0.0485185181241603  0.0512877465455811  0.1064747482529138
  0.7264720260433268  0.9863499604975638  0.8238675337701054
  0.1464891629057010  0.8927051926350594  0.6488921074879836
  0.1680696113591002  0.6146799843390891  0.4733188580304324
  0.3912149346132177  0.9306222859559999  0.9374127986850215
  0.0607927086564413  0.5936219562747480  0.6527023143498510
  0.8962792010009788  0.5364558932981855  0.7761020887852038
  0.7946310885998953  0.3244221939516081  0.0415597728381380
  0.8287284655748277  0.8811303320520141  0.9715773399349792
  0.2413036383898055  0.4552014128914564  0.0110368679854469
  0.0764346328439964  0.7624147640706277  0.1435791651342089
  0.5577397615943509  0.2399398101326875  0.9338219735697971
  0.1025275156987876  0.5354012024785390  0.1084672943160636
  0.6670463998570135  0.9483951489420245  0.3550567643344399
  0.3680887901257999  0.3377600219032720  0.2526998897473802
  0.1553344369031171  0.9037434947881251  0.8321827811438853
  0.5149243406991454  0.3784707129549285  0.3549877859958860
  0.7355269349162185  0.5772565335359354  0.4873710583370942
  0.7259633068145037  0.4493293651671545  0.3397800566528426
  0.8445392915370714  0.9446500994294618  0.6059544223358506
  0.8456935795901748  0.0257812017382958  0.2791937512027263
  0.0062890144545538  0.6456975478478331  0.0332673132320914
  0.1679271333134255  0.6766305935693128  0.6039980932328468
  0.8873004004062441  0.8409475671780364  0.6662921532810524
  0.9794522667651492  0.7881267881299645  0.4106423536438278
  0.3762624639156228  0.0720968462844647  0.0734132909793672
  0.6822094869588183  0.1844278538010356  0.6426897716576089
  0.1080868381525432  0.0284709560302370  0.3880961148005603
  0.7360680257060452  0.2356097152331279  0.4740111746479013
  0.3177758989417528  0.2825199183281026  0.7471681090264798
  0.0585461437609485  0.2676501084326169  0.3627374598961371
  0.3385832755931614  0.6924131629983866  0.7069803008329688
  0.5167809587205351  0.8061650998831212  0.1157848869389195
  0.0665393981471630  0.3372097593878818  0.8803394780126627
  0.9857782963369083  0.8287828972173283  0.7471883366700222
  0.1438520759214595  0.7201765173115464  0.4033294026175444
  0.3191172954895280  0.7079148883423374  0.3741606605185254
  0.1676809651329161  0.6162633679409952  0.9291623215611541
  0.6275581814210137  0.6710476734615400  0.6703023210682385
  0.7468701230399468  0.4425084696799284  0.8587722423105432
  0.6736871276532740  0.8350615243441164  0.6281306990173269
  0.4113333469476744  0.5966978638246205  0.6499578052499718
  0.8369825790832990  0.7864955984536501  0.7672332869676005
  0.9222754381169053  0.8232693840932878  0.8602554252866184
  0.6134111664548162  0.3408491534473429  0.0369388776270882
  0.1685133195916588  0.1400334580460753  0.2304250832438100
  0.8853032962051502  0.6764128342942796  0.2285598851847661
  0.4762637744553922  0.1590333970783375  0.7708635873358112
  0.9244121113489371  0.6035634346571431  0.8751958569030226
  0.6690966320428525  0.0548139501683591  0.2029085660707209
  0.5515649926987365  0.8070101591376451  0.2363976552196830
  0.7432242564716637  0.6504179473095238  0.8308103694336767
  0.8917619631096196  0.2984908711137533  0.4661062287617904
  0.2883631029756387  0.6529729778414598  0.4796634627473763
  0.9548865535302132  0.1692692711563226  0.2229224061528382
  0.4599568156593984  0.9755296234920472  0.7863165702421060
  0.2365741542016224  0.4055881621552275  0.8473152136288805
  0.7593150252043152  0.9777614660713132  0.7006336892349790
  0.3037140489457134  0.2250579538596318  0.9695487089470440
  0.2819507508460768  0.6003491513464175  0.3234632997749546
  0.7470274593665260  0.7895328314002051  0.9333328362102723
  0.8456831638703796  0.5419061643562848  0.5421196123732988
  0.4813235984131830  0.3079191163539853  0.8539080806888177
  0.7481647951786301  0.6192458221590739  0.0800886011113437
  0.2859522848405119  0.1871394381149231  0.3979286242190342
  0.7751287978897506  0.5346020461662320  0.7751761622992601
  0.3743999351450568  0.1362462192625261  0.8801031741893234
  0.7369228297711852  0.8408331687964330  0.8167232847865545
  0.9084477114392588  0.9287730155678724  0.3373955285022954
  0.0511454111492172  0.3410987394739274  0.0731087833655613
  0.3888079913879205  0.1718745218689633  0.3306676211552021
  0.3652944463708612  0.5432111507253510  0.1365053562334620
  0.6475767811421864  0.6628124694063188  0.1420798021137754
  0.1050812907578731  0.4946662600636574  0.7046408789340370
  0.0292704323289600  0.3902621839928435  0.3761523945515634
  0.2828281834203708  0.7294406724614293  0.5751828779756556
  0.4212400359961379  0.8836222788910069  0.0941705519857304
  0.6744210195162026  0.2819926470674461  0.8955750515286385
  0.7759967123239517  0.2731932778658125  0.6302099487456588
  0.6189360739653583  0.8554055397989857  0.0804733585908315
  0.0514150949857707  0.7280785316162772  0.7478550263401879
  0.8698000483941678  0.3150230484017126  0.1427027652483168
  0.0953101697963191  0.7876142012487933  0.5911022011421061
  0.2814452545572377  0.4317341127438143  0.2745317319965788
  0.8664143795277226  0.4814880145789165  0.4354234323162156
  0.6548509425218654 -0.0027333487332540  0.9724286777537874
  0.8341201762321097  0.9769944913238879  0.8949827156154032
  0.5092475682075448  0.5241035670380310  0.0451560919032189
  0.1648077516300694  0.4891928727618121  0.9234929353836636
  0.0451311797215402  0.2798967969127131  0.5418962689746937
  0.8750297064413244  0.1267738843985918  0.5351673450233035
  0.5610113183800230  0.1327615924423912  0.0871751541366864
  0.0062117376407657  0.0857010373629923  0.4028411762699716
  0.4292011984881556  0.8621280622953605  0.7268458068114521
  0.8136602962428880  0.0338624958523736  0.4076417299170917
  0.8095377272136236  0.5840670623175122  0.1862180974298215
  0.1523139741807598  0.1178499774572070  0.0451355767202054
  0.2284345310925065  0.6332459889490206  0.7160357272274815
  0.1589771644456026  0.0608926459317508  0.7261744550145023
  0.6392246231206781  0.4016052811525286  0.5680139163895894
  0.3769203736076381  0.7203297574156738  0.1871792969380007
  0.3949197856793819  0.9856365619464569  0.5941051896332361
  0.9598772812019948  0.1455457904783667  0.0979722690356804
  0.6719059610618644  0.1412161740525222  0.5222386375778610
  0.1418437168212072  0.9548997939024977  0.1912951959641269
  0.9744158902573334  0.5973679131656506  0.3799752605604930
  0.7383577544616345  0.9570524844752758  0.2508940932186248
  0.4061758131188419  0.5301222081121918  0.4078173813463019
  0.7631688191008296  0.8750460879947869  0.5418039038089767
  0.6971052894856699  0.8241389728951372  0.3630605538791458
  0.3446494213928890  0.6467514674117335  0.8323301726574459
  0.6745262658149911  0.4493089287309051  0.0643102757082812
  0.3352792344021198  0.9834278576493847  0.8268008260513885
  0.3453515055497931  0.3418545903310922  0.1255743469770184
  0.3788607081426367  0.7053400745351078  0.0154082534033873
  0.9410586953330576  0.4680730252251664  0.2385401048894198
  0.5179702707940519  0.7335471266381153  0.6655324376020180
  0.7734509836439644  0.0997918162332276  0.6785469293524666
  0.5516745615574191  0.9249770706296774  0.2918971983006198
  0.2311264462809635  0.3393758592529673  0.9616921267301054
  0.8175234039927740  0.4406198492577949  0.6106800521774310
  0.8214531722216264  0.2137588329474265  0.9889625571784129
  0.8984773808479273  0.7483695582154219  0.5909259504472342
  0.8564259674980264  0.5403424224744334  0.9527553047024570
  0.9662905696200138  0.3486248166085887  0.7218877341437657
  0.5755481731405538  0.1401401501671693  0.8534000414054693
  0.5969759765058557  0.4629282471207874  0.8810336753594111
  0.1800445800387426  0.3011923831611331  0.3326134072844441
  0.9368458281190929  0.5506400058704544  0.6650062687888009
  0.7996487497436292  0.7342582771062505  0.0746672281666041
  0.1798208907346406  0.1365332732219633  0.5325657894404833
  0.4514343888693205  0.4309859503497433  0.2671859811978167
  0.7805786822061039  0.9290790555540939  0.0760490415097062
  0.6482358976354116  0.9498684515866129  0.6638572572563598
  0.6956127492037131  0.2749545612111745  0.1078589913869002
  0.0077372081052932  0.4456871081881712  0.8889395971378985
  0.1443745735547874  0.3497150591478949  0.7930054514945545
  0.5301039430593765  0.2374639424332902  0.6743712232127300
  0.0845500532509466  0.9805266375608842  0.5790004465072193
  0.5653955217644122  0.8601656612553215  0.8817804132263607
  0.0102645069408488  0.2835209698906474  0.2426195844083739
  0.2145712092519720  0.3149749285706488  0.6153571294253087
  0.4848402033617683  0.0285911272566831  0.9531290928778584
  0.6816494220462053  0.2915271378462165  0.3820471427838140
  0.6713768568363537  0.1208353958834444  0.3084657259899136
  0.6879158091203670  0.6613897059824512  0.3217960527459259
  0.5927056440254082  0.8439426084570134  0.5280638366502864
  0.2395036484330738  0.8123621140604099  0.7405518407032622
  0.3140786263244134  0.4733358090441125  0.5476201145511785
  0.7612005364026292  0.1106086178549876  0.8459148547936893
  0.9842987156366392  0.8151932831687005  0.2145608565118801
  0.1083259504869409  0.8164067730476506  0.9121356476254661
  0.3448161662793207  0.4890002276132580  0.9569144950530060
  0.7396975142633926  0.4165319509315575  0.2229607199283454
  0.2321648828944875  0.8921570011370037  0.0464335373218924
  0.5277592806689748  0.2682997000877274  0.2984864154593720
  0.7733096577987382  0.1117436633576052  0.1487272525354963
  0.6183531043447791  0.6797678417845736  0.7962050198095180
  0.5484591210602029  0.4678301119850162  0.7120403179387201
  0.9045822924445265  0.2213034465205299  0.3735791386731071
  0.0456188727748826  0.5477514336403818  0.5337600393925557
  0.8468377842555320  0.3645313957285601  0.8749523033230771
  0.7955433396043011  0.6849874768395097  0.7248247518349219
  0.7080565845845299  0.6967022228503016  0.5184407441019507
  0.0565722191890283  0.0947508551806574  0.2339535485835213
  0.9242340323916655  0.9819865959583743  0.1664592866414874
  0.0265575879654817  0.9801533559747049  0.9701127850724279
  0.3405294737229887  0.1451428080312361  0.1646242718111338
  0.4342038103425950  0.0301954730361778  0.4322556912788506
  0.4007519419386799  0.8574313651254115  0.4318877620027187
  0.4939148397032496  0.0587912919346341  0.7012917993808102
  0.5326686556157398  0.5453917559907252  0.5368058746244814
  0.9873777414119574  0.5311908356554372  0.0718148660792441
  0.9950012451634986  0.1759893367489174  0.9302596745195120
  0.3253459825714024  0.1625583628073940  0.7099758164615682
 -0.0085811862895459  0.2550293448513799  0.8355918389898765
  0.7192195717364428  0.3768931495994801  0.7503158168921367
  0.5014690010571963  0.2434785408849820  0.4871522606516897
  0.5346551043614570  0.3531369027998931  0.1337543901213853
  0.0950070694997929  0.5640370533166583  0.2300771814142154
  0.5020865696330682  0.6181161230704989  0.2634302805688770
  0.1137564970053485  0.0142638663828757  0.8982191980390171
  0.3713148703976273  0.4954578070885162  0.7150589211337817
  0.0618567065995831  0.9218152247404339  0.7484276190502448
  0.3248432711968139  0.8127469469784724  0.8996571311025021
 
  0.00000000E+00  0.00000000E+00  0.00000000E+00
  0.00000000E+00  0.00000000E+00  0.00000000E+00
  0.00000000E+00  0.00000000E+00  0.00000000E+00
  0.00000000E+00  0.00000000E+00  0.00000000E+00
  0.00000000E+00  0.00000000E+00  0.00000000E+00
  0.00000000E+00  0.00000000E+00  0.00000000E+00
  0.00000000E+00  0.00000000E+00  0.00000000E+00
  0.00000000E+00  0.00000000E+00  0.00000000E+00
  0.00000000E+00  0.00000000E+00  0.00000000E+00
  0.00000000E+00  0.00000000E+00  0.00000000E+00
  0.00000000E+00  0.00000000E+00  0.00000000E+00
  0.00000000E+00  0.00000000E+00  0.00000000E+00
  0.00000000E+00  0.00000000E+00  0.00000000E+00
  0.00000000E+00  0.00000000E+00  0.00000000E+00
  0.00000000E+00  0.00000000E+00  0.00000000E+00
  0.00000000E+00  0.00000000E+00  0.00000000E+00
  0.00000000E+00  0.00000000E+00  0.00000000E+00
  0.00000000E+00  0.00000000E+00  0.00000000E+00
  0.00000000E+00  0.00000000E+00  0.00000000E+00
  0.00000000E+00  0.00000000E+00  0.00000000E+00
  0.00000000E+00  0.00000000E+00  0.00000000E+00
  0.00000000E+00  0.00000000E+00  0.00000000E+00
  0.00000000E+00  0.00000000E+00  0.00000000E+00
  0.00000000E+00  0.00000000E+00  0.00000000E+00
  0.00000000E+00  0.00000000E+00  0.00000000E+00
  0.00000000E+00  0.00000000E+00  0.00000000E+00
  0.00000000E+00  0.00000000E+00  0.00000000E+00
  0.00000000E+00  0.00000000E+00  0.00000000E+00
  0.00000000E+00  0.00000000E+00  0.00000000E+00
  0.00000000E+00  0.00000000E+00  0.00000000E+00
  0.00000000E+00  0.00000000E+00  0.00000000E+00
  0.00000000E+00  0.00000000E+00  0.00000000E+00
  0.00000000E+00  0.00000000E+00  0.00000000E+00
  0.00000000E+00  0.00000000E+00  0.00000000E+00
  0.00000000E+00  0.00000000E+00  0.00000000E+00
  0.00000000E+00  0.00000000E+00  0.00000000E+00
  0.00000000E+00  0.00000000E+00  0.00000000E+00
  0.00000000E+00  0.00000000E+00  0.00000000E+00
  0.00000000E+00  0.00000000E+00  0.00000000E+00
  0.00000000E+00  0.00000000E+00  0.00000000E+00
  0.00000000E+00  0.00000000E+00  0.00000000E+00
  0.00000000E+00  0.00000000E+00  0.00000000E+00
  0.00000000E+00  0.00000000E+00  0.00000000E+00
  0.00000000E+00  0.00000000E+00  0.00000000E+00
  0.00000000E+00  0.00000000E+00  0.00000000E+00
  0.00000000E+00  0.00000000E+00  0.00000000E+00
  0.00000000E+00  0.00000000E+00  0.00000000E+00
  0.00000000E+00  0.00000000E+00  0.00000000E+00
  0.00000000E+00  0.00000000E+00  0.00000000E+00
  0.00000000E+00  0.00000000E+00  0.00000000E+00
  0.00000000E+00  0.00000000E+00  0.00000000E+00
  0.00000000E+00  0.00000000E+00  0.00000000E+00
  0.00000000E+00  0.00000000E+00  0.00000000E+00
  0.00000000E+00  0.00000000E+00  0.00000000E+00
  0.00000000E+00  0.00000000E+00  0.00000000E+00
  0.00000000E+00  0.00000000E+00  0.00000000E+00
  0.00000000E+00  0.00000000E+00  0.00000000E+00
  0.00000000E+00  0.00000000E+00  0.00000000E+00
  0.00000000E+00  0.00000000E+00  0.00000000E+00
  0.00000000E+00  0.00000000E+00  0.00000000E+00
  0.00000000E+00  0.00000000E+00  0.00000000E+00
  0.00000000E+00  0.00000000E+00  0.00000000E+00
  0.00000000E+00  0.00000000E+00  0.00000000E+00
  0.00000000E+00  0.00000000E+00  0.00000000E+00
  0.00000000E+00  0.00000000E+00  0.00000000E+00
  0.00000000E+00  0.00000000E+00  0.00000000E+00
  0.00000000E+00  0.00000000E+00  0.00000000E+00
  0.00000000E+00  0.00000000E+00  0.00000000E+00
  0.00000000E+00  0.00000000E+00  0.00000000E+00
  0.00000000E+00  0.00000000E+00  0.00000000E+00
  0.00000000E+00  0.00000000E+00  0.00000000E+00
  0.00000000E+00  0.00000000E+00  0.00000000E+00
  0.00000000E+00  0.00000000E+00  0.00000000E+00
  0.00000000E+00  0.00000000E+00  0.00000000E+00
  0.00000000E+00  0.00000000E+00  0.00000000E+00
  0.00000000E+00  0.00000000E+00  0.00000000E+00
  0.00000000E+00  0.00000000E+00  0.00000000E+00
  0.00000000E+00  0.00000000E+00  0.00000000E+00
  0.00000000E+00  0.00000000E+00  0.00000000E+00
  0.00000000E+00  0.00000000E+00  0.00000000E+00
  0.00000000E+00  0.00000000E+00  0.00000000E+00
  0.00000000E+00  0.00000000E+00  0.00000000E+00
  0.00000000E+00  0.00000000E+00  0.00000000E+00
  0.00000000E+00  0.00000000E+00  0.00000000E+00
  0.00000000E+00  0.00000000E+00  0.00000000E+00
  0.00000000E+00  0.00000000E+00  0.00000000E+00
  0.00000000E+00  0.00000000E+00  0.00000000E+00
  0.00000000E+00  0.00000000E+00  0.00000000E+00
  0.00000000E+00  0.00000000E+00  0.00000000E+00
  0.00000000E+00  0.00000000E+00  0.00000000E+00
  0.00000000E+00  0.00000000E+00  0.00000000E+00
  0.00000000E+00  0.00000000E+00  0.00000000E+00
  0.00000000E+00  0.00000000E+00  0.00000000E+00
  0.00000000E+00  0.00000000E+00  0.00000000E+00
  0.00000000E+00  0.00000000E+00  0.00000000E+00
  0.00000000E+00  0.00000000E+00  0.00000000E+00
  0.00000000E+00  0.00000000E+00  0.00000000E+00
  0.00000000E+00  0.00000000E+00  0.00000000E+00
  0.00000000E+00  0.00000000E+00  0.00000000E+00
  0.00000000E+00  0.00000000E+00  0.00000000E+00
  0.00000000E+00  0.00000000E+00  0.00000000E+00
  0.00000000E+00  0.00000000E+00  0.00000000E+00
  0.00000000E+00  0.00000000E+00  0.00000000E+00
  0.00000000E+00  0.00000000E+00  0.00000000E+00
  0.00000000E+00  0.00000000E+00  0.00000000E+00
  0.00000000E+00  0.00000000E+00  0.00000000E+00
  0.00000000E+00  0.00000000E+00  0.00000000E+00
  0.00000000E+00  0.00000000E+00  0.00000000E+00
  0.00000000E+00  0.00000000E+00  0.00000000E+00
  0.00000000E+00  0.00000000E+00  0.00000000E+00
  0.00000000E+00  0.00000000E+00  0.00000000E+00
  0.00000000E+00  0.00000000E+00  0.00000000E+00
  0.00000000E+00  0.00000000E+00  0.00000000E+00
  0.00000000E+00  0.00000000E+00  0.00000000E+00
  0.00000000E+00  0.00000000E+00  0.00000000E+00
  0.00000000E+00  0.00000000E+00  0.00000000E+00
  0.00000000E+00  0.00000000E+00  0.00000000E+00
  0.00000000E+00  0.00000000E+00  0.00000000E+00
  0.00000000E+00  0.00000000E+00  0.00000000E+00
  0.00000000E+00  0.00000000E+00  0.00000000E+00
  0.00000000E+00  0.00000000E+00  0.00000000E+00
  0.00000000E+00  0.00000000E+00  0.00000000E+00
  0.00000000E+00  0.00000000E+00  0.00000000E+00
  0.00000000E+00  0.00000000E+00  0.00000000E+00
  0.00000000E+00  0.00000000E+00  0.00000000E+00
  0.00000000E+00  0.00000000E+00  0.00000000E+00
  0.00000000E+00  0.00000000E+00  0.00000000E+00
  0.00000000E+00  0.00000000E+00  0.00000000E+00
  0.00000000E+00  0.00000000E+00  0.00000000E+00
  0.00000000E+00  0.00000000E+00  0.00000000E+00
  0.00000000E+00  0.00000000E+00  0.00000000E+00
  0.00000000E+00  0.00000000E+00  0.00000000E+00
  0.00000000E+00  0.00000000E+00  0.00000000E+00
  0.00000000E+00  0.00000000E+00  0.00000000E+00
  0.00000000E+00  0.00000000E+00  0.00000000E+00
  0.00000000E+00  0.00000000E+00  0.00000000E+00
  0.00000000E+00  0.00000000E+00  0.00000000E+00
  0.00000000E+00  0.00000000E+00  0.00000000E+00
  0.00000000E+00  0.00000000E+00  0.00000000E+00
  0.00000000E+00  0.00000000E+00  0.00000000E+00
  0.00000000E+00  0.00000000E+00  0.00000000E+00
  0.00000000E+00  0.00000000E+00  0.00000000E+00
  0.00000000E+00  0.00000000E+00  0.00000000E+00
  0.00000000E+00  0.00000000E+00  0.00000000E+00
  0.00000000E+00  0.00000000E+00  0.00000000E+00
  0.00000000E+00  0.00000000E+00  0.00000000E+00
  0.00000000E+00  0.00000000E+00  0.00000000E+00
  0.00000000E+00  0.00000000E+00  0.00000000E+00
  0.00000000E+00  0.00000000E+00  0.00000000E+00
  0.00000000E+00  0.00000000E+00  0.00000000E+00
  0.00000000E+00  0.00000000E+00  0.00000000E+00
  0.00000000E+00  0.00000000E+00  0.00000000E+00
  0.00000000E+00  0.00000000E+00  0.00000000E+00
  0.00000000E+00  0.00000000E+00  0.00000000E+00
  0.00000000E+00  0.00000000E+00  0.00000000E+00
  0.00000000E+00  0.00000000E+00  0.00000000E+00
  0.00000000E+00  0.00000000E+00  0.00000000E+00
  0.00000000E+00  0.00000000E+00  0.00000000E+00
  0.00000000E+00  0.00000000E+00  0.00000000E+00
  0.00000000E+00  0.00000000E+00  0.00000000E+00
  0.00000000E+00  0.00000000E+00  0.00000000E+00
  0.00000000E+00  0.00000000E+00  0.00000000E+00
  0.00000000E+00  0.00000000E+00  0.00000000E+00
  0.00000000E+00  0.00000000E+00  0.00000000E+00
  0.00000000E+00  0.00000000E+00  0.00000000E+00
  0.00000000E+00  0.00000000E+00  0.00000000E+00
  0.00000000E+00  0.00000000E+00  0.00000000E+00
  0.00000000E+00  0.00000000E+00  0.00000000E+00
  0.00000000E+00  0.00000000E+00  0.00000000E+00
  0.00000000E+00  0.00000000E+00  0.00000000E+00
  0.00000000E+00  0.00000000E+00  0.00000000E+00
  0.00000000E+00  0.00000000E+00  0.00000000E+00
  0.00000000E+00  0.00000000E+00  0.00000000E+00
  0.00000000E+00  0.00000000E+00  0.00000000E+00
  0.00000000E+00  0.00000000E+00  0.00000000E+00
  0.00000000E+00  0.00000000E+00  0.00000000E+00
  0.00000000E+00  0.00000000E+00  0.00000000E+00
  0.00000000E+00  0.00000000E+00  0.00000000E+00
  0.00000000E+00  0.00000000E+00  0.00000000E+00
  0.00000000E+00  0.00000000E+00  0.00000000E+00
  0.00000000E+00  0.00000000E+00  0.00000000E+00
  0.00000000E+00  0.00000000E+00  0.00000000E+00
  0.00000000E+00  0.00000000E+00  0.00000000E+00
  0.00000000E+00  0.00000000E+00  0.00000000E+00
  0.00000000E+00  0.00000000E+00  0.00000000E+00
  0.00000000E+00  0.00000000E+00  0.00000000E+00
  0.00000000E+00  0.00000000E+00  0.00000000E+00
  0.00000000E+00  0.00000000E+00  0.00000000E+00
  0.00000000E+00  0.00000000E+00  0.00000000E+00
  0.00000000E+00  0.00000000E+00  0.00000000E+00
  0.00000000E+00  0.00000000E+00  0.00000000E+00
  0.00000000E+00  0.00000000E+00  0.00000000E+00
  0.00000000E+00  0.00000000E+00  0.00000000E+00
  0.00000000E+00  0.00000000E+00  0.00000000E+00
  0.00000000E+00  0.00000000E+00  0.00000000E+00
  0.00000000E+00  0.00000000E+00  0.00000000E+00
  0.00000000E+00  0.00000000E+00  0.00000000E+00
  0.00000000E+00  0.00000000E+00  0.00000000E+00
  0.00000000E+00  0.00000000E+00  0.00000000E+00
  0.00000000E+00  0.00000000E+00  0.00000000E+00
  0.00000000E+00  0.00000000E+00  0.00000000E+00
  0.00000000E+00  0.00000000E+00  0.00000000E+00
  0.00000000E+00  0.00000000E+00  0.00000000E+00
  0.00000000E+00  0.00000000E+00  0.00000000E+00
  0.00000000E+00  0.00000000E+00  0.00000000E+00
  0.00000000E+00  0.00000000E+00  0.00000000E+00
  0.00000000E+00  0.00000000E+00  0.00000000E+00
  0.00000000E+00  0.00000000E+00  0.00000000E+00
  0.00000000E+00  0.00000000E+00  0.00000000E+00
  0.00000000E+00  0.00000000E+00  0.00000000E+00
  0.00000000E+00  0.00000000E+00  0.00000000E+00
  0.00000000E+00  0.00000000E+00  0.00000000E+00
  0.00000000E+00  0.00000000E+00  0.00000000E+00
  0.00000000E+00  0.00000000E+00  0.00000000E+00
  0.00000000E+00  0.00000000E+00  0.00000000E+00
  0.00000000E+00  0.00000000E+00  0.00000000E+00
  0.00000000E+00  0.00000000E+00  0.00000000E+00
  0.00000000E+00  0.00000000E+00  0.00000000E+00
  0.00000000E+00  0.00000000E+00  0.00000000E+00
  0.00000000E+00  0.00000000E+00  0.00000000E+00
  0.00000000E+00  0.00000000E+00  0.00000000E+00
  0.00000000E+00  0.00000000E+00  0.00000000E+00
  0.00000000E+00  0.00000000E+00  0.00000000E+00
  0.00000000E+00  0.00000000E+00  0.00000000E+00
  0.00000000E+00  0.00000000E+00  0.00000000E+00
  0.00000000E+00  0.00000000E+00  0.00000000E+00
  0.00000000E+00  0.00000000E+00  0.00000000E+00
  0.00000000E+00  0.00000000E+00  0.00000000E+00
  0.00000000E+00  0.00000000E+00  0.00000000E+00
  0.00000000E+00  0.00000000E+00  0.00000000E+00
  0.00000000E+00  0.00000000E+00  0.00000000E+00
  0.00000000E+00  0.00000000E+00  0.00000000E+00