amor; Created by Multiwfn               
   1.00000000000000     
    18.0804831143034832    0.0000000000000000    0.0000000000000000
     0.0000000000000000   18.0804831143034832    0.0000000000000000
     0.0000000000000000    0.0000000000000000   18.0804831143034832
   Cr   Te   Se
    50   140    10
Direct
  0.0374808325458675  0.6512116239371958  0.3206984755311553
  0.3923738795190937  0.4869068862151189  0.6136874040451519
  0.6048125776605978  0.8677673104267893  0.6713226116538368
  0.5171122267790594  0.8633840904705818  0.5690764103611475
  0.4561409625441041  0.0307840461552041  0.3366102429459360
  0.7486566166844933  0.5212122923967499  0.4907994396833984
  0.2889430462281400  0.2994690161844678  0.3353754453380369
  0.4414864853788159  0.2514923329132364  0.4451527402838837
  0.4190617983148248  0.9395376025787152  0.3491738326527032
  0.8096838794971086  0.6002189492561867  0.3620534316506774
  0.2318260065262205  0.3859098516250627  0.2342045147814289
  0.0465829126398189  0.4740367765702005  0.7144748947020079
  0.7369545177245914  0.5157360680973602  0.0096787370888662
  0.3809716116053151  0.5706491581400044  0.6529512518648742
  0.1474115354726521  0.9324789148257919  0.8780756122099987
  0.0638736254270518  0.5438240405617923  0.8151119478831061
  0.8572148476657900  0.2185265215986089  0.9868333632227128
  0.3953109535373155  0.6574254996119849  0.2434178899625287
  0.7088274721393135  0.7698767334560453  0.6535925848924068
  0.2077465468803082  0.1982171469556003  0.8021369257344716
  0.4939637893394489  0.7438993209752888  0.6671436930251068
  0.1718402143674060  0.7122119322046171  0.7006263176300980
  0.7609746510697543  0.1773143077913236  0.1125956047845026
  0.7187030325068853  0.6605275933281771  0.5207242676543806
  0.0986058346214421  0.6683157848496691  0.6075890792283932
  0.3817019707383326  0.2182582237642662  0.3191366483808946
  0.6295726936407835  0.9219357778793861  0.4630444400829974
  0.1755712182431421  0.0502215826841721  0.8244673985889661
  0.5374390833778407  0.6043595553005491  0.1085175254665230
  0.0741496590268284  0.0033657108161636  0.7679539873213468
  0.3520150779243528  0.8188041235775253  0.6123997665111424
  0.0745775218216574  0.0447904982547310  0.9086408721951846
  0.1325856399978660  0.5791595795068220  0.7028744083424276
  0.5793119820428102  0.9191982211196138  0.7942881483708438
  0.6935986198397033  0.6147527138953149  0.0838294822451016
  0.6320242272450012  0.4859234993884777  0.0894670797835816
  0.0052288337613316  0.5978687150819926  0.6895235483101123
  0.3295621111190422  0.0643889187136554  0.2990777058911642
  0.2832689153038322  0.7503882621201331  0.5844580365340716
  0.2516507123086564  0.1779403083134980  0.3447162063534729
  0.7516041383551831  0.4910946445047853  0.1414314910364912
  0.6682408413057601  0.8755379631417977  0.5447551611377864
  0.0596302911038020  0.6953184518786499  0.7539861717045285
  0.4460516316402089  0.7466383326887827  0.1054524036078478
  0.4026508932247669  0.5750608771948933  0.1964915494662783
  0.3288376328387007  0.3613354540443298  0.4573290848422812
  0.7727741116100645  0.3465545354062805  0.0443626163967493
  0.6590194985189669 -0.0161601478098956  0.7481699286277987
  0.8557472638756910  0.5137856186292875  0.3792690209746031
  0.4460703757799210  0.7698701817202501  0.7453326123568744
  0.6129471669781396  0.5670756489726144  0.4909273097938313
  0.7355391191911250  0.7260032803034785  0.1739254648592124
  0.6487810349094436  0.2306753391268798  0.5596866433596664
  0.1638360053804478  0.1012265219174015  0.6874937228413622
  0.8691438734566566  0.1664976046550525  0.8416429660348319
  0.9207494166056142  0.0015382113279245  0.0934963425622409
  0.8054148113912843  0.3111758857039291  0.3753646754027544
  0.6518460534004413  0.4055605282196987  0.9716295968991818
  0.8539688303477204  0.6127720064460873  0.5070324271884981
  0.1026148185313528  0.8553550310375045  0.7645833916391150
  0.1626515650313521  0.3072995517560021  0.8929546965367773
  0.0406391097790096  0.3584813467914316  0.1067444698641979
  0.5987121006831061  0.5771667762501790  0.9753222209972047
  0.4328425328519079  0.1810557860360744  0.9756336923846413
  0.2606043009713439  0.4403866035166785  0.5686196244506555
  0.0111989291803750  0.9926293429717402  0.6328502098607230
  0.3246536748094314  0.1211647015776693  0.7889704745749981
  0.7112858803801251  0.2250414820185844  0.9859383733977317
  0.6369501552526057  0.5685454753500617  0.2096294710797368
  0.9641773534919170  0.4342467675677964  0.8253027536216451
  0.7234741900545011  0.4121933029519558  0.5755707029093968
  0.2785778180139062  0.6321630878381262  0.3306817693389553
  0.9718533676651807  0.7070183378246896  0.0543767462709101
  0.9029967928138477  0.4901629254595399  0.6812528230118630
  0.3012356017846082  0.7743571251539342  0.7445823877885910
  0.5147138649393798  0.8417636149798006  0.4217069028925278
  0.2042072015684067  0.8023519965535667  0.9371837622153720
  0.8590475692430456  0.1105557262963025  0.2122241669169493
  0.7049627311443504  0.3008541354494453  0.7862442385016259
  0.8584455282636371  0.2807648978965948  0.7365531542980724
  0.5386974965374951  0.0717357072142032  0.0217310722711945
  0.3413847786549358  0.5484334029264452  0.7946764159218267
  0.4259723295426895  0.1208132686106285  0.2157190660368175
  0.7722362410706995  0.5349825117725245  0.8683274000503372
  0.0229805500965142  0.9124183343494171  0.9572697593980463
  0.9708056009170182  0.7300911944876265  0.6407588515394994
  0.0766097478840663 -0.0015350714917889  0.2907647684151612
  0.8015027235632590  0.7311064693708426  0.7511066460586565
  0.8167697156677954  0.8361258199192915  0.0917916070880909
  0.6989137153093726  0.8612071267823630  0.3495302540828667
  0.1463974655859214  0.8064751520652119  0.5896003944480110
  0.8405835807049583  0.9258970650099448  0.3300541957253444
  0.0603558037313850  0.1541694885691885  0.8095031101348752
  0.7143521418079423  0.4826867752741437  0.3618195782625251
  0.1309911972794176  0.1033427622784288  0.4016383414030619
  0.5387589513708373  0.4526299539314917  0.5971537397210825
  0.1214953638676423  0.7678974187278116  0.0673149488074811
  0.3522335312613232  0.3113222810586397  0.1998890017232955
  0.7253351090301613  0.0882237714086611  0.6335034519672001
  0.9276296649171306  0.9235424876993480  0.4566891901379409
  0.2197998037588967  0.2607149920741890  0.4657323412306983
  0.9662722004858344  0.2111615393030258  0.2802749855121713
  0.3292150249400421  0.0729600075528058  0.6334911010526848
  0.1804296784846446  0.4542505831659208  0.7692965416284149
  0.1932020995178689  0.6247115825479304  0.1261043398883021
  0.0061743022674004  0.2459177281414925  0.5438638103843144
  0.5258832190846005  0.7125783903611823  0.2152836685377257
  0.0302828064360257  0.5697709647055551  0.2050881760842723
  0.9890311960496301  0.7542467749291778  0.8753536953085118
  0.3207881008891901  0.7550162536588114  0.1602957557624146
  0.4847575926599277  0.9258813573661177  0.9191737917827475
  0.3599366797055698  0.1212136367561533  0.4275309415491502
  0.5143249551847890  0.1549619690262833  0.5351663325491557
  0.5356648509840899  0.9341691605247034  0.2568390858975295
  0.1977726511821712  0.3626235355800790  0.0946295018272717
 -0.0007365829265867  0.5308902949765181  0.3912481826276906
  0.0664099906967251  0.5048989247475406  0.9550616388438633
 -0.0119209563873201  0.1330080934758371  0.0136144540467013
  0.1538204697677547  0.9791191190900027  0.0177163472799754
  0.3394916443536984  0.9338974362635014  0.2253237836769469
  0.6852746450811564  0.4530226219923562  0.7661139359669802
  0.4089397492902916  0.4098215006362281  0.7427469743487128
  0.8045446257724932  0.0824715385991469  0.0150442663721022
  0.2833502526465358  0.9534111230119888  0.8471403388013138
  0.3951717077714322  0.9213214442778758  0.5113288995229444
  0.8237380986254952  0.8400170228783413  0.8634934432655706
 -0.0083860468842840  0.2884265438540065  0.9559547976787359
  0.6971475549733465  0.9342500162372802  0.8772903252427052
  0.2660627288134745  0.9509465434096381  0.3649339401861233
  0.4613268597369197  0.2467254307508781  0.7141965905939984
  0.5162451261220348  0.2968247577626553  0.0438567965638128
  0.9405526030787783  0.6169582650954907  0.8191246093724934
  0.3125813617662486  0.1839908148037948  0.0938268387727939
  0.7308987094940073  0.2027954485683983  0.2569381340401166
  0.2125400187069650  0.5057774719529852  0.0074253921570776
  0.0853400278559078  0.4247701243624649  0.2484347278623112
  0.5727148896182026  0.0589625785058144  0.4151381728708277
  0.4106027945528907  0.6822032163520489  0.5553644644614639
  0.8658169301222192  0.4378719548706505  0.2504322809777618
  0.9515419469159668  0.0023088107177819  0.8355562871087713
  0.6825925041071810  0.6959990348354387  0.3853807316783426
  0.2223122880715306  0.1089224291650359  0.2200085106993602
  0.9441800245084687  0.1444149149280443  0.4172935647850408
  0.8621983493684321  0.4631370167378429  0.0530085040885995
  0.1563770230973525  0.7141043021145197  0.2651136521328791
  0.4595274631026449  0.9074925647450564  0.7017265983088814
  0.5315676882973072  0.2116373240842842  0.3367107103407823
  0.7048347776263084  0.0478446123932295  0.1863752271043933
  0.7537464111617829 -0.0054713867421891  0.5044299065151159
  0.5901209528495300  0.7228768146567717  0.0394526638796821
  0.2472871804445720  0.7572339643287077  0.4411193721607019
  0.4045826531807675  0.6140496504554068  0.0530970639767705
  0.3716266994508521  0.5050866164529018  0.4612790513170825
  0.1961588289725193  0.2929060174315438  0.6929294604282041
  0.1609939352563421  0.2632931169201377  0.2625913632586467
  0.4015531932105578  0.4103446727540365  0.0075762474169921
  0.4174264325542784  0.7875957046240885  0.9662502205525582
  0.5961492191483466  0.7724942063575764  0.7822716478196414
  0.1905148538442368  0.1381911315943922  0.9423828132514969
  0.8569561396651137  0.4087399373576120  0.4993203815346172
  0.7116927427078763  0.1171291548234822  0.8099802978782562
  0.1725448768023619  0.6432989870310636  0.8330203795065390
  0.5175669196457297  0.6015121445481270  0.7039764983326248
  0.5586709651316816  0.3401411209860740  0.4770807776305434
  0.5354216177070868  0.0565535464275798  0.7664169084602774
  0.4510764428104235  0.6611064637683790  0.8475264240837286
  0.5548318633514587  0.2099926218386703  0.8317716719954714
  0.3114130636430294  0.2945055144717441  0.8553036483714805
  0.1839991254835507  0.0069659954295846  0.5138129843840156
  0.8308324359910350  0.5942262773174207  0.2137059122608493
  0.1042035196859096  0.6808905357222301  0.4494521356714770
  0.0404968711641748  0.3221417980805577  0.6828615902404056
  0.3185034071906669  0.0368513772770286 -0.0062875574440722
  0.7985758607378207  0.6513495153692710  0.9964951500455813
  0.6872772741624695  0.9213588213496410  0.0893032065182452
  0.2647820345426017  0.9307603584891807  0.6563521397717484
  0.9115622908656574  0.7078319833857903  0.3639256063570971
  0.3702132453581690  0.2785740279037882  0.5632515839089376
  0.9278795978443324  0.1206710725818991  0.6099828441136639
  0.4720579521616855  0.8888256106327664  0.1113598862322292
  0.7093960833915686  0.6236352648168052  0.6580199399888497
  0.4700027998837681  0.5589158480887991  0.3303381604963282
  0.7891511425420884  0.7882878716126538  0.5370539864150472
  0.9763968820007622  0.7462539253859369  0.2214556117094233
  0.4919917897607653  0.4646213830752424  0.1297468868927717
  0.6068609915780410  0.1782595719285385  0.1253729515353029
  0.2233661482063231  0.4324490346771906  0.3725963949671119
  0.0567914854617716  0.8799715809108326  0.3836046063147859
  0.0684469115791329  0.5273207950844639  0.5789129106578077
  0.0926987549805213  0.3512548694522493  0.4363304983663015
  0.8272826351261372  0.3338536177188568  0.9279217459491685
  0.2814224722245207  0.5115912646439690  0.2088548869675467
  0.5819362533911689  0.9740165840690128  0.5847680219266083
  0.6044631764172297  0.7576818314227916  0.5687026504784614
  0.4148216617699154  0.3492172657381959  0.3599145094556923
  0.8080097006866857  0.1915129827312392  0.4509548949730780
  0.7353536082560882  0.8982742633384738  0.6801497825220535
  0.6862059995084230  0.3774293055634731  0.1494492810164411
  0.8581776470880000  0.2696150572841776  0.1110666336986336
  0.2375589966778187  0.6185146886830470  0.6264213466637450
 
  0.00000000E+00  0.00000000E+00  0.00000000E+00
  0.00000000E+00  0.00000000E+00  0.00000000E+00
  0.00000000E+00  0.00000000E+00  0.00000000E+00
  0.00000000E+00  0.00000000E+00  0.00000000E+00
  0.00000000E+00  0.00000000E+00  0.00000000E+00
  0.00000000E+00  0.00000000E+00  0.00000000E+00
  0.00000000E+00  0.00000000E+00  0.00000000E+00
  0.00000000E+00  0.00000000E+00  0.00000000E+00
  0.00000000E+00  0.00000000E+00  0.00000000E+00
  0.00000000E+00  0.00000000E+00  0.00000000E+00
  0.00000000E+00  0.00000000E+00  0.00000000E+00
  0.00000000E+00  0.00000000E+00  0.00000000E+00
  0.00000000E+00  0.00000000E+00  0.00000000E+00
  0.00000000E+00  0.00000000E+00  0.00000000E+00
  0.00000000E+00  0.00000000E+00  0.00000000E+00
  0.00000000E+00  0.00000000E+00  0.00000000E+00
  0.00000000E+00  0.00000000E+00  0.00000000E+00
  0.00000000E+00  0.00000000E+00  0.00000000E+00
  0.00000000E+00  0.00000000E+00  0.00000000E+00
  0.00000000E+00  0.00000000E+00  0.00000000E+00
  0.00000000E+00  0.00000000E+00  0.00000000E+00
  0.00000000E+00  0.00000000E+00  0.00000000E+00
  0.00000000E+00  0.00000000E+00  0.00000000E+00
  0.00000000E+00  0.00000000E+00  0.00000000E+00
  0.00000000E+00  0.00000000E+00  0.00000000E+00
  0.00000000E+00  0.00000000E+00  0.00000000E+00
  0.00000000E+00  0.00000000E+00  0.00000000E+00
  0.00000000E+00  0.00000000E+00  0.00000000E+00
  0.00000000E+00  0.00000000E+00  0.00000000E+00
  0.00000000E+00  0.00000000E+00  0.00000000E+00
  0.00000000E+00  0.00000000E+00  0.00000000E+00
  0.00000000E+00  0.00000000E+00  0.00000000E+00
  0.00000000E+00  0.00000000E+00  0.00000000E+00
  0.00000000E+00  0.00000000E+00  0.00000000E+00
  0.00000000E+00  0.00000000E+00  0.00000000E+00
  0.00000000E+00  0.00000000E+00  0.00000000E+00
  0.00000000E+00  0.00000000E+00  0.00000000E+00
  0.00000000E+00  0.00000000E+00  0.00000000E+00
  0.00000000E+00  0.00000000E+00  0.00000000E+00
  0.00000000E+00  0.00000000E+00  0.00000000E+00
  0.00000000E+00  0.00000000E+00  0.00000000E+00
  0.00000000E+00  0.00000000E+00  0.00000000E+00
  0.00000000E+00  0.00000000E+00  0.00000000E+00
  0.00000000E+00  0.00000000E+00  0.00000000E+00
  0.00000000E+00  0.00000000E+00  0.00000000E+00
  0.00000000E+00  0.00000000E+00  0.00000000E+00
  0.00000000E+00  0.00000000E+00  0.00000000E+00
  0.00000000E+00  0.00000000E+00  0.00000000E+00
  0.00000000E+00  0.00000000E+00  0.00000000E+00
  0.00000000E+00  0.00000000E+00  0.00000000E+00
  0.00000000E+00  0.00000000E+00  0.00000000E+00
  0.00000000E+00  0.00000000E+00  0.00000000E+00
  0.00000000E+00  0.00000000E+00  0.00000000E+00
  0.00000000E+00  0.00000000E+00  0.00000000E+00
  0.00000000E+00  0.00000000E+00  0.00000000E+00
  0.00000000E+00  0.00000000E+00  0.00000000E+00
  0.00000000E+00  0.00000000E+00  0.00000000E+00
  0.00000000E+00  0.00000000E+00  0.00000000E+00
  0.00000000E+00  0.00000000E+00  0.00000000E+00
  0.00000000E+00  0.00000000E+00  0.00000000E+00
  0.00000000E+00  0.00000000E+00  0.00000000E+00
  0.00000000E+00  0.00000000E+00  0.00000000E+00
  0.00000000E+00  0.00000000E+00  0.00000000E+00
  0.00000000E+00  0.00000000E+00  0.00000000E+00
  0.00000000E+00  0.00000000E+00  0.00000000E+00
  0.00000000E+00  0.00000000E+00  0.00000000E+00
  0.00000000E+00  0.00000000E+00  0.00000000E+00
  0.00000000E+00  0.00000000E+00  0.00000000E+00
  0.00000000E+00  0.00000000E+00  0.00000000E+00
  0.00000000E+00  0.00000000E+00  0.00000000E+00
  0.00000000E+00  0.00000000E+00  0.00000000E+00
  0.00000000E+00  0.00000000E+00  0.00000000E+00
  0.00000000E+00  0.00000000E+00  0.00000000E+00
  0.00000000E+00  0.00000000E+00  0.00000000E+00
  0.00000000E+00  0.00000000E+00  0.00000000E+00
  0.00000000E+00  0.00000000E+00  0.00000000E+00
  0.00000000E+00  0.00000000E+00  0.00000000E+00
  0.00000000E+00  0.00000000E+00  0.00000000E+00
  0.00000000E+00  0.00000000E+00  0.00000000E+00
  0.00000000E+00  0.00000000E+00  0.00000000E+00
  0.00000000E+00  0.00000000E+00  0.00000000E+00
  0.00000000E+00  0.00000000E+00  0.00000000E+00
  0.00000000E+00  0.00000000E+00  0.00000000E+00
  0.00000000E+00  0.00000000E+00  0.00000000E+00
  0.00000000E+00  0.00000000E+00  0.00000000E+00
  0.00000000E+00  0.00000000E+00  0.00000000E+00
  0.00000000E+00  0.00000000E+00  0.00000000E+00
  0.00000000E+00  0.00000000E+00  0.00000000E+00
  0.00000000E+00  0.00000000E+00  0.00000000E+00
  0.00000000E+00  0.00000000E+00  0.00000000E+00
  0.00000000E+00  0.00000000E+00  0.00000000E+00
  0.00000000E+00  0.00000000E+00  0.00000000E+00
  0.00000000E+00  0.00000000E+00  0.00000000E+00
  0.00000000E+00  0.00000000E+00  0.00000000E+00
  0.00000000E+00  0.00000000E+00  0.00000000E+00
  0.00000000E+00  0.00000000E+00  0.00000000E+00
  0.00000000E+00  0.00000000E+00  0.00000000E+00
  0.00000000E+00  0.00000000E+00  0.00000000E+00
  0.00000000E+00  0.00000000E+00  0.00000000E+00
  0.00000000E+00  0.00000000E+00  0.00000000E+00
  0.00000000E+00  0.00000000E+00  0.00000000E+00
  0.00000000E+00  0.00000000E+00  0.00000000E+00
  0.00000000E+00  0.00000000E+00  0.00000000E+00
  0.00000000E+00  0.00000000E+00  0.00000000E+00
  0.00000000E+00  0.00000000E+00  0.00000000E+00
  0.00000000E+00  0.00000000E+00  0.00000000E+00
  0.00000000E+00  0.00000000E+00  0.00000000E+00
  0.00000000E+00  0.00000000E+00  0.00000000E+00
  0.00000000E+00  0.00000000E+00  0.00000000E+00
  0.00000000E+00  0.00000000E+00  0.00000000E+00
  0.00000000E+00  0.00000000E+00  0.00000000E+00
  0.00000000E+00  0.00000000E+00  0.00000000E+00
  0.00000000E+00  0.00000000E+00  0.00000000E+00
  0.00000000E+00  0.00000000E+00  0.00000000E+00
  0.00000000E+00  0.00000000E+00  0.00000000E+00
  0.00000000E+00  0.00000000E+00  0.00000000E+00
  0.00000000E+00  0.00000000E+00  0.00000000E+00
  0.00000000E+00  0.00000000E+00  0.00000000E+00
  0.00000000E+00  0.00000000E+00  0.00000000E+00
  0.00000000E+00  0.00000000E+00  0.00000000E+00
  0.00000000E+00  0.00000000E+00  0.00000000E+00
  0.00000000E+00  0.00000000E+00  0.00000000E+00
  0.00000000E+00  0.00000000E+00  0.00000000E+00
  0.00000000E+00  0.00000000E+00  0.00000000E+00
  0.00000000E+00  0.00000000E+00  0.00000000E+00
  0.00000000E+00  0.00000000E+00  0.00000000E+00
  0.00000000E+00  0.00000000E+00  0.00000000E+00
  0.00000000E+00  0.00000000E+00  0.00000000E+00
  0.00000000E+00  0.00000000E+00  0.00000000E+00
  0.00000000E+00  0.00000000E+00  0.00000000E+00
  0.00000000E+00  0.00000000E+00  0.00000000E+00
  0.00000000E+00  0.00000000E+00  0.00000000E+00
  0.00000000E+00  0.00000000E+00  0.00000000E+00
  0.00000000E+00  0.00000000E+00  0.00000000E+00
  0.00000000E+00  0.00000000E+00  0.00000000E+00
  0.00000000E+00  0.00000000E+00  0.00000000E+00
  0.00000000E+00  0.00000000E+00  0.00000000E+00
  0.00000000E+00  0.00000000E+00  0.00000000E+00
  0.00000000E+00  0.00000000E+00  0.00000000E+00
  0.00000000E+00  0.00000000E+00  0.00000000E+00
  0.00000000E+00  0.00000000E+00  0.00000000E+00
  0.00000000E+00  0.00000000E+00  0.00000000E+00
  0.00000000E+00  0.00000000E+00  0.00000000E+00
  0.00000000E+00  0.00000000E+00  0.00000000E+00
  0.00000000E+00  0.00000000E+00  0.00000000E+00
  0.00000000E+00  0.00000000E+00  0.00000000E+00
  0.00000000E+00  0.00000000E+00  0.00000000E+00
  0.00000000E+00  0.00000000E+00  0.00000000E+00
  0.00000000E+00  0.00000000E+00  0.00000000E+00
  0.00000000E+00  0.00000000E+00  0.00000000E+00
  0.00000000E+00  0.00000000E+00  0.00000000E+00
  0.00000000E+00  0.00000000E+00  0.00000000E+00
  0.00000000E+00  0.00000000E+00  0.00000000E+00
  0.00000000E+00  0.00000000E+00  0.00000000E+00
  0.00000000E+00  0.00000000E+00  0.00000000E+00
  0.00000000E+00  0.00000000E+00  0.00000000E+00
  0.00000000E+00  0.00000000E+00  0.00000000E+00
  0.00000000E+00  0.00000000E+00  0.00000000E+00
  0.00000000E+00  0.00000000E+00  0.00000000E+00
  0.00000000E+00  0.00000000E+00  0.00000000E+00
  0.00000000E+00  0.00000000E+00  0.00000000E+00
  0.00000000E+00  0.00000000E+00  0.00000000E+00
  0.00000000E+00  0.00000000E+00  0.00000000E+00
  0.00000000E+00  0.00000000E+00  0.00000000E+00
  0.00000000E+00  0.00000000E+00  0.00000000E+00
  0.00000000E+00  0.00000000E+00  0.00000000E+00
  0.00000000E+00  0.00000000E+00  0.00000000E+00
  0.00000000E+00  0.00000000E+00  0.00000000E+00
  0.00000000E+00  0.00000000E+00  0.00000000E+00
  0.00000000E+00  0.00000000E+00  0.00000000E+00
  0.00000000E+00  0.00000000E+00  0.00000000E+00
  0.00000000E+00  0.00000000E+00  0.00000000E+00
  0.00000000E+00  0.00000000E+00  0.00000000E+00
  0.00000000E+00  0.00000000E+00  0.00000000E+00
  0.00000000E+00  0.00000000E+00  0.00000000E+00
  0.00000000E+00  0.00000000E+00  0.00000000E+00
  0.00000000E+00  0.00000000E+00  0.00000000E+00
  0.00000000E+00  0.00000000E+00  0.00000000E+00
  0.00000000E+00  0.00000000E+00  0.00000000E+00
  0.00000000E+00  0.00000000E+00  0.00000000E+00
  0.00000000E+00  0.00000000E+00  0.00000000E+00
  0.00000000E+00  0.00000000E+00  0.00000000E+00
  0.00000000E+00  0.00000000E+00  0.00000000E+00
  0.00000000E+00  0.00000000E+00  0.00000000E+00
  0.00000000E+00  0.00000000E+00  0.00000000E+00
  0.00000000E+00  0.00000000E+00  0.00000000E+00
  0.00000000E+00  0.00000000E+00  0.00000000E+00
  0.00000000E+00  0.00000000E+00  0.00000000E+00
  0.00000000E+00  0.00000000E+00  0.00000000E+00
  0.00000000E+00  0.00000000E+00  0.00000000E+00
  0.00000000E+00  0.00000000E+00  0.00000000E+00
  0.00000000E+00  0.00000000E+00  0.00000000E+00
  0.00000000E+00  0.00000000E+00  0.00000000E+00
  0.00000000E+00  0.00000000E+00  0.00000000E+00
  0.00000000E+00  0.00000000E+00  0.00000000E+00
  0.00000000E+00  0.00000000E+00  0.00000000E+00
  0.00000000E+00  0.00000000E+00  0.00000000E+00
  0.00000000E+00  0.00000000E+00  0.00000000E+00
  0.00000000E+00  0.00000000E+00  0.00000000E+00
  0.00000000E+00  0.00000000E+00  0.00000000E+00
