Amorphous GeAsSeSi                      
   1.00000000000000     
    20.2876617983586378    0.0000000000000000    0.0000000000000000
     0.0000000000000000   20.2876617983586378    0.0000000000000000
     0.0000000000000000    0.0000000000000000   20.2876617983586378
   Ga   Se
   150   150
Direct
  0.0862245336505374  0.6969921536160936  0.4512150247112955
  0.2267679836953851  0.5394895562992831  0.4227249800506032
  0.7571550467779602  0.9377849658154418  0.2574043442281645
  0.5797886725581147  0.7753900949056447  0.0252836754643757
  0.3333215462478284  0.3540369726164546  0.3842640356047009
  0.4000007957201286  0.9550110110657477  0.0270002718283837
  0.6535139259577394  0.2167980893057879  0.1586248143473909
  0.2231745013183870  0.5816198530743349  0.8430187289514937
  0.0411984293769332  0.4546688335599766  0.7590552389260238
  0.2985338618228350  0.2440193845392390  0.3414488756361195
  0.1877761330664138  0.1405593254902131  0.0757345628909965
  0.1657490449106378  0.4905682637377456  0.9878424137099632
  0.8186810681885650  0.1453602074361038  0.6682461468579428
  0.7565431860218539  0.9699714262643747  0.8696721716590579
  0.6719924335293280  0.2651501517246658  0.4964512323404047
  0.5574231884771683  0.1890675452018947  0.7473312971965318
  0.9779208874278028  0.8887151211013781  0.4457524671721606
  0.3463016413164954  0.2743476671000180  0.0100042531371167
  0.6459147256516401  0.6191191755531428  0.0245441835489154
  0.1289341812825740  0.2367963139177964  0.9140537891554105
  0.5479105485083383  0.8449543638970548  0.8216069089781887
  0.4079022373896014  0.1261568047029421  0.2333855255190620
  0.2946586553547115  0.6400849611674239  0.2451982301410834
  0.5593673897916600  0.1704761052325001  0.4162883876843523
  0.5169577583156453  0.3548942304356603  0.4566411112512646
  0.9857181480418837  0.4996779407723934  0.0588232373878027
  0.6648196977368301  0.4696088053345411  0.4348051886416915
  0.7237498371930782  0.8653178425198792  0.0325274498453724
  0.7493197535577991  0.0817076924163314  0.5150308948540915
  0.6234580914864346  0.5870270325943140  0.1430428325613325
  0.9480016697334124  0.3542458572398638  0.1931195066083755
  0.0297408463371078  0.8781567657585507  0.7902630222666359
  0.9483086280912175  0.7043603017007684  0.1587439183716621
  0.8509969813260087  0.8741288138655890  0.7258017703074032
  0.1185262373286628  0.9396189565606496  0.3253789116974292
  0.5674217452697847  0.8858331159978555  0.3782625477795037
  0.2580336826598050  0.4387072458901251  0.2860108286218488
  0.7822116585693309  0.8600614455218223  0.4006065085623599
  0.6426408600350531  0.6115929756131426  0.3067926606994985
  0.1077929386912333  0.6492931861019517  0.7366583729853957
  0.6549180735632011  0.2596936401402939  0.7548863872627635
  0.8473397505237678  0.2585361910991811  0.0735443046644686
  0.1167097821179011  0.2979663430095529  0.5057161931479173
  0.7465408423199720  0.5749924628638624  0.7401897713884558
  0.5555286253732008  0.1799896003693541  0.5424109157714199
  0.2176889520517159  0.2353879830527021  0.7280784418981253
  0.3831602241068290  0.9344522638137955  0.2335907153270249
  0.6850451041030865  0.9133141534722977  0.5847815273019569
  0.6897762282390703  0.6526400866913858  0.4817843461833247
  0.7772064237530172  0.5105140337232263  0.9085633999715258
  0.4564373379973754  0.4597885580299251  0.9673485280253491
  0.2256464819485992  0.8214122871941397  0.2144902134185125
  0.2826581493012293  0.7982134087225049  0.4021395172922956
  0.8741645961763194  0.8816641998310097  0.9254092503312864
  0.1462765486312664  0.2835667990880358  0.1402994291804814
  0.7977441864255340  0.2422558668649445  0.8337460327537858
  0.1605044215802373  0.8260630355628875  0.5413779814883688
  0.2610194769230998  0.0850684129503571  0.8832104799869401
  0.4744133784414080  0.6703854810570775  0.7416836020511470
  0.0731954842413237  0.5721981589658535  0.5968706974870607
  0.2562932856552760  0.6666237385271266  0.9959637836423769
  0.0105476376381452  0.9919008198830472  0.1282445064179905
  0.5976739534574684  0.9893946143967565  0.9583528417473832
  0.3699982175923178  0.9198747030866051  0.7930724283412527
  0.7071266798220627  0.0098081028401847  0.4236589280630046
  0.4237503439801265  0.5463199440284754  0.3099865069861883
  0.8153656269280455  0.5575828798247262  0.3669639494004273
  0.0706150818677820  0.9607266091218776  0.6162362495663226
  0.2718777357825933  0.2453966673376350  0.2223675649597353
  0.8973638722259952  0.2063015985288125  0.2808488634421881
  0.8751483099918932  0.6623754609786275  0.8359933279359753
  0.3373817967002324  0.3730401661157364  0.6980430617016815
  0.8213110277655840  0.4757382357010747  0.5883319790068547
  0.9124741133681183  0.0914792822256802  0.9490779063024748
  0.2055785053466790  0.3215179885437783  0.8686793125296020
  0.0162057592814007  0.5828528439353887  0.3098283211593207
  0.4620825665973314  0.0782066003526967  0.8732126501210410
  0.3847384821297171  0.8609977342269574  0.4410246117923077
  0.7227050796135573  0.8695587098377898  0.6945536818710955
  0.1848317990794400  0.1228497942890267  0.5686193993975514
  0.6319001502848175  0.4658122545336947  0.1574961232981926
  0.5843965033877975  0.8787949721005187  0.1921366420692953
  0.0113114636234648  0.1993867655753898  0.0477322671164351
  0.1882978156973828  0.8182963629900060  0.6610055557803466
  0.3173485448984428  0.5690881768560733  0.6361555209030519
  0.5483405177189256  0.5973008572046825  0.8055811992952029
  0.1000884086056552  0.6355507405330181  0.0122791953710825
  0.6613854368099462  0.0929366097883009  0.1429830073178718
  0.2144487278936105  0.1978975015920795  0.4231805105545267
  0.6352797788051497  0.7015977219398635  0.6626321017336291
  0.5312579731706879  0.7235729410680674  0.2367741432561824
  0.1470971941501119  0.8882950323578644  0.1532625237494397
  0.6379839616577019  0.1570212938731527  0.9190616946130148
  0.7081128230695460  0.3582469150538722  0.0653294013551744
  0.3351806392381635  0.1251870692066436  0.4404205273443766
  0.9284623929533418  0.5887920548361528  0.6813914278059411
  0.1867251517542763  0.0016336645555262  0.4037652568325971
  0.8734521573340970  0.3734495802751478  0.0315081138708583
  0.3804896063298944  0.4769918440267019  0.5291678227238231
  0.5148694955006075  0.3660183531955300  0.7897071352229152
  0.1818115807303523  0.9460384393749521  0.9188494607343638
  0.6077324128930622  0.0020213225159379  0.3546890664032133
  0.8946799664299206  0.7147756085789028  0.3999130556826471
  0.9545854810172668  0.7921024325578501  0.9530820347910000
  0.6752024046794782  0.4380208022446229  0.8377536534487251
  0.1228833287572073  0.5819485698554415  0.4785217776624547
  0.4650476617292618  0.0635307256837475  0.1425494393215939
  0.3135771659249220  0.7451970757220924  0.8375848787599859
  0.0338148488802529  0.0706952813245530  0.9191954598160210
  0.9196843625902293  0.3001646901093172  0.7135070082465211
  0.7979071621962376  0.9532336216381185  0.0774494619374408
  0.4349994743173584  0.7930411800067863  0.6523323918092653
  0.9364400747566819  0.1397219753201043  0.3973850623034237
  0.4910155035900816  0.9255120213712030  0.5552666266428099
  0.9988482806433198  0.3554797349755751  0.5917318757719757
  0.3750026543350843  0.1004424669291105  0.0649937554936843
  0.8175755123824736  0.7438197467864681  0.7475303871340623
  0.0372203461813657  0.3809921002102700  0.9517477561251768
  0.4212597323296944  0.6470456179010154  0.0855993951392970
  0.0050458204677570  0.1459779483569139  0.6074688519316259
  0.9159584803143931  0.7015287144519567  0.2798786344368686
  0.0012682996793842  0.6175722151700515  0.0892355439691898
  0.1046087623428922  0.6862452733175974  0.2154053560500303
  0.6558896634921902  0.3010638732885894  0.3465768049759338
  0.9485736718981350  0.5442888178751780  0.4738540869718931
  0.0185810128446347  0.2757755723901065  0.3403487417399342
  0.3769157291837704  0.2110822817338650  0.7825171182863441
  0.5495489385417044  0.1731171842266451  0.0033694341410547
  0.3987918700080013  0.8252793742402851  0.9876685227458134
  0.2869418011665248  0.9662530946051667  0.5861992867767468
  0.9494275683237364  0.0922329797804226  0.5126385572896304
  0.4570442696253715  0.5114867856950737  0.7914130717601762
  0.9345605234454935  0.0309440501768808  0.2515788071606190
  0.7358640450029897  0.0518336207214225  0.6890840852939168
  0.5242119133847938  0.3548075430081268  0.1024617152131589
  0.5707317592949926  0.6308934369765206  0.9239901215661813
  0.8009153480240613  0.7214379923883613  0.2348371496047331
  0.6564394716735952  0.3190813076531810  0.2271673580844517
  0.4179557404498581  0.7729116938240159  0.2648784785311493
  0.2545402653783578  0.6693776834559316  0.7642091770987828
  0.3654527368446205  0.6376299063913964  0.5482633310507248
  0.6152821338546824  0.0718063322216119  0.6473142189889852
  0.8461428596668716  0.4528626144748394  0.8201327668280408
  0.6037141941300845  0.7826150226632463  0.3206419593958459
  0.1092075376400419  0.7318161690204992  0.8319433799912983
  0.5707605144821656  0.4803789801602595  0.5771669042882908
  0.2707241161708740  0.4712070142363626  0.8543893603442921
  0.7225789925666369  0.0692872027642958  0.9372873386065160
  0.0571380636434199  0.8054366605906600  0.0246142807811413
  0.8077554612909604  0.6775229238902511  0.0302555735645880
  0.6071538618745955  0.4175459266928667  0.0415992047592346
  0.2253840030128147  0.4172568816394299  0.4023517446332127
  0.2213285405826712  0.5552769271898246  0.2946092268945620
  0.3424829606327625  0.7055696489854779  0.3374757839708871
  0.6850526207077799  0.2651860434022575  0.8757995269434747
  0.1095214779199422  0.9146934548221286  0.0425657437915857
  0.2303818994279745  0.3599185284594139  0.1834818641020475
  0.0014795123967425  0.9119102814095573  0.3325049856430237
  0.7511397583582170  0.0646451967310136  0.0625024929230650
  0.9519764630250224  0.6610189063084438  0.4910111460278851
  0.0116718832381894  0.2614316712521619  0.9418552362109883
  0.6827892437369609  0.7683919855595871  0.7530110895541469
  0.0196618816233177  0.3799001904277479  0.2800384070024762
  0.8410312834585496  0.1546461251131749  0.5444173070080116
  0.0118521747193293  0.1626668024475696  0.2918133535511756
  0.1292852722545133  0.2859494676020471  0.3859961018784516
  0.9638660474178944  0.5077029140153989  0.5943589945222330
  0.8699308104433959  0.9505527569350961  0.8229601326593275
  0.8514903168112316  0.2801759296972525  0.1990667126250941
  0.2162364197213655  0.7358278559785770  0.4809319189829055
  0.0698476382208281  0.5728802315934023  0.1971168699508717
  0.5722900449715769  0.3066011119719983  0.5542378532692127
  0.5053910375069093  0.7350664980289664  0.1144081465219063
  0.3881871846987132  0.4440983192494316  0.8680116346161627
  0.0467576166150041  0.9478921768958262  0.8910936296700434
  0.7785989694709265  0.6681711931155241  0.3967733429123662
  0.8191750732073252  0.6391219247288482  0.6639820232233830
  0.8573232638541211  0.4764748682061375  0.4417404574181187
  0.4845623837952959  0.5730736027337293  0.0068916183176724
  0.9059940987062314  0.6760765466275276  0.9600891769127191
  0.6877427124619618  0.9659034161144935  0.7662593269429954
  0.2897151938078875  0.4497230421652883  0.6098605764033794
  0.0457625004781888  0.5118723147757753  0.4054134092398194
  0.9083529126777601  0.2638221162720119  0.3899219129224012
  0.3537140531341633  0.7556387589572073  0.5717072091309333
  0.7719617979123844  0.4591066029412675  0.7247801587950721
  0.6227862800936376  0.3764141209163196  0.7354112020787824
  0.1144237265701657  0.5662827340565221  0.9088378949642499
  0.6540709513141469  0.9947391082904548  0.2282321157221774
  0.6839191684606650  0.8849557466148354  0.4650324004042447
  0.5920964659338986  0.9955208378306736  0.5500364949272528
  0.4494308422404087  0.4204266647858584  0.7031926708654613
  0.0147128421736353  0.6714956330439715  0.6592972169874101
  0.5211065581568048  0.0815762034615740  0.3479206153691020
  0.9020511149195672  0.1500178121952693  0.0609822151233014
  0.3454897076513196  0.2547104665701961  0.6742744714977362
  0.1054230580611016  0.1003251760875696  0.6551152824596996
  0.1732188345864143  0.1739301150815001  0.1921140829968190
  0.5066510808791697  0.1345154878586969  0.6485900059235068
  0.5749211330044414  0.0968498414018398  0.8265123919350145
  0.3221450684080692  0.6330304345180857  0.9059593444323470
  0.3065834735571403  0.0158548328354111  0.3689397156283674
  0.0463544433708277  0.8025698902293632  0.5059424192809004
  0.2164130968725490  0.7050143365758463  0.1776953915239262
  0.6892384460214482  0.5408628117961146  0.5282274817773330
  0.7515842908736663  0.8539166356589419  0.9140465818822806
  0.4757115888909501  0.9652167780819771  0.9155635201024513
  0.0519098641015149  0.7807293659481243  0.1497405771059111
  0.1480042433394617  0.8393818447365702  0.7782744840367569
  0.6011769657998863  0.6758870142371716  0.3993662768123568
  0.1205640235979654  0.9876383122652896  0.2136760850297082
  0.1522147232214712  0.7391859660597996  0.9576216275591202
  0.1877337926960913  0.8307670127008557  0.3277600394782649
  0.7711529101079176  0.3955809158421112  0.9717605995701484
  0.3993604803371134  0.3635215785193974  0.4904679568522818
  0.4713954546786017  0.9430635055716637  0.1522989783714534
  0.0360161973483592  0.3431378676316421  0.7079564395883334
  0.0540804184268096  0.7002553656761967  0.3258278373222000
  0.7354363205272374  0.3994272426523319  0.1764144257781953
  0.5636950229691490  0.0664543640937263  0.0693184168900832
  0.9377020426965279  0.4459497427138154  0.9547142278052300
  0.3731585893929949  0.5805645897154919  0.1756980903484923
  0.1917310379635343  0.2517365232223930  0.0284066848798452
  0.2638568433980649  0.0608393306834287  0.0337987104296185
  0.2362755053449002  0.3873135697883270  0.7655323676976685
  0.7073504121200741  0.5084388674599220  0.3265358321918002
  0.8444792268632438  0.7553328990644755  0.1148571025578092
  0.3851073137587380  0.0900677643743055  0.7826868271488640
  0.8260210789145886  0.1282520089850399  0.8699412180128586
  0.0897342788055302  0.4097145446355954  0.5367738794360960
  0.3601048891572027  0.2061114237998261  0.1460274121047365
  0.8498681148973590  0.9356532748411834  0.1846597662974903
  0.5520017931242809  0.3895147787341307  0.2160550796057634
  0.4229841908513841  0.7781619585061230  0.7780534814140818
  0.5455877803440220  0.4672416053337116  0.4322632345242697
  0.5176827788894668  0.7045620836336185  0.6305084901309387
  0.1231131901257044  0.1285417134689941  0.8624590238478592
  0.3402156420743975  0.8351448586044001  0.1830661731157489
  0.7646430533956269  0.5646069973634663  0.0253615706930585
  0.5225931102397743  0.7494728001898432  0.9253447498420992
  0.8857963922547077  0.3314290936590348  0.8287171404000723
  0.7807363161193590  0.9894663671137959  0.5938779662568565
  0.8740869732444015  0.8178703419323280  0.4639161769420788
  0.0746605295928594  0.0954501609819448  0.0458030431836148
  0.1405302344198721  0.1036560054752256  0.4546280072190870
  0.5034065578131180  0.8338734044356115  0.4763550122770700
  0.0999269756605886  0.4088076405867578  0.8549307158222099
  0.4835209764146373  0.8991939398477307  0.6694560682108427
  0.0127002851880332  0.2470391310190948  0.5367585070842692
  0.2918001709130544  0.8843514531491357  0.6740819695497169
  0.3841396718774952  0.9659399584725655  0.5063339885504118
  0.3048351141036231  0.8452047517122969  0.9007865188628985
  0.5382749868375095  0.2345701113636705  0.1082411189337898
  0.4322129599593746  0.1576596425350146  0.9648066465142050
  0.0880048352832603  0.4236589280671888  0.0542868948249442
  0.3112409465906207  0.0311793476050444  0.2498066754768675
  0.5400608135130692  0.5976406441799341  0.2396115476530062
  0.4191658401276785  0.3921560255045375  0.0588613268427197
  0.2907388500007710  0.2266174966360519  0.8649939187113350
  0.9919698446619086  0.7700720895028319  0.8372842436827528
  0.2169875734168837  0.2415216495163516  0.5442161185442592
  0.4558925476552356  0.5557200958151014  0.5807892772895312
  0.8973705990286117  0.5746948596359659  0.2766290540902361
  0.9459830382466522  0.5272486963765762  0.7882526248659447
  0.5316428653071440  0.2815944985066646  0.3641801930749699
  0.3445637495732421  0.5637391106593592  0.4486572645762071
  0.3366215316643118  0.7300066400188207  0.0574265598668081
  0.6035753462816773  0.8911478676812146  0.0519615203036152
  0.2467396186973003  0.4048197749685997  0.9568611531077501
  0.7219235653096402  0.3599016449190678  0.4368400131845787
  0.1904721198486753  0.9423124460070388  0.5144811960214375
  0.7255801079500855  0.2395034812567558  0.0550045580688532
  0.4380489509137436  0.8847826054385570  0.3281591604929369
  0.0271636817880834  0.2697933173724071  0.1429121743332744
  0.6789232011768939  0.1716075040877389  0.5783102088566300
  0.6292108792754482  0.5846616696973015  0.7063499581075743
  0.6819857986718159  0.1914124664046943  0.3992921147997574
  0.3747063838085296  0.4153113500544737  0.2844997102154298
  0.4837779484650555  0.2546130458306102  0.8227034582558551
  0.1985247701914346  0.6889239672564089  0.6588613653437358
  0.9633419954433653  0.9714580703054474  0.5316277628887375
  0.8792049842941264  0.3464485321577231  0.6107528775515356
  0.6956833640909734  0.7420858495832694  0.0501228661507748
  0.5489224718140564  0.4225641683742687  0.8912913567179428
  0.7305401470833643  0.8192420945141553  0.2945668532896620
  0.9683424803321957  0.8891421722373215  0.6891419443027703
  0.8108730813183130  0.9693998942319152  0.3618216304119029
  0.8407269992141509  0.1098752220930335  0.3162125017672230
  0.2893758560112829  0.0830810390854285  0.6089446894685615
  0.7016869711971188  0.7313272255184026  0.5688430784951459
  0.3637489888738153  0.5991797423541956  0.7446313880597396
  0.6943294099512756  0.6629713690572101  0.2115653005537906
  0.8943933542316194  0.9756042253180038  0.0034365186761825
  0.7696700753798514  0.2509805191823585  0.7142257497285981
  0.2060816673416814  0.5789068446885572  0.0634661570384111
  0.7490927839941396  0.6176690555553831  0.8522580458668280
  0.4006886571517070  0.1796780155805267  0.3420445146385437
  0.1249484189708158  0.5290485777675258  0.7064789676406219
  0.9336267774543540  0.1758530333106872  0.7092008676790414
  0.9000077972987187  0.4436434593643044  0.1302859391881048
 
  0.00000000E+00  0.00000000E+00  0.00000000E+00
  0.00000000E+00  0.00000000E+00  0.00000000E+00
  0.00000000E+00  0.00000000E+00  0.00000000E+00
  0.00000000E+00  0.00000000E+00  0.00000000E+00
  0.00000000E+00  0.00000000E+00  0.00000000E+00
  0.00000000E+00  0.00000000E+00  0.00000000E+00
  0.00000000E+00  0.00000000E+00  0.00000000E+00
  0.00000000E+00  0.00000000E+00  0.00000000E+00
  0.00000000E+00  0.00000000E+00  0.00000000E+00
  0.00000000E+00  0.00000000E+00  0.00000000E+00
  0.00000000E+00  0.00000000E+00  0.00000000E+00
  0.00000000E+00  0.00000000E+00  0.00000000E+00
  0.00000000E+00  0.00000000E+00  0.00000000E+00
  0.00000000E+00  0.00000000E+00  0.00000000E+00
  0.00000000E+00  0.00000000E+00  0.00000000E+00
  0.00000000E+00  0.00000000E+00  0.00000000E+00
  0.00000000E+00  0.00000000E+00  0.00000000E+00
  0.00000000E+00  0.00000000E+00  0.00000000E+00
  0.00000000E+00  0.00000000E+00  0.00000000E+00
  0.00000000E+00  0.00000000E+00  0.00000000E+00
  0.00000000E+00  0.00000000E+00  0.00000000E+00
  0.00000000E+00  0.00000000E+00  0.00000000E+00
  0.00000000E+00  0.00000000E+00  0.00000000E+00
  0.00000000E+00  0.00000000E+00  0.00000000E+00
  0.00000000E+00  0.00000000E+00  0.00000000E+00
  0.00000000E+00  0.00000000E+00  0.00000000E+00
  0.00000000E+00  0.00000000E+00  0.00000000E+00
  0.00000000E+00  0.00000000E+00  0.00000000E+00
  0.00000000E+00  0.00000000E+00  0.00000000E+00
  0.00000000E+00  0.00000000E+00  0.00000000E+00
  0.00000000E+00  0.00000000E+00  0.00000000E+00
  0.00000000E+00  0.00000000E+00  0.00000000E+00
  0.00000000E+00  0.00000000E+00  0.00000000E+00
  0.00000000E+00  0.00000000E+00  0.00000000E+00
  0.00000000E+00  0.00000000E+00  0.00000000E+00
  0.00000000E+00  0.00000000E+00  0.00000000E+00
  0.00000000E+00  0.00000000E+00  0.00000000E+00
  0.00000000E+00  0.00000000E+00  0.00000000E+00
  0.00000000E+00  0.00000000E+00  0.00000000E+00
  0.00000000E+00  0.00000000E+00  0.00000000E+00
  0.00000000E+00  0.00000000E+00  0.00000000E+00
  0.00000000E+00  0.00000000E+00  0.00000000E+00
  0.00000000E+00  0.00000000E+00  0.00000000E+00
  0.00000000E+00  0.00000000E+00  0.00000000E+00
  0.00000000E+00  0.00000000E+00  0.00000000E+00
  0.00000000E+00  0.00000000E+00  0.00000000E+00
  0.00000000E+00  0.00000000E+00  0.00000000E+00
  0.00000000E+00  0.00000000E+00  0.00000000E+00
  0.00000000E+00  0.00000000E+00  0.00000000E+00
  0.00000000E+00  0.00000000E+00  0.00000000E+00
  0.00000000E+00  0.00000000E+00  0.00000000E+00
  0.00000000E+00  0.00000000E+00  0.00000000E+00
  0.00000000E+00  0.00000000E+00  0.00000000E+00
  0.00000000E+00  0.00000000E+00  0.00000000E+00
  0.00000000E+00  0.00000000E+00  0.00000000E+00
  0.00000000E+00  0.00000000E+00  0.00000000E+00
  0.00000000E+00  0.00000000E+00  0.00000000E+00
  0.00000000E+00  0.00000000E+00  0.00000000E+00
  0.00000000E+00  0.00000000E+00  0.00000000E+00
  0.00000000E+00  0.00000000E+00  0.00000000E+00
  0.00000000E+00  0.00000000E+00  0.00000000E+00
  0.00000000E+00  0.00000000E+00  0.00000000E+00
  0.00000000E+00  0.00000000E+00  0.00000000E+00
  0.00000000E+00  0.00000000E+00  0.00000000E+00
  0.00000000E+00  0.00000000E+00  0.00000000E+00
  0.00000000E+00  0.00000000E+00  0.00000000E+00
  0.00000000E+00  0.00000000E+00  0.00000000E+00
  0.00000000E+00  0.00000000E+00  0.00000000E+00
  0.00000000E+00  0.00000000E+00  0.00000000E+00
  0.00000000E+00  0.00000000E+00  0.00000000E+00
  0.00000000E+00  0.00000000E+00  0.00000000E+00
  0.00000000E+00  0.00000000E+00  0.00000000E+00
  0.00000000E+00  0.00000000E+00  0.00000000E+00
  0.00000000E+00  0.00000000E+00  0.00000000E+00
  0.00000000E+00  0.00000000E+00  0.00000000E+00
  0.00000000E+00  0.00000000E+00  0.00000000E+00
  0.00000000E+00  0.00000000E+00  0.00000000E+00
  0.00000000E+00  0.00000000E+00  0.00000000E+00
  0.00000000E+00  0.00000000E+00  0.00000000E+00
  0.00000000E+00  0.00000000E+00  0.00000000E+00
  0.00000000E+00  0.00000000E+00  0.00000000E+00
  0.00000000E+00  0.00000000E+00  0.00000000E+00
  0.00000000E+00  0.00000000E+00  0.00000000E+00
  0.00000000E+00  0.00000000E+00  0.00000000E+00
  0.00000000E+00  0.00000000E+00  0.00000000E+00
  0.00000000E+00  0.00000000E+00  0.00000000E+00
  0.00000000E+00  0.00000000E+00  0.00000000E+00
  0.00000000E+00  0.00000000E+00  0.00000000E+00
  0.00000000E+00  0.00000000E+00  0.00000000E+00
  0.00000000E+00  0.00000000E+00  0.00000000E+00
  0.00000000E+00  0.00000000E+00  0.00000000E+00
  0.00000000E+00  0.00000000E+00  0.00000000E+00
  0.00000000E+00  0.00000000E+00  0.00000000E+00
  0.00000000E+00  0.00000000E+00  0.00000000E+00
  0.00000000E+00  0.00000000E+00  0.00000000E+00
  0.00000000E+00  0.00000000E+00  0.00000000E+00
  0.00000000E+00  0.00000000E+00  0.00000000E+00
  0.00000000E+00  0.00000000E+00  0.00000000E+00
  0.00000000E+00  0.00000000E+00  0.00000000E+00
  0.00000000E+00  0.00000000E+00  0.00000000E+00
  0.00000000E+00  0.00000000E+00  0.00000000E+00
  0.00000000E+00  0.00000000E+00  0.00000000E+00
  0.00000000E+00  0.00000000E+00  0.00000000E+00
  0.00000000E+00  0.00000000E+00  0.00000000E+00
  0.00000000E+00  0.00000000E+00  0.00000000E+00
  0.00000000E+00  0.00000000E+00  0.00000000E+00
  0.00000000E+00  0.00000000E+00  0.00000000E+00
  0.00000000E+00  0.00000000E+00  0.00000000E+00
  0.00000000E+00  0.00000000E+00  0.00000000E+00
  0.00000000E+00  0.00000000E+00  0.00000000E+00
  0.00000000E+00  0.00000000E+00  0.00000000E+00
  0.00000000E+00  0.00000000E+00  0.00000000E+00
  0.00000000E+00  0.00000000E+00  0.00000000E+00
  0.00000000E+00  0.00000000E+00  0.00000000E+00
  0.00000000E+00  0.00000000E+00  0.00000000E+00
  0.00000000E+00  0.00000000E+00  0.00000000E+00
  0.00000000E+00  0.00000000E+00  0.00000000E+00
  0.00000000E+00  0.00000000E+00  0.00000000E+00
  0.00000000E+00  0.00000000E+00  0.00000000E+00
  0.00000000E+00  0.00000000E+00  0.00000000E+00
  0.00000000E+00  0.00000000E+00  0.00000000E+00
  0.00000000E+00  0.00000000E+00  0.00000000E+00
  0.00000000E+00  0.00000000E+00  0.00000000E+00
  0.00000000E+00  0.00000000E+00  0.00000000E+00
  0.00000000E+00  0.00000000E+00  0.00000000E+00
  0.00000000E+00  0.00000000E+00  0.00000000E+00
  0.00000000E+00  0.00000000E+00  0.00000000E+00
  0.00000000E+00  0.00000000E+00  0.00000000E+00
  0.00000000E+00  0.00000000E+00  0.00000000E+00
  0.00000000E+00  0.00000000E+00  0.00000000E+00
  0.00000000E+00  0.00000000E+00  0.00000000E+00
  0.00000000E+00  0.00000000E+00  0.00000000E+00
  0.00000000E+00  0.00000000E+00  0.00000000E+00
  0.00000000E+00  0.00000000E+00  0.00000000E+00
  0.00000000E+00  0.00000000E+00  0.00000000E+00
  0.00000000E+00  0.00000000E+00  0.00000000E+00
  0.00000000E+00  0.00000000E+00  0.00000000E+00
  0.00000000E+00  0.00000000E+00  0.00000000E+00
  0.00000000E+00  0.00000000E+00  0.00000000E+00
  0.00000000E+00  0.00000000E+00  0.00000000E+00
  0.00000000E+00  0.00000000E+00  0.00000000E+00
  0.00000000E+00  0.00000000E+00  0.00000000E+00
  0.00000000E+00  0.00000000E+00  0.00000000E+00
  0.00000000E+00  0.00000000E+00  0.00000000E+00
  0.00000000E+00  0.00000000E+00  0.00000000E+00
  0.00000000E+00  0.00000000E+00  0.00000000E+00
  0.00000000E+00  0.00000000E+00  0.00000000E+00
  0.00000000E+00  0.00000000E+00  0.00000000E+00
  0.00000000E+00  0.00000000E+00  0.00000000E+00
  0.00000000E+00  0.00000000E+00  0.00000000E+00
  0.00000000E+00  0.00000000E+00  0.00000000E+00
  0.00000000E+00  0.00000000E+00  0.00000000E+00
  0.00000000E+00  0.00000000E+00  0.00000000E+00
  0.00000000E+00  0.00000000E+00  0.00000000E+00
  0.00000000E+00  0.00000000E+00  0.00000000E+00
  0.00000000E+00  0.00000000E+00  0.00000000E+00
  0.00000000E+00  0.00000000E+00  0.00000000E+00
  0.00000000E+00  0.00000000E+00  0.00000000E+00
  0.00000000E+00  0.00000000E+00  0.00000000E+00
  0.00000000E+00  0.00000000E+00  0.00000000E+00
  0.00000000E+00  0.00000000E+00  0.00000000E+00
  0.00000000E+00  0.00000000E+00  0.00000000E+00
  0.00000000E+00  0.00000000E+00  0.00000000E+00
  0.00000000E+00  0.00000000E+00  0.00000000E+00
  0.00000000E+00  0.00000000E+00  0.00000000E+00
  0.00000000E+00  0.00000000E+00  0.00000000E+00
  0.00000000E+00  0.00000000E+00  0.00000000E+00
  0.00000000E+00  0.00000000E+00  0.00000000E+00
  0.00000000E+00  0.00000000E+00  0.00000000E+00
  0.00000000E+00  0.00000000E+00  0.00000000E+00
  0.00000000E+00  0.00000000E+00  0.00000000E+00
  0.00000000E+00  0.00000000E+00  0.00000000E+00
  0.00000000E+00  0.00000000E+00  0.00000000E+00
  0.00000000E+00  0.00000000E+00  0.00000000E+00
  0.00000000E+00  0.00000000E+00  0.00000000E+00
  0.00000000E+00  0.00000000E+00  0.00000000E+00
  0.00000000E+00  0.00000000E+00  0.00000000E+00
  0.00000000E+00  0.00000000E+00  0.00000000E+00
  0.00000000E+00  0.00000000E+00  0.00000000E+00
  0.00000000E+00  0.00000000E+00  0.00000000E+00
  0.00000000E+00  0.00000000E+00  0.00000000E+00
  0.00000000E+00  0.00000000E+00  0.00000000E+00
  0.00000000E+00  0.00000000E+00  0.00000000E+00
  0.00000000E+00  0.00000000E+00  0.00000000E+00
  0.00000000E+00  0.00000000E+00  0.00000000E+00
  0.00000000E+00  0.00000000E+00  0.00000000E+00
  0.00000000E+00  0.00000000E+00  0.00000000E+00
  0.00000000E+00  0.00000000E+00  0.00000000E+00
  0.00000000E+00  0.00000000E+00  0.00000000E+00
  0.00000000E+00  0.00000000E+00  0.00000000E+00
  0.00000000E+00  0.00000000E+00  0.00000000E+00
  0.00000000E+00  0.00000000E+00  0.00000000E+00
  0.00000000E+00  0.00000000E+00  0.00000000E+00
  0.00000000E+00  0.00000000E+00  0.00000000E+00
  0.00000000E+00  0.00000000E+00  0.00000000E+00
  0.00000000E+00  0.00000000E+00  0.00000000E+00
  0.00000000E+00  0.00000000E+00  0.00000000E+00
  0.00000000E+00  0.00000000E+00  0.00000000E+00
  0.00000000E+00  0.00000000E+00  0.00000000E+00
  0.00000000E+00  0.00000000E+00  0.00000000E+00
  0.00000000E+00  0.00000000E+00  0.00000000E+00
  0.00000000E+00  0.00000000E+00  0.00000000E+00
  0.00000000E+00  0.00000000E+00  0.00000000E+00
  0.00000000E+00  0.00000000E+00  0.00000000E+00
  0.00000000E+00  0.00000000E+00  0.00000000E+00
  0.00000000E+00  0.00000000E+00  0.00000000E+00
  0.00000000E+00  0.00000000E+00  0.00000000E+00
  0.00000000E+00  0.00000000E+00  0.00000000E+00
  0.00000000E+00  0.00000000E+00  0.00000000E+00
  0.00000000E+00  0.00000000E+00  0.00000000E+00
  0.00000000E+00  0.00000000E+00  0.00000000E+00
  0.00000000E+00  0.00000000E+00  0.00000000E+00
  0.00000000E+00  0.00000000E+00  0.00000000E+00
  0.00000000E+00  0.00000000E+00  0.00000000E+00
  0.00000000E+00  0.00000000E+00  0.00000000E+00
  0.00000000E+00  0.00000000E+00  0.00000000E+00
  0.00000000E+00  0.00000000E+00  0.00000000E+00
  0.00000000E+00  0.00000000E+00  0.00000000E+00
  0.00000000E+00  0.00000000E+00  0.00000000E+00
  0.00000000E+00  0.00000000E+00  0.00000000E+00
  0.00000000E+00  0.00000000E+00  0.00000000E+00
  0.00000000E+00  0.00000000E+00  0.00000000E+00
  0.00000000E+00  0.00000000E+00  0.00000000E+00
  0.00000000E+00  0.00000000E+00  0.00000000E+00
  0.00000000E+00  0.00000000E+00  0.00000000E+00
  0.00000000E+00  0.00000000E+00  0.00000000E+00
  0.00000000E+00  0.00000000E+00  0.00000000E+00
  0.00000000E+00  0.00000000E+00  0.00000000E+00
  0.00000000E+00  0.00000000E+00  0.00000000E+00
  0.00000000E+00  0.00000000E+00  0.00000000E+00
  0.00000000E+00  0.00000000E+00  0.00000000E+00
  0.00000000E+00  0.00000000E+00  0.00000000E+00