Ge Sb Te                                
   1.00000000000000     
    18.7577743529999985    0.0000000000000000    0.0000000000000000
     0.0000000000000000   18.7577743529999985    0.0000000000000000
     0.0000000000000000    0.0000000000000000   18.7577743529999985
   Ge   Sb   Te
    44    44   110
Direct
  0.7685728744512985  0.6153633338288284  0.1938743728173374
  0.4630845263261935  0.6805198445264464  0.5207936804845698
  0.1666886897345715  0.6746936732934283  0.7839927301569918
  0.7325450841564238  0.1344610064904539  0.6133274482211211
  0.3453647378232176  0.3831984020323028  0.4320589971453207
  0.8092594966327902  0.3518230279863060  0.2258999640087507
  0.8567478671965041  0.3983235453075081  0.8023491490951318
  0.2884401434486403  0.3975628815208486  0.8809197146603480
  0.9659012010766350  0.6408940250736129  0.0049146695936284
  0.8092295181350524  0.3135334362729700  0.3929626790963419
  0.2870617108143519  0.0282198067382695  0.8362654077908914
  0.9230742057913017  0.5767201463751220  0.6630651103634536
  0.9693171795949331  0.3901931681816726  0.5144851006043706
  0.7316778497279266  0.5203059416203458  0.3477799589534912
  0.0020853001304846  0.3574664794716864  0.9677011243085034
  0.3016300581283237  0.8292216927684257  0.7786534819373619
  0.3571541464032275  0.0858710573353609  0.2501187297357743
  0.4181014291090089  0.2624061508473221  0.9328496849149915
  0.8808858358860291  0.2121646363448010  0.9626504950788143
  0.8587920431343847  0.9570712503367909  0.5538684583824556
  0.3891594871365225  0.1212994548383938  0.8006927123706028
  0.3602904104630801  0.4188817564611407  0.6649198415786401
  0.0408894479720684  0.5000981794435543  0.1660211167097858
  0.6194896100789210  0.6515745426966857  0.3662287579393975
  0.9093716211652036  0.0348953766807740  0.2418302688802854
  0.1735502931245299  0.3637099557678777  0.5561039891444500
  0.4975261589210083  0.2588944140281450  0.3460323528954614
  0.1485939134389167  0.0803732230049610  0.0808988288959788
  0.4104055913680647  0.5565403022378116  0.5286029683942240
  0.4443888043562306  0.9907112008108968  0.7356444350277221
  0.8050218108579226  0.1350797300473625  0.3916410418441737
  0.5759775220140433  0.7100161141960020  0.0942610221723351
  0.1692519722693634  0.3536599669689633  0.0345420472208785
  0.6251538761984319  0.6510118527428537  0.9771219782545785
  0.0723758658563284  0.1353476165253265  0.8988718608281896
  0.1582276714620675  0.2252130246005146  0.5244708472213924
  0.2021544161405788  0.5729654128925820  0.9422760770135714
  0.2154035939898510  0.2309393283330119  0.0289488955191462
  0.6308217092681428  0.7638844749979635  0.2792933485773900
  0.4951104334780151  0.8217579019543212  0.7630897804824838
  0.8011662336364495  0.7023000103057517  0.6476286128604943
  0.2680659925819400  0.1191645549743477  0.9617401882794072
  0.5593546075772209  0.6575665355866380  0.8566306014400707
  0.9417905789149699  0.7840906967028933  0.7667592496648092
  0.7101491142136989  0.8930942607530663  0.0519829745134073
  0.6320012037304160  0.5281805912186397  0.4749857978398105
  0.0313768577082258  0.8318416697974441  0.4529993984373187
  0.8391920598095817  0.8703471766291822  0.2381168706266156
  0.4372925241032036  0.6336027684866110  0.0669276143516519
  0.8080138337441743  0.2778209126763410  0.5844828955917697
  0.3992237733751270  0.2613720181416809  0.2354706810456518
  0.6014410823612688  0.2969747716106311  0.7245592450896924
  0.3292858682345996  0.1184502604554984  0.5457699468724939
  0.0722587684237608  0.1001209782626119  0.3701663571658122
  0.6840812128039275  0.2538731702820510  0.9817692751209240
  0.9997422949758200  0.7066585450486127  0.3457684400259327
  0.2639546065977367  0.8981468312905213  0.9974391675665846
  0.4398336597971130  0.4037145466466753  0.8513929741774198
  0.2496643691444934  0.7349473567818207  0.1380465396501977
  0.7031673458429888  0.3530230212052333  0.4991855527648040
  0.9206659622286674  0.7375719817793412  0.5581885747625552
  0.0468639847635935  0.0854029736403623  0.7481521761087520
  0.1408981350506766  0.3615297112336520  0.8706525223267212
  0.9561169873940064  0.7902390975145021  0.1429754568433357
  0.2281766363403039  0.1716745353706623  0.4141696999591046
  0.6399959813193737  0.9276520097957576  0.7544600763247438
  0.6690921186251273  0.3656141984969404  0.3283008496367579
  0.2190895401073761  0.5657005119751339  0.4425547832475660
  0.8957693207501278  0.4687171584939399  0.0039128765629027
  0.5735571946329854  0.0709451307091450  0.5609826815318489
  0.5699860025671509  0.2293243148700098  0.1725568048566554
  0.4969909440471172  0.9191705268553259  0.1346855756909358
  0.7573139507928989  0.6384382538883157  0.4367762834680084
  0.6617553486356877  0.4783205450042280  0.8422148186640923
  0.4593480759190752  0.4977976552142734  0.9970532716883964
  0.8218326800127610  0.6966518005461888  0.7932705382095416
  0.1888432571660129  0.5286966996900074  0.7357313718940679
  0.0075339365736543  0.9145127153910626  0.3200468141426784
  0.0575030038701530  0.2443055360458230  0.1913003014791640
  0.1065422786854551  0.8191446322466287  0.9308087743815209
  0.2719154795862441  0.3036641949211284  0.3327936763517500
  0.5405332238422207  0.4612603448187377  0.3568563523621061
  0.7228853790017740  0.8211861438947398  0.6322076491492554
  0.7686495337104615  0.5235552624498413  0.0787412277906545
  0.4418390330481804  0.8959269400674006  0.4676479637975032
  0.1281032642073490  0.0322512678429588  0.6070657992156776
  0.7866758789143686  0.9415788081732707  0.3633053685223224
  0.5016947267676932  0.4398509124548227  0.1310199370271486
  0.7598400656131057  0.0710817997058980  0.2656737222831637
  0.1960201801211076  0.3601834683599227  0.7224237690349542
  0.6564799971763475  0.3862755317788782  0.1759362104607386
  0.8712377587257817  0.1827481120240579  0.2658222269787645
  0.1453567734102013  0.9329573366558128  0.4133178316247797
  0.5159238815046013  0.9254677994252865  0.6097501284485387
  0.4860108932480041  0.3498968251879589  0.4538466869681190
  0.6325785563029784  0.9056521892532478  0.3512617312947126
  0.0866075160508306  0.6122663573434399  0.5221851498333852
  0.8388022306676857  0.4962012970499751  0.2644565039407735
  0.3502895215531587  0.7761272491359267  0.5420463947703706
  0.3753294404512961  0.9377518109847381  0.9067404280962572
  0.4505806590408714  0.7386013037653151  0.8815355950962540
  0.7430059303416786  0.5805337367486885  0.6155273645422394
  0.0694817112899509  0.5247846178041277  0.0275890291710605
  0.6112857281837404  0.7368507590473150  0.7448594699955245
  0.0347870906629429  0.7018778102684419  0.8505680040484199
  0.9545610293156735  0.8805361039231526  0.9297674958982970
  0.3627746012761802  0.1962366488303533  0.0481771833666409
  0.2321461422718237  0.7169471559073831  0.9015625061375417
  0.9400597250154701  0.3287555196373563  0.3062439590270611
  0.0135555246986915  0.6964816220959511  0.6655996131776182
  0.9431714203758752  0.1752094073443627  0.6837659359931537
  0.7616414232758618  0.2811529103609152  0.7594424812536482
  0.8724314377983621  0.7712332242366572  0.9966896998153663
  0.2411210309796733  0.7978410793199092  0.3608550865060132
  0.3886309847388946  0.7358587523575052  0.6914875132960561
  0.8496275383795604  0.0558938522739326  0.6865366384506034
  0.6716300833309640  0.1434414732172749  0.0895928315857807
  0.3087750815994321  0.9597191248915852  0.7107677850724256
  0.0049981784753132  0.9472283832324369  0.0683774072842744
  0.4472618933949657  0.5640099994958546  0.2052345021917326
  0.7264878205713090  0.0030153842535121  0.9494157791925094
  0.0768448601506775  0.8012513887872086  0.2453275452854428
  0.3940859755464260  0.9532621743435706  0.2779729645746833
  0.8945943497964605  0.5625259983387292  0.8095581946597306
  0.7068214377780446  0.7474319690598553  0.1444925089912114
  0.0052966821330626  0.8962034628982480  0.5881622338109892
  0.6868769418503541  0.4256023402405524  0.6864841858523486
  0.9090155470572185  0.2396648600504546  0.4830231227888914
  0.8415795465584088  0.4472034887975925  0.4612128254273777
  0.3053019168274146  0.9690136415243095  0.5156028757630559
  0.9680503896931246  0.9577320938072895  0.7409155119124509
  0.0763918960258178  0.2624611777516220  0.3534628126066705
  0.8373676142656759  0.7188109631136452  0.3121315270156559
  0.0924972041728574  0.5162601795365322  0.8504326652134799
  0.7892292506828367  0.8935019162904446  0.7469466252183273
  0.3084679230923681  0.4039568176573389  0.0321230643192394
  0.6210149304209100  0.5725490670286656  0.2480636374619629
  0.9423279860954655  0.2926686534472232  0.8475240721276130
  0.4986640078616016  0.7810784273079598  0.2070782719125145
  0.3682153902387193  0.4093604299668806  0.2261650933163118
  0.1364375334344938  0.3755832954637894  0.1745877429674154
  0.0376576044190515  0.3516511526137229  0.6973332047821075
  0.0738629692319245  0.7228522541419869  0.0590918618626815
  0.3110277331451291  0.5416402550792897  0.8374562476944514
  0.6240278919677200  0.2299561293851594  0.5643432168881544
  0.5150565405637674  0.5376227675883302  0.7888479919374880
  0.0547903039132633  0.5084369877245696  0.6225578407125805
  0.4409922455410962  0.1284918898692786  0.6526239378576342
  0.3893311947954510  0.5306374673394001  0.3874226926671211
  0.9270375349347307  0.6328794487000199  0.1477659649219627
  0.7876253742268852  0.3824432020985886  0.9372196970838454
  0.9066595321395278  0.6158392393249235  0.4679604426300462
  0.3593986529098271  0.7959005485906685  0.0598587738689560
  0.4455851722770601  0.3143784327546130  0.7246887404410480
  0.3152285270694974  0.6868834507945478  0.2701830846514543
  0.7218871593719097  0.0292774226577426  0.5018830680327522
  0.7855764731714838  0.8237838456237266  0.4868568131321207
  0.4817600974970125  0.4551698185592751  0.5984075189941976
  0.2567490295133190  0.9008826944432063  0.2463947554001275
  0.2861345981571873  0.5965937196090757  0.0840153276517259
  0.1661557394963430  0.4210008498578091  0.4175975579062706
  0.1427994775752781  0.0052617425593294  0.9157383584354909
  0.6387319071439367  0.0876850627238297  0.7139016448756608
  0.5261289028018873  0.0369785954907383  0.4023331679713680
  0.1850398803118957  0.7813077504445421  0.6952640768488053
  0.5907394345864543  0.9824440972956592  0.8876698636337916
  0.6115411769808966  0.5118987217834502  0.0076545087632885
  0.2054654088215030  0.1819926959811808  0.1647573792341221
  0.6345295809343303  0.9651170959236027  0.1713760752674703
  0.2903424241195603  0.2212324442465989  0.8438894290638588
  0.0290162209320780  0.2121180588034121  0.0250284205044785
  0.7648194058519500  0.6187623020134418  0.9569103064439828
  0.5743618867163434  0.8346080739626733  0.0071043040565871
  0.5252404247296227  0.3055494725820083  0.0364287842423828
  0.1510102857409903  0.5735920363446244  0.2139491212407004
  0.9347858984632665  0.0880594648607146  0.9079551193478925
  0.0798071811636275  0.5756412848420033  0.3454803391170477
  0.4925233506722466  0.1491750318392366  0.8966383844501490
  0.6249689094364259  0.2105089584598543  0.3230435996633438
  0.4248195889149461  0.1396442341058309  0.3878666482157671
  0.4911684672069092  0.0835183881562388  0.1891634333484581
  0.0454843000889049  0.1277525039830726  0.5222164283386540
  0.2134717821424298  0.1568661876738323  0.6404106609992523
  0.9103637733071716  0.0329709325680058  0.4217050996579255
  0.1199317083563674  0.9078625077528313  0.7886650034244157
  0.7994481174633774  0.2393206170248724  0.0926530789662936
  0.5848015713836825  0.3462502737996021  0.8740222824824293
  0.3201987699879628  0.3153476195551745  0.5591675358181907
  0.8654374014172864  0.9924624972156988  0.1041915908682057
  0.2768325918649251  0.5408890689487900  0.5781864098589663
  0.6081814744833557  0.6538413128501789  0.5821794729358842
  0.7608945119974141  0.1694924900889117  0.8708466770923377
  0.2794947109698065  0.0017020906212381  0.1070028762907772
  0.0602494792085903  0.0282889475813901  0.1993689577875801
  0.4714506557582381  0.6722599216289363  0.3666610982356060
  0.8943893045704802  0.3924058657108014  0.6387473880561717
  0.5925426310204593  0.8047831885999038  0.4571280870004188
  0.9124793650080304  0.3714781430582966  0.1113520382426133
 
  0.90566904E-03  0.88636860E-04 -0.88201932E-03
  0.15616199E-02  0.86438818E-03 -0.25799316E-02
 -0.51892517E-03 -0.75246690E-03  0.15288301E-02
  0.18391296E-02  0.56778103E-03  0.26703952E-02
 -0.17968772E-02 -0.29669317E-02  0.23748174E-02
 -0.18790589E-02  0.14642123E-02 -0.18889999E-02
 -0.10785752E-02 -0.15101561E-02 -0.30307203E-02
 -0.12871985E-02 -0.41112658E-02 -0.14813428E-02
 -0.39391908E-03 -0.43243595E-04  0.63778939E-03
  0.23913578E-02 -0.22068432E-02  0.11195331E-02
  0.18270551E-02 -0.11243076E-02  0.18019882E-02
 -0.30856288E-02 -0.30506117E-02  0.68490888E-03
 -0.30625342E-02  0.21198921E-02 -0.49658647E-03
  0.44178167E-02 -0.30873486E-02  0.14110878E-02
 -0.91465358E-03  0.48624566E-03 -0.65254062E-03
 -0.89928722E-04  0.18936075E-02 -0.21979359E-02
  0.14174965E-02 -0.22587534E-02 -0.27701342E-02
 -0.88198589E-03  0.22150152E-02 -0.33418380E-02
  0.23383701E-02  0.12720320E-02  0.35999013E-03
 -0.35915997E-02  0.16842416E-02  0.32399432E-02
  0.93199717E-03  0.30214091E-02 -0.26164132E-02
 -0.42528295E-03  0.64788077E-04  0.26423139E-02
  0.73017033E-03  0.86161710E-04 -0.38497088E-03
  0.35162707E-02  0.23095618E-03  0.92709154E-03
  0.33271960E-02  0.22016136E-03 -0.16869138E-02
  0.70994652E-03  0.14284651E-02  0.26251552E-02
 -0.26729104E-02  0.17214258E-02  0.20718917E-02
  0.49356388E-03 -0.30671766E-02  0.53711955E-03
 -0.31064627E-04 -0.14778638E-02 -0.85730988E-03
  0.83371760E-03 -0.98033450E-03 -0.60215149E-03
 -0.17068922E-02 -0.10400957E-02 -0.16871835E-02
 -0.74765597E-04 -0.31424495E-02  0.82931180E-03
  0.11131829E-02  0.24910530E-05 -0.15938089E-02
  0.35835479E-02 -0.17350968E-02 -0.12260259E-02
  0.98142285E-03 -0.33170107E-03 -0.25455326E-02
  0.20985083E-02 -0.26102047E-03 -0.22066637E-03
 -0.27505835E-02  0.13841636E-02 -0.20208730E-02
  0.15050140E-02  0.20875047E-02  0.13315148E-02
  0.23176208E-02  0.18396892E-02  0.25894946E-02
 -0.49719373E-03 -0.24247741E-02 -0.17361941E-02
 -0.14275604E-02  0.10700631E-02 -0.12790363E-03
 -0.18476539E-02 -0.15171354E-02 -0.17142320E-03
  0.33372082E-02 -0.10050032E-02 -0.23404806E-02
  0.28676679E-02  0.98457824E-03  0.82391216E-03
  0.15332886E-04  0.26335719E-04 -0.12452304E-02
  0.26352665E-03 -0.11785223E-02  0.24998128E-03
 -0.22451236E-03  0.51158084E-02  0.20151086E-02
  0.32654895E-03 -0.21711840E-02  0.14616145E-02
 -0.20466875E-02  0.20203465E-03  0.26656005E-02
 -0.13627559E-03 -0.13228734E-02 -0.13604791E-02
 -0.11806682E-02 -0.13791082E-02  0.73832810E-03
  0.19781351E-02  0.98964873E-03 -0.15558757E-02
 -0.50945099E-03 -0.13739811E-02 -0.69693810E-03
 -0.91941466E-03  0.17757267E-02 -0.33399773E-02
  0.13354272E-02 -0.13570245E-02  0.16475469E-02
  0.78349775E-04  0.12836834E-02 -0.98590651E-04
 -0.29915974E-02  0.19155351E-03 -0.22152678E-04
 -0.94230142E-03  0.29627657E-03  0.47495147E-03
  0.10592329E-02  0.16426872E-02  0.20122130E-02
 -0.38513649E-04 -0.68962377E-03 -0.19395878E-02
  0.11745856E-03 -0.11184106E-03 -0.15827202E-02
  0.19123060E-02 -0.13702632E-02 -0.27965631E-03
  0.14957649E-03  0.31440565E-03 -0.22624623E-02
 -0.11754135E-03 -0.13562095E-02 -0.26492854E-02
 -0.17872867E-02 -0.11108417E-02 -0.97906160E-03
 -0.10799998E-02 -0.73318675E-03 -0.65435168E-03
 -0.13204160E-02 -0.18517742E-02 -0.10061796E-02
  0.11889802E-02 -0.13949647E-02 -0.12325083E-02
 -0.62762925E-03  0.28752910E-02 -0.88461167E-03
  0.91245214E-04 -0.23074198E-02 -0.40428276E-03
 -0.87558873E-03  0.24454396E-02 -0.31174894E-02
  0.24737277E-02  0.26311564E-02 -0.38240045E-03
  0.33477809E-03  0.79495829E-03 -0.92341969E-03
  0.39330735E-04  0.19508318E-03  0.11779194E-02
 -0.16663052E-02 -0.27258374E-02  0.32017848E-03
 -0.96296067E-03 -0.16131476E-03  0.95203413E-05
 -0.53977064E-04 -0.49973686E-03 -0.30065786E-03
 -0.11221698E-02  0.45127569E-03 -0.19436017E-02
  0.12413469E-02 -0.18113077E-02 -0.11621085E-02
 -0.92974534E-03  0.13367148E-02 -0.33541532E-03
  0.96930629E-04 -0.49973388E-03 -0.14952648E-02
  0.30370090E-02  0.18959467E-03  0.14498261E-02
 -0.87694548E-03  0.14737011E-02 -0.46277336E-03
 -0.16899928E-02 -0.13241006E-02  0.28193681E-02
 -0.55122945E-03  0.19562112E-02  0.55252421E-03
  0.15266456E-03 -0.32956968E-02  0.83880096E-03
  0.13841226E-02 -0.93835751E-03  0.30106698E-03
 -0.12043194E-03 -0.24960688E-03 -0.22871725E-02
 -0.35166481E-03  0.41869367E-03  0.37151595E-02
  0.16231858E-02  0.26609761E-02  0.43393026E-03
  0.18427560E-02 -0.55694052E-03 -0.22882266E-02
 -0.18080114E-02 -0.46249889E-04  0.84010993E-03
 -0.20004189E-02 -0.13996347E-02  0.49304142E-03
  0.14680081E-02 -0.25974813E-02  0.12314995E-02
  0.21256058E-02  0.26518917E-03  0.24259626E-02
 -0.44647338E-03  0.25783742E-03 -0.15979824E-02
  0.64538638E-03  0.10945908E-03  0.12755751E-02
 -0.14414103E-02 -0.17670037E-02  0.16233684E-02
 -0.24997847E-02 -0.79177118E-03  0.19868497E-02
  0.21024305E-02  0.11779649E-02  0.11419357E-02
  0.81352128E-03 -0.65059419E-03  0.83649227E-03
 -0.11916871E-02  0.17465605E-02 -0.46484986E-03
 -0.11414504E-02 -0.20239925E-02 -0.20817788E-04
 -0.10618171E-02  0.95766477E-03 -0.23125048E-02
  0.20025070E-02  0.95216944E-03  0.41881059E-03
  0.67147849E-03 -0.47075480E-03 -0.87109457E-03
  0.11819851E-02  0.27140659E-02 -0.57214698E-03
 -0.62494771E-03  0.21052636E-02  0.35271528E-02
 -0.13119531E-02  0.40871916E-03  0.19261462E-02
  0.78377820E-03 -0.77172076E-03  0.63575573E-04
  0.17902556E-02  0.18526295E-02  0.35039545E-03
  0.86701561E-03 -0.74689672E-03  0.95369107E-03
 -0.10368009E-02 -0.19781420E-03  0.33030841E-03
  0.17291289E-03  0.47847121E-03  0.70998437E-03
  0.10503075E-02  0.93073174E-04 -0.10376337E-02
 -0.35382532E-03 -0.10624459E-02  0.10193188E-03
  0.39636544E-03  0.30306438E-03  0.55780372E-03
 -0.12492691E-03 -0.12544231E-02 -0.12260581E-02
 -0.18336037E-02  0.33943091E-03 -0.13126819E-03
  0.24751404E-02  0.69536695E-03  0.94565987E-03
  0.25841469E-03  0.82237395E-03  0.76244458E-03
 -0.11878616E-02 -0.13348913E-02  0.10404458E-02
  0.26182639E-02  0.92749630E-03 -0.22901026E-03
 -0.48172384E-03 -0.96825399E-03  0.11277369E-02
 -0.18021486E-02  0.11736999E-02  0.19093153E-02
  0.19120057E-03  0.10642757E-02  0.25107620E-03
 -0.22923452E-02  0.28749804E-03 -0.94567706E-03
 -0.55796504E-03 -0.13014717E-02 -0.23373656E-02
 -0.14864438E-02  0.22868058E-03 -0.16915849E-02
 -0.43563306E-03 -0.17147084E-02 -0.65192790E-03
 -0.31172845E-02  0.13290444E-02 -0.10471534E-02
 -0.54155132E-03  0.14742252E-02 -0.48986853E-03
  0.17020916E-03  0.10359662E-02 -0.13694925E-02
 -0.52472143E-03 -0.86057264E-03  0.11442827E-02
  0.26269064E-02 -0.37498725E-03  0.12316289E-02
 -0.28761215E-03  0.38663808E-05  0.85521148E-04
  0.16578924E-02 -0.39735933E-03 -0.17376275E-02
  0.14253203E-02 -0.13079363E-03 -0.45591254E-03
  0.12312266E-04  0.22496501E-02 -0.13297323E-02
 -0.39178364E-03 -0.22640217E-03  0.12649364E-02
  0.28826746E-03  0.13829305E-02  0.92900154E-03
  0.10921384E-02 -0.99883614E-04 -0.30945753E-03
 -0.14570302E-02  0.12923781E-02 -0.26790823E-02
 -0.57414293E-03  0.19325620E-02 -0.10253946E-02
  0.29682099E-03 -0.13707481E-02  0.23858684E-03
  0.20570789E-02 -0.10374694E-03 -0.61945283E-03
 -0.49496297E-03 -0.27342914E-02  0.36710391E-03
 -0.65800591E-04  0.15367275E-02 -0.77924801E-03
  0.82178134E-03 -0.83527370E-03  0.16560742E-02
 -0.14898149E-02  0.82704925E-04  0.22352642E-02
 -0.17133298E-02  0.22077450E-03 -0.12295448E-02
  0.20278813E-02 -0.40309880E-02 -0.75191598E-03
 -0.10466462E-02 -0.17656165E-02 -0.13073005E-02
  0.23389492E-03 -0.11941139E-02 -0.14134275E-02
  0.21240319E-02 -0.17264135E-02  0.10223583E-02
 -0.37462724E-02  0.15511798E-02  0.18382242E-02
 -0.20339933E-02  0.10663817E-02  0.92772776E-04
 -0.82799445E-03  0.20740421E-02 -0.41548200E-03
  0.29895963E-02  0.97137442E-03  0.80533192E-04
 -0.22330241E-03  0.15272199E-02  0.13797791E-02
  0.92190042E-03 -0.19750316E-02 -0.33827382E-03
 -0.35014267E-02  0.12342147E-02  0.80482011E-03
 -0.10840486E-02 -0.23414993E-02 -0.19243641E-02
  0.13036898E-02  0.10479456E-02  0.57109512E-03
 -0.16817989E-02 -0.17526598E-02  0.14447447E-02
  0.82772390E-03  0.10521509E-02 -0.28758767E-03
 -0.17207031E-02 -0.61737826E-03  0.18015348E-02
 -0.52255040E-03  0.12034066E-02  0.34124549E-03
  0.27190349E-02 -0.74562416E-03 -0.44914468E-03
 -0.79260131E-03 -0.15139893E-02  0.23841161E-02
  0.10538922E-02  0.26383319E-02  0.70326923E-03
 -0.12087927E-02 -0.30284438E-02  0.18503430E-02
 -0.56031406E-03 -0.10687464E-03  0.12071866E-02
 -0.12502378E-02  0.14761201E-03 -0.37078364E-03
  0.25116161E-02 -0.10301523E-02 -0.84982511E-03
  0.13465049E-03  0.92260748E-03 -0.14785909E-03
  0.20647581E-02  0.14433936E-02  0.75553503E-03
  0.38074409E-02  0.13726458E-02 -0.20138200E-02
  0.15489991E-03  0.21104716E-02  0.14547263E-03
  0.70455168E-03  0.20159119E-02 -0.24794743E-03
 -0.86485672E-03  0.19076306E-02 -0.61077736E-03
 -0.21308693E-02  0.11039943E-02  0.12354976E-02
  0.74362715E-03 -0.40482430E-03  0.94094951E-03
 -0.12754450E-02 -0.37623988E-03  0.27673825E-03
 -0.23239393E-02 -0.16584978E-02 -0.10864143E-02
 -0.12621825E-02  0.90044863E-03 -0.69971688E-03
  0.10083420E-02 -0.15209886E-03  0.27147284E-03
 -0.20107888E-03  0.10859277E-02  0.98463581E-03
  0.94558170E-03 -0.11424762E-02 -0.13882614E-02
  0.22299745E-03 -0.25340091E-02  0.49148088E-03
  0.16701690E-02 -0.10542291E-02 -0.10677627E-02
 -0.16816274E-02 -0.14973719E-03 -0.13417334E-03
 -0.68281512E-03  0.87799124E-03  0.38323979E-03
 -0.69997536E-03  0.62461903E-03  0.88985740E-03
  0.29711875E-03 -0.11961066E-03  0.12578565E-02
  0.20687628E-02  0.47244128E-03  0.11817138E-02
 -0.22206504E-02  0.10952372E-02  0.18369967E-03
  0.30014154E-03  0.24077407E-02  0.52727660E-03
 
           1
   3.00000000000000     
  0.10000000E+01  0.00000000E+00  0.00000000E+00  0.00000000E+00
  0.76871772E+00  0.61537751E+00  0.19373331E+00
  0.46333428E+00  0.68065809E+00  0.52038106E+00
  0.16660570E+00  0.67457333E+00  0.78423724E+00
  0.73283922E+00  0.13455181E+00  0.61375453E+00
  0.34507736E+00  0.38272389E+00  0.43243881E+00
  0.80895897E+00  0.35205720E+00  0.22559785E+00
  0.85657537E+00  0.39808202E+00  0.80186443E+00
  0.28823428E+00  0.39690535E+00  0.88068280E+00
  0.96583820E+00  0.64088711E+00  0.50166736E-02
  0.80961198E+00  0.31318049E+00  0.39314173E+00
  0.28735392E+00  0.28039992E-01  0.83655361E+00
  0.92258071E+00  0.57623225E+00  0.66317465E+00
  0.96882738E+00  0.39053221E+00  0.51440568E+00
  0.73238441E+00  0.51981217E+00  0.34800564E+00
  0.19390162E-02  0.35754425E+00  0.96759676E+00
  0.30161568E+00  0.82952454E+00  0.77830196E+00
  0.35738085E+00  0.85509807E-01  0.24967569E+00
  0.41796037E+00  0.26276041E+00  0.93231521E+00
  0.88125982E+00  0.21236808E+00  0.96270807E+00
  0.85821763E+00  0.95734062E+00  0.55438663E+00
  0.38930854E+00  0.12178268E+00  0.80027426E+00
  0.36022239E+00  0.41889212E+00  0.66534244E+00
  0.41006227E-01  0.50011196E+00  0.16595955E+00
  0.62005198E+00  0.65161148E+00  0.36637703E+00
  0.90990375E+00  0.34930588E-01  0.24156047E+00
  0.17366384E+00  0.36393842E+00  0.55652384E+00
  0.49709867E+00  0.25916973E+00  0.34636372E+00
  0.14867285E+00  0.79882678E-01  0.80984732E-01
  0.41040062E+00  0.55630394E+00  0.52846586E+00
  0.44452214E+00  0.99055441E+00  0.73554813E+00
  0.80474882E+00  0.13491338E+00  0.39137120E+00
  0.57596556E+00  0.70951353E+00  0.94393657E-01
  0.16943001E+00  0.35366037E+00  0.34287143E-01
  0.62572701E+00  0.65073435E+00  0.97692590E+00
  0.72532828E-01  0.13529457E+00  0.89846474E+00
  0.15856329E+00  0.22517128E+00  0.52443556E+00
  0.20171451E+00  0.57318679E+00  0.94195287E+00
  0.21564430E+00  0.23127319E+00  0.29161850E-01
  0.63119237E+00  0.76417870E+00  0.27970750E+00
  0.49503092E+00  0.82137010E+00  0.76281210E+00
  0.80093792E+00  0.70247115E+00  0.64760816E+00
  0.26777049E+00  0.11892191E+00  0.96171277E+00
  0.55988834E+00  0.65740580E+00  0.85625628E+00
  0.94224922E+00  0.78424816E+00  0.76689102E+00
  0.71015157E+00  0.89309847E+00  0.51783820E-01
  0.63204335E+00  0.52799211E+00  0.47502578E+00
  0.31340951E-01  0.83265986E+00  0.45332168E+00
  0.83924429E+00  0.86999993E+00  0.23835063E+00
  0.43696519E+00  0.63363508E+00  0.67353934E-01
  0.80799204E+00  0.27760934E+00  0.58426531E+00
  0.39903494E+00  0.26115145E+00  0.23558876E+00
  0.60175745E+00  0.29713305E+00  0.72431041E+00
  0.32920439E+00  0.11823051E+00  0.54565848E+00
  0.72111723E-01  0.10040498E+00  0.36963218E+00
  0.68429479E+00  0.25365614E+00  0.98203277E+00
  0.99975483E+00  0.70686385E+00  0.34575267E+00
  0.26347615E+00  0.89817747E+00  0.99743562E+00
  0.43968295E+00  0.40376193E+00  0.85146893E+00
  0.24983378E+00  0.73521008E+00  0.13836836E+00
  0.70316119E+00  0.35291273E+00  0.49887535E+00
  0.92068475E+00  0.73755409E+00  0.55793544E+00
  0.47169827E-01  0.85183822E-01  0.74810745E+00
  0.14092206E+00  0.36158000E+00  0.87029068E+00
  0.95609819E+00  0.79002219E+00  0.14255175E+00
  0.22789079E+00  0.17149687E+00  0.41401312E+00
  0.63982325E+00  0.92753475E+00  0.75435542E+00
  0.66888094E+00  0.36531804E+00  0.32813993E+00
  0.21927970E+00  0.56547741E+00  0.44235766E+00
  0.89566894E+00  0.46917701E+00  0.37713974E-02
  0.57357179E+00  0.70576097E-01  0.56091802E+00
  0.56984597E+00  0.22971542E+00  0.17205821E+00
  0.49738658E+00  0.91959134E+00  0.13462442E+00
  0.75736749E+00  0.63856539E+00  0.43662860E+00
  0.66176164E+00  0.47835175E+00  0.84240321E+00
  0.45908158E+00  0.49736170E+00  0.99710448E+00
  0.82167867E+00  0.69662600E+00  0.79327206E+00
  0.18883462E+00  0.52861677E+00  0.73568329E+00
  0.73544638E-02  0.91458489E+00  0.31973597E+00
  0.57701537E-01  0.24401585E+00  0.19111444E+00
  0.10639358E+00  0.81935842E+00  0.93075513E+00
  0.27193098E+00  0.30358427E+00  0.33255453E+00
  0.54101894E+00  0.46129067E+00  0.35708823E+00
  0.72274513E+00  0.82142184E+00  0.63213364E+00
  0.76837925E+00  0.52334349E+00  0.79192140E-01
  0.44175087E+00  0.89623980E+00  0.46773633E+00
  0.12812768E+00  0.31724175E-01  0.60719995E+00
  0.78689725E+00  0.94142873E+00  0.36335352E+00
  0.50167547E+00  0.43981099E+00  0.13065414E+00
  0.75978382E+00  0.71148763E-01  0.26626790E+00
  0.19627978E+00  0.36060905E+00  0.72249317E+00
  0.65677472E+00  0.38618646E+00  0.17557025E+00
  0.87094860E+00  0.18274072E+00  0.26595659E+00
  0.14503684E+00  0.93273349E+00  0.41339669E+00
  0.51615867E+00  0.92505237E+00  0.60994709E+00
  0.48635085E+00  0.34993924E+00  0.45423468E+00
  0.63250715E+00  0.90569343E+00  0.35100616E+00
  0.86710735E-01  0.61228386E+00  0.52238916E+00
  0.83857170E+00  0.49591869E+00  0.26471614E+00
  0.34988972E+00  0.77600062E+00  0.54236416E+00
  0.37566569E+00  0.93794021E+00  0.90692306E+00
  0.45071077E+00  0.73849725E+00  0.88166938E+00
  0.74281534E+00  0.58081307E+00  0.61545302E+00
  0.69299155E-01  0.52446091E+00  0.27585700E-01
  0.61111591E+00  0.73700392E+00  0.74448962E+00
  0.35107359E-01  0.70203009E+00  0.85063499E+00
  0.95466842E+00  0.88046081E+00  0.92962818E+00
  0.36296364E+00  0.19667072E+00  0.48085678E-01
  0.23204619E+00  0.71728386E+00  0.90212662E+00
  0.93984990E+00  0.32882089E+00  0.30655201E+00
  0.13680877E-01  0.69635820E+00  0.66560978E+00
  0.94345774E+00  0.17550571E+00  0.68382198E+00
  0.76178009E+00  0.28103346E+00  0.75959501E+00
  0.87226562E+00  0.77120159E+00  0.99674253E+00
  0.24114869E+00  0.79791760E+00  0.36096864E+00
  0.38879896E+00  0.73587364E+00  0.69132156E+00
  0.84957095E+00  0.55723931E-01  0.68655294E+00
  0.67169348E+00  0.14348994E+00  0.89682043E-01
  0.30875510E+00  0.95951850E+00  0.71057170E+00
  0.47049235E-02  0.94728267E+00  0.68356413E-01
  0.44765775E+00  0.56412121E+00  0.20538575E+00
  0.72652915E+00  0.31469096E-02  0.94953772E+00
  0.76654881E-01  0.80103789E+00  0.24549395E+00
  0.39450472E+00  0.95341051E+00  0.27793634E+00
  0.89451731E+00  0.56237114E+00  0.80973856E+00
  0.70653321E+00  0.74761968E+00  0.14479787E+00
  0.53272615E-02  0.89637368E+00  0.58820239E+00
  0.68651032E+00  0.42564832E+00  0.68633294E+00
  0.90892631E+00  0.23945671E+00  0.48264930E+00
  0.84134181E+00  0.44724006E+00  0.46094228E+00
  0.30523224E+00  0.96873940E+00  0.51549861E+00
  0.96755183E+00  0.95794465E+00  0.74074804E+00
  0.76305284E-01  0.26269696E+00  0.35338447E+00
  0.83739484E+00  0.71897665E+00  0.31191250E+00
  0.92413284E-01  0.51612254E+00  0.85061567E+00
  0.78964938E+00  0.89344194E+00  0.74714360E+00
  0.30842192E+00  0.40395744E+00  0.32136742E-01
  0.62128008E+00  0.57248552E+00  0.24778573E+00
  0.94255594E+00  0.29264774E+00  0.84745116E+00
  0.49866598E+00  0.78143822E+00  0.20686560E+00
  0.36815273E+00  0.40932422E+00  0.22636740E+00
  0.13648364E+00  0.37580447E+00  0.17473632E+00
  0.37832274E-01  0.35163518E+00  0.69728371E+00
  0.73629941E-01  0.72305895E+00  0.58663386E-01
  0.31093591E+00  0.54194934E+00  0.83729225E+00
  0.62407536E+00  0.22973690E+00  0.56438137E+00
  0.51538554E+00  0.53760617E+00  0.78874892E+00
  0.54711143E-01  0.50799968E+00  0.62261655E+00
  0.44098172E+00  0.12873766E+00  0.65249931E+00
  0.38946263E+00  0.53050388E+00  0.38768755E+00
  0.92679926E+00  0.63289268E+00  0.14812346E+00
  0.78735136E+00  0.38247851E+00  0.93702305E+00
  0.90698386E+00  0.61519455E+00  0.46784019E+00
  0.35923126E+00  0.79561817E+00  0.59649692E-01
  0.44562258E+00  0.31418745E+00  0.72446269E+00
  0.31556823E+00  0.68660734E+00  0.27034659E+00
  0.72128800E+00  0.29525509E-01  0.50217706E+00
  0.78525117E+00  0.82395440E+00  0.48687165E+00
  0.48162767E+00  0.45550153E+00  0.59834107E+00
  0.25722717E+00  0.90103805E+00  0.24640764E+00