Sb                                      
   1.00000000000000     
    18.0173007964999989    0.0000000000000000    0.0000000000000000
     0.0000000000000000   18.0173007964999989    0.0000000000000000
     0.0000000000000000    0.0000000000000000   18.0173007964999989
   Pb   S 
   100   100
Direct
  0.1097434824766053  0.3539293452265559  0.6250369044349378
  0.1448466849141717  0.0493625448343057  0.0235997759225459
  0.4074965640887666  0.2045666281406160 -0.0004304614868508
  0.9398851809866952  0.4565892160684844  0.5197744950502631
  0.8676293840174447  0.3292615078351075  0.6776752643476942
  0.7595058909391480  0.9818098206577417  0.4565540693374585
  0.4361372946824035  0.6755443851521528  0.2362637576943406
  0.4856774310509374  0.8599362638526155  0.5383031852595085
  0.7558131340319082  0.9668745471065109  0.9770818076943243
  0.9146228998451827  0.9250122708584536  0.8324428460980832
  0.9894345691984484  0.2105707440962913  0.1859172122837146
  0.1265412833773004  0.4880409815682520  0.1032225054676110
  0.4270020620532921  0.0602613775213165  0.7992870509263958
  0.6656446443180156  0.4447703113813743  0.8089898592159046
  0.5122838556110491  0.6065301627540536  0.0705279349319949
  0.3882244694274319  0.1571973960939405  0.4947758057242946
  0.7483601131486124  0.0780528715757895  0.7709144125373558
  0.2482084311445329 -0.0017201233258621  0.6496959529490141
  0.2547834270363837  0.7508466175791544  0.0429230991369071
  0.3465331445819096  0.7162192346560617  0.4215027256909232
  0.9723880930177633  0.0568994024333443  0.3314178679450270
  0.2440194082626273  0.9231197969483954  0.8761021016834916
  0.2884569880422626  0.2030674838259555  0.6902301574650984
  0.4332029149619037  0.7275149260025272  0.9115091400218509
  0.0101782197499876  0.6841315884690703  0.1846130876232611
  0.3285596900510188  0.3559015688265963  0.8182804149578973
  0.5109285759014585  0.9795020905625131  0.3781992859921529
  0.2819044974094450  0.0839147732282079  0.1824721649815643
  0.5431652934410127  0.4118625048431877  0.9824893656251068
  0.8471017167702161  0.2792449848774070  0.3656455673960455
  0.7144018768019756  0.3707684526354795  0.1729684133447622
  0.4783301383147483  0.1839230349207718  0.3127775913595299
  0.4851252142145994  0.3829595668775022  0.5658281602131437
  0.5319243453260789  0.5757886968419956  0.5320205036187214
  0.2529152845309956  0.8733139260975821  0.2325517938574915
  0.6189389925300646  0.7747799929066318  0.0222210429893695
  0.3104975958383154  0.2954094453891221  0.2936071641941684
  0.2290195349097745  0.6513015341864398  0.8271755368224536
  0.5256210866365654  0.0687370903263873  0.1931840415840798
  0.0765314069855168  0.0742761882337453  0.7539452808477957
  0.1461639008090682  0.5158097583702879  0.4595137887431949
  0.1308995966174273  0.4364706749502109  0.8450427789233863
  0.0944913139766701  0.8297722641540458  0.7545087243396164
  0.4958525235350659  0.2458004435089208  0.7189189526958025
  0.7673281840652494  0.1922912755207464  0.0867490078737939
  0.3218941583179149  0.4989404728153756  0.9766170006909977
  0.7488653877855015  0.5001118658262506  0.4183182030472508
  0.0990839315815820  0.9762500338100233  0.4916694325168969
  0.8256972795054441  0.7360048239072582  0.7787270177932788
  0.6530623154818169  0.3872816880671514  0.6344598502607472
  0.9154426780878562  0.9730284427385775  0.6201621557975131
  0.2515583089142112  0.3122566401001660  0.1039091082925559
  0.0799354538742550  0.9148153894295804  0.1811858754437850
  0.7751916682199778  0.1833304075647146  0.5747253598868689
  0.2225135902021421  0.1880522238070255  0.8821485944640891
  0.3964974662502645  0.8093874735959120  0.7241625619470892
  0.8849796592223607  0.7357056521272348  0.0404776150261240
  0.0527787261606635  0.2921024305903605  0.0116060420453123
  0.6333053510579848  0.2311791762066970  0.8668370553011071
  0.6897349753188862  0.6047899751459478  0.1958657393365449
  0.5151566783400117  0.8618833715971890  0.1903223442406664
  0.6808751738096424  0.8990285786377242  0.6594977221016968
  0.0537772403459312  0.8717801607162213  0.9845115102252531
  0.5980570131645975  0.6900732460100414  0.7236261579683207
  0.6250995296086984  0.8025269246101410  0.3422522771533509
  0.2900870058908985  0.9847762497059300  0.3942627487772284
  0.7312694595408450  0.0872000830811370  0.2696775515403165
  0.1012221984471000  0.3575228023300897  0.3030677877684905
  0.0711135537199319  0.6669863909250295 -0.0343802624639780
  0.8627909571917740  0.4874482440989322  0.0152402237564577
  0.4157496605240599  0.9356967233029707  0.0286565582622120
  0.5637354540809546  0.9191893641579335  0.8563841400640235
  0.7697278070356933  0.5881623815329995  0.6381575649354984
  0.5923265756358328  0.0847768079903891  0.0295197519729637
  0.2156535635276468  0.7929370097825782  0.5740657763880462
  0.3033951453956726  0.6119247587363761  0.6265341902873843
  0.7402505186291158  0.7517288275735244  0.4873022579473452
  0.5650561361980038  0.0679276347557453  0.6195933527044620
  0.9302956268252542  0.5240653978390979  0.8114931548407449
  0.9382731897681079  0.6160238243976716  0.3791748280616625
  0.5117857183792132  0.2957084864797895  0.1555406500535886
  0.9487533302286515  0.4908237969333847  0.2148670548577850
  0.1780502394369946  0.1827476638348301  0.3846509199214009
  0.8381263743402528  0.2891488749978579  0.9063464507743293
  0.9290623327576919  0.8488349797809333  0.3309862755276945
  0.3924704089079755  0.4552544316575258  0.2033507095733141
  0.2390393889599945  0.5986100200436049  0.2235834411197395
  0.9055828103561894  0.0143162696869203  0.1373246689743189
  0.4449179986285284  0.5178692526369206  0.7811427221671393
  0.5747366346886142  0.4480476939839567  0.3257042450311185
  0.6262712705299919  0.2476464006701846  0.4306887842859984
  0.9185151010493068  0.1189216308532187  0.9152285093487649
  0.1202086277713168  0.7495765381525525  0.3954135559347000
  0.0691869367332322  0.5781901097772323  0.6609116369828976
  0.7539626535399295  0.8663470462238450  0.1900118409536970
  0.6875922041929149  0.6083857522540175  0.9420847883697591
  0.9368028519799469  0.7504311396606820  0.5711661875904553
  0.3007656294297678  0.3801939323184480  0.5314171139802710
  0.0208171159281656  0.2154431631014727  0.4988766631594028
 -0.0029139805537525  0.2708188876287564  0.8075542344383214
  0.4624092948897169  0.7502417183002666  0.0625774021433417
  0.5860077967026895  0.1093480828017333  0.7709293178547466
  0.2410415727154543  0.4345938730818221  0.2122092710865205
  0.2489909369130367  0.8325653598730723  0.3913840403194431
  0.0253999226283164  0.3727230827809025  0.1511488557213733
  0.2191940763756079  0.3286331165406762  0.4031634373777481
  0.3952705270895789  0.8828829069993646  0.8885155275846169
  0.8494899328212095  0.8540126161827395  0.4898817568611447
  0.8913304477376005  0.2870155853859501  0.5272773430020946
  0.6424906236159382  0.5823605305068875  0.3370530241716242
  0.1631000830880140  0.7862944617158037  0.9051726135431010
  0.4197757092759015  0.3065466535049738  0.4558199179957065
  0.5645998757764145  0.2483776891509877  0.0220472722402125
  0.2417083733025677  0.1640123647996721  0.0384108010689538
  0.7630829643389589  0.0253321856540391  0.6085854106035520
  0.3662424972164169  0.9670325772918059  0.2631911101425314
  0.2761864790259956  0.5012737867560457  0.8173293109843422
  0.5848729448153743  0.9219156495933413  0.0122485446846843
  0.8403000073674044  0.1933990611759768  0.2302392919534736
  0.0624922662264659  0.8230383499656500  0.5128742820871223
  0.0786207310489844  0.5848038425875758  0.2785391582737221
  0.9576445834096502  0.7815112572699172  0.9153360419227937
  0.5339852089908650  0.1223816037855879  0.4424177280562611
  0.6967270102077328  0.4565281260482470  0.9572020212581975
  0.3953726043627747  0.3675590190305025  0.0699969577047397
  0.1930162430652588  0.3005918999232595  0.7730156177039093
  0.3506187126313615  0.5854698896813422  0.3239946534119752
  0.5309771360889871  0.3745297530304313  0.8326501907384131
  0.0680964732094802  0.5809861234851292  0.8279759774724923
  0.4280686477373601  0.1243758637399737  0.6470463097212492
  0.6310742411123711  0.7605763237158009  0.1846370174871750
  0.3931498082245097  0.2059944384096982  0.8263016619175425
  0.3697889269801329  0.3397190109435695  0.6732851660508682
  0.9890708461952271  0.4263230103514601  0.7006019195636085
  0.9133546692420816  0.2087326889541326  0.0412921910812558
  0.0994669501244074  0.9593506558905568  0.6493086842713058
  0.4746374390317577  0.8047188052918032  0.3296932827119598
  0.1563593998805343  0.1222229633251699  0.5938117944157435
  0.9006723894511905  0.4701522775680559  0.3691933602076097
  0.9169301576677418  0.0637642550717039  0.7481306729163247
  0.5219684398550778  0.9220662493143366  0.6746325870879509
  0.1863993443588863  0.4843460616819229  0.6090642275100610
  0.8360357055826401  0.6210594672219049  0.9468892581143834
  0.6169457208342303  0.1888784044764431  0.2270213510744326
  0.6319058155792322  0.2417222288119711  0.5833178289967759
  0.9845957592997279  0.3812356010246035  0.9111271548388729
  0.2158726762281927  0.6657252088313453  0.4842998700288717
  0.2538167568968988  0.8637780914747215  0.7347111843744095
  0.2567913131275376  0.9549041983914173  0.0786453197034830
  0.1734626668077834  0.6903196212350436  0.6824986569694675
  0.5814054588557938  0.4429751337989191  0.1628079931626538
  0.6224746883431125  0.9093858594703276  0.4745586008408439
  0.7671649862978013  0.8255408222733776  0.0310950166458411
  0.7971589990550214  0.7581021306727616  0.3052784477627953
  0.7904174256395887  0.4338359362508454  0.6053655955014683
  0.0689414524730248  0.9524937997130257  0.8490303301393648
  0.8265929954174258  0.6294240822551285  0.4954969162524364
  0.8441021587347558  0.9711737807928514  0.3110761655446596
  0.0705081270599395  0.1696269865887316  0.9000205205657825
  0.5717296493761230  0.7669461304914014  0.8616824638461907
  0.9128037066175952  0.9786290351848086 -0.0099201902513716
  0.0635836467093043  0.3816531060489736  0.4802111516636271
  0.7372153395180354  0.3081670679972387  0.7802637675817660
  0.3209934710741243  0.1436047387790186  0.3454935375431000
  0.9022479793304684  0.6288716289805620  0.7021366784258258
  0.3738551513599121  0.7473830986852563  0.5814474843098277
  0.3741171691925433  0.5731937708244426  0.1169774316497709
  0.7545587654695354  0.1451215556000224  0.9225466021269848
  0.3986204794843108  0.9776511638952523  0.4961773500947885
  0.7076726855502256  0.6177288576643923  0.7944971528950034
  0.1839550831430679  0.3945446015385855  0.9896081239599911
  0.7288473456544540  0.7481383413651669  0.6480800058216456
  0.2112397034822426  0.2133352896662673  0.5458739137911124
  0.0046011094308690  0.2353960327699913  0.3467050242643654
  0.3076339077002939  0.7426935965927349  0.1955385935813493
  0.9301500967193833  0.8354308378067122  0.7019393180431390
  0.4098034733638027  0.1626089398421024  0.1510985068955381
  0.9366030228945442  0.8627395411714621  0.1686896287946488
  0.7434070819643597  0.0427507401121204  0.1185709062913948
  0.4771966548529166  0.5591038580048369  0.9295914470300571
  0.1786248240045902  0.2377376741472906  0.2376273180145859
  0.7239830223874411  0.9323456397090634  0.8094653237546103
  0.0626105347434477  0.0666320209007032  0.1514032174016262
  0.2165891364518270  0.6077488913509163  0.0003153679951101
 -0.0126984568926850  0.5720221483974027  0.0786843494453273
  0.0268134918694814  0.5961531875876830  0.5036703806125910
  0.2501966514974522  0.0629464377995368  0.7891562037107184
  0.0700132192668694  0.9368551747045371  0.3317212351248955
  0.7090812474210721  0.3752273206892996  0.3244423920924387
  0.3990812069377990  0.5050636188626996  0.5319710986511911
  0.8240079114272270  0.6656252618976833  0.2415566646173622
  0.3779643616481550  0.6607649028857584  0.7644233358515623
  0.1144453358967344  0.7573959297028535  0.1016384492070861
  0.6092309058530727  0.4499507048143361  0.4922371896008753
  0.5637193402736113  0.5424375839139626  0.6745563453198242
  0.4564338507761480  0.0648602526502628  0.9586906308788383
  0.6295717127852998  0.9394762733602374  0.2676100491291267
  0.8011435213390291  0.4936644830808546  0.1545622810495562
  0.7554642662544182  0.1630636872932097  0.4258600719320939
  0.9710915275119492  0.0590227243522963  0.4841284711626445
 
  0.00000000E+00  0.00000000E+00  0.00000000E+00
  0.00000000E+00  0.00000000E+00  0.00000000E+00
  0.00000000E+00  0.00000000E+00  0.00000000E+00
  0.00000000E+00  0.00000000E+00  0.00000000E+00
  0.00000000E+00  0.00000000E+00  0.00000000E+00
  0.00000000E+00  0.00000000E+00  0.00000000E+00
  0.00000000E+00  0.00000000E+00  0.00000000E+00
  0.00000000E+00  0.00000000E+00  0.00000000E+00
  0.00000000E+00  0.00000000E+00  0.00000000E+00
  0.00000000E+00  0.00000000E+00  0.00000000E+00
  0.00000000E+00  0.00000000E+00  0.00000000E+00
  0.00000000E+00  0.00000000E+00  0.00000000E+00
  0.00000000E+00  0.00000000E+00  0.00000000E+00
  0.00000000E+00  0.00000000E+00  0.00000000E+00
  0.00000000E+00  0.00000000E+00  0.00000000E+00
  0.00000000E+00  0.00000000E+00  0.00000000E+00
  0.00000000E+00  0.00000000E+00  0.00000000E+00
  0.00000000E+00  0.00000000E+00  0.00000000E+00
  0.00000000E+00  0.00000000E+00  0.00000000E+00
  0.00000000E+00  0.00000000E+00  0.00000000E+00
  0.00000000E+00  0.00000000E+00  0.00000000E+00
  0.00000000E+00  0.00000000E+00  0.00000000E+00
  0.00000000E+00  0.00000000E+00  0.00000000E+00
  0.00000000E+00  0.00000000E+00  0.00000000E+00
  0.00000000E+00  0.00000000E+00  0.00000000E+00
  0.00000000E+00  0.00000000E+00  0.00000000E+00
  0.00000000E+00  0.00000000E+00  0.00000000E+00
  0.00000000E+00  0.00000000E+00  0.00000000E+00
  0.00000000E+00  0.00000000E+00  0.00000000E+00
  0.00000000E+00  0.00000000E+00  0.00000000E+00
  0.00000000E+00  0.00000000E+00  0.00000000E+00
  0.00000000E+00  0.00000000E+00  0.00000000E+00
  0.00000000E+00  0.00000000E+00  0.00000000E+00
  0.00000000E+00  0.00000000E+00  0.00000000E+00
  0.00000000E+00  0.00000000E+00  0.00000000E+00
  0.00000000E+00  0.00000000E+00  0.00000000E+00
  0.00000000E+00  0.00000000E+00  0.00000000E+00
  0.00000000E+00  0.00000000E+00  0.00000000E+00
  0.00000000E+00  0.00000000E+00  0.00000000E+00
  0.00000000E+00  0.00000000E+00  0.00000000E+00
  0.00000000E+00  0.00000000E+00  0.00000000E+00
  0.00000000E+00  0.00000000E+00  0.00000000E+00
  0.00000000E+00  0.00000000E+00  0.00000000E+00
  0.00000000E+00  0.00000000E+00  0.00000000E+00
  0.00000000E+00  0.00000000E+00  0.00000000E+00
  0.00000000E+00  0.00000000E+00  0.00000000E+00
  0.00000000E+00  0.00000000E+00  0.00000000E+00
  0.00000000E+00  0.00000000E+00  0.00000000E+00
  0.00000000E+00  0.00000000E+00  0.00000000E+00
  0.00000000E+00  0.00000000E+00  0.00000000E+00
  0.00000000E+00  0.00000000E+00  0.00000000E+00
  0.00000000E+00  0.00000000E+00  0.00000000E+00
  0.00000000E+00  0.00000000E+00  0.00000000E+00
  0.00000000E+00  0.00000000E+00  0.00000000E+00
  0.00000000E+00  0.00000000E+00  0.00000000E+00
  0.00000000E+00  0.00000000E+00  0.00000000E+00
  0.00000000E+00  0.00000000E+00  0.00000000E+00
  0.00000000E+00  0.00000000E+00  0.00000000E+00
  0.00000000E+00  0.00000000E+00  0.00000000E+00
  0.00000000E+00  0.00000000E+00  0.00000000E+00
  0.00000000E+00  0.00000000E+00  0.00000000E+00
  0.00000000E+00  0.00000000E+00  0.00000000E+00
  0.00000000E+00  0.00000000E+00  0.00000000E+00
  0.00000000E+00  0.00000000E+00  0.00000000E+00
  0.00000000E+00  0.00000000E+00  0.00000000E+00
  0.00000000E+00  0.00000000E+00  0.00000000E+00
  0.00000000E+00  0.00000000E+00  0.00000000E+00
  0.00000000E+00  0.00000000E+00  0.00000000E+00
  0.00000000E+00  0.00000000E+00  0.00000000E+00
  0.00000000E+00  0.00000000E+00  0.00000000E+00
  0.00000000E+00  0.00000000E+00  0.00000000E+00
  0.00000000E+00  0.00000000E+00  0.00000000E+00
  0.00000000E+00  0.00000000E+00  0.00000000E+00
  0.00000000E+00  0.00000000E+00  0.00000000E+00
  0.00000000E+00  0.00000000E+00  0.00000000E+00
  0.00000000E+00  0.00000000E+00  0.00000000E+00
  0.00000000E+00  0.00000000E+00  0.00000000E+00
  0.00000000E+00  0.00000000E+00  0.00000000E+00
  0.00000000E+00  0.00000000E+00  0.00000000E+00
  0.00000000E+00  0.00000000E+00  0.00000000E+00
  0.00000000E+00  0.00000000E+00  0.00000000E+00
  0.00000000E+00  0.00000000E+00  0.00000000E+00
  0.00000000E+00  0.00000000E+00  0.00000000E+00
  0.00000000E+00  0.00000000E+00  0.00000000E+00
  0.00000000E+00  0.00000000E+00  0.00000000E+00
  0.00000000E+00  0.00000000E+00  0.00000000E+00
  0.00000000E+00  0.00000000E+00  0.00000000E+00
  0.00000000E+00  0.00000000E+00  0.00000000E+00
  0.00000000E+00  0.00000000E+00  0.00000000E+00
  0.00000000E+00  0.00000000E+00  0.00000000E+00
  0.00000000E+00  0.00000000E+00  0.00000000E+00
  0.00000000E+00  0.00000000E+00  0.00000000E+00
  0.00000000E+00  0.00000000E+00  0.00000000E+00
  0.00000000E+00  0.00000000E+00  0.00000000E+00
  0.00000000E+00  0.00000000E+00  0.00000000E+00
  0.00000000E+00  0.00000000E+00  0.00000000E+00
  0.00000000E+00  0.00000000E+00  0.00000000E+00
  0.00000000E+00  0.00000000E+00  0.00000000E+00
  0.00000000E+00  0.00000000E+00  0.00000000E+00
  0.00000000E+00  0.00000000E+00  0.00000000E+00
  0.00000000E+00  0.00000000E+00  0.00000000E+00
  0.00000000E+00  0.00000000E+00  0.00000000E+00
  0.00000000E+00  0.00000000E+00  0.00000000E+00
  0.00000000E+00  0.00000000E+00  0.00000000E+00
  0.00000000E+00  0.00000000E+00  0.00000000E+00
  0.00000000E+00  0.00000000E+00  0.00000000E+00
  0.00000000E+00  0.00000000E+00  0.00000000E+00
  0.00000000E+00  0.00000000E+00  0.00000000E+00
  0.00000000E+00  0.00000000E+00  0.00000000E+00
  0.00000000E+00  0.00000000E+00  0.00000000E+00
  0.00000000E+00  0.00000000E+00  0.00000000E+00
  0.00000000E+00  0.00000000E+00  0.00000000E+00
  0.00000000E+00  0.00000000E+00  0.00000000E+00
  0.00000000E+00  0.00000000E+00  0.00000000E+00
  0.00000000E+00  0.00000000E+00  0.00000000E+00
  0.00000000E+00  0.00000000E+00  0.00000000E+00
  0.00000000E+00  0.00000000E+00  0.00000000E+00
  0.00000000E+00  0.00000000E+00  0.00000000E+00
  0.00000000E+00  0.00000000E+00  0.00000000E+00
  0.00000000E+00  0.00000000E+00  0.00000000E+00
  0.00000000E+00  0.00000000E+00  0.00000000E+00
  0.00000000E+00  0.00000000E+00  0.00000000E+00
  0.00000000E+00  0.00000000E+00  0.00000000E+00
  0.00000000E+00  0.00000000E+00  0.00000000E+00
  0.00000000E+00  0.00000000E+00  0.00000000E+00
  0.00000000E+00  0.00000000E+00  0.00000000E+00
  0.00000000E+00  0.00000000E+00  0.00000000E+00
  0.00000000E+00  0.00000000E+00  0.00000000E+00
  0.00000000E+00  0.00000000E+00  0.00000000E+00
  0.00000000E+00  0.00000000E+00  0.00000000E+00
  0.00000000E+00  0.00000000E+00  0.00000000E+00
  0.00000000E+00  0.00000000E+00  0.00000000E+00
  0.00000000E+00  0.00000000E+00  0.00000000E+00
  0.00000000E+00  0.00000000E+00  0.00000000E+00
  0.00000000E+00  0.00000000E+00  0.00000000E+00
  0.00000000E+00  0.00000000E+00  0.00000000E+00
  0.00000000E+00  0.00000000E+00  0.00000000E+00
  0.00000000E+00  0.00000000E+00  0.00000000E+00
  0.00000000E+00  0.00000000E+00  0.00000000E+00
  0.00000000E+00  0.00000000E+00  0.00000000E+00
  0.00000000E+00  0.00000000E+00  0.00000000E+00
  0.00000000E+00  0.00000000E+00  0.00000000E+00
  0.00000000E+00  0.00000000E+00  0.00000000E+00
  0.00000000E+00  0.00000000E+00  0.00000000E+00
  0.00000000E+00  0.00000000E+00  0.00000000E+00
  0.00000000E+00  0.00000000E+00  0.00000000E+00
  0.00000000E+00  0.00000000E+00  0.00000000E+00
  0.00000000E+00  0.00000000E+00  0.00000000E+00
  0.00000000E+00  0.00000000E+00  0.00000000E+00
  0.00000000E+00  0.00000000E+00  0.00000000E+00
  0.00000000E+00  0.00000000E+00  0.00000000E+00
  0.00000000E+00  0.00000000E+00  0.00000000E+00
  0.00000000E+00  0.00000000E+00  0.00000000E+00
  0.00000000E+00  0.00000000E+00  0.00000000E+00
  0.00000000E+00  0.00000000E+00  0.00000000E+00
  0.00000000E+00  0.00000000E+00  0.00000000E+00
  0.00000000E+00  0.00000000E+00  0.00000000E+00
  0.00000000E+00  0.00000000E+00  0.00000000E+00
  0.00000000E+00  0.00000000E+00  0.00000000E+00
  0.00000000E+00  0.00000000E+00  0.00000000E+00
  0.00000000E+00  0.00000000E+00  0.00000000E+00
  0.00000000E+00  0.00000000E+00  0.00000000E+00
  0.00000000E+00  0.00000000E+00  0.00000000E+00
  0.00000000E+00  0.00000000E+00  0.00000000E+00
  0.00000000E+00  0.00000000E+00  0.00000000E+00
  0.00000000E+00  0.00000000E+00  0.00000000E+00
  0.00000000E+00  0.00000000E+00  0.00000000E+00
  0.00000000E+00  0.00000000E+00  0.00000000E+00
  0.00000000E+00  0.00000000E+00  0.00000000E+00
  0.00000000E+00  0.00000000E+00  0.00000000E+00
  0.00000000E+00  0.00000000E+00  0.00000000E+00
  0.00000000E+00  0.00000000E+00  0.00000000E+00
  0.00000000E+00  0.00000000E+00  0.00000000E+00
  0.00000000E+00  0.00000000E+00  0.00000000E+00
  0.00000000E+00  0.00000000E+00  0.00000000E+00
  0.00000000E+00  0.00000000E+00  0.00000000E+00
  0.00000000E+00  0.00000000E+00  0.00000000E+00
  0.00000000E+00  0.00000000E+00  0.00000000E+00
  0.00000000E+00  0.00000000E+00  0.00000000E+00
  0.00000000E+00  0.00000000E+00  0.00000000E+00
  0.00000000E+00  0.00000000E+00  0.00000000E+00
  0.00000000E+00  0.00000000E+00  0.00000000E+00
  0.00000000E+00  0.00000000E+00  0.00000000E+00
  0.00000000E+00  0.00000000E+00  0.00000000E+00
  0.00000000E+00  0.00000000E+00  0.00000000E+00
  0.00000000E+00  0.00000000E+00  0.00000000E+00
  0.00000000E+00  0.00000000E+00  0.00000000E+00
  0.00000000E+00  0.00000000E+00  0.00000000E+00
  0.00000000E+00  0.00000000E+00  0.00000000E+00
  0.00000000E+00  0.00000000E+00  0.00000000E+00
  0.00000000E+00  0.00000000E+00  0.00000000E+00
  0.00000000E+00  0.00000000E+00  0.00000000E+00
  0.00000000E+00  0.00000000E+00  0.00000000E+00
  0.00000000E+00  0.00000000E+00  0.00000000E+00
  0.00000000E+00  0.00000000E+00  0.00000000E+00
  0.00000000E+00  0.00000000E+00  0.00000000E+00
  0.00000000E+00  0.00000000E+00  0.00000000E+00
  0.00000000E+00  0.00000000E+00  0.00000000E+00
  0.00000000E+00  0.00000000E+00  0.00000000E+00
  0.00000000E+00  0.00000000E+00  0.00000000E+00
