In2O3 structure 5 - random placement wit
   1.00000000000000     
     8.0163874055171842   -0.0027127971281687   -0.0810232332914019
    -0.0024512192674789    8.0852035193860470    0.0010506453987749
    -0.0811264020901554    0.0005968481798458    8.0115510832217645
   In   O 
    16    24
Direct
  0.6595317146054498  0.6375182927847973  0.9268408581446508
  0.6890693066777871  0.1371885555756052  0.3975857384229684
  0.4421834237754041  0.4100131066077068  0.6490560463858230
  0.9088918868867211  0.9098830046377131  0.1775873262969583
  0.1913292270457987  0.1376289440921497  0.3995412763395976
  0.1596597672042108  0.6373669703146660  0.4266716642271291
  0.9417654944300082  0.4100570559056465  0.1492416946853794
  0.9392937195489282  0.4099916246907966  0.6464349094202078
  0.4396343538756895  0.4098694379241294  0.1466176907223584
  0.9112883778141025  0.9099961524223730  0.6802800649549567
  0.1617488509184142  0.6373408078043568  0.9288869629284164
  0.6909560228577831  0.1371429817673828  0.8997833937592645
  0.4082753857471744  0.9099469685862189  0.6774781642806573
  0.1887597625764244  0.1377402117079072  0.8973522807432630
  0.4112040721905785  0.9098815360604249  0.1800938758872306
  0.6617734710173835  0.6376812922667838  0.4290309303661104
  0.9448574880496707  0.0241605607489177  0.9336434299381153
  0.0542408829839260  0.3736193441945446  0.8943812745709891
  0.6961816778372807  0.5250201688276235  0.6824728441222874
  0.6551340085087176  0.0236758502907009  0.1440089815880867
  0.0471939794669112  0.6743766615809150  0.6811821260364894
  0.6942535286656337  0.3731041714943331  0.0337779870485022
  0.6562918360495402  0.8737819716983850  0.7925909828998883
  0.8034548401150374  0.1742959270711495  0.6453037270593356
  0.9436009595338533  0.1742558104594636  0.2849103383391025
  0.4448853837384519  0.0242243638983979  0.4336504683179001
  0.3039154486275777  0.1741562450948564  0.1449393398367818
  0.1567774555666830  0.8736320756495104  0.2927791930595376
  0.9058120640809193  0.5247731271267710  0.3924780263313536
  0.4059689243969942  0.5244814321535856  0.8923619825824005
  0.5553259399838524  0.3734681429734508  0.3945827861710853
  0.9070135619732653  0.6740670214320730  0.0418711251810393
  0.7961903249974185  0.8736892975509178  0.4324829353185606
  0.1547621753808954  0.0247603748098655  0.6436260648595464
  0.1960824304777233  0.5244334682464142  0.1822510592504898
  0.1942672016963414  0.3737108655723702  0.5336392585246870
  0.4071746434333789  0.6741084394620529  0.5415276227419383
  0.2956972144788566  0.8735857156179705  0.9322942117250363
  0.5471175291394417  0.6742652235631184  0.1812276738416116
  0.4433468866870456  0.1742788105425959  0.7848351745311675
 
  0.00000000E+00  0.00000000E+00  0.00000000E+00
  0.00000000E+00  0.00000000E+00  0.00000000E+00
  0.00000000E+00  0.00000000E+00  0.00000000E+00
  0.00000000E+00  0.00000000E+00  0.00000000E+00
  0.00000000E+00  0.00000000E+00  0.00000000E+00
  0.00000000E+00  0.00000000E+00  0.00000000E+00
  0.00000000E+00  0.00000000E+00  0.00000000E+00
  0.00000000E+00  0.00000000E+00  0.00000000E+00
  0.00000000E+00  0.00000000E+00  0.00000000E+00
  0.00000000E+00  0.00000000E+00  0.00000000E+00
  0.00000000E+00  0.00000000E+00  0.00000000E+00
  0.00000000E+00  0.00000000E+00  0.00000000E+00
  0.00000000E+00  0.00000000E+00  0.00000000E+00
  0.00000000E+00  0.00000000E+00  0.00000000E+00
  0.00000000E+00  0.00000000E+00  0.00000000E+00
  0.00000000E+00  0.00000000E+00  0.00000000E+00
  0.00000000E+00  0.00000000E+00  0.00000000E+00
  0.00000000E+00  0.00000000E+00  0.00000000E+00
  0.00000000E+00  0.00000000E+00  0.00000000E+00
  0.00000000E+00  0.00000000E+00  0.00000000E+00
  0.00000000E+00  0.00000000E+00  0.00000000E+00
  0.00000000E+00  0.00000000E+00  0.00000000E+00
  0.00000000E+00  0.00000000E+00  0.00000000E+00
  0.00000000E+00  0.00000000E+00  0.00000000E+00
  0.00000000E+00  0.00000000E+00  0.00000000E+00
  0.00000000E+00  0.00000000E+00  0.00000000E+00
  0.00000000E+00  0.00000000E+00  0.00000000E+00
  0.00000000E+00  0.00000000E+00  0.00000000E+00
  0.00000000E+00  0.00000000E+00  0.00000000E+00
  0.00000000E+00  0.00000000E+00  0.00000000E+00
  0.00000000E+00  0.00000000E+00  0.00000000E+00
  0.00000000E+00  0.00000000E+00  0.00000000E+00
  0.00000000E+00  0.00000000E+00  0.00000000E+00
  0.00000000E+00  0.00000000E+00  0.00000000E+00
  0.00000000E+00  0.00000000E+00  0.00000000E+00
  0.00000000E+00  0.00000000E+00  0.00000000E+00
  0.00000000E+00  0.00000000E+00  0.00000000E+00
  0.00000000E+00  0.00000000E+00  0.00000000E+00
  0.00000000E+00  0.00000000E+00  0.00000000E+00
  0.00000000E+00  0.00000000E+00  0.00000000E+00
