Ce2 Se4
1.0
  12.0671359999999996   -2.1500439999999998    0.0000000000000000
  12.0671359999999996    2.1500439999999998    0.0000000000000000
  11.6840550000000007    0.0000000000000000    3.7042299999999999
Ce Se
2 4
direct
   0.9163930000000000    0.9163930000000000    0.9163930000000000 Ce
   0.0836070000000000    0.0836070000000000    0.0836070000000000 Ce
   0.7904369999999999    0.7904369999999999    0.7904369999999999 Se
   0.2095630000000000    0.2095630000000000    0.2095630000000000 Se
   0.6233820000000000    0.6233820000000000    0.6233820000000000 Se
   0.3766180000000000    0.3766180000000000    0.3766180000000000 Se
