Sb                                      
   1.00000000000000     
    17.9668483460911226    0.0000000000000000    0.0000000000000000
     0.0000000000000000   17.9668483460911226    0.0000000000000000
     0.0000000000000000    0.0000000000000000   17.9668483460911226
   Cd   Se
   100   100
Direct
  0.2923747051511323  0.4311769183487904  0.2523978703246007
  0.9307983474124334  0.6856271952268991  0.3044662713896542
  0.1482802781998865  0.9082038950488964  0.0038249288915265
  0.4251979064678923  0.1665898963726766  0.4029207997723840
  0.1806993253194175  0.5177020084030857  0.7963420892103802
  0.7128202565630114  0.3746157437037541  0.8345007775523459
  0.0855149717573397  0.2035146995473048  0.9823086017783582
  0.5561662507129090  0.9403499479999990  0.1516964711910312
  0.5109828022679278  0.0443422378699502  0.5394709783829736
  0.0917605128980711  0.9775658218706930  0.3757128310093756
  0.5537433245025523  0.5644207881233719  0.5845491420185496
  0.6585140803928816  0.9349782497512874  0.7705750289387323
  0.0994955595188505  0.4831850455631092  0.0329185982497553
  0.3489857849798190  0.4242830720727460  0.6511386983933996
  0.9449881846314820  0.2988647667788038  0.1052102448448470
  0.8235089186504788  0.0238692941062142  0.9158820371138312
  0.7591564991713126  0.7531455451424670  0.9359508690905145
  0.4744144388037532  0.5005771092509029  0.1373780738088705
  0.1494484122991650  0.7983324088185862  0.2082590909871316
  0.3041100872799885  0.2741746399243571  0.0889544488010894
  0.9909942474716109  0.1323879093784195  0.2661889377437982
  0.8349754970631090  0.2854548252726212  0.2746683134766400
  0.6114050467413149  0.9730395315236362  0.3902635047509046
  0.9722562500682872  0.4005726331576298  0.8240724087139192
  0.0266634989864284  0.7137584715737191  0.4962459193029788
  0.7315032298246484  0.1059264815952059  0.3141279683579522
  0.3181001440627669  0.9524430312317422  0.6147829151126069
  0.4806878891361878  0.8154527779455849  0.8696374718118300
  0.7312738434421815  0.1042459944650021  0.5535903499640834
  0.1467400959662256  0.5760000700325565  0.2415213592105623
  0.2021762698967073  0.5299230072496567  0.4245378838241204
  0.7672914837046566  0.2922026365461629  0.4411644162371412
  0.9746380140526277  0.5688214491439132  0.6626825158448396
  0.1425400412399820  0.1495636185369147  0.6265507575642870
  0.4022712886542248  0.7735834701122472  0.2177645146572077
  0.5030173843246991  0.2903447428324650  0.2212400578368769
  0.5829433813497379  0.1560619293039874  0.0427115708572415
  0.3518329477499786  0.7022786533822671  0.6636227869959944
  0.7843796722427108  0.5224238112869372  0.5274798258657689
 -0.0038021863103933  0.7138064495512494  0.0713077615653129
  0.9379360877771343  0.4908683974928763  0.1677019672252856
  0.5300638669041764  0.4861885534523939  0.7967817038665439
  0.3969340696250215  0.6189849573651963  0.4028524598393041
  0.2358488291712100  0.3132423370538718  0.4601291579487179
  0.6824526410086087  0.8571249179919870  0.5996345825358768
  0.2511593584045418  0.1062894631202078  0.4452874367103915
  0.8926453094120895  0.8849421914909965  0.0757973983271642
  0.6248442836370411  0.4745874555316922  0.4027739884215665
  0.9492389611943545  0.9463362488411389  0.2177243219253539
  0.7607456689834765  0.6990438304093889  0.4224245579867194
  0.5920677331360300  0.6079799658192043  0.2698819141575337
  0.2939443857503372  0.6024402902725495  0.0842049552794112
  0.5811361514128756  0.6952000788707290  0.7634035528742178
  0.8411154416548838  0.5261332652077886  0.9749017852671432
  0.4809838200334682  0.0134821099617196  0.7927363289096434
  0.7327491151692452  0.8435969428893497  0.2305191971948510
  0.6542154577544196  0.5691089498856993  0.9406239258778371
  0.7646234087286589  0.6373602555729276  0.7159322873111772
  0.3668585672266090  0.5996789681636475  0.8739547614301858
  0.1920074196235954  0.2926212117308198  0.8190050968722059
  0.7016673867295605  0.3947628399040820  0.0801262414687731
  0.6502489167942038  0.9351664269878572  0.9907977059001060
  0.4397892561925293  0.0810447396278221  0.2087455465452607
  0.9677178632548308  0.1933024629235840  0.7506031801758913
  0.2257801545868681  0.0902661848344463  0.0753496040459671
 -0.0016913250313274  0.8646582855638653  0.8221813390838242
  0.9980504621589830  0.1937370911593398  0.4713294864884822
  0.0106180615945274  0.0445931737540217  0.0387101294336093
  0.2164443472177591  0.0304299440852995  0.8215311306026176
  0.9764695547562317  0.5121120036529854  0.4425892753210718
  0.5934737041986661  0.2617318327932822  0.4353152951476268
  0.0914350037870311  0.3749101246547830  0.6296231368563769
  0.7833048555603751  0.6529599035574642  0.1684172796703661
  0.7857526787129755  0.1871664433341479  0.0958035782285819
  0.1480240885239446  0.6299843274933022  0.6081830988615143
  0.7165334383169398  0.1211534944480656  0.7452974915896526
  0.3479383911003656  0.1713756349000823  0.6593706683534695
  0.2547762774357880  0.7899777931615936  0.4356128725594466
  0.8302443470110339  0.2463443736960281  0.9263321673013953
  0.3075587485624141  0.4303472894425586 -0.0301036127787812
  0.3972813990718569  0.1577605373693742  0.9407110099665917
  0.4273656638416030  0.4202321148294934  0.4501763658718834
  0.9111585478901141  0.8170052890478199  0.6058842989574622
  0.9582985002893947  0.6347021450023380  0.8745016786364795
  0.5521220125375362  0.7290290139922946  0.0604255388252673
  0.8519029161296631  0.9075066651946123  0.4081440781587736
  0.2969603285782986  0.7701159323317540 -0.0029634175550277
  0.0810810550584244  0.3519749208105847  0.2911736499596911
  0.8808807953065702  0.3406108408987602  0.5741122825477993
  0.4104912889376919  0.3260787250507982  0.8462368112890383
  0.0131351878789489  0.9817237546959424  0.6603857490793738
  0.1706471863150322  0.7347932585261062  0.8475082645489962
  0.1920117838656778  0.1742583836354575  0.2539811809758509
  0.1387165630742063  0.8346910850075338  0.6399384575242828
  0.5727670790918339  0.3077960067005496  0.6269000879132179
  0.4768677586450767  0.7856326980740176  0.4925395333120886
  0.8080672576648569 -0.0013564916029551  0.1452745274481532
  0.3842826717726944  0.9618307275557000  0.0132948927170160
  0.2986833580164152  0.9543183307913441  0.2478619370965872
  0.5637081602612790  0.2115369711928550  0.8094881215818539
  0.1643337760734593  0.2263018936412197  0.1136359762735720
  0.3925473343139987  0.3706687000670537  0.1596779111579517
  0.0288976552168320  0.5328732137480479  0.7969105773802697
  0.0286619400860024  0.7229408469601841  0.6525027005229550
  0.3602491550965908  0.0299524830428110  0.8786020857628125
  0.1668145875324726  0.6727860104584078  0.4665682872770359
  0.9449700804510861  0.9492492795130576  0.9499147664350567
  0.8610842385364822  0.4197300496220761  0.4528597537597987
  0.5958660311683798  0.1701068854520000  0.5528548554171940
  0.8302308665461328  0.3735471477837884  0.1584629238067769
  0.4382810095838279  0.8168855547151317  0.0056950026552713
  0.0684695016708692  0.5081410754730722  0.5655030778972806
  0.3889814751252257  0.7638965840234637  0.3736448308159604
  0.3671983511659412  0.1391293137535357  0.0873912277752465
  0.4884261377295183  0.5161068694694800  0.3502441525985081
  0.1159233893718923  0.2668207671771350  0.5334539152428965
  0.2276626630202322  0.1624138519204645  0.7455176779124362
  0.0822697561299409  0.4884426196685285  0.3466801117657911
  0.6618273092171215  0.3759850831611556  0.5087793522794496
  0.6937980141208391  0.2494845401608699  0.3182282062236204
  0.0892921941922702  0.9314530758022183  0.5269885439561453
  0.9015336824805997  0.9051015810096745  0.7208458052224849
  0.4696473533551457  0.3005118657104366  0.3667174171966721
  0.2911414232757309  0.4438628973113445  0.5059276717376487
  0.8570907031879894  0.5654968303487892  0.2588868055439646
  0.4516377019568491  0.2617490299358524  0.7184703795715908
  0.5275123627729178  0.0133548922552147  0.0243601135690134
  0.0357517340671847  0.7509856732993561  0.9071443781891934
  0.4741346721565016  0.0312807308766634  0.3985002217326226
  0.0534098907531145  0.6845874978286194  0.2183767104833587
  0.1719270718173266  0.4335071386675419  0.9179961611926624
  0.6091646605109448  0.0735096975044035  0.8407915511210472
  0.6678990301438528  0.9786696042137298  0.2469596109787544
  0.8725549781909852  0.8241350618979226  0.2818318118548414
  0.8429172694369323  0.1419253412517492  0.8231487525140293
  0.2963472047723503  0.2778367960267127  0.9305229719919392
  0.2353175994138532  0.8598942587970674  0.8971130757021140
  0.0633130254596510  0.0437376930540894  0.1738816769125224
  0.5633315580130820  0.1617643701307196  0.1925155546190911
  0.1414510046570868  0.0632302465129147  0.9524254969313066
  0.8437957815474197  0.7443346100693917  0.0634448360630226
  0.8110126133091675  0.6307952883060071  0.8645335088424624
  0.0456316892013728  0.3912728890862976  0.1475135464420002
  0.6049819532199047  0.4358348345885033  0.9120481889426179
  0.8487285171149261  0.2023785491727512  0.5229074209413750
  0.8361062605140532  0.5248582096473835  0.6632653863351722
  0.5905770447939180  0.4146320955776988  0.1831868629944111
  0.2091183790745017  0.4953339798726802  0.1341458435301092
  0.8417968839009061  0.1338890489897692  0.2172160756010929
  0.4908546946721834  0.6500765876010347  0.1702942663927705
  0.6788082922867591  0.2754587193746795  0.7318667147604661
  0.1190484687588475  0.1257802651298971  0.3796108683273151
  0.4340540000916274  0.6961387962916499  0.7868572969930058
  0.2055496908140004  0.0276245208881142  0.5611676863533716
  0.9765735992028534  0.5665341543249425  0.0307152188105656
  0.4851085039933087  0.4273256825219774  0.5886827209385197
 -0.0022438375051734  0.1208521898152402  0.6269239043708548
  0.1945609356645381  0.8794888823940157  0.3265949634493889
  0.5666057554288952  0.8947778448751990  0.5175114777645007
  0.9604509456003752  0.3340397963166196  0.6915164980400549
  0.2224552292215359  0.3134163200485537  0.3118033814937062
  0.4452593446780351  0.9148584652622711  0.2462747775685747
  0.2430828396391339  0.6386036195323832  0.9412077938896140
  0.2643926115219997  0.9487031436991820  0.1017364042733350
  0.6790478094647704  0.4822721336294132  0.2598407616588540
  0.2250428437478749  0.6457556554784829  0.7309723185734049
  0.6500474230962588  0.8316133981427978  0.1026142178643306
  0.1215584567939165  0.9316006555824000  0.7534957288578580
  0.4218219927728754  0.0421693355606373  0.6557615413626198
  0.5244539279553947  0.8784215758561699  0.7485261743288379
  0.7001255877833332  0.7674915322200081  0.7172087352869162
  0.4386636726236099  0.6537507372565468  0.5500820420036946
  0.9840667063131502  0.8525944112311490  0.4781296257643942
  0.7423833162337001 -0.0012769427913848  0.6602175833236296
  0.9334721277153297  0.1834756829120895  0.0218662424771535
  0.9495430924847263  0.0121654398023153  0.3538141482084628
  0.3869324811996681  0.4674268554944007  0.7975270981076500
  0.8455219944015537  0.3941859280033359  0.8999068016756603
  0.6228700718203742  0.5588877468707043  0.7141636187141369
  0.7429510279610568  0.8952710572831011  0.8854186966843458
  0.6131570618184969  0.7063459365818091  0.9230982022678847
  0.3338075480109791  0.2103296504987279  0.5132588138742119
  0.6972581113442627  0.7090299232443951  0.2880089774447899
  0.2882819609439371  0.5685560647791382  0.3072644202948563
  0.9697139732650413  0.2629542368149764  0.3341674308385921
  0.7323568286979343  0.0590386190132709  0.0308828528346243
  0.6664636630972832  0.5957242806481953  0.4837582535605652
  0.0547404710078938  0.8507439515810680  0.1024134293665707
  0.3125715193026620  0.0969405474361729  0.2978795175747986
  0.6999099532043750  0.2644595701343760  0.0082557295548567
  0.5105284809178449  0.2523926700247998  0.9412115423300879
  0.2808355426538965  0.8144571724998916  0.5893891869735088
  0.7465140940732472  0.0204719492610204  0.4321083758788937
  0.2136839907357752  0.3952189920694397  0.7120493700971964
  0.2778338687195056  0.7386522335274862  0.1446580347000378
  0.4061264423700047  0.5307093234819680  0.0082846407837905
  0.0494275190351792  0.2694552484433548  0.8556291118339051
  0.7915215724199676  0.8125278188330064  0.5113649113081236
  0.7279304785915042  0.5444340373490936  0.0668794420218108
  0.9068028515775211  0.6423135858879130  0.4486575635633296
 
  0.00000000E+00  0.00000000E+00  0.00000000E+00
  0.00000000E+00  0.00000000E+00  0.00000000E+00
  0.00000000E+00  0.00000000E+00  0.00000000E+00
  0.00000000E+00  0.00000000E+00  0.00000000E+00
  0.00000000E+00  0.00000000E+00  0.00000000E+00
  0.00000000E+00  0.00000000E+00  0.00000000E+00
  0.00000000E+00  0.00000000E+00  0.00000000E+00
  0.00000000E+00  0.00000000E+00  0.00000000E+00
  0.00000000E+00  0.00000000E+00  0.00000000E+00
  0.00000000E+00  0.00000000E+00  0.00000000E+00
  0.00000000E+00  0.00000000E+00  0.00000000E+00
  0.00000000E+00  0.00000000E+00  0.00000000E+00
  0.00000000E+00  0.00000000E+00  0.00000000E+00
  0.00000000E+00  0.00000000E+00  0.00000000E+00
  0.00000000E+00  0.00000000E+00  0.00000000E+00
  0.00000000E+00  0.00000000E+00  0.00000000E+00
  0.00000000E+00  0.00000000E+00  0.00000000E+00
  0.00000000E+00  0.00000000E+00  0.00000000E+00
  0.00000000E+00  0.00000000E+00  0.00000000E+00
  0.00000000E+00  0.00000000E+00  0.00000000E+00
  0.00000000E+00  0.00000000E+00  0.00000000E+00
  0.00000000E+00  0.00000000E+00  0.00000000E+00
  0.00000000E+00  0.00000000E+00  0.00000000E+00
  0.00000000E+00  0.00000000E+00  0.00000000E+00
  0.00000000E+00  0.00000000E+00  0.00000000E+00
  0.00000000E+00  0.00000000E+00  0.00000000E+00
  0.00000000E+00  0.00000000E+00  0.00000000E+00
  0.00000000E+00  0.00000000E+00  0.00000000E+00
  0.00000000E+00  0.00000000E+00  0.00000000E+00
  0.00000000E+00  0.00000000E+00  0.00000000E+00
  0.00000000E+00  0.00000000E+00  0.00000000E+00
  0.00000000E+00  0.00000000E+00  0.00000000E+00
  0.00000000E+00  0.00000000E+00  0.00000000E+00
  0.00000000E+00  0.00000000E+00  0.00000000E+00
  0.00000000E+00  0.00000000E+00  0.00000000E+00
  0.00000000E+00  0.00000000E+00  0.00000000E+00
  0.00000000E+00  0.00000000E+00  0.00000000E+00
  0.00000000E+00  0.00000000E+00  0.00000000E+00
  0.00000000E+00  0.00000000E+00  0.00000000E+00
  0.00000000E+00  0.00000000E+00  0.00000000E+00
  0.00000000E+00  0.00000000E+00  0.00000000E+00
  0.00000000E+00  0.00000000E+00  0.00000000E+00
  0.00000000E+00  0.00000000E+00  0.00000000E+00
  0.00000000E+00  0.00000000E+00  0.00000000E+00
  0.00000000E+00  0.00000000E+00  0.00000000E+00
  0.00000000E+00  0.00000000E+00  0.00000000E+00
  0.00000000E+00  0.00000000E+00  0.00000000E+00
  0.00000000E+00  0.00000000E+00  0.00000000E+00
  0.00000000E+00  0.00000000E+00  0.00000000E+00
  0.00000000E+00  0.00000000E+00  0.00000000E+00
  0.00000000E+00  0.00000000E+00  0.00000000E+00
  0.00000000E+00  0.00000000E+00  0.00000000E+00
  0.00000000E+00  0.00000000E+00  0.00000000E+00
  0.00000000E+00  0.00000000E+00  0.00000000E+00
  0.00000000E+00  0.00000000E+00  0.00000000E+00
  0.00000000E+00  0.00000000E+00  0.00000000E+00
  0.00000000E+00  0.00000000E+00  0.00000000E+00
  0.00000000E+00  0.00000000E+00  0.00000000E+00
  0.00000000E+00  0.00000000E+00  0.00000000E+00
  0.00000000E+00  0.00000000E+00  0.00000000E+00
  0.00000000E+00  0.00000000E+00  0.00000000E+00
  0.00000000E+00  0.00000000E+00  0.00000000E+00
  0.00000000E+00  0.00000000E+00  0.00000000E+00
  0.00000000E+00  0.00000000E+00  0.00000000E+00
  0.00000000E+00  0.00000000E+00  0.00000000E+00
  0.00000000E+00  0.00000000E+00  0.00000000E+00
  0.00000000E+00  0.00000000E+00  0.00000000E+00
  0.00000000E+00  0.00000000E+00  0.00000000E+00
  0.00000000E+00  0.00000000E+00  0.00000000E+00
  0.00000000E+00  0.00000000E+00  0.00000000E+00
  0.00000000E+00  0.00000000E+00  0.00000000E+00
  0.00000000E+00  0.00000000E+00  0.00000000E+00
  0.00000000E+00  0.00000000E+00  0.00000000E+00
  0.00000000E+00  0.00000000E+00  0.00000000E+00
  0.00000000E+00  0.00000000E+00  0.00000000E+00
  0.00000000E+00  0.00000000E+00  0.00000000E+00
  0.00000000E+00  0.00000000E+00  0.00000000E+00
  0.00000000E+00  0.00000000E+00  0.00000000E+00
  0.00000000E+00  0.00000000E+00  0.00000000E+00
  0.00000000E+00  0.00000000E+00  0.00000000E+00
  0.00000000E+00  0.00000000E+00  0.00000000E+00
  0.00000000E+00  0.00000000E+00  0.00000000E+00
  0.00000000E+00  0.00000000E+00  0.00000000E+00
  0.00000000E+00  0.00000000E+00  0.00000000E+00
  0.00000000E+00  0.00000000E+00  0.00000000E+00
  0.00000000E+00  0.00000000E+00  0.00000000E+00
  0.00000000E+00  0.00000000E+00  0.00000000E+00
  0.00000000E+00  0.00000000E+00  0.00000000E+00
  0.00000000E+00  0.00000000E+00  0.00000000E+00
  0.00000000E+00  0.00000000E+00  0.00000000E+00
  0.00000000E+00  0.00000000E+00  0.00000000E+00
  0.00000000E+00  0.00000000E+00  0.00000000E+00
  0.00000000E+00  0.00000000E+00  0.00000000E+00
  0.00000000E+00  0.00000000E+00  0.00000000E+00
  0.00000000E+00  0.00000000E+00  0.00000000E+00
  0.00000000E+00  0.00000000E+00  0.00000000E+00
  0.00000000E+00  0.00000000E+00  0.00000000E+00
  0.00000000E+00  0.00000000E+00  0.00000000E+00
  0.00000000E+00  0.00000000E+00  0.00000000E+00
  0.00000000E+00  0.00000000E+00  0.00000000E+00
  0.00000000E+00  0.00000000E+00  0.00000000E+00
  0.00000000E+00  0.00000000E+00  0.00000000E+00
  0.00000000E+00  0.00000000E+00  0.00000000E+00
  0.00000000E+00  0.00000000E+00  0.00000000E+00
  0.00000000E+00  0.00000000E+00  0.00000000E+00
  0.00000000E+00  0.00000000E+00  0.00000000E+00
  0.00000000E+00  0.00000000E+00  0.00000000E+00
  0.00000000E+00  0.00000000E+00  0.00000000E+00
  0.00000000E+00  0.00000000E+00  0.00000000E+00
  0.00000000E+00  0.00000000E+00  0.00000000E+00
  0.00000000E+00  0.00000000E+00  0.00000000E+00
  0.00000000E+00  0.00000000E+00  0.00000000E+00
  0.00000000E+00  0.00000000E+00  0.00000000E+00
  0.00000000E+00  0.00000000E+00  0.00000000E+00
  0.00000000E+00  0.00000000E+00  0.00000000E+00
  0.00000000E+00  0.00000000E+00  0.00000000E+00
  0.00000000E+00  0.00000000E+00  0.00000000E+00
  0.00000000E+00  0.00000000E+00  0.00000000E+00
  0.00000000E+00  0.00000000E+00  0.00000000E+00
  0.00000000E+00  0.00000000E+00  0.00000000E+00
  0.00000000E+00  0.00000000E+00  0.00000000E+00
  0.00000000E+00  0.00000000E+00  0.00000000E+00
  0.00000000E+00  0.00000000E+00  0.00000000E+00
  0.00000000E+00  0.00000000E+00  0.00000000E+00
  0.00000000E+00  0.00000000E+00  0.00000000E+00
  0.00000000E+00  0.00000000E+00  0.00000000E+00
  0.00000000E+00  0.00000000E+00  0.00000000E+00
  0.00000000E+00  0.00000000E+00  0.00000000E+00
  0.00000000E+00  0.00000000E+00  0.00000000E+00
  0.00000000E+00  0.00000000E+00  0.00000000E+00
  0.00000000E+00  0.00000000E+00  0.00000000E+00
  0.00000000E+00  0.00000000E+00  0.00000000E+00
  0.00000000E+00  0.00000000E+00  0.00000000E+00
  0.00000000E+00  0.00000000E+00  0.00000000E+00
  0.00000000E+00  0.00000000E+00  0.00000000E+00
  0.00000000E+00  0.00000000E+00  0.00000000E+00
  0.00000000E+00  0.00000000E+00  0.00000000E+00
  0.00000000E+00  0.00000000E+00  0.00000000E+00
  0.00000000E+00  0.00000000E+00  0.00000000E+00
  0.00000000E+00  0.00000000E+00  0.00000000E+00
  0.00000000E+00  0.00000000E+00  0.00000000E+00
  0.00000000E+00  0.00000000E+00  0.00000000E+00
  0.00000000E+00  0.00000000E+00  0.00000000E+00
  0.00000000E+00  0.00000000E+00  0.00000000E+00
  0.00000000E+00  0.00000000E+00  0.00000000E+00
  0.00000000E+00  0.00000000E+00  0.00000000E+00
  0.00000000E+00  0.00000000E+00  0.00000000E+00
  0.00000000E+00  0.00000000E+00  0.00000000E+00
  0.00000000E+00  0.00000000E+00  0.00000000E+00
  0.00000000E+00  0.00000000E+00  0.00000000E+00
  0.00000000E+00  0.00000000E+00  0.00000000E+00
  0.00000000E+00  0.00000000E+00  0.00000000E+00
  0.00000000E+00  0.00000000E+00  0.00000000E+00
  0.00000000E+00  0.00000000E+00  0.00000000E+00
  0.00000000E+00  0.00000000E+00  0.00000000E+00
  0.00000000E+00  0.00000000E+00  0.00000000E+00
  0.00000000E+00  0.00000000E+00  0.00000000E+00
  0.00000000E+00  0.00000000E+00  0.00000000E+00
  0.00000000E+00  0.00000000E+00  0.00000000E+00
  0.00000000E+00  0.00000000E+00  0.00000000E+00
  0.00000000E+00  0.00000000E+00  0.00000000E+00
  0.00000000E+00  0.00000000E+00  0.00000000E+00
  0.00000000E+00  0.00000000E+00  0.00000000E+00
  0.00000000E+00  0.00000000E+00  0.00000000E+00
  0.00000000E+00  0.00000000E+00  0.00000000E+00
  0.00000000E+00  0.00000000E+00  0.00000000E+00
  0.00000000E+00  0.00000000E+00  0.00000000E+00
  0.00000000E+00  0.00000000E+00  0.00000000E+00
  0.00000000E+00  0.00000000E+00  0.00000000E+00
  0.00000000E+00  0.00000000E+00  0.00000000E+00
  0.00000000E+00  0.00000000E+00  0.00000000E+00
  0.00000000E+00  0.00000000E+00  0.00000000E+00
  0.00000000E+00  0.00000000E+00  0.00000000E+00
  0.00000000E+00  0.00000000E+00  0.00000000E+00
  0.00000000E+00  0.00000000E+00  0.00000000E+00
  0.00000000E+00  0.00000000E+00  0.00000000E+00
  0.00000000E+00  0.00000000E+00  0.00000000E+00
  0.00000000E+00  0.00000000E+00  0.00000000E+00
  0.00000000E+00  0.00000000E+00  0.00000000E+00
  0.00000000E+00  0.00000000E+00  0.00000000E+00
  0.00000000E+00  0.00000000E+00  0.00000000E+00
  0.00000000E+00  0.00000000E+00  0.00000000E+00
  0.00000000E+00  0.00000000E+00  0.00000000E+00
  0.00000000E+00  0.00000000E+00  0.00000000E+00
  0.00000000E+00  0.00000000E+00  0.00000000E+00
  0.00000000E+00  0.00000000E+00  0.00000000E+00
  0.00000000E+00  0.00000000E+00  0.00000000E+00
  0.00000000E+00  0.00000000E+00  0.00000000E+00
  0.00000000E+00  0.00000000E+00  0.00000000E+00
  0.00000000E+00  0.00000000E+00  0.00000000E+00
  0.00000000E+00  0.00000000E+00  0.00000000E+00
  0.00000000E+00  0.00000000E+00  0.00000000E+00
  0.00000000E+00  0.00000000E+00  0.00000000E+00
  0.00000000E+00  0.00000000E+00  0.00000000E+00
  0.00000000E+00  0.00000000E+00  0.00000000E+00
  0.00000000E+00  0.00000000E+00  0.00000000E+00
  0.00000000E+00  0.00000000E+00  0.00000000E+00
  0.00000000E+00  0.00000000E+00  0.00000000E+00
  0.00000000E+00  0.00000000E+00  0.00000000E+00
  0.00000000E+00  0.00000000E+00  0.00000000E+00
