Amorphous Sb                            
   1.00000000000000     
    21.9369882683428941    0.0000000000000000    0.0000000000000000
     0.0000000000000000   21.9369882683428941    0.0000000000000000
     0.0000000000000000    0.0000000000000000   21.9369882683428941
   Ge   Se
    75   225
Direct
  0.7806833910539486  0.9757785467569566  0.6657012993617294
  0.3253283134319677  0.5563287763006756  0.8523414593505645
  0.4179602521114704  0.3446524926770357  0.2987493438224934
  0.6180765695937253  0.2020046407305104  0.7506095074118994
  0.8800264544543569  0.5161627489830731  0.6228319775744685
  0.3315821325514725  0.9268332601424291  0.9267909421513166
  0.2593905775890715  0.8444084932431016  0.3040606303777147
  0.5516515220162217  0.6604827924097397  0.5950603862530853
  0.0774455889791371  0.8437750951666345  0.5400554607930756
  0.2774834873998769  0.0658336919702948  0.5735725057915291
  0.7341093746613937  0.1183213084038861  0.4466071295478372
  0.6703785600672412  0.6232973430727314  0.9543389888605434
  0.9430021723619068  0.3058903864883518  0.5302001869128365
  0.3378938846438488  0.2572964306020756  0.9821211488005405
  0.3826347478902535  0.9578133776999467  0.3890562260104555
  0.1185243129388777  0.8111537463842136  0.9616055853043391
  0.8256661687750396  0.8810222248099048  0.3510314757500143
  0.7041521517218282  0.3909492785601745  0.3667281499448037
  0.2850163506903904  0.0078562984850874  0.7864188351467153
  0.8895484865823355  0.6079924230081474  0.4888231568976618
  0.2713936098502479  0.4965377522209473  0.2638551459158108
  0.5802964943949714  0.9371674569429845  0.8086584592383187
  0.0319957113366378  0.2972482991634978  0.9741911916870430
  0.6461767713545336  0.2227593657989765  0.9237538921089861
  0.8073712542690219  0.3582604623985897  0.4745705072658616
  0.2865611864429373  0.9272758173521555  0.6828287938392059
  0.5660329935640682  0.7239424597923962  0.8126828157165700
  0.4735829078178696  0.7501940558408697  0.1110289456907273
  0.6486844999577102  0.5657220312267973  0.6553558404782450
  0.8884237226809421  0.1525424515719306  0.9017082745255953
  0.0307505140535470  0.2631345356353711  0.8149416736258549
  0.0412233865928880  0.0188887540530723  0.2632090658967600
  0.6620825514269851  0.5889783851601763  0.3914316144455328
  0.3702555734690681  0.1007212947521135  0.2711314432290451
  0.2208138364109751  0.7199399378718455  0.5437382613365452
  0.9339660274387499  0.4700826468916631  0.8229621293378819
  0.0165244316207257  0.2230733004573361  0.2044770294579158
  0.3954833592115972  0.7948538081672566  0.4466141898568988
  0.4355081433814422  0.4446685167758007  0.8718440059006856
  0.6464115650438682  0.4060869273014346  0.9684867395249800
  0.7979451579462832  0.9421675554279009  0.4988069532771868
  0.1750658264545560  0.2183816125384813  0.5773927046825900
  0.6349038988578518  0.8857462603284826  0.5028531689660274
  0.2214592623647049  0.7990893591526189  0.1055860531820851
  0.0289334251026355  0.4009371445564330  0.3035288337975679
  0.5367149462271515  0.4466169196584788  0.4007881591790863
  0.1396326301711804  0.5453053366034769  0.9331334562768997
  0.2285201680043932  0.3887039178382999  0.5939624976255281
  0.9655026338739795  0.4445648404337224  0.6823240147641839
  0.4774535757974948  0.0902205115675483  0.0164932453256799
  0.0007723843107160  0.4258680594066188  0.9055471054825095
  0.8956158702913374  0.2740188819463026  0.2622921503524939
  0.8936031617738976  0.8147934315238954  0.6806161781627684
  0.5571177325186927  0.1130253425029295  0.8672285023510110
  0.1141921303228261  0.4392200030582967  0.2258962666249424
  0.1051873581620637  0.0247193162796323  0.5844629478483893
  0.8427877495448174  0.5535864771681392  0.2218698765439164
  0.8766028105567930  0.4474945244470030  0.4322822009959417
  0.0164975089226802  0.1116979624712735 -0.0013625565729000
  0.3035237127875340  0.3986776380599308  0.2024404805938455
  0.6851547894494461  0.9790537494601741  0.7405964906971344
  0.4387735886070981  0.6829020387072572  0.3299846492256679
  0.8725436493804960  0.9753919977485693  0.2938865582384975
  0.8956392105429182  0.8686367978195318  0.0780840193711848
  0.7603834942704085  0.0379449983675842  0.1651156853066459
  0.7001508744165916  0.4976965221438577  0.1124606502716461
  0.7681488466794849  0.7185947280422040  0.5802376910112101
  0.0193933970516437  0.8999844577212315  0.6897480060220825
  0.4548668502123998  0.2068493376025505  0.1232471738660411
  0.8180842969903267  0.0086818589647430  0.9837856993709518
  0.7774009514244536  0.2163736278174946  0.7812152758231787
  0.6186889933901496  0.0664551081697864  0.3339243369677293
  0.6402852652238877  0.4742500562971640  0.2215265699154040
  0.2329365538768300  0.6308934551433676  0.1213633573733826
  0.4713713395150232  0.6460201722543710  0.9258298725094984
  0.5774215947577676  0.7346649241001534  0.4195197258666011
  0.2563935992890959  0.1125614744846643  0.0202242871378872
  0.5245057738595365  0.1181698215225187  0.2182149926680262
  0.1222033486982255  0.1181971908724850  0.7839079824631675
  0.3875838032087546  0.9713446281457855  0.7391745666288557
  0.7567333009281322  0.4076630888517777  0.9523107675821587
  0.2340776731961687  0.5371581310460615  0.7455615606573026
  0.0416028109285217  0.5019257012183544  0.9738412996695575
  0.4462813603268344  0.6270198991797787  0.4269890808266651
  0.4164770964389251  0.0566560096927259  0.6713920850992303
  0.6485942807438339  0.9808205821910564  0.1909835825159612
  0.6684415653681027  0.0232981553586147  0.9188393687148633
  0.7178787151972128  0.4998762384911983  0.7091828844070006
  0.7780046995183907  0.6724545939471291  0.8378591429006897
  0.2473325441570687  0.9587264895298053  0.1653534533549264
  0.3461227609676770  0.3790737551507612  0.8569966051537844
  0.4205701992899214  0.5224233340596046  0.7982742025109186
  0.5499659719580406  0.7885096075146660  0.9068823717406237
  0.4326148355334735  0.3294212734176786  0.4594389148606936
  0.9347280347676437  0.8736032196175596  0.3013538994907723
  0.5730679602455870  0.5007621395764659  0.6088597440676545
  0.5270031743283943  0.1447432401359301  0.7632202910505794
  0.9656359971913543  0.4900891757524138  0.2755326414631193
  0.1071633054246549  0.7355916452775444  0.5691322376924173
  0.2872838792141399  0.2232927826367149  0.5476859243347444
 -0.0197951907990746  0.3315370836827522  0.2137218574971610
  0.4738171264886158  0.1784512749171757  0.9438552896073623
  0.2891036552509675  0.5296699214965158  0.3705106778943869
  0.5914369127021785  0.9649261028541775  0.2853935663112840
  0.5142342872954668  0.9236492195168673  0.4757881499595600
  0.8964270069531031  0.3926367676664849  0.7574471289027149
  0.0148397204115836  0.5394853250615890  0.1873000757099698
  0.3413699253828638  0.0392887146563118  0.8904810947413757
  0.7457575664667075  0.2689151636146215  0.8781010852369221
  0.7715731725066789  0.0328339362575846  0.8861358585736302
  0.0616404732556897  0.8143801346748095  0.7457466881104571
  0.3387855679753238  0.5863180862296760  0.1275513458868830
  0.1079716926239552  0.7747106628341471  0.3189900300750380
  0.4451704110526420  0.8666468053767087  0.1356809043932348
  0.8283747213044288  0.7504218467146666  0.2681444868665744
  0.7067729545182770  0.8091140658313379  0.1915945495117938
  0.6778737080315377  0.2086483690825068  0.3984653073945656
  0.5414020858547880  0.6114067131629567  0.8452987326169065
  0.1390593266641484  0.2165636494916675  0.4677238027311776
  0.1822020366241890  0.7111353614159335  0.9536068406766713
  0.7190306734848437  0.6075316014820001  0.5771274117664618
  0.9159941200473647  0.1768428753230913  0.2166778805459093
  0.5649932034309494  0.5440445811134729  0.4351335931198558
  0.9554232033233113  0.8808894949910625  0.9683331655955343
  0.2517774859456859  0.9675614956960086  0.2776159470211169
  0.2660745552649222  0.9015537225413517  0.8332609054459749
  0.0879922857154643  0.0419831969063069  0.9402831058919245
  0.6080402136479252  0.1210229484443770  0.5288161953017542
  0.8395069109736241  0.4428695580599940  0.1735256646045066
  0.3536687823424349  0.7261199940913863  0.1331194664389131
  0.4082616282455855  0.2866500824339250  0.0633382202717598
  0.9570784129068293  0.8294040913331908  0.8647769048473671
 -0.0034844568012266  0.1981505396993956  0.9170545624179565
  0.2475645248891248  0.4611385663012417  0.0602537855571575
  0.9277013396229579  0.6224248571184685  0.6009386817841282
  0.2849241881134388  0.1516703061644279  0.2917224885002349
  0.1349452834824329  0.2200201988481937  0.8191161799519193
  0.7697887953560774  0.3014390722943054  0.7111425824098822
  0.6296237673235241  0.2197956883519781  0.4969716511826207
  0.2326425566735990  0.5489709283652439  0.6350662595748650
  0.5973802167477607  0.3969401094184078  0.3255722776451184
  0.6119915804027140  0.4750721342519080  0.0456936491323291
  0.0505568604013504  0.0621067514821991  0.8404303103508479
  0.8803740576381152  0.1877802930946446  0.7930651721229506
  0.4917307809319494  0.7506492779441809  0.5778936361491884
  0.1183420675200039  0.1010014852056414  0.2600162317611693
  0.6984824945609002  0.3757869873433931  0.4789428865296516
  0.5492679095738107  0.5322920260778320  0.1765259199762730
  0.3439932997631404  0.1308857259712209  0.6318228491323753
  0.9679900494147538  0.7614372503024930  0.7560524468785705
  0.6438345796119934  0.1247844977530457  0.2364048292630746
  0.6356846209506378  0.6583912995351208  0.5205001612898494
  0.9581300552866742  0.0411758680328404  0.3287828859525931
  0.8009503275735552  0.6357374009648916  0.1420225147263533
  0.6534860715480861  0.7500597008751010  0.2655193168193186
  0.0534621061352988  0.7556458908547316  0.4756407823324603
  0.6404722264802259  0.8810174756918310  0.1459726231197495
  0.0311477688605835  0.1791153208369819  0.5761300290547746
  0.6564331525686286  0.6465538931972097  0.8385535351739044
  0.1072762535247024  0.8481361697986137  0.2333249743622879
  0.9053280494111826  0.8058052642133821  0.2186105385850085
  0.8407498747912496  0.1004772113530263  0.0473841435617205
  0.8599276176188948  0.6977577937132351  0.6489265714493851
  0.0352980285011009  0.5800608264515098  0.4758603197117897
  0.8518912742156939  0.9748847086488336  0.1844975673365714
  0.6261922463618752 -0.0058246717777422  0.6437512449251163
  0.5418824788075416  0.1525331266030518  0.0798485238597838
  0.2560772440116870  0.8075746763511450  0.4781846235375485
  0.9320344724096192  0.9324760760651675  0.7516263160814755
  0.6886343858166237  0.5656741473269807  0.2769646149454367
  0.6335006022575020  0.2837271356363925  0.8245482116656671
  0.3653689966342449 -0.0137248038379822  0.2731542940371740
  0.0895321958045697  0.9526017468999624  0.1145854258393210
  0.8566929082832724  0.5282419538887493  0.8819391490920412
  0.4719887259088996  0.1124441180746838  0.3142637725147077
  0.0816577592451552  0.3523629699813673  0.8776146637299186
  0.3120169188991036  0.3276018421432363  0.2914809096084604
  0.4908550844193350  0.7831432424831267  0.3705772879825963
  0.0757644235780041  0.1929834419460344  0.2940073672753317
  0.7405961354877514  0.0528547606582760  0.3454458340679604
  0.1159590631293291  0.9401666700577274  0.2959998717280287
  0.4445693915895331  0.4832943379782073  0.9748513193689192
  0.6496146745612350  0.8165014116757288  0.4140294572906471
  0.7091226580886442  0.9453078166582621  0.4339035203027972
  0.1585559615792929  0.3865717577684711  0.5073045658452472
  0.3206185368299300  0.6701692566160631  0.8567074142502843
 -0.0235897096703192  0.7257487734064825  0.0236089232021247
  0.3030074905747540  0.9612146729487702  0.5764140872244695
  0.3791592256114915  0.1979297377577893  0.8978964991858333
  0.0556450560965551  0.7914368861236770  0.0621604826846625
  0.8793511654715036  0.6620492090183145  0.3097086844378916
  0.5032774377133716  0.2455695927962352  0.2125180997709684
  0.0043555706347800  0.3156388122939993  0.6283162964563039
  0.9773329858092803  0.4089120723832728  0.4827620327261395
  0.7148024459728978  0.2554148337793317  0.6309827654993042
  0.6665686209050069  0.8629189438381221  0.7532697040329916
  0.4901709365119209  0.5693759449797742  0.5967270857033982
  0.3322230889069832  0.5864839371426255  0.2365772015079005
  0.8273466285151824  0.5095480945581347  0.5185831784645504
  0.7917717664539435  0.7838353479147614  0.8088073164640286
  0.7065916599038615  0.1362782653818551  0.7552911871506329
  0.6028306605977799  0.6586919251621324  0.6931058362814636
  0.5191670387178161  0.3754361768518489  0.8554855616026780
  0.6110980714106895  0.2631997157489821  0.6592767412911337
  0.7479941628533660  0.9523346144873470  0.0479681562292388
  0.7759010088894719  0.6718536033701856  0.9447219559723192
  0.1992960381043944  0.8612064394303481  0.4008491233551610
  0.5489214369032172  0.9197106578485919  0.6574814112394012
  0.9385339930991266  0.3613194095175776  0.9687116892041125
  0.1431796424008242  0.9729739138008255  0.4931510116858231
  0.2669095079557890  0.7135376525244683  0.0395486608954628
  0.6043023787205706  0.4395867595799076  0.8703671662181580
  0.8369612012421770  0.1700534072565237  0.4543219813129073
  0.1556806315585546  0.4002644295779096  0.6781936447171784
  0.1673896507200775  0.0686636397850859  0.4483031222457675
  0.2729470406228134  0.0890087017753812  0.4653390172248297
  0.4662050852130331  0.8327588859733192  0.0353779280801522
  0.6234075990769273  0.3045273459595487 -0.0000997366842949
  0.7255444499749594  0.6010002349849841  0.0700098129539628
  0.1032749126708384  0.1586391449287565  0.0569453687694696
  0.8099321432222456  0.2604978812621976  0.3996916583323061
  0.4343753357743934  0.4511805062372238  0.3440457256641414
  0.3795096890141595  0.8737020420652785  0.8360808756860982
  0.4805129937912636  0.0133236253887600  0.5468936423397912
  0.9902010981077736  0.5315777228415716  0.7533702328426294
  0.2383286508261732  0.0596825631795691  0.9293252824450551
  0.1090494370491078  0.9616850173715197  0.6776498504678915
  0.7911212609916878  0.8518859780040680  0.0432625031088723
  0.0134616160906769  0.4968345116004683  0.5432680896833818
  0.7729339931870278  0.1783820630198021  0.0220147220557075
  0.7998191099564531  0.5682857244654363  0.6895287038482625
  0.5239691341764630  0.0007004274213505  0.9704205948422943
  0.0092484450135546  0.0761331607413907  0.5602957901989968
  0.1923343929302716  0.3600251428146598  0.1932931074882026
  0.1923471611006614  0.3073465767112735  0.4425087155449997
  0.5211644908328935  0.3827188989048984  0.4896900362901341
  0.1221311816402034  0.7466322222560406  0.1377525651772123
  0.3493543517495227  0.4513127504063251  0.4123308584771891
  0.3998011291744015  0.0481026177623511  0.0809756857088257
  0.9721194794440071  0.8595345453488425  0.5995492950935826
  0.7626004723356695  0.1149893209682012  0.2571286532846861
  0.5030230841714755  0.8510346465762872  0.8229458874148168
  0.5319258606121791  0.6254501342165265  0.2271194804927569
  0.4671073462153488  0.7827303067555264  0.6804782792724193
  0.7737655864007227  0.0703683695029602  0.6043181982817430
  0.8405135573084114  0.0418719300467312  0.5242442388987992
  0.6119065877306575  0.8330401726464695  0.6627967736359885
  0.8324924397697653  0.2439376894189097  0.9545242429302657
  0.7661158182793857  0.4758987334680921  0.8644100829924944
  0.7382682967281406  0.5035576278022832  0.3669024316239488
  0.3556432678929534  0.6891582124628521  0.4130444495628722
  0.0976149193179173  0.6449555768910098  0.9715968215078892
  0.7937352540145738  0.2927422713566319  0.2264785429919782
  0.4717326024669360  0.3565964427704069  0.2056895224619749
  0.1823344724632338  0.5477567218120842  0.0474791167684643
  0.3707695809143177  0.8498827962526366  0.3445918317877285
  0.4124764452874456  0.7267438367537670  0.8797968979992705
  0.2997473955679932  0.4741746295200447  0.5983097321839294
  0.3078632986300793  0.3131212638146904  0.6070512409384545
  0.2098047642099651  0.6124808255104158  0.5049308772531488
  0.8814497159336048  0.8951567163309561  0.4472113860064189
  0.3099579818384161  0.3618334047894152  0.9561469030891238
  0.1348366799568423  0.5779503555369521  0.4347208148190382
  0.0037115493618974 -0.0008389790378774  0.1611221269944399
  0.1798699443313083  0.1018999000844120  0.6188316250789534
  0.2379011072268032  0.2179447489231723  0.0058428742682589
  0.3633764017344295  0.7589890371004503  0.6989638343164645
  0.8133713114741519  0.6902965918568511  0.4822414457479055
  0.8896281889995736  0.7531353846328290  0.0808082267471247
  0.7807719072640783  0.3942353378032978  0.2586577935918951
  0.9135991125757900  0.2951030953072799  0.3686455924640423
  0.0514079837134679  0.2429525998769303  0.0997924629364115
  0.7883793875398437  0.4361452565822928  0.0755373486427390
  0.1731472723596826  0.0225762356206305  0.1253107854453794
  0.3348485053447816  0.8356761597453162  0.1467976860986133
  0.6393623119851279  0.9194260280330387  0.9062712480523991
  0.4897652741440290  0.0197644861748747  0.8698936377180473
  0.1854845028658227  0.3778887561851339  0.0824727803106211
  0.9815582647521132  0.2182290913948380  0.6685473346367543
  0.8861313111726633  0.0074888884716896  0.6874657373305422
  0.1672864496501687  0.5328928623482850  0.2480554351101688
  0.2260962772809014  0.4279282649391105  0.7532910531618183
  0.8474578047759688  0.8232042754436696  0.8879220963886129
  0.1904262936065575  0.8695669256929793  0.0239305199760509
  0.5226961108375759  0.6524461788935098  0.0242141306891375
  0.6078922163457853  0.7135707023822923 -0.0032210195759740
  0.5020292083341353  0.1005644423988307  0.4953842523666205
  0.4984864770717102  0.9731928449888169  0.3812879077438737
  0.3722948104220871  0.1281044681728205  0.1513473015607862
  0.3884719578754220  0.5738038325609754  0.9575959253283279
  0.7764406477666725  0.8901455662869621  0.5923576240228113
  0.0483735839413114  0.6873661816141394  0.3039277587180997
  0.6342912790930947  0.6609104783021241  0.2039163783359662
  0.0605073583698426  0.4603167372077173  0.1307348944595445
  0.4572679070835660  0.2711822410635205  0.3719461719117161
  0.9615577364365016  0.6957628276160882  0.3701530471370078
  0.9276879787078993  0.9876195048378946  0.9721312531409746
  0.8394396641351182  0.3241497902096511  0.5724556427657451
  0.9031768179838724  0.5884879269688770  0.1345718123722368
  0.3054139476274133  0.8235061340331916  0.6354376734581766
 
  0.00000000E+00  0.00000000E+00  0.00000000E+00
  0.00000000E+00  0.00000000E+00  0.00000000E+00
  0.00000000E+00  0.00000000E+00  0.00000000E+00
  0.00000000E+00  0.00000000E+00  0.00000000E+00
  0.00000000E+00  0.00000000E+00  0.00000000E+00
  0.00000000E+00  0.00000000E+00  0.00000000E+00
  0.00000000E+00  0.00000000E+00  0.00000000E+00
  0.00000000E+00  0.00000000E+00  0.00000000E+00
  0.00000000E+00  0.00000000E+00  0.00000000E+00
  0.00000000E+00  0.00000000E+00  0.00000000E+00
  0.00000000E+00  0.00000000E+00  0.00000000E+00
  0.00000000E+00  0.00000000E+00  0.00000000E+00
  0.00000000E+00  0.00000000E+00  0.00000000E+00
  0.00000000E+00  0.00000000E+00  0.00000000E+00
  0.00000000E+00  0.00000000E+00  0.00000000E+00
  0.00000000E+00  0.00000000E+00  0.00000000E+00
  0.00000000E+00  0.00000000E+00  0.00000000E+00
  0.00000000E+00  0.00000000E+00  0.00000000E+00
  0.00000000E+00  0.00000000E+00  0.00000000E+00
  0.00000000E+00  0.00000000E+00  0.00000000E+00
  0.00000000E+00  0.00000000E+00  0.00000000E+00
  0.00000000E+00  0.00000000E+00  0.00000000E+00
  0.00000000E+00  0.00000000E+00  0.00000000E+00
  0.00000000E+00  0.00000000E+00  0.00000000E+00
  0.00000000E+00  0.00000000E+00  0.00000000E+00
  0.00000000E+00  0.00000000E+00  0.00000000E+00
  0.00000000E+00  0.00000000E+00  0.00000000E+00
  0.00000000E+00  0.00000000E+00  0.00000000E+00
  0.00000000E+00  0.00000000E+00  0.00000000E+00
  0.00000000E+00  0.00000000E+00  0.00000000E+00
  0.00000000E+00  0.00000000E+00  0.00000000E+00
  0.00000000E+00  0.00000000E+00  0.00000000E+00
  0.00000000E+00  0.00000000E+00  0.00000000E+00
  0.00000000E+00  0.00000000E+00  0.00000000E+00
  0.00000000E+00  0.00000000E+00  0.00000000E+00
  0.00000000E+00  0.00000000E+00  0.00000000E+00
  0.00000000E+00  0.00000000E+00  0.00000000E+00
  0.00000000E+00  0.00000000E+00  0.00000000E+00
  0.00000000E+00  0.00000000E+00  0.00000000E+00
  0.00000000E+00  0.00000000E+00  0.00000000E+00
  0.00000000E+00  0.00000000E+00  0.00000000E+00
  0.00000000E+00  0.00000000E+00  0.00000000E+00
  0.00000000E+00  0.00000000E+00  0.00000000E+00
  0.00000000E+00  0.00000000E+00  0.00000000E+00
  0.00000000E+00  0.00000000E+00  0.00000000E+00
  0.00000000E+00  0.00000000E+00  0.00000000E+00
  0.00000000E+00  0.00000000E+00  0.00000000E+00
  0.00000000E+00  0.00000000E+00  0.00000000E+00
  0.00000000E+00  0.00000000E+00  0.00000000E+00
  0.00000000E+00  0.00000000E+00  0.00000000E+00
  0.00000000E+00  0.00000000E+00  0.00000000E+00
  0.00000000E+00  0.00000000E+00  0.00000000E+00
  0.00000000E+00  0.00000000E+00  0.00000000E+00
  0.00000000E+00  0.00000000E+00  0.00000000E+00
  0.00000000E+00  0.00000000E+00  0.00000000E+00
  0.00000000E+00  0.00000000E+00  0.00000000E+00
  0.00000000E+00  0.00000000E+00  0.00000000E+00
  0.00000000E+00  0.00000000E+00  0.00000000E+00
  0.00000000E+00  0.00000000E+00  0.00000000E+00
  0.00000000E+00  0.00000000E+00  0.00000000E+00
  0.00000000E+00  0.00000000E+00  0.00000000E+00
  0.00000000E+00  0.00000000E+00  0.00000000E+00
  0.00000000E+00  0.00000000E+00  0.00000000E+00
  0.00000000E+00  0.00000000E+00  0.00000000E+00
  0.00000000E+00  0.00000000E+00  0.00000000E+00
  0.00000000E+00  0.00000000E+00  0.00000000E+00
  0.00000000E+00  0.00000000E+00  0.00000000E+00
  0.00000000E+00  0.00000000E+00  0.00000000E+00
  0.00000000E+00  0.00000000E+00  0.00000000E+00
  0.00000000E+00  0.00000000E+00  0.00000000E+00
  0.00000000E+00  0.00000000E+00  0.00000000E+00
  0.00000000E+00  0.00000000E+00  0.00000000E+00
  0.00000000E+00  0.00000000E+00  0.00000000E+00
  0.00000000E+00  0.00000000E+00  0.00000000E+00
  0.00000000E+00  0.00000000E+00  0.00000000E+00
  0.00000000E+00  0.00000000E+00  0.00000000E+00
  0.00000000E+00  0.00000000E+00  0.00000000E+00
  0.00000000E+00  0.00000000E+00  0.00000000E+00
  0.00000000E+00  0.00000000E+00  0.00000000E+00
  0.00000000E+00  0.00000000E+00  0.00000000E+00
  0.00000000E+00  0.00000000E+00  0.00000000E+00
  0.00000000E+00  0.00000000E+00  0.00000000E+00
  0.00000000E+00  0.00000000E+00  0.00000000E+00
  0.00000000E+00  0.00000000E+00  0.00000000E+00
  0.00000000E+00  0.00000000E+00  0.00000000E+00
  0.00000000E+00  0.00000000E+00  0.00000000E+00
  0.00000000E+00  0.00000000E+00  0.00000000E+00
  0.00000000E+00  0.00000000E+00  0.00000000E+00
  0.00000000E+00  0.00000000E+00  0.00000000E+00
  0.00000000E+00  0.00000000E+00  0.00000000E+00
  0.00000000E+00  0.00000000E+00  0.00000000E+00
  0.00000000E+00  0.00000000E+00  0.00000000E+00
  0.00000000E+00  0.00000000E+00  0.00000000E+00
  0.00000000E+00  0.00000000E+00  0.00000000E+00
  0.00000000E+00  0.00000000E+00  0.00000000E+00
  0.00000000E+00  0.00000000E+00  0.00000000E+00
  0.00000000E+00  0.00000000E+00  0.00000000E+00
  0.00000000E+00  0.00000000E+00  0.00000000E+00
  0.00000000E+00  0.00000000E+00  0.00000000E+00
  0.00000000E+00  0.00000000E+00  0.00000000E+00
  0.00000000E+00  0.00000000E+00  0.00000000E+00
  0.00000000E+00  0.00000000E+00  0.00000000E+00
  0.00000000E+00  0.00000000E+00  0.00000000E+00
  0.00000000E+00  0.00000000E+00  0.00000000E+00
  0.00000000E+00  0.00000000E+00  0.00000000E+00
  0.00000000E+00  0.00000000E+00  0.00000000E+00
  0.00000000E+00  0.00000000E+00  0.00000000E+00
  0.00000000E+00  0.00000000E+00  0.00000000E+00
  0.00000000E+00  0.00000000E+00  0.00000000E+00
  0.00000000E+00  0.00000000E+00  0.00000000E+00
  0.00000000E+00  0.00000000E+00  0.00000000E+00
  0.00000000E+00  0.00000000E+00  0.00000000E+00
  0.00000000E+00  0.00000000E+00  0.00000000E+00
  0.00000000E+00  0.00000000E+00  0.00000000E+00
  0.00000000E+00  0.00000000E+00  0.00000000E+00
  0.00000000E+00  0.00000000E+00  0.00000000E+00
  0.00000000E+00  0.00000000E+00  0.00000000E+00
  0.00000000E+00  0.00000000E+00  0.00000000E+00
  0.00000000E+00  0.00000000E+00  0.00000000E+00
  0.00000000E+00  0.00000000E+00  0.00000000E+00
  0.00000000E+00  0.00000000E+00  0.00000000E+00
  0.00000000E+00  0.00000000E+00  0.00000000E+00
  0.00000000E+00  0.00000000E+00  0.00000000E+00
  0.00000000E+00  0.00000000E+00  0.00000000E+00
  0.00000000E+00  0.00000000E+00  0.00000000E+00
  0.00000000E+00  0.00000000E+00  0.00000000E+00
  0.00000000E+00  0.00000000E+00  0.00000000E+00
  0.00000000E+00  0.00000000E+00  0.00000000E+00
  0.00000000E+00  0.00000000E+00  0.00000000E+00
  0.00000000E+00  0.00000000E+00  0.00000000E+00
  0.00000000E+00  0.00000000E+00  0.00000000E+00
  0.00000000E+00  0.00000000E+00  0.00000000E+00
  0.00000000E+00  0.00000000E+00  0.00000000E+00
  0.00000000E+00  0.00000000E+00  0.00000000E+00
  0.00000000E+00  0.00000000E+00  0.00000000E+00
  0.00000000E+00  0.00000000E+00  0.00000000E+00
  0.00000000E+00  0.00000000E+00  0.00000000E+00
  0.00000000E+00  0.00000000E+00  0.00000000E+00
  0.00000000E+00  0.00000000E+00  0.00000000E+00
  0.00000000E+00  0.00000000E+00  0.00000000E+00
  0.00000000E+00  0.00000000E+00  0.00000000E+00
  0.00000000E+00  0.00000000E+00  0.00000000E+00
  0.00000000E+00  0.00000000E+00  0.00000000E+00
  0.00000000E+00  0.00000000E+00  0.00000000E+00
  0.00000000E+00  0.00000000E+00  0.00000000E+00
  0.00000000E+00  0.00000000E+00  0.00000000E+00
  0.00000000E+00  0.00000000E+00  0.00000000E+00
  0.00000000E+00  0.00000000E+00  0.00000000E+00
  0.00000000E+00  0.00000000E+00  0.00000000E+00
  0.00000000E+00  0.00000000E+00  0.00000000E+00
  0.00000000E+00  0.00000000E+00  0.00000000E+00
  0.00000000E+00  0.00000000E+00  0.00000000E+00
  0.00000000E+00  0.00000000E+00  0.00000000E+00
  0.00000000E+00  0.00000000E+00  0.00000000E+00
  0.00000000E+00  0.00000000E+00  0.00000000E+00
  0.00000000E+00  0.00000000E+00  0.00000000E+00
  0.00000000E+00  0.00000000E+00  0.00000000E+00
  0.00000000E+00  0.00000000E+00  0.00000000E+00
  0.00000000E+00  0.00000000E+00  0.00000000E+00
  0.00000000E+00  0.00000000E+00  0.00000000E+00
  0.00000000E+00  0.00000000E+00  0.00000000E+00
  0.00000000E+00  0.00000000E+00  0.00000000E+00
  0.00000000E+00  0.00000000E+00  0.00000000E+00
  0.00000000E+00  0.00000000E+00  0.00000000E+00
  0.00000000E+00  0.00000000E+00  0.00000000E+00
  0.00000000E+00  0.00000000E+00  0.00000000E+00
  0.00000000E+00  0.00000000E+00  0.00000000E+00
  0.00000000E+00  0.00000000E+00  0.00000000E+00
  0.00000000E+00  0.00000000E+00  0.00000000E+00
  0.00000000E+00  0.00000000E+00  0.00000000E+00
  0.00000000E+00  0.00000000E+00  0.00000000E+00
  0.00000000E+00  0.00000000E+00  0.00000000E+00
  0.00000000E+00  0.00000000E+00  0.00000000E+00
  0.00000000E+00  0.00000000E+00  0.00000000E+00
  0.00000000E+00  0.00000000E+00  0.00000000E+00
  0.00000000E+00  0.00000000E+00  0.00000000E+00
  0.00000000E+00  0.00000000E+00  0.00000000E+00
  0.00000000E+00  0.00000000E+00  0.00000000E+00
  0.00000000E+00  0.00000000E+00  0.00000000E+00
  0.00000000E+00  0.00000000E+00  0.00000000E+00
  0.00000000E+00  0.00000000E+00  0.00000000E+00
  0.00000000E+00  0.00000000E+00  0.00000000E+00
  0.00000000E+00  0.00000000E+00  0.00000000E+00
  0.00000000E+00  0.00000000E+00  0.00000000E+00
  0.00000000E+00  0.00000000E+00  0.00000000E+00
  0.00000000E+00  0.00000000E+00  0.00000000E+00
  0.00000000E+00  0.00000000E+00  0.00000000E+00
  0.00000000E+00  0.00000000E+00  0.00000000E+00
  0.00000000E+00  0.00000000E+00  0.00000000E+00
  0.00000000E+00  0.00000000E+00  0.00000000E+00
  0.00000000E+00  0.00000000E+00  0.00000000E+00
  0.00000000E+00  0.00000000E+00  0.00000000E+00
  0.00000000E+00  0.00000000E+00  0.00000000E+00
  0.00000000E+00  0.00000000E+00  0.00000000E+00
  0.00000000E+00  0.00000000E+00  0.00000000E+00
  0.00000000E+00  0.00000000E+00  0.00000000E+00
  0.00000000E+00  0.00000000E+00  0.00000000E+00
  0.00000000E+00  0.00000000E+00  0.00000000E+00
  0.00000000E+00  0.00000000E+00  0.00000000E+00
  0.00000000E+00  0.00000000E+00  0.00000000E+00
  0.00000000E+00  0.00000000E+00  0.00000000E+00
  0.00000000E+00  0.00000000E+00  0.00000000E+00
  0.00000000E+00  0.00000000E+00  0.00000000E+00
  0.00000000E+00  0.00000000E+00  0.00000000E+00
  0.00000000E+00  0.00000000E+00  0.00000000E+00
  0.00000000E+00  0.00000000E+00  0.00000000E+00
  0.00000000E+00  0.00000000E+00  0.00000000E+00
  0.00000000E+00  0.00000000E+00  0.00000000E+00
  0.00000000E+00  0.00000000E+00  0.00000000E+00
  0.00000000E+00  0.00000000E+00  0.00000000E+00
  0.00000000E+00  0.00000000E+00  0.00000000E+00
  0.00000000E+00  0.00000000E+00  0.00000000E+00
  0.00000000E+00  0.00000000E+00  0.00000000E+00
  0.00000000E+00  0.00000000E+00  0.00000000E+00
  0.00000000E+00  0.00000000E+00  0.00000000E+00
  0.00000000E+00  0.00000000E+00  0.00000000E+00
  0.00000000E+00  0.00000000E+00  0.00000000E+00
  0.00000000E+00  0.00000000E+00  0.00000000E+00
  0.00000000E+00  0.00000000E+00  0.00000000E+00
  0.00000000E+00  0.00000000E+00  0.00000000E+00
  0.00000000E+00  0.00000000E+00  0.00000000E+00
  0.00000000E+00  0.00000000E+00  0.00000000E+00
  0.00000000E+00  0.00000000E+00  0.00000000E+00
  0.00000000E+00  0.00000000E+00  0.00000000E+00
  0.00000000E+00  0.00000000E+00  0.00000000E+00
  0.00000000E+00  0.00000000E+00  0.00000000E+00
  0.00000000E+00  0.00000000E+00  0.00000000E+00
  0.00000000E+00  0.00000000E+00  0.00000000E+00
  0.00000000E+00  0.00000000E+00  0.00000000E+00
  0.00000000E+00  0.00000000E+00  0.00000000E+00
  0.00000000E+00  0.00000000E+00  0.00000000E+00
  0.00000000E+00  0.00000000E+00  0.00000000E+00