Amorphous Sb                            
  0.948000000000000     
    20.1278869700586895    0.0000000000000000    0.0000000000000000
     0.0000000000000000   20.1278869700586895    0.0000000000000000
     0.0000000000000000    0.0000000000000000   20.1278869700586895
   Ge   Se
   150   150
Direct
  0.5069870305793976  0.6874686007133838  0.7946228167256920
  0.2108007542389819  0.4396549296685546  0.8067130908806546
  0.3834950688060590  0.3308011292951082  0.6130535810501151
  0.8323521745414487  0.0182070005101314  0.6437866642889688
  0.8919606594797835  0.6303981897136232  0.6720708043306564
  0.2130605866301262  0.7086541886129625  0.9460312086935148
  0.1237826718034458  0.1471027241947491  0.3624500171471347
  0.3305895643397887  0.6198915307175979  0.8096693258571408
  0.3452327463815121  0.8818345489495112  0.2327071728536863
  0.3763347276919777  0.0068799071045083  0.4277938302974666
  0.0125731983978767  0.0392902071117474  0.4457083850309842
  0.6344149121516007  0.3364312370658028  0.8521204979963846
  0.6372885039731893  0.4315765668362788  0.5681823069931302
  0.2675716091889643  0.0161659156006861  0.8534919663540237
  0.6695572901019281  0.9460760383470745  0.4110656172672613
  0.0243338229710692  0.7700248798246672  0.0981951270805387
  0.0424360806225308  0.7539865756302164  0.3428895653822035
  0.8226169549266584  0.4101843437496016  0.3555237249048248
  0.1183620128989085  0.4748170444119159  0.9639889486718609
  0.0526359437000691  0.9196247238788693  0.5022526919420816
  0.1487579108232497  0.8393624011300316  0.2006647438543100
  0.4331707602191567  0.7490400132369047  0.9769509194692713
 -0.0133390568917286  0.1804450540462725  0.9306831143509761
  0.0240390433880120  0.0863375191667886  0.1280666270686973
  0.5618356857714535  0.3114809024873188  0.1734137424928808
  0.3794709714144779  0.1514384918363977  0.5898880571596611
  0.4079138496444407  0.7578183942484138  0.5426799530232550
  0.8033708636763764  0.9254773965693448  0.0147630034280836
  0.8058457062099513  0.5456595240836498  0.5902035335559975
  0.9450583263475609  0.7755928157177669  0.5855273416769391
  0.0892536765287907  0.3371111928441321  0.7554897591755925
  0.0260407886168178  0.1013568088054237  0.2643050260948797
  0.8958450901771228  0.4776703921073135  0.4551809255495632
  0.4115587882884525  0.4532823724109213  0.2349395018748991
  0.0361123795340137  0.5488763391526176  0.5745840102165956
  0.7300104928483745  0.7072439263099387  0.1552574631173163
  0.4561008451733644  0.4864145869692762  0.9158176484393122
  0.2700853390877201  0.0488564959757960  0.2444375262383088
  0.2579267423531985  0.3651129306138149  0.1374358382917406
  0.7620329532878040  0.3878307973101829  0.7699545805466718
  0.8412341495165243  0.8239602234691608  0.3865464927252171
  0.9242190403954608  0.1939170029004756  0.5722435923875001
  0.5791824485196190  0.8398284294733491  0.5386488269115748
  0.3786378675129144  0.9882472420770206  0.0974071927316826
  0.3410139387836645  0.6304281047925158  0.2266851820440341
  0.3991344877364923  0.4301360657305075  0.4946701895036905
  0.8969650536644956  0.8127943847977112  0.1616784894695099
  0.0563965987149051  0.3480451862519207  0.4119347312070877
  0.9913048587894777  0.7348657972459628  0.8043459810924753
  0.5472265084932020  0.0587507461589795  0.3104023301237517
  0.2683122746243145  0.4314054297461787  0.9467533509045208
  0.0372105542833507  0.2804096926062933  0.1534578077597084
  0.6256950471973868  0.7474809212035138  0.8188918816496117
  0.5902591151668394  0.3083261787914112  0.7274082231035951
  0.0285057082519777  0.5909493451138681  0.3566106967288961
  0.0250252888782159  0.9200880090735123  0.2159597015909885
  0.1807481877498632  0.5682850939744138  0.4573181122246829
  0.9724226960210971  0.3338981381714861  0.5877446685066505
  0.0955182071306183  0.0612154848539439  0.8272653400651678
  0.5235042035488613  0.4357362030840116  0.3286061247644740
  0.6754338289120426  0.1038641323912046  0.1581333320461402
  0.5392579155027344  0.6685365238332436  0.2194899497222451
  0.9240894172854487  0.6718921745278775  0.2828497486703807
  0.8536621452555486  0.0312034378306082  0.8328718620534761
  0.5542637946716916  0.8226698850305947  0.0155435317944593
  0.0813208198842396  0.3442756449412221  0.9415362994643933
  0.8216557976731407  0.8423196358245502  0.5276466523276030
  0.7277601625408592  0.7323237326614334  0.6892866636256306
  0.8209593090864491  0.2441244320507113  0.1517277528014442
  0.8300071052307718  0.3104152927477647  0.0199388780102124
  0.9648657160762479  0.4215283404271863  0.7312717501641832
  0.4174452583017931  0.1498886700624038  0.1770714713087619
  0.3609840030571276  0.5398564035079817  0.4174245101472855
  0.5112392520173359  0.8172200580679001  0.3828793252319194
  0.3339448701931139  0.4514504517201697  0.6718193772754755
  0.6776808534271468  0.9571556737960013  0.1017807467561868
  0.2471211679976198  0.2356190478690713  0.1772960071104080
  0.8621158715035606  0.0696936872720636  0.0306806165777231
  0.2593815991742747  0.8556219442998315  0.9452027683380471
  0.3744369149095541  0.2489305912154761  0.0278874404423629
  0.6515138300791947  0.9914546755738836  0.8768726296010879
  0.9687232806693291  0.5945190215304302  0.8496496494409737
  0.8024661852026442  0.4804937146854701  0.0579260037627441
  0.7382247386119435  0.5188655399510008  0.3360274824896840
  0.3637893243226876  0.1386478090556915  0.7245700650868859
  0.5982975746046262  0.1299951473600318  0.0251808357009686
  0.5144006923726137  0.6551575204207107  0.6049457673764285
  0.7702595781126454  0.3093776716076381  0.5163541183888785
  0.6437419607733326  0.5768470148644943  0.1435282882831225
  0.5443592971735146  0.2340058818773143  0.3648814249370992
  0.6177340364671665  0.1190800301237980  0.8882274569419953
  0.1083260760331873  0.1153827833234199  0.6038807025968789
  0.3085085323758277  0.5946965152465363  0.5897462209005441
  0.7638471609856178  0.0421356043641800  0.4554661804369782
  0.6568266235004554  0.9259040675259667  0.6094324104426639
  0.6659941591994375  0.6900637439097699  0.4977030140416948
  0.4220472873121384  0.9647532022805101  0.9447604310805461
  0.1474351984949073  0.4654746852243217  0.6380729586258744
  0.1700442510755725  0.7655152743488194  0.4742066719375531
  0.2056973634638843  0.1344766886091936  0.8420512832447450
  0.1094839519329057  0.4236662548004815  0.2414465728626490
  0.5375302919352992  0.2924993224368980  0.9321044015509313
  0.2305921276163988  0.5086267674039334  0.0763923986633992
  0.8709003797137453  0.0643775841566056  0.1865206937608783
  0.4159691697168653  0.8487835942947348  0.7422860654569888
  0.7265159100256896  0.7247409563449314  0.9931247959846321
  0.9905841147446857  0.4689920550939491  0.0096821324729224
  0.0542872775405016  0.6494495978543730  0.0502593857709543
  0.7041940393950191  0.1738347724254482  0.7045369153519918
  0.7107579558031596  0.9087136491498400  0.7892790407936633
  0.1121668161436173  0.8897229123297539  0.6852564403187312
  0.1097867481788789  0.9628164324300766  0.0094689859785561
  0.1350045605536140  0.9607686440869679  0.3712290980890219
  0.7572592311647645  0.1462062291229244  0.3189241492150326
  0.7400689864278217  0.8241137927488629  0.2948933055469568
  0.7319215626906457  0.6416739068879223  0.3869213311857959
  0.4213143610586959  0.2799783776428906  0.3020817169284614
  0.6790382992064944  0.6002282120794619  0.7287538792013278
  0.3271704958478479  0.2236995812760393  0.4441623077284980
  0.0835147878733785  0.9336774130563372  0.8036489896543579
  0.9312575411850712  0.4619005076880328  0.2029796381747712
  0.8608259850883266  0.2156895994521328  0.3844826944689189
  0.8047538601193771  0.6304828692831961  0.8243542413724040
  0.9514852562610666  0.9156739732786825  0.9545794655590671
  0.2295972318939860  0.3959479980580514  0.4063572206321974
  0.2410561010304615  0.6957642580026949  0.6658945232277044
  0.3829702020409800  0.9618303233977716  0.5624573463026781
  0.5445401924400392  0.8547953510917401  0.7861390819469172
  0.1896341422524181  0.1587301610752744  0.9940872480666408
  0.2824252991666285  0.8145517433375580  0.0813209916086817
  0.5310254391401880  0.5618091339260550  0.4476138775975790
  0.8967488424816997  0.7334954375127662  0.9060187541789102
  0.4644310921215736  0.1840539766343716  0.9105186305376278
  0.4441536038961437  0.5104975679954949  0.1058372814721984
  0.0523115648181463  0.7154731337942836  0.6385229366118274
  0.1832736438282368  0.6362811827623978  0.2292174859413264
  0.2930906536372067  0.2842947218568032  0.7966438237530077
  0.5522496330214960  0.0760614896260252  0.4965787863447527
  0.3594621059556873  0.7188451940339788  0.3486870538310461
  0.2823367825196529  0.8585158890623789  0.7063398805952583
  0.7128599565087309  0.4150818821013746  0.2152538668217118
  0.6055645048538150  0.4473607861731390  0.0201731754097285
  0.1765471128879043  0.9883739042979968  0.6218273180299025
  0.9286710706132227  0.2208642740266227  0.7717775529429551
  0.5757236678581086  0.2003973534057965  0.5566621369084157
  0.1249406510375482  0.2278571725921151  0.5199097434839728
  0.1436099740696230  0.6145923517385943  0.8151791144216552
  0.5244194527326330  0.8790985868005372  0.1904196141341755
  0.4750947120513960  0.4707971793541940  0.7515434460404037
  0.9086462868920965  0.4449826038807625  0.9059862613601972
  0.8534745379699260  0.1341802375675246  0.9035932392266309
  0.8621913616473117  0.9651817489030672  0.4912761835097021
  0.0793529478714572  0.7216443901759734  0.2115307706548760
  0.9340322587700544  0.4658638742192698  0.6056085078201825
  0.3225748020046605  0.7007247167901922  0.0263685133716255
  0.1232581561746403  0.0085023611756295  0.2453867742431927
  0.5804808965771229  0.4526934773687065  0.1555702434787408
  0.6951163732061241  0.0459903700627781  0.5745832725653585
  0.6091590407725636  0.2599185137073867  0.0306837124556924
  0.1398960960050210  0.0720753105492747  0.4756120999024774
  0.9325120293230509  0.8298784067060478  0.2931091900835702
  0.7510955985267649  0.0344641154532451  0.7572622687722447
  0.7788299628976287  0.6882269205933702  0.5768171016052749
  0.2861492831971990  0.7939502214314977  0.5848832815851592
  0.8654160523252020  0.6843441058567503  0.1629332442792280
  0.4685219380663886  0.1086302442843974  0.0128543482731128
  0.2920725861222571  0.1528464388703885  0.0859856685178022
  0.3848531206269377  0.8295384631977164  0.4297650810805358
  0.9376769964905954 -0.0158832658770486  0.7503549538730798
  0.7070568545426242  0.2223296180749778  0.2212986542341580
  0.7111931947774300  0.0226229378710077  0.9866343081982483
  0.5624883911585230  0.1891050079478073  0.6837669314127249
  0.1441162460827307  0.0687784107788218  0.0849537115385655
  0.8733640461213049  0.4970237715155660  0.7927180248107329
  0.2027077537610431  0.3565978291600319  0.2846966482889192
  0.3419722297960218  0.4096896811198100  0.8380205332616812
  0.2652647152745166  0.7709457401038170  0.2059466204648615
  0.2692449676054398  0.9663238083171262  0.3503901650697617
  0.3463516394559207  0.5228812422274487  0.0129202099009509
  0.4103591529613400  0.0260308541998724  0.2289922699797092
  0.4550391628110945  0.2463523988634648  0.5318788125396788
  0.4215957901431597  0.3280637691753661  0.1770375855502745
  0.9386495203339952  0.0021707340352769  0.2822770375608656
  0.4123017136071581  0.8563162161519441  0.1114694744687222
  0.0630325514042968  0.4953889604298645  0.4377476128780584
  0.0690330063621897  0.4956588816773828  0.8412571381377544
  0.5668117777011463  0.4560417168718118  0.8441981758511421
  0.2991825854532190  0.9879288684281141  0.6676056407565744
  0.5362235126297235  0.1752455883848208  0.2373913703407826
  0.9015885722540609  0.5401559484335284  0.3137146307302166
  0.6053599155823078  0.5408882265288895  0.3333457335259923
  0.3387796850823754  0.1984507228934724  0.9015818825209400
  0.1806041695330826  0.9078084751030536  0.5194124485557625
  0.0256591527968411  0.2110526765307068  0.4263344231547460
  0.5431023880535747  0.9201503689072033  0.9014583177757314
  0.5964222272646242  0.9581437272102554  0.7231304443958653
  0.7172270855267164  0.4833424889286873  0.6781200865069011
  0.1525792513059771  0.8343887142569387  0.3395118943133513
  0.9276599519262656  0.3453623916155752  0.4590336779380396
  0.5325224740628610  0.7041710948978698  0.4490229929156133
  0.8701557456936138  0.3309843922921889  0.7091438834127894
  0.3192102977090803  0.6497033820771313  0.4720537913163471
  0.6973389968921592  0.2049998666189814  0.8366202905489664
  0.3044147620317639  0.0988664066838572  0.4965776927201694
  0.7630864618752125  0.8380303375420495  0.1687080069171457
  0.7578405124208911  0.5437536055935084  0.2014194247618642
  0.1532635966677546  0.6686708322915004  0.3748113080565827
  0.0371979134968148  0.8447626606664743  0.8817405293133204
  0.7899133048626337  0.4123548509439539  0.9370064936955302
  0.9827942810742463  0.0738971161517759  0.5716606867865605
  0.2599670163258506  0.9511022615358722  0.1536644800596592
  0.5453276969961086  0.5857662294842330  0.7206895625046166
  0.0011616198654252  0.9037239512153974  0.6234389389191607
  0.1501451357081461  0.2798328402361556  0.8559935798366587
  0.5284274838287457  0.3946049501132148  0.6530685530496582
  0.2816926396641613  0.2643243874895592  0.5645401277582286
  0.2652520503763558  0.9866193279104151  0.9798029665455832
  0.7662501118286535  0.1511700600850165  0.0712012640237438
  0.8651701310329010  0.6120932159855044  0.9437406152880776
  0.9005328996598524  0.1834477036865236  0.2367469758753246
  0.5271660226233784  0.4222324272788913  0.4629284670431937
  0.6044113037013444  0.3390317086411810  0.3021925523945298
  0.6170066466054009  0.5733453197606750  0.5495063029589706
  0.6786062414833938  0.7095732990207952  0.2886946605562895
  0.4562943889776744  0.7668660189102089  0.2716807860973080
  0.1271507338438060  0.7686722326439511  0.7284361938561261
  0.7728198402779819  0.7581204848681771  0.8708731971164637
  0.5877003803006625  0.7696145273774592  0.1407555874493097
  0.8933225507084284  0.7606083250748333  0.7151793972543298
  0.0886630469860094  0.2438478839019999  0.0238257578346563
  0.8341834325378766  0.9157993987049723  0.8826447071001393
  0.6923779998447620  0.8538600008741151  0.0009129800820593
  0.7586445510938753  0.0359051000960183  0.2492076989109517
  0.2262450613062278  0.5434406580818871  0.7227366844420772
  0.7584367390826847  0.4717149798772567  0.4872094961900440
  0.4078687864586468  0.2674277145963107  0.7284626187277502
 -0.0082621408796935  0.9635116192274162  0.0928060983829296
  0.4302315714380541  0.5848469923489786  0.3186057578152559
  0.1294001781264889  0.2002112893576553  0.2133919375119395
  0.0332776380586591  0.7941971851579429  0.4755504615568764
  0.7565692210211240  0.3021167111031759  0.3823304356255935
  0.4141354158799186  0.7189717703638029  0.7131428880431335
  0.6402735607423354  0.9037762260458817  0.2926183320868654
  0.3840279004220185  0.8409823257459128  0.8957883368779925
  0.1365297532112521  0.8239837790347962  0.0543954982330314
  0.8104126971654030  0.1747513811453917  0.5050295025464109
  0.6994631894022511  0.8283009240821790  0.4647920741662522
  0.0422656939557901  0.2288736510086449  0.6956948903152101
  0.6934756834712147  0.5722735001858206  0.8517877390817681
  0.2614723045904231  0.3172480033945591  0.0122887023336167
  0.4361204433149424  0.6432957793622632  0.8923513952136020
  0.0628412321697818  0.6681639959364634  0.9245118129869619
  0.5514889022211326  0.9620695553126338  0.0878348178699769
  0.4607309266388930  0.3749659082313493  0.9904075703531615
  0.9000149906495947  0.8025893815672773  0.0125643764115904
  0.6428523543992418  0.1290736366364622  0.3833098271554298
  0.2347443628969677  0.5780554601272729  0.9045108330228334
  0.2555823039109187  0.4746237677958079  0.5586579299519793
  0.5124584642400259  0.1192598925268917  0.8155714479993034
  0.4223597901669212  0.5317498982892666  0.5972313228076546
  0.2112251599088626  0.9011016674703474  0.8250348403034361
  0.0251996923786320  0.0532671818130267  0.9321763887650987
  0.2490931294695023  0.5191673995922416  0.3554975700414539
  0.9463181762098239  0.1679847492719660  0.0581286464973269
  0.2115937024578615  0.3571400606154106  0.6958193124155031
  0.3257292510617701  0.1929332568547874  0.2761146370736192
  0.2619639818932091  0.7301658216741451  0.8191968731415850
  0.8498509585571837  0.6919643118782576  0.3936881102986214
  0.0783721253298381  0.5465963507674763  0.2377448615017600
  0.9615545450608601  0.5681929357358554  0.0815288660428314
  0.1986568942657169  0.2456744499211587  0.4112005696583484
  0.2342871706909906  0.1647939996045710  0.7174906137485786
  0.9635825126860235  0.3295182907825441  0.8805692676833888
  0.8416318161869695  0.3671913333696374  0.2358438266299218
  0.5446823470102742  0.9513189178309991  0.4452347395918416
  0.6966194664852730  0.5543109457976468  0.0251440239083959
  0.3889415733449352  0.0032898895713672  0.8229229469061812
  0.5250410420862307  0.5533853929828600  0.0120165961743417
  0.6352039416052565  0.2964551278549171  0.5020547831280445
  0.6013383704870624  0.7556525766343395  0.6469555899012768
  0.2910906676791800  0.5105362606274488  0.1954696875732354
  0.0996899134789339  0.3546198300526815  0.5461168484395833
  0.7685835049860048  0.8755891787269310  0.6504110234886705
  0.4374024715420034  0.6405003719350293  0.1354486523078981
  0.1788681383870671  0.6303602886480042  0.0888245949665872
  0.6022681053756578  0.7123090390544601  0.9459840261979459
  0.7074087712033342  0.3071157858146431  0.6718861900382050
  0.4596703159098732  0.8684309658062057  0.6121012687042126
  0.3606343012145783  0.3785530963821208  0.3672531947906115
  0.1458028725286494  0.6632344701294165  0.5691833361366301
  0.8519044436714435  0.1567787446562454  0.6781655523637162
  0.0024782229353231  0.3676475008910361  0.2738868081149841
  0.9378252329636630  0.3709047863387951  0.0751801565042008
  0.1216124906659019  0.3838076337220984  0.1210847522735377
  0.4621212930561352  0.1120539857013426  0.3996152345257295
  0.9390471839552326  0.6369393677130279  0.5413344498721676
  0.0107492968536121  0.0944117637988127  0.7373448416401578
  0.0241370784604529  0.6064930352308980  0.7046983249266472
  0.7281744677974462  0.3729894470183394  0.0886446335420737
  0.4717823207321381  0.0523451883412169  0.6006638100002988
 
  0.00000000E+00  0.00000000E+00  0.00000000E+00
  0.00000000E+00  0.00000000E+00  0.00000000E+00
  0.00000000E+00  0.00000000E+00  0.00000000E+00
  0.00000000E+00  0.00000000E+00  0.00000000E+00
  0.00000000E+00  0.00000000E+00  0.00000000E+00
  0.00000000E+00  0.00000000E+00  0.00000000E+00
  0.00000000E+00  0.00000000E+00  0.00000000E+00
  0.00000000E+00  0.00000000E+00  0.00000000E+00
  0.00000000E+00  0.00000000E+00  0.00000000E+00
  0.00000000E+00  0.00000000E+00  0.00000000E+00
  0.00000000E+00  0.00000000E+00  0.00000000E+00
  0.00000000E+00  0.00000000E+00  0.00000000E+00
  0.00000000E+00  0.00000000E+00  0.00000000E+00
  0.00000000E+00  0.00000000E+00  0.00000000E+00
  0.00000000E+00  0.00000000E+00  0.00000000E+00
  0.00000000E+00  0.00000000E+00  0.00000000E+00
  0.00000000E+00  0.00000000E+00  0.00000000E+00
  0.00000000E+00  0.00000000E+00  0.00000000E+00
  0.00000000E+00  0.00000000E+00  0.00000000E+00
  0.00000000E+00  0.00000000E+00  0.00000000E+00
  0.00000000E+00  0.00000000E+00  0.00000000E+00
  0.00000000E+00  0.00000000E+00  0.00000000E+00
  0.00000000E+00  0.00000000E+00  0.00000000E+00
  0.00000000E+00  0.00000000E+00  0.00000000E+00
  0.00000000E+00  0.00000000E+00  0.00000000E+00
  0.00000000E+00  0.00000000E+00  0.00000000E+00
  0.00000000E+00  0.00000000E+00  0.00000000E+00
  0.00000000E+00  0.00000000E+00  0.00000000E+00
  0.00000000E+00  0.00000000E+00  0.00000000E+00
  0.00000000E+00  0.00000000E+00  0.00000000E+00
  0.00000000E+00  0.00000000E+00  0.00000000E+00
  0.00000000E+00  0.00000000E+00  0.00000000E+00
  0.00000000E+00  0.00000000E+00  0.00000000E+00
  0.00000000E+00  0.00000000E+00  0.00000000E+00
  0.00000000E+00  0.00000000E+00  0.00000000E+00
  0.00000000E+00  0.00000000E+00  0.00000000E+00
  0.00000000E+00  0.00000000E+00  0.00000000E+00
  0.00000000E+00  0.00000000E+00  0.00000000E+00
  0.00000000E+00  0.00000000E+00  0.00000000E+00
  0.00000000E+00  0.00000000E+00  0.00000000E+00
  0.00000000E+00  0.00000000E+00  0.00000000E+00
  0.00000000E+00  0.00000000E+00  0.00000000E+00
  0.00000000E+00  0.00000000E+00  0.00000000E+00
  0.00000000E+00  0.00000000E+00  0.00000000E+00
  0.00000000E+00  0.00000000E+00  0.00000000E+00
  0.00000000E+00  0.00000000E+00  0.00000000E+00
  0.00000000E+00  0.00000000E+00  0.00000000E+00
  0.00000000E+00  0.00000000E+00  0.00000000E+00
  0.00000000E+00  0.00000000E+00  0.00000000E+00
  0.00000000E+00  0.00000000E+00  0.00000000E+00
  0.00000000E+00  0.00000000E+00  0.00000000E+00
  0.00000000E+00  0.00000000E+00  0.00000000E+00
  0.00000000E+00  0.00000000E+00  0.00000000E+00
  0.00000000E+00  0.00000000E+00  0.00000000E+00
  0.00000000E+00  0.00000000E+00  0.00000000E+00
  0.00000000E+00  0.00000000E+00  0.00000000E+00
  0.00000000E+00  0.00000000E+00  0.00000000E+00
  0.00000000E+00  0.00000000E+00  0.00000000E+00
  0.00000000E+00  0.00000000E+00  0.00000000E+00
  0.00000000E+00  0.00000000E+00  0.00000000E+00
  0.00000000E+00  0.00000000E+00  0.00000000E+00
  0.00000000E+00  0.00000000E+00  0.00000000E+00
  0.00000000E+00  0.00000000E+00  0.00000000E+00
  0.00000000E+00  0.00000000E+00  0.00000000E+00
  0.00000000E+00  0.00000000E+00  0.00000000E+00
  0.00000000E+00  0.00000000E+00  0.00000000E+00
  0.00000000E+00  0.00000000E+00  0.00000000E+00
  0.00000000E+00  0.00000000E+00  0.00000000E+00
  0.00000000E+00  0.00000000E+00  0.00000000E+00
  0.00000000E+00  0.00000000E+00  0.00000000E+00
  0.00000000E+00  0.00000000E+00  0.00000000E+00
  0.00000000E+00  0.00000000E+00  0.00000000E+00
  0.00000000E+00  0.00000000E+00  0.00000000E+00
  0.00000000E+00  0.00000000E+00  0.00000000E+00
  0.00000000E+00  0.00000000E+00  0.00000000E+00
  0.00000000E+00  0.00000000E+00  0.00000000E+00
  0.00000000E+00  0.00000000E+00  0.00000000E+00
  0.00000000E+00  0.00000000E+00  0.00000000E+00
  0.00000000E+00  0.00000000E+00  0.00000000E+00
  0.00000000E+00  0.00000000E+00  0.00000000E+00
  0.00000000E+00  0.00000000E+00  0.00000000E+00
  0.00000000E+00  0.00000000E+00  0.00000000E+00
  0.00000000E+00  0.00000000E+00  0.00000000E+00
  0.00000000E+00  0.00000000E+00  0.00000000E+00
  0.00000000E+00  0.00000000E+00  0.00000000E+00
  0.00000000E+00  0.00000000E+00  0.00000000E+00
  0.00000000E+00  0.00000000E+00  0.00000000E+00
  0.00000000E+00  0.00000000E+00  0.00000000E+00
  0.00000000E+00  0.00000000E+00  0.00000000E+00
  0.00000000E+00  0.00000000E+00  0.00000000E+00
  0.00000000E+00  0.00000000E+00  0.00000000E+00
  0.00000000E+00  0.00000000E+00  0.00000000E+00
  0.00000000E+00  0.00000000E+00  0.00000000E+00
  0.00000000E+00  0.00000000E+00  0.00000000E+00
  0.00000000E+00  0.00000000E+00  0.00000000E+00
  0.00000000E+00  0.00000000E+00  0.00000000E+00
  0.00000000E+00  0.00000000E+00  0.00000000E+00
  0.00000000E+00  0.00000000E+00  0.00000000E+00
  0.00000000E+00  0.00000000E+00  0.00000000E+00
  0.00000000E+00  0.00000000E+00  0.00000000E+00
  0.00000000E+00  0.00000000E+00  0.00000000E+00
  0.00000000E+00  0.00000000E+00  0.00000000E+00
  0.00000000E+00  0.00000000E+00  0.00000000E+00
  0.00000000E+00  0.00000000E+00  0.00000000E+00
  0.00000000E+00  0.00000000E+00  0.00000000E+00
  0.00000000E+00  0.00000000E+00  0.00000000E+00
  0.00000000E+00  0.00000000E+00  0.00000000E+00
  0.00000000E+00  0.00000000E+00  0.00000000E+00
  0.00000000E+00  0.00000000E+00  0.00000000E+00
  0.00000000E+00  0.00000000E+00  0.00000000E+00
  0.00000000E+00  0.00000000E+00  0.00000000E+00
  0.00000000E+00  0.00000000E+00  0.00000000E+00
  0.00000000E+00  0.00000000E+00  0.00000000E+00
  0.00000000E+00  0.00000000E+00  0.00000000E+00
  0.00000000E+00  0.00000000E+00  0.00000000E+00
  0.00000000E+00  0.00000000E+00  0.00000000E+00
  0.00000000E+00  0.00000000E+00  0.00000000E+00
  0.00000000E+00  0.00000000E+00  0.00000000E+00
  0.00000000E+00  0.00000000E+00  0.00000000E+00
  0.00000000E+00  0.00000000E+00  0.00000000E+00
  0.00000000E+00  0.00000000E+00  0.00000000E+00
  0.00000000E+00  0.00000000E+00  0.00000000E+00
  0.00000000E+00  0.00000000E+00  0.00000000E+00
  0.00000000E+00  0.00000000E+00  0.00000000E+00
  0.00000000E+00  0.00000000E+00  0.00000000E+00
  0.00000000E+00  0.00000000E+00  0.00000000E+00
  0.00000000E+00  0.00000000E+00  0.00000000E+00
  0.00000000E+00  0.00000000E+00  0.00000000E+00
  0.00000000E+00  0.00000000E+00  0.00000000E+00
  0.00000000E+00  0.00000000E+00  0.00000000E+00
  0.00000000E+00  0.00000000E+00  0.00000000E+00
  0.00000000E+00  0.00000000E+00  0.00000000E+00
  0.00000000E+00  0.00000000E+00  0.00000000E+00
  0.00000000E+00  0.00000000E+00  0.00000000E+00
  0.00000000E+00  0.00000000E+00  0.00000000E+00
  0.00000000E+00  0.00000000E+00  0.00000000E+00
  0.00000000E+00  0.00000000E+00  0.00000000E+00
  0.00000000E+00  0.00000000E+00  0.00000000E+00
  0.00000000E+00  0.00000000E+00  0.00000000E+00
  0.00000000E+00  0.00000000E+00  0.00000000E+00
  0.00000000E+00  0.00000000E+00  0.00000000E+00
  0.00000000E+00  0.00000000E+00  0.00000000E+00
  0.00000000E+00  0.00000000E+00  0.00000000E+00
  0.00000000E+00  0.00000000E+00  0.00000000E+00
  0.00000000E+00  0.00000000E+00  0.00000000E+00
  0.00000000E+00  0.00000000E+00  0.00000000E+00
  0.00000000E+00  0.00000000E+00  0.00000000E+00
  0.00000000E+00  0.00000000E+00  0.00000000E+00
  0.00000000E+00  0.00000000E+00  0.00000000E+00
  0.00000000E+00  0.00000000E+00  0.00000000E+00
  0.00000000E+00  0.00000000E+00  0.00000000E+00
  0.00000000E+00  0.00000000E+00  0.00000000E+00
  0.00000000E+00  0.00000000E+00  0.00000000E+00
  0.00000000E+00  0.00000000E+00  0.00000000E+00
  0.00000000E+00  0.00000000E+00  0.00000000E+00
  0.00000000E+00  0.00000000E+00  0.00000000E+00
  0.00000000E+00  0.00000000E+00  0.00000000E+00
  0.00000000E+00  0.00000000E+00  0.00000000E+00
  0.00000000E+00  0.00000000E+00  0.00000000E+00
  0.00000000E+00  0.00000000E+00  0.00000000E+00
  0.00000000E+00  0.00000000E+00  0.00000000E+00
  0.00000000E+00  0.00000000E+00  0.00000000E+00
  0.00000000E+00  0.00000000E+00  0.00000000E+00
  0.00000000E+00  0.00000000E+00  0.00000000E+00
  0.00000000E+00  0.00000000E+00  0.00000000E+00
  0.00000000E+00  0.00000000E+00  0.00000000E+00
  0.00000000E+00  0.00000000E+00  0.00000000E+00
  0.00000000E+00  0.00000000E+00  0.00000000E+00
  0.00000000E+00  0.00000000E+00  0.00000000E+00
  0.00000000E+00  0.00000000E+00  0.00000000E+00
  0.00000000E+00  0.00000000E+00  0.00000000E+00
  0.00000000E+00  0.00000000E+00  0.00000000E+00
  0.00000000E+00  0.00000000E+00  0.00000000E+00
  0.00000000E+00  0.00000000E+00  0.00000000E+00
  0.00000000E+00  0.00000000E+00  0.00000000E+00
  0.00000000E+00  0.00000000E+00  0.00000000E+00
  0.00000000E+00  0.00000000E+00  0.00000000E+00
  0.00000000E+00  0.00000000E+00  0.00000000E+00
  0.00000000E+00  0.00000000E+00  0.00000000E+00
  0.00000000E+00  0.00000000E+00  0.00000000E+00
  0.00000000E+00  0.00000000E+00  0.00000000E+00
  0.00000000E+00  0.00000000E+00  0.00000000E+00
  0.00000000E+00  0.00000000E+00  0.00000000E+00
  0.00000000E+00  0.00000000E+00  0.00000000E+00
  0.00000000E+00  0.00000000E+00  0.00000000E+00
  0.00000000E+00  0.00000000E+00  0.00000000E+00
  0.00000000E+00  0.00000000E+00  0.00000000E+00
  0.00000000E+00  0.00000000E+00  0.00000000E+00
  0.00000000E+00  0.00000000E+00  0.00000000E+00
  0.00000000E+00  0.00000000E+00  0.00000000E+00
  0.00000000E+00  0.00000000E+00  0.00000000E+00
  0.00000000E+00  0.00000000E+00  0.00000000E+00
  0.00000000E+00  0.00000000E+00  0.00000000E+00
  0.00000000E+00  0.00000000E+00  0.00000000E+00
  0.00000000E+00  0.00000000E+00  0.00000000E+00
  0.00000000E+00  0.00000000E+00  0.00000000E+00
  0.00000000E+00  0.00000000E+00  0.00000000E+00
  0.00000000E+00  0.00000000E+00  0.00000000E+00
  0.00000000E+00  0.00000000E+00  0.00000000E+00
  0.00000000E+00  0.00000000E+00  0.00000000E+00
  0.00000000E+00  0.00000000E+00  0.00000000E+00
  0.00000000E+00  0.00000000E+00  0.00000000E+00
  0.00000000E+00  0.00000000E+00  0.00000000E+00
  0.00000000E+00  0.00000000E+00  0.00000000E+00
  0.00000000E+00  0.00000000E+00  0.00000000E+00
  0.00000000E+00  0.00000000E+00  0.00000000E+00
  0.00000000E+00  0.00000000E+00  0.00000000E+00
  0.00000000E+00  0.00000000E+00  0.00000000E+00
  0.00000000E+00  0.00000000E+00  0.00000000E+00
  0.00000000E+00  0.00000000E+00  0.00000000E+00
  0.00000000E+00  0.00000000E+00  0.00000000E+00
  0.00000000E+00  0.00000000E+00  0.00000000E+00
  0.00000000E+00  0.00000000E+00  0.00000000E+00
  0.00000000E+00  0.00000000E+00  0.00000000E+00
  0.00000000E+00  0.00000000E+00  0.00000000E+00
  0.00000000E+00  0.00000000E+00  0.00000000E+00
  0.00000000E+00  0.00000000E+00  0.00000000E+00
  0.00000000E+00  0.00000000E+00  0.00000000E+00
  0.00000000E+00  0.00000000E+00  0.00000000E+00
  0.00000000E+00  0.00000000E+00  0.00000000E+00
  0.00000000E+00  0.00000000E+00  0.00000000E+00
  0.00000000E+00  0.00000000E+00  0.00000000E+00
  0.00000000E+00  0.00000000E+00  0.00000000E+00
  0.00000000E+00  0.00000000E+00  0.00000000E+00
  0.00000000E+00  0.00000000E+00  0.00000000E+00
  0.00000000E+00  0.00000000E+00  0.00000000E+00
  0.00000000E+00  0.00000000E+00  0.00000000E+00
  0.00000000E+00  0.00000000E+00  0.00000000E+00
  0.00000000E+00  0.00000000E+00  0.00000000E+00
  0.00000000E+00  0.00000000E+00  0.00000000E+00
  0.00000000E+00  0.00000000E+00  0.00000000E+00
  0.00000000E+00  0.00000000E+00  0.00000000E+00