In2O3 structure 23 - random placement wi
   1.00000000000000     
     8.0682528935694098    0.0414011444924999    0.0472136856217694
     0.0409559284283028    8.1281722685474573    0.0699348111093414
     0.0471007077352372    0.0708275578362806    8.1488407793333781
   In   O 
    16    24
Direct
  0.1298339117268506  0.0696495191584455  0.1624858745199395
  0.8568848228750170  0.8268990786829111  0.9154840033428441
  0.3570194850890376  0.8061500745038109  0.8807718520251892
  0.6400897885317723  0.0469900115278582  0.6360222511943261
  0.3516889278439269  0.2943748627498811  0.8455065762550970
  0.1334975773935223  0.5871644894626377  0.6551684936899489
  0.1265630670440968  0.0718305817509564  0.6507977839822684
  0.8799204737246303  0.3364768590323927  0.9060409194455530
  0.8619474032755793  0.3282054788406970  0.4127621626700035
  0.6362241775955501  0.5497745191126918  0.6384384811301816
  0.8582240320544112  0.8263662832809470  0.4150732242255179
  0.1381905372864638  0.5914920538243110  0.1660344462420563
  0.6312818735597656  0.5624977986080690  0.1405802207759969
  0.3684288424094971  0.2986584335647519  0.3913280393614305
  0.6297845776481442  0.0416950698954020  0.1432099419325586
  0.3643389237842926  0.7994345241224731  0.3878283099383669
  0.7479611167070128  0.0847470811667254  0.3816978294228199
  0.0954528983602490  0.6925621006418512  0.9163815188068198
  0.2338754434089597  0.0526108237534432  0.9138319066332883
  0.3204325694063501  0.3409022268327910  0.1216453099268018
  0.8839872055322542  0.0931005981373211  0.0293054422779319
  0.7408787372296320  0.5759965405547481  0.8895073960766282
  0.5938212329980602  0.9426603771867659  0.8871345457854024
  0.2476944351344497  0.8330396698883660  0.6288863220803315
  0.8965412834992358  0.5783813854880631  0.5279136722058061
  0.7537759234242934  0.7949037342607902  0.1702963027475266
  0.5043325903282542  0.3180610048393183  0.0658012463807310
  0.8959315646721892  0.9361782478410110  0.6678927748960254
  0.5988733862832440  0.7949328697478049  0.5234004906158238
  0.9199450651573353  0.4313586501548206  0.1602511346000289
  0.0968263048366321  0.8330650915629265  0.2851600248350216
  0.3925729601142239  0.0442814321829321  0.2714573167091854
  0.3956522156147306  0.6986463130254897  0.1293183068277916
  0.0988667561563714  0.3329502334009760  0.7538347765660977
  0.1016520624270680  0.1969605267764142  0.4033425795947644
  0.7382700023843335  0.2941846611862018  0.6814537593822750
  0.3938513659191046  0.5465094909590951  0.7639054041698077
  0.2505741881606781  0.5425168567492858  0.4120935179945349
  0.3965598757976941  0.1668451121643456  0.6206440770949869
  0.6048629755124731  0.4366897416186977  0.3804056350102647
 
  0.00000000E+00  0.00000000E+00  0.00000000E+00
  0.00000000E+00  0.00000000E+00  0.00000000E+00
  0.00000000E+00  0.00000000E+00  0.00000000E+00
  0.00000000E+00  0.00000000E+00  0.00000000E+00
  0.00000000E+00  0.00000000E+00  0.00000000E+00
  0.00000000E+00  0.00000000E+00  0.00000000E+00
  0.00000000E+00  0.00000000E+00  0.00000000E+00
  0.00000000E+00  0.00000000E+00  0.00000000E+00
  0.00000000E+00  0.00000000E+00  0.00000000E+00
  0.00000000E+00  0.00000000E+00  0.00000000E+00
  0.00000000E+00  0.00000000E+00  0.00000000E+00
  0.00000000E+00  0.00000000E+00  0.00000000E+00
  0.00000000E+00  0.00000000E+00  0.00000000E+00
  0.00000000E+00  0.00000000E+00  0.00000000E+00
  0.00000000E+00  0.00000000E+00  0.00000000E+00
  0.00000000E+00  0.00000000E+00  0.00000000E+00
  0.00000000E+00  0.00000000E+00  0.00000000E+00
  0.00000000E+00  0.00000000E+00  0.00000000E+00
  0.00000000E+00  0.00000000E+00  0.00000000E+00
  0.00000000E+00  0.00000000E+00  0.00000000E+00
  0.00000000E+00  0.00000000E+00  0.00000000E+00
  0.00000000E+00  0.00000000E+00  0.00000000E+00
  0.00000000E+00  0.00000000E+00  0.00000000E+00
  0.00000000E+00  0.00000000E+00  0.00000000E+00
  0.00000000E+00  0.00000000E+00  0.00000000E+00
  0.00000000E+00  0.00000000E+00  0.00000000E+00
  0.00000000E+00  0.00000000E+00  0.00000000E+00
  0.00000000E+00  0.00000000E+00  0.00000000E+00
  0.00000000E+00  0.00000000E+00  0.00000000E+00
  0.00000000E+00  0.00000000E+00  0.00000000E+00
  0.00000000E+00  0.00000000E+00  0.00000000E+00
  0.00000000E+00  0.00000000E+00  0.00000000E+00
  0.00000000E+00  0.00000000E+00  0.00000000E+00
  0.00000000E+00  0.00000000E+00  0.00000000E+00
  0.00000000E+00  0.00000000E+00  0.00000000E+00
  0.00000000E+00  0.00000000E+00  0.00000000E+00
  0.00000000E+00  0.00000000E+00  0.00000000E+00
  0.00000000E+00  0.00000000E+00  0.00000000E+00
  0.00000000E+00  0.00000000E+00  0.00000000E+00
  0.00000000E+00  0.00000000E+00  0.00000000E+00
