Amorphous Sb                            
   1.00000000000000     
    20.5671579077798015    0.0000000000000000    0.0000000000000000
     0.0000000000000000   20.5671579077798015    0.0000000000000000
     0.0000000000000000    0.0000000000000000   20.5671579077798015
   Y    Sb
    45   255
Direct
  0.6157938635295821  0.9452410447544537  0.4502726852853485
  0.0077958558556475  0.4552636180606697  0.0002525393370973
  0.3622937496779386  0.7444847399311811  0.5338334934692313
  0.6100628738006861  0.0373236600391280  0.6106227305158427
  0.5240969567390223  0.4440547954749832  0.0043815160075056
  0.3126254145873020  0.4597145812155077  0.0443578703322558
  0.2808718105769330  0.0617327864299853  0.7387437409477329
  0.0684232435814565  0.2767556495835493  0.0589838103231273
  0.1515095780011677  0.6731033162216846  0.9864730869527847
  0.5468437223526763  0.7574635249525770  0.2030463025848377
  0.6446179285882323  0.2390381384927025  0.5285669508441231
  0.8382030207910844  0.8214676832822647  0.2942577555158081
  0.8063433578010191  0.0725921770621767  0.3882358643106798
  0.7580084892195131  0.5133577985295830  0.4357269927046090
  0.2606049872020009  0.7273468980746784  0.3080674424763146
  0.6277766761311625  0.7575099417479265  0.8992727568999825
  0.8160975417480429  0.2465042304395126  0.3217332685098242
  0.3761382953876193  0.3511219357707844  0.7751709546657821
  0.0555488934153630  0.9515094745339852  0.4310959145887523
  0.9050025233322998  0.0233187869789404  0.9677714127276502
  0.7756030339631508  0.8090048577321483  0.6717099184373723
  0.9908753864816475  0.2302915512849353  0.4202578399172836
  0.0710707172894800  0.1253896401796766  0.5520903732794480
  0.8714894755250882  0.7558651244780634  0.8351828249918753
  0.5306750858303815  0.4352181796440036  0.7035550925198280
  0.1837158188099792  0.3814057007926124  0.5611175437209894
  0.0182283688399210  0.6087840966497282  0.4663244050598934
  0.0966378619629964  0.0676838851702541  0.9690574564002929
  0.1287832003731140  0.7191831943294815  0.6941948745423545
  0.0832054669917710  0.8886376333664359  0.1758267476214499
  0.0992216830795414  0.4421464120503629  0.8092413961415446
  0.5706163075266275  0.1274436237050764  0.7961814559830600
  0.2658367247861690  0.2034957375396971  0.8803260840483418
  0.4434308175631116  0.9594058666326220  0.7120551875688648
  0.7854317922280885  0.1305017256221390  0.5934715564999777
  0.6132637813256210  0.2524325658422342  0.2370171067180777
  0.4092004186606388  0.0203052111905180  0.2396055181549599
  0.4157225925974046  0.8378754769544514  0.0650577644494561
  0.3698222015439825  0.3820209929011611  0.4885154525690893
  0.0675434509893833  0.1508955125649507  0.2581444588946411
  0.3633546417488844  0.9473898125916591  0.4704819185223457
  0.5990554833170805  0.7171863625156334  0.7003621427512385
  0.0105985432292002  0.1788507713522023  0.7167850900716601
  0.9876826316092888  0.9780948260067888  0.7184602242046267
  0.1378857947903782  0.4271852623474572  0.2786793942010988
  0.4836588073292560  0.0995696174308449  0.6658932910727700
  0.5608206192036462  0.1592722234973039  0.3646994068076310
  0.0606847860177524  0.3054994989965820  0.2112034401833256
  0.3584591408293321  0.1036068132286445  0.4793526557948553
  0.9325801824871718  0.3467315255104992  0.2662097655983260
  0.2281733667340688  0.4499375892147768  0.6994313145142002
  0.2924725323396729  0.8252689676413709  0.4174927631561971
  0.8125347808891377  0.0379234026439050  0.2113868981894598
  0.4124287226529262  0.5406825727201152  0.9414629115613522
  0.7396031219292070  0.6170159466311063  0.1958261772798267
  0.6061292095602582  0.8655091292461705  0.3178787555555971
  0.0536261737597812  0.9574417825531896  0.8612660292640655
  0.6016325986222952  0.5161699909105195  0.8181313399334442
  0.4805839067030746  0.7994305525754513  0.8844694488083391
  0.2939390209475405  0.2819162108521525  0.3710517798819453
  0.2396641092873395  0.6182739754848825  0.4198314271371615
  0.9438709214458783  0.0692876084548431  0.4674204122190346
  0.9286281905378715  0.9162290958090438  0.2012969713824475
  0.8857565644235379  0.0391037226870168  0.8134167936885675
  0.7497586406777259  0.5211719858737069  0.0884606128119145
  0.5131312329129116  0.9128286428126060  0.1995350877501494
  0.7306318062168273  0.2430647436558075  0.7805427000745979
  0.8081824126251362  0.9050794113147020  0.0297563678674848
  0.2651738070660556  0.7536282361867706  0.7622715623959380
  0.9312101019693060  0.8923423470518301  0.8897585054062560
  0.2735371550547541  0.6212920099569317  0.5684652042715896
  0.3686023414199653  0.9598326196551454  0.9699577257319021
  0.6418003712280509  0.0445323629162147  0.3354556556850028
  0.0927151064921077  0.8459141774394325  0.3259465090940878
  0.7546127414561994  0.2800523136776505  0.6405771966424325
  0.9432538461672948  0.3628317958129017  0.1143077487368984
  0.0729004919997180  0.7718485293624511  0.0759067666839073
  0.2153311547899222  0.3328338899790424  0.8039093720426393
  0.3140659777168509  0.9008027653752748  0.7668041406634529
  0.0908516113484907  0.4698306140007418  0.1355616346459101
  0.5089547665506515  0.7286265551476632  0.5699960371444703
  0.6365766909209611  0.5597093705943692  0.6638680845204021
  0.1293283963973408  0.2573598527033027  0.4894853862596236
  0.0338806404022165  0.9951660875784185  0.2800371108993644
  0.0340076535709812  0.7968227124465130  0.5912855577046869
  0.2683188049005452  0.3113249914188643  0.6688243729592429
  0.3177178723929615  0.4529910811888769  0.8753944522546036
  0.5598791304956379  0.3481204200028643  0.1220916400833900
  0.0205527436331252  0.9754352782968922  0.0647182500179539
  0.6731420696815675  0.4062925680932210  0.6507369286961691
  0.6085546399083626  0.5003717636900049  0.1189545773629277
  0.3854883604323547  0.8713870273241113  0.6084111623635238
  0.4061553686506656  0.2618607901208563  0.8929139414650109
  0.0324536475898043  0.5676180580681489  0.8617406831562775
  0.6655961666742840  0.4041250765071922  0.2370609975312945
  0.8533271423958908  0.8625709019131591  0.5513100497428454
  0.2158204921836671  0.9190475385095098  0.6591227224605447
  0.8392525091248402  0.3618226207821209  0.0140193903007599
  0.7653715851220539  0.4361358693244171  0.8811607221441378
  0.3268243128859680  0.0029296902482585  0.6065280258397365
  0.7522718359200979  0.9269625411594262  0.3761093573114920
  0.6117511015399515  0.6448235690378823  0.1243777489106535
  0.4524017896848349  0.6470744195954410  0.1423898335511424
  0.8279585125801887  0.9563054487773783  0.6838763971185173
  0.2460170946830900  0.3312047989103633  0.2300534241421488
  0.6902338581784804  0.9025175289605798  0.5849530718139420
  0.9696298661379643  0.1559201702620143  0.0243886289722894
  0.8069765872534234  0.5560372959695243  0.5813860649559714
  0.3835899673668095  0.7144198816261991  0.6930157308393419
  0.4404107212166650  0.5986742889284429  0.5458193723266618
  0.0518276188086375  0.2980415115269395  0.8044024201969293
  0.9323698778928886  0.5117740088275440  0.1249944220762274
  0.2219751406791346  0.2244411975042695  0.0463631816193200
  0.0151435700379849  0.6329327545149397  0.2916571231952645
  0.9170874799729702  0.2289742448785503  0.8466384762138475
  0.4046513216189211  0.3801814458324628  0.3415310616511960
  0.3977383913588852  0.1875510200970254  0.5908363319851730
  0.4851985905464744  0.9873185872064738  0.3749086448931891
  0.3389860671652158  0.8076862828052853  0.9330524515029950
  0.4757686085698509  0.4386664301596994  0.8564292505788274
  0.2231225667256567  0.1442175019248424  0.6236801613419516
  0.1716001808444574  0.5135016595539810  0.9889280995419369
  0.1947931803744041  0.8200680386296852  0.9827649762916266
  0.1351537383827832  0.8340452048996312  0.8449698289028191
  0.1270073441371906  0.9849903995882769  0.5620199869927589
  0.7578899058877653  0.2999506925736242  0.1944061091674243
  0.2722624229992903  0.3388786938295780  0.9591160798025413
  0.8063141225750101  0.4658738260149491  0.6918959335853572
  0.7603958192908706  0.3853984509507313  0.3532589346880570
  0.5168910143676442  0.9515989548136758  0.0525162124420646
  0.6999210948817733  0.3887488065087794  0.5111046153521883
  0.9542048926335198  0.5034953447300197  0.7266367055485361
  0.5176580336265602  0.2769816244198609  0.7632972122744093
  0.1718389546620003  0.5990273097654892  0.2686387693780716
  0.9557888317090644  0.8362907169204945  0.3971014801684305
  0.2290987649238403  0.7886607541904098  0.5962625305761335
  0.6547269859255280  0.8433476991943252  0.7706848337221857
  0.7149302255286827  0.0574597733570315  0.7249113558709865
  0.2246211321929721  0.1935422331749521  0.1969787548869348
  0.5449892303758048  0.8846522621508583  0.6185296625163232
  0.2798151139807956  0.7637137443663562  0.0878614222410974
  0.3670113795552226  0.1740454898550752  0.2403848053234725
  0.1587242967499733  0.0269533355710649  0.2054748243617368
  0.1261937494868448  0.5296295548162959  0.3973384657344283
  0.9298193208953691  0.7252964853444155  0.5176296109243665
  0.3469535324883282  0.1987308881695000  0.7467339663888737
  0.6451291151702492  0.9076535994315336  0.9301416352617906
  0.1249311071351755  0.6779280530456475  0.8387640181606457
  0.9247047504583819  0.1417695116331217  0.3192017821790571
  0.3856763621588613  0.1047135929638472  0.9610382268195536
  0.5564469203381535  0.0165927620168915  0.9194836240611366
  0.9877076062428429  0.4953255000176782  0.2550008145366647
  0.3694818465878100  0.5070229669635893  0.2767975018825055
  0.8201971278204212  0.8157871331210771  0.1437886992339372
  0.1176880836245289  0.7180554783036044  0.3959565815652013
  0.0075611488822602  0.6575619777986290  0.1445374278943845
  0.5710513623189186  0.6783275380783635  0.4425386319194899
  0.7262232629237388  0.7014711718887554  0.0417484989278805
  0.8093833882875003  0.4384796788051730  0.1841045626864783
  0.3067648008802806  0.9179335279736165  0.1343443113739156
  0.9920036388616893  0.6357390147016346  0.6292291328756932
  0.2830285893638163  0.6809163261996005  0.8911419113728769
  0.4972560933091259  0.5906206695865492  0.6777741853694295
  0.2537597441191011  0.6077546918466936  0.7151236663648817
  0.6359999679438246  0.3506759921800437  0.8062425511983662
  0.1239619093259634  0.0619358766728055  0.6927446388502361
  0.8490327995777918  0.3767682717064673  0.5796793183040023
  0.8931363313704352  0.6733115835614143  0.9652760855956473
  0.1335038479741684  0.6528446384684514  0.5566936144829526
  0.2706653317409931  0.0137064034915966  0.3082493872535821
  0.2890712608037944  0.0608533087380536  0.1493783734693608
  0.7995741333848372  0.0707903552671567  0.0718161359040153
  0.1257969835338670  0.3771502715744575  0.9474871073910691
  0.1757774186506538  0.7554432251680794  0.1836342050596187
  0.8932569213062322  0.5968988569863640  0.8196851282176922
  0.6910434375752601  0.1163587941942978  0.8988056126417590
  0.9521134461075675  0.4169475269031580  0.8553289756441558
  0.3200787582478313  0.6352468094384136  0.1984798091198172
  0.7256327634060185  0.1379421863485106  0.2657569752800697
  0.5541877544538707  0.7849586848912438  0.0331235833508003
  0.2516608952130355  0.9373608040801003  0.8858117514771209
  0.6898740208859735  0.7561794188271875  0.2742003188527065
  0.5581490686986044  0.3636574935027923  0.3526587355045478
  0.7882710692145167  0.8827081947436852  0.8052388722513300
  0.4992988859156924  0.2996033890500058  0.4672171613214502
  0.9583248380862628  0.0863497383982619  0.1498881803866396
  0.8627466148694296  0.6261622063057786  0.4258810777512565
  0.5103083992441171  0.4836614621610025  0.2309647669376460
  0.1706254125985041  0.9374503117860655  0.0596977582024252
  0.4141884309709880  0.3426169044659986  0.0055268532706521
  0.9887227144879205  0.9307943955066520  0.5677674059955251
  0.4127048913595317  0.3540655485819357  0.6295799031268956
  0.0109823638274875  0.1005924927465855  0.8480185172829167
  0.9222664533814182  0.8385240741018691  0.7133978733385007
  0.7707580753138643  0.7984183184412359  0.9413648631172080
  0.8252428361722011  0.2146665345130288  0.0618322207731055
  0.4787997340267438  0.5782140698034084  0.3984604236024865
  0.9450968104287014  0.5035076367010163  0.5690073427673070
  0.6119762808063314  0.0167055797941913  0.1977072565779636
  0.5222075220946891  0.1944434868583684  0.0816882508403722
  0.8268765907708797  0.1527718519489767  0.9329989101358080
  0.7104725697991938  0.6270706779298862  0.9205760136597405
  0.3760470590539242  0.5010400268783997  0.7157473829040555
  0.9529136365803907  0.8550154933433376  0.0347865076278850
  0.4925773260977948  0.4581476449643418  0.5483631798631805
  0.1018893273956820  0.5092034568767829  0.5616409744017901
  0.3850372914330862  0.7768963368457733  0.2084333766041979
  0.2248203734171668  0.8783294068819743  0.2459299533109487
  0.6671495089862205  0.8101180889209871  0.1264293035950956
  0.7889374202367634  0.2069376127158407  0.4639721445281353
  0.4899546533793711  0.7744711262095549  0.3465353153639654
  0.7337567686533646  0.7069340566959568  0.7795783514026624
  0.0282239153508641  0.3564709357363469  0.5146218718940645
  0.3284749969844611  0.5066992646405453  0.4139737381365691
  0.7292491791277840  0.9219304905287089  0.2307035160771207
  0.0264674688045261  0.3843068640644844  0.3766992740375841
  0.1949390552076125  0.0659074266994892  0.8579771493819521
  0.4008194569391179  0.6188214073381673  0.8158877228214010
  0.9225703105616674  0.4926075594686026  0.4250150458869584
  0.9816245999824389  0.7902400459699095  0.2449654901457095
  0.5476440828472420  0.6137937506556739  0.2746683213143584
  0.1343326930252857  0.8217514148649201  0.4924168007263248
  0.6773205178590800  0.3488059297917090  0.0361859190587097
  0.2899201805021434  0.6206744747497908  0.0463201590485909
  0.4818754863991970  0.8060807359903563  0.7406467143964051
  0.9044832176018076  0.2159594485835825  0.1958715382088556
  0.2139324144721044  0.1084746892527590  0.4797752696643869
  0.6697711193991580  0.2684848329141474  0.3810551458606852
  0.7917168824981786  0.9925226839438182  0.5233026012301067
  0.8523306942681117  0.6798717908524097  0.6322585957116900
  0.6837098646483781  0.2218867569298197  0.0961066252623084
  0.9276352557585312  0.0783985561704981  0.6184475194561969
  0.1106439986738863  0.5617586334131417  0.6997305299891963
  0.6683348030696052  0.9405447119998556  0.0659316581869049
  0.4570569806027933  0.9360982140209444  0.8617787003097064
  0.4479744285129357  0.0700433031237395  0.0929438337757063
  0.4193633654256814  0.6900319406686393  0.0119563606882878
  0.3828900788208074  0.6896045557718296  0.3927290266096932
  0.2119857603906823  0.1458792420606301  0.3345457713316904
  0.3929970903257640  0.8797621039143309  0.3225058778458632
  0.5834920778893462  0.3215689025737589  0.9349648839474298
  0.9337419374428606  0.2104947173174381  0.5657150363124188
  0.4912284600946180  0.0078190455158378  0.5224453892134164
  0.0891193694940497  0.8684662989014100  0.7116263434005532
  0.6726868581764052  0.5485790460871982  0.3042872279525355
  0.2089347610152288  0.5430996090836686  0.8526845400494167
  0.0633339336934498  0.3906708523696523  0.6700651350017992
  0.7997418334072179  0.7947169083324681  0.4373664947768177
  0.6961694785356300  0.7167808040272448  0.5846128844323246
  0.2137592218611246  0.9655597695700138  0.4304574018223519
  0.2541589929760093  0.4914290775562407  0.1966038743151444
  0.8729773305609854  0.6639910474720239  0.2890842325136944
  0.8374537176534744  0.5211619426024825  0.2988629077182878
  0.0752654610022674  0.0992854872538018  0.4024517263805052
  0.1402745723760432  0.6042369302303428  0.1262865122656862
  0.1233190980879968  0.2239403003015497  0.9262067713879318
  0.1603748595734587  0.1922233444289958  0.7697949182470012
  0.1210448866203819  0.2518652486994029  0.6356586310569483
  0.5204495739046422  0.1498979429292149  0.5184813673421829
  0.8724463657647661  0.3247802889227387  0.4446213858477250
  0.1193722096544647  0.2765435686589583  0.3396962884144870
  0.6554399513294129  0.5934304215043227  0.5244526426388632
  0.2483582523932952  0.0864025923960128  0.0102269602599776
  0.9576291662665213  0.3094323564717669  0.9592152278292119
  0.4883737181643326  0.8480910785270765  0.4803357874143117
  0.6765655739250889  0.0901706463814520  0.4869449240346881
  0.9397806087628240  0.3154771543046166  0.6731817223088825
  0.2162148001599107  0.4157668566438417  0.4128884334078435
  0.4138456374616055  0.2012347929527394  0.3850674159464944
  0.5418604403991267  0.6442678238648298  0.8297661102822289
  0.3776205731469418  0.2299093756440769  0.0886020555797487
  0.4591144807989664  0.2872293678670630  0.2481273409315108
  0.4211863843511523  0.0894521178911134  0.8044724206929530
  0.8715079889738817  0.5111659265328043  0.9408816524738342
  0.8421443670142921  0.3423531473162811  0.7895355587203596
  0.8512327640595814  0.1526322976082213  0.7323048050950334
  0.7591227472448452  0.9883340525106945  0.9003065389404554
  0.6640439347313318  0.8028662419717563  0.4766108907328004
  0.5244432431431676  0.1901572591268774  0.9312165498364422
  0.4400251661350296  0.5085712263993898  0.1108207346641166
  0.9084065780456001  0.9601005953631656  0.3462427697412025
  0.6549130097702331  0.4977037804060132  0.9536676144506373
  0.0139817605020554  0.6066395565569991  0.9983970627183112
  0.3657404566725262  0.3551162574037079  0.1581956533938040
  0.5573311890754127  0.6320222111538314  0.9782230206086950
  0.0207687671772590  0.7652621965528326  0.9087010750267979
  0.3129608203160075  0.4856079875928714  0.5805717642709070
  0.9966883779530917  0.7212682285400902  0.7645460364119785
  0.1959497963174002  0.3702885612331173  0.0981575707275297
  0.2820291234288419  0.2639527904499843  0.5194540423408540
  0.7489616733996911  0.5546737421591459  0.7909440793191820
  0.5490879970914264  0.3047289351792060  0.6259169555394948
  0.6598816750546135  0.0882908192492238  0.0361541685642948
  0.5937135616882259  0.9768806108629633  0.7571465279742711
  0.6390719737184867  0.1776089780674823  0.6722185345463672
  0.5200089736398112  0.1265665499900663  0.2231408489261568
  0.5972021698667547  0.4703300479381411  0.4465748916170682
  0.0950039191473167  0.1295863409231330  0.1079624816297056
  0.7043083371769328  0.6632268088735174  0.3836200523141073
  0.8575259513334217  0.6826702286477229  0.1023783669994955
 
  0.00000000E+00  0.00000000E+00  0.00000000E+00
  0.00000000E+00  0.00000000E+00  0.00000000E+00
  0.00000000E+00  0.00000000E+00  0.00000000E+00
  0.00000000E+00  0.00000000E+00  0.00000000E+00
  0.00000000E+00  0.00000000E+00  0.00000000E+00
  0.00000000E+00  0.00000000E+00  0.00000000E+00
  0.00000000E+00  0.00000000E+00  0.00000000E+00
  0.00000000E+00  0.00000000E+00  0.00000000E+00
  0.00000000E+00  0.00000000E+00  0.00000000E+00
  0.00000000E+00  0.00000000E+00  0.00000000E+00
  0.00000000E+00  0.00000000E+00  0.00000000E+00
  0.00000000E+00  0.00000000E+00  0.00000000E+00
  0.00000000E+00  0.00000000E+00  0.00000000E+00
  0.00000000E+00  0.00000000E+00  0.00000000E+00
  0.00000000E+00  0.00000000E+00  0.00000000E+00
  0.00000000E+00  0.00000000E+00  0.00000000E+00
  0.00000000E+00  0.00000000E+00  0.00000000E+00
  0.00000000E+00  0.00000000E+00  0.00000000E+00
  0.00000000E+00  0.00000000E+00  0.00000000E+00
  0.00000000E+00  0.00000000E+00  0.00000000E+00
  0.00000000E+00  0.00000000E+00  0.00000000E+00
  0.00000000E+00  0.00000000E+00  0.00000000E+00
  0.00000000E+00  0.00000000E+00  0.00000000E+00
  0.00000000E+00  0.00000000E+00  0.00000000E+00
  0.00000000E+00  0.00000000E+00  0.00000000E+00
  0.00000000E+00  0.00000000E+00  0.00000000E+00
  0.00000000E+00  0.00000000E+00  0.00000000E+00
  0.00000000E+00  0.00000000E+00  0.00000000E+00
  0.00000000E+00  0.00000000E+00  0.00000000E+00
  0.00000000E+00  0.00000000E+00  0.00000000E+00
  0.00000000E+00  0.00000000E+00  0.00000000E+00
  0.00000000E+00  0.00000000E+00  0.00000000E+00
  0.00000000E+00  0.00000000E+00  0.00000000E+00
  0.00000000E+00  0.00000000E+00  0.00000000E+00
  0.00000000E+00  0.00000000E+00  0.00000000E+00
  0.00000000E+00  0.00000000E+00  0.00000000E+00
  0.00000000E+00  0.00000000E+00  0.00000000E+00
  0.00000000E+00  0.00000000E+00  0.00000000E+00
  0.00000000E+00  0.00000000E+00  0.00000000E+00
  0.00000000E+00  0.00000000E+00  0.00000000E+00
  0.00000000E+00  0.00000000E+00  0.00000000E+00
  0.00000000E+00  0.00000000E+00  0.00000000E+00
  0.00000000E+00  0.00000000E+00  0.00000000E+00
  0.00000000E+00  0.00000000E+00  0.00000000E+00
  0.00000000E+00  0.00000000E+00  0.00000000E+00
  0.00000000E+00  0.00000000E+00  0.00000000E+00
  0.00000000E+00  0.00000000E+00  0.00000000E+00
  0.00000000E+00  0.00000000E+00  0.00000000E+00
  0.00000000E+00  0.00000000E+00  0.00000000E+00
  0.00000000E+00  0.00000000E+00  0.00000000E+00
  0.00000000E+00  0.00000000E+00  0.00000000E+00
  0.00000000E+00  0.00000000E+00  0.00000000E+00
  0.00000000E+00  0.00000000E+00  0.00000000E+00
  0.00000000E+00  0.00000000E+00  0.00000000E+00
  0.00000000E+00  0.00000000E+00  0.00000000E+00
  0.00000000E+00  0.00000000E+00  0.00000000E+00
  0.00000000E+00  0.00000000E+00  0.00000000E+00
  0.00000000E+00  0.00000000E+00  0.00000000E+00
  0.00000000E+00  0.00000000E+00  0.00000000E+00
  0.00000000E+00  0.00000000E+00  0.00000000E+00
  0.00000000E+00  0.00000000E+00  0.00000000E+00
  0.00000000E+00  0.00000000E+00  0.00000000E+00
  0.00000000E+00  0.00000000E+00  0.00000000E+00
  0.00000000E+00  0.00000000E+00  0.00000000E+00
  0.00000000E+00  0.00000000E+00  0.00000000E+00
  0.00000000E+00  0.00000000E+00  0.00000000E+00
  0.00000000E+00  0.00000000E+00  0.00000000E+00
  0.00000000E+00  0.00000000E+00  0.00000000E+00
  0.00000000E+00  0.00000000E+00  0.00000000E+00
  0.00000000E+00  0.00000000E+00  0.00000000E+00
  0.00000000E+00  0.00000000E+00  0.00000000E+00
  0.00000000E+00  0.00000000E+00  0.00000000E+00
  0.00000000E+00  0.00000000E+00  0.00000000E+00
  0.00000000E+00  0.00000000E+00  0.00000000E+00
  0.00000000E+00  0.00000000E+00  0.00000000E+00
  0.00000000E+00  0.00000000E+00  0.00000000E+00
  0.00000000E+00  0.00000000E+00  0.00000000E+00
  0.00000000E+00  0.00000000E+00  0.00000000E+00
  0.00000000E+00  0.00000000E+00  0.00000000E+00
  0.00000000E+00  0.00000000E+00  0.00000000E+00
  0.00000000E+00  0.00000000E+00  0.00000000E+00
  0.00000000E+00  0.00000000E+00  0.00000000E+00
  0.00000000E+00  0.00000000E+00  0.00000000E+00
  0.00000000E+00  0.00000000E+00  0.00000000E+00
  0.00000000E+00  0.00000000E+00  0.00000000E+00
  0.00000000E+00  0.00000000E+00  0.00000000E+00
  0.00000000E+00  0.00000000E+00  0.00000000E+00
  0.00000000E+00  0.00000000E+00  0.00000000E+00
  0.00000000E+00  0.00000000E+00  0.00000000E+00
  0.00000000E+00  0.00000000E+00  0.00000000E+00
  0.00000000E+00  0.00000000E+00  0.00000000E+00
  0.00000000E+00  0.00000000E+00  0.00000000E+00
  0.00000000E+00  0.00000000E+00  0.00000000E+00
  0.00000000E+00  0.00000000E+00  0.00000000E+00
  0.00000000E+00  0.00000000E+00  0.00000000E+00
  0.00000000E+00  0.00000000E+00  0.00000000E+00
  0.00000000E+00  0.00000000E+00  0.00000000E+00
  0.00000000E+00  0.00000000E+00  0.00000000E+00
  0.00000000E+00  0.00000000E+00  0.00000000E+00
  0.00000000E+00  0.00000000E+00  0.00000000E+00
  0.00000000E+00  0.00000000E+00  0.00000000E+00
  0.00000000E+00  0.00000000E+00  0.00000000E+00
  0.00000000E+00  0.00000000E+00  0.00000000E+00
  0.00000000E+00  0.00000000E+00  0.00000000E+00
  0.00000000E+00  0.00000000E+00  0.00000000E+00
  0.00000000E+00  0.00000000E+00  0.00000000E+00
  0.00000000E+00  0.00000000E+00  0.00000000E+00
  0.00000000E+00  0.00000000E+00  0.00000000E+00
  0.00000000E+00  0.00000000E+00  0.00000000E+00
  0.00000000E+00  0.00000000E+00  0.00000000E+00
  0.00000000E+00  0.00000000E+00  0.00000000E+00
  0.00000000E+00  0.00000000E+00  0.00000000E+00
  0.00000000E+00  0.00000000E+00  0.00000000E+00
  0.00000000E+00  0.00000000E+00  0.00000000E+00
  0.00000000E+00  0.00000000E+00  0.00000000E+00
  0.00000000E+00  0.00000000E+00  0.00000000E+00
  0.00000000E+00  0.00000000E+00  0.00000000E+00
  0.00000000E+00  0.00000000E+00  0.00000000E+00
  0.00000000E+00  0.00000000E+00  0.00000000E+00
  0.00000000E+00  0.00000000E+00  0.00000000E+00
  0.00000000E+00  0.00000000E+00  0.00000000E+00
  0.00000000E+00  0.00000000E+00  0.00000000E+00
  0.00000000E+00  0.00000000E+00  0.00000000E+00
  0.00000000E+00  0.00000000E+00  0.00000000E+00
  0.00000000E+00  0.00000000E+00  0.00000000E+00
  0.00000000E+00  0.00000000E+00  0.00000000E+00
  0.00000000E+00  0.00000000E+00  0.00000000E+00
  0.00000000E+00  0.00000000E+00  0.00000000E+00
  0.00000000E+00  0.00000000E+00  0.00000000E+00
  0.00000000E+00  0.00000000E+00  0.00000000E+00
  0.00000000E+00  0.00000000E+00  0.00000000E+00
  0.00000000E+00  0.00000000E+00  0.00000000E+00
  0.00000000E+00  0.00000000E+00  0.00000000E+00
  0.00000000E+00  0.00000000E+00  0.00000000E+00
  0.00000000E+00  0.00000000E+00  0.00000000E+00
  0.00000000E+00  0.00000000E+00  0.00000000E+00
  0.00000000E+00  0.00000000E+00  0.00000000E+00
  0.00000000E+00  0.00000000E+00  0.00000000E+00
  0.00000000E+00  0.00000000E+00  0.00000000E+00
  0.00000000E+00  0.00000000E+00  0.00000000E+00
  0.00000000E+00  0.00000000E+00  0.00000000E+00
  0.00000000E+00  0.00000000E+00  0.00000000E+00
  0.00000000E+00  0.00000000E+00  0.00000000E+00
  0.00000000E+00  0.00000000E+00  0.00000000E+00
  0.00000000E+00  0.00000000E+00  0.00000000E+00
  0.00000000E+00  0.00000000E+00  0.00000000E+00
  0.00000000E+00  0.00000000E+00  0.00000000E+00
  0.00000000E+00  0.00000000E+00  0.00000000E+00
  0.00000000E+00  0.00000000E+00  0.00000000E+00
  0.00000000E+00  0.00000000E+00  0.00000000E+00
  0.00000000E+00  0.00000000E+00  0.00000000E+00
  0.00000000E+00  0.00000000E+00  0.00000000E+00
  0.00000000E+00  0.00000000E+00  0.00000000E+00
  0.00000000E+00  0.00000000E+00  0.00000000E+00
  0.00000000E+00  0.00000000E+00  0.00000000E+00
  0.00000000E+00  0.00000000E+00  0.00000000E+00
  0.00000000E+00  0.00000000E+00  0.00000000E+00
  0.00000000E+00  0.00000000E+00  0.00000000E+00
  0.00000000E+00  0.00000000E+00  0.00000000E+00
  0.00000000E+00  0.00000000E+00  0.00000000E+00
  0.00000000E+00  0.00000000E+00  0.00000000E+00
  0.00000000E+00  0.00000000E+00  0.00000000E+00
  0.00000000E+00  0.00000000E+00  0.00000000E+00
  0.00000000E+00  0.00000000E+00  0.00000000E+00
  0.00000000E+00  0.00000000E+00  0.00000000E+00
  0.00000000E+00  0.00000000E+00  0.00000000E+00
  0.00000000E+00  0.00000000E+00  0.00000000E+00
  0.00000000E+00  0.00000000E+00  0.00000000E+00
  0.00000000E+00  0.00000000E+00  0.00000000E+00
  0.00000000E+00  0.00000000E+00  0.00000000E+00
  0.00000000E+00  0.00000000E+00  0.00000000E+00
  0.00000000E+00  0.00000000E+00  0.00000000E+00
  0.00000000E+00  0.00000000E+00  0.00000000E+00
  0.00000000E+00  0.00000000E+00  0.00000000E+00
  0.00000000E+00  0.00000000E+00  0.00000000E+00
  0.00000000E+00  0.00000000E+00  0.00000000E+00
  0.00000000E+00  0.00000000E+00  0.00000000E+00
  0.00000000E+00  0.00000000E+00  0.00000000E+00
  0.00000000E+00  0.00000000E+00  0.00000000E+00
  0.00000000E+00  0.00000000E+00  0.00000000E+00
  0.00000000E+00  0.00000000E+00  0.00000000E+00
  0.00000000E+00  0.00000000E+00  0.00000000E+00
  0.00000000E+00  0.00000000E+00  0.00000000E+00
  0.00000000E+00  0.00000000E+00  0.00000000E+00
  0.00000000E+00  0.00000000E+00  0.00000000E+00
  0.00000000E+00  0.00000000E+00  0.00000000E+00
  0.00000000E+00  0.00000000E+00  0.00000000E+00
  0.00000000E+00  0.00000000E+00  0.00000000E+00
  0.00000000E+00  0.00000000E+00  0.00000000E+00
  0.00000000E+00  0.00000000E+00  0.00000000E+00
  0.00000000E+00  0.00000000E+00  0.00000000E+00
  0.00000000E+00  0.00000000E+00  0.00000000E+00
  0.00000000E+00  0.00000000E+00  0.00000000E+00
  0.00000000E+00  0.00000000E+00  0.00000000E+00
  0.00000000E+00  0.00000000E+00  0.00000000E+00
  0.00000000E+00  0.00000000E+00  0.00000000E+00
  0.00000000E+00  0.00000000E+00  0.00000000E+00
  0.00000000E+00  0.00000000E+00  0.00000000E+00
  0.00000000E+00  0.00000000E+00  0.00000000E+00
  0.00000000E+00  0.00000000E+00  0.00000000E+00
  0.00000000E+00  0.00000000E+00  0.00000000E+00
  0.00000000E+00  0.00000000E+00  0.00000000E+00
  0.00000000E+00  0.00000000E+00  0.00000000E+00
  0.00000000E+00  0.00000000E+00  0.00000000E+00
  0.00000000E+00  0.00000000E+00  0.00000000E+00
  0.00000000E+00  0.00000000E+00  0.00000000E+00
  0.00000000E+00  0.00000000E+00  0.00000000E+00
  0.00000000E+00  0.00000000E+00  0.00000000E+00
  0.00000000E+00  0.00000000E+00  0.00000000E+00
  0.00000000E+00  0.00000000E+00  0.00000000E+00
  0.00000000E+00  0.00000000E+00  0.00000000E+00
  0.00000000E+00  0.00000000E+00  0.00000000E+00
  0.00000000E+00  0.00000000E+00  0.00000000E+00
  0.00000000E+00  0.00000000E+00  0.00000000E+00
  0.00000000E+00  0.00000000E+00  0.00000000E+00
  0.00000000E+00  0.00000000E+00  0.00000000E+00
  0.00000000E+00  0.00000000E+00  0.00000000E+00
  0.00000000E+00  0.00000000E+00  0.00000000E+00
  0.00000000E+00  0.00000000E+00  0.00000000E+00
  0.00000000E+00  0.00000000E+00  0.00000000E+00
  0.00000000E+00  0.00000000E+00  0.00000000E+00
  0.00000000E+00  0.00000000E+00  0.00000000E+00
  0.00000000E+00  0.00000000E+00  0.00000000E+00
  0.00000000E+00  0.00000000E+00  0.00000000E+00
  0.00000000E+00  0.00000000E+00  0.00000000E+00
  0.00000000E+00  0.00000000E+00  0.00000000E+00
  0.00000000E+00  0.00000000E+00  0.00000000E+00
  0.00000000E+00  0.00000000E+00  0.00000000E+00
  0.00000000E+00  0.00000000E+00  0.00000000E+00
  0.00000000E+00  0.00000000E+00  0.00000000E+00
  0.00000000E+00  0.00000000E+00  0.00000000E+00
  0.00000000E+00  0.00000000E+00  0.00000000E+00