Amorphous Sb                            
   1.00000000000000     
    21.2231259098521683    0.0000000000000000    0.0000000000000000
     0.0000000000000000   21.2231259098521683    0.0000000000000000
     0.0000000000000000    0.0000000000000000   21.2231259098521683
   Ge   Sb
    45   255
Direct
  0.1815438100000009  0.5932464799999977  0.3737049699999986
  0.4345551400000005  0.5292704599999993  0.2568976700000007
  0.3749407000000033  0.4032762699999992  0.0113949070000032
  0.5985463700000011  0.6625983799999986  0.7534592000000018
  0.0151697809999973  0.8560014400000000  0.1060582599999975
  0.9092881999999989  0.6857262700000035  0.2806240299999985
  0.7960681100000002  0.4321375900000035  0.0085292102999972
  0.7843205200000014  0.1682885000000027  0.6508969899999997
  0.5914861400000007  0.7140168800000026  0.2647393800000017
  0.2679894700000034  0.0005720487200023  0.1269317400000034
  0.7864654700000031  0.8796787899999998  0.7499379699999977
  0.2677895799999988  0.4321085999999994  0.8681201400000020
  0.6501985700000006  0.6282950700000001  0.6446468099999976
  0.2922021099999981  0.6353263499999997  0.3181972900000005
  0.9458858500000034  0.1066245600000002  0.9205187700000010
  0.3957929299999989  0.9589604000000023  0.3873609199999990
  0.0093278597000008  0.3202501000000026  0.3257047600000007
  0.8912219199999996  0.5583309299999968  0.2733900300000016
  0.5201962599999987  0.6540961299999992  0.8473858799999974
  0.8808002399999992  0.5706567599999985  0.4103197900000026
  0.6130413500000031  0.0329949030000023  0.2713107499999978
  0.7715352600000003  0.5276445399999972  0.2983406000000031
  0.5098191499999984  0.6299880400000006  0.6644179899999969
  0.5148682100000030  0.5139003700000018  0.1697196000000005
  0.3096708899999996  0.7208085199999985  0.8560653700000032
  0.7869267900000025  0.6698060299999966  0.0407725609999972
  0.7308952899999994  0.2067174499999993  0.3993214799999976
  0.2705755300000021  0.0756920919999970  0.6104601700000032
  0.2469039200000012  0.8763148700000016  0.9336514399999984
  0.1063077100000029  0.5583147099999977  0.4648996199999971
  0.2130164300000033  0.2916048200000034  0.0734213189999977
  0.6262782000000016  0.7685720899999993  0.7066150799999988
  0.8055734200000018  0.9369441600000030  0.1481577200000004
  0.4132514000000000  0.5709165600000006  0.5785447000000019
  0.2303563199999985  0.7269708500000007  0.2729531299999977
  0.6669632099999987  0.1468366399999965  0.6740837299999995
  0.7039600900000025  0.3228487599999994  0.2722193500000003
  0.8944580300000027  0.1964235599999995  0.1001734199999973
  0.7278428600000026  0.1462360700000005  0.1847845899999996
  0.0261677860000020  0.1422155200000006  0.2551798000000005
  0.0040814922000010  0.1286965999999978  0.8152191300000027
  0.6026552200000026  0.2426144000000008  0.6394308400000028
  0.0995768040000016  0.7374681599999988  0.6550440399999999
  0.8277035099999992  0.1706577100000004  0.4690111999999971
  0.7047609899999969  0.1969767300000029  0.0426841760000016
  0.3671055499999980  0.6950585299999972  0.5834437099999974
  0.8436044500000008  0.8247921600000012  0.8530350300000009
  0.5683606799999978  0.8426023399999991  0.9075827400000023
  0.1827593699999994  0.9709817099999967  0.7506298500000028
  0.4348104899999967  0.8935098999999980  0.9898373199999995
  0.6559213099999965  0.0717514769999994  0.5689497299999999
  0.4144102300000014  0.7526125300000004  0.9908676200000031
  0.8483560900000029  0.9230616700000027  0.5761703200000028
  0.4061253300000018  0.2889002900000008  0.6391417399999995
  0.5703800900000005  0.8004676400000008  0.0696189610000033
  0.1228477100000021  0.2159761099999997  0.4550624600000006
  0.6887464100000003  0.0731583549999968  0.0857133499999989
  0.0736683670000033  0.0358556549999989  0.3210738100000015
  0.7714618700000031  0.2810419799999977  0.7203173500000020
  0.6055349299999975  0.1556614599999975  0.2243972099999993
  0.1445889100000031  0.1849412400000006  0.3222481600000009
  0.7885834399999965  0.9922796176999995  0.0306757390000030
  0.4002498400000007  0.2731372499999978  0.1781314799999976
  0.7074507299999979  0.3413749400000015  0.5240691699999971
  0.1333353500000030  0.0224317209999967  0.8706783399999978
  0.6197575200000003  0.6910753299999968  0.1405334900000028
  0.4112226100000029  0.6524495999999971  0.2691545300000016
  0.4039726999999971  0.3317868399999995  0.5011684400000007
  0.7677733900000021  0.4469613500000023  0.1378750699999998
  0.5902740000000009  0.6026417799999990  0.3299336199999985
  0.2482836399999968  0.7116179100000011  0.1468368000000027
  0.6344016800000034  0.5444283100000007  0.9437057199999970
  0.8193308800000025  0.6592683800000003  0.5683904799999979
  0.8403777099999985  0.1513332800000029  0.9863338799999966
  0.7086855900000018  0.4245427700000022  0.3558914799999968
  0.2554504499999979  0.8396159400000016  0.3276322299999990
  0.9288047200000022  0.6773778800000017  0.7431985500000025
  0.6744438099999996  0.7547937499999975  0.8802863499999987
  0.5177833400000011  0.5242166700000013  0.5155433199999990
  0.8147394399999968  0.4253100299999986  0.8666332000000025
  0.9561360399999970  0.0863409190000013  0.5973698199999973
  0.1186470900000032  0.1906212999999966  0.8248193000000015
  0.2250968800000024  0.7368675900000028  0.6115743499999979
  0.0185059240000029  0.0009518200199992  0.7946104399999996
  0.0223188530000016  0.0845836399999982  0.4773598600000000
  0.5248851200000004  0.0144555090000011  0.9992021872199999
  0.7815627399999983  0.2538838099999978  0.1342672600000014
  0.9111595399999999  0.9847013600000025  0.8803393399999990
  0.6828496799999968  0.3994284799999974  0.8391396199999974
  0.9066176500000012  0.1818795499999979  0.7511854400000004
  0.9116096899999988  0.7928536300000033  0.2072787199999979
  0.0863898630000008  0.9030057200000030  0.4219686200000012
  0.0308426340000025  0.5147774200000015  0.2763605000000027
  0.6000656699999993  0.4491588500000034  0.2414992900000001
  0.3721861100000012  0.9827121200000022  0.2077749400000002
  0.0855029330000008  0.4545263700000035  0.0803646869999994
  0.7971524299999970  0.3302549100000007  0.4080307799999972
  0.7900590100000002  0.0813790179999998  0.8593172799999991
  0.9589381099999983  0.2629926899999973  0.2221447800000007
  0.3666742899999988  0.8473269099999996  0.2361407799999995
  0.0770404410000012  0.5373116999999965  0.6499560500000001
  0.1394009199999999  0.8159429600000010  0.7569198999999998
  0.6718338200000034  0.3679763900000026  0.6650310500000032
  0.9334818100000035  0.1479455599999966  0.3924185400000013
  0.4003654699999970  0.0909270000000006  0.7378409800000014
  0.1341369700000001  0.8864879699999975  0.0603591920000000
  0.0217641309999976  0.7202932399999966  0.3405255799999978
  0.0693818740000012  0.4299005900000026  0.4681305399999971
  0.8804628399999999  0.9962086522999982  0.3793332999999990
  0.6555083800000006  0.2605474499999971  0.9382374799999980
  0.0415601509999988  0.5850616299999984  0.1208094899999992
  0.7723320400000020  0.5990289399999966  0.6834088700000009
  0.0774522230000017  0.0483349289999992  0.6565882299999970
  0.3006808499999991  0.3101627799999989  0.9030903499999994
  0.2783358300000032  0.8429512100000025  0.1277387200000035
  0.9102347600000016  0.1006656100000001  0.1931411699999970
  0.7973613500000027  0.0584385439999977  0.7229718800000029
  0.7944218399999983  0.0653913459999984  0.5437245700000020
  0.6390638000000024  0.8875731400000006  0.2559563100000020
  0.1875313500000004  0.4704539700000012  0.9806563100000005
  0.9031820699999997  0.7951343100000017  0.5996377800000019
  0.1236843900000011  0.1658360300000012  0.1597577200000018
  0.6593030700000000  0.3579032900000030  0.1552318800000023
  0.5240574899999970  0.3294726399999988  0.8908684399999984
  0.6063900700000033  0.8648899499999985  0.4019707699999984
  0.2737162000000026  0.3383783299999976  0.6851365899999990
  0.4505875600000024  0.4859251900000032  0.3759865600000012
  0.5923035699999986  0.3584123500000018  0.4458825999999974
  0.3379218099999974  0.6819968300000028  0.4404001300000004
  0.4037807500000028  0.3884448100000029  0.8305982899999975
  0.7906175399999995  0.4619171100000017  0.6738911099999996
  0.3739696800000019  0.0013696745999994  0.5980436199999986
  0.0115220610000009  0.9110773199999969  0.3070875900000019
  0.1272476899999972  0.6727419300000008  0.0555809009999990
  0.7500870699999993  0.7832990699999982  0.6717651499999988
  0.4701884600000028  0.4759458600000031  0.9152849600000010
  0.3820781599999989  0.5941864699999968  0.7628096799999966
  0.0782113460000033  0.3232391499999991  0.8045979199999991
  0.0222728350000025  0.2730738799999983  0.0079907585000001
  0.5246410499999996  0.6803271300000020  0.4232150799999985
  0.1715706700000013  0.3443263899999991  0.4229942199999996
  0.1656868099999969  0.0306883769999970  0.5482142700000026
  0.2564946999999975  0.2264528899999974  0.1762411999999998
  0.0830323759999985  0.0024378029999994  0.1112955500000012
  0.1984448199999989  0.2636803400000005  0.5964883700000030
  0.2626090700000034  0.4091171299999985  0.0775665649999979
  0.4636916999999983  0.8744168200000004  0.1227619000000004
  0.6726143400000026  0.3946758100000025  0.9781929099999971
  0.5187378400000000  0.6137540100000010  0.0908658179999975
  0.9432792899999995  0.5109697500000010  0.6795830000000009
  0.2123699699999975  0.7311520499999986  0.4725609999999989
  0.5324580600000033  0.9338981900000007  0.4921486499999972
  0.4939573600000031  0.1903105700000012  0.5951358599999992
  0.8001675800000001  0.5654794000000010  0.8401540300000008
  0.0702565249999978  0.8211365399999977  0.2210637000000020
  0.5374430099999969  0.2230773100000008  0.4647005899999996
  0.8484144099999966  0.2576212999999967  0.5659182899999990
  0.0314780639999981  0.7575828700000002  0.9174419200000017
  0.8447750200000002  0.8789757699999967  0.3175634199999990
  0.5418352599999992  0.9894017700000006  0.1364153000000030
  0.6728629400000017  0.4869979799999982  0.5045718800000003
  0.7925209499999966  0.8081028399999965  0.1427800299999973
  0.0110859730000001  0.1336252899999977  0.0291638890000030
  0.9820099000000013  0.4760158099999998  0.8120588700000013
  0.7686428399999983  0.5591987899999964  0.9747316999999995
  0.3132384600000009  0.9591140300000021  0.0075635401000014
  0.5568342400000006  0.7386476599999980  0.6011643399999969
  0.8003936400000029  0.7057779000000011  0.7908632199999985
  0.6056520899999995  0.5063966700000009  0.6260783099999969
  0.4778103200000032  0.3919374299999987  0.7056552100000033
  0.1226626099999990  0.6580664600000006  0.2742818299999996
  0.5638367399999993  0.1477291500000035  0.9565733299999977
  0.8508816499999980  0.4059353800000025  0.2521439100000009
  0.2934591799999993  0.9111936899999975  0.8176235199999979
  0.1986036799999980  0.2322018500000027  0.9602003400000001
  0.7248376800000003  0.8608564000000030  0.5554253700000018
  0.5337160500000024  0.3407798100000008  0.0371821749999981
  0.2533200299999976  0.8636926100000011  0.4863268900000008
  0.2344640000000027  0.5182055499999976  0.6359009199999974
  0.3216645500000013  0.1627323100000027  0.9854702000000017
  0.4449036899999967  0.4171948799999967  0.1224135100000012
  0.3932638400000030  0.6799284200000031  0.1339339999999964
  0.4407390300000031  0.8147186400000024  0.5556221900000011
  0.3351435499999980  0.4619347200000021  0.2082946800000016
  0.6305016000000023  0.7462840600000007  0.4835431699999972
  0.5139571500000031  0.3934577099999998  0.5534904399999974
  0.9597022499999994  0.3947174600000025  0.1663272500000019
  0.1106954299999998  0.3481532400000020  0.9336918099999991
  0.8123072599999972  0.4689720699999995  0.5409468499999974
  0.9361721300000028  0.5969935299999989  0.8562553300000033
  0.5055040599999998  0.7896710899999988  0.3391572700000012
  0.9706270000000004  0.9548101800000026  0.4793493299999980
  0.3166717399999968  0.8755368699999977  0.6108901099999997
  0.9831384499999984  0.7283382600000010  0.1032822399999986
  0.1772320899999968  0.9050366700000012  0.5999593599999997
  0.1834885700000015  0.4129940199999993  0.7685109900000029
  0.5219974099999973  0.0534218100000032  0.6862734300000000
  0.9088419500000029  0.3707968900000012  0.5104048099999972
  0.2944695500000023  0.0075218946000035  0.3175039699999971
  0.2919017099999976  0.5923451299999982  0.8761560399999979
  0.3108223300000006  0.4706884000000002  0.3778251900000029
  0.8993145700000014  0.7154856599999988  0.9949285093000029
  0.6640834000000027  0.2074797300000029  0.5129146700000007
  0.6485163899999975  0.9046082600000034  0.1148729900000021
  0.4479026400000024  0.1441978300000031  0.1706565599999976
  0.0936099039999974  0.3000312500000035  0.1225747100000021
  0.1516827100000029  0.7231068999999977  0.8577048699999992
  0.3042579800000027  0.1455360599999977  0.3206477700000008
  0.2777687900000032  0.7912361099999998  0.7500107999999983
  0.1339104700000036  0.3196969899999971  0.2923368299999964
  0.8067291799999978  0.1127955500000013  0.2797824599999998
  0.1037455299999976  0.4113415899999993  0.5999793800000006
  0.6992887199999984  0.5526152899999985  0.1917452400000030
  0.2707983199999973  0.1107374099999987  0.4503630600000008
  0.2996603799999988  0.0497976609999995  0.9061972100000020
  0.5774766500000013  0.2143722100000005  0.0804159420000019
  0.8248821899999967  0.2637632400000030  0.2757896299999985
  0.1113267100000002  0.5209442600000003  0.8381162599999996
  0.9646766799999966  0.9010055800000032  0.9777343800000011
  0.6740179100000034  0.0787164039999979  0.3803472900000031
  0.2357517100000024  0.5974028899999979  0.0095340426999968
  0.5095841300000004  0.5356954900000019  0.7965819699999983
  0.4209267399999987  0.7163467199999971  0.7098513899999972
  0.3540317499999972  0.5618362299999973  0.0744105309999981
  0.3944980200000003  0.0549406439999984  0.4736792300000019
  0.9392112399999988  0.2766885400000021  0.8453822199999976
  0.4318282600000032  0.9179697300000029  0.8365350600000028
  0.9515162399999966  0.4333584900000034  0.3553807500000019
  0.6883782900000028  0.9643546400000034  0.7367869200000001
  0.4452629199999976  0.3520930899999968  0.3529301200000035
  0.5937139899999977  0.1301454999999976  0.7778260500000016
  0.6112531799999985  0.2480806499999986  0.3254939600000029
  0.2447346699999997  0.0961665720000013  0.7333774199999965
  0.7108972699999967  0.7711901999999995  0.0111932740000000
  0.9700825399999999  0.7972545300000036  0.7994033800000011
  0.2997882900000022  0.5525681900000023  0.5149565400000000
  0.3916231700000026  0.8124364000000028  0.4255308899999974
  0.0084250175000022  0.5920450400000021  0.3884490000000014
  0.7219665499999977  0.6306436899999994  0.3604719300000028
  0.0550880520000021  0.7809973700000015  0.4804588399999972
  0.3195635399999972  0.3579058999999987  0.2966723999999985
  0.1868448700000016  0.8895584999999997  0.2208810099999994
  0.3182541400000005  0.1204989200000028  0.1158719399999981
  0.4094590799999978  0.5986363800000021  0.9508178800000024
  0.6397552000000033  0.9460174999999964  0.9685073300000013
  0.2931671999999992  0.4129104399999974  0.5015262900000010
  0.5542907000000028  0.0695920739999991  0.4518591900000004
  0.4265122300000002  0.2232312599999986  0.7688149000000024
  0.7557548899999986  0.9829370799999992  0.4395798400000004
  0.9669214500000010  0.2195281300000005  0.6308555800000022
  0.4307027600000026  0.0532426019999974  0.8662179399999985
  0.8258445299999977  0.2741338800000008  0.9224806400000034
  0.2367946800000027  0.6335003599999993  0.7076355700000008
  0.4484450200000012  0.2119239100000030  0.9137368700000010
  0.1667056000000002  0.0291020290000006  0.2196355999999966
  0.6602739699999987  0.0307348400000009  0.8529162700000015
  0.6207756000000018  0.9369969600000019  0.5994839199999973
  0.5900179300000019  0.6732247899999990  0.9531811399999981
  0.8844409800000008  0.5349849999999989  0.1427136900000008
  0.8040951300000003  0.6442642399999983  0.1664635200000006
  0.9316011299999971  0.9573281699999967  0.1755731100000020
  0.4927373100000025  0.0341126120000013  0.3320644799999997
  0.5893532500000020  0.8723875100000029  0.7718330399999971
  0.0589089130000033  0.6214073700000000  0.9358928600000027
  0.8835228499999985  0.9519171000000028  0.7049146000000022
  0.9085003499999971  0.3529142800000002  0.0435984630000021
  0.4080243399999972  0.2794674399999977  0.0379420069999981
  0.7026244999999989  0.6227186400000022  0.4969074799999973
  0.4803043699999989  0.9199343000000013  0.7071524699999969
  0.9722605999999985  0.3824387000000016  0.6371303199999971
  0.9221950499999991  0.8073403900000002  0.4631855700000003
  0.1353871800000022  0.1698462000000021  0.6888460500000022
  0.7118353600000020  0.7690247299999982  0.2700679699999995
  0.7545795999999996  0.8083178500000017  0.3963277800000000
  0.9491400200000015  0.5719912599999972  0.0148893630000018
  0.2333333600000032  0.5555630799999989  0.2259010599999982
  0.1063544000000007  0.6360806100000005  0.7574131800000004
  0.3667945600000024  0.4950310600000023  0.6717108499999966
  0.6564299899999995  0.5373385799999966  0.8083399300000025
  0.8773529999999994  0.3660041899999982  0.7595321100000021
  0.1172799400000031  0.8944214599999967  0.9223582300000004
  0.4368133400000005  0.7555470499999970  0.8522381499999980
  0.0473882340000031  0.6296588000000014  0.5561613699999981
  0.9152151300000000  0.5659392100000034  0.5384914500000022
  0.8363230400000035  0.8407220599999974  0.0095644198000002
  0.2770229599999965  0.7581280500000034  0.9742673000000011
  0.5695778799999971  0.3002073600000017  0.7547024500000035
  0.1452859099999984  0.1012891000000025  0.0377154259999983
  0.9278730899999985  0.0107596459999968  0.0502090129999999
  0.4435070600000017  0.1582176499999974  0.3072647500000016
  0.7373384899999991  0.2119609599999990  0.8348593199999996
  0.5237285099999980  0.3234722999999988  0.2402300999999980
  0.8550393800000009  0.7038828600000002  0.3970975499999980
  0.1640567800000028  0.4786001499999983  0.3149959400000029
  0.9959277389000007  0.4419575200000025  0.9777045599999994
  0.3075930500000013  0.1889278299999972  0.5590730300000004
  0.0372201149999967  0.8405789899999974  0.6056774199999992
  0.2870434599999996  0.2428836300000015  0.7831747099999973
  0.7502352799999983  0.9671540499999978  0.2615838299999993
  0.9943315878999996  0.2620930400000034  0.4388618500000021
 
  0.00000000E+00  0.00000000E+00  0.00000000E+00
  0.00000000E+00  0.00000000E+00  0.00000000E+00
  0.00000000E+00  0.00000000E+00  0.00000000E+00
  0.00000000E+00  0.00000000E+00  0.00000000E+00
  0.00000000E+00  0.00000000E+00  0.00000000E+00
  0.00000000E+00  0.00000000E+00  0.00000000E+00
  0.00000000E+00  0.00000000E+00  0.00000000E+00
  0.00000000E+00  0.00000000E+00  0.00000000E+00
  0.00000000E+00  0.00000000E+00  0.00000000E+00
  0.00000000E+00  0.00000000E+00  0.00000000E+00
  0.00000000E+00  0.00000000E+00  0.00000000E+00
  0.00000000E+00  0.00000000E+00  0.00000000E+00
  0.00000000E+00  0.00000000E+00  0.00000000E+00
  0.00000000E+00  0.00000000E+00  0.00000000E+00
  0.00000000E+00  0.00000000E+00  0.00000000E+00
  0.00000000E+00  0.00000000E+00  0.00000000E+00
  0.00000000E+00  0.00000000E+00  0.00000000E+00
  0.00000000E+00  0.00000000E+00  0.00000000E+00
  0.00000000E+00  0.00000000E+00  0.00000000E+00
  0.00000000E+00  0.00000000E+00  0.00000000E+00
  0.00000000E+00  0.00000000E+00  0.00000000E+00
  0.00000000E+00  0.00000000E+00  0.00000000E+00
  0.00000000E+00  0.00000000E+00  0.00000000E+00
  0.00000000E+00  0.00000000E+00  0.00000000E+00
  0.00000000E+00  0.00000000E+00  0.00000000E+00
  0.00000000E+00  0.00000000E+00  0.00000000E+00
  0.00000000E+00  0.00000000E+00  0.00000000E+00
  0.00000000E+00  0.00000000E+00  0.00000000E+00
  0.00000000E+00  0.00000000E+00  0.00000000E+00
  0.00000000E+00  0.00000000E+00  0.00000000E+00
  0.00000000E+00  0.00000000E+00  0.00000000E+00
  0.00000000E+00  0.00000000E+00  0.00000000E+00
  0.00000000E+00  0.00000000E+00  0.00000000E+00
  0.00000000E+00  0.00000000E+00  0.00000000E+00
  0.00000000E+00  0.00000000E+00  0.00000000E+00
  0.00000000E+00  0.00000000E+00  0.00000000E+00
  0.00000000E+00  0.00000000E+00  0.00000000E+00
  0.00000000E+00  0.00000000E+00  0.00000000E+00
  0.00000000E+00  0.00000000E+00  0.00000000E+00
  0.00000000E+00  0.00000000E+00  0.00000000E+00
  0.00000000E+00  0.00000000E+00  0.00000000E+00
  0.00000000E+00  0.00000000E+00  0.00000000E+00
  0.00000000E+00  0.00000000E+00  0.00000000E+00
  0.00000000E+00  0.00000000E+00  0.00000000E+00
  0.00000000E+00  0.00000000E+00  0.00000000E+00
  0.00000000E+00  0.00000000E+00  0.00000000E+00
  0.00000000E+00  0.00000000E+00  0.00000000E+00
  0.00000000E+00  0.00000000E+00  0.00000000E+00
  0.00000000E+00  0.00000000E+00  0.00000000E+00
  0.00000000E+00  0.00000000E+00  0.00000000E+00
  0.00000000E+00  0.00000000E+00  0.00000000E+00
  0.00000000E+00  0.00000000E+00  0.00000000E+00
  0.00000000E+00  0.00000000E+00  0.00000000E+00
  0.00000000E+00  0.00000000E+00  0.00000000E+00
  0.00000000E+00  0.00000000E+00  0.00000000E+00
  0.00000000E+00  0.00000000E+00  0.00000000E+00
  0.00000000E+00  0.00000000E+00  0.00000000E+00
  0.00000000E+00  0.00000000E+00  0.00000000E+00
  0.00000000E+00  0.00000000E+00  0.00000000E+00
  0.00000000E+00  0.00000000E+00  0.00000000E+00
  0.00000000E+00  0.00000000E+00  0.00000000E+00
  0.00000000E+00  0.00000000E+00  0.00000000E+00
  0.00000000E+00  0.00000000E+00  0.00000000E+00
  0.00000000E+00  0.00000000E+00  0.00000000E+00
  0.00000000E+00  0.00000000E+00  0.00000000E+00
  0.00000000E+00  0.00000000E+00  0.00000000E+00
  0.00000000E+00  0.00000000E+00  0.00000000E+00
  0.00000000E+00  0.00000000E+00  0.00000000E+00
  0.00000000E+00  0.00000000E+00  0.00000000E+00
  0.00000000E+00  0.00000000E+00  0.00000000E+00
  0.00000000E+00  0.00000000E+00  0.00000000E+00
  0.00000000E+00  0.00000000E+00  0.00000000E+00
  0.00000000E+00  0.00000000E+00  0.00000000E+00
  0.00000000E+00  0.00000000E+00  0.00000000E+00
  0.00000000E+00  0.00000000E+00  0.00000000E+00
  0.00000000E+00  0.00000000E+00  0.00000000E+00
  0.00000000E+00  0.00000000E+00  0.00000000E+00
  0.00000000E+00  0.00000000E+00  0.00000000E+00
  0.00000000E+00  0.00000000E+00  0.00000000E+00
  0.00000000E+00  0.00000000E+00  0.00000000E+00
  0.00000000E+00  0.00000000E+00  0.00000000E+00
  0.00000000E+00  0.00000000E+00  0.00000000E+00
  0.00000000E+00  0.00000000E+00  0.00000000E+00
  0.00000000E+00  0.00000000E+00  0.00000000E+00
  0.00000000E+00  0.00000000E+00  0.00000000E+00
  0.00000000E+00  0.00000000E+00  0.00000000E+00
  0.00000000E+00  0.00000000E+00  0.00000000E+00
  0.00000000E+00  0.00000000E+00  0.00000000E+00
  0.00000000E+00  0.00000000E+00  0.00000000E+00
  0.00000000E+00  0.00000000E+00  0.00000000E+00
  0.00000000E+00  0.00000000E+00  0.00000000E+00
  0.00000000E+00  0.00000000E+00  0.00000000E+00
  0.00000000E+00  0.00000000E+00  0.00000000E+00
  0.00000000E+00  0.00000000E+00  0.00000000E+00
  0.00000000E+00  0.00000000E+00  0.00000000E+00
  0.00000000E+00  0.00000000E+00  0.00000000E+00
  0.00000000E+00  0.00000000E+00  0.00000000E+00
  0.00000000E+00  0.00000000E+00  0.00000000E+00
  0.00000000E+00  0.00000000E+00  0.00000000E+00
  0.00000000E+00  0.00000000E+00  0.00000000E+00
  0.00000000E+00  0.00000000E+00  0.00000000E+00
  0.00000000E+00  0.00000000E+00  0.00000000E+00
  0.00000000E+00  0.00000000E+00  0.00000000E+00
  0.00000000E+00  0.00000000E+00  0.00000000E+00
  0.00000000E+00  0.00000000E+00  0.00000000E+00
  0.00000000E+00  0.00000000E+00  0.00000000E+00
  0.00000000E+00  0.00000000E+00  0.00000000E+00
  0.00000000E+00  0.00000000E+00  0.00000000E+00
  0.00000000E+00  0.00000000E+00  0.00000000E+00
  0.00000000E+00  0.00000000E+00  0.00000000E+00
  0.00000000E+00  0.00000000E+00  0.00000000E+00
  0.00000000E+00  0.00000000E+00  0.00000000E+00
  0.00000000E+00  0.00000000E+00  0.00000000E+00
  0.00000000E+00  0.00000000E+00  0.00000000E+00
  0.00000000E+00  0.00000000E+00  0.00000000E+00
  0.00000000E+00  0.00000000E+00  0.00000000E+00
  0.00000000E+00  0.00000000E+00  0.00000000E+00
  0.00000000E+00  0.00000000E+00  0.00000000E+00
  0.00000000E+00  0.00000000E+00  0.00000000E+00
  0.00000000E+00  0.00000000E+00  0.00000000E+00
  0.00000000E+00  0.00000000E+00  0.00000000E+00
  0.00000000E+00  0.00000000E+00  0.00000000E+00
  0.00000000E+00  0.00000000E+00  0.00000000E+00
  0.00000000E+00  0.00000000E+00  0.00000000E+00
  0.00000000E+00  0.00000000E+00  0.00000000E+00
  0.00000000E+00  0.00000000E+00  0.00000000E+00
  0.00000000E+00  0.00000000E+00  0.00000000E+00
  0.00000000E+00  0.00000000E+00  0.00000000E+00
  0.00000000E+00  0.00000000E+00  0.00000000E+00
  0.00000000E+00  0.00000000E+00  0.00000000E+00
  0.00000000E+00  0.00000000E+00  0.00000000E+00
  0.00000000E+00  0.00000000E+00  0.00000000E+00
  0.00000000E+00  0.00000000E+00  0.00000000E+00
  0.00000000E+00  0.00000000E+00  0.00000000E+00
  0.00000000E+00  0.00000000E+00  0.00000000E+00
  0.00000000E+00  0.00000000E+00  0.00000000E+00
  0.00000000E+00  0.00000000E+00  0.00000000E+00
  0.00000000E+00  0.00000000E+00  0.00000000E+00
  0.00000000E+00  0.00000000E+00  0.00000000E+00
  0.00000000E+00  0.00000000E+00  0.00000000E+00
  0.00000000E+00  0.00000000E+00  0.00000000E+00
  0.00000000E+00  0.00000000E+00  0.00000000E+00
  0.00000000E+00  0.00000000E+00  0.00000000E+00
  0.00000000E+00  0.00000000E+00  0.00000000E+00
  0.00000000E+00  0.00000000E+00  0.00000000E+00
  0.00000000E+00  0.00000000E+00  0.00000000E+00
  0.00000000E+00  0.00000000E+00  0.00000000E+00
  0.00000000E+00  0.00000000E+00  0.00000000E+00
  0.00000000E+00  0.00000000E+00  0.00000000E+00
  0.00000000E+00  0.00000000E+00  0.00000000E+00
  0.00000000E+00  0.00000000E+00  0.00000000E+00
  0.00000000E+00  0.00000000E+00  0.00000000E+00
  0.00000000E+00  0.00000000E+00  0.00000000E+00
  0.00000000E+00  0.00000000E+00  0.00000000E+00
  0.00000000E+00  0.00000000E+00  0.00000000E+00
  0.00000000E+00  0.00000000E+00  0.00000000E+00
  0.00000000E+00  0.00000000E+00  0.00000000E+00
  0.00000000E+00  0.00000000E+00  0.00000000E+00
  0.00000000E+00  0.00000000E+00  0.00000000E+00
  0.00000000E+00  0.00000000E+00  0.00000000E+00
  0.00000000E+00  0.00000000E+00  0.00000000E+00
  0.00000000E+00  0.00000000E+00  0.00000000E+00
  0.00000000E+00  0.00000000E+00  0.00000000E+00
  0.00000000E+00  0.00000000E+00  0.00000000E+00
  0.00000000E+00  0.00000000E+00  0.00000000E+00
  0.00000000E+00  0.00000000E+00  0.00000000E+00
  0.00000000E+00  0.00000000E+00  0.00000000E+00
  0.00000000E+00  0.00000000E+00  0.00000000E+00
  0.00000000E+00  0.00000000E+00  0.00000000E+00
  0.00000000E+00  0.00000000E+00  0.00000000E+00
  0.00000000E+00  0.00000000E+00  0.00000000E+00
  0.00000000E+00  0.00000000E+00  0.00000000E+00
  0.00000000E+00  0.00000000E+00  0.00000000E+00
  0.00000000E+00  0.00000000E+00  0.00000000E+00
  0.00000000E+00  0.00000000E+00  0.00000000E+00
  0.00000000E+00  0.00000000E+00  0.00000000E+00
  0.00000000E+00  0.00000000E+00  0.00000000E+00
  0.00000000E+00  0.00000000E+00  0.00000000E+00
  0.00000000E+00  0.00000000E+00  0.00000000E+00
  0.00000000E+00  0.00000000E+00  0.00000000E+00
  0.00000000E+00  0.00000000E+00  0.00000000E+00
  0.00000000E+00  0.00000000E+00  0.00000000E+00
  0.00000000E+00  0.00000000E+00  0.00000000E+00
  0.00000000E+00  0.00000000E+00  0.00000000E+00
  0.00000000E+00  0.00000000E+00  0.00000000E+00
  0.00000000E+00  0.00000000E+00  0.00000000E+00
  0.00000000E+00  0.00000000E+00  0.00000000E+00
  0.00000000E+00  0.00000000E+00  0.00000000E+00
  0.00000000E+00  0.00000000E+00  0.00000000E+00
  0.00000000E+00  0.00000000E+00  0.00000000E+00
  0.00000000E+00  0.00000000E+00  0.00000000E+00
  0.00000000E+00  0.00000000E+00  0.00000000E+00
  0.00000000E+00  0.00000000E+00  0.00000000E+00
  0.00000000E+00  0.00000000E+00  0.00000000E+00
  0.00000000E+00  0.00000000E+00  0.00000000E+00
  0.00000000E+00  0.00000000E+00  0.00000000E+00
  0.00000000E+00  0.00000000E+00  0.00000000E+00
  0.00000000E+00  0.00000000E+00  0.00000000E+00
  0.00000000E+00  0.00000000E+00  0.00000000E+00
  0.00000000E+00  0.00000000E+00  0.00000000E+00
  0.00000000E+00  0.00000000E+00  0.00000000E+00
  0.00000000E+00  0.00000000E+00  0.00000000E+00
  0.00000000E+00  0.00000000E+00  0.00000000E+00
  0.00000000E+00  0.00000000E+00  0.00000000E+00
  0.00000000E+00  0.00000000E+00  0.00000000E+00
  0.00000000E+00  0.00000000E+00  0.00000000E+00
  0.00000000E+00  0.00000000E+00  0.00000000E+00
  0.00000000E+00  0.00000000E+00  0.00000000E+00
  0.00000000E+00  0.00000000E+00  0.00000000E+00
  0.00000000E+00  0.00000000E+00  0.00000000E+00
  0.00000000E+00  0.00000000E+00  0.00000000E+00
  0.00000000E+00  0.00000000E+00  0.00000000E+00
  0.00000000E+00  0.00000000E+00  0.00000000E+00
  0.00000000E+00  0.00000000E+00  0.00000000E+00
  0.00000000E+00  0.00000000E+00  0.00000000E+00
  0.00000000E+00  0.00000000E+00  0.00000000E+00
  0.00000000E+00  0.00000000E+00  0.00000000E+00
  0.00000000E+00  0.00000000E+00  0.00000000E+00
  0.00000000E+00  0.00000000E+00  0.00000000E+00
  0.00000000E+00  0.00000000E+00  0.00000000E+00
  0.00000000E+00  0.00000000E+00  0.00000000E+00
  0.00000000E+00  0.00000000E+00  0.00000000E+00
  0.00000000E+00  0.00000000E+00  0.00000000E+00
  0.00000000E+00  0.00000000E+00  0.00000000E+00
  0.00000000E+00  0.00000000E+00  0.00000000E+00
  0.00000000E+00  0.00000000E+00  0.00000000E+00
  0.00000000E+00  0.00000000E+00  0.00000000E+00
  0.00000000E+00  0.00000000E+00  0.00000000E+00
  0.00000000E+00  0.00000000E+00  0.00000000E+00
  0.00000000E+00  0.00000000E+00  0.00000000E+00
  0.00000000E+00  0.00000000E+00  0.00000000E+00
  0.00000000E+00  0.00000000E+00  0.00000000E+00