Amorphous Sb                            
   1.00000000000000     
    20.6291714401205617    0.0000000000000000    0.0000000000000000
     0.0000000000000000   20.6291714401205617    0.0000000000000000
     0.0000000000000000    0.0000000000000000   20.6291714401205617
   Si   Te
   150   150
Direct
  0.6040648339342549  0.4493544377121449  0.8659958418359865
  0.7342128470173308  0.5035122381967586  0.8115253309872277
  0.5953159987712368  0.3301253145900213  0.5981929680254282
  0.3691795383576926  0.3201508853176525  0.8233450190884899
  0.3879624281705218  0.3491472609886221  0.3604060248684821
  0.5350203067974135  0.2518290857946968  0.8644962588368468
  0.3455019507410456  0.6387519998465511  0.0147518924213628
  0.6561049608172613  0.8317632237735887  0.1829830969965238
  0.9527677733831666  0.3402207757554507  0.4429421729049862
  0.0236511625134910  0.9931481488349840  0.5986606391702929
  0.0539065351021849  0.3237627162496455  0.0049479168070792
  0.6460399068317494  0.7637302344690924  0.4746582046994832
  0.3383739501399918  0.2134735309821579  0.7913334444140958
  0.3204743753173536  0.1447863914615080  0.8834108894000764
  0.2859010909344681  0.2241986857580167  0.1480834720734036
  0.4117659276582424  0.4754583708250732  0.9384969599894515
  0.1113062329217427  0.6556617477400929  0.4337530266258658
  0.7823736976042019  0.5514514506263063  0.1074325623343056
  0.1622994783358636  0.5868686776346307  0.2115243874948859
  0.0774527215166091  0.3967188986674726  0.6399256687642717
  0.3032171925109007  0.1949511161114154  0.2564386309380346
 -0.0053784549967478  0.5536489238847910  0.1835472263162144
  0.0958741287740423  0.7415974731465131  0.0061915025574326
  0.6844270274717350  0.1612672684343327  0.9080814045736492
  0.6127768353856489  0.2433753316080559  0.9481051867603308
  0.7529950129683365  0.6367998532988305  0.9197019421083792
  0.2273335056219859  0.1254981156450460  0.1376720880174048
  0.1028551877011340  0.3845948110889209  0.9115808142908656
  0.4251641518136714  0.8873307717060723  0.8154330702172631
  0.5609165657301238  0.4784258840223722  0.5442381591288376
  0.4209719970246760  0.8553254682515614  0.1806029554717613
  0.5472703913095229  0.4080145130885469  0.7691140113137596
  0.1310749383349161  0.4969887887563604  0.6568196381008093
  0.8350721127624274  0.7325178112495550  0.3086129200483568
  0.8742214245968631  0.1057558502756303  0.3666890081819658
  0.9844817326308840  0.6680877353377453  0.1703995892539859
  0.4997479197094824  0.3924782216962203  0.5854420775460502
  0.3123715469724254  0.7362462552305687  0.3443662924823422
 -0.0585763039644760  0.8956210980831913  0.8616621715437049
  0.2715827888356445  0.0515198905750085  0.7441239273624350
  0.8779420995594609  0.9746355283329312  0.2095089931271176
  0.6932666185125002  0.0729110413043051  0.7118166799702238
  0.7419190172679166  0.6586237946291624  0.5351133742727703
 -0.0756897288968860  0.9636594895722443  0.9539332400319053
  0.7241037598477960  0.8981981334585101  0.8661676814350542
  0.0159367482212579  0.0392441979683796  0.9532630904877604
  0.1678383783652492  0.5435292477493717  0.7553838388700320
  0.0039881568223731  0.7970535933079066  0.8586715698544235
  0.9839177619070067  0.4180605134054564  0.5825018763369321
  0.0621102959758786  0.5585533817986565  0.3876099818137108
  0.5789252397177757  0.4027954740541861  0.1185028167770751
  0.5007403231837264  0.7170173960178831  0.4084803267986202
  0.8194948101417877  0.6523719577997298  0.2290639378994419
  0.7623509760200382  0.2134951413180056  0.3730783763302318
  0.3726445530944693  0.2954782492679675  0.9371269953071961
  0.6205533612720544  0.5880777221285005  0.4032361019513077
  0.4593012483019480  0.2671793050453566  0.2000712148943932
  0.6440904947917189 -0.0575616858719068  0.3254934156621445
  0.7271080384957544  0.2238694638637016  0.1813689152189896
  0.4162884822001459  0.6568815839754188  0.5339408392192833
  0.2211611364108700  0.2934967473205941  0.0877539567994530
  0.6351514878948358  0.6505694106938500  0.4957577045591396
  0.4544792365011841  0.2134465867984942  0.9330532117907062
  0.3098284016478430  0.4827356195142287  0.7045725558531817
  0.8237501345560992  0.2542582039979293  0.0297253612881238
  0.5405279125583838  0.9352711034102950  0.2774415892822925
  0.4481937288930715  0.5175940992503496  0.1439990434007715
 -0.0237816835252957  0.9638848197399140  0.7772721130562503
  0.7431584564878692  0.7755587474629081  0.5342983115375383
  0.9108972052828362  0.5741118159022690  0.6217772252353049
  0.7667049284982194  0.6496334765340517  0.4239022034200403
  0.8925309291393281  0.3519385382795470  0.6088503855966757
  0.7898088066310518  0.6217066821070059  0.6916144653213195
  0.4102862223016533  0.5288980227397841  0.6751345284092878
  0.1374914432881030  0.8586453130814242  0.1440951356646000
  0.5083405065871922  0.4161129022186433  0.9249911006592343
  0.6069826818133315  0.9185483724773632  0.4319552768486410
 -0.0003036214680775  0.1548809956317344  0.9592903709581712
  0.7238120836554763  0.6252422467146800  0.1724906853549981
  0.4685704283877736  0.1883347885377826  0.1151798471604287
  0.3605934674904936  0.1734145496980865  0.0786271535387609
  0.0630012100655544  0.2097325587237129  0.0406738697731120
  0.2968982855414432  0.5885843111564417  0.8317883494692400
  0.6817062385987490  0.1540143676802719  0.7921418970005581
  0.7668670706404642  0.1085780864439746  0.3278224179574211
  0.0871127709326128  0.5679828092715937  0.5757174582916609
  0.5485571591735566  0.8209536944433121  0.4294531270644680
  0.7962172916418570  0.8677264917108561  0.4918252376680589
  0.9119762123486636  0.5019992628837607  0.7161077792167811
  0.3868365336911744  0.7114201395236416  0.4332265435943411
  0.4252700204076834  0.1064392985631911  0.9009978023065395
  0.5037769039148938  0.8287900387608382  0.1000428386706663
  0.4705712096079585  0.4334439384439345  0.6862131518339502
  0.0559303345915071  0.7385452915592702  0.4960196316258857
  0.4775404062926070  0.9017404076750947  0.3689298028106242
  0.5159049281052120 -0.0054786150763441  0.4244719890303918
  0.2826314055555931  0.3905360742693278  0.8575719421531832
  0.1229260375310539  0.1266592681473722  0.0918332845791902
  0.9726118178240833  0.2381786978603062  0.1066191391251811
  0.9677505361030693  0.3506391457329436  0.0774231200108585
  0.1425593254443869  0.1974759650595701  0.2326424322443246
  0.2539215746431067  0.4875251915598720  0.8044801436307968
  0.4806741661853882  0.3466400338317812  0.8381346725952461
  0.2257403324341444  0.1099584881404277  0.2511305094485790
  0.8451748402417726  0.4094496124234405  0.6997430694386496
  0.0425645677677209  0.3904270268840365  0.4883011390429738
  0.0641157606329659  0.5810708857169944  0.2735028880634137
  0.4150028626052103  0.1791205180536588  0.2663854395203186
  0.4026484367076879  0.7270700216738912  0.0604029625591350
  0.5331905738518641  0.1019837891760907  0.3831756483933043
  0.5260212943841718  0.1869088422562055  0.0177824952091053
  0.4817833987142611  0.1135243291979404  0.2027937103945535
  0.2675395419002333  0.6394159879515438  0.9312292214208929
  0.7625346800936210  0.9815699504083863  0.9337172821481349
  0.5586809013069094  0.1306765263079583  0.4947847166113023
  0.7130843040755440  0.4968186416322675  0.0363180526265011
  0.3170980485342841  0.2082337992450737  0.9780495583942164
  0.9824485588527561  0.5252334348450931  0.5469472648804963
  0.8172830983145246  0.8001408696021803  0.9666989503803327
  0.2459746664370988  0.0229798130840900  0.3911628396184213
  0.2749751140199961  0.8098009804941619  0.7585357733698798
  0.6875372229949381  0.6065652114500111  0.8261604996353777
  0.8314688311824657  0.5564418529537890  0.7762121203540403
  0.0788317259179092  0.6897178650990384  0.1058712216381016
  0.4746121170091545  0.6217139374106995  0.6835255433497267
  0.5273025396406142  0.6778189802822013  0.5123982384641338
  0.4314392578982753  0.3328672992292545  0.5116627210679715
  0.8186546945166158  0.2795218521303944  0.1455141985773773
  0.9124430187114042  0.1870577602455354  0.0253170591920988
  0.5630555957100137  0.5173355593846953  0.1328213878749193
  0.3050062627149182  0.2729041771905786  0.3391369952194901
  0.8579593408437294  0.1305403382797995  0.5865353200414043
  0.8755415937599064  0.2180076517671700  0.3929053358500017
  0.2821771899279805  0.8591009843929732  0.4817961108108668
  0.9072298990482587  0.2359160473747000  0.5938002178262944
  0.8584584720005226  0.0841170651503794  0.1758429934444740
  0.1846507381431177  0.1260080262148418  0.7309661963064686
  0.1414742171266002  0.0201197771993053  0.2498024873866118
  0.8274342072491051  0.9135974883396025  0.0003424970639356
  0.0589532496786091  0.4812038923881437  0.8639142466535715
  0.9905746203659201  0.4430886519193052  0.7795248557510664
  0.9402003691771529  0.2362374896203413  0.4856139583592397
  0.2455146549016593  0.5536439318873940  0.4099393396930023
  0.9526197934544572  0.0791545483417310  0.6288948785003895
  0.3896292647971978  0.4194026171042095  0.2711482072208282
  0.3282791889299335  0.3981489259647683  0.9629339531374315
  0.3385755176230706  0.9604411083917673  0.7857963061802244
  0.9341031340716566  0.3965490679323007  0.8671647689894719
  0.7540385354890057  0.1391103651999502  0.6387154906419802
  0.0078853614733048  0.3173832189368497  0.9011532444216100
  0.4043654645268218  0.7148408917066964  0.6420620136794473
  0.3259870559658380  0.8944610448372620  0.1027823178146618
  0.7002944938654202  0.3834981601908771  0.0865936529380265
  0.8815872139338425  0.5485815504165557  0.2573706044267984
  0.6428160166230623  0.5459477312726585  0.2246851847873221
  0.7338947696281973  0.2499594386328298  0.5830069658489542
  0.5893553601157497  0.0380046520680782  0.6553163039034987
  0.4853245075093811  0.4953506261246100  0.2683522503834188
  0.4124650792665493  0.5369666049657285  0.8296926483901594
  0.4687776230035644  0.0467195006769647  0.5258844602851800
  0.2533529662359387  0.6319241949845216  0.7229923548778034
  0.3934053083467927  0.5368583990490287  0.5502015870176243
  0.0139137863133066  0.2059980173343457  0.8477597074830820
  0.2356446653297420  0.9053438884195038  0.8355403265656866
  0.5795513227502030  0.5624325837379464  0.6365266235281717
  0.6340839103285916  0.3284359104086740  0.7225967870473422
  0.0538391235400555  0.9174643508382333  0.2207995807750701
  0.3338137524733583  0.3966688559325130  0.4615904947182369
  0.5096281444761414  0.9307063701421656  0.8908145752902707
  0.6911690242217288  0.7307796562084069  0.1148045306089704
  0.2114796018955306  0.3509797056852172  0.3256147810884363
  0.9174024370261166  0.3164511548121236  0.3277075795311500
  0.8933901397067130  0.8193127171197396  0.2478483757600289
  0.5065325758951931  0.3491647906342869  0.0306661369425907
  0.7316181406489278  0.5396939395380917  0.3766156325313467
  0.5638242100235917  0.3308022399338248  0.2209210333714718
  0.6845729844540455  0.9179443486797140  0.5286040011379008
  0.3434220662784090  0.7515420538198229  0.1665659068825380
  0.7912093824161178  0.9259018135486995  0.1171141285875956
  0.3754223199874430  0.2291065429198593  0.5494554485397246
  0.8583311093969609  0.6505289186078539  0.8500336541886019
  0.4976057571944557  0.3194550092297132  0.4070858736507086
  0.0142780955880563  0.6973023134013003  0.2866987716757564
  0.9508293368014726  0.0217922673692325  0.3234939909599535
  0.1920089120504149  0.6156849948210551  0.5206593644927902
  0.4854402910356472  0.0640664464863136 -0.0000312150177059
  0.1805756330849520  0.3239970616941003  0.8375349009956394
  0.1405752906877081  0.0220068681035473  0.5817205202638830
  0.0910643591804296  0.8624658348111346  0.0286078504779977
  0.1629962765282243  0.7416090469061341  0.1794925801015882
  0.5799248904630755  0.1428857856686704  0.2740543826847356
  0.7145853143298558  0.2889190238712068  0.2891019957534811
  0.5547972140798002  0.8125976604320904  0.2531827877192011
  0.6801851345358300  0.0448240104967282  0.3843567886574313
  0.7369737451840099  0.1000741826805105  0.2071880200259798
  0.0258512751552281  0.3351491484843387  0.7314439229754602
  0.0540319346789651  0.1114955651495780  0.1984322658654110
  0.3635537971020473  0.3680586435969425  0.6896510342227650
  0.2144654035546389  0.5392325639298017 -0.0276869438069283
  0.8910589051597363  0.6710059214215575  0.4007406465807106
  0.8376127685019119  0.9071540203920558  0.3862922099026417
  0.7223148251758992  0.4485739753485836  0.6939520724500140
  0.6761748097908361  0.2358497530527221  0.4582185784649467
  0.1318556830652450 -0.0205123037479186  0.3684857082704832
  0.2870318210141781  0.4907871838026753  0.2846944915816753
  0.2025926374571878  0.6572944645848411  0.3450194157952620
  0.4472064164785389  0.5714436638828645  0.0067069346559935
  0.3854560986444825  0.6167848919406560  0.1975084566095645
  0.6596599093543712  0.0781246411333855  0.5456189805006922
  0.4165736420890451  0.1460244954749916  0.3843225130873721
  0.5700888059397189  0.5836834053471367  0.8540798996835990
  0.7616950141156740 -0.0260540235461975  0.7332692154830396
  0.8757872759939337  0.6956140453125571  0.6415780270372097
  0.6641139463352010  0.4075253939038867  0.5292800336072279
  0.0559442724571887  0.6845031932392041  0.6105727571753080
  0.1111801915444664  0.7793664638846503  0.8039505666358706
  0.2513685500864686  0.4109245220647357  0.0612273572565245
 -0.0381208388088797  0.4943209124321767 -0.0603919725488574
  0.6424658967204503  0.9191457748957800  0.7773346219733310
  0.2318270297480034  0.8301878699712498  0.3747240334592005
  0.7811966467151745  0.2121065400786863  0.7423621944074150
  0.6926931515373339  0.8030230341984654  0.9376801543633689
  0.0173092028805956  0.9010518167260454  0.6814193469189626
  0.0127221647676888  0.1876447021725919  0.6448071285658711
  0.2942423335256328 -0.0178570373418552  0.4956224424417134
  0.9506815279074353  0.5158641616339299  0.4278453643170972
  0.8565810391368203  0.0466845088180003  0.8890319598077840
  0.2445605571075741  0.2351166675695097  0.7137595390792768
  0.9859720053890330  0.7411538929979538  0.7503219969567618
  0.0941681287013973  0.5964539326723192  0.8371790674747945
  0.8545442923863410  0.0814828113059561  0.0535015435892929
  0.6472036807466992  0.2171070573162769  0.0877048793294799
  0.3132416771306111  0.0203667715289000  0.2877463588684804
  0.6868077349404406  0.6790093488268596  0.7255919102033351
  0.1944704010385661  0.2284786467320996 -0.0139472550749076
  0.5540072506985129  0.7921534777121643  0.5607554405198306
  0.1699910198827174  0.4593007822500002  0.2126546948611841
  0.3673916122730039  0.5798180784504319  0.3908449063627523
  0.8286499444265127  0.3616723656286142  0.8147569412846202
  0.2103625445557613  0.7485097488232280 -0.0461516088233839
  0.1288651337320748  0.4639358527895960  0.4346861803146884
  0.8673269031961549  0.8978693381498711  0.5877803759569753
  0.7945788874699375  0.2142763836156473  0.9139666088476857
  0.5294518733389687  0.2250812846353506  0.5730447440405605
  0.0698485625551769  0.0088537790373240  0.8443558605428840
  0.7917686910491780  0.5471411593851182  0.5825915785238071
  0.7366007420679287  0.8864051376504686  0.2655182053772042
  0.3745550757777270  0.3525843070654543  0.1687487200961005
  0.3989807912211096  0.8299321851649353  0.4935230963254553
  0.5208759953005733  0.7068534598252663  0.0918158641989917
  0.3374601954913178  0.8980725319509590  0.6748016514679288
  0.8815112199063455  0.5981366669931290  0.0541479869591990
  0.0308645394047305  0.1373805145132593  0.3571196758296244
  0.6080173819109194  0.5561202214328616  0.0225680109916847
 -0.0289899158914750  0.9444737332580100  0.4958486314422125
  0.1223741364819515  0.3001141151863400  0.1598729056397558
  0.4222371406248768  0.8367533192281474  0.0016528553151368
  0.5283627868375824  0.5132573251909192  0.4320349867658497
  0.4923764638596065 -0.0072257464005185  0.1751723842820526
  0.4739260798711825  0.8832242610953012  0.7027974343021913
  0.5172602206029392  0.6862583741376873  0.7772281941971350
  0.5563079614621913  0.6539127894692127  0.3170765526603054
  0.0305239800835726  0.1518849210331641  0.4937792256002859
  0.6671056692501532  0.0527040366036063 -0.0327889587150333
  0.9911828509489902  0.7128613560733450  0.9488120701645846
  0.1004449831253712  0.2632280205982192  0.3307766677958039
  0.7628829260933822  0.8130389794243792  0.6495384167603501
  0.2281861478762792  0.9258937426858284  0.2030042561490713
  0.4678551454935370  0.0449384578295734  0.8005682987994969
  0.6751198033505085  0.3473720253055798  0.9055783600686125
  0.9016330186999270  0.2016332890865746  0.2062047626100255
  0.8334396401267377  0.8336488531112906  0.8399948953565988
  0.3800522332388679  0.8623099354526014  0.3019393939611882
  0.3978750487085110  0.1364784124231343  0.7148798766606995
  0.8217456356483632  0.0786767042358001  0.4788006977217362
  0.2390293635453389  0.4731663106755303  0.6030604577534442
  0.9540589472671324  0.7930719042885351  0.4524800618603562
  0.8458070994417783  0.3808061723294187  0.4958356851378504
  0.1980300099128741  0.1344921821799109  0.4125740479251793
  0.1244185777468444  0.3204455296461020  0.5551759084241147
  0.1872526313186608  0.9588408685064711  0.7077623599596700
  0.3147329166823106  0.0587655863254013  0.0785844443037323
 -0.0268764801644930  0.9741085193668970  0.1265756442835513
  0.7200988421295964  0.7428363755399889  0.3535122600776390
  0.7811644472269464  0.5089535374614050  0.9329810991180260
  0.2680919784625511  0.2500158655630270  0.4578607495570028
  0.0950742227196166  0.5670579087621124  0.0976804955932461
  0.1218087373008366  0.0271969401170246  0.0201424695051761
  0.9933672103443378  0.4244086025814934  0.1765220502044451
  0.3707183920509744  0.7781945415158308  0.8369126375408651
  0.1068636794720280  0.8492234605388171  0.5251539991519591
  0.5667044500073499  0.1961062091853547  0.7572088627513838
  0.2791866648817286  0.5857539593365543  0.1029127785659549
 -0.0972720379405781  0.0562428765801817  0.7388606483529688
  0.8054224802435302  0.4578089625664309  0.1850154047859119
  0.2243741147432219  0.8034390519040118  0.5745330353602173
  0.6092612920940268  0.8924988409009074  0.0854760878196762
  0.8646102702404527  0.3713770871025157  0.0092879521536926
  0.8763643448095922  0.7213588612519548  0.1363782922889414
  0.2142675911523723  0.0880943012138662  0.8568246396988882
 
  0.00000000E+00  0.00000000E+00  0.00000000E+00
  0.00000000E+00  0.00000000E+00  0.00000000E+00
  0.00000000E+00  0.00000000E+00  0.00000000E+00
  0.00000000E+00  0.00000000E+00  0.00000000E+00
  0.00000000E+00  0.00000000E+00  0.00000000E+00
  0.00000000E+00  0.00000000E+00  0.00000000E+00
  0.00000000E+00  0.00000000E+00  0.00000000E+00
  0.00000000E+00  0.00000000E+00  0.00000000E+00
  0.00000000E+00  0.00000000E+00  0.00000000E+00
  0.00000000E+00  0.00000000E+00  0.00000000E+00
  0.00000000E+00  0.00000000E+00  0.00000000E+00
  0.00000000E+00  0.00000000E+00  0.00000000E+00
  0.00000000E+00  0.00000000E+00  0.00000000E+00
  0.00000000E+00  0.00000000E+00  0.00000000E+00
  0.00000000E+00  0.00000000E+00  0.00000000E+00
  0.00000000E+00  0.00000000E+00  0.00000000E+00
  0.00000000E+00  0.00000000E+00  0.00000000E+00
  0.00000000E+00  0.00000000E+00  0.00000000E+00
  0.00000000E+00  0.00000000E+00  0.00000000E+00
  0.00000000E+00  0.00000000E+00  0.00000000E+00
  0.00000000E+00  0.00000000E+00  0.00000000E+00
  0.00000000E+00  0.00000000E+00  0.00000000E+00
  0.00000000E+00  0.00000000E+00  0.00000000E+00
  0.00000000E+00  0.00000000E+00  0.00000000E+00
  0.00000000E+00  0.00000000E+00  0.00000000E+00
  0.00000000E+00  0.00000000E+00  0.00000000E+00
  0.00000000E+00  0.00000000E+00  0.00000000E+00
  0.00000000E+00  0.00000000E+00  0.00000000E+00
  0.00000000E+00  0.00000000E+00  0.00000000E+00
  0.00000000E+00  0.00000000E+00  0.00000000E+00
  0.00000000E+00  0.00000000E+00  0.00000000E+00
  0.00000000E+00  0.00000000E+00  0.00000000E+00
  0.00000000E+00  0.00000000E+00  0.00000000E+00
  0.00000000E+00  0.00000000E+00  0.00000000E+00
  0.00000000E+00  0.00000000E+00  0.00000000E+00
  0.00000000E+00  0.00000000E+00  0.00000000E+00
  0.00000000E+00  0.00000000E+00  0.00000000E+00
  0.00000000E+00  0.00000000E+00  0.00000000E+00
  0.00000000E+00  0.00000000E+00  0.00000000E+00
  0.00000000E+00  0.00000000E+00  0.00000000E+00
  0.00000000E+00  0.00000000E+00  0.00000000E+00
  0.00000000E+00  0.00000000E+00  0.00000000E+00
  0.00000000E+00  0.00000000E+00  0.00000000E+00
  0.00000000E+00  0.00000000E+00  0.00000000E+00
  0.00000000E+00  0.00000000E+00  0.00000000E+00
  0.00000000E+00  0.00000000E+00  0.00000000E+00
  0.00000000E+00  0.00000000E+00  0.00000000E+00
  0.00000000E+00  0.00000000E+00  0.00000000E+00
  0.00000000E+00  0.00000000E+00  0.00000000E+00
  0.00000000E+00  0.00000000E+00  0.00000000E+00
  0.00000000E+00  0.00000000E+00  0.00000000E+00
  0.00000000E+00  0.00000000E+00  0.00000000E+00
  0.00000000E+00  0.00000000E+00  0.00000000E+00
  0.00000000E+00  0.00000000E+00  0.00000000E+00
  0.00000000E+00  0.00000000E+00  0.00000000E+00
  0.00000000E+00  0.00000000E+00  0.00000000E+00
  0.00000000E+00  0.00000000E+00  0.00000000E+00
  0.00000000E+00  0.00000000E+00  0.00000000E+00
  0.00000000E+00  0.00000000E+00  0.00000000E+00
  0.00000000E+00  0.00000000E+00  0.00000000E+00
  0.00000000E+00  0.00000000E+00  0.00000000E+00
  0.00000000E+00  0.00000000E+00  0.00000000E+00
  0.00000000E+00  0.00000000E+00  0.00000000E+00
  0.00000000E+00  0.00000000E+00  0.00000000E+00
  0.00000000E+00  0.00000000E+00  0.00000000E+00
  0.00000000E+00  0.00000000E+00  0.00000000E+00
  0.00000000E+00  0.00000000E+00  0.00000000E+00
  0.00000000E+00  0.00000000E+00  0.00000000E+00
  0.00000000E+00  0.00000000E+00  0.00000000E+00
  0.00000000E+00  0.00000000E+00  0.00000000E+00
  0.00000000E+00  0.00000000E+00  0.00000000E+00
  0.00000000E+00  0.00000000E+00  0.00000000E+00
  0.00000000E+00  0.00000000E+00  0.00000000E+00
  0.00000000E+00  0.00000000E+00  0.00000000E+00
  0.00000000E+00  0.00000000E+00  0.00000000E+00
  0.00000000E+00  0.00000000E+00  0.00000000E+00
  0.00000000E+00  0.00000000E+00  0.00000000E+00
  0.00000000E+00  0.00000000E+00  0.00000000E+00
  0.00000000E+00  0.00000000E+00  0.00000000E+00
  0.00000000E+00  0.00000000E+00  0.00000000E+00
  0.00000000E+00  0.00000000E+00  0.00000000E+00
  0.00000000E+00  0.00000000E+00  0.00000000E+00
  0.00000000E+00  0.00000000E+00  0.00000000E+00
  0.00000000E+00  0.00000000E+00  0.00000000E+00
  0.00000000E+00  0.00000000E+00  0.00000000E+00
  0.00000000E+00  0.00000000E+00  0.00000000E+00
  0.00000000E+00  0.00000000E+00  0.00000000E+00
  0.00000000E+00  0.00000000E+00  0.00000000E+00
  0.00000000E+00  0.00000000E+00  0.00000000E+00
  0.00000000E+00  0.00000000E+00  0.00000000E+00
  0.00000000E+00  0.00000000E+00  0.00000000E+00
  0.00000000E+00  0.00000000E+00  0.00000000E+00
  0.00000000E+00  0.00000000E+00  0.00000000E+00
  0.00000000E+00  0.00000000E+00  0.00000000E+00
  0.00000000E+00  0.00000000E+00  0.00000000E+00
  0.00000000E+00  0.00000000E+00  0.00000000E+00
  0.00000000E+00  0.00000000E+00  0.00000000E+00
  0.00000000E+00  0.00000000E+00  0.00000000E+00
  0.00000000E+00  0.00000000E+00  0.00000000E+00
  0.00000000E+00  0.00000000E+00  0.00000000E+00
  0.00000000E+00  0.00000000E+00  0.00000000E+00
  0.00000000E+00  0.00000000E+00  0.00000000E+00
  0.00000000E+00  0.00000000E+00  0.00000000E+00
  0.00000000E+00  0.00000000E+00  0.00000000E+00
  0.00000000E+00  0.00000000E+00  0.00000000E+00
  0.00000000E+00  0.00000000E+00  0.00000000E+00
  0.00000000E+00  0.00000000E+00  0.00000000E+00
  0.00000000E+00  0.00000000E+00  0.00000000E+00
  0.00000000E+00  0.00000000E+00  0.00000000E+00
  0.00000000E+00  0.00000000E+00  0.00000000E+00
  0.00000000E+00  0.00000000E+00  0.00000000E+00
  0.00000000E+00  0.00000000E+00  0.00000000E+00
  0.00000000E+00  0.00000000E+00  0.00000000E+00
  0.00000000E+00  0.00000000E+00  0.00000000E+00
  0.00000000E+00  0.00000000E+00  0.00000000E+00
  0.00000000E+00  0.00000000E+00  0.00000000E+00
  0.00000000E+00  0.00000000E+00  0.00000000E+00
  0.00000000E+00  0.00000000E+00  0.00000000E+00
  0.00000000E+00  0.00000000E+00  0.00000000E+00
  0.00000000E+00  0.00000000E+00  0.00000000E+00
  0.00000000E+00  0.00000000E+00  0.00000000E+00
  0.00000000E+00  0.00000000E+00  0.00000000E+00
  0.00000000E+00  0.00000000E+00  0.00000000E+00
  0.00000000E+00  0.00000000E+00  0.00000000E+00
  0.00000000E+00  0.00000000E+00  0.00000000E+00
  0.00000000E+00  0.00000000E+00  0.00000000E+00
  0.00000000E+00  0.00000000E+00  0.00000000E+00
  0.00000000E+00  0.00000000E+00  0.00000000E+00
  0.00000000E+00  0.00000000E+00  0.00000000E+00
  0.00000000E+00  0.00000000E+00  0.00000000E+00
  0.00000000E+00  0.00000000E+00  0.00000000E+00
  0.00000000E+00  0.00000000E+00  0.00000000E+00
  0.00000000E+00  0.00000000E+00  0.00000000E+00
  0.00000000E+00  0.00000000E+00  0.00000000E+00
  0.00000000E+00  0.00000000E+00  0.00000000E+00
  0.00000000E+00  0.00000000E+00  0.00000000E+00
  0.00000000E+00  0.00000000E+00  0.00000000E+00
  0.00000000E+00  0.00000000E+00  0.00000000E+00
  0.00000000E+00  0.00000000E+00  0.00000000E+00
  0.00000000E+00  0.00000000E+00  0.00000000E+00
  0.00000000E+00  0.00000000E+00  0.00000000E+00
  0.00000000E+00  0.00000000E+00  0.00000000E+00
  0.00000000E+00  0.00000000E+00  0.00000000E+00
  0.00000000E+00  0.00000000E+00  0.00000000E+00
  0.00000000E+00  0.00000000E+00  0.00000000E+00
  0.00000000E+00  0.00000000E+00  0.00000000E+00
  0.00000000E+00  0.00000000E+00  0.00000000E+00
  0.00000000E+00  0.00000000E+00  0.00000000E+00
  0.00000000E+00  0.00000000E+00  0.00000000E+00
  0.00000000E+00  0.00000000E+00  0.00000000E+00
  0.00000000E+00  0.00000000E+00  0.00000000E+00
  0.00000000E+00  0.00000000E+00  0.00000000E+00
  0.00000000E+00  0.00000000E+00  0.00000000E+00
  0.00000000E+00  0.00000000E+00  0.00000000E+00
  0.00000000E+00  0.00000000E+00  0.00000000E+00
  0.00000000E+00  0.00000000E+00  0.00000000E+00
  0.00000000E+00  0.00000000E+00  0.00000000E+00
  0.00000000E+00  0.00000000E+00  0.00000000E+00
  0.00000000E+00  0.00000000E+00  0.00000000E+00
  0.00000000E+00  0.00000000E+00  0.00000000E+00
  0.00000000E+00  0.00000000E+00  0.00000000E+00
  0.00000000E+00  0.00000000E+00  0.00000000E+00
  0.00000000E+00  0.00000000E+00  0.00000000E+00
  0.00000000E+00  0.00000000E+00  0.00000000E+00
  0.00000000E+00  0.00000000E+00  0.00000000E+00
  0.00000000E+00  0.00000000E+00  0.00000000E+00
  0.00000000E+00  0.00000000E+00  0.00000000E+00
  0.00000000E+00  0.00000000E+00  0.00000000E+00
  0.00000000E+00  0.00000000E+00  0.00000000E+00
  0.00000000E+00  0.00000000E+00  0.00000000E+00
  0.00000000E+00  0.00000000E+00  0.00000000E+00
  0.00000000E+00  0.00000000E+00  0.00000000E+00
  0.00000000E+00  0.00000000E+00  0.00000000E+00
  0.00000000E+00  0.00000000E+00  0.00000000E+00
  0.00000000E+00  0.00000000E+00  0.00000000E+00
  0.00000000E+00  0.00000000E+00  0.00000000E+00
  0.00000000E+00  0.00000000E+00  0.00000000E+00
  0.00000000E+00  0.00000000E+00  0.00000000E+00
  0.00000000E+00  0.00000000E+00  0.00000000E+00
  0.00000000E+00  0.00000000E+00  0.00000000E+00
  0.00000000E+00  0.00000000E+00  0.00000000E+00
  0.00000000E+00  0.00000000E+00  0.00000000E+00
  0.00000000E+00  0.00000000E+00  0.00000000E+00
  0.00000000E+00  0.00000000E+00  0.00000000E+00
  0.00000000E+00  0.00000000E+00  0.00000000E+00
  0.00000000E+00  0.00000000E+00  0.00000000E+00
  0.00000000E+00  0.00000000E+00  0.00000000E+00
  0.00000000E+00  0.00000000E+00  0.00000000E+00
  0.00000000E+00  0.00000000E+00  0.00000000E+00
  0.00000000E+00  0.00000000E+00  0.00000000E+00
  0.00000000E+00  0.00000000E+00  0.00000000E+00
  0.00000000E+00  0.00000000E+00  0.00000000E+00
  0.00000000E+00  0.00000000E+00  0.00000000E+00
  0.00000000E+00  0.00000000E+00  0.00000000E+00
  0.00000000E+00  0.00000000E+00  0.00000000E+00
  0.00000000E+00  0.00000000E+00  0.00000000E+00
  0.00000000E+00  0.00000000E+00  0.00000000E+00
  0.00000000E+00  0.00000000E+00  0.00000000E+00
  0.00000000E+00  0.00000000E+00  0.00000000E+00
  0.00000000E+00  0.00000000E+00  0.00000000E+00
  0.00000000E+00  0.00000000E+00  0.00000000E+00
  0.00000000E+00  0.00000000E+00  0.00000000E+00
  0.00000000E+00  0.00000000E+00  0.00000000E+00
  0.00000000E+00  0.00000000E+00  0.00000000E+00
  0.00000000E+00  0.00000000E+00  0.00000000E+00
  0.00000000E+00  0.00000000E+00  0.00000000E+00
  0.00000000E+00  0.00000000E+00  0.00000000E+00
  0.00000000E+00  0.00000000E+00  0.00000000E+00
  0.00000000E+00  0.00000000E+00  0.00000000E+00
  0.00000000E+00  0.00000000E+00  0.00000000E+00
  0.00000000E+00  0.00000000E+00  0.00000000E+00
  0.00000000E+00  0.00000000E+00  0.00000000E+00
  0.00000000E+00  0.00000000E+00  0.00000000E+00
  0.00000000E+00  0.00000000E+00  0.00000000E+00
  0.00000000E+00  0.00000000E+00  0.00000000E+00
  0.00000000E+00  0.00000000E+00  0.00000000E+00
  0.00000000E+00  0.00000000E+00  0.00000000E+00
  0.00000000E+00  0.00000000E+00  0.00000000E+00
  0.00000000E+00  0.00000000E+00  0.00000000E+00
  0.00000000E+00  0.00000000E+00  0.00000000E+00
  0.00000000E+00  0.00000000E+00  0.00000000E+00
  0.00000000E+00  0.00000000E+00  0.00000000E+00
  0.00000000E+00  0.00000000E+00  0.00000000E+00
  0.00000000E+00  0.00000000E+00  0.00000000E+00
  0.00000000E+00  0.00000000E+00  0.00000000E+00
  0.00000000E+00  0.00000000E+00  0.00000000E+00
  0.00000000E+00  0.00000000E+00  0.00000000E+00
  0.00000000E+00  0.00000000E+00  0.00000000E+00
  0.00000000E+00  0.00000000E+00  0.00000000E+00
  0.00000000E+00  0.00000000E+00  0.00000000E+00
  0.00000000E+00  0.00000000E+00  0.00000000E+00
  0.00000000E+00  0.00000000E+00  0.00000000E+00