Ge8
1.0
   4.3368194799999999    2.9986126799999999    0.0000000000000000
  -4.3368194799999999    2.9986126799999999    0.0000000000000000
   0.0000000000000000   -0.0000000000000000    5.7504647400000000
Ge
8
direct
   0.2920063500000000    0.7079936500000000    0.5000000000000000 Ge
   0.7920063500000000    0.2079936500000000    0.0000000000000000 Ge
   0.7079936500000000    0.2920063500000000    0.5000000000000000 Ge
   0.2079936500000000    0.7920063500000000    0.0000000000000000 Ge
   0.3324046000000000    0.3324046000000000    0.8420026300000000 Ge
   0.6675953999999999    0.6675953999999999    0.1579973700000000 Ge
   0.1675954000000000    0.1675954000000000    0.3420026300000000 Ge
   0.8324045999999991    0.8324045999999991    0.6579973700000000 Ge
