Amorphous Sb                            
   1.00000000000000     
    15.8778869700586895    0.0000000000000000    0.0000000000000000
     0.0000000000000000   15.8778869700586895    0.0000000000000000
     0.0000000000000000    0.0000000000000000   15.8778869700586895
   In   Ga   O 
    60    60   180
Direct
  0.9687298594600862  0.3708791001661417  0.2096404057517723
  0.7477006173355536  0.0542656082882094  0.2336199027833263
  0.0376869929362403  0.0724834076654992  0.4526429892506941
  0.4472109759996462  0.2967320584590695  0.0369111396956100
  0.9463400818606637  0.1704449419597507  0.7453935630658628
  0.7874594105287875  0.7974670923990749  0.1890637127720345
  0.5949650735447627  0.5391575355858482  0.4086480896652399
  0.4869487638571884  0.8044332081057033  0.0705470676041752
  0.7384360765934953  0.2684637629067745  0.2294124723438045
  0.6948556632033869  0.6035775686757719  0.0418066433086272
  0.9483859810616003  0.7408054646115901  0.3313433796134900
  0.3607539989901952  0.2437313311231360  0.6044799706077419
  0.3443366433964991  0.2662833996682424  0.8135366304478269
  0.8820656460891904  0.2729831020577712  0.5231133729039513
  0.7133793582566458  0.4656262332115616  0.6258930949736649
  0.6239484455695699  0.1545128583208317  0.8785916504576837
  0.7749699112348248  0.1510988144817065  0.0450834290625535
  0.1235525672161559  0.1747100123656358  0.2662118740251749
  0.4227796261596544  0.6462104967578831  0.3535777351220778
  0.8980441575787308  0.9641146142172606  0.0439984625994838
  0.9068265763014919  0.6308098232746169  0.6885324803052338
  0.1669699339843936  0.4960999051142059  0.5350265610144171
  0.7807527852470127  0.9864000405130920  0.8808032212220861
  0.3153808594352980  0.5627594216755725  0.8627046420716926
  0.1033860634459723  0.2678214147531804  0.0504120572299770
  0.6775129780069117  0.6986884363252737  0.6258616332547633
  0.3859251841058166  0.5155767653071349  0.5323483056098216
  0.5228839242202554  0.5590185764604658  0.7139985399258478
  0.9084209582324407  0.7995974842669414  0.5434840590182508
  0.0222590498669375  0.9579698717477334  0.2642098188221259
  0.9361737129752968  0.1379508078820732  0.1821587200465854
  0.5303449981803606  0.3268979925423985  0.2395058991014624
  0.3580208792328614  0.1594665559876414  0.3044935889017698
  0.7154467356731773  0.3478162539858044  0.4569658331473966
  0.7609297864766877  0.3665650346981980  0.8711211632517125
  0.5615323732885444  0.3217095363981664  0.7611054458390991
  0.0386893343592199  0.3164630579477435  0.4019216261393136
  0.9663470797150826  0.8184789443002071  0.8856984590978226
  0.7230549047673497  0.8072078026546096  0.9791131986986057
  0.1069457214420682  0.0509994764552539  0.0863355626866793
  0.9659236671688513  0.5894496362555577  0.1915221927375483
  0.1535832985179765  0.1577856863124432  0.6527376087336410
  0.8111099328778121  0.4509144329521735  0.0887890991032062
  0.0848369635047996  0.7723024218140865  0.6863577804581749
  0.2160317967893114  0.2218717526354070  0.4611607297761089
  0.1579790383220373  0.4672824246496460  0.1876526119545286
  0.5753956291993861  0.9080396077054734  0.5883227596276183
  0.9717251561775091  0.3414017528426348  0.8523603522925947
  0.3069158568004071  0.8211687388231003  0.3494885727880430
  0.6432858976668726  0.9655775368088503  0.0750353243115180
  0.3389949312744223  0.6673622083086752  0.1891792482964172
  0.7290773172905213  0.0500500051275974  0.6911220037917595
  0.5439187734223119  0.8952383007668823  0.8666074017171309
  0.1755788590813849  0.3425657078418799  0.7569962729243300
  0.5607560565824228  0.1940832708879416  0.6089066325238670
  0.5922749772977822  0.7068437315678089  0.2075061143924096
  0.7530644480950138  0.2807483588033795  0.7033600253475292
  0.0654372154618655  0.5131554012204989  0.7105134755386534
  0.2464463577869439  0.7031432782751863  0.5067632215391243
  0.9279039880000993  0.9597558757014392  0.7199821910827834
  0.5944717769480620  0.1566502536486578  0.0630079023804233
  0.9863453680712648  0.7961148856133664  0.1093871280327182
  0.2270548220689744  0.1546816891096464  0.9133624341423243
  0.3105994497446598  0.9275124287027279  0.0317578601775869
  0.0344866854318113  0.4535010682429312  0.0335413474169317
  0.0680057299460948  0.6378487748243205  0.0065139921054652
  0.3366440854176109  0.0599341842286154  0.6365007491991120
  0.7905397632251475  0.6242347494767645  0.2918688771479149
  0.3888318137683651  0.8891423930685622  0.5322360455153022
  0.1784442689090524  0.6316568479156026  0.3345010862649703
  0.5390036144366385  0.2095539628200092  0.4093207761681664
  0.5743685624781121  0.6827926138966722  0.8809292656031903
  0.0332550945540084  0.0134451349870292  0.8818907370728869
  0.2729213027041094  0.2096249631674579  0.1048252606661563
  0.1879838266027902  0.9751393003937695  0.8035247120522789
  0.0201532368899787  0.5155068196209013  0.3628107222317866
  0.4779080730476065  0.7159168919290372  0.5377513943837977
  0.7940076212449720  0.6333818768809116  0.4914300176950585
  0.2474365907824787  0.9800203796672002  0.2166492844521006
  0.5442203985554915  0.1115754699029686  0.2540253720816528
  0.4626121783134042  0.7646825787847915  0.7310089235890658
  0.1247575041147847  0.6594876714557736  0.8416830734394103
  0.7193871843815292  0.8409115774390497  0.7513084710264435
  0.5225942886806390  0.4830470537531118  0.9195043542393420
  0.7147171539591314  0.1335150284758510  0.5155639789198806
  0.6013061041648987  0.9087142678195499  0.2691968365625956
  0.6311472582161936  0.7504677313826800  0.4075165347856590
  0.2820919165781361  0.7870638081891244  0.8270895013215075
  0.4618493326877205  0.9861299942881142  0.3952960322850300
  0.8442209472581967  0.9790349761529045  0.5236018493313177
  0.1052063782773952  0.8655181718618618  0.4613937287958029
  0.4181402443781459  0.0711695023656495  0.1057375283259503
  0.0399340457107898  0.6471002642038219  0.5119194424608274
  0.2770620030419151  0.7385370719795489  0.0024048525221031
  0.7868178326446518  0.6860504037358290  0.8494092730662778
  0.2647461211110444  0.3595659798735257  0.9564146844794307
  0.8372217186045675  0.4411088867208919  0.3431395164312562
  0.6347538780775794  0.3407254355868698  0.0472979839554814
  0.4354341934340553  0.0873569988487482  0.9183026701233573
  0.2361986510411459  0.5487783731190065  0.0367448097417461
  0.0460619454090612  0.3126876400382875  0.6158872502334680
  0.1487804513036098  0.9771475874559790  0.5965347815422416
  0.3987761118064717  0.4298870711720181  0.7339543848421750
  0.2557805423726962  0.0345083788788564  0.4141761443579410
  0.5009963540140048  0.0684655833997204  0.7318180447160846
  0.9399188172288266  0.1572694505308291  0.9644263808855043
  0.3871934614623234  0.3487058515953034  0.4120953719137582
  0.3707280706184160  0.9120833530814444  0.7208928552866222
  0.8765455325240252  0.1277858319788662  0.3748785433155820
  0.4694473944247169  0.6148848245538056  0.0261209831500146
  0.8936804545490473  0.5411353214057367  0.9168607791374133
  0.7876881760303275  0.8989615008551559  0.3630631084740855
  0.5372249322613656  0.3739681232977115  0.5344633996520498
  0.1397180198276071  0.8645082416810215  0.9834744912548914
  0.6744017103016540  0.4631336700270138  0.2471385599283658
  0.2664116304448576  0.6515601939440722  0.6903786487563530
  0.3619946899799639  0.4528434242446113  0.2172607349843616
  0.1612443962077872  0.7871245247664602  0.1860106247921649
  0.2188918514554059  0.4218174637274787  0.3712954182882538
  0.9129311118575487  0.4749921476798738  0.5395216732804597
  0.5483262206203852  0.1780959059217793  0.7551227768702584
  0.7549546662977897  0.7277945873275921  0.7443343781332857
  0.6321160439999438  0.4571950338466322  0.5123234889099493
  0.5933442053355704  0.3128509439411484  0.4399257125752631
  0.7396187063349897  0.3727023977468634  0.3188356872522185
  0.2956554143886004  0.4008702994119943  0.7886952294263301
  0.9895494881997097  0.0002864628132560  0.1405355238077144
  0.0647578438192396  0.1715490579714768  0.1374326922410988
  0.6544515475563256  0.3655006810412929  0.1699974268128011
  0.2920578824485408  0.6676750021960564  0.3830555457548795
  0.6799486379771724  0.8788596221125132  0.8582026491532743
  0.8671844489298807  0.5319379239934170  0.2740481982277418
  0.1028145311133686  0.9154391928189682  0.8726248854419494
  0.5209023481487466  0.0313632006341367  0.8505315832561962
  0.3734419650390350  0.1766476487859317  0.0557683580664661
  0.4404909548498417  0.1262706500281318  0.6298346152866380
  0.3482378866568800  0.9330006001985901  0.4231714474611940
  0.3958245481983589  0.7541796826582913  0.2744471630307980
  0.9875523044688000  0.7088061217311706  0.6071147344778017
  0.2118070700722945  0.2733068372193688  0.8835187579880512
  0.5134977407012620  0.1706309583616975  0.9595457466128471
  0.2663649684216843  0.8943022902911166  0.7744107199492434
  0.4725478404524973  0.2659689119446959  0.5295875556524161
  0.8171578427395597  0.8724603632258944  0.4733539219017213
  0.9185608723033922  0.9211174852172199  0.5945964823427412
  0.2549141616895242  0.8468243607930295  0.9397719841028978
  0.4644269813789017  0.4599933346024511  0.6288760648543575
  0.4269678452787199  0.8554961621768137  0.8138701306855516
  0.7939436113286589  0.9337776472119113  0.7485280319864314
  0.0166645784548561  0.0666680717449227  0.9856158062419661
  0.4955148946686975  0.9068306303991994  0.3200720459128092
  0.9045244220557986  0.0660539145082952  0.4753569121319019
  0.6724437183316468  0.8535870119443770  0.3572376046545018
  0.4836927746017490  0.9628259958091863  0.5110409869380440
  0.6757535759484768  0.6623193093131519  0.4826101515889222
  0.1483138801646350  0.1208556925569978  0.3894836733310235
  0.8333901240224862  0.0556723190843628  0.1287273943051808
  0.7103494909347770  0.7126842152913364  0.2690165328011226
  0.1911702738267574  0.1541707539451558  0.0288209594061555
  0.6631127717040962  0.0749957985008012  0.9985758280188236
  0.5610178797791350  0.6708600785074302  0.3401402735928637
  0.7004870834223912  0.1736915745390932  0.6330422396490170
  0.5628046959311962  0.8338219778846443  0.1777910690494135
  0.3865178833890708  0.5515899346080617  0.7483891709001502
  0.1624314597875469  0.0689605098580494  0.8704603656533367
  0.3247539929975551  0.3922655670289596  0.3160303858274137
  0.7158938939182785  0.5379127315042260  0.3417001820613584
  0.6767823028503051  0.2360228877217803  0.9980690436042057
  0.2339962698164358  0.3161724074908230  0.0641856764015918
  0.3015678532085442  0.0311977777947269  0.3049776798516295
  0.3976835070513415  0.5621712930014416  0.2509181211624165
  0.3451786747522543  0.7345039366746940  0.7311405548784703
  0.4813442193270027  0.1010822078949446  0.3645423277546204
  0.0788828085888705  0.2480832510441365  0.7207915883632269
  0.3303600525058694  0.9938582695301984  0.1342161935887151
  0.6706044815621833  0.2723635426709071  0.8233612835802810
  0.7631625583348784  0.9317197981690463  0.0058590584957482
  0.5504953585320296  0.2590582142602701  0.1105180977601502
  0.0221372954494590  0.8613950555388856  0.0148082960092027
  0.1430118945851429  0.6255345546260062  0.4505448277446003
  0.4606272270916257  0.4327153743456593  0.4556685603045360
  0.9385834097510953  0.5039464660395994  0.6563294162209363
  0.1392627768594444  0.0308808379966627  0.2201303703995993
  0.7947759570648145  0.0177377750112867  0.3530454570511719
  0.5011528460907522  0.4302933114663820  0.8064984580916493
  0.2755484199699402  0.4710891589118534  0.4669761831367411
  0.1193660844434778  0.5374974629425110  0.0761376643007719
  0.1711800636955316  0.3057530276445879  0.3616918819704365
  0.7236571951602635  0.4056686778120128  0.9961624597451628
  0.6224727069082300  0.0282523575717262  0.2772784188948276
  0.9605641636752049  0.2087103296582519  0.4323786401790768
  0.8572051624566295  0.5981581895434140  0.8166991418103029
  0.1735796484045129  0.7738217207644229  0.0675061145241600
  0.7139301139102961  0.0816107789922629  0.8185965977377566
  0.3174693178337706  0.9443271882942799  0.6092766868410087
  0.6677844762182613  0.8315088682677368  0.6441981576974917
  0.5436338183628053  0.3795460651369750  0.9792151682105690
  0.1944566669602915  0.7994020877889031  0.4220701444337217
  0.8175909458649258  0.5662191354777251  0.0050482257142253
  0.8391481519359901  0.3486094298416745  0.1749286473321253
  0.3759380212538198  0.7713900891586735  0.5053761824482682
  0.8397200543684172  0.6758956275067914  0.3931647985351321
  0.5999692495527812  0.1392468739976764  0.4897244170716580
  0.9896885502666316  0.2082054685403591  0.8719269816384827
  0.0448265726016810  0.7162451199512710  0.9179942791246287
  0.8387803193492940  0.7722337344251371  0.9108282779644183
  0.4994937333665189  0.7151873531595918  0.9665646423828028
  0.5974863155190018  0.2159844372582454  0.2930135496505357
  0.0060215347242115  0.5442648882707982  0.9548163147268718
  0.8625662189503203  0.0802153182076501  0.6934380163353815
  0.2444436825059745  0.4743090469043791  0.9447591712655817
  0.9526566651628630  0.4060035083748212  0.3443220821401219
  0.1827321911464935  0.9716122690449738  0.4814743911872136
  0.2599764622345064  0.2428696733190694  0.7060457504906126
  0.1286847023774436  0.4066512577155159  0.6385680748575798
  0.9821555506082821  0.3722635944192850  0.5283708271450596
  0.5414699017642171  0.0559558613889402  0.1169898365309303
  0.7740051025670197  0.3408472756573468  0.5851366868836119
  0.3164227393996987  0.1380259452816026  0.4287992726517277
  0.1906729453379328  0.9538455823040747  0.0476688660085343
  0.0405586385311725  0.4889232427520364  0.2449967515684815
  0.9797390548815041  0.8346321952765058  0.7512625004723539
  0.0376890012065215  0.9394668830831494  0.3957480176305891
  0.6925149798016402  0.1606732400075435  0.1558610093340474
  0.9201052325419610  0.9475946398614085  0.8982875616754715
  0.5660093829035855  0.4568633207620960  0.2964903245332243
  0.8787819190696124  0.4246690908956792  0.9020025857094256
  0.0704820954192534  0.4161452891196527  0.8029549316853659
  0.6888477706745348  0.6837273449479556  0.9216021890949285
  0.2078790304056553  0.5194901106229369  0.2999841407941325
  0.8188378412544661  0.7030406502598253  0.5890358944287386
  0.9021012594464024  0.2102613499585523  0.0641423766933811
  0.1799009075207091  0.6348297952134372  0.9562775714142345
  0.9418863295347369  0.4774010507138591  0.1088442260382782
  0.2682262800649767  0.1369560307463880  0.5796490868205130
  0.4733322279358020  0.6095731471712322  0.4755964409886910
  0.3552977702680093  0.8185416455497091  0.0668090068933041
  0.2074900929233998  0.5870054986568134  0.7757331906847786
  0.4028422674342933  0.0031190615375427  0.9952475455006701
  0.8077411578240798  0.5382038150952093  0.5600526070775157
  0.1991701743188394  0.7297908436882334  0.6276494026009580
  0.2785922391825985  0.4827258646129305  0.1341645276729819
  0.4454087949456691  0.2686049525069259  0.3447904104085781
  0.5624547384372806  0.5740002247102569  0.8419350732975500
  0.3868008572461776  0.0278769271074561  0.7428520686417007
  0.5997322762157261  0.3274447016100817  0.6326370677002151
  0.9748289188232280  0.0826905293966215  0.3049056843357913
  0.8513083467496598  0.2803550584552757  0.7984842884260558
  0.3399794404591608  0.1432514770123307  0.8721247478589388
  0.9663500283746606  0.5589892470903807  0.4661380074613898
  0.2511060616257101  0.1949961741627729  0.2188947424281018
  0.0471192539673896  0.8227058186328963  0.2134432467572844
  0.7082054576609425  0.9189799673655328  0.1889720226841077
  0.0402559654645282  0.3522721721937715  0.9705103774869848
  0.5924294904880077  0.0095578372774390  0.6772601357709266
  0.8775507854779857  0.8383846815559500  0.0992351434446580
  0.3226273335661217  0.6975474811193149  0.8976636310973374
  0.6992588269395309  0.7320509010902757  0.0935241415673380
  0.0178018469396274  0.2600265194249834  0.2722312584820382
  0.8704691111783206  0.8502615307449940  0.2919096171586384
  0.5632985808107380  0.7900773654613678  0.5001148876768050
  0.3755215066594048  0.3286205581831013  0.9317074913048693
  0.8446235230303432  0.0887390027983862  0.9484664273650734
  0.0971945012745934  0.5826558820933889  0.5998803565657790
  0.0116105379976385  0.6802113341028512  0.1019609786568227
  0.3175806457674569  0.6382659572018575  0.0619394121725285
  0.4173586402341873  0.5335238981721061  0.9552981107055565
  0.2048441308694662  0.6845261034395116  0.2277719982571384
  0.7828032480153284  0.2064113756063636  0.4510721264439234
  0.7371416104875720  0.0219822312666013  0.5535995929618920
  0.9388054575441493  0.2547935317709761  0.6408185807121275
  0.0340821118337887  0.6359089153838917  0.7604575353983268
  0.1046005855445200  0.4467270949550916  0.4211178650653710
  0.0956215360595801  0.8712575228085720  0.5845093045874463
  0.3105411734422545  0.3111962595501881  0.4967114204997917
  0.0798370956263401  0.3739729609293097  0.1288888947217318
  0.2939442384960575  0.5956685120710736  0.5863667665023088
  0.4811115057643068  0.6751223558980505  0.1322814700105933
  0.0728424970411808  0.0689317844751833  0.5830571523227238
  0.4296343791570447  0.3723765702270627  0.1612974103134454
  0.6481064253370865  0.5760528715809294  0.6666851380786047
  0.8354780637121375  0.4110899181996587  0.4576549373560194
  0.8761123790849071  0.6895121409528679  0.2221748599549994
  0.1954451191105918  0.0288617367220645  0.6951115548732520
  0.4265136660673468  0.3076778942748345  0.7145405775131294
  0.7167393474544184  0.4094579660312879  0.7474775140190296
  0.5789863424113677  0.8740371839816095  0.9977556363734965
  0.5650994319039316  0.7648528258659337  0.7963847356017790
  0.5080719809097028  0.6833114052669960  0.6484997731841692
  0.0386802335355069  0.6350970905028500  0.3122962837120349
  0.2316974067817677  0.8651181696840724  0.2427267830668770
  0.4398867020968668  0.1395273385200194  0.2040355961407344
  0.7225189968820848  0.5334871484549026  0.1594741033397088
  0.1148373969209506  0.2444195716819116  0.5444091721410745
  0.1680874273252450  0.7588138656010487  0.7952289552743304
  0.4576580726743602  0.8562421137091318  0.6461457426699567
  0.8278131569852940  0.1714846124045511  0.2711176396655163
  0.0094861402621223  0.7645039335441935  0.4526902797771575
  0.5739077054479529  0.5535518568523292  0.0156432788646624
  0.0154908526589051  0.0495439008267507  0.7713886010911623
 
  0.00000000E+00  0.00000000E+00  0.00000000E+00
  0.00000000E+00  0.00000000E+00  0.00000000E+00
  0.00000000E+00  0.00000000E+00  0.00000000E+00
  0.00000000E+00  0.00000000E+00  0.00000000E+00
  0.00000000E+00  0.00000000E+00  0.00000000E+00
  0.00000000E+00  0.00000000E+00  0.00000000E+00
  0.00000000E+00  0.00000000E+00  0.00000000E+00
  0.00000000E+00  0.00000000E+00  0.00000000E+00
  0.00000000E+00  0.00000000E+00  0.00000000E+00
  0.00000000E+00  0.00000000E+00  0.00000000E+00
  0.00000000E+00  0.00000000E+00  0.00000000E+00
  0.00000000E+00  0.00000000E+00  0.00000000E+00
  0.00000000E+00  0.00000000E+00  0.00000000E+00
  0.00000000E+00  0.00000000E+00  0.00000000E+00
  0.00000000E+00  0.00000000E+00  0.00000000E+00
  0.00000000E+00  0.00000000E+00  0.00000000E+00
  0.00000000E+00  0.00000000E+00  0.00000000E+00
  0.00000000E+00  0.00000000E+00  0.00000000E+00
  0.00000000E+00  0.00000000E+00  0.00000000E+00
  0.00000000E+00  0.00000000E+00  0.00000000E+00
  0.00000000E+00  0.00000000E+00  0.00000000E+00
  0.00000000E+00  0.00000000E+00  0.00000000E+00
  0.00000000E+00  0.00000000E+00  0.00000000E+00
  0.00000000E+00  0.00000000E+00  0.00000000E+00
  0.00000000E+00  0.00000000E+00  0.00000000E+00
  0.00000000E+00  0.00000000E+00  0.00000000E+00
  0.00000000E+00  0.00000000E+00  0.00000000E+00
  0.00000000E+00  0.00000000E+00  0.00000000E+00
  0.00000000E+00  0.00000000E+00  0.00000000E+00
  0.00000000E+00  0.00000000E+00  0.00000000E+00
  0.00000000E+00  0.00000000E+00  0.00000000E+00
  0.00000000E+00  0.00000000E+00  0.00000000E+00
  0.00000000E+00  0.00000000E+00  0.00000000E+00
  0.00000000E+00  0.00000000E+00  0.00000000E+00
  0.00000000E+00  0.00000000E+00  0.00000000E+00
  0.00000000E+00  0.00000000E+00  0.00000000E+00
  0.00000000E+00  0.00000000E+00  0.00000000E+00
  0.00000000E+00  0.00000000E+00  0.00000000E+00
  0.00000000E+00  0.00000000E+00  0.00000000E+00
  0.00000000E+00  0.00000000E+00  0.00000000E+00
  0.00000000E+00  0.00000000E+00  0.00000000E+00
  0.00000000E+00  0.00000000E+00  0.00000000E+00
  0.00000000E+00  0.00000000E+00  0.00000000E+00
  0.00000000E+00  0.00000000E+00  0.00000000E+00
  0.00000000E+00  0.00000000E+00  0.00000000E+00
  0.00000000E+00  0.00000000E+00  0.00000000E+00
  0.00000000E+00  0.00000000E+00  0.00000000E+00
  0.00000000E+00  0.00000000E+00  0.00000000E+00
  0.00000000E+00  0.00000000E+00  0.00000000E+00
  0.00000000E+00  0.00000000E+00  0.00000000E+00
  0.00000000E+00  0.00000000E+00  0.00000000E+00
  0.00000000E+00  0.00000000E+00  0.00000000E+00
  0.00000000E+00  0.00000000E+00  0.00000000E+00
  0.00000000E+00  0.00000000E+00  0.00000000E+00
  0.00000000E+00  0.00000000E+00  0.00000000E+00
  0.00000000E+00  0.00000000E+00  0.00000000E+00
  0.00000000E+00  0.00000000E+00  0.00000000E+00
  0.00000000E+00  0.00000000E+00  0.00000000E+00
  0.00000000E+00  0.00000000E+00  0.00000000E+00
  0.00000000E+00  0.00000000E+00  0.00000000E+00
  0.00000000E+00  0.00000000E+00  0.00000000E+00
  0.00000000E+00  0.00000000E+00  0.00000000E+00
  0.00000000E+00  0.00000000E+00  0.00000000E+00
  0.00000000E+00  0.00000000E+00  0.00000000E+00
  0.00000000E+00  0.00000000E+00  0.00000000E+00
  0.00000000E+00  0.00000000E+00  0.00000000E+00
  0.00000000E+00  0.00000000E+00  0.00000000E+00
  0.00000000E+00  0.00000000E+00  0.00000000E+00
  0.00000000E+00  0.00000000E+00  0.00000000E+00
  0.00000000E+00  0.00000000E+00  0.00000000E+00
  0.00000000E+00  0.00000000E+00  0.00000000E+00
  0.00000000E+00  0.00000000E+00  0.00000000E+00
  0.00000000E+00  0.00000000E+00  0.00000000E+00
  0.00000000E+00  0.00000000E+00  0.00000000E+00
  0.00000000E+00  0.00000000E+00  0.00000000E+00
  0.00000000E+00  0.00000000E+00  0.00000000E+00
  0.00000000E+00  0.00000000E+00  0.00000000E+00
  0.00000000E+00  0.00000000E+00  0.00000000E+00
  0.00000000E+00  0.00000000E+00  0.00000000E+00
  0.00000000E+00  0.00000000E+00  0.00000000E+00
  0.00000000E+00  0.00000000E+00  0.00000000E+00
  0.00000000E+00  0.00000000E+00  0.00000000E+00
  0.00000000E+00  0.00000000E+00  0.00000000E+00
  0.00000000E+00  0.00000000E+00  0.00000000E+00
  0.00000000E+00  0.00000000E+00  0.00000000E+00
  0.00000000E+00  0.00000000E+00  0.00000000E+00
  0.00000000E+00  0.00000000E+00  0.00000000E+00
  0.00000000E+00  0.00000000E+00  0.00000000E+00
  0.00000000E+00  0.00000000E+00  0.00000000E+00
  0.00000000E+00  0.00000000E+00  0.00000000E+00
  0.00000000E+00  0.00000000E+00  0.00000000E+00
  0.00000000E+00  0.00000000E+00  0.00000000E+00
  0.00000000E+00  0.00000000E+00  0.00000000E+00
  0.00000000E+00  0.00000000E+00  0.00000000E+00
  0.00000000E+00  0.00000000E+00  0.00000000E+00
  0.00000000E+00  0.00000000E+00  0.00000000E+00
  0.00000000E+00  0.00000000E+00  0.00000000E+00
  0.00000000E+00  0.00000000E+00  0.00000000E+00
  0.00000000E+00  0.00000000E+00  0.00000000E+00
  0.00000000E+00  0.00000000E+00  0.00000000E+00
  0.00000000E+00  0.00000000E+00  0.00000000E+00
  0.00000000E+00  0.00000000E+00  0.00000000E+00
  0.00000000E+00  0.00000000E+00  0.00000000E+00
  0.00000000E+00  0.00000000E+00  0.00000000E+00
  0.00000000E+00  0.00000000E+00  0.00000000E+00
  0.00000000E+00  0.00000000E+00  0.00000000E+00
  0.00000000E+00  0.00000000E+00  0.00000000E+00
  0.00000000E+00  0.00000000E+00  0.00000000E+00
  0.00000000E+00  0.00000000E+00  0.00000000E+00
  0.00000000E+00  0.00000000E+00  0.00000000E+00
  0.00000000E+00  0.00000000E+00  0.00000000E+00
  0.00000000E+00  0.00000000E+00  0.00000000E+00
  0.00000000E+00  0.00000000E+00  0.00000000E+00
  0.00000000E+00  0.00000000E+00  0.00000000E+00
  0.00000000E+00  0.00000000E+00  0.00000000E+00
  0.00000000E+00  0.00000000E+00  0.00000000E+00
  0.00000000E+00  0.00000000E+00  0.00000000E+00
  0.00000000E+00  0.00000000E+00  0.00000000E+00
  0.00000000E+00  0.00000000E+00  0.00000000E+00
  0.00000000E+00  0.00000000E+00  0.00000000E+00
  0.00000000E+00  0.00000000E+00  0.00000000E+00
  0.00000000E+00  0.00000000E+00  0.00000000E+00
  0.00000000E+00  0.00000000E+00  0.00000000E+00
  0.00000000E+00  0.00000000E+00  0.00000000E+00
  0.00000000E+00  0.00000000E+00  0.00000000E+00
  0.00000000E+00  0.00000000E+00  0.00000000E+00
  0.00000000E+00  0.00000000E+00  0.00000000E+00
  0.00000000E+00  0.00000000E+00  0.00000000E+00
  0.00000000E+00  0.00000000E+00  0.00000000E+00
  0.00000000E+00  0.00000000E+00  0.00000000E+00
  0.00000000E+00  0.00000000E+00  0.00000000E+00
  0.00000000E+00  0.00000000E+00  0.00000000E+00
  0.00000000E+00  0.00000000E+00  0.00000000E+00
  0.00000000E+00  0.00000000E+00  0.00000000E+00
  0.00000000E+00  0.00000000E+00  0.00000000E+00
  0.00000000E+00  0.00000000E+00  0.00000000E+00
  0.00000000E+00  0.00000000E+00  0.00000000E+00
  0.00000000E+00  0.00000000E+00  0.00000000E+00
  0.00000000E+00  0.00000000E+00  0.00000000E+00
  0.00000000E+00  0.00000000E+00  0.00000000E+00
  0.00000000E+00  0.00000000E+00  0.00000000E+00
  0.00000000E+00  0.00000000E+00  0.00000000E+00
  0.00000000E+00  0.00000000E+00  0.00000000E+00
  0.00000000E+00  0.00000000E+00  0.00000000E+00
  0.00000000E+00  0.00000000E+00  0.00000000E+00
  0.00000000E+00  0.00000000E+00  0.00000000E+00
  0.00000000E+00  0.00000000E+00  0.00000000E+00
  0.00000000E+00  0.00000000E+00  0.00000000E+00
  0.00000000E+00  0.00000000E+00  0.00000000E+00
  0.00000000E+00  0.00000000E+00  0.00000000E+00
  0.00000000E+00  0.00000000E+00  0.00000000E+00
  0.00000000E+00  0.00000000E+00  0.00000000E+00
  0.00000000E+00  0.00000000E+00  0.00000000E+00
  0.00000000E+00  0.00000000E+00  0.00000000E+00
  0.00000000E+00  0.00000000E+00  0.00000000E+00
  0.00000000E+00  0.00000000E+00  0.00000000E+00
  0.00000000E+00  0.00000000E+00  0.00000000E+00
  0.00000000E+00  0.00000000E+00  0.00000000E+00
  0.00000000E+00  0.00000000E+00  0.00000000E+00
  0.00000000E+00  0.00000000E+00  0.00000000E+00
  0.00000000E+00  0.00000000E+00  0.00000000E+00
  0.00000000E+00  0.00000000E+00  0.00000000E+00
  0.00000000E+00  0.00000000E+00  0.00000000E+00
  0.00000000E+00  0.00000000E+00  0.00000000E+00
  0.00000000E+00  0.00000000E+00  0.00000000E+00
  0.00000000E+00  0.00000000E+00  0.00000000E+00
  0.00000000E+00  0.00000000E+00  0.00000000E+00
  0.00000000E+00  0.00000000E+00  0.00000000E+00
  0.00000000E+00  0.00000000E+00  0.00000000E+00
  0.00000000E+00  0.00000000E+00  0.00000000E+00
  0.00000000E+00  0.00000000E+00  0.00000000E+00
  0.00000000E+00  0.00000000E+00  0.00000000E+00
  0.00000000E+00  0.00000000E+00  0.00000000E+00
  0.00000000E+00  0.00000000E+00  0.00000000E+00
  0.00000000E+00  0.00000000E+00  0.00000000E+00
  0.00000000E+00  0.00000000E+00  0.00000000E+00
  0.00000000E+00  0.00000000E+00  0.00000000E+00
  0.00000000E+00  0.00000000E+00  0.00000000E+00
  0.00000000E+00  0.00000000E+00  0.00000000E+00
  0.00000000E+00  0.00000000E+00  0.00000000E+00
  0.00000000E+00  0.00000000E+00  0.00000000E+00
  0.00000000E+00  0.00000000E+00  0.00000000E+00
  0.00000000E+00  0.00000000E+00  0.00000000E+00
  0.00000000E+00  0.00000000E+00  0.00000000E+00
  0.00000000E+00  0.00000000E+00  0.00000000E+00
  0.00000000E+00  0.00000000E+00  0.00000000E+00
  0.00000000E+00  0.00000000E+00  0.00000000E+00
  0.00000000E+00  0.00000000E+00  0.00000000E+00
  0.00000000E+00  0.00000000E+00  0.00000000E+00
  0.00000000E+00  0.00000000E+00  0.00000000E+00
  0.00000000E+00  0.00000000E+00  0.00000000E+00
  0.00000000E+00  0.00000000E+00  0.00000000E+00
  0.00000000E+00  0.00000000E+00  0.00000000E+00
  0.00000000E+00  0.00000000E+00  0.00000000E+00
  0.00000000E+00  0.00000000E+00  0.00000000E+00
  0.00000000E+00  0.00000000E+00  0.00000000E+00
  0.00000000E+00  0.00000000E+00  0.00000000E+00
  0.00000000E+00  0.00000000E+00  0.00000000E+00
  0.00000000E+00  0.00000000E+00  0.00000000E+00
  0.00000000E+00  0.00000000E+00  0.00000000E+00
  0.00000000E+00  0.00000000E+00  0.00000000E+00
  0.00000000E+00  0.00000000E+00  0.00000000E+00
  0.00000000E+00  0.00000000E+00  0.00000000E+00
  0.00000000E+00  0.00000000E+00  0.00000000E+00
  0.00000000E+00  0.00000000E+00  0.00000000E+00
  0.00000000E+00  0.00000000E+00  0.00000000E+00
  0.00000000E+00  0.00000000E+00  0.00000000E+00
  0.00000000E+00  0.00000000E+00  0.00000000E+00
  0.00000000E+00  0.00000000E+00  0.00000000E+00
  0.00000000E+00  0.00000000E+00  0.00000000E+00
  0.00000000E+00  0.00000000E+00  0.00000000E+00
  0.00000000E+00  0.00000000E+00  0.00000000E+00
  0.00000000E+00  0.00000000E+00  0.00000000E+00
  0.00000000E+00  0.00000000E+00  0.00000000E+00
  0.00000000E+00  0.00000000E+00  0.00000000E+00
  0.00000000E+00  0.00000000E+00  0.00000000E+00
  0.00000000E+00  0.00000000E+00  0.00000000E+00
  0.00000000E+00  0.00000000E+00  0.00000000E+00
  0.00000000E+00  0.00000000E+00  0.00000000E+00
  0.00000000E+00  0.00000000E+00  0.00000000E+00
  0.00000000E+00  0.00000000E+00  0.00000000E+00
  0.00000000E+00  0.00000000E+00  0.00000000E+00
  0.00000000E+00  0.00000000E+00  0.00000000E+00
  0.00000000E+00  0.00000000E+00  0.00000000E+00
  0.00000000E+00  0.00000000E+00  0.00000000E+00
  0.00000000E+00  0.00000000E+00  0.00000000E+00
  0.00000000E+00  0.00000000E+00  0.00000000E+00
  0.00000000E+00  0.00000000E+00  0.00000000E+00
  0.00000000E+00  0.00000000E+00  0.00000000E+00
  0.00000000E+00  0.00000000E+00  0.00000000E+00
  0.00000000E+00  0.00000000E+00  0.00000000E+00
  0.00000000E+00  0.00000000E+00  0.00000000E+00