Sb                                      
   1.00000000000000     
    18.5863272108442530    0.0000000000000000    0.0000000000000000
     0.0000000000000000   18.5863272108442530    0.0000000000000000
     0.0000000000000000    0.0000000000000000   18.5863272108442530
   As   Te
   100   100
Direct
  0.8373704435772495  0.2908442811662724  0.6122947329521935
  0.2320090553028251  0.0207304237488302  0.6599017934248437
  0.1821266771865382  0.5028749503047507  0.2369265559116371
  0.9865382617858174  0.1936486362711634  0.9836703710582242
  0.6702401914051848  0.9810340010861367  0.2717419510837118
  0.3809095024018276  0.8600414919187642  0.4972377026590351
  0.7395809693622724  0.7344465569412293  0.2821838420078535
  0.6840673183637520  0.8149406856933581  0.8506322856224102
  0.9119791714918222  0.4882006778474519  0.3877430701006546
  0.7886506194098573  0.2923574301611751  0.7441785839230661
  0.3209750697274814  0.9802013000036354  0.8196468647987061
  0.1823735009775049  0.6310088075867597  0.1830343585113638
  0.5100023331219958  0.8628226318434074  0.3192997759923557
  0.1805865474893480  0.9822696390420163  0.7744845800360523
  0.5828489651866633  0.8875775817983254  0.6977520628685596
  0.6020136600659853  0.5526326669126576  0.5783049110449454
  0.0881783909512066  0.7850643243357496  0.0718747336959780
  0.5083368233413594  0.8251909968409308  0.9798643275140932
  0.5316976800671114  0.3548068552071157  0.9172436929250196
  0.4723182045588601  0.8439751044951294  0.1175426358884195
  0.6677236566605487  0.3031265770960729  0.3594928466479246
  0.4115032788716491  0.3255425111155432  0.8502643052690431
  0.6789020442635731  0.0600146021747960  0.1634029698397796
  0.3438898125811178  0.7669662085105955  0.3870103758871082
  0.9501579383203662  0.6616596361204188  0.5161284883323063
  0.2401558111784112  0.3378400855650838  0.1269718670573852
  0.0524877418701095  0.7574766653167870  0.9456235151979868
  0.0550895772478555  0.6660492473341151  0.1299419119355392
  0.0872371903848475  0.1083048882789228  0.9961865606218439
  0.5421761133316494  0.2496097816751259  0.3689614729389916
  0.9051094970757987  0.2745606888419019  0.3090233678344063
  0.9162796490953156  0.9644177390825703  0.4834316060844586
  0.8486544242494389  0.7306477182791937  0.5848510668173148
  0.4108393645631239  0.7318594060503472  0.0868545951382202
  0.8927257045663808  0.9096783850984309  0.9786284405000174
  0.2700596040912941  0.4301168552584826  0.4679187690496605
  0.5296342171954507  0.5006950060545208  0.0095455345511084
  0.9681088232656450  0.0401427428296657  0.8086990185745151
  0.4325860866903923  0.3521703871729258  0.0237563037606137
  0.9964128926852069  0.2518135652079252  0.8578109683273212
  0.7888758670126705  0.4242494682001876  0.7737889780207965
  0.5457988336523059  0.4338454650863284  0.1257261550494633
  0.4559665403155861  0.9527300073695528  0.9708681448038661
  0.1878986286991093  0.1793494251487857  0.0572161438305727
  0.7979168417399620  0.6557939037990224  0.3906953019821771
  0.3521142585998831  0.5787055258794567  0.8425497408453779
  0.9046685595047990  0.4981668447233076  0.7761562088583247
  0.8886138156413352  0.3609848494722385  0.9396915694569898
  0.4912132247797132  0.0629952392267796  0.3252582398121788
  0.0248749467276426  0.3133826298806497  0.0295258106155885
  0.8932384898272261  0.7198074217550641  0.0466196699458834
  0.4721504805611829  0.9326280619398730  0.4369125545328316
  0.3853375603947029  0.2436148079024107  0.9564157160137441
  0.2454005313140399  0.2872958097687857  0.0038067383694269
  0.1690420865726949  0.7210151431341814  0.7721966539688765
  0.5135737679973644  0.1808994748352362  0.2568612851417313
  0.8552954868551481  0.0748002682371194  0.0140837474370770
  0.9501606906286781  0.1211033372431274  0.6250067894705751
  0.1042374965100734  0.4747569148510564  0.7224714270423718
  0.0639985324244492  0.9480535271156683  0.1563279332882175
  0.2218282067958341  0.3979078253575210  0.3440735503010970
  0.9632365870692112  0.4681038626700698  0.8912226094580546
  0.2587068927955372  0.7251406874386888  0.9531009490723577
  0.6664689343032677  0.3463551040765722  0.6436410677108810
  0.8553474767460614  0.5682110550095985  0.4805594616046207
  0.0377251646657655  0.1549730819045507  0.7783433411244829
  0.1058999114546566  0.2539963298641155  0.4333549053750829
  0.3016244016618259  0.0757692797290375  0.4031536858737113
  0.5630055546452510  0.8644925341844925  0.5081243498101387
  0.8520925398014967  0.9077215976397000  0.2201885676914728
  0.0814366696921667  0.8813601929139168  0.4123792635684751
  0.9077913627483554  0.7688503141813499  0.3909152541033478
  0.0433355925772076  0.8085520736414793  0.3057027505752075
  0.7309329787830876  0.2098728539387125  0.4367652451406272
  0.8269272129570879  0.7941088688614286  0.9460437328780742
  0.7601613286332238  0.7567998167710286  0.0622092212192129
  0.1628838154476639  0.7976748653477514  0.8834472082302867
  0.6079636341518153  0.2340796488977475  0.5995417424059468
  0.6920190632648300  0.4939349368826029  0.4950275665905011
  0.2517335420030875  0.2379716164048276  0.8045922185470928
  0.1034729038477451  0.3827384612349007  0.4024631400268959
  0.9976188462472919  0.4087347239559094  0.7655828639741884
  0.3000838403105561  0.8989188114865811  0.0660532687341728
  0.5405366218383847  0.9701756197925846  0.2427441468800424
  0.1927954781344923  0.8002738334562878  0.4570998357136844
  0.4977418649770868  0.5509298389974333  0.4719002693738616
  0.3006844828993991  0.6694690811233102  0.6762442634880657
  0.5282985489311187  0.2236717273622304  0.9493014461286862
  0.5858570050816638  0.6194069629506558  0.0597685599873685
  0.6484628996402222  0.0189963143093763  0.8612719267735471
  0.8710315157956146  0.0914368073873248  0.7305673838641198
  0.1756357966804245  0.0734809670838601  0.3614884334371951
  0.4654707682203991  0.9646798109212753  0.8383077760795885
  0.6813377215395136  0.6770640991552952  0.8560362905426828
  0.5677163709172817  0.7939030070278790  0.7966676465848650
  0.5849983547807085  0.2259427269565890  0.0788010988293308
  0.4959238512625390  0.3132719334476022  0.1351521015128938
  0.2754449117782656  0.5467690116433630  0.7341302592757586
  0.8884221154317871  0.3868017850342511  0.0759421684483286
  0.1676826473098103  0.2036277572120540  0.3244963650792201
  0.3162620059608727  0.5388675267273442  0.2592799443902081
  0.0290110906092096  0.3648043732214745  0.2766926011036688
  0.9893498219157735  0.4393879947997235  0.5737565385745498
  0.3921986215245568  0.5491980506043461  0.0239844235848636
  0.5740581579930932  0.7667206418899113  0.1944146337313057
  0.8348573584877244  0.4367563986651035  0.6074052315698353
  0.3499517368083431  0.8421959214349073  0.2610084709625227
  0.2083519551536241  0.5407538636790648  0.0747644141589845
  0.4315316058809344  0.4114172237719700  0.4590555332913766
  0.6162897428641472  0.5593134933861705  0.3884201046613143
  0.6396765252703389  0.8780277115414279  0.9965537512367248
  0.3109406254555580  0.4198384221717077  0.8869402032302034
  0.1770643998619121  0.9549256723047677  0.0109158261501321
  0.7021016555270094  0.9753939556699081  0.7284096649745351
  0.3439944951195173  0.1008598579411597  0.7347058593817266
  0.8369500881573089  0.1268550001708135  0.5370290005160214
  0.7203738767845138  0.6290344387832718  0.9901747720453002
  0.4797956438300588  0.5774953394856794  0.7803554661861654
  0.0244764285104324  0.9007669174004533  0.9163956256669294
  0.7881843216324640  0.0068934692837956  0.9064722161416015
  0.1597848720891193  0.6042203667006589  0.5632163525891656
  0.8207266355819129  0.0570425881612664  0.1570487624981141
  0.1343103510347063  0.3608330058243823  0.9441375464371333
  0.4980450706816839  0.7343622367281100  0.5219721881120449
  0.8296263010449394  0.6642110098091152  0.8005893989096720
  0.1026809707958662  0.2605562331393543  0.1419435844538697
  0.9759014339180965  0.9671082769466892  0.2673222561111217
  0.6387577318626967  0.1010036661787055  0.4227833207166753
  0.0273817686686257  0.9636155647183102  0.7016833222448966
  0.7689470354912800  0.4651581158632112  0.1085541859867831
  0.0589898927436110  0.5632441978179799  0.0219092932304648
  0.3077960111553821  0.0458197337251747  0.9570909471378073
  0.8122720625736690  0.1520476065704059  0.3278625192194156
  0.6295264676047054  0.3596666766807246  0.4913635224418087
  0.6559625717756177  0.1938146165020598  0.2176420576175744
  0.4631622162932203  0.6937892870676237  0.3757806525834937
  0.4703513352200090  0.2546761753905500  0.6132877005270529
  0.8504110367462090  0.3523601283253726  0.4360467924568070
  0.2674536829383598  0.9476169133924799  0.4730647806158572
  0.8508359304650241  0.2564706913413417  0.1306950887834049
  0.8005429176858598  0.5146022622112909  0.2978088296811237
  0.4474998013308138  0.0979312514342965  0.8679708036425353
  0.7342581669153105  0.7343588804086068  0.4959226195545128
  0.3055420153092996  0.2510754943416842  0.3513174397762810
  0.1652558105048527  0.5541936126410292  0.8362556537924419
  0.9172880575499320  0.8444175643020273  0.6910906343031584
  0.4844982336160442  0.0456866884648477  0.6251077722145908
  0.6980783787748734  0.8690060173333620  0.1776021407991806
  0.6641671516651044  0.1585775482576040  0.8568699425738302
  0.7829824002347294  0.6284487384778927  0.6640812940740588
  0.5596016209107049  0.0316875195997568  0.0342001934743692
  0.3240785940279451  0.2341563437883210  0.1688373004647445
  0.3408802977826113  0.8412595903080557  0.9360848630701355
  0.0068063689902971  0.4879568763005722  0.1967496522146277
  0.3723199915704427  0.4501135579821280  0.1357064332373739
  0.0995153649045548  0.0646988923895435  0.4805678338987462
  0.2109326292035760  0.6995341631783987  0.3539480818278236
  0.1655923339119170  0.1322392313258973  0.6009959590799312
  0.2863990991434804  0.2931126588855335  0.5084977016079577
  0.0152762305728729  0.5802630578198489  0.6399403407188657
  0.6928257571438721  0.6314362926334951  0.2005157960628381
  0.3037422872615920  0.3442180896610196  0.6588798704970245
  0.5176432373212236  0.6570052761698051  0.9231133660700905
  0.2908689056372253  0.6040337480426246  0.4855641530963197
  0.1505245013037992  0.4361516589240324  0.5663318636088519
  0.7715776421002687  0.1969326362199553  0.0113726061074857
  0.7581831175507503  0.4233817830165307  0.9150989209645033
  0.1824265731341228  0.8653105104335523  0.2403037053449353
  0.8605845259390250  0.2034823965853647  0.8291805572935971
  0.3898906689979356  0.5582482855324997  0.6236654917483690
  0.4682931573636040  0.6478972918748340  0.1934920804954743
  0.2521980430107007  0.7605275991488512  0.0934798469051685
  0.1412408044156734  0.7572433765030553  0.5871438360700338
  0.6320005571229075  0.7528037562416756  0.6759135890299675
  0.1699700684151395  0.3195347221665799  0.7194184313242857
  0.8329695984369323  0.8930124471806593  0.3883076565355807
  0.0421938736044609  0.0885781841086413  0.1398666149978283
  0.2369522072251726  0.8520928243503079  0.7034478367025372
  0.5464568633441687  0.1991923545425109  0.7336307496499614
  0.9472243666058802  0.8613014058096908  0.1102884362689736
  0.1682056894216757  0.1283284824560624  0.8435260298643428
  0.9734409288581460  0.2637768780954914  0.6424209247195094
  0.8732626921323501  0.5734332501537693  0.1732114326891292
  0.0314113508462128  0.7165565842631807  0.7470657698340517
  0.6285961553122021  0.0446245026204863  0.5728600655694223
  0.3592713459973282  0.7270891609187160  0.7863556091046604
  0.9963033457481600  0.8373257609253102  0.5227670012376109
  0.4836476641120839  0.3768131735770837  0.3278333084359772
  0.6373298915902268  0.8418239647955446  0.3810709954054516
  0.9036374809954424  0.5958150026170657  0.9751529763514881
  0.0614277152253493  0.6663021353770091  0.3308555891671006
  0.5615025758112253  0.4503459036278201  0.6657840958428096
  0.8474527208930738  0.9593333594225513  0.6075458976467871
  0.6582753912142323  0.3615803275291682  0.0522719901528248
  0.4398189190168651  0.9029254917974470  0.6298030728997972
  0.3534909235190682  0.0533027209591168  0.2755791984287157
  0.4473519168506215  0.1230773112235966  0.1045105767664296
  0.8812143846749976  0.7665375569570543  0.2481706804678723
  0.9802547136013970  0.1907136373739888  0.3916739757945322
  0.6226143965247743  0.3224566582292283  0.7954587920371381
 
  0.00000000E+00  0.00000000E+00  0.00000000E+00
  0.00000000E+00  0.00000000E+00  0.00000000E+00
  0.00000000E+00  0.00000000E+00  0.00000000E+00
  0.00000000E+00  0.00000000E+00  0.00000000E+00
  0.00000000E+00  0.00000000E+00  0.00000000E+00
  0.00000000E+00  0.00000000E+00  0.00000000E+00
  0.00000000E+00  0.00000000E+00  0.00000000E+00
  0.00000000E+00  0.00000000E+00  0.00000000E+00
  0.00000000E+00  0.00000000E+00  0.00000000E+00
  0.00000000E+00  0.00000000E+00  0.00000000E+00
  0.00000000E+00  0.00000000E+00  0.00000000E+00
  0.00000000E+00  0.00000000E+00  0.00000000E+00
  0.00000000E+00  0.00000000E+00  0.00000000E+00
  0.00000000E+00  0.00000000E+00  0.00000000E+00
  0.00000000E+00  0.00000000E+00  0.00000000E+00
  0.00000000E+00  0.00000000E+00  0.00000000E+00
  0.00000000E+00  0.00000000E+00  0.00000000E+00
  0.00000000E+00  0.00000000E+00  0.00000000E+00
  0.00000000E+00  0.00000000E+00  0.00000000E+00
  0.00000000E+00  0.00000000E+00  0.00000000E+00
  0.00000000E+00  0.00000000E+00  0.00000000E+00
  0.00000000E+00  0.00000000E+00  0.00000000E+00
  0.00000000E+00  0.00000000E+00  0.00000000E+00
  0.00000000E+00  0.00000000E+00  0.00000000E+00
  0.00000000E+00  0.00000000E+00  0.00000000E+00
  0.00000000E+00  0.00000000E+00  0.00000000E+00
  0.00000000E+00  0.00000000E+00  0.00000000E+00
  0.00000000E+00  0.00000000E+00  0.00000000E+00
  0.00000000E+00  0.00000000E+00  0.00000000E+00
  0.00000000E+00  0.00000000E+00  0.00000000E+00
  0.00000000E+00  0.00000000E+00  0.00000000E+00
  0.00000000E+00  0.00000000E+00  0.00000000E+00
  0.00000000E+00  0.00000000E+00  0.00000000E+00
  0.00000000E+00  0.00000000E+00  0.00000000E+00
  0.00000000E+00  0.00000000E+00  0.00000000E+00
  0.00000000E+00  0.00000000E+00  0.00000000E+00
  0.00000000E+00  0.00000000E+00  0.00000000E+00
  0.00000000E+00  0.00000000E+00  0.00000000E+00
  0.00000000E+00  0.00000000E+00  0.00000000E+00
  0.00000000E+00  0.00000000E+00  0.00000000E+00
  0.00000000E+00  0.00000000E+00  0.00000000E+00
  0.00000000E+00  0.00000000E+00  0.00000000E+00
  0.00000000E+00  0.00000000E+00  0.00000000E+00
  0.00000000E+00  0.00000000E+00  0.00000000E+00
  0.00000000E+00  0.00000000E+00  0.00000000E+00
  0.00000000E+00  0.00000000E+00  0.00000000E+00
  0.00000000E+00  0.00000000E+00  0.00000000E+00
  0.00000000E+00  0.00000000E+00  0.00000000E+00
  0.00000000E+00  0.00000000E+00  0.00000000E+00
  0.00000000E+00  0.00000000E+00  0.00000000E+00
  0.00000000E+00  0.00000000E+00  0.00000000E+00
  0.00000000E+00  0.00000000E+00  0.00000000E+00
  0.00000000E+00  0.00000000E+00  0.00000000E+00
  0.00000000E+00  0.00000000E+00  0.00000000E+00
  0.00000000E+00  0.00000000E+00  0.00000000E+00
  0.00000000E+00  0.00000000E+00  0.00000000E+00
  0.00000000E+00  0.00000000E+00  0.00000000E+00
  0.00000000E+00  0.00000000E+00  0.00000000E+00
  0.00000000E+00  0.00000000E+00  0.00000000E+00
  0.00000000E+00  0.00000000E+00  0.00000000E+00
  0.00000000E+00  0.00000000E+00  0.00000000E+00
  0.00000000E+00  0.00000000E+00  0.00000000E+00
  0.00000000E+00  0.00000000E+00  0.00000000E+00
  0.00000000E+00  0.00000000E+00  0.00000000E+00
  0.00000000E+00  0.00000000E+00  0.00000000E+00
  0.00000000E+00  0.00000000E+00  0.00000000E+00
  0.00000000E+00  0.00000000E+00  0.00000000E+00
  0.00000000E+00  0.00000000E+00  0.00000000E+00
  0.00000000E+00  0.00000000E+00  0.00000000E+00
  0.00000000E+00  0.00000000E+00  0.00000000E+00
  0.00000000E+00  0.00000000E+00  0.00000000E+00
  0.00000000E+00  0.00000000E+00  0.00000000E+00
  0.00000000E+00  0.00000000E+00  0.00000000E+00
  0.00000000E+00  0.00000000E+00  0.00000000E+00
  0.00000000E+00  0.00000000E+00  0.00000000E+00
  0.00000000E+00  0.00000000E+00  0.00000000E+00
  0.00000000E+00  0.00000000E+00  0.00000000E+00
  0.00000000E+00  0.00000000E+00  0.00000000E+00
  0.00000000E+00  0.00000000E+00  0.00000000E+00
  0.00000000E+00  0.00000000E+00  0.00000000E+00
  0.00000000E+00  0.00000000E+00  0.00000000E+00
  0.00000000E+00  0.00000000E+00  0.00000000E+00
  0.00000000E+00  0.00000000E+00  0.00000000E+00
  0.00000000E+00  0.00000000E+00  0.00000000E+00
  0.00000000E+00  0.00000000E+00  0.00000000E+00
  0.00000000E+00  0.00000000E+00  0.00000000E+00
  0.00000000E+00  0.00000000E+00  0.00000000E+00
  0.00000000E+00  0.00000000E+00  0.00000000E+00
  0.00000000E+00  0.00000000E+00  0.00000000E+00
  0.00000000E+00  0.00000000E+00  0.00000000E+00
  0.00000000E+00  0.00000000E+00  0.00000000E+00
  0.00000000E+00  0.00000000E+00  0.00000000E+00
  0.00000000E+00  0.00000000E+00  0.00000000E+00
  0.00000000E+00  0.00000000E+00  0.00000000E+00
  0.00000000E+00  0.00000000E+00  0.00000000E+00
  0.00000000E+00  0.00000000E+00  0.00000000E+00
  0.00000000E+00  0.00000000E+00  0.00000000E+00
  0.00000000E+00  0.00000000E+00  0.00000000E+00
  0.00000000E+00  0.00000000E+00  0.00000000E+00
  0.00000000E+00  0.00000000E+00  0.00000000E+00
  0.00000000E+00  0.00000000E+00  0.00000000E+00
  0.00000000E+00  0.00000000E+00  0.00000000E+00
  0.00000000E+00  0.00000000E+00  0.00000000E+00
  0.00000000E+00  0.00000000E+00  0.00000000E+00
  0.00000000E+00  0.00000000E+00  0.00000000E+00
  0.00000000E+00  0.00000000E+00  0.00000000E+00
  0.00000000E+00  0.00000000E+00  0.00000000E+00
  0.00000000E+00  0.00000000E+00  0.00000000E+00
  0.00000000E+00  0.00000000E+00  0.00000000E+00
  0.00000000E+00  0.00000000E+00  0.00000000E+00
  0.00000000E+00  0.00000000E+00  0.00000000E+00
  0.00000000E+00  0.00000000E+00  0.00000000E+00
  0.00000000E+00  0.00000000E+00  0.00000000E+00
  0.00000000E+00  0.00000000E+00  0.00000000E+00
  0.00000000E+00  0.00000000E+00  0.00000000E+00
  0.00000000E+00  0.00000000E+00  0.00000000E+00
  0.00000000E+00  0.00000000E+00  0.00000000E+00
  0.00000000E+00  0.00000000E+00  0.00000000E+00
  0.00000000E+00  0.00000000E+00  0.00000000E+00
  0.00000000E+00  0.00000000E+00  0.00000000E+00
  0.00000000E+00  0.00000000E+00  0.00000000E+00
  0.00000000E+00  0.00000000E+00  0.00000000E+00
  0.00000000E+00  0.00000000E+00  0.00000000E+00
  0.00000000E+00  0.00000000E+00  0.00000000E+00
  0.00000000E+00  0.00000000E+00  0.00000000E+00
  0.00000000E+00  0.00000000E+00  0.00000000E+00
  0.00000000E+00  0.00000000E+00  0.00000000E+00
  0.00000000E+00  0.00000000E+00  0.00000000E+00
  0.00000000E+00  0.00000000E+00  0.00000000E+00
  0.00000000E+00  0.00000000E+00  0.00000000E+00
  0.00000000E+00  0.00000000E+00  0.00000000E+00
  0.00000000E+00  0.00000000E+00  0.00000000E+00
  0.00000000E+00  0.00000000E+00  0.00000000E+00
  0.00000000E+00  0.00000000E+00  0.00000000E+00
  0.00000000E+00  0.00000000E+00  0.00000000E+00
  0.00000000E+00  0.00000000E+00  0.00000000E+00
  0.00000000E+00  0.00000000E+00  0.00000000E+00
  0.00000000E+00  0.00000000E+00  0.00000000E+00
  0.00000000E+00  0.00000000E+00  0.00000000E+00
  0.00000000E+00  0.00000000E+00  0.00000000E+00
  0.00000000E+00  0.00000000E+00  0.00000000E+00
  0.00000000E+00  0.00000000E+00  0.00000000E+00
  0.00000000E+00  0.00000000E+00  0.00000000E+00
  0.00000000E+00  0.00000000E+00  0.00000000E+00
  0.00000000E+00  0.00000000E+00  0.00000000E+00
  0.00000000E+00  0.00000000E+00  0.00000000E+00
  0.00000000E+00  0.00000000E+00  0.00000000E+00
  0.00000000E+00  0.00000000E+00  0.00000000E+00
  0.00000000E+00  0.00000000E+00  0.00000000E+00
  0.00000000E+00  0.00000000E+00  0.00000000E+00
  0.00000000E+00  0.00000000E+00  0.00000000E+00
  0.00000000E+00  0.00000000E+00  0.00000000E+00
  0.00000000E+00  0.00000000E+00  0.00000000E+00
  0.00000000E+00  0.00000000E+00  0.00000000E+00
  0.00000000E+00  0.00000000E+00  0.00000000E+00
  0.00000000E+00  0.00000000E+00  0.00000000E+00
  0.00000000E+00  0.00000000E+00  0.00000000E+00
  0.00000000E+00  0.00000000E+00  0.00000000E+00
  0.00000000E+00  0.00000000E+00  0.00000000E+00
  0.00000000E+00  0.00000000E+00  0.00000000E+00
  0.00000000E+00  0.00000000E+00  0.00000000E+00
  0.00000000E+00  0.00000000E+00  0.00000000E+00
  0.00000000E+00  0.00000000E+00  0.00000000E+00
  0.00000000E+00  0.00000000E+00  0.00000000E+00
  0.00000000E+00  0.00000000E+00  0.00000000E+00
  0.00000000E+00  0.00000000E+00  0.00000000E+00
  0.00000000E+00  0.00000000E+00  0.00000000E+00
  0.00000000E+00  0.00000000E+00  0.00000000E+00
  0.00000000E+00  0.00000000E+00  0.00000000E+00
  0.00000000E+00  0.00000000E+00  0.00000000E+00
  0.00000000E+00  0.00000000E+00  0.00000000E+00
  0.00000000E+00  0.00000000E+00  0.00000000E+00
  0.00000000E+00  0.00000000E+00  0.00000000E+00
  0.00000000E+00  0.00000000E+00  0.00000000E+00
  0.00000000E+00  0.00000000E+00  0.00000000E+00
  0.00000000E+00  0.00000000E+00  0.00000000E+00
  0.00000000E+00  0.00000000E+00  0.00000000E+00
  0.00000000E+00  0.00000000E+00  0.00000000E+00
  0.00000000E+00  0.00000000E+00  0.00000000E+00
  0.00000000E+00  0.00000000E+00  0.00000000E+00
  0.00000000E+00  0.00000000E+00  0.00000000E+00
  0.00000000E+00  0.00000000E+00  0.00000000E+00
  0.00000000E+00  0.00000000E+00  0.00000000E+00
  0.00000000E+00  0.00000000E+00  0.00000000E+00
  0.00000000E+00  0.00000000E+00  0.00000000E+00
  0.00000000E+00  0.00000000E+00  0.00000000E+00
  0.00000000E+00  0.00000000E+00  0.00000000E+00
  0.00000000E+00  0.00000000E+00  0.00000000E+00
  0.00000000E+00  0.00000000E+00  0.00000000E+00
  0.00000000E+00  0.00000000E+00  0.00000000E+00
  0.00000000E+00  0.00000000E+00  0.00000000E+00
  0.00000000E+00  0.00000000E+00  0.00000000E+00
  0.00000000E+00  0.00000000E+00  0.00000000E+00
  0.00000000E+00  0.00000000E+00  0.00000000E+00
  0.00000000E+00  0.00000000E+00  0.00000000E+00
  0.00000000E+00  0.00000000E+00  0.00000000E+00
  0.00000000E+00  0.00000000E+00  0.00000000E+00
  0.00000000E+00  0.00000000E+00  0.00000000E+00
  0.00000000E+00  0.00000000E+00  0.00000000E+00
  0.00000000E+00  0.00000000E+00  0.00000000E+00
