Sb300                                   
   1.00000000000000     
    21.2291714401205631    0.0000000000000000    0.0000000000000000
     0.0000000000000000   21.2291714401205631    0.0000000000000000
     0.0000000000000000    0.0000000000000000   21.2291714401205631
   Sb
   300
Direct
  0.4859427982502970  0.0952874368980927  0.7155299510786640
  0.9021272951366541  0.0126199296756191  0.1790357811744598
  0.8230047214030973  0.5947667301852054  0.2980534107026420
  0.2423505004237716  0.8102897636546761  0.7808601658942790
  0.4035415644205002  0.7681607368553484  0.1786940938995008
  0.3633637488242962  0.5340164094193938  0.9288811648805383
  0.0415964226363523  0.0529756402080401  0.8620810034760875
  0.7750044772381436  0.4400373813311269  0.0207247040516873
  0.4435388434686695  0.1333961386713698  0.5799706284583734
  0.1340120202218161  0.4003525602187245  0.7882302188126200
  0.6681504837076255  0.6891773340914668  0.8540514859560979
  0.8135860342565698  0.4472112522083896  0.6630633517214586
  0.5889790056198396  0.1713314329811733  0.8749422604642252
  0.2266413956413238  0.2896671102174970  0.7631211338648276
  0.0932598097027832  0.9320660222522241  0.8252846723090195
  0.2936199235802608  0.9955679875745558  0.6068136361871440
  0.0346531751986103  0.3317816707894670  0.7213619183188231
  0.1597720204281551  0.8063797904471008  0.1095847486229817
  0.7342569027296845  0.4684733297794966  0.3186875237777059
  0.8415227381611026  0.3639807820746108  0.7709553243937097
  0.7463168906840804  0.1484564238164742  0.5770278237675832
  0.9317659854705950  0.5093652562677762  0.7631594264759964
  0.3278927549109017  0.3299034239060804  0.8497440284606425
  0.7397951268393452  0.5091026829298939  0.4728886956301405
  0.5378825554759958  0.8134894463619793  0.8419701661689926
  0.3283728280746828  0.4552687158920690  0.0383104299911157
  0.8473715581544703  0.1306467410047458  0.0161534638025389
  0.0211532776111099  0.1064181743037190  0.4600172705466675
  0.6715057653303762  0.7040637146284386  0.0028887172805332
  0.0294324830184204  0.5640526300389825  0.9155080061806423
  0.6913733109015312  0.8346559476367922  0.8407427758643951
  0.9133439827886818  0.6720920835053669  0.4463127049721757
  0.8369108749073491  0.8311261089356867  0.9562699075068328
  0.4628543663951313  0.5962975946655777  0.6492792903911021
  0.5348604147790531  0.9034022399035200  0.7294826272619194
  0.0142562997690743  0.4050886838605089  0.4896375431176243
  0.7821221888681958  0.0861734910073205  0.1292068925148060
  0.6589129383723290  0.4215413475954409  0.7599086681160137
  0.7475892909334989  0.7216891951677875  0.7120795982844290
  0.4130593506627107  0.1637906494196917  0.3072513932965824
  0.9223442068193637  0.7920230141149690  0.5292497267880398
  0.6116521473360685  0.7093891556432470  0.5751852304724920
  0.0092708873949496  0.1009314819405420  0.7382608528664611
  0.9930904448803678  0.8485087089117503  0.9683282105415029
  0.2654344722697320  0.9145617097448894  0.9286717073788858
  0.3738135900914309  0.2559568978085452  0.1924496333140546
  0.5838021098165871  0.4846563560210463  0.4544632551794225
  0.7603972581232268  0.5889527864861328  0.7077755858252452
  0.7459990500605970  0.1531828673511476  0.4342250337590949
  0.3097230184891874  0.4274000362369078  0.4925403688158732
  0.0726347804011536  0.8192818953227182  0.3698614679286989
  0.9477003350816710  0.1777028381367129  0.8963559646353970
  0.9723456223350186  0.5449432932396684  0.2404032886693558
  0.0401189714051423  0.2824061947455959  0.5734459875086583
  0.1606550111657591  0.1609698054891943  0.9810571686050650
  0.6529361644554708  0.1384428866424123  0.1336031528549871
  0.8782171279191547  0.3573122107257325  0.4958157805680728
  0.7291944326138025  0.7485894905716888  0.1247479437342740
  0.4515332355098914  0.2739425985946372  0.6148784260224219
  0.3986037020460064  0.7082775664792098  0.5224668953959064
  0.0799072718680205  0.4351810020890282  0.9212888135359162
  0.7194002737842864  0.9952614170935487  0.9227423683713347
  0.3290940803130956  0.7341252291215501  0.8592567147433073
  0.0612802862110597  0.0608888236771304  0.0159766934766167
  0.0132775551754045  0.3794487788111056  0.3457013377487375
  0.6125541768931577  0.3133499582601382  0.4738213935268021
  0.6386228159195301  0.6458406996953385  0.1780666011822864
  0.9105237155113652  0.2600403834021221  0.1391734863232544
  0.0667402697714692  0.4014681101516812  0.0572060314450223
  0.4557730714342521  0.6988242497060558  0.8268088124335135
  0.2012956969742170  0.4936287398163009  0.9336802254982869
  0.1220244970717562  0.1122473069425153  0.3107821806777686
  0.6077096748574817  0.7090729446050092  0.7097957333036702
  0.0904148664410557  0.5505282880350700  0.7867629385580336
  0.4074243972713472  0.8654591466787840  0.8734682927210660
  0.2680381724202903  0.8801225220591643  0.0606403997705326
  0.8603472699342605  0.2412033776523358  0.4483944105919200
  0.5732908655181215  0.0135945460720743  0.2830764266197967
  0.3119771384275751  0.5662137280679791  0.4675205047246023
  0.1747537593070782  0.4514027885780917  0.2198816915361122
  0.5984653914507138  0.3872390619248027  0.0375422293764329
  0.7125129341167502  0.0892560829590256  0.7179278478749010
  0.0941293817037290  0.5809152537076485  0.0904909200481143
  0.6045325692307343  0.1751205130238352  0.7380284098033711
  0.1462834405971860  0.4396360795702798  0.3620196075977853
  0.4447393212925767  0.4163438600570528  0.7600523881849452
  0.0890984130893428  0.8713524758887302  0.5079213480947542
  0.1613419860367271  0.9105228916630890  0.2204670581801220
  0.7420935409823961  0.3685015320136267  0.4885245670939861
  0.2107097906774399  0.0367379100214397  0.1688061763133194
  0.8999180182327760  0.0017954064892316  0.8541213906772546
  0.2839886537470176  0.6140473324879548  0.7749236948134328
  0.8288419555888575  0.1046169308263041  0.8038492667958764
  0.6208624408928964  0.4843664072647240  0.1385982002116848
  0.7100235514874907  0.9397990030571074  0.2182396492610732
  0.8398156876651175  0.9155670814046415  0.7596060193023099
  0.3136153022918287  0.1405851655496961  0.4547790601754700
  0.0156156175661456  0.5990670638659475  0.6046632634547369
  0.4922848257532811  0.2002127149381845  0.0359598164270806
  0.6472764473170644  0.2035904883289716  0.0216690923263617
  0.0359237817000565  0.4145411160770229  0.2081275194556213
  0.3975389668395664  0.8758988479583979  0.7333428866283895
  0.5895067138865605  0.4685750530946024  0.3161967869292538
  0.1683232009657513  0.1025305130483422  0.8406338679888928
  0.6266619473511044  0.7253816047961505  0.2949087403388117
  0.0678743539868910  0.7377004504799166  0.5395021411577946
  0.2531812514607448  0.0437523746460833  0.9524001754268990
  0.3633926371747828  0.0574444157881245  0.0705414187265607
  0.5521061225134410  0.0477944320183414  0.4144994804361392
  0.4626794270570956  0.3031806114477824  0.4733518732931447
  0.0258788257200610  0.1432032376510079  0.5925950955052642
  0.9202743965210968  0.5654203921376718  0.1013758943044495
  0.4197410888531000  0.8516703848559424  0.5721846357745232
  0.9949211496855166  0.2334626413354164  0.4251975116196504
  0.0219193268655420  0.2764181067765361  0.0277835205230128
  0.2893524403271868  0.4752753607794156  0.8181168370816897
  0.4524390416022571  0.1543985129773740  0.4421546652860878
  0.1674544986601322  0.2754357124037294  0.5335171656819583
  0.8808687867353059  0.6531542003667563  0.8676274804291094
  0.1626265026239602  0.2284101895066343  0.1184182290234851
  0.7885527449708237  0.5803464709254917  0.1596565783095808
  0.7056052825191518  0.8511529462277356  0.9722513451452095
  0.1603806581267901  0.5765898183327088  0.6298681176274931
  0.4469528296396647  0.6136624557420066  0.3933431614862352
  0.8934204677797599  0.3982492366151173  0.1876042112646365
  0.1582702149012000  0.4406300402732089  0.6502713936475694
  0.5494524897033574  0.3272297979072492  0.7719999743097280
  0.6830045517637913  0.6171432590728181  0.3730476410974549
  0.7144945627710361  0.2802156196995310  0.7577730222226705
  0.4679377502944830  0.8971156718143758  0.1646134921620917
  0.7252871243514649  0.8695244001237619  0.6537647242125445
  0.8794776202504080  0.3113786721755650  0.6302219577418708
  0.4629302689247696  0.4560824309152083  0.6277612020532045
  0.4812059175504589  0.4525751165936299  0.9069551066538215
  0.6221769755917451  0.5644225983331120  0.0265373835118405
  0.4520483827392494  0.3487553060913447  0.0480614898897469
  0.3760970797418170  0.8030924164738975  0.4284526173359356
  0.5860268108930380  0.0135679231400981  0.1168679990755052
  0.1440683291029163  0.2985191079094487  0.3709589719900742
  0.3113955504727081  0.7171780428591847  0.6391907164203305
  0.7446712114406125  0.6986481594599300  0.5622894960279974
  0.1701623934771191  0.0205099824742490  0.4977278601522733
  0.4765883063901588  0.5855851251943225  0.2349362968196419
  0.6863034891035020  0.9463912414552408  0.3771755730171167
  0.8699309702558351  0.9489924508945059  0.5233625215396794
  0.8838471694849370  0.6728433408075492  0.0100104721103518
  0.8240474974834309  0.9434999041003891  0.3748763476403033
  0.0278650899139927  0.0163572636033410  0.3381709289188009
  0.8554132127608034  0.9742829784269235  0.9801580707898684
  0.5202684494766507  0.7631961093795708  0.4441908308222037
  0.2304964017344845  0.5784391445591551  0.3457324243100195
  0.8525618106567591  0.8587267527317891  0.0978737964854337
  0.4044693396695331  0.9165349144878829  0.3545621806759212
  0.5619910859351290  0.8725815986025662  0.0707633015005790
  0.6553601025995698  0.8105752273932798  0.4261525851444260
  0.4395083558047839  0.9670274198912266  0.0041678359021044
  0.7597445572741747  0.4392875876391199  0.1660273045759043
  0.8199470912709831  0.7903851976943579  0.8211586885361414
  0.7376623518473315  0.9646802482596357  0.0799830240822901
  0.8044330031768825  0.2624501844573567  0.0537797336953344
  0.5495351844861652  0.0092905259461004  0.8192407576424264
  0.7356050092575203  0.0785789579890198  0.3148949646086615
  0.2922823543626858  0.1683933216635524  0.1309617108789544
  0.3360931117438849  0.4573808741266484  0.2054390155502757
  0.4269601217698654  0.9848732604316304  0.5568010305588341
  0.7118491553137021  0.2019914292793892  0.2510314393245159
  0.3604780623751251  0.2421334405908820  0.0303369741398877
  0.9588647653600419  0.8761916413466906  0.4217060358652689
  0.2052368917591142  0.3275602792180958  0.9216032333587948
  0.1644270565089466  0.0137169682647444  0.6548948346445914
  0.6161605342889284  0.4917223072216689  0.9065124737401528
  0.5621294320858656  0.6237744149979791  0.4626772828367838
  0.1611257886060973  0.6960385115009458  0.0033911555933164
  0.7627295939839991  0.5709070616573457  0.0079267038967745
  0.3217686631554993  0.9603302172661032  0.1560730730896658
  0.2901746462578644  0.9973859508344243  0.3182338465997392
  0.1137520769831099  0.2046856856232120  0.7599114762591828
  0.2988297776202491  0.1990711877594090  0.9162749563765890
  0.7430239611896882  0.2834082865868878  0.6110032013873700
  0.3271693410594873  0.5925129572687787  0.2524001948645209
  0.0315757374412406  0.9606550412799570  0.1974670306761362
  0.2520554856948520  0.3354320984156917  0.1963066246000832
  0.9240869100555028  0.4370068861839765  0.0583714580192234
  0.8934805652278434  0.7127608936253956  0.1425392212841715
  0.5431400493120824  0.0617918713778309  0.9962816098861274
  0.5956874852625803  0.9505978006976873  0.9290357432772343
  0.6030719947463381  0.3118351313527432  0.8946588875359832
  0.6295733815407059  0.8295875508839046  0.1880367433941247
  0.9643648383607014  0.6867177859395024  0.2962003132846379
  0.3081278626352292  0.2769974433711700  0.4809212679573530
  0.9851296870154971  0.9707455080099834  0.6197937006373379
  0.9612661426379467  0.3668815450575073  0.8543943436125173
  0.0121456905290396  0.7299193437931628  0.8617169440038168
  0.1458149855526111  0.9541949715407980  0.3760123361592718
  0.8615893011668735  0.5115702791154276  0.5395539394133785
  0.1250479734414114  0.8235565037470681  0.6415359828635340
  0.0977222248050719  0.2778088194187694  0.2296135190709622
  0.2999486722331846  0.1446420672713134  0.6079022602473443
  0.0548165939062767  0.6808868426485778  0.3970576646574924
  0.5898210437189036  0.2775859279760262  0.5984428122203745
  0.1478045624040072  0.7687538202108776  0.8831150902812248
  0.2931953669706892  0.9862452102094377  0.4579352464630612
  0.9845835958537981  0.8428059198594281  0.6689558408885192
  0.4328701556798417  0.2205639479556878  0.7598217812672600
  0.8794235039889766  0.0616856566137233  0.3140338341368077
  0.2919808380195328  0.6455422940112012  0.1347028464443465
  0.6526888153486280  0.9840260767145788  0.5008793856744417
  0.9546317942122755  0.9376960001268672  0.0671702215986188
  0.6936687108744962  0.4155626468724735  0.6244891260536715
  0.3295430207518061  0.4252199220509985  0.6336359371923023
  0.7884426971202019  0.8282581203135906  0.5273499060686732
  0.3056438507248871  0.1705365841611023  0.7577191643722118
  0.5077948450589287  0.9193500931614460  0.4580855802184818
  0.6090202204268064  0.1897053099491005  0.4181741238787747
  0.7208228266642568  0.3265159185815556  0.3401305048350787
  0.2760078557874130  0.1466764212063822  0.3214548204818055
  0.1716926885639693  0.5664831302943282  0.4870724815235152
  0.2184840280699906  0.5255241977245281  0.1100785520176420
  0.0190020239293298  0.7129891731507845  0.0077480607922828
  0.3333602606557014  0.7291900374305209  0.3214691867085955
  0.7699316098522119  0.4234052008177663  0.8686360226484618
  0.3047310477547990  0.5835490389226251  0.6382706677272144
  0.7634484552504852  0.7172521744989322  0.4204817945912672
  0.1949991587087695  0.3582775506684225  0.0612675694704626
  0.0107678661205360  0.1938525313529432  0.2914585683873231
  0.1622957380585483  0.1436168882108316  0.6231783858365624
  0.2269187738839699  0.9779463879171492  0.7858403185060395
  0.8830840793378865  0.0760886432301865  0.4674028934244015
  0.5144994321103814  0.6769436758812363  0.1457580498393227
  0.4828522364835229  0.4624817078711300  0.1792311911376125
  0.6601051597424455  0.3030153176967301  0.1294780789385549
  0.9934076683568341  0.8405371211957637  0.2592625608479903
  0.1145142078201043  0.5784801701733213  0.2233095054974345
  0.4271086396392217  0.0313212313709326  0.2662584087785708
  0.7564377318341041  0.9980439958270210  0.6010427242420591
  0.7545064949691969  0.5815866581391096  0.8635580216037999
  0.9774117168338228  0.8683608707219932  0.8082047850697743
  0.5347158001256065  0.2990206515417235  0.1979895625281039
  0.4393430010712516  0.7346502605042611  0.6967810634060715
  0.3049515615192321  0.8386553473716752  0.2523916353982024
  0.4202384158110107  0.0324160856678997  0.8655468116132048
  0.5647185678374040  0.3352657790842162  0.3270885115777810
  0.1822573054005948  0.7134468056653148  0.7072132703268399
  0.6041471000525084  0.1501055036739972  0.5602507128499362
  0.2133021820027547  0.7344903024649857  0.2016297047436516
  0.3770873783223023  0.7933014530540459  0.0421637943110791
  0.8423693901078352  0.8669885282919841  0.2413556743708088
  0.3550225436252071  0.0121507905309524  0.7388156345721513
  0.0800203402459295  0.2475797263701874  0.9067856094905304
  0.9139464934799951  0.2114028254448356  0.7688947628488406
  0.6725653318987995  0.5670877517133220  0.5763220326163913
  0.0067168993871638  0.4556818005857126  0.6469424501929294
  0.2919968688787092  0.8535140560193413  0.5972922540101981
  0.7647648169538641  0.2878379541216818  0.8884982896785043
  0.2872686567672169  0.2817550083554272  0.6217807345503875
  0.3217774593982577  0.6822216009948859  0.9907591490337515
  0.7248620331745874  0.1372311020939636  0.9179507583693838
  0.5623428762921922  0.1724352469212146  0.2542886522902054
  0.0391753763724009  0.6706020257097483  0.7294533256686130
  0.9551753608032167  0.1255266011444209  0.1138185722321565
  0.8566826821236277  0.3127711070174493  0.3238611639281006
  0.6151199845805644  0.8532200850531924  0.5648174650983545
  0.1681930513495819  0.4194492014498989  0.5072517462470640
  0.7775028844571763  0.7387537510852332  0.2632130116990940
  0.9834937797397129  0.5340789324485877  0.4489838191980077
  0.0776812622405860  0.0954696920335093  0.1658298225309967
  0.4911744751969735  0.7421537501785613  0.3068513630269754
  0.9007112789380112  0.6403944962911929  0.7334347662152220
  0.8854361958722948  0.6374871722144319  0.5885370427333377
  0.4902247840585055  0.1054887754698803  0.1533588228715391
  0.4589176430115344  0.4933761304159071  0.0559042290272291
  0.8978277729040529  0.2963368898104904  0.9574137769310905
  0.2461043496440667  0.8557301464625742  0.4651597750826406
  0.1973156982320664  0.7207942797470381  0.3672520298471385
  0.5335820439145185  0.8775894631808312  0.2860069638538840
  0.4321812465674695  0.3196959976269273  0.3390642608817036
  0.1213912941758441  0.8910287877642071  0.9447274656043464
  0.4351154748664673  0.4569378998349183  0.3375631298231311
  0.1643388347420132  0.1465952086650823  0.4558828124813626
  0.4459277001946340  0.4801732605262456  0.4744300726958535
  0.8511146374348725  0.1993907917385150  0.2465453837556459
  0.4597110871472511  0.6427595069884903  0.9891048526025313
  0.1716965004430427  0.9853438088752375  0.0535692031661769
  0.5557717063101244  0.0001059748808540  0.6344296657997645
  0.9012892813127490  0.5131530470218725  0.9039937577891601
  0.5457237791312988  0.7535492946805863  0.9920989320844382
  0.5646107006015769  0.6017448778964386  0.8477118534627438
  0.8866743356419451  0.0381117167337904  0.6846584518643059
  0.4210518486973804  0.5612584643243628  0.7751431867751024
  0.3009983120706918  0.4364183247382223  0.3515115857983984
  0.6132255971268705  0.5688289551150815  0.7159864877310612
  0.7110250635953824  0.9624911358130316  0.7855311188147741
  0.4671952792852417  0.3148642966180480  0.9216218530205208
  0.1884869399955039  0.6188608680078158  0.8933196436764201
  0.9093171044081482  0.4689016693592135  0.3416818518011309
  0.2849820506200158  0.2958645948303819  0.3440352656741943
  0.2092858936004866  0.7101475721026955  0.5144175756979849
  0.8839662007565262  0.1443597578515264  0.5852438314758790
  0.4454557379908419  0.1676112954143843  0.8939163552787752
  0.0340099473609407  0.7257498105105282  0.1737734801935337
 
 -0.14562670E-02 -0.12841784E-02  0.61047208E-03
  0.15009518E-02 -0.11539410E-02  0.18806124E-02
 -0.77372881E-03  0.24258847E-02  0.89759034E-04
  0.18507747E-02 -0.29804572E-02  0.24423614E-02
 -0.15385813E-02 -0.90625987E-03  0.22989309E-02
  0.13263937E-02  0.23624206E-02  0.37969254E-03
  0.10031519E-02  0.28112458E-02 -0.15248409E-02
 -0.26612430E-02 -0.20127572E-02  0.15037577E-02
  0.31782466E-02  0.21696518E-02 -0.12050541E-02
 -0.35491590E-03 -0.29809836E-03 -0.16730859E-02
 -0.62678362E-03  0.91537193E-03 -0.18636116E-02
 -0.53349531E-03  0.13025233E-02  0.39782086E-03
  0.18302697E-02  0.70623944E-03 -0.13941983E-02
  0.41082177E-03  0.95965826E-03 -0.21371308E-02
 -0.12699014E-02  0.36574276E-03 -0.12133201E-02
 -0.24019126E-02  0.16114565E-02 -0.54060434E-03
  0.14236110E-02 -0.90445618E-03  0.66331013E-04
  0.58684239E-03 -0.22373561E-02  0.43583603E-02
 -0.34106199E-02 -0.57769688E-03 -0.20266563E-02
  0.13337787E-02  0.17290399E-02 -0.32358949E-02
 -0.32836632E-02 -0.27954746E-03 -0.34495126E-02
 -0.30963800E-02 -0.30483043E-02 -0.90367149E-03
  0.24383545E-03 -0.13338153E-04 -0.54859352E-03
  0.22658868E-02 -0.18962052E-03  0.25478980E-03
 -0.20357000E-02  0.65183684E-02 -0.32114127E-03
 -0.26290865E-02 -0.20265376E-02 -0.81404790E-04
 -0.82650336E-03  0.10325647E-02  0.33673979E-03
 -0.14205850E-02 -0.93262948E-03 -0.18138905E-02
 -0.94698397E-03  0.98731755E-05  0.14567599E-03
 -0.12831165E-02  0.87298843E-03  0.14138424E-02
  0.19421112E-05 -0.12278802E-02 -0.41525328E-03
 -0.11031264E-02 -0.86325441E-03 -0.11006486E-02
 -0.63185855E-03  0.64874740E-03  0.36608523E-03
 -0.49496571E-03 -0.32684095E-03 -0.50773875E-03
 -0.50969789E-03 -0.25958980E-04 -0.21823365E-02
  0.10237743E-02 -0.81348463E-04 -0.30388248E-02
  0.79239320E-03  0.48339665E-03 -0.16045117E-02
 -0.26451016E-02  0.57507901E-03 -0.34962693E-02
 -0.74342440E-03 -0.29093356E-03  0.86434985E-03
  0.11468647E-02  0.14161607E-02 -0.32529776E-02
  0.73962034E-03  0.15942911E-02 -0.29162941E-02
  0.16516286E-02  0.26362767E-02  0.78930998E-03
  0.11232315E-02 -0.19130396E-02  0.10993244E-02
 -0.21138320E-02 -0.15764502E-02 -0.11068868E-02
 -0.44077510E-02  0.79313632E-03  0.10914968E-02
 -0.49930027E-03  0.13886807E-03 -0.27649332E-03
 -0.86883437E-03  0.46266074E-02 -0.56612363E-03
 -0.58600569E-03  0.32400123E-02 -0.41000005E-02
 -0.16562992E-02  0.27258637E-02 -0.39457242E-03
  0.66922044E-03 -0.18081445E-02  0.13079457E-02
 -0.37267245E-02  0.12789676E-02 -0.67722770E-03
 -0.43151784E-02 -0.69965499E-04 -0.13686382E-02
  0.12619075E-02  0.14321155E-02 -0.83310147E-03
  0.79337293E-03 -0.45559083E-03  0.28849370E-02
  0.16630424E-02 -0.11671593E-02 -0.10219649E-02
 -0.90398659E-04 -0.23871197E-02 -0.50163978E-03
 -0.27858081E-03 -0.12322679E-02  0.29594902E-02
 -0.19096852E-02 -0.19871413E-02 -0.15025462E-02
 -0.54710598E-03  0.13165657E-02  0.23899979E-03
 -0.35045982E-02  0.46712248E-02  0.19499020E-02
  0.26176750E-02  0.79688904E-04  0.75465598E-03
 -0.73573164E-03  0.29952176E-02  0.24428837E-02
  0.17847315E-02 -0.51565847E-03  0.89512864E-03
  0.15659741E-03 -0.23317020E-02 -0.36762515E-03
  0.30793279E-02 -0.34691685E-03  0.10982203E-02
  0.67503024E-03 -0.50619973E-03  0.11852664E-02
 -0.53461751E-03  0.97143126E-03 -0.80995416E-03
 -0.36098292E-03 -0.16465567E-03  0.97318432E-03
  0.24573597E-02 -0.24070664E-03 -0.71015824E-03
  0.11602308E-02 -0.10521995E-02 -0.42200103E-03
  0.32239421E-02  0.17168970E-02 -0.21044460E-02
 -0.72866005E-03 -0.27172456E-02 -0.19908622E-03
 -0.12666275E-02 -0.14153093E-02 -0.10767101E-02
  0.21357241E-02  0.34804148E-05  0.11724196E-02
  0.27855765E-02  0.80584896E-04 -0.37799961E-02
  0.12201067E-02  0.17569855E-02 -0.15643192E-02
  0.75819735E-03  0.20042052E-02  0.10183268E-02
  0.26928139E-02  0.22236393E-03 -0.18254509E-02
  0.29279728E-02 -0.54991049E-03  0.77295023E-03
  0.14319202E-03  0.16174563E-02 -0.16797733E-02
  0.87310633E-03 -0.17949183E-03  0.13851915E-02
 -0.20044371E-02 -0.10975360E-02  0.71128776E-03
 -0.70986300E-03  0.52158032E-03  0.44443458E-03
 -0.66208571E-03  0.36172250E-02  0.12299609E-02
 -0.12409962E-02 -0.68491245E-03  0.14983858E-02
 -0.22798396E-02 -0.11920168E-02 -0.34798469E-02
  0.16088062E-02 -0.29664351E-03 -0.23937506E-02
  0.14501877E-02  0.14147424E-02  0.24496378E-03
  0.89228159E-03  0.66486269E-03  0.14394777E-02
  0.14916850E-02  0.21507807E-02 -0.22035771E-02
 -0.66981946E-03  0.89506246E-04  0.78712705E-03
  0.29718731E-02 -0.41043356E-03  0.25390609E-02
  0.50985504E-03  0.25489537E-02 -0.19460476E-02
 -0.11941428E-03 -0.81708227E-03  0.77947692E-03
 -0.37269653E-03 -0.17330702E-02  0.60144869E-03
  0.26928868E-03 -0.23642831E-02 -0.10702692E-02
 -0.73333031E-03 -0.13207730E-02  0.28746549E-02
 -0.30302006E-02 -0.14202639E-02  0.19444737E-02
  0.99200610E-04 -0.11894367E-02  0.64954977E-03
  0.48214579E-03 -0.15237007E-02  0.48011899E-03
  0.31862138E-03  0.76525705E-03 -0.81216446E-04
  0.65386953E-03 -0.17457983E-02  0.12224557E-02
  0.60210617E-03 -0.68105248E-03  0.76078688E-03
 -0.20105762E-02 -0.15632288E-03  0.12239516E-02
 -0.43564938E-03  0.12565554E-04 -0.59177340E-04
  0.16320407E-02  0.48792165E-03  0.16509759E-02
 -0.23229551E-02  0.66304490E-03  0.67824718E-03
 -0.23751525E-03  0.36159488E-03  0.16378834E-02
 -0.85673681E-03  0.25879181E-02  0.20341817E-02
 -0.14618855E-02  0.24702976E-03 -0.12786688E-03
 -0.23192581E-02 -0.35442634E-03  0.51090742E-03
 -0.30796221E-03  0.18252843E-02 -0.35568981E-02
  0.31429985E-02 -0.12751411E-02  0.85442073E-03
 -0.33702495E-02 -0.15938059E-02 -0.30538113E-02
 -0.13576546E-02  0.28462231E-03  0.15549088E-02
  0.22387641E-02 -0.10874934E-02  0.21159725E-02
  0.48228163E-03 -0.17312115E-02  0.52894624E-03
  0.20592313E-02  0.71412360E-03 -0.84353582E-03
  0.11398168E-03 -0.37795903E-02  0.19790353E-02
  0.50383908E-03  0.62879657E-03  0.59257973E-03
 -0.16009604E-03  0.10747621E-02 -0.32848924E-02
  0.12896675E-02 -0.19839094E-02  0.62814915E-03
  0.23477727E-02 -0.20204220E-03  0.19446533E-02
 -0.12668370E-03  0.30200363E-02 -0.37456132E-02
 -0.14216715E-02 -0.82770964E-03  0.57115586E-03
 -0.16149816E-02 -0.23941661E-02 -0.39364287E-03
  0.16561453E-02  0.27030798E-02  0.93967083E-03
 -0.10139292E-02 -0.17098379E-03  0.13606302E-02
  0.30723317E-06 -0.15287263E-02 -0.46000667E-03
 -0.12841110E-02  0.17565061E-02 -0.21647704E-02
  0.39315780E-02  0.72705619E-03 -0.20453269E-02
 -0.10924343E-02 -0.19237341E-02 -0.32216179E-03
  0.83345066E-03 -0.48330153E-03 -0.45302849E-03
 -0.29180487E-02 -0.12708733E-03 -0.32252184E-03
  0.18755367E-02 -0.29209178E-02  0.26321714E-02
 -0.22399534E-02  0.14300524E-03  0.14923399E-02
 -0.17879418E-03  0.10841465E-02  0.82054896E-03
  0.21928558E-02 -0.70277154E-03  0.52954712E-03
  0.10045353E-02 -0.12601124E-02  0.13063646E-02
 -0.38956958E-04  0.31563479E-03  0.16400643E-02
  0.39426253E-03 -0.18403715E-02 -0.28697512E-03
 -0.16534289E-03  0.14983259E-02 -0.10902315E-02
  0.17291355E-02 -0.33650769E-02  0.32510472E-02
 -0.16552737E-02 -0.56181769E-03  0.25439484E-02
 -0.13313444E-02  0.34252172E-02 -0.52833409E-03
 -0.15790339E-02 -0.16634377E-02  0.29985314E-02
 -0.57290494E-03  0.11857474E-03 -0.26324611E-02
 -0.27989475E-02 -0.36561922E-02  0.17893379E-03
 -0.15652820E-03 -0.59787559E-03 -0.16125771E-02
 -0.95818851E-03  0.15000947E-02 -0.35805987E-02
 -0.15971300E-02  0.81523746E-04 -0.20483187E-02
 -0.23808574E-03  0.10519827E-02 -0.10785753E-02
  0.37356686E-02 -0.83183249E-03  0.26851553E-02
  0.37575614E-03 -0.75369167E-03  0.44421590E-03
 -0.17131890E-02  0.35434600E-03  0.10366944E-02
  0.10975928E-02  0.74257015E-04  0.10128479E-03
 -0.10744484E-02 -0.88313238E-03 -0.49831472E-02
 -0.28160406E-02  0.83419416E-03 -0.41051578E-03
  0.10376413E-02 -0.21007020E-02  0.53445487E-03
 -0.14393541E-02  0.73223683E-03  0.75275582E-03
  0.92820291E-03  0.74202205E-03  0.19993215E-02
  0.22408914E-02  0.36750666E-02 -0.31473020E-02
 -0.48606478E-04  0.12377888E-02  0.18368441E-02
 -0.37656806E-02 -0.34452782E-03 -0.21588166E-02
  0.34107187E-02  0.17606557E-02 -0.11929030E-02
 -0.44565702E-03 -0.10627968E-02  0.37750738E-02
 -0.68118124E-03 -0.33292338E-02 -0.10840621E-02
  0.32660097E-02 -0.36159068E-03  0.10198900E-03
  0.19372555E-03 -0.26296967E-03  0.77781191E-04
  0.19178683E-02  0.19027049E-02 -0.92718956E-05
  0.88201585E-03 -0.11199089E-02  0.23464690E-02
 -0.35219631E-02 -0.20964693E-02 -0.23151714E-02
  0.50859435E-02 -0.27214212E-02  0.64672687E-03
 -0.82874148E-03  0.23726359E-02  0.77180683E-03
 -0.10107031E-03 -0.16692082E-02 -0.14943390E-02
 -0.81683068E-03 -0.26403261E-02  0.25634309E-02
  0.26344027E-03  0.26535695E-02 -0.11077489E-02
  0.14802080E-02 -0.23926654E-02 -0.56345805E-03
 -0.18867697E-02  0.38946717E-02  0.91423245E-03
 -0.46566181E-03 -0.45659314E-03 -0.38350452E-04
 -0.69883733E-04 -0.15066795E-02  0.30207059E-02
  0.46129024E-02  0.18798240E-02 -0.98310074E-03
 -0.18320915E-02 -0.13434064E-02  0.10213934E-02
  0.13766678E-02  0.17782951E-02 -0.24710003E-02
  0.14162150E-02 -0.34139359E-03 -0.20158816E-02
 -0.20388065E-02 -0.47277407E-03 -0.17959778E-02
  0.20854902E-02  0.15279276E-02 -0.10151330E-02
  0.16301639E-03  0.46340961E-03  0.15213089E-02
 -0.16099711E-02  0.25197992E-02  0.10734805E-02
 -0.11148856E-03  0.36115438E-03 -0.44898772E-03
 -0.39605863E-03  0.24760157E-02  0.15573467E-03
 -0.25850494E-02  0.12737556E-02 -0.13863148E-03
  0.16206562E-02  0.22762489E-02  0.18059685E-02
  0.70221971E-03 -0.14830714E-02  0.25656922E-02
  0.34892256E-04 -0.18666262E-02  0.40179778E-02
  0.18222809E-02 -0.15375128E-03 -0.12023067E-03
  0.32564897E-02 -0.10662145E-02  0.71999916E-03
  0.59305006E-03  0.11642658E-02 -0.37122925E-03
  0.63866522E-03 -0.10222776E-03 -0.31789871E-02
 -0.23108463E-02 -0.22142314E-02  0.51800523E-03
 -0.68548636E-03 -0.29958699E-02 -0.54527179E-03
  0.17959803E-02  0.29319327E-02  0.32712215E-03
 -0.18552010E-03 -0.10198147E-02 -0.52968351E-04
  0.52885111E-04 -0.25974364E-03 -0.57069254E-03
  0.31593134E-04 -0.25735830E-02 -0.93350669E-03
 -0.15510561E-02  0.61366452E-03  0.51308657E-03
  0.53340088E-02  0.77014316E-04  0.12915810E-02
 -0.31053847E-02  0.16526486E-02  0.27578795E-02
 -0.11709110E-02 -0.14491038E-02  0.13012702E-02
 -0.28573070E-02 -0.58305862E-03 -0.59976215E-03
  0.14484490E-02  0.35252302E-03  0.21604870E-02
  0.17881099E-02  0.51301764E-02  0.26296247E-03
 -0.18039428E-02 -0.38354646E-02  0.16127370E-02
 -0.42275765E-02  0.50544489E-03 -0.15380519E-02
 -0.10618310E-02  0.10441195E-02 -0.57147400E-04
 -0.12168354E-02 -0.87524676E-03 -0.11437887E-02
 -0.83959077E-03 -0.13935161E-02  0.88081415E-03
  0.35280058E-02  0.96968684E-03 -0.20093306E-02
  0.41309989E-03  0.35054703E-02 -0.15569357E-02
  0.11478298E-06 -0.10506656E-02  0.72773834E-04
  0.34872451E-03 -0.31920227E-03  0.10529760E-02
 -0.12725939E-02  0.44230519E-03  0.16686352E-02
  0.29466911E-02 -0.96968111E-04 -0.34552986E-02
  0.46396555E-03 -0.13118054E-02  0.12151027E-02
 -0.18200452E-02  0.59868222E-03 -0.30532992E-02
 -0.16910720E-02  0.22381654E-02 -0.31052279E-02
  0.12156673E-02  0.13914198E-02  0.14696151E-02
 -0.31838859E-02 -0.17420257E-02 -0.15321804E-03
  0.11375287E-02  0.14161143E-02 -0.98109273E-04
  0.14952603E-02 -0.16476638E-02 -0.63414179E-03
 -0.28478771E-02  0.67982720E-04  0.67534311E-03
  0.33638779E-02  0.71062645E-03  0.16045023E-02