generated by phonopy                    
   1.00000000000000     
    25.0343040000000023    0.0000000000000000    0.0000000000000016
     0.0000000000000040   25.0343040000000023    0.0000000000000016
     0.0000000000000000    0.0000000000000000   25.0343040000000023
   Ge   Te
   256   256
Direct
  0.8133227173663801  0.2396166935226587  0.2846993903019571
  0.5090700605896442  0.0525829887634847  0.9141462795605406
  0.7514038020447972  0.8601235541234638  0.1932163930211526
  0.5862788414857935  0.3321350675022323  0.2045788773367305
  0.0518287050839599  0.1855458262534495  0.6263387411119156
  0.2499237100420926  0.6948971922775632  0.3177496236255167
  0.6048592998172870  0.1454032956077082  0.6947358514561528
  0.0172394557685465  0.3155354066372515  0.6755549440177100
  0.2883968954834968  0.8783147574130031  0.1437624258845761
  0.1707710947081357  0.5082555504228553  0.1610657364725588
  0.8382894945156879  0.5182314371225303  0.9698607096660181
  0.7315357098604871  0.5907182105014821  0.3223215416751892
  0.9357729790427728  0.5810608196599479  0.9031241778244220
  0.1191984194494673  0.1686211933675598  0.1836725667128825
  0.8026805614774720  0.6902905505503417  0.1985439145719418
  0.8701219845005140  0.4255138936069897  0.0067590222139982
  0.9512152032986233  0.0063775567816110  0.1803532199788423
  0.4734810518395459  0.3235752671260058  0.5927542845851653
  0.3542560079943492  0.0740495109490652  0.1515696490135285
  0.5281945178285659  0.2134225177260356  0.2930270064701290
  0.9133273601915953  0.5657839534879344  0.1841511913703952
  0.2886438953720869  0.1864884159027954  0.9051375663018121
  0.4799971347605957  0.3516618709421181  0.0035288097050261
  0.6516298126072294  0.8839515733737452  0.1918442388649217
  0.3297980854791186  0.6126921533254531  0.4886723852060897
  0.3131303769321777  0.6269204711287577  0.1387957095546745
  0.0332601603406358  0.3807235489546176  0.0684437896921922
  0.4811010596491044  0.3098733103288390  0.1469785650312460
  0.2253758729615630  0.7621763610919463  0.2396064753798737
  0.4127214609072060  0.2683716104996184  0.9913801595316118
  0.1903655628992011  0.7659376726868689  0.0904572862033030
  0.4925104734427862  0.6764916562576646  0.3202425324847577
  0.8171936603302220  0.0795126416619130  0.3029052439865855
  0.7988470459909531  0.0854499683878710  0.5525859337609142
  0.6515983597946960  0.7499895291814980  0.9064622598838401
  0.4890754408856767  0.9632559814900746  0.4312240524125186
  0.9950835561079964  0.2971646571021686  0.4078143145377439
  0.9166011452532020  0.1734824771214856  0.7144584373908667
  0.4818030863570380  0.3687174590913492  0.5019726425675731
  0.6440329617125283  0.2388854138011455  0.3394566796027423
  0.9985734629085055  0.5542842709597416  0.2750860196817585
  0.4825376033693550  0.3781529259390042  0.3652110674153228
  0.7248314474773565  0.2697544318004362  0.1645068098069863
  0.6134515297942981  0.3220754848723657  0.6219667139296167
  0.8834582361181337  0.9341558866679477  0.2591569079061093
  0.0653658277463204  0.6677930890630932  0.7049961622766319
  0.8368189608563780  0.6189988048049448 -0.0084803275480247
  0.8510125949252607  0.5427518310685012  0.2688300762602601
  0.9729962180385199  0.9001096237269226  0.3706104656259445
  0.4892261317968473  0.7810959472513159  0.2906774763714388
  0.6250972937629898  0.8965292431212105  0.7506527464496727
  0.6572354833801254  0.1589163376786028  0.2491735993331718
  0.1012921010261713  0.1696674584252372  0.4601210957628806
  0.1332730817247891  0.3871592991597547  0.5897865668712019
  0.6953946096023115  0.3776739007085581  0.8612104333376173
  0.8662179058039461  0.0469101991719674  0.9503299773480590
  0.5668975555129031  0.5676177050358817  0.3780956049387929
  0.5437974986596472  0.6365239271045101  0.6057716136178706
  0.8473943400638987  0.7875411129928260  0.6219611003777107
  0.4842481224033515  0.6562270300686823  0.7903938859514446
  0.1353090663187735  0.5244401487965421  0.0586644399455063
  0.2176135640590984  0.0142630162756685  0.4165357396600006
  0.9211796685839897  0.8388111739991158  0.7663207686746545
  0.8792740868525960  0.0747814784809458  0.7822424097293128
  0.1130370416197970  0.0665886265839052  0.1425610331238558
  0.1490073782980384  0.3843133579063854  0.1355842567685559
  0.4600242954110202  0.1127773580746639  0.0606508791340723
  0.0172272188826707  0.1865594397821573  0.1781288076807277
  0.8605901730154200  0.2148627592669014  0.1366245830752816
  0.0192649846957738  0.4200327503297941  0.1647468773790916
  0.3302709959365209  0.5506150082918594  0.7654529731429033
  0.8911072632567119  0.3266679175503183  0.1677397380930314
  0.7925354255836982  0.7451929158273966  0.7990663849443175
  0.0387950502853173  0.1431247858467394  0.3377201182884209
  0.2470507120536483  0.6575493720442752  0.7778822796198124
  0.5170228843655270  0.4603779604141656  0.2996996021432781
  0.3699345477980009  0.9344942959650889  0.3373781159684682
  0.2573119543645381  0.9719765927031409  0.8235802792345960
  0.3308633581041158  0.8376388057593845  0.3327500818144337
  0.5929139188392780  0.9118987469640308  0.1105399703685879
  0.5670263140867345  0.8363532582908926  0.9768548414674035
  0.1124917338888348  0.7851076200219379  0.3122561173117440
  0.3514760073618232  0.4266754854345076  0.9780289896359532
  0.8651492856349611  0.8592218261516287  0.5010740034256616
  0.0527825749456789  0.0890271167545716  0.4213590333274294
  0.4275722815174120  0.5180249758500751  0.4575931918967641
  0.0128808049844869  0.7132801765336232  0.5663226561013679
  0.9319003935578027  0.3410894162430242  0.5491231261299329
  0.8562835107021886  0.7096153869535138  0.3496674451118724
  0.2651776545851559  0.3161350498421119  0.7031670454727597
  0.4356653999352710  0.4765357022156772  0.1241183809927590
  0.5938701252276979  0.7884459313413694  0.5909749621108207
  0.1004400675800640  0.8574513471402258  0.1588208691239962
  0.3722246146253518  0.5721958967433927  0.9146593323659971
  0.1161699777287510  0.0109326219449909  0.4173996937681279
  0.8362494426545930  0.8978573966669593  0.1470846661832631
  0.7687357894187637  0.4196981283975048  0.6453860073473987
  0.2417365194220976  0.1066556218020708  0.3810977847363781
  0.4551558186785897  0.9298000856501222  0.5408398075539271
  0.8093920565421086  0.9395596544520737  0.7671967026026990
  0.6878499642627236  0.9710221084623530  0.3530458069891517
  0.0650659223160227  0.4631158589151734  0.6081313467196258
  0.4220094060019730  0.1582126647669764  0.7827822866069529
  0.8299138847888010  0.4666723168213984  0.7130312322854232
  0.8735958807111817  0.9921181812003632  0.5243966637250309
  0.9720044539237880  0.7029680907286842  0.7694092698860664
  0.2383402810071056  0.7433038287394430  0.9986384498750588
  0.6938220855494582  0.8860705876808981  0.0586579874205288
  0.8636613400225223  0.0173712439177002  0.6970529375945084
  0.1271841166598794  0.8941842099807160  0.8707305209227989
  0.4182186174834334  0.0355210430591883  0.6690012953551214
  0.2224466438405351  0.6437651661898042  0.9754066020583708
  0.2406116236425504  0.6512107906737840  0.6480476682802057
  0.3211278293651720  0.2713235376377859  0.0410007901244292
  0.5785216103210314  0.4576701704224213  0.9041763304832591
  0.9429925710703647  0.8995777301612609  0.1360506059615784
  0.2018020834440842  0.1593825032401802  0.4581843286685908
  0.2391323170326188  0.3183203543533343  0.9978052631138131
  0.1269350434930508  0.0555286429247543  0.8802286218051411
  0.1170014927956063  0.3071348550148560  0.6500762153451628
  0.9746942306714075  0.0459809642339835  0.5665958523284060
  0.2217957475096535  0.5285277747684686  0.8887282898460154
  0.5039253210211035  0.9493022325948913  0.9088875415504150
  0.5874554312287529  0.2640148185153166  0.9294538820282523
  0.2576521181794529  0.7716696075366437  0.8245002621531948
  0.5360890691620644  0.7634242726535949  0.4561838478797021
  0.4989260555331881  0.7541352094639006  0.0134853017800927
  0.6111182696447720  0.7060881459017770  0.2211278283551636
  0.3267544260204808  0.2795640976927109  0.1438860899011490
  0.7252152205445447  0.7878671467750580  0.0367177312923846
  0.3500703028607662  0.3410538300454463  0.2354861203296252
  0.6493241252507916  0.0265778767567365  0.0064803105860330
  0.8351776175661656  0.2249358994245003  0.9441942336253336
  0.2814954190357760  0.4769470066440334  0.2053912500945972
  0.6511912009406733  0.6474981494366083  0.1438147594103954
  0.8975628419496900  0.0123885774409524  0.8604216048892229
  0.1811277976645900  0.8459630798226082  0.3645968972759542
  0.2111139748593246  0.5975155430877496  0.2872027054988978
  0.2491167039891953  0.2112178667552801  0.1598213358479019
  0.9794246924270285  0.6292613022804071  0.0463572149200403
  0.0985429031091929  0.1761456345775360  0.9611963349957903
  0.9223381887494571  0.4221828950005188  0.1916784502577518
  0.0872177242545745  0.9463594373780017  0.2123475391825518
  0.7641713466765248  0.8268852845618870  0.2891240785098732
  0.4484981637412179  0.1865533157815033  0.2279131288480797
  0.2224881766246591  0.0139410025469070  0.5180769022222196
  0.0123118040260116  0.8595552553766480  0.6118438886578810
  0.7922501994785821  0.3598189743933761  0.3652242184758673
  0.8975791492771978  0.7971092073602331  0.2198375521586174
  0.4014069072055140  0.5568578378805515  0.6395176210881924
  0.6122502768804156  0.3957569486390556  0.3797513421787401
  0.0107102004399283  0.6692663126714903  0.3161484734682997
  0.3553956524280866  0.1820789548582369  0.2733608706737607
  0.4873848901722805  0.5943846568197035  0.1100199484443327
  0.6169056281086963  0.8476980391843291  0.4925463396076708
  0.7189171016941178  0.7021811189359208  0.5527713930974852
  0.6602921165875969  0.0061222485707087  0.6093380859106506
  0.2952946349421662  0.9511309305566423  0.5588436395576853
  0.6156139194489901  0.1302836543573620  0.5427131126251938
  0.1272826069378304  0.7757995070876916  0.2121780333476352
  0.4054204010229156  0.8634572501663988  0.1575011975942167
  0.9371334323332794  0.1379744291575421  0.3197202768715830
  0.6213079550263736  0.9836395106571431  0.4630949620682675
  0.6900517285831161  0.1590044588062136  0.4218653984187313
  0.9667695860524188  0.3913230991935033  0.9888708888352115
  0.8209124653121397  0.4636655996444552  0.5017357031008904
  0.5233469607556680  0.1998513595142140  0.6735850309340209
  0.0381537396135263  0.2095478496373354  0.5274759213033654
  0.8976497382732046  0.0367446173239846  0.0993649749275324
  0.3343599306003222  0.4018624830770925  0.4752997008613792
  0.6758308972806059  0.4867802975997672  0.8685869853160223
  0.6276083734235923  0.2468999913731762  0.8339782903086689
  0.3978933071198061  0.7755378652090599  0.7085798356324526
  0.7640121970484465  0.4856030737890722  0.4129532002925282
  0.2411687625351253  0.5315691928303309  0.6289883697191798
  0.7359178315815482  0.5871445943934723  0.5409907068985040
  0.1345241476002143  0.8748437272984101  0.4658736578911070
  0.3087847636209764  0.0168231118810657  0.0388635360611400
  0.5941081822586811  0.1549142385617550  0.0631967221174014
  0.0758294693303226  0.8836223185869941  0.0077552602265503
  0.4083860208318917  0.2878587461008191  0.3767701117852913
  0.5315088548926484  0.2420586771154792  0.5817266744811005
  0.5175925725326707  0.0757407615424276  0.5495287573881972
  0.9513137720406495  0.1315256447702191  0.8394670155852993
  0.1870623431241880  0.4293122339005803  0.7544822893241619
  0.8630637883209578  0.3105894767996062  0.6945096334779480
  0.8200840572176376  0.4873624489689242  0.8703524562934302
  0.1524591269157652  0.2555676478155836  0.0115242279615162
  0.3948638586774215  0.0067049621386461  0.8034184983060847
  0.2580298666899191  0.9191817551515546  0.4042289998128833
  0.6837752889011646  0.4173220570799200  0.0432488831002621
  0.5399303029400839  0.3538416797172687  0.9036178908080049
  0.2136693727187654  0.0257124293858499  0.6593966597169826
  0.2220052014105265  0.4829297019640821  0.3851816536377094
  0.8980749155259942  0.1368400682732723  0.0775702015310439
  0.0063534670675487  0.9625398867518443  0.6223357020930755
  0.8582749083508781  0.3403647149913467  0.0702361623374567
  0.3552142833270744  0.0408921168202469  0.9485205571577506
  0.6773366349475015  0.0330833402094441  0.7460057930095905
  0.6795680069736542  0.7207330304220748  0.7103517341171040
  0.1371597821440272  0.7667072677321001  0.7500087500539682
  0.4035581768671943  0.8548135655790248  0.9936885529661738
  0.0418966353997994  0.7097320084843027  0.0919754727989092
  0.0678238265558268  0.2422702464289133  0.8068338527306156
  0.1076381847274687  0.9728017373937984  0.6519908519023729
  0.4349670257018779  0.1024144621865316  0.9613956977705255
  0.7140739383869922  0.8699875724112217  0.3649447044526326
  0.1970873647593410  0.1805388775740304  0.0724918263324861
  0.0313550622795066  0.7698432061604793  0.9198239181279152
  0.4245568887694423  0.7093206007946082  0.6083741692726005
  0.6086792494967346  0.2291426195484042  0.5117081372305758
  0.0125798164995123  0.3775196062518703  0.8933553197252116
  0.2742106245187748  0.3906009758977090  0.3768115586717745
  0.2464853158166349  0.2538278584457411  0.4678098651078365
  0.6150670866874749  0.5794092564614380  0.0116431896973561
  0.9691436683387257  0.2739574335652001  0.2087319653707312
  0.0704190221501067  0.5330367499198155  0.9789651584748496
  0.5323013851227427  0.8889761043619363  0.2796500943400880
  0.7708487509562487  0.6296429855854722  0.0694676970142979
  0.0954260056516166  0.7418097816678471  0.4317739894434517
  0.3476781323533858  0.5789556344727496  0.3731115755952897
  0.4977126856790733  0.7968391166456636  0.7333461997419046
  0.0539932541510267  0.8118095387562978  0.0799357487089807
  0.2795030785073774  0.6747937910161186  0.5532588063983530
  0.9612007495075001  0.0746324102935714  0.4657902677753685
  0.3375111212559767  0.2087483118869751  0.5866206411622658
  0.7495663603066305  0.2650543790922400  0.3659283661817154
  0.7762387913507731  0.5931752494776604  0.6434541499886053
  0.0658077825080192  0.4626216843414446  0.4356567431731531
  0.7888684855843958  0.1961642088471406  0.7936232770892578
  0.4084178293582125  0.7940692398018105  0.8846206541887039
  0.6282853236964148  0.4894860334046802  0.1661433045165761
  0.2568519704312475  0.4179901363296188  0.0170410296277551
  0.6559596331508565  0.4987415269504247  0.6730692077924374
  0.5310062632131037  0.2153774354745100  0.0031524205020935
  0.2082087953700666  0.3871162866679943  0.5162467400698666
  0.5611813393138981  0.0799594861461112  0.1883394204210509
  0.1642346734489146  0.7998318963210050  0.6021452637174904
  0.4638951149271394  0.9119140665870206  0.7957187574634367
  0.7775079724345713  0.8712055635948863  0.4460131384587755
  0.2936254361399130  0.1768846442317384  0.6797616304836835
  0.3722800731705655  0.3389527319260434  0.9302356724938564
  0.3540937967439020  0.9428627986345803  0.6985483665709930
  0.1522084129783302  0.2173553353600514  0.6102016156332544
  0.2019277692851262  0.1787643444655012  0.3072175311730355
  0.8893454314097794  0.3570811569607499  0.8456088026568028
  0.4113891665721339  0.3089016970500162  0.7430667001003368
  0.6806279951687407  0.5822038756327278  0.9179179535727731
  0.9616937799791575  0.5324422180773273  0.7592251751042342
  0.1155140994208408  0.5752831227678815  0.7027428725840954
  0.3827889042663113  0.7193074410406530  0.4348277626776664
  0.9080860054677897  0.6135931742348373  0.6981946982724120
  0.8792636749328567  0.0549913440488718  0.3945231262499556
  0.3790097326906843  0.8691911189496189  0.4927149101048465
  0.4141301297113504  0.5763097064303438  0.0175797792026908
  0.0236104037460617  0.9114486532894190  0.8465585084232905
  0.7964331368969910  0.1954790941784731  0.5464808432865490
  0.9326499752505844  0.9919411490957253  0.0120334612747187
  0.5148015460654716  0.8227806924246884  0.8371727946055784
  0.5965918930382923  0.3539289528016408  0.8069517703130025
  0.1816480995743240  0.9965386447857725  0.1858833231836147
  0.3864996239404070  0.4475333509503467  0.2196302520251264
  0.0180646939507815  0.2302835587278551  0.9056922270537723
  0.0397117861319860  0.9854611478554035  0.1190781735404736
  0.6658348137702651  0.8041842015456132  0.7894751836113679
  0.0922827793154973  0.2903584298025221  0.0979945478736629
  0.7444315287201059  0.5289419903059945  0.0248697393512592
  0.1753260321713596  0.2590416400955131  0.2195624078133205
  0.4174248456538466  0.8808967705960148  0.6329318540297957
  0.0355536453732311  0.7859215838537936  0.8101019984894525
  0.3211334260624102  0.4790316846039475  0.8855344697091909
  0.3393043429997676  0.9748591852902834  0.1978814404129328
  0.9444450689933975  0.9988982978225238  0.3278181108009558
  0.5983523248976186  0.8091475733898310  0.0788823700211442
  0.4649946431813337  0.1745081280154509  0.5341464591685633
  0.4187264533431332  0.2182394000777695  0.1296861217301714
  0.3518151257215150  0.2889047486620672  0.4757209985451260
  0.2586883404137724  0.3860457519480610  0.1200910398455048
  0.6767177351635172  0.0735526815330377  0.1779078741352542
  0.8132369057293527  0.3795659585479916  0.9262716599271362
  0.2465863627564774  0.3916106200845336  0.2692485425684010
  0.1313594686047743  0.6499187785379211  0.0563892760876564
  0.6194122912849884  0.4905363451619910  0.3170202293990436
  0.8604987901900274  0.4849646467895753  0.1357288858292383
  0.4851076540892381  0.6678262902680773  0.4294104738678315
  0.6189469831902933  0.5267734900784868  0.7851479383643419
  0.7670456805743037  0.7551676583560305  0.4632953030155750
  0.0148249395879245  0.7739529083044659  0.3582886295455576
  0.4691505153827059  0.9744812072837182  0.3225742268840097
  0.3309634782855984  0.1241770639059453  0.4372362758293717
  0.7055269015493537  0.9066562123374828  0.5182154440469423
  0.5134208024508968  0.7421981417735299  0.1891212679442493
  0.0407834584532853  0.3153847342802619  0.5075153113295642
  0.5422721001131491  0.4742875033000662  0.6198853215334987
  0.5711414322551492  0.1104708676826012  0.2988880524038461
  0.6782713232804524  0.3833443512321438  0.6904297767887398
  0.9767106314582480  0.5128613803522916  0.0229698056946319
  0.0107971159152555  0.6107528371488103  0.8241091029026490
  0.4988527303992062  0.5689310718929007  0.6869593875377311
  0.3430627977182358  0.5277772678755034  0.0872965592177052
  0.1355479719745224  0.5532325411893596  0.5984238913534515
  0.1329103950495980  0.6845425567342588  0.3428873586318129
  0.2738829092471247  0.3016509458722788  0.8965466689306428
  0.8709245955778283  0.5352450950634482  0.6227090353593812
  0.8438132340424550  0.9083734503144896  0.5928586653029227
  0.5224448091925215  0.8975725477729606  0.6982434598634178
  0.6094050704328803  0.0893385459995064  0.9249657706223392
  0.2457220004057661  0.8711547731622591  0.5034530776855880
  0.9025436669360707  0.0990769737491615  0.6275423020686426
  0.1640238833238512  0.4828356471196832  0.4765572587642225
  0.6981974613036419  0.1367168708964876  0.0857004574506456
  0.7897746520609833  0.2287095963053825  0.6926922810394721
  0.2054118594749754  0.5544947559296881  0.7590706953935155
  0.5306468906476882  0.4611406141983752  0.8053279454435323
  0.9690443033647097  0.4016005269714369  0.6347498576846474
  0.0166995257023638  0.1512951123438310  0.7551041428112061
  0.6292084409860267  0.1419331416037141  0.7976099629121616
  0.1920665587453204  0.8583542254114375  0.7917172505897178
  0.1271054528636975  0.4171360588381056  0.0320062625280142
  0.5648104387813100  0.9461340121341694  0.5566062518713477
  0.1673703474211319  0.0764483023990996  0.0471958967097585
  0.2923846788906899  0.8007535822701043  0.9256059493107269
  0.6515736449429248  0.9201112533227183  0.9650343986878214
  0.7930851565862702  0.1651691459805851  0.2101547712932759
  0.3006537320053946  0.0071548801809549  0.2985275081107606
  0.5927039111758020  0.4749406692055460  0.0601667271797753
  0.6572033551393860  0.3400929191989466  0.2930696980429808
  0.1529234585005596  0.4850119863213971  0.3024027096235527
  0.6273000634810512  0.8060603106156461  0.2611544677495025
  0.2373755531390733  0.7579858866725918  0.6828790559731939
  0.4325388129175638  0.7029050953393943  0.9428841282537341
  0.2003361400794682  0.6118735496215628  0.1600745453100637
  0.4110516618090762  0.0145518807235094  0.0777877561947491
  0.5670104106146849  0.1874185984738890  0.1636971269497870
  0.9657429312955748  0.6276241454297964  0.4112218963461922
  0.7998833700192103  0.9964446991851605  0.1223138321322870
  0.4969359784328408  0.9143616490838152  0.0137560551617577
  0.0391044480558301  0.3888123969825486  0.3627996104116728
  0.6887445820268242  0.2891483943941263  0.5454131693719835
  0.7139007319086451  0.0996480893682908  0.3329300486677786
  0.4141782111198909  0.4450140566851644  0.5421287900090216
  0.8464411298986921  0.5702749194629295  0.5126791102412482
  0.7106157538722447  0.3933174012327533  0.4345250537684063
  0.9499783385425616  0.2425228055997320  0.6327309660250028
  0.4711506396595566  0.5592518503274310  0.3197844089513686
  0.6020803523651870  0.6697855758022090  0.3208192892460298
  0.6665049456467249  0.7852647590362269  0.4096933290746194
  0.2577399358336535  0.7643388560577167  0.4032942981660211
  0.3126251925359898  0.9060459443471343  0.0356879504687617
  0.6108290416162250  0.7029170236230898  0.5239319867110076
  0.5378818133657417  0.0622841170441614  0.4412144042483030
  0.9515376932200951  0.9189023935608075  0.4796373650157831
  0.8187044821523877  0.3409458511955297  0.5960895696585909
  0.4670486398156808  0.1923282131434034  0.3827884188014826
  0.3164347496656055  0.0711705228022994  0.7022545457822206
  0.8652668497076967  0.8413670532606803  0.3217342708219959
  0.1885285946900329  0.1732770068316641  0.7002614884446069
  0.3462627993995934  0.6357021033805353  0.6910011058936411
  0.2948815672776691  0.3965606810334883  0.7724591305308905
  0.5836401217781922  0.3943516395043968  0.5424884040846910
  0.8278233890908704  0.6871074125712415  0.6790702050654346
  0.1154315977308700  0.7002211698565801  0.6093605570739589
  0.0612204694837333  0.4843031381168050  0.7234056912396944
  0.7153997093851681  0.7831879209705395  0.6256139369824770
  0.8127359031456274  0.8345155426899848  0.7335580441479053
  0.7042130716993564  0.9375882682858796  0.6869932180248838
  0.6472664999153825  0.6602342729329213  0.8414659450745567
  0.9230240606707221  0.6768956500500546  0.9643657890606906
  0.4866020444497339  0.7843036218637811  0.5520435807450008
  0.0780846912083603  0.9985846538100037  0.7526747677661094
  0.7999546740226255  0.3285620576407960  0.2249137866432100
  0.1706360142866439  0.1576079551349590  0.8830089321815918
  0.9469346662866469  0.1804186428612524  0.4774215366888818
  0.3512923732852849  0.4710008294565053  0.6924494205704759
  0.4886752165134777  0.0663018550817812  0.8086013422431181
  0.9289330246261437  0.4666273562874966  0.8496983423959782
  0.2283379815968598  0.5282374159842207  0.0021342711003603
  0.1942434191430225  0.9707529807789957  0.9145979679034740
  0.7499777964810945  0.5384807720934413  0.7341796171299905
  0.0723149803297868  0.6387786769855446  0.9577632125346860
  0.8969077500710169  0.7516948893031058  0.8363059407542248
  0.1180049934793228  0.9718966098859989  0.5187568938840602
  0.5361399079605482  0.6838076501403307  0.8870922753339379
  0.7760112436895202  0.6431911183795720  0.9039477010399501
  0.7953455854875123  0.1851445798775676  0.4319103365828070
  0.0462736071248496  0.3440820843749801  0.2380753997603340
  0.4406512647270531  0.0809905799116054  0.2195686082000366
  0.5374860459019083  0.4321043373757479  0.1946446270970159
  0.4094168774936917  0.1939222327253454  0.9106828886022864
  0.7833141234281320  0.2605213213868548  0.0708411442780653
  0.5733256187978490  0.2743839053886976  0.4199063516512534
  0.9220385835457955  0.2480249607105993  0.3048819939196554
  0.7336232990989290  0.7640424861721734  0.1441404516072025
  0.2929266717016571  0.1687841788711283  0.0187574090345813
  0.4144818909117432  0.7849860314069979  0.0789595342071805
  0.0551627522751758  0.5198529907011545  0.1839320646327779
  0.0822930723243315  0.9263763578770007  0.3621291471913809
  0.9860297066319307  0.8677815436379006  0.9426210863163471
  0.4322242145879317  0.6597817799416599  0.1757126983266805
  0.8384844904783829  0.5995791408546488  0.3623424689601820
  0.7790291321604286  0.0914396449151861  0.8146817222845012
  0.5508595838162819  0.6686488139033480  0.0602605401870982
  0.5828826575421975  0.0419717168607434  0.6814394621342186
  0.5381767715156290  0.5555263263966785  0.9361105931017124
  0.9219138445604590  0.4212921384985783  0.4710851591868256
  0.0867302449277872  0.2332682822328687  0.3727975504033962
  0.4611025943929948  0.3222952505507939  0.2700049599504350
  0.3123142793660237  0.2611924317643882  0.3289777266900940
  0.7371740805932568  0.5993639825842888  0.1982880198253940
  0.2877443119091231  0.5194163724358936  0.5255227147985942
  0.6482011360380640  0.6148477862569445  0.6405527909556575
  0.0080528998469496  0.5023196579838820  0.5172865701705507
  0.4262576681255528  0.8189791262761899  0.4055408227221661
  0.1988402412272129  0.7210429700027333  0.4979643181832372
  0.3919558322379728  0.7186142315897203  0.8033687388582672
  0.4112937043706943  0.0294810730733456  0.5586445061915379
  0.7450024026684630  0.1579384534480805  0.9430703236740864
  0.2361746523206812  0.8652155001835261  0.2668927372183482
  0.2271135228276246  0.1150093620985233  0.5511701239666682
  0.7570453184321894  0.7204579982722866  0.2975583693419829
  0.6761132427978598  0.3693156850641630  0.1437936037580462
  0.3777825683299453  0.2993435118312606  0.6339483806169609
  0.8052729865678957  0.9851136564200467  0.4393642118708968
  0.6972810393367781  0.0760903284110442  0.4951751844444703
  0.0705856745003115  0.4729205630701679  0.8821512905679399
  0.0732964768352909  0.5449143117360714  0.3613921402630511
  0.7151029413844334  0.4783710383385636  0.5735620838060995
  0.8203774113054069  0.7971549700939826  0.9829488589657257
  0.9969242187381926  0.6183462402998785  0.6354198770569514
  0.1684009731614378  0.7051810223324211  0.8377634884956978
  0.6325786631264453  0.9716994922196740  0.8286122679095713
  0.8114161058424758  0.9012678782315487  0.0381334366186890
  0.0990112991217433  0.8610027346582116  0.6746487869212556
  0.0719739258087953  0.0853896785669859  0.5885473923655739
  0.2692963544973505  0.1296273232528981  0.2307830557714477
  0.7457020521015379  0.0760227723494911  0.6485066865763671
  0.0728324453248669  0.0643042991925194  0.9781379428940619
  0.2422852048184099  0.2733220321041272  0.5740496853993819
  0.4425840657311767  0.3621055729346108  0.8508692125359437
  0.0029713086518819  0.1606284264766234  0.0773886117389367
  0.9088128567054030  0.1443034422304479  0.9692289397375529
  0.1624997026604049  0.3191014406829371  0.7472348428991887
  0.4315667548983073  0.1468748836070267  0.6696651760150358
  0.0652715607010290  0.6923071348861706  0.1951992215253492
  0.7330502418374605  0.2584466754551266  0.8614748796036575
  0.3115424309393241  0.0698415885051250  0.8535342310865314
  0.9569465049226304  0.9595693897034755  0.7160339149751063
  0.4488499248074879  0.4777691046201620  0.9802990097475638
  0.8670730925541579  0.9115354219119457  0.8603617004388106
  0.3943901334220078  0.9511955063446650  0.9018592559476850
  0.4095109620733708  0.3730445540862286  0.0871576345648688
  0.0036876892458286  0.0211643370239774  0.8766127013298266
  0.3122366148206574  0.5666770980666413  0.2622504415436826
  0.3142825603545057  0.6679836014151281  0.0323196332121602
  0.5568668799671591  0.3011593885867627  0.0633036551189089
  0.8823947516007521  0.2272645374004617  0.8361751678531618
  0.2869518704306265  0.6331598414616645  0.8827549974543256
  0.1326826439511115  0.8136412922404860  0.9428853121494229
  0.4308990313226757  0.5638406751713860  0.8227975967242235
  0.8829401006345279  0.6403888693529902  0.1139960323640898
  0.9438922880789177  0.1168690863666374  0.2126790934954506
  0.1845080213905632  0.8762235611303024  0.0922896808354259
  0.7629221497973806  0.4845913396489607  0.3000881840736132
  0.6950166596028255  0.5655415207656789  0.4319902238750246
  0.1193977937164045  0.1057932892088054  0.2761213040459108
  0.3899712405751364  0.4380195890898507  0.3827402416736599
  0.4959162150587023  0.2397741035729905  0.7702145711355057
  0.8644345613816591  0.3245465843308536  0.4374130590777431
  0.3642620385427162  0.6795754558562598  0.3321945376690723
  0.2828825161847308  0.7551836268711702  0.1496269443694570
  0.5354249211810733  0.4924412448613409  0.4534985677339899
  0.1029514464230361  0.3154995915072438  0.9085878908060269
  0.2374100946464776  0.5895842662119940  0.3972674636158350
  0.4250245166622653  0.6115843350678586  0.5468984521662051
  0.5746771108127168  0.8988891539570111  0.4026696926243994
  0.9159003427224111  0.6925789470721978  0.2584842944314921
  0.3900365775089534  0.7969672343738448  0.2469195687253715
  0.3637949727846381  0.8605927469086685  0.7719569079823642
  0.5708006988102815  0.5821568437471460  0.1859362373958132
  0.7758306404868612  0.9801567400789322  0.2800608778605740
  0.9813969471368598  0.8670641661139205  0.2332674956151295
  0.3927915451837781  0.1064186185190283  0.3439639470056837
  0.3563894571573317  0.9659430986085263  0.4387497482247285
  0.5547861710620938  0.0538965958519269  0.0670953466832265
  0.8067886232831384  0.3755425826545113  0.7727303351281164
  0.9976383625142657  0.3247006027141968  0.7790254832240386