Ge Se                                   
   1.00000000000000     
    19.7402305603027344    0.0000000000000000    0.0000000000000000
     0.0000000000000000   19.7402305603027344    0.0000000000000000
     0.0000000000000000    0.0000000000000000   19.7402305603027344
   Ge   Se
   150   150
Direct
  0.8919120189139487  0.2707368580730431  0.5836759462974540
  0.2797189987023046  0.8532339331900458  0.0693795583124339
  0.6159466817547112  0.2778011508449791  0.3529295377170963
  0.3974206453502461  0.6152864930477775  0.2593917171489427
  0.2744473953895645  0.6627972722827802  0.5825398514651340
  0.3994866155359577  0.4150092624210959  0.7603692496840937
  0.6579879591319016  0.4728725591448640  0.6905957003527791
  0.1275061894226389  0.9053925439911676  0.9938813931750512
  0.7869345851625190  0.8671338516016535  0.9394060762850877
  0.4130798025103191  0.6170017023625235  0.8940692878007734
  0.3560862062258054  0.3460114392797588  0.2398596133424341
  0.0693042516731422  0.3166984915802893  0.5500135651831788
  0.9444970310004136  0.4263445007649346  0.6519159585754025
  0.6907312790156054  0.7068913757483911  0.0449830859500441
  0.0720871328177845  0.9885628668183651  0.7117492030614198
  0.4124740633226782  0.6224618783860753  0.0980998978174344
  0.1050269418206018  0.7900103153398593  0.9148345280757246
  0.7019831670130311  0.2967571219471718  0.6724248634698921
  0.3168560986801078  0.5583634944621271  0.6424376705137146
  0.1120197727773292  0.5062531539358782  0.3095519301714514
  0.3317704497847589  0.2443402288756198  0.1640848365446095
  0.2856306388947933  0.5269133462074668  0.8195988857547067
  0.7267462634045039  0.1826108782261552  0.8973144397697405
  0.9410841298729631  0.7744485376889308  0.8614890560000372
  0.8703681022810418  0.3092932476503328  0.8164296655352170
  0.3548087957603039  0.1558784795846997  0.7131364028310841
  0.2004285965399777  0.1839128730001066  0.2907496248939817
  0.4746415720118270  0.5769847284530795  0.5680871562258485
  0.3492856554173531  0.2289274227442623  0.8799577426935481
  0.4153189879570044  0.6625623505091580  0.4238893659798161
  0.5785870943364525  0.0532976754628390  0.6441879778582421
  0.8313394042351920  0.4128617476891520  0.2731030836134802
  0.8607945601433415  0.0731144024312101  0.5818258339188638
  0.6983461230245649  0.9394830883686559  0.7913517354553218
  0.0869759864187994  0.1596428204750998  0.4378284442726454
  0.7594042669027957  0.6474980027323606  0.5480777076874633
  0.9194554912558257  0.7578480269274851  0.2712020843322547
  0.8356853970617990  0.1509573092925323  0.3247517039491442
  0.5213216326890910  0.9745528662304473  0.5513519854566612
  0.4869766613538173  0.6997259323648612  0.9572484178601880
  0.0169973622101354  0.1651065068830337  0.2481479830550289
  0.3237116548915397  0.2515729082234649  0.6324541627666548
  0.1103029258235091  0.3349709530455524  0.7308510315618311
  0.0331641020537723  0.5400124879403685  0.6305694096951526
  0.5741084643859129  0.1306530198704643  0.1567311027372342
  0.7216031973301669  0.1668041152531011  0.2611069256912620
  0.1595740632837657  0.8638523963798151  0.2670347718847202
  0.3436696129233517  0.5202035568104428  0.1868697815556435
  0.5046752051702548  0.6900954475082020  0.6688024908097580
  0.7018827299744419  0.4915000752315831  0.1395447219561677
  0.9621650518511642  0.0689234228375891  0.9827862232810929
  0.6410478469303317  0.7936047800010301  0.6136111770771654
  0.5045652973678597  0.4034825871159327  0.4233509431389526
  0.6739032946569997  0.3791147929144675  0.7897931015269368
  0.9492371828556412  0.1450314479254308  0.7460798471803671
  0.1961940040170869  0.7474873419180418  0.6462241402854032
  0.3365104400860345  0.8669006540391361  0.3510089401947554
  0.6839145203028483 -0.0016548506269693  0.2405791313509997
  0.9601267357185522  0.8718156544290352  0.3835532938703360
  0.5896596811921226  0.7724798533046900  0.8039847638567493
  0.5961979937008621  0.2135219323940142  0.4951368981801541
  0.2135967032730588  0.3201598275833138  0.6198213076079373
  0.6128734911803593  0.4608607960500478  0.9739742906505822
  0.7740920977176549  0.5802159533550806  0.2040410044357845
  0.2956282517172816  0.9825390875868381  0.7398742517644797
  0.1218366685834732  0.7437004931089335  0.0907267249344930
  0.5545232618904347  0.2351586379508139  0.9023671699499400
  0.8017226974386998  0.1747943917498011  0.5150158057776546
  0.4562105242323479  0.7378993405790151  0.2438012953915552
  0.9775899703408113  0.0450417357969381  0.5337824260630240
  0.1115945148636859  0.6566551889558612  0.4600224594208578
  0.5285788206413810  0.4888835502865408  0.7863307094830513
  0.5187142151877924  0.9569639123113585  0.1452995540276857
  0.3682932853049544  0.2929268753400680  0.0518135468241771
  0.3643624734864191  0.0347486086318288  0.4214470153423016
  0.5981202949143686  0.0451974112381961  0.8956236021655744
  0.0912867560038817  0.6149681740327781  0.7978673647933351
  0.8426678958808947  0.6601466003383571  0.1320531287992713
  0.9274842428734685  0.2037124028186781  0.1006481712123856
  0.1359433965380417  0.0648193626178695  0.8775697827088309
  0.1326614752867508  0.6774424561131439  0.3048281663508347
  0.6283013829867785  0.4076948555386241  0.5212663657001277
  0.3134479776504513  0.8984455701802972  0.5473929563128780
  0.7531234194989509  0.6533517721873878  0.3081340266184405
  0.0038259267280805  0.3746811109707001  0.1938041005072331
  0.7358049397123831  0.8309479133313792  0.5210012948305480
  0.7991355473530882  0.9851697553850048  0.4369194893250086
  0.7908099214284257  0.5649030489095274  0.8533015308899287
  0.0545882603519693  0.7105713848092645  0.6305855276302158
  0.4093902668088402  0.9285597634310412  0.6973568599593605
  0.9371260241417256  0.4826687518628415  0.4093912388711957
  0.7734923189742622  0.7686945026810444  0.7667691688045103
  0.1126850138973373  0.8006433910534562  0.4272971534160705
  0.7636815547072258  0.5359058835223323  0.3975983124535342
  0.7981315881919776  0.9938950660128850  0.1066478729304777
  0.8817735452273939  0.5149742510013664  0.2181043959064744
  0.9418564118112189  0.1936326004776503  0.9379052256916230
  0.7798105204279099  0.9924888876030715  0.9706600292201865
  0.2839729759119630  0.4021080386970070  0.8980896498446532
  0.3286610943094450  0.4815630321895009  0.0647416699614680
  0.2573915048420550  0.8221954538432982  0.8091391764690993
  0.5606416792837786  0.0408191921316356  0.0540764734590669
  0.3533141959303849  0.7965293999891611  0.8963304099218534
  0.7583246258467944  0.5996554516333771  0.9772179556148856
  0.4009380053640471  0.7468126773526761  0.7354642811038259
  0.0194805480671242  0.6696093330915056  0.0508682598363152
  0.6121979868168181  0.3629195758656867  0.2618643939224324
  0.9815221166780626  0.7806016203901427  0.9951302885379868
  0.1039617828483549  0.1108512578814503  0.6534538972659465
  0.2086802651517844  0.4347131070082903  0.0340801077807045
  0.1192449302348705  0.4624893299556401  0.8849160152202170
  0.5629959699180790  0.7735087729622084  0.1024459926947056
  0.7474106503542532  0.1315043281096240  0.7220109805945054
  0.2805104686959098  0.3834298024307041  0.7133215081976400
  0.6074969839041411  0.6525980292874831  0.4556279899870312
  0.8650564783699609  0.6669537784531137  0.3793903030291303
  0.7690351324399438  0.2968749624878055  0.0127527761771052
  0.8662068401648174  0.2157960022998788  0.2129315645976866
  0.5374489210867062  0.9147816178900134  0.3931503783078595
  0.0512128432452557  0.8293296692353664  0.7260554091028387
  0.7256731058562012  0.3848060052022781  0.2107781069799972
  0.7047174097570227  0.6951720555817814  0.8483999273756569
  0.0852515705822066  0.9715602747121425  0.5102174396701316
  0.9073917771569467  0.9917219456903258  0.3672507841518231
  0.4628485953339724  0.3760063641850109  0.5609526146110679
  0.2243662804961064  0.0999931743703412  0.5934888897530742
  0.8587129610090307  0.7156916201842533  0.6876670340346831
  0.5325362711742618  0.2473163968549612  0.7232359840724455
  0.2604416892196824  0.4310707799288326  0.2255373773668641
  0.0623684670644612  0.2230189317496170  0.0768477198137033
  0.1198196034675457  0.8830102927584486  0.6007635890932530
  0.9261488663111245  0.8835249367023089  0.5645982521893949
  0.4531284017509987  0.9180592224892277  0.0118408159154820
  0.8680823841686742  0.8284618861314386  0.0279844061516449
  0.1865947671800027  0.4614821193939803  0.4863518647880518
  0.0293964441345070  0.5227885327839646  0.9519378022345737
  0.3972459229516290  0.0039159422289079  0.5514608491680623
  0.9294872528903230  0.4838853362644370  0.0946379761084679
  0.1223990476610564  0.3298119045554087  0.9246055350536941
  0.3331402840953979  0.6499464697038627  0.7983917231719030
  0.9165011273036741  0.5239970681254990  0.8049789707576006
  0.7175091732959290  0.5956488338829993  0.7254656553639650
  0.3575409142748270  0.8524231412750573  0.1770232109250048
  0.4653792250665489  0.4183554130493172  0.1953510437151336
  0.6626610365709373  0.0113054694455534  0.5041688654765613
  0.6431434001040345  0.2726327880356968  0.0664331906911225
  0.5220884942587025  0.5294880200528467  0.0389550556684251
  0.9337226279618117  0.3419584776817017  0.9608765725101137
  0.6185265309389751  0.7497407024640418  0.2929635141650244
  0.0451480186573121  0.2017300187330191  0.8346293028123978
  0.4074254133240563  0.5795602666676194  0.7212910046360093
  0.5455798305913090  0.4699835279665608  0.6095995472716814
  0.0312523712221445  0.8102143128211515  0.5401660482075318
  0.0222353054916765  0.6420460268922360  0.9186753477122195
  0.2261242509339389  0.4981191184722843  0.7077412557518757
  0.1333717243830836  0.2027840537849242  0.7363536493828871
  0.5833318593131478  0.6310816924088292  0.9879737701991793
  0.5522329892457095  0.4539107632719819  0.3135524576368595
  0.0196954075089338  0.0495513772223547  0.8110228100269380
  0.5513647709266227  0.3509546619016791  0.8024798635858273
  0.1660402944522150  0.4127921496605957  0.1502823131547633
  0.7294055427064942  0.4110347891363429  0.6078702604336212
  0.9508832449826857  0.8762541451411987  0.2575357157605245
  0.2038868296203834  0.9337165791416973  0.8085426442932667
  0.7042875955531815  0.1011364200508349  0.1571600177412189
  0.6891316163785751  0.7908606534908116  0.9448459819257126
  0.7047468179622711  0.1783896032129629  0.6003935069256404
  0.5737359160936881  0.3037804495125454  0.5824734110196468
  0.4272815431066754  0.4040920294126785  0.0579559477172476
  0.9176491974985841  0.4724055656364461  0.9279944044668296
  0.6969920457852299  0.2809524831784954  0.4432073877574222
  0.2752329848862684  0.9230929251330694  0.2490458256958899
  0.2199440213884963  0.5963036437831293  0.4949297914159888
  0.4246746363656677  0.2090042176147626  0.9841469329071643
  0.9446088457332783  0.0970883325631930  0.4243403663969070
  0.5349965254345237  0.6574641384596155  0.7908327681949217
  0.8006449671956035  0.9670264921170050  0.5608400601836878
  0.5402820796198252  0.8194356665748861  0.6862663014192782
  0.5758231566116776  0.3417295402540410  0.9815163177737330
  0.8672616550130254  0.1620993820044820  0.8430169039370526
  0.2702130920505890  0.3749581758940878  0.5252691474645654
  0.0205393087456832  0.7325285413560563  0.3511307306517332
  0.4251728390638784  0.3185037041067406  0.6760365188188354
  0.8603863486100312  0.0581266653754526  0.7037597488477060
  0.5265033829407799  0.8042107009985602  0.9157461401589331
  0.7482088093980960  0.2653159932312600  0.1778670719804671
  0.2570951934465254  0.3172950016444356 -0.0013139992625459
  0.0073468190600375  0.6344106469620950  0.5406444600052097
  0.3825891407677889  0.4219255486758176  0.3890228761792188
  0.9592996872308093  0.9157853977323016  0.6860959052755661
  0.2720640783421902  0.9461173595878521  0.4327162801382105
  0.0829975936562774  0.0276474108540771  0.9901564174267851
  0.8746996320077944  0.3917427714700005  0.5500368620941208
  0.3309217517579141  0.9031124957796248  0.9627991836500649
  0.9341852527898010  0.5735583613974181  0.3133800773851760
  0.0285610868926042  0.8706593314503562  0.8468023545208341
  0.2032713827316415  0.8162181186736263  0.5284494503848995
  0.6288743784363724  0.1660533539119017  0.9896069676462461
  0.8744532326337726  0.5955313627362847  0.0331644398531950
  0.5630561093446251  0.6824818898181494  0.1915969430030110
  0.8221717915237158  0.2618291941916125  0.7027456855925427
  0.5103645590974669  0.8607816260294103  0.5062493680704409
  0.4936177653817939  0.5665701845102747  0.4392698062468762
  0.3165760989458469  0.1257085295179410  0.3360309147409216
  0.3060531872874793  0.6421852919868465  0.1697638101139780
  0.1054501810383741  0.1034763722184446  0.3215968316251542
  0.7327299227527985  0.0506315688986361  0.8673977787155679
  0.7420160494625467  0.7676229085412728  0.2651078692991595
  0.4875533089371143  0.7486296230271139  0.3702806651300300
  0.9960489997982874  0.3059092871995769  0.6578625203085003
  0.2163072157696432  0.7882078696380653  0.3536832281120528
  0.7272132581321004  0.8511193000764903  0.6878830530266220
  0.2808215781609529  0.1734528735643122  0.4767524629796684
  0.0240509214232812  0.1569277708979794  0.5706684870301777
  0.7031571136312725  0.9177624685951783  0.1472209576023214
  0.6332865533578261  0.9663925114988791  0.9898042541560492
  0.4252263894145764  0.8532000454871133  0.8033156835481423
  0.5721493697568675  0.9393348658273601  0.8198995674865487
  0.1967702916961034  0.1035877760507342  0.1801945376356980
  0.5378302871340658  0.3123529810996008  0.1795194843812495
  0.6984722193181001  0.9140993959052870  0.4175995654460248
  0.7271618071022361  0.7289013244526573  0.4499051407969947
  0.1314973703716336  0.1852150798474392  0.9244922889733779
  0.1804449363319562  0.2449503482336025  0.4319534602345731
  0.5505019930288085  0.0371002110211399  0.4448730019632888
  0.5349657407937060  0.8490852006494651  0.2029581042794095
  0.3007967578712307  0.8160627179804852  0.6883483915675842
  0.7303694851014951  0.4717767673751465  0.0209813263192097
  0.4341230405635396  0.7471247411844770  0.0612748912424342
  0.9728390930857848  0.7154557831200582  0.7409532679037377
  0.1346625840618445  0.6155270798075645  0.6688803405888222
  0.2219262026939541  0.7535003336071598  0.0177870892729150
  0.7375939727450355  0.0944089150496625  0.4316212084033400
  0.8997761274463627  0.9842205083235745  0.9234645980993168
  0.0707465052695510  0.5438849930995014  0.4189235186060760
  0.2000945857635575  0.9437858062714285  0.0865299431544988
  0.8513734914068313  0.0390330258423523  0.2677460348141388
  0.2398072700496415  0.1858234558176582  0.1016577761888040
  0.6423628884503066  0.1970950930706877  0.8015579029744929
  0.9684677745264655  0.3252001785109024  0.4710872031392829
  0.1123954009187472  0.5842381670122699  0.2187956840319894
  0.6890531810322049  0.0144750948338495  0.6885931502033453
  0.1841316656916457  0.5713588059791939  0.8824984351589548
  0.0779679668746853  0.9278895460581285  0.3924055743910023
  0.3788355682435589  0.2248603442970935  0.5243848124848997
  0.3962986216701296  0.3498943077381337  0.8725936107598855
  0.8580931695805097  0.7684701573491257  0.5753482234042059
  0.0496848371087327  0.4900565160901593  0.7793359213981508
  0.7633462420988559  0.3336613859046499  0.8894627955876344
  0.4430815145855698  0.1790697527293381  0.8004756219963157
  0.3942782076449606  0.9631506212672390  0.1238136093212042
  0.6466732094709531  0.4899995424905093  0.8569712163987773
  0.0804354961048676  0.2687279887239150  0.2002536688162872
  0.0494561247189963  0.8490014916424341  0.0806327294100125
  0.4242191171186734  0.1653193187275757  0.1909720938060485
  0.1693873129563089  0.0607608850961805  0.4845672560757148
  0.8643003470932493  0.3542024736705231  0.0701263969162387
  0.3520741342125242  0.0773198706620808  0.2287272672916738
  0.4277338681080198  0.9623110185641642  0.3399929430761076
  0.8584241669352588  0.5770021882285473  0.4746958344680031
  0.2280872423785143  0.3253087176994237  0.8110462343330488
  0.2191008724701673  0.4566560654806629  0.3385996483624945
  0.3827401338168602  0.7088995568020172  0.5348511307296104
  0.8324281567509727  0.1838974563654031  0.0168266528005578
  0.1635418965250734  0.7424215654308898  0.8048494076367149
  0.6508467297853072  0.6678855521403073  0.6337335654890341
  0.8365909324315096  0.5947263014801975  0.6761141798453622
  0.3422430888228743  0.3130160812452211  0.3571780063438738
  0.2362610472229724  0.9730376410166197  0.6259606766557990
  0.4273910457071856  0.0873225152615470  0.6398592585571694
  0.5826894431067982  0.5107813945185984  0.1513060031464820
  0.4597568653345515  0.5042887899737305  0.8947247959415239
  0.5043283134698581  0.0107093624177043  0.7434431879719468
  0.8976742220638090  0.9161488871098943  0.1044933803985224
  0.0435318516788473  0.3561799723459775  0.0252540832692843
  0.7918579851561235  0.7699994018642036  0.1072194396046694
  0.5480647059737626  0.0329470582392452  0.2383372204274775
  0.0467954309157881  0.2679727334544993  0.3839138138969064
  0.8570954225596188  0.4283377827081383  0.7466110799864798
  0.0295656363207945  0.3307651558354126  0.8359400181102470
  0.9578518893617302  0.6815795841077016  0.1714940448412599
  0.6065777930541623  0.1663181319799625  0.3049948944102556
  0.6323154642458814  0.6242453780306708  0.3319730365079493
  0.8429982139358890  0.8567665682776703  0.8247170089822916
  0.8309984391133947  0.6816618899345858  0.8827128782843358
  0.3743274994490965  0.4975680842200481  0.5542452034983277
  0.0997418608323320  0.4417913994089396  0.5803680519624909
  0.1759691004445672  0.7508703807355468  0.2026424617018086
  0.6810656827804547  0.5510248818854624  0.4976429360028111
  0.4657795183625063  0.0398044561320842  0.9740431091992982
  0.0481784424997647  0.5438891242943911  0.0741075062881271
  0.8168309277856498  0.4130731848919491  0.3939301461839800
  0.0306227238242447  0.4163066733610548  0.3115818197007820
  0.5053240597239111  0.2754684280951136  0.4045273417642583
  0.2678823548750917  0.0966961827142534  0.7753940108412387
  0.9121103705179168  0.3174824121145587  0.2703071208697479
  0.9344538386174961  0.0756381054415058  0.1068036992134605
  0.0697336234076730  0.0968846898611755  0.1494843097702011
  0.3218669335027353  0.6251361454754418  0.3579472013678816
  0.3351876373034115  0.5910859113717075 -0.0016364136675667
 
  0.00000000E+00  0.00000000E+00  0.00000000E+00
  0.00000000E+00  0.00000000E+00  0.00000000E+00
  0.00000000E+00  0.00000000E+00  0.00000000E+00
  0.00000000E+00  0.00000000E+00  0.00000000E+00
  0.00000000E+00  0.00000000E+00  0.00000000E+00
  0.00000000E+00  0.00000000E+00  0.00000000E+00
  0.00000000E+00  0.00000000E+00  0.00000000E+00
  0.00000000E+00  0.00000000E+00  0.00000000E+00
  0.00000000E+00  0.00000000E+00  0.00000000E+00
  0.00000000E+00  0.00000000E+00  0.00000000E+00
  0.00000000E+00  0.00000000E+00  0.00000000E+00
  0.00000000E+00  0.00000000E+00  0.00000000E+00
  0.00000000E+00  0.00000000E+00  0.00000000E+00
  0.00000000E+00  0.00000000E+00  0.00000000E+00
  0.00000000E+00  0.00000000E+00  0.00000000E+00
  0.00000000E+00  0.00000000E+00  0.00000000E+00
  0.00000000E+00  0.00000000E+00  0.00000000E+00
  0.00000000E+00  0.00000000E+00  0.00000000E+00
  0.00000000E+00  0.00000000E+00  0.00000000E+00
  0.00000000E+00  0.00000000E+00  0.00000000E+00
  0.00000000E+00  0.00000000E+00  0.00000000E+00
  0.00000000E+00  0.00000000E+00  0.00000000E+00
  0.00000000E+00  0.00000000E+00  0.00000000E+00
  0.00000000E+00  0.00000000E+00  0.00000000E+00
  0.00000000E+00  0.00000000E+00  0.00000000E+00
  0.00000000E+00  0.00000000E+00  0.00000000E+00
  0.00000000E+00  0.00000000E+00  0.00000000E+00
  0.00000000E+00  0.00000000E+00  0.00000000E+00
  0.00000000E+00  0.00000000E+00  0.00000000E+00
  0.00000000E+00  0.00000000E+00  0.00000000E+00
  0.00000000E+00  0.00000000E+00  0.00000000E+00
  0.00000000E+00  0.00000000E+00  0.00000000E+00
  0.00000000E+00  0.00000000E+00  0.00000000E+00
  0.00000000E+00  0.00000000E+00  0.00000000E+00
  0.00000000E+00  0.00000000E+00  0.00000000E+00
  0.00000000E+00  0.00000000E+00  0.00000000E+00
  0.00000000E+00  0.00000000E+00  0.00000000E+00
  0.00000000E+00  0.00000000E+00  0.00000000E+00
  0.00000000E+00  0.00000000E+00  0.00000000E+00
  0.00000000E+00  0.00000000E+00  0.00000000E+00
  0.00000000E+00  0.00000000E+00  0.00000000E+00
  0.00000000E+00  0.00000000E+00  0.00000000E+00
  0.00000000E+00  0.00000000E+00  0.00000000E+00
  0.00000000E+00  0.00000000E+00  0.00000000E+00
  0.00000000E+00  0.00000000E+00  0.00000000E+00
  0.00000000E+00  0.00000000E+00  0.00000000E+00
  0.00000000E+00  0.00000000E+00  0.00000000E+00
  0.00000000E+00  0.00000000E+00  0.00000000E+00
  0.00000000E+00  0.00000000E+00  0.00000000E+00
  0.00000000E+00  0.00000000E+00  0.00000000E+00
  0.00000000E+00  0.00000000E+00  0.00000000E+00
  0.00000000E+00  0.00000000E+00  0.00000000E+00
  0.00000000E+00  0.00000000E+00  0.00000000E+00
  0.00000000E+00  0.00000000E+00  0.00000000E+00
  0.00000000E+00  0.00000000E+00  0.00000000E+00
  0.00000000E+00  0.00000000E+00  0.00000000E+00
  0.00000000E+00  0.00000000E+00  0.00000000E+00
  0.00000000E+00  0.00000000E+00  0.00000000E+00
  0.00000000E+00  0.00000000E+00  0.00000000E+00
  0.00000000E+00  0.00000000E+00  0.00000000E+00
  0.00000000E+00  0.00000000E+00  0.00000000E+00
  0.00000000E+00  0.00000000E+00  0.00000000E+00
  0.00000000E+00  0.00000000E+00  0.00000000E+00
  0.00000000E+00  0.00000000E+00  0.00000000E+00
  0.00000000E+00  0.00000000E+00  0.00000000E+00
  0.00000000E+00  0.00000000E+00  0.00000000E+00
  0.00000000E+00  0.00000000E+00  0.00000000E+00
  0.00000000E+00  0.00000000E+00  0.00000000E+00
  0.00000000E+00  0.00000000E+00  0.00000000E+00
  0.00000000E+00  0.00000000E+00  0.00000000E+00
  0.00000000E+00  0.00000000E+00  0.00000000E+00
  0.00000000E+00  0.00000000E+00  0.00000000E+00
  0.00000000E+00  0.00000000E+00  0.00000000E+00
  0.00000000E+00  0.00000000E+00  0.00000000E+00
  0.00000000E+00  0.00000000E+00  0.00000000E+00
  0.00000000E+00  0.00000000E+00  0.00000000E+00
  0.00000000E+00  0.00000000E+00  0.00000000E+00
  0.00000000E+00  0.00000000E+00  0.00000000E+00
  0.00000000E+00  0.00000000E+00  0.00000000E+00
  0.00000000E+00  0.00000000E+00  0.00000000E+00
  0.00000000E+00  0.00000000E+00  0.00000000E+00
  0.00000000E+00  0.00000000E+00  0.00000000E+00
  0.00000000E+00  0.00000000E+00  0.00000000E+00
  0.00000000E+00  0.00000000E+00  0.00000000E+00
  0.00000000E+00  0.00000000E+00  0.00000000E+00
  0.00000000E+00  0.00000000E+00  0.00000000E+00
  0.00000000E+00  0.00000000E+00  0.00000000E+00
  0.00000000E+00  0.00000000E+00  0.00000000E+00
  0.00000000E+00  0.00000000E+00  0.00000000E+00
  0.00000000E+00  0.00000000E+00  0.00000000E+00
  0.00000000E+00  0.00000000E+00  0.00000000E+00
  0.00000000E+00  0.00000000E+00  0.00000000E+00
  0.00000000E+00  0.00000000E+00  0.00000000E+00
  0.00000000E+00  0.00000000E+00  0.00000000E+00
  0.00000000E+00  0.00000000E+00  0.00000000E+00
  0.00000000E+00  0.00000000E+00  0.00000000E+00
  0.00000000E+00  0.00000000E+00  0.00000000E+00
  0.00000000E+00  0.00000000E+00  0.00000000E+00
  0.00000000E+00  0.00000000E+00  0.00000000E+00
  0.00000000E+00  0.00000000E+00  0.00000000E+00
  0.00000000E+00  0.00000000E+00  0.00000000E+00
  0.00000000E+00  0.00000000E+00  0.00000000E+00
  0.00000000E+00  0.00000000E+00  0.00000000E+00
  0.00000000E+00  0.00000000E+00  0.00000000E+00
  0.00000000E+00  0.00000000E+00  0.00000000E+00
  0.00000000E+00  0.00000000E+00  0.00000000E+00
  0.00000000E+00  0.00000000E+00  0.00000000E+00
  0.00000000E+00  0.00000000E+00  0.00000000E+00
  0.00000000E+00  0.00000000E+00  0.00000000E+00
  0.00000000E+00  0.00000000E+00  0.00000000E+00
  0.00000000E+00  0.00000000E+00  0.00000000E+00
  0.00000000E+00  0.00000000E+00  0.00000000E+00
  0.00000000E+00  0.00000000E+00  0.00000000E+00
  0.00000000E+00  0.00000000E+00  0.00000000E+00
  0.00000000E+00  0.00000000E+00  0.00000000E+00
  0.00000000E+00  0.00000000E+00  0.00000000E+00
  0.00000000E+00  0.00000000E+00  0.00000000E+00
  0.00000000E+00  0.00000000E+00  0.00000000E+00
  0.00000000E+00  0.00000000E+00  0.00000000E+00
  0.00000000E+00  0.00000000E+00  0.00000000E+00
  0.00000000E+00  0.00000000E+00  0.00000000E+00
  0.00000000E+00  0.00000000E+00  0.00000000E+00
  0.00000000E+00  0.00000000E+00  0.00000000E+00
  0.00000000E+00  0.00000000E+00  0.00000000E+00
  0.00000000E+00  0.00000000E+00  0.00000000E+00
  0.00000000E+00  0.00000000E+00  0.00000000E+00
  0.00000000E+00  0.00000000E+00  0.00000000E+00
  0.00000000E+00  0.00000000E+00  0.00000000E+00
  0.00000000E+00  0.00000000E+00  0.00000000E+00
  0.00000000E+00  0.00000000E+00  0.00000000E+00
  0.00000000E+00  0.00000000E+00  0.00000000E+00
  0.00000000E+00  0.00000000E+00  0.00000000E+00
  0.00000000E+00  0.00000000E+00  0.00000000E+00
  0.00000000E+00  0.00000000E+00  0.00000000E+00
  0.00000000E+00  0.00000000E+00  0.00000000E+00
  0.00000000E+00  0.00000000E+00  0.00000000E+00
  0.00000000E+00  0.00000000E+00  0.00000000E+00
  0.00000000E+00  0.00000000E+00  0.00000000E+00
  0.00000000E+00  0.00000000E+00  0.00000000E+00
  0.00000000E+00  0.00000000E+00  0.00000000E+00
  0.00000000E+00  0.00000000E+00  0.00000000E+00
  0.00000000E+00  0.00000000E+00  0.00000000E+00
  0.00000000E+00  0.00000000E+00  0.00000000E+00
  0.00000000E+00  0.00000000E+00  0.00000000E+00
  0.00000000E+00  0.00000000E+00  0.00000000E+00
  0.00000000E+00  0.00000000E+00  0.00000000E+00
  0.00000000E+00  0.00000000E+00  0.00000000E+00
  0.00000000E+00  0.00000000E+00  0.00000000E+00
  0.00000000E+00  0.00000000E+00  0.00000000E+00
  0.00000000E+00  0.00000000E+00  0.00000000E+00
  0.00000000E+00  0.00000000E+00  0.00000000E+00
  0.00000000E+00  0.00000000E+00  0.00000000E+00
  0.00000000E+00  0.00000000E+00  0.00000000E+00
  0.00000000E+00  0.00000000E+00  0.00000000E+00
  0.00000000E+00  0.00000000E+00  0.00000000E+00
  0.00000000E+00  0.00000000E+00  0.00000000E+00
  0.00000000E+00  0.00000000E+00  0.00000000E+00
  0.00000000E+00  0.00000000E+00  0.00000000E+00
  0.00000000E+00  0.00000000E+00  0.00000000E+00
  0.00000000E+00  0.00000000E+00  0.00000000E+00
  0.00000000E+00  0.00000000E+00  0.00000000E+00
  0.00000000E+00  0.00000000E+00  0.00000000E+00
  0.00000000E+00  0.00000000E+00  0.00000000E+00
  0.00000000E+00  0.00000000E+00  0.00000000E+00
  0.00000000E+00  0.00000000E+00  0.00000000E+00
  0.00000000E+00  0.00000000E+00  0.00000000E+00
  0.00000000E+00  0.00000000E+00  0.00000000E+00
  0.00000000E+00  0.00000000E+00  0.00000000E+00
  0.00000000E+00  0.00000000E+00  0.00000000E+00
  0.00000000E+00  0.00000000E+00  0.00000000E+00
  0.00000000E+00  0.00000000E+00  0.00000000E+00
  0.00000000E+00  0.00000000E+00  0.00000000E+00
  0.00000000E+00  0.00000000E+00  0.00000000E+00
  0.00000000E+00  0.00000000E+00  0.00000000E+00
  0.00000000E+00  0.00000000E+00  0.00000000E+00
  0.00000000E+00  0.00000000E+00  0.00000000E+00
  0.00000000E+00  0.00000000E+00  0.00000000E+00
  0.00000000E+00  0.00000000E+00  0.00000000E+00
  0.00000000E+00  0.00000000E+00  0.00000000E+00
  0.00000000E+00  0.00000000E+00  0.00000000E+00
  0.00000000E+00  0.00000000E+00  0.00000000E+00
  0.00000000E+00  0.00000000E+00  0.00000000E+00
  0.00000000E+00  0.00000000E+00  0.00000000E+00
  0.00000000E+00  0.00000000E+00  0.00000000E+00
  0.00000000E+00  0.00000000E+00  0.00000000E+00
  0.00000000E+00  0.00000000E+00  0.00000000E+00
  0.00000000E+00  0.00000000E+00  0.00000000E+00
  0.00000000E+00  0.00000000E+00  0.00000000E+00
  0.00000000E+00  0.00000000E+00  0.00000000E+00
  0.00000000E+00  0.00000000E+00  0.00000000E+00
  0.00000000E+00  0.00000000E+00  0.00000000E+00
  0.00000000E+00  0.00000000E+00  0.00000000E+00
  0.00000000E+00  0.00000000E+00  0.00000000E+00
  0.00000000E+00  0.00000000E+00  0.00000000E+00
  0.00000000E+00  0.00000000E+00  0.00000000E+00
  0.00000000E+00  0.00000000E+00  0.00000000E+00
  0.00000000E+00  0.00000000E+00  0.00000000E+00
  0.00000000E+00  0.00000000E+00  0.00000000E+00
  0.00000000E+00  0.00000000E+00  0.00000000E+00
  0.00000000E+00  0.00000000E+00  0.00000000E+00
  0.00000000E+00  0.00000000E+00  0.00000000E+00
  0.00000000E+00  0.00000000E+00  0.00000000E+00
  0.00000000E+00  0.00000000E+00  0.00000000E+00
  0.00000000E+00  0.00000000E+00  0.00000000E+00
  0.00000000E+00  0.00000000E+00  0.00000000E+00
  0.00000000E+00  0.00000000E+00  0.00000000E+00
  0.00000000E+00  0.00000000E+00  0.00000000E+00
  0.00000000E+00  0.00000000E+00  0.00000000E+00
  0.00000000E+00  0.00000000E+00  0.00000000E+00
  0.00000000E+00  0.00000000E+00  0.00000000E+00
  0.00000000E+00  0.00000000E+00  0.00000000E+00
  0.00000000E+00  0.00000000E+00  0.00000000E+00
  0.00000000E+00  0.00000000E+00  0.00000000E+00
  0.00000000E+00  0.00000000E+00  0.00000000E+00
  0.00000000E+00  0.00000000E+00  0.00000000E+00
  0.00000000E+00  0.00000000E+00  0.00000000E+00
  0.00000000E+00  0.00000000E+00  0.00000000E+00
  0.00000000E+00  0.00000000E+00  0.00000000E+00
  0.00000000E+00  0.00000000E+00  0.00000000E+00
  0.00000000E+00  0.00000000E+00  0.00000000E+00
  0.00000000E+00  0.00000000E+00  0.00000000E+00
  0.00000000E+00  0.00000000E+00  0.00000000E+00
  0.00000000E+00  0.00000000E+00  0.00000000E+00
  0.00000000E+00  0.00000000E+00  0.00000000E+00
  0.00000000E+00  0.00000000E+00  0.00000000E+00
  0.00000000E+00  0.00000000E+00  0.00000000E+00
  0.00000000E+00  0.00000000E+00  0.00000000E+00
  0.00000000E+00  0.00000000E+00  0.00000000E+00
  0.00000000E+00  0.00000000E+00  0.00000000E+00
  0.00000000E+00  0.00000000E+00  0.00000000E+00
  0.00000000E+00  0.00000000E+00  0.00000000E+00
  0.00000000E+00  0.00000000E+00  0.00000000E+00