Cr40 Te112 Se8                          
   1.00000000000000     
     0.0000000000000000   38.7781521316723428    0.0000000000000000
    10.9219912419555722    0.0000000000000000    0.0000000000000000
     0.0000000000000000   -5.1614096969005141   -9.7656108429120909
   Cr   Te   Se
    40   112     8
Direct
  0.1005455954526856  0.0010498650974586  0.1417958365975152
  0.0994518921553731  0.4954755542890084  0.3528503147947160
  0.1008255860455097  0.0006764743035994  0.8602839748364991
  0.1008092960510385  0.5010133554928178  0.6419844749072620
  0.1085004649880337  0.7509281443983999  0.0150927922018825
  0.0924052554114387  0.2542847463407052  0.4867802189274222
  0.0927226771948526  0.2517743067993121 -0.0048729314848397
  0.1092322448315863  0.7470289051394884  0.5133138022903821
  0.2998420880495470 -0.0007071848924087  0.1406348546530340
  0.2997557394222533  0.4963699407020416  0.3575406956071399
  0.2999585659085038  0.0035910348004287  0.8603527698716412
  0.3006455808839791  0.4994911219468454  0.6428929633505703
  0.3075444524458221  0.7463950019788674  0.0129372043113605
  0.2923863705961765  0.2536726281869904  0.4910183931008574
  0.2925954378430408  0.2442216754259024  0.9817032897072226
  0.3081102461709001  0.7477368813427959  0.5140738780128975
  0.5009624635294364 -0.0018283812244069  0.1441644657227629
  0.5010251108562623  0.5025443037843502  0.3610319391363223
  0.5003333946820844  0.0013205507652569  0.8586085746000304
  0.5002760471205767  0.5056754843295487  0.6403139986727380
  0.5088520552929582  0.7516444185997089  0.0106714639012646
  0.4937502557205456  0.2526638957696740  0.4867521668715051
  0.4927890747264255  0.2453482376862154  0.9893899195183734
  0.5089523283006121  0.7495174888187307  0.5217785261054932
  0.7001702549185705  0.0000919625031850  0.1393335944095272
  0.7006200331636940  0.4977790933050758  0.3607758193303353
  0.7001075070906823  0.0000948495547347  0.8582229986669567
  0.7003536921044200  0.5018495524019065  0.6421220106368339
  0.7082992433832219  0.7540675004305036  0.0157326706868594
  0.6923799700554363  0.2541869128276056  0.4901912411882419
  0.6917024278429795  0.2456803839648473  0.9835711766273612
  0.7091936158949556  0.7449764863701784  0.5118076709585302
  0.8983448545976991  0.0041187703496454  0.1384172029367151
  0.8992133460362629  0.5026629519991569  0.3601471574250958
  0.8979147897360908  0.0034760608939796  0.8560561661626470
  0.8991024580714345  0.5032541005315592  0.6367626917936334
  0.9048800048762924  0.7527796137374808  0.0055474747111784
  0.8904548656355700  0.2531393661941465  0.4802681682915451
  0.8895846649366141  0.2517149215331667  0.9908641605035688
  0.9064643297569523  0.7404656213389974  0.5113099424205743
  0.1514679803118642  0.1054687234832224  0.0857020714302580
  0.0499791938593006  0.6035445856030163  0.4156102283626499
  0.0497618784868634  0.8964869861095426  0.9166381688009111
  0.1512931571882239  0.3971263031715974  0.5817972943951233
  0.1576965677854173  0.6593059309275455  0.7487465503338447
  0.0444968151241554  0.1600431835402994  0.7564235098540657
  0.0422855574243870  0.3397189910889349  0.2511345710861324
  0.1570924992469515  0.8436398584437649  0.2489892574738571
  0.1576448292050681  0.8414599825388357  0.9432455857205611
  0.0438705695987786  0.3446347713667226  0.5619936787377996
  0.0427691337182647  0.1554444969394992  0.0590580313561541
  0.1566398399411885  0.6526748928570015  0.4362363130983802
  0.1350845725859098  0.3769331863584220  0.8857808946995965
  0.0669526318935522  0.8762376072817476  0.6179685668213661
  0.0640659051095914  0.6247437317501237  0.1145265932292026
  0.1350367179777257  0.1282697982834247  0.3825318022894424
  0.1542461177652073  0.5610255691910153  0.0993308886164345
  0.0436166863406683  0.0686986515752917  0.4099341373802773
  0.0423500864376269  0.4329590932257612  0.9072352938742652
  0.1577887900760981  0.9350294277691729  0.5889060851209320
  0.0664055218635232  0.8773986608568630  0.2732917386445516
  0.0659879173678541  0.6246664634776373  0.7720277464476614
  0.1353981499101770  0.1249042148235170  0.7293347066435872
  0.3516811854993486  0.1017594840958571  0.0866930296346991
  0.2494013052747433  0.6010513819245495  0.4171814410748916
  0.2491120716266207  0.8967423779911802  0.9150495255416432
  0.3515043619628265  0.3963289577609702  0.5849227756222538
  0.3570131698931214  0.6590989162825954  0.7494550141166380
  0.2428559245627151  0.3389583051995535  0.2527221858844515
  0.3561331737548703  0.8387360884876047  0.2466040277390517
  0.3564049761344535  0.8417906058611657  0.9418549242996023
  0.2450608803678578  0.3386460608302924  0.5694394799140472
  0.2430818104123910  0.1575055329010866  0.0567027684567312
  0.3564690401540338  0.6556439892433762  0.4397254923721261
  0.3360236776233865  0.3836246306242559  0.8916559159665092
  0.2659713595498818  0.8779317770626247  0.6184792416453944
  0.2630573060061588  0.6207585442672878  0.1139333901889201
  0.3339277644389087  0.1266790613009151  0.3810047172710331
  0.2433118087260150  0.0690526077029615  0.4109464328434174
  0.2429515479212696  0.4288709991242733  0.9052279351442154
  0.3569483073363518  0.9335276041833251  0.5907135215140262
  0.3344721468707185  0.3804722505357858  0.2234308539207666
  0.2656115193308414  0.8763318089184866  0.2722762318482017
  0.2643289395208056  0.6231036474526932  0.7686210035543349
  0.3354668976004103  0.1256004338571578  0.7305187104661556
  0.5517657936025290  0.1012645183398304  0.0851973035462067
  0.4492326848179696  0.6061501069537534  0.4138160779856874
  0.4498005998072436  0.8967063333575588  0.9172260784506444
  0.5518413300036311  0.4011405087533944  0.5869841023433890
  0.4438132555048160  0.1592897137032696  0.7516873595431596
  0.4442141001037120  0.3430801240972508  0.2536591343464332
  0.5576894605261754  0.8393336136050451  0.2488785239902250
  0.5555976097255931  0.8381311848123975  0.9309092040831443
  0.4440882600794951  0.3441816588190613  0.5590007324869326
  0.4440486149884377  0.1554346280939355  0.0615171970252383
  0.5577867347567866  0.6610326773115563  0.4456770622826256
  0.5344555005391599  0.3758028472457758  0.8810092753369363
  0.4636134981120632  0.8773028242941311  0.6148234563038670
  0.4672076636012651  0.6245572893479572  0.1186794250370383
  0.5356844695671112  0.1176111372798606  0.3911521060076829
  0.5575602204892635  0.5654766151787645  0.0897587087520178
  0.4436065467923880  0.0694919283506107  0.4087668317750258
  0.4435943908040424  0.4299834458237569  0.9118818672850471
  0.5351497321940371  0.3738383734556480  0.2312780325889137
  0.4650878272243195  0.8763928990565001  0.2703256778600892
  0.4649934218335632  0.6230407699328963  0.7728527651452092
  0.5350775960219545  0.1174990830591253  0.7233436215215444
  0.7512941034257566  0.1038181098846306  0.0822169511871193
  0.6495754324101387  0.6035452312658153  0.4157815939684750
  0.6488316135892267  0.8965086078603816  0.9140523215707949
  0.7517407496455041  0.3968735019787296  0.5879635846073179
  0.7575230021789078  0.6575004256204589  0.7497722617449841
  0.6428376802689890  0.1561857721341485  0.7499928002172680
  0.6436757779166072  0.3412710116510633  0.2523375212146122
  0.7570295974071330  0.8431700853053855  0.2488994145456588
  0.7568936968879523  0.8430884391054211  0.9401375452893017
  0.6432988503192340  0.3452509040864361  0.5602734615761901
  0.6431526738903192  0.1556132097822494  0.0593582619073001
  0.7579706104679585  0.6527726742701240  0.4401470631452446
  0.7344371560131231  0.3762166313350019  0.8849076826901364
  0.6665700573109475  0.8750373452748064  0.6160957207243081
  0.6661638296768926  0.6241511608269190  0.1177020440860591
  0.7342839299937404  0.1245160689464817  0.3830482018197929
  0.7576454242036299  0.5688032109599283  0.0948468778237169
  0.6434289049516462  0.0687158787665774  0.4106618614861068
  0.6428848071748023  0.4316757604216553  0.9086329635733038
  0.7575366309213871  0.9309797911077466  0.5897198466442287
  0.7345663503877067  0.3748937738872719  0.2276283662722654
  0.6656523374578622  0.8757525094916535  0.2712815747463059
  0.6655727851003418  0.6241971563463070  0.7725620081489096
  0.7352123595629874  0.1243330921573521  0.7290106709459816
  0.9491006925153802  0.1073620113628929  0.0808269315606649
  0.8469237272187190  0.9020790945430138  0.9136474350622209
  0.9500497813392661  0.3957239285194081  0.5826761276718568
  0.9562030320345146  0.6589631514869979  0.7474577580786931
  0.8419184400669091  0.1644717976054268  0.7511798460787780
  0.8438389259450793  0.3392618982771645  0.2463747890288601
  0.9547246231728800  0.8423629749682868  0.2422960519874101
  0.9549906754780108  0.8455164947064199  0.9388444473314471
  0.8420316433304461  0.3451802670874463  0.5552568594881993
  0.9562794132735514  0.6573550325734767  0.4384963032961001
  0.9343159692640151  0.3780800956430025  0.8817924399345785
  0.8641371260710352  0.8712039061984059  0.6158795810238189
  0.8640085615414377  0.6183330174777183  0.1089769058348906
  0.9339595233211307  0.1229834790580704  0.3849692567601979
  0.9553613193142092  0.5700992499951852  0.0874991215907321
  0.8420766830759849  0.0658728293769055  0.4060069104081081
  0.9554126989630191  0.9290965295833702  0.5902160747419081
  0.9353764315224308  0.3789350076647166  0.2320192972330409
  0.8641481034266505  0.8740888836752527  0.2686841598021244
  0.8635595508962215  0.6206705362515181  0.7718035290203524
  0.9325999945404567  0.1231327135511861  0.7246447512627223
  0.1291042943207964  0.3777131760639445  0.2170561785387612
  0.2501078958620497  0.1590229285014549  0.7657751769346068
  0.3505138582570892  0.5695869636629559  0.0831190235847534
  0.5504650889057424  0.6602380262612971  0.7353597519861175
  0.5513800089679844  0.9290996658818803  0.5876093121709307
  0.8538247031768554  0.5983802957796083  0.4229881933885788
  0.8484112573059890  0.1601706713691498  0.0673695275189552
  0.8477097290671061  0.4305459654467299  0.9198930486481181
 
  0.00000000E+00  0.00000000E+00  0.00000000E+00
  0.00000000E+00  0.00000000E+00  0.00000000E+00
  0.00000000E+00  0.00000000E+00  0.00000000E+00
  0.00000000E+00  0.00000000E+00  0.00000000E+00
  0.00000000E+00  0.00000000E+00  0.00000000E+00
  0.00000000E+00  0.00000000E+00  0.00000000E+00
  0.00000000E+00  0.00000000E+00  0.00000000E+00
  0.00000000E+00  0.00000000E+00  0.00000000E+00
  0.00000000E+00  0.00000000E+00  0.00000000E+00
  0.00000000E+00  0.00000000E+00  0.00000000E+00
  0.00000000E+00  0.00000000E+00  0.00000000E+00
  0.00000000E+00  0.00000000E+00  0.00000000E+00
  0.00000000E+00  0.00000000E+00  0.00000000E+00
  0.00000000E+00  0.00000000E+00  0.00000000E+00
  0.00000000E+00  0.00000000E+00  0.00000000E+00
  0.00000000E+00  0.00000000E+00  0.00000000E+00
  0.00000000E+00  0.00000000E+00  0.00000000E+00
  0.00000000E+00  0.00000000E+00  0.00000000E+00
  0.00000000E+00  0.00000000E+00  0.00000000E+00
  0.00000000E+00  0.00000000E+00  0.00000000E+00
  0.00000000E+00  0.00000000E+00  0.00000000E+00
  0.00000000E+00  0.00000000E+00  0.00000000E+00
  0.00000000E+00  0.00000000E+00  0.00000000E+00
  0.00000000E+00  0.00000000E+00  0.00000000E+00
  0.00000000E+00  0.00000000E+00  0.00000000E+00
  0.00000000E+00  0.00000000E+00  0.00000000E+00
  0.00000000E+00  0.00000000E+00  0.00000000E+00
  0.00000000E+00  0.00000000E+00  0.00000000E+00
  0.00000000E+00  0.00000000E+00  0.00000000E+00
  0.00000000E+00  0.00000000E+00  0.00000000E+00
  0.00000000E+00  0.00000000E+00  0.00000000E+00
  0.00000000E+00  0.00000000E+00  0.00000000E+00
  0.00000000E+00  0.00000000E+00  0.00000000E+00
  0.00000000E+00  0.00000000E+00  0.00000000E+00
  0.00000000E+00  0.00000000E+00  0.00000000E+00
  0.00000000E+00  0.00000000E+00  0.00000000E+00
  0.00000000E+00  0.00000000E+00  0.00000000E+00
  0.00000000E+00  0.00000000E+00  0.00000000E+00
  0.00000000E+00  0.00000000E+00  0.00000000E+00
  0.00000000E+00  0.00000000E+00  0.00000000E+00
  0.00000000E+00  0.00000000E+00  0.00000000E+00
  0.00000000E+00  0.00000000E+00  0.00000000E+00
  0.00000000E+00  0.00000000E+00  0.00000000E+00
  0.00000000E+00  0.00000000E+00  0.00000000E+00
  0.00000000E+00  0.00000000E+00  0.00000000E+00
  0.00000000E+00  0.00000000E+00  0.00000000E+00
  0.00000000E+00  0.00000000E+00  0.00000000E+00
  0.00000000E+00  0.00000000E+00  0.00000000E+00
  0.00000000E+00  0.00000000E+00  0.00000000E+00
  0.00000000E+00  0.00000000E+00  0.00000000E+00
  0.00000000E+00  0.00000000E+00  0.00000000E+00
  0.00000000E+00  0.00000000E+00  0.00000000E+00
  0.00000000E+00  0.00000000E+00  0.00000000E+00
  0.00000000E+00  0.00000000E+00  0.00000000E+00
  0.00000000E+00  0.00000000E+00  0.00000000E+00
  0.00000000E+00  0.00000000E+00  0.00000000E+00
  0.00000000E+00  0.00000000E+00  0.00000000E+00
  0.00000000E+00  0.00000000E+00  0.00000000E+00
  0.00000000E+00  0.00000000E+00  0.00000000E+00
  0.00000000E+00  0.00000000E+00  0.00000000E+00
  0.00000000E+00  0.00000000E+00  0.00000000E+00
  0.00000000E+00  0.00000000E+00  0.00000000E+00
  0.00000000E+00  0.00000000E+00  0.00000000E+00
  0.00000000E+00  0.00000000E+00  0.00000000E+00
  0.00000000E+00  0.00000000E+00  0.00000000E+00
  0.00000000E+00  0.00000000E+00  0.00000000E+00
  0.00000000E+00  0.00000000E+00  0.00000000E+00
  0.00000000E+00  0.00000000E+00  0.00000000E+00
  0.00000000E+00  0.00000000E+00  0.00000000E+00
  0.00000000E+00  0.00000000E+00  0.00000000E+00
  0.00000000E+00  0.00000000E+00  0.00000000E+00
  0.00000000E+00  0.00000000E+00  0.00000000E+00
  0.00000000E+00  0.00000000E+00  0.00000000E+00
  0.00000000E+00  0.00000000E+00  0.00000000E+00
  0.00000000E+00  0.00000000E+00  0.00000000E+00
  0.00000000E+00  0.00000000E+00  0.00000000E+00
  0.00000000E+00  0.00000000E+00  0.00000000E+00
  0.00000000E+00  0.00000000E+00  0.00000000E+00
  0.00000000E+00  0.00000000E+00  0.00000000E+00
  0.00000000E+00  0.00000000E+00  0.00000000E+00
  0.00000000E+00  0.00000000E+00  0.00000000E+00
  0.00000000E+00  0.00000000E+00  0.00000000E+00
  0.00000000E+00  0.00000000E+00  0.00000000E+00
  0.00000000E+00  0.00000000E+00  0.00000000E+00
  0.00000000E+00  0.00000000E+00  0.00000000E+00
  0.00000000E+00  0.00000000E+00  0.00000000E+00
  0.00000000E+00  0.00000000E+00  0.00000000E+00
  0.00000000E+00  0.00000000E+00  0.00000000E+00
  0.00000000E+00  0.00000000E+00  0.00000000E+00
  0.00000000E+00  0.00000000E+00  0.00000000E+00
  0.00000000E+00  0.00000000E+00  0.00000000E+00
  0.00000000E+00  0.00000000E+00  0.00000000E+00
  0.00000000E+00  0.00000000E+00  0.00000000E+00
  0.00000000E+00  0.00000000E+00  0.00000000E+00
  0.00000000E+00  0.00000000E+00  0.00000000E+00
  0.00000000E+00  0.00000000E+00  0.00000000E+00
  0.00000000E+00  0.00000000E+00  0.00000000E+00
  0.00000000E+00  0.00000000E+00  0.00000000E+00
  0.00000000E+00  0.00000000E+00  0.00000000E+00
  0.00000000E+00  0.00000000E+00  0.00000000E+00
  0.00000000E+00  0.00000000E+00  0.00000000E+00
  0.00000000E+00  0.00000000E+00  0.00000000E+00
  0.00000000E+00  0.00000000E+00  0.00000000E+00
  0.00000000E+00  0.00000000E+00  0.00000000E+00
  0.00000000E+00  0.00000000E+00  0.00000000E+00
  0.00000000E+00  0.00000000E+00  0.00000000E+00
  0.00000000E+00  0.00000000E+00  0.00000000E+00
  0.00000000E+00  0.00000000E+00  0.00000000E+00
  0.00000000E+00  0.00000000E+00  0.00000000E+00
  0.00000000E+00  0.00000000E+00  0.00000000E+00
  0.00000000E+00  0.00000000E+00  0.00000000E+00
  0.00000000E+00  0.00000000E+00  0.00000000E+00
  0.00000000E+00  0.00000000E+00  0.00000000E+00
  0.00000000E+00  0.00000000E+00  0.00000000E+00
  0.00000000E+00  0.00000000E+00  0.00000000E+00
  0.00000000E+00  0.00000000E+00  0.00000000E+00
  0.00000000E+00  0.00000000E+00  0.00000000E+00
  0.00000000E+00  0.00000000E+00  0.00000000E+00
  0.00000000E+00  0.00000000E+00  0.00000000E+00
  0.00000000E+00  0.00000000E+00  0.00000000E+00
  0.00000000E+00  0.00000000E+00  0.00000000E+00
  0.00000000E+00  0.00000000E+00  0.00000000E+00
  0.00000000E+00  0.00000000E+00  0.00000000E+00
  0.00000000E+00  0.00000000E+00  0.00000000E+00
  0.00000000E+00  0.00000000E+00  0.00000000E+00
  0.00000000E+00  0.00000000E+00  0.00000000E+00
  0.00000000E+00  0.00000000E+00  0.00000000E+00
  0.00000000E+00  0.00000000E+00  0.00000000E+00
  0.00000000E+00  0.00000000E+00  0.00000000E+00
  0.00000000E+00  0.00000000E+00  0.00000000E+00
  0.00000000E+00  0.00000000E+00  0.00000000E+00
  0.00000000E+00  0.00000000E+00  0.00000000E+00
  0.00000000E+00  0.00000000E+00  0.00000000E+00
  0.00000000E+00  0.00000000E+00  0.00000000E+00
  0.00000000E+00  0.00000000E+00  0.00000000E+00
  0.00000000E+00  0.00000000E+00  0.00000000E+00
  0.00000000E+00  0.00000000E+00  0.00000000E+00
  0.00000000E+00  0.00000000E+00  0.00000000E+00
  0.00000000E+00  0.00000000E+00  0.00000000E+00
  0.00000000E+00  0.00000000E+00  0.00000000E+00
  0.00000000E+00  0.00000000E+00  0.00000000E+00
  0.00000000E+00  0.00000000E+00  0.00000000E+00
  0.00000000E+00  0.00000000E+00  0.00000000E+00
  0.00000000E+00  0.00000000E+00  0.00000000E+00
  0.00000000E+00  0.00000000E+00  0.00000000E+00
  0.00000000E+00  0.00000000E+00  0.00000000E+00
  0.00000000E+00  0.00000000E+00  0.00000000E+00
  0.00000000E+00  0.00000000E+00  0.00000000E+00
  0.00000000E+00  0.00000000E+00  0.00000000E+00
  0.00000000E+00  0.00000000E+00  0.00000000E+00
  0.00000000E+00  0.00000000E+00  0.00000000E+00
  0.00000000E+00  0.00000000E+00  0.00000000E+00
  0.00000000E+00  0.00000000E+00  0.00000000E+00
  0.00000000E+00  0.00000000E+00  0.00000000E+00
  0.00000000E+00  0.00000000E+00  0.00000000E+00
  0.00000000E+00  0.00000000E+00  0.00000000E+00
  0.00000000E+00  0.00000000E+00  0.00000000E+00
  0.00000000E+00  0.00000000E+00  0.00000000E+00
  0.00000000E+00  0.00000000E+00  0.00000000E+00
  0.00000000E+00  0.00000000E+00  0.00000000E+00
