Amorphous Sb                            
   1.00000000000000     
    20.8915646190562967    0.0000000000000000    0.0000000000000000
     0.0000000000000000   20.8915646190562967    0.0000000000000000
     0.0000000000000000    0.0000000000000000   20.8915646190562967
   Ge   Te
   150   150
Direct
  0.1599935928123481  0.1421090776167360  0.9062559378252576
  0.1550448458464556  0.5886491795986332  0.8535317025642176
  0.1790058507635054  0.1521023941908825  0.0326975615833830
  0.3916891295829939  0.2442455170364010  0.4071374722692925
  0.4436730806054131  0.9269962884439911  0.7702185816865663
  0.1917794236609201  0.3114474413731632  0.2890734812261816
  0.4674642195785022  0.4193985150940100  0.0954880159234949
  0.9293470451654617  0.7803527106536959  0.5356811381689039
  0.6958315530492588  0.2999207879502611  0.6916586677481515
  0.9356359393314737  0.8297108568676754  0.8755251357812451
  0.5026749133756205  0.4207801116536596  0.5912071336309079
  0.3629372968847485  0.5672512896251906  0.7357768502303464
  0.7160956383971497  0.5196962692571060  0.7091639352307360
  0.6482248955459803  0.8161356274295753  0.2390854804262023
  0.3033987183029382  0.1906310682875521  0.9037688226545814
  0.7832055015732247  0.8767630961021257  0.7262693065266478
  0.8603597639685948  0.9288331652083345  0.9100737976322429
  0.4909386808805806  0.6402001884026448  0.8791873562830171
  0.6085515249906249  0.1594613940612007  0.1001891621400330
  0.4756439424964838  0.8416502169699988  0.9662395133014380
  0.7637602626504482  0.7541027447318325  0.7169448554653364
  0.5367075867991474  0.7536778903042441  0.8998629959375869
  0.0100150936936696  0.7362328265247928  0.0232702397767912
  0.0348081473645037  0.3213132112366214  0.5735273089324476
  0.1630685818643613  0.9500139383049923  0.2876268481212833
  0.0451361798587823  0.9246079448769922  0.5091722512112018
  0.0033587544628032  0.6131923053116248  0.0353760912662890
  0.6706554908206993  0.9996533956786938  0.4995701716020938
  0.3273858797323550  0.8544581956490335  0.2990486871244800
  0.1597582825668188  0.8011615502361191  0.5319303420118897
  0.7137995339898774  0.3433856108773637  0.9242957131027624
  0.1044579622439622  0.0778863198763763  0.2897647640722825
  0.9284071588021169  0.2131554074292540  0.2480898795751832
  0.2050386197000791  0.6369091494750713  0.6178072238603520
  0.5144804024568426  0.2726760143622270  0.2628817366734753
  0.6183940918564359  0.0108342013021770  0.1101708231881327
  0.8290209082500585  0.3409589069700930  0.6166103971125148
  0.6219408155142039  0.0695911942524132  0.6888044916691054
  0.9853895049526452  0.2670586142818472  0.7683233749282646
  0.4926768073090943  0.1193595129717674  0.3190582975330601
  0.1776199319136216  0.0277501761203263  0.8252126229506092
  0.1828945302146208  0.7574855745103626  0.9616111789554583
  0.2465912703665476  0.3549535516427856  0.0839867687921097
  0.6881596861729978  0.4467423978500307  0.5506799732245710
  0.0256298855303082  0.1501368871248334  0.0392359356398951
  0.6708871037170779  0.8859790034494835  0.8802565660592141
  0.7560388745495983  0.0427121159646607  0.0261219760014266
  0.2981594563873219  0.7239884646139877  0.9251410862056747
  0.1563368995286650  0.0640661646333361  0.6544592322781186
  0.2354760793210963  0.0853000056646381  0.5452837597489548
  0.9368903182921570  0.7555516866231050  0.1822058840014243
  0.0494821626856343  0.8229150120832527  0.9355741126352911
  0.3251337715832394  0.7564221142239630  0.8069462237888386
  0.9186399328382632  0.0498614533834657  0.6767939447764719
  0.4896619337025178  0.9987540492837303  0.0666206471782172
  0.1079420848165307  0.2699242282170898  0.9059647390180219
  0.7417457825898349  0.1774578455176957  0.4852822579563991
  0.7658303925122545  0.9294520670926691  0.0984443960725142
  0.3310934368932096  0.8111799670526055  0.1088604921664664
  0.9136049728252892  0.3373522518753320  0.9671490184165561
  0.5800112402286898  0.5677636579901023  0.8257804467863602
  0.4938614378564379  0.1118532815813903  0.8249598785972000
  0.0982552964877401  0.6623490039935771  0.2461434016322157
  0.2827877943860361  0.0969484119974165  0.8234119677890590
  0.8535641248302102  0.0520947714962369  0.9419263039686602
  0.1232721369394236  0.4032351529875928  0.5890684914289886
  0.0793225967144547  0.0330554234437332  0.5581766910954563
  0.0012231504693521  0.8078856573988410  0.7676856228136480
  0.0490070102292600  0.2716284633496244  0.1324419897900913
  0.1907751462421581  0.4653431871037968  0.4217241926710874
  0.9675792845143764  0.3155604277745467  0.4674429238000325
  0.0695694604696785  0.3887202153547561  0.8759765762191114
  0.5909296715420296  0.6192971938381463  0.5971902678861309
  0.1983329002729569  0.6582261659434504  0.0387916869434676
  0.6936097513987214  0.7874818443756753  0.5978254003846125
  0.8024153640709227  0.7923898265729169  0.4186658553436975
  0.8078902228248143  0.7116481512969604  0.2170785963276886
  0.7951767881204600  0.1919940097572500  0.6762887247968178
  0.5773019129344618  0.3452407129113178  0.4417077403003437
  0.9776604720383005  0.8049206434027754  0.4069602170057339
  0.5620766099490548  0.9010493145076821  0.7176745519743506
  0.7975168808999633  0.3277382601535627  0.4435827632412188
  0.7670699805072493  0.9401945935716727  0.8279567830681200
  0.5453312220221372  0.1137729673117151  0.2029078697709875
  0.3762060676831636  0.0249700771178364  0.2986427968683562
  0.4917983641103914  0.7277815031322514  0.2626704194937570
  0.6384712019683468  0.4047275473804339  0.3208452354201161
  0.2485667076018002  0.9217349122603850  0.9359657782161889
  0.8947737892646329  0.1855287160582240  0.7551767110582549
  0.9167829764976776  0.9738154916237118  0.3476373999648073
  0.7692222734413919  0.8316672556827367  0.1988521741928019
  0.5078355878453999  0.0308430885368295  0.4314882033440792
  0.9376700005536766  0.9602474720197061  0.8150736071168699
  0.8083267662338810  0.2262741836019031  0.8294161316204405
  0.5162343432135303  0.6577140077183944  0.1404710934252645
  0.1340975708319609  0.7347661268529646  0.7374164763640537
  0.2145473942817056  0.2145658054481715  0.5659856625539277
  0.5007578321258779  0.4608930711653266  0.7731182111601353
  0.2299096196820823  0.0426443422864337  0.0706444357766303
  0.3857543472309887  0.2679315387976917  0.5334207446426679
  0.1718827830376400  0.0213517365198421  0.9561173879785353
  0.4064080123752233  0.8677947567033428  0.4832207220386092
  0.3398116535883596  0.3211452757779235  0.0037291085751608
  0.0826636052160919  0.5529941227749874  0.7534006604992973
  0.5167763015053379  0.1629583407801039  0.4875849951323163
  0.7669444691517536  0.4877733194658756  0.1681732729267561
  0.1569876089813526  0.1846896668964564  0.1605241425765271
  0.5860294194375418  0.2793538948643808  0.7617498616259679
  0.1708767395530343  0.9927647971326692  0.1663304414108677
  0.5201681651845103  0.3393720846251031  0.9445377349206716
  0.7726691675084825  0.6408967993806265  0.8068924944818587
  0.5849631162602508  0.9336638697880136  0.9571614785475735
  0.0495918287139559  0.8974944989528436  0.1475454370255089
  0.6525450057578259  0.9338223216714923  0.2883988281955501
  0.2424858811891963  0.4097938688246472  0.5510036374023313
  0.1415998446230775  0.5226188419268831  0.1549373739082027
  0.4430483028999925  0.1566984199007744  0.0048236268510069
  0.8891719964080558  0.8863665334389995  0.0475985886756913
  0.7934987391719556  0.0522108751717112  0.7879440691683279
  0.6220092138964108  0.3572457604577297  0.0216500665992442
  0.9816594002600298  0.5826082667234007  0.3993510759245409
  0.5990362627366385  0.7185622724663389  0.4589651811755847
  0.4280670430978580  0.6519478529463590  0.3861925311715192
  0.8476865052520423  0.5921958970532364  0.1940946715817944
  0.0742020113471936  0.2053318176178342  0.4300948064841936
  0.3341362719809246  0.3009511559408811  0.7822022472363758
  0.3863237409883315  0.3669834461917861  0.3853884857183337
  0.9068306580452266  0.0852810247420086  0.8281254545432347
  0.7558484539655785  0.1487548888788083  0.2137214492596582
  0.2656471269984046  0.9342123731912176  0.7608029156109630
  0.5680689156260796  0.1421628667349808  0.9840712743974570
  0.0040152810547873  0.4497412314421791  0.2485458273584663
  0.3240620703606175  0.9800637505617771  0.0201290781146349
  0.2293300138493682  0.9501835993995160  0.5428492403530233
  0.8421871399966153  0.4286779165531798  0.2739075668502634
  0.5924791831185175  0.2811803582094377  0.1120835846907049
  0.5390534601771729  0.5636834382009452  0.2227108669273771
  0.8178792777315823  0.6967087241850386  0.5202557002514765
  0.8247734151665749  0.7828112078143656  0.8416496952170772
  0.1193502576411734  0.2215369712530673  0.7608165094597668
  0.7971080115332417  0.5221836895043042  0.5180318934129103
  0.3640778944949663  0.5420364882192122  0.5536511632510022
  0.9332063108539116  0.9559838524276811  0.4722474724230291
  0.4302162082799291  0.5884258385572073  0.9917678201209453
  0.3988444999742716  0.9150268729803001  0.0916882501626786
  0.2726306065218324  0.5381672809253455  0.2644444015666891
  0.3082212394801587  0.6503437239030927  0.3486332179761387
  0.2853379859029768  0.7116459234824418  0.4577746180637554
  0.2321836091365445  0.4078531336162081  0.7479163031067990
  0.9477843484926717  0.6686890399040097  0.7736503115025973
  0.0378802117476155  0.8306928496704136  0.5966203980133873
  0.8738445019200723  0.0908738080564856  0.2073762113121886
  0.2059131850369924  0.8359409392068344  0.8274063264534361
  0.6598473228695375  0.5168861514341319  0.2527249675803964
  0.6036322885289550  0.2416009492783928  0.9020613487655819
  0.0954865349902358  0.2153385495694176  0.6229516023377883
  0.2853234169252059  0.5559423254177717  0.4436145197437459
  0.5647011597620810  0.5967723782896112  0.0326099379267148
  0.4300182612859360  0.4849658448450579  0.2040058423422108
  0.7562168430704647  0.4321661288002300  0.3772238187108390
  0.2841054427078167  0.6001309172953724  0.9592329063958253
  0.4467224622296841  0.9331081873941611  0.3685615598632845
  0.9974699821162823  0.0768483625683939  0.3685215093441046
  0.5861724092276722  0.9990202606926087  0.8011297600123207
  0.7620807372361755  0.5080715129784239  0.8285643785166714
  0.7552184733076607  0.2329942318092794  0.3524654134678720
  0.7580356202914763  0.5780724796836664  0.0710811983065244
  0.7963047637970342  0.0587406500680687  0.4841122288944546
  0.8140410315632550  0.0649659292787494  0.3380975509643038
  0.1001224952847459  0.3752333082901180  0.1963132024445016
  0.4213577159700466  0.0375636615736065  0.9532389860806174
  0.2796159668690773  0.8408210640531856  0.4416750301086417
  0.6374072382711359  0.4233361199326633  0.6720899260271594
  0.3854976354196710  0.8682620829423845  0.8738051324042655
  0.5384895138757643  0.9819522347867444  0.2122369872733687
  0.3548775238540907  0.9601874860897225  0.5813375952900445
  0.7099075464048380  0.1454730834665689  0.8121825945289978
  0.8071527395882135  0.2480526215720186  0.9540304436102541
  0.8244378549055896  0.5173532899693590  0.6474959029273817
  0.4141408178272784  0.4536342321998263  0.9840475845678557
  0.8854581965109354  0.7526100432142359  0.0562441926547091
  0.3936984020928060  0.1993563408432545  0.2813126242726296
  0.6856215979887732  0.6077578235550600  0.9030102466105896
  0.9193934614597655  0.3092006305952923  0.1137182389228981
  0.8492704457650857  0.2226158140997858  0.5594318787742100
  0.3324386590341689  0.9482706677045842  0.1981848494462255
  0.9577274682974982  0.5398872584379126  0.7650491427384689
  0.9210069846570639  0.8918618808228476  0.1837466034499973
  0.3584610357567973  0.8658678254004445  0.6892469368587198
  0.2609883717372923  0.4763557383504004  0.1289088271932332
  0.0158312951638748  0.9192749468681464  0.0217134521194884
  0.0771082472743532  0.0945311095175535  0.7596535643592720
  0.5881172603789947  0.4528071178666500  0.0991550210645047
  0.6339316043817189  0.1219791106604835  0.5472168369015208
  0.5178311147443482  0.2826302620111852  0.5504138081755237
  0.0685126827626554  0.7614421371508576  0.1387388254777798
  0.2701797087097337  0.2185107089297958  0.3693615089585282
  0.7213001330900380  0.0046417652214167  0.2010615896190746
  0.4638796534079512  0.2926966973473645  0.1231626260668358
  0.1272732434621569  0.3181397087647872  0.0317996146241168
  0.7462119796899602  0.3723306344839986  0.0894313064282186
  0.3983139642843680  0.5987363050742007  0.1263046883992536
  0.4786245175403002  0.3406307212040236  0.7219312148471878
  0.2106766827156963  0.8306086154896311  0.2401541766235218
  0.7639844903825721  0.6841914660990754  0.3387346693562819
  0.7659553389793660  0.3421819962463997  0.7938314464567532
  0.7038304538418728  0.6267364929191604  0.5184705562746087
  0.2598749001544039  0.2722670741462312  0.1824379367089227
  0.9531841679562756  0.3481996303633388  0.6701621876897867
  0.2870906045515668  0.3090120558003738  0.6230469685189829
  0.4567162174163293  0.6248067553413355  0.5077831714619880
  0.4339486930664930  0.6759219870876029  0.7708732630919357
  0.3516566734449728  0.7014498001759685  0.5702544994461483
  0.3490686154129733  0.0780662839484099  0.4777333725100845
  0.9478752671022163  0.5390093780941122  0.9480094050907687
  0.5406736428417540  0.9396675381459577  0.5258629707760805
  0.1058495356933825  0.8583773438554088  0.4154451365911554
  0.1725317706507812  0.7351515571139392  0.3283360209657366
  0.3075977353588528  0.1903882123346165  0.0337200421920098
  0.1754651375474729  0.9334043131817039  0.6633883950875045
  0.8001396064155025  0.4369662593848129  0.9862384270722329
  0.4674583999774790  0.5368650779792150  0.6564319517899054
  0.6863203760763181  0.3180905081238856  0.5192819063862896
  0.5727660608699048  0.2111149545823469  0.3721368198698226
  0.9061629408155308  0.0946410728305307  0.0503306672218884
  0.7042096487640742  0.6785601844840149  0.1459884066872623
  0.0553843412667579  0.7041427072501942  0.8461468430277185
  0.9876790997305193  0.2273083709386347  0.9350125115901469
  0.6283172300421074  0.7147954204090511  0.9842336182043052
  0.0217267797417621  0.4316178069657626  0.9911707621488963
  0.9425679193586464  0.3506695881759242  0.3137358883831159
  0.4382738857949138  0.1030918733747001  0.1292916167711441
  0.0587982875327435  0.0604657611524600  0.1677189429658819
  0.2336282347623616  0.6478604711597078  0.7655790788364574
  0.2582362279232620  0.3124892016149389  0.8965118093989044
  0.0616510004707637  0.9175433819515424  0.8196252889481213
  0.6824819343546660  0.8233457841942089  0.4685903748722630
  0.8123157593232219  0.2734076814490614  0.2265376846885934
  0.1482330947301821  0.5360442883357103  0.3069911421447117
  0.1047414790337560  0.4242506228615744  0.7165949953675739
  0.9071123825851544  0.9149217955087741  0.6949472915841902
  0.5232055508110270  0.5746164343192700  0.3495599655509588
  0.7359638048274487  0.1604389372551493  0.0818894189886575
  0.4196082459609821  0.2297936765223151  0.8636421730318469
  0.5886029491906318  0.4208211952006892  0.8696665058861445
  0.5325264936614915  0.8224896709165175  0.1853628864398939
  0.8502007910378349  0.8842129340054763  0.5362858235643142
  0.1192941331300071  0.5581162195066578  0.0205396604480524
  0.6471617138841302  0.3046165740108962  0.2273195220135291
  0.1811340352927101  0.2824768259303927  0.4581962039926100
  0.2350070560425009  0.7682498699827665  0.6355436316056902
  0.2143402260635219  0.8533288480395190  0.0415109653131197
  0.0306587015387591  0.4186982522314343  0.4144085908121062
  0.5680748328943263  0.7511452064452538  0.5951158386750088
  0.6432822728155708  0.8876169313022024  0.0659719710750378
  0.9751636592051804  0.5920343454763772  0.1607831126614501
  0.3819132475316203  0.4770733041303732  0.8284068221709824
  0.1636954829817769  0.6767415734966253  0.4878744370498613
  0.8825899374309705  0.5497465960681763  0.3162841394032585
  0.1978088876688842  0.4633501030120089  0.8634122491333168
  0.8888749736336964  0.4087152934853613  0.5222959745385198
  0.2138678822767123  0.6395870383302220  0.1692713738278713
  0.0920291887102811  0.2108414270004455  0.2967054411187419
  0.4026160447582954  0.1457849993782852  0.5824128721043094
  0.3642263487476820  0.7403431489534213  0.2347741847410880
  0.6855588936878001  0.9127370640302580  0.6453806508438682
  0.5124983862744854  0.0076706532889693  0.6386073945246719
  0.2453688747888135  0.0986133710893205  0.1999494633604876
  0.0772862478512965  0.6373341664313644  0.6549409324091005
  0.9423646559877282  0.3716054898865146  0.8360967417750786
  0.0186387177926205  0.8857694986569596  0.3088409458299071
  0.9768268269603563  0.6999513020363183  0.3333497062735469
  0.6513759489159719  0.0478571022964091  0.9468005188234808
  0.8667942857635622  0.7135504247662947  0.6443804423197286
  0.3944580486089580  0.4193583389606663  0.5093377979496040
  0.6341787474733247  0.7116760348307389  0.3152764476615667
  0.7509499862368657  0.8067816358627752  0.9458061000818730
  0.2593518108624659  0.1906649214620213  0.7385313816681507
  0.4884000432406345  0.3951462822333531  0.3124291420602995
  0.6297983871529913  0.0324146996649427  0.3751595765567915
  0.9529743114146101  0.0657134621151740  0.5462053717932597
  0.5333676406596558  0.1699892941904541  0.7115106383115565
  0.8741395483678508  0.6688427729860148  0.8871030825230044
  0.0837216124663179  0.5007397386099758  0.5163568208511301
  0.9123233664489515  0.6042861592257837  0.5099950655784153
  0.8859193174076744  0.1761484361272936  0.3729268083894322
  0.2837562359483806  0.4127086727952879  0.3234220851399841
  0.2653362857792199  0.9938484190720891  0.3610446989468877
  0.5754740943498357  0.4737866888067086  0.4921563297163125
  0.2610969958049503  0.4952516189276518  0.6500135958908858
  0.7844810692094145  0.8871865898535605  0.3188612157366115
  0.0520616773015307  0.0697244467126037  0.9369964647678335
  0.9284210853182914  0.4448894179433383  0.1375946577221844
  0.6162812447923623  0.7965192421468603  0.8049335395759051
  0.7899686096635424  0.0614127548179409  0.6553572585820819
  0.3941755477915204  0.0508024166919300  0.7607789786882190
  0.6452962377483211  0.6281064433865531  0.7189509750917457
  0.1395700239998005  0.0895031486499171  0.4562555759417270
  0.4807225352165340  0.7709457790571055  0.3919228900221917
  0.3952587620672495  0.7434861251905213  0.0119804488328010
 
  0.00000000E+00  0.00000000E+00  0.00000000E+00
  0.00000000E+00  0.00000000E+00  0.00000000E+00
  0.00000000E+00  0.00000000E+00  0.00000000E+00
  0.00000000E+00  0.00000000E+00  0.00000000E+00
  0.00000000E+00  0.00000000E+00  0.00000000E+00
  0.00000000E+00  0.00000000E+00  0.00000000E+00
  0.00000000E+00  0.00000000E+00  0.00000000E+00
  0.00000000E+00  0.00000000E+00  0.00000000E+00
  0.00000000E+00  0.00000000E+00  0.00000000E+00
  0.00000000E+00  0.00000000E+00  0.00000000E+00
  0.00000000E+00  0.00000000E+00  0.00000000E+00
  0.00000000E+00  0.00000000E+00  0.00000000E+00
  0.00000000E+00  0.00000000E+00  0.00000000E+00
  0.00000000E+00  0.00000000E+00  0.00000000E+00
  0.00000000E+00  0.00000000E+00  0.00000000E+00
  0.00000000E+00  0.00000000E+00  0.00000000E+00
  0.00000000E+00  0.00000000E+00  0.00000000E+00
  0.00000000E+00  0.00000000E+00  0.00000000E+00
  0.00000000E+00  0.00000000E+00  0.00000000E+00
  0.00000000E+00  0.00000000E+00  0.00000000E+00
  0.00000000E+00  0.00000000E+00  0.00000000E+00
  0.00000000E+00  0.00000000E+00  0.00000000E+00
  0.00000000E+00  0.00000000E+00  0.00000000E+00
  0.00000000E+00  0.00000000E+00  0.00000000E+00
  0.00000000E+00  0.00000000E+00  0.00000000E+00
  0.00000000E+00  0.00000000E+00  0.00000000E+00
  0.00000000E+00  0.00000000E+00  0.00000000E+00
  0.00000000E+00  0.00000000E+00  0.00000000E+00
  0.00000000E+00  0.00000000E+00  0.00000000E+00
  0.00000000E+00  0.00000000E+00  0.00000000E+00
  0.00000000E+00  0.00000000E+00  0.00000000E+00
  0.00000000E+00  0.00000000E+00  0.00000000E+00
  0.00000000E+00  0.00000000E+00  0.00000000E+00
  0.00000000E+00  0.00000000E+00  0.00000000E+00
  0.00000000E+00  0.00000000E+00  0.00000000E+00
  0.00000000E+00  0.00000000E+00  0.00000000E+00
  0.00000000E+00  0.00000000E+00  0.00000000E+00
  0.00000000E+00  0.00000000E+00  0.00000000E+00
  0.00000000E+00  0.00000000E+00  0.00000000E+00
  0.00000000E+00  0.00000000E+00  0.00000000E+00
  0.00000000E+00  0.00000000E+00  0.00000000E+00
  0.00000000E+00  0.00000000E+00  0.00000000E+00
  0.00000000E+00  0.00000000E+00  0.00000000E+00
  0.00000000E+00  0.00000000E+00  0.00000000E+00
  0.00000000E+00  0.00000000E+00  0.00000000E+00
  0.00000000E+00  0.00000000E+00  0.00000000E+00
  0.00000000E+00  0.00000000E+00  0.00000000E+00
  0.00000000E+00  0.00000000E+00  0.00000000E+00
  0.00000000E+00  0.00000000E+00  0.00000000E+00
  0.00000000E+00  0.00000000E+00  0.00000000E+00
  0.00000000E+00  0.00000000E+00  0.00000000E+00
  0.00000000E+00  0.00000000E+00  0.00000000E+00
  0.00000000E+00  0.00000000E+00  0.00000000E+00
  0.00000000E+00  0.00000000E+00  0.00000000E+00
  0.00000000E+00  0.00000000E+00  0.00000000E+00
  0.00000000E+00  0.00000000E+00  0.00000000E+00
  0.00000000E+00  0.00000000E+00  0.00000000E+00
  0.00000000E+00  0.00000000E+00  0.00000000E+00
  0.00000000E+00  0.00000000E+00  0.00000000E+00
  0.00000000E+00  0.00000000E+00  0.00000000E+00
  0.00000000E+00  0.00000000E+00  0.00000000E+00
  0.00000000E+00  0.00000000E+00  0.00000000E+00
  0.00000000E+00  0.00000000E+00  0.00000000E+00
  0.00000000E+00  0.00000000E+00  0.00000000E+00
  0.00000000E+00  0.00000000E+00  0.00000000E+00
  0.00000000E+00  0.00000000E+00  0.00000000E+00
  0.00000000E+00  0.00000000E+00  0.00000000E+00
  0.00000000E+00  0.00000000E+00  0.00000000E+00
  0.00000000E+00  0.00000000E+00  0.00000000E+00
  0.00000000E+00  0.00000000E+00  0.00000000E+00
  0.00000000E+00  0.00000000E+00  0.00000000E+00
  0.00000000E+00  0.00000000E+00  0.00000000E+00
  0.00000000E+00  0.00000000E+00  0.00000000E+00
  0.00000000E+00  0.00000000E+00  0.00000000E+00
  0.00000000E+00  0.00000000E+00  0.00000000E+00
  0.00000000E+00  0.00000000E+00  0.00000000E+00
  0.00000000E+00  0.00000000E+00  0.00000000E+00
  0.00000000E+00  0.00000000E+00  0.00000000E+00
  0.00000000E+00  0.00000000E+00  0.00000000E+00
  0.00000000E+00  0.00000000E+00  0.00000000E+00
  0.00000000E+00  0.00000000E+00  0.00000000E+00
  0.00000000E+00  0.00000000E+00  0.00000000E+00
  0.00000000E+00  0.00000000E+00  0.00000000E+00
  0.00000000E+00  0.00000000E+00  0.00000000E+00
  0.00000000E+00  0.00000000E+00  0.00000000E+00
  0.00000000E+00  0.00000000E+00  0.00000000E+00
  0.00000000E+00  0.00000000E+00  0.00000000E+00
  0.00000000E+00  0.00000000E+00  0.00000000E+00
  0.00000000E+00  0.00000000E+00  0.00000000E+00
  0.00000000E+00  0.00000000E+00  0.00000000E+00
  0.00000000E+00  0.00000000E+00  0.00000000E+00
  0.00000000E+00  0.00000000E+00  0.00000000E+00
  0.00000000E+00  0.00000000E+00  0.00000000E+00
  0.00000000E+00  0.00000000E+00  0.00000000E+00
  0.00000000E+00  0.00000000E+00  0.00000000E+00
  0.00000000E+00  0.00000000E+00  0.00000000E+00
  0.00000000E+00  0.00000000E+00  0.00000000E+00
  0.00000000E+00  0.00000000E+00  0.00000000E+00
  0.00000000E+00  0.00000000E+00  0.00000000E+00
  0.00000000E+00  0.00000000E+00  0.00000000E+00
  0.00000000E+00  0.00000000E+00  0.00000000E+00
  0.00000000E+00  0.00000000E+00  0.00000000E+00
  0.00000000E+00  0.00000000E+00  0.00000000E+00
  0.00000000E+00  0.00000000E+00  0.00000000E+00
  0.00000000E+00  0.00000000E+00  0.00000000E+00
  0.00000000E+00  0.00000000E+00  0.00000000E+00
  0.00000000E+00  0.00000000E+00  0.00000000E+00
  0.00000000E+00  0.00000000E+00  0.00000000E+00
  0.00000000E+00  0.00000000E+00  0.00000000E+00
  0.00000000E+00  0.00000000E+00  0.00000000E+00
  0.00000000E+00  0.00000000E+00  0.00000000E+00
  0.00000000E+00  0.00000000E+00  0.00000000E+00
  0.00000000E+00  0.00000000E+00  0.00000000E+00
  0.00000000E+00  0.00000000E+00  0.00000000E+00
  0.00000000E+00  0.00000000E+00  0.00000000E+00
  0.00000000E+00  0.00000000E+00  0.00000000E+00
  0.00000000E+00  0.00000000E+00  0.00000000E+00
  0.00000000E+00  0.00000000E+00  0.00000000E+00
  0.00000000E+00  0.00000000E+00  0.00000000E+00
  0.00000000E+00  0.00000000E+00  0.00000000E+00
  0.00000000E+00  0.00000000E+00  0.00000000E+00
  0.00000000E+00  0.00000000E+00  0.00000000E+00
  0.00000000E+00  0.00000000E+00  0.00000000E+00
  0.00000000E+00  0.00000000E+00  0.00000000E+00
  0.00000000E+00  0.00000000E+00  0.00000000E+00
  0.00000000E+00  0.00000000E+00  0.00000000E+00
  0.00000000E+00  0.00000000E+00  0.00000000E+00
  0.00000000E+00  0.00000000E+00  0.00000000E+00
  0.00000000E+00  0.00000000E+00  0.00000000E+00
  0.00000000E+00  0.00000000E+00  0.00000000E+00
  0.00000000E+00  0.00000000E+00  0.00000000E+00
  0.00000000E+00  0.00000000E+00  0.00000000E+00
  0.00000000E+00  0.00000000E+00  0.00000000E+00
  0.00000000E+00  0.00000000E+00  0.00000000E+00
  0.00000000E+00  0.00000000E+00  0.00000000E+00
  0.00000000E+00  0.00000000E+00  0.00000000E+00
  0.00000000E+00  0.00000000E+00  0.00000000E+00
  0.00000000E+00  0.00000000E+00  0.00000000E+00
  0.00000000E+00  0.00000000E+00  0.00000000E+00
  0.00000000E+00  0.00000000E+00  0.00000000E+00
  0.00000000E+00  0.00000000E+00  0.00000000E+00
  0.00000000E+00  0.00000000E+00  0.00000000E+00
  0.00000000E+00  0.00000000E+00  0.00000000E+00
  0.00000000E+00  0.00000000E+00  0.00000000E+00
  0.00000000E+00  0.00000000E+00  0.00000000E+00
  0.00000000E+00  0.00000000E+00  0.00000000E+00
  0.00000000E+00  0.00000000E+00  0.00000000E+00
  0.00000000E+00  0.00000000E+00  0.00000000E+00
  0.00000000E+00  0.00000000E+00  0.00000000E+00
  0.00000000E+00  0.00000000E+00  0.00000000E+00
  0.00000000E+00  0.00000000E+00  0.00000000E+00
  0.00000000E+00  0.00000000E+00  0.00000000E+00
  0.00000000E+00  0.00000000E+00  0.00000000E+00
  0.00000000E+00  0.00000000E+00  0.00000000E+00
  0.00000000E+00  0.00000000E+00  0.00000000E+00
  0.00000000E+00  0.00000000E+00  0.00000000E+00
  0.00000000E+00  0.00000000E+00  0.00000000E+00
  0.00000000E+00  0.00000000E+00  0.00000000E+00
  0.00000000E+00  0.00000000E+00  0.00000000E+00
  0.00000000E+00  0.00000000E+00  0.00000000E+00
  0.00000000E+00  0.00000000E+00  0.00000000E+00
  0.00000000E+00  0.00000000E+00  0.00000000E+00
  0.00000000E+00  0.00000000E+00  0.00000000E+00
  0.00000000E+00  0.00000000E+00  0.00000000E+00
  0.00000000E+00  0.00000000E+00  0.00000000E+00
  0.00000000E+00  0.00000000E+00  0.00000000E+00
  0.00000000E+00  0.00000000E+00  0.00000000E+00
  0.00000000E+00  0.00000000E+00  0.00000000E+00
  0.00000000E+00  0.00000000E+00  0.00000000E+00
  0.00000000E+00  0.00000000E+00  0.00000000E+00
  0.00000000E+00  0.00000000E+00  0.00000000E+00
  0.00000000E+00  0.00000000E+00  0.00000000E+00
  0.00000000E+00  0.00000000E+00  0.00000000E+00
  0.00000000E+00  0.00000000E+00  0.00000000E+00
  0.00000000E+00  0.00000000E+00  0.00000000E+00
  0.00000000E+00  0.00000000E+00  0.00000000E+00
  0.00000000E+00  0.00000000E+00  0.00000000E+00
  0.00000000E+00  0.00000000E+00  0.00000000E+00
  0.00000000E+00  0.00000000E+00  0.00000000E+00
  0.00000000E+00  0.00000000E+00  0.00000000E+00
  0.00000000E+00  0.00000000E+00  0.00000000E+00
  0.00000000E+00  0.00000000E+00  0.00000000E+00
  0.00000000E+00  0.00000000E+00  0.00000000E+00
  0.00000000E+00  0.00000000E+00  0.00000000E+00
  0.00000000E+00  0.00000000E+00  0.00000000E+00
  0.00000000E+00  0.00000000E+00  0.00000000E+00
  0.00000000E+00  0.00000000E+00  0.00000000E+00
  0.00000000E+00  0.00000000E+00  0.00000000E+00
  0.00000000E+00  0.00000000E+00  0.00000000E+00
  0.00000000E+00  0.00000000E+00  0.00000000E+00
  0.00000000E+00  0.00000000E+00  0.00000000E+00
  0.00000000E+00  0.00000000E+00  0.00000000E+00
  0.00000000E+00  0.00000000E+00  0.00000000E+00
  0.00000000E+00  0.00000000E+00  0.00000000E+00
  0.00000000E+00  0.00000000E+00  0.00000000E+00
  0.00000000E+00  0.00000000E+00  0.00000000E+00
  0.00000000E+00  0.00000000E+00  0.00000000E+00
  0.00000000E+00  0.00000000E+00  0.00000000E+00
  0.00000000E+00  0.00000000E+00  0.00000000E+00
  0.00000000E+00  0.00000000E+00  0.00000000E+00
  0.00000000E+00  0.00000000E+00  0.00000000E+00
  0.00000000E+00  0.00000000E+00  0.00000000E+00
  0.00000000E+00  0.00000000E+00  0.00000000E+00
  0.00000000E+00  0.00000000E+00  0.00000000E+00
  0.00000000E+00  0.00000000E+00  0.00000000E+00
  0.00000000E+00  0.00000000E+00  0.00000000E+00
  0.00000000E+00  0.00000000E+00  0.00000000E+00
  0.00000000E+00  0.00000000E+00  0.00000000E+00
  0.00000000E+00  0.00000000E+00  0.00000000E+00
  0.00000000E+00  0.00000000E+00  0.00000000E+00
  0.00000000E+00  0.00000000E+00  0.00000000E+00
  0.00000000E+00  0.00000000E+00  0.00000000E+00
  0.00000000E+00  0.00000000E+00  0.00000000E+00
  0.00000000E+00  0.00000000E+00  0.00000000E+00
  0.00000000E+00  0.00000000E+00  0.00000000E+00
  0.00000000E+00  0.00000000E+00  0.00000000E+00
  0.00000000E+00  0.00000000E+00  0.00000000E+00
  0.00000000E+00  0.00000000E+00  0.00000000E+00
  0.00000000E+00  0.00000000E+00  0.00000000E+00
  0.00000000E+00  0.00000000E+00  0.00000000E+00
  0.00000000E+00  0.00000000E+00  0.00000000E+00
  0.00000000E+00  0.00000000E+00  0.00000000E+00
  0.00000000E+00  0.00000000E+00  0.00000000E+00
  0.00000000E+00  0.00000000E+00  0.00000000E+00
  0.00000000E+00  0.00000000E+00  0.00000000E+00
  0.00000000E+00  0.00000000E+00  0.00000000E+00
  0.00000000E+00  0.00000000E+00  0.00000000E+00
  0.00000000E+00  0.00000000E+00  0.00000000E+00
  0.00000000E+00  0.00000000E+00  0.00000000E+00
  0.00000000E+00  0.00000000E+00  0.00000000E+00
  0.00000000E+00  0.00000000E+00  0.00000000E+00
  0.00000000E+00  0.00000000E+00  0.00000000E+00