Amorphous Sb                            
   1.00000000000000     
    18.9202136992999996    0.0000000000000000    0.0000000000000000
     0.0000000000000000   18.9202136992999996    0.0000000000000000
     0.0000000000000000    0.0000000000000000   18.9202136992999996
   Ge   Se
   150   149
Direct
  0.5290623511215991  0.7130127473106519  0.7957332131824989
  0.2152020494634242  0.4420034404366143  0.7954931009096518
  0.3803583435147935  0.3312575394183220  0.6173937429311885
  0.8227926152110309  0.0388528493388626  0.6294946901403641
  0.8868693939259186  0.6230713167598377  0.6641163618423969
  0.2245503181315983  0.7072197522307276  0.9518794267427740
  0.1249994955507774  0.1446073921535610  0.3521989274124924
  0.3547534439409431  0.6186884780298829  0.8007852860948591
  0.3541764414669610  0.8789878499396722  0.2269853197801469
  0.3666613310264952  0.0114910897389160  0.4377190695521069
  0.0035726303153787  0.0421433379706325  0.4445143735891598
  0.6344669195368671  0.3720236375268823  0.8647361050056540
  0.6315715783021132  0.4114968493840986  0.5727000197622195
  0.2862063435687978  0.0096042895016153  0.8423911723344747
  0.6616306405479989  0.9511275896338186  0.4116818809624888
  0.0156661900081665  0.7740297995017945  0.0926662441896177
  0.0558640765667497  0.7511416514920617  0.3448159999686919
  0.7888033924464173  0.4206104412870519  0.3944332974579632
  0.1441289931437514  0.4913467547544576  0.9497347034232070
  0.0484834305732301  0.9228170139543732  0.5004442834091659
  0.1530779091724697  0.8388859463100287  0.1926933572934732
  0.4462035124054127  0.7457752453554966  0.9761127667396498
  0.9959431071967962  0.1951802655997849  0.9447177007103530
  0.0211131545570201  0.0782279942775217  0.1339773816743226
  0.5713125775489872  0.2974364948851239  0.1762806234623636
  0.3741857872003379  0.1464709783686635  0.5975524583722222
  0.4011859586462229  0.7619104941166310  0.5396725675668942
  0.7437961032414132  0.9592366519236479  0.0378454121020946
  0.8038966644607288  0.5351694481871960  0.5647600157148013
  0.9384422431256493  0.7802573858317556  0.5835702060714760
  0.0783848924792695  0.3380317723332174  0.7669343509267678
  0.0080141466530760  0.0978899347191735  0.2685663166104286
  0.8988305400145296  0.4919234665429487  0.4300053953358789
  0.3591506493531431  0.4371868355974318  0.2350273129549842
  0.0375810179932429  0.5533324943922152  0.5732452210495167
  0.7111759045721859  0.7582347431703242  0.1383738166753743
  0.4404628560074497  0.4958125515446845  0.9271949097622674
  0.2657331413866619  0.0512154359081628  0.2372674447039975
  0.2626435564760354  0.3578188684958396  0.1132938333967165
  0.7612146385498063  0.4025371895005655  0.7659997054401675
  0.8480044649482078  0.8023084339648281  0.3977596165455501
  0.9371891224033415  0.1936329927235289  0.5554431983943209
  0.5944471560540161  0.7847776049668593  0.5515386396497013
  0.3778014414313124  0.9909324107204600  0.0873758331138851
  0.3556856898834120  0.6483205101590994  0.2473482151083381
  0.4019365301740321  0.4197372801919156  0.4947332910136761
  0.8948121111108291  0.8170208193781475  0.1647371422758445
  0.0739576278979045  0.3559227568031356  0.4100584062389425
  0.9851427524858699  0.7550188831300347  0.8226791539586544
  0.5322791232911691  0.0538917818849911  0.3085379363332107
  0.2701767381707522  0.4285988828746472  0.9362958459714926
  0.0401873958400549  0.2694780818104608  0.1508854883952997
  0.6483701238633219  0.6892864803303455  0.8710625980509834
  0.5820146494207999  0.3387253231932613  0.7459763251484521
  0.0317308096778946  0.5893381095660410  0.3398405284099322
  0.0252470331370434  0.9122642552445762  0.2176105011442252
  0.1852767550390083  0.5719781025952586  0.4612158586406738
  0.9676524678675215  0.3337058043773170  0.5746493204993280
  0.0950314539020261  0.0737223759489100  0.8219644965318013
  0.5166727709037033  0.4176903924162789  0.3188071473562458
  0.6790742238603760  0.1258802994144366  0.1206593042826777
  0.5420748327613472  0.6806913890034458  0.2407277909231095
  0.9288998516181433  0.6760429309336029  0.2695207736275673
  0.8430837018453550  0.0299778328495592  0.8281074846676697
  0.5811478768631729  0.8206865742847936  0.0175262421172193
  0.1284637834764296  0.3270155478208845  0.9491805739944352
  0.8177091107229780  0.8489011558233230  0.5282781161350197
  0.7428606226841221  0.7611188026835309  0.6894212066404433
  0.8227498221649033  0.2635716385524431  0.1437348723570330
  0.8617183900537215  0.3030653732339255  0.9596241137723641
  0.9587797171806804  0.4239431661895309  0.7184584405851197
  0.4142379248184204  0.1527530204143387  0.1675449649038239
  0.3619830878842877  0.5236444165171833  0.4106075840932416
  0.4682572769641480  0.8508649219492713  0.3823364013947906
  0.3471265365202689  0.4613708168612918  0.6716083019631430
  0.6864581788538239 -0.0011583045035393  0.1565840933351639
  0.2484465221678896  0.2304784405325336  0.1640294126914358
  0.8553917497877213  0.0708482313043566  0.0177371178195695
  0.2592852765228863  0.8541316872276079  0.9430523583967014
  0.3816073684524138  0.2189149644307196  0.0193945040170690
  0.6390175333714819  0.9825382101942994  0.8787404213889364
  0.9836952483932865  0.5951580163145210  0.8496074653414032
  0.8206717008525877  0.4625566463487092  0.0692051437121183
  0.7137360958681068  0.5177525969799678  0.3434663886284264
  0.3655742699904881  0.1428238438166063  0.7322747911775314
  0.6012123777853423  0.1486946812555343  0.0167425331513187
  0.4946429527595060  0.6668891129100805  0.6103121942398524
  0.7782482629931937  0.2652155862695840  0.5154886941655403
  0.6399960807079544  0.5688075463406461  0.1569839018290581
  0.5548965964253948  0.2414525897158466  0.4067044772577029
  0.6843173993876954  0.1266456612015139  0.9071896081003886
  0.1096436619212136  0.1133679176990435  0.6052924413680743
  0.2973277529591097  0.6009303140098867  0.5691680960695633
  0.7610203384749782  0.0479246717319400  0.4435164768494904
  0.6497864083921384  0.9338288540002841  0.5890660301568921
  0.6677903783397241  0.6783773546636975  0.5047525651620419
  0.4518681116785709  0.9395648534577236  0.9265219122308598
  0.1503611815198161  0.4629643363197908  0.6293157214816096
  0.1722418850712531  0.7753371438978008  0.4823740791842935
  0.2182264320615435  0.1298051962107092  0.8440555189284908
  0.1227741468282753  0.4166729885041303  0.2314692904233954
  0.5378842236208008  0.2964577647720853  0.9219158746755418
  0.2063714317705541  0.5114807239103184  0.0853091148504068
  0.8505965714770714  0.0463951351351341  0.1911388320833553
  0.4363581282698720  0.8461326527577883  0.7272042981740298
  0.7524717745894177  0.6645599646448460  0.0368823233726421
  0.0138958314008275  0.4526347354425829  0.0033315910197521
  0.0477770928911509  0.6532464670400392  0.0402072188687347
  0.6800913044695306  0.1940358691711455  0.7250558029381354
  0.6995037676582315  0.9305520055754966  0.7644058749362583
  0.0998527433470779  0.8936856816870924  0.6925538683464558
  0.0963722278918637  0.9483754638099344  0.0113518724744943
  0.1415917453239176  0.9567433736959965  0.3783331002685137
  0.7512533881229182  0.1490405085203911  0.3172868606909425
  0.7379257563935281  0.8141704963064795  0.3151728555682789
  0.7316156121950473  0.6401911530888830  0.3915780917926037
  0.4429555121903375  0.2639673382362074  0.2922090177802267
  0.7064928153394766  0.6133703265097689  0.7218032593505149
  0.3330645292873599  0.2231266618823817  0.4475661854920017
  0.0703947154069868  0.9451292607882110  0.8081206882060863
  0.9357242081260654  0.4385359101835524  0.1937958926308616
  0.8956196054390553  0.2540060861039771  0.3588186664002745
  0.8200221824940038  0.6337653428837358  0.8228532444714499
  0.9181835268338999  0.9382419755629792  0.9576630645591188
  0.2274060078302244  0.3877571715576337  0.4065367931883170
  0.2377152975636660  0.6989096070669396  0.6668675430592685
  0.3658011073485523  0.9527684680904126  0.5667821403338693
  0.5728640118567238  0.8417852750046378  0.7414358961692729
  0.1730633227731085  0.1172834044915364  0.9892527229745035
  0.3027126226585529  0.8115970170206378  0.0728944838867203
  0.5248968315612622  0.5577038911971453  0.4484916726823308
  0.8765493912938571  0.7498456315189477  0.9107213462159227
  0.4863242216375955  0.1700501202095016  0.8922275845519756
  0.4467614390140236  0.5083907754574921  0.1316421824422782
  0.0439820529001395  0.7208672628782306  0.6455167041860412
  0.1830750039092178  0.6402862156845338  0.2220714291028631
  0.2769151098237626  0.2808901313631741  0.8011716587626744
  0.5336074487683077  0.0874248298979771  0.4902921767548312
  0.2986810575475016  0.7319195584406153  0.3575945978134279
  0.2988015058762559  0.8581014060024031  0.7276377567537526
  0.7176165822832591  0.3995792896151413  0.2211967247312870
  0.5811593372354199  0.4325430494033914  0.0253971034612495
  0.1716101488880962  0.9890666230762071  0.6343742917837171
  0.9016355130997092  0.2331930479619524  0.7564170207707704
  0.5745324763079748  0.1795426806536456  0.5927817214561223
  0.1379870958792395  0.2251230415968793  0.5146422250173597
  0.1618920185525950  0.6261137781132822  0.8039207846857875
  0.5173188116966124  0.8913090641383898  0.2214465582596438
  0.4792390984552143  0.5137862886619908  0.7539364158530720
  0.9189431135979405  0.4565852520096241  0.9002819558000914
  0.8606952527835139  0.1333483722296329  0.8958028863325429
  0.8583095728761446  0.9626968113391519  0.4714922472036976
  0.0723541249353996  0.7236620758048931  0.2064785590750975
  0.9305748232267249  0.4726845664238775  0.5953943500289739
  0.3374062569544958  0.6902537669792407  0.0258702388426728
  0.1167194210832722  0.0043531621773859  0.2548738631424564
  0.5724958658618003  0.4485834048856444  0.1657752817774435
  0.7016596498550103  0.0614025263245664  0.5662237433583935
  0.6046282484375556  0.2772785462752001  0.0319049273975778
  0.1338467831562861  0.0737132212093224  0.4728548036793420
  0.9352163295329489  0.8161122688173331  0.3009136746299324
  0.7478683266180571  0.0560986469240847  0.7470840257585299
  0.7757301454230390  0.6938074432374278  0.5732107849258191
  0.2786101820256305  0.8068463818227167  0.6044121993664130
  0.8683579929293290  0.6887162220699485  0.1526697776054738
  0.4737144389490712  0.1115901781030940  0.0118888810867720
  0.2864146857418997  0.1385273855827691  0.0740837783007527
  0.3440537078588447  0.8356359266277363  0.4433624215788959
  0.9374884434297970  0.9903150990523517  0.7545245292741264
  0.7045368683530584  0.2183396509337695  0.2080431109134283
  0.6183751004446622 -0.0098821722118229  0.0059055949748397
  0.5451712612652353  0.2169595550661648  0.7316174220017694
  0.1420548473941429  0.0462567590040256  0.0968514744020639
  0.8730167670326315  0.5024079097702440  0.7859822953373153
  0.2269228024215273  0.3600300615177281  0.2712667365902309
  0.3466228399549579  0.4161418057473064  0.8303976016594723
  0.2709818266747751  0.7672682224845617  0.1933020776074359
  0.2742765171904133  0.9722206947131993  0.3473838050847275
  0.3277958639637071  0.4986422115206621  0.0278970579210669
  0.4029183225366852  0.0286561232383256  0.2263841171620182
  0.4572861763957853  0.2396687208243536  0.5484034886125515
  0.4351114272052977  0.3149853136716369  0.1688152692205005
  0.9312351152437509  0.9896830037037494  0.2819266439022878
  0.4245936338770954  0.8608760146153552  0.1043536923885301
  0.0667860419231934  0.5085414879141733  0.4419551697503921
  0.0777541701629632  0.4949688868692946  0.8341298792459415
  0.5565417936004181  0.4858922003962461  0.8573062158602658
  0.2923490606559966  0.9902736092360589  0.6821900906351328
  0.5290175115210622  0.1697851680236961  0.2329526677470794
  0.9177455553243495  0.5241677460654814  0.3022694885294330
  0.5891697150920076  0.5372691086738949  0.3248711672728409
  0.3520149527663535  0.1777945379774909  0.8880892325814479
  0.1769392278758887  0.9155087351118981  0.5254192081487928
  0.0348074147183084  0.2208815122130793  0.4189007442126960
  0.5615534706312457  0.8711088658296827  0.8728812224269656
  0.5861418268484743  0.9729604176758330  0.7019940568176186
  0.7222030070849835  0.4940756469575591  0.6695186279393407
  0.1653608603986923  0.8326096084606033  0.3365045780027410
  0.9406183890199576  0.3646031581665456  0.4400314084016950
  0.5209945882841871  0.7478837970486533  0.4485989590402850
  0.8559423050138459  0.3445757479313111  0.6901020825233817
  0.3509313210053298  0.6470887866661339  0.4515341971344765
  0.7095686763664956  0.2428699694110642  0.8463968432483442
  0.2916867393995079  0.0987327592912759  0.5085958436576715
  0.7708697104975938  0.8609222994059788  0.1971690671825514
  0.7544681907549926  0.5322013012752215  0.2192405740639042
  0.1674470542330676  0.6718287345386798  0.3772289819155398
  0.0183408524323249  0.8663172436789450  0.8951949134406341
  0.7984781043714888  0.4226277021201600  0.9403793417759461
  0.9847105050716518  0.0705256274387216  0.5742633772464238
  0.2626682205944772  0.9457051142150671  0.1491746171522281
  0.5702490391818776  0.6132432146067310  0.7145309767892806
 -0.0074330468419240  0.9078964366978798  0.6218917145453301
  0.1218767408255277  0.2415056389619714  0.8492284918053795
  0.5132841529375475  0.4164629326393270  0.6696867585774191
  0.2773016909874744  0.2736618378452366  0.5605601857492357
  0.2811468281026427  0.9824252706743130  0.9734919975100236
  0.7653644195150267  0.1682221362852106  0.0340679665720628
  0.8638192587694494  0.6267025023695040  0.9530833907707648
  0.8831927343472925  0.1658355639633088  0.2427128068294832
  0.5292004367303483  0.4216802172796985  0.4569919555671414
  0.6092012972658978  0.3251784925852663  0.3161861883436865
  0.6217778815111247  0.5613946505117332  0.5383166102900915
  0.6916766075932085  0.6982876103617411  0.2844295495038996
  0.4389049361650900  0.7578902611763064  0.2875447958722853
  0.1237791132908002  0.7725108423909326  0.7342787767763131
  0.7560614465463098  0.7636148206009264  0.8512588088233830
  0.5798923305633399  0.7874314779914010  0.1563302069213514
  0.8787169712273744  0.7530232777956134  0.7076808058296881
  0.1018653138010348  0.2253068161479798  0.0293191791490428
  0.8052943217951476  0.9249421418087339  0.8845657673545604
  0.7155786634597938  0.8301032619469296  0.0210567303420319
  0.7442289724269494  0.0205771132419802  0.2725289748652984
  0.2385925899968309  0.5452254409068216  0.7130396093793891
  0.7599099979559220  0.4126941950118418  0.5211891227547920
  0.3938102153322673  0.2751917991045725  0.7371963368818714
  0.9834397217309747  0.9576350376123202  0.0948711136616794
  0.4267914173821268  0.5462130568974424  0.3014608905454970
  0.1338955734016892  0.1933780553799124  0.2110703883797691
  0.0346164798909695  0.7952808750225827  0.4756423733263602
  0.7649139190496463  0.2925472246857624  0.3814119815416898
  0.4108760111468839  0.7091216042721160  0.7061496736512083
  0.6198190547815000  0.8738133698781878  0.3147709802410603
  0.3845619780701672  0.8295058999050839  0.8916900551448678
  0.1346639988368662  0.8228067042377700  0.0518161989552591
  0.8570455160679415  0.1588174324145770  0.4558121690534783
  0.6961182193722768  0.8341038763412740  0.4689747766652797
  0.0230230300739170  0.2446013487710504  0.6896055965615940
  0.7053370568645631  0.5698305706393572  0.8517706122927116
  0.2597973299422981  0.3083334442514618  0.9856088282119774
  0.4587299285630552  0.6459171101443643  0.8855842690780213
  0.0714055576533259  0.6835226562508941  0.9100908105160143
  0.5576474790312369  0.0017613346459208  0.1618351362041238
  0.4566511241944280  0.3744523123495754  0.9886129212390092
  0.8851056044794434  0.8215523314333979  0.0163591946008857
  0.6291503886912279  0.1299104472161305  0.3823394086730008
  0.2394513516449109  0.5803858883982375  0.9011729006590796
  0.2639472890126891  0.4662473902582144  0.5549007600779693
  0.5670169131079403  0.0846099235147292  0.8322703321267266
  0.4228501496417597  0.5517565666385114  0.5926104343668098
  0.2013461716808093  0.9040222997322027  0.8263442250472371
  0.0373546734259326  0.0698524443977790  0.9360469959167861
  0.2440958451033835  0.5145425385451998  0.3576687108878698
  0.9440019258415582  0.1603251094502145  0.0681490143480123
  0.2005071358924937  0.3504888983549114  0.6959715270011503
  0.3250841024058130  0.1952746843405442  0.2674783474297118
  0.2696118104141856  0.7226224124245505  0.8144983993742395
  0.8566695453014370  0.6697387584914736  0.3905591000772666
  0.0885367803238710  0.5397661852365979  0.2258681682185222
  0.9738745495927770  0.5540693771000658  0.0743698166810837
  0.2069803821481477  0.2406604892768289  0.4005162566494120
  0.2353304272396157  0.1693145650184620  0.7198323763632759
  0.9548352361091095  0.3353608485235405  0.8658348549526452
  0.8458330933373303  0.3577677261683279  0.2489429631188860
  0.5486400190335091  0.9585777585325655  0.4722061250695117
  0.7068360393205720  0.5387668215819219  0.0431994898078696
  0.4114858372321761  0.9892937818113753  0.8106021135317423
  0.5148220927766339  0.5499164118746430  0.0268249341269650
  0.6369052463003273  0.2709581486669860  0.5137150210817819
  0.2821265912629921  0.5411337812031825  0.1903338377905109
  0.0987302663306562  0.3536186003482795  0.5458412544141693
  0.7723306545257557  0.8917900458083604  0.6524258831531196
  0.4461433772679846  0.6420741174112640  0.1500682552229747
  0.1740756580042539  0.6415976597032713  0.0791987494546386
  0.6185987667220451  0.6878231537996113 -0.0032260211816199
  0.6904776263555661  0.3229790729675500  0.6736099415487976
  0.4658895285352210  0.8654693620471385  0.5972867324193407
  0.3591079469202419  0.3584556158626089  0.3845156754885896
  0.1373352866957175  0.6707673452639605  0.5710219304600451
  0.8370109566374219  0.1764673500232882  0.6431195311884397
  0.0178534984456462  0.3565193426755447  0.2683328355240581
  0.9403906087167992  0.3547768345377339  0.0600094380814667
  0.1241151931644613  0.3738676260723016  0.1104569142422138
  0.4419959642434003  0.1132076233229547  0.3947250373242013
  0.9414874472491777  0.6420353838698396  0.5401328735807306
 -0.0021495882945658  0.1063828371559657  0.7395284105631770
  0.0159945446942723  0.6097231026684463  0.7117101802413607
  0.7349793473996066  0.3651197740990182  0.0941374166390027
  0.4593131654558428  0.0466936365969947  0.5991292162381450
 
  0.00000000E+00  0.00000000E+00  0.00000000E+00
  0.00000000E+00  0.00000000E+00  0.00000000E+00
  0.00000000E+00  0.00000000E+00  0.00000000E+00
  0.00000000E+00  0.00000000E+00  0.00000000E+00
  0.00000000E+00  0.00000000E+00  0.00000000E+00
  0.00000000E+00  0.00000000E+00  0.00000000E+00
  0.00000000E+00  0.00000000E+00  0.00000000E+00
  0.00000000E+00  0.00000000E+00  0.00000000E+00
  0.00000000E+00  0.00000000E+00  0.00000000E+00
  0.00000000E+00  0.00000000E+00  0.00000000E+00
  0.00000000E+00  0.00000000E+00  0.00000000E+00
  0.00000000E+00  0.00000000E+00  0.00000000E+00
  0.00000000E+00  0.00000000E+00  0.00000000E+00
  0.00000000E+00  0.00000000E+00  0.00000000E+00
  0.00000000E+00  0.00000000E+00  0.00000000E+00
  0.00000000E+00  0.00000000E+00  0.00000000E+00
  0.00000000E+00  0.00000000E+00  0.00000000E+00
  0.00000000E+00  0.00000000E+00  0.00000000E+00
  0.00000000E+00  0.00000000E+00  0.00000000E+00
  0.00000000E+00  0.00000000E+00  0.00000000E+00
  0.00000000E+00  0.00000000E+00  0.00000000E+00
  0.00000000E+00  0.00000000E+00  0.00000000E+00
  0.00000000E+00  0.00000000E+00  0.00000000E+00
  0.00000000E+00  0.00000000E+00  0.00000000E+00
  0.00000000E+00  0.00000000E+00  0.00000000E+00
  0.00000000E+00  0.00000000E+00  0.00000000E+00
  0.00000000E+00  0.00000000E+00  0.00000000E+00
  0.00000000E+00  0.00000000E+00  0.00000000E+00
  0.00000000E+00  0.00000000E+00  0.00000000E+00
  0.00000000E+00  0.00000000E+00  0.00000000E+00
  0.00000000E+00  0.00000000E+00  0.00000000E+00
  0.00000000E+00  0.00000000E+00  0.00000000E+00
  0.00000000E+00  0.00000000E+00  0.00000000E+00
  0.00000000E+00  0.00000000E+00  0.00000000E+00
  0.00000000E+00  0.00000000E+00  0.00000000E+00
  0.00000000E+00  0.00000000E+00  0.00000000E+00
  0.00000000E+00  0.00000000E+00  0.00000000E+00
  0.00000000E+00  0.00000000E+00  0.00000000E+00
  0.00000000E+00  0.00000000E+00  0.00000000E+00
  0.00000000E+00  0.00000000E+00  0.00000000E+00
  0.00000000E+00  0.00000000E+00  0.00000000E+00
  0.00000000E+00  0.00000000E+00  0.00000000E+00
  0.00000000E+00  0.00000000E+00  0.00000000E+00
  0.00000000E+00  0.00000000E+00  0.00000000E+00
  0.00000000E+00  0.00000000E+00  0.00000000E+00
  0.00000000E+00  0.00000000E+00  0.00000000E+00
  0.00000000E+00  0.00000000E+00  0.00000000E+00
  0.00000000E+00  0.00000000E+00  0.00000000E+00
  0.00000000E+00  0.00000000E+00  0.00000000E+00
  0.00000000E+00  0.00000000E+00  0.00000000E+00
  0.00000000E+00  0.00000000E+00  0.00000000E+00
  0.00000000E+00  0.00000000E+00  0.00000000E+00
  0.00000000E+00  0.00000000E+00  0.00000000E+00
  0.00000000E+00  0.00000000E+00  0.00000000E+00
  0.00000000E+00  0.00000000E+00  0.00000000E+00
  0.00000000E+00  0.00000000E+00  0.00000000E+00
  0.00000000E+00  0.00000000E+00  0.00000000E+00
  0.00000000E+00  0.00000000E+00  0.00000000E+00
  0.00000000E+00  0.00000000E+00  0.00000000E+00
  0.00000000E+00  0.00000000E+00  0.00000000E+00
  0.00000000E+00  0.00000000E+00  0.00000000E+00
  0.00000000E+00  0.00000000E+00  0.00000000E+00
  0.00000000E+00  0.00000000E+00  0.00000000E+00
  0.00000000E+00  0.00000000E+00  0.00000000E+00
  0.00000000E+00  0.00000000E+00  0.00000000E+00
  0.00000000E+00  0.00000000E+00  0.00000000E+00
  0.00000000E+00  0.00000000E+00  0.00000000E+00
  0.00000000E+00  0.00000000E+00  0.00000000E+00
  0.00000000E+00  0.00000000E+00  0.00000000E+00
  0.00000000E+00  0.00000000E+00  0.00000000E+00
  0.00000000E+00  0.00000000E+00  0.00000000E+00
  0.00000000E+00  0.00000000E+00  0.00000000E+00
  0.00000000E+00  0.00000000E+00  0.00000000E+00
  0.00000000E+00  0.00000000E+00  0.00000000E+00
  0.00000000E+00  0.00000000E+00  0.00000000E+00
  0.00000000E+00  0.00000000E+00  0.00000000E+00
  0.00000000E+00  0.00000000E+00  0.00000000E+00
  0.00000000E+00  0.00000000E+00  0.00000000E+00
  0.00000000E+00  0.00000000E+00  0.00000000E+00
  0.00000000E+00  0.00000000E+00  0.00000000E+00
  0.00000000E+00  0.00000000E+00  0.00000000E+00
  0.00000000E+00  0.00000000E+00  0.00000000E+00
  0.00000000E+00  0.00000000E+00  0.00000000E+00
  0.00000000E+00  0.00000000E+00  0.00000000E+00
  0.00000000E+00  0.00000000E+00  0.00000000E+00
  0.00000000E+00  0.00000000E+00  0.00000000E+00
  0.00000000E+00  0.00000000E+00  0.00000000E+00
  0.00000000E+00  0.00000000E+00  0.00000000E+00
  0.00000000E+00  0.00000000E+00  0.00000000E+00
  0.00000000E+00  0.00000000E+00  0.00000000E+00
  0.00000000E+00  0.00000000E+00  0.00000000E+00
  0.00000000E+00  0.00000000E+00  0.00000000E+00
  0.00000000E+00  0.00000000E+00  0.00000000E+00
  0.00000000E+00  0.00000000E+00  0.00000000E+00
  0.00000000E+00  0.00000000E+00  0.00000000E+00
  0.00000000E+00  0.00000000E+00  0.00000000E+00
  0.00000000E+00  0.00000000E+00  0.00000000E+00
  0.00000000E+00  0.00000000E+00  0.00000000E+00
  0.00000000E+00  0.00000000E+00  0.00000000E+00
  0.00000000E+00  0.00000000E+00  0.00000000E+00
  0.00000000E+00  0.00000000E+00  0.00000000E+00
  0.00000000E+00  0.00000000E+00  0.00000000E+00
  0.00000000E+00  0.00000000E+00  0.00000000E+00
  0.00000000E+00  0.00000000E+00  0.00000000E+00
  0.00000000E+00  0.00000000E+00  0.00000000E+00
  0.00000000E+00  0.00000000E+00  0.00000000E+00
  0.00000000E+00  0.00000000E+00  0.00000000E+00
  0.00000000E+00  0.00000000E+00  0.00000000E+00
  0.00000000E+00  0.00000000E+00  0.00000000E+00
  0.00000000E+00  0.00000000E+00  0.00000000E+00
  0.00000000E+00  0.00000000E+00  0.00000000E+00
  0.00000000E+00  0.00000000E+00  0.00000000E+00
  0.00000000E+00  0.00000000E+00  0.00000000E+00
  0.00000000E+00  0.00000000E+00  0.00000000E+00
  0.00000000E+00  0.00000000E+00  0.00000000E+00
  0.00000000E+00  0.00000000E+00  0.00000000E+00
  0.00000000E+00  0.00000000E+00  0.00000000E+00
  0.00000000E+00  0.00000000E+00  0.00000000E+00
  0.00000000E+00  0.00000000E+00  0.00000000E+00
  0.00000000E+00  0.00000000E+00  0.00000000E+00
  0.00000000E+00  0.00000000E+00  0.00000000E+00
  0.00000000E+00  0.00000000E+00  0.00000000E+00
  0.00000000E+00  0.00000000E+00  0.00000000E+00
  0.00000000E+00  0.00000000E+00  0.00000000E+00
  0.00000000E+00  0.00000000E+00  0.00000000E+00
  0.00000000E+00  0.00000000E+00  0.00000000E+00
  0.00000000E+00  0.00000000E+00  0.00000000E+00
  0.00000000E+00  0.00000000E+00  0.00000000E+00
  0.00000000E+00  0.00000000E+00  0.00000000E+00
  0.00000000E+00  0.00000000E+00  0.00000000E+00
  0.00000000E+00  0.00000000E+00  0.00000000E+00
  0.00000000E+00  0.00000000E+00  0.00000000E+00
  0.00000000E+00  0.00000000E+00  0.00000000E+00
  0.00000000E+00  0.00000000E+00  0.00000000E+00
  0.00000000E+00  0.00000000E+00  0.00000000E+00
  0.00000000E+00  0.00000000E+00  0.00000000E+00
  0.00000000E+00  0.00000000E+00  0.00000000E+00
  0.00000000E+00  0.00000000E+00  0.00000000E+00
  0.00000000E+00  0.00000000E+00  0.00000000E+00
  0.00000000E+00  0.00000000E+00  0.00000000E+00
  0.00000000E+00  0.00000000E+00  0.00000000E+00
  0.00000000E+00  0.00000000E+00  0.00000000E+00
  0.00000000E+00  0.00000000E+00  0.00000000E+00
  0.00000000E+00  0.00000000E+00  0.00000000E+00
  0.00000000E+00  0.00000000E+00  0.00000000E+00
  0.00000000E+00  0.00000000E+00  0.00000000E+00
  0.00000000E+00  0.00000000E+00  0.00000000E+00
  0.00000000E+00  0.00000000E+00  0.00000000E+00
  0.00000000E+00  0.00000000E+00  0.00000000E+00
  0.00000000E+00  0.00000000E+00  0.00000000E+00
  0.00000000E+00  0.00000000E+00  0.00000000E+00
  0.00000000E+00  0.00000000E+00  0.00000000E+00
  0.00000000E+00  0.00000000E+00  0.00000000E+00
  0.00000000E+00  0.00000000E+00  0.00000000E+00
  0.00000000E+00  0.00000000E+00  0.00000000E+00
  0.00000000E+00  0.00000000E+00  0.00000000E+00
  0.00000000E+00  0.00000000E+00  0.00000000E+00
  0.00000000E+00  0.00000000E+00  0.00000000E+00
  0.00000000E+00  0.00000000E+00  0.00000000E+00
  0.00000000E+00  0.00000000E+00  0.00000000E+00
  0.00000000E+00  0.00000000E+00  0.00000000E+00
  0.00000000E+00  0.00000000E+00  0.00000000E+00
  0.00000000E+00  0.00000000E+00  0.00000000E+00
  0.00000000E+00  0.00000000E+00  0.00000000E+00
  0.00000000E+00  0.00000000E+00  0.00000000E+00
  0.00000000E+00  0.00000000E+00  0.00000000E+00
  0.00000000E+00  0.00000000E+00  0.00000000E+00
  0.00000000E+00  0.00000000E+00  0.00000000E+00
  0.00000000E+00  0.00000000E+00  0.00000000E+00
  0.00000000E+00  0.00000000E+00  0.00000000E+00
  0.00000000E+00  0.00000000E+00  0.00000000E+00
  0.00000000E+00  0.00000000E+00  0.00000000E+00
  0.00000000E+00  0.00000000E+00  0.00000000E+00
  0.00000000E+00  0.00000000E+00  0.00000000E+00
  0.00000000E+00  0.00000000E+00  0.00000000E+00
  0.00000000E+00  0.00000000E+00  0.00000000E+00
  0.00000000E+00  0.00000000E+00  0.00000000E+00
  0.00000000E+00  0.00000000E+00  0.00000000E+00
  0.00000000E+00  0.00000000E+00  0.00000000E+00
  0.00000000E+00  0.00000000E+00  0.00000000E+00
  0.00000000E+00  0.00000000E+00  0.00000000E+00
  0.00000000E+00  0.00000000E+00  0.00000000E+00
  0.00000000E+00  0.00000000E+00  0.00000000E+00
  0.00000000E+00  0.00000000E+00  0.00000000E+00
  0.00000000E+00  0.00000000E+00  0.00000000E+00
  0.00000000E+00  0.00000000E+00  0.00000000E+00
  0.00000000E+00  0.00000000E+00  0.00000000E+00
  0.00000000E+00  0.00000000E+00  0.00000000E+00
  0.00000000E+00  0.00000000E+00  0.00000000E+00
  0.00000000E+00  0.00000000E+00  0.00000000E+00
  0.00000000E+00  0.00000000E+00  0.00000000E+00
  0.00000000E+00  0.00000000E+00  0.00000000E+00
  0.00000000E+00  0.00000000E+00  0.00000000E+00
  0.00000000E+00  0.00000000E+00  0.00000000E+00
  0.00000000E+00  0.00000000E+00  0.00000000E+00
  0.00000000E+00  0.00000000E+00  0.00000000E+00
  0.00000000E+00  0.00000000E+00  0.00000000E+00
  0.00000000E+00  0.00000000E+00  0.00000000E+00
  0.00000000E+00  0.00000000E+00  0.00000000E+00
  0.00000000E+00  0.00000000E+00  0.00000000E+00
  0.00000000E+00  0.00000000E+00  0.00000000E+00
  0.00000000E+00  0.00000000E+00  0.00000000E+00
  0.00000000E+00  0.00000000E+00  0.00000000E+00
  0.00000000E+00  0.00000000E+00  0.00000000E+00
  0.00000000E+00  0.00000000E+00  0.00000000E+00
  0.00000000E+00  0.00000000E+00  0.00000000E+00
  0.00000000E+00  0.00000000E+00  0.00000000E+00
  0.00000000E+00  0.00000000E+00  0.00000000E+00
  0.00000000E+00  0.00000000E+00  0.00000000E+00
  0.00000000E+00  0.00000000E+00  0.00000000E+00
  0.00000000E+00  0.00000000E+00  0.00000000E+00
  0.00000000E+00  0.00000000E+00  0.00000000E+00
  0.00000000E+00  0.00000000E+00  0.00000000E+00
  0.00000000E+00  0.00000000E+00  0.00000000E+00
  0.00000000E+00  0.00000000E+00  0.00000000E+00
  0.00000000E+00  0.00000000E+00  0.00000000E+00
  0.00000000E+00  0.00000000E+00  0.00000000E+00
  0.00000000E+00  0.00000000E+00  0.00000000E+00
  0.00000000E+00  0.00000000E+00  0.00000000E+00
  0.00000000E+00  0.00000000E+00  0.00000000E+00
  0.00000000E+00  0.00000000E+00  0.00000000E+00
  0.00000000E+00  0.00000000E+00  0.00000000E+00
  0.00000000E+00  0.00000000E+00  0.00000000E+00
  0.00000000E+00  0.00000000E+00  0.00000000E+00
  0.00000000E+00  0.00000000E+00  0.00000000E+00
  0.00000000E+00  0.00000000E+00  0.00000000E+00
  0.00000000E+00  0.00000000E+00  0.00000000E+00
  0.00000000E+00  0.00000000E+00  0.00000000E+00
  0.00000000E+00  0.00000000E+00  0.00000000E+00
  0.00000000E+00  0.00000000E+00  0.00000000E+00
  0.00000000E+00  0.00000000E+00  0.00000000E+00
  0.00000000E+00  0.00000000E+00  0.00000000E+00
  0.00000000E+00  0.00000000E+00  0.00000000E+00