POSCAR file written by OVITO Basic 3.10.
   1.00000000000000     
    18.0516550598000016    0.0000000000000000    0.0000000000000000
     0.0000000000000000   18.0516550598000016    0.0000000000000000
     0.0000000000000000    0.0000000000000000   18.0516550598000016
   Ge   Te
   100   100
Direct
  0.2675519872000148  0.9855267583635527  0.8820318843199184
  0.7418174860666352  0.1204402396466504  0.4365491703624682
  0.3259899969574769  0.7464762978892070  0.2890054004512475
  0.8349660142680657  0.8379174048772923  0.6067785987859230
  0.3966077871627516  0.1556025220024003  0.6175666516734096
  0.1104844035244292  0.2220464010636039  0.3318373146686130
  0.9460545902704416  0.4150163954047948  0.9096527826721881
  0.9623947100383915  0.6256967584293434  0.0235099000875030
  0.4070533844112443  0.4428276144377685  0.3442775920020244
  0.7614298168902783  0.8983949040451922  0.4863728024983243
  0.6653223360426117  0.7940679607850425  0.4701413482080527
  0.3107133308159047  0.2813168562977196  0.0670236085245665
  0.4792253414346969  0.5532021127502230  0.1952767576666163
  0.9699122253047566  0.0130166306862514  0.4615304409265523
  0.1541003541345337  0.3765735136129304  0.1684370935074909
  0.4627694015414182  0.7091486128904512  0.0406301340577993
  0.1129542563034120  0.2500391285790585  0.6291197069162507
  0.1151304397843694  0.9702876806755255  0.8901646391393362
  0.1656078575669880  0.6991366135297787  0.9744634288190345
  0.5570126491716776  0.4662249462171303  0.5691580851394741
  0.4244956709328098  0.4263429761632340  0.9099549267302016
  0.9976915974953479  0.1605359599270408  0.9502225176686143
  0.8703391101310247  0.4296227918976414  0.3052751735622916
  0.5034126587934060  0.6905646771653007  0.3096767331974041
  0.2074962977757981  0.5135881316545347  0.3966673306632550
  0.3297463628803532  0.8424793259507272  0.0621824158473132
  0.5045912201845089  0.4271027914118201  0.1277576485123385
  0.4616765262372596  0.2492396632021865  0.4446401396121922
  0.0915715501967664  0.7260020239389859  0.6166689424741443
  0.1969898473107370  0.5458841196886299  0.2533092273178651
  0.1908439246218988  0.6421664782510266  0.8117204023439626
  0.6561306377250894  0.5745265756783422  0.4857899782736420
  0.9494113551977591  0.1265475167004790  0.8213677465366246
  0.6251363564552743  0.5723770240163109  0.0010078448644024
  0.5544856759046307  0.6842892955118732  0.6504802093578105
  0.4347200872836370  0.3494293011570613  0.0337727901817560
  0.1402737064923974  0.8162424857675066  0.1581657017765222
  0.5421214452403268  0.2326793928436109  0.8646996498471191
  0.1976565747498838  0.4271473896487512  0.8689053107668745
  0.7294065250867050  0.6216346784207661  0.3719985757071271
  0.0770297036211799  0.2438707533966039  0.1470986903478429
  0.3144088322462367  0.4155358873075766  0.6200126094902632
  0.7381343889986739  0.7276399657889820  0.0400026429270602
  0.2344698455859384  0.3093486017455744  0.9438248541496194
  0.7403174031823024  0.8150623513840392  0.7901361289901586
  0.9393308811441593  0.9490570879437489  0.7557038761374072
  0.3627420429907544  0.3168243051728409  0.2719075255618417
  0.9635544550192572  0.9802924529912356  0.2388027062503326
  0.6630498287434621  0.5383789788238932  0.8143340963180379
  0.5647297539134430  0.1302236536569244  0.1331517324541410
  0.1381726327646043  0.2079883971861018  0.8974903170024049
  0.9250782864307729  0.6104776153111804  0.2911888228567462
  0.7555711229533056  0.0260305345918016  0.6712389477057410
  0.9820623585063659  0.3612671716536110  0.7536584679430602
  0.0658487432086503  0.4299005548640348  0.3691489964908626
  0.4382588408652719  0.8474810963267978  0.1836876753095180
  0.8290985164597209  0.2396348562219658  0.2923198959909171
  0.1629514997440852  0.8608725266964985  0.3512007008851362
  0.9312056639343250  0.8686387366821710  0.4458471763186965
  0.4399433988913062  0.4988281580568582  0.7874468913353839
  0.1618295306567678  0.1031906423599526  0.2663208175978540
  0.9218828487815102  0.3534758694375316  0.4928487544374955
  0.8223460764041408  0.8119772146973605  0.2706372183299867
  0.0188094463840697  0.5468286753738818  0.5670833755820054
  0.1304296680292057  0.4829896808978875  0.0363959155907939
  0.7081485307921980  0.3058833028750170  0.5903434357134453
  0.0087265884557107  0.1455427074875484  0.6401266527515675
  0.0473784110278473  0.6707841359857184  0.3948513945148794
  0.1345568369209793  0.8400091734031523  0.8180872036500164
  0.5487911540199623  0.9543568773274346  0.4420977184326929
  0.5821334624474999  0.3375287672049467  0.7825179033517246
  0.9341956123168408  0.0529855447668960  0.0716934453927655
  0.5777156304432015  0.9310322283975254  0.0387051264471571
  0.0700511921837424  0.0449331883511914  0.0133922443004622
  0.3334810508959227  0.1605302969392940  0.9613928511267251
  0.7428139487696570  0.0422857164567183  0.2001672127675775
  0.7681705401198416  0.9201479561647736  0.3495423549831826
  0.5458395262514475  0.7475054265502837  0.1548786879570534
  0.8870964631842293  0.2612399421903318  0.0720128914218488
  0.7971944462216569  0.5193180982194995  0.5767801772427504
  0.7799582424055954  0.4787847831887648  0.9794453762000754
  0.2092056609262711  0.8726517384123040  0.6064872414870444
  0.5530527474077537  0.9351658922496537  0.8013093913449505
  0.7789550224770263  0.6972379580762825  0.1810345460780702
  0.2981119353012387  0.6532212399539367  0.9427569201645207
  0.3919359468150002  0.7156234881616205  0.8176495670029357
  0.3756458308880234  0.0481875753036393  0.5268449474827234
  0.7151589778713684  0.6769800562467552  0.8238592620592036
  0.6236130458825404  0.1441852193480397  0.3572468163217024
  0.5357072170830991  0.6474952750899657  0.4493843166100522
  0.3797842747173020  0.0390155749904137  0.2885860698813517
  0.9637513661489941  0.8410942035718497  0.0456939492894342
  0.6300937821345860  0.3692642830796483  0.2830621988910676
  0.4401289228259599  0.1430810015996983  0.8717947334284829
  0.4315475593039531  0.0979612317961824  0.7418879792531082
  0.2235656232064913  0.4578165603082557  0.7304207785359428
  0.6983365905202003  0.2897480790847407  0.0756320243652531
  0.2530947992202957  0.0584497020025151  0.1509814508799324
  0.2922917098554723  0.2956379048172610  0.4678800096092938
  0.2204198595023837  0.9652148801910801  0.4318693888396776
  0.9284522602709185  0.6963656543762728  0.1575243097574106
  0.8171166332779060  0.3451406971731383  0.1853779572057949
  0.2653526916264529  0.8775598840889282  0.2272854830616543
  0.3155316511759274  0.4122470223105204  0.1602980379460009
  0.6712994365287246  0.4934509991140929  0.6695254721495186
  0.4618106989586268  0.5875152360609985  0.5696127445937466
  0.0273243633817350  0.2996176981831712  0.0093569015061833
  0.2677554106046293  0.0983625092115439  0.3797920130997466
  0.6923369532048188  0.8720428535134649  0.6624769430666159
  0.9650884074654233  0.1851762292831493  0.5004516667325988
  0.6736920555325503  0.0490614600550713  0.0631575026627807
  0.8835488509765012  0.8058742183686703  0.7574589056432441
  0.7932623913886671  0.3259856367670667  0.9590776481086255
  0.6061806525558688  0.2860725932826739  0.4145235859007017
  0.3440363349738279  0.5740751664005865  0.3774894031734805
  0.4720922497474667  0.5660104902810541  0.0014573014597932
  0.2547902647511123  0.0030922542196398  0.6667792885560838
  0.6851653413931882  0.1849491284668207  0.2243214828015193
  0.3766634268628472  0.9625273840150131  0.7679779204760636
  0.2852192226012896  0.2588559426451588  0.6202288146381720
  0.1210783304025445  0.3018777279278740  0.7778799707458480
  0.8486220267593444  0.7114394887346577  0.3890801051625662
  0.4272171462590294  0.8148301593991663  0.9389354729251883
  0.0665278107747881  0.8016940189964827  0.4764057937708789
  0.6424354676107293  0.9674286414046472  0.2893356464653693
  0.3619119705893921  0.1596500145590678  0.1940850485751088
  0.0719611272057413  0.5096170410020303  0.8977436550712395
  0.0838693931875897  0.9583656780125680  0.1455343409609513
  0.6156030822068664  0.6143618600904927  0.1518850579313808
  0.0412515544416837  0.3814907171513735  0.6134438534874581
  0.5205330955026680  0.2224819947242126  0.5820614906492674
  0.1330031028051129 -0.0037438650183310  0.5478001843666965
  0.9684089031989883  0.8377485380697647  0.3001012998211578
  0.7251236923844042  0.6880137608655058  0.5533429939589642
  0.1822101393643632  0.8430836290986525  0.0098079507797885
  0.4738329309318639  0.0836535912515322  0.4056816503182519
  0.4923326091964796  0.9840496665465751  0.1583887087245479
  0.6267599390694070  0.7192802961622974  0.9390628283923214
  0.8253751467375150  0.0368529824839411  0.8166407356874167
  0.7145807167896879  0.2817692801129831  0.7469665324544303
  0.4525804337807961  0.8334963639802924  0.3330459011608286
  0.0719614964786914  0.0574884531798898  0.7688503781129939
  0.7933755244959260  0.1780720163512024  0.5652105224130968
  0.9474098934972197  0.6858854603016851  0.5767740814645583
  0.3264148654801712  0.5696588560509357  0.7261138011540609
  0.2659083832121875  0.7639685476076796  0.4273949944849404
  0.6674041596505190  0.8338037944558517  0.1244323498797431
  0.3389266904382758  0.0164510788106002  0.0137284966956898
  0.9705041813453580  0.9388259263842639  0.9249574000336732
  0.2742047257836727  0.5076749095471575  0.9794154439014749
  0.4769114483631314  0.3907422152315900  0.6871079939792919
  0.8895509181281903  0.9856707947670345  0.6088415629522170
  0.4194033698902719  0.3923283983658868  0.4855347521131176
  0.8593036705780654  0.9288149380581645  0.1190188141039168
  0.9188006338883410  0.4814146531196052  0.0514468444455698
  0.8379116330995964  0.8018195430722286  0.9589350371908366
  0.5483610708534512  0.4959134039043565  0.3271005348139190
  0.1452881707189207  0.6094011408149468  0.4940378425992940
  0.6879030439995177  0.9228820389450919  0.8767717269017923
  0.0603602881400311  0.7188021646750192  0.8699284604479843
  0.1239103518846357  0.1909747710899912  0.4777192840665475
  0.5708578551540775  0.0559350459195408  0.6983667559834967
  0.9596964421411973  0.1493978480190142  0.1881668072154802
  0.5301870180107084  0.6135588169756938  0.7963264407207232
  0.4577905627485222  0.7882410290817256  0.7039346970606412
  0.8335690713676359  0.4916131185245017  0.8333632479338469
  0.7877536551420573  0.3465242307539817  0.4013512831694919
  0.1057579037070421  0.6235987433054059  0.0895062925006133
  0.1732804149457757  0.1571283748679622  0.0669050894761865
  0.6694151036467511  0.0165495611040819  0.5162004217012489
  0.5887486305746583  0.4233832004194737  0.8988908986424754
  0.3354915627791363  0.8902018530591540  0.4950283375602498
  0.0747898311358462  0.0093825423081951  0.3446807593921218
  0.2039447917309510  0.4130785635374887  0.5107396078033327
  0.1991277475056418  0.3383583737146276  0.3109725439650159
  0.8439206703450715  0.6487005325359134  0.8985560790197220
  0.4854781595319902  0.9646483811993416  0.5921312161059885
  0.1577675056189586  0.6882877686898676  0.2895191120122892
  0.2543265286305158  0.1311009310867836  0.8347890064151090
  0.8851124270382035  0.5861111378574347  0.6826319084141960
  0.5091302517049179  0.3050939471643636  0.2157892430072180
  0.8524148354623647  0.0466340996773703  0.3591708305760061
  0.6492983996321837  0.7407967219207414  0.3252483494244748
  0.0541776038073274  0.4875932102051773  0.2283365291518435
  0.9864739282992647  0.3024316000504486  0.3219741570565983
  0.5514597049384675  0.2478744067831763  0.0145114074037447
  0.3427189965757446  0.3188495727560905  0.8366543357066955
  0.2549139542737212  0.7717926103216111  0.7550919230076353
  0.5416565525499284  0.0423779395075342  0.9146434031743338
  0.6523416850762896  0.4302494572256753  0.1087453985440332
  0.6561027053520957  0.1459719340844935  0.8322287984823726
  0.7818378386021262  0.5496930980231478  0.2506731453562400
  0.3221650076990585  0.6907723846204910  0.0954337483922255
  0.9365643985121802  0.5049085429071535  0.4381693399413546
  0.8385097154542317  0.3797001010692446  0.6214340242372937
  0.0644557192798911  0.8589003924877205  0.6868603847283181
  0.9093675079394878  0.2286969723641104  0.7199999990295232
  0.1147996530980981  0.5598609059492184  0.7080458248713886
  0.8429900791538623  0.1367566416570611 -0.0073673163298414
  0.5282579409683756  0.7805313362192571  0.5183039164673324
 
  0.00000000E+00  0.00000000E+00  0.00000000E+00
  0.00000000E+00  0.00000000E+00  0.00000000E+00
  0.00000000E+00  0.00000000E+00  0.00000000E+00
  0.00000000E+00  0.00000000E+00  0.00000000E+00
  0.00000000E+00  0.00000000E+00  0.00000000E+00
  0.00000000E+00  0.00000000E+00  0.00000000E+00
  0.00000000E+00  0.00000000E+00  0.00000000E+00
  0.00000000E+00  0.00000000E+00  0.00000000E+00
  0.00000000E+00  0.00000000E+00  0.00000000E+00
  0.00000000E+00  0.00000000E+00  0.00000000E+00
  0.00000000E+00  0.00000000E+00  0.00000000E+00
  0.00000000E+00  0.00000000E+00  0.00000000E+00
  0.00000000E+00  0.00000000E+00  0.00000000E+00
  0.00000000E+00  0.00000000E+00  0.00000000E+00
  0.00000000E+00  0.00000000E+00  0.00000000E+00
  0.00000000E+00  0.00000000E+00  0.00000000E+00
  0.00000000E+00  0.00000000E+00  0.00000000E+00
  0.00000000E+00  0.00000000E+00  0.00000000E+00
  0.00000000E+00  0.00000000E+00  0.00000000E+00
  0.00000000E+00  0.00000000E+00  0.00000000E+00
  0.00000000E+00  0.00000000E+00  0.00000000E+00
  0.00000000E+00  0.00000000E+00  0.00000000E+00
  0.00000000E+00  0.00000000E+00  0.00000000E+00
  0.00000000E+00  0.00000000E+00  0.00000000E+00
  0.00000000E+00  0.00000000E+00  0.00000000E+00
  0.00000000E+00  0.00000000E+00  0.00000000E+00
  0.00000000E+00  0.00000000E+00  0.00000000E+00
  0.00000000E+00  0.00000000E+00  0.00000000E+00
  0.00000000E+00  0.00000000E+00  0.00000000E+00
  0.00000000E+00  0.00000000E+00  0.00000000E+00
  0.00000000E+00  0.00000000E+00  0.00000000E+00
  0.00000000E+00  0.00000000E+00  0.00000000E+00
  0.00000000E+00  0.00000000E+00  0.00000000E+00
  0.00000000E+00  0.00000000E+00  0.00000000E+00
  0.00000000E+00  0.00000000E+00  0.00000000E+00
  0.00000000E+00  0.00000000E+00  0.00000000E+00
  0.00000000E+00  0.00000000E+00  0.00000000E+00
  0.00000000E+00  0.00000000E+00  0.00000000E+00
  0.00000000E+00  0.00000000E+00  0.00000000E+00
  0.00000000E+00  0.00000000E+00  0.00000000E+00
  0.00000000E+00  0.00000000E+00  0.00000000E+00
  0.00000000E+00  0.00000000E+00  0.00000000E+00
  0.00000000E+00  0.00000000E+00  0.00000000E+00
  0.00000000E+00  0.00000000E+00  0.00000000E+00
  0.00000000E+00  0.00000000E+00  0.00000000E+00
  0.00000000E+00  0.00000000E+00  0.00000000E+00
  0.00000000E+00  0.00000000E+00  0.00000000E+00
  0.00000000E+00  0.00000000E+00  0.00000000E+00
  0.00000000E+00  0.00000000E+00  0.00000000E+00
  0.00000000E+00  0.00000000E+00  0.00000000E+00
  0.00000000E+00  0.00000000E+00  0.00000000E+00
  0.00000000E+00  0.00000000E+00  0.00000000E+00
  0.00000000E+00  0.00000000E+00  0.00000000E+00
  0.00000000E+00  0.00000000E+00  0.00000000E+00
  0.00000000E+00  0.00000000E+00  0.00000000E+00
  0.00000000E+00  0.00000000E+00  0.00000000E+00
  0.00000000E+00  0.00000000E+00  0.00000000E+00
  0.00000000E+00  0.00000000E+00  0.00000000E+00
  0.00000000E+00  0.00000000E+00  0.00000000E+00
  0.00000000E+00  0.00000000E+00  0.00000000E+00
  0.00000000E+00  0.00000000E+00  0.00000000E+00
  0.00000000E+00  0.00000000E+00  0.00000000E+00
  0.00000000E+00  0.00000000E+00  0.00000000E+00
  0.00000000E+00  0.00000000E+00  0.00000000E+00
  0.00000000E+00  0.00000000E+00  0.00000000E+00
  0.00000000E+00  0.00000000E+00  0.00000000E+00
  0.00000000E+00  0.00000000E+00  0.00000000E+00
  0.00000000E+00  0.00000000E+00  0.00000000E+00
  0.00000000E+00  0.00000000E+00  0.00000000E+00
  0.00000000E+00  0.00000000E+00  0.00000000E+00
  0.00000000E+00  0.00000000E+00  0.00000000E+00
  0.00000000E+00  0.00000000E+00  0.00000000E+00
  0.00000000E+00  0.00000000E+00  0.00000000E+00
  0.00000000E+00  0.00000000E+00  0.00000000E+00
  0.00000000E+00  0.00000000E+00  0.00000000E+00
  0.00000000E+00  0.00000000E+00  0.00000000E+00
  0.00000000E+00  0.00000000E+00  0.00000000E+00
  0.00000000E+00  0.00000000E+00  0.00000000E+00
  0.00000000E+00  0.00000000E+00  0.00000000E+00
  0.00000000E+00  0.00000000E+00  0.00000000E+00
  0.00000000E+00  0.00000000E+00  0.00000000E+00
  0.00000000E+00  0.00000000E+00  0.00000000E+00
  0.00000000E+00  0.00000000E+00  0.00000000E+00
  0.00000000E+00  0.00000000E+00  0.00000000E+00
  0.00000000E+00  0.00000000E+00  0.00000000E+00
  0.00000000E+00  0.00000000E+00  0.00000000E+00
  0.00000000E+00  0.00000000E+00  0.00000000E+00
  0.00000000E+00  0.00000000E+00  0.00000000E+00
  0.00000000E+00  0.00000000E+00  0.00000000E+00
  0.00000000E+00  0.00000000E+00  0.00000000E+00
  0.00000000E+00  0.00000000E+00  0.00000000E+00
  0.00000000E+00  0.00000000E+00  0.00000000E+00
  0.00000000E+00  0.00000000E+00  0.00000000E+00
  0.00000000E+00  0.00000000E+00  0.00000000E+00
  0.00000000E+00  0.00000000E+00  0.00000000E+00
  0.00000000E+00  0.00000000E+00  0.00000000E+00
  0.00000000E+00  0.00000000E+00  0.00000000E+00
  0.00000000E+00  0.00000000E+00  0.00000000E+00
  0.00000000E+00  0.00000000E+00  0.00000000E+00
  0.00000000E+00  0.00000000E+00  0.00000000E+00
  0.00000000E+00  0.00000000E+00  0.00000000E+00
  0.00000000E+00  0.00000000E+00  0.00000000E+00
  0.00000000E+00  0.00000000E+00  0.00000000E+00
  0.00000000E+00  0.00000000E+00  0.00000000E+00
  0.00000000E+00  0.00000000E+00  0.00000000E+00
  0.00000000E+00  0.00000000E+00  0.00000000E+00
  0.00000000E+00  0.00000000E+00  0.00000000E+00
  0.00000000E+00  0.00000000E+00  0.00000000E+00
  0.00000000E+00  0.00000000E+00  0.00000000E+00
  0.00000000E+00  0.00000000E+00  0.00000000E+00
  0.00000000E+00  0.00000000E+00  0.00000000E+00
  0.00000000E+00  0.00000000E+00  0.00000000E+00
  0.00000000E+00  0.00000000E+00  0.00000000E+00
  0.00000000E+00  0.00000000E+00  0.00000000E+00
  0.00000000E+00  0.00000000E+00  0.00000000E+00
  0.00000000E+00  0.00000000E+00  0.00000000E+00
  0.00000000E+00  0.00000000E+00  0.00000000E+00
  0.00000000E+00  0.00000000E+00  0.00000000E+00
  0.00000000E+00  0.00000000E+00  0.00000000E+00
  0.00000000E+00  0.00000000E+00  0.00000000E+00
  0.00000000E+00  0.00000000E+00  0.00000000E+00
  0.00000000E+00  0.00000000E+00  0.00000000E+00
  0.00000000E+00  0.00000000E+00  0.00000000E+00
  0.00000000E+00  0.00000000E+00  0.00000000E+00
  0.00000000E+00  0.00000000E+00  0.00000000E+00
  0.00000000E+00  0.00000000E+00  0.00000000E+00
  0.00000000E+00  0.00000000E+00  0.00000000E+00
  0.00000000E+00  0.00000000E+00  0.00000000E+00
  0.00000000E+00  0.00000000E+00  0.00000000E+00
  0.00000000E+00  0.00000000E+00  0.00000000E+00
  0.00000000E+00  0.00000000E+00  0.00000000E+00
  0.00000000E+00  0.00000000E+00  0.00000000E+00
  0.00000000E+00  0.00000000E+00  0.00000000E+00
  0.00000000E+00  0.00000000E+00  0.00000000E+00
  0.00000000E+00  0.00000000E+00  0.00000000E+00
  0.00000000E+00  0.00000000E+00  0.00000000E+00
  0.00000000E+00  0.00000000E+00  0.00000000E+00
  0.00000000E+00  0.00000000E+00  0.00000000E+00
  0.00000000E+00  0.00000000E+00  0.00000000E+00
  0.00000000E+00  0.00000000E+00  0.00000000E+00
  0.00000000E+00  0.00000000E+00  0.00000000E+00
  0.00000000E+00  0.00000000E+00  0.00000000E+00
  0.00000000E+00  0.00000000E+00  0.00000000E+00
  0.00000000E+00  0.00000000E+00  0.00000000E+00
  0.00000000E+00  0.00000000E+00  0.00000000E+00
  0.00000000E+00  0.00000000E+00  0.00000000E+00
  0.00000000E+00  0.00000000E+00  0.00000000E+00
  0.00000000E+00  0.00000000E+00  0.00000000E+00
  0.00000000E+00  0.00000000E+00  0.00000000E+00
  0.00000000E+00  0.00000000E+00  0.00000000E+00
  0.00000000E+00  0.00000000E+00  0.00000000E+00
  0.00000000E+00  0.00000000E+00  0.00000000E+00
  0.00000000E+00  0.00000000E+00  0.00000000E+00
  0.00000000E+00  0.00000000E+00  0.00000000E+00
  0.00000000E+00  0.00000000E+00  0.00000000E+00
  0.00000000E+00  0.00000000E+00  0.00000000E+00
  0.00000000E+00  0.00000000E+00  0.00000000E+00
  0.00000000E+00  0.00000000E+00  0.00000000E+00
  0.00000000E+00  0.00000000E+00  0.00000000E+00
  0.00000000E+00  0.00000000E+00  0.00000000E+00
  0.00000000E+00  0.00000000E+00  0.00000000E+00
  0.00000000E+00  0.00000000E+00  0.00000000E+00
  0.00000000E+00  0.00000000E+00  0.00000000E+00
  0.00000000E+00  0.00000000E+00  0.00000000E+00
  0.00000000E+00  0.00000000E+00  0.00000000E+00
  0.00000000E+00  0.00000000E+00  0.00000000E+00
  0.00000000E+00  0.00000000E+00  0.00000000E+00
  0.00000000E+00  0.00000000E+00  0.00000000E+00
  0.00000000E+00  0.00000000E+00  0.00000000E+00
  0.00000000E+00  0.00000000E+00  0.00000000E+00
  0.00000000E+00  0.00000000E+00  0.00000000E+00
  0.00000000E+00  0.00000000E+00  0.00000000E+00
  0.00000000E+00  0.00000000E+00  0.00000000E+00
  0.00000000E+00  0.00000000E+00  0.00000000E+00
  0.00000000E+00  0.00000000E+00  0.00000000E+00
  0.00000000E+00  0.00000000E+00  0.00000000E+00
  0.00000000E+00  0.00000000E+00  0.00000000E+00
  0.00000000E+00  0.00000000E+00  0.00000000E+00
  0.00000000E+00  0.00000000E+00  0.00000000E+00
  0.00000000E+00  0.00000000E+00  0.00000000E+00
  0.00000000E+00  0.00000000E+00  0.00000000E+00
  0.00000000E+00  0.00000000E+00  0.00000000E+00
  0.00000000E+00  0.00000000E+00  0.00000000E+00
  0.00000000E+00  0.00000000E+00  0.00000000E+00
  0.00000000E+00  0.00000000E+00  0.00000000E+00
  0.00000000E+00  0.00000000E+00  0.00000000E+00
  0.00000000E+00  0.00000000E+00  0.00000000E+00
  0.00000000E+00  0.00000000E+00  0.00000000E+00
  0.00000000E+00  0.00000000E+00  0.00000000E+00
  0.00000000E+00  0.00000000E+00  0.00000000E+00
  0.00000000E+00  0.00000000E+00  0.00000000E+00
  0.00000000E+00  0.00000000E+00  0.00000000E+00
  0.00000000E+00  0.00000000E+00  0.00000000E+00
  0.00000000E+00  0.00000000E+00  0.00000000E+00
  0.00000000E+00  0.00000000E+00  0.00000000E+00
  0.00000000E+00  0.00000000E+00  0.00000000E+00
  0.00000000E+00  0.00000000E+00  0.00000000E+00
  0.00000000E+00  0.00000000E+00  0.00000000E+00
  0.00000000E+00  0.00000000E+00  0.00000000E+00
  0.00000000E+00  0.00000000E+00  0.00000000E+00
