GST                                     
   1.00000000000000     
    20.6004122323061729    0.0000000000000000    0.0000000000000000
     0.0000000000000000   20.6004122323061729    0.0000000000000000
     0.0000000000000000    0.0000000000000000   20.6004122323061729
   Ge   Sb   Se
    68    68   170
Direct
  0.2568927000000000  0.5231610000000000  0.9363143300000000
  0.6635916200000000  0.1805995700000000  0.7438133300000001
  0.0564889250000000  0.4084069600000000  0.9805225600000000
  0.1282191400000000  0.2974570000000000  0.2612818200000000
  0.4551959000000000  0.5030987800000000  0.7185493100000000
  0.2944006100000000  0.7145877700000000  0.6919906200000000
  0.9802050600000000  0.9628374200000001  0.5519760300000000
  0.8171424400000000  0.1785944400000000  0.6512772400000000
  0.6516688400000000  0.8086833700000000  0.4761460800000000
  0.8822076599999999  0.2260518100000000  0.1873655800000000
  0.2530177000000000  0.8372455300000000  0.6928290300000000
  0.2408100400000000  0.3518771200000000  0.9440256800000000
  0.8384952700000000  0.1327519100000000  0.9911693499999999
  0.5576107000000000  0.8000523700000000  0.9410871500000000
  0.9015919900000000 -0.0015072033000000  0.1759241900000000
  0.6698238399999999  0.8509780000000000  0.2099865800000000
  0.0992498400000000  0.6032956000000000  0.5211751900000000
  0.0370322910000000  0.7021991400000001  0.3315224500000000
  0.8140269600000000  0.4259550300000000  0.1484326900000000
  0.6946788500000000  0.0376312260000000  0.1589120300000000
  0.8857301000000000  0.9848833000000000  0.7108840900000000
 -0.0121461150000000  0.6727341300000000  0.6599103100000000
  0.7679233700000000  0.1931653000000000  0.8829946800000000
  0.3068977500000000  0.8817595800000000  0.0268955950000000
  0.4994612900000000  0.0208567240000000  0.6275011600000000
  0.3274678100000000  0.0950665370000000  0.5707128299999999
  0.0418352150000000  0.2085334200000000  0.3171744700000000
  0.2699912800000000  0.7100301300000000  0.9151577900000000
  0.8863845900000000  0.1889816200000000  0.3835026700000000
  0.4797318400000000  0.7468488200000000  0.6440840000000000
  0.7807227700000000  0.5340540900000000  0.5151589500000000
  0.5682852600000000  0.4385396300000000  0.7059114900000000
 -0.0037603538000000  0.2526474300000000  0.5818464000000000
  0.8400221600000000  0.2928021000000000  0.6955977400000000
  0.5554623500000000  0.6325833500000000  0.7967248099999999
  0.0082814574000000  0.1863972400000000  0.0576653650000000
  0.5549189300000000  0.7753840600000000  0.2268407600000000
  0.1002126100000000  0.6854612000000000  0.8284384200000000
  0.0104503880000000  0.6014681100000000  0.9745975300000000
  0.1902000900000000  0.6426338500000000  0.9935911300000000
  0.7320349700000000  0.6765410500000000  0.0434837600000000
  0.9394650800000000  0.8407819600000001  0.6952286500000000
  0.6838072400000000  0.6539341600000000  0.5697749700000000
  0.7239720900000000  0.2585967900000000  0.5462134300000000
  0.7072028600000000  0.5455587000000000  0.7212392200000000
  0.1264198500000000  0.0833507040000000  0.6352383500000000
  0.4560647100000000  0.8726935300000001  0.9430693200000000
  0.1136977300000000  0.8728705800000000  0.8482560900000000
  0.5340168500000000  0.6223221500000000  0.1653730200000000
  0.6549426400000000  0.7752727400000000  0.7003997400000000
  0.1567174300000000  0.7952675700000000  0.0961378250000000
  0.1539804200000000  0.2823377500000000  0.6704143800000000
  0.1051857500000000  0.2355345200000000  0.9318693500000000
  0.5812339300000000  0.4556860000000000  0.2370185300000000
  0.9652767300000000  0.8240505100000000  0.5608237000000000
  0.4781006600000000  0.7538695600000000  0.0800743090000000
  0.3538420900000000  0.1542451400000000  0.3344928200000000
  0.7165218000000000  0.5669097600000000  0.1050471300000000
  0.5984693400000000  0.4532767500000000  0.4347097500000000
  0.5166701299999999  0.0108471170000000  0.1438854800000000
  0.8968865700000000  0.7782567100000000  0.4107734700000000
  0.7170998900000000  0.9559669600000000  0.0649768710000000
  0.1621749700000000  0.6440149800000000  0.1794702600000000
  0.9623226200000000  0.1312297600000000  0.7439720500000000
  0.0675518010000000  0.7605032800000000  0.6199330199999999
  0.0119726230000000  0.8706048199999999  0.1153357400000000
  0.1178479000000000  0.4570870100000000  0.3416969000000000
  0.6199607900000000  0.2265588800000000  0.8916965800000000
  0.4474331600000000  0.1925706200000000  0.7820094399999999
  0.9654429900000000  0.9627186400000000  0.9525979300000000
  0.2901099700000000  0.3526378300000000  0.3446095300000000
  0.4433089700000000  0.3730500500000000 -0.0282540680000000
  0.1647847900000000  0.9604470800000000  0.1453334000000000
  0.9139284500000000  0.3113439900000000  0.9293470900000000
  0.8059001700000000  0.4904082700000000  0.3415344700000000
  0.2721464200000000  0.5654130400000000  0.6396382700000000
  0.8636572100000000  0.7346137400000000  0.1015082000000000
  0.4729015600000000  0.7981261600000000  0.4136707900000000
  0.6108239300000000  0.1720834100000000  0.4197272900000000
  0.0194713880000000  0.0046119450000000  0.3105155200000000
  0.5197810300000000  0.5779233100000000  0.5585693900000001
  0.2486172500000000  0.7598182500000000  0.5205708800000000
  0.1036332600000000  0.5285673100000000  0.6932411500000000
  0.1903750000000000  0.3757083400000000  0.7617258600000000
  0.5205292900000000  0.2532258100000000  0.6157627700000000
  0.7158175600000000  0.1972095400000000  0.0442161100000000
  0.5894350300000000  0.9391490400000000  0.7780436100000000
  0.4874884800000000  0.6171183000000000  0.3419837400000000
  0.2500981400000000  0.2776453300000000  0.0547852930000000
  0.1856683400000000  0.6049449099999999  0.3694720600000000
  0.7075620400000000  0.4227438000000000  0.5358025800000000
  0.8206354200000000  0.7626206300000000  0.8193299300000000
  0.3010164700000000  0.6856364500000000  0.3250882000000000
  0.0746792490000000  0.8189945300000000  0.2756184600000000
  0.6895562200000001 -0.0019587735000000  0.6403976200000000
  0.4147443400000000  0.5649232100000000  0.0194858060000000
  0.7426035000000000  0.3027896600000000  0.3177221000000000
  0.3524076200000000  0.0974817150000000  0.1887505000000000
  0.2852037600000000  0.5367745800000000  0.7812685300000000
  0.3821016800000000  0.1810637900000000  0.9455426700000000
  0.3590826500000000  0.7361939199999999  0.1565254100000000
  0.8348289800000001  0.6000104200000000  0.9176060900000000
  0.9395008800000000  0.7825323900000000 -0.0391269050000000
  0.3244435900000000  0.4641144700000000  0.1976499000000000
  0.5620729500000000  0.0322386780000000  0.9776444399999999
  0.7506789400000000  0.9556500500000000  0.9336160900000000
  0.7326504600000000  0.9588185900000000  0.7748649900000000
  0.7508108100000001  0.1248958100000000  0.2503721000000000
  0.6566494800000000  0.7030547000000000  0.8818774800000000
  0.9406234300000000  0.3868381700000000  0.4428435700000000
  0.3233994800000000  0.8534680000000000  0.2439621000000000
  0.2455877000000000  0.1478527000000000  0.7562741300000000
  0.1505705600000000  0.4897915800000000  0.1677544200000000
  0.7772863100000000  0.4280483800000000  0.8473649800000000
  0.5015729700000000  0.0202967410000000  0.4906158400000000
  0.0602565910000000  0.0992739090000000  0.8676406200000000
  0.0461389150000000  0.1131298900000000  0.4837052000000000
  0.1327168700000000  0.8528803000000000  0.4030386200000000
  0.4656862600000000  0.9249227100000000  0.3489272500000000
  0.2663922200000000  0.9741414100000000  0.4336322200000000
  0.4312144100000000  0.8651607100000001  0.7853869100000000
  0.2175336900000000  0.4623320500000000  0.4787238500000000
  0.8118126000000000  0.0486603880000000  0.5091216500000000
 -0.0004050766300000  0.4849395900000000  0.6025163900000000
  0.6749839900000000  0.9583822100000000  0.3728418800000000
  0.9103348500000000  0.5130147700000000  0.1740533500000000
  0.2824392000000000  0.9698390800000000  0.8747724400000000
  0.8455400400000000  0.9009648400000000  0.3736694300000000
  0.8214721000000000  0.4319277800000000  0.6405375600000000
  0.4900376700000000  0.1877158800000000  0.1546867900000000
  0.6450576000000000  0.6534772100000000  0.3812559600000000
  0.3586263700000000  0.3816479500000000  0.6270345400000000
  0.1955802800000000  0.0409976780000000  0.0236794660000000
  0.2092404900000000  0.2073648900000000  0.4075145000000000
  0.5513546000000000  0.6144967700000000 -0.0019058359000000
  0.4192007800000000  0.5957900400000000  0.8128210000000000
  0.1105256500000000  0.7022871500000000  0.4339198700000000
  0.2518593700000000  0.1800945900000000 -0.0315062430000000
  0.1972075700000000  0.9147985800000000  0.7637556300000000
  0.5785222600000000  0.8241199100000000  0.3411913400000000
  0.5358892200000001  0.3604706700000000  0.1664041800000000
  0.3449757500000000  0.9242124900000001  0.7034833700000001
  0.8500190600000000  0.0354038720000000  0.9143952900000000
  0.2712891700000000  0.7568087300000000  0.0585194240000000
  0.8748967300000000  0.1524335500000000  0.5526767700000000
  0.9036456200000000  0.3358227700000000  0.5536781700000000
  0.7369544099999999  0.2041765700000000  0.4346494200000000
  0.2657100800000000  0.8234820400000000  0.4080944700000000
  0.7913939500000000  0.6960569400000000  0.2050959600000000
  0.2363916300000000  0.1306040000000000  0.1209770400000000
  0.3948846900000000  0.5259915800000000  0.6136860100000000
  0.6064453600000000  0.0972234630000000  0.1029738500000000
  0.3756688000000000  0.2242196900000000  0.2034232800000000
  0.8391559100000000  0.1022527300000000  0.7424436700000000
  0.7785422700000000  0.3832515000000000  0.4148690000000000
  0.6018083500000000  0.5291693200000001  0.1173541300000000
  0.5917577400000000  0.3554003800000000 -0.0051677557000000
  0.3315818600000000  0.4136772100000000  0.4564132700000000
  0.3462352500000000  0.2530537600000000  0.4103314800000000
  0.4563577800000000  0.9064938200000000  0.6536629100000000
  0.8170253100000000  0.5379904700000000  0.7969618200000000
  0.8685727300000000  0.2888985500000000  0.3044370000000000
 -0.0082446514000000  0.2463592300000000  0.4247754600000000
  0.7683747100000000  0.8435526400000000  0.7286003200000000
  0.3587866200000000  0.1052491900000000  0.8243814000000000
  0.4206674200000000  0.1006823100000000  0.6563416700000000
  0.6458112800000000  0.5302452200000000  0.3499387500000000
  0.4023219300000000  0.6746680000000000  0.5753589800000000
  0.4675111000000000  0.9805181200000000  0.8961364700000000
  0.5848131600000001  0.2744866000000000  0.7272911000000000
  0.5817240600000000  0.0605646830000000  0.7065377400000000
  0.0446446900000000  0.4552089900000000  0.4848997300000000
  0.3316973600000000  0.2701458300000000  0.6909758300000000
  0.3216740300000000  0.0145902180000000 -0.0060023240000000
  0.2455938400000000  0.0532893880000000  0.6678347600000000
  0.5207661700000000  0.4000292000000000  0.3502879900000000
  0.4459823900000000  0.7238149600000000  0.2740557900000000
  0.6045219600000000  0.8940670300000000  0.6557691900000000
  0.0444886910000000  0.8510557500000000 -0.0109746260000000
  0.4672747600000000  0.5205656600000000  0.9088791300000000
  0.3055542800000000  0.6292454400000000  0.2065824600000000
  0.1895335500000000  0.0683396610000000  0.2116796700000000
 -0.0006353712100000  0.2698369500000000  0.1601044400000000
  0.9039924499999999  0.9197646000000000  0.0805347080000000
  0.0467194070000000  0.0637993450000000 -0.0074659152000000
  0.5918057600000000  0.2815711700000000  0.2323290100000000
  0.3874266500000000  0.3751834100000000  0.2602298900000000
  0.0695185540000000  0.1759698400000000  0.1630543600000000
  0.4313846600000000  0.8724943200000000  0.0608751110000000
  0.8817332100000000  0.5131185500000000  0.4549475500000000
  0.9762425200000000  0.6900200500000000  0.8808479000000000
  0.3532011100000000  0.9763483100000000  0.5300522800000000
  0.0317127040000000  0.3159446800000000  0.8752828900000000
  0.9320466800000000  0.9067971000000000  0.2753586300000000
  0.1096703800000000  0.1171003700000000  0.3685146100000000
  0.8229314400000000  0.9597001700000000  0.6062277900000000
  0.6048656500000000  0.9222406200000000  0.0310542340000000
  0.1856069100000000  0.9227899200000000  0.9456114600000000
  0.9289089100000000  0.6720975100000000  0.3624603400000000
  0.1086729300000000  0.1821432900000000  0.7211029200000000
  0.8120011100000000  0.5655254100000000  0.6251114900000000
  0.9797457400000000  0.7563471800000000  0.1513707600000000
  0.7018638500000000  0.1554070500000000  0.6230964200000000
  0.9230239600000000  0.0149826530000000  0.4544492700000000
  0.5248621600000000  0.1484722100000000  0.8756162000000000
  0.8860093400000000  0.3683338700000000  0.8162338900000000
  0.7354154300000000  0.4150590300000000  0.2385326100000000
  0.1904328100000000  0.0774272900000000  0.8520455300000001
  0.7465498500000000  0.7855601000000000  0.9258434000000000
  0.9037860100000000  0.1867720500000000  0.8962563400000000
  0.6139342600000000  0.7096322000000000  0.0641900760000000
  0.2485798400000000  0.5871253300000000  0.4886475600000000
  0.9855073400000000  0.0354320750000000  0.6563676500000000
  0.7510028500000000  0.2646973600000000  0.7827169500000000
  0.9054300700000000  0.1197021600000000  0.0908440050000000
  0.1658546900000000  0.4396150400000000  0.9174908500000000
  0.5660602600000000  0.6615903200000000  0.6786572100000000
  0.4648584700000000  0.7118161100000000  0.9589729900000000
  0.1357704500000000  0.3400350300000000  0.3792885100000000
  0.1464573700000000  0.9517714600000000  0.3136410700000000
  0.1468093300000000  0.6656563100000000  0.6185752200000000
  0.2297244100000000  0.3862321200000000  0.1534509100000000
  0.6296769500000000  0.0561773160000000  0.4797316800000000
  0.2939322900000000  0.9333138900000000  0.1456898400000000
  0.2502350700000000  0.2395852900000000  0.6102154700000000
  0.5835797800000000  0.3437756400000000  0.8760870800000000
  0.2403013500000000  0.6639670100000000  0.7928238900000000
  0.7465845900000000  0.4599979200000000  0.0569264630000000
  0.3316857800000000  0.4221127000000000  0.9130157100000000
  0.7079765500000000  0.5932538000000001  0.9480878300000000
  0.5880730400000000  0.2421806300000000  0.0194488460000000
  0.7795839600000000  0.5808128200000000  0.2112244500000000
  0.2268408500000000  0.2164520600000000  0.2798087500000000
  0.2869965500000000  0.1053883300000000  0.4319384900000000
  0.3740970900000000  0.7865201100000000  0.5456128000000000
  0.7810517300000001  0.0284297740000000  0.3478450200000000
  0.1472292900000000  0.1654406600000000  0.5442917200000000
  0.2151772800000000  0.4517159400000000  0.6133568900000000
  0.4913405300000000  0.5095895700000000  0.4527388300000000
  0.2367767200000000  0.4903422100000000  0.3034130900000000
  0.9014495900000000  0.8624163400000000  0.8674481500000000
  0.7285755700000000  0.2352373400000000  0.1641725600000000
  0.8675918400000000  0.4834398200000000  0.9645235100000000
  0.8679084500000001  0.3306567900000000  0.1076736900000000
  0.8834674900000000  0.7301749500000000  0.6853472100000000
  0.9471079400000000  0.1353577800000000  0.2870890500000000
  0.4294658000000000  0.0964370680000000  0.0781580030000000
  0.3897927500000000  0.2793613600000000  0.8609539899999999
  0.6052593800000000  0.2851937800000000  0.5248092200000000
  0.1978179600000000  0.8579205400000000  0.5881594600000000
  0.5700376600000000  0.8038694000000000  0.8145893700000000
  0.7602739700000000  0.2891208000000000  0.9632071200000000
  0.9939746200000000  0.8461171800000000  0.4409784600000000
  0.7243837500000000  0.9101593100000001  0.4826505900000000
  0.0756994660000000  0.6107726900000000  0.2662628600000000
  0.5287055300000000  0.2857724300000000  0.3348140200000000
  0.6257019400000000  0.9656787100000001  0.2236990100000000
  0.4848970500000000  0.0861036870000000  0.2398188500000000
  0.5416822400000000  0.8635199099999999  0.5049970200000000
  0.6323272800000000  0.1344048500000000  0.2937469700000000
  0.1192495100000000  0.2994793200000000  0.0366820960000000
  0.3715524400000000  0.6040982300000000  0.3944952400000000
  0.3460164900000000  0.8434923000000000  0.8940802400000000
  0.0853794370000000  0.3377685300000000  0.5933766200000000
  0.8802288900000000  0.6167665500000000  0.0533679090000000
  0.9208680100000000  0.4595069200000000  0.2935027900000000
  0.4770345400000000  0.5348809500000000  0.2418363400000000
  0.6663529000000000  0.0500401780000000  0.9031950100000000
  0.4302089700000000  0.4533633100000000  0.0804423360000000
  0.7184469500000000  0.6787901400000000  0.7715081200000000
  0.7095376000000000  0.7717456400000000  0.5852322500000000
  0.0000271847790000  0.5899076700000000  0.7449081300000000
  0.0912571700000000  0.9928267700000000  0.5105018600000000
  0.5788851800000000  0.6773649200000000  0.4978283100000000
  0.2021326500000000  0.2781941400000000  0.8530955700000000
  0.4579233000000000  0.1425434000000000  0.5016403200000000
  0.6044028100000000  0.5215459000000000  0.7997756900000000
  0.0242366390000000  0.0144458570000000  0.1829372500000000
  0.0179738720000000  0.9833558100000001  0.8305234500000001
  0.1813024500000000  0.7662178300000000  0.2206236800000000
  0.1024318300000000  0.6854205100000000  0.0679226240000000
  0.4466271200000000  0.8906597800000000  0.2254769700000000
  0.9738286300000000  0.6063921700000000  0.5580363400000000
  0.7189978400000000  0.4165589300000000  0.7237590400000000
  0.9550826400000000  0.2509915200000000  0.7080158700000000
  0.2409831800000000  0.5499099200000001  0.0563421090000000
  0.8740038900000000  0.7562525000000000  0.5262991900000000
  0.6202214600000000  0.6701743100000001  0.2408473200000000
  0.3994930800000000  0.2782650300000000  0.0445941440000000
  0.1189618500000000  0.5866372000000000  0.9071764800000000
  0.0608619350000000  0.5044189300000000  0.0735455610000000
  0.0632857150000000  0.4258397000000000  0.2370131500000000
  0.1604262900000000  0.7659573400000000  0.9061336100000000
  0.7456376900000000  0.8540530700000000  0.1163009300000000
  0.6224294100000000  0.5026922400000000  0.6099974000000000
  0.0717643560000000  0.4225442400000000  0.7621003900000000
  0.9719575600000000  0.5010811800000000  0.9066772100000000
  0.9710072300000000  0.4211521700000000  0.0956527470000000
  0.4695711900000000  0.1242516900000000  0.3836941600000000
  0.7392224300000000  0.8481153800000000  0.3160964800000000
  0.4039298900000000  0.7401105600000000  0.7466683300000000
  0.3745271300000000  0.4189917100000000  0.7508003800000000
  0.7562101800000000  0.6410469800000000  0.4638705900000000
  0.0525580240000000  0.8118513400000000  0.7288581000000000
  0.3417412800000000  0.9731757800000000  0.3291772200000000
  0.4850674000000000  0.3745711600000000  0.5954710200000000
 
  0.00000000E+00  0.00000000E+00  0.00000000E+00
  0.00000000E+00  0.00000000E+00  0.00000000E+00
  0.00000000E+00  0.00000000E+00  0.00000000E+00
  0.00000000E+00  0.00000000E+00  0.00000000E+00
  0.00000000E+00  0.00000000E+00  0.00000000E+00
  0.00000000E+00  0.00000000E+00  0.00000000E+00
  0.00000000E+00  0.00000000E+00  0.00000000E+00
  0.00000000E+00  0.00000000E+00  0.00000000E+00
  0.00000000E+00  0.00000000E+00  0.00000000E+00
  0.00000000E+00  0.00000000E+00  0.00000000E+00
  0.00000000E+00  0.00000000E+00  0.00000000E+00
  0.00000000E+00  0.00000000E+00  0.00000000E+00
  0.00000000E+00  0.00000000E+00  0.00000000E+00
  0.00000000E+00  0.00000000E+00  0.00000000E+00
  0.00000000E+00  0.00000000E+00  0.00000000E+00
  0.00000000E+00  0.00000000E+00  0.00000000E+00
  0.00000000E+00  0.00000000E+00  0.00000000E+00
  0.00000000E+00  0.00000000E+00  0.00000000E+00
  0.00000000E+00  0.00000000E+00  0.00000000E+00
  0.00000000E+00  0.00000000E+00  0.00000000E+00
  0.00000000E+00  0.00000000E+00  0.00000000E+00
  0.00000000E+00  0.00000000E+00  0.00000000E+00
  0.00000000E+00  0.00000000E+00  0.00000000E+00
  0.00000000E+00  0.00000000E+00  0.00000000E+00
  0.00000000E+00  0.00000000E+00  0.00000000E+00
  0.00000000E+00  0.00000000E+00  0.00000000E+00
  0.00000000E+00  0.00000000E+00  0.00000000E+00
  0.00000000E+00  0.00000000E+00  0.00000000E+00
  0.00000000E+00  0.00000000E+00  0.00000000E+00
  0.00000000E+00  0.00000000E+00  0.00000000E+00
  0.00000000E+00  0.00000000E+00  0.00000000E+00
  0.00000000E+00  0.00000000E+00  0.00000000E+00
  0.00000000E+00  0.00000000E+00  0.00000000E+00
  0.00000000E+00  0.00000000E+00  0.00000000E+00
  0.00000000E+00  0.00000000E+00  0.00000000E+00
  0.00000000E+00  0.00000000E+00  0.00000000E+00
  0.00000000E+00  0.00000000E+00  0.00000000E+00
  0.00000000E+00  0.00000000E+00  0.00000000E+00
  0.00000000E+00  0.00000000E+00  0.00000000E+00
  0.00000000E+00  0.00000000E+00  0.00000000E+00
  0.00000000E+00  0.00000000E+00  0.00000000E+00
  0.00000000E+00  0.00000000E+00  0.00000000E+00
  0.00000000E+00  0.00000000E+00  0.00000000E+00
  0.00000000E+00  0.00000000E+00  0.00000000E+00
  0.00000000E+00  0.00000000E+00  0.00000000E+00
  0.00000000E+00  0.00000000E+00  0.00000000E+00
  0.00000000E+00  0.00000000E+00  0.00000000E+00
  0.00000000E+00  0.00000000E+00  0.00000000E+00
  0.00000000E+00  0.00000000E+00  0.00000000E+00
  0.00000000E+00  0.00000000E+00  0.00000000E+00
  0.00000000E+00  0.00000000E+00  0.00000000E+00
  0.00000000E+00  0.00000000E+00  0.00000000E+00
  0.00000000E+00  0.00000000E+00  0.00000000E+00
  0.00000000E+00  0.00000000E+00  0.00000000E+00
  0.00000000E+00  0.00000000E+00  0.00000000E+00
  0.00000000E+00  0.00000000E+00  0.00000000E+00
  0.00000000E+00  0.00000000E+00  0.00000000E+00
  0.00000000E+00  0.00000000E+00  0.00000000E+00
  0.00000000E+00  0.00000000E+00  0.00000000E+00
  0.00000000E+00  0.00000000E+00  0.00000000E+00
  0.00000000E+00  0.00000000E+00  0.00000000E+00
  0.00000000E+00  0.00000000E+00  0.00000000E+00
  0.00000000E+00  0.00000000E+00  0.00000000E+00
  0.00000000E+00  0.00000000E+00  0.00000000E+00
  0.00000000E+00  0.00000000E+00  0.00000000E+00
  0.00000000E+00  0.00000000E+00  0.00000000E+00
  0.00000000E+00  0.00000000E+00  0.00000000E+00
  0.00000000E+00  0.00000000E+00  0.00000000E+00
  0.00000000E+00  0.00000000E+00  0.00000000E+00
  0.00000000E+00  0.00000000E+00  0.00000000E+00
  0.00000000E+00  0.00000000E+00  0.00000000E+00
  0.00000000E+00  0.00000000E+00  0.00000000E+00
  0.00000000E+00  0.00000000E+00  0.00000000E+00
  0.00000000E+00  0.00000000E+00  0.00000000E+00
  0.00000000E+00  0.00000000E+00  0.00000000E+00
  0.00000000E+00  0.00000000E+00  0.00000000E+00
  0.00000000E+00  0.00000000E+00  0.00000000E+00
  0.00000000E+00  0.00000000E+00  0.00000000E+00
  0.00000000E+00  0.00000000E+00  0.00000000E+00
  0.00000000E+00  0.00000000E+00  0.00000000E+00
  0.00000000E+00  0.00000000E+00  0.00000000E+00
  0.00000000E+00  0.00000000E+00  0.00000000E+00
  0.00000000E+00  0.00000000E+00  0.00000000E+00
  0.00000000E+00  0.00000000E+00  0.00000000E+00
  0.00000000E+00  0.00000000E+00  0.00000000E+00
  0.00000000E+00  0.00000000E+00  0.00000000E+00
  0.00000000E+00  0.00000000E+00  0.00000000E+00
  0.00000000E+00  0.00000000E+00  0.00000000E+00
  0.00000000E+00  0.00000000E+00  0.00000000E+00
  0.00000000E+00  0.00000000E+00  0.00000000E+00
  0.00000000E+00  0.00000000E+00  0.00000000E+00
  0.00000000E+00  0.00000000E+00  0.00000000E+00
  0.00000000E+00  0.00000000E+00  0.00000000E+00
  0.00000000E+00  0.00000000E+00  0.00000000E+00
  0.00000000E+00  0.00000000E+00  0.00000000E+00
  0.00000000E+00  0.00000000E+00  0.00000000E+00
  0.00000000E+00  0.00000000E+00  0.00000000E+00
  0.00000000E+00  0.00000000E+00  0.00000000E+00
  0.00000000E+00  0.00000000E+00  0.00000000E+00
  0.00000000E+00  0.00000000E+00  0.00000000E+00
  0.00000000E+00  0.00000000E+00  0.00000000E+00
  0.00000000E+00  0.00000000E+00  0.00000000E+00
  0.00000000E+00  0.00000000E+00  0.00000000E+00
  0.00000000E+00  0.00000000E+00  0.00000000E+00
  0.00000000E+00  0.00000000E+00  0.00000000E+00
  0.00000000E+00  0.00000000E+00  0.00000000E+00
  0.00000000E+00  0.00000000E+00  0.00000000E+00
  0.00000000E+00  0.00000000E+00  0.00000000E+00
  0.00000000E+00  0.00000000E+00  0.00000000E+00
  0.00000000E+00  0.00000000E+00  0.00000000E+00
  0.00000000E+00  0.00000000E+00  0.00000000E+00
  0.00000000E+00  0.00000000E+00  0.00000000E+00
  0.00000000E+00  0.00000000E+00  0.00000000E+00
  0.00000000E+00  0.00000000E+00  0.00000000E+00
  0.00000000E+00  0.00000000E+00  0.00000000E+00
  0.00000000E+00  0.00000000E+00  0.00000000E+00
  0.00000000E+00  0.00000000E+00  0.00000000E+00
  0.00000000E+00  0.00000000E+00  0.00000000E+00
  0.00000000E+00  0.00000000E+00  0.00000000E+00
  0.00000000E+00  0.00000000E+00  0.00000000E+00
  0.00000000E+00  0.00000000E+00  0.00000000E+00
  0.00000000E+00  0.00000000E+00  0.00000000E+00
  0.00000000E+00  0.00000000E+00  0.00000000E+00
  0.00000000E+00  0.00000000E+00  0.00000000E+00
  0.00000000E+00  0.00000000E+00  0.00000000E+00
  0.00000000E+00  0.00000000E+00  0.00000000E+00
  0.00000000E+00  0.00000000E+00  0.00000000E+00
  0.00000000E+00  0.00000000E+00  0.00000000E+00
  0.00000000E+00  0.00000000E+00  0.00000000E+00
  0.00000000E+00  0.00000000E+00  0.00000000E+00
  0.00000000E+00  0.00000000E+00  0.00000000E+00
  0.00000000E+00  0.00000000E+00  0.00000000E+00
  0.00000000E+00  0.00000000E+00  0.00000000E+00
  0.00000000E+00  0.00000000E+00  0.00000000E+00
  0.00000000E+00  0.00000000E+00  0.00000000E+00
  0.00000000E+00  0.00000000E+00  0.00000000E+00
  0.00000000E+00  0.00000000E+00  0.00000000E+00
  0.00000000E+00  0.00000000E+00  0.00000000E+00
  0.00000000E+00  0.00000000E+00  0.00000000E+00
  0.00000000E+00  0.00000000E+00  0.00000000E+00
  0.00000000E+00  0.00000000E+00  0.00000000E+00
  0.00000000E+00  0.00000000E+00  0.00000000E+00
  0.00000000E+00  0.00000000E+00  0.00000000E+00
  0.00000000E+00  0.00000000E+00  0.00000000E+00
  0.00000000E+00  0.00000000E+00  0.00000000E+00
  0.00000000E+00  0.00000000E+00  0.00000000E+00
  0.00000000E+00  0.00000000E+00  0.00000000E+00
  0.00000000E+00  0.00000000E+00  0.00000000E+00
  0.00000000E+00  0.00000000E+00  0.00000000E+00
  0.00000000E+00  0.00000000E+00  0.00000000E+00
  0.00000000E+00  0.00000000E+00  0.00000000E+00
  0.00000000E+00  0.00000000E+00  0.00000000E+00
  0.00000000E+00  0.00000000E+00  0.00000000E+00
  0.00000000E+00  0.00000000E+00  0.00000000E+00
  0.00000000E+00  0.00000000E+00  0.00000000E+00
  0.00000000E+00  0.00000000E+00  0.00000000E+00
  0.00000000E+00  0.00000000E+00  0.00000000E+00
  0.00000000E+00  0.00000000E+00  0.00000000E+00
  0.00000000E+00  0.00000000E+00  0.00000000E+00
  0.00000000E+00  0.00000000E+00  0.00000000E+00
  0.00000000E+00  0.00000000E+00  0.00000000E+00
  0.00000000E+00  0.00000000E+00  0.00000000E+00
  0.00000000E+00  0.00000000E+00  0.00000000E+00
  0.00000000E+00  0.00000000E+00  0.00000000E+00
  0.00000000E+00  0.00000000E+00  0.00000000E+00
  0.00000000E+00  0.00000000E+00  0.00000000E+00
  0.00000000E+00  0.00000000E+00  0.00000000E+00
  0.00000000E+00  0.00000000E+00  0.00000000E+00
  0.00000000E+00  0.00000000E+00  0.00000000E+00
  0.00000000E+00  0.00000000E+00  0.00000000E+00
  0.00000000E+00  0.00000000E+00  0.00000000E+00
  0.00000000E+00  0.00000000E+00  0.00000000E+00
  0.00000000E+00  0.00000000E+00  0.00000000E+00
  0.00000000E+00  0.00000000E+00  0.00000000E+00
  0.00000000E+00  0.00000000E+00  0.00000000E+00
  0.00000000E+00  0.00000000E+00  0.00000000E+00
  0.00000000E+00  0.00000000E+00  0.00000000E+00
  0.00000000E+00  0.00000000E+00  0.00000000E+00
  0.00000000E+00  0.00000000E+00  0.00000000E+00
  0.00000000E+00  0.00000000E+00  0.00000000E+00
  0.00000000E+00  0.00000000E+00  0.00000000E+00
  0.00000000E+00  0.00000000E+00  0.00000000E+00
  0.00000000E+00  0.00000000E+00  0.00000000E+00
  0.00000000E+00  0.00000000E+00  0.00000000E+00
  0.00000000E+00  0.00000000E+00  0.00000000E+00
  0.00000000E+00  0.00000000E+00  0.00000000E+00
  0.00000000E+00  0.00000000E+00  0.00000000E+00
  0.00000000E+00  0.00000000E+00  0.00000000E+00
  0.00000000E+00  0.00000000E+00  0.00000000E+00
  0.00000000E+00  0.00000000E+00  0.00000000E+00
  0.00000000E+00  0.00000000E+00  0.00000000E+00
  0.00000000E+00  0.00000000E+00  0.00000000E+00
  0.00000000E+00  0.00000000E+00  0.00000000E+00
  0.00000000E+00  0.00000000E+00  0.00000000E+00
  0.00000000E+00  0.00000000E+00  0.00000000E+00
  0.00000000E+00  0.00000000E+00  0.00000000E+00
  0.00000000E+00  0.00000000E+00  0.00000000E+00
  0.00000000E+00  0.00000000E+00  0.00000000E+00
  0.00000000E+00  0.00000000E+00  0.00000000E+00
  0.00000000E+00  0.00000000E+00  0.00000000E+00
  0.00000000E+00  0.00000000E+00  0.00000000E+00
  0.00000000E+00  0.00000000E+00  0.00000000E+00
  0.00000000E+00  0.00000000E+00  0.00000000E+00
  0.00000000E+00  0.00000000E+00  0.00000000E+00
  0.00000000E+00  0.00000000E+00  0.00000000E+00
  0.00000000E+00  0.00000000E+00  0.00000000E+00
  0.00000000E+00  0.00000000E+00  0.00000000E+00
  0.00000000E+00  0.00000000E+00  0.00000000E+00
  0.00000000E+00  0.00000000E+00  0.00000000E+00
  0.00000000E+00  0.00000000E+00  0.00000000E+00
  0.00000000E+00  0.00000000E+00  0.00000000E+00
  0.00000000E+00  0.00000000E+00  0.00000000E+00
  0.00000000E+00  0.00000000E+00  0.00000000E+00
  0.00000000E+00  0.00000000E+00  0.00000000E+00
  0.00000000E+00  0.00000000E+00  0.00000000E+00
  0.00000000E+00  0.00000000E+00  0.00000000E+00
  0.00000000E+00  0.00000000E+00  0.00000000E+00
  0.00000000E+00  0.00000000E+00  0.00000000E+00
  0.00000000E+00  0.00000000E+00  0.00000000E+00
  0.00000000E+00  0.00000000E+00  0.00000000E+00
  0.00000000E+00  0.00000000E+00  0.00000000E+00
  0.00000000E+00  0.00000000E+00  0.00000000E+00
  0.00000000E+00  0.00000000E+00  0.00000000E+00
  0.00000000E+00  0.00000000E+00  0.00000000E+00