Amorphous Sb                            
   1.00000000000000     
    21.2869625474341895    0.0000000000000000    0.0000000000000000
     0.0000000000000000   21.2869625474341895    0.0000000000000000
     0.0000000000000000    0.0000000000000000   21.2869625474341895
   Pb   Se
   150   150
Direct
  0.5039842899999982  0.0061609975999986  0.5282145299999996
  0.3754090700000035  0.5040132299999982  0.3821372900000028
  0.6496892600000024  0.8769534899999982  0.0475418300000001
  0.6916808200000020  0.2790016800000004  0.0914075749999981
  0.1689744500000003  0.6871353200000030  0.6421741799999978
  0.9845793799999996  0.2638741499999995  0.1453411800000026
  0.7228440900000024  0.4307810199999977  0.2144212299999992
  0.8741175600000020  0.9104156300000028  0.7038949100000025
  0.4195013300000028  0.2548229300000031  0.0200190300000003
  0.4444514999999996  0.2290433399999969  0.4194490000000002
  0.1053317200000023  0.1324188800000030  0.1787819899999974
  0.3780411999999984  0.8674826900000028  0.2636959900000022
  0.5867744700000017  0.7135843499999979  0.3300608600000032
  0.4100388900000027  0.6835323399999993  0.2881484700000030
  0.6246435400000010  0.1536075499999967  0.5209172899999999
  0.9709196199999965  0.6541608200000013  0.6638021899999984
  0.3417737600000024  0.0832334010000011  0.5350008799999983
  0.3086023400000002  0.2333167500000002  0.8641441299999997
  0.4378565700000010  0.3560511800000015  0.1722737199999997
  0.8079919899999979  0.4887661500000036  0.3945229500000025
  0.5362153000000021  0.3169396400000011  0.5255292299999965
  0.9986813200000029  0.3958482000000032  0.7473444000000029
  0.4267444999999981  0.5259420000000006  0.7562436700000035
  0.5229946999999981  0.5298760399999978  0.2484311400000010
  0.9336249699999968  0.3722126899999978  0.0158863560000029
  0.8446732000000026  0.9359961400000003  0.0893764110000035
  0.0112477360000014  0.0164117059999995  0.6152215099999978
  0.9015042400000013  0.7053551400000018  0.8321345600000001
  0.4072029800000010  0.8756669300000013  0.7101217199999965
  0.1819795199999987  0.7294652599999978  0.8232556399999993
  0.4943876199999977  0.8647299900000007  0.9611657700000009
  0.2515709299999997  0.1657010799999981  0.0501289569999983
  0.8106070500000015  0.3829299399999968  0.7250855699999974
  0.9396171599999974  0.1141023300000015  0.7592115799999988
  0.8790666499999986  0.6372845799999993  0.2285276900000000
  0.0456480490000004  0.4357283499999980  0.5394519199999976
  0.7771646699999977  0.2195491499999989  0.8227674600000014
  0.1380778500000019  0.0044944541999996  0.3480723999999995
  0.6125236800000025  0.2477367500000014  0.7139923200000027
  0.9966472207999999  0.6141060699999983  0.0599463069999970
  0.3250156499999974  0.5500007999999994  0.1722226300000003
  0.1778872200000023  0.3535096100000032  0.4347959899999978
  0.7013791400000002  0.0738181640000022  0.9487502599999971
  0.2642136699999966  0.9311616099999966  0.0228062580000028
  0.4260512399999996  0.3097449999999995  0.6805121700000001
  0.5837946899999977  0.2148150900000019  0.9449049400000007
  0.4179736000000034  0.4189269700000011  0.9365876800000024
  0.7068651800000012  0.8120878300000030  0.9049108500000003
  0.9861523599999984  0.5034997500000031  0.3467290700000021
  0.7851017200000001  0.9995352957700021  0.5174440899999979
  0.9306275300000024  0.2424850700000007  0.8786166399999971
  0.7794406000000009  0.9116638300000020  0.2977854399999984
  0.2440906200000015  0.8927773099999996  0.8388644899999989
  0.2564981700000004  0.7399721199999973  0.3503544599999984
  0.1884938199999979  0.3508150299999997  0.6547312900000009
  0.2441283100000007  0.9228306999999987  0.6163506600000019
  0.6277761899999987  0.4620969300000013  0.8106188000000003
  0.3662766799999986  0.0337220429999974  0.8665759599999987
  0.7399092300000021  0.2812148900000011  0.4566983699999980
  0.0641299580000023  0.8302587900000020  0.7628400899999974
  0.1433393699999996  0.7042764700000035  0.4616816899999989
  0.8518343400000035  0.7861906500000018  0.5698630300000005
  0.8010233999999983  0.5066043200000010  0.0310831359999995
  0.2660004099999966  0.5617238900000032  0.9100404599999976
  0.3329728799999998  0.1053751999999974  0.3489729699999984
  0.8544301700000005  0.7019330299999993  0.9842475199999967
  0.9769109400000033  0.2289038799999972  0.6099042000000026
  0.3361174200000008  0.7069836800000004  0.9012756799999977
  0.5683924200000021  0.7076314700000026  0.6761545999999967
  0.5347405099999989  0.1789020300000033  0.1610805500000012
  0.1622884000000013  0.6767077200000031  0.9953158201999983
  0.3494454200000021  0.1884906299999969  0.2155883399999965
  0.8205357000000006  0.1831793699999977  0.1026577000000017
  0.2802952400000009  0.4060983099999973  0.7905226199999973
  0.3510425500000025  0.6918882800000006  0.6886031700000004
  0.0246061149999974  0.7892475700000006  0.0798653299999970
  0.9569526699999997  0.9290791900000031  0.2870272799999967
  0.7482605800000002  0.7989530400000007  0.7486162300000032
  0.9198597899999967  0.0962468500000000  0.9986328366000023
  0.9288590399999990  0.9611404799999974  0.8756763800000016
  0.1453640000000007  0.3521667400000013  0.2266736699999967
  0.2691989400000026  0.9927968499999977  0.1986730899999998
  0.3493373599999998  0.3404225000000025  0.3235951999999997
  0.7444018899999989  0.0196546949999998  0.7898936500000033
  0.4788912200000013  0.2108824900000030  0.8141818200000017
  0.5833620300000035  0.8955339999999978  0.2425388799999979
  0.8502627499999988  0.4837973099999999  0.8538544600000009
  0.3220921699999977  0.7523273799999970  0.0748052169999980
  0.2638854799999990  0.3944478000000018  0.0791661940000026
  0.5837136399999991  0.5310376700000035  0.6683005699999995
  0.6553362300000032  0.8633118999999994  0.5733771299999972
  0.4510885199999990  0.0511023139999978  0.7159003299999966
  0.1106565700000033  0.0435011380000034  0.9547338100000005
  0.5280076900000026  0.7357208499999999  0.1170272499999996
  0.7065152600000033  0.3624815000000012  0.9288832800000009
  0.6576816999999977  0.6280759400000022  0.9352054399999972
  0.8535394900000028  0.4993781700000000  0.5912676399999981
  0.6882253799999987  0.4259047199999983  0.5818262100000027
  0.3149762199999984  0.7844807500000002  0.5431772299999977
  0.5207979500000022  0.0388471839999980  0.9226658500000013
  0.4919726199999985  0.4841462899999982  0.5190301000000019
  0.1295434299999982  0.4213230599999989  0.9180900599999973
  0.9988723430000022  0.7616489400000006  0.3207751200000004
  0.7949125100000032  0.2155003499999992  0.6323927500000011
  0.5245870800000034  0.0497506680000015  0.3169471000000001
  0.1645341099999982  0.0215403830000014  0.7347984199999971
  0.0263176289999976  0.5784557799999988  0.8759540699999988
  0.7899142600000033  0.6340867400000008  0.7094222699999975
  0.8017945300000022  0.2992683100000022  0.2689798700000026
  0.2284527300000008  0.5391104300000009  0.4522454499999995
  0.1205451599999989  0.2810673600000015  0.0000277030359968
  0.5838992400000009  0.9254464500000026  0.7839071900000008
  0.7727016700000036  0.7637498699999981  0.1467821900000033
  0.0205646280000025  0.1307039900000007  0.3685636399999979
  0.0894876289999971  0.8213504599999979  0.9233232699999974
  0.1674322300000028  0.8087160299999994  0.2017250600000011
  0.0760812329999965  0.8667900000000017  0.5285154800000029
  0.5895377699999997  0.3422537300000030  0.3471404100000015
  0.6300919500000006  0.5529149400000009  0.4139733399999983
  0.3038238099999973  0.5308830600000007  0.6208828099999977
  0.5623894100000015  0.4299103199999976  0.0440950449999988
  0.1488142600000018  0.5787177699999972  0.2949350100000032
  0.5213357000000016  0.7146148900000000  0.8609865399999990
  0.7076098300000027  0.0376898410000024  0.1883263699999986
  0.8939444900000026  0.1113182599999973  0.2676270299999999
  0.3263299999999987  0.3280541399999990  0.5187484499999968
  0.9323951100000016  0.4486283700000016  0.1756495500000028
  0.1040607099999988  0.5159950600000016  0.1222857300000015
  0.3111397799999978  0.9243742100000034  0.4212913000000000
  0.2402532099999988  0.1738923600000035  0.7012186299999996
  0.4733506000000034  0.6752975599999971  0.5050539699999987
  0.9836381000000003  0.3114167199999969  0.3713077299999981
  0.9199215499999980  0.8972389400000012  0.4415435700000003
  0.1348993300000032  0.1438145099999986  0.5422480300000032
  0.4320550500000024  0.5916452600000000  0.0291687770000024
  0.6945839600000028  0.6709331699999979  0.5112939500000024
  0.4467382099999995  0.9977457605000026  0.1186073699999994
  0.9474004899999997  0.6148615199999981  0.4780628299999989
  0.7416585699999985  0.1250944200000035  0.3666557199999971
  0.4813625999999971  0.8489570200000003  0.4936348499999994
  0.1037268600000019  0.1949844600000006  0.8173816099999982
  0.8099718899999999  0.7464359499999986  0.3931636100000020
  0.6654158099999989  0.5806771600000005  0.1323227500000002
  0.1573629299999979  0.1909143499999999  0.3667008999999979
  0.7301258500000003  0.6576725299999993  0.2871179200000000
  0.1306534499999970  0.5455869199999981  0.6968480900000031
  0.8983585300000030  0.1410631800000033  0.4707193799999985
  0.6213598399999967  0.0382692219999967  0.6594826899999973
  0.0637967609999990  0.9644860599999987  0.1250116800000001
  0.6338635899999971  0.9011258700000013  0.4105144600000017
  0.9152616000000009  0.5387537200000025  0.9586247100000023
  0.5588397699999987  0.3944797500000021  0.9123118600000026
  0.2631889700000016  0.4307365700000005  0.9298923500000029
  0.6088351399999965  0.7573613599999973  0.9826820299999994
  0.8802247400000027  0.1020488899999989  0.6291136099999974
  0.8092112300000025  0.3623665300000027  0.5923100600000026
  0.1196572400000022  0.4495814100000004  0.7861894099999986
  0.1691925900000015  0.0467730129999993  0.0873130740000008
  0.2827725599999980  0.6195651000000026  0.0417329639999977
  0.6217779799999974  0.9409904999999981  0.9257908200000031
  0.7214245500000018  0.5017117200000030  0.8973699499999981
  0.9193975299999977  0.4714864999999975  0.4754688000000016
  0.7479984400000035  0.6316178000000008  0.0356087529999982
  0.8611124800000027  0.3246638700000020  0.1230543699999984
  0.6488037900000023  0.7040708500000008  0.1817265500000005
  0.4284517999999977  0.3863868700000026  0.4396433499999972
  0.5268840700000013  0.9339177900000024  0.6532752000000031
  0.7601741699999991  0.1469745099999997  0.5093972299999976
  0.2089707000000018  0.4754301700000028  0.1916494499999999
  0.4613548299999977  0.2443520500000034  0.2683310399999996
  0.7652607799999984  0.8625322199999985  0.4846580500000002
  0.9050248799999991  0.5816805099999982  0.7648132699999977
  0.1426506900000035  0.8700965999999966  0.0702858439999972
  0.0097205750999976  0.5603527099999965  0.2217142399999972
  0.1854857399999972  0.4387590400000008  0.5416142500000021
  0.7179843400000010  0.5112283500000032  0.6950415900000024
  0.2290350399999994  0.2408956499999988  0.5880925599999998
  0.8626531099999966  0.6142669199999986  0.3689876700000028
  0.8536250200000026  0.9950059685999975  0.2138284299999995
  0.9094836700000002  0.7066280100000029  0.1082617400000032
  0.3075627899999986  0.2371324699999988  0.4069274200000024
  0.6706283799999966  0.0058429242000031  0.3238624600000009
  0.9774306300000006  0.9850113800000031  0.7497059800000017
  0.1145152499999966  0.9301772999999969  0.8395646099999965
  0.8452379800000003  0.2328391699999983  0.3779263300000011
  0.9893247709999997  0.2466736000000012  0.0094625767999972
  0.2142662999999985  0.8524134399999994  0.4824244599999972
  0.7182751499999966  0.2156907600000011  0.9534717800000010
  0.3935941499999984  0.3385424000000015  0.8273053099999998
  0.4445360799999989  0.0946584909999970  0.4323351600000009
  0.5810805799999983  0.7530251100000029  0.4630728099999999
  0.5220092799999989  0.4045204800000022  0.6272356099999996
  0.5855516199999968  0.6047316800000004  0.5549984399999985
  0.8816209200000031  0.7614578100000031  0.7118304999999978
  0.5669192699999996  0.0431976590000005  0.1833841899999982
  0.8610763200000022  0.7932876400000026  0.2775857500000001
  0.4285315600000033  0.5793594100000021  0.6270065499999973
  0.4057822500000015  0.7563774300000006  0.7949953899999969
  0.5859390800000028  0.3915300000000030  0.2082528700000026
  0.6488966399999967  0.0045277466999991  0.5254668500000008
  0.4596489199999994  0.7672706600000012  0.6066958099999979
  0.6035461499999997  0.4275692800000002  0.4600143999999986
  0.5241430100000031  0.8769509099999979  0.0967115320000005
  0.2956164200000018  0.5759205399999985  0.7494110499999991
  0.8480335100000005  0.3536796200000012  0.9127345200000008
  0.2419091000000009  0.0108731629999994  0.9084040099999982
  0.9269817599999968  0.7570219699999967  0.4573827600000016
  0.0291332520000012  0.8417598300000009  0.2082949999999997
  0.4329710100000028  0.7315045499999968  0.9962255008000014
  0.6734867199999997  0.8163328799999974  0.3134644000000009
  0.3878101099999967  0.7784489000000008  0.4291835399999968
  0.5068911299999996  0.9232544500000017  0.3593140099999985
  0.4091695099999981  0.1494852300000034  0.1020802299999986
  0.6031682799999984  0.7899246300000016  0.7840848000000022
  0.8603043000000028  0.6411336999999975  0.5798016700000019
  0.0116089930000030  0.5178457700000010  0.6398162999999997
  0.7454286700000026  0.5300524399999986  0.5111400500000016
  0.2834350199999989  0.6058971200000016  0.3304609099999993
  0.0824990759999977  0.4055916300000035  0.3519846900000019
  0.0481674190000021  0.3370134299999989  0.6389114899999981
  0.4923738199999974  0.7875302300000016  0.2428676199999984
  0.7570109600000023  0.1677436299999968  0.2222132899999991
  0.2096714500000019  0.2894760699999992  0.7834893799999989
  0.2575959500000025  0.6601832500000029  0.5357506200000017
  0.3941074999999969  0.0205603109999970  0.2529405800000006
  0.3848719300000027  0.4571211599999998  0.0818849460000024
  0.8865977900000033  0.2679825499999993  0.7370013399999991
  0.6395965099999970  0.2899193399999973  0.2171702099999990
  0.8080076700000021  0.9076705100000027  0.8315766400000015
  0.0301089230000002  0.2291943600000010  0.4815023299999979
  0.3072202000000033  0.7503405100000009  0.2272216900000004
  0.1119619999999983  0.9242485700000032  0.6590975599999993
  0.3740780400000006  0.9474190800000031  0.5473408399999968
  0.7216249499999989  0.3750730799999999  0.3505499099999980
  0.7629381100000003  0.6922293200000027  0.8494443599999997
  0.0100989000000027  0.1144090900000023  0.8835552299999989
  0.6282488399999977  0.2190732899999972  0.4014316199999968
  0.6950326999999987  0.4110511299999970  0.0647898490000003
  0.4538945299999995  0.6222208300000034  0.1747213599999995
  0.2045016200000020  0.1087303400000010  0.2707980100000000
  0.3075243899999975  0.3153025700000001  0.1878962899999976
  0.5125680000000017  0.1125801600000003  0.6113716899999986
  0.1065376700000016  0.6867846600000007  0.1156913200000034
  0.5905092799999991  0.1040593500000000  0.0194732929999972
  0.7083417699999970  0.1573649099999983  0.7210632900000036
  0.1711982699999979  0.1689108899999994  0.9380233199999992
  0.0401322840000020  0.3094343300000020  0.8475355799999988
  0.6768377699999988  0.5369295699999981  0.2856287899999970
  0.0602000680000003  0.2398373699999965  0.2802045800000030
  0.0147615670000008  0.6916416700000028  0.9501588199999986
  0.0638031160000025  0.7276952699999981  0.5690712000000033
  0.9867365200000009  0.0250379719999998  0.4546972500000024
  0.9702351299999989  0.8325062299999999  0.8642582599999997
  0.2355701600000017  0.7847387099999992  0.7073266599999997
  0.0467113710000007  0.8701571200000018  0.3868251500000000
  0.4051623200000023  0.9711703099999980  0.9826330140000010
  0.8184257500000029  0.5278684900000030  0.1661302999999990
  0.6982955000000004  0.7348043100000012  0.6300280000000029
  0.5549929700000007  0.0959013630000030  0.7921373499999973
  0.2584433399999995  0.8012446099999977  0.9621333099999987
  0.2519150700000026  0.0485040780000006  0.4383133199999989
  0.6510625800000014  0.2719092800000027  0.5891733400000021
  0.7836461799999981  0.0512281130000005  0.0520084429999983
  0.7992418199999989  0.0195042810000032  0.6581471499999978
  0.9429155099999988  0.8946263400000021  0.5744465399999967
  0.2228741600000035  0.9056578200000018  0.2915815300000020
  0.7143064899999985  0.9170852600000003  0.6797140600000020
  0.1212756700000028  0.5438327199999975  0.9712767500000012
  0.1312417199999985  0.7146912999999984  0.3033731499999988
  0.7915145600000031  0.8181690600000024  0.0152963430000028
  0.4551731899999965  0.9258587400000025  0.8244529600000021
  0.4052689399999991  0.5491408800000031  0.8970779699999980
  0.5610706900000011  0.2813273100000018  0.0591423770000006
  0.5716322199999979  0.5715159900000018  0.0316085440000009
  0.4179935100000023  0.2405432700000034  0.5611071200000026
  0.2519161999999966  0.4328865800000017  0.3578774799999991
  0.0687732949999997  0.1437317700000023  0.6657164100000017
  0.4042979399999993  0.4624123800000035  0.2573416199999983
  0.0848728859999994  0.6541410499999998  0.7671979300000018
  0.8499771099999975  0.0373769400000015  0.3894662100000019
  0.2909237599999983  0.2849426200000025  0.9939163152000035
  0.5009717200000026  0.5842576100000016  0.3703492499999967
  0.7287780899999987  0.8938906500000030  0.1674139400000030
  0.3747279299999988  0.1748544499999980  0.7359366299999976
  0.2977168700000021  0.9710138439999980  0.7400109900000018
  0.6925359800000024  0.3394817699999990  0.7797770399999990
  0.2240934100000018  0.0601919579999972  0.6123503999999969
  0.3475828500000020  0.8965415500000020  0.1343830699999984
  0.3286202399999993  0.3970181199999985  0.6515463799999992
  0.8995071900000013  0.4052603000000019  0.2978105700000029
  0.9411615799999993  0.1322036299999994  0.1361731599999985
  0.5448313899999988  0.6022796700000015  0.7819573100000028
  0.4244212799999971  0.1592320800000024  0.9245902999999984
  0.9767265340000009  0.9770890300000019  0.0163072699999987
  0.0914218899999995  0.0095896832999998  0.4981825200000003
  0.1640055599999997  0.2433172599999978  0.1204859200000001
  0.0639479439999988  0.3870281199999965  0.1187453499999975
  0.1017394200000012  0.5757791400000016  0.4288410899999988
  0.0316513940000007  0.0362977590000000  0.2608455100000029
  0.8366847500000034  0.0947235570000018  0.8527703199999976
 
  0.00000000E+00  0.00000000E+00  0.00000000E+00
  0.00000000E+00  0.00000000E+00  0.00000000E+00
  0.00000000E+00  0.00000000E+00  0.00000000E+00
  0.00000000E+00  0.00000000E+00  0.00000000E+00
  0.00000000E+00  0.00000000E+00  0.00000000E+00
  0.00000000E+00  0.00000000E+00  0.00000000E+00
  0.00000000E+00  0.00000000E+00  0.00000000E+00
  0.00000000E+00  0.00000000E+00  0.00000000E+00
  0.00000000E+00  0.00000000E+00  0.00000000E+00
  0.00000000E+00  0.00000000E+00  0.00000000E+00
  0.00000000E+00  0.00000000E+00  0.00000000E+00
  0.00000000E+00  0.00000000E+00  0.00000000E+00
  0.00000000E+00  0.00000000E+00  0.00000000E+00
  0.00000000E+00  0.00000000E+00  0.00000000E+00
  0.00000000E+00  0.00000000E+00  0.00000000E+00
  0.00000000E+00  0.00000000E+00  0.00000000E+00
  0.00000000E+00  0.00000000E+00  0.00000000E+00
  0.00000000E+00  0.00000000E+00  0.00000000E+00
  0.00000000E+00  0.00000000E+00  0.00000000E+00
  0.00000000E+00  0.00000000E+00  0.00000000E+00
  0.00000000E+00  0.00000000E+00  0.00000000E+00
  0.00000000E+00  0.00000000E+00  0.00000000E+00
  0.00000000E+00  0.00000000E+00  0.00000000E+00
  0.00000000E+00  0.00000000E+00  0.00000000E+00
  0.00000000E+00  0.00000000E+00  0.00000000E+00
  0.00000000E+00  0.00000000E+00  0.00000000E+00
  0.00000000E+00  0.00000000E+00  0.00000000E+00
  0.00000000E+00  0.00000000E+00  0.00000000E+00
  0.00000000E+00  0.00000000E+00  0.00000000E+00
  0.00000000E+00  0.00000000E+00  0.00000000E+00
  0.00000000E+00  0.00000000E+00  0.00000000E+00
  0.00000000E+00  0.00000000E+00  0.00000000E+00
  0.00000000E+00  0.00000000E+00  0.00000000E+00
  0.00000000E+00  0.00000000E+00  0.00000000E+00
  0.00000000E+00  0.00000000E+00  0.00000000E+00
  0.00000000E+00  0.00000000E+00  0.00000000E+00
  0.00000000E+00  0.00000000E+00  0.00000000E+00
  0.00000000E+00  0.00000000E+00  0.00000000E+00
  0.00000000E+00  0.00000000E+00  0.00000000E+00
  0.00000000E+00  0.00000000E+00  0.00000000E+00
  0.00000000E+00  0.00000000E+00  0.00000000E+00
  0.00000000E+00  0.00000000E+00  0.00000000E+00
  0.00000000E+00  0.00000000E+00  0.00000000E+00
  0.00000000E+00  0.00000000E+00  0.00000000E+00
  0.00000000E+00  0.00000000E+00  0.00000000E+00
  0.00000000E+00  0.00000000E+00  0.00000000E+00
  0.00000000E+00  0.00000000E+00  0.00000000E+00
  0.00000000E+00  0.00000000E+00  0.00000000E+00
  0.00000000E+00  0.00000000E+00  0.00000000E+00
  0.00000000E+00  0.00000000E+00  0.00000000E+00
  0.00000000E+00  0.00000000E+00  0.00000000E+00
  0.00000000E+00  0.00000000E+00  0.00000000E+00
  0.00000000E+00  0.00000000E+00  0.00000000E+00
  0.00000000E+00  0.00000000E+00  0.00000000E+00
  0.00000000E+00  0.00000000E+00  0.00000000E+00
  0.00000000E+00  0.00000000E+00  0.00000000E+00
  0.00000000E+00  0.00000000E+00  0.00000000E+00
  0.00000000E+00  0.00000000E+00  0.00000000E+00
  0.00000000E+00  0.00000000E+00  0.00000000E+00
  0.00000000E+00  0.00000000E+00  0.00000000E+00
  0.00000000E+00  0.00000000E+00  0.00000000E+00
  0.00000000E+00  0.00000000E+00  0.00000000E+00
  0.00000000E+00  0.00000000E+00  0.00000000E+00
  0.00000000E+00  0.00000000E+00  0.00000000E+00
  0.00000000E+00  0.00000000E+00  0.00000000E+00
  0.00000000E+00  0.00000000E+00  0.00000000E+00
  0.00000000E+00  0.00000000E+00  0.00000000E+00
  0.00000000E+00  0.00000000E+00  0.00000000E+00
  0.00000000E+00  0.00000000E+00  0.00000000E+00
  0.00000000E+00  0.00000000E+00  0.00000000E+00
  0.00000000E+00  0.00000000E+00  0.00000000E+00
  0.00000000E+00  0.00000000E+00  0.00000000E+00
  0.00000000E+00  0.00000000E+00  0.00000000E+00
  0.00000000E+00  0.00000000E+00  0.00000000E+00
  0.00000000E+00  0.00000000E+00  0.00000000E+00
  0.00000000E+00  0.00000000E+00  0.00000000E+00
  0.00000000E+00  0.00000000E+00  0.00000000E+00
  0.00000000E+00  0.00000000E+00  0.00000000E+00
  0.00000000E+00  0.00000000E+00  0.00000000E+00
  0.00000000E+00  0.00000000E+00  0.00000000E+00
  0.00000000E+00  0.00000000E+00  0.00000000E+00
  0.00000000E+00  0.00000000E+00  0.00000000E+00
  0.00000000E+00  0.00000000E+00  0.00000000E+00
  0.00000000E+00  0.00000000E+00  0.00000000E+00
  0.00000000E+00  0.00000000E+00  0.00000000E+00
  0.00000000E+00  0.00000000E+00  0.00000000E+00
  0.00000000E+00  0.00000000E+00  0.00000000E+00
  0.00000000E+00  0.00000000E+00  0.00000000E+00
  0.00000000E+00  0.00000000E+00  0.00000000E+00
  0.00000000E+00  0.00000000E+00  0.00000000E+00
  0.00000000E+00  0.00000000E+00  0.00000000E+00
  0.00000000E+00  0.00000000E+00  0.00000000E+00
  0.00000000E+00  0.00000000E+00  0.00000000E+00
  0.00000000E+00  0.00000000E+00  0.00000000E+00
  0.00000000E+00  0.00000000E+00  0.00000000E+00
  0.00000000E+00  0.00000000E+00  0.00000000E+00
  0.00000000E+00  0.00000000E+00  0.00000000E+00
  0.00000000E+00  0.00000000E+00  0.00000000E+00
  0.00000000E+00  0.00000000E+00  0.00000000E+00
  0.00000000E+00  0.00000000E+00  0.00000000E+00
  0.00000000E+00  0.00000000E+00  0.00000000E+00
  0.00000000E+00  0.00000000E+00  0.00000000E+00
  0.00000000E+00  0.00000000E+00  0.00000000E+00
  0.00000000E+00  0.00000000E+00  0.00000000E+00
  0.00000000E+00  0.00000000E+00  0.00000000E+00
  0.00000000E+00  0.00000000E+00  0.00000000E+00
  0.00000000E+00  0.00000000E+00  0.00000000E+00
  0.00000000E+00  0.00000000E+00  0.00000000E+00
  0.00000000E+00  0.00000000E+00  0.00000000E+00
  0.00000000E+00  0.00000000E+00  0.00000000E+00
  0.00000000E+00  0.00000000E+00  0.00000000E+00
  0.00000000E+00  0.00000000E+00  0.00000000E+00
  0.00000000E+00  0.00000000E+00  0.00000000E+00
  0.00000000E+00  0.00000000E+00  0.00000000E+00
  0.00000000E+00  0.00000000E+00  0.00000000E+00
  0.00000000E+00  0.00000000E+00  0.00000000E+00
  0.00000000E+00  0.00000000E+00  0.00000000E+00
  0.00000000E+00  0.00000000E+00  0.00000000E+00
  0.00000000E+00  0.00000000E+00  0.00000000E+00
  0.00000000E+00  0.00000000E+00  0.00000000E+00
  0.00000000E+00  0.00000000E+00  0.00000000E+00
  0.00000000E+00  0.00000000E+00  0.00000000E+00
  0.00000000E+00  0.00000000E+00  0.00000000E+00
  0.00000000E+00  0.00000000E+00  0.00000000E+00
  0.00000000E+00  0.00000000E+00  0.00000000E+00
  0.00000000E+00  0.00000000E+00  0.00000000E+00
  0.00000000E+00  0.00000000E+00  0.00000000E+00
  0.00000000E+00  0.00000000E+00  0.00000000E+00
  0.00000000E+00  0.00000000E+00  0.00000000E+00
  0.00000000E+00  0.00000000E+00  0.00000000E+00
  0.00000000E+00  0.00000000E+00  0.00000000E+00
  0.00000000E+00  0.00000000E+00  0.00000000E+00
  0.00000000E+00  0.00000000E+00  0.00000000E+00
  0.00000000E+00  0.00000000E+00  0.00000000E+00
  0.00000000E+00  0.00000000E+00  0.00000000E+00
  0.00000000E+00  0.00000000E+00  0.00000000E+00
  0.00000000E+00  0.00000000E+00  0.00000000E+00
  0.00000000E+00  0.00000000E+00  0.00000000E+00
  0.00000000E+00  0.00000000E+00  0.00000000E+00
  0.00000000E+00  0.00000000E+00  0.00000000E+00
  0.00000000E+00  0.00000000E+00  0.00000000E+00
  0.00000000E+00  0.00000000E+00  0.00000000E+00
  0.00000000E+00  0.00000000E+00  0.00000000E+00
  0.00000000E+00  0.00000000E+00  0.00000000E+00
  0.00000000E+00  0.00000000E+00  0.00000000E+00
  0.00000000E+00  0.00000000E+00  0.00000000E+00
  0.00000000E+00  0.00000000E+00  0.00000000E+00
  0.00000000E+00  0.00000000E+00  0.00000000E+00
  0.00000000E+00  0.00000000E+00  0.00000000E+00
  0.00000000E+00  0.00000000E+00  0.00000000E+00
  0.00000000E+00  0.00000000E+00  0.00000000E+00
  0.00000000E+00  0.00000000E+00  0.00000000E+00
  0.00000000E+00  0.00000000E+00  0.00000000E+00
  0.00000000E+00  0.00000000E+00  0.00000000E+00
  0.00000000E+00  0.00000000E+00  0.00000000E+00
  0.00000000E+00  0.00000000E+00  0.00000000E+00
  0.00000000E+00  0.00000000E+00  0.00000000E+00
  0.00000000E+00  0.00000000E+00  0.00000000E+00
  0.00000000E+00  0.00000000E+00  0.00000000E+00
  0.00000000E+00  0.00000000E+00  0.00000000E+00
  0.00000000E+00  0.00000000E+00  0.00000000E+00
  0.00000000E+00  0.00000000E+00  0.00000000E+00
  0.00000000E+00  0.00000000E+00  0.00000000E+00
  0.00000000E+00  0.00000000E+00  0.00000000E+00
  0.00000000E+00  0.00000000E+00  0.00000000E+00
  0.00000000E+00  0.00000000E+00  0.00000000E+00
  0.00000000E+00  0.00000000E+00  0.00000000E+00
  0.00000000E+00  0.00000000E+00  0.00000000E+00
  0.00000000E+00  0.00000000E+00  0.00000000E+00
  0.00000000E+00  0.00000000E+00  0.00000000E+00
  0.00000000E+00  0.00000000E+00  0.00000000E+00
  0.00000000E+00  0.00000000E+00  0.00000000E+00
  0.00000000E+00  0.00000000E+00  0.00000000E+00
  0.00000000E+00  0.00000000E+00  0.00000000E+00
  0.00000000E+00  0.00000000E+00  0.00000000E+00
  0.00000000E+00  0.00000000E+00  0.00000000E+00
  0.00000000E+00  0.00000000E+00  0.00000000E+00
  0.00000000E+00  0.00000000E+00  0.00000000E+00
  0.00000000E+00  0.00000000E+00  0.00000000E+00
  0.00000000E+00  0.00000000E+00  0.00000000E+00
  0.00000000E+00  0.00000000E+00  0.00000000E+00
  0.00000000E+00  0.00000000E+00  0.00000000E+00
  0.00000000E+00  0.00000000E+00  0.00000000E+00
  0.00000000E+00  0.00000000E+00  0.00000000E+00
  0.00000000E+00  0.00000000E+00  0.00000000E+00
  0.00000000E+00  0.00000000E+00  0.00000000E+00
  0.00000000E+00  0.00000000E+00  0.00000000E+00
  0.00000000E+00  0.00000000E+00  0.00000000E+00
  0.00000000E+00  0.00000000E+00  0.00000000E+00
  0.00000000E+00  0.00000000E+00  0.00000000E+00
  0.00000000E+00  0.00000000E+00  0.00000000E+00
  0.00000000E+00  0.00000000E+00  0.00000000E+00
  0.00000000E+00  0.00000000E+00  0.00000000E+00
  0.00000000E+00  0.00000000E+00  0.00000000E+00
  0.00000000E+00  0.00000000E+00  0.00000000E+00
  0.00000000E+00  0.00000000E+00  0.00000000E+00
  0.00000000E+00  0.00000000E+00  0.00000000E+00
  0.00000000E+00  0.00000000E+00  0.00000000E+00
  0.00000000E+00  0.00000000E+00  0.00000000E+00
  0.00000000E+00  0.00000000E+00  0.00000000E+00
  0.00000000E+00  0.00000000E+00  0.00000000E+00
  0.00000000E+00  0.00000000E+00  0.00000000E+00
  0.00000000E+00  0.00000000E+00  0.00000000E+00
  0.00000000E+00  0.00000000E+00  0.00000000E+00
  0.00000000E+00  0.00000000E+00  0.00000000E+00
  0.00000000E+00  0.00000000E+00  0.00000000E+00
  0.00000000E+00  0.00000000E+00  0.00000000E+00
  0.00000000E+00  0.00000000E+00  0.00000000E+00
  0.00000000E+00  0.00000000E+00  0.00000000E+00
  0.00000000E+00  0.00000000E+00  0.00000000E+00
  0.00000000E+00  0.00000000E+00  0.00000000E+00
  0.00000000E+00  0.00000000E+00  0.00000000E+00
  0.00000000E+00  0.00000000E+00  0.00000000E+00
  0.00000000E+00  0.00000000E+00  0.00000000E+00
  0.00000000E+00  0.00000000E+00  0.00000000E+00
  0.00000000E+00  0.00000000E+00  0.00000000E+00
  0.00000000E+00  0.00000000E+00  0.00000000E+00
  0.00000000E+00  0.00000000E+00  0.00000000E+00
  0.00000000E+00  0.00000000E+00  0.00000000E+00
  0.00000000E+00  0.00000000E+00  0.00000000E+00
  0.00000000E+00  0.00000000E+00  0.00000000E+00
  0.00000000E+00  0.00000000E+00  0.00000000E+00
  0.00000000E+00  0.00000000E+00  0.00000000E+00
  0.00000000E+00  0.00000000E+00  0.00000000E+00
  0.00000000E+00  0.00000000E+00  0.00000000E+00
  0.00000000E+00  0.00000000E+00  0.00000000E+00
  0.00000000E+00  0.00000000E+00  0.00000000E+00
  0.00000000E+00  0.00000000E+00  0.00000000E+00
  0.00000000E+00  0.00000000E+00  0.00000000E+00
  0.00000000E+00  0.00000000E+00  0.00000000E+00
  0.00000000E+00  0.00000000E+00  0.00000000E+00
  0.00000000E+00  0.00000000E+00  0.00000000E+00