GeSe                                    
   1.00000000000000     
    20.1278870000000012    0.0000000000000000    0.0000000000000000
     0.0000000000000000   20.1278870000000012    0.0000000000000000
     0.0000000000000000    0.0000000000000000   20.1278870000000012
   Ge   Se
   150   150
Direct
  0.0003684725133104  0.6109534970083894  0.3728543785149909
  0.0035516791803743  0.2947078285671766  0.2381738139741372
  0.6409892023656637  0.6161885371223595  0.0578306476764412
  0.7390314536114829  0.8504847084823515  0.2831045154806596
  0.2166740428113800  0.0702993374111307  0.9261140053210534
  0.4878711247723285  0.5517444879454020  0.1342475035529761
 -0.0359525202394732  0.3069014395099515  0.6084498263365611
  0.7207848016086205  0.4794259605348370  0.8264633289529223
  0.7856139968578272  0.3572170838627509  0.4080831584113042
  0.7372720175068042  0.8359709846995634  0.5693333854034380
  0.7188337513106812  0.6433066142600044  0.2161893118256917
  0.2878537932650642  0.9867500522556022  0.0157183436264509
  0.9426003434777628  0.7786266253905683  0.9628862403158074
  0.6576824724126249  0.4093701315146590  0.6631594242700554
  0.2381558243498592  0.9913351114815322  0.3405764804900533
  0.0920869359404885  0.8123874045476405  0.3272053131898512
  0.6457847977164570  0.6563437286832996  0.5047479994573466
  0.6237211009647554  0.3110808745285089  0.8421711949672895
  0.0025299549811363  0.5506829760297641  0.2557236898948774
  0.3790426847229211  0.6229288499634207  0.8042525196330993
  0.2730720063833911  0.4729032592901404  0.0638907747297272
  0.7964961006390581  0.0159920462733959  0.9271983264119014
  0.5266946377227626  0.9354630659284174  0.0805604470262998
  0.4740176598448845  0.3463952983825976  0.2120959955256604
  0.6600133233838074  0.7872191517343181  0.3738613315720671
  0.6195196249933623  0.7026334107287923  0.6932750348217638
  0.8486797473579020  0.7249054729096229  0.3884611398054592
  0.8598229705521128  0.0041568862973125  0.0745082090779637
  0.5088103952422722  0.9015361127180377  0.8663181719896562
  0.6007409868352196  0.4506916869547559  0.9640119616382112
  0.6722159208587871  0.1421082384687803  0.9153515552451068
  0.8684937058435099  0.2102254741403709  0.1640771707693156
  0.3249188955788492  0.7466093223329401  0.1650135257312185
  0.7845441264102806  0.3926866028110720  0.6943275433844457
  0.1650472127944889  0.6303489355336146  0.6409463621824343
  0.1455740623088804  0.1753770264098543  0.0340095768283696
  0.4119258712946693  0.1719145808423693  0.8892710281430223
  0.0241006122884704  0.7143255917900603  0.5380206003087542
  0.2369928014416872  0.9704381175464427  0.8392392430474930
  0.6977324937888166  0.1601457642528524  0.0504963926309795
  0.4109604369343863  0.2567318824001864  0.5437855830809708
  0.8785198364694723  0.6518190173418636  0.1455498617450802
  0.5280528748319299  0.9191975354794388  0.3156172015904606
  0.3061035045549901  0.1990157706994135  0.6929021544556754
  0.7948774144831738  0.6807816270397975  0.8660363170779909
  0.0485630493216190  0.3130088371958293  0.8011352993509233
  0.8284724557624908  0.4759320133746328  0.6071446391989521
  0.3880066438993435  0.3529575214396483  0.6488025865657117
  0.5748999124039296  0.7687931483069615  0.0982865938414903
  0.0683166113057272  0.3881397519884458  0.9187381780697099
  0.6145791816421056  0.9965665208591594  0.2595427456314027
  0.2417068128930392  0.3644770209346787  0.3005321513992117
  0.6212056558025751  0.4625556975344758  0.5014059213548817
  0.0969306117621668  0.5375233015994864  0.7427639814724741
  0.9044972006233358  0.5587236831514720  0.9768850321951130
  0.2950066457735209  0.6814113551748419  0.9364413836672119
  0.4615799647630737  0.4797854593067063  0.7212491136023388
  0.3363259931573399  0.1929012972091098  0.0766735976367203
  0.4136560086115467  0.8289504157811295  0.0058025409985476
  0.4003515649775691  0.9270297539860286  0.3185239436219428
  0.7597706885003322  0.1419578534710741  0.2295552534576893
  0.7155243054429193  0.8374574073314053  0.8542619436663059
  0.7065595008750978  0.7591406754576808  0.0556276031477734
  0.9407621708072843  0.2023751959852118  0.4904873847279819
  0.9157090086679235  0.7993181205383324  0.6359611943082166
  0.8137808655800133  0.3318957001010048  0.1598509274360012
  0.2388062558566924  0.6213833007947851  0.8172283399475312
  0.6459869133752009  0.2415510235068888  0.2377686166853733
  0.5285648169059558  0.3882488858263904  0.6365498893026215
  0.6406407956221998  0.0095216864748326  0.8205776956407237
  0.7101469033522175  0.9698827528015502  0.0982917636780342
  0.0169356515245766  0.0758238072134586  0.9403343385936596
  0.2927365852919052  0.4313102340867199  0.8979372179076802
  0.5832978046875655  0.3036309391964163  0.0058463033528260
  0.6186428826886109  0.6435655255620603  0.8694577020115266
  0.9750017855387417  0.3767951776136226  0.1017925873585865
  0.0568675296394004  0.9365589294275067  0.8137332801785997
  0.2085430025800956  0.0673716191510948  0.1361545701267780
  0.0305000639290303  0.0925701188414160  0.3910132878023226
  0.8955220474018072  0.8758557620703850  0.4564720779983209
  0.2409277420834278  0.2977493284896627  0.4595535171365148
  0.4815510271086759  0.1200326499856032  0.4814891542237107
  0.1640417962734481  0.1122149498054108  0.7222994637116176
  0.4965913312831825  0.7984146822476431  0.4356269681430168
  0.8934977174200803  0.0591467607962583  0.5431833580200678
  0.0579939780632576  0.4820211326152888  0.4558939340927581
  0.0438134245306070  0.1888659030170489  0.8684698931858700
  0.7884958735935010  0.1559705653451817  0.6559557380342383
  0.8581201395129409  0.8154139763709863  0.0780450354515934
  0.3342491492170430  0.4325856984569736  0.4729463937396164
  0.2949750073541139  0.8015274524243894  0.3360689022506627
  0.2716177211721765  0.1782704235468132  0.2924641756389014
  0.0681683322401907  0.8138067665454506  0.6680516087932242
  0.1966947108689346  0.6080579423416691  0.3009034753276795
  0.9434483901819203  0.1193617759343977  0.7484388984963122
  0.3860215036458399  0.7502750811405271  0.6827476716403799
  0.1026939091736992  0.3626131731774804  0.1468731590064188
  0.7842109861176900  0.5465928127264070  0.7385987349505494
  0.4087389633935083  0.4256292444992815  0.8361835458613417
  0.8525004269193535  0.3971152719237437  0.5110908320965641
  0.5845760213019686  0.0659715561850198  0.6021076454134248
  0.1120075238229405  0.7746189856670896  0.9809565978857243
  0.4347227535686477  0.6874182394272117  0.3696015427487657
  0.1308735899040613  0.7127984866132318  0.2583362417219994
  0.6542901617175078  0.3929768447511048  0.1899008862662077
  0.5874729679868741  0.6079278943124068  0.3982079702800925
  0.4704693080241916  0.4812910203109095  0.3439525638464591
  0.3296260588168976  0.0531534694779513  0.4827211823530375
  0.1350019435642319  0.8691150548874585  0.1292461551724205
  0.2115765115720876  0.3138560506032774  0.9959204011686698
  0.6605273658660041  0.5244920318593472  0.6027564543272369
  0.9347688872754283  0.3559494125471737  0.8801036235488973
  0.0006678400655765  0.4302316331723511  0.6374242361002523
  0.2643254183216240  0.2365295433086790  0.1747200763667447
  0.7673973142754086  0.0622487578200080  0.4367956774747940
  0.3927437518177949  0.6393972558044202  0.0204108514126744
  0.5023579245888482  0.7745360659530347  0.9260863149222843
  0.8089246666028687  0.4968279743225437  0.2603588436855111
  0.7642574252087522  0.8085407999514289  0.7373417908482937
  0.0378946619463817  0.0546120143654740  0.5730709488979361
  0.7838175911536260  0.9396770337369579  0.2006823536111950
  0.7598207628651130  0.4760183312202683  0.1424177483135664
  0.2021052980790539  0.8728292489751278  0.9770498644500131
  0.0658520331121116 -0.0051733493837259  0.0735097367681684
  0.2953704311360353  0.9543385976668619  0.6388589003715420
  0.4392418508640364  0.8398789569719464  0.5526081727917150
  0.0493781226125335  0.1547206969273922  0.2787196108996038
  0.6373895256914598  0.1491146167343391  0.7670722830268907
  0.1697297054992221  0.0206891180862205  0.5371005184486430
  0.7994334701306955  0.4544524969910646  0.9897390043683516
  0.6427944247714256  0.9308004041938528  0.4736382076313011
  0.4605377594491884  0.2155230996224785  0.0863957789257853
  0.9061844035284681  0.0822436116781535  0.1692143357665982
  0.3672281164114348  0.0364164045327749  0.7334621148972797
  0.5001225758517622  0.9199790526442577  0.6902258581740989
  0.2037182604036341  0.4561434324166853  0.5901943923688813
  0.7952328734329055  0.2609122121123504  0.9652275564209235
  0.6072225904868920  0.0880662884049908  0.3589164245285020
  0.5357900564745131  0.1968471393501676  0.6917321426887053
  0.2285752373194759  0.6547650985422448  0.4695246260034494
  0.9087889100583627  0.8717885093451101  0.8345663345579970
  0.1075856730324392  0.6411691876012102  0.8801298771315131
  0.8580323074107883  0.2187790229721297  0.7867092145989136
  0.3011213081762377  0.8084993687214903  0.7653135398227677
  0.4828200607325489  0.4875802360329628  0.9229573711259221
  0.4128480818862951  0.2956181229931593  0.8421302877297523
  0.0579648588347699  0.6344451651648348  0.1030829910885689
  0.0084625474524031  0.9337030232416050  0.2961600757204056
  0.1339289370273527  0.4253836297983902  0.2566896825845297
  0.2233275423907987  0.8206048519951428  0.6154962125803948
  0.7364029698515531  0.3301067309638783  0.2657073004870853
  0.8540346907676171  0.6122058186884771  0.2645098507458536
  0.4902719357421715  0.0587110798121871  0.7517551951188679
  0.8527130403135054  0.8422023244997352  0.3367989807400116
  0.6754254390683190  0.2783908550913446  0.0864329821993696
 -0.0251936191869524  0.7287413821540994  0.3862472802753911
  0.2343811943702163  0.9132331802276384  0.5262667080139282
  0.1531515037321291  0.4191521013033211  0.0513758599589137
  0.6998831738669318  0.1689912399496249  0.3397590039556173
  0.7811308734991993  0.3923184337396282  0.8860213581427598
  0.3095854199581277  0.1976471171734286  0.9598756919443979
  0.3702555700437033  0.8546690341185778  0.4141131433965141
  0.0392587318089166  0.4288018138073278  0.3265050557371777
  0.5193144101943470  0.0306206789412891  0.8648113095948508
  0.3593799315225428  0.0375810435841772  0.3377278800452992
  0.6705658531145086  0.6094349192651886  0.7607690669792487
  0.1959626330162989  0.8548777275899989  0.8551337413539033
  0.0393924477500634  0.1157465200487983  0.0672633609873887
  0.1573015547656399 -0.0146513041921376  0.7412937798339603
  0.1941012335765552  0.3567678675122561  0.8766743835661437
  0.8684013880569923  0.7581899388889508  0.7883067138788169
  0.8270735294401519  0.4699239929661210  0.3754463257856172
  0.4989658485289062  0.7927757365259371  0.6528067155868026
  0.2941147397395123  0.3523757710512286  0.1894182237134187
  0.8628157514752389  0.3542186215286831  0.0248480579318691
  0.3754318792473266  0.7424223711397812  0.8464122780233834
  0.6686451696765303  0.0171912933544693  0.9462209566038069
  0.5005291351675986  0.6000764434635970  0.3056084283034096
  0.3344751124875511  0.7674969541501807  0.5686463043434670
  0.1664729577994050  0.6659534204146210 -0.0126570666371663
  0.2199250556060827  0.7088951785179666  0.7315353279758250
  0.0197699495044551  0.7598539035770657  0.0625401929745450
  0.9500742613515583  0.2844818891537124  0.3974256600551157
  0.2148483034950693  0.0778440276043201  0.4344021118761041
  0.6107147376776333  0.7738623163926659  0.4991501466382537
  0.5078497102471051  0.4279163371221149  0.5223213143380134
  0.9278660824200899  0.2075154182556286  0.2909892786731091
  0.2185428778704690  0.5176060343762399  0.7590825668204458
  0.0129305048936463  0.0464761057074096  0.2230621852734788
  0.4306820695153253  0.4583617463480951  0.2208826251938477
  0.6799887404619243  0.5135593733474516  0.2385695745327117
  0.8402116757939875  0.7755931961548140  0.5138255995786466
  0.6164837520248154  0.4276257442025961  0.7877151753182882
  0.7658839374994959  0.5730898308485965  0.5679854922019584
  0.4829514845461587  0.3373298329487705  0.0905776060965865
  0.5012287554706963  0.1764931312475076  0.1947628827117193
  0.2645981148334241  0.0714051796340758  0.6018491143097514
  0.7771222500383386  0.1161796432540959  0.8526938301826070
  0.8219135257344791  0.1660081853471048  0.0487584689657539
  0.9645434156873931  0.0257282501699203  0.8286900421867723
  0.1241443721526141  0.5996600030083176  0.4059101757223241
  0.5726658302324169  0.3433685115198611  0.2801864848746359
  0.9273130147323869  0.5237874232768664  0.6619973940828903
  0.3494058251981005  0.5232631250274440  0.3791539510866666
  0.0085435958611382  0.7040994959477039  0.6661930294291629
  0.3312063625737595  0.6953497109403342  0.2917748122269070
  0.4150319707700652  0.9562994250605363  0.5943215661889893
  0.9026671524283516  0.2324002283956118  0.9032125384206385
  0.6999957914870327  0.2565355592747848  0.7601519226387128
  0.8285715962206134  0.0415471042098838  0.2609214129568400
  0.5959945313138132  0.4958429920631279  0.0817291441686645
  0.7346323179140473  0.7292902219344694  0.6465211307617895
  0.8594780288375606  0.5836696923367759  0.8284021639914031
  0.7726684971828863  0.7635550914923102  0.1600163711060499
  0.1435470817213950  0.2418464290886497  0.1445935244632020
  0.3264115072479957  0.3086345762175234  0.7540612227590172
  0.1806241623853604  0.2608776077181890  0.3209965189148496
  0.7585617032810523  0.8649280093236650  0.0178498819863055
  0.0102036491398603  0.8414876820172810  0.5568869692083996
  0.0181354160729282  0.6795171213992461  0.2130646186782599
  0.0579830393988948  0.9768174525901124  0.4032070293384444
  0.8644777768362554  0.6802374410651176  0.9761471206605031
  0.1591229014264673  0.1528190854191590  0.8430845556516963
  0.6430835544494354  0.0600980705097221  0.4812587894017202
  0.3843562862607341  0.6097455983420355  0.4519901285186592
  0.6892280097786850  0.0789859823086715  0.6765689176643384
  0.1295699175375694  0.5418146264652985  0.2154521343188244
  0.5808480021540806  0.2731440951816211  0.6046594055856133
  0.8635504668374072  0.0572171358319569  0.6805671504093548
  0.6275286481092939  0.4945271743720306  0.3863603881273645
  0.6836956661185253  0.6671084655482999  0.3470726004281957
  0.4626791778130663  0.8310033131775616  0.1222535247402125
  0.9763185417427320  0.8929034012895650  0.7200964670765315
  0.3275636501745318  0.3740422752612814  0.0021680638793639
  0.8953181661954820  0.9090735207535946  0.1543523823899321
  0.3530678186634044  0.6262147619081574  0.1341794142751280
  0.7935012555379266  0.9351838485167487  0.8261506133815056
  0.8134277584375835  0.9636902583861741  0.5094317744498505
  0.4943619234097050  0.5919646141810091  0.8606566124606729
  0.0285775488960193  0.5576879324289408  0.9394470231375721
  0.0713307574078340  0.2549819194575406  0.9698286515685832
  0.4203779256016205  0.5178630967821253  0.0277985532815775
  0.4125489659581659  0.6322126195711807  0.6889717606836432
  0.2903258680253017  0.3024756601897348  0.5800298285300667
  0.9303231007008671  0.3270747518123812  0.7568113854136388
  0.8353397141815878  0.3114864294384699  0.6037767949362152
  0.6126050130611908  0.8846569216366421  0.7941837697643304
  0.5202926544207785  0.9307161201942215  0.4372331533882545
  0.9793870747728610  0.2510745299585338  0.1180861241640863
  0.7711025497854243  0.5915371761894703  0.0974487485275321
  0.9520934902426690  0.5568186510512322  0.0966127411887743
  0.5284777227740520  0.1882278415613485 -0.0083117045363962
  0.2419123587931726  0.9448529102064273  0.1265000107465157
  0.0264353470192580  0.4859005884196942  0.8434661810924996
  0.3340196115070498  0.0749034482478518  0.1095060425618738
  0.9598669708196290  0.9768958685623484  0.0018904706205503
  0.1274796338435501  0.9071927097652609  0.2490052684053962
  0.2529506131592028  0.5747715890641464  0.5678826278262062
  0.6770462309979197  0.5475551625971244  0.9256615375831863
  0.8023512112409306  0.8933707730751755  0.6615610356645527
  0.0858983519502263  0.5068765415012432  0.5860349342442608
  0.9754039607556079  0.3674419262894967  0.4935392624373399
  0.3218912864711108  0.1300915853960973  0.8031238013924202
  0.1951706905248231  0.8002177929748915  0.3981998490465297
  0.4051983902482165  0.9485151484152170 -0.0047689126171035
  0.6985197303288584  0.3717990622704649  0.5100169465578136
  0.3536312789197752  0.9416282010807336  0.8134617965481199
  0.4147674176551504  0.2435457827636913  0.2398258275019397
  0.0662277366276503  0.1500737246509773  0.4947777995929553
  0.9568736232645714  0.5570251567737897  0.4690404986552580
  0.3605672241156523  0.4698861603165281  0.6554163270193730
  0.5197315336992293  0.6866234007378773  0.0165854551705385
  0.5966120989935920  0.9427939684745571  0.6124152570438069
  0.2988070486650897  0.7851633423623405  0.0194555357262409
  0.4234226856334991  0.1693713225773476  0.6415388974149033
  0.3381532374978512  0.3419709620474269  0.3827572806447673
  0.1904959883280107  0.7511594778051056  0.1568249214985019
  0.3129751076761111  0.8791672530385718  0.2470221006296698
  0.1151408801888853 -0.0065448004502591  0.9515423052715993
  0.0444683460070940  0.7530468512184981  0.8784707978670506
  0.5754453881703829  0.8711788163195129 -0.0238522387745433
  0.9162073770835484  0.3874486306056706  0.2136886157831812
  0.0452234408293561  0.1365784724382628  0.6750032154499298
  0.6244798253920276  0.8978238940768012  0.1623655217830977
  0.8019681771125845  0.1474519912561067  0.5288383802562446
  0.3668198788939052  0.1730206209320086  0.4589819751830907
  0.5486916212586044  0.7992087512090194  0.3071910165721500
  0.6704591682689871  0.0922895628186136  0.1540538410122376
  0.1565924049743226  0.7260675805994867  0.5523860048296390
  0.2070359823961780  0.4235713437239055  0.4635887738231787
  0.0880825570411922  0.4084401295401577  0.7230631199213789
  0.5153730197156503  0.2939654864584990  0.7703791464151137
  0.1920196203191116  0.0834821463225829  0.2616651087261009
  0.2474925669283101  0.5294502825304775  0.9503013699651799
  0.5786477611873321  0.6177242858052814  0.6060543657317833
  0.9106171855965974  0.1030149958333219  0.4159463278753460
  0.5168539259221790  0.1673264613560927  0.3710849017888392
  0.5940526285361755  0.6625027468104527  0.1677258993277982
  0.6948424668877743  0.9530422956341617  0.3466165098724083
  0.5473494516733312  0.2279582658895706  0.4905786689801501
 
  0.00000000E+00  0.00000000E+00  0.00000000E+00
  0.00000000E+00  0.00000000E+00  0.00000000E+00
  0.00000000E+00  0.00000000E+00  0.00000000E+00
  0.00000000E+00  0.00000000E+00  0.00000000E+00
  0.00000000E+00  0.00000000E+00  0.00000000E+00
  0.00000000E+00  0.00000000E+00  0.00000000E+00
  0.00000000E+00  0.00000000E+00  0.00000000E+00
  0.00000000E+00  0.00000000E+00  0.00000000E+00
  0.00000000E+00  0.00000000E+00  0.00000000E+00
  0.00000000E+00  0.00000000E+00  0.00000000E+00
  0.00000000E+00  0.00000000E+00  0.00000000E+00
  0.00000000E+00  0.00000000E+00  0.00000000E+00
  0.00000000E+00  0.00000000E+00  0.00000000E+00
  0.00000000E+00  0.00000000E+00  0.00000000E+00
  0.00000000E+00  0.00000000E+00  0.00000000E+00
  0.00000000E+00  0.00000000E+00  0.00000000E+00
  0.00000000E+00  0.00000000E+00  0.00000000E+00
  0.00000000E+00  0.00000000E+00  0.00000000E+00
  0.00000000E+00  0.00000000E+00  0.00000000E+00
  0.00000000E+00  0.00000000E+00  0.00000000E+00
  0.00000000E+00  0.00000000E+00  0.00000000E+00
  0.00000000E+00  0.00000000E+00  0.00000000E+00
  0.00000000E+00  0.00000000E+00  0.00000000E+00
  0.00000000E+00  0.00000000E+00  0.00000000E+00
  0.00000000E+00  0.00000000E+00  0.00000000E+00
  0.00000000E+00  0.00000000E+00  0.00000000E+00
  0.00000000E+00  0.00000000E+00  0.00000000E+00
  0.00000000E+00  0.00000000E+00  0.00000000E+00
  0.00000000E+00  0.00000000E+00  0.00000000E+00
  0.00000000E+00  0.00000000E+00  0.00000000E+00
  0.00000000E+00  0.00000000E+00  0.00000000E+00
  0.00000000E+00  0.00000000E+00  0.00000000E+00
  0.00000000E+00  0.00000000E+00  0.00000000E+00
  0.00000000E+00  0.00000000E+00  0.00000000E+00
  0.00000000E+00  0.00000000E+00  0.00000000E+00
  0.00000000E+00  0.00000000E+00  0.00000000E+00
  0.00000000E+00  0.00000000E+00  0.00000000E+00
  0.00000000E+00  0.00000000E+00  0.00000000E+00
  0.00000000E+00  0.00000000E+00  0.00000000E+00
  0.00000000E+00  0.00000000E+00  0.00000000E+00
  0.00000000E+00  0.00000000E+00  0.00000000E+00
  0.00000000E+00  0.00000000E+00  0.00000000E+00
  0.00000000E+00  0.00000000E+00  0.00000000E+00
  0.00000000E+00  0.00000000E+00  0.00000000E+00
  0.00000000E+00  0.00000000E+00  0.00000000E+00
  0.00000000E+00  0.00000000E+00  0.00000000E+00
  0.00000000E+00  0.00000000E+00  0.00000000E+00
  0.00000000E+00  0.00000000E+00  0.00000000E+00
  0.00000000E+00  0.00000000E+00  0.00000000E+00
  0.00000000E+00  0.00000000E+00  0.00000000E+00
  0.00000000E+00  0.00000000E+00  0.00000000E+00
  0.00000000E+00  0.00000000E+00  0.00000000E+00
  0.00000000E+00  0.00000000E+00  0.00000000E+00
  0.00000000E+00  0.00000000E+00  0.00000000E+00
  0.00000000E+00  0.00000000E+00  0.00000000E+00
  0.00000000E+00  0.00000000E+00  0.00000000E+00
  0.00000000E+00  0.00000000E+00  0.00000000E+00
  0.00000000E+00  0.00000000E+00  0.00000000E+00
  0.00000000E+00  0.00000000E+00  0.00000000E+00
  0.00000000E+00  0.00000000E+00  0.00000000E+00
  0.00000000E+00  0.00000000E+00  0.00000000E+00
  0.00000000E+00  0.00000000E+00  0.00000000E+00
  0.00000000E+00  0.00000000E+00  0.00000000E+00
  0.00000000E+00  0.00000000E+00  0.00000000E+00
  0.00000000E+00  0.00000000E+00  0.00000000E+00
  0.00000000E+00  0.00000000E+00  0.00000000E+00
  0.00000000E+00  0.00000000E+00  0.00000000E+00
  0.00000000E+00  0.00000000E+00  0.00000000E+00
  0.00000000E+00  0.00000000E+00  0.00000000E+00
  0.00000000E+00  0.00000000E+00  0.00000000E+00
  0.00000000E+00  0.00000000E+00  0.00000000E+00
  0.00000000E+00  0.00000000E+00  0.00000000E+00
  0.00000000E+00  0.00000000E+00  0.00000000E+00
  0.00000000E+00  0.00000000E+00  0.00000000E+00
  0.00000000E+00  0.00000000E+00  0.00000000E+00
  0.00000000E+00  0.00000000E+00  0.00000000E+00
  0.00000000E+00  0.00000000E+00  0.00000000E+00
  0.00000000E+00  0.00000000E+00  0.00000000E+00
  0.00000000E+00  0.00000000E+00  0.00000000E+00
  0.00000000E+00  0.00000000E+00  0.00000000E+00
  0.00000000E+00  0.00000000E+00  0.00000000E+00
  0.00000000E+00  0.00000000E+00  0.00000000E+00
  0.00000000E+00  0.00000000E+00  0.00000000E+00
  0.00000000E+00  0.00000000E+00  0.00000000E+00
  0.00000000E+00  0.00000000E+00  0.00000000E+00
  0.00000000E+00  0.00000000E+00  0.00000000E+00
  0.00000000E+00  0.00000000E+00  0.00000000E+00
  0.00000000E+00  0.00000000E+00  0.00000000E+00
  0.00000000E+00  0.00000000E+00  0.00000000E+00
  0.00000000E+00  0.00000000E+00  0.00000000E+00
  0.00000000E+00  0.00000000E+00  0.00000000E+00
  0.00000000E+00  0.00000000E+00  0.00000000E+00
  0.00000000E+00  0.00000000E+00  0.00000000E+00
  0.00000000E+00  0.00000000E+00  0.00000000E+00
  0.00000000E+00  0.00000000E+00  0.00000000E+00
  0.00000000E+00  0.00000000E+00  0.00000000E+00
  0.00000000E+00  0.00000000E+00  0.00000000E+00
  0.00000000E+00  0.00000000E+00  0.00000000E+00
  0.00000000E+00  0.00000000E+00  0.00000000E+00
  0.00000000E+00  0.00000000E+00  0.00000000E+00
  0.00000000E+00  0.00000000E+00  0.00000000E+00
  0.00000000E+00  0.00000000E+00  0.00000000E+00
  0.00000000E+00  0.00000000E+00  0.00000000E+00
  0.00000000E+00  0.00000000E+00  0.00000000E+00
  0.00000000E+00  0.00000000E+00  0.00000000E+00
  0.00000000E+00  0.00000000E+00  0.00000000E+00
  0.00000000E+00  0.00000000E+00  0.00000000E+00
  0.00000000E+00  0.00000000E+00  0.00000000E+00
  0.00000000E+00  0.00000000E+00  0.00000000E+00
  0.00000000E+00  0.00000000E+00  0.00000000E+00
  0.00000000E+00  0.00000000E+00  0.00000000E+00
  0.00000000E+00  0.00000000E+00  0.00000000E+00
  0.00000000E+00  0.00000000E+00  0.00000000E+00
  0.00000000E+00  0.00000000E+00  0.00000000E+00
  0.00000000E+00  0.00000000E+00  0.00000000E+00
  0.00000000E+00  0.00000000E+00  0.00000000E+00
  0.00000000E+00  0.00000000E+00  0.00000000E+00
  0.00000000E+00  0.00000000E+00  0.00000000E+00
  0.00000000E+00  0.00000000E+00  0.00000000E+00
  0.00000000E+00  0.00000000E+00  0.00000000E+00
  0.00000000E+00  0.00000000E+00  0.00000000E+00
  0.00000000E+00  0.00000000E+00  0.00000000E+00
  0.00000000E+00  0.00000000E+00  0.00000000E+00
  0.00000000E+00  0.00000000E+00  0.00000000E+00
  0.00000000E+00  0.00000000E+00  0.00000000E+00
  0.00000000E+00  0.00000000E+00  0.00000000E+00
  0.00000000E+00  0.00000000E+00  0.00000000E+00
  0.00000000E+00  0.00000000E+00  0.00000000E+00
  0.00000000E+00  0.00000000E+00  0.00000000E+00
  0.00000000E+00  0.00000000E+00  0.00000000E+00
  0.00000000E+00  0.00000000E+00  0.00000000E+00
  0.00000000E+00  0.00000000E+00  0.00000000E+00
  0.00000000E+00  0.00000000E+00  0.00000000E+00
  0.00000000E+00  0.00000000E+00  0.00000000E+00
  0.00000000E+00  0.00000000E+00  0.00000000E+00
  0.00000000E+00  0.00000000E+00  0.00000000E+00
  0.00000000E+00  0.00000000E+00  0.00000000E+00
  0.00000000E+00  0.00000000E+00  0.00000000E+00
  0.00000000E+00  0.00000000E+00  0.00000000E+00
  0.00000000E+00  0.00000000E+00  0.00000000E+00
  0.00000000E+00  0.00000000E+00  0.00000000E+00
  0.00000000E+00  0.00000000E+00  0.00000000E+00
  0.00000000E+00  0.00000000E+00  0.00000000E+00
  0.00000000E+00  0.00000000E+00  0.00000000E+00
  0.00000000E+00  0.00000000E+00  0.00000000E+00
  0.00000000E+00  0.00000000E+00  0.00000000E+00
  0.00000000E+00  0.00000000E+00  0.00000000E+00
  0.00000000E+00  0.00000000E+00  0.00000000E+00
  0.00000000E+00  0.00000000E+00  0.00000000E+00
  0.00000000E+00  0.00000000E+00  0.00000000E+00
  0.00000000E+00  0.00000000E+00  0.00000000E+00
  0.00000000E+00  0.00000000E+00  0.00000000E+00
  0.00000000E+00  0.00000000E+00  0.00000000E+00
  0.00000000E+00  0.00000000E+00  0.00000000E+00
  0.00000000E+00  0.00000000E+00  0.00000000E+00
  0.00000000E+00  0.00000000E+00  0.00000000E+00
  0.00000000E+00  0.00000000E+00  0.00000000E+00
  0.00000000E+00  0.00000000E+00  0.00000000E+00
  0.00000000E+00  0.00000000E+00  0.00000000E+00
  0.00000000E+00  0.00000000E+00  0.00000000E+00
  0.00000000E+00  0.00000000E+00  0.00000000E+00
  0.00000000E+00  0.00000000E+00  0.00000000E+00
  0.00000000E+00  0.00000000E+00  0.00000000E+00
  0.00000000E+00  0.00000000E+00  0.00000000E+00
  0.00000000E+00  0.00000000E+00  0.00000000E+00
  0.00000000E+00  0.00000000E+00  0.00000000E+00
  0.00000000E+00  0.00000000E+00  0.00000000E+00
  0.00000000E+00  0.00000000E+00  0.00000000E+00
  0.00000000E+00  0.00000000E+00  0.00000000E+00
  0.00000000E+00  0.00000000E+00  0.00000000E+00
  0.00000000E+00  0.00000000E+00  0.00000000E+00
  0.00000000E+00  0.00000000E+00  0.00000000E+00
  0.00000000E+00  0.00000000E+00  0.00000000E+00
  0.00000000E+00  0.00000000E+00  0.00000000E+00
  0.00000000E+00  0.00000000E+00  0.00000000E+00
  0.00000000E+00  0.00000000E+00  0.00000000E+00
  0.00000000E+00  0.00000000E+00  0.00000000E+00
  0.00000000E+00  0.00000000E+00  0.00000000E+00
  0.00000000E+00  0.00000000E+00  0.00000000E+00
  0.00000000E+00  0.00000000E+00  0.00000000E+00
  0.00000000E+00  0.00000000E+00  0.00000000E+00
  0.00000000E+00  0.00000000E+00  0.00000000E+00
  0.00000000E+00  0.00000000E+00  0.00000000E+00
  0.00000000E+00  0.00000000E+00  0.00000000E+00
  0.00000000E+00  0.00000000E+00  0.00000000E+00
  0.00000000E+00  0.00000000E+00  0.00000000E+00
  0.00000000E+00  0.00000000E+00  0.00000000E+00
  0.00000000E+00  0.00000000E+00  0.00000000E+00
  0.00000000E+00  0.00000000E+00  0.00000000E+00
  0.00000000E+00  0.00000000E+00  0.00000000E+00
  0.00000000E+00  0.00000000E+00  0.00000000E+00
  0.00000000E+00  0.00000000E+00  0.00000000E+00
  0.00000000E+00  0.00000000E+00  0.00000000E+00
  0.00000000E+00  0.00000000E+00  0.00000000E+00
  0.00000000E+00  0.00000000E+00  0.00000000E+00
  0.00000000E+00  0.00000000E+00  0.00000000E+00
  0.00000000E+00  0.00000000E+00  0.00000000E+00
  0.00000000E+00  0.00000000E+00  0.00000000E+00
  0.00000000E+00  0.00000000E+00  0.00000000E+00
  0.00000000E+00  0.00000000E+00  0.00000000E+00
  0.00000000E+00  0.00000000E+00  0.00000000E+00
  0.00000000E+00  0.00000000E+00  0.00000000E+00
  0.00000000E+00  0.00000000E+00  0.00000000E+00
  0.00000000E+00  0.00000000E+00  0.00000000E+00
  0.00000000E+00  0.00000000E+00  0.00000000E+00
  0.00000000E+00  0.00000000E+00  0.00000000E+00
  0.00000000E+00  0.00000000E+00  0.00000000E+00
  0.00000000E+00  0.00000000E+00  0.00000000E+00
  0.00000000E+00  0.00000000E+00  0.00000000E+00
  0.00000000E+00  0.00000000E+00  0.00000000E+00
  0.00000000E+00  0.00000000E+00  0.00000000E+00
  0.00000000E+00  0.00000000E+00  0.00000000E+00
  0.00000000E+00  0.00000000E+00  0.00000000E+00
  0.00000000E+00  0.00000000E+00  0.00000000E+00
  0.00000000E+00  0.00000000E+00  0.00000000E+00
  0.00000000E+00  0.00000000E+00  0.00000000E+00
  0.00000000E+00  0.00000000E+00  0.00000000E+00
  0.00000000E+00  0.00000000E+00  0.00000000E+00
  0.00000000E+00  0.00000000E+00  0.00000000E+00
  0.00000000E+00  0.00000000E+00  0.00000000E+00
  0.00000000E+00  0.00000000E+00  0.00000000E+00
  0.00000000E+00  0.00000000E+00  0.00000000E+00
  0.00000000E+00  0.00000000E+00  0.00000000E+00
  0.00000000E+00  0.00000000E+00  0.00000000E+00
  0.00000000E+00  0.00000000E+00  0.00000000E+00
  0.00000000E+00  0.00000000E+00  0.00000000E+00
  0.00000000E+00  0.00000000E+00  0.00000000E+00
  0.00000000E+00  0.00000000E+00  0.00000000E+00
  0.00000000E+00  0.00000000E+00  0.00000000E+00
  0.00000000E+00  0.00000000E+00  0.00000000E+00
  0.00000000E+00  0.00000000E+00  0.00000000E+00
  0.00000000E+00  0.00000000E+00  0.00000000E+00