Sb                                      
   1.00000000000000     
    18.9173007964999940    0.0000000000000000    0.0000000000000000
     0.0000000000000000   18.9173007964999940    0.0000000000000000
     0.0000000000000000    0.0000000000000000   18.9173007964999940
   Hg   Te
   100   100
Direct
  0.3808867251179323  0.8678419165475019  0.9777793660811384
  0.5814997699564952  0.8076536331060684  0.3816472845406911
  0.9387289517366494  0.2046821842921045  0.9258018698164735
  0.4373630984545088  0.6423387800420496  0.9681023441538106
  0.3103684575629314  0.0258761821054734  0.5605078527582118
  0.4438159516407675  0.3662364174530832  0.4477744052633341
  0.8637460087344258  0.8634190871879643  0.6698181311014921
  0.7007724872380894  0.1469323144655624  0.8362523827623695
  0.6379206972080982  0.5232780303852698  0.7020021149600593
  0.0744728784023790  0.9124912720144238  0.6546557197136564
  0.9339721684952283  0.4240588825712814  0.1492943644236543
  0.4144898401819448  0.7084682446017971  0.1469218904568149
  0.6995334501286053  0.1102028765937776  0.4609977959511343
  0.6931420613550247  0.7204701271675042  0.8172370424672848
  0.2894035679720184  0.3597360663981584  0.5111356107038675
  0.1850580771539736  0.2165885468989032  0.7612809426606665
  0.8329530915406187  0.0572460763842560  0.2882840979924377
  0.0975596627019104  0.2103833548179288  0.9723053785137582
  0.7665465107157114  0.4987760145331760  0.0005785430092082
  0.2493678219313130  0.5307179354341091  0.6346651064388065
  0.9721659513021897  0.7905800942960238  0.1352587079905381
  0.3018835862160819  0.2137825241407038  0.4463466678349227
  0.6738942497607370  0.6338033512996121  0.9580319444243394
  0.7371604477217774  0.0120565875381796  0.9311490556780326
  0.0322741845899002  0.4166551962240960  0.6832734742134996
  0.5308404914038132  0.9220159926814974  0.8139892547224483
  0.8544016796461271  0.8886797153988054  0.8768285158194798
  0.5604221070927797  0.5444793605223751  0.3861977402935173
  0.2288573960519001  0.2955141851389617  0.2686099572484768
  0.1578620297134317  0.0746162733523349  0.7038342317985661
  0.6049376691785889  0.3264415488648966  0.4239593465548636
  0.2942541948717859  0.0773940719957651  0.0377734797849183
  0.4810930414488277  0.8860134112063467  0.5929571376941229
  0.9295061268781841  0.7240914134392271  0.8126370984870452
  0.2462991235760303  0.5877279525746349  0.0519675738650163
  0.6864381929171177  0.8454188060792263  0.9086675482163040
  0.7506801040074688  0.2731269457316738  0.0511042661489959
  0.0115161761347633  0.6245241255436481  0.0044547429204134
  0.1178944004768968  0.6749172818493827  0.5443946466486099
  0.1667600431680621  0.3107777333138901  0.6177341524422867
  0.4328483579744085  0.3637979073199661  0.9581773684129055
  0.1663348666577962  0.1630769307199327  0.3659194998608500
  0.5810196496718032  0.2534417447091933  0.6784626151188539
  0.5425926942955065  0.4994576207661138  0.8671115162971075
  0.0672568413436186  0.9478353957551240  0.0243738932675115
 -0.0112971624196709  0.4501071910733430  0.0154260667945291
  0.6518239394426421  0.8748037108566408  0.0479719776848449
  0.9110704181879123  0.5878714792198878  0.1370603712957193
  0.9818030994672700  0.2884704488721112  0.3112883724414915
  0.2031759483808404  0.3563598058633458  0.8427625381361274
  0.8194362440974388  0.7442949141977642  0.9504882879023262
  0.0520112190391247  0.3889288797671228  0.4808635052439250
  0.5674368969471304  0.6748865543294885  0.5680102821821331
  0.5230286137003521  0.0833454824836947  0.1139895287843847
 -0.0012675450338450  0.1071257634617821  0.1196879658897768
  0.8321335072990883  0.5519382233846364  0.2801525850576820
  0.3569109683002012  0.5905339358058127  0.2086713459053040
  0.3948318096375527  0.2428219645459520  0.3062408283770250
  0.8261852142049635  0.3528838669154931  0.8377166674698150
  0.9122739190899749  0.6811243460952817  0.5929369440149896
  0.5524013348598023  0.1882514752712411  0.2989775767063660
  0.5665443754135010  0.3967208558243282  0.0079474256373614
  0.2331836217580862  0.1568112600248244  0.2195773132808967
  0.9162045446819006  0.0101391217079876  0.5181989322440445
  0.4517280603897699  0.2067894789402798  0.8397150735657247
  0.7257962733402188  0.4773446778644851  0.5013183129864103
  0.1082832293387124  0.2721938763602266  0.1309787275682527
  0.3948467585282705  0.7645807145884040  0.7785860086944386
  0.6740208515675645  0.8527990099602805  0.2794692307945418
  0.1399169639597572  0.8586810141210953  0.2144671132418753
  0.8232795305643109  0.0684906923610717  0.0874419568809617
  0.3953890156517158  0.6757077482134475  0.3797200386841939
  0.4912571140112541  0.4923413382614063  0.1379267817946849
  0.1328488840071601  0.4748462120274812  0.1122566903833455
  0.8006437329375307  0.3792317754786257  0.7000732204797476
  0.0002931427845073  0.4210036440993001  0.8674533271293825
  0.5117883294717741  0.0502091968147811  0.2852880323419918
  0.4050836785536370  0.2780941350211856  0.1121634596988532
  0.1370011820581228  0.5382579650595407  0.9228353275372648
  0.5450961093706546  0.2303700426248036  0.0974703417538925
  0.2168736037370095  0.6368586820130075  0.2639487940616019
  0.6316147429719341  0.0522990849037056  0.6476382925561979
  0.1225607526404819  0.6068361068132361  0.3958975555665908
  0.9665890511415438  0.1268475341949967  0.6185563171452363
  0.8804214547111592  0.5762130712716341  0.9519839309221967
  0.6543030572607121  0.5539988851078004  0.1951897816721309
  0.1302433798851844  0.3730113615216589 -0.0162152355432539
  0.0268864898695280  0.5331075783563111  0.5706327263789249
  0.3152453445542486  0.2770810009213407  0.9398398640537384
  0.4346715967255217  0.5873845987833131  0.7174448334904987
  0.9101355689031139  0.1735919316301129  0.4904454234512087
  0.8429235702726660  0.9886764472303060  0.7452691041305383
  0.1225512740897868  0.0107597205168867  0.4774600872288597
  0.8018849001866173  0.7281715712172420  0.4395238922079709
  0.7072007758279285  0.9036248533573242  0.5406700856811218
  0.9346858721027120  0.5103543936190841  0.7566857960089544
  0.1243121452069161  0.6942406436186427  0.8598789742672904
  0.0219805912459783  0.5423496880959127  0.2964450245082862
  0.1701756883963305  0.4590388239347656  0.4372496667027337
  0.7892951838503361  0.1844082728011511  0.6695040856177207
  0.2887677521061638  0.5375312379601219  0.4912734345223828
  0.7813843670760300  0.7055759161349309  0.1036925132954075
  0.8174612380545017  0.7977511541507574  0.3077106065803564
  0.9436811208247584  0.6636688619894847  0.4504486906678487
  0.5453701825897846  0.0249889689352907  0.9246885180351263
  0.6867388996448397  0.4146230011925488  0.0951812923675427
  0.2251957949862131  0.6805652946377319  0.6838251676455090
  0.6137356903161488  0.2982998362310583  0.2177208267802550
  0.8601356478360773  0.3663271620815818  0.3668998197925162
  0.6858951765855664  0.0159543109203496  0.1078591485338722
  0.9673996845201809  0.2813442511996871  0.6765671320402608
  0.2663346271662117  0.3522328357434933  0.0961000687394653
  0.4071026934133937  0.0864682085839337  0.9094598344882826
  0.6170182795527867  0.7766603353075698  0.1556025737915958
  0.7031746633817836  0.8206728189598843  0.6682997501882831
  0.2839944076365877  0.8057387250061024  0.2437807345629308
  0.5667331962915167  0.1934642828781571  0.4640512087153462
  0.1862365160495893  0.1137780122608257  0.5621741522597459
  0.2775036163895383  0.8815623230947481  0.5928457760963424
  0.4854928683470264  0.3875675680589912  0.2403768984302040
  0.3066252478379687  0.7109949377009925  0.9929081903215653
  0.7052432930772395  0.6375017671863403  0.5060587906123362
  0.5756490866478752  0.1234559967869726  0.7640844088225791
  0.0610706210765640  0.4090780222296057  0.2443361249120615
  0.3640629253426887  0.3767349112080492  0.7678759746252760
  0.8363075496261986  0.8419244936213487  0.1316221298749024
  0.8471829928070401  0.4728878734947089  0.5883480001935040
  0.6290882840778326  0.9730760126594664  0.4357201892423188
  0.9316875360635359  0.0697125125330324  0.9849880453397983
  0.2696269941637675  0.6887494561563472  0.4480881611891026
  0.2421101524528761  0.1457570016883776  0.9164141356113087
  0.6752944154077509  0.9285839125520429  0.7634182212237831
  0.1449441938311821  0.8630653263487650  0.5291490313913049
  0.6565994732898928  0.3197714571467252  0.8834422797990275
  0.9880093033320342  0.8283539333847297  0.4262123203819859
  0.5380834507171031  0.6148911583697069  0.0727470836387112
  0.3689868423444446  0.7087318926735751  0.6469978119695551
  0.6830610754479339  0.4769248527692612  0.8371650405174100
  0.3702974992196679  0.4788580110216584  0.3102056994527783
  0.5274009367879819  0.0245045102101117  0.5397958259456845
  0.0119794250543038  0.0288218582398243  0.7223716383275679
  0.2691326450420927  0.6799520620142893  0.8407102396042083
  0.7805109899800536  0.6248563861741656  0.6437981517767353
  0.2017105230477834  0.8697054114730279  0.7425099763124540
  0.6444852938056643  0.1958196583075479  0.9772644448021288
  0.8094639238435056  0.1696961281748695  0.3784422999648779
  0.7084133408672649  0.2923079304632866  0.6115396805856758
  0.4827611968226891  0.8399021528872911  0.1777789575639569
  0.2468771235880851  0.8403489973146177  0.3843792002611079
  0.9453459148144818  0.2421933384543594  0.1684457297187869
  0.3646653464800918  0.0561241108616844  0.4169702630846839
  0.7495978488371506  0.6748600950235102  0.2573566066201612
  0.1446175058379932  0.0746218674653883  0.1257933146630917
  0.8417008520934628  0.1351312099150714  0.7993073465969278
  0.0747774886293288  0.6183239225289362  0.7304606433792526
  0.3655467140968939  0.1108711735600153  0.1648048795085923
  0.3918743800955194  0.4564232441357772  0.6463881764751644
  0.4781991137424758  0.7946685708133729  0.8926662894944176
  0.0276741090392524  0.2680538764454550  0.8165293679373078
  0.0959317406083658 -0.0042781883179224  0.2546674162643404
  0.4047469518602054  0.5397352525645721  0.8602244421628210
  0.8012917928230968  0.2030161745455930  0.1744212630648365
  0.2672216186990409  0.9247539922531277  0.0482457486076059
  0.3338719941056533  0.9475923718812227  0.1903933100965602
  0.4151662252876634  0.9315730826394477  0.7177004860903922
  0.9130762195483010  0.3413305323554750  0.5254646136728919
  0.3419981890571033  0.4720728218387275  0.0552553537358498
  0.4204905923015617  0.0774180489391388  0.6549196600037240
  0.4877187816479273  0.7768885265099392  0.4973473309621075
  0.1093610657036816  0.7927437175948494  0.0841873521924947
  0.2306912915854177  0.0000188067831475  0.8136174182293306
  0.1199403391968950  0.6376759005178941  0.1164986818754687
  0.5970012432902011  0.4403204853768447  0.5864952489278261
  0.6800051850832588  0.0033476419344230  0.2555248384890325
  0.6684966482587860  0.4444814195878621  0.3674439424837105
  0.2246301765862298  0.4436485882622302  0.2897473064457565
  0.0517004421418371  0.2291879058280420  0.4271309772106669
  0.5721331145860822  0.6555587531282919  0.7155775519484042
  0.8074461314884849  0.4089372358365053  0.2278414737046909
  0.5048741408698737  0.9396423627343018  0.0474270268001375
  0.5165194530153219  0.6577043344269115  0.3053191881957204
  0.0942445752964740  0.7643031930043489  0.3295784163014547
  0.5010326202005296  0.5349225476740361  0.5257158875259813
 -0.0079363951843706  0.7697611592078558  0.6823590424724909
  0.9085379963877198  0.5101529001056869  0.4053253679954760
  0.1143891200790589  0.9033349448776969  0.8679162533640549
  0.8300200741545830  0.6162829187186842  0.7999373382716604
  0.0091851948283270 -0.0250434500946438  0.3870233243293023
  0.8688094177654360  0.3285923316648687  0.9765754543022820
  0.5238544622965148  0.3354353556877687  0.8048545054380728
  0.7664675737089682  0.0545106808862527  0.5894447890703078
  0.9814725393697254  0.6869441327567057  0.2611375108855423
  0.9153849211989536  0.9870960169581086  0.1919652755787553
  0.2269530444495728  0.0272313759779518  0.3418736026614571
  0.1543273954729985  0.4890822503986278  0.7445780510068236
  0.0199156535342945  0.7791582136879539  0.9177948365900486
  0.3538042414949385  0.2365521422583214  0.7087127266050599
  0.4539553477665685  0.2309999901672683  0.5931787469961239
  0.4207845061143632  0.9421593278739786  0.3337999652666241
  0.8540077248105993  0.8577516718060135  0.5154695073728502
 
  0.00000000E+00  0.00000000E+00  0.00000000E+00
  0.00000000E+00  0.00000000E+00  0.00000000E+00
  0.00000000E+00  0.00000000E+00  0.00000000E+00
  0.00000000E+00  0.00000000E+00  0.00000000E+00
  0.00000000E+00  0.00000000E+00  0.00000000E+00
  0.00000000E+00  0.00000000E+00  0.00000000E+00
  0.00000000E+00  0.00000000E+00  0.00000000E+00
  0.00000000E+00  0.00000000E+00  0.00000000E+00
  0.00000000E+00  0.00000000E+00  0.00000000E+00
  0.00000000E+00  0.00000000E+00  0.00000000E+00
  0.00000000E+00  0.00000000E+00  0.00000000E+00
  0.00000000E+00  0.00000000E+00  0.00000000E+00
  0.00000000E+00  0.00000000E+00  0.00000000E+00
  0.00000000E+00  0.00000000E+00  0.00000000E+00
  0.00000000E+00  0.00000000E+00  0.00000000E+00
  0.00000000E+00  0.00000000E+00  0.00000000E+00
  0.00000000E+00  0.00000000E+00  0.00000000E+00
  0.00000000E+00  0.00000000E+00  0.00000000E+00
  0.00000000E+00  0.00000000E+00  0.00000000E+00
  0.00000000E+00  0.00000000E+00  0.00000000E+00
  0.00000000E+00  0.00000000E+00  0.00000000E+00
  0.00000000E+00  0.00000000E+00  0.00000000E+00
  0.00000000E+00  0.00000000E+00  0.00000000E+00
  0.00000000E+00  0.00000000E+00  0.00000000E+00
  0.00000000E+00  0.00000000E+00  0.00000000E+00
  0.00000000E+00  0.00000000E+00  0.00000000E+00
  0.00000000E+00  0.00000000E+00  0.00000000E+00
  0.00000000E+00  0.00000000E+00  0.00000000E+00
  0.00000000E+00  0.00000000E+00  0.00000000E+00
  0.00000000E+00  0.00000000E+00  0.00000000E+00
  0.00000000E+00  0.00000000E+00  0.00000000E+00
  0.00000000E+00  0.00000000E+00  0.00000000E+00
  0.00000000E+00  0.00000000E+00  0.00000000E+00
  0.00000000E+00  0.00000000E+00  0.00000000E+00
  0.00000000E+00  0.00000000E+00  0.00000000E+00
  0.00000000E+00  0.00000000E+00  0.00000000E+00
  0.00000000E+00  0.00000000E+00  0.00000000E+00
  0.00000000E+00  0.00000000E+00  0.00000000E+00
  0.00000000E+00  0.00000000E+00  0.00000000E+00
  0.00000000E+00  0.00000000E+00  0.00000000E+00
  0.00000000E+00  0.00000000E+00  0.00000000E+00
  0.00000000E+00  0.00000000E+00  0.00000000E+00
  0.00000000E+00  0.00000000E+00  0.00000000E+00
  0.00000000E+00  0.00000000E+00  0.00000000E+00
  0.00000000E+00  0.00000000E+00  0.00000000E+00
  0.00000000E+00  0.00000000E+00  0.00000000E+00
  0.00000000E+00  0.00000000E+00  0.00000000E+00
  0.00000000E+00  0.00000000E+00  0.00000000E+00
  0.00000000E+00  0.00000000E+00  0.00000000E+00
  0.00000000E+00  0.00000000E+00  0.00000000E+00
  0.00000000E+00  0.00000000E+00  0.00000000E+00
  0.00000000E+00  0.00000000E+00  0.00000000E+00
  0.00000000E+00  0.00000000E+00  0.00000000E+00
  0.00000000E+00  0.00000000E+00  0.00000000E+00
  0.00000000E+00  0.00000000E+00  0.00000000E+00
  0.00000000E+00  0.00000000E+00  0.00000000E+00
  0.00000000E+00  0.00000000E+00  0.00000000E+00
  0.00000000E+00  0.00000000E+00  0.00000000E+00
  0.00000000E+00  0.00000000E+00  0.00000000E+00
  0.00000000E+00  0.00000000E+00  0.00000000E+00
  0.00000000E+00  0.00000000E+00  0.00000000E+00
  0.00000000E+00  0.00000000E+00  0.00000000E+00
  0.00000000E+00  0.00000000E+00  0.00000000E+00
  0.00000000E+00  0.00000000E+00  0.00000000E+00
  0.00000000E+00  0.00000000E+00  0.00000000E+00
  0.00000000E+00  0.00000000E+00  0.00000000E+00
  0.00000000E+00  0.00000000E+00  0.00000000E+00
  0.00000000E+00  0.00000000E+00  0.00000000E+00
  0.00000000E+00  0.00000000E+00  0.00000000E+00
  0.00000000E+00  0.00000000E+00  0.00000000E+00
  0.00000000E+00  0.00000000E+00  0.00000000E+00
  0.00000000E+00  0.00000000E+00  0.00000000E+00
  0.00000000E+00  0.00000000E+00  0.00000000E+00
  0.00000000E+00  0.00000000E+00  0.00000000E+00
  0.00000000E+00  0.00000000E+00  0.00000000E+00
  0.00000000E+00  0.00000000E+00  0.00000000E+00
  0.00000000E+00  0.00000000E+00  0.00000000E+00
  0.00000000E+00  0.00000000E+00  0.00000000E+00
  0.00000000E+00  0.00000000E+00  0.00000000E+00
  0.00000000E+00  0.00000000E+00  0.00000000E+00
  0.00000000E+00  0.00000000E+00  0.00000000E+00
  0.00000000E+00  0.00000000E+00  0.00000000E+00
  0.00000000E+00  0.00000000E+00  0.00000000E+00
  0.00000000E+00  0.00000000E+00  0.00000000E+00
  0.00000000E+00  0.00000000E+00  0.00000000E+00
  0.00000000E+00  0.00000000E+00  0.00000000E+00
  0.00000000E+00  0.00000000E+00  0.00000000E+00
  0.00000000E+00  0.00000000E+00  0.00000000E+00
  0.00000000E+00  0.00000000E+00  0.00000000E+00
  0.00000000E+00  0.00000000E+00  0.00000000E+00
  0.00000000E+00  0.00000000E+00  0.00000000E+00
  0.00000000E+00  0.00000000E+00  0.00000000E+00
  0.00000000E+00  0.00000000E+00  0.00000000E+00
  0.00000000E+00  0.00000000E+00  0.00000000E+00
  0.00000000E+00  0.00000000E+00  0.00000000E+00
  0.00000000E+00  0.00000000E+00  0.00000000E+00
  0.00000000E+00  0.00000000E+00  0.00000000E+00
  0.00000000E+00  0.00000000E+00  0.00000000E+00
  0.00000000E+00  0.00000000E+00  0.00000000E+00
  0.00000000E+00  0.00000000E+00  0.00000000E+00
  0.00000000E+00  0.00000000E+00  0.00000000E+00
  0.00000000E+00  0.00000000E+00  0.00000000E+00
  0.00000000E+00  0.00000000E+00  0.00000000E+00
  0.00000000E+00  0.00000000E+00  0.00000000E+00
  0.00000000E+00  0.00000000E+00  0.00000000E+00
  0.00000000E+00  0.00000000E+00  0.00000000E+00
  0.00000000E+00  0.00000000E+00  0.00000000E+00
  0.00000000E+00  0.00000000E+00  0.00000000E+00
  0.00000000E+00  0.00000000E+00  0.00000000E+00
  0.00000000E+00  0.00000000E+00  0.00000000E+00
  0.00000000E+00  0.00000000E+00  0.00000000E+00
  0.00000000E+00  0.00000000E+00  0.00000000E+00
  0.00000000E+00  0.00000000E+00  0.00000000E+00
  0.00000000E+00  0.00000000E+00  0.00000000E+00
  0.00000000E+00  0.00000000E+00  0.00000000E+00
  0.00000000E+00  0.00000000E+00  0.00000000E+00
  0.00000000E+00  0.00000000E+00  0.00000000E+00
  0.00000000E+00  0.00000000E+00  0.00000000E+00
  0.00000000E+00  0.00000000E+00  0.00000000E+00
  0.00000000E+00  0.00000000E+00  0.00000000E+00
  0.00000000E+00  0.00000000E+00  0.00000000E+00
  0.00000000E+00  0.00000000E+00  0.00000000E+00
  0.00000000E+00  0.00000000E+00  0.00000000E+00
  0.00000000E+00  0.00000000E+00  0.00000000E+00
  0.00000000E+00  0.00000000E+00  0.00000000E+00
  0.00000000E+00  0.00000000E+00  0.00000000E+00
  0.00000000E+00  0.00000000E+00  0.00000000E+00
  0.00000000E+00  0.00000000E+00  0.00000000E+00
  0.00000000E+00  0.00000000E+00  0.00000000E+00
  0.00000000E+00  0.00000000E+00  0.00000000E+00
  0.00000000E+00  0.00000000E+00  0.00000000E+00
  0.00000000E+00  0.00000000E+00  0.00000000E+00
  0.00000000E+00  0.00000000E+00  0.00000000E+00
  0.00000000E+00  0.00000000E+00  0.00000000E+00
  0.00000000E+00  0.00000000E+00  0.00000000E+00
  0.00000000E+00  0.00000000E+00  0.00000000E+00
  0.00000000E+00  0.00000000E+00  0.00000000E+00
  0.00000000E+00  0.00000000E+00  0.00000000E+00
  0.00000000E+00  0.00000000E+00  0.00000000E+00
  0.00000000E+00  0.00000000E+00  0.00000000E+00
  0.00000000E+00  0.00000000E+00  0.00000000E+00
  0.00000000E+00  0.00000000E+00  0.00000000E+00
  0.00000000E+00  0.00000000E+00  0.00000000E+00
  0.00000000E+00  0.00000000E+00  0.00000000E+00
  0.00000000E+00  0.00000000E+00  0.00000000E+00
  0.00000000E+00  0.00000000E+00  0.00000000E+00
  0.00000000E+00  0.00000000E+00  0.00000000E+00
  0.00000000E+00  0.00000000E+00  0.00000000E+00
  0.00000000E+00  0.00000000E+00  0.00000000E+00
  0.00000000E+00  0.00000000E+00  0.00000000E+00
  0.00000000E+00  0.00000000E+00  0.00000000E+00
  0.00000000E+00  0.00000000E+00  0.00000000E+00
  0.00000000E+00  0.00000000E+00  0.00000000E+00
  0.00000000E+00  0.00000000E+00  0.00000000E+00
  0.00000000E+00  0.00000000E+00  0.00000000E+00
  0.00000000E+00  0.00000000E+00  0.00000000E+00
  0.00000000E+00  0.00000000E+00  0.00000000E+00
  0.00000000E+00  0.00000000E+00  0.00000000E+00
  0.00000000E+00  0.00000000E+00  0.00000000E+00
  0.00000000E+00  0.00000000E+00  0.00000000E+00
  0.00000000E+00  0.00000000E+00  0.00000000E+00
  0.00000000E+00  0.00000000E+00  0.00000000E+00
  0.00000000E+00  0.00000000E+00  0.00000000E+00
  0.00000000E+00  0.00000000E+00  0.00000000E+00
  0.00000000E+00  0.00000000E+00  0.00000000E+00
  0.00000000E+00  0.00000000E+00  0.00000000E+00
  0.00000000E+00  0.00000000E+00  0.00000000E+00
  0.00000000E+00  0.00000000E+00  0.00000000E+00
  0.00000000E+00  0.00000000E+00  0.00000000E+00
  0.00000000E+00  0.00000000E+00  0.00000000E+00
  0.00000000E+00  0.00000000E+00  0.00000000E+00
  0.00000000E+00  0.00000000E+00  0.00000000E+00
  0.00000000E+00  0.00000000E+00  0.00000000E+00
  0.00000000E+00  0.00000000E+00  0.00000000E+00
  0.00000000E+00  0.00000000E+00  0.00000000E+00
  0.00000000E+00  0.00000000E+00  0.00000000E+00
  0.00000000E+00  0.00000000E+00  0.00000000E+00
  0.00000000E+00  0.00000000E+00  0.00000000E+00
  0.00000000E+00  0.00000000E+00  0.00000000E+00
  0.00000000E+00  0.00000000E+00  0.00000000E+00
  0.00000000E+00  0.00000000E+00  0.00000000E+00
  0.00000000E+00  0.00000000E+00  0.00000000E+00
  0.00000000E+00  0.00000000E+00  0.00000000E+00
  0.00000000E+00  0.00000000E+00  0.00000000E+00
  0.00000000E+00  0.00000000E+00  0.00000000E+00
  0.00000000E+00  0.00000000E+00  0.00000000E+00
  0.00000000E+00  0.00000000E+00  0.00000000E+00
  0.00000000E+00  0.00000000E+00  0.00000000E+00
  0.00000000E+00  0.00000000E+00  0.00000000E+00
  0.00000000E+00  0.00000000E+00  0.00000000E+00
  0.00000000E+00  0.00000000E+00  0.00000000E+00
  0.00000000E+00  0.00000000E+00  0.00000000E+00
  0.00000000E+00  0.00000000E+00  0.00000000E+00
  0.00000000E+00  0.00000000E+00  0.00000000E+00
  0.00000000E+00  0.00000000E+00  0.00000000E+00
  0.00000000E+00  0.00000000E+00  0.00000000E+00
  0.00000000E+00  0.00000000E+00  0.00000000E+00
  0.00000000E+00  0.00000000E+00  0.00000000E+00
  0.00000000E+00  0.00000000E+00  0.00000000E+00
  0.00000000E+00  0.00000000E+00  0.00000000E+00
