Sn1 Te5 Pb4
1.0
  18.7758110000000009   -2.3294639999999989    0.0000000000000000
  18.7758110000000009    2.3294639999999989    0.0000000000000000
  18.4868009999999998    0.0000000000000000    4.0243859999999998
Sn Te Pb
1 5 4
direct
   0.0000000000000000    0.0000000000000000    0.0000000000000000 Sn
   0.6992389999999991    0.6992389999999991    0.6992389999999991 Te
   0.5000000000000000    0.5000000000000000    0.5000000000000000 Te
   0.0999480000000000    0.0999480000000000    0.0999480000000000 Te
   0.3007610000000000    0.3007610000000000    0.3007610000000000 Te
   0.9000520000000000    0.9000520000000000    0.9000520000000000 Te
   0.6000320000000000    0.6000320000000000    0.6000320000000000 Pb
   0.1999820000000000    0.1999820000000000    0.1999820000000000 Pb
   0.8000180000000000    0.8000180000000000    0.8000180000000000 Pb
   0.3999680000000000    0.3999680000000000    0.3999680000000000 Pb
