Sn1 Te2 Pb1
1.0
   7.5741056599999999   -2.2822062800000000    0.0014694300000000
   7.5741056599999999    2.2822062800000000    0.0014694300000000
   6.8856831100000004   -0.0000000000000000    3.8939571200000000
Sn Te Pb
1 2 1
direct
   0.5000000000000000    0.5000000000000000    0.5000000000000000 Sn
   0.2474724100000000    0.2474724100000000    0.2474724100000000 Te
   0.7525275900000000    0.7525275900000000    0.7525275900000000 Te
   0.0000000000000000    0.0000000000000000    0.0000000000000000 Pb
