Amorphous Sb                            
  0.949000000000000     
    20.1278869700586895    0.0000000000000000    0.0000000000000000
     0.0000000000000000   20.1278869700586895    0.0000000000000000
     0.0000000000000000    0.0000000000000000   20.1278869700586895
   Ge   Se
   150   150
Direct
  0.5074166155631359  0.6874870878039623  0.7945423070731028
  0.2107009458085001  0.4389818830551591  0.8059166118872803
  0.3836651809866890  0.3308890662389026  0.6125011909157491
  0.8284654138023380  0.0161159699135196  0.6409587604764354
  0.8921318265365923  0.6301363300459313  0.6715500079131089
  0.2139799158585592  0.7091639176754829  0.9455509427738178
  0.1235462390079322  0.1474010842011765  0.3629731749513836
  0.3310507920640300  0.6200018212458619  0.8095755411970161
  0.3455694679812112  0.8816242347171437  0.2327574936755133
  0.3761163596087047  0.0065278442607553  0.4283502033981090
  0.0126591290348280  0.0400205174596699  0.4466035527992731
  0.6344544823752514  0.3366162561384043  0.8521924897499388
  0.6358536140563157  0.4316081828385512  0.5676457358333202
  0.2680104797360288  0.0156863914410206  0.8530682165118790
  0.6694044378228287  0.9455901876425908  0.4111563001748497
  0.0248825701217780  0.7693170707672189  0.0983764755648258
  0.0428329136276350  0.7536763853175993  0.3435518958392582
  0.8223601654221110  0.4098557207257090  0.3555929510022808
  0.1196898056051556  0.4746718478177198  0.9634204462521943
  0.0527532710358278  0.9201118346271785  0.5028590083500044
  0.1488184219914899  0.8388881508804079  0.2009368094675766
  0.4334333187614673  0.7494281143329735  0.9765219425366196
 -0.0103823769578423  0.1819650003444722  0.9324101451733087
  0.0231033742227216  0.0845596928203177  0.1292710810027938
  0.5612042035668172  0.3119175612816098  0.1735057942445879
  0.3797079621033226  0.1516261282683606  0.5897162393360582
  0.4077639572752132  0.7579734699227646  0.5431057485740136
  0.8034116430343526  0.9256807789434230  0.0146334101823826
  0.8056501023224559  0.5451998105658464  0.5893573081682557
  0.9454223621713708  0.7760159545165909  0.5859304423920068
  0.0888435353442644  0.3373147261032064  0.7548722823541499
  0.0256973430013340  0.0998288827225810  0.2656110371083666
  0.8953242882595057  0.4776060799607578  0.4552265000799835
  0.4121543366491768  0.4534831143462541  0.2342774291292616
  0.0359646903814954  0.5492519742993558  0.5747734333937961
  0.7306164147983273  0.7066641704848459  0.1550359007960047
  0.4562982373088150  0.4863770541643994  0.9159421255600244
  0.2695061361203823  0.0485209125905911  0.2452044468443623
  0.2571771875534144  0.3646571379139158  0.1360016634409711
  0.7620080197388751  0.3888359289928749  0.7699320865064019
  0.8411051210810996  0.8233535011676063  0.3864716608400835
  0.9222712679200159  0.1938484877695158  0.5726279970379031
  0.5791719271892852  0.8398727404422683  0.5386821668734226
  0.3781280747743201  0.9886124535495714  0.0976032865698261
  0.3411457857169525  0.6299323374330922  0.2266531392684806
  0.3982238776044403  0.4309780531026768  0.4949787299038673
  0.8968331065604573  0.8122368419475009  0.1608756412169303
  0.0565032087348665  0.3486956081136889  0.4120338140458943
  0.9909278828753360  0.7354956689378057  0.8043587122730431
  0.5471032989383454  0.0588623964936810  0.3096785467459595
  0.2687677411177034  0.4320021266293725  0.9460245757279949
  0.0362401043853950  0.2798710158643457  0.1531678403793924
  0.6255629097922571  0.7481140305522571  0.8187512240898208
  0.5902446339946102  0.3085063240762973  0.7276404415971754
  0.0280000392316580  0.5904447438910929  0.3550758990756323
  0.0245051043843952  0.9189871091267704  0.2171767867343559
  0.1795833915974158  0.5682854301927319  0.4574828638341275
  0.9716802222094025  0.3338119299600578  0.5870873597234991
  0.0966011258380417  0.0618033021412996  0.8265521385358021
  0.5230626591588530  0.4353150607811860  0.3292387150651583
  0.6762312940723808  0.1036562414167314  0.1571764675379865
  0.5392806283206908  0.6687346356964469  0.2192537042793025
  0.9238248800148798  0.6719957714600858  0.2824076934155181
  0.8533385091090839  0.0309934544083478  0.8323442515352842
  0.5543224140967468  0.8228468260388697  0.0154673448093556
  0.0825737999730834  0.3439962822673320  0.9403588527561771
  0.8216059226661696  0.8420849114660389  0.5277275281144334
  0.7272462053402148  0.7306423669580714  0.6895576430933537
  0.8219101511340003  0.2435810999868600  0.1519377371999856
  0.8304192246198234  0.3103906343479245  0.0199967148305418
  0.9648144531903050  0.4218879617617502  0.7312371811916166
  0.4161161720973647  0.1503232263352129  0.1765876661786925
  0.3594791441849450  0.5401269508564344  0.4172738684049079
  0.5113000566087503  0.8167887482907826  0.3830131843680469
  0.3334049805667785  0.4514290573615014  0.6712719402302644
  0.6778700993773724  0.9569893199063091  0.1018103704750119
  0.2452474066460445  0.2353357390419598  0.1760418827283589
  0.8625609580771606  0.0694663856773011  0.0281997471294586
  0.2594758250217151  0.8558076017710952  0.9449149310338149
  0.3728892367714301  0.2492471393011034  0.0265750020538666
  0.6515518937331994  0.9919825019657298  0.8769848083044972
  0.9692133102802736  0.5954545757384614  0.8498840410428878
  0.8030349942047836  0.4805225361632150  0.0576993155181178
  0.7374068852803477  0.5182195638537905  0.3361762554868876
  0.3645106923653463  0.1395447401838662  0.7243670553844372
  0.5985380463911943  0.1304668499407177  0.0251485971538940
  0.5147715774154134  0.6555093396776416  0.6048918461703646
  0.7700464669235664  0.3094117391312305  0.5161406982167193
  0.6441144741407441  0.5767526913556568  0.1435516507917125
  0.5429500565808820  0.2337197700267711  0.3632818793848788
  0.6179873736155966  0.1196215451184978  0.8882631687496989
  0.1078390655256915  0.1161567013085497  0.6041318578751345
  0.3079642206736383  0.5948633805097450  0.5897161687554898
  0.7634852046568401  0.0419287726271438  0.4553143022221172
  0.6565778513152472  0.9257213118793294  0.6099504477867835
  0.6661052432823067  0.6898267162558984  0.4971376640169563
  0.4221638982398925  0.9650621952049038  0.9448250047313261
  0.1472277219230463  0.4656070933255330  0.6383192042377979
  0.1700785656053975  0.7657066092484026  0.4742104554417322
  0.2069639514523733  0.1341050015222454  0.8414755093738184
  0.1096781880736320  0.4226345047145030  0.2408326040903455
  0.5379141684580738  0.2927344945115589  0.9324844286238121
  0.2310914612717224  0.5082158882642825  0.0769429009675548
  0.8713510600006400  0.0637559149173176  0.1870995728894191
  0.4161210996705921  0.8490148928513882  0.7424593733030365
  0.7260660926770833  0.7250147590764244  0.9934373285668803
  0.9919793946439531  0.4684576549664116  0.0095333259303802
  0.0559067289171315  0.6493973832334440  0.0497148576102685
  0.7051618918185678  0.1748720953497659  0.7052466275862894
  0.7108128847145914  0.9090693569811881  0.7898739800235089
  0.1120679798296956  0.8904419542175422  0.6855091224557861
  0.1106875938827335  0.9615074748753881  0.0113443132749367
  0.1355203364064810  0.9599579141970743  0.3730378978571933
  0.7562696262675265  0.1461092995607443  0.3182656687340826
  0.7400764501436407  0.8237201159060503  0.2948978171202492
  0.7318420438426229  0.6412801173384833  0.3866413565167434
  0.4197651694954618  0.2803502562925366  0.3017879334851026
  0.6792462905578313  0.5998654420312929  0.7292351737708436
  0.3271204752612106  0.2237113138504449  0.4440307607563758
  0.0827712663683747  0.9344539779924661  0.8036148131476526
  0.9311969480431977  0.4614394471615473  0.2028031488453938
  0.8595792425266343  0.2138063554506763  0.3846126009991486
  0.8049218499562075  0.6305221844972158  0.8250731150451340
  0.9519437425750104  0.9175692812492153  0.9539266467840122
  0.2295697629330375  0.3959714815267816  0.4055126892214916
  0.2407713144603539  0.6960580416211196  0.6660185679359217
  0.3824543331535966  0.9617429576346735  0.5629073259207369
  0.5443493351713613  0.8552379357927100  0.7867298459539551
  0.1866800815861653  0.1532543678969420  0.9944340275841004
  0.2829114415122946  0.8147547127995622  0.0813305355786166
  0.5308654902785956  0.5618422146076441  0.4476386393868073
  0.8967086505208756  0.7345611136105896  0.9060203394536001
  0.4648381850222354  0.1843935763331942  0.9107158100383934
  0.4445757922393236  0.5104966398920980  0.1055395843878967
  0.0525291018836909  0.7158774020435641  0.6387280205615771
  0.1835775320918271  0.6361515512294923  0.2290715008781407
  0.2926110114145702  0.2844580732507095  0.7964442796935529
  0.5512407707724031  0.0761959349429635  0.4958093155242582
  0.3595738117402704  0.7184808415541440  0.3486884514717760
  0.2825507565285075  0.8588809745757565  0.7067699107634330
  0.7130560318787316  0.4145959750202238  0.2149973456565877
  0.6059293258769846  0.4475044861629948  0.0202047613356405
  0.1766466972617610  0.9891932628232957  0.6225547792565754
  0.9282304348072498  0.2214565854902270  0.7715830648997160
  0.5762046386909229  0.2006522144916849  0.5564854341549126
  0.1249046461048133  0.2284927708049392  0.5200448012031491
  0.1438927740703316  0.6148101519255665  0.8154974504364763
  0.5247720639017904  0.8787859142408005  0.1904448868375911
  0.4748636119184168  0.4713412301311491  0.7514046147795522
  0.9097044256905586  0.4451502165287545  0.9061418261483437
  0.8548500870624290  0.1333481451204745  0.9030705842510478
  0.8618366514277158  0.9653129306068700  0.4923808233557062
  0.0794833480580337  0.7210708407268375  0.2118250891637273
  0.9341312969334533  0.4660203184845523  0.6055287035304466
  0.3231806923361744  0.7011253258303508  0.0261322620950923
  0.1228101299133220  0.0072133157928342  0.2472578303624682
  0.5807615816865684  0.4525901862558186  0.1553587511301613
  0.6960546984049968  0.0457929364340962  0.5754185919826008
  0.6092990194197793  0.2602884068650476  0.0311390253560407
  0.1398574673057424  0.0724053513153279  0.4760631948986692
  0.9317170586290743  0.8283398397892314  0.2925875514579996
  0.7507536986490879  0.0345466546160425  0.7571627133038115
  0.7784974922124583  0.6879576047075191  0.5768221397065085
  0.2862359629776297  0.7940797198250745  0.5853211721352840
  0.8656419583246465  0.6838242082001239  0.1618666295753845
  0.4689125945855827  0.1089212110481938  0.0129062963302450
  0.2906993702008649  0.1530512853076340  0.0843982934087793
  0.3851338140984242  0.8291175582645803  0.4299180649472197
  0.9390375874777298 -0.0154667549052152  0.7517864490816452
  0.7071612214630847  0.2221089596237712  0.2204598280731632
  0.7111164398088885  0.0227307397412794  0.9868341868650281
  0.5629460668720441  0.1895797314464576  0.6835591923532554
  0.1440599415231286  0.0669577810605474  0.0885835582390894
  0.8744083910433093  0.4979539571780359  0.7933479723460373
  0.2032564622550993  0.3563211891994572  0.2838583923982847
  0.3419502198916884  0.4105354154902776  0.8373001490068758
  0.2656058671520301  0.7709365033630314  0.2058362897335929
  0.2695367336368546  0.9657986424075391  0.3509471683264106
  0.3463897610283508  0.5226206509625180  0.0131205402614629
  0.4095174969989900  0.0268436658289358  0.2289031117406030
  0.4552685746951680  0.2462942919742644  0.5318293563718031
  0.4210212285086339  0.3286761861159711  0.1770295931479603
  0.9382203737635100  0.0009002125074442  0.2834484278306435
  0.4124437468540659  0.8568433876725766  0.1116057966229887
  0.0615084380318277  0.4962591421798958  0.4379555326371122
  0.0694101219894342  0.4964854019549406  0.8413341585031566
  0.5663852615475702  0.4559992018875799  0.8439794374118341
  0.2993045033012500  0.9883130263885597  0.6681992685111582
  0.5353781018389739  0.1751259193844680  0.2366157905617237
  0.9017771223658169  0.5396675609126854  0.3135640224202215
  0.6048542752459352  0.5404489689671480  0.3333924021920432
  0.3392786461521409  0.1984005354551531  0.9008688314973994
  0.1805057342415625  0.9082026298310383  0.5204923282197536
  0.0258768931751570  0.2116949928520271  0.4266769228568963
  0.5431669302491023  0.9206398328178913  0.9017588224629792
  0.5963657938329400  0.9581121877730105  0.7234292870680284
  0.7173801145491531  0.4839887566363293  0.6776465553684656
  0.1527156806565231  0.8340321333992639  0.3396665838646211
  0.9276820587148236  0.3457854866490626  0.4580704199745771
  0.5327397429106471  0.7039490795033088  0.4492962575130399
  0.8698729253599703  0.3318996118693032  0.7093913559052882
  0.3184841045111567  0.6500145309000288  0.4722552270666574
  0.6978196783306000  0.2056271134506550  0.8373292313904402
  0.3045789309695533  0.0990283774703239  0.4965913995436237
  0.7631745436912520  0.8374455703650552  0.1687901112541822
  0.7577627842527678  0.5432685546345748  0.2018061104660349
  0.1528989804178645  0.6688403275576899  0.3751544142523468
  0.0371541761877438  0.8457021949483983  0.8819335345295986
  0.7911142714569437  0.4122012312100670  0.9370251734249393
  0.9825931520375949  0.0745660532369501  0.5720916540085267
  0.2600074915616500  0.9509588648906105  0.1542519165847809
  0.5457280345676746  0.5859467529374420  0.7205110168993452
  0.0011593612062901  0.9039861926578278  0.6237553056765127
  0.1480671296773798  0.2770270385048398  0.8544893677600058
  0.5279969330410329  0.3945259678807801  0.6535533294711411
  0.2819578146883601  0.2642992937002638  0.5642103804773350
  0.2650654573372848  0.9868014707222607  0.9795601250507974
  0.7675857234708517  0.1507019613509932  0.0711771156781844
  0.8661057911330741  0.6130586714590773  0.9441289465735562
  0.9007146156700083  0.1830270892882019  0.2375793745087015
  0.5262636569333160  0.4220680059367482  0.4636190193318813
  0.6040491457637038  0.3388866749525632  0.3021686941846278
  0.6170294273766891  0.5736867758102112  0.5492734540516789
  0.6788608137212881  0.7092122159241537  0.2885578408282209
  0.4563246996579188  0.7667311271593615  0.2717356716638452
  0.1274596314647030  0.7695004831134266  0.7282024766907497
  0.7726959709140437  0.7579928490474281  0.8714470989959718
  0.5876940159486135  0.7694915293151487  0.1404792139376304
  0.8929575985272465  0.7601174066663524  0.7149453900391163
  0.0896338152510975  0.2437326764948228  0.0235026794767743
  0.8339353332748822  0.9159612958500238  0.8826031024536931
  0.6923793003580906  0.8540780663969861  0.0011100379263678
  0.7585549831768360  0.0358622167714147  0.2493307765558765
  0.2267161165759765  0.5429618239743655  0.7229886278217423
  0.7573617493400364  0.4696068699644721  0.4876710660109644
  0.4074613150544920  0.2682071440602685  0.7283014506817156
 -0.0082861029602271  0.9619898810715635  0.0935438671627458
  0.4298039870831191  0.5853361183828044  0.3194288619856550
  0.1280766276607975  0.1996404005965093  0.2133132354470816
  0.0335877863980937  0.7947163312653619  0.4757929333982402
  0.7566813136352629  0.3015022378558159  0.3822044728801682
  0.4146366765284496  0.7192438859045638  0.7133850975937951
  0.6405479245892268  0.9034757828337802  0.2927057948224240
  0.3841135755544540  0.8413783614257860  0.8958096316950269
  0.1369812369176237  0.8233602807673096  0.0547208664253101
  0.8086105707077015  0.1737548047217225  0.5054874004561291
  0.6993570990452110  0.8280384780248690  0.4651746417709134
  0.0410086856516398  0.2300834596161232  0.6945217489659156
  0.6937613473978946  0.5718621981081963  0.8520452816233878
  0.2604124102089617  0.3177218016157916  0.0105710647696245
  0.4364486118443882  0.6435805614735816  0.8922256025325598
  0.0637421678889086  0.6694248731051240  0.9241414360933032
  0.5517439197765019  0.9620296725219382  0.0882884800570659
  0.4607437289767028  0.3749867967138885  0.9903123379548930
  0.9012278143440252  0.8043326977014036  0.0119859197832516
  0.6423610689557492  0.1289877124662863  0.3826128165552483
  0.2351440595098160  0.5787025815680065  0.9046616294189556
  0.2548787769946347  0.4749430737837582  0.5585297770598003
  0.5128299391950449  0.1200662957250157  0.8155827572198667
  0.4218109429504552  0.5319379299739561  0.5971398716947238
  0.2109868701305772  0.9010474458488681  0.8250719628052157
  0.0304807106522768  0.0559213976415096  0.9340573469364993
  0.2476617660395117  0.5197041065522661  0.3552966549668047
  0.9468751831491924  0.1667689698807674  0.0585288413229204
  0.2114578983784353  0.3568363125134921  0.6952149250043433
  0.3241973486714340  0.1936904050081698  0.2751118300979626
  0.2625439213503725  0.7302167827213986  0.8187612550435384
  0.8496538670379044  0.6914691679923037  0.3936644123703417
  0.0794571342456911  0.5455557245103435  0.2373898642973716
  0.9637524376551561  0.5677810289694437  0.0812357755012901
  0.1986840096055602  0.2458746874128077  0.4113991473847420
  0.2350628388917740  0.1652316292094389  0.7172677041338318
  0.9642760110867910  0.3299145471194627  0.8803451897870710
  0.8417001061419006  0.3669830556559202  0.2359681621096132
  0.5448012182048866  0.9510550344203210  0.4454475820639117
  0.6969971933948140  0.5542417959209993  0.0252588463166795
  0.3894296232161902  0.0032089503059739  0.8229562210897230
  0.5253285896355487  0.5533951593919395  0.0119178024837084
  0.6351715841519698  0.2975653544786200  0.5025259330348381
  0.6014344439550569  0.7556576134194937  0.6470456852138008
  0.2918281898091258  0.5098429290032647  0.1957675927918936
  0.0991475052702426  0.3551575574405600  0.5459407294383937
  0.7686586367611145  0.8759742448861847  0.6504823968797433
  0.4374284058259010  0.6402930806945824  0.1355309847444581
  0.1802015175369038  0.6303347124176178  0.0889203007787959
  0.6023032608921355  0.7126371727937811  0.9457110817065374
  0.7074139315490564  0.3079791517845835  0.6723659818294743
  0.4596041240547654  0.8686229969335726  0.6122692312717658
  0.3605392916822682  0.3795001356898887  0.3667055740158245
  0.1457259652666526  0.6636292956633626  0.5692525869473988
  0.8518537437166683  0.1563369592969419  0.6789258047267981
  0.0026144934505856  0.3672809629081841  0.2734206639589440
  0.9380331041623569  0.3709741030851340  0.0750402207042397
  0.1211115581343783  0.3830181990413306  0.1205484233886773
  0.4618999404401536  0.1115967100747587  0.3991095154244773
  0.9393719035209057  0.6374551043748737  0.5415482188948402
  0.0100718056510479  0.0947663133161400  0.7381819307837781
  0.0242602070749246  0.6070517182111124  0.7047709055445073
  0.7288778673732352  0.3731284550272483  0.0884044031611259
  0.4714823512371085  0.0522987347574070  0.6001135132195197
 
  0.00000000E+00  0.00000000E+00  0.00000000E+00
  0.00000000E+00  0.00000000E+00  0.00000000E+00
  0.00000000E+00  0.00000000E+00  0.00000000E+00
  0.00000000E+00  0.00000000E+00  0.00000000E+00
  0.00000000E+00  0.00000000E+00  0.00000000E+00
  0.00000000E+00  0.00000000E+00  0.00000000E+00
  0.00000000E+00  0.00000000E+00  0.00000000E+00
  0.00000000E+00  0.00000000E+00  0.00000000E+00
  0.00000000E+00  0.00000000E+00  0.00000000E+00
  0.00000000E+00  0.00000000E+00  0.00000000E+00
  0.00000000E+00  0.00000000E+00  0.00000000E+00
  0.00000000E+00  0.00000000E+00  0.00000000E+00
  0.00000000E+00  0.00000000E+00  0.00000000E+00
  0.00000000E+00  0.00000000E+00  0.00000000E+00
  0.00000000E+00  0.00000000E+00  0.00000000E+00
  0.00000000E+00  0.00000000E+00  0.00000000E+00
  0.00000000E+00  0.00000000E+00  0.00000000E+00
  0.00000000E+00  0.00000000E+00  0.00000000E+00
  0.00000000E+00  0.00000000E+00  0.00000000E+00
  0.00000000E+00  0.00000000E+00  0.00000000E+00
  0.00000000E+00  0.00000000E+00  0.00000000E+00
  0.00000000E+00  0.00000000E+00  0.00000000E+00
  0.00000000E+00  0.00000000E+00  0.00000000E+00
  0.00000000E+00  0.00000000E+00  0.00000000E+00
  0.00000000E+00  0.00000000E+00  0.00000000E+00
  0.00000000E+00  0.00000000E+00  0.00000000E+00
  0.00000000E+00  0.00000000E+00  0.00000000E+00
  0.00000000E+00  0.00000000E+00  0.00000000E+00
  0.00000000E+00  0.00000000E+00  0.00000000E+00
  0.00000000E+00  0.00000000E+00  0.00000000E+00
  0.00000000E+00  0.00000000E+00  0.00000000E+00
  0.00000000E+00  0.00000000E+00  0.00000000E+00
  0.00000000E+00  0.00000000E+00  0.00000000E+00
  0.00000000E+00  0.00000000E+00  0.00000000E+00
  0.00000000E+00  0.00000000E+00  0.00000000E+00
  0.00000000E+00  0.00000000E+00  0.00000000E+00
  0.00000000E+00  0.00000000E+00  0.00000000E+00
  0.00000000E+00  0.00000000E+00  0.00000000E+00
  0.00000000E+00  0.00000000E+00  0.00000000E+00
  0.00000000E+00  0.00000000E+00  0.00000000E+00
  0.00000000E+00  0.00000000E+00  0.00000000E+00
  0.00000000E+00  0.00000000E+00  0.00000000E+00
  0.00000000E+00  0.00000000E+00  0.00000000E+00
  0.00000000E+00  0.00000000E+00  0.00000000E+00
  0.00000000E+00  0.00000000E+00  0.00000000E+00
  0.00000000E+00  0.00000000E+00  0.00000000E+00
  0.00000000E+00  0.00000000E+00  0.00000000E+00
  0.00000000E+00  0.00000000E+00  0.00000000E+00
  0.00000000E+00  0.00000000E+00  0.00000000E+00
  0.00000000E+00  0.00000000E+00  0.00000000E+00
  0.00000000E+00  0.00000000E+00  0.00000000E+00
  0.00000000E+00  0.00000000E+00  0.00000000E+00
  0.00000000E+00  0.00000000E+00  0.00000000E+00
  0.00000000E+00  0.00000000E+00  0.00000000E+00
  0.00000000E+00  0.00000000E+00  0.00000000E+00
  0.00000000E+00  0.00000000E+00  0.00000000E+00
  0.00000000E+00  0.00000000E+00  0.00000000E+00
  0.00000000E+00  0.00000000E+00  0.00000000E+00
  0.00000000E+00  0.00000000E+00  0.00000000E+00
  0.00000000E+00  0.00000000E+00  0.00000000E+00
  0.00000000E+00  0.00000000E+00  0.00000000E+00
  0.00000000E+00  0.00000000E+00  0.00000000E+00
  0.00000000E+00  0.00000000E+00  0.00000000E+00
  0.00000000E+00  0.00000000E+00  0.00000000E+00
  0.00000000E+00  0.00000000E+00  0.00000000E+00
  0.00000000E+00  0.00000000E+00  0.00000000E+00
  0.00000000E+00  0.00000000E+00  0.00000000E+00
  0.00000000E+00  0.00000000E+00  0.00000000E+00
  0.00000000E+00  0.00000000E+00  0.00000000E+00
  0.00000000E+00  0.00000000E+00  0.00000000E+00
  0.00000000E+00  0.00000000E+00  0.00000000E+00
  0.00000000E+00  0.00000000E+00  0.00000000E+00
  0.00000000E+00  0.00000000E+00  0.00000000E+00
  0.00000000E+00  0.00000000E+00  0.00000000E+00
  0.00000000E+00  0.00000000E+00  0.00000000E+00
  0.00000000E+00  0.00000000E+00  0.00000000E+00
  0.00000000E+00  0.00000000E+00  0.00000000E+00
  0.00000000E+00  0.00000000E+00  0.00000000E+00
  0.00000000E+00  0.00000000E+00  0.00000000E+00
  0.00000000E+00  0.00000000E+00  0.00000000E+00
  0.00000000E+00  0.00000000E+00  0.00000000E+00
  0.00000000E+00  0.00000000E+00  0.00000000E+00
  0.00000000E+00  0.00000000E+00  0.00000000E+00
  0.00000000E+00  0.00000000E+00  0.00000000E+00
  0.00000000E+00  0.00000000E+00  0.00000000E+00
  0.00000000E+00  0.00000000E+00  0.00000000E+00
  0.00000000E+00  0.00000000E+00  0.00000000E+00
  0.00000000E+00  0.00000000E+00  0.00000000E+00
  0.00000000E+00  0.00000000E+00  0.00000000E+00
  0.00000000E+00  0.00000000E+00  0.00000000E+00
  0.00000000E+00  0.00000000E+00  0.00000000E+00
  0.00000000E+00  0.00000000E+00  0.00000000E+00
  0.00000000E+00  0.00000000E+00  0.00000000E+00
  0.00000000E+00  0.00000000E+00  0.00000000E+00
  0.00000000E+00  0.00000000E+00  0.00000000E+00
  0.00000000E+00  0.00000000E+00  0.00000000E+00
  0.00000000E+00  0.00000000E+00  0.00000000E+00
  0.00000000E+00  0.00000000E+00  0.00000000E+00
  0.00000000E+00  0.00000000E+00  0.00000000E+00
  0.00000000E+00  0.00000000E+00  0.00000000E+00
  0.00000000E+00  0.00000000E+00  0.00000000E+00
  0.00000000E+00  0.00000000E+00  0.00000000E+00
  0.00000000E+00  0.00000000E+00  0.00000000E+00
  0.00000000E+00  0.00000000E+00  0.00000000E+00
  0.00000000E+00  0.00000000E+00  0.00000000E+00
  0.00000000E+00  0.00000000E+00  0.00000000E+00
  0.00000000E+00  0.00000000E+00  0.00000000E+00
  0.00000000E+00  0.00000000E+00  0.00000000E+00
  0.00000000E+00  0.00000000E+00  0.00000000E+00
  0.00000000E+00  0.00000000E+00  0.00000000E+00
  0.00000000E+00  0.00000000E+00  0.00000000E+00
  0.00000000E+00  0.00000000E+00  0.00000000E+00
  0.00000000E+00  0.00000000E+00  0.00000000E+00
  0.00000000E+00  0.00000000E+00  0.00000000E+00
  0.00000000E+00  0.00000000E+00  0.00000000E+00
  0.00000000E+00  0.00000000E+00  0.00000000E+00
  0.00000000E+00  0.00000000E+00  0.00000000E+00
  0.00000000E+00  0.00000000E+00  0.00000000E+00
  0.00000000E+00  0.00000000E+00  0.00000000E+00
  0.00000000E+00  0.00000000E+00  0.00000000E+00
  0.00000000E+00  0.00000000E+00  0.00000000E+00
  0.00000000E+00  0.00000000E+00  0.00000000E+00
  0.00000000E+00  0.00000000E+00  0.00000000E+00
  0.00000000E+00  0.00000000E+00  0.00000000E+00
  0.00000000E+00  0.00000000E+00  0.00000000E+00
  0.00000000E+00  0.00000000E+00  0.00000000E+00
  0.00000000E+00  0.00000000E+00  0.00000000E+00
  0.00000000E+00  0.00000000E+00  0.00000000E+00
  0.00000000E+00  0.00000000E+00  0.00000000E+00
  0.00000000E+00  0.00000000E+00  0.00000000E+00
  0.00000000E+00  0.00000000E+00  0.00000000E+00
  0.00000000E+00  0.00000000E+00  0.00000000E+00
  0.00000000E+00  0.00000000E+00  0.00000000E+00
  0.00000000E+00  0.00000000E+00  0.00000000E+00
  0.00000000E+00  0.00000000E+00  0.00000000E+00
  0.00000000E+00  0.00000000E+00  0.00000000E+00
  0.00000000E+00  0.00000000E+00  0.00000000E+00
  0.00000000E+00  0.00000000E+00  0.00000000E+00
  0.00000000E+00  0.00000000E+00  0.00000000E+00
  0.00000000E+00  0.00000000E+00  0.00000000E+00
  0.00000000E+00  0.00000000E+00  0.00000000E+00
  0.00000000E+00  0.00000000E+00  0.00000000E+00
  0.00000000E+00  0.00000000E+00  0.00000000E+00
  0.00000000E+00  0.00000000E+00  0.00000000E+00
  0.00000000E+00  0.00000000E+00  0.00000000E+00
  0.00000000E+00  0.00000000E+00  0.00000000E+00
  0.00000000E+00  0.00000000E+00  0.00000000E+00
  0.00000000E+00  0.00000000E+00  0.00000000E+00
  0.00000000E+00  0.00000000E+00  0.00000000E+00
  0.00000000E+00  0.00000000E+00  0.00000000E+00
  0.00000000E+00  0.00000000E+00  0.00000000E+00
  0.00000000E+00  0.00000000E+00  0.00000000E+00
  0.00000000E+00  0.00000000E+00  0.00000000E+00
  0.00000000E+00  0.00000000E+00  0.00000000E+00
  0.00000000E+00  0.00000000E+00  0.00000000E+00
  0.00000000E+00  0.00000000E+00  0.00000000E+00
  0.00000000E+00  0.00000000E+00  0.00000000E+00
  0.00000000E+00  0.00000000E+00  0.00000000E+00
  0.00000000E+00  0.00000000E+00  0.00000000E+00
  0.00000000E+00  0.00000000E+00  0.00000000E+00
  0.00000000E+00  0.00000000E+00  0.00000000E+00
  0.00000000E+00  0.00000000E+00  0.00000000E+00
  0.00000000E+00  0.00000000E+00  0.00000000E+00
  0.00000000E+00  0.00000000E+00  0.00000000E+00
  0.00000000E+00  0.00000000E+00  0.00000000E+00
  0.00000000E+00  0.00000000E+00  0.00000000E+00
  0.00000000E+00  0.00000000E+00  0.00000000E+00
  0.00000000E+00  0.00000000E+00  0.00000000E+00
  0.00000000E+00  0.00000000E+00  0.00000000E+00
  0.00000000E+00  0.00000000E+00  0.00000000E+00
  0.00000000E+00  0.00000000E+00  0.00000000E+00
  0.00000000E+00  0.00000000E+00  0.00000000E+00
  0.00000000E+00  0.00000000E+00  0.00000000E+00
  0.00000000E+00  0.00000000E+00  0.00000000E+00
  0.00000000E+00  0.00000000E+00  0.00000000E+00
  0.00000000E+00  0.00000000E+00  0.00000000E+00
  0.00000000E+00  0.00000000E+00  0.00000000E+00
  0.00000000E+00  0.00000000E+00  0.00000000E+00
  0.00000000E+00  0.00000000E+00  0.00000000E+00
  0.00000000E+00  0.00000000E+00  0.00000000E+00
  0.00000000E+00  0.00000000E+00  0.00000000E+00
  0.00000000E+00  0.00000000E+00  0.00000000E+00
  0.00000000E+00  0.00000000E+00  0.00000000E+00
  0.00000000E+00  0.00000000E+00  0.00000000E+00
  0.00000000E+00  0.00000000E+00  0.00000000E+00
  0.00000000E+00  0.00000000E+00  0.00000000E+00
  0.00000000E+00  0.00000000E+00  0.00000000E+00
  0.00000000E+00  0.00000000E+00  0.00000000E+00
  0.00000000E+00  0.00000000E+00  0.00000000E+00
  0.00000000E+00  0.00000000E+00  0.00000000E+00
  0.00000000E+00  0.00000000E+00  0.00000000E+00
  0.00000000E+00  0.00000000E+00  0.00000000E+00
  0.00000000E+00  0.00000000E+00  0.00000000E+00
  0.00000000E+00  0.00000000E+00  0.00000000E+00
  0.00000000E+00  0.00000000E+00  0.00000000E+00
  0.00000000E+00  0.00000000E+00  0.00000000E+00
  0.00000000E+00  0.00000000E+00  0.00000000E+00
  0.00000000E+00  0.00000000E+00  0.00000000E+00
  0.00000000E+00  0.00000000E+00  0.00000000E+00
  0.00000000E+00  0.00000000E+00  0.00000000E+00
  0.00000000E+00  0.00000000E+00  0.00000000E+00
  0.00000000E+00  0.00000000E+00  0.00000000E+00
  0.00000000E+00  0.00000000E+00  0.00000000E+00
  0.00000000E+00  0.00000000E+00  0.00000000E+00
  0.00000000E+00  0.00000000E+00  0.00000000E+00
  0.00000000E+00  0.00000000E+00  0.00000000E+00
  0.00000000E+00  0.00000000E+00  0.00000000E+00
  0.00000000E+00  0.00000000E+00  0.00000000E+00
  0.00000000E+00  0.00000000E+00  0.00000000E+00
  0.00000000E+00  0.00000000E+00  0.00000000E+00
  0.00000000E+00  0.00000000E+00  0.00000000E+00
  0.00000000E+00  0.00000000E+00  0.00000000E+00
  0.00000000E+00  0.00000000E+00  0.00000000E+00
  0.00000000E+00  0.00000000E+00  0.00000000E+00
  0.00000000E+00  0.00000000E+00  0.00000000E+00
  0.00000000E+00  0.00000000E+00  0.00000000E+00
  0.00000000E+00  0.00000000E+00  0.00000000E+00
  0.00000000E+00  0.00000000E+00  0.00000000E+00
  0.00000000E+00  0.00000000E+00  0.00000000E+00
  0.00000000E+00  0.00000000E+00  0.00000000E+00
  0.00000000E+00  0.00000000E+00  0.00000000E+00
  0.00000000E+00  0.00000000E+00  0.00000000E+00
  0.00000000E+00  0.00000000E+00  0.00000000E+00
  0.00000000E+00  0.00000000E+00  0.00000000E+00
  0.00000000E+00  0.00000000E+00  0.00000000E+00
  0.00000000E+00  0.00000000E+00  0.00000000E+00
  0.00000000E+00  0.00000000E+00  0.00000000E+00
  0.00000000E+00  0.00000000E+00  0.00000000E+00
  0.00000000E+00  0.00000000E+00  0.00000000E+00
  0.00000000E+00  0.00000000E+00  0.00000000E+00
  0.00000000E+00  0.00000000E+00  0.00000000E+00
  0.00000000E+00  0.00000000E+00  0.00000000E+00