Amorphous Sb                            
  0.930000000000000     
    20.1278877257999973    0.0000000000000000    0.0000000000000000
     0.0000000000000000   20.1278877257999973    0.0000000000000000
     0.0000000000000000    0.0000000000000000   20.1278877257999973
   Ge   Se
   150   150
Selective dynamics
Direct
  0.8165118699999994  0.3946960600000011  0.3574110899999994   F   F   F
  0.7584902600000021  0.5502476099999996  0.6040061699999981   F   F   F
  0.9009631899999988  0.4910475300000030  0.4842960800000000   F   F   F
  0.7496008899999964  0.6805205900000004  0.1857844700000015   F   F   F
  0.8410634399999992  0.8268708599999997  0.3793723599999979   F   F   F
  0.5937990500000012  0.8538532800000027  0.5237411299999977   F   F   F
  0.0364786760000015  0.3513431200000028  0.4058486799999983   F   F   F
  0.9242142399999977  0.6569729400000028  0.3274040499999984   F   F   F
  0.7428033300000010  0.7506048699999965  0.6833686800000009   F   F   F
  0.7695150400000017  0.5198313599999977  0.3527172800000002   F   F   F
  0.5419463500000035  0.6540923700000008  0.6156413000000001   F   F   F
  0.7569697500000032  0.3357405100000008  0.5190030899999982   F   F   F
  0.6547109500000019  0.5662705900000020  0.1684091400000014   F   F   F
  0.6851938399999966  0.7016352999999995  0.5192888999999994   F   F   F
  0.7437457999999992  0.8140426900000008  0.2938403499999964   F   F   F
  0.7312344899999985  0.6466586000000021  0.4007343999999975   F   F   F
  0.9211552100000020  0.4467973100000009  0.2030193800000006   F   F   F
  0.8365761000000020  0.2162057899999965  0.3786076000000023   F   F   F
  0.7205893399999965  0.3969926799999968  0.2197672100000005   F   F   F
  0.4830489310075363  0.7019281254778914  0.8393887384082808   T   T   T
  0.2238112238940944  0.4572591840796216  0.8091187692896459   T   T   T
  0.3715939011619871  0.3320765078861172  0.6362924522644871   T   T   T
  0.8814630225600467  0.0063437684052270  0.6332010771161430   T   T   T
  0.9100655108579531  0.5824061207222253  0.6204976906358274   T   T   T
  0.1396319996743005  0.7757404982844759  0.9108679197316608   T   T   T
  0.0787285561120941  0.2178300632998179  0.3395315171940513   T   T   T
  0.3414406511695723  0.6034125226401965  0.7588943410395350   T   T   T
  0.3217183937341494  0.8835263098217417  0.2890628795847425   T   T   T
  0.3909039864421783  0.9891173825465704  0.4148376446133914   T   T   T
  0.9870776506168831  0.0790280100785016  0.4476608110557888   T   T   T
  0.6263821508107688  0.3422583878266726  0.8679547600213386   T   T   T
  0.5962024102454058  0.4373163882454378  0.5871214023449195   T   T   T
  0.2896605371863220  0.9938653793786123  0.7947570185230659   T   T   T
  0.6886654787652806  0.9603090686288221  0.3840249619778867   T   T   T
  0.0000892033248309  0.8266945355983795  0.0888035565383435   T   T   T
  0.0767713134742671  0.7417876788892631  0.3746317515690367   T   T   T
  0.1256707011125691  0.4244808459077052  0.9789630798220745   T   T   T
  0.0298279881384735  0.9370270393180512  0.4813016512751362   T   T   T
  0.1500743563652493  0.8260391383070177  0.2057043205254458   T   T   T
  0.4616362665908490  0.6851763029625445  0.0626734740550023   T   T   T
  0.9932989375371853  0.1592128928394590  0.8561514600050749   T   T   T
  0.0408249984234523  0.1254686950349285  0.0647662004500197   T   T   T
  0.5692999476770089  0.2941663286194904  0.1874561053210624   T   T   T
  0.3511949338871798  0.1495298640679036  0.6069613605217112   T   T   T
  0.4331961637771038  0.7510595060949391  0.5449696010258730   T   T   T
  0.8225552521188009  0.9271016185055068  0.0493184736720738   T   T   T
  0.9181729764163306  0.7916531361349382  0.5950067228073772   T   T   T
  0.0767950781264238  0.3421565600596194  0.7636394206004622   T   T   T
  0.9790079294823972  0.0932759016485596  0.3016098197089819   T   T   T
  0.3351359826983707  0.4304844834766873  0.2726360669940702   T   T   T
  0.0817054886297325  0.5314548197064587  0.5224204642247914   T   T   T
  0.4467525712738619  0.4722777243776619  0.9405567387726298   T   T   T
  0.2052612397655718  0.0425814661062395  0.1980575389354871   T   T   T
  0.2904605580597605  0.3644267971198546  0.1238429065180319   T   T   T
  0.7572257010390241  0.3556042722432466  0.7895542226821028   T   T   T
  0.9022227321247859  0.1900364898006877  0.5976942440288237   T   T   T
  0.3771039082193084  0.9627065786342104  0.0956163188927059   T   T   T
  0.3071903895619038  0.6160885203039709  0.2824794815550224   T   T   T
  0.4041790930509939  0.4233058841548302  0.5227639895734680   T   T   T
  0.9140928956844782  0.7748139602547526  0.1838722199643186   T   T   T
  0.0227849623324313  0.7052206019758890  0.7701978452043986   T   T   T
  0.5509338118202695  0.0735201453162657  0.3282380557670843   T   T   T
  0.2784904322705145  0.3824656743852257  0.9344916874779975   T   T   T
  0.0551270668577249  0.2772325648294832  0.1472785399783171   T   T   T
  0.6332943406818066  0.7060761788042271  0.8400356759575663   T   T   T
  0.5829449316004843  0.2857296098521801  0.7492019242603379   T   T   T
  0.0524556704442069  0.5865263971726261  0.3240668455942776   T   T   T
  0.9468417528096345  0.9363709999024519  0.2039113298852281   T   T   T
  0.1939610623911271  0.5994441344374040  0.4616479048263097   T   T   T
  0.9721485034993329  0.3125194622748210  0.5776632627033580   T   T   T
  0.1404561439656191  0.9672993865209699  0.8740161814649275   T   T   T
  0.5147232220394561  0.4409866256169018  0.3107334673077719   T   T   T
  0.7095050865331909  0.1217461573144868  0.1419259240704390   T   T   T
  0.5417128532431623  0.6620221657792438  0.2434406121325494   T   T   T
  0.8855181608523213  0.0539261865257945  0.8584155535615573   T   T   T
  0.5620722285906351  0.8220220221936058  0.0044793549899734   T   T   T
  0.0594528060114106  0.2960221649155734  0.9730765370588565   T   T   T
  0.8275729782990765  0.8680102163452897  0.5123998910978919   T   T   T
  0.8435206323366791  0.2829901497999879  0.0877086196915328   T   T   T
  0.8522480293916254  0.3233476665519514  0.9533891542262883   T   T   T
  0.9557220790324589  0.4329149095713175  0.7390335530148739   T   T   T
  0.4020531413687980  0.0783566669023244  0.2059433874535219   T   T   T
  0.3663101948693074  0.5297532151391189  0.4456778058554876   T   T   T
  0.5107474399424300  0.8434401607554882  0.3686627737037572   T   T   T
  0.3498063337067457  0.4450009820056625  0.7461681478488652   T   T   T
  0.6870605081039224  0.9542798017942088  0.1249582370818358   T   T   T
  0.2586504909676719  0.2284401197334966  0.1867006945367846   T   T   T
  0.8424936892857590  0.1110239782956272  0.9841495798340395   T   T   T
  0.2777636806443408  0.7136789580582270  0.9362242318979995   T   T   T
  0.4321613545178982  0.2470438062813714  0.0816545587558701   T   T   T
  0.6914031128138785  0.9619750192786372  0.8917806633876526   T   T   T
  0.9553019797547854  0.5825138121576363  0.8282964932987084   T   T   T
  0.8120988462883220  0.4842563522764146  0.0618754555191606   T   T   T
  0.3505724833807746  0.1222990612485117  0.7431100597750571   T   T   T
  0.5608951521826768  0.0791360190891564  0.0259102145655195   T   T   T
  0.5284585467895760  0.2787474593251504  0.4230395868033861   T   T   T
  0.5934901368085831  0.0548136986740098  0.8976761916626320   T   T   T
  0.1082137222215074  0.1363075822668509  0.6516039723659642   T   T   T
  0.3213430654000132  0.5845637327901525  0.6173895193015797   T   T   T
  0.7428313139712961  0.0636794525337675  0.4702015789298204   T   T   T
  0.6550529221061943  0.9396933653643855  0.6148859574936670   T   T   T
  0.4388624616705479  0.9373349591020725  0.8947802738112330   T   T   T
  0.1451839994665085  0.4533566447121217  0.6360523393498190   T   T   T
  0.2462635120881235  0.8166776848188049  0.4811877383874079   T   T   T
  0.1697493474223737  0.1049914246768883  0.8378578388475985   T   T   T
  0.1371860248182694  0.4424057038075350  0.2304255556380536   T   T   T
  0.5413925231416014  0.2625921351573375  0.9375085881182463   T   T   T
  0.2042726374892071  0.5272788216756220  0.0232254087509630   T   T   T
  0.8420500424831172  0.0982871755355307  0.1806655011348920   T   T   T
  0.5163350337194718  0.8408573742789610  0.7139493816188036   T   T   T
  0.7282768310022371  0.7267730018316346  0.0165836416620317   T   T   T
  0.0076185446127063  0.4841488920320585  0.0171614313816564   T   T   T
  0.0277282559821521  0.6909450517724279  0.0657307190258373   T   T   T
  0.6785786288331255  0.1371541471491061  0.7446023245149271   T   T   T
  0.8282491546488846  0.8846164581405477  0.7817817616482639   T   T   T
  0.1910649100838639  0.8989474813442574  0.6595829388891866   T   T   T
  0.1804847836870632  0.9409665471157053  0.0001945841050674   T   T   T
  0.1376524139703917  0.9519159829084586  0.3731991436128481   T   T   T
  0.7233207233814434  0.1566984355477503  0.3247191100026822   T   T   T
  0.4395601408548807  0.2398058705443502  0.3020186322287603   T   T   T
  0.6921434558156658  0.5756689744712801  0.7281106383043939   T   T   T
  0.3385475271473202  0.2320724459165632  0.4619701764673226   T   T   T
  0.0628739901130751  0.9163914084865493  0.7237070154174722   T   T   T
  0.7955829051874288  0.6658143981702161  0.8088742931975645   T   T   T
  0.0001340910195646  0.9327073731090848  0.9854365187350389   T   T   T
  0.2251148749478934  0.3743325998642862  0.4225852722982020   T   T   T
  0.2119062243958994  0.7027386842361941  0.6508164810828618   T   T   T
  0.3478698036914146  0.9667603480313383  0.5586696131448157   T   T   T
  0.6679609408565594  0.8592116536872627  0.8006482831500107   T   T   T
  0.2193984872436922  0.0980189766931362  0.9929232616034898   T   T   T
  0.2935908055311231  0.7822752742742806  0.0747630003601998   T   T   T
  0.5425845680337550  0.5655429913883154  0.4414246426266356   T   T   T
  0.9175703482616743  0.7619768834272242  0.9019759255771743   T   T   T
  0.4399926315290870  0.1641140544008257  0.9148107982874922   T   T   T
  0.4496348291354259  0.4905714368880542  0.1337919776794881   T   T   T
  0.0316542345908196  0.7175409525193269  0.5766671174461852   T   T   T
  0.1630524092304882  0.6334972903511221  0.1853376747697563   T   T   T
  0.2753219468365445  0.2693598350450762  0.8225070507196786   T   T   T
  0.5267705595216498  0.0860358303951711  0.5149393442112161   T   T   T
  0.3981289610884400  0.7064669121359753  0.3759910997809494   T   T   T
  0.3394501676586859  0.8054836103609800  0.7705130924035025   T   T   T
  0.6119896046362724  0.4499385110279273  0.0283036233433047   T   T   T
  0.1637314727455398  0.0659396402302615  0.5352470810423103   T   T   T
  0.9032952467554231  0.2408960278012328  0.7752835558853316   T   T   T
  0.6132685054686986  0.1764318182444892  0.5797201332810521   T   T   T
  0.1295888674863033  0.2230362160596476  0.5212532683403572   T   T   T
  0.1258741733843911  0.6033423832710655  0.8278209119634040   T   T   T
  0.5263488354578584  0.8470998152180542  0.1752676554292676   T   T   T
  0.4846680349753846  0.4848388404738596  0.7528273688444070   T   T   T
  0.9315514953251258  0.4785662550695237  0.9089466157041478   T   T   T
  0.7965617423762409  0.2444791085117533  0.8638301903755725   T   T   T
  0.8562538699766302  0.9933671804825456  0.4794518558827378   T   T   T
  0.0622069441777306  0.7202686026527315  0.2179120427542614   T   T   T
  0.9721576677911645  0.4598219006453653  0.6036678269220890   T   T   T
  0.3306201195811641  0.6530547483000354  0.0428791947184171   T   T   T
  0.0591216644491092  0.9929966824771241  0.2516405781198601   T   T   T
  0.5807598797762198  0.4451517935170705  0.1663528854331251   T   T   T
  0.6997285382123055  0.0608656087147999  0.5980480710748228   T   T   T
  0.5830956108170612  0.2083302320263230  0.0517786226209211   T   T   T
  0.1175282591262275  0.0900872590592962  0.4076928143670805   T   T   T
  0.9505858699181023  0.8338593674689065  0.2970844466724522   T   T   T
  0.7679925331014085  0.0244239281922798  0.8035785285921483   T   T   T
  0.2891608543945214  0.8112617878500740  0.6220198117613646   T   T   T
  0.8780331400495192  0.6484356254387245  0.2042549623099225   T   T   T
  0.4331201145137663  0.0906715196016693  0.0230194011312301   T   T   T
  0.2888015718734835  0.1133903558711429  0.1121492865129641   T   T   T
  0.3859519908413723  0.8358259537478063  0.4363612850553760   T   T   T
  0.9326868120773355  0.9662512593853094  0.7598015367576882   T   T   T
  0.7059942965933593  0.2315873981184676  0.2174667279172585   T   T   T
  0.7262666638976399  0.0261911878907902  0.0054269332506322   T   T   T
  0.5446119450691351  0.1694113554492277  0.7018287977564823   T   T   T
  0.1204001207803666  0.0066760448305788  0.0958243854843587   T   T   T
  0.8598871915605349  0.5393044386225724  0.7432554349584422   T   T   T
  0.2239692303134659  0.3523912057846764  0.2858509423214962   T   T   T
  0.3885457038776267  0.3774622769306219  0.8547419279801700   T   T   T
  0.2598969023298516  0.7428901193281879  0.1989055294326952   T   T   T
  0.2672106296493897  0.9969270836938308  0.3463159983862500   T   T   T
  0.3276469575078110  0.4708209910847831  0.0316643401101431   T   T   T
  0.4404738697940828  0.9614453498859433  0.2897870308656990   T   T   T
  0.4435786310901045  0.2366535943714883  0.5600176639637143   T   T   T
  0.4272068381823529  0.3269702848728399  0.1990608425665449   T   T   T
  0.8649983220858189  0.0143733573107207  0.2820536120190824   T   T   T
  0.4220900590784426  0.8317955346843052  0.0837007052341546   T   T   T
  0.0874666884504593  0.4759960724964961  0.3981507201438239   T   T   T
  0.0928077584425218  0.4675113523353598  0.8509510341497714   T   T   T
  0.5658129134786055  0.4589127237833575  0.8629130859816798   T   T   T
  0.2602410528082094  0.0121421622618657  0.6628387409356720   T   T   T
  0.5165168722173875  0.1573223237711588  0.2207496921549750   T   T   T
  0.6184931045972414  0.5273625673846262  0.3370678943037580   T   T   T
  0.3100330313955271  0.1532664165048043  0.8971000146992364   T   T   T
  0.1647457632096392  0.9247677350225663  0.5185012057569915   T   T   T
  0.9968475746289779  0.2174870840318843  0.4682180273543767   T   T   T
  0.5512819440395070  0.8577821044978265  0.8732245514992411   T   T   T
  0.5950215569225784  0.9598210521772015  0.7274302334180517   T   T   T
  0.6988133293131072  0.4475308257942469  0.6832516247732825   T   T   T
  0.1823592668748728  0.8258217827700541  0.3445010597782461   T   T   T
  0.5264885613025426  0.7184432923543996  0.4414837351792841   T   T   T
  0.8628735188812381  0.3454099323875241  0.6961174850786752   T   T   T
  0.3170599889722479  0.6496836321321338  0.4907779363788694   T   T   T
  0.6493760634783791  0.1676976742363401  0.8758972761847337   T   T   T
  0.2917406590914377  0.0894141610219870  0.5001765585164190   T   T   T
  0.7845488832557790  0.8143510637345366  0.1698810344416630   T   T   T
  0.1784775827605687  0.6471464726776998  0.3368296385194425   T   T   T
  0.0449341987001514  0.8709109960757884  0.8722426787726417   T   T   T
  0.8023532852371644  0.4505749688639757  0.9274136396828475   T   T   T
  0.9889394698651979  0.0841885119840291  0.5886253082072447   T   T   T
  0.2696591638249491  0.9227887076978529  0.1667078546043226   T   T   T
  0.5618525530276787  0.5966253852781671  0.7347050570746907   T   T   T
  0.9846926349236376  0.9104078110990578  0.6080256714762050   T   T   T
  0.1114665442179869  0.2491819334360582  0.8573977706672161   T   T   T
  0.5145064087477801  0.3746862750609410  0.6781150721089890   T   T   T
  0.2669710932846018  0.2677482775498680  0.5754796691877937   T   T   T
  0.3078931605799545  0.9558635459129758  0.9783994506581928   T   T   T
  0.7551517010722341  0.1962680140331813  0.0356048761927137   T   T   T
  0.8685305075791587  0.6353647670811242  0.9180512332525296   T   T   T
  0.9320205294142577  0.1860045004404206  0.2142381841908175   T   T   T
  0.5201962068823551  0.4282529019128645  0.4545370054281296   T   T   T
  0.5925268283937601  0.3317647531657726  0.3160188009605444   T   T   T
  0.4542833227112795  0.7724754058426637  0.2654825724110902   T   T   T
  0.1002428905376270  0.7820189039049316  0.6882853145837896   T   T   T
  0.7552773369989669  0.7733572885760071  0.8879930256457228   T   T   T
  0.5944612871937857  0.7362727034620307  0.1397448973593834   T   T   T
  0.9018263850131744  0.7678994249646492  0.7311493362740996   T   T   T
  0.1470113829964606  0.2067680006971716  0.0332097282457405   T   T   T
  0.8786795671791587  0.9338589900344406  0.9261578678296986   T   T   T
  0.6920164893931774  0.8603749393206741  0.0190290590447982   T   T   T
  0.6857499136701498  0.0451946745376667  0.2724724183931790   T   T   T
  0.1913424697572499  0.5528059954002702  0.7195639162000123   T   T   T
  0.7599403081569146  0.4724440901686482  0.4906646493835525   T   T   T
  0.3936749074600833  0.2473540894171896  0.7549720508118535   T   T   T
  0.9086236962488693  0.0388646965034961  0.0815581992137491   T   T   T
  0.4398053456355796  0.5709479001703393  0.3453897506934382   T   T   T
  0.1350082848841644  0.1846042261264666  0.2182484333426856   T   T   T
  0.9894961019466819  0.8168766215049766  0.4570425128843684   T   T   T
  0.4266132858220870  0.7088510519142517  0.7128284561313030   T   T   T
  0.6369323444277167  0.8848156213521773  0.2749503822778951   T   T   T
  0.3900272979324048  0.7849878035361649  0.8992465733398394   T   T   T
  0.1449592868204570  0.8226377240888091  0.0413115306574313   T   T   T
  0.7993953439322160  0.1811168360661425  0.5067845666444132   T   T   T
  0.7098886563097339  0.8347850255381861  0.4563904877631494   T   T   T
  0.0292723461113558  0.2427969111148078  0.6828167574718188   T   T   T
  0.6960845476935561  0.5830828922734789  0.8595738065759322   T   T   T
  0.3052639751689203  0.2810865333353685  0.0191876778031423   T   T   T
  0.4121585774374786  0.5944265006782374  0.8745608333073839   T   T   T
  0.0348465085236853  0.6906360123202241  0.9334018248121806   T   T   T
  0.5574772507942299  0.9863876090720753  0.1175268159970274   T   T   T
  0.4874026655722963  0.3558660651869212  0.0194457082276623   T   T   T
  0.8804472848769975  0.7847923400604228  0.0295109452335244   T   T   T
  0.6190109580888465  0.1681435608621920  0.4061781521001375   T   T   T
  0.2365384388118972  0.5760264442109416  0.9032644730979472   T   T   T
  0.2620008288379549  0.4738964976104876  0.5684561944132615   T   T   T
  0.4789865757320600  0.0660786872035078  0.8341083132205133   T   T   T
  0.4455929668573150  0.5351386173835985  0.6029078581950779   T   T   T
  0.2207400538828503  0.8774461936599837  0.8040609391640653   T   T   T
  0.0416597767606091  0.0574652198099441  0.9416728321818411   T   T   T
  0.2649330974791133  0.5081144520123367  0.3691773518818288   T   T   T
  0.9494624387288844  0.2071407233105425  0.9856328074543911   T   T   T
  0.2039237777995083  0.3542784170176633  0.7172464563048320   T   T   T
  0.3253023991251461  0.1653321974718890  0.2882337778754074   T   T   T
  0.2468167819881064  0.6993356988108542  0.7846232975002393   T   T   T
  0.0545958596146262  0.5408956535829513  0.1926378691094858   T   T   T
  0.9505471917328792  0.5842869539454169  0.0756752360381271   T   T   T
  0.1967991353667160  0.2378229405744498  0.4059444707665785   T   T   T
  0.2248792086392181  0.1736499956550781  0.7353123746133353   T   T   T
  0.9578795731867537  0.3545055243217355  0.8779895607287352   T   T   T
  0.5646759133720588  0.9728281679199494  0.4469748776643422   T   T   T
  0.7007452739859280  0.5595979402371891  0.0414546821143261   T   T   T
  0.4096998868692194  0.9299197223450013  0.7634596080032738   T   T   T
  0.5155705395342786  0.5513963243347427  0.0320092280362828   T   T   T
  0.6250439007055747  0.3144116140436109  0.5339438436992151   T   T   T
  0.2608705360433107  0.5276830169929628  0.1867550423976183   T   T   T
  0.1014657447449768  0.3531122134832801  0.5342956527412074   T   T   T
  0.7736693354889901  0.8873630187552561  0.6484664953539052   T   T   T
  0.4292326995306476  0.6195312289912723  0.1788525908750194   T   T   T
  0.1544824901782107  0.6517120047783550  0.0532596154940360   T   T   T
  0.5996567887897932  0.6963897962253655  0.9687686690195922   T   T   T
  0.7018530016819661  0.2684643163453422  0.6979100137268520   T   T   T
  0.4696507308504835  0.8726831528410945  0.5925961390320900   T   T   T
  0.3640835456410459  0.3539227186932521  0.4020935043218404   T   T   T
  0.1467509281837325  0.7244966256482156  0.5045510484837059   T   T   T
  0.8417846941431787  0.1430412958147580  0.7056380891047859   T   T   T
  0.0227357671621792  0.3628231481040839  0.2561432555590666   T   T   T
  0.9525552653630996  0.3863631768672883  0.0825926284396554   T   T   T
  0.1514212961565608  0.3768409136235837  0.1149756448358484   T   T   T
  0.4440954615221565  0.1172062763777734  0.4156857999906283   T   T   T
  0.9963829035749914  0.6253639691110705  0.4811821826437602   T   T   T
  0.0644205678501998  0.0690524182491582  0.7601705932429491   T   T   T
  0.0343392888364702  0.6167434451732717  0.6689744909938520   T   T   T
  0.7369428785676484  0.3714545408411563  0.0866029203027562   T   T   T
  0.4470035183797675  0.0416992996459410  0.6101231239872558   T   T   T
  0.7937417600000032  0.7033995399999995  0.5802567599999975   F   F   F
  0.8970372100000006  0.5344469500000031  0.3521536599999990   F   F   F
  0.9105228800000020  0.3674127199999973  0.4378188800000018   F   F   F
  0.7631037800000016  0.5180714099999975  0.2184454799999997   F   F   F
  0.6435669099999970  0.5857456900000031  0.5546893499999968   F   F   F
  0.6865011499999980  0.7020694599999970  0.2977844199999993   F   F   F
  0.7414086499999968  0.3046995999999993  0.3933571299999983   F   F   F
  0.8415666200000018  0.7041201600000022  0.4115778500000005   F   F   F
  0.8426703200000034  0.3523051399999986  0.2435380499999980   F   F   F
  0.6218443500000035  0.7562983600000024  0.6257421399999998   F   F   F
 
  0.00000000E+00  0.00000000E+00  0.00000000E+00
  0.00000000E+00  0.00000000E+00  0.00000000E+00
  0.00000000E+00  0.00000000E+00  0.00000000E+00
  0.00000000E+00  0.00000000E+00  0.00000000E+00
  0.00000000E+00  0.00000000E+00  0.00000000E+00
  0.00000000E+00  0.00000000E+00  0.00000000E+00
  0.00000000E+00  0.00000000E+00  0.00000000E+00
  0.00000000E+00  0.00000000E+00  0.00000000E+00
  0.00000000E+00  0.00000000E+00  0.00000000E+00
  0.00000000E+00  0.00000000E+00  0.00000000E+00
  0.00000000E+00  0.00000000E+00  0.00000000E+00
  0.00000000E+00  0.00000000E+00  0.00000000E+00
  0.00000000E+00  0.00000000E+00  0.00000000E+00
  0.00000000E+00  0.00000000E+00  0.00000000E+00
  0.00000000E+00  0.00000000E+00  0.00000000E+00
  0.00000000E+00  0.00000000E+00  0.00000000E+00
  0.00000000E+00  0.00000000E+00  0.00000000E+00
  0.00000000E+00  0.00000000E+00  0.00000000E+00
  0.00000000E+00  0.00000000E+00  0.00000000E+00
  0.00000000E+00  0.00000000E+00  0.00000000E+00
  0.00000000E+00  0.00000000E+00  0.00000000E+00
  0.00000000E+00  0.00000000E+00  0.00000000E+00
  0.00000000E+00  0.00000000E+00  0.00000000E+00
  0.00000000E+00  0.00000000E+00  0.00000000E+00
  0.00000000E+00  0.00000000E+00  0.00000000E+00
  0.00000000E+00  0.00000000E+00  0.00000000E+00
  0.00000000E+00  0.00000000E+00  0.00000000E+00
  0.00000000E+00  0.00000000E+00  0.00000000E+00
  0.00000000E+00  0.00000000E+00  0.00000000E+00
  0.00000000E+00  0.00000000E+00  0.00000000E+00
  0.00000000E+00  0.00000000E+00  0.00000000E+00
  0.00000000E+00  0.00000000E+00  0.00000000E+00
  0.00000000E+00  0.00000000E+00  0.00000000E+00
  0.00000000E+00  0.00000000E+00  0.00000000E+00
  0.00000000E+00  0.00000000E+00  0.00000000E+00
  0.00000000E+00  0.00000000E+00  0.00000000E+00
  0.00000000E+00  0.00000000E+00  0.00000000E+00
  0.00000000E+00  0.00000000E+00  0.00000000E+00
  0.00000000E+00  0.00000000E+00  0.00000000E+00
  0.00000000E+00  0.00000000E+00  0.00000000E+00
  0.00000000E+00  0.00000000E+00  0.00000000E+00
  0.00000000E+00  0.00000000E+00  0.00000000E+00
  0.00000000E+00  0.00000000E+00  0.00000000E+00
  0.00000000E+00  0.00000000E+00  0.00000000E+00
  0.00000000E+00  0.00000000E+00  0.00000000E+00
  0.00000000E+00  0.00000000E+00  0.00000000E+00
  0.00000000E+00  0.00000000E+00  0.00000000E+00
  0.00000000E+00  0.00000000E+00  0.00000000E+00
  0.00000000E+00  0.00000000E+00  0.00000000E+00
  0.00000000E+00  0.00000000E+00  0.00000000E+00
  0.00000000E+00  0.00000000E+00  0.00000000E+00
  0.00000000E+00  0.00000000E+00  0.00000000E+00
  0.00000000E+00  0.00000000E+00  0.00000000E+00
  0.00000000E+00  0.00000000E+00  0.00000000E+00
  0.00000000E+00  0.00000000E+00  0.00000000E+00
  0.00000000E+00  0.00000000E+00  0.00000000E+00
  0.00000000E+00  0.00000000E+00  0.00000000E+00
  0.00000000E+00  0.00000000E+00  0.00000000E+00
  0.00000000E+00  0.00000000E+00  0.00000000E+00
  0.00000000E+00  0.00000000E+00  0.00000000E+00
  0.00000000E+00  0.00000000E+00  0.00000000E+00
  0.00000000E+00  0.00000000E+00  0.00000000E+00
  0.00000000E+00  0.00000000E+00  0.00000000E+00
  0.00000000E+00  0.00000000E+00  0.00000000E+00
  0.00000000E+00  0.00000000E+00  0.00000000E+00
  0.00000000E+00  0.00000000E+00  0.00000000E+00
  0.00000000E+00  0.00000000E+00  0.00000000E+00
  0.00000000E+00  0.00000000E+00  0.00000000E+00
  0.00000000E+00  0.00000000E+00  0.00000000E+00
  0.00000000E+00  0.00000000E+00  0.00000000E+00
  0.00000000E+00  0.00000000E+00  0.00000000E+00
  0.00000000E+00  0.00000000E+00  0.00000000E+00
  0.00000000E+00  0.00000000E+00  0.00000000E+00
  0.00000000E+00  0.00000000E+00  0.00000000E+00
  0.00000000E+00  0.00000000E+00  0.00000000E+00
  0.00000000E+00  0.00000000E+00  0.00000000E+00
  0.00000000E+00  0.00000000E+00  0.00000000E+00
  0.00000000E+00  0.00000000E+00  0.00000000E+00
  0.00000000E+00  0.00000000E+00  0.00000000E+00
  0.00000000E+00  0.00000000E+00  0.00000000E+00
  0.00000000E+00  0.00000000E+00  0.00000000E+00
  0.00000000E+00  0.00000000E+00  0.00000000E+00
  0.00000000E+00  0.00000000E+00  0.00000000E+00
  0.00000000E+00  0.00000000E+00  0.00000000E+00
  0.00000000E+00  0.00000000E+00  0.00000000E+00
  0.00000000E+00  0.00000000E+00  0.00000000E+00
  0.00000000E+00  0.00000000E+00  0.00000000E+00
  0.00000000E+00  0.00000000E+00  0.00000000E+00
  0.00000000E+00  0.00000000E+00  0.00000000E+00
  0.00000000E+00  0.00000000E+00  0.00000000E+00
  0.00000000E+00  0.00000000E+00  0.00000000E+00
  0.00000000E+00  0.00000000E+00  0.00000000E+00
  0.00000000E+00  0.00000000E+00  0.00000000E+00
  0.00000000E+00  0.00000000E+00  0.00000000E+00
  0.00000000E+00  0.00000000E+00  0.00000000E+00
  0.00000000E+00  0.00000000E+00  0.00000000E+00
  0.00000000E+00  0.00000000E+00  0.00000000E+00
  0.00000000E+00  0.00000000E+00  0.00000000E+00
  0.00000000E+00  0.00000000E+00  0.00000000E+00
  0.00000000E+00  0.00000000E+00  0.00000000E+00
  0.00000000E+00  0.00000000E+00  0.00000000E+00
  0.00000000E+00  0.00000000E+00  0.00000000E+00
  0.00000000E+00  0.00000000E+00  0.00000000E+00
  0.00000000E+00  0.00000000E+00  0.00000000E+00
  0.00000000E+00  0.00000000E+00  0.00000000E+00
  0.00000000E+00  0.00000000E+00  0.00000000E+00
  0.00000000E+00  0.00000000E+00  0.00000000E+00
  0.00000000E+00  0.00000000E+00  0.00000000E+00
  0.00000000E+00  0.00000000E+00  0.00000000E+00
  0.00000000E+00  0.00000000E+00  0.00000000E+00
  0.00000000E+00  0.00000000E+00  0.00000000E+00
  0.00000000E+00  0.00000000E+00  0.00000000E+00
  0.00000000E+00  0.00000000E+00  0.00000000E+00
  0.00000000E+00  0.00000000E+00  0.00000000E+00
  0.00000000E+00  0.00000000E+00  0.00000000E+00
  0.00000000E+00  0.00000000E+00  0.00000000E+00
  0.00000000E+00  0.00000000E+00  0.00000000E+00
  0.00000000E+00  0.00000000E+00  0.00000000E+00
  0.00000000E+00  0.00000000E+00  0.00000000E+00
  0.00000000E+00  0.00000000E+00  0.00000000E+00
  0.00000000E+00  0.00000000E+00  0.00000000E+00
  0.00000000E+00  0.00000000E+00  0.00000000E+00
  0.00000000E+00  0.00000000E+00  0.00000000E+00
  0.00000000E+00  0.00000000E+00  0.00000000E+00
  0.00000000E+00  0.00000000E+00  0.00000000E+00
  0.00000000E+00  0.00000000E+00  0.00000000E+00
  0.00000000E+00  0.00000000E+00  0.00000000E+00
  0.00000000E+00  0.00000000E+00  0.00000000E+00
  0.00000000E+00  0.00000000E+00  0.00000000E+00
  0.00000000E+00  0.00000000E+00  0.00000000E+00
  0.00000000E+00  0.00000000E+00  0.00000000E+00
  0.00000000E+00  0.00000000E+00  0.00000000E+00
  0.00000000E+00  0.00000000E+00  0.00000000E+00
  0.00000000E+00  0.00000000E+00  0.00000000E+00
  0.00000000E+00  0.00000000E+00  0.00000000E+00
  0.00000000E+00  0.00000000E+00  0.00000000E+00
  0.00000000E+00  0.00000000E+00  0.00000000E+00
  0.00000000E+00  0.00000000E+00  0.00000000E+00
  0.00000000E+00  0.00000000E+00  0.00000000E+00
  0.00000000E+00  0.00000000E+00  0.00000000E+00
  0.00000000E+00  0.00000000E+00  0.00000000E+00
  0.00000000E+00  0.00000000E+00  0.00000000E+00
  0.00000000E+00  0.00000000E+00  0.00000000E+00
  0.00000000E+00  0.00000000E+00  0.00000000E+00
  0.00000000E+00  0.00000000E+00  0.00000000E+00
  0.00000000E+00  0.00000000E+00  0.00000000E+00
  0.00000000E+00  0.00000000E+00  0.00000000E+00
  0.00000000E+00  0.00000000E+00  0.00000000E+00
  0.00000000E+00  0.00000000E+00  0.00000000E+00
  0.00000000E+00  0.00000000E+00  0.00000000E+00
  0.00000000E+00  0.00000000E+00  0.00000000E+00
  0.00000000E+00  0.00000000E+00  0.00000000E+00
  0.00000000E+00  0.00000000E+00  0.00000000E+00
  0.00000000E+00  0.00000000E+00  0.00000000E+00
  0.00000000E+00  0.00000000E+00  0.00000000E+00
  0.00000000E+00  0.00000000E+00  0.00000000E+00
  0.00000000E+00  0.00000000E+00  0.00000000E+00
  0.00000000E+00  0.00000000E+00  0.00000000E+00