Sb                                      
   1.00000000000000     
    18.1273007964999984    0.0000000000000000    0.0000000000000000
     0.0000000000000000   18.1273007964999984    0.0000000000000000
     0.0000000000000000    0.0000000000000000   18.1273007964999984
   As   Se
    66   132
Direct
  0.0930109867906803  0.0886091170905715  0.7727395641499547
  0.7858627391808708  0.4556356236797315  0.7414891455887435
  0.0385251308836070  0.4329581634840960  0.8471465054593358
  0.7613033251464141  0.9342027290656776  0.8627840484703139
  0.7619290128510292  0.8095271706560475  0.7005540533681448
  0.4488977331080394  0.6781805272593866  0.0053883698855778
  0.8354255103594381  0.6358473761625291  0.7709477204078256
  0.1634449945888121  0.8340628877582624  0.9866029822504395
  0.0220021595051158  0.9130556967966957  0.4515001564013006
  0.9414547339536584  0.1941629566879458  0.8127411561880430
  0.2096981821437651  0.3988097862976768  0.7572026367469246
  0.6341008869695165  0.5474370377694788  0.4302519064220903
  0.5595452073324312  0.4665369611474284  0.2413193401693420
  0.9699714771406955  0.8633529845379490  0.6482050596218807
  0.7783702919127158  0.8496083706291674  0.3048526720263546
  0.0126682429075255  0.3633986109563414  0.9658949781545801
  0.3614790158259109  0.0821436162284874  0.1773895652204917
  0.8246673753522852  0.1028713665814072  0.4729354090833308
  0.7853053667442025  0.1334302617492400  0.6641850900820846
  0.9246825003057492 -0.0026003318958342  0.9745318307075490
  0.1999651173523183  0.9679401883727834  0.1422374769258160
  0.5323208966985156  0.1710967575344311  0.9131887112244037
 -0.0069097190212308  0.2821987365032134  0.2994348580645761
  0.2166641255096133  0.8083118465351229  0.3441839517050939
  0.1311112319616182  0.3767307318647475  0.0349161437862550
  0.0187434447089545  0.7035606806142896  0.9197477612691621
  0.4528132888329739  0.5211976924216157  0.8914724497645398
  0.0201265697474603  0.4354139532246958  0.4418907838263515
  0.1111909974421053  0.0032282172091928  0.3965152002853541
  0.9118844696988517  0.0714807528240032  0.3086947046211519
  0.2106535007610953  0.0028323595147595  0.4929082896745192
  0.6230505256083262  0.8947476617172896 -0.0035048171379262
  0.2129125470001210  0.1305504828006349  0.0489566776098596
  0.6033094643165153  0.7369904676304316  0.3933950612220485
  0.1342227413058636  0.7612540796427727  0.7019491181925830
  0.8466306346791895  0.0052894861958552  0.1581184829261740
  0.8862748243627833 -0.0050181526087864  0.8422894715959038
  0.8786641119931419  0.6734451469577187  0.2786882255910221
  0.2461395889703736  0.6539548532715692  0.4754009750859347
  0.7405144655195727  0.2435040237886947  0.7386347749448284
  0.6175091984184904  0.7038127215933118  0.5939914234510028
  0.3424346242617701  0.0974462420794716 -0.0035886686914811
  0.2657704346931705  0.4696998917459980  0.1195826614661079
  0.0819041268351198  0.5697150007966594  0.7314985774781851
  0.5332199146675154  0.8586575628733464  0.5453332998903768
  0.3951065454221220  0.2888851247105380  0.2175110012340485
  0.4038975563902830  0.8445907403048393  0.5997599053307832
  0.2076783071541074  0.3852568610979161  0.2209271966729965
  0.4250359475024726  0.6278029842741406  0.4610372671913592
  0.2856946010584193  0.3236567609555659  0.5689285526392668
  0.6048491420403846  0.0557384850240594  0.7701576313986008
  0.7853139070538511  0.6693952195094764  0.4671928989162360
  0.1739682527619045  0.8730747845972614  0.5252881128307059
  0.9524920488387260  0.4377711386751433  0.5652894619626964
  0.6336164981757010  0.2020774528203925  0.2692685077372375
  0.6470908521151396  0.7162322752745583  0.9399432053682059
  0.4749952311730975  0.0475496166483625  0.5949904904842581
  0.8117868265164033  0.3154605476828644  0.2939765129164774
  0.7327930811729173  0.9439538302824940  0.2139935215886473
  0.6994874100072719  0.2717105664962692  0.1026873952103475
  0.4043115898775777  0.0108711170619035  0.8026686699839582
  0.9561576832129731  0.1254518210205193  0.4279925201663703
  0.9040690183096290  0.8306999467684332  0.0810251021092229
  0.9576418072929574  0.5556978359431516  0.0650443266965062
  0.9893105532512761  0.7508209508408926  0.2460458395726035
  0.4522076193395749  0.2625414876025346  0.0390509643175210
  0.9159797268668362  0.9519749447272552  0.3773603638867068
  0.5140970387892271  0.6346154789366073  0.6161375037258068
  0.9694648436160815  0.5790933654049956  0.9346272262723213
  0.8034298458907255  0.9712752918451680  0.0345840433076275
  0.4436888626921387  0.3555280564509806  0.7553604199338134
  0.6104306805689838  0.0807206622494998  0.3242979545680259
  0.8036045027978712  0.2445624012996645  0.0222202899922399
  0.9220021057631288  0.4274734743737090  0.0369818681644852
  0.3791735305314491  0.4958539941323916  0.4568362236733080
  0.1225621623822189  0.0979385808636778  0.5417053525627760
  0.4303766127231317  0.5037770520896695  0.2345950236102821
  0.0412430422821003  0.8915368253809584  0.7616290834051187
  0.0711899963291196  0.5428794373877603  0.2386260771866659
  0.7266912126567245  0.2355311162885913  0.3606024179056447
  0.0430216450012896  0.3653277809888327  0.6356636660620003
  0.5545281686431129  0.8113039449979719  0.9162039849536867
  0.6453313862469739  0.8521757496089076  0.3426203918444493
  0.7403767233504661  0.3657605498458241  0.1922715808600696
  0.9838402623584731  0.1268344635209002  0.7040621420510683
  0.3622245797564070  0.9728789458633759  0.5969643622673384
  0.8360859566885985  0.1188149178866694  0.8543319122801016
  0.3590363518926790  0.2212332372494279  0.3313487020749604
  0.5298047863435406  0.9727393437413661  0.6912093606086421
  0.6619723745669510  0.1304003100781027  0.9240266943263601
  0.3816496184800817  0.3984305268400308  0.2978372379450930
  0.4905430409840201  0.0962183330085719  0.1388879313509981
  0.1423534214405953  0.9697534222445310  0.7296492120484805
  0.6897929233831525  0.5582563525176590  0.5561160111265434
  0.5554128791749069  0.3790691986512158  0.1349315343381262
  0.4120899182714529  0.6990745706658187  0.1366436047102740
  0.7170651247180674  0.5683666589038923  0.7554461376474115
  0.1882151194371990  0.1847157282674317  0.4668397158754478
  0.0513194584948364  0.0930661814738472  0.8965129277163487
  0.4620219899738175  0.1569237877938782  0.3871206920302012
  0.7731209386403325  0.5885741879437528  0.9689558717784031
  0.6998000124694700  0.7895643822043488  0.0386287531907752
  0.0152319563869587  0.6856236333164628  0.7859800358969811
 -0.0112279726445438  0.5648300794176813  0.5785254130160785
  0.3477678030519036  0.6652977611908578  0.5627804372836264
  0.2941800151065876  0.8515510116880359  0.8595543720470614
  0.3058176257803987  0.2004870203764293  0.5222757099068187
  0.8679329534193166  0.2918008445018362  0.7428810523044479
  0.1621809598499698  0.5048896958569031  0.0411032752903796
  0.2860606460270993  0.2929612274027720  0.7022336940448428
  0.2719597734759458  0.7374129593541002  0.8006411991963313
  0.7143762358807660  0.1586009806993510  0.1713433371431424
  0.2478104962130971  0.2996473321424128  0.9844410491602277
  0.1446819441518923  0.0172598552693339  0.0293038300488523
  0.1605725857083933  0.2021274068132926  0.9478835350336231
  0.6457957801737858  0.7390764441877478  0.7186853917356931
  0.5501535597029810  0.3004512966798495  0.9593318263191329
  0.4445164229935946  0.8245467307883332  0.7273581192982598
  0.8220831673398171  0.5567116070796980  0.5364249176105551
  0.8254634625999396  0.5849473541890139  0.0881066209003128
  0.7259200196934030  0.2485762981737862  0.9172888738099407
  0.2971967109764591  0.8232679343130496  0.9874638560482778
  0.1568949632175271  0.8429174968443300  0.1225425306576158
  0.4762600691623922  0.2458382392634782  0.5798299573287981
  0.3615135508905868  0.2327709961870428  0.9375276948850441
  0.3104311735754742  0.8328022412831435  0.2473189889943455
  0.7908676433877976  0.4045075665306160  0.8712259679699675
  0.2818335270143999  0.6756890792226282  0.1305618519500206
  0.1404906654343814  0.5222527137929318  0.8482925229730569
  0.6840330744585430  0.3016997161149367  0.6324058632497481
  0.5236419750154034  0.6856187525177887  0.2933493733689382
  0.8886895683708461  0.7257540921832313  0.4014824003845715
  0.1467386866458217  0.7007543537982993  0.9624504489549166
  0.0219072218960756  0.0869891173024611  0.2305753486307912
  0.9139016749996328  0.4916215287738153  0.3805819690683564
  0.5233967367882661  0.8956208352669772  0.0866703557067328
  0.3732452435551763  0.5706828202948854  0.9904411705921720
  0.2483274204088728  0.5114232019683388  0.4754776228753908
  0.5257965759272468  0.1933089087942260  0.7809819219558716
  0.8416437286805860  0.7096729770787983  0.6575213676361661
  0.5184578106345399  0.0117926149530826  0.8786701104776719
  0.5759930268410552  0.6145071606537924  0.0111505937182214
  0.5265132765977396  0.6265091873903651  0.8623151878385545
  0.1759806866602060  0.5101605031423414  0.3600296654181933
  0.2318803128197327  0.8411033021945381  0.6419418199409255
  0.8025224978701412  0.8081486319654849  0.8286253123849481
  0.1130261761706071  0.3231336294407409  0.8108491376172468
  0.8288111663157719  0.2070025051785686  0.5599641496695411
  0.1837180311325563  0.6349223841197245  0.6719867121512013
  0.1476132650621920  0.4444927858605233  0.6416382217793684
  0.8273294703651232  0.0014207075737982  0.5640582741032568
  0.0787487484862986  0.6633656809507479  0.2923778020505570
  0.1256235006470435  0.9021735067861870  0.3056715942289251
  0.5449749960417076  0.3934773755837836  0.3546602381777777
  0.4311378897179215  0.3901556140585957  0.0864006071962204
  0.2566427176862759  0.5721526105809621  0.2068382047935576
  0.7896441232794008  0.7530992432794823  0.2130924230157269
  0.9526677330949850  0.4848258816264199  0.2550856887366035
  0.7098901500155254  0.4766513897533223  0.9426277263808621
  0.5645830139289271  0.3944392078234930  0.7919194440236462
  0.2836668063236779  0.8677677203421305  0.4423204266510056
  0.7130184624730503  0.9646961958079815  0.7444985929319374
  0.3949346086836948  0.4661004210818194  0.7027243700658973
  0.0814499476315141  0.5509780721614451  0.4710493843209345
  0.3962254976864418  0.1336541891084743  0.7444570950289188
  0.6583400966368644  0.1106791476681192  0.6229950447742768
  0.5820072361029767  0.7309594328922340  0.1857462342037265
  0.3565909491019161  0.0316888874815943  0.3014502759388848
  0.9045853808800012  0.5258948984775113  0.7420623651069557
  0.4893924020762203  0.7967722760391062  0.4339717404641659
  0.3932598320815244  0.7075182610402388  0.7499150252481120
  0.0832797556696939  0.1804215588619347  0.2968130951421104
  0.3340276109924830  0.9736237610979391  0.1008517128223299
  0.0439694136933114  0.7613120048957580  0.5998943325505943
  0.6664842451495342  0.4219879401682521  0.3979867294084521
  0.6323994096480118  0.4135319244162376  0.6825809072175454
  0.0901495398983952  0.3606175437471945  0.1625100542016662
  0.5358692445666571  0.2320359858726029  0.4651602383653393
  0.4008807289660492  0.9083665512246303  0.2999572097667607
  0.4146463084488251  0.3611033581897489  0.5537664788206228
  0.9365765052158644  0.2597343373452243  0.4205945308905576
  0.6337106264808964  0.6216762311064653  0.1366669881177514
  0.1902290431863493  0.1765647256734330  0.7324907858104027
  0.3265781853851962  0.6661775031539693  0.3723247248327129
  0.7300498536252352  0.0267567994200923  0.3211067756340452
  0.5304183813491822  0.9819598068468960  0.4910914912560598
  0.3006305428105043  0.0301799439737207  0.8918416585166582
  0.9705475258136256  0.8695917310406467  0.9676488192917155
  0.2725949320237696  0.0795059026480527  0.6927366100093616
  0.6971896188887025  0.0014080297274203  0.5497727190106101
  0.9486092861964130  0.9182300987168608  0.1733506398763079
  0.7325369982040936  0.6074762012739036  0.3608429081436560
 -0.0071920530658585  0.7315762301001733  0.1135204507528278
  0.3476935447071924  0.5312151161037417  0.8083232147087067
  0.8935461600342648  0.2270396471855214  0.2271611180038648
  0.2654633985302002  0.2667934504141636  0.1892568226284337
  0.0078733537491976  0.9709311151824053  0.5752258323961698
  0.5565625011539637 -0.0112952151057245  0.1735636651393753
 
  0.00000000E+00  0.00000000E+00  0.00000000E+00
  0.00000000E+00  0.00000000E+00  0.00000000E+00
  0.00000000E+00  0.00000000E+00  0.00000000E+00
  0.00000000E+00  0.00000000E+00  0.00000000E+00
  0.00000000E+00  0.00000000E+00  0.00000000E+00
  0.00000000E+00  0.00000000E+00  0.00000000E+00
  0.00000000E+00  0.00000000E+00  0.00000000E+00
  0.00000000E+00  0.00000000E+00  0.00000000E+00
  0.00000000E+00  0.00000000E+00  0.00000000E+00
  0.00000000E+00  0.00000000E+00  0.00000000E+00
  0.00000000E+00  0.00000000E+00  0.00000000E+00
  0.00000000E+00  0.00000000E+00  0.00000000E+00
  0.00000000E+00  0.00000000E+00  0.00000000E+00
  0.00000000E+00  0.00000000E+00  0.00000000E+00
  0.00000000E+00  0.00000000E+00  0.00000000E+00
  0.00000000E+00  0.00000000E+00  0.00000000E+00
  0.00000000E+00  0.00000000E+00  0.00000000E+00
  0.00000000E+00  0.00000000E+00  0.00000000E+00
  0.00000000E+00  0.00000000E+00  0.00000000E+00
  0.00000000E+00  0.00000000E+00  0.00000000E+00
  0.00000000E+00  0.00000000E+00  0.00000000E+00
  0.00000000E+00  0.00000000E+00  0.00000000E+00
  0.00000000E+00  0.00000000E+00  0.00000000E+00
  0.00000000E+00  0.00000000E+00  0.00000000E+00
  0.00000000E+00  0.00000000E+00  0.00000000E+00
  0.00000000E+00  0.00000000E+00  0.00000000E+00
  0.00000000E+00  0.00000000E+00  0.00000000E+00
  0.00000000E+00  0.00000000E+00  0.00000000E+00
  0.00000000E+00  0.00000000E+00  0.00000000E+00
  0.00000000E+00  0.00000000E+00  0.00000000E+00
  0.00000000E+00  0.00000000E+00  0.00000000E+00
  0.00000000E+00  0.00000000E+00  0.00000000E+00
  0.00000000E+00  0.00000000E+00  0.00000000E+00
  0.00000000E+00  0.00000000E+00  0.00000000E+00
  0.00000000E+00  0.00000000E+00  0.00000000E+00
  0.00000000E+00  0.00000000E+00  0.00000000E+00
  0.00000000E+00  0.00000000E+00  0.00000000E+00
  0.00000000E+00  0.00000000E+00  0.00000000E+00
  0.00000000E+00  0.00000000E+00  0.00000000E+00
  0.00000000E+00  0.00000000E+00  0.00000000E+00
  0.00000000E+00  0.00000000E+00  0.00000000E+00
  0.00000000E+00  0.00000000E+00  0.00000000E+00
  0.00000000E+00  0.00000000E+00  0.00000000E+00
  0.00000000E+00  0.00000000E+00  0.00000000E+00
  0.00000000E+00  0.00000000E+00  0.00000000E+00
  0.00000000E+00  0.00000000E+00  0.00000000E+00
  0.00000000E+00  0.00000000E+00  0.00000000E+00
  0.00000000E+00  0.00000000E+00  0.00000000E+00
  0.00000000E+00  0.00000000E+00  0.00000000E+00
  0.00000000E+00  0.00000000E+00  0.00000000E+00
  0.00000000E+00  0.00000000E+00  0.00000000E+00
  0.00000000E+00  0.00000000E+00  0.00000000E+00
  0.00000000E+00  0.00000000E+00  0.00000000E+00
  0.00000000E+00  0.00000000E+00  0.00000000E+00
  0.00000000E+00  0.00000000E+00  0.00000000E+00
  0.00000000E+00  0.00000000E+00  0.00000000E+00
  0.00000000E+00  0.00000000E+00  0.00000000E+00
  0.00000000E+00  0.00000000E+00  0.00000000E+00
  0.00000000E+00  0.00000000E+00  0.00000000E+00
  0.00000000E+00  0.00000000E+00  0.00000000E+00
  0.00000000E+00  0.00000000E+00  0.00000000E+00
  0.00000000E+00  0.00000000E+00  0.00000000E+00
  0.00000000E+00  0.00000000E+00  0.00000000E+00
  0.00000000E+00  0.00000000E+00  0.00000000E+00
  0.00000000E+00  0.00000000E+00  0.00000000E+00
  0.00000000E+00  0.00000000E+00  0.00000000E+00
  0.00000000E+00  0.00000000E+00  0.00000000E+00
  0.00000000E+00  0.00000000E+00  0.00000000E+00
  0.00000000E+00  0.00000000E+00  0.00000000E+00
  0.00000000E+00  0.00000000E+00  0.00000000E+00
  0.00000000E+00  0.00000000E+00  0.00000000E+00
  0.00000000E+00  0.00000000E+00  0.00000000E+00
  0.00000000E+00  0.00000000E+00  0.00000000E+00
  0.00000000E+00  0.00000000E+00  0.00000000E+00
  0.00000000E+00  0.00000000E+00  0.00000000E+00
  0.00000000E+00  0.00000000E+00  0.00000000E+00
  0.00000000E+00  0.00000000E+00  0.00000000E+00
  0.00000000E+00  0.00000000E+00  0.00000000E+00
  0.00000000E+00  0.00000000E+00  0.00000000E+00
  0.00000000E+00  0.00000000E+00  0.00000000E+00
  0.00000000E+00  0.00000000E+00  0.00000000E+00
  0.00000000E+00  0.00000000E+00  0.00000000E+00
  0.00000000E+00  0.00000000E+00  0.00000000E+00
  0.00000000E+00  0.00000000E+00  0.00000000E+00
  0.00000000E+00  0.00000000E+00  0.00000000E+00
  0.00000000E+00  0.00000000E+00  0.00000000E+00
  0.00000000E+00  0.00000000E+00  0.00000000E+00
  0.00000000E+00  0.00000000E+00  0.00000000E+00
  0.00000000E+00  0.00000000E+00  0.00000000E+00
  0.00000000E+00  0.00000000E+00  0.00000000E+00
  0.00000000E+00  0.00000000E+00  0.00000000E+00
  0.00000000E+00  0.00000000E+00  0.00000000E+00
  0.00000000E+00  0.00000000E+00  0.00000000E+00
  0.00000000E+00  0.00000000E+00  0.00000000E+00
  0.00000000E+00  0.00000000E+00  0.00000000E+00
  0.00000000E+00  0.00000000E+00  0.00000000E+00
  0.00000000E+00  0.00000000E+00  0.00000000E+00
  0.00000000E+00  0.00000000E+00  0.00000000E+00
  0.00000000E+00  0.00000000E+00  0.00000000E+00
  0.00000000E+00  0.00000000E+00  0.00000000E+00
  0.00000000E+00  0.00000000E+00  0.00000000E+00
  0.00000000E+00  0.00000000E+00  0.00000000E+00
  0.00000000E+00  0.00000000E+00  0.00000000E+00
  0.00000000E+00  0.00000000E+00  0.00000000E+00
  0.00000000E+00  0.00000000E+00  0.00000000E+00
  0.00000000E+00  0.00000000E+00  0.00000000E+00
  0.00000000E+00  0.00000000E+00  0.00000000E+00
  0.00000000E+00  0.00000000E+00  0.00000000E+00
  0.00000000E+00  0.00000000E+00  0.00000000E+00
  0.00000000E+00  0.00000000E+00  0.00000000E+00
  0.00000000E+00  0.00000000E+00  0.00000000E+00
  0.00000000E+00  0.00000000E+00  0.00000000E+00
  0.00000000E+00  0.00000000E+00  0.00000000E+00
  0.00000000E+00  0.00000000E+00  0.00000000E+00
  0.00000000E+00  0.00000000E+00  0.00000000E+00
  0.00000000E+00  0.00000000E+00  0.00000000E+00
  0.00000000E+00  0.00000000E+00  0.00000000E+00
  0.00000000E+00  0.00000000E+00  0.00000000E+00
  0.00000000E+00  0.00000000E+00  0.00000000E+00
  0.00000000E+00  0.00000000E+00  0.00000000E+00
  0.00000000E+00  0.00000000E+00  0.00000000E+00
  0.00000000E+00  0.00000000E+00  0.00000000E+00
  0.00000000E+00  0.00000000E+00  0.00000000E+00
  0.00000000E+00  0.00000000E+00  0.00000000E+00
  0.00000000E+00  0.00000000E+00  0.00000000E+00
  0.00000000E+00  0.00000000E+00  0.00000000E+00
  0.00000000E+00  0.00000000E+00  0.00000000E+00
  0.00000000E+00  0.00000000E+00  0.00000000E+00
  0.00000000E+00  0.00000000E+00  0.00000000E+00
  0.00000000E+00  0.00000000E+00  0.00000000E+00
  0.00000000E+00  0.00000000E+00  0.00000000E+00
  0.00000000E+00  0.00000000E+00  0.00000000E+00
  0.00000000E+00  0.00000000E+00  0.00000000E+00
  0.00000000E+00  0.00000000E+00  0.00000000E+00
  0.00000000E+00  0.00000000E+00  0.00000000E+00
  0.00000000E+00  0.00000000E+00  0.00000000E+00
  0.00000000E+00  0.00000000E+00  0.00000000E+00
  0.00000000E+00  0.00000000E+00  0.00000000E+00
  0.00000000E+00  0.00000000E+00  0.00000000E+00
  0.00000000E+00  0.00000000E+00  0.00000000E+00
  0.00000000E+00  0.00000000E+00  0.00000000E+00
  0.00000000E+00  0.00000000E+00  0.00000000E+00
  0.00000000E+00  0.00000000E+00  0.00000000E+00
  0.00000000E+00  0.00000000E+00  0.00000000E+00
  0.00000000E+00  0.00000000E+00  0.00000000E+00
  0.00000000E+00  0.00000000E+00  0.00000000E+00
  0.00000000E+00  0.00000000E+00  0.00000000E+00
  0.00000000E+00  0.00000000E+00  0.00000000E+00
  0.00000000E+00  0.00000000E+00  0.00000000E+00
  0.00000000E+00  0.00000000E+00  0.00000000E+00
  0.00000000E+00  0.00000000E+00  0.00000000E+00
  0.00000000E+00  0.00000000E+00  0.00000000E+00
  0.00000000E+00  0.00000000E+00  0.00000000E+00
  0.00000000E+00  0.00000000E+00  0.00000000E+00
  0.00000000E+00  0.00000000E+00  0.00000000E+00
  0.00000000E+00  0.00000000E+00  0.00000000E+00
  0.00000000E+00  0.00000000E+00  0.00000000E+00
  0.00000000E+00  0.00000000E+00  0.00000000E+00
  0.00000000E+00  0.00000000E+00  0.00000000E+00
  0.00000000E+00  0.00000000E+00  0.00000000E+00
  0.00000000E+00  0.00000000E+00  0.00000000E+00
  0.00000000E+00  0.00000000E+00  0.00000000E+00
  0.00000000E+00  0.00000000E+00  0.00000000E+00
  0.00000000E+00  0.00000000E+00  0.00000000E+00
  0.00000000E+00  0.00000000E+00  0.00000000E+00
  0.00000000E+00  0.00000000E+00  0.00000000E+00
  0.00000000E+00  0.00000000E+00  0.00000000E+00
  0.00000000E+00  0.00000000E+00  0.00000000E+00
  0.00000000E+00  0.00000000E+00  0.00000000E+00
  0.00000000E+00  0.00000000E+00  0.00000000E+00
  0.00000000E+00  0.00000000E+00  0.00000000E+00
  0.00000000E+00  0.00000000E+00  0.00000000E+00
  0.00000000E+00  0.00000000E+00  0.00000000E+00
  0.00000000E+00  0.00000000E+00  0.00000000E+00
  0.00000000E+00  0.00000000E+00  0.00000000E+00
  0.00000000E+00  0.00000000E+00  0.00000000E+00
  0.00000000E+00  0.00000000E+00  0.00000000E+00
  0.00000000E+00  0.00000000E+00  0.00000000E+00
  0.00000000E+00  0.00000000E+00  0.00000000E+00
  0.00000000E+00  0.00000000E+00  0.00000000E+00
  0.00000000E+00  0.00000000E+00  0.00000000E+00
  0.00000000E+00  0.00000000E+00  0.00000000E+00
  0.00000000E+00  0.00000000E+00  0.00000000E+00
  0.00000000E+00  0.00000000E+00  0.00000000E+00
  0.00000000E+00  0.00000000E+00  0.00000000E+00
  0.00000000E+00  0.00000000E+00  0.00000000E+00
  0.00000000E+00  0.00000000E+00  0.00000000E+00
  0.00000000E+00  0.00000000E+00  0.00000000E+00
  0.00000000E+00  0.00000000E+00  0.00000000E+00
  0.00000000E+00  0.00000000E+00  0.00000000E+00
  0.00000000E+00  0.00000000E+00  0.00000000E+00
  0.00000000E+00  0.00000000E+00  0.00000000E+00
  0.00000000E+00  0.00000000E+00  0.00000000E+00
  0.00000000E+00  0.00000000E+00  0.00000000E+00
  0.00000000E+00  0.00000000E+00  0.00000000E+00
  0.00000000E+00  0.00000000E+00  0.00000000E+00
  0.00000000E+00  0.00000000E+00  0.00000000E+00
  0.00000000E+00  0.00000000E+00  0.00000000E+00
