Amorphous Sb                            
   1.00000000000000     
    20.6869625474341881    0.0000000000000000    0.0000000000000000
     0.0000000000000000   20.6869625474341881    0.0000000000000000
     0.0000000000000000    0.0000000000000000   20.6869625474341881
   Pb   S 
   150   150
Direct
  0.3104672837986940  0.1814097408384861  0.4224127786693718
  0.3143500090855415  0.9145213121589062  0.9001083038824406
  0.5348474729137452  0.4801477432515590  0.9033104780314656
  0.6860207704464455  0.8048907337978252  0.0486032771116982
  0.0943536587768122  0.3536506714150961  0.7251150745772288
  0.1821871285427167  0.6361306431236717  0.1906363136181073
  0.7452464326592678  0.6504480194562987  0.1737641610885706
  0.1885114683525604  0.6887023750939655  0.3574097247940237
  0.7397984813638325  0.4101337343898062  0.5083299506566632
  0.4896607029159307  0.8241907584940368  0.6815792771579419
  0.1968105178312401  0.4502258693727111  0.3266179261276883
  0.9774850034105993  0.1689204824854911  0.6859076267367071
  0.5462065734335172  0.7778338344915015  0.4942781886254878
  0.1268003794651335  0.3793151843413173  0.0366315521518982
  0.2052441876453649  0.5395087061319740  0.0624196584722187
  0.2178164332217973  0.7879568780803998  0.8253552949833655
  0.6619990260169965  0.9398565406050990  0.3691572340010255
  0.1867965883868421  0.0430505500474094  0.9096929797640793
  0.8628902715490382  0.7238459374719372  0.0013962144812236
  0.2045388504054693  0.5712542906255755  0.5771427227701851
  0.2982411813828608  0.0547056476474137  0.1715820540485668
  0.9722482063782776  0.1982245656911739  0.1486524758904142
  0.9509586905622706  0.7247719852694425  0.5418065888437044
  0.5127144232449996  0.1694630128810738  0.3296634436851806
  0.3505313340262723  0.7295596766282434  0.4993980352860418
  0.0573059382777465  0.1135400166849252  0.3366666616635995
  0.8829932221925643  0.5582337283026492  0.7346224129219321
  0.1194282967690958  0.7549706703190135  0.5116361294616927
  0.4981950651413955  0.6611936357210327  0.7758693767485908
  0.6814384488867773  0.6262061324885170  0.9522063676626744
  0.7144826637730750  0.9756727939632536  0.9619578510247487
  0.1610324777305665  0.3058007206062417  0.8752260861862058
  0.8360364283525368  0.5693145140345590  0.5067258241239223
  0.3937373003306155 -0.0247208138585438  0.7175461793165717
  0.9008754509375729  0.5621242124004497  0.1069113255077095
  0.4576434516474341  0.9398611840516499  0.0371368310338141
  0.6989160989231089  0.1472246263216181  0.8901787284528030
  0.1827297916820403  0.0042646774849743  0.6782841927519748
  0.5634773378857162  0.2985564159467140  0.0610634835974323
  0.1437441351257894  0.1824888914718480  0.7063947976391720
  0.9620575390858027  0.6401858531081177  0.2944563371940636
  0.4801614164287533  0.3194402384353819  0.4801688314886359
  0.8414203678052258  0.8341068986465584  0.8287063253768648
  0.7888385058789367  0.7091759573288097  0.3965748813214511
  0.3120900036896899  0.2915951698504990  0.6513334145902222
  0.8720141675316829  0.1728803217706410  0.3662444525844722
  0.4946005307842072  0.6460521008042571  0.0191786899479654
  0.6626101395462229  0.9145267766972396  0.7861502609262736
  0.0165035482451424  0.5080594731703918  0.6227685439998383
  0.9465387671025908  0.0445065097716408  0.5247761587377114
  0.8140220622086093  0.2428782956416000  0.5748385492325098
  0.9679355116516077  0.8070509124963466  0.1848613893476381
  0.0901268164767934  0.9422928955535618  0.4745766476474150
  0.3273357738602731  0.0430484713312383  0.5431577645932539
  0.2872611475807106  0.8354646529793971  0.6669569553839616
  0.3171569681663214  0.6744092259787592  0.7560598449125785
  0.7981691555461488  0.8313328292618771  0.2359739845769850
  0.4373468140795527  0.1647626165706519  0.6115288723825160
  0.5914934872749387  0.3306822885825606  0.2256940362198094
  0.6636064328779270  0.9399721387431702  0.1640839129417922
  0.8441408049861876  0.8878928886596631  0.4672865330602013
  0.0386987900116296  0.6600318736876855  0.0815168253399538
  0.4056735123387776  0.6040851064557357  0.3517449617079134
  0.3997605319626321  0.3737149158298493  0.9853168454400377
  0.1506799406838282  0.1330513367030416  0.1009400113733833
  0.9503135575197016  0.3688148878451485  0.0562663217331636
  0.9052529266381590  0.9396526130833249  0.9858942566652916
  0.2325695502862753  0.4461042827241766  0.9341470535647551
  0.5909601837211843  0.4009822279468884  0.6297095582793772
  0.1477063881336057  0.1662472046355420  0.5350445715510403
  0.0371889271647217  0.0298265407387820  0.7871140563094613
  0.2239402670364461  0.1884443423271167  0.2686046049698485
  0.2389964904332504  0.4972286672414855  0.7454474449267804
  0.3869299046227706  0.5087241855382709  0.5328288651618855
  0.6806048991795765  0.7130196379848230  0.7917349336552559
  0.6268693419717809  0.7600564544318368  0.3275946671272451
  0.1685941340319584  0.7966627000727735  0.0670793974664586
  0.7361157362058137  0.8604420377697323  0.6026521041769296
  0.6969439104555838  0.2481130881431514  0.3756500455292255
  0.6371362052411891  0.0984214209957169  0.7186030862746480
  0.0692468433777703  0.5606830848252573  0.4352861653118347
  0.9971324016621401  0.8914579607444838  0.6490746393139587
  0.3759437568826039  0.5500933546711880  0.8903278408468902
  0.9339789325592983  0.4579816764009366  0.2405777865636887
  0.3790351639768211  0.4976724134823683  0.1425031672329456
  0.5564404604569557  0.4859794529667690  0.1189997439111800
  0.7502213975630831  0.5093778942795815  0.2983071202441941
  0.3141368772826857  0.6865390458491688 -0.0187465379167192
  0.0852037623905447  0.3547249519677813  0.2089552371298205
  0.3163386799971882  0.3620038312186009  0.4607043573822125
  0.8497079291798267  0.4027753227312765  0.6987176506323832
  0.8264727203695641  0.7165727441837527  0.6650552711636888
  0.7322515477560196  0.4574270718408233  0.0746516989043881
  0.5897188928959223  0.9535506539411464  0.5849398293265103
  0.0720097888125435  0.5183018319403557  0.1481915333027748
  0.7670024532239366  0.0455363134983353  0.5570708392780428
  0.0190274244887061  0.8162161229163558  0.3635644615169857
  0.6455477440316194  0.3493044143151504  0.8638110757033686
  0.4189050029676534  0.4367591736987656  0.7230705740404928
  0.4953690712089077 -0.0000491795666485  0.8564619973941616
  0.1382725301255521  0.2797870353295162  0.3972391599067302
  0.5767475193506000  0.5871131353888555  0.2576572155435577
  0.2461918841751229  0.8287176419238304  0.2834763918159938
  0.6863386792699142  0.5925923690630022  0.5792855125449499
  0.4527194116788459  0.9719701370245601  0.2631442104520907
  0.7605472349665453  0.2433310433770009  0.7477343396073250
  0.0456050837821563  0.2078287145778947  0.9753246650699643
  0.8284840591073975  0.0159217620194981  0.1339309113766906
  0.0828254341025737  0.6867677665057478  0.7016196578478627
  0.3315222323449413  0.8787973978057296  0.1247697312894495
  0.5091749628379609  0.2875950035073550  0.7521351741467709
  0.0424336218905392  0.8702067820871738  0.8656312797886445
  0.7461221414917363  0.1891804582131707  0.0727427803274935
  0.9436245935392441  0.3021069661405237  0.8235986091665540
  0.9551289142707037  0.7005257370433638  0.8333704747381681
  0.4291600990608713  0.7990555913655872  0.3472082218162698
  0.9031356664721941  0.9801030740677577  0.3292256268308236
  0.5003719779088286  0.1959002003068447  0.9301270656576908
  0.5054524716629623  0.0609331215957036  0.4671231958172021
  0.7909586563073971  0.3277704233532736  0.2188618966711640
  0.5575948078412614  0.1091802565265634  0.1052449118848071
  0.3824776642892518  0.7005233094305989  0.1789867108073136
  0.4073237618046891  0.2124681977168712  0.1873338721701404
  0.0818891629519384  0.9610482266909189  0.0456367908321351
  0.2327804097738415  0.0076246337737499  0.3326797739826994
  0.1620065133563804  0.3832238167577723  0.5532274296921041
  0.8889983562529374  0.1618044914178456  0.9337182604853328
  0.2628621282791102  0.2649425866234833  0.0148743970638321
  0.1292465592128456  0.6181545891048917  0.9047230338056397
  0.3616318555967289  0.1021269114995211  0.0051185374938210
  0.3146719630818455  0.1736936012664671  0.8158538327048510
  0.9784463210694413  0.3127207961113771  0.5431670414770331
  0.9322009501298535  0.4329757117122038  0.4245062804624042
  0.8453613307656973  0.0172426058212975  0.7428159880489533
  0.5327576709270214  0.7834822053449332  0.1445384434285476
  0.2797133845323623  0.3569719141509808  0.1936971533697678
  0.7904374645348973  0.3731733449215505  0.9290938715675661
  0.6029813513039688  0.2030196767131586  0.5343020089117703
  0.8448011045352464  0.5555414519538471  0.9163757962508555
  0.5288767929564258  0.6192683283439722  0.6069797531479197
  0.4670864771584752  0.8182876683775032  0.8759929553812029
  0.4185732084698467  0.3868949568910620  0.3021294612021430
  0.5858036644929209  0.5923226688129378  0.4499682475103322
  0.0333975944004181  0.0045377379839956  0.1999425148475847
  0.5892331461507688  0.4239455378100908  0.3862650848763147
  0.0194838315081941  0.4800829965726443  0.8721980430226897
  0.9730443817517275  0.2977764860677134  0.3310721168938509
  0.6799252502647515  0.0946005645568464  0.2636377710622059
  0.2735151291276318  0.8782657693778715  0.4727362976457354
  0.6717122735266150  0.5228341353438803  0.7960716342776266
  0.8036995193468419  0.2481233769546239  0.8817663534104554
  0.5612578431399508  0.7873184663287421  0.7885667069826205
  0.9513468117359739  0.7639529170155603  0.6699309339134196
  0.4080066528054795  0.3407153310692224  0.1719387486443927
  0.7074872207061025  0.0776840497445418  0.1332907861384092
  0.8450603375831188  0.4086263342663963  0.3192502835204458
  0.2280470777513193  0.6772140440650040  0.4849462299515773
  0.7954289939763360  0.0933718162558204  0.9900333748318900
  0.2538355096517455  0.7960623117529001  0.9520466979510065
  0.5752135374390825  0.6057417192214193  0.8623750851017170
  0.6191348057608470  0.0326360107679842  0.8458674083813933
  0.0566277179227649  0.2341155308998099  0.7990110604413094
  0.7441756100063545  0.8115785714924454  0.7322195245121061
  0.2426962152188567  0.9351593166316308  0.2053298941997721
  0.7841164546338609  0.9111069180217872  0.0573931644277550
  0.0808790486303728  0.2395294644703267  0.2788769294215335
  0.7001036659254719  0.5148628568944044  0.4358221523576992
  0.8535220842783290  0.4363161417829023  0.1277901032295934
  0.3293789009679876  0.7086365125107933  0.3205037465600269
  0.1425038225294536  0.4686721795804056  0.6551491357042193
  0.5812929234452242 -0.0101076071065742  0.2549206079131897
 -0.0109390935490149  0.8502528975012908  0.4865555588799209
  0.3303492612031559  0.9030885453533963  0.3574485411728746
  0.3241963835494843  0.1000670459483867  0.3033547159614809
  0.7584906271712610  0.1146016284199270  0.7732593927688887
  0.7046494025143730  0.1823997728802171  0.6147258310608523
  0.4930060339773927  0.4926896268231742  0.6156286580196296
  0.0579146126532233  0.6924463864567815  0.4004644503032876
  0.7127612106141124  0.9387521530772396  0.4936162832335402
 -0.0345397149895745  0.9162266319090212  0.1041540118801145
  0.0038628181399284  0.5901619704092030  0.7742493905771892
  0.7039147765421485  0.6489997158802085  0.2991660715346985
  0.1649703900331409  0.6702070988083274  0.0222372723913404
  0.2022719269027758  0.9161762915938998  0.8309252462685524
  0.9009911918577554  0.7500670397785385  0.3247242483286207
  0.3812282956394395  0.2789560748086015  0.7616588347536727
  0.0317585417486330  0.9863961036167007  0.9305372963489655
  0.5888642238010346  0.1842057060123561  0.2215282399540547
  0.2171123121608301  0.2850091409597598  0.7411250147659707
  0.6076705558703605  0.3529776763424556  0.5000804294530010
  0.4316562715793939  0.6270636533526874  0.4816738587000438
  0.3134955630111057  0.4682095215471500  0.2632198457605496
  0.4170048994712529  0.7003456736917905  0.8794282319205162
  0.2276132575408046 -0.0010524232030683  0.4757671603645747
  0.6246309788406345  0.1929112680655663  0.0133747520931840
  0.7819830002946924  0.9630301102827917  0.2468203075389715
  0.9044347757148550  0.7121936427100314  0.1241884566272179
  0.4433232287497048  0.4457405151272162  0.4328841041132451
  0.4356677525575059  0.1042756430646488  0.7917286835893760
  0.3183702694321160  0.0482501087383297  0.8916124243840320
  0.1749066414388001  0.1481652548857122  0.3998444312389571
  0.0767799358620651  0.5015205021415263  0.0151649636717817
  0.2370411915913062  0.2609419615699525  0.5142087250579944
  0.1568114463493593  0.8416396249306490  0.4136822937802391
  0.6946741502642226  0.9831768718677163  0.6618276827815602
  0.6603664975047823  0.4882864512233983  0.9442845304600549
  0.5826357207978113  0.4288705963150926  0.7784615578661159
  0.8994032281100137  0.2441022448131917  0.0452586487757357
  0.2436955418323039  0.9269370661551235  0.0194975779055765
  0.6819036822811674  0.5308730835430563  0.1740633571920090
  0.4664378613318471  0.2013148312872597  0.0717852175543652
  0.1464522575552747  0.4404108419407506  0.8318776390136128
  0.3153439519096031  0.4250373688259070  0.6435127139272760
  0.5189622460133776  0.1614536013890138  0.7917882437359467
  0.0779920157796104  0.6108699516326154  0.5648200006514368
  0.9360251208948395  0.5650428242594375  0.4085557104801184
  0.5276179297665371  0.4565901905541562  0.2481990176376821
  0.2470500739004201  0.1085252900489244  0.6206969121948912
  0.4281132241873853  0.0190950757105449  0.1407164141166490
  0.8657537272943858  0.4490814898937454  0.5426613740373901
  0.7745490783945020  0.1991584306251174  0.2784594439615866
  0.9370297588054002  0.0781477634577149  0.2484692274514723
  0.0306239892550263  0.0782679513918088  0.0834670909920875
  0.5108349965226991  0.2703262039305857  0.6192149833323605
  0.4308328207622183  0.7561000061634870  0.0584732454182350
  0.2843739974384941  0.2004497015280743  0.1373237417547516
  0.0853748666667005  0.7453891548320049  0.1730382150951129
  0.1204392819021766  0.8297502896816888  0.6815266125158782
  0.8810374953059712  0.1307237556358123  0.5961161374618013
  0.5218134413297415  0.9502840797545764  0.7055632095062406
  0.9685577177187338  0.4189228049374213  0.7616383715389115
  0.6485245424795223  0.7069021057890530  0.4544268034165425
  0.5046586230113577  0.6846740857927263  0.3187021131597198
  0.4426803193054455  0.1770087283876131  0.4773862384079182
  0.0561149248293630  0.0380697262572868  0.6503128787338240
  0.9295542990010471  0.1058413503540680  0.7929582478274442
  0.4539592110558716  0.4888556923524701  0.0198569951566485
  0.9007638930031010  0.6101730172618796  0.6140791237333737
  0.8244186577516305  0.6603199965689530  0.7937033826639834
  0.0418320143516835  0.9752696914418520  0.3550658525884758
  0.9567529301772774  0.3282518490624450  0.1959879348827234
  0.3918304348252172  0.5615600024481502  0.7586295811246929
  0.3585493216461527  0.7317745587032849  0.6281745200775444
  0.6185449880300178  0.6817814803080359  0.0503937268003214
  0.7688417807605084  0.4067060240304567  0.8046249749553529
  0.8682517972907111  0.9552887479068599  0.5837453224864201
  0.0839087754218048  0.2497946001586657  0.0968421087538265
  0.6894418726652387  0.3384032255116123  0.1245909944892854
  0.8521668541452720  0.5826285442610504  0.2303034822825841
  0.2583836712625897  0.6145884625519999  0.8717120567675419
  0.0253425280188463  0.2336459107069482  0.4489021459278665
  0.5553809981172056  0.8695827242810268  0.4016551089107903
  0.6368858398523399  0.2344965040495835  0.8019729699832383
  0.1480879220416191  0.5700856282316142  0.3076575794801804
  0.4367906751730407  0.8454719381968692  0.2223484505572660
  0.9476038184575993  0.6323773206084928  0.9485006983464344
  0.1765596206249198  0.1804714556433495  0.9578278920153110
  0.2074227904676725  0.6243778392922744  0.6999105034352546
  0.0419662944687334  0.4302769454063278  0.5131705561562969
  0.4959237433824964  0.5986255143306944  0.1490750715817800
  0.3079500594839041  0.2936897556717017  0.3477039165049128
  0.4903565335700764  0.0541841309198079  0.9776709502631779
  0.6072042179295282  0.8193637991854976  0.6023707343604296
  0.8240666318150544  0.7677206294528838  0.5242018762247398
  0.5240216349159923  0.3331305901495929  0.9348239142717216
  0.1664211012009905  0.8582291412354549  0.5960885652915553
  0.5450396716080737  0.0920046224127789  0.5890905998088000
  0.6887748194206440  0.3666882755223290  0.3068058013293044
  0.0988444920714044  0.7290888120821075  0.8334929635040565
  0.2799043119479920  0.4199954752140198  0.0776434887417533
  0.3069828642093467  0.6069170110257162  0.1251713093972139
  0.2325888382034606  0.4622383755696216  0.4526102774995428
  0.5718281514956366  0.8874929431241382  0.0716012183995027
  0.2307339317134389  0.0226665165856116  0.0497582084692771
  0.7037498343516336  0.4686785893913777  0.6228127471155079
  0.2666385672352282  0.7694874447764132  0.1531224731433898
  0.7870233496795241  0.9518894637325698  0.8502279502521803
  0.5260028920961389  0.2985734813787814  0.3537320329236720
  0.6304556228557796  0.6206061917631679  0.6947989078297503
  0.9396030836496995  0.8209577632083777  0.9398355250487432
  0.9032059436242631  0.4376917674301779  0.9444737812476190
  0.6078293898362631  0.1161409782720908  0.4065746748602134
  0.8104190629278984  0.2608661817093119  0.4431283627793738
  0.6617514176788594  0.8496224297165692  0.9187048246203253
  0.7473980106169051  0.8282614009586020  0.3573980265514045
  0.3829019313210502  0.8534539083209097  0.7753392052112112
  0.8521595361193354  0.0547356682483424  0.4268441289551758
  0.1819368517862832  0.0853544912587736  0.7837905967439900
  0.9565054487714121  0.9171726233203570  0.7729692566621221
  0.7934661359204039  0.5939941847842800  0.0319019597833246
  0.1458871561746379  0.0832688983568266  0.2345454449484966
  0.6767550802606457  0.8021717124847961  0.1887606493320385
  0.3614549559664251  0.2189322419859664  0.9337337262299591
  0.8947745396516554  0.2771275556846103  0.6997450134280891
  0.0455078264793828  0.3363432783605839  0.9392350782460182
  0.3483617045438568  0.4218621292641383  0.8701077978203424
  0.3603151418973747  0.9243379286111812  0.5979182878768371
  0.0824171103936118  0.2788154127122323  0.6091824665731711
  0.0452187215301782  0.4082477007450445  0.3301132619975984
  0.7346871986775099  0.7808934824596365  0.9084540808277450
 
  0.00000000E+00  0.00000000E+00  0.00000000E+00
  0.00000000E+00  0.00000000E+00  0.00000000E+00
  0.00000000E+00  0.00000000E+00  0.00000000E+00
  0.00000000E+00  0.00000000E+00  0.00000000E+00
  0.00000000E+00  0.00000000E+00  0.00000000E+00
  0.00000000E+00  0.00000000E+00  0.00000000E+00
  0.00000000E+00  0.00000000E+00  0.00000000E+00
  0.00000000E+00  0.00000000E+00  0.00000000E+00
  0.00000000E+00  0.00000000E+00  0.00000000E+00
  0.00000000E+00  0.00000000E+00  0.00000000E+00
  0.00000000E+00  0.00000000E+00  0.00000000E+00
  0.00000000E+00  0.00000000E+00  0.00000000E+00
  0.00000000E+00  0.00000000E+00  0.00000000E+00
  0.00000000E+00  0.00000000E+00  0.00000000E+00
  0.00000000E+00  0.00000000E+00  0.00000000E+00
  0.00000000E+00  0.00000000E+00  0.00000000E+00
  0.00000000E+00  0.00000000E+00  0.00000000E+00
  0.00000000E+00  0.00000000E+00  0.00000000E+00
  0.00000000E+00  0.00000000E+00  0.00000000E+00
  0.00000000E+00  0.00000000E+00  0.00000000E+00
  0.00000000E+00  0.00000000E+00  0.00000000E+00
  0.00000000E+00  0.00000000E+00  0.00000000E+00
  0.00000000E+00  0.00000000E+00  0.00000000E+00
  0.00000000E+00  0.00000000E+00  0.00000000E+00
  0.00000000E+00  0.00000000E+00  0.00000000E+00
  0.00000000E+00  0.00000000E+00  0.00000000E+00
  0.00000000E+00  0.00000000E+00  0.00000000E+00
  0.00000000E+00  0.00000000E+00  0.00000000E+00
  0.00000000E+00  0.00000000E+00  0.00000000E+00
  0.00000000E+00  0.00000000E+00  0.00000000E+00
  0.00000000E+00  0.00000000E+00  0.00000000E+00
  0.00000000E+00  0.00000000E+00  0.00000000E+00
  0.00000000E+00  0.00000000E+00  0.00000000E+00
  0.00000000E+00  0.00000000E+00  0.00000000E+00
  0.00000000E+00  0.00000000E+00  0.00000000E+00
  0.00000000E+00  0.00000000E+00  0.00000000E+00
  0.00000000E+00  0.00000000E+00  0.00000000E+00
  0.00000000E+00  0.00000000E+00  0.00000000E+00
  0.00000000E+00  0.00000000E+00  0.00000000E+00
  0.00000000E+00  0.00000000E+00  0.00000000E+00
  0.00000000E+00  0.00000000E+00  0.00000000E+00
  0.00000000E+00  0.00000000E+00  0.00000000E+00
  0.00000000E+00  0.00000000E+00  0.00000000E+00
  0.00000000E+00  0.00000000E+00  0.00000000E+00
  0.00000000E+00  0.00000000E+00  0.00000000E+00
  0.00000000E+00  0.00000000E+00  0.00000000E+00
  0.00000000E+00  0.00000000E+00  0.00000000E+00
  0.00000000E+00  0.00000000E+00  0.00000000E+00
  0.00000000E+00  0.00000000E+00  0.00000000E+00
  0.00000000E+00  0.00000000E+00  0.00000000E+00
  0.00000000E+00  0.00000000E+00  0.00000000E+00
  0.00000000E+00  0.00000000E+00  0.00000000E+00
  0.00000000E+00  0.00000000E+00  0.00000000E+00
  0.00000000E+00  0.00000000E+00  0.00000000E+00
  0.00000000E+00  0.00000000E+00  0.00000000E+00
  0.00000000E+00  0.00000000E+00  0.00000000E+00
  0.00000000E+00  0.00000000E+00  0.00000000E+00
  0.00000000E+00  0.00000000E+00  0.00000000E+00
  0.00000000E+00  0.00000000E+00  0.00000000E+00
  0.00000000E+00  0.00000000E+00  0.00000000E+00
  0.00000000E+00  0.00000000E+00  0.00000000E+00
  0.00000000E+00  0.00000000E+00  0.00000000E+00
  0.00000000E+00  0.00000000E+00  0.00000000E+00
  0.00000000E+00  0.00000000E+00  0.00000000E+00
  0.00000000E+00  0.00000000E+00  0.00000000E+00
  0.00000000E+00  0.00000000E+00  0.00000000E+00
  0.00000000E+00  0.00000000E+00  0.00000000E+00
  0.00000000E+00  0.00000000E+00  0.00000000E+00
  0.00000000E+00  0.00000000E+00  0.00000000E+00
  0.00000000E+00  0.00000000E+00  0.00000000E+00
  0.00000000E+00  0.00000000E+00  0.00000000E+00
  0.00000000E+00  0.00000000E+00  0.00000000E+00
  0.00000000E+00  0.00000000E+00  0.00000000E+00
  0.00000000E+00  0.00000000E+00  0.00000000E+00
  0.00000000E+00  0.00000000E+00  0.00000000E+00
  0.00000000E+00  0.00000000E+00  0.00000000E+00
  0.00000000E+00  0.00000000E+00  0.00000000E+00
  0.00000000E+00  0.00000000E+00  0.00000000E+00
  0.00000000E+00  0.00000000E+00  0.00000000E+00
  0.00000000E+00  0.00000000E+00  0.00000000E+00
  0.00000000E+00  0.00000000E+00  0.00000000E+00
  0.00000000E+00  0.00000000E+00  0.00000000E+00
  0.00000000E+00  0.00000000E+00  0.00000000E+00
  0.00000000E+00  0.00000000E+00  0.00000000E+00
  0.00000000E+00  0.00000000E+00  0.00000000E+00
  0.00000000E+00  0.00000000E+00  0.00000000E+00
  0.00000000E+00  0.00000000E+00  0.00000000E+00
  0.00000000E+00  0.00000000E+00  0.00000000E+00
  0.00000000E+00  0.00000000E+00  0.00000000E+00
  0.00000000E+00  0.00000000E+00  0.00000000E+00
  0.00000000E+00  0.00000000E+00  0.00000000E+00
  0.00000000E+00  0.00000000E+00  0.00000000E+00
  0.00000000E+00  0.00000000E+00  0.00000000E+00
  0.00000000E+00  0.00000000E+00  0.00000000E+00
  0.00000000E+00  0.00000000E+00  0.00000000E+00
  0.00000000E+00  0.00000000E+00  0.00000000E+00
  0.00000000E+00  0.00000000E+00  0.00000000E+00
  0.00000000E+00  0.00000000E+00  0.00000000E+00
  0.00000000E+00  0.00000000E+00  0.00000000E+00
  0.00000000E+00  0.00000000E+00  0.00000000E+00
  0.00000000E+00  0.00000000E+00  0.00000000E+00
  0.00000000E+00  0.00000000E+00  0.00000000E+00
  0.00000000E+00  0.00000000E+00  0.00000000E+00
  0.00000000E+00  0.00000000E+00  0.00000000E+00
  0.00000000E+00  0.00000000E+00  0.00000000E+00
  0.00000000E+00  0.00000000E+00  0.00000000E+00
  0.00000000E+00  0.00000000E+00  0.00000000E+00
  0.00000000E+00  0.00000000E+00  0.00000000E+00
  0.00000000E+00  0.00000000E+00  0.00000000E+00
  0.00000000E+00  0.00000000E+00  0.00000000E+00
  0.00000000E+00  0.00000000E+00  0.00000000E+00
  0.00000000E+00  0.00000000E+00  0.00000000E+00
  0.00000000E+00  0.00000000E+00  0.00000000E+00
  0.00000000E+00  0.00000000E+00  0.00000000E+00
  0.00000000E+00  0.00000000E+00  0.00000000E+00
  0.00000000E+00  0.00000000E+00  0.00000000E+00
  0.00000000E+00  0.00000000E+00  0.00000000E+00
  0.00000000E+00  0.00000000E+00  0.00000000E+00
  0.00000000E+00  0.00000000E+00  0.00000000E+00
  0.00000000E+00  0.00000000E+00  0.00000000E+00
  0.00000000E+00  0.00000000E+00  0.00000000E+00
  0.00000000E+00  0.00000000E+00  0.00000000E+00
  0.00000000E+00  0.00000000E+00  0.00000000E+00
  0.00000000E+00  0.00000000E+00  0.00000000E+00
  0.00000000E+00  0.00000000E+00  0.00000000E+00
  0.00000000E+00  0.00000000E+00  0.00000000E+00
  0.00000000E+00  0.00000000E+00  0.00000000E+00
  0.00000000E+00  0.00000000E+00  0.00000000E+00
  0.00000000E+00  0.00000000E+00  0.00000000E+00
  0.00000000E+00  0.00000000E+00  0.00000000E+00
  0.00000000E+00  0.00000000E+00  0.00000000E+00
  0.00000000E+00  0.00000000E+00  0.00000000E+00
  0.00000000E+00  0.00000000E+00  0.00000000E+00
  0.00000000E+00  0.00000000E+00  0.00000000E+00
  0.00000000E+00  0.00000000E+00  0.00000000E+00
  0.00000000E+00  0.00000000E+00  0.00000000E+00
  0.00000000E+00  0.00000000E+00  0.00000000E+00
  0.00000000E+00  0.00000000E+00  0.00000000E+00
  0.00000000E+00  0.00000000E+00  0.00000000E+00
  0.00000000E+00  0.00000000E+00  0.00000000E+00
  0.00000000E+00  0.00000000E+00  0.00000000E+00
  0.00000000E+00  0.00000000E+00  0.00000000E+00
  0.00000000E+00  0.00000000E+00  0.00000000E+00
  0.00000000E+00  0.00000000E+00  0.00000000E+00
  0.00000000E+00  0.00000000E+00  0.00000000E+00
  0.00000000E+00  0.00000000E+00  0.00000000E+00
  0.00000000E+00  0.00000000E+00  0.00000000E+00
  0.00000000E+00  0.00000000E+00  0.00000000E+00
  0.00000000E+00  0.00000000E+00  0.00000000E+00
  0.00000000E+00  0.00000000E+00  0.00000000E+00
  0.00000000E+00  0.00000000E+00  0.00000000E+00
  0.00000000E+00  0.00000000E+00  0.00000000E+00
  0.00000000E+00  0.00000000E+00  0.00000000E+00
  0.00000000E+00  0.00000000E+00  0.00000000E+00
  0.00000000E+00  0.00000000E+00  0.00000000E+00
  0.00000000E+00  0.00000000E+00  0.00000000E+00
  0.00000000E+00  0.00000000E+00  0.00000000E+00
  0.00000000E+00  0.00000000E+00  0.00000000E+00
  0.00000000E+00  0.00000000E+00  0.00000000E+00
  0.00000000E+00  0.00000000E+00  0.00000000E+00
  0.00000000E+00  0.00000000E+00  0.00000000E+00
  0.00000000E+00  0.00000000E+00  0.00000000E+00
  0.00000000E+00  0.00000000E+00  0.00000000E+00
  0.00000000E+00  0.00000000E+00  0.00000000E+00
  0.00000000E+00  0.00000000E+00  0.00000000E+00
  0.00000000E+00  0.00000000E+00  0.00000000E+00
  0.00000000E+00  0.00000000E+00  0.00000000E+00
  0.00000000E+00  0.00000000E+00  0.00000000E+00
  0.00000000E+00  0.00000000E+00  0.00000000E+00
  0.00000000E+00  0.00000000E+00  0.00000000E+00
  0.00000000E+00  0.00000000E+00  0.00000000E+00
  0.00000000E+00  0.00000000E+00  0.00000000E+00
  0.00000000E+00  0.00000000E+00  0.00000000E+00
  0.00000000E+00  0.00000000E+00  0.00000000E+00
  0.00000000E+00  0.00000000E+00  0.00000000E+00
  0.00000000E+00  0.00000000E+00  0.00000000E+00
  0.00000000E+00  0.00000000E+00  0.00000000E+00
  0.00000000E+00  0.00000000E+00  0.00000000E+00
  0.00000000E+00  0.00000000E+00  0.00000000E+00
  0.00000000E+00  0.00000000E+00  0.00000000E+00
  0.00000000E+00  0.00000000E+00  0.00000000E+00
  0.00000000E+00  0.00000000E+00  0.00000000E+00
  0.00000000E+00  0.00000000E+00  0.00000000E+00
  0.00000000E+00  0.00000000E+00  0.00000000E+00
  0.00000000E+00  0.00000000E+00  0.00000000E+00
  0.00000000E+00  0.00000000E+00  0.00000000E+00
  0.00000000E+00  0.00000000E+00  0.00000000E+00
  0.00000000E+00  0.00000000E+00  0.00000000E+00
  0.00000000E+00  0.00000000E+00  0.00000000E+00
  0.00000000E+00  0.00000000E+00  0.00000000E+00
  0.00000000E+00  0.00000000E+00  0.00000000E+00
  0.00000000E+00  0.00000000E+00  0.00000000E+00
  0.00000000E+00  0.00000000E+00  0.00000000E+00
  0.00000000E+00  0.00000000E+00  0.00000000E+00
  0.00000000E+00  0.00000000E+00  0.00000000E+00
  0.00000000E+00  0.00000000E+00  0.00000000E+00
  0.00000000E+00  0.00000000E+00  0.00000000E+00
  0.00000000E+00  0.00000000E+00  0.00000000E+00
  0.00000000E+00  0.00000000E+00  0.00000000E+00
  0.00000000E+00  0.00000000E+00  0.00000000E+00
  0.00000000E+00  0.00000000E+00  0.00000000E+00
  0.00000000E+00  0.00000000E+00  0.00000000E+00
  0.00000000E+00  0.00000000E+00  0.00000000E+00
  0.00000000E+00  0.00000000E+00  0.00000000E+00
  0.00000000E+00  0.00000000E+00  0.00000000E+00
  0.00000000E+00  0.00000000E+00  0.00000000E+00
  0.00000000E+00  0.00000000E+00  0.00000000E+00
  0.00000000E+00  0.00000000E+00  0.00000000E+00
  0.00000000E+00  0.00000000E+00  0.00000000E+00
  0.00000000E+00  0.00000000E+00  0.00000000E+00
  0.00000000E+00  0.00000000E+00  0.00000000E+00
  0.00000000E+00  0.00000000E+00  0.00000000E+00
  0.00000000E+00  0.00000000E+00  0.00000000E+00
  0.00000000E+00  0.00000000E+00  0.00000000E+00
  0.00000000E+00  0.00000000E+00  0.00000000E+00
  0.00000000E+00  0.00000000E+00  0.00000000E+00
  0.00000000E+00  0.00000000E+00  0.00000000E+00
  0.00000000E+00  0.00000000E+00  0.00000000E+00
  0.00000000E+00  0.00000000E+00  0.00000000E+00
  0.00000000E+00  0.00000000E+00  0.00000000E+00
  0.00000000E+00  0.00000000E+00  0.00000000E+00
  0.00000000E+00  0.00000000E+00  0.00000000E+00
  0.00000000E+00  0.00000000E+00  0.00000000E+00
  0.00000000E+00  0.00000000E+00  0.00000000E+00
  0.00000000E+00  0.00000000E+00  0.00000000E+00
  0.00000000E+00  0.00000000E+00  0.00000000E+00
  0.00000000E+00  0.00000000E+00  0.00000000E+00
  0.00000000E+00  0.00000000E+00  0.00000000E+00
  0.00000000E+00  0.00000000E+00  0.00000000E+00
  0.00000000E+00  0.00000000E+00  0.00000000E+00
  0.00000000E+00  0.00000000E+00  0.00000000E+00
  0.00000000E+00  0.00000000E+00  0.00000000E+00