Amorphous GeAsSeSi                      
   1.00000000000000     
    18.1636188657994708    0.0000000000000000    0.0000000000000000
     0.0000000000000000   18.1636188657994708    0.0000000000000000
     0.0000000000000000    0.0000000000000000   18.1636188657994708
   Ge   N    Se
    96    48    96
Direct
  0.9613491089083624  0.9724890624961116  0.8643894292820409
  0.5145327027611479  0.2676422664753594  0.6359811689203234
  0.0622106427290387  0.0905841804621121  0.7129348348274859
  0.5243645976183029  0.4564497033912899  0.9169501935786925
  0.4660827239315297  0.9921442165398380  0.4001373216417143
  0.5270523975798597  0.1513726389577970  0.3374243470973989
  0.6598804572501241  0.4364187682851500  0.9454403192697348
  0.5040155435168103  0.1310449812928208  0.8799767870254778
  0.9933710979814061  0.5027162201352550  0.2422624229444655
  0.7082900518053142  0.1365434631450989  0.9618243235151446
  0.3406450459141458  0.4343568768166329  0.3200803783659203
  0.8592468267019736  0.2350526477953180  0.9258827441443248
  0.7830922601181065  0.6618878149312282  0.5189830828503710
  0.1816381289419024  0.3225648955940145  0.5839435077093321
  0.8442268547182257  0.2322417873659253  0.1799557516533686
  0.1638791222694486  0.8159015297300952  0.9527859258351591
  0.7407067209107768  0.4731702981066396  0.4924675390855681
  0.0032439823440359  0.0284544609724835  0.3400649006046911
  0.7242341983953241  0.9019497968449147  0.6501008733015468
  0.3557239641641009  0.9421979537577670  0.5301324446313299
  0.4463524102389841  0.5629636216527136  0.4363752403926372
  0.4393678203874497  0.1453312352094891  0.4958310421442917
  0.8834976403042281  0.4616565208392869  0.9301475803115213
  0.5090638939576067  0.8610332138805917  0.5070103088777643
  0.9683039753706921  0.7498301445576893  0.9793609189307836
  0.7946520137574985  0.9927503286645294  0.8887980012272041
  0.1193970518557596  0.0028251844588159  0.1419727035305930
  0.4930575819245528  0.9788385515767328  0.9840155798330864
  0.7171914893895004  0.3692519242734453  0.8321587082764923
  0.7339707396836676  0.1012643023984694  0.4026479240710141
  0.7990120872348700  0.5709849507807984  0.2755883971751636
  0.2061840563953079  0.3454026093824710  0.2837431176896996
  0.0142225533230306  0.1986885860064941  0.4105829529592797
  0.4781072606982920  0.5212318983288364  0.5800124429136800
  0.0445842350828662  0.0942392706725581  0.8976208106916316
  0.4987353536440557  0.6810267020680010  0.6583486628187022
  0.5902462949525119  0.0387132154062170  0.4824819010869694
  0.3949305228825317  0.7554892984709710  0.5679456331226190
  0.2612378081809815  0.7217268547258423  0.7540299504172627
  0.6405060834683096  0.5775287238683058  0.5958666230728269
  0.4021412766102014  0.4505959507854809  0.0588079433974688
  0.5183545633645206  0.3105963940269988  0.8033686294378782
  0.1493340341947715  0.0932725307994043  0.2722189894601996
  0.3312959224537418  0.3019531766428821  0.1841181570390543
  0.2641895560399776  0.4924999225074304  0.1695772902533463
  0.8567440522865147  0.3062945368808374  0.3354968088179667
  0.2420936340353598  0.5002735465328885  0.6453033186099572
  0.5357069267938501  0.7666277593551361  0.4106401778635284
  0.1195097279086556  0.3933828107555762  0.8170793468018978
  0.2077256621319648  0.0849833380911007  0.8062220881136434
  0.8980026872419951  0.1367752155621043  0.5076106232550970
  0.6444975786290492  0.7375248387461435  0.4936072708757051
  0.0656561762779932  0.5400080313189963  0.0700938367225452
  0.1275247558402488  0.7777826115766364  0.6648477216394325
  0.6363185060307487  0.0974237702561254  0.7196895271484336
  0.2511024954457959  0.6522069509126205  0.0025974839504566
  0.7815027765326164  0.0846441915833291  0.6724232269776369
  0.0066586260981077  0.6549856930499010  0.2296764212237105
  0.1209342403188469  0.6193590119670650  0.7117644071324823
  0.2817945887268558  0.8119229731928160  0.3267359123270598
  0.8637913203584828  0.0961983963123473  0.0433993812204917
  0.0605236088251818  0.4830027921920834  0.6194464799705210
  0.7106648634699224  0.2864595663276959  0.0554268624608197
  0.8163895850484135  0.8344629242037325  0.9412970726203748
  0.0921764271751579  0.6466085000683649  0.9374767446670257
  0.9104700974138995  0.3704663149147872  0.7485701749288847
  0.9045437090635806  0.9383912767028038  0.6503166586406703
  0.2424564600043056  0.6612331753717881  0.5792912336119003
  0.3166991468807377  0.9510251933029786  0.3450136278942491
  0.2314497669532475  0.3999679867856382  0.0000190590527402
  0.8098696057647145  0.8583068443338032  0.7796900701192224
  0.8134819847776792  0.7208451966429450  0.1363296296111990
  0.3978853875229175  0.1930323876229423  0.6891880731215950
  0.1186862454461148  0.7189432507457713  0.0800498089510394
  0.4460009299059183  0.6358127994876833  0.1807781927397108
  0.2998736835096619  0.9815387924599576  0.1352016774087714
  0.2831163659327637  0.7995020987119693  0.1037245291369998
  0.8065841582711557  0.9629206201829463  0.3216907879818825
  0.1495099284823095  0.5553607844019822  0.2376310830520297
  0.1754634790249922  0.0083975527454621  0.9918273533703549
  0.2294312982746268  0.8176983801732640  0.5111659768064951
  0.5520949554098603  0.3670994137320190  0.0597000905315550
  0.5764442675790847  0.4674440421996210  0.1530981696124231
  0.6946966071606321  0.5766464554372580  0.0540241274060625
  0.0411542473730243  0.8468781239357761  0.5187283678824007
  0.7604827281283417  0.5871901749915136  0.9029183097454297
  0.6254175984635481  0.9890420388695803  0.8822629595834800
  0.4887512535262266  0.5154010033472124  0.2512042100533843
  0.8789293254970022  0.1247036580951870  0.3213630950637410
  0.5503935504662573  0.4793304731478494  0.7480120631670929
  0.1439374779845984  0.7198722362094906  0.4013066121116437
  0.1700432249158937  0.9470772074317859  0.5797854401602559
  0.8939923689808467  0.5294134325209973  0.5999565437586200
  0.3814561804011088  0.5778970810354246  0.6784908124862973
  0.7444696940016513  0.2211289367409686  0.5209164319218142
  0.4575621483437325  0.1908227777135911  0.0658272021952238
  0.6801975486378943  0.6487325304026428  0.5318490357892486
  0.1429805572359138  0.5300807115552231  0.6623055790469686
  0.2136954212600063  0.7570771342881538  0.0374728431164251
  0.5744183461819109  0.3067855781082603  0.7125038520249427
  0.4377004534635676  0.4283302865602760  0.2829184598150164
  0.2092787033077417  0.7986428073796296  0.4128829924810434
  0.1361434737810549  0.8323917280582547  0.5726237539675613
  0.1903549940871952  0.6907351766646066  0.6679350973564266
  0.2895924568723969  0.7501411971545315  0.5608222982502832
  0.5379450036465230  0.6071723904655700  0.5933370722463286
  0.5237273615279991  0.4107668087822721  0.8242487404473705
  0.1411397046249875  0.6165116533258902  0.0275004567883677
  0.9454333503228529  0.1162121277329476  0.4037905690291923
  0.5117957827929592  0.0854148265672743  0.4257180975287263
  0.6471833475657037  0.3638660684005606  0.0193160848877718
  0.6017883335912769  0.5559824957187522  0.0993932812469779
  0.2816882571994972  0.4074773971892044  0.2368094155721894
  0.1032510180196439  0.0856175401135206  0.8141723365423574
  0.8183642305923488  0.9285291661574381  0.7046489160952271
  0.2123680886531178  0.0161538344244623  0.0873048039507114
  0.7952224395582441  0.0654778345250010  0.3291644640472818
  0.5358685553130749  0.9516092050569132  0.4690232328710606
  0.6844320698075089  0.0182606131019545  0.4428932873468221
  0.8750973426352735  0.0283911316031530  0.8350262027835942
  0.4157329904970794  0.8426779102664158  0.7790607509748971
  0.7218810911678962  0.5143612045184232  0.9737094367291390
  0.5457456771843994  0.0454965156864161  0.9150239111552247
  0.5086679396931164  0.3405428356823539  0.5611581577281908
  0.8553587175646201  0.2164199743621334  0.2842176539690668
  0.7987210426097479  0.1532936235505021  0.4649929425118017
  0.5480574319813699  0.1351923190455535  0.0654430792715169
  0.7457270047762045  0.3205004340168306  0.4982415813497992
  0.7104508630397405  0.0477478630840034  0.9001215129709601
  0.4799480897166204  0.4069671534273922  0.9959149248769389
  0.0793469727205482  0.7440931541621535  0.9740811214750772
  0.4271298699801350  0.8914850495352860  0.8147411774838910
  0.1117309920485761  0.0927404906119995  0.9786310785645345
  0.5220122537556213  0.2732729496971079  0.0930411740492461
  0.8180785451017045  0.1508153687428544  0.9667990087303858
  0.0615646501756385  0.5723333753698843  0.1761797119951501
  0.2971516200036566  0.5840352931553104  0.6145284174122626
  0.2563461778432329  0.9130325752374129  0.5338772848184503
  0.4141578453565230  0.8567629926273080  0.5491183562557582
  0.2348076140221965  0.2712225269445643  0.2155354455963130
  0.7657011237872431  0.8959669419922837  0.8653279844580664
  0.3748371428490170  0.9611068957239990  0.4315610955635427
  0.0854386466816164  0.5014945605741803  0.3014839701696171
  0.9410818156427770  0.0695309210962425  0.2614471005327015
  0.9341177832815285  0.8196396566563983  0.5910291777064060
  0.9836612436817999  0.3780380399662440  0.8698100455363046
  0.8345146649636043  0.6405523684029300  0.6401410492356376
  0.9459774574439644  0.3117082764480973  0.4320799920665030
  0.1928923236314868  0.2182416656055998  0.5015762325762300
  0.0008202405658716  0.3791353442698436  0.1799046874975591
  0.4269896389746485  0.3306162067023301  0.5009558740863380
  0.8328946409505860  0.5688241939499670  0.4393237106629745
  0.1835105742932288  0.6196849180520777  0.8352989023688978
  0.7393436191200899  0.3536728220664144  0.4042967398973853
  0.1868041455507161  0.8378766037892744  0.7630377724041316
  0.4221792323172014  0.7010966819510981  0.4317665108893375
  0.0535950149155273  0.3544275918328278  0.5896376274950476
  0.7879104281936840  0.2543308411139691  0.8152351104912814
  0.6540049066636725  0.1990111386311582  0.3733739873192442
  0.5748450109026130  0.6335314097539961  0.8990764844119581
  0.0716445452444955  0.1728334142980840  0.5289706281563872
  0.5398472795135683  0.0399105294120074  0.1081845705891579
  0.7010425718812300  0.6906245178503334  0.9867096714657041
  0.3963576791737833  0.1585640997918765  0.9536377391040671
  0.4605819274542137  0.5656300536978259  0.8732049722276304
  0.3904209881081223  0.0482166053958364  0.5928496809255890
  0.5949202366442479  0.8863553028272363  0.9543994537458936
  0.1239275379048319  0.4274257520872679  0.3563100213847041
  0.4757215710777591  0.0981423162301013  0.7540781764489862
  0.2510733595293508  0.4253260514228098  0.5373138334007536
  0.3333979133425367  0.5591042710786637  0.3554664599056935
  0.2611693779360424  0.9950689364192158  0.8958257232381956
  0.5868636091834211  0.2354438758658755  0.8881743778965201
  0.9551291003530572  0.7332138643457702  0.1268120030540469
  0.0889287428170092  0.2119872968645610  0.3048239196040088
  0.7364534278583494  0.0956001282685503  0.1096998630212038
  0.9675890337751538  0.6201494458597560  0.9166495018206150
  0.6493816134789961  0.5802966198123447  0.8020146743656050
  0.8449357376150674  0.3463799148129143  0.0000225587322191
  0.9680888060207989  0.5039898079035078  0.7149563606385587
  0.8443756934330577  0.0139053385652945  0.5594566618598401
  0.0193673624743033  0.7028818160540574  0.6822416005934209
  0.6988790138319607  0.6639872017565683  0.2911370209599241
  0.6918040246789761  0.9300034877608233  0.3851098572937716
  0.3199646591142811  0.4812849550107086  0.7495207209954661
  0.3623878390901905  0.8838080310378359  0.0451209774878480
  0.9250201166859182  0.8235555884818783  0.8393978295862798
  0.0149134491556644  0.9544121532850400  0.7229733190802740
  0.5869330098665412  0.8040781936712234  0.5979178540178502
  0.8087642578009129  0.5797452231691730  0.1254083877799931
  0.0646838035149405  0.9745326084158245  0.4994991461226542
  0.1081609295933363  0.2669619253642474  0.7617666594873176
  0.6984500016797468  0.3154682401311893  0.2021780193541994
  0.7305041895255954  0.7769040297192169  0.7168810374582651
  0.4312553214575237  0.9785270424345053  0.2740729378908907
  0.2238197492651366  0.2955587915365525  0.7081570962614289
  0.5176574495331000  0.6084506443588248  0.0651033318865257
  0.2426152987962345  0.0663483375828782  0.3724069787126324
  0.4458717027605002  0.7650840775584361  0.2249543218909880
  0.3907965388589017  0.2890220952545489  0.7862102514009672
  0.8043340853569215  0.9179908440240925  0.1970773880254224
  0.9996284213298825  0.5480018439496334  0.5220589960022264
  0.0197420309026026  0.7604709018456589  0.4222251707523101
  0.8734406167947595  0.3727500744795784  0.2132205267930007
  0.1985420764572452  0.0396179644849107  0.6692906748307844
  0.0832345762096215  0.9132033007285040  0.0140670840818103
  0.8275664019703898  0.4177982653006618  0.5829704472473870
  0.5738269594058792  0.4222280656237693  0.5482669759756059
  0.9520914067916805  0.0907383915429174  0.1630697312954538
  0.6122383336069938  0.1266220722094474  0.5806766039014507
  0.5570576818019765  0.5550504102275130  0.3572755580984639
  0.8719115139554718  0.9595915539456195  0.9946615962275778
  0.3167049627838648  0.6656404978753644  0.1368792967856906
  0.3836204489583908  0.1712338883980862  0.1725116775519990
  0.1539516017402335  0.4286546707106989  0.1072216794353789
  0.8217304152382633  0.7111355800325461  0.2794762697492006
  0.3533687023554076  0.1616100166789493  0.3835528521678966
  0.1957699644505700  0.1869787622281011  0.1742284898740130
  0.1721385005137055  0.6141121080472045  0.4788320197297205
  0.2890737424113665  0.3369505101858580  0.3925156208852112
  0.1501463422073454  0.6943239791441997  0.2713646348701078
  0.6960080890569933  0.9759319563749262  0.1481091025081108
  0.7671587503357195  0.7863915638331713  0.4726211684524539
  0.4559262815517471  0.3469514073625123  0.2220206913240280
  0.3290341193302707  0.3230027933376469  0.0513142336987844
  0.4574259479389705  0.2658661610838930  0.3835718567913583
  0.1767999495434319  0.3180657374629772  0.9163474806258647
  0.2181512800755185  0.8648838163103109  0.2031893534620403
  0.7997203166416150  0.2185063163813656  0.6397273919311294
  0.0774038496217327  0.1283884731485927  0.0702428948379492
  0.8818358415751936  0.1038118471235407  0.7666461092524725
  0.6213289674562017  0.9628076957210174  0.7449465177236732
  0.3093346278818874  0.4975124580185025  0.9608145899379722
  0.6935956740760271  0.4459280528500191  0.2129093883958377
  0.5595033059186261  0.7868199240984319  0.2811010060420520
  0.6509127141530024  0.3769803335995763  0.7070177442796134
  0.5977156055507856  0.2091345433884290  0.1263090258118592
  0.9909808108311694  0.2218357216366333  0.8980024775348703
  0.8118210761262883  0.4607267270235559  0.7998779958909340
  0.9207108678709996  0.9206254263217039  0.3727620203765742
 
  0.00000000E+00  0.00000000E+00  0.00000000E+00
  0.00000000E+00  0.00000000E+00  0.00000000E+00
  0.00000000E+00  0.00000000E+00  0.00000000E+00
  0.00000000E+00  0.00000000E+00  0.00000000E+00
  0.00000000E+00  0.00000000E+00  0.00000000E+00
  0.00000000E+00  0.00000000E+00  0.00000000E+00
  0.00000000E+00  0.00000000E+00  0.00000000E+00
  0.00000000E+00  0.00000000E+00  0.00000000E+00
  0.00000000E+00  0.00000000E+00  0.00000000E+00
  0.00000000E+00  0.00000000E+00  0.00000000E+00
  0.00000000E+00  0.00000000E+00  0.00000000E+00
  0.00000000E+00  0.00000000E+00  0.00000000E+00
  0.00000000E+00  0.00000000E+00  0.00000000E+00
  0.00000000E+00  0.00000000E+00  0.00000000E+00
  0.00000000E+00  0.00000000E+00  0.00000000E+00
  0.00000000E+00  0.00000000E+00  0.00000000E+00
  0.00000000E+00  0.00000000E+00  0.00000000E+00
  0.00000000E+00  0.00000000E+00  0.00000000E+00
  0.00000000E+00  0.00000000E+00  0.00000000E+00
  0.00000000E+00  0.00000000E+00  0.00000000E+00
  0.00000000E+00  0.00000000E+00  0.00000000E+00
  0.00000000E+00  0.00000000E+00  0.00000000E+00
  0.00000000E+00  0.00000000E+00  0.00000000E+00
  0.00000000E+00  0.00000000E+00  0.00000000E+00
  0.00000000E+00  0.00000000E+00  0.00000000E+00
  0.00000000E+00  0.00000000E+00  0.00000000E+00
  0.00000000E+00  0.00000000E+00  0.00000000E+00
  0.00000000E+00  0.00000000E+00  0.00000000E+00
  0.00000000E+00  0.00000000E+00  0.00000000E+00
  0.00000000E+00  0.00000000E+00  0.00000000E+00
  0.00000000E+00  0.00000000E+00  0.00000000E+00
  0.00000000E+00  0.00000000E+00  0.00000000E+00
  0.00000000E+00  0.00000000E+00  0.00000000E+00
  0.00000000E+00  0.00000000E+00  0.00000000E+00
  0.00000000E+00  0.00000000E+00  0.00000000E+00
  0.00000000E+00  0.00000000E+00  0.00000000E+00
  0.00000000E+00  0.00000000E+00  0.00000000E+00
  0.00000000E+00  0.00000000E+00  0.00000000E+00
  0.00000000E+00  0.00000000E+00  0.00000000E+00
  0.00000000E+00  0.00000000E+00  0.00000000E+00
  0.00000000E+00  0.00000000E+00  0.00000000E+00
  0.00000000E+00  0.00000000E+00  0.00000000E+00
  0.00000000E+00  0.00000000E+00  0.00000000E+00
  0.00000000E+00  0.00000000E+00  0.00000000E+00
  0.00000000E+00  0.00000000E+00  0.00000000E+00
  0.00000000E+00  0.00000000E+00  0.00000000E+00
  0.00000000E+00  0.00000000E+00  0.00000000E+00
  0.00000000E+00  0.00000000E+00  0.00000000E+00
  0.00000000E+00  0.00000000E+00  0.00000000E+00
  0.00000000E+00  0.00000000E+00  0.00000000E+00
  0.00000000E+00  0.00000000E+00  0.00000000E+00
  0.00000000E+00  0.00000000E+00  0.00000000E+00
  0.00000000E+00  0.00000000E+00  0.00000000E+00
  0.00000000E+00  0.00000000E+00  0.00000000E+00
  0.00000000E+00  0.00000000E+00  0.00000000E+00
  0.00000000E+00  0.00000000E+00  0.00000000E+00
  0.00000000E+00  0.00000000E+00  0.00000000E+00
  0.00000000E+00  0.00000000E+00  0.00000000E+00
  0.00000000E+00  0.00000000E+00  0.00000000E+00
  0.00000000E+00  0.00000000E+00  0.00000000E+00
  0.00000000E+00  0.00000000E+00  0.00000000E+00
  0.00000000E+00  0.00000000E+00  0.00000000E+00
  0.00000000E+00  0.00000000E+00  0.00000000E+00
  0.00000000E+00  0.00000000E+00  0.00000000E+00
  0.00000000E+00  0.00000000E+00  0.00000000E+00
  0.00000000E+00  0.00000000E+00  0.00000000E+00
  0.00000000E+00  0.00000000E+00  0.00000000E+00
  0.00000000E+00  0.00000000E+00  0.00000000E+00
  0.00000000E+00  0.00000000E+00  0.00000000E+00
  0.00000000E+00  0.00000000E+00  0.00000000E+00
  0.00000000E+00  0.00000000E+00  0.00000000E+00
  0.00000000E+00  0.00000000E+00  0.00000000E+00
  0.00000000E+00  0.00000000E+00  0.00000000E+00
  0.00000000E+00  0.00000000E+00  0.00000000E+00
  0.00000000E+00  0.00000000E+00  0.00000000E+00
  0.00000000E+00  0.00000000E+00  0.00000000E+00
  0.00000000E+00  0.00000000E+00  0.00000000E+00
  0.00000000E+00  0.00000000E+00  0.00000000E+00
  0.00000000E+00  0.00000000E+00  0.00000000E+00
  0.00000000E+00  0.00000000E+00  0.00000000E+00
  0.00000000E+00  0.00000000E+00  0.00000000E+00
  0.00000000E+00  0.00000000E+00  0.00000000E+00
  0.00000000E+00  0.00000000E+00  0.00000000E+00
  0.00000000E+00  0.00000000E+00  0.00000000E+00
  0.00000000E+00  0.00000000E+00  0.00000000E+00
  0.00000000E+00  0.00000000E+00  0.00000000E+00
  0.00000000E+00  0.00000000E+00  0.00000000E+00
  0.00000000E+00  0.00000000E+00  0.00000000E+00
  0.00000000E+00  0.00000000E+00  0.00000000E+00
  0.00000000E+00  0.00000000E+00  0.00000000E+00
  0.00000000E+00  0.00000000E+00  0.00000000E+00
  0.00000000E+00  0.00000000E+00  0.00000000E+00
  0.00000000E+00  0.00000000E+00  0.00000000E+00
  0.00000000E+00  0.00000000E+00  0.00000000E+00
  0.00000000E+00  0.00000000E+00  0.00000000E+00
  0.00000000E+00  0.00000000E+00  0.00000000E+00
  0.00000000E+00  0.00000000E+00  0.00000000E+00
  0.00000000E+00  0.00000000E+00  0.00000000E+00
  0.00000000E+00  0.00000000E+00  0.00000000E+00
  0.00000000E+00  0.00000000E+00  0.00000000E+00
  0.00000000E+00  0.00000000E+00  0.00000000E+00
  0.00000000E+00  0.00000000E+00  0.00000000E+00
  0.00000000E+00  0.00000000E+00  0.00000000E+00
  0.00000000E+00  0.00000000E+00  0.00000000E+00
  0.00000000E+00  0.00000000E+00  0.00000000E+00
  0.00000000E+00  0.00000000E+00  0.00000000E+00
  0.00000000E+00  0.00000000E+00  0.00000000E+00
  0.00000000E+00  0.00000000E+00  0.00000000E+00
  0.00000000E+00  0.00000000E+00  0.00000000E+00
  0.00000000E+00  0.00000000E+00  0.00000000E+00
  0.00000000E+00  0.00000000E+00  0.00000000E+00
  0.00000000E+00  0.00000000E+00  0.00000000E+00
  0.00000000E+00  0.00000000E+00  0.00000000E+00
  0.00000000E+00  0.00000000E+00  0.00000000E+00
  0.00000000E+00  0.00000000E+00  0.00000000E+00
  0.00000000E+00  0.00000000E+00  0.00000000E+00
  0.00000000E+00  0.00000000E+00  0.00000000E+00
  0.00000000E+00  0.00000000E+00  0.00000000E+00
  0.00000000E+00  0.00000000E+00  0.00000000E+00
  0.00000000E+00  0.00000000E+00  0.00000000E+00
  0.00000000E+00  0.00000000E+00  0.00000000E+00
  0.00000000E+00  0.00000000E+00  0.00000000E+00
  0.00000000E+00  0.00000000E+00  0.00000000E+00
  0.00000000E+00  0.00000000E+00  0.00000000E+00
  0.00000000E+00  0.00000000E+00  0.00000000E+00
  0.00000000E+00  0.00000000E+00  0.00000000E+00
  0.00000000E+00  0.00000000E+00  0.00000000E+00
  0.00000000E+00  0.00000000E+00  0.00000000E+00
  0.00000000E+00  0.00000000E+00  0.00000000E+00
  0.00000000E+00  0.00000000E+00  0.00000000E+00
  0.00000000E+00  0.00000000E+00  0.00000000E+00
  0.00000000E+00  0.00000000E+00  0.00000000E+00
  0.00000000E+00  0.00000000E+00  0.00000000E+00
  0.00000000E+00  0.00000000E+00  0.00000000E+00
  0.00000000E+00  0.00000000E+00  0.00000000E+00
  0.00000000E+00  0.00000000E+00  0.00000000E+00
  0.00000000E+00  0.00000000E+00  0.00000000E+00
  0.00000000E+00  0.00000000E+00  0.00000000E+00
  0.00000000E+00  0.00000000E+00  0.00000000E+00
  0.00000000E+00  0.00000000E+00  0.00000000E+00
  0.00000000E+00  0.00000000E+00  0.00000000E+00
  0.00000000E+00  0.00000000E+00  0.00000000E+00
  0.00000000E+00  0.00000000E+00  0.00000000E+00
  0.00000000E+00  0.00000000E+00  0.00000000E+00
  0.00000000E+00  0.00000000E+00  0.00000000E+00
  0.00000000E+00  0.00000000E+00  0.00000000E+00
  0.00000000E+00  0.00000000E+00  0.00000000E+00
  0.00000000E+00  0.00000000E+00  0.00000000E+00
  0.00000000E+00  0.00000000E+00  0.00000000E+00
  0.00000000E+00  0.00000000E+00  0.00000000E+00
  0.00000000E+00  0.00000000E+00  0.00000000E+00
  0.00000000E+00  0.00000000E+00  0.00000000E+00
  0.00000000E+00  0.00000000E+00  0.00000000E+00
  0.00000000E+00  0.00000000E+00  0.00000000E+00
  0.00000000E+00  0.00000000E+00  0.00000000E+00
  0.00000000E+00  0.00000000E+00  0.00000000E+00
  0.00000000E+00  0.00000000E+00  0.00000000E+00
  0.00000000E+00  0.00000000E+00  0.00000000E+00
  0.00000000E+00  0.00000000E+00  0.00000000E+00
  0.00000000E+00  0.00000000E+00  0.00000000E+00
  0.00000000E+00  0.00000000E+00  0.00000000E+00
  0.00000000E+00  0.00000000E+00  0.00000000E+00
  0.00000000E+00  0.00000000E+00  0.00000000E+00
  0.00000000E+00  0.00000000E+00  0.00000000E+00
  0.00000000E+00  0.00000000E+00  0.00000000E+00
  0.00000000E+00  0.00000000E+00  0.00000000E+00
  0.00000000E+00  0.00000000E+00  0.00000000E+00
  0.00000000E+00  0.00000000E+00  0.00000000E+00
  0.00000000E+00  0.00000000E+00  0.00000000E+00
  0.00000000E+00  0.00000000E+00  0.00000000E+00
  0.00000000E+00  0.00000000E+00  0.00000000E+00
  0.00000000E+00  0.00000000E+00  0.00000000E+00
  0.00000000E+00  0.00000000E+00  0.00000000E+00
  0.00000000E+00  0.00000000E+00  0.00000000E+00
  0.00000000E+00  0.00000000E+00  0.00000000E+00
  0.00000000E+00  0.00000000E+00  0.00000000E+00
  0.00000000E+00  0.00000000E+00  0.00000000E+00
  0.00000000E+00  0.00000000E+00  0.00000000E+00
  0.00000000E+00  0.00000000E+00  0.00000000E+00
  0.00000000E+00  0.00000000E+00  0.00000000E+00
  0.00000000E+00  0.00000000E+00  0.00000000E+00
  0.00000000E+00  0.00000000E+00  0.00000000E+00
  0.00000000E+00  0.00000000E+00  0.00000000E+00
  0.00000000E+00  0.00000000E+00  0.00000000E+00
  0.00000000E+00  0.00000000E+00  0.00000000E+00
  0.00000000E+00  0.00000000E+00  0.00000000E+00
  0.00000000E+00  0.00000000E+00  0.00000000E+00
  0.00000000E+00  0.00000000E+00  0.00000000E+00
  0.00000000E+00  0.00000000E+00  0.00000000E+00
  0.00000000E+00  0.00000000E+00  0.00000000E+00
  0.00000000E+00  0.00000000E+00  0.00000000E+00
  0.00000000E+00  0.00000000E+00  0.00000000E+00
  0.00000000E+00  0.00000000E+00  0.00000000E+00
  0.00000000E+00  0.00000000E+00  0.00000000E+00
  0.00000000E+00  0.00000000E+00  0.00000000E+00
  0.00000000E+00  0.00000000E+00  0.00000000E+00
  0.00000000E+00  0.00000000E+00  0.00000000E+00
  0.00000000E+00  0.00000000E+00  0.00000000E+00
  0.00000000E+00  0.00000000E+00  0.00000000E+00
  0.00000000E+00  0.00000000E+00  0.00000000E+00
  0.00000000E+00  0.00000000E+00  0.00000000E+00
  0.00000000E+00  0.00000000E+00  0.00000000E+00
  0.00000000E+00  0.00000000E+00  0.00000000E+00
  0.00000000E+00  0.00000000E+00  0.00000000E+00
  0.00000000E+00  0.00000000E+00  0.00000000E+00
  0.00000000E+00  0.00000000E+00  0.00000000E+00
  0.00000000E+00  0.00000000E+00  0.00000000E+00
  0.00000000E+00  0.00000000E+00  0.00000000E+00
  0.00000000E+00  0.00000000E+00  0.00000000E+00
  0.00000000E+00  0.00000000E+00  0.00000000E+00
  0.00000000E+00  0.00000000E+00  0.00000000E+00
  0.00000000E+00  0.00000000E+00  0.00000000E+00
  0.00000000E+00  0.00000000E+00  0.00000000E+00
  0.00000000E+00  0.00000000E+00  0.00000000E+00
  0.00000000E+00  0.00000000E+00  0.00000000E+00
  0.00000000E+00  0.00000000E+00  0.00000000E+00
  0.00000000E+00  0.00000000E+00  0.00000000E+00
  0.00000000E+00  0.00000000E+00  0.00000000E+00
  0.00000000E+00  0.00000000E+00  0.00000000E+00
  0.00000000E+00  0.00000000E+00  0.00000000E+00
  0.00000000E+00  0.00000000E+00  0.00000000E+00
  0.00000000E+00  0.00000000E+00  0.00000000E+00
  0.00000000E+00  0.00000000E+00  0.00000000E+00
  0.00000000E+00  0.00000000E+00  0.00000000E+00
  0.00000000E+00  0.00000000E+00  0.00000000E+00
  0.00000000E+00  0.00000000E+00  0.00000000E+00
  0.00000000E+00  0.00000000E+00  0.00000000E+00
  0.00000000E+00  0.00000000E+00  0.00000000E+00
  0.00000000E+00  0.00000000E+00  0.00000000E+00
  0.00000000E+00  0.00000000E+00  0.00000000E+00
  0.00000000E+00  0.00000000E+00  0.00000000E+00
  0.00000000E+00  0.00000000E+00  0.00000000E+00
  0.00000000E+00  0.00000000E+00  0.00000000E+00
  0.00000000E+00  0.00000000E+00  0.00000000E+00
  0.00000000E+00  0.00000000E+00  0.00000000E+00
  0.00000000E+00  0.00000000E+00  0.00000000E+00
  0.00000000E+00  0.00000000E+00  0.00000000E+00
  0.00000000E+00  0.00000000E+00  0.00000000E+00
  0.00000000E+00  0.00000000E+00  0.00000000E+00
  0.00000000E+00  0.00000000E+00  0.00000000E+00
