Sb                                      
   1.00000000000000     
    18.8726841790578099    0.0000000000000000    0.0000000000000000
     0.0000000000000000   18.8726841790578099    0.0000000000000000
     0.0000000000000000    0.0000000000000000   18.8726841790578099
   Sb   Ge
   205    11
Selective dynamics
Direct
  0.7465343399616328  0.9189624094068169  0.5116531119038258   T   T   T
  0.5888740694990130  0.7616416046543831  0.3310905516716294   T   T   T
  0.9107235111996561  0.9182742474667813  0.0079136038679635   T   T   T
  0.2447257398892896  0.2502339795157643  0.0115329445803868   T   T   T
  0.7450041831929393  0.9193349461795058  0.8422067037278003   T   T   T
  0.2433823897646281  0.9164354842187443  0.0081853789014852   T   T   T
  0.0671688202747671  0.0834138721811293  0.6745049785407591   T   T   T
  0.7560817600034435  0.2598827292844074  0.6681451614856670   T   T   T
  0.4118998215090017  0.5820940184134441  0.1733583460363069   T   T   T
  0.4201855522568361  0.0939383992955156  0.1689349517530623   T   T   T
  0.2536149893960407  0.6007403035100781  0.5016011562186373   T   T   T
  0.4201483939136735  0.2562895183862309  0.3387565077766245   T   T   T
  0.5777080937661863  0.0880570373776483  0.1779965433268410   T   T   T
  0.4102025754513225  0.9167594947332363  0.8415104108356061   T   T   T
  0.2615510704313485  0.2602520636722615  0.5020994135513370   T   T   T
  0.9181768465152300  0.2592352671433101  0.8316793363335497   T   T   T
  0.5793515607071045  0.2509551745397705  0.0194810061499673   T   T   T
  0.0773961317996081  0.9191910906800288  0.1753545238264699   T   T   T
  0.0755138383934667  0.2508526889689789  0.8444411650048251   T   T   T
  0.5780968803166424  0.0846336613723069  0.8439596175140498   T   T   T
  0.7537300084763734  0.7618441547840851  0.8323448903229071   T   T   T
  0.5755443864136300  0.7542035393423830  0.5064603411478440   T   T   T
  0.7501681663150218  0.0833972407048944  0.6774543090373777   T   T   T
  0.5871162498558092  0.9301591417373073  0.1672838216388935   T   T   T
  0.9220755144654370  0.5920262953862745  0.1653663742851577   T   T   T
  0.4236976353533749  0.4246046414314340  0.1699578990558210   T   T   T
  0.7549983120397595  0.5926863043885962  0.9969138819176382   T   T   T
  0.9126458008729827  0.9176578599081002  0.3471514225095190   T   T   T
  0.2425325780940092  0.0835010994367214  0.8421203445868701   T   T   T
  0.5888612605431163  0.7614842737176265  0.6638319264842381   T   T   T
  0.0872404745436940  0.4277019879365740  0.4990378111361887   T   T   T
  0.0801491718339616  0.2511758198694987  0.5079434883882999   T   T   T
  0.7661511494937411  0.5929864080828131  0.6656386191823319   T   T   T
  0.4117910031451711  0.4153735004273161  0.0135961599489849   T   T   T
  0.0761180330418937  0.0844874098140634  0.0099131644623658   T   T   T
  0.5888844410688501  0.5916692585140190  0.1624296331130817   T   T   T
  0.2418285427160509  0.0820810916331654  0.5092432690761646   T   T   T
  0.2440133636468376  0.5834838463393158  0.0093285433361626   T   T   T
  0.4207553133856201  0.5928918910574262  0.9976537762303165   T   T   T
  0.5888803104850131  0.9291782946352152  0.5002231461586653   T   T   T
  0.9109210374985477  0.2536683726981932  0.3434826123193312   T   T   T
  0.4142357792276669  0.2502891449607016  0.8436604263762564   T   T   T
  0.0776600670294720  0.7500845843745888  0.0093401245802789   T   T   T
  0.0873345202302233  0.5920762357799070  0.3351750562137756   T   T   T
  0.4221857067247357  0.4256173706199500  0.8396112480352421   T   T   T
  0.7572851186055929  0.4252668523466134  0.1658207635401142   T   T   T
  0.0788586388922025  0.7493499162292919  0.3447693438988748   T   T   T
  0.7467831621296137  0.7495785137505074  0.6750861343210314   T   T   T
  0.7447029990450962  0.9186305416267350  0.1767359762432168   T   T   T
  0.9123584666534789  0.7501593977487389  0.1766926472087006   T   T   T
  0.0866629882455475  0.7595709210238847  0.8303837065898864   T   T   T
  0.2443185098280910  0.5830252102159623  0.3458392240942825   T   T   T
  0.7538822758075431  0.2591885842500934  0.9919944829767769   T   T   T
  0.7549106509354299  0.7607524086101163  0.1660498964374252   T   T   T
  0.9194637963156461  0.9265212628377307  0.8229749168980768   T   T   T
  0.7445354456468567  0.0843959403791598  0.0105269501081611   T   T   T
  0.4200849090038277  0.7593313259028214  0.8303957458605969   T   T   T
  0.4103254612023813  0.5829435702008325  0.8410307202219997   T   T   T
  0.9229290395624711  0.5953911308690572  0.5034937261286282   T   T   T
  0.5788719998519087  0.7492017182986285  0.1733380745150408   T   T   T
  0.0883531791151854  0.4236415382994234  0.1678600671715354   T   T   T
  0.4211888607735393  0.9261306373335083  0.3334627183465906   T   T   T
  0.0697224179346719  0.4166165064921252  0.3426243448810670   T   T   T
  0.2536537625716892  0.0937462918414771  0.3345925292535449   T   T   T
  0.0874478597082464  0.7616311694284079  0.1671431886515889   T   T   T
  0.4119003661449986  0.2506184888317941  0.1807220163762965   T   T   T
  0.9200824534278876  0.9285520020329482  0.1662425356868341   T   T   T
  0.7470837966214634  0.4174535772038316  0.6751901649860778   T   T   T
  0.9126159993784170  0.2410269147002258  0.6743561361580982   T   T   T
  0.2535383159441851  0.9249428023629268  0.4999514483781496   T   T   T
  0.2443754849407866  0.9167738362017360  0.3429007232038418   T   T   T
  0.4228800595398580  0.2588219591953080  0.0017291878342172   T   T   T
  0.7640592473682868  0.9264670809654697  0.6677385244399646   T   T   T
  0.0769682267672145  0.0850107963617983  0.3436339236322022   T   T   T
  0.7467811444612342  0.4173203490623923  0.3414922870444027   T   T   T
  0.5958556588065483  0.2589109435061252  0.8362692744664387   T   T   T
  0.2504985438212560  0.0919798804794218  0.6665295272305380   T   T   T
  0.4112853524803646  0.0827823783177960  0.3463182135254722   T   T   T
  0.4105203088732310  0.7499455480822683  0.0073597269952546   T   T   T
  0.2531705642998876  0.9270148943192484  0.1658289016824121   T   T   T
  0.2530546762299472  0.0933794701007043  0.0000477073494058   T   T   T
  0.2328707050279725  0.5847563967225694  0.6747730128375822   T   T   T
  0.5882582267300527  0.5927990446633895  0.8285341125890224   T   T   T
  0.2543605426974073  0.4262322838164546  0.0021826878175658   T   T   T
  0.2517546733064013  0.7583939178921530  0.6570360030479997   T   T   T
  0.0852068438300828  0.1029513245442499  0.1670618442910986   T   T   T
  0.9137986956661934  0.5765926204453246  0.3459497617163704   T   T   T
  0.9115715627522868  0.0863103475806024  0.1807603753106769   T   T   T
  0.5917743628214273  0.0945448010727876  0.6683056677922228   T   T   T
  0.7435705876087395  0.2507478579614941  0.5111498943604905   T   T   T
  0.4207139406325961  0.0933367485060495  0.8333627058253980   T   T   T
  0.2425517819712120  0.2507539519914693  0.3451597399149330   T   T   T
  0.2448588372794481  0.7507381884782677  0.1781370777851942   T   T   T
  0.9210871358352393  0.4257343913055164  0.0000694516903181   T   T   T
  0.2435707160627914  0.2499536793210676  0.6765781980282018   T   T   T
  0.2541076798121129  0.2596329794951374  0.1693988917924086   T   T   T
  0.4217111199525873  0.1009033878338861  0.5029606739795704   T   T   T
  0.0761049545240943  0.7423857705916090  0.6745743403760139   T   T   T
  0.5784375320103322  0.5826428767086547  0.0053807220904040   T   T   T
  0.0778621691188341  0.4168509200882431  0.0104937922019236   T   T   T
  0.2526143885425540  0.4280703159692718  0.6687223523802420   T   T   T
  0.2543430972120669  0.7594260394901744  0.3357820765085895   T   T   T
  0.5777273392262771  0.2520522685316667  0.3422898380585914   T   T   T
  0.7572989248133779  0.7612953177548430  0.5003062157189431   T   T   T
  0.5887911862942552  0.4257684855518781 -0.0002057310458839   T   T   T
  0.7458176942414589  0.0850212082426468  0.3461678313766929   T   T   T
  0.4203289880897275  0.9268521788494595 -0.0007634295566190   T   T   T
  0.7538342426779647  0.9275742918323227 -0.0004963872009407   T   T   T
  0.5776734219601826  0.9175792840724648  0.0094834686867876   T   T   T
  0.4110287902730524  0.9171945975030064  0.1758645305955428   T   T   T
  0.7554192790159820  0.4236010044118250  0.8318573428578160   T   T   T
  0.9210178453775656  0.9368209392009477  0.5044010113402814   T   T   T
  0.2453863211437377  0.4165005414795114  0.1788083458212903   T   T   T
  0.9130898489238981  0.4160969320042703  0.1849601480453605   T   T   T
  0.7378938706150112  0.2520926950635563  0.1737929700567520   T   T   T
  0.9220732675771450  0.7594892912933943  0.3353167608898641   T   T   T
  0.2530720936242372  0.7591419989210803  0.9967742152513026   T   T   T
  0.5879943057836227  0.9277360679489433  0.8329950125285293   T   T   T
  0.4210486473398820  0.7597668156562357  0.1648403249160327   T   T   T
  0.7445928694991271  0.7498707560325445  0.0081014873106942   T   T   T
  0.0852154371733182  0.0940187590046100  0.8312601096409241   T   T   T
  0.7459143510216747  0.4149931629018576  0.0084908612734706   T   T   T
  0.5787323686558641  0.9186395213118002  0.3428144260677891   T   T   T
  0.9143034377169875  0.7534786421361661  0.5103258615939458   T   T   T
  0.4172145558266959  0.7614398618885653  0.4986943681100746   T   T   T
  0.7463341905125456  0.7506257162140959  0.3430265414785926   T   T   T
  0.5800712820728787  0.9191689086288539  0.6755324730485257   T   T   T
  0.7577420015518030  0.5930509164865494  0.3324197142796649   T   T   T
  0.7543693155346717  0.1018899004598809  0.8332750531548214   T   T   T
  0.0845072792675986  0.0937145549219260  0.5005966262388253   T   T   T
  0.0862533287705314  0.9271678716304338  0.9989318172028020   T   T   T
  0.2419336924442027  0.0846601027399395  0.1767232028451473   T   T   T
  0.0825920516675200  0.9265993667883879  0.6660147351649088   T   T   T
  0.4215947694822529  0.2574637794313800  0.6620473664093183   T   T   T
  0.0874264467657714  0.2601083090977022  0.0032328416535160   T   T   T
  0.0871756761566202  0.4262980088913465  0.8322135733202364   T   T   T
  0.2407002602246389  0.9154510057129566  0.6740330778513948   T   T   T
  0.7555393943579211  0.4267966196444110  0.4983198908879783   T   T   T
  0.4087473611378110  0.0835360401897753  0.6758363002779898   T   T   T
  0.5794965159188662  0.2516499233126241  0.6798659325315590   T   T   T
  0.5882691578824955  0.0952874418336452  0.3356357213649949   T   T   T
  0.4104215624950904  0.0838645887895996  0.0111388924100405   T   T   T
  0.9107834354641021  0.7492713016781122  0.8399812449071749   T   T   T
  0.9201870976751652  0.5923151057605658  0.8220786433541987   T   T   T
  0.0752034881477764  0.9170305691361789  0.8410944564127170   T   T   T
  0.9119881026829728  0.4165448972986349  0.8421408824479414   T   T   T
  0.0757464494097496  0.4195917106455757  0.6753158870333079   T   T   T
  0.9227073902381893  0.2569782697122299  0.5011749783008232   T   T   T
  0.0857540163025602  0.2610815103319689  0.3253124657611825   T   T   T
  0.7559366637245599  0.9279217694285892  0.3344512194144741   T   T   T
  0.9099319828007342  0.2502004991341802  0.0097646508547795   T   T   T
  0.7637672941924145  0.0945338208187822  0.5025359937919472   T   T   T
  0.9123191819833953  0.5834644114286135  0.0070301741526381   T   T   T
  0.7537216327986467  0.2606017402376934  0.3303689023880246   T   T   T
  0.0867109364021323  0.5929116091385562  0.9969601816242097   T   T   T
  0.0793022982100210  0.5814133181101736  0.1774850938224554   T   T   T
  0.9126100736729770  0.4151708293268198  0.5078021751626218   T   T   T
  0.5803530310360770  0.4082752533309056  0.1749325903774102   T   T   T
  0.2437507083264430  0.7503082756288464  0.8395170211269988   T   T   T
  0.0788282692909791  0.5843983708334036  0.5178869635181250   T   T   T
  0.7464791308458614  0.5846745622557169  0.5088437521540277   T   T   T
  0.5795532765605079  0.4147086337698994  0.8436427967030969   T   T   T
  0.9201052332114499  0.0957745556935565  0.3391688707783607   T   T   T
  0.5787787933561744  0.0865511442453085  0.5114241238810934   T   T   T
  0.7465471630250602  0.5826750310034161  0.1744050085031465   T   T   T
  0.2444218667097090  0.4162486746304055  0.8443409809425275   T   T   T
  0.5873726044636775  0.7601921857611055  0.9980024948605698   T   T   T
  0.9207988008500050  0.7599987828258242  0.9985023319140549   T   T   T
  0.4219418678724722  0.9264691422331043  0.6660102165715978   T   T   T
  0.4111763461312755  0.9189797816433463  0.5087998351688048   T   T   T
  0.2526906363046522  0.4257902160427535  0.3366845354852815   T   T   T
  0.2449202043412484  0.4164744287144736  0.5113150366598973   T   T   T
  0.7545236307773884  0.0958992098844248  0.1678724009164803   T   T   T
  0.0959272636384070  0.7592278055389439  0.5006717734290190   T   T   T
  0.0869864433219448  0.9278392317534605  0.3330166707837267   T   T   T
  0.2559708458044191  0.2590307899116362  0.8342607518686332   T   T   T
  0.2527010340869166  0.9262275702846521  0.8309860478128720   T   T   T
  0.9219256359895914  0.7686554882937686  0.6664976740957896   T   T   T
  0.0855927412770439  0.2617545531232788  0.6653806437872047   T   T   T
  0.9277074907242414  0.2602303139722765  0.1677850716327626   T   T   T
  0.4089142092151134  0.7492535124712588  0.6731315484840654   T   T   T
  0.7457154767603814  0.5811505832414332  0.8389756251044970   T   T   T
  0.2537829860783931  0.5931629980794099  0.1666913012744642   T   T   T
  0.0768654496457971  0.9164080150473377  0.5095867804797272   T   T   T
  0.9196193457352161  0.0928829031181051 -0.0048964034991468   T   T   T
  0.5852061511845765  0.2610553988516855  0.4995863956517677   T   T   T
  0.0762592787254115  0.5834253771057554  0.8387616888974554   T   T   T
  0.5872861874672860  0.0949885256271287  0.0019092101767693   T   T   T
  0.4115598062100128  0.7483440392277401  0.3416058047495422   T   T   T
  0.9198681600092588  0.4347251857931216  0.6640461060901857   T   T   T
  0.2525437495719955  0.5931011876818036  0.8303529369625900   T   T   T
  0.9100441579138149  0.0833369166145090  0.8362537284448709   T   T   T
  0.5778895846944125  0.7499546460992118  0.8400726406326724   T   T   T
  0.4098299700000000  0.4105500000000000  0.3493199900000000   F   F   F
  0.4210000000000000  0.5906100300000000  0.3288600100000000   F   F   F
  0.5893000400000000  0.4294100100000000  0.3294600000000000   F   F   F
  0.4098299700000000  0.5795900200000000  0.5097299800000000   F   F   F
  0.5778700100000000  0.5859400000000000  0.3337799900000000   F   F   F
  0.4100900300000000  0.4120700100000000  0.6862800100000001   F   F   F
  0.4212600000000000  0.4230700100000000  0.5054100200000000   F   F   F
  0.5893000400000000  0.5984500000000000  0.4898800000000000   F   F   F
  0.5781300100000000  0.5874400100000000  0.6707500199999999   F   F   F
  0.4212600000000000  0.5921099800000000  0.6658300200000000   F   F   F
  0.5895600300000000  0.4309099900000000  0.6664199800000000   F   F   F
  0.5781300100000000  0.4183900100000000  0.5103300200000001   F   F   F
  0.2458986880037552  0.7505743809426264  0.5079303275569879   T   T   T
  0.9137051605855414  0.9182264316679905  0.6734766730761371   T   T   T
  0.4126493637207554  0.2506720746971388  0.5115483483144381   T   T   T
  0.0769570137516179  0.2527456962246992  0.1747800807680144   T   T   T
  0.7460766278646572  0.2513977007089110  0.8420346007811820   T   T   T
  0.0823161945151853  0.5922303091873168  0.6673271173557641   T   T   T
  0.5884324315112323  0.2585197013627519  0.1690232560636186   T   T   T
  0.9186356272525155  0.0921641828434173  0.6595225849889234   T   T   T
  0.9203199317161636  0.4262995111519280  0.3353519642767697   T   T   T
  0.9163854685231779  0.5842367354075940  0.6715975435801534   T   T   T
  0.9125851114031202  0.0865116999341600  0.5184606694163089   T   T   T
 
  0.00000000E+00  0.00000000E+00  0.00000000E+00
  0.00000000E+00  0.00000000E+00  0.00000000E+00
  0.00000000E+00  0.00000000E+00  0.00000000E+00
  0.00000000E+00  0.00000000E+00  0.00000000E+00
  0.00000000E+00  0.00000000E+00  0.00000000E+00
  0.00000000E+00  0.00000000E+00  0.00000000E+00
  0.00000000E+00  0.00000000E+00  0.00000000E+00
  0.00000000E+00  0.00000000E+00  0.00000000E+00
  0.00000000E+00  0.00000000E+00  0.00000000E+00
  0.00000000E+00  0.00000000E+00  0.00000000E+00
  0.00000000E+00  0.00000000E+00  0.00000000E+00
  0.00000000E+00  0.00000000E+00  0.00000000E+00
  0.00000000E+00  0.00000000E+00  0.00000000E+00
  0.00000000E+00  0.00000000E+00  0.00000000E+00
  0.00000000E+00  0.00000000E+00  0.00000000E+00
  0.00000000E+00  0.00000000E+00  0.00000000E+00
  0.00000000E+00  0.00000000E+00  0.00000000E+00
  0.00000000E+00  0.00000000E+00  0.00000000E+00
  0.00000000E+00  0.00000000E+00  0.00000000E+00
  0.00000000E+00  0.00000000E+00  0.00000000E+00
  0.00000000E+00  0.00000000E+00  0.00000000E+00
  0.00000000E+00  0.00000000E+00  0.00000000E+00
  0.00000000E+00  0.00000000E+00  0.00000000E+00
  0.00000000E+00  0.00000000E+00  0.00000000E+00
  0.00000000E+00  0.00000000E+00  0.00000000E+00
  0.00000000E+00  0.00000000E+00  0.00000000E+00
  0.00000000E+00  0.00000000E+00  0.00000000E+00
  0.00000000E+00  0.00000000E+00  0.00000000E+00
  0.00000000E+00  0.00000000E+00  0.00000000E+00
  0.00000000E+00  0.00000000E+00  0.00000000E+00
  0.00000000E+00  0.00000000E+00  0.00000000E+00
  0.00000000E+00  0.00000000E+00  0.00000000E+00
  0.00000000E+00  0.00000000E+00  0.00000000E+00
  0.00000000E+00  0.00000000E+00  0.00000000E+00
  0.00000000E+00  0.00000000E+00  0.00000000E+00
  0.00000000E+00  0.00000000E+00  0.00000000E+00
  0.00000000E+00  0.00000000E+00  0.00000000E+00
  0.00000000E+00  0.00000000E+00  0.00000000E+00
  0.00000000E+00  0.00000000E+00  0.00000000E+00
  0.00000000E+00  0.00000000E+00  0.00000000E+00
  0.00000000E+00  0.00000000E+00  0.00000000E+00
  0.00000000E+00  0.00000000E+00  0.00000000E+00
  0.00000000E+00  0.00000000E+00  0.00000000E+00
  0.00000000E+00  0.00000000E+00  0.00000000E+00
  0.00000000E+00  0.00000000E+00  0.00000000E+00
  0.00000000E+00  0.00000000E+00  0.00000000E+00
  0.00000000E+00  0.00000000E+00  0.00000000E+00
  0.00000000E+00  0.00000000E+00  0.00000000E+00
  0.00000000E+00  0.00000000E+00  0.00000000E+00
  0.00000000E+00  0.00000000E+00  0.00000000E+00
  0.00000000E+00  0.00000000E+00  0.00000000E+00
  0.00000000E+00  0.00000000E+00  0.00000000E+00
  0.00000000E+00  0.00000000E+00  0.00000000E+00
  0.00000000E+00  0.00000000E+00  0.00000000E+00
  0.00000000E+00  0.00000000E+00  0.00000000E+00
  0.00000000E+00  0.00000000E+00  0.00000000E+00
  0.00000000E+00  0.00000000E+00  0.00000000E+00
  0.00000000E+00  0.00000000E+00  0.00000000E+00
  0.00000000E+00  0.00000000E+00  0.00000000E+00
  0.00000000E+00  0.00000000E+00  0.00000000E+00
  0.00000000E+00  0.00000000E+00  0.00000000E+00
  0.00000000E+00  0.00000000E+00  0.00000000E+00
  0.00000000E+00  0.00000000E+00  0.00000000E+00
  0.00000000E+00  0.00000000E+00  0.00000000E+00
  0.00000000E+00  0.00000000E+00  0.00000000E+00
  0.00000000E+00  0.00000000E+00  0.00000000E+00
  0.00000000E+00  0.00000000E+00  0.00000000E+00
  0.00000000E+00  0.00000000E+00  0.00000000E+00
  0.00000000E+00  0.00000000E+00  0.00000000E+00
  0.00000000E+00  0.00000000E+00  0.00000000E+00
  0.00000000E+00  0.00000000E+00  0.00000000E+00
  0.00000000E+00  0.00000000E+00  0.00000000E+00
  0.00000000E+00  0.00000000E+00  0.00000000E+00
  0.00000000E+00  0.00000000E+00  0.00000000E+00
  0.00000000E+00  0.00000000E+00  0.00000000E+00
  0.00000000E+00  0.00000000E+00  0.00000000E+00
  0.00000000E+00  0.00000000E+00  0.00000000E+00
  0.00000000E+00  0.00000000E+00  0.00000000E+00
  0.00000000E+00  0.00000000E+00  0.00000000E+00
  0.00000000E+00  0.00000000E+00  0.00000000E+00
  0.00000000E+00  0.00000000E+00  0.00000000E+00
  0.00000000E+00  0.00000000E+00  0.00000000E+00
  0.00000000E+00  0.00000000E+00  0.00000000E+00
  0.00000000E+00  0.00000000E+00  0.00000000E+00
  0.00000000E+00  0.00000000E+00  0.00000000E+00
  0.00000000E+00  0.00000000E+00  0.00000000E+00
  0.00000000E+00  0.00000000E+00  0.00000000E+00
  0.00000000E+00  0.00000000E+00  0.00000000E+00
  0.00000000E+00  0.00000000E+00  0.00000000E+00
  0.00000000E+00  0.00000000E+00  0.00000000E+00
  0.00000000E+00  0.00000000E+00  0.00000000E+00
  0.00000000E+00  0.00000000E+00  0.00000000E+00
  0.00000000E+00  0.00000000E+00  0.00000000E+00
  0.00000000E+00  0.00000000E+00  0.00000000E+00
  0.00000000E+00  0.00000000E+00  0.00000000E+00
  0.00000000E+00  0.00000000E+00  0.00000000E+00
  0.00000000E+00  0.00000000E+00  0.00000000E+00
  0.00000000E+00  0.00000000E+00  0.00000000E+00
  0.00000000E+00  0.00000000E+00  0.00000000E+00
  0.00000000E+00  0.00000000E+00  0.00000000E+00
  0.00000000E+00  0.00000000E+00  0.00000000E+00
  0.00000000E+00  0.00000000E+00  0.00000000E+00
  0.00000000E+00  0.00000000E+00  0.00000000E+00
  0.00000000E+00  0.00000000E+00  0.00000000E+00
  0.00000000E+00  0.00000000E+00  0.00000000E+00
  0.00000000E+00  0.00000000E+00  0.00000000E+00
  0.00000000E+00  0.00000000E+00  0.00000000E+00
  0.00000000E+00  0.00000000E+00  0.00000000E+00
  0.00000000E+00  0.00000000E+00  0.00000000E+00
  0.00000000E+00  0.00000000E+00  0.00000000E+00
  0.00000000E+00  0.00000000E+00  0.00000000E+00
  0.00000000E+00  0.00000000E+00  0.00000000E+00
  0.00000000E+00  0.00000000E+00  0.00000000E+00
  0.00000000E+00  0.00000000E+00  0.00000000E+00
  0.00000000E+00  0.00000000E+00  0.00000000E+00
  0.00000000E+00  0.00000000E+00  0.00000000E+00
  0.00000000E+00  0.00000000E+00  0.00000000E+00
  0.00000000E+00  0.00000000E+00  0.00000000E+00
  0.00000000E+00  0.00000000E+00  0.00000000E+00
  0.00000000E+00  0.00000000E+00  0.00000000E+00
  0.00000000E+00  0.00000000E+00  0.00000000E+00
  0.00000000E+00  0.00000000E+00  0.00000000E+00
  0.00000000E+00  0.00000000E+00  0.00000000E+00
  0.00000000E+00  0.00000000E+00  0.00000000E+00
  0.00000000E+00  0.00000000E+00  0.00000000E+00
  0.00000000E+00  0.00000000E+00  0.00000000E+00
  0.00000000E+00  0.00000000E+00  0.00000000E+00
  0.00000000E+00  0.00000000E+00  0.00000000E+00
  0.00000000E+00  0.00000000E+00  0.00000000E+00
  0.00000000E+00  0.00000000E+00  0.00000000E+00
  0.00000000E+00  0.00000000E+00  0.00000000E+00
  0.00000000E+00  0.00000000E+00  0.00000000E+00
  0.00000000E+00  0.00000000E+00  0.00000000E+00
  0.00000000E+00  0.00000000E+00  0.00000000E+00
  0.00000000E+00  0.00000000E+00  0.00000000E+00
  0.00000000E+00  0.00000000E+00  0.00000000E+00
  0.00000000E+00  0.00000000E+00  0.00000000E+00
  0.00000000E+00  0.00000000E+00  0.00000000E+00
  0.00000000E+00  0.00000000E+00  0.00000000E+00
  0.00000000E+00  0.00000000E+00  0.00000000E+00
  0.00000000E+00  0.00000000E+00  0.00000000E+00
  0.00000000E+00  0.00000000E+00  0.00000000E+00
  0.00000000E+00  0.00000000E+00  0.00000000E+00
  0.00000000E+00  0.00000000E+00  0.00000000E+00
  0.00000000E+00  0.00000000E+00  0.00000000E+00
  0.00000000E+00  0.00000000E+00  0.00000000E+00
  0.00000000E+00  0.00000000E+00  0.00000000E+00
  0.00000000E+00  0.00000000E+00  0.00000000E+00
  0.00000000E+00  0.00000000E+00  0.00000000E+00
  0.00000000E+00  0.00000000E+00  0.00000000E+00
  0.00000000E+00  0.00000000E+00  0.00000000E+00
  0.00000000E+00  0.00000000E+00  0.00000000E+00
  0.00000000E+00  0.00000000E+00  0.00000000E+00
  0.00000000E+00  0.00000000E+00  0.00000000E+00
  0.00000000E+00  0.00000000E+00  0.00000000E+00
  0.00000000E+00  0.00000000E+00  0.00000000E+00
  0.00000000E+00  0.00000000E+00  0.00000000E+00
  0.00000000E+00  0.00000000E+00  0.00000000E+00
  0.00000000E+00  0.00000000E+00  0.00000000E+00
  0.00000000E+00  0.00000000E+00  0.00000000E+00
  0.00000000E+00  0.00000000E+00  0.00000000E+00
  0.00000000E+00  0.00000000E+00  0.00000000E+00
  0.00000000E+00  0.00000000E+00  0.00000000E+00
  0.00000000E+00  0.00000000E+00  0.00000000E+00
  0.00000000E+00  0.00000000E+00  0.00000000E+00
  0.00000000E+00  0.00000000E+00  0.00000000E+00
  0.00000000E+00  0.00000000E+00  0.00000000E+00
  0.00000000E+00  0.00000000E+00  0.00000000E+00
  0.00000000E+00  0.00000000E+00  0.00000000E+00
  0.00000000E+00  0.00000000E+00  0.00000000E+00
  0.00000000E+00  0.00000000E+00  0.00000000E+00
  0.00000000E+00  0.00000000E+00  0.00000000E+00
  0.00000000E+00  0.00000000E+00  0.00000000E+00
  0.00000000E+00  0.00000000E+00  0.00000000E+00
  0.00000000E+00  0.00000000E+00  0.00000000E+00
  0.00000000E+00  0.00000000E+00  0.00000000E+00
  0.00000000E+00  0.00000000E+00  0.00000000E+00
  0.00000000E+00  0.00000000E+00  0.00000000E+00
  0.00000000E+00  0.00000000E+00  0.00000000E+00
  0.00000000E+00  0.00000000E+00  0.00000000E+00
  0.00000000E+00  0.00000000E+00  0.00000000E+00
  0.00000000E+00  0.00000000E+00  0.00000000E+00
  0.00000000E+00  0.00000000E+00  0.00000000E+00
  0.00000000E+00  0.00000000E+00  0.00000000E+00
  0.00000000E+00  0.00000000E+00  0.00000000E+00
  0.00000000E+00  0.00000000E+00  0.00000000E+00
  0.00000000E+00  0.00000000E+00  0.00000000E+00
  0.00000000E+00  0.00000000E+00  0.00000000E+00
  0.00000000E+00  0.00000000E+00  0.00000000E+00
  0.00000000E+00  0.00000000E+00  0.00000000E+00
  0.00000000E+00  0.00000000E+00  0.00000000E+00
  0.00000000E+00  0.00000000E+00  0.00000000E+00
  0.00000000E+00  0.00000000E+00  0.00000000E+00
  0.00000000E+00  0.00000000E+00  0.00000000E+00
  0.00000000E+00  0.00000000E+00  0.00000000E+00
  0.00000000E+00  0.00000000E+00  0.00000000E+00
  0.00000000E+00  0.00000000E+00  0.00000000E+00
  0.00000000E+00  0.00000000E+00  0.00000000E+00
  0.00000000E+00  0.00000000E+00  0.00000000E+00
  0.00000000E+00  0.00000000E+00  0.00000000E+00
  0.00000000E+00  0.00000000E+00  0.00000000E+00
  0.00000000E+00  0.00000000E+00  0.00000000E+00
  0.00000000E+00  0.00000000E+00  0.00000000E+00
  0.00000000E+00  0.00000000E+00  0.00000000E+00
  0.00000000E+00  0.00000000E+00  0.00000000E+00
  0.00000000E+00  0.00000000E+00  0.00000000E+00
  0.00000000E+00  0.00000000E+00  0.00000000E+00
  0.00000000E+00  0.00000000E+00  0.00000000E+00
  0.00000000E+00  0.00000000E+00  0.00000000E+00
  0.00000000E+00  0.00000000E+00  0.00000000E+00
  0.00000000E+00  0.00000000E+00  0.00000000E+00
  0.00000000E+00  0.00000000E+00  0.00000000E+00
  0.00000000E+00  0.00000000E+00  0.00000000E+00
  0.00000000E+00  0.00000000E+00  0.00000000E+00
  0.00000000E+00  0.00000000E+00  0.00000000E+00
  0.00000000E+00  0.00000000E+00  0.00000000E+00
 
           1
   4.00000000000000     
  0.10000000E+01  0.00000000E+00  0.00000000E+00  0.00000000E+00
  0.74653434E+00  0.91896241E+00  0.51165311E+00
  0.58887407E+00  0.76164160E+00  0.33109055E+00
  0.91072351E+00  0.91827425E+00  0.79136039E-02
  0.24472574E+00  0.25023398E+00  0.11532945E-01
  0.74500418E+00  0.91933495E+00  0.84220670E+00
  0.24338239E+00  0.91643548E+00  0.81853789E-02
  0.67168820E-01  0.83413872E-01  0.67450498E+00
  0.75608176E+00  0.25988273E+00  0.66814516E+00
  0.41189982E+00  0.58209402E+00  0.17335835E+00
  0.42018555E+00  0.93938399E-01  0.16893495E+00
  0.25361499E+00  0.60074030E+00  0.50160116E+00
  0.42014839E+00  0.25628952E+00  0.33875651E+00
  0.57770809E+00  0.88057037E-01  0.17799654E+00
  0.41020258E+00  0.91675949E+00  0.84151041E+00
  0.26155107E+00  0.26025206E+00  0.50209941E+00
  0.91817685E+00  0.25923527E+00  0.83167934E+00
  0.57935156E+00  0.25095517E+00  0.19481006E-01
  0.77396132E-01  0.91919109E+00  0.17535452E+00
  0.75513838E-01  0.25085269E+00  0.84444117E+00
  0.57809688E+00  0.84633661E-01  0.84395962E+00
  0.75373001E+00  0.76184415E+00  0.83234489E+00
  0.57554439E+00  0.75420354E+00  0.50646034E+00
  0.75016817E+00  0.83397241E-01  0.67745431E+00
  0.58711625E+00  0.93015914E+00  0.16728382E+00
  0.92207551E+00  0.59202630E+00  0.16536637E+00
  0.42369764E+00  0.42460464E+00  0.16995790E+00
  0.75499831E+00  0.59268630E+00  0.99691388E+00
  0.91264580E+00  0.91765786E+00  0.34715142E+00
  0.24253258E+00  0.83501099E-01  0.84212034E+00
  0.58886126E+00  0.76148427E+00  0.66383193E+00
  0.87240475E-01  0.42770199E+00  0.49903781E+00
  0.80149172E-01  0.25117582E+00  0.50794349E+00
  0.76615115E+00  0.59298641E+00  0.66563862E+00
  0.41179100E+00  0.41537350E+00  0.13596160E-01
  0.76118033E-01  0.84487410E-01  0.99131645E-02
  0.58888444E+00  0.59166926E+00  0.16242963E+00
  0.24182854E+00  0.82081092E-01  0.50924327E+00
  0.24401336E+00  0.58348385E+00  0.93285433E-02
  0.42075531E+00  0.59289189E+00  0.99765378E+00
  0.58888031E+00  0.92917829E+00  0.50022315E+00
  0.91092104E+00  0.25366837E+00  0.34348261E+00
  0.41423578E+00  0.25028914E+00  0.84366043E+00
  0.77660067E-01  0.75008458E+00  0.93401246E-02
  0.87334520E-01  0.59207624E+00  0.33517506E+00
  0.42218571E+00  0.42561737E+00  0.83961125E+00
  0.75728512E+00  0.42526685E+00  0.16582076E+00
  0.78858639E-01  0.74934992E+00  0.34476934E+00
  0.74678316E+00  0.74957851E+00  0.67508613E+00
  0.74470300E+00  0.91863054E+00  0.17673598E+00
  0.91235847E+00  0.75015940E+00  0.17669265E+00
  0.86662988E-01  0.75957092E+00  0.83038371E+00
  0.24431851E+00  0.58302521E+00  0.34583922E+00
  0.75388228E+00  0.25918858E+00  0.99199448E+00
  0.75491065E+00  0.76075241E+00  0.16604990E+00
  0.91946380E+00  0.92652126E+00  0.82297492E+00
  0.74453545E+00  0.84395940E-01  0.10526950E-01
  0.42008491E+00  0.75933133E+00  0.83039575E+00
  0.41032546E+00  0.58294357E+00  0.84103072E+00
  0.92292904E+00  0.59539113E+00  0.50349373E+00
  0.57887200E+00  0.74920172E+00  0.17333807E+00
  0.88353179E-01  0.42364154E+00  0.16786007E+00
  0.42118886E+00  0.92613064E+00  0.33346272E+00
  0.69722418E-01  0.41661651E+00  0.34262434E+00
  0.25365376E+00  0.93746292E-01  0.33459253E+00
  0.87447860E-01  0.76163117E+00  0.16714319E+00