Amorphous Sb                            
   1.00000000000000     
    22.3283632703415051    0.0000000000000000    0.0000000000000000
     0.0000000000000000   22.3283632703415051    0.0000000000000000
     0.0000000000000000    0.0000000000000000   22.3283632703415051
   Sb   Te
   120   180
Direct
  0.9335968730590199  0.6936534857800857  0.4294270689813872
  0.3532842385965906  0.1247413622425485  0.3526232758104337
  0.9665039428476542  0.8951973550086735  0.7684671985142287
  0.0348731267590238  0.6046520474353589  0.0136900592634672
  0.3933142577075726  0.4823263440788929  0.8752982964229089
  0.5893030007700701  0.8911119442114033  0.7335127196019625
  0.9727974942814590  0.2728042183729210  0.9159643489657774
  0.5941849284547216  0.6242229166335415  0.7276215484801591
  0.0888365336789825  0.1968753326123582  0.4194749264147860
  0.5001609707901287  0.3866902277700676  0.0454444473356793
  0.1165013744231539  0.9725846521698330  0.8040661554632396
  0.0735194245225209  0.8209171917515115  0.2164684364899898
  0.6471184086015834  0.3815774762045782  0.5566492271880837
  0.6997884676989705  0.1511086775463245  0.7726001333751932
  0.4954580254888764  0.2009999342898180  0.9693281350899933
  0.3450626769051215  0.2879517430842853  0.0706313301955161
  0.7659731957680467  0.0136942174766777  0.4830571199537469
  0.2143097504648392  0.8754165588128053  0.2945951222259721
  0.5195102207907580  0.7226414630079014  0.6883259646536398
  0.3663943240834507  0.6849626826572610  0.3171079630303257
  0.4248115918911214  0.5116825966018118  0.1480193344780769
  0.2249971469529401  0.8024012708804446  0.1459418163222597
  0.1121167252107845  0.5494194210713903  0.5495356082942678
  0.9550304799391370  0.8719267788087516  0.2301721409621061
  0.3104827695434221  0.6208491615237880  0.8870941760826743
  0.7300627119820050  0.1392665911827701  0.4952951496741970
  0.8505867182567001  0.8983713497683572  0.5982195363695313
  0.0207716514753994  0.9335656739444962  0.5320872205903123
  0.4820995747440927  0.6607326170215759  0.2592736040905204
  0.8479072357391441  0.2766825741408848  0.0180907098632314
  0.7562370776779150  0.3618139811412924  0.9302809957417160
  0.5010639144640826  0.9561963843060532  0.4467371742437060
  0.6954149618272226  0.8804902395590006  0.3445237980499067
  0.9403445129364183  0.4338182101547853  0.3670859954037130
  0.1071350139768995  0.7984751395980849  0.5854816587660011
  0.0976149391665557  0.7587299878154075  0.3753848476775046
  0.8332417097820731  0.9645509240260890  0.1052200163782753
  0.8016905188280335  0.9398136871132454  0.3018504681804194
  0.7284122888467909  0.6390541606714213  0.4175978708944979
  0.7355924548200670  0.6029627565671365  0.8886187742729414
  0.3783947887995772  0.9866305807308547  0.3169515810053544
  0.9427845754167664  0.2184314073908432  0.7102349707757948
  0.2427641542687268  0.6303584230272632  0.6787251547486747
  0.9094077400501192  0.7722090209674483  0.1617042659769964
  0.8458216969771223  0.5010300701820913  0.8360433106001610
  0.2487003941771421  0.3100448339757955  0.8117164962250882
  0.8679571773730695  0.3198975454238049  0.7508105110983243
  0.6159102125062700  0.5536271332584920  0.6162716275536442
  0.5671121305949552  0.0943416277645019  0.1826113779640317
  0.4148159763206237  0.7915563579225700  0.3828331654548889
  0.0241804353362125  0.2545532104910405  0.5340956742860256
  0.5342026969022383  0.9656434354211823  0.5965207372711837
  0.6104207267608953  0.7807481747114363  0.4405252610011631
  0.4042312458717166  0.8177034284134483  0.6293979130416001
  0.2552439399062293  0.6166401741137597  0.1380671496792510
  0.5228326039794964  0.7985771106607977  0.1199458289501212
  0.2832943359908665  0.9028713817117617  0.8117055324589805
  0.5542860145121089  0.5179012560169423  0.0811670111354997
  0.7486629939654593  0.4366087672997593  0.4141451722892038
  0.5628039001311500  0.1668881600552370  0.5567689782428670
  0.2324757917904150  0.3228486694462780  0.0147729573313275
  0.9596767667931123  0.5663521516158845  0.6653435125224281
  0.0812743271340483  0.0051093945053426  0.3633798638538541
  0.5114311145052599  0.5552902613791786  0.5366642558356320
  0.1535355485588472  0.1143789747161725  0.3372997393435783
  0.8380292384598431  0.7141341139395049  0.7768975598778114
  0.5058800945950802  0.2053569177011071  0.1504419461686994
  0.0194038795160185  0.7297463122016640  0.8233493744168968
  0.0444783074384089  0.1454011210504218  0.2472733255263485
  0.2756185049661192  0.3885850581365886  0.4273037211897898
  0.1794496819153290  0.6283270454568209  0.8791758694184877
  0.8378413175306659  0.3045606960714511  0.5521854813274538
  0.9022246178050415  0.5184360694624964  0.1067394778252975
  0.6278113033566034  0.6901185151824596  0.5348578366230408
  0.8330964213721335  0.5710919644163617  0.6304348894857058
  0.1134213915156998  0.4424700813853680  0.9363930826880238
  0.4015568285038465  0.7496278900065906  0.0525575441760088
  0.6086813446883371  0.9388375903345124  0.9910718427195047
  0.6302852037713548  0.1172054321626605  0.8786001238992680
  0.6273787870902187  0.5267270952718226  0.1870461370604659
  0.5970237157990123  0.7039628591449741  0.0648975962196227
  0.1969349960569311  0.1145979942782592  0.1837309111238822
  0.8689513987379891  0.7890110884228824  0.4918397494041917
  0.2023455737514794  0.6344981622004773  0.5006627903858499
  0.4551022055881097  0.9381343407577789  0.8479639532469512
  0.4877324922639242  0.3044215592652382  0.4830933323822419
  0.1856347651282987  0.5164579895640616  0.8105322836517498
  0.4197917281197667  0.0279040531369616  0.5531317532155334
  0.8169101607570175  0.2167237208211717  0.1904339591158346
  0.1255575298827448  0.5616192639450377  0.3412039262563443
  0.6012612959602581  0.9749943699624265  0.8335110666327170
  0.1634413630678215  0.0527883759738996  0.6192336424186414
  0.7298295169774184  0.9554096415328870  0.8466816907864261
  0.7405982501407455  0.3580627447617166  0.2942419294347115
  0.6858687948720253  0.1585901727116800  0.3077689125464247
  0.3031670755589347  0.8481760912863066  0.5449792349096246
  0.9653632106124149  0.2187744400340765  0.0571470373000849
  0.4087833419214142  0.3428406436406736  0.6610763756587439
  0.0576254622600822  0.1423022374711647  0.7818325708449220
  0.8520843778854624  0.4426038023284353  0.6249644135957594
  0.7706719113180700  0.6644062675893176  0.1350104794292885
  0.2878054885608421  0.3193085650453690  0.6159643057902146
  0.3480094523076268  0.1482157704981802  0.6763194005133921
  0.3520319514557770  0.0576956060264055  0.9128957682372066
  0.5003683951596650  0.0296067273437388  0.0927558724845571
  0.6737981744215716  0.7639827538022741  0.8307239392083037
  0.8441979473068213  0.6073950751808981  0.2703096525924610
  0.5133318303835220  0.5127929195539892  0.2507377887248468
  0.9754759397348188  0.9439959174605987  0.9549616314960164
  0.5361512643327108  0.1152958246093371  0.3810595569149999
  0.9239279432649683  0.4602264442833331  0.7349144380404378
  0.3118452502685159  0.7135836060742057  0.7911741384191769
  0.8304344872761859  0.5270229389074483 -0.0001914557380852
  0.1672549629207633  0.8801579245337097  0.9688429279230806
  0.5092894920572247  0.4632953706869885  0.8183535228448149
  0.2684936484568256  0.9729552302700619  0.1576619191283342
  0.1388612787542192  0.8817017140564013  0.7080774960935178
  0.5119398272305490  0.6652776336272992  0.3866843648068989
  0.9282758075567455  0.0030726590838558  0.5909566928602610
  0.6395893253461740 -0.0015868117975869  0.3448806716868658
  0.0450745967355964  0.7151649685697737  0.9507050793545850
  0.2862663287859328  0.5631795021512447  0.5731444834512417
  0.7550506733449082  0.1072026455413801  0.2100074584860087
  0.0776213415135180  0.0423208622103790  0.4868712059854468
  0.3830277515706217  0.2311335933659655  0.5851881902736213
  0.2071776149556935  0.2134717534762058  0.4797604466900422
  0.2413888997246159  0.9382132337049295  0.6573837849036708
  0.3689430444501338  0.0236057977473429  0.7906672655359499
  0.1449601847781676  0.3821713274598287  0.4127283551024045
  0.7930382459992651  0.7056242328220645  0.5535698404018887
  0.4993279944386708  0.7555539886825606  0.9616956106830438
  0.4804448732709695  0.6429282456787223  0.0766016096674142
  0.9755551333417500  0.4687825697679781  0.5788859927897860
  0.2031984062190502  0.4595293537661011  0.5599486245205438
  0.4312380452906667  0.3097798600065492  0.3544975191588045
  0.0516282906700288  0.5224999247104657  0.4407208335370950
  0.2447690013280347  0.0692173163695375  0.0751824043634755
  0.7965533316810236  0.7889290358258282  0.2274162291409199
  0.6185650338325147  0.0737355369961281  0.0659157832032819
  0.4138501692429339  0.3829616540029794  0.1513863144548145
  0.2438753941041394  0.4049847500267774  0.9131029087820176
  0.2155498317955544  0.0465098633344189  0.7391798306611527
  0.3725212415621013  0.9448708808139222  0.4561845316445609
  0.4988488419155189  0.6813455044679881  0.5516603679985144
  0.4502306021917937  0.4758537295183676  0.6935971272505672
  0.8208366035662810  0.7178725594745510  0.3654219316596395
  0.7304027240737048  0.4451261972568374  0.8340084230054589
  0.1459235182896617  0.4479545141899520  0.2810515878309476
  0.8353722933972111  0.1533000062482819  0.6758037788174320
  0.9430249483527438  0.8114589546671213  0.5979342198743576
  0.3818931642093367  0.0220778347917935  0.1888580131540083
  0.5896952232064837  0.9104768614530439  0.1195356585236372
  0.1745175993261010  0.1317364636234173  0.8360466961681475
  0.8788644573109545  0.4001384465695083  0.9206541477027110
  0.6040754741929903  0.2173809991930705  0.4221497508683427
  0.7673306884238509  0.2800168806341513  0.6741713834567340
  0.5942041622151526  0.3317317361789959  0.3331381244731030
  0.7819668677948126  0.1801463571679915  0.0680748231091598
  0.7034510615780830  0.4990424450398344  0.5180947773140584
  0.4036825564020819  0.3877708546902792  0.5369266025721910
  0.6755348706206871  0.1360876918334943  0.6097435923507979
  0.6269244089744628  0.0267934044061443  0.4738173660728462
  0.4010607848430751  0.4626635091090057  0.0008671756120610
  0.9884536828310592  0.5162030204084328  0.9333918543064437
  0.6201862378705680  0.6571605799014529  0.8813391477951732
  0.6350773376942173  0.7859389236046662  0.6208700875863610
  0.9025788246800531  0.1212474430061488  0.1094065739752164
  0.9405061071659115  0.9258382109849693  0.4240326341011462
  0.7363684071238584  0.4286051849112367  0.0433477904451561
  0.0991533491241994  0.3494635844927398  0.6779020174604610
  0.8463875340051665  0.6004481271550299  0.5036601391595720
  0.7365832447404854  0.5425321415132226  0.3318694854249938
  0.1621325012369279  0.7355144277091724  0.7672645525198833
  0.4040577613833564  0.5950262311407550  0.4005203490044416
  0.2130754413225913  0.3921061333330375  0.7168585089973289
  0.8454564621744980  0.9732819184863013  0.9823280275875300
  0.1249853924298647  0.5576409456082315  0.7059357909840186
  0.5891452219114960  0.5723555780692230  0.4342119363166681
  0.3315675826460389  0.7499830856234159  0.4683208444283349
  0.6417729379238060  0.2436927407749120  0.9122427380420672
  0.1319509958753398  0.2201236582007775  0.1473902837314433
  0.2999204279050163  0.6813596336945347  0.0043677136671869
  0.3638993321542174  0.3581227471194642  0.7970278803839743
  0.7259116061533744  0.6003504963435612  0.0316931953519176
  0.6937892036568225  0.7010916049771904  0.7007206050834475
  0.0955889485722934  0.2894586599220345  0.9614678417369106
  0.0532464096795520  0.0427804202414852  0.9761748671412066
  0.4800896857498161  0.5809167457951603  0.8606074491055149
  0.7068974625525463  0.9610604967426957  0.2201678666529588
  0.2339701203573369  0.7885078105100625  0.8648987287062503
  0.1479782324142307  0.4975414577897131  0.1581365086755109
  0.0558113757467099  0.7904452412729921  0.0937368740233042
  0.1706787751320870  0.7388957820103670  0.0488732570474995
  0.4263473351566046  0.6411685247825435  0.7371821313462735
  0.9552967405948013  0.9341235894621613  0.1159900628335358
  0.9587130990033810  0.2397725061189394  0.2623677762025363
  0.8985848524108108  0.0407764604995963  0.4723274049171342
  0.2068548554169731  0.9818216166535377  0.8979962860906063
  0.1614775758828487  0.5530361947492561  0.9873913364164241
  0.9143414699199885  0.8049034231627816  0.8476679356182651
  0.0057731205604788  0.3356058411455922  0.8089408148404833
  0.0000481279227204  0.1400978933438975  0.5972593394852225
  0.0882207180040607  0.2979812558858678  0.3395259652472593
  0.5582895130421217  0.2846156970270577  0.6051182766009254
  0.6521529962751574  0.7090193521514535  0.3402460802988669
  0.8010255214239557  0.5195427654712089  0.1807605923730359
  0.3530780378286166  0.8518555537327763  0.2861216795562307
  0.5741770880702823  0.3994905114930860  0.9271327783564404
  0.1205059651929917  0.9389761071585070  0.2209652796750353
  0.8629327999529746  0.4524092601626810  0.4674896194683112
  0.9876144282562491  0.3015330942255618  0.1490012046474404
  0.5155685234564706  0.8550368340487211  0.5285185774788994
  0.4473006629594221  0.1775523878950222  0.7869984831039927
  0.6067338314965595  0.0449210710343880  0.7189310753684743
  0.3846081463061226  0.8249715229152731  0.7603133998166547
  0.2870092989405214  0.0841147381426677  0.5794357066091395
  0.1747061922116363  0.6679987579310188  0.2246886882277602
  0.5605901449385716  0.4020414214993700  0.4424186710578824
  0.6328137788737360  0.4985978044998641  0.9800250958961283
  0.7209304926868613  0.3076962697525819  0.1693054572959480
  0.2464691916450369  0.2263783201578440  0.6985393984341293
  0.8349292613065273  0.3651430566581020  0.1102625266828690
  0.7992633617707274  0.7139122143758830  0.8978884449599063
  0.7118670185500582  0.8515602198013971  0.4692631415987508
  0.3085560533762522  0.1680824750145017  0.2233491927177137
  0.8358850919596539  0.2593039888489586  0.8600553414655765
  0.8996889609239821  0.6332900172102671  0.0489223137835430
  0.1231086487033689  0.3523920033131347  0.5510333417931474
  0.8493241426541651  0.1736706081471776  0.5446012316941634
  0.9358927140347876  0.6345052730332139  0.7944569969656119
  0.6882381987979646  0.8545188837568284  0.9371421096629400
  0.4923807574689282  0.1031790811472462  0.6494425037735866
  0.0705527523849702  0.8661007887820409  0.8799461058240622
  0.9765441491523630  0.8018437454445708  0.3626629723008210
  0.2494443354733996 -0.0032834151583254  0.3220059383131553
  0.3059240865982736  0.5485376485762153  0.7595143214659698
  0.0461436798172349  0.5436431822903625  0.8202165977482623
  0.0848402541386518  0.3841722128078197  0.0465517479179328
  0.0785427496808354  0.5981908552804459  0.1788988518522512
  0.3631634139403581  0.1849215772600057  0.8869495448937509
  0.9533642459921859  0.6743206054879971  0.2281856084907879
  0.7673101813585390  0.5931281800488200  0.7596838306499816
  0.5265087494429285  0.9332596556924673  0.3225507362094595
  0.8215175665398765  0.1409202772638042  0.8188456800241121
  0.2410128574561106  0.0979952671418412  0.4343423720565007
  0.5721556098932432  0.4455028031795865  0.6711315756196876
  0.3627267365617379  0.6835582309504958  0.6315896498006049
  0.3312970510899054  0.5575773074558948  0.2250261907480758
  0.4951147348900042  0.8811317041945287  0.9672963168258809
  0.1082654913762657  0.2531166046996702  0.8152183372221039
  0.7817637073513615  0.2429470299049452  0.3321256036907350
  0.2696740799584188  0.2015668940635492 -0.0025630209501049
  0.4110949708785291  0.4358666842021786  0.3588560546071001
  0.9348632243752091 -0.0063028071129302  0.8420969372327552
  0.1578388903150077  0.8624075174151419  0.4122245760444381
  0.7446585485045314  0.8546770308190873  0.1310091133984727
  0.6215381802656067  0.2444888976889106  0.2305140405753132
  0.9332719035075724  0.2915760743546703  0.4480861722500515
  0.7204888396542440  0.4000814533538931  0.6676179812786814
  0.9432156262614616  0.5602111214708441  0.3359908832099106
  0.4936755492961243  0.2944194319976849  0.8022444380044175
  0.3166718505922709  0.2652105317649247  0.4066184813743171
  0.6195951419631539  0.2786372329048036  0.7942285738202121
  0.0722287032085605  0.7101679482335154  0.4919354415047312
  0.2871700272416723  0.8829326672977245  0.0662791902826038
  0.4249608621634561  0.9476895779382202  0.6621741103356289
  0.7262761512382732  0.3071788092488406  0.4836923064191261
  0.3539839317152838  0.8961739768038943  0.9173409922475495
  0.7791162508772419  0.0543238174160674  0.3621178823649283
  0.6479048621942133  0.6662716500693571  0.1804548257378936
  0.0335647087244255  0.1015376625111472  0.1292586847193086
  0.0739546549951373  0.7034957644347899  0.6620876882796076
  0.7141922985107605  0.8710409012573630  0.7361075915780553
  0.0543722268445784 -0.0263761461609981  0.6704569069323624
  0.4368463225025250  0.1331333954576202  0.4605971124771335
  0.4660564063326396  0.1622442148219310  0.2855612360241021
  0.7259247652309149  0.0583777939557866  0.9356315532285521
  0.2372515963241049  0.5624455082828205  0.4003048230206794
  0.5481958635487262  0.7883554034498639  0.8046711650859952
  0.4232044404998663  0.3102042871275236  0.9681687578519420
  0.2273023276990264  0.7613878573325003  0.6052066148069610
  0.4281714206317505  0.1413673967024884  0.0641941570642016
  0.5789051318308917  0.2510332360683750  0.0545490588921567
  0.2710206636766528  0.2786854275484141  0.2718244194803792
  0.2178915403862781  0.3130593357502275  0.1598571996561663
  0.5291154087313830  0.7794705699325806  0.2462553873913985
  0.9494340315187315  0.1734667235904378  0.3846011573609870
  0.5725867251499761  0.4031851157161309  0.2190303975457402
  0.1145409907632847  0.1744328935584910  0.6429250865615711
  0.8705631111597284  0.3750674879051577  0.2774703254045723
  0.9802700074993967  0.1462924814076985  0.8878710804910103
  0.8521156979544035  0.9280138970055648  0.7224040995903860
  0.4776230912032465  0.0365028963550122  0.9295491785366795
  0.9732146765242093  0.0582919191524859  0.3129960753542624
  0.7486638174666197  0.7565376365068023  0.0476512081222340
  0.9613004857655801  0.3186708593310576  0.6331604727786558
  0.3230257062673642  0.7236370881706841  0.1699844622107649
  0.2917716453521825  0.4345577659707393  0.3099771936360077
  0.0993061621496966  0.9517840081354926  0.0513795088351239
  0.7358636285294919  0.0323790591359620  0.7338127344859992
 
  0.00000000E+00  0.00000000E+00  0.00000000E+00
  0.00000000E+00  0.00000000E+00  0.00000000E+00
  0.00000000E+00  0.00000000E+00  0.00000000E+00
  0.00000000E+00  0.00000000E+00  0.00000000E+00
  0.00000000E+00  0.00000000E+00  0.00000000E+00
  0.00000000E+00  0.00000000E+00  0.00000000E+00
  0.00000000E+00  0.00000000E+00  0.00000000E+00
  0.00000000E+00  0.00000000E+00  0.00000000E+00
  0.00000000E+00  0.00000000E+00  0.00000000E+00
  0.00000000E+00  0.00000000E+00  0.00000000E+00
  0.00000000E+00  0.00000000E+00  0.00000000E+00
  0.00000000E+00  0.00000000E+00  0.00000000E+00
  0.00000000E+00  0.00000000E+00  0.00000000E+00
  0.00000000E+00  0.00000000E+00  0.00000000E+00
  0.00000000E+00  0.00000000E+00  0.00000000E+00
  0.00000000E+00  0.00000000E+00  0.00000000E+00
  0.00000000E+00  0.00000000E+00  0.00000000E+00
  0.00000000E+00  0.00000000E+00  0.00000000E+00
  0.00000000E+00  0.00000000E+00  0.00000000E+00
  0.00000000E+00  0.00000000E+00  0.00000000E+00
  0.00000000E+00  0.00000000E+00  0.00000000E+00
  0.00000000E+00  0.00000000E+00  0.00000000E+00
  0.00000000E+00  0.00000000E+00  0.00000000E+00
  0.00000000E+00  0.00000000E+00  0.00000000E+00
  0.00000000E+00  0.00000000E+00  0.00000000E+00
  0.00000000E+00  0.00000000E+00  0.00000000E+00
  0.00000000E+00  0.00000000E+00  0.00000000E+00
  0.00000000E+00  0.00000000E+00  0.00000000E+00
  0.00000000E+00  0.00000000E+00  0.00000000E+00
  0.00000000E+00  0.00000000E+00  0.00000000E+00
  0.00000000E+00  0.00000000E+00  0.00000000E+00
  0.00000000E+00  0.00000000E+00  0.00000000E+00
  0.00000000E+00  0.00000000E+00  0.00000000E+00
  0.00000000E+00  0.00000000E+00  0.00000000E+00
  0.00000000E+00  0.00000000E+00  0.00000000E+00
  0.00000000E+00  0.00000000E+00  0.00000000E+00
  0.00000000E+00  0.00000000E+00  0.00000000E+00
  0.00000000E+00  0.00000000E+00  0.00000000E+00
  0.00000000E+00  0.00000000E+00  0.00000000E+00
  0.00000000E+00  0.00000000E+00  0.00000000E+00
  0.00000000E+00  0.00000000E+00  0.00000000E+00
  0.00000000E+00  0.00000000E+00  0.00000000E+00
  0.00000000E+00  0.00000000E+00  0.00000000E+00
  0.00000000E+00  0.00000000E+00  0.00000000E+00
  0.00000000E+00  0.00000000E+00  0.00000000E+00
  0.00000000E+00  0.00000000E+00  0.00000000E+00
  0.00000000E+00  0.00000000E+00  0.00000000E+00
  0.00000000E+00  0.00000000E+00  0.00000000E+00
  0.00000000E+00  0.00000000E+00  0.00000000E+00
  0.00000000E+00  0.00000000E+00  0.00000000E+00
  0.00000000E+00  0.00000000E+00  0.00000000E+00
  0.00000000E+00  0.00000000E+00  0.00000000E+00
  0.00000000E+00  0.00000000E+00  0.00000000E+00
  0.00000000E+00  0.00000000E+00  0.00000000E+00
  0.00000000E+00  0.00000000E+00  0.00000000E+00
  0.00000000E+00  0.00000000E+00  0.00000000E+00
  0.00000000E+00  0.00000000E+00  0.00000000E+00
  0.00000000E+00  0.00000000E+00  0.00000000E+00
  0.00000000E+00  0.00000000E+00  0.00000000E+00
  0.00000000E+00  0.00000000E+00  0.00000000E+00
  0.00000000E+00  0.00000000E+00  0.00000000E+00
  0.00000000E+00  0.00000000E+00  0.00000000E+00
  0.00000000E+00  0.00000000E+00  0.00000000E+00
  0.00000000E+00  0.00000000E+00  0.00000000E+00
  0.00000000E+00  0.00000000E+00  0.00000000E+00
  0.00000000E+00  0.00000000E+00  0.00000000E+00
  0.00000000E+00  0.00000000E+00  0.00000000E+00
  0.00000000E+00  0.00000000E+00  0.00000000E+00
  0.00000000E+00  0.00000000E+00  0.00000000E+00
  0.00000000E+00  0.00000000E+00  0.00000000E+00
  0.00000000E+00  0.00000000E+00  0.00000000E+00
  0.00000000E+00  0.00000000E+00  0.00000000E+00
  0.00000000E+00  0.00000000E+00  0.00000000E+00
  0.00000000E+00  0.00000000E+00  0.00000000E+00
  0.00000000E+00  0.00000000E+00  0.00000000E+00
  0.00000000E+00  0.00000000E+00  0.00000000E+00
  0.00000000E+00  0.00000000E+00  0.00000000E+00
  0.00000000E+00  0.00000000E+00  0.00000000E+00
  0.00000000E+00  0.00000000E+00  0.00000000E+00
  0.00000000E+00  0.00000000E+00  0.00000000E+00
  0.00000000E+00  0.00000000E+00  0.00000000E+00
  0.00000000E+00  0.00000000E+00  0.00000000E+00
  0.00000000E+00  0.00000000E+00  0.00000000E+00
  0.00000000E+00  0.00000000E+00  0.00000000E+00
  0.00000000E+00  0.00000000E+00  0.00000000E+00
  0.00000000E+00  0.00000000E+00  0.00000000E+00
  0.00000000E+00  0.00000000E+00  0.00000000E+00
  0.00000000E+00  0.00000000E+00  0.00000000E+00
  0.00000000E+00  0.00000000E+00  0.00000000E+00
  0.00000000E+00  0.00000000E+00  0.00000000E+00
  0.00000000E+00  0.00000000E+00  0.00000000E+00
  0.00000000E+00  0.00000000E+00  0.00000000E+00
  0.00000000E+00  0.00000000E+00  0.00000000E+00
  0.00000000E+00  0.00000000E+00  0.00000000E+00
  0.00000000E+00  0.00000000E+00  0.00000000E+00
  0.00000000E+00  0.00000000E+00  0.00000000E+00
  0.00000000E+00  0.00000000E+00  0.00000000E+00
  0.00000000E+00  0.00000000E+00  0.00000000E+00
  0.00000000E+00  0.00000000E+00  0.00000000E+00
  0.00000000E+00  0.00000000E+00  0.00000000E+00
  0.00000000E+00  0.00000000E+00  0.00000000E+00
  0.00000000E+00  0.00000000E+00  0.00000000E+00
  0.00000000E+00  0.00000000E+00  0.00000000E+00
  0.00000000E+00  0.00000000E+00  0.00000000E+00
  0.00000000E+00  0.00000000E+00  0.00000000E+00
  0.00000000E+00  0.00000000E+00  0.00000000E+00
  0.00000000E+00  0.00000000E+00  0.00000000E+00
  0.00000000E+00  0.00000000E+00  0.00000000E+00
  0.00000000E+00  0.00000000E+00  0.00000000E+00
  0.00000000E+00  0.00000000E+00  0.00000000E+00
  0.00000000E+00  0.00000000E+00  0.00000000E+00
  0.00000000E+00  0.00000000E+00  0.00000000E+00
  0.00000000E+00  0.00000000E+00  0.00000000E+00
  0.00000000E+00  0.00000000E+00  0.00000000E+00
  0.00000000E+00  0.00000000E+00  0.00000000E+00
  0.00000000E+00  0.00000000E+00  0.00000000E+00
  0.00000000E+00  0.00000000E+00  0.00000000E+00
  0.00000000E+00  0.00000000E+00  0.00000000E+00
  0.00000000E+00  0.00000000E+00  0.00000000E+00
  0.00000000E+00  0.00000000E+00  0.00000000E+00
  0.00000000E+00  0.00000000E+00  0.00000000E+00
  0.00000000E+00  0.00000000E+00  0.00000000E+00
  0.00000000E+00  0.00000000E+00  0.00000000E+00
  0.00000000E+00  0.00000000E+00  0.00000000E+00
  0.00000000E+00  0.00000000E+00  0.00000000E+00
  0.00000000E+00  0.00000000E+00  0.00000000E+00
  0.00000000E+00  0.00000000E+00  0.00000000E+00
  0.00000000E+00  0.00000000E+00  0.00000000E+00
  0.00000000E+00  0.00000000E+00  0.00000000E+00
  0.00000000E+00  0.00000000E+00  0.00000000E+00
  0.00000000E+00  0.00000000E+00  0.00000000E+00
  0.00000000E+00  0.00000000E+00  0.00000000E+00
  0.00000000E+00  0.00000000E+00  0.00000000E+00
  0.00000000E+00  0.00000000E+00  0.00000000E+00
  0.00000000E+00  0.00000000E+00  0.00000000E+00
  0.00000000E+00  0.00000000E+00  0.00000000E+00
  0.00000000E+00  0.00000000E+00  0.00000000E+00
  0.00000000E+00  0.00000000E+00  0.00000000E+00
  0.00000000E+00  0.00000000E+00  0.00000000E+00
  0.00000000E+00  0.00000000E+00  0.00000000E+00
  0.00000000E+00  0.00000000E+00  0.00000000E+00
  0.00000000E+00  0.00000000E+00  0.00000000E+00
  0.00000000E+00  0.00000000E+00  0.00000000E+00
  0.00000000E+00  0.00000000E+00  0.00000000E+00
  0.00000000E+00  0.00000000E+00  0.00000000E+00
  0.00000000E+00  0.00000000E+00  0.00000000E+00
  0.00000000E+00  0.00000000E+00  0.00000000E+00
  0.00000000E+00  0.00000000E+00  0.00000000E+00
  0.00000000E+00  0.00000000E+00  0.00000000E+00
  0.00000000E+00  0.00000000E+00  0.00000000E+00
  0.00000000E+00  0.00000000E+00  0.00000000E+00
  0.00000000E+00  0.00000000E+00  0.00000000E+00
  0.00000000E+00  0.00000000E+00  0.00000000E+00
  0.00000000E+00  0.00000000E+00  0.00000000E+00
  0.00000000E+00  0.00000000E+00  0.00000000E+00
  0.00000000E+00  0.00000000E+00  0.00000000E+00
  0.00000000E+00  0.00000000E+00  0.00000000E+00
  0.00000000E+00  0.00000000E+00  0.00000000E+00
  0.00000000E+00  0.00000000E+00  0.00000000E+00
  0.00000000E+00  0.00000000E+00  0.00000000E+00
  0.00000000E+00  0.00000000E+00  0.00000000E+00
  0.00000000E+00  0.00000000E+00  0.00000000E+00
  0.00000000E+00  0.00000000E+00  0.00000000E+00
  0.00000000E+00  0.00000000E+00  0.00000000E+00
  0.00000000E+00  0.00000000E+00  0.00000000E+00
  0.00000000E+00  0.00000000E+00  0.00000000E+00
  0.00000000E+00  0.00000000E+00  0.00000000E+00
  0.00000000E+00  0.00000000E+00  0.00000000E+00
  0.00000000E+00  0.00000000E+00  0.00000000E+00
  0.00000000E+00  0.00000000E+00  0.00000000E+00
  0.00000000E+00  0.00000000E+00  0.00000000E+00
  0.00000000E+00  0.00000000E+00  0.00000000E+00
  0.00000000E+00  0.00000000E+00  0.00000000E+00
  0.00000000E+00  0.00000000E+00  0.00000000E+00
  0.00000000E+00  0.00000000E+00  0.00000000E+00
  0.00000000E+00  0.00000000E+00  0.00000000E+00
  0.00000000E+00  0.00000000E+00  0.00000000E+00
  0.00000000E+00  0.00000000E+00  0.00000000E+00
  0.00000000E+00  0.00000000E+00  0.00000000E+00
  0.00000000E+00  0.00000000E+00  0.00000000E+00
  0.00000000E+00  0.00000000E+00  0.00000000E+00
  0.00000000E+00  0.00000000E+00  0.00000000E+00
  0.00000000E+00  0.00000000E+00  0.00000000E+00
  0.00000000E+00  0.00000000E+00  0.00000000E+00
  0.00000000E+00  0.00000000E+00  0.00000000E+00
  0.00000000E+00  0.00000000E+00  0.00000000E+00
  0.00000000E+00  0.00000000E+00  0.00000000E+00
  0.00000000E+00  0.00000000E+00  0.00000000E+00
  0.00000000E+00  0.00000000E+00  0.00000000E+00
  0.00000000E+00  0.00000000E+00  0.00000000E+00
  0.00000000E+00  0.00000000E+00  0.00000000E+00
  0.00000000E+00  0.00000000E+00  0.00000000E+00
  0.00000000E+00  0.00000000E+00  0.00000000E+00
  0.00000000E+00  0.00000000E+00  0.00000000E+00
  0.00000000E+00  0.00000000E+00  0.00000000E+00
  0.00000000E+00  0.00000000E+00  0.00000000E+00
  0.00000000E+00  0.00000000E+00  0.00000000E+00
  0.00000000E+00  0.00000000E+00  0.00000000E+00
  0.00000000E+00  0.00000000E+00  0.00000000E+00
  0.00000000E+00  0.00000000E+00  0.00000000E+00
  0.00000000E+00  0.00000000E+00  0.00000000E+00
  0.00000000E+00  0.00000000E+00  0.00000000E+00
  0.00000000E+00  0.00000000E+00  0.00000000E+00
  0.00000000E+00  0.00000000E+00  0.00000000E+00
  0.00000000E+00  0.00000000E+00  0.00000000E+00
  0.00000000E+00  0.00000000E+00  0.00000000E+00
  0.00000000E+00  0.00000000E+00  0.00000000E+00
  0.00000000E+00  0.00000000E+00  0.00000000E+00
  0.00000000E+00  0.00000000E+00  0.00000000E+00
  0.00000000E+00  0.00000000E+00  0.00000000E+00
  0.00000000E+00  0.00000000E+00  0.00000000E+00
  0.00000000E+00  0.00000000E+00  0.00000000E+00
  0.00000000E+00  0.00000000E+00  0.00000000E+00
  0.00000000E+00  0.00000000E+00  0.00000000E+00
  0.00000000E+00  0.00000000E+00  0.00000000E+00
  0.00000000E+00  0.00000000E+00  0.00000000E+00
  0.00000000E+00  0.00000000E+00  0.00000000E+00
  0.00000000E+00  0.00000000E+00  0.00000000E+00
  0.00000000E+00  0.00000000E+00  0.00000000E+00
  0.00000000E+00  0.00000000E+00  0.00000000E+00
  0.00000000E+00  0.00000000E+00  0.00000000E+00
  0.00000000E+00  0.00000000E+00  0.00000000E+00
  0.00000000E+00  0.00000000E+00  0.00000000E+00
  0.00000000E+00  0.00000000E+00  0.00000000E+00
  0.00000000E+00  0.00000000E+00  0.00000000E+00
  0.00000000E+00  0.00000000E+00  0.00000000E+00
  0.00000000E+00  0.00000000E+00  0.00000000E+00
  0.00000000E+00  0.00000000E+00  0.00000000E+00
  0.00000000E+00  0.00000000E+00  0.00000000E+00
  0.00000000E+00  0.00000000E+00  0.00000000E+00
  0.00000000E+00  0.00000000E+00  0.00000000E+00
  0.00000000E+00  0.00000000E+00  0.00000000E+00