Amorphous Sb                            
   1.00000000000000     
    20.6915646190562939    0.0000000000000000    0.0000000000000000
     0.0000000000000000   20.6915646190562939    0.0000000000000000
     0.0000000000000000    0.0000000000000000   20.6915646190562939
   Ge   Se   Cu
   146   146     8
Direct
  0.2339654792547850  0.2261284968184742  0.7813393376867203
  0.1411082361028196  0.2199348559173069  0.9390135642697609
  0.4871130768145648  0.7642535028135602  0.7179050039380080
  0.8094949337138271  0.0050097804117246  0.4823294185807121
  0.8881943866350993  0.0467103421672978  0.7161103426534714
  0.0434608981611432  0.7678168117111943  0.4928119584913301
  0.8003931629468868  0.9578035740287256  0.8037603607455025
 -0.0045113425151613  0.8619051182255255  0.4197221420900369
  0.1313204418855159  0.0209464772653321  0.6214871671127367
  0.6477666155603217  0.2470114137710870  0.7154125720181043
  0.1427772063798132  0.4628929847558537  0.5759182823854915
  0.6291015331706357  0.0988262822215604  0.8226997821378554
  0.9178784534199375  0.4547290464153578  0.5490622162454515
  0.5334804452720924  0.3353618772463785  0.2949328694644399
  0.5091358620738594  0.6625606685749976  0.9544175838638569
  0.7724448065677434  0.0599190982794208  0.5896784126365354
  0.0701439012654331  0.5308944889093926  0.4965051967158365
  0.6449541080302064  0.3631830271586316  0.6579602926676467
  0.3542343504587978  0.6881595317085101  0.6905656451523224
  0.3471600535345249  0.1444050587212859  0.6656454033819774
  0.8461126736225730  0.1717682640513751  0.2000510044983463
  0.4257467956014993  0.1584737193904664  0.1981194910005974
  0.3112971250985962  0.5018263832937766  0.6279364843180192
  0.2978908357275976  0.3078516949258815  0.4648536644524734
  0.8309968324100884  0.8931058832742199  0.6229545766988263
  0.7467074746775192  0.6319918939690979  0.9731796744034925
  0.0616014504471964  0.6762372266253878  0.8862275953422277
  0.3192195436265465  0.1618825573218853  0.5424271955783967
  0.1866804361711908  0.0694410538941443  0.8290477899657791
  0.4418288894023735  0.5771255197960327  0.7722511232895053
  0.5079354934714779  0.0886095605694292  0.9780432696598580
  0.0095910423294217  0.0609196307576452  0.8670510099212113
  0.7706883637337251  0.8207540921833806  0.2122933814344720
  0.1062425199217467  0.0187317588735883  0.0668581626348489
 -0.0047651188645740  0.0773196334869345  0.5328009008085924
  0.6720828655808845  0.7967397674666612  0.4980506461461993
  0.0316554272283130  0.0799003463421142  0.1911475761955008
  0.3438565461563530  0.6021288024657294  0.9772576361507852
  0.4049570120502910  0.8429488629333401  0.1397217104442368
  0.8127940327443228  0.1432061010299081  0.7521332162843064
  0.4748482324109289  0.4885068369869884  0.6699507676841890
  0.5796149159702411  0.3510637915383174  0.0255467068504995
  0.1620859278321411  0.0813253483793790  0.1653342068121842
  0.1950815995588291  0.5194530497387027  0.0029185552296930
  0.4366733511034916  0.2664348559315177  0.1024873193693701
  0.3388324071176210  0.8140522623165820  0.9590891154698833
  0.4227194237460205  0.2383835526936193  0.9463491940235674
  0.0511136806102266  0.5447722286409641  0.2206345465445582
  0.3365711053241420  0.0422493393686678  0.5392684145188849
  0.5717405731444419  0.6690745269903819  0.4731414051901337
  0.3502798544038937  0.6825256350199792  0.4020209574926546
  0.0967647924213522  0.8217673461445629  0.8067972719150560
  0.9801665583297763  0.2538558545367863  0.5348566901363957
  0.1146889519176781  0.8518723439905936  0.3268515786770910
  0.1510382663544569  0.6405630089086932  0.6352415948093416
  0.8998398351520368  0.6318242424921989  0.5704263816637734
  0.8692022307638881  0.9705316265078618  0.0784710514969753
  0.9717676678341313  0.1718361824842715  0.9234237542779534
  0.6275759423316063  0.7223336962379098  0.0552190234952170
  0.2518886592120739  0.5079523686070210  0.4307572058128797
  0.5970332364041486  0.7738466599742754  0.3370830287636110
  0.5939803918394621  0.2728672105991753  0.1448343797684330
 -0.0058971941356641  0.3614895988506815  0.5909902545355086
  0.2899754337188395  0.7816890429063019  0.3170182454590765
  0.9640639099173667  0.2413666142924537  0.2979699655175540
  0.3662252013206364  0.0915356878073131  0.0577555472326495
  0.9451758873863950  0.4563168959555878  0.7553199343315371
  0.3722020373238157  0.6151784791016155  0.2101746617847873
  0.0413752619749211  0.4739706007405963  0.0963773725360200
  0.9031765763641660  0.1413685789294531  0.4291065518529320
  0.4559175488321642  0.0751715479431599  0.5473838178194185
  0.9023234363269816  0.5465703655487468  0.9035107757015596
  0.8319601036471347  0.5955570323448595  0.7566974904392414
  0.4965950309856255  0.2160040495572529  0.7791469500693998
  0.9834491075595055  0.8343132176016087  0.6246239047249603
  0.0531345614502567  0.4699524018458869  0.3719010400016169
  0.0375035036659979  0.8617553723328895  0.9797975371414555
  0.0514907472812630  0.3808319456908099  0.9244919603707702
  0.1158044021250669  0.8954517521878361  0.0857405400310783
  0.3585373272694714  0.0019322441093025  0.9228459739938868
  0.7969817528812451  0.3048051747474938  0.6179173145203518
  0.8280292011350310  0.7319532990226536  0.7459996789055515
  0.5490611942338656  0.1657646928411371  0.3826712165427488
  0.4864338599306530  0.8962865894752551  0.5926705370337751
  0.4363796027255207  0.5181352577836452  0.3490740745829098
  0.2580430070717945  0.2078093091960149  0.2894710871842640
  0.8589967731326761  0.7290115131897572  0.4133396329370070
  0.6992502620136359  0.4721823092244565  0.1438998491773661
  0.1772202038171780  0.7911037610086978  0.0371368814559310
  0.6311027619143267  0.1208377210756239  0.2103067967382118
  0.2780141975154935  0.8876302027034504  0.1587229006111509
  0.8340036732138090  0.6581923988793651  0.1103499548295566
  0.3963332836685226  0.1191078125737472  0.9076926573527108
  0.0390992714367448  0.6961689001879110  0.7194258283654068
  0.7830564169536232  0.1845278027017200  0.9160585520398240
  0.7639306710839898  0.0775087166003715  0.3508221736298388
  0.6650472812172350  0.7968871358725489  0.7060847634526156
  0.4846453661061624  0.5589172926573190  0.5299769865861765
  0.2741060187989582  0.5065493215036323  0.1467785828017920
  0.7525111411629480  0.4005781536332770  0.7122078134316295
  0.2213203822282717  0.1385281548788070  0.9899906449115294
  0.8720754345247125  0.4770300336224420  0.2646057579471576
  0.6374877097756315  0.9531984768612369  0.9462462095062478
  0.2897659695124862  0.3856771107116880  0.2902403543252043
  0.1074433316490284  0.9219313598336476  0.4757816829471482
  0.3062261537452798  0.0498538482146593  0.2708909878347074
  0.2537283002445741  0.6820816903459440  0.4981504688544667
  0.9619731672020466  0.2353111246970706  0.8157693806476420
  0.7575325291519599  0.3039438552898747  0.2154695584523256
  0.5395540483550358  0.6428705261062359  0.6798617375097133
  0.4245122091012712  0.9454109986279687  0.4046129230282611
  0.8640831074762689  0.4636554335839856  0.1372558046322280
  0.4930013167472763  0.1983318671621909  0.5531551474566238
  0.0735751023304815  0.1993639977311769  0.4561615207896681
  0.5347073738677873  0.6142631638132883  0.2847647836182646
  0.9149823506886992  0.6038691935674290  0.3111661668020049
  0.2386567158658985  0.8617826308779976  0.8308080236345712
  0.8657891474998246  0.9704312312369535  0.2621427425132363
  0.4589124333297870  0.9290036120268416  0.0552422146246038
  0.4013002665456679  0.3323154840163919  0.6397420338192398
  0.2873243729253421  0.9290834427524791  0.5224135796995701
  0.6110032387372837  0.5792121327456558  0.0255556412007414
  0.0507519693310618  0.3198414698343596  0.7433797274169338
  0.6548476901210365  0.9728571424168838  0.1068666359405875
  0.4326936213767792  0.3655806510323181  0.9386064095567113
  0.4014202234534046  0.3757540515962854  0.7917934696957515
  0.1246261326373624  0.3589606127834292  0.2281136823064320
  0.8069065352033205  0.8038547807044107  0.9789070854301043
  0.7815949857402840  0.4421566552519109  0.9048194208076789
  0.7237436184576623  0.4466085525218849  0.3409309589790177
  0.9289612349122134  0.3345848648203070  0.4025164717964549
  0.6020314563104828  0.7098329667770321  0.8581580627291732
  0.5477895461567208  0.4979729500941996  0.2437804011511257
  0.1991371803231219  0.3276036524906657  0.0527152117991324
  0.6690209114361934  0.2392175445922527  0.4402161801787015
  0.4232376674878096  0.8978137154769069  0.7933781200570930
  0.4659217760838337  0.6547675130291714  0.1347989127702748
  0.2716996010915799  0.6728447837710577  0.8578002881535974
  0.3966136313979726  0.0356468221969927  0.7178500523000294
  0.9417065443316111  0.8789459748597966  0.8976002124515543
  0.7882637420498115  0.8839657083160436  0.3384579320326342
  0.5868668984323991  0.8196087863966035  0.1559108705565607
  0.7950666016611238  0.5883086314974436  0.3730071275128421
  0.5491215093224846  0.4641709435406673  0.8348497030252992
  0.3447980424440394  0.3194757033413106  0.1978348166426157
  0.6207775445455893  0.9090890721617038  0.7448693502310949
  0.9697901814810495  0.1848288624819506  0.1854962278710203
  0.3236787592887252  0.0175019313418848  0.4216236271113431
  0.5741991287744690  0.8891212641739669  0.0513138123401048
  0.0321558834694321  0.9640250775507743  0.5697168661276005
  0.9874596572820266  0.0381520760306007  0.0862591465846227
  0.0936254184558141  0.3616120470360824  0.1084958745983206
  0.4879605381716829  0.8592491995710062  0.2228551764340466
  0.4079710452959064  0.8496087922902875  0.6759150577790504
  0.7304833396088253  0.7303137015835450  0.1188318683087164
  0.2995095062205502  0.1007643298555708  0.1584486114437237
  0.3484745550027412  0.8021680690416818  0.8329532781067118
  0.0697885644761203  0.7475726008446290  0.9914839869481329
  0.3260084334193166  0.5797972846155131  0.7383821742419283
  0.7544112083765019  0.0818233150497325  0.8388856904369716
  0.3822609543135225  0.2392751343428297  0.7287484383917783
  0.6666081992700186  0.1534786262185297  0.3302605504678100
  0.6272565978111166  0.0828963398527647  0.9488119425834693
  0.9272457716322542  0.7168594476462425  0.6574706935979602
  0.1388183964010793  0.6344239401611973  0.5102740704291722
  0.3456458061545147  0.4379160721240794  0.3834776795099158
  0.1210443438553697  0.1898723355431080  0.8242599436315863
  0.9923568851285621  0.7552892609007884  0.8233787251781793
  0.0245449593371258  0.1548120194038704  0.3567466146435152
  0.5482390677394746  0.3602670935220604  0.8988570976767645
  0.7363748063568801  0.9446597299047124  0.0207317456437537
  0.8666033844989678  0.2874461961388808  0.5048049647000238
  0.4419831939641409  0.6523449879375317  0.6054216445820753
  0.3096937010385700  0.9889180690511622  0.0266645564328627
  0.7902805186727699  0.5439140009618331  0.0791207431263612
  0.9394774615008984  0.5893069000782790  0.1922205123454539
  0.2925689583074959  0.9744334832920366  0.8276405132237292
  0.2263476230941984  0.3103487913310913  0.3603052316066116
  0.9408565590324957  0.4567683044892427  0.4255557914671039
  0.7240882633670249  0.9633342843051125  0.4065005258094454
  0.9381398324042141  0.4325692138219479  0.0513931223896212
  0.1624761919342511  0.9640111740925040  0.1910986456593356
  0.0449105633020233  0.7637108623396264  0.3659558728596044
  0.9567096747059286  0.6822923508907385  0.4741603887135630
  0.9188558651697276  0.8945351011025331  0.7072841782251101
  0.2238872559013850  0.8694317019722504  0.9529378655095396
  0.4327719585099589  0.6773632836474985  0.2955358851021401
  0.9885527230843162  0.0012779416599742  0.2766443754154840
  0.9362706951197947  0.3386937892481318  0.6955992004408508
  0.6933676806053820  0.9065034273268923  0.8422299687405125
  0.2805559552356172  0.1563838004051019  0.8817965000564919
  0.2523714314516411  0.5520764629147350  0.9038108961058772
  0.9452306007310985  0.5896948823622611  0.7955031569723118
  0.5746775518636420  0.5364158345225015  0.6156482200855324
  0.4836849796828595  0.0423502293706737  0.0911199303578179
  0.6201877197782745  0.6516042297615823  0.3577788223522230
  0.5400465349937028  0.2022390359965711  0.2337465105567954
  0.0472033809667213  0.3187588821888623  0.4483318418328279
  0.6437206902119369  0.2212083603780201  0.8302937711637197
  0.0404359993357100  0.2219785686734031  0.0010132923135269
  0.7431741573352597  0.1893755834061905  0.6639944374226897
  0.1353036209437805  0.0195410039000497  0.4146056042716750
  0.1560767328542654  0.7096980974321198  0.8135360451003179
  0.2523974061209761  0.6644243015183180  0.3391220028066183
  0.9743819882658030  0.1242507197447149  0.7630153111422876
  0.7753996512827864  0.3778134737239522  0.1152664127436004
  0.1854977465614434  0.5257591553152308  0.6669274739478576
  0.3402096674326283  0.2478753631114958  0.0308273552034212
  0.6832108013309348  0.7426954838982969  0.9448184995013620
  0.4112323314119429  0.6491095446657515  0.8834099131023493
  0.9079630474674774  0.0166348797865598  0.4186928909495873
  0.6408904050004126  0.4613381934678766  0.0337077902886223
  0.0892846166338040  0.8070152254079339  0.6827374617306723
  0.2038530229364083  0.4576122048514359  0.2427640477982064
  0.0802270383762667  0.9936911145598607  0.7935361955515760
  0.6854095980360650  0.6993143081983699  0.7700504892569433
  0.5389303529239132  0.8341142094718921  0.8066978693890648
  0.9189977018561610  0.8581050178169681  0.0207594510970611
  0.5984043601001791  0.1558956855572141  0.4977983247507216
  0.8691250414651852  0.8857250647416965  0.1726003450714718
  0.7163059326620299  0.3870981865396367  0.8201919832838482
  0.0824964324180335  0.4950466874164086  0.9774359612873172
  0.1083329072125282  0.3602829049449732  0.6280490020296341
  0.4291727959061739  0.0644864552998341  0.2839655496989042
  0.4665238886215090  0.3810118150718522  0.0588753594137055
  0.4990346225869890  0.3727578742301154  0.7133390263397014
  0.5890885600482837  0.5773064280033678  0.9041843211927166
  0.8946232776726318  0.7209574558449064  0.3010748014922777
  0.3957113961889450  0.8748410584041029  0.5037191076568593
  0.6390657410497930  0.3562759399942420  0.2264539456951700
  0.6735733319929714  0.8966398174763117  0.2061308728616417
  0.0344214138234339  0.5874915047120988  0.3428601838238758
  0.7790308010503268  0.5637590591552682  0.8649920612595148
  0.2750868971494972  0.7069866164765769  0.9767791948759653
  0.8399522956913495  0.2411786703651455  0.8176740869626934
  0.8186641806940884  0.0535882017855452  0.1863359152049483
  0.4280391024601163  0.4838184238439385  0.8488954214477576
  0.0349712820994424  0.8428840662061851  0.1538949246798411
  0.1393488543595968  0.0551507162298398  0.9492906749549881
  0.2253989898615763  0.2253092224340607  0.5180544885705747
  0.7547784916614269  0.9685563279930312  0.6814826474164121
  0.8380649937960649  0.8306675095526336  0.8603718075498314
  0.2352420866175548  0.2707046532184040  0.1859315437977470
  0.3322614140473018  0.5838193033918405  0.4849433200458381
  0.8162699824112415  0.3714233442196501  0.3052407181910705
  0.4865560843506161  0.5766251174077843  0.0439829190062938
  0.5588422763621028  0.2880166665287797  0.4046926041477896
  0.2350495961028660  0.7797297046264502  0.2054180217362161
  0.8237420684932961  0.4893994112514023  0.6880956041129258
  0.4617747868557370  0.0967478216994130  0.8070498549647832
  0.0645995264408430  0.4222993943175576  0.8077607583327557
  0.7766634323560189  0.1252873829125783  0.4644463554807393
  0.4942666205898987  0.0129005424464148  0.6439261874829345
  0.3994893631633114  0.1957150861594304  0.4577811579437673
  0.6848847992988966  0.6750025350401571  0.5178438386686690
  0.1689591675191692  0.3370343668480749  0.9281477095616423
  0.6964352313927277  0.3270486945652044  0.5570645213082828
  0.4283964141490477  0.4528762661845985  0.5656295584208737
  0.3164712868292069  0.3982281314275034  0.7031844011599916
  0.5770728828844393  0.7647103180682249  0.6300853551855659
  0.2335035564959680  0.1317712599292331  0.7039480094158121
  0.0796237032049837  0.1275870321438921  0.6140525327502330
  0.2469921619670040  0.4253883795310874  0.5269515837351247
  0.2657710107301419  0.4328734415784923  0.0413612642545567
  0.5541778027187975  0.7917020646644340  0.4526478447278267
  0.2547891528088766  0.7082221871247560  0.6213077923063087
  0.7147136474084921  0.7861606769772719  0.3766482168356599
  0.8511864204028489  0.1918883541499512  0.3240698912593148
  0.8749813070406689  0.1504058584668931  0.9832831583431553
  0.5166079981040242  0.2073183356505988  0.0165916507706039
  0.9914485808308118  0.5472267959563099  0.5917072722709202
  0.1956072654931524  0.5861003042700250  0.0965892962405339
  0.5740655737924272  0.6610845324694150  0.1828241402453473
  0.9155852647828345  0.9952007770865213  0.9000463901882724
  0.7613551374508586  0.5423025483392772  0.2645393116770272
  0.3190904742897986  0.9263297341871333  0.2654872557279041
  0.8556854184962286  0.6837169081759547  0.9866427453037913
  0.7696691722672726  0.7803245078613803  0.6479539437258124
  0.2111590029381326  0.8342631166439651  0.3973773150907774
  0.4522130775843030  0.7542553972195934  0.0703867203996894
  0.5050626669457381  0.0207171292935101  0.4532017368420167
  0.5587409231377924  0.1767657704155829  0.6811625601616540
  0.3796581943341289  0.2382626855163552  0.2831492605009308
  0.7780921201300469  0.4949016558653525  0.4389062619611183
  0.4594827552269223  0.9403250742024341  0.9324646678649892
  0.4240391236056755  0.5013562436306486  0.2263302335730045
  0.8723338581265732  0.8506424101733758  0.4258257046729563
  0.8906329284137141  0.0983271026529623  0.6049122044119689
  0.5380344255067864  0.4471518518014311  0.3550135596789069
  0.0165491080561700  0.4293119581308866  0.2552763640128111
  0.6859148818022344  0.1972233382693327  0.1343374939712835
  0.8970229407081892  0.4243089673377400  0.8659886481888354
  0.4336644623840447  0.9418361014067249  0.2840201525579270
  0.7548256946204849  0.6840513090187684  0.4269014948259223
  0.1312588923832256  0.8213212469284498  0.2113193076293112
  0.4433848575685552  0.1059108641605386  0.3928975991446281
  0.0543691539740691  0.9507907556435264  0.3630733649748499
  0.0586426793534950  0.9187825320408960  0.2392571186431129
  0.2297465488193405  0.9472790324234360  0.4171702822793038
  0.0652382536792423  0.0696651296226404  0.7110998646522545
 
  0.00000000E+00  0.00000000E+00  0.00000000E+00
  0.00000000E+00  0.00000000E+00  0.00000000E+00
  0.00000000E+00  0.00000000E+00  0.00000000E+00
  0.00000000E+00  0.00000000E+00  0.00000000E+00
  0.00000000E+00  0.00000000E+00  0.00000000E+00
  0.00000000E+00  0.00000000E+00  0.00000000E+00
  0.00000000E+00  0.00000000E+00  0.00000000E+00
  0.00000000E+00  0.00000000E+00  0.00000000E+00
  0.00000000E+00  0.00000000E+00  0.00000000E+00
  0.00000000E+00  0.00000000E+00  0.00000000E+00
  0.00000000E+00  0.00000000E+00  0.00000000E+00
  0.00000000E+00  0.00000000E+00  0.00000000E+00
  0.00000000E+00  0.00000000E+00  0.00000000E+00
  0.00000000E+00  0.00000000E+00  0.00000000E+00
  0.00000000E+00  0.00000000E+00  0.00000000E+00
  0.00000000E+00  0.00000000E+00  0.00000000E+00
  0.00000000E+00  0.00000000E+00  0.00000000E+00
  0.00000000E+00  0.00000000E+00  0.00000000E+00
  0.00000000E+00  0.00000000E+00  0.00000000E+00
  0.00000000E+00  0.00000000E+00  0.00000000E+00
  0.00000000E+00  0.00000000E+00  0.00000000E+00
  0.00000000E+00  0.00000000E+00  0.00000000E+00
  0.00000000E+00  0.00000000E+00  0.00000000E+00
  0.00000000E+00  0.00000000E+00  0.00000000E+00
  0.00000000E+00  0.00000000E+00  0.00000000E+00
  0.00000000E+00  0.00000000E+00  0.00000000E+00
  0.00000000E+00  0.00000000E+00  0.00000000E+00
  0.00000000E+00  0.00000000E+00  0.00000000E+00
  0.00000000E+00  0.00000000E+00  0.00000000E+00
  0.00000000E+00  0.00000000E+00  0.00000000E+00
  0.00000000E+00  0.00000000E+00  0.00000000E+00
  0.00000000E+00  0.00000000E+00  0.00000000E+00
  0.00000000E+00  0.00000000E+00  0.00000000E+00
  0.00000000E+00  0.00000000E+00  0.00000000E+00
  0.00000000E+00  0.00000000E+00  0.00000000E+00
  0.00000000E+00  0.00000000E+00  0.00000000E+00
  0.00000000E+00  0.00000000E+00  0.00000000E+00
  0.00000000E+00  0.00000000E+00  0.00000000E+00
  0.00000000E+00  0.00000000E+00  0.00000000E+00
  0.00000000E+00  0.00000000E+00  0.00000000E+00
  0.00000000E+00  0.00000000E+00  0.00000000E+00
  0.00000000E+00  0.00000000E+00  0.00000000E+00
  0.00000000E+00  0.00000000E+00  0.00000000E+00
  0.00000000E+00  0.00000000E+00  0.00000000E+00
  0.00000000E+00  0.00000000E+00  0.00000000E+00
  0.00000000E+00  0.00000000E+00  0.00000000E+00
  0.00000000E+00  0.00000000E+00  0.00000000E+00
  0.00000000E+00  0.00000000E+00  0.00000000E+00
  0.00000000E+00  0.00000000E+00  0.00000000E+00
  0.00000000E+00  0.00000000E+00  0.00000000E+00
  0.00000000E+00  0.00000000E+00  0.00000000E+00
  0.00000000E+00  0.00000000E+00  0.00000000E+00
  0.00000000E+00  0.00000000E+00  0.00000000E+00
  0.00000000E+00  0.00000000E+00  0.00000000E+00
  0.00000000E+00  0.00000000E+00  0.00000000E+00
  0.00000000E+00  0.00000000E+00  0.00000000E+00
  0.00000000E+00  0.00000000E+00  0.00000000E+00
  0.00000000E+00  0.00000000E+00  0.00000000E+00
  0.00000000E+00  0.00000000E+00  0.00000000E+00
  0.00000000E+00  0.00000000E+00  0.00000000E+00
  0.00000000E+00  0.00000000E+00  0.00000000E+00
  0.00000000E+00  0.00000000E+00  0.00000000E+00
  0.00000000E+00  0.00000000E+00  0.00000000E+00
  0.00000000E+00  0.00000000E+00  0.00000000E+00
  0.00000000E+00  0.00000000E+00  0.00000000E+00
  0.00000000E+00  0.00000000E+00  0.00000000E+00
  0.00000000E+00  0.00000000E+00  0.00000000E+00
  0.00000000E+00  0.00000000E+00  0.00000000E+00
  0.00000000E+00  0.00000000E+00  0.00000000E+00
  0.00000000E+00  0.00000000E+00  0.00000000E+00
  0.00000000E+00  0.00000000E+00  0.00000000E+00
  0.00000000E+00  0.00000000E+00  0.00000000E+00
  0.00000000E+00  0.00000000E+00  0.00000000E+00
  0.00000000E+00  0.00000000E+00  0.00000000E+00
  0.00000000E+00  0.00000000E+00  0.00000000E+00
  0.00000000E+00  0.00000000E+00  0.00000000E+00
  0.00000000E+00  0.00000000E+00  0.00000000E+00
  0.00000000E+00  0.00000000E+00  0.00000000E+00
  0.00000000E+00  0.00000000E+00  0.00000000E+00
  0.00000000E+00  0.00000000E+00  0.00000000E+00
  0.00000000E+00  0.00000000E+00  0.00000000E+00
  0.00000000E+00  0.00000000E+00  0.00000000E+00
  0.00000000E+00  0.00000000E+00  0.00000000E+00
  0.00000000E+00  0.00000000E+00  0.00000000E+00
  0.00000000E+00  0.00000000E+00  0.00000000E+00
  0.00000000E+00  0.00000000E+00  0.00000000E+00
  0.00000000E+00  0.00000000E+00  0.00000000E+00
  0.00000000E+00  0.00000000E+00  0.00000000E+00
  0.00000000E+00  0.00000000E+00  0.00000000E+00
  0.00000000E+00  0.00000000E+00  0.00000000E+00
  0.00000000E+00  0.00000000E+00  0.00000000E+00
  0.00000000E+00  0.00000000E+00  0.00000000E+00
  0.00000000E+00  0.00000000E+00  0.00000000E+00
  0.00000000E+00  0.00000000E+00  0.00000000E+00
  0.00000000E+00  0.00000000E+00  0.00000000E+00
  0.00000000E+00  0.00000000E+00  0.00000000E+00
  0.00000000E+00  0.00000000E+00  0.00000000E+00
  0.00000000E+00  0.00000000E+00  0.00000000E+00
  0.00000000E+00  0.00000000E+00  0.00000000E+00
  0.00000000E+00  0.00000000E+00  0.00000000E+00
  0.00000000E+00  0.00000000E+00  0.00000000E+00
  0.00000000E+00  0.00000000E+00  0.00000000E+00
  0.00000000E+00  0.00000000E+00  0.00000000E+00
  0.00000000E+00  0.00000000E+00  0.00000000E+00
  0.00000000E+00  0.00000000E+00  0.00000000E+00
  0.00000000E+00  0.00000000E+00  0.00000000E+00
  0.00000000E+00  0.00000000E+00  0.00000000E+00
  0.00000000E+00  0.00000000E+00  0.00000000E+00
  0.00000000E+00  0.00000000E+00  0.00000000E+00
  0.00000000E+00  0.00000000E+00  0.00000000E+00
  0.00000000E+00  0.00000000E+00  0.00000000E+00
  0.00000000E+00  0.00000000E+00  0.00000000E+00
  0.00000000E+00  0.00000000E+00  0.00000000E+00
  0.00000000E+00  0.00000000E+00  0.00000000E+00
  0.00000000E+00  0.00000000E+00  0.00000000E+00
  0.00000000E+00  0.00000000E+00  0.00000000E+00
  0.00000000E+00  0.00000000E+00  0.00000000E+00
  0.00000000E+00  0.00000000E+00  0.00000000E+00
  0.00000000E+00  0.00000000E+00  0.00000000E+00
  0.00000000E+00  0.00000000E+00  0.00000000E+00
  0.00000000E+00  0.00000000E+00  0.00000000E+00
  0.00000000E+00  0.00000000E+00  0.00000000E+00
  0.00000000E+00  0.00000000E+00  0.00000000E+00
  0.00000000E+00  0.00000000E+00  0.00000000E+00
  0.00000000E+00  0.00000000E+00  0.00000000E+00
  0.00000000E+00  0.00000000E+00  0.00000000E+00
  0.00000000E+00  0.00000000E+00  0.00000000E+00
  0.00000000E+00  0.00000000E+00  0.00000000E+00
  0.00000000E+00  0.00000000E+00  0.00000000E+00
  0.00000000E+00  0.00000000E+00  0.00000000E+00
  0.00000000E+00  0.00000000E+00  0.00000000E+00
  0.00000000E+00  0.00000000E+00  0.00000000E+00
  0.00000000E+00  0.00000000E+00  0.00000000E+00
  0.00000000E+00  0.00000000E+00  0.00000000E+00
  0.00000000E+00  0.00000000E+00  0.00000000E+00
  0.00000000E+00  0.00000000E+00  0.00000000E+00
  0.00000000E+00  0.00000000E+00  0.00000000E+00
  0.00000000E+00  0.00000000E+00  0.00000000E+00
  0.00000000E+00  0.00000000E+00  0.00000000E+00
  0.00000000E+00  0.00000000E+00  0.00000000E+00
  0.00000000E+00  0.00000000E+00  0.00000000E+00
  0.00000000E+00  0.00000000E+00  0.00000000E+00
  0.00000000E+00  0.00000000E+00  0.00000000E+00
  0.00000000E+00  0.00000000E+00  0.00000000E+00
  0.00000000E+00  0.00000000E+00  0.00000000E+00
  0.00000000E+00  0.00000000E+00  0.00000000E+00
  0.00000000E+00  0.00000000E+00  0.00000000E+00
  0.00000000E+00  0.00000000E+00  0.00000000E+00
  0.00000000E+00  0.00000000E+00  0.00000000E+00
  0.00000000E+00  0.00000000E+00  0.00000000E+00
  0.00000000E+00  0.00000000E+00  0.00000000E+00
  0.00000000E+00  0.00000000E+00  0.00000000E+00
  0.00000000E+00  0.00000000E+00  0.00000000E+00
  0.00000000E+00  0.00000000E+00  0.00000000E+00
  0.00000000E+00  0.00000000E+00  0.00000000E+00
  0.00000000E+00  0.00000000E+00  0.00000000E+00
  0.00000000E+00  0.00000000E+00  0.00000000E+00
  0.00000000E+00  0.00000000E+00  0.00000000E+00
  0.00000000E+00  0.00000000E+00  0.00000000E+00
  0.00000000E+00  0.00000000E+00  0.00000000E+00
  0.00000000E+00  0.00000000E+00  0.00000000E+00
  0.00000000E+00  0.00000000E+00  0.00000000E+00
  0.00000000E+00  0.00000000E+00  0.00000000E+00
  0.00000000E+00  0.00000000E+00  0.00000000E+00
  0.00000000E+00  0.00000000E+00  0.00000000E+00
  0.00000000E+00  0.00000000E+00  0.00000000E+00
  0.00000000E+00  0.00000000E+00  0.00000000E+00
  0.00000000E+00  0.00000000E+00  0.00000000E+00
  0.00000000E+00  0.00000000E+00  0.00000000E+00
  0.00000000E+00  0.00000000E+00  0.00000000E+00
  0.00000000E+00  0.00000000E+00  0.00000000E+00
  0.00000000E+00  0.00000000E+00  0.00000000E+00
  0.00000000E+00  0.00000000E+00  0.00000000E+00
  0.00000000E+00  0.00000000E+00  0.00000000E+00
  0.00000000E+00  0.00000000E+00  0.00000000E+00
  0.00000000E+00  0.00000000E+00  0.00000000E+00
  0.00000000E+00  0.00000000E+00  0.00000000E+00
  0.00000000E+00  0.00000000E+00  0.00000000E+00
  0.00000000E+00  0.00000000E+00  0.00000000E+00
  0.00000000E+00  0.00000000E+00  0.00000000E+00
  0.00000000E+00  0.00000000E+00  0.00000000E+00
  0.00000000E+00  0.00000000E+00  0.00000000E+00
  0.00000000E+00  0.00000000E+00  0.00000000E+00
  0.00000000E+00  0.00000000E+00  0.00000000E+00
  0.00000000E+00  0.00000000E+00  0.00000000E+00
  0.00000000E+00  0.00000000E+00  0.00000000E+00
  0.00000000E+00  0.00000000E+00  0.00000000E+00
  0.00000000E+00  0.00000000E+00  0.00000000E+00
  0.00000000E+00  0.00000000E+00  0.00000000E+00
  0.00000000E+00  0.00000000E+00  0.00000000E+00
  0.00000000E+00  0.00000000E+00  0.00000000E+00
  0.00000000E+00  0.00000000E+00  0.00000000E+00
  0.00000000E+00  0.00000000E+00  0.00000000E+00
  0.00000000E+00  0.00000000E+00  0.00000000E+00
  0.00000000E+00  0.00000000E+00  0.00000000E+00
  0.00000000E+00  0.00000000E+00  0.00000000E+00
  0.00000000E+00  0.00000000E+00  0.00000000E+00
  0.00000000E+00  0.00000000E+00  0.00000000E+00
  0.00000000E+00  0.00000000E+00  0.00000000E+00
  0.00000000E+00  0.00000000E+00  0.00000000E+00
  0.00000000E+00  0.00000000E+00  0.00000000E+00
  0.00000000E+00  0.00000000E+00  0.00000000E+00
  0.00000000E+00  0.00000000E+00  0.00000000E+00
  0.00000000E+00  0.00000000E+00  0.00000000E+00
  0.00000000E+00  0.00000000E+00  0.00000000E+00
  0.00000000E+00  0.00000000E+00  0.00000000E+00
  0.00000000E+00  0.00000000E+00  0.00000000E+00
  0.00000000E+00  0.00000000E+00  0.00000000E+00
  0.00000000E+00  0.00000000E+00  0.00000000E+00
  0.00000000E+00  0.00000000E+00  0.00000000E+00
  0.00000000E+00  0.00000000E+00  0.00000000E+00
  0.00000000E+00  0.00000000E+00  0.00000000E+00
  0.00000000E+00  0.00000000E+00  0.00000000E+00
  0.00000000E+00  0.00000000E+00  0.00000000E+00
  0.00000000E+00  0.00000000E+00  0.00000000E+00
  0.00000000E+00  0.00000000E+00  0.00000000E+00
  0.00000000E+00  0.00000000E+00  0.00000000E+00
  0.00000000E+00  0.00000000E+00  0.00000000E+00
  0.00000000E+00  0.00000000E+00  0.00000000E+00
  0.00000000E+00  0.00000000E+00  0.00000000E+00
  0.00000000E+00  0.00000000E+00  0.00000000E+00
  0.00000000E+00  0.00000000E+00  0.00000000E+00
  0.00000000E+00  0.00000000E+00  0.00000000E+00
  0.00000000E+00  0.00000000E+00  0.00000000E+00
  0.00000000E+00  0.00000000E+00  0.00000000E+00
  0.00000000E+00  0.00000000E+00  0.00000000E+00
  0.00000000E+00  0.00000000E+00  0.00000000E+00
  0.00000000E+00  0.00000000E+00  0.00000000E+00
  0.00000000E+00  0.00000000E+00  0.00000000E+00
  0.00000000E+00  0.00000000E+00  0.00000000E+00
  0.00000000E+00  0.00000000E+00  0.00000000E+00
  0.00000000E+00  0.00000000E+00  0.00000000E+00