Amorphous Sb                            
   1.00000000000000     
    21.2231259098521683    0.0000000000000000    0.0000000000000000
     0.0000000000000000   21.2231259098521683    0.0000000000000000
     0.0000000000000000    0.0000000000000000   21.2231259098521683
   Ge   Sb
    45   255
Direct
  0.1815438100000000  0.5932464800000000  0.3737049700000000
  0.4345551400000000  0.5292704600000000  0.2568976700000000
  0.3749407000000000  0.4032762700000000  0.0113949070000000
  0.5985463700000000  0.6625983800000000  0.7534592000000000
  0.0151697810000000  0.8560014400000000  0.1060582600000000
  0.9092882000000000  0.6857262700000000  0.2806240300000000
  0.7960681100000000  0.4321375900000000  0.0085292103000000
  0.7843205200000000  0.1682885000000000  0.6508969900000000
  0.5914861400000000  0.7140168800000000  0.2647393800000000
  0.2679894700000000  0.0005720487200000  0.1269317400000000
  0.7864654700000000  0.8796787900000000  0.7499379700000000
  0.2677895800000000  0.4321086000000000  0.8681201400000000
  0.6501985700000000  0.6282950700000000  0.6446468100000000
  0.2922021100000000  0.6353263500000000  0.3181972900000000
  0.9458858500000000  0.1066245600000000  0.9205187700000000
  0.3957929300000000  0.9589604000000000  0.3873609200000000
  0.0093278597000000  0.3202501000000000  0.3257047600000000
  0.8912219200000000  0.5583309300000000  0.2733900300000000
  0.5201962600000000  0.6540961300000000  0.8473858800000000
  0.8808002400000000  0.5706567600000000  0.4103197900000000
  0.6130413500000000  0.0329949030000000  0.2713107500000000
  0.7715352599999999  0.5276445400000001  0.2983406000000000
  0.5098191500000000  0.6299880400000000  0.6644179900000000
  0.5148682100000000  0.5139003700000000  0.1697196000000000
  0.3096708900000000  0.7208085200000000  0.8560653700000000
  0.7869267900000000  0.6698060300000001  0.0407725610000000
  0.7308952900000000  0.2067174500000000  0.3993214800000000
  0.2705755300000000  0.0756920920000000  0.6104601700000000
  0.2469039200000000  0.8763148700000000  0.9336514400000000
  0.1063077100000000  0.5583147100000000  0.4648996200000000
  0.2130164300000000  0.2916048200000000  0.0734213190000000
  0.6262782000000000  0.7685720900000000  0.7066150800000000
  0.8055734200000000  0.9369441600000000  0.1481577200000000
  0.4132514000000000  0.5709165600000000  0.5785447000000000
  0.2303563200000000  0.7269708499999999  0.2729531300000000
  0.6669632100000000  0.1468366400000000  0.6740837300000000
  0.7039600900000000  0.3228487600000000  0.2722193500000000
  0.8944580300000000  0.1964235600000000  0.1001734200000000
  0.7278428600000000  0.1462360700000000  0.1847845900000000
  0.0261677860000000  0.1422155200000000  0.2551798000000000
  0.0040814922000000  0.1286966000000000  0.8152191300000000
  0.6026552200000000  0.2426144000000000  0.6394308399999999
  0.0995768040000000  0.7374681600000000  0.6550440400000000
  0.8277035100000000  0.1706577100000000  0.4690112000000000
  0.7047609900000000  0.1969767300000000  0.0426841760000000
  0.3671055500000000  0.6950585300000000  0.5834437099999999
  0.8436044500000000  0.8247921600000000  0.8530350300000000
  0.5683606800000000  0.8426023400000000  0.9075827400000001
  0.1827593700000000  0.9709817100000000  0.7506298500000000
  0.4348104900000000  0.8935099000000000  0.9898373200000000
  0.6559213100000000  0.0717514770000000  0.5689497300000000
  0.4144102300000000  0.7526125299999999  0.9908676199999999
  0.8483560900000000  0.9230616699999999  0.5761703200000000
  0.4061253300000000  0.2889002900000000  0.6391417400000000
  0.5703800900000000  0.8004676400000000  0.0696189610000000
  0.1228477100000000  0.2159761100000000  0.4550624600000000
  0.6887464100000000  0.0731583550000000  0.0857133500000000
  0.0736683670000000  0.0358556550000000  0.3210738100000000
  0.7714618700000000  0.2810419800000000  0.7203173500000000
  0.6055349300000000  0.1556614600000000  0.2243972100000000
  0.1445889100000000  0.1849412400000000  0.3222481600000000
  0.7885834400000000 -0.0077203823000000  0.0306757390000000
  0.4002498400000000  0.2731372500000000  0.1781314800000000
  0.7074507300000000  0.3413749400000000  0.5240691700000000
  0.1333353500000000  0.0224317210000000  0.8706783400000000
  0.6197575200000000  0.6910753300000000  0.1405334900000000
  0.4112226100000000  0.6524496000000000  0.2691545300000000
  0.4039727000000000  0.3317868400000000  0.5011684400000000
  0.7677733900000000  0.4469613500000000  0.1378750700000000
  0.5902740000000000  0.6026417800000000  0.3299336200000000
  0.2482836400000000  0.7116179100000000  0.1468368000000000
  0.6344016800000000  0.5444283100000000  0.9437057200000000
  0.8193308800000000  0.6592683800000000  0.5683904800000000
  0.8403777100000001  0.1513332800000000  0.9863338800000000
  0.7086855900000000  0.4245427700000000  0.3558914800000000
  0.2554504500000000  0.8396159399999999  0.3276322300000000
  0.9288047200000000  0.6773778800000000  0.7431985500000000
  0.6744438100000000  0.7547937500000000  0.8802863500000000
  0.5177833400000000  0.5242166700000001  0.5155433200000000
  0.8147394400000000  0.4253100300000000  0.8666332000000000
  0.9561360400000000  0.0863409190000000  0.5973698200000001
  0.1186470900000000  0.1906213000000000  0.8248193000000000
  0.2250968800000000  0.7368675900000000  0.6115743500000000
  0.0185059240000000  0.0009518200200000  0.7946104400000000
  0.0223188530000000  0.0845836400000000  0.4773598600000000
  0.5248851200000000  0.0144555090000000 -0.0007978127800000
  0.7815627400000000  0.2538838100000000  0.1342672600000000
  0.9111595400000000  0.9847013600000000  0.8803393400000000
  0.6828496800000000  0.3994284800000000  0.8391396200000000
  0.9066176500000001  0.1818795500000000  0.7511854400000000
  0.9116096900000000  0.7928536300000000  0.2072787200000000
  0.0863898630000000  0.9030057200000000  0.4219686200000000
  0.0308426340000000  0.5147774200000000  0.2763605000000000
  0.6000656700000000  0.4491588500000000  0.2414992900000000
  0.3721861100000000  0.9827121200000000  0.2077749400000000
  0.0855029330000000  0.4545263700000000  0.0803646870000000
  0.7971524300000000  0.3302549100000000  0.4080307800000000
  0.7900590100000000  0.0813790180000000  0.8593172800000000
  0.9589381100000000  0.2629926900000000  0.2221447800000000
  0.3666742900000000  0.8473269100000000  0.2361407800000000
  0.0770404410000000  0.5373116999999999  0.6499560500000000
  0.1394009200000000  0.8159429600000000  0.7569199000000000
  0.6718338200000000  0.3679763900000000  0.6650310500000000
  0.9334818100000000  0.1479455600000000  0.3924185400000000
  0.4003654700000000  0.0909270000000000  0.7378409800000000
  0.1341369700000000  0.8864879700000000  0.0603591920000000
  0.0217641310000000  0.7202932399999999  0.3405255800000000
  0.0693818740000000  0.4299005900000000  0.4681305400000000
  0.8804628400000000 -0.0037913477000000  0.3793333000000000
  0.6555083800000000  0.2605474500000000  0.9382374800000000
  0.0415601510000000  0.5850616300000000  0.1208094900000000
  0.7723320400000000  0.5990289400000000  0.6834088699999999
  0.0774522230000000  0.0483349290000000  0.6565882300000000
  0.3006808500000000  0.3101627800000000  0.9030903500000000
  0.2783358300000000  0.8429512100000000  0.1277387200000000
  0.9102347600000000  0.1006656100000000  0.1931411700000000
  0.7973613500000000  0.0584385440000000  0.7229718800000000
  0.7944218400000000  0.0653913460000000  0.5437245700000000
  0.6390638000000000  0.8875731400000000  0.2559563100000000
  0.1875313500000000  0.4704539700000000  0.9806563100000000
  0.9031820699999999  0.7951343100000000  0.5996377800000000
  0.1236843900000000  0.1658360300000000  0.1597577200000000
  0.6593030700000000  0.3579032900000000  0.1552318800000000
  0.5240574900000000  0.3294726400000000  0.8908684400000000
  0.6063900700000000  0.8648899500000000  0.4019707700000000
  0.2737162000000000  0.3383783300000000  0.6851365900000000
  0.4505875600000000  0.4859251900000000  0.3759865600000000
  0.5923035700000000  0.3584123500000000  0.4458826000000000
  0.3379218100000000  0.6819968300000000  0.4404001300000000
  0.4037807500000000  0.3884448100000000  0.8305982900000000
  0.7906175400000000  0.4619171100000000  0.6738911100000000
  0.3739696800000000  0.0013696746000000  0.5980436200000000
  0.0115220610000000  0.9110773200000000  0.3070875900000000
  0.1272476900000000  0.6727419300000000  0.0555809010000000
  0.7500870700000000  0.7832990700000000  0.6717651500000000
  0.4701884600000000  0.4759458600000000  0.9152849600000000
  0.3820781600000000  0.5941864700000000  0.7628096800000000
  0.0782113460000000  0.3232391500000000  0.8045979200000000
  0.0222728350000000  0.2730738800000000  0.0079907585000000
  0.5246410500000001  0.6803271300000000  0.4232150800000000
  0.1715706700000000  0.3443263900000000  0.4229942200000000
  0.1656868100000000  0.0306883770000000  0.5482142700000000
  0.2564947000000000  0.2264528900000000  0.1762412000000000
  0.0830323760000000  0.0024378030000000  0.1112955500000000
  0.1984448200000000  0.2636803400000000  0.5964883700000000
  0.2626090700000000  0.4091171300000000  0.0775665650000000
  0.4636917000000000  0.8744168200000000  0.1227619000000000
  0.6726143400000000  0.3946758100000000  0.9781929100000000
  0.5187378400000000  0.6137540100000000  0.0908658180000000
  0.9432792900000000  0.5109697500000000  0.6795830000000000
  0.2123699700000000  0.7311520500000001  0.4725610000000000
  0.5324580600000000  0.9338981900000000  0.4921486500000000
  0.4939573600000000  0.1903105700000000  0.5951358600000000
  0.8001675800000000  0.5654794000000000  0.8401540300000000
  0.0702565250000000  0.8211365400000000  0.2210637000000000
  0.5374430100000001  0.2230773100000000  0.4647005900000000
  0.8484144100000000  0.2576213000000000  0.5659182900000000
  0.0314780640000000  0.7575828700000000  0.9174419200000000
  0.8447750200000000  0.8789757700000000  0.3175634200000000
  0.5418352600000000  0.9894017700000000  0.1364153000000000
  0.6728629400000000  0.4869979800000000  0.5045718800000000
  0.7925209500000000  0.8081028400000000  0.1427800300000000
  0.0110859730000000  0.1336252900000000  0.0291638890000000
  0.9820099000000000  0.4760158100000000  0.8120588700000000
  0.7686428400000000  0.5591987899999999  0.9747317000000000
  0.3132384600000000  0.9591140300000000  0.0075635401000000
  0.5568342400000000  0.7386476600000000  0.6011643400000000
  0.8003936400000000  0.7057779000000000  0.7908632200000000
  0.6056520900000000  0.5063966700000000  0.6260783100000000
  0.4778103200000000  0.3919374300000000  0.7056552100000000
  0.1226626100000000  0.6580664600000000  0.2742818300000000
  0.5638367399999999  0.1477291500000000  0.9565733300000000
  0.8508816500000000  0.4059353800000000  0.2521439100000000
  0.2934591800000000  0.9111936899999999  0.8176235200000000
  0.1986036800000000  0.2322018500000000  0.9602003400000000
  0.7248376800000000  0.8608564000000000  0.5554253700000000
  0.5337160500000000  0.3407798100000000  0.0371821750000000
  0.2533200300000000  0.8636926100000000  0.4863268900000000
  0.2344640000000000  0.5182055500000000  0.6359009200000000
  0.3216645500000000  0.1627323100000000  0.9854702000000000
  0.4449036900000000  0.4171948800000000  0.1224135100000000
  0.3932638400000000  0.6799284200000000  0.1339340000000000
  0.4407390300000000  0.8147186400000000  0.5556221900000000
  0.3351435500000000  0.4619347200000000  0.2082946800000000
  0.6305016000000000  0.7462840600000000  0.4835431700000000
  0.5139571500000000  0.3934577100000000  0.5534904400000000
  0.9597022500000000  0.3947174600000000  0.1663272500000000
  0.1106954300000000  0.3481532400000000  0.9336918100000000
  0.8123072600000000  0.4689720700000000  0.5409468500000000
  0.9361721300000000  0.5969935300000000  0.8562553300000000
  0.5055040600000000  0.7896710900000000  0.3391572700000000
  0.9706270000000000  0.9548101800000000  0.4793493300000000
  0.3166717400000000  0.8755368700000000  0.6108901100000000
  0.9831384500000000  0.7283382600000000  0.1032822400000000
  0.1772320900000000  0.9050366700000000  0.5999593600000001
  0.1834885700000000  0.4129940200000000  0.7685109900000000
  0.5219974100000000  0.0534218100000000  0.6862734300000000
  0.9088419500000000  0.3707968900000000  0.5104048100000000
  0.2944695500000000  0.0075218946000000  0.3175039700000000
  0.2919017100000000  0.5923451300000000  0.8761560400000000
  0.3108223300000000  0.4706884000000000  0.3778251900000000
  0.8993145700000000  0.7154856600000000 -0.0050714907000000
  0.6640834000000000  0.2074797300000000  0.5129146700000000
  0.6485163900000001  0.9046082600000001  0.1148729900000000
  0.4479026400000000  0.1441978300000000  0.1706565600000000
  0.0936099040000000  0.3000312500000000  0.1225747100000000
  0.1516827100000000  0.7231069000000000  0.8577048700000000
  0.3042579800000000  0.1455360600000000  0.3206477700000000
  0.2777687900000000  0.7912361100000000  0.7500108000000000
  0.1339104700000000  0.3196969900000000  0.2923368300000000
  0.8067291800000000  0.1127955500000000  0.2797824600000000
  0.1037455300000000  0.4113415900000000  0.5999793800000000
  0.6992887200000000  0.5526152900000000  0.1917452400000000
  0.2707983200000000  0.1107374100000000  0.4503630600000000
  0.2996603800000000  0.0497976610000000  0.9061972100000000
  0.5774766500000000  0.2143722100000000  0.0804159420000000
  0.8248821900000000  0.2637632400000000  0.2757896300000000
  0.1113267100000000  0.5209442600000000  0.8381162599999999
  0.9646766800000000  0.9010055800000000  0.9777343800000000
  0.6740179100000000  0.0787164040000000  0.3803472900000000
  0.2357517100000000  0.5974028900000000  0.0095340427000000
  0.5095841300000000  0.5356954900000001  0.7965819700000000
  0.4209267400000000  0.7163467200000000  0.7098513900000000
  0.3540317500000000  0.5618362300000000  0.0744105310000000
  0.3944980200000000  0.0549406440000000  0.4736792300000000
  0.9392112400000000  0.2766885400000000  0.8453822200000000
  0.4318282600000000  0.9179697300000000  0.8365350600000000
  0.9515162400000000  0.4333584900000000  0.3553807500000000
  0.6883782899999999  0.9643546400000000  0.7367869200000000
  0.4452629200000000  0.3520930900000000  0.3529301200000000
  0.5937139900000000  0.1301455000000000  0.7778260500000000
  0.6112531800000000  0.2480806500000000  0.3254939600000000
  0.2447346700000000  0.0961665720000000  0.7333774199999999
  0.7108972700000000  0.7711902000000000  0.0111932740000000
  0.9700825400000000  0.7972545300000000  0.7994033800000000
  0.2997882900000000  0.5525681900000000  0.5149565400000000
  0.3916231700000000  0.8124363999999999  0.4255308900000000
  0.0084250175000000  0.5920450400000000  0.3884490000000000
  0.7219665500000000  0.6306436900000000  0.3604719300000000
  0.0550880520000000  0.7809973700000000  0.4804588400000000
  0.3195635400000000  0.3579059000000000  0.2966724000000000
  0.1868448700000000  0.8895585000000000  0.2208810100000000
  0.3182541400000000  0.1204989200000000  0.1158719400000000
  0.4094590800000000  0.5986363800000000  0.9508178800000000
  0.6397552000000000  0.9460175000000000  0.9685073300000000
  0.2931672000000000  0.4129104400000000  0.5015262900000000
  0.5542907000000000  0.0695920740000000  0.4518591900000000
  0.4265122300000000  0.2232312600000000  0.7688149000000000
  0.7557548900000000 -0.0170629200000000  0.4395798400000000
  0.9669214500000000  0.2195281300000000  0.6308555800000000
  0.4307027600000000  0.0532426020000000  0.8662179400000000
  0.8258445300000000  0.2741338800000000  0.9224806400000000
  0.2367946800000000  0.6335003600000000  0.7076355700000000
  0.4484450200000000  0.2119239100000000  0.9137368700000000
  0.1667056000000000  0.0291020290000000  0.2196356000000000
  0.6602739700000000  0.0307348400000000  0.8529162700000000
  0.6207756000000000  0.9369969600000000  0.5994839199999999
  0.5900179300000000  0.6732247900000000  0.9531811400000000
  0.8844409800000000  0.5349850000000000  0.1427136900000000
  0.8040951300000000  0.6442642400000000  0.1664635200000000
  0.9316011300000000  0.9573281700000000  0.1755731100000000
  0.4927373100000000  0.0341126120000000  0.3320644800000000
  0.5893532500000001  0.8723875100000000  0.7718330400000000
  0.0589089130000000  0.6214073700000000  0.9358928600000000
  0.8835228500000000  0.9519171000000000  0.7049145999999999
  0.9085003500000000  0.3529142800000000  0.0435984630000000
  0.4080243400000000  0.2794674400000000  0.0379420070000000
  0.7026245000000000  0.6227186400000000  0.4969074800000000
  0.4803043700000000  0.9199343000000000  0.7071524700000000
  0.9722606000000000  0.3824387000000000  0.6371303200000000
  0.9221950500000000  0.8073403900000000  0.4631855700000000
  0.1353871800000000  0.1698462000000000  0.6888460500000000
  0.7118353600000000  0.7690247300000000  0.2700679700000000
  0.7545796000000000  0.8083178500000000  0.3963277800000000
  0.9491400200000000  0.5719912600000000  0.0148893630000000
  0.2333333600000000  0.5555630800000000  0.2259010600000000
  0.1063544000000000  0.6360806100000000  0.7574131800000000
  0.3667945600000000  0.4950310600000000  0.6717108500000000
  0.6564299900000000  0.5373385800000000  0.8083399300000000
  0.8773530000000000  0.3660041900000000  0.7595321100000000
  0.1172799400000000  0.8944214600000000  0.9223582299999999
  0.4368133400000000  0.7555470500000000  0.8522381500000000
  0.0473882340000000  0.6296588000000000  0.5561613700000000
  0.9152151300000000  0.5659392100000000  0.5384914500000000
  0.8363230400000000  0.8407220600000000  0.0095644198000000
  0.2770229600000000  0.7581280500000001  0.9742672999999999
  0.5695778800000000  0.3002073600000000  0.7547024500000000
  0.1452859100000000  0.1012891000000000  0.0377154260000000
  0.9278730900000000  0.0107596460000000  0.0502090130000000
  0.4435070600000000  0.1582176500000000  0.3072647500000000
  0.7373384900000000  0.2119609600000000  0.8348593200000000
  0.5237285100000000  0.3234723000000000  0.2402301000000000
  0.8550393800000000  0.7038828600000000  0.3970975500000000
  0.1640567800000000  0.4786001500000000  0.3149959400000000
 -0.0040722611000000  0.4419575200000000  0.9777045599999999
  0.3075930500000000  0.1889278300000000  0.5590730300000000
  0.0372201150000000  0.8405789900000000  0.6056774200000000
  0.2870434600000000  0.2428836300000000  0.7831747100000001
  0.7502352799999999  0.9671540500000000  0.2615838300000000
 -0.0056684121000000  0.2620930400000000  0.4388618500000000
 
  0.00000000E+00  0.00000000E+00  0.00000000E+00
  0.00000000E+00  0.00000000E+00  0.00000000E+00
  0.00000000E+00  0.00000000E+00  0.00000000E+00
  0.00000000E+00  0.00000000E+00  0.00000000E+00
  0.00000000E+00  0.00000000E+00  0.00000000E+00
  0.00000000E+00  0.00000000E+00  0.00000000E+00
  0.00000000E+00  0.00000000E+00  0.00000000E+00
  0.00000000E+00  0.00000000E+00  0.00000000E+00
  0.00000000E+00  0.00000000E+00  0.00000000E+00
  0.00000000E+00  0.00000000E+00  0.00000000E+00
  0.00000000E+00  0.00000000E+00  0.00000000E+00
  0.00000000E+00  0.00000000E+00  0.00000000E+00
  0.00000000E+00  0.00000000E+00  0.00000000E+00
  0.00000000E+00  0.00000000E+00  0.00000000E+00
  0.00000000E+00  0.00000000E+00  0.00000000E+00
  0.00000000E+00  0.00000000E+00  0.00000000E+00
  0.00000000E+00  0.00000000E+00  0.00000000E+00
  0.00000000E+00  0.00000000E+00  0.00000000E+00
  0.00000000E+00  0.00000000E+00  0.00000000E+00
  0.00000000E+00  0.00000000E+00  0.00000000E+00
  0.00000000E+00  0.00000000E+00  0.00000000E+00
  0.00000000E+00  0.00000000E+00  0.00000000E+00
  0.00000000E+00  0.00000000E+00  0.00000000E+00
  0.00000000E+00  0.00000000E+00  0.00000000E+00
  0.00000000E+00  0.00000000E+00  0.00000000E+00
  0.00000000E+00  0.00000000E+00  0.00000000E+00
  0.00000000E+00  0.00000000E+00  0.00000000E+00
  0.00000000E+00  0.00000000E+00  0.00000000E+00
  0.00000000E+00  0.00000000E+00  0.00000000E+00
  0.00000000E+00  0.00000000E+00  0.00000000E+00
  0.00000000E+00  0.00000000E+00  0.00000000E+00
  0.00000000E+00  0.00000000E+00  0.00000000E+00
  0.00000000E+00  0.00000000E+00  0.00000000E+00
  0.00000000E+00  0.00000000E+00  0.00000000E+00
  0.00000000E+00  0.00000000E+00  0.00000000E+00
  0.00000000E+00  0.00000000E+00  0.00000000E+00
  0.00000000E+00  0.00000000E+00  0.00000000E+00
  0.00000000E+00  0.00000000E+00  0.00000000E+00
  0.00000000E+00  0.00000000E+00  0.00000000E+00
  0.00000000E+00  0.00000000E+00  0.00000000E+00
  0.00000000E+00  0.00000000E+00  0.00000000E+00
  0.00000000E+00  0.00000000E+00  0.00000000E+00
  0.00000000E+00  0.00000000E+00  0.00000000E+00
  0.00000000E+00  0.00000000E+00  0.00000000E+00
  0.00000000E+00  0.00000000E+00  0.00000000E+00
  0.00000000E+00  0.00000000E+00  0.00000000E+00
  0.00000000E+00  0.00000000E+00  0.00000000E+00
  0.00000000E+00  0.00000000E+00  0.00000000E+00
  0.00000000E+00  0.00000000E+00  0.00000000E+00
  0.00000000E+00  0.00000000E+00  0.00000000E+00
  0.00000000E+00  0.00000000E+00  0.00000000E+00
  0.00000000E+00  0.00000000E+00  0.00000000E+00
  0.00000000E+00  0.00000000E+00  0.00000000E+00
  0.00000000E+00  0.00000000E+00  0.00000000E+00
  0.00000000E+00  0.00000000E+00  0.00000000E+00
  0.00000000E+00  0.00000000E+00  0.00000000E+00
  0.00000000E+00  0.00000000E+00  0.00000000E+00
  0.00000000E+00  0.00000000E+00  0.00000000E+00
  0.00000000E+00  0.00000000E+00  0.00000000E+00
  0.00000000E+00  0.00000000E+00  0.00000000E+00
  0.00000000E+00  0.00000000E+00  0.00000000E+00
  0.00000000E+00  0.00000000E+00  0.00000000E+00
  0.00000000E+00  0.00000000E+00  0.00000000E+00
  0.00000000E+00  0.00000000E+00  0.00000000E+00
  0.00000000E+00  0.00000000E+00  0.00000000E+00
  0.00000000E+00  0.00000000E+00  0.00000000E+00
  0.00000000E+00  0.00000000E+00  0.00000000E+00
  0.00000000E+00  0.00000000E+00  0.00000000E+00
  0.00000000E+00  0.00000000E+00  0.00000000E+00
  0.00000000E+00  0.00000000E+00  0.00000000E+00
  0.00000000E+00  0.00000000E+00  0.00000000E+00
  0.00000000E+00  0.00000000E+00  0.00000000E+00
  0.00000000E+00  0.00000000E+00  0.00000000E+00
  0.00000000E+00  0.00000000E+00  0.00000000E+00
  0.00000000E+00  0.00000000E+00  0.00000000E+00
  0.00000000E+00  0.00000000E+00  0.00000000E+00
  0.00000000E+00  0.00000000E+00  0.00000000E+00
  0.00000000E+00  0.00000000E+00  0.00000000E+00
  0.00000000E+00  0.00000000E+00  0.00000000E+00
  0.00000000E+00  0.00000000E+00  0.00000000E+00
  0.00000000E+00  0.00000000E+00  0.00000000E+00
  0.00000000E+00  0.00000000E+00  0.00000000E+00
  0.00000000E+00  0.00000000E+00  0.00000000E+00
  0.00000000E+00  0.00000000E+00  0.00000000E+00
  0.00000000E+00  0.00000000E+00  0.00000000E+00
  0.00000000E+00  0.00000000E+00  0.00000000E+00
  0.00000000E+00  0.00000000E+00  0.00000000E+00
  0.00000000E+00  0.00000000E+00  0.00000000E+00
  0.00000000E+00  0.00000000E+00  0.00000000E+00
  0.00000000E+00  0.00000000E+00  0.00000000E+00
  0.00000000E+00  0.00000000E+00  0.00000000E+00
  0.00000000E+00  0.00000000E+00  0.00000000E+00
  0.00000000E+00  0.00000000E+00  0.00000000E+00
  0.00000000E+00  0.00000000E+00  0.00000000E+00
  0.00000000E+00  0.00000000E+00  0.00000000E+00
  0.00000000E+00  0.00000000E+00  0.00000000E+00
  0.00000000E+00  0.00000000E+00  0.00000000E+00
  0.00000000E+00  0.00000000E+00  0.00000000E+00
  0.00000000E+00  0.00000000E+00  0.00000000E+00
  0.00000000E+00  0.00000000E+00  0.00000000E+00
  0.00000000E+00  0.00000000E+00  0.00000000E+00
  0.00000000E+00  0.00000000E+00  0.00000000E+00
  0.00000000E+00  0.00000000E+00  0.00000000E+00
  0.00000000E+00  0.00000000E+00  0.00000000E+00
  0.00000000E+00  0.00000000E+00  0.00000000E+00
  0.00000000E+00  0.00000000E+00  0.00000000E+00
  0.00000000E+00  0.00000000E+00  0.00000000E+00
  0.00000000E+00  0.00000000E+00  0.00000000E+00
  0.00000000E+00  0.00000000E+00  0.00000000E+00
  0.00000000E+00  0.00000000E+00  0.00000000E+00
  0.00000000E+00  0.00000000E+00  0.00000000E+00
  0.00000000E+00  0.00000000E+00  0.00000000E+00
  0.00000000E+00  0.00000000E+00  0.00000000E+00
  0.00000000E+00  0.00000000E+00  0.00000000E+00
  0.00000000E+00  0.00000000E+00  0.00000000E+00
  0.00000000E+00  0.00000000E+00  0.00000000E+00
  0.00000000E+00  0.00000000E+00  0.00000000E+00
  0.00000000E+00  0.00000000E+00  0.00000000E+00
  0.00000000E+00  0.00000000E+00  0.00000000E+00
  0.00000000E+00  0.00000000E+00  0.00000000E+00
  0.00000000E+00  0.00000000E+00  0.00000000E+00
  0.00000000E+00  0.00000000E+00  0.00000000E+00
  0.00000000E+00  0.00000000E+00  0.00000000E+00
  0.00000000E+00  0.00000000E+00  0.00000000E+00
  0.00000000E+00  0.00000000E+00  0.00000000E+00
  0.00000000E+00  0.00000000E+00  0.00000000E+00
  0.00000000E+00  0.00000000E+00  0.00000000E+00
  0.00000000E+00  0.00000000E+00  0.00000000E+00
  0.00000000E+00  0.00000000E+00  0.00000000E+00
  0.00000000E+00  0.00000000E+00  0.00000000E+00
  0.00000000E+00  0.00000000E+00  0.00000000E+00
  0.00000000E+00  0.00000000E+00  0.00000000E+00
  0.00000000E+00  0.00000000E+00  0.00000000E+00
  0.00000000E+00  0.00000000E+00  0.00000000E+00
  0.00000000E+00  0.00000000E+00  0.00000000E+00
  0.00000000E+00  0.00000000E+00  0.00000000E+00
  0.00000000E+00  0.00000000E+00  0.00000000E+00
  0.00000000E+00  0.00000000E+00  0.00000000E+00
  0.00000000E+00  0.00000000E+00  0.00000000E+00
  0.00000000E+00  0.00000000E+00  0.00000000E+00
  0.00000000E+00  0.00000000E+00  0.00000000E+00
  0.00000000E+00  0.00000000E+00  0.00000000E+00
  0.00000000E+00  0.00000000E+00  0.00000000E+00
  0.00000000E+00  0.00000000E+00  0.00000000E+00
  0.00000000E+00  0.00000000E+00  0.00000000E+00
  0.00000000E+00  0.00000000E+00  0.00000000E+00
  0.00000000E+00  0.00000000E+00  0.00000000E+00
  0.00000000E+00  0.00000000E+00  0.00000000E+00
  0.00000000E+00  0.00000000E+00  0.00000000E+00
  0.00000000E+00  0.00000000E+00  0.00000000E+00
  0.00000000E+00  0.00000000E+00  0.00000000E+00
  0.00000000E+00  0.00000000E+00  0.00000000E+00
  0.00000000E+00  0.00000000E+00  0.00000000E+00
  0.00000000E+00  0.00000000E+00  0.00000000E+00
  0.00000000E+00  0.00000000E+00  0.00000000E+00
  0.00000000E+00  0.00000000E+00  0.00000000E+00
  0.00000000E+00  0.00000000E+00  0.00000000E+00
  0.00000000E+00  0.00000000E+00  0.00000000E+00
  0.00000000E+00  0.00000000E+00  0.00000000E+00
  0.00000000E+00  0.00000000E+00  0.00000000E+00
  0.00000000E+00  0.00000000E+00  0.00000000E+00
  0.00000000E+00  0.00000000E+00  0.00000000E+00
  0.00000000E+00  0.00000000E+00  0.00000000E+00
  0.00000000E+00  0.00000000E+00  0.00000000E+00
  0.00000000E+00  0.00000000E+00  0.00000000E+00
  0.00000000E+00  0.00000000E+00  0.00000000E+00
  0.00000000E+00  0.00000000E+00  0.00000000E+00
  0.00000000E+00  0.00000000E+00  0.00000000E+00
  0.00000000E+00  0.00000000E+00  0.00000000E+00
  0.00000000E+00  0.00000000E+00  0.00000000E+00
  0.00000000E+00  0.00000000E+00  0.00000000E+00
  0.00000000E+00  0.00000000E+00  0.00000000E+00
  0.00000000E+00  0.00000000E+00  0.00000000E+00
  0.00000000E+00  0.00000000E+00  0.00000000E+00
  0.00000000E+00  0.00000000E+00  0.00000000E+00
  0.00000000E+00  0.00000000E+00  0.00000000E+00
  0.00000000E+00  0.00000000E+00  0.00000000E+00
  0.00000000E+00  0.00000000E+00  0.00000000E+00
  0.00000000E+00  0.00000000E+00  0.00000000E+00
  0.00000000E+00  0.00000000E+00  0.00000000E+00
  0.00000000E+00  0.00000000E+00  0.00000000E+00
  0.00000000E+00  0.00000000E+00  0.00000000E+00
  0.00000000E+00  0.00000000E+00  0.00000000E+00
  0.00000000E+00  0.00000000E+00  0.00000000E+00
  0.00000000E+00  0.00000000E+00  0.00000000E+00
  0.00000000E+00  0.00000000E+00  0.00000000E+00
  0.00000000E+00  0.00000000E+00  0.00000000E+00
  0.00000000E+00  0.00000000E+00  0.00000000E+00
  0.00000000E+00  0.00000000E+00  0.00000000E+00
  0.00000000E+00  0.00000000E+00  0.00000000E+00
  0.00000000E+00  0.00000000E+00  0.00000000E+00
  0.00000000E+00  0.00000000E+00  0.00000000E+00
  0.00000000E+00  0.00000000E+00  0.00000000E+00
  0.00000000E+00  0.00000000E+00  0.00000000E+00
  0.00000000E+00  0.00000000E+00  0.00000000E+00
  0.00000000E+00  0.00000000E+00  0.00000000E+00
  0.00000000E+00  0.00000000E+00  0.00000000E+00
  0.00000000E+00  0.00000000E+00  0.00000000E+00
  0.00000000E+00  0.00000000E+00  0.00000000E+00
  0.00000000E+00  0.00000000E+00  0.00000000E+00
  0.00000000E+00  0.00000000E+00  0.00000000E+00
  0.00000000E+00  0.00000000E+00  0.00000000E+00
  0.00000000E+00  0.00000000E+00  0.00000000E+00
  0.00000000E+00  0.00000000E+00  0.00000000E+00
  0.00000000E+00  0.00000000E+00  0.00000000E+00
  0.00000000E+00  0.00000000E+00  0.00000000E+00
  0.00000000E+00  0.00000000E+00  0.00000000E+00
  0.00000000E+00  0.00000000E+00  0.00000000E+00
  0.00000000E+00  0.00000000E+00  0.00000000E+00
  0.00000000E+00  0.00000000E+00  0.00000000E+00
  0.00000000E+00  0.00000000E+00  0.00000000E+00
  0.00000000E+00  0.00000000E+00  0.00000000E+00
  0.00000000E+00  0.00000000E+00  0.00000000E+00
  0.00000000E+00  0.00000000E+00  0.00000000E+00
  0.00000000E+00  0.00000000E+00  0.00000000E+00
  0.00000000E+00  0.00000000E+00  0.00000000E+00
  0.00000000E+00  0.00000000E+00  0.00000000E+00
  0.00000000E+00  0.00000000E+00  0.00000000E+00
  0.00000000E+00  0.00000000E+00  0.00000000E+00
  0.00000000E+00  0.00000000E+00  0.00000000E+00
  0.00000000E+00  0.00000000E+00  0.00000000E+00
  0.00000000E+00  0.00000000E+00  0.00000000E+00
  0.00000000E+00  0.00000000E+00  0.00000000E+00
  0.00000000E+00  0.00000000E+00  0.00000000E+00
  0.00000000E+00  0.00000000E+00  0.00000000E+00
  0.00000000E+00  0.00000000E+00  0.00000000E+00
  0.00000000E+00  0.00000000E+00  0.00000000E+00
  0.00000000E+00  0.00000000E+00  0.00000000E+00
  0.00000000E+00  0.00000000E+00  0.00000000E+00
  0.00000000E+00  0.00000000E+00  0.00000000E+00
  0.00000000E+00  0.00000000E+00  0.00000000E+00
  0.00000000E+00  0.00000000E+00  0.00000000E+00