Sb                                      
   1.00000000000000     
    18.9085750815908753    0.0000000000000000    0.0000000000000000
     0.0000000000000000   18.9085750815908753    0.0000000000000000
     0.0000000000000000    0.0000000000000000   18.9085750815908753
   Sb   Sn
   195    21
Direct
  0.0847889697167120  0.9317186153202076  0.6722609602933096
  0.5848898103752476  0.7644409087137025  0.3363853870705880
  0.0742014951303079  0.0869869558616920  0.0143716052430278
  0.9172311652161463  0.9291919082949068  0.8406900444584736
  0.9181143648144476  0.0963043835415619  0.6731458065046162
  0.7496270936172269  0.0966319111858912  0.8395823472848256
  0.4190932312304503  0.5987884017971419  0.0033842754853173
  0.4073159149081444  0.0877056064783235  0.3467620638436186
  0.2502175416978089  0.7624061039330223  0.3392115161651089
  0.7507988210040798  0.7632860313868119  0.1721773271275618
  0.2505010293878380  0.2643858316398577  0.5037205652927723
  0.7502281844411991  0.2625705885721582  0.3398664010848678
  0.5838149154158985  0.7642652943993519  0.6689099865917528
  0.4190337026043159  0.2638295693510631  0.0045404368492344
  0.4186269974920611  0.9303957715373252  0.0032487110060807
  0.2415162966868498  0.0884111803639661  0.8484739214315766
  0.4159208357068074  0.0950325527247464  0.1718684611903740
  0.7497711264334689  0.7624248580051952  0.8385614063037137
  0.7421544089939857  0.0880279001182389  0.6797719854244013
  0.9082129484869725  0.2534426851440917  0.6806832596040363
  0.5757554326565998  0.7555930265259176  0.1792785174490947
  0.0836807521970492  0.2631424312006641  0.0041186942081192
  0.4098810253166660  0.5879623492367226  0.1787674527697313
  0.7498859207497175  0.5976385527112253  0.0031270691411870
  0.7413965055267029  0.0877426357510399  0.3483619025305881
  0.9092868158216764  0.4210204628960581  0.8473239062597109
  0.9159018579495710  0.7623510803710299  0.6727933160426022
  0.9188466824400129  0.5983090763885902  0.1708657041660241
  0.0840451715244937  0.4302341176094379  0.1716710989760604
  0.7423580132295047  0.5875492148421049  0.8454425699722509
  0.2502815291778198  0.5976019272112040  0.8367983185376902
  0.0740894669582705  0.2543353159259654  0.1804802649056694
  0.5746841564250318  0.4201158043416163  0.1800091248969461
  0.2502263839192685  0.0974085177410427  0.6724389680980496
  0.2512834233164328  0.7627804065802157  0.0055080768585831
  0.4096532614287480  0.4216690000993383  0.0139707549507572
  0.7509786443156534  0.9302313435750911  0.3410623626130959
  0.9072589557002052  0.2527783397882462  0.3488743442979794
  0.0749626474046206  0.2543954735647129  0.8476581925076252
  0.0828516807064772  0.7622050747409819  0.8396014659015477
  0.0744726328232129  0.4219904529242699  0.3474252260980808
  0.2410966202041669  0.5888890683494676  0.6813370995595390
  0.7503900032064871  0.4304190218586264  0.5029433993659725
  0.0834842942946964  0.7632872378711585  0.1724815442638597
  0.9071219831676973  0.9196617992085708  0.6815531829373006
  0.9070221644318642  0.7554313667335822  0.1809511394692813
  0.0831335663147209  0.9316956548916214  0.3385946730028464
  0.0753358879542591  0.5868800548935061  0.8477439216593899
  0.2426064200469196  0.7548140725724296  0.1814764607018793
  0.5828427782391061  0.0967477832249194  0.0061614515113408
  0.9077895156014621  0.5869327379454640  0.0130307684423886
  0.0848004055536880  0.7630805264489950  0.5047441919966712
  0.7405854112497002  0.9194194661911309  0.1812882219999766
  0.5756204525988375  0.5897929568228233  0.0117678017038939
  0.2423265228071792  0.7553729066347148  0.5135047877751781
  0.5852388676089975  0.5989251587226548  0.1680300382818345
  0.9167017257936479  0.9303671538220573  0.1739515488273411
  0.4186291056912571  0.9312205185978600  0.3360825605263912
  0.0732631517513552  0.9212185598045168  0.1814999557254388
  0.4190387901506396  0.2635223000590511  0.3374751392489055
  0.7489689831346376  0.0959761396641180  0.1737977393076015
  0.9185988556878245  0.2632652047508000  0.8377000893726833
  0.7501359265475543  0.9297062220899128  0.6730317090230080
  0.2415413127917305  0.9208740122609004  0.3483593178830124
  0.4183636646136932  0.4303287731466408  0.8373926486967125
  0.0743534408012158  0.7548426333300845  0.3483661080272255
  0.4185656504857589  0.0979493218328067  0.5041199833982867
  0.7410015499627074  0.5877303929656434  0.5118141455579416
  0.4088101352687862  0.2549367641501479  0.8474577787604983
  0.2513188208180724  0.9320243894075446  0.1709895842969358
  0.7492771154945930  0.0957544488453389  0.5055004003001647
  0.7432018179598927  0.5887436357405404  0.1778832575665749
  0.5752779805515914  0.9211476610017508  0.3461623811868337
  0.2511381671904280  0.2634045789369768  0.1715762397657369
  0.2512115235737384  0.5987727935934607  0.5039262602005877
  0.5838481487547436  0.5969706325749989  0.8364010725369941
  0.2414080265444057  0.4206520312332391  0.1815005599977993
  0.5826200440390720  0.9318137293527323  0.8394981358966551
  0.9077322620917989  0.2545721919147521  0.0151969316012979
  0.0834945732199292  0.0976458510380301  0.5044230059750493
  0.9065891068826754  0.0864829695298234  0.1831791024083210
  0.7403777294847264  0.9207908191281376  0.5158210860379900
  0.0733132182564899  0.2550977523052090  0.5132681646705248
  0.2414041816430827  0.2529299562417163  0.0146049893235845
  0.4087438750817766  0.2553784417958567  0.5141826120616845
  0.2408112622943830  0.2533167167103572  0.3477790100242117
  0.2421742825335021  0.9210231960551241  0.0144706594076393
  0.0736378971183988  0.4220556826718772  0.0134411967078482
  0.2420831258825218  0.2541725675291885  0.6800391812044507
  0.9076875059582001  0.5873391968299841  0.3470279605871558
  0.2503614144181682  0.4300031525676954  0.3386305775251200
  0.5734379581239016  0.9221594509111835  0.6781958968931353
  0.4091087498979889  0.7555353973657326  0.6794566237167331
  0.7411671266160587  0.7553495991656345  0.6756327666257458
  0.7508320659747559  0.2633784381362304  0.6707105060991895
  0.0739648766957180  0.9205415982983350  0.8490785930041395
  0.2508284270382770  0.4314603310990838  0.6716829494971120
  0.4088542876410451  0.9216311769784761  0.5143146125143031
  0.4182483617702221  0.4298164554297090  0.1710799839537347
  0.9081610019824359  0.7542657813705070  0.5148913484904046
  0.2509912311906972  0.4306134012395916  0.0040097008528019
  0.5754920229901501  0.2557184077105234  0.0146026793371236
  0.7412770317620400  0.2534643887109696  0.5146534376661471
  0.5727822941814663  0.0865184734628724  0.1808221647169845
  0.9160319120095509  0.7621194998947861  0.0078005282408821
  0.5833007747012229  0.9313735194019742  0.1687976318406834
  0.0738103059648017  0.0881158532203536  0.3470842664488861
  0.5841625303479578  0.2647728487892569  0.8378352473645537
  0.2501784390963059  0.9307950838094902  0.5049326250397389
  0.0762619492219953  0.5879830352960927  0.1799880873750609
  0.4080960794624164  0.2527009110958344  0.1803529874258067
  0.4069525512304399  0.9218008753618389  0.8471962338662727
  0.7496045537614385  0.9301854717858473  0.0061290203989859
  0.4094100605019342  0.7548980753928938  0.0131798583292536
  0.5848255634628746  0.7668408229691845  0.0031947495604182
  0.2412265858609332  0.0878459739441273  0.5151579175905248
  0.7516542160899753  0.4310501455764597  0.1689814830183746
  0.9070427126038171  0.0866535142671048  0.5154409410225758
  0.0734593929080835  0.9213172861004298  0.5148391290371792
  0.7507814389818080  0.5964283491786316  0.3364313939568672
  0.9076644341405231  0.9210218369165091  0.3499485215396736
  0.9162098926900780  0.4284375120590107  0.0046639408058991
  0.7399367273591620  0.9195999337163425  0.8496778283601462
  0.0847334218242750  0.2644632262271064  0.3369248850313784
  0.2497237355177781  0.9318924501012984  0.8371451256113936
  0.2411377174529746  0.9214180901204310  0.6809586936342320
  0.4178938647733049  0.2640644467026483  0.6709969600987005
  0.0822828890907466  0.9297312391762942  0.0056362817005415
  0.7507452191078210  0.4302623691259664  0.8365826969526209
  0.4177095304774658  0.9305426278481936  0.6702554097306125
  0.9176854969527759  0.4296222406751172  0.3382485623872096
  0.4083008226731450  0.0869628011135932  0.0137162344776918
  0.5727746972302353  0.0892250148973329  0.8487222861390877
  0.9165388746484132  0.2628987010526759  0.5043691468164200
  0.5744537452083229  0.0882669762987348  0.5140329446657382
  0.9073854790232905  0.7526609965928828  0.8490153214195383
  0.7417664468441021  0.4219835487515654  0.6797155644376033
  0.0760161898494690  0.0888010738510934  0.6809406485135062
  0.7417275852286670  0.2547878197003551  0.8490694725980841
  0.0839414720609967  0.4301946156908729  0.5050684089152411
  0.9153389824446052  0.0949258975654211  0.3405465849625030
  0.9185563671106554  0.2636808881558024  0.1723036852804274
  0.5833004867825198  0.2624234728864937  0.1722463267028327
  0.7406699355683969  0.2527015645494065  0.1824216382213554
  0.9194731518227551  0.5956410254057454  0.8383848541103973
  0.5736402566593247  0.2534960996444682  0.3481695904975197
  0.9084187264920363  0.5855988880994253  0.6814552759954091
  0.2420558084003960  0.5870080253879880  0.0131431683640087
  0.0735272117472524  0.7545850165079115  0.0160123329846558
  0.0830305781832211  0.5967093867566893  0.6735663104190258
  0.7412514529768087  0.4212257814278783  0.3468805449445511
  0.4166239503345248  0.7634081120541482  0.8365255776989773
  0.0846443139900786  0.5980105949865262  0.3382539758499717
  0.9177778175027902  0.5970985302301178  0.5045939313412861
  0.5740672329171697  0.4218817001439826  0.8468387340789603
  0.5840400524286273  0.0976384038415844  0.6714349297489152
  0.9088890046555015  0.4211305132010187  0.1794682600826091
  0.2415390164103162  0.4215393180576709  0.8483141409425436
  0.2491790365050322  0.0954658957843559  0.0060272012637844
  0.9145374668142600  0.9285559289313660  0.5072402292054727
  0.5773483889797029  0.7554276601174902  0.5108439166247493
  0.2424645925942802  0.5884089324813784  0.3468494482868425
  0.2417785173245531  0.4214690027758491  0.5147690603892345
  0.4076563389930284  0.9213271399173778  0.1793409048610648
  0.0750260321662020  0.5875832782105875  0.5153699517944549
  0.2408987843185176  0.0867997000544639  0.1823673550131473
  0.0850585569968160  0.2650289105768946  0.6700525394441901
  0.4171480174156577  0.0978770678048832  0.8383369182105369
  0.0742882804783891  0.7534807846336612  0.6820582799089805
  0.2515161411477881  0.2651843199975990  0.8368318605128259
  0.7498843794619574  0.2638860591925323  0.0053723873117614
  0.5742450805358859  0.7547529543687268  0.8458231967775485
  0.7426661773410496  0.4229534790215262  0.0125776396459042
  0.2524197801498283  0.5979997988255470  0.1695926086120542
  0.4183021618355504  0.7633883532664681  0.5036268294246230
  0.0838116004400343  0.0963020695806308  0.8394121645672268
  0.5742130400734754  0.2553024078254910  0.6795856149941767
  0.9191076464911182  0.4303675452532780  0.6701519680189337
  0.9170762248810754  0.0948427445456864  0.0060942113350287
  0.4081684517044887  0.7556185397970477  0.3454378160909840
  0.0742727503343247  0.4214448047946784  0.6818412090135626
  0.2409070095737972  0.7533177009392822  0.8481826389490132
  0.9074603415228462  0.0866916427000075  0.8495873406765864
  0.4078220924771965  0.4214160978226590  0.3480003642490045
  0.4179836705042301  0.5984353262790656  0.3364845620843365
  0.5841433714642158  0.4288521873202406  0.3384166914849609
  0.4090993997741963  0.5888277240842394  0.5142453299852997
  0.5760256703114486  0.5881877552123846  0.3456273632299370
  0.4084001835878284  0.4222248724364538  0.6814200832517974
  0.4195067273682020  0.4307611289065051  0.5049432906408837
  0.5847899726256351  0.5957533886159450  0.5029294085444586
  0.5742395326629385  0.5890479741709888  0.6793394021599920
  0.4160586262833774  0.5987320604237091  0.6721109023818383
  0.5843634162720365  0.4307692932751808  0.6697748694034938
  0.5762746201618699  0.4224536452159882  0.5128163089739822
  0.0824218866320287  0.0956553348801966  0.1727288077293427
  0.5770618748088593  0.9245805470915894  0.0108650724737811
  0.5831222591159130  0.2624085738421919  0.5056518289485414
  0.5814512685433605  0.0949543222375652  0.3403056387548852
  0.7438582169719145  0.7574710458345281  0.0107060569624550
  0.4095023095734805  0.5887259266500858  0.8455714968231021
  0.0825761392597417  0.5958867431984364  0.0053557071535420
  0.5821904064641348  0.9290219715823407  0.5050428298928112
  0.9090640991755927  0.4217801124284614  0.5121044294586428
  0.4089999569862987  0.0895186528156834  0.6791863017534949
  0.4163571003640230  0.7626173771235711  0.1715812618938332
  0.9146070218073131  0.7625502248890891  0.3412995789905189
  0.2495113812298447  0.7626078404979028  0.6723782640489883
  0.7426430118865869  0.7545847052329393  0.3433607588895252
  0.2486512620487733  0.0948803331719073  0.3400318427106934
  0.7421743972022394  0.0887055616028427  0.0148223324581059
  0.0831141859994437  0.4296882399753525  0.8398281166696606
  0.9083427254708067  0.9213909157627702  0.0150303814419425
  0.7487642148127519  0.5969529169016986  0.6705396639868050
  0.5828790240491593  0.4308629967437781  0.0049526138887743
  0.7506067156735716  0.7627056706501765  0.5056691824567885
 
  0.00000000E+00  0.00000000E+00  0.00000000E+00
  0.00000000E+00  0.00000000E+00  0.00000000E+00
  0.00000000E+00  0.00000000E+00  0.00000000E+00
  0.00000000E+00  0.00000000E+00  0.00000000E+00
  0.00000000E+00  0.00000000E+00  0.00000000E+00
  0.00000000E+00  0.00000000E+00  0.00000000E+00
  0.00000000E+00  0.00000000E+00  0.00000000E+00
  0.00000000E+00  0.00000000E+00  0.00000000E+00
  0.00000000E+00  0.00000000E+00  0.00000000E+00
  0.00000000E+00  0.00000000E+00  0.00000000E+00
  0.00000000E+00  0.00000000E+00  0.00000000E+00
  0.00000000E+00  0.00000000E+00  0.00000000E+00
  0.00000000E+00  0.00000000E+00  0.00000000E+00
  0.00000000E+00  0.00000000E+00  0.00000000E+00
  0.00000000E+00  0.00000000E+00  0.00000000E+00
  0.00000000E+00  0.00000000E+00  0.00000000E+00
  0.00000000E+00  0.00000000E+00  0.00000000E+00
  0.00000000E+00  0.00000000E+00  0.00000000E+00
  0.00000000E+00  0.00000000E+00  0.00000000E+00
  0.00000000E+00  0.00000000E+00  0.00000000E+00
  0.00000000E+00  0.00000000E+00  0.00000000E+00
  0.00000000E+00  0.00000000E+00  0.00000000E+00
  0.00000000E+00  0.00000000E+00  0.00000000E+00
  0.00000000E+00  0.00000000E+00  0.00000000E+00
  0.00000000E+00  0.00000000E+00  0.00000000E+00
  0.00000000E+00  0.00000000E+00  0.00000000E+00
  0.00000000E+00  0.00000000E+00  0.00000000E+00
  0.00000000E+00  0.00000000E+00  0.00000000E+00
  0.00000000E+00  0.00000000E+00  0.00000000E+00
  0.00000000E+00  0.00000000E+00  0.00000000E+00
  0.00000000E+00  0.00000000E+00  0.00000000E+00
  0.00000000E+00  0.00000000E+00  0.00000000E+00
  0.00000000E+00  0.00000000E+00  0.00000000E+00
  0.00000000E+00  0.00000000E+00  0.00000000E+00
  0.00000000E+00  0.00000000E+00  0.00000000E+00
  0.00000000E+00  0.00000000E+00  0.00000000E+00
  0.00000000E+00  0.00000000E+00  0.00000000E+00
  0.00000000E+00  0.00000000E+00  0.00000000E+00
  0.00000000E+00  0.00000000E+00  0.00000000E+00
  0.00000000E+00  0.00000000E+00  0.00000000E+00
  0.00000000E+00  0.00000000E+00  0.00000000E+00
  0.00000000E+00  0.00000000E+00  0.00000000E+00
  0.00000000E+00  0.00000000E+00  0.00000000E+00
  0.00000000E+00  0.00000000E+00  0.00000000E+00
  0.00000000E+00  0.00000000E+00  0.00000000E+00
  0.00000000E+00  0.00000000E+00  0.00000000E+00
  0.00000000E+00  0.00000000E+00  0.00000000E+00
  0.00000000E+00  0.00000000E+00  0.00000000E+00
  0.00000000E+00  0.00000000E+00  0.00000000E+00
  0.00000000E+00  0.00000000E+00  0.00000000E+00
  0.00000000E+00  0.00000000E+00  0.00000000E+00
  0.00000000E+00  0.00000000E+00  0.00000000E+00
  0.00000000E+00  0.00000000E+00  0.00000000E+00
  0.00000000E+00  0.00000000E+00  0.00000000E+00
  0.00000000E+00  0.00000000E+00  0.00000000E+00
  0.00000000E+00  0.00000000E+00  0.00000000E+00
  0.00000000E+00  0.00000000E+00  0.00000000E+00
  0.00000000E+00  0.00000000E+00  0.00000000E+00
  0.00000000E+00  0.00000000E+00  0.00000000E+00
  0.00000000E+00  0.00000000E+00  0.00000000E+00
  0.00000000E+00  0.00000000E+00  0.00000000E+00
  0.00000000E+00  0.00000000E+00  0.00000000E+00
  0.00000000E+00  0.00000000E+00  0.00000000E+00
  0.00000000E+00  0.00000000E+00  0.00000000E+00
  0.00000000E+00  0.00000000E+00  0.00000000E+00
  0.00000000E+00  0.00000000E+00  0.00000000E+00
  0.00000000E+00  0.00000000E+00  0.00000000E+00
  0.00000000E+00  0.00000000E+00  0.00000000E+00
  0.00000000E+00  0.00000000E+00  0.00000000E+00
  0.00000000E+00  0.00000000E+00  0.00000000E+00
  0.00000000E+00  0.00000000E+00  0.00000000E+00
  0.00000000E+00  0.00000000E+00  0.00000000E+00
  0.00000000E+00  0.00000000E+00  0.00000000E+00
  0.00000000E+00  0.00000000E+00  0.00000000E+00
  0.00000000E+00  0.00000000E+00  0.00000000E+00
  0.00000000E+00  0.00000000E+00  0.00000000E+00
  0.00000000E+00  0.00000000E+00  0.00000000E+00
  0.00000000E+00  0.00000000E+00  0.00000000E+00
  0.00000000E+00  0.00000000E+00  0.00000000E+00
  0.00000000E+00  0.00000000E+00  0.00000000E+00
  0.00000000E+00  0.00000000E+00  0.00000000E+00
  0.00000000E+00  0.00000000E+00  0.00000000E+00
  0.00000000E+00  0.00000000E+00  0.00000000E+00
  0.00000000E+00  0.00000000E+00  0.00000000E+00
  0.00000000E+00  0.00000000E+00  0.00000000E+00
  0.00000000E+00  0.00000000E+00  0.00000000E+00
  0.00000000E+00  0.00000000E+00  0.00000000E+00
  0.00000000E+00  0.00000000E+00  0.00000000E+00
  0.00000000E+00  0.00000000E+00  0.00000000E+00
  0.00000000E+00  0.00000000E+00  0.00000000E+00
  0.00000000E+00  0.00000000E+00  0.00000000E+00
  0.00000000E+00  0.00000000E+00  0.00000000E+00
  0.00000000E+00  0.00000000E+00  0.00000000E+00
  0.00000000E+00  0.00000000E+00  0.00000000E+00
  0.00000000E+00  0.00000000E+00  0.00000000E+00
  0.00000000E+00  0.00000000E+00  0.00000000E+00
  0.00000000E+00  0.00000000E+00  0.00000000E+00
  0.00000000E+00  0.00000000E+00  0.00000000E+00
  0.00000000E+00  0.00000000E+00  0.00000000E+00
  0.00000000E+00  0.00000000E+00  0.00000000E+00
  0.00000000E+00  0.00000000E+00  0.00000000E+00
  0.00000000E+00  0.00000000E+00  0.00000000E+00
  0.00000000E+00  0.00000000E+00  0.00000000E+00
  0.00000000E+00  0.00000000E+00  0.00000000E+00
  0.00000000E+00  0.00000000E+00  0.00000000E+00
  0.00000000E+00  0.00000000E+00  0.00000000E+00
  0.00000000E+00  0.00000000E+00  0.00000000E+00
  0.00000000E+00  0.00000000E+00  0.00000000E+00
  0.00000000E+00  0.00000000E+00  0.00000000E+00
  0.00000000E+00  0.00000000E+00  0.00000000E+00
  0.00000000E+00  0.00000000E+00  0.00000000E+00
  0.00000000E+00  0.00000000E+00  0.00000000E+00
  0.00000000E+00  0.00000000E+00  0.00000000E+00
  0.00000000E+00  0.00000000E+00  0.00000000E+00
  0.00000000E+00  0.00000000E+00  0.00000000E+00
  0.00000000E+00  0.00000000E+00  0.00000000E+00
  0.00000000E+00  0.00000000E+00  0.00000000E+00
  0.00000000E+00  0.00000000E+00  0.00000000E+00
  0.00000000E+00  0.00000000E+00  0.00000000E+00
  0.00000000E+00  0.00000000E+00  0.00000000E+00
  0.00000000E+00  0.00000000E+00  0.00000000E+00
  0.00000000E+00  0.00000000E+00  0.00000000E+00
  0.00000000E+00  0.00000000E+00  0.00000000E+00
  0.00000000E+00  0.00000000E+00  0.00000000E+00
  0.00000000E+00  0.00000000E+00  0.00000000E+00
  0.00000000E+00  0.00000000E+00  0.00000000E+00
  0.00000000E+00  0.00000000E+00  0.00000000E+00
  0.00000000E+00  0.00000000E+00  0.00000000E+00
  0.00000000E+00  0.00000000E+00  0.00000000E+00
  0.00000000E+00  0.00000000E+00  0.00000000E+00
  0.00000000E+00  0.00000000E+00  0.00000000E+00
  0.00000000E+00  0.00000000E+00  0.00000000E+00
  0.00000000E+00  0.00000000E+00  0.00000000E+00
  0.00000000E+00  0.00000000E+00  0.00000000E+00
  0.00000000E+00  0.00000000E+00  0.00000000E+00
  0.00000000E+00  0.00000000E+00  0.00000000E+00
  0.00000000E+00  0.00000000E+00  0.00000000E+00
  0.00000000E+00  0.00000000E+00  0.00000000E+00
  0.00000000E+00  0.00000000E+00  0.00000000E+00
  0.00000000E+00  0.00000000E+00  0.00000000E+00
  0.00000000E+00  0.00000000E+00  0.00000000E+00
  0.00000000E+00  0.00000000E+00  0.00000000E+00
  0.00000000E+00  0.00000000E+00  0.00000000E+00
  0.00000000E+00  0.00000000E+00  0.00000000E+00
  0.00000000E+00  0.00000000E+00  0.00000000E+00
  0.00000000E+00  0.00000000E+00  0.00000000E+00
  0.00000000E+00  0.00000000E+00  0.00000000E+00
  0.00000000E+00  0.00000000E+00  0.00000000E+00
  0.00000000E+00  0.00000000E+00  0.00000000E+00
  0.00000000E+00  0.00000000E+00  0.00000000E+00
  0.00000000E+00  0.00000000E+00  0.00000000E+00
  0.00000000E+00  0.00000000E+00  0.00000000E+00
  0.00000000E+00  0.00000000E+00  0.00000000E+00
  0.00000000E+00  0.00000000E+00  0.00000000E+00
  0.00000000E+00  0.00000000E+00  0.00000000E+00
  0.00000000E+00  0.00000000E+00  0.00000000E+00
  0.00000000E+00  0.00000000E+00  0.00000000E+00
  0.00000000E+00  0.00000000E+00  0.00000000E+00
  0.00000000E+00  0.00000000E+00  0.00000000E+00
  0.00000000E+00  0.00000000E+00  0.00000000E+00
  0.00000000E+00  0.00000000E+00  0.00000000E+00
  0.00000000E+00  0.00000000E+00  0.00000000E+00
  0.00000000E+00  0.00000000E+00  0.00000000E+00
  0.00000000E+00  0.00000000E+00  0.00000000E+00
  0.00000000E+00  0.00000000E+00  0.00000000E+00
  0.00000000E+00  0.00000000E+00  0.00000000E+00
  0.00000000E+00  0.00000000E+00  0.00000000E+00
  0.00000000E+00  0.00000000E+00  0.00000000E+00
  0.00000000E+00  0.00000000E+00  0.00000000E+00
  0.00000000E+00  0.00000000E+00  0.00000000E+00
  0.00000000E+00  0.00000000E+00  0.00000000E+00
  0.00000000E+00  0.00000000E+00  0.00000000E+00
  0.00000000E+00  0.00000000E+00  0.00000000E+00
  0.00000000E+00  0.00000000E+00  0.00000000E+00
  0.00000000E+00  0.00000000E+00  0.00000000E+00
  0.00000000E+00  0.00000000E+00  0.00000000E+00
  0.00000000E+00  0.00000000E+00  0.00000000E+00
  0.00000000E+00  0.00000000E+00  0.00000000E+00
  0.00000000E+00  0.00000000E+00  0.00000000E+00
  0.00000000E+00  0.00000000E+00  0.00000000E+00
  0.00000000E+00  0.00000000E+00  0.00000000E+00
  0.00000000E+00  0.00000000E+00  0.00000000E+00
  0.00000000E+00  0.00000000E+00  0.00000000E+00
  0.00000000E+00  0.00000000E+00  0.00000000E+00
  0.00000000E+00  0.00000000E+00  0.00000000E+00
  0.00000000E+00  0.00000000E+00  0.00000000E+00
  0.00000000E+00  0.00000000E+00  0.00000000E+00
  0.00000000E+00  0.00000000E+00  0.00000000E+00
  0.00000000E+00  0.00000000E+00  0.00000000E+00
  0.00000000E+00  0.00000000E+00  0.00000000E+00
  0.00000000E+00  0.00000000E+00  0.00000000E+00
  0.00000000E+00  0.00000000E+00  0.00000000E+00
  0.00000000E+00  0.00000000E+00  0.00000000E+00
  0.00000000E+00  0.00000000E+00  0.00000000E+00
  0.00000000E+00  0.00000000E+00  0.00000000E+00
  0.00000000E+00  0.00000000E+00  0.00000000E+00
  0.00000000E+00  0.00000000E+00  0.00000000E+00
  0.00000000E+00  0.00000000E+00  0.00000000E+00
  0.00000000E+00  0.00000000E+00  0.00000000E+00
  0.00000000E+00  0.00000000E+00  0.00000000E+00
  0.00000000E+00  0.00000000E+00  0.00000000E+00
  0.00000000E+00  0.00000000E+00  0.00000000E+00
  0.00000000E+00  0.00000000E+00  0.00000000E+00
  0.00000000E+00  0.00000000E+00  0.00000000E+00
  0.00000000E+00  0.00000000E+00  0.00000000E+00
  0.00000000E+00  0.00000000E+00  0.00000000E+00
  0.00000000E+00  0.00000000E+00  0.00000000E+00
  0.00000000E+00  0.00000000E+00  0.00000000E+00
  0.00000000E+00  0.00000000E+00  0.00000000E+00
  0.00000000E+00  0.00000000E+00  0.00000000E+00
  0.00000000E+00  0.00000000E+00  0.00000000E+00
  0.00000000E+00  0.00000000E+00  0.00000000E+00
  0.00000000E+00  0.00000000E+00  0.00000000E+00
  0.00000000E+00  0.00000000E+00  0.00000000E+00
  0.00000000E+00  0.00000000E+00  0.00000000E+00
  0.00000000E+00  0.00000000E+00  0.00000000E+00
 
           1
   4.00000000000000     
  0.10000000E+01  0.00000000E+00  0.00000000E+00  0.00000000E+00
  0.84788970E-01  0.93171862E+00  0.67226096E+00
  0.58488981E+00  0.76444091E+00  0.33638539E+00
  0.74201495E-01  0.86986956E-01  0.14371605E-01
  0.91723117E+00  0.92919191E+00  0.84069004E+00
  0.91811436E+00  0.96304384E-01  0.67314581E+00
  0.74962709E+00  0.96631911E-01  0.83958235E+00
  0.41909323E+00  0.59878840E+00  0.33842755E-02
  0.40731591E+00  0.87705606E-01  0.34676206E+00
  0.25021754E+00  0.76240610E+00  0.33921152E+00
  0.75079882E+00  0.76328603E+00  0.17217733E+00
  0.25050103E+00  0.26438583E+00  0.50372057E+00
  0.75022818E+00  0.26257059E+00  0.33986640E+00
  0.58381492E+00  0.76426529E+00  0.66890999E+00
  0.41903370E+00  0.26382957E+00  0.45404368E-02
  0.41862700E+00  0.93039577E+00  0.32487110E-02
  0.24151630E+00  0.88411180E-01  0.84847392E+00
  0.41592084E+00  0.95032553E-01  0.17186846E+00
  0.74977113E+00  0.76242486E+00  0.83856141E+00
  0.74215441E+00  0.88027900E-01  0.67977199E+00
  0.90821295E+00  0.25344269E+00  0.68068326E+00
  0.57575543E+00  0.75559303E+00  0.17927852E+00
  0.83680752E-01  0.26314243E+00  0.41186942E-02
  0.40988103E+00  0.58796235E+00  0.17876745E+00
  0.74988592E+00  0.59763855E+00  0.31270691E-02
  0.74139651E+00  0.87742636E-01  0.34836190E+00
  0.90928682E+00  0.42102046E+00  0.84732391E+00
  0.91590186E+00  0.76235108E+00  0.67279332E+00
  0.91884668E+00  0.59830908E+00  0.17086570E+00
  0.84045172E-01  0.43023412E+00  0.17167110E+00
  0.74235801E+00  0.58754921E+00  0.84544257E+00
  0.25028153E+00  0.59760193E+00  0.83679832E+00
  0.74089467E-01  0.25433532E+00  0.18048026E+00
  0.57468416E+00  0.42011580E+00  0.18000912E+00
  0.25022638E+00  0.97408518E-01  0.67243897E+00
  0.25128342E+00  0.76278041E+00  0.55080769E-02
  0.40965326E+00  0.42166900E+00  0.13970755E-01
  0.75097864E+00  0.93023134E+00  0.34106236E+00
  0.90725896E+00  0.25277834E+00  0.34887434E+00
  0.74962647E-01  0.25439547E+00  0.84765819E+00
  0.82851681E-01  0.76220507E+00  0.83960147E+00
  0.74472633E-01  0.42199045E+00  0.34742523E+00
  0.24109662E+00  0.58888907E+00  0.68133710E+00
  0.75039000E+00  0.43041902E+00  0.50294340E+00
  0.83484294E-01  0.76328724E+00  0.17248154E+00
  0.90712198E+00  0.91966180E+00  0.68155318E+00
  0.90702216E+00  0.75543137E+00  0.18095114E+00
  0.83133566E-01  0.93169565E+00  0.33859467E+00
  0.75335888E-01  0.58688005E+00  0.84774392E+00
  0.24260642E+00  0.75481407E+00  0.18147646E+00
  0.58284278E+00  0.96747783E-01  0.61614515E-02
  0.90778952E+00  0.58693274E+00  0.13030768E-01
  0.84800406E-01  0.76308053E+00  0.50474419E+00
  0.74058541E+00  0.91941947E+00  0.18128822E+00
  0.57562045E+00  0.58979296E+00  0.11767802E-01
  0.24232652E+00  0.75537291E+00  0.51350479E+00
  0.58523887E+00  0.59892516E+00  0.16803004E+00
  0.91670173E+00  0.93036715E+00  0.17395155E+00
  0.41862911E+00  0.93122052E+00  0.33608256E+00
  0.73263152E-01  0.92121856E+00  0.18149996E+00
  0.41903879E+00  0.26352230E+00  0.33747514E+00
  0.74896898E+00  0.95976140E-01  0.17379774E+00
  0.91859886E+00  0.26326520E+00  0.83770009E+00
  0.75013593E+00  0.92970622E+00  0.67303171E+00
  0.24154131E+00  0.92087401E+00  0.34835932E+00
  0.41836366E+00  0.43032877E+00  0.83739265E+00
  0.74353441E-01  0.75484263E+00  0.34836611E+00
  0.41856565E+00  0.97949322E-01  0.50411998E+00
  0.74100155E+00  0.58773039E+00  0.51181415E+00
  0.40881014E+00  0.25493676E+00  0.84745778E+00
  0.25131882E+00  0.93202439E+00  0.17098958E+00
  0.74927712E+00  0.95754449E-01  0.50550040E+00
  0.74320182E+00  0.58874364E+00  0.17788326E+00
  0.57527798E+00  0.92114766E+00  0.34616238E+00
  0.25113817E+00  0.26340458E+00  0.17157624E+00
  0.25121152E+00  0.59877279E+00  0.50392626E+00
  0.58384815E+00  0.59697063E+00  0.83640107E+00
  0.24140803E+00  0.42065203E+00  0.18150056E+00
  0.58262004E+00  0.93181373E+00  0.83949814E+00
  0.90773226E+00  0.25457219E+00  0.15196932E-01
  0.83494573E-01  0.97645851E-01  0.50442301E+00
  0.90658911E+00  0.86482970E-01  0.18317910E+00
  0.74037773E+00  0.92079082E+00  0.51582109E+00
  0.73313218E-01  0.25509775E+00  0.51326816E+00
  0.24140418E+00  0.25292996E+00  0.14604989E-01
  0.40874388E+00  0.25537844E+00  0.51418261E+00
  0.24081126E+00  0.25331672E+00  0.34777901E+00
  0.24217428E+00  0.92102320E+00  0.14470659E-01
  0.73637897E-01  0.42205568E+00  0.13441197E-01
  0.24208313E+00  0.25417257E+00  0.68003918E+00
  0.90768751E+00  0.58733920E+00  0.34702796E+00
  0.25036141E+00  0.43000315E+00  0.33863058E+00
  0.57343796E+00  0.92215945E+00  0.67819590E+00
  0.40910875E+00  0.75553540E+00  0.67945662E+00
  0.74116713E+00  0.75534960E+00  0.67563277E+00
  0.75083207E+00  0.26337844E+00  0.67071051E+00
  0.73964877E-01  0.92054160E+00  0.84907859E+00
  0.25082843E+00  0.43146033E+00  0.67168295E+00
  0.40885429E+00  0.92163118E+00  0.51431461E+00
  0.41824836E+00  0.42981646E+00  0.17107998E+00
  0.90816100E+00  0.75426578E+00  0.51489135E+00
  0.25099123E+00  0.43061340E+00  0.40097009E-02
  0.57549202E+00  0.25571841E+00  0.14602679E-01
  0.74127703E+00  0.25346439E+00  0.51465344E+00
  0.57278229E+00  0.86518473E-01  0.18082216E+00
  0.91603191E+00  0.76211950E+00  0.78005282E-02
  0.58330077E+00  0.93137352E+00  0.16879763E+00
  0.73810306E-01  0.88115853E-01  0.34708427E+00
  0.58416253E+00  0.26477285E+00  0.83783525E+00
  0.25017844E+00  0.93079508E+00  0.50493263E+00
  0.76261949E-01  0.58798304E+00  0.17998809E+00
  0.40809608E+00  0.25270091E+00  0.18035299E+00
  0.40695255E+00  0.92180088E+00  0.84719623E+00
  0.74960455E+00  0.93018547E+00  0.61290204E-02
  0.40941006E+00  0.75489808E+00  0.13179858E-01
  0.58482556E+00  0.76684082E+00  0.31947496E-02
  0.24122659E+00  0.87845974E-01  0.51515792E+00
  0.75165422E+00  0.43105015E+00  0.16898148E+00
  0.90704271E+00  0.86653514E-01  0.51544094E+00
  0.73459393E-01  0.92131729E+00  0.51483913E+00