Amorphous Sb                            
   1.00000000000000     
    20.1078869700586900    0.0000000000000000    0.0000000000000000
     0.0000000000000000   20.1078869700586900    0.0000000000000000
     0.0000000000000000    0.0000000000000000   20.1078869700586900
   Ge   As   Se
   135    30   135
Direct
  0.6115849449817762  0.7998472440801190  0.0304122709689929
  0.1024572692809344  0.7036688662641828  0.6071483131623544
  0.6268238658160554  0.4848304191865349  0.6573317627640853
  0.9552643437096929  0.1865158938654272  0.6117513790925784
  0.8030104740937344  0.3539629094321419  0.4063563325883758
  0.2518735407120342  0.6744798805885952  0.1118691766513599
  0.1500429678603712  0.6313257090712123  0.3443687578548847
  0.3111037863341800  0.6434081212801702  0.5981914684141884
  0.5976832673381302  0.7827419308717559  0.4219637218993226
  0.3910322204289425  0.2701730052140571  0.1198455749575092
  0.8453304631982449  0.7907472501169027  0.7121968235538964
  0.8295622945824715  0.3961082228433295  0.7665413982538501
  0.8435453086018602  0.3349361470935343  0.6424070556353869
  0.1089654508358122  0.0263914301832201  0.8176218884267147
  0.5150837503453387  0.2051976167411110  0.3703189340785940
  0.2720563500989791  0.5530296093529981  0.2130372511934776
  0.0064143503361589  0.4983564772466221  0.2803526409178864
  0.7719812008498445  0.2342152156945487  0.2502585409751780
  0.2759198123704321  0.8144358115750184  0.7710155920687940
  0.7825553531464133  0.7947742704913866  0.3214821938815233
  0.2480570654424366  0.4661767866295848  0.1170267931654449
  0.2768886741124409  0.8638554008924184  0.0297572607900835
  0.0957413363868093  0.1643179542740387  0.9243397684029334
  0.9352598191236945  0.0304506323002559  0.1426530139759494
  0.6719197710795004  0.2185792351901059  0.0113394442341578
  0.4528235749091728  0.2671361842319120  0.5545134537825632
  0.4907491205639145  0.5868384682287467  0.4285680099266936
  0.9373149278166230  0.7615084243591783  0.8008094911842073
  0.4840690248877465  0.5204569979044054  0.6119451298810442
  0.7364650299774796  0.5498900355002986  0.9452830149631359
  0.1231258182137981  0.1075837028006576  0.5826183186465851
  0.3594951836283600  0.1500345822275510  0.1108732940781676
  0.7573449923907200  0.4922978139787678  0.4661462858867036
  0.2414439806345555  0.4700733920433527  0.3099854255884174
  0.9233749049573899  0.5065595456021218  0.5329242470696144
  0.5022218866441783  0.5246885814111562  0.8422729970800978
  0.4804901645665665  0.9503642718775065  0.9610169873410448
  0.3740028309688851  0.5806191323669818  0.0701153702113246
  0.4682395400314573  0.1847289233781088  0.9365489863718841
  0.7895975116024272  0.6546280916358462  0.7750558844786233
  0.5681558025206737  0.6720834658428425  0.5893883808606073
  0.1067560978953454  0.9155953123817692  0.5594930384033713
  0.6102633099876220  0.0257431682715736  0.5867445077574664
  0.5839794817391725  0.0453010793557668  0.3436820021857809
  0.5131318558665005  0.6886545616541048  0.1933181674429703
  0.4162201672657853  0.4584954263764093  0.3000944831667053
  0.0242940387964367  0.6344144138554368  0.9047270858354013
  0.1459067799779182  0.3807644260089031  0.5178438517100471
  0.5019542300503476  0.6813412240703410  0.7533149066639014
  0.8220115153914752  0.0276061070817621  0.3024280068860717
  0.0621267205491977  0.5848427758129439  0.1181024072623383
  0.0293055376481359  0.1879356334642054  0.0986868862117192
  0.7409767808874039  0.0036342584118281  0.0040387816295630
  0.3994516278010556  0.4640524623984910  0.6945064768856507
  0.7071144258271332  0.5061833362923776  0.7556319234394938
  0.2749412254353786  0.1424599256411480  0.2519987693165653
  0.9546472437768776  0.6523191040456182  0.4702539507500484
  0.0845976979907373  0.5189083380532342  0.8475269156401767
  0.2899972798448437  0.2262485803520825  0.6419772806011586
  0.6816600508867332  0.3944328435693011  0.0612903121759187
  0.6951227741976538  0.9652534014756727  0.2299685472224776
  0.3503360505833606  0.3995875322875645  0.7993553448216859
  0.9215647616016750  0.7165641857387925  0.0779763599137937
  0.8062330011017212  0.2862381262314985  0.8776616689110445
  0.6487203841754733  0.2169538430472572  0.1977317897715853
  0.0207651167638538  0.3832177726410035  0.0615874653516734
  0.1649263678932069  0.8663258560018592  0.4569306424423164
  0.5972856734388906  0.8590213445872611  0.8195574854652067
  0.8388780361204943  0.2644582544519977  0.0678183407864713
  0.1154287674789133  0.2398013653780412  0.7032647657294803
  0.2561880013253289  0.3728426324307284  0.5885610269842951
  0.4051873677715647  0.3320902849012985  0.0065976718529263
  0.3963406057094915  0.6635278407849202  0.2551911729099241
  0.4177082237567935  0.9371171899342672  0.1733241783193850
  0.6601452437380395  0.3232947498271408  0.7494279300937381
  0.5918945678547868  0.1405987295897380  0.9375685545815510
  0.3890121346690770  0.0937272701581191  0.4523325608981813
  0.9866072570482683  0.8903545470419558  0.6751456936456722
  0.1422055734068386  0.8659518291847036  0.0514908987501911
  0.3311698753784793  0.1021705286257357  0.9528251373519468
  0.5776070402306831  0.0166372982636363  0.1034942959148151
  0.2377416769177974  0.2466737433908769  0.0171589503816268
  0.9048653278206837  0.4269355019584632  0.8729528206396129
  0.5964805265867622  0.5153986102100959  0.3735760258438011
  0.4898483886136836  0.0684004218652869  0.5491234196203352
  0.5489676040478569  0.2845020971372890  0.1426131632068577
  0.2725361657586660  0.7686540151947092  0.5787901491409235
  0.8938067349425872  0.1608027642037508  0.4161022451170857
  0.8154691891133731  0.6432555947376563  0.1877267554439348
  0.4230452466273907  0.3833906590277542  0.4481361171249240
  0.4602813283348453  0.1435714051563456  0.7557742816900388
  0.3260721318105107  0.9667035293678899  0.6013201572317263
  0.5237693457980996  0.4859422386016478  0.1408508596432428
  0.7247701862681378  0.1467208523324324  0.8138044368167956
  0.5046529500290100  0.8980226566158166  0.6521842989812299
  0.3864147632844931  0.8435776851616245  0.4749600997278760
  0.1996997246919818  0.9854863637518766  0.1258879243770178
  0.3207644273525652  0.5913087389870239  0.4485821179786249
  0.8027475846117799  0.9613969222103838  0.5179652700598578
  0.2715311878976803  0.2966645725074873  0.8407776086910037
  0.0307808145189095  0.2341373328822169  0.2977787512239662
  0.5207038560888251  0.3139802989673684  0.6971930134624996
  0.1183106747052365  0.4344593239148223  0.2836124743355196
  0.6872716568116999  0.9290522638468841  0.3860874590273959
  0.3158666537887500  0.0571628231708144  0.7703571325267686
  0.8060125255048244  0.8453262325920919  0.0887295719619237
  0.1033683315397071  0.3768069363077542  0.8605714268979480
  0.0744643099680808  0.7924092057251297  0.4141914054953175
  0.5482041620913540  0.3441189560891680  0.8702016144521830
  0.8655545977391286  0.8981346916925023  0.8888830023882791
  0.8305195963301826  0.6264231036583777  0.5829102444432327
  0.9732367824370485  0.8719110528472014  0.1730008746426296
  0.2743464792654549  0.9850077513368509  0.3198937102493030
  0.8735646959216089  0.2031288048893151  0.7846522172852326
  0.5853374939137177  0.6207347533644451  0.0356673750779284
  0.7083968521919398  0.7728835183936336  0.6718904813816314
  0.1918765882384939  0.2945770620311731  0.2210500193042657
  0.7266765321307345  0.2139176248151687  0.4640139189947017
  0.0994377461943629  0.1944051388088265  0.4932404633549161
  0.8846958702423642  0.1591041875532325  0.9895777595656180
  0.6532942268480888  0.3510581653532124  0.5099738736862447
  0.1940295420568707  0.2402202289702459  0.3621615337001230
  0.2025981768456618  0.5689482138366946  0.9461948763861866
  0.9561054371232934  0.0351134128085237  0.8447877424727679
  0.0723774513365160  0.4748928481339606  0.4410717231132161
  0.4522978443792426  0.7312888893876902  0.3455654979085055
  0.5614658920918250  0.8370037545279929  0.2683445752499345
  0.2373779336016362  0.9836825184193619  0.9288428951919143
  0.0669184898833927  0.4152790930855507  0.7376046127378584
  0.0928249668874510  0.8802230222731949  0.2623835809894225
  0.8143512190690999  0.6058545851377890  0.3668284278930115
  0.8846514516063803  0.5682762244423714  0.0356444597248765
  0.6294243874459607  0.2074232014851012  0.5568366899963150
  0.2336191435288544  0.5372554437610882  0.7342022879445032
  0.1447249133508920  0.8629384381454251  0.7948838625983857
  0.3055342915547346  0.8239999538835354  0.2688198687983578
  0.1120735657074776  0.5337547927721065  0.7271286391788994
  0.8641034314143272  0.2714071967135656  0.3260783687864260
  0.5721100355873413  0.7152005002846525  0.3228093950791047
  0.9583073727375611  0.8376399123480441  0.4051380000464731
  0.9381561751623519  0.1344244998491744  0.2167974015459324
  0.7541013853863148  0.6812307931893772  0.9592907530440355
  0.9911748635801462  0.7579731488415329  0.6420711560549600
  0.9988186271777499  0.2620411127743956  0.5198168896322924
  0.8733274594220182  0.0913531112420745  0.7168521601032048
  0.4351205465923282  0.7000402400332896  0.4642350950239870
  0.1473174783579927  0.7356015033880481  0.0569569426707654
  0.3683020374776282  0.8712918468735846  0.9388119865297238
  0.4990788264134327  0.4627220145379963  0.0187811231437937
  0.9178045272510201  0.4619264659626340  0.1030181157529760
  0.7683542784008542  0.1759902996402884  0.9311192322222629
  0.8386480934893508  0.1423084955812748  0.6063197956981861
  0.9043942792881555  0.4545116926114610  0.3387380977340936
  0.3012301344973086  0.5113188414055518  0.8366738943235437
  0.3955258904641828  0.8096885654936158  0.1867709047009737
  0.9059567557419168  0.7350232531614559  0.5551785523567199
  0.3462552690848321  0.2345863815115497  0.9383658301932898
  0.7674509353912328  0.0414488184988119  0.7583936229904964
  0.8742668992032988  0.0376593084172515  0.0299944412103149
  0.5216289783344281  0.7681251850089951  0.5193749153041074
  0.9532628888353816  0.5517890785771142  0.1816652467651343
  0.3902501947348219  0.7550712191368876  0.8966996067033514
  0.4126234197234957  0.7789013156163478  0.7750097398746221
  0.3959039163118769  0.5727672287739042  0.3444909177372323
  0.8160721973394039  0.4494968268751253  0.1760955333883248
  0.2198138196312796  0.0866664069296052  0.8567234925810977
  0.4388761807268485  0.1014568300493352  0.0305197320677130
  0.3542516440861318  0.9665621990888228  0.4759445748875784
  0.8255975557836489  0.0193983575447852  0.8641676595038095
  0.8232717490216821  0.1417418666661263  0.1805209009864394
  0.5383028992512350  0.8398377342592915  0.9318197901950102
  0.3996677565366069  0.3274715573429355  0.6465052007696154
  0.2457697843503004  0.1322326889790149  0.0685407184868451
  0.9293501888221528  0.4183365857870627  0.6220519321322948
  0.2729763919327778  0.3157384493933127  0.1201571413229256
  0.2875999600425506  0.4901057936612915  0.6347683772347290
  0.1278314563687994  0.3917590578575916  0.1703709737098352
  0.4615627632813743  0.0897222551171220  0.3489444841538666
  0.1550587109050866  0.9620813233156521  0.7233905477035675
  0.4078108775488390  0.8472989177098454  0.3367981538181353
  0.8647168793273288  0.9091707690317790  0.6938990650566278
  0.2205665936705750  0.3202507074503382  0.6989971162428652
  0.7162061438880637  0.8111467911721545  0.4353016795003370
  0.5022762454758548  0.9107631944514402  0.0805430376389008
  0.0974513670138650  0.3281784929115965  0.3533867919105880
  0.2132724102955892  0.3899485736608493  0.9117954968728018
  0.4423276430688216  0.4204066429442834  0.8834075369191997
  0.3377336385231947  0.1817544014069329  0.7518400711092047
  0.4123349621089205  0.4573130982367013  0.1806011108252124
  0.5116352894281273  0.4105662517698412  0.3569402218181430
  0.7387665626730687  0.5014483952838489  0.0970800235076326
  0.1336287137589296  0.6829815598164585  0.9458095341365239
  0.1660176562283140  0.8146569436487974  0.6233483346676487
  0.1947177368632889  0.1407849088098551  0.6747449167206001
  0.4758219738700907  0.8832301373115211  0.7773367184543080
  0.6086964940961492  0.0161679893865761  0.9405041644692390
  0.6879444301707650  0.6005215991357005  0.8318648900734690
  0.1604714485049144  0.9410580234728150  0.3620637042170276
  0.9252910496928562  0.3579297401503427  0.2672766066795659
  0.5783854130711540  0.7583182875412390  0.6831440832481390
  0.6078737999383718  0.1696776992325101  0.8209386195440206
  0.2628083056822146  0.7891655669788732  0.4567049736707380
  0.6763776696024750  0.1375497266197058  0.1071556501847408
  0.2003564714733501  0.2621067897253694  0.4914670285150775
  0.6338303857673150  0.7025348292888837  0.9463889348219552
  0.8988475112243819  0.7318385965916325  0.2012538722862526
  0.7548763696824121  0.6237190454829878  0.4822157668816135
  0.2817385374450056  0.7058162085768009  0.2787606618790633
  0.9947213570878292  0.6781120678334012  0.7325505585479535
  0.7436465840267608  0.7788335235691118  0.7929722272679935
  0.3788573658779478  0.0864253232578763  0.2084836910060948
  0.7685321532897488  0.8838136791050110  0.9694597103180558
  0.9274709569558051  0.8531910019672917  0.5209061596595024
  0.5268168924199143  0.3602581319377199  0.5305299385436898
  0.5432101157837185  0.4356897085099132  0.7411401707609200
  0.3927015694266843  0.2417429298824779  0.4568300220515878
  0.1957852671665253  0.0423269821234135  0.2374809860585006
  0.6828287511995018  0.9446162279887842  0.1014880625908978
  0.0060167141124026  0.5612215761975766  0.0039931193936650
  0.8274662507589104  0.9407115987541035  0.3943206442936266
  0.4142687674543162  0.5132872037700226  0.5006215168208826
  0.6029676950128420  0.3976458342833840  0.1699152548519274
  0.7403712899698925  0.6780490642279644  0.2926683308016985
  0.6100168276510957  0.4671560949122888  0.9740451582195442
  0.5559826388121577  0.8927632092065040  0.3872709230753826
  0.0388302595507615  0.9740463866045754  0.1283877976576439
  0.7707299694944382  0.7156032288271807  0.0758091865073030
  0.5730888999062841  0.5778691061577466  0.1984092239972507
  0.1572482773878253  0.5125324564418122  0.0517044591725107
  0.3222540356676074  0.9605728489552519  0.0917145986865389
  0.9504537204793279  0.9738614675601990  0.9579415936958724
  0.5683189274313543  0.9857869732764107  0.2299222695698615
  0.5139988703331880  0.7197957116571687  0.0698857106505581
  0.0532484370063361  0.7129783867310765  0.1277462741622853
  0.6983334207228390  0.3815368496497240  0.6443681347766727
  0.2765709494459377  0.7337909655356857  0.8641743116140147
  0.9300956274825884  0.8411753369785228  0.0557208722978419
  0.3283779333826462  0.3820618717363005  0.3328748600615793
  0.1095771113011965  0.1995122811547540  0.1995956380938287
  0.7361250116736349  0.5070882026121296  0.3438526557730524
  0.8790012374710398  0.0658977665895077  0.5195914483719479
  0.6853837013360874  0.0073273537235581  0.4871908978683813
  0.6137666046241351  0.9850682724870352  0.8199006214069873
  0.3098702806158576  0.9181489019037367  0.8432808817692919
  0.0968919514507851  0.7600036963517809  0.3007527440963440
  0.1015794280525291  0.1511997365453172  0.3780587703543138
  0.7778042617735597  0.1470327547474544  0.3696076329931167
  0.0719245879927049  0.3218331334075383  0.5968267242629290
  0.8618023651401806  0.5404970133256221  0.9137037699747314
  0.1260993687675002  0.2503060282955556  0.8383708531720435
  0.3977888111072653  0.5673554171748267  0.7824217389423165
  0.9961413384944896  0.3604116995735047  0.9282722021972121
  0.7746769682861391  0.3347994604763841  0.1594466951598374
  0.4667121209241782  0.2706509595046615  0.8028912589419358
  0.9375841489617044  0.7212304475393349  0.9153481837749625
  0.6874913739442743  0.8394288679836279  0.2420819007756361
  0.3380225963864998  0.7696996549723223  0.0863518410479714
  0.7206845086529247  0.4049111189336335  0.8308430162304347
  0.5032656799466657  0.1779607859892892  0.6177759380008304
  0.6321259167742634  0.4801031156467517  0.4899849798726880
  0.2796505838026098  0.1012954514783610  0.3733839535373796
  0.9783734785844314  0.4898701345740950  0.7890723979695634
  0.0776901323991951  0.6897255178767363  0.4797056478305702
  0.8686354272525890  0.9459278568387787  0.2008987537248830
  0.4500929354441062  0.6433458398160945  0.6386997448556017
  0.4547117410814118  0.2754787479084372  0.2231230920776890
  0.2467425589914350  0.6547834753537488  0.7005939379268408
  0.7294451619562811  0.6457419292534600  0.6590674194031978
  0.9405245313697609  0.0732882360835578  0.3239700446379357
  0.9550304568112373  0.2889981931466714  0.1179291104271835
  0.9541190766487447  0.4161316459070444  0.4440656307257775
  0.4150397781059851  0.0689016771023003  0.8536573031598775
  0.9647654470708619  0.1528491858241549  0.8924452575618503
  0.1256485607344999  0.9304019780832015  0.9028435605517787
  0.6759072713076840  0.1169095440681043  0.6294431129043121
  0.4740101673207932  0.5763410038435521  0.9789751382058733
  0.1848056595303898  0.8642793965333677  0.1729881625270670
  0.3321165856924687  0.4727405930739058  0.0265860931135513
  0.7545907086650162  0.2341236126880020  0.7321240462877108
  0.6226347157153194  0.1591044463217993  0.3020562034700395
  0.0310344853989631  0.5876503776104782  0.3575475378285390
  0.0470583080308814  0.5263265873125794  0.5510212269850713
  0.0222812051293167  0.0904428612103008  0.6454890704265145
  0.2924802056925060  0.6444243467401656  0.9955236731561233
  0.1517931366624593  0.5763030704809692  0.2288204455198288
  0.6220139331270359  0.9422176722895863  0.6761705571835280
  0.8295065027083279  0.2761496902264794  0.5031525670795010
  0.3629505337281772  0.8415830528318422  0.6130967366180611
  0.2186752115871422  0.5216749492595348  0.4189960507678543
  0.9125395718297511  0.7295145779972356  0.3809281729855022
  0.1773823525000297  0.0142259789353296  0.5341086161225094
  0.6840602563589092  0.3057055121750820  0.3878244294251011
  0.8281884050098504  0.3531596405075853  0.9792994614824767
  0.1016401895140446  0.2531304596646019  0.0174829543758795
  0.5790905653137551  0.1422141902084723  0.4625386340528910
  0.8225760748717121  0.5125036075272640  0.7229240247797868
  0.9472812957646218  0.2660228656713685  0.7066717249946305
  0.0135125950682670  0.8609555445906932  0.7959184849733739
  0.5254264828829881  0.2907789629164595  0.9874701122385503
  0.4363783302552947  0.0122724463947679  0.6555386741697129
 
  0.00000000E+00  0.00000000E+00  0.00000000E+00
  0.00000000E+00  0.00000000E+00  0.00000000E+00
  0.00000000E+00  0.00000000E+00  0.00000000E+00
  0.00000000E+00  0.00000000E+00  0.00000000E+00
  0.00000000E+00  0.00000000E+00  0.00000000E+00
  0.00000000E+00  0.00000000E+00  0.00000000E+00
  0.00000000E+00  0.00000000E+00  0.00000000E+00
  0.00000000E+00  0.00000000E+00  0.00000000E+00
  0.00000000E+00  0.00000000E+00  0.00000000E+00
  0.00000000E+00  0.00000000E+00  0.00000000E+00
  0.00000000E+00  0.00000000E+00  0.00000000E+00
  0.00000000E+00  0.00000000E+00  0.00000000E+00
  0.00000000E+00  0.00000000E+00  0.00000000E+00
  0.00000000E+00  0.00000000E+00  0.00000000E+00
  0.00000000E+00  0.00000000E+00  0.00000000E+00
  0.00000000E+00  0.00000000E+00  0.00000000E+00
  0.00000000E+00  0.00000000E+00  0.00000000E+00
  0.00000000E+00  0.00000000E+00  0.00000000E+00
  0.00000000E+00  0.00000000E+00  0.00000000E+00
  0.00000000E+00  0.00000000E+00  0.00000000E+00
  0.00000000E+00  0.00000000E+00  0.00000000E+00
  0.00000000E+00  0.00000000E+00  0.00000000E+00
  0.00000000E+00  0.00000000E+00  0.00000000E+00
  0.00000000E+00  0.00000000E+00  0.00000000E+00
  0.00000000E+00  0.00000000E+00  0.00000000E+00
  0.00000000E+00  0.00000000E+00  0.00000000E+00
  0.00000000E+00  0.00000000E+00  0.00000000E+00
  0.00000000E+00  0.00000000E+00  0.00000000E+00
  0.00000000E+00  0.00000000E+00  0.00000000E+00
  0.00000000E+00  0.00000000E+00  0.00000000E+00
  0.00000000E+00  0.00000000E+00  0.00000000E+00
  0.00000000E+00  0.00000000E+00  0.00000000E+00
  0.00000000E+00  0.00000000E+00  0.00000000E+00
  0.00000000E+00  0.00000000E+00  0.00000000E+00
  0.00000000E+00  0.00000000E+00  0.00000000E+00
  0.00000000E+00  0.00000000E+00  0.00000000E+00
  0.00000000E+00  0.00000000E+00  0.00000000E+00
  0.00000000E+00  0.00000000E+00  0.00000000E+00
  0.00000000E+00  0.00000000E+00  0.00000000E+00
  0.00000000E+00  0.00000000E+00  0.00000000E+00
  0.00000000E+00  0.00000000E+00  0.00000000E+00
  0.00000000E+00  0.00000000E+00  0.00000000E+00
  0.00000000E+00  0.00000000E+00  0.00000000E+00
  0.00000000E+00  0.00000000E+00  0.00000000E+00
  0.00000000E+00  0.00000000E+00  0.00000000E+00
  0.00000000E+00  0.00000000E+00  0.00000000E+00
  0.00000000E+00  0.00000000E+00  0.00000000E+00
  0.00000000E+00  0.00000000E+00  0.00000000E+00
  0.00000000E+00  0.00000000E+00  0.00000000E+00
  0.00000000E+00  0.00000000E+00  0.00000000E+00
  0.00000000E+00  0.00000000E+00  0.00000000E+00
  0.00000000E+00  0.00000000E+00  0.00000000E+00
  0.00000000E+00  0.00000000E+00  0.00000000E+00
  0.00000000E+00  0.00000000E+00  0.00000000E+00
  0.00000000E+00  0.00000000E+00  0.00000000E+00
  0.00000000E+00  0.00000000E+00  0.00000000E+00
  0.00000000E+00  0.00000000E+00  0.00000000E+00
  0.00000000E+00  0.00000000E+00  0.00000000E+00
  0.00000000E+00  0.00000000E+00  0.00000000E+00
  0.00000000E+00  0.00000000E+00  0.00000000E+00
  0.00000000E+00  0.00000000E+00  0.00000000E+00
  0.00000000E+00  0.00000000E+00  0.00000000E+00
  0.00000000E+00  0.00000000E+00  0.00000000E+00
  0.00000000E+00  0.00000000E+00  0.00000000E+00
  0.00000000E+00  0.00000000E+00  0.00000000E+00
  0.00000000E+00  0.00000000E+00  0.00000000E+00
  0.00000000E+00  0.00000000E+00  0.00000000E+00
  0.00000000E+00  0.00000000E+00  0.00000000E+00
  0.00000000E+00  0.00000000E+00  0.00000000E+00
  0.00000000E+00  0.00000000E+00  0.00000000E+00
  0.00000000E+00  0.00000000E+00  0.00000000E+00
  0.00000000E+00  0.00000000E+00  0.00000000E+00
  0.00000000E+00  0.00000000E+00  0.00000000E+00
  0.00000000E+00  0.00000000E+00  0.00000000E+00
  0.00000000E+00  0.00000000E+00  0.00000000E+00
  0.00000000E+00  0.00000000E+00  0.00000000E+00
  0.00000000E+00  0.00000000E+00  0.00000000E+00
  0.00000000E+00  0.00000000E+00  0.00000000E+00
  0.00000000E+00  0.00000000E+00  0.00000000E+00
  0.00000000E+00  0.00000000E+00  0.00000000E+00
  0.00000000E+00  0.00000000E+00  0.00000000E+00
  0.00000000E+00  0.00000000E+00  0.00000000E+00
  0.00000000E+00  0.00000000E+00  0.00000000E+00
  0.00000000E+00  0.00000000E+00  0.00000000E+00
  0.00000000E+00  0.00000000E+00  0.00000000E+00
  0.00000000E+00  0.00000000E+00  0.00000000E+00
  0.00000000E+00  0.00000000E+00  0.00000000E+00
  0.00000000E+00  0.00000000E+00  0.00000000E+00
  0.00000000E+00  0.00000000E+00  0.00000000E+00
  0.00000000E+00  0.00000000E+00  0.00000000E+00
  0.00000000E+00  0.00000000E+00  0.00000000E+00
  0.00000000E+00  0.00000000E+00  0.00000000E+00
  0.00000000E+00  0.00000000E+00  0.00000000E+00
  0.00000000E+00  0.00000000E+00  0.00000000E+00
  0.00000000E+00  0.00000000E+00  0.00000000E+00
  0.00000000E+00  0.00000000E+00  0.00000000E+00
  0.00000000E+00  0.00000000E+00  0.00000000E+00
  0.00000000E+00  0.00000000E+00  0.00000000E+00
  0.00000000E+00  0.00000000E+00  0.00000000E+00
  0.00000000E+00  0.00000000E+00  0.00000000E+00
  0.00000000E+00  0.00000000E+00  0.00000000E+00
  0.00000000E+00  0.00000000E+00  0.00000000E+00
  0.00000000E+00  0.00000000E+00  0.00000000E+00
  0.00000000E+00  0.00000000E+00  0.00000000E+00
  0.00000000E+00  0.00000000E+00  0.00000000E+00
  0.00000000E+00  0.00000000E+00  0.00000000E+00
  0.00000000E+00  0.00000000E+00  0.00000000E+00
  0.00000000E+00  0.00000000E+00  0.00000000E+00
  0.00000000E+00  0.00000000E+00  0.00000000E+00
  0.00000000E+00  0.00000000E+00  0.00000000E+00
  0.00000000E+00  0.00000000E+00  0.00000000E+00
  0.00000000E+00  0.00000000E+00  0.00000000E+00
  0.00000000E+00  0.00000000E+00  0.00000000E+00
  0.00000000E+00  0.00000000E+00  0.00000000E+00
  0.00000000E+00  0.00000000E+00  0.00000000E+00
  0.00000000E+00  0.00000000E+00  0.00000000E+00
  0.00000000E+00  0.00000000E+00  0.00000000E+00
  0.00000000E+00  0.00000000E+00  0.00000000E+00
  0.00000000E+00  0.00000000E+00  0.00000000E+00
  0.00000000E+00  0.00000000E+00  0.00000000E+00
  0.00000000E+00  0.00000000E+00  0.00000000E+00
  0.00000000E+00  0.00000000E+00  0.00000000E+00
  0.00000000E+00  0.00000000E+00  0.00000000E+00
  0.00000000E+00  0.00000000E+00  0.00000000E+00
  0.00000000E+00  0.00000000E+00  0.00000000E+00
  0.00000000E+00  0.00000000E+00  0.00000000E+00
  0.00000000E+00  0.00000000E+00  0.00000000E+00
  0.00000000E+00  0.00000000E+00  0.00000000E+00
  0.00000000E+00  0.00000000E+00  0.00000000E+00
  0.00000000E+00  0.00000000E+00  0.00000000E+00
  0.00000000E+00  0.00000000E+00  0.00000000E+00
  0.00000000E+00  0.00000000E+00  0.00000000E+00
  0.00000000E+00  0.00000000E+00  0.00000000E+00
  0.00000000E+00  0.00000000E+00  0.00000000E+00
  0.00000000E+00  0.00000000E+00  0.00000000E+00
  0.00000000E+00  0.00000000E+00  0.00000000E+00
  0.00000000E+00  0.00000000E+00  0.00000000E+00
  0.00000000E+00  0.00000000E+00  0.00000000E+00
  0.00000000E+00  0.00000000E+00  0.00000000E+00
  0.00000000E+00  0.00000000E+00  0.00000000E+00
  0.00000000E+00  0.00000000E+00  0.00000000E+00
  0.00000000E+00  0.00000000E+00  0.00000000E+00
  0.00000000E+00  0.00000000E+00  0.00000000E+00
  0.00000000E+00  0.00000000E+00  0.00000000E+00
  0.00000000E+00  0.00000000E+00  0.00000000E+00
  0.00000000E+00  0.00000000E+00  0.00000000E+00
  0.00000000E+00  0.00000000E+00  0.00000000E+00
  0.00000000E+00  0.00000000E+00  0.00000000E+00
  0.00000000E+00  0.00000000E+00  0.00000000E+00
  0.00000000E+00  0.00000000E+00  0.00000000E+00
  0.00000000E+00  0.00000000E+00  0.00000000E+00
  0.00000000E+00  0.00000000E+00  0.00000000E+00
  0.00000000E+00  0.00000000E+00  0.00000000E+00
  0.00000000E+00  0.00000000E+00  0.00000000E+00
  0.00000000E+00  0.00000000E+00  0.00000000E+00
  0.00000000E+00  0.00000000E+00  0.00000000E+00
  0.00000000E+00  0.00000000E+00  0.00000000E+00
  0.00000000E+00  0.00000000E+00  0.00000000E+00
  0.00000000E+00  0.00000000E+00  0.00000000E+00
  0.00000000E+00  0.00000000E+00  0.00000000E+00
  0.00000000E+00  0.00000000E+00  0.00000000E+00
  0.00000000E+00  0.00000000E+00  0.00000000E+00
  0.00000000E+00  0.00000000E+00  0.00000000E+00
  0.00000000E+00  0.00000000E+00  0.00000000E+00
  0.00000000E+00  0.00000000E+00  0.00000000E+00
  0.00000000E+00  0.00000000E+00  0.00000000E+00
  0.00000000E+00  0.00000000E+00  0.00000000E+00
  0.00000000E+00  0.00000000E+00  0.00000000E+00
  0.00000000E+00  0.00000000E+00  0.00000000E+00
  0.00000000E+00  0.00000000E+00  0.00000000E+00
  0.00000000E+00  0.00000000E+00  0.00000000E+00
  0.00000000E+00  0.00000000E+00  0.00000000E+00
  0.00000000E+00  0.00000000E+00  0.00000000E+00
  0.00000000E+00  0.00000000E+00  0.00000000E+00
  0.00000000E+00  0.00000000E+00  0.00000000E+00
  0.00000000E+00  0.00000000E+00  0.00000000E+00
  0.00000000E+00  0.00000000E+00  0.00000000E+00
  0.00000000E+00  0.00000000E+00  0.00000000E+00
  0.00000000E+00  0.00000000E+00  0.00000000E+00
  0.00000000E+00  0.00000000E+00  0.00000000E+00
  0.00000000E+00  0.00000000E+00  0.00000000E+00
  0.00000000E+00  0.00000000E+00  0.00000000E+00
  0.00000000E+00  0.00000000E+00  0.00000000E+00
  0.00000000E+00  0.00000000E+00  0.00000000E+00
  0.00000000E+00  0.00000000E+00  0.00000000E+00
  0.00000000E+00  0.00000000E+00  0.00000000E+00
  0.00000000E+00  0.00000000E+00  0.00000000E+00
  0.00000000E+00  0.00000000E+00  0.00000000E+00
  0.00000000E+00  0.00000000E+00  0.00000000E+00
  0.00000000E+00  0.00000000E+00  0.00000000E+00
  0.00000000E+00  0.00000000E+00  0.00000000E+00
  0.00000000E+00  0.00000000E+00  0.00000000E+00
  0.00000000E+00  0.00000000E+00  0.00000000E+00
  0.00000000E+00  0.00000000E+00  0.00000000E+00
  0.00000000E+00  0.00000000E+00  0.00000000E+00
  0.00000000E+00  0.00000000E+00  0.00000000E+00
  0.00000000E+00  0.00000000E+00  0.00000000E+00
  0.00000000E+00  0.00000000E+00  0.00000000E+00
  0.00000000E+00  0.00000000E+00  0.00000000E+00
  0.00000000E+00  0.00000000E+00  0.00000000E+00
  0.00000000E+00  0.00000000E+00  0.00000000E+00
  0.00000000E+00  0.00000000E+00  0.00000000E+00
  0.00000000E+00  0.00000000E+00  0.00000000E+00
  0.00000000E+00  0.00000000E+00  0.00000000E+00
  0.00000000E+00  0.00000000E+00  0.00000000E+00
  0.00000000E+00  0.00000000E+00  0.00000000E+00
  0.00000000E+00  0.00000000E+00  0.00000000E+00
  0.00000000E+00  0.00000000E+00  0.00000000E+00
  0.00000000E+00  0.00000000E+00  0.00000000E+00
  0.00000000E+00  0.00000000E+00  0.00000000E+00
  0.00000000E+00  0.00000000E+00  0.00000000E+00
  0.00000000E+00  0.00000000E+00  0.00000000E+00
  0.00000000E+00  0.00000000E+00  0.00000000E+00
  0.00000000E+00  0.00000000E+00  0.00000000E+00
  0.00000000E+00  0.00000000E+00  0.00000000E+00
  0.00000000E+00  0.00000000E+00  0.00000000E+00
  0.00000000E+00  0.00000000E+00  0.00000000E+00
  0.00000000E+00  0.00000000E+00  0.00000000E+00
  0.00000000E+00  0.00000000E+00  0.00000000E+00
  0.00000000E+00  0.00000000E+00  0.00000000E+00
  0.00000000E+00  0.00000000E+00  0.00000000E+00
  0.00000000E+00  0.00000000E+00  0.00000000E+00
  0.00000000E+00  0.00000000E+00  0.00000000E+00
  0.00000000E+00  0.00000000E+00  0.00000000E+00
  0.00000000E+00  0.00000000E+00  0.00000000E+00
  0.00000000E+00  0.00000000E+00  0.00000000E+00
  0.00000000E+00  0.00000000E+00  0.00000000E+00
  0.00000000E+00  0.00000000E+00  0.00000000E+00
  0.00000000E+00  0.00000000E+00  0.00000000E+00
  0.00000000E+00  0.00000000E+00  0.00000000E+00
  0.00000000E+00  0.00000000E+00  0.00000000E+00
  0.00000000E+00  0.00000000E+00  0.00000000E+00