Amorphous GeAsSeSi                      
   1.00000000000000     
    18.6494314742347207    0.0000000000000000    0.0000000000000000
     0.0000000000000000   18.6494314742347207    0.0000000000000000
     0.0000000000000000    0.0000000000000000   18.6494314742347207
   Ge   As   Te   Si   N 
    60    60    60    60    60
Direct
  0.3380168704329608  0.7470643297642107  0.6640497969306324
  0.6963452237029808  0.0547168290946092  0.6223806103430214
  0.1334662226864715  0.3508186157724427  0.5988021017100040
  0.4046731543397498  0.5396591481840451  0.0455638619852861
  0.0692486628080543  0.0215715574363929  0.1693605318355121
  0.3774003354669075  0.3975314275030433  0.3041617915416460
  0.0027689992072769  0.8704777372539030  0.6080079111827970
  0.0371429293213756  0.2321242211059143  0.8137433126703367
  0.3204059636031904  0.8654268051449484  0.1620588123485488
  0.7022422434340264  0.2298710200084164  0.4878503957153128
  0.5219718551596207  0.7921270041941336  0.1686496295930410
  0.9021955209592262  0.6927055524729425  0.3003413916876455
  0.3011537205567367  0.2740492892144448  0.9407376167839485
  0.5115457141665917  0.8833411953373254  0.3631853685286809
  0.0520041229922256  0.5014318454917892  0.7669263886075888
  0.8680910694159334  0.7472804803642504  0.0247638588294407
  0.6910148780448898  0.9025826248600249  0.8089909890610083
  0.9477278026958263  0.2549614926643089  0.4600503091221367
  0.0590739908662628  0.7619042332955824  0.2423515521832513
  0.4146426356986386  0.1950938413311639  0.3230496758972217
  0.2823984777454238  0.0812528488244044  0.1450997153114531
  0.6004668255585196  0.0161093795901387  0.7591945090229044
  0.7420775508720896  0.6915265419655452  0.6530361979577679
  0.2059185450941922  0.8594215258102077  0.8649907566831141
  0.3402663305965593  0.7637170041567075  0.2720574391930164
  0.5101139768230488  0.1729534382321142  0.8849261324579841
  0.4769155668571999  0.3625191038021427  0.9217980537276239
  0.9288398913190307  0.3708906711183340  0.8687184292640183
  0.2879459779117809  0.0515222666147707  0.7504182287709451
  0.9942963733046821  0.3652264765074073  0.3396874691434846
  0.5225344403202578  0.4583702967049300  0.2005559171776973
  0.8281868508105799  0.0216553365425429  0.7096276058412430
  0.4846379708212172  0.3088256346512784  0.2665525913922616
  0.6811535204701806  0.0655559110797884  0.1816325353454782
  0.1041665338539139  0.5954805552698559  0.5149628514082649
  0.7823308034516264  0.3264092717265409  0.3507425447722822
  0.2339292718826774  0.4337596594368179  0.0216829823139538
  0.0387160052272132  0.0095088936406827  0.9128363495042165
  0.6660142817211639  0.7916568724890498  0.6055925851195729
  0.2985375948049449  0.2721747351981437  0.7276338614589752
  0.5660134869380424  0.4541482099681176  0.5272884799959786
  0.8258248220683260  0.2325757217092586  0.6823667505015278
  0.5186273840738570  0.8612589634630685  0.6909148836745369
  0.4741048466464424  0.9795102562706763  0.8551613815170100
  0.6854597859518646  0.7711998562098615  0.8565071963584576
  0.6488138806321365  0.3669579993252075  0.3378056680192354
  0.0748685170582652  0.9032169981854054  0.7532091954329623
  0.7262889924878840  0.5465214394449776  0.3505584545325346
  0.2131764299263946  0.9156980926898722  0.7383884087061939
  0.8204505926348411  0.7795933417186472  0.3878414378013473
  0.9114751087335290  0.4834261663185463  0.2039536721034085
  0.9597683021244243  0.9732186606801763  0.2248208604709061
  0.8375436797996445  0.8406900419640002  0.6710969354926581
  0.0472361989504982  0.4116981972237768  0.5029865999441251
  0.6558249704820049  0.1144524648792861  0.3771209686309725
  0.4891678860624227  0.5005008488428401  0.7891000213555780
  0.4286814809788322  0.1096170886192513  0.1138978119736606
  0.7982042390670107  0.1140973608230740  0.0360705591041331
  0.2340598546883119  0.7256838721619312  0.9000837152588513
  0.4527681043916952  0.8491578531104311  0.9979375253435040
  0.8927431333126515  0.4295144504701377  0.4183869508407938
  0.7248579691267750  0.4061104224689547  0.7871180290062321
  0.9389641981449760  0.2948822826411899  0.6283656241577166
  0.6097279007630484  0.9704770570638998  0.1094944351996814
  0.6301881707692696  0.7602132854025988  0.0937306192700190
  0.7951501377758941  0.4454808377420345  0.2774674611788979
  0.7105114353297900  0.8958184480366159  0.6731778655235269
  0.7263423708801865  0.5796774666177847  0.5698416988520063
  0.4338665355742842  0.7408022940478959  0.0794675860060008
  0.0591482659710919  0.3566519958212897  0.1413474895956585
  0.4978281704088054  0.7578331282447399  0.3002823115470210
  0.0077478476245766  0.0259702010655996  0.7769956858524054
  0.9754115480474583  0.1792589004739104  0.5677150796959527
  0.8428525660257561  0.5851102792075658  0.1360197400494501
  0.1641272977551197  0.3265247501636139  0.0621341053792346
  0.5092183994254058  0.9249538161753306  0.1850029656992959
  0.4094035391740338  0.3306168732804804  0.7868258922302234
  0.6123124296331416  0.1369816045469599  0.5446171354927068
  0.5947159775803319  0.6021199814119470  0.9587132878573860
  0.1700680224353829  0.8471370227115418  0.3092021837967854
  0.4130762569138615  0.9415134021349280  0.0959509028259667
  0.5920654117472975  0.3626987649709533  0.8489214569206300
  0.5538065044732492  0.8717792190558751  0.8209264373401473
  0.2572678615966499  0.6622405027610907  0.5265312720703795
  0.9599953015824197  0.9604908828625489  0.0134329621534631
  0.3359875041900491  0.6685412067496358  0.4187955284228538
  0.6385081828283480  0.3189813801577175  0.2075440504596849
  0.5592432815402272  0.7629445629780318  0.9013455918650581
  0.6104295927557744  0.6868526993568964  0.3314755327520756
  0.3554602207300286  0.4099083012362024  0.0686374468893840
  0.0775271515960618  0.8773914357913449  0.8842618372623767
  0.5492731273348644  0.0596285052600612  0.4512549755620480
  0.5579711328615985  0.0560539166614170  0.9303532639680149
  0.3045098913677670  0.3766052126289115  0.1874381667123277
  0.2481693180877756  0.8405048589582806  0.0483906490009847
  0.4310833599498129  0.2460529039134467  0.9727975807498077
  0.3525131661292714  0.9386641262140696  0.8135617811761808
  0.5911986211242823  0.8501049372360260  0.0005032200499583
  0.8490818323074200  0.9167610874392603  0.9427530957764328
  0.6862545021268407  0.7924936718714507  0.3631518841925485
  0.9881972972954756  0.2765418999953831  0.0557899832889633
  0.3600259034390137  0.6020685396949175  0.5936724675046596
  0.8539999882418525  0.8798687525425685  0.3036713182018547
  0.9076697306068873  0.1490897711259785  0.1809185659386897
  0.9114647752422405  0.2537296910118309  0.3327990068671527
  0.2630972818079206  0.1740095309247900  0.8521430788996411
  0.7419542617807030  0.2434322922891896  0.2448157417747057
  0.5428781852514156  0.6599793197807222  0.0741268287579436
  0.6259357526163897  0.8821389019595092  0.2855781552989918
  0.9427850512119419  0.6746082862350987  0.1188319955583799
  0.7155087127388519  0.6310378281454646  0.0137097802228970
  0.5344078087844089  0.3204745313318032  0.7366385111522894
  0.4371940893372563  0.5817507627385138  0.3927023135119942
  0.4615468912074033  0.4619138129989908  0.4459586183893757
  0.1177056122113855  0.2737361777656876  0.4366505509443944
  0.3528022494083690  0.5312224285311071  0.3007372182392704
  0.4463170715785212  0.2527071811575194  0.1449155388801655
  0.1622351294010030  0.5290435821601854  0.0835679085866957
  0.2591276018926461  0.3725064947764539  0.3677080338818906
  0.2533588952292197  0.3975899473677981  0.8949793151435090
  0.0908109995446505  0.4073505066800219  0.9026181111918410
  0.2421560496400472  0.6789872925197260  0.1852023926736887
  0.5849223865642018  0.5214267653898376  0.6522401424094283
  0.5821971853126736  0.6703299461337665  0.4719514282676295
  0.8103434970573805  0.1454710461225858  0.5656829224215555
  0.3789437982000583  0.8868785557593698  0.6499213440216925
  0.0235356545435253  0.4749121577820311  0.0712011423724842
  0.7732418585712505  0.6544027675671958  0.2339849665720634
  0.1431417684595017  0.2523768139262448  0.2540895859386083
  0.9329966791268988  0.1244231054005321  0.9700210388399619
  0.8315893273626518  0.6090706702388214  0.4665920237970484
  0.1109849667832680  0.3539275133215731  0.7458838489045889
  0.8612123203383917  0.4056174752567945  0.7374262426526544
  0.8428441989599492  0.3307046312330215  0.5180437943036348
  0.8147441648278778  0.3047561186831467  0.9350293127647137
  0.2815438907547233  0.6114954432767546  0.9967194818822390
  0.4485971335389595  0.6428312547895004  0.8041106231459482
  0.1327649211862652  0.4940675251196249  0.4213977193998703
  0.2932540455383116  0.8394733956093201  0.4002848701437958
  0.3894244009664686  0.4746788116559122  0.9081800668636621
  0.8821967345371212  0.0506690788235792  0.3915598115029422
  0.1202547610285745  0.2079074608384389  0.5642449121022932
  0.8843191833609355  0.9182444934820323  0.8026388918034498
  0.6776762490280718  0.6428056754659747  0.7807684927177736
  0.1103468405403115  0.6970560690445533  0.9950508202471100
  0.1827386154515087  0.0160964361918868  0.5937720338139008
  0.3594438695509231  0.0992029241699668  0.9230138462609904
  0.8848829059747130  0.1374976712208083  0.7790123084965662
  0.1178659450948824  0.7024722183006622  0.4175867259162827
  0.9858878712817648  0.5842186599179685  0.9189696545855555
  0.7124903545619087  0.9916948302084839  0.3183670283119089
  0.6451076395391918  0.5280968003121550  0.1506876269275464
  0.3097913034629223  0.0171718677804954  0.3228268732186866
  0.8303759912069950  0.2778935300261230  0.1367576576509904
  0.4578331614510295  0.0713382720780795  0.2578562065984752
  0.7146953815160745  0.9818576186602905  0.4880284502178401
  0.1908877766811126  0.4670860122107203  0.2110576818203489
  0.9428321799092291  0.0000860492941296  0.6119996881090256
  0.8434293925585344  0.0249100869380938  0.1523558941995986
  0.9679797487495970  0.5640712836102558  0.3109702483085267
  0.6990671572902225  0.4505996606439406  0.4764014607772729
  0.5839532025879823  0.4951605123910803  0.3292707792008097
  0.5624010171748327  0.2786575428811763  0.4161633880186910
  0.6735133163901292  0.1476691457457098  0.7585617210418062
  0.8258757329420933  0.8710890291123089  0.5054859289904209
  0.3669182877737048  0.7878180836233283  0.8106388933655717
  0.6379656959227562  0.2406349186657184  0.9119548942993035
  0.2893210476891601  0.9558777809100050  0.9383116826818185
  0.6776951318903601  0.3093413640310320  0.6223790610908392
  0.5406853763733417  0.3880440336090538  0.0495513446907511
  0.1145579259414012  0.1202471657282691  0.7533536050045476
  0.8104857659655649  0.8455410019756041  0.1089496291476514
  0.1073625524620484  0.6178063095352849  0.2415553548464963
  0.7460602120539515  0.0134725551346719  0.9484291950187126
  0.4376648282650722  0.5788607702628882  0.1970434564803639
  0.5864359119889030  0.1541028908076804  0.2532935359483764
  0.4140353177668996  0.7711221282343442  0.4754480547652962
  0.9395037916906008  0.7601653017928676  0.5270105986983786
  0.5437905719778292  0.7300522634542136  0.6496781060722676
  0.6482959687006903  0.1672525473540428  0.0661661075485338
  0.0186660731285571  0.8014548383485542  0.9692851410746397
  0.1516043306534146  0.1514275739216666  0.9199681862207182
  0.3617805268062338  0.5745099563332640  0.7233994664971272
  0.2009494813715911  0.6025455403928466  0.7768924514268041
  0.1950177699578477  0.9455053616941949  0.1030869462922037
  0.4339195654055075  0.9703278820241188  0.5545324388673640
  0.4556112777910672  0.0699713593153619  0.6955709145857550
  0.2169938398011770  0.8025670388730118  0.6723230661573668
  0.8843136767202376  0.4888384050660552  0.9137434638156127
  0.9242321610363784  0.7022396528526136  0.8771944668958203
  0.1933023205672458  0.7946838178849390  0.4957121872949539
  0.7214336766873243  0.4117777213537092  0.1759654977000414
  0.0195124717103369  0.7415182690525867  0.7308943826097061
  0.7028041195633092  0.4533364817116718  0.6744727212169436
  0.5083154856719956  0.1841717442184027  0.5995746549373285
  0.2241580033874976  0.4827750274375840  0.7357561906510532
  0.9448329891739295  0.1341373658161022  0.3064720272694660
  0.2565380082099565  0.2507170779999007  0.3316215926329819
  0.1449808668794239  0.0845345385403757  0.0379144251561784
  0.2033674428293521  0.9583843993784208  0.2592280703951547
  0.7645502973386520  0.5279588315519803  0.9605117779992709
  0.5493325127651504  0.9414582470709922  0.5098853405479983
  0.8486461881276519  0.5321342632987474  0.6825630903962018
  0.0921164946751981  0.0446378454014496  0.3306397708532212
  0.0003676908129870  0.1514826216890790  0.0870240832578678
  0.9663767338938735  0.9374436581985409  0.3535743924869040
  0.0979384679363800  0.1759805116445124  0.3541447033266474
  0.2846840318367282  0.0576204426320723  0.5103716233700616
  0.1261298367081715  0.8935740684930404  0.5642033380900181
  0.7792719537897126  0.4073566133078217  0.0166398106790851
  0.3570681083205828  0.1517953497511176  0.6160622985993904
  0.7737055376125643  0.7158101250767364  0.9370770934486938
  0.8044123401321842  0.6079947217353475  0.8226265346137014
  0.9083569558763694  0.8245081881567260  0.2025205020912726
  0.5624434460785123  0.3260257542473552  0.5469693984732855
  0.2375166826839335  0.1021212755309161  0.4014834776311973
  0.9337367483574981  0.5425629309986658  0.5280481950110061
  0.1472926945842480  0.7185374851093326  0.7381092358171711
  0.9882035439133616  0.7657645126532362  0.3942126529036420
  0.0830229461469344  0.2896315241903853  0.9682079930639504
  0.8942113168250917  0.6872587206950015  0.7227989025771129
  0.5472955857250470  0.0713295211705588  0.0591914253236439
  0.3765400129863207  0.4425114483071027  0.5357046646335335
  0.1662954692356516  0.7603133549448726  0.1040262013166730
  0.5430531299384508  0.1942606317597579  0.7589141711326561
  0.2936427164668580  0.3619072279922882  0.4904188265511528
  0.3222082166760000  0.2016600636494376  0.4732629918912238
  0.3265750569723557  0.2438950210510135  0.1846028295815840
  0.4296578128925156  0.1005862437411696  0.4804897434382014
  0.9892991389455562  0.6014939082658518  0.6323282689848655
  0.3990110771739015  0.2947205373372105  0.5869352040920007
  0.3765358465064623  0.4144662217220824  0.6971043533221154
  0.0462820213071826  0.8681075855119226  0.1187724453252008
  0.6237770737020515  0.4881558291632727  0.0186594787248642
  0.2544259178134995  0.4522957379782089  0.6078730899844907
  0.0926890958691819  0.8928679828653240  0.3958586594485514
  0.1362737005942625  0.5741795320145410  0.6407673264188284
  0.2384444382596242  0.2241253303155548  0.0490555896091087
  0.5665401566241862  0.9716544680742430  0.6321606213228714
  0.6269970167399180  0.8017763879545545  0.4784943959797289
  0.2828481720549577  0.4194658261973224  0.6954268719468329
  0.9470176796130776  0.7267458271877401  0.7919896846645117
  0.7662242409119084  0.5148887648755325  0.6419763853122150
  0.9389601542892864  0.7342100042416345  0.2047765241991883
  0.3571407983421026  0.2383940221499145  0.6477677445685085
  0.1158029690060577  0.0676817649722458  0.9489075748828955
  0.2950184085606786  0.1446632854925736  0.5458066175313390
  0.0065993309526086  0.8561496769575533  0.3859113719150755
  0.0223174857121795  0.8305659063971834  0.7008748099578757
  0.1032948216429043  0.9413828172001094  0.1164837756397688
  0.4956527498326623  0.0366042765539820  0.7719575875805337
  0.0906434822164929  0.7914204398321505  0.1459280529861519
  0.5000591328097785  0.1541926051760203  0.6872450058492970
  0.3983444223822467  0.3848817241996801  0.6095428938981152
  0.2525027630493100  0.1967364834146310  0.4091116094047245
  0.9380400695680842  0.7646757973911621  0.9443239303547124
  0.0347806963183375  0.1179255243008961  0.3165865357329955
  0.3887848538637507  0.1585209622974650  0.4214330459702277
  0.0051203424962149  0.6004279945499047  0.5394857403429854
  0.1488046092626338  0.1005600144899670  0.3796138215472273
  0.0535100960155900  0.5535999718694031  0.6749441136225717
  0.2445303827309072  0.9366696886476905  0.1807201595069092
  0.2111291220067797  0.0333444241902280  0.0763381733427403
  0.3464552074118183  0.2845290381281173  0.5066837001100607
  0.9572903246090829  0.4619185763262570  0.4915073019672532
  0.0763636846054099  0.0987070333075161  0.1015875954856484
  0.2804269209640795  0.5561777783851318  0.7633804461206963
  0.3627575088048633  0.0872149734281930  0.6838424172054647
  0.3204118764972164  0.5069803747319479  0.5701886016805373
  0.7705400588951175  0.3808531414234980  0.1042052674017548
  0.8255002921134416  0.7379810222745040  0.6882932929355875
  0.7049463663873461  0.4589878483713669  0.9835821638383277
  0.8335818797847623  0.6814866163251866  0.8720482058653438
  0.1813822437472369  0.8204511230939767  0.5864173413830900
  0.2744425213768198  0.1920736038942586  0.1268287958619818
  0.9810943341279452  0.8798562467116405  0.1843738542738708
  0.9721744283025104  0.6838177152652493  0.6700640639891706
  0.3745311854669511  0.0243086230330229  0.5044206592655727
  0.1863696073002798  0.6833102019155400  0.8186160150142151
  0.4814567977736441  0.0151399587419953  0.6239505150529533
  0.3212601940117006  0.2172570301508976  0.2749087823900593
  0.4927478282977523  0.2753714890529428  0.5838911550362990
  0.8572343214137298  0.6019870235744481  0.7456394488006814
  0.0274420469039998  0.3258857513078834  0.4409655790721673
  0.1354958849125882  0.8732782970937591  0.4746132135122557
  0.0045071944637759  0.8620559599277935  0.0359538223547409
  0.1559044127823328  0.5203704901313051  0.7905026492515802
  0.0542310672571106  0.9764628435335382  0.3781355196272591
  0.1827577997024224  0.1639261124266088  0.0091087957878079
  0.8382530135594966  0.4788830236795625  0.9962237963872373
  0.8068178703446528  0.5338528981101203  0.8767850530050502
  0.9110828289324784  0.5510530557727485  0.6195400271083205
  0.1727577479093330  0.6401767157331663  0.6930230947252358
  0.4343793340888051  0.1460870004504038  0.5614155164826654
  0.4126022067111509  0.4963851517409621  0.7177007137158068
  0.0965096143595341  0.2244859293941504  0.9036449960422827
  0.1879363366804864  0.4990826998977344  0.6478127160573176
  0.5616640650104467  0.8646622530433519  0.4613101018970858
  0.1340910852960849  0.0204760677102568  0.2507407709464727
  0.2266021590295389  0.3810369092989400  0.5547647664071280
 
  0.00000000E+00  0.00000000E+00  0.00000000E+00
  0.00000000E+00  0.00000000E+00  0.00000000E+00
  0.00000000E+00  0.00000000E+00  0.00000000E+00
  0.00000000E+00  0.00000000E+00  0.00000000E+00
  0.00000000E+00  0.00000000E+00  0.00000000E+00
  0.00000000E+00  0.00000000E+00  0.00000000E+00
  0.00000000E+00  0.00000000E+00  0.00000000E+00
  0.00000000E+00  0.00000000E+00  0.00000000E+00
  0.00000000E+00  0.00000000E+00  0.00000000E+00
  0.00000000E+00  0.00000000E+00  0.00000000E+00
  0.00000000E+00  0.00000000E+00  0.00000000E+00
  0.00000000E+00  0.00000000E+00  0.00000000E+00
  0.00000000E+00  0.00000000E+00  0.00000000E+00
  0.00000000E+00  0.00000000E+00  0.00000000E+00
  0.00000000E+00  0.00000000E+00  0.00000000E+00
  0.00000000E+00  0.00000000E+00  0.00000000E+00
  0.00000000E+00  0.00000000E+00  0.00000000E+00
  0.00000000E+00  0.00000000E+00  0.00000000E+00
  0.00000000E+00  0.00000000E+00  0.00000000E+00
  0.00000000E+00  0.00000000E+00  0.00000000E+00
  0.00000000E+00  0.00000000E+00  0.00000000E+00
  0.00000000E+00  0.00000000E+00  0.00000000E+00
  0.00000000E+00  0.00000000E+00  0.00000000E+00
  0.00000000E+00  0.00000000E+00  0.00000000E+00
  0.00000000E+00  0.00000000E+00  0.00000000E+00
  0.00000000E+00  0.00000000E+00  0.00000000E+00
  0.00000000E+00  0.00000000E+00  0.00000000E+00
  0.00000000E+00  0.00000000E+00  0.00000000E+00
  0.00000000E+00  0.00000000E+00  0.00000000E+00
  0.00000000E+00  0.00000000E+00  0.00000000E+00
  0.00000000E+00  0.00000000E+00  0.00000000E+00
  0.00000000E+00  0.00000000E+00  0.00000000E+00
  0.00000000E+00  0.00000000E+00  0.00000000E+00
  0.00000000E+00  0.00000000E+00  0.00000000E+00
  0.00000000E+00  0.00000000E+00  0.00000000E+00
  0.00000000E+00  0.00000000E+00  0.00000000E+00
  0.00000000E+00  0.00000000E+00  0.00000000E+00
  0.00000000E+00  0.00000000E+00  0.00000000E+00
  0.00000000E+00  0.00000000E+00  0.00000000E+00
  0.00000000E+00  0.00000000E+00  0.00000000E+00
  0.00000000E+00  0.00000000E+00  0.00000000E+00
  0.00000000E+00  0.00000000E+00  0.00000000E+00
  0.00000000E+00  0.00000000E+00  0.00000000E+00
  0.00000000E+00  0.00000000E+00  0.00000000E+00
  0.00000000E+00  0.00000000E+00  0.00000000E+00
  0.00000000E+00  0.00000000E+00  0.00000000E+00
  0.00000000E+00  0.00000000E+00  0.00000000E+00
  0.00000000E+00  0.00000000E+00  0.00000000E+00
  0.00000000E+00  0.00000000E+00  0.00000000E+00
  0.00000000E+00  0.00000000E+00  0.00000000E+00
  0.00000000E+00  0.00000000E+00  0.00000000E+00
  0.00000000E+00  0.00000000E+00  0.00000000E+00
  0.00000000E+00  0.00000000E+00  0.00000000E+00
  0.00000000E+00  0.00000000E+00  0.00000000E+00
  0.00000000E+00  0.00000000E+00  0.00000000E+00
  0.00000000E+00  0.00000000E+00  0.00000000E+00
  0.00000000E+00  0.00000000E+00  0.00000000E+00
  0.00000000E+00  0.00000000E+00  0.00000000E+00
  0.00000000E+00  0.00000000E+00  0.00000000E+00
  0.00000000E+00  0.00000000E+00  0.00000000E+00
  0.00000000E+00  0.00000000E+00  0.00000000E+00
  0.00000000E+00  0.00000000E+00  0.00000000E+00
  0.00000000E+00  0.00000000E+00  0.00000000E+00
  0.00000000E+00  0.00000000E+00  0.00000000E+00
  0.00000000E+00  0.00000000E+00  0.00000000E+00
  0.00000000E+00  0.00000000E+00  0.00000000E+00
  0.00000000E+00  0.00000000E+00  0.00000000E+00
  0.00000000E+00  0.00000000E+00  0.00000000E+00
  0.00000000E+00  0.00000000E+00  0.00000000E+00
  0.00000000E+00  0.00000000E+00  0.00000000E+00
  0.00000000E+00  0.00000000E+00  0.00000000E+00
  0.00000000E+00  0.00000000E+00  0.00000000E+00
  0.00000000E+00  0.00000000E+00  0.00000000E+00
  0.00000000E+00  0.00000000E+00  0.00000000E+00
  0.00000000E+00  0.00000000E+00  0.00000000E+00
  0.00000000E+00  0.00000000E+00  0.00000000E+00
  0.00000000E+00  0.00000000E+00  0.00000000E+00
  0.00000000E+00  0.00000000E+00  0.00000000E+00
  0.00000000E+00  0.00000000E+00  0.00000000E+00
  0.00000000E+00  0.00000000E+00  0.00000000E+00
  0.00000000E+00  0.00000000E+00  0.00000000E+00
  0.00000000E+00  0.00000000E+00  0.00000000E+00
  0.00000000E+00  0.00000000E+00  0.00000000E+00
  0.00000000E+00  0.00000000E+00  0.00000000E+00
  0.00000000E+00  0.00000000E+00  0.00000000E+00
  0.00000000E+00  0.00000000E+00  0.00000000E+00
  0.00000000E+00  0.00000000E+00  0.00000000E+00
  0.00000000E+00  0.00000000E+00  0.00000000E+00
  0.00000000E+00  0.00000000E+00  0.00000000E+00
  0.00000000E+00  0.00000000E+00  0.00000000E+00
  0.00000000E+00  0.00000000E+00  0.00000000E+00
  0.00000000E+00  0.00000000E+00  0.00000000E+00
  0.00000000E+00  0.00000000E+00  0.00000000E+00
  0.00000000E+00  0.00000000E+00  0.00000000E+00
  0.00000000E+00  0.00000000E+00  0.00000000E+00
  0.00000000E+00  0.00000000E+00  0.00000000E+00
  0.00000000E+00  0.00000000E+00  0.00000000E+00
  0.00000000E+00  0.00000000E+00  0.00000000E+00
  0.00000000E+00  0.00000000E+00  0.00000000E+00
  0.00000000E+00  0.00000000E+00  0.00000000E+00
  0.00000000E+00  0.00000000E+00  0.00000000E+00
  0.00000000E+00  0.00000000E+00  0.00000000E+00
  0.00000000E+00  0.00000000E+00  0.00000000E+00
  0.00000000E+00  0.00000000E+00  0.00000000E+00
  0.00000000E+00  0.00000000E+00  0.00000000E+00
  0.00000000E+00  0.00000000E+00  0.00000000E+00
  0.00000000E+00  0.00000000E+00  0.00000000E+00
  0.00000000E+00  0.00000000E+00  0.00000000E+00
  0.00000000E+00  0.00000000E+00  0.00000000E+00
  0.00000000E+00  0.00000000E+00  0.00000000E+00
  0.00000000E+00  0.00000000E+00  0.00000000E+00
  0.00000000E+00  0.00000000E+00  0.00000000E+00
  0.00000000E+00  0.00000000E+00  0.00000000E+00
  0.00000000E+00  0.00000000E+00  0.00000000E+00
  0.00000000E+00  0.00000000E+00  0.00000000E+00
  0.00000000E+00  0.00000000E+00  0.00000000E+00
  0.00000000E+00  0.00000000E+00  0.00000000E+00
  0.00000000E+00  0.00000000E+00  0.00000000E+00
  0.00000000E+00  0.00000000E+00  0.00000000E+00
  0.00000000E+00  0.00000000E+00  0.00000000E+00
  0.00000000E+00  0.00000000E+00  0.00000000E+00
  0.00000000E+00  0.00000000E+00  0.00000000E+00
  0.00000000E+00  0.00000000E+00  0.00000000E+00
  0.00000000E+00  0.00000000E+00  0.00000000E+00
  0.00000000E+00  0.00000000E+00  0.00000000E+00
  0.00000000E+00  0.00000000E+00  0.00000000E+00
  0.00000000E+00  0.00000000E+00  0.00000000E+00
  0.00000000E+00  0.00000000E+00  0.00000000E+00
  0.00000000E+00  0.00000000E+00  0.00000000E+00
  0.00000000E+00  0.00000000E+00  0.00000000E+00
  0.00000000E+00  0.00000000E+00  0.00000000E+00
  0.00000000E+00  0.00000000E+00  0.00000000E+00
  0.00000000E+00  0.00000000E+00  0.00000000E+00
  0.00000000E+00  0.00000000E+00  0.00000000E+00
  0.00000000E+00  0.00000000E+00  0.00000000E+00
  0.00000000E+00  0.00000000E+00  0.00000000E+00
  0.00000000E+00  0.00000000E+00  0.00000000E+00
  0.00000000E+00  0.00000000E+00  0.00000000E+00
  0.00000000E+00  0.00000000E+00  0.00000000E+00
  0.00000000E+00  0.00000000E+00  0.00000000E+00
  0.00000000E+00  0.00000000E+00  0.00000000E+00
  0.00000000E+00  0.00000000E+00  0.00000000E+00
  0.00000000E+00  0.00000000E+00  0.00000000E+00
  0.00000000E+00  0.00000000E+00  0.00000000E+00
  0.00000000E+00  0.00000000E+00  0.00000000E+00
  0.00000000E+00  0.00000000E+00  0.00000000E+00
  0.00000000E+00  0.00000000E+00  0.00000000E+00
  0.00000000E+00  0.00000000E+00  0.00000000E+00
  0.00000000E+00  0.00000000E+00  0.00000000E+00
  0.00000000E+00  0.00000000E+00  0.00000000E+00
  0.00000000E+00  0.00000000E+00  0.00000000E+00
  0.00000000E+00  0.00000000E+00  0.00000000E+00
  0.00000000E+00  0.00000000E+00  0.00000000E+00
  0.00000000E+00  0.00000000E+00  0.00000000E+00
  0.00000000E+00  0.00000000E+00  0.00000000E+00
  0.00000000E+00  0.00000000E+00  0.00000000E+00
  0.00000000E+00  0.00000000E+00  0.00000000E+00
  0.00000000E+00  0.00000000E+00  0.00000000E+00
  0.00000000E+00  0.00000000E+00  0.00000000E+00
  0.00000000E+00  0.00000000E+00  0.00000000E+00
  0.00000000E+00  0.00000000E+00  0.00000000E+00
  0.00000000E+00  0.00000000E+00  0.00000000E+00
  0.00000000E+00  0.00000000E+00  0.00000000E+00
  0.00000000E+00  0.00000000E+00  0.00000000E+00
  0.00000000E+00  0.00000000E+00  0.00000000E+00
  0.00000000E+00  0.00000000E+00  0.00000000E+00
  0.00000000E+00  0.00000000E+00  0.00000000E+00
  0.00000000E+00  0.00000000E+00  0.00000000E+00
  0.00000000E+00  0.00000000E+00  0.00000000E+00
  0.00000000E+00  0.00000000E+00  0.00000000E+00
  0.00000000E+00  0.00000000E+00  0.00000000E+00
  0.00000000E+00  0.00000000E+00  0.00000000E+00
  0.00000000E+00  0.00000000E+00  0.00000000E+00
  0.00000000E+00  0.00000000E+00  0.00000000E+00
  0.00000000E+00  0.00000000E+00  0.00000000E+00
  0.00000000E+00  0.00000000E+00  0.00000000E+00
  0.00000000E+00  0.00000000E+00  0.00000000E+00
  0.00000000E+00  0.00000000E+00  0.00000000E+00
  0.00000000E+00  0.00000000E+00  0.00000000E+00
  0.00000000E+00  0.00000000E+00  0.00000000E+00
  0.00000000E+00  0.00000000E+00  0.00000000E+00
  0.00000000E+00  0.00000000E+00  0.00000000E+00
  0.00000000E+00  0.00000000E+00  0.00000000E+00
  0.00000000E+00  0.00000000E+00  0.00000000E+00
  0.00000000E+00  0.00000000E+00  0.00000000E+00
  0.00000000E+00  0.00000000E+00  0.00000000E+00
  0.00000000E+00  0.00000000E+00  0.00000000E+00
  0.00000000E+00  0.00000000E+00  0.00000000E+00
  0.00000000E+00  0.00000000E+00  0.00000000E+00
  0.00000000E+00  0.00000000E+00  0.00000000E+00
  0.00000000E+00  0.00000000E+00  0.00000000E+00
  0.00000000E+00  0.00000000E+00  0.00000000E+00
  0.00000000E+00  0.00000000E+00  0.00000000E+00
  0.00000000E+00  0.00000000E+00  0.00000000E+00
  0.00000000E+00  0.00000000E+00  0.00000000E+00
  0.00000000E+00  0.00000000E+00  0.00000000E+00
  0.00000000E+00  0.00000000E+00  0.00000000E+00
  0.00000000E+00  0.00000000E+00  0.00000000E+00
  0.00000000E+00  0.00000000E+00  0.00000000E+00
  0.00000000E+00  0.00000000E+00  0.00000000E+00
  0.00000000E+00  0.00000000E+00  0.00000000E+00
  0.00000000E+00  0.00000000E+00  0.00000000E+00
  0.00000000E+00  0.00000000E+00  0.00000000E+00
  0.00000000E+00  0.00000000E+00  0.00000000E+00
  0.00000000E+00  0.00000000E+00  0.00000000E+00
  0.00000000E+00  0.00000000E+00  0.00000000E+00
  0.00000000E+00  0.00000000E+00  0.00000000E+00
  0.00000000E+00  0.00000000E+00  0.00000000E+00
  0.00000000E+00  0.00000000E+00  0.00000000E+00
  0.00000000E+00  0.00000000E+00  0.00000000E+00
  0.00000000E+00  0.00000000E+00  0.00000000E+00
  0.00000000E+00  0.00000000E+00  0.00000000E+00
  0.00000000E+00  0.00000000E+00  0.00000000E+00
  0.00000000E+00  0.00000000E+00  0.00000000E+00
  0.00000000E+00  0.00000000E+00  0.00000000E+00
  0.00000000E+00  0.00000000E+00  0.00000000E+00
  0.00000000E+00  0.00000000E+00  0.00000000E+00
  0.00000000E+00  0.00000000E+00  0.00000000E+00
  0.00000000E+00  0.00000000E+00  0.00000000E+00
  0.00000000E+00  0.00000000E+00  0.00000000E+00
  0.00000000E+00  0.00000000E+00  0.00000000E+00
  0.00000000E+00  0.00000000E+00  0.00000000E+00
  0.00000000E+00  0.00000000E+00  0.00000000E+00
  0.00000000E+00  0.00000000E+00  0.00000000E+00
  0.00000000E+00  0.00000000E+00  0.00000000E+00
  0.00000000E+00  0.00000000E+00  0.00000000E+00
  0.00000000E+00  0.00000000E+00  0.00000000E+00
  0.00000000E+00  0.00000000E+00  0.00000000E+00
  0.00000000E+00  0.00000000E+00  0.00000000E+00
  0.00000000E+00  0.00000000E+00  0.00000000E+00
  0.00000000E+00  0.00000000E+00  0.00000000E+00