Amorphous Sb                            
   1.00000000000000     
    21.6983993529999992    0.0000000000000000    0.0000000000000000
     0.0000000000000000   21.6983993529999992    0.0000000000000000
     0.0000000000000000    0.0000000000000000   21.6983993529999992
   Sn   Te
   150   150
Direct
  0.1950149649452985  0.1187776154955181  0.9271791246302629
  0.4570642267479963  0.4606697490689933  0.0768730021719850
  0.8775192618937742  0.4688387752255165  0.4421730665603849
  0.1820896166625126  0.4389821734804422  0.2797328849359121
  0.6474505864708751  0.1987790807267678  0.3460745786074060
  0.2549565002543316  0.1483262248179062  0.2498856712547348
  0.9503716622776495  0.0248130048904094  0.1097393644857970
  0.2655331618408425  0.7068546821825481  0.1097504956216585
  0.4206996995305959  0.1225407803862186  0.3769991439917038
  0.1029583099193878  0.5462563918880571  0.0330419564614807
  0.8582292518642360  0.2846138042244543  0.4127786979654369
  0.6636157813734876  0.7604506439250499  0.8615131330669635
  0.7970041282800536  0.6229903801716034  0.8598005091632774
  0.2354163004755093  0.2659617859090481  0.3643565632908184
  0.2685136688254155  0.5983290078747174  0.3308533917744843
  0.9058100478447544  0.6835980993929254  0.4447140736579515
  0.1633850197234619  0.4248963279355523  0.9755324118211536
  0.6005323031883060  0.1757177791870293  0.8118474932221872
  0.5099992772445283  0.8677935336868838  0.6486703197890961
  0.3481685113122863  0.2126954444002884  0.5304652528976167
  0.0068245980716197  0.3389127352083871  0.6343176982055173
  0.0350611975692771  0.2013703706867961  0.5057967861176750
  0.7270291316277600  0.3462622046047093  0.5433241611172867
  0.6206227871045001  0.2411918674971708  0.5669884627760133
  0.0221583824624647  0.4569949584704956  0.3352180762896651
  0.3692819815163384  0.3395035387737098  0.6481838528221718
  0.8671257160623953  0.6041455818275041  0.0209432572483944
  0.9052895817270284  0.1773900187401838  0.9198492751823831
  0.1043404946911508  0.6614036936679862  0.7880513438894551
  0.9542249558575939  0.8611278686959251  0.8071451645709979
  0.3830937396310096  0.7505325559300456  0.1650911000634893
  0.6524965893694713  0.5324046947576863  0.4984131812424186
  0.2335843303288124  0.8431789919336417  0.8141006415968628
  0.6747150327761103  0.5921430396605392  0.2587423298164925
  0.5663375371665264  0.0700876301706106  0.3973934784842442
  0.9666746505674000  0.0065006324373095  0.5077789763636444
  0.8003319876979431  0.2812169186136979  0.8087725146371103
  0.7550739080707569  0.4287260594532370  0.8482135134682524
  0.5204001084729730  0.0376624879932654  0.9266736411921297
  0.4251254539223685  0.3695446811791576  0.2735755847681325
  0.2531685131978811  0.0082226967431402  0.6968956203170450
  0.4742189062153053  0.1077003732722888  0.5982564730097283
  0.8068474336374689  0.2942157647276238  0.0158356241615121
  0.0837365187835150  0.6598201874799382  0.1292545304472541
  0.8668660022922005  0.7377368161730510  0.1731544273358114
  0.2079933707258127  0.0802658049473626  0.5609689371927837
  0.3788220355176971  0.1229949776515205  0.0875535469250783
  0.4854760076459202  0.7736532326746938  0.8669099047985569
  0.0115029330782469  0.8458377129554142  0.0957169627089558
  0.2714804278929007  0.5363855218364220  0.1383255809235610
  0.2515081156796493  0.5722808868182879  0.6095581293645255
  0.9640376938132100  0.3876228201037378  0.1817388185458397
  0.1714754602750513  0.1314657355179855  0.3747006881724335
  0.6780470681950177  0.9641652106123425  0.6253588819482232
  0.0237483724850456  0.2017761548969737  0.6437737924018295
  0.1586031962689824  0.1825967947022875  0.6487874699161762
  0.0750674700458265  0.3295212801528872  0.2639922584816558
  0.9339615198384443  0.7441968136167946  0.9382307786841101
  0.8281963763012211  0.5073008316549523  0.2129682654796658
 -0.0001829968116512  0.1055301525571572  0.3340786282525172
  0.1272880976103058  0.1689136749962830  0.1568928545517347
  0.7920041910677394  0.8077980880011548  0.8478566373307510
  0.4901476460803315  0.4414276035126282  0.5553459431246230
  0.0563993940351049  0.4733666916208572  0.5828427096403400
  0.6345829957109856  0.3350091195896252  0.1138998193864278
  0.5319127129140931  0.1571830321536999  0.1263620711569952
  0.4116091521849319  0.9648241704330707  0.8060492370992687
  0.8642410466331796  0.2068341267364650  0.6228938524297470
  0.4325967697403264  0.3128144369994229  0.4897504871738280
  0.4931065577276528  0.6353920266681187  0.9578878738808840
  0.8405346230721578  0.9402567197609553  0.8928471961261635
 -0.0283417814458905  0.0652757921524374  0.6522176446707002
  0.4439763474900913  0.8142918744179850  0.3165676339736147
  0.4714072956384009  0.7917961363632803  0.0550861165203474
  0.3559971276759721  0.8464244066895313  0.6569548400329022
  0.1088565176743777  0.7637705179539177  0.6845079428932753
  0.9223053131516059  0.4730776221970066  0.6391176985353527
  0.7141389957829930  0.7458032464295691  0.2530088113734956
  0.7197003585176261  0.1672771433948640  0.1759001424796160
  0.0575098913005043  0.6388643792351876  0.6282197800219584
  0.2211346658055182  0.3086876640047431  0.9227303989388916
  0.5843196755325147  0.4418673089335118  0.9286103454109802
  0.5478288547087465  0.8824458232223579  0.4458584400600422
  0.3329966224474546  0.4116238874614143  0.9227671041715747
  0.4650342972011792  0.5602251597542276  0.2373546439043797
  0.0430270877390757  0.3739387843767438  0.0531870281323885
  0.3501930629053400  0.3114666069956220  0.1656595948931873
  0.2479746383662018  0.0331238868588495  0.1719914542651286
  0.2409079463072382  0.4500600132804518  0.7450402110814465
  0.6958336033087301  0.9045940032468838  0.4357078729245056
  0.4485910723624117  0.5804468602638196  0.3762076363598281
  0.5943804128850961 -0.0369828857334194  0.2536792794790362
  0.7176098926815260  0.7551984027571856  0.4844133198183456
  0.2301804891377948  0.3004850618854747  0.6496102851447625
  0.7046631934814951  0.0626185366758252 -0.0145396062896188
  0.2624850785971786  0.2710976323217940  0.7958760823878155
  0.8215685117167394  0.0239425387926318  0.7671102878310920
 -0.0145016121380063  0.2396734688304177  0.0838306100843800
  0.6817762335209770  0.6300556199399996 -0.0115302491141619
  0.6952337822213185  0.7605612904143171  0.6615081489115328
  0.4565089807840491  0.9597386788440605  0.0749897806406118
  0.8578695005298346  0.2136746923774188  0.2110809940417350
  0.1279643072758894  0.0147706388797392  0.7886927166372120
  0.2476480393704270  0.9366987036786568  0.5459868561342124
  0.2271763749383963  0.6133572131048317  0.0170390791376863
  0.1165617940292823  0.7580628721688654  0.5246192626282226
  0.7110950410094281  0.4786734043970212  0.0817553140927941
  0.3158611056131982  0.1190766653488433  0.7758751381833667
  0.1882097023907706  0.8974839885374731  0.1668351131492219
  0.9930592892917426 -0.0320803484538917  0.8988522107013266
  0.3445041256254054  0.8448495845013464  0.5093185429992433
  0.6251748701669648  0.8979639926651464  0.0703521119698544
  0.6106262705236638  0.7105056518907873  0.3813021341675429
  0.1930489572965365  0.7358845402833400  0.9566202662999658
  0.4531762778436084  0.5963331004194108  0.5673996018828313
  0.3727169693695807  0.8932084529846793  0.9357467429325314
  0.9065395977376801  0.8596288338830331  0.5677539458867763
  0.9877453324211121  0.8194091359886886  0.2951264495753074
  0.3563476920015625  0.7090897094695958  0.5292409576252844
  0.4565923246329211  0.2054025810436924  0.8507367541462412
  0.2632119655050205  0.7728210891122345  0.3129359693608639
  0.1443585064805189  0.2833094397849326  0.0788263515469525
  0.6558381104603216  0.3573908018478026  0.6927601085304952
  0.1196395026012114  0.7022540429057381  0.3273793297714547
  0.5052007070963719  0.4702044814891523  0.7342458837883393
  0.3631818623020193  0.6822219410920006  0.7279565641134946
  0.8216520481573185  0.6301140784384980  0.3021952969792019
  0.0597562089809819  0.8974658231523339  0.6360828864599041
  0.5730521934319616  0.4169904093553979  0.3526182648629256
  0.3113801743860077  0.6118978357846081  0.9087751265046842
  0.3119006380905512  0.4224449992001839  0.5052319198613334
  0.2767329268057226  0.2807998811456969  0.0473089961461041
  0.6877898932898175  0.1099027201947517  0.6720563932001324
  0.4237795681894867  0.2463335322467665  0.0145101646873955
  0.0502960652654629  0.4619650190958294  0.7401628661678383
  0.4977114438651108  0.3343080998817779  0.8151812362550785
  0.9179210419571854  0.4609949737946377  0.9093173713543973
  0.9512560676179981  0.7110137513246094  0.7757802287418292
  0.7946485893413961  0.0829098792671580  0.4248366391383655
  0.6302162163751373  0.9395203776563921  0.8084215124867637
  0.7085236294014164  0.5747970181241059  0.7000312158516317
  0.8051720964438618  0.8875358452502840  0.0813357950696887
  0.0344095859687165  0.3203688979773808  0.8536589031836966
  0.1235448619223322  0.3346446719805570  0.4912047398474559
  0.3927121495052197  0.5548216197902883  0.8086716787717148
  0.1731237406319789  0.5840345958538028  0.4835777510106075
  0.1212805470995315  0.9602523924625102  0.3691631704086053
  0.0182148570731091  0.1973739886138006  0.7798568005946850
  0.8102674471903750  0.4021218590209080  0.6811345884883849
  0.0720009578460550  0.6108998445080382  0.9092425860460590
  0.2198374096281464  0.8801047334711133  0.6680273301054496
  0.3779925469773371  0.1912420342388250  0.2160705361914577
  0.4562484499153173  0.7163827364614672  0.6323786879295464
  0.3715064046080091  0.8114473406859157  0.7882087702362957
  0.7253652674998766  0.9273245316824580  0.9585846969158052
  0.6996357317137313  0.4653460471552920  0.2280147483237339
  0.3301073030429005  0.1899195854097517  0.8948541867353113
  0.8138900849724409  0.7605886798344801  0.5809598038665430
  0.5621303082229435  0.9857031242374250  0.6969703957596287
  0.7455178258884327  0.2366909258698385  0.6856355249700948
  0.1588721296103517  0.5584886202489550  0.7129995005595017
  0.9044655898391947  0.3859312904065593  0.3029411988425471
  0.1319521765982531  0.8891882113755973  0.4978369813593680
  0.7477907987959116  0.4918106290868821  0.4020062691398441
  0.9283788497607496  0.8742041359050639  0.9858371058505971
  0.1679707284455730  0.1534530106855457  0.7855968131895225
  0.3076829653948784  0.5528429936517750  0.4662920885014069
  0.7602743837198453  0.6364714888522689  0.4208425294401902
  0.0534067504183325  0.4637329130707592  0.8778327452765335
  0.5141002884984499  0.3531365517594334  0.6584788579756836
  0.7928290003069144  0.7182013715420317  0.9646255188814051
  0.1449220033668817  0.3510953336975432  0.7507627979651151
  0.5938647401156788  0.7403485869279455  0.9747381506997919
  0.3186188133681828  0.8562933245232716  0.2195344234694033
  0.0087725219420157  0.2208361627038061  0.2196355336540555
  0.6479404200557918  0.8477422831510726  0.3181628552397735
  0.8324412725932858  0.8853455431521523  0.4219099501688564
  0.9001976004402350  0.0427181356033096  0.9610980125193924
  0.3854166801045748  0.7221076561689045  0.9619406025293388
  0.5789225997199507  0.5225983670266532  0.0400978081812924
  0.3091547472086379  0.4837287207327287  0.2605994843029600
 -0.0014665338228271  0.0622862172004216  0.7888771838694563
  0.0742525038080207  0.9636226634614140  0.1089273829888495
  0.7517293008634625  0.4962236241599778  0.5931015826279454
  0.6781227379678212  0.1248471758375726  0.5199300318737528
  0.2169826585854444  0.3958505205424904  0.4084150179846502
  0.6450352180087148  0.3054669268832425  0.8189906738988044
  0.3911512570274021  0.0341152231280383  0.9667432366872821
  0.1048677205648666  0.0237789479617784  0.6416863024370084
  0.5866274882969944  0.0320516257702393  0.0522240693490635
  0.7183661651044747  0.9502582430294915  0.1671620588098808
  0.2265982541424750  0.8621865786205994  0.9471364202386532
  0.0855268271728386  0.2575392763007400  0.3771707452444593
  0.6276418599729462  0.8461317824355638  0.5782967496578387
  0.5160362833527583  0.8877750063652136  0.9595081117097398
  0.3852953333265478  0.0221587254142803  0.1769005748161833
  0.0111145631550236  0.6930800300371127  0.2403892395966455
  0.8612865640572613  0.1790007658560997  0.0732476854953772
  0.2183926394431790  0.2244278618073083  0.5076238047786227
  0.8511176522088223 -0.0120607252526721  0.3294918320787826
  0.4865754460355288  0.2950301531844124  0.1230046799074057
  0.1149949948567184  0.0592583777259879  0.2706500619029042
  0.7759876304848090  0.6033226677028626  0.1265370012808420
  0.3346329973921814  0.8685462562601579  0.3799528086324269
  0.0129680426334388  0.4097048375979896  0.4724463773453219
  0.4902551033235893  0.9658659759461284  0.3498388293911027
  0.8247756264023063  0.0673836736785989  0.6379814919939246
  0.5669244477540366  0.1847401172983364  0.6779825621593289
  0.1194455851707298  0.4567380925387057  0.1446389691249346
  0.6620327096492183  0.6278958221212604  0.8485882878393853
  0.7743150503847224  0.5167317554936623  0.9543076412837078
 -0.0232019285584014  0.7515267963137767  0.6452039400481109
  0.3814464375387297  0.6915627969911671  0.2876961789820813
  0.4918057579703174  0.7565683820353601  0.4328502735799373
  0.8713225623935458  0.5594974151330832  0.5488025905333974
  0.3865480741955145  0.9821092708860384  0.6726233651425804
  0.6965416091016832  0.0781179951256863  0.8109055422421096
  0.6897462325158205  0.0177424058406230  0.3561248488773426
  0.0690040995527171  0.7524953575794959  0.9097912809453659
  0.1174119606627093  0.0045573931779044  0.9292415122173108
  0.5265849797810889  0.2857617163932904  0.3197444382274044
  0.4015856788624667  0.5832238039801191  0.1213721243918683
  0.4574041742561356  0.0955190422709626  0.7788147843807433
  0.7704585231119218  0.0551768172821375  0.1087856008168674
  0.2799953541313631 -0.0084131689912702  0.8332102949535378
  0.7816022771644431  0.2205750119569011  0.5125440758452017
  0.4112760369270495  0.5190301913745651  0.9478787649358977
  0.1497984538153058  0.7768908194644994  0.0970115595041549
  0.9386248565377577  0.6061707913614544  0.8908495910207070
  0.9730588491068356  0.5822295578409731  0.7175834385762648
  0.2831664610883345  0.4185488005142088  0.0533377947647337
  0.6454350485634037  0.3041617958495180  0.2589268405436581
  0.7392858175306756  0.7743453637938194  0.1199671072764447
  0.6473492872808723  0.2055377972488533  0.0703308315942488
  0.5850771840858728  0.5719857546286724  0.3684104182651034
  0.0864504187268431  0.8690936140874947  0.7769424142859650
  0.3217384535568410  0.0419477705441795  0.3121898602091886
  0.6440266809850523  0.4738982634557338  0.7703324105109556
  0.8486753218494433  0.4167499156135930  0.1060226852310689
  0.2025912809168026  0.4248273162451149  0.5875333573754283
  0.1388749173497379  0.8545032935127234  0.2872163857540804
  0.5617346940131160  0.5378720898935581  0.6285434284879216
  0.4411890408164283  0.4429585889321435  0.3898358553763969
  0.3687705346292360  0.0851109478242226  0.4984327756984732
  0.7887816760780756  0.1907553759804793  0.3355559074645431
  0.4525189483544986  0.9229387329013168  0.5311246742440099
  0.8163042633118103  0.7129270580513447  0.7556979171154653
  0.9430851275219042  0.3619273399944351  0.7545853854002316
 -0.0198510991619694  0.9703581924473239  0.3709136568996207
  0.2070289511801217  0.3096814367968183  0.2249890472510584
  0.3743133719010279  0.5272814872935929  0.6558237424788590
  0.7406634765023492  0.3568799242399824  0.4069902159194253
  0.5267352310493087  0.8742433050868658  0.1639774477041690
  0.7455849316605140  0.9056406874004632  0.7391127741071558
  0.9090840521535417  0.8715698254836513  0.1812385883905312
  0.9315530379887514  0.5711289791315945  0.3635935607209695
 -0.0445195157756699  0.7016715519945070  0.0668520742988283
  0.5996914118016493  0.3995615145419867  0.4904658704026965
  0.2286435595948040  0.7022940596247950  0.8231487078375260
  0.5780616507441788  0.0314866798807523  0.5274314946108241
  0.3635331058420632  0.3703431499723304  0.7817239106875603
  0.9274291907649986  0.9265976486974887  0.6895449975948433
  0.5119182504907597  0.2017659573370677  0.4975406726251262
  0.9512876546680405  0.4953620679411184  0.0394434066286680
  0.8230603549729870  0.9683706931924612  0.5286749354128956
  0.9216997037965928  0.1304016130536068  0.4798665069997590
  0.5191630600626610  0.4430475923720219  0.2066832374986178
  0.2052272734278625  0.6410618314258669  0.2084589414126350
  0.0134643429407522  0.5136034352311750  0.2013192073255135
  0.0417733438382043  0.1192889909813018  0.0633311639453981
  0.8190524527443573  0.5213096058830772  0.7677027477046455
  0.2306004488620767  0.4971007319216590  0.8759377670195295
  0.4738124932826613  0.3583099775035760 -0.0519280621239372
  0.0279074656357976  0.7521952088188749  0.4187670327170969
  0.2661409935520904  0.7088421762600340  0.6332437778040232
  0.1156314416743937  0.2302219210199878  0.9506217233008463
  0.2411860975567187  0.1203909683272965  0.0658368007689763
  0.3705652688434077  0.2028519025930879  0.6618525101709074
  0.2198848162584365  0.7095081160671028  0.4536970266007601
  0.5746992133522478  0.7344924163609671  0.2467119265466495
  0.5833172033350137  0.8059913016708551  0.7673744653644307
  0.6816395926762528  0.3669126621877936 -0.0171330720489292
  0.4986365303630250  0.6375930815954131  0.8195119687726951
  0.9066018346009297  0.0792576186109555  0.2358984678301890
  0.6076088653863138  0.1176273984344602  0.2392772921023653
  0.8608174520307135  0.7592824312746427  0.3279409893316260
  0.8814882194673809  0.3454457653987663  0.5705311623942697
  0.5689790931273572  0.6228249417476712  0.1771898983415872
  0.9333957411996228  0.3219113308517726  0.9488251907807335
  0.0930628684526907  0.0815953264612850  0.4803104385174672
  0.7716055760955209  0.2031366122387646  0.9197383952235523
  0.6501499194401956  0.6720063908660002  0.5642236072235995
  0.3553188982979426  0.8678464196513953  0.0656615962997577
  0.1320375041458453  0.5634455761716185  0.3555611260596956
  0.0045896979527032  0.5916265715112915  0.5158099545738599
  0.5293079777393206  0.1747297710306696  0.9575919790976601
  0.8819921723797062  0.1744610874158887  0.7819764525314383
  0.3807901617720366  0.2601712728110588  0.3754422107776075
  0.2404181066105065  0.0149277678137613  0.4128956332343731
  0.7668539209671092  0.3234786561388026  0.1666350720767815
 
  0.00000000E+00  0.00000000E+00  0.00000000E+00
  0.00000000E+00  0.00000000E+00  0.00000000E+00
  0.00000000E+00  0.00000000E+00  0.00000000E+00
  0.00000000E+00  0.00000000E+00  0.00000000E+00
  0.00000000E+00  0.00000000E+00  0.00000000E+00
  0.00000000E+00  0.00000000E+00  0.00000000E+00
  0.00000000E+00  0.00000000E+00  0.00000000E+00
  0.00000000E+00  0.00000000E+00  0.00000000E+00
  0.00000000E+00  0.00000000E+00  0.00000000E+00
  0.00000000E+00  0.00000000E+00  0.00000000E+00
  0.00000000E+00  0.00000000E+00  0.00000000E+00
  0.00000000E+00  0.00000000E+00  0.00000000E+00
  0.00000000E+00  0.00000000E+00  0.00000000E+00
  0.00000000E+00  0.00000000E+00  0.00000000E+00
  0.00000000E+00  0.00000000E+00  0.00000000E+00
  0.00000000E+00  0.00000000E+00  0.00000000E+00
  0.00000000E+00  0.00000000E+00  0.00000000E+00
  0.00000000E+00  0.00000000E+00  0.00000000E+00
  0.00000000E+00  0.00000000E+00  0.00000000E+00
  0.00000000E+00  0.00000000E+00  0.00000000E+00
  0.00000000E+00  0.00000000E+00  0.00000000E+00
  0.00000000E+00  0.00000000E+00  0.00000000E+00
  0.00000000E+00  0.00000000E+00  0.00000000E+00
  0.00000000E+00  0.00000000E+00  0.00000000E+00
  0.00000000E+00  0.00000000E+00  0.00000000E+00
  0.00000000E+00  0.00000000E+00  0.00000000E+00
  0.00000000E+00  0.00000000E+00  0.00000000E+00
  0.00000000E+00  0.00000000E+00  0.00000000E+00
  0.00000000E+00  0.00000000E+00  0.00000000E+00
  0.00000000E+00  0.00000000E+00  0.00000000E+00
  0.00000000E+00  0.00000000E+00  0.00000000E+00
  0.00000000E+00  0.00000000E+00  0.00000000E+00
  0.00000000E+00  0.00000000E+00  0.00000000E+00
  0.00000000E+00  0.00000000E+00  0.00000000E+00
  0.00000000E+00  0.00000000E+00  0.00000000E+00
  0.00000000E+00  0.00000000E+00  0.00000000E+00
  0.00000000E+00  0.00000000E+00  0.00000000E+00
  0.00000000E+00  0.00000000E+00  0.00000000E+00
  0.00000000E+00  0.00000000E+00  0.00000000E+00
  0.00000000E+00  0.00000000E+00  0.00000000E+00
  0.00000000E+00  0.00000000E+00  0.00000000E+00
  0.00000000E+00  0.00000000E+00  0.00000000E+00
  0.00000000E+00  0.00000000E+00  0.00000000E+00
  0.00000000E+00  0.00000000E+00  0.00000000E+00
  0.00000000E+00  0.00000000E+00  0.00000000E+00
  0.00000000E+00  0.00000000E+00  0.00000000E+00
  0.00000000E+00  0.00000000E+00  0.00000000E+00
  0.00000000E+00  0.00000000E+00  0.00000000E+00
  0.00000000E+00  0.00000000E+00  0.00000000E+00
  0.00000000E+00  0.00000000E+00  0.00000000E+00
  0.00000000E+00  0.00000000E+00  0.00000000E+00
  0.00000000E+00  0.00000000E+00  0.00000000E+00
  0.00000000E+00  0.00000000E+00  0.00000000E+00
  0.00000000E+00  0.00000000E+00  0.00000000E+00
  0.00000000E+00  0.00000000E+00  0.00000000E+00
  0.00000000E+00  0.00000000E+00  0.00000000E+00
  0.00000000E+00  0.00000000E+00  0.00000000E+00
  0.00000000E+00  0.00000000E+00  0.00000000E+00
  0.00000000E+00  0.00000000E+00  0.00000000E+00
  0.00000000E+00  0.00000000E+00  0.00000000E+00
  0.00000000E+00  0.00000000E+00  0.00000000E+00
  0.00000000E+00  0.00000000E+00  0.00000000E+00
  0.00000000E+00  0.00000000E+00  0.00000000E+00
  0.00000000E+00  0.00000000E+00  0.00000000E+00
  0.00000000E+00  0.00000000E+00  0.00000000E+00
  0.00000000E+00  0.00000000E+00  0.00000000E+00
  0.00000000E+00  0.00000000E+00  0.00000000E+00
  0.00000000E+00  0.00000000E+00  0.00000000E+00
  0.00000000E+00  0.00000000E+00  0.00000000E+00
  0.00000000E+00  0.00000000E+00  0.00000000E+00
  0.00000000E+00  0.00000000E+00  0.00000000E+00
  0.00000000E+00  0.00000000E+00  0.00000000E+00
  0.00000000E+00  0.00000000E+00  0.00000000E+00
  0.00000000E+00  0.00000000E+00  0.00000000E+00
  0.00000000E+00  0.00000000E+00  0.00000000E+00
  0.00000000E+00  0.00000000E+00  0.00000000E+00
  0.00000000E+00  0.00000000E+00  0.00000000E+00
  0.00000000E+00  0.00000000E+00  0.00000000E+00
  0.00000000E+00  0.00000000E+00  0.00000000E+00
  0.00000000E+00  0.00000000E+00  0.00000000E+00
  0.00000000E+00  0.00000000E+00  0.00000000E+00
  0.00000000E+00  0.00000000E+00  0.00000000E+00
  0.00000000E+00  0.00000000E+00  0.00000000E+00
  0.00000000E+00  0.00000000E+00  0.00000000E+00
  0.00000000E+00  0.00000000E+00  0.00000000E+00
  0.00000000E+00  0.00000000E+00  0.00000000E+00
  0.00000000E+00  0.00000000E+00  0.00000000E+00
  0.00000000E+00  0.00000000E+00  0.00000000E+00
  0.00000000E+00  0.00000000E+00  0.00000000E+00
  0.00000000E+00  0.00000000E+00  0.00000000E+00
  0.00000000E+00  0.00000000E+00  0.00000000E+00
  0.00000000E+00  0.00000000E+00  0.00000000E+00
  0.00000000E+00  0.00000000E+00  0.00000000E+00
  0.00000000E+00  0.00000000E+00  0.00000000E+00
  0.00000000E+00  0.00000000E+00  0.00000000E+00
  0.00000000E+00  0.00000000E+00  0.00000000E+00
  0.00000000E+00  0.00000000E+00  0.00000000E+00
  0.00000000E+00  0.00000000E+00  0.00000000E+00
  0.00000000E+00  0.00000000E+00  0.00000000E+00
  0.00000000E+00  0.00000000E+00  0.00000000E+00
  0.00000000E+00  0.00000000E+00  0.00000000E+00
  0.00000000E+00  0.00000000E+00  0.00000000E+00
  0.00000000E+00  0.00000000E+00  0.00000000E+00
  0.00000000E+00  0.00000000E+00  0.00000000E+00
  0.00000000E+00  0.00000000E+00  0.00000000E+00
  0.00000000E+00  0.00000000E+00  0.00000000E+00
  0.00000000E+00  0.00000000E+00  0.00000000E+00
  0.00000000E+00  0.00000000E+00  0.00000000E+00
  0.00000000E+00  0.00000000E+00  0.00000000E+00
  0.00000000E+00  0.00000000E+00  0.00000000E+00
  0.00000000E+00  0.00000000E+00  0.00000000E+00
  0.00000000E+00  0.00000000E+00  0.00000000E+00
  0.00000000E+00  0.00000000E+00  0.00000000E+00
  0.00000000E+00  0.00000000E+00  0.00000000E+00
  0.00000000E+00  0.00000000E+00  0.00000000E+00
  0.00000000E+00  0.00000000E+00  0.00000000E+00
  0.00000000E+00  0.00000000E+00  0.00000000E+00
  0.00000000E+00  0.00000000E+00  0.00000000E+00
  0.00000000E+00  0.00000000E+00  0.00000000E+00
  0.00000000E+00  0.00000000E+00  0.00000000E+00
  0.00000000E+00  0.00000000E+00  0.00000000E+00
  0.00000000E+00  0.00000000E+00  0.00000000E+00
  0.00000000E+00  0.00000000E+00  0.00000000E+00
  0.00000000E+00  0.00000000E+00  0.00000000E+00
  0.00000000E+00  0.00000000E+00  0.00000000E+00
  0.00000000E+00  0.00000000E+00  0.00000000E+00
  0.00000000E+00  0.00000000E+00  0.00000000E+00
  0.00000000E+00  0.00000000E+00  0.00000000E+00
  0.00000000E+00  0.00000000E+00  0.00000000E+00
  0.00000000E+00  0.00000000E+00  0.00000000E+00
  0.00000000E+00  0.00000000E+00  0.00000000E+00
  0.00000000E+00  0.00000000E+00  0.00000000E+00
  0.00000000E+00  0.00000000E+00  0.00000000E+00
  0.00000000E+00  0.00000000E+00  0.00000000E+00
  0.00000000E+00  0.00000000E+00  0.00000000E+00
  0.00000000E+00  0.00000000E+00  0.00000000E+00
  0.00000000E+00  0.00000000E+00  0.00000000E+00
  0.00000000E+00  0.00000000E+00  0.00000000E+00
  0.00000000E+00  0.00000000E+00  0.00000000E+00
  0.00000000E+00  0.00000000E+00  0.00000000E+00
  0.00000000E+00  0.00000000E+00  0.00000000E+00
  0.00000000E+00  0.00000000E+00  0.00000000E+00
  0.00000000E+00  0.00000000E+00  0.00000000E+00
  0.00000000E+00  0.00000000E+00  0.00000000E+00
  0.00000000E+00  0.00000000E+00  0.00000000E+00
  0.00000000E+00  0.00000000E+00  0.00000000E+00
  0.00000000E+00  0.00000000E+00  0.00000000E+00
  0.00000000E+00  0.00000000E+00  0.00000000E+00
  0.00000000E+00  0.00000000E+00  0.00000000E+00
  0.00000000E+00  0.00000000E+00  0.00000000E+00
  0.00000000E+00  0.00000000E+00  0.00000000E+00
  0.00000000E+00  0.00000000E+00  0.00000000E+00
  0.00000000E+00  0.00000000E+00  0.00000000E+00
  0.00000000E+00  0.00000000E+00  0.00000000E+00
  0.00000000E+00  0.00000000E+00  0.00000000E+00
  0.00000000E+00  0.00000000E+00  0.00000000E+00
  0.00000000E+00  0.00000000E+00  0.00000000E+00
  0.00000000E+00  0.00000000E+00  0.00000000E+00
  0.00000000E+00  0.00000000E+00  0.00000000E+00
  0.00000000E+00  0.00000000E+00  0.00000000E+00
  0.00000000E+00  0.00000000E+00  0.00000000E+00
  0.00000000E+00  0.00000000E+00  0.00000000E+00
  0.00000000E+00  0.00000000E+00  0.00000000E+00
  0.00000000E+00  0.00000000E+00  0.00000000E+00
  0.00000000E+00  0.00000000E+00  0.00000000E+00
  0.00000000E+00  0.00000000E+00  0.00000000E+00
  0.00000000E+00  0.00000000E+00  0.00000000E+00
  0.00000000E+00  0.00000000E+00  0.00000000E+00
  0.00000000E+00  0.00000000E+00  0.00000000E+00
  0.00000000E+00  0.00000000E+00  0.00000000E+00
  0.00000000E+00  0.00000000E+00  0.00000000E+00
  0.00000000E+00  0.00000000E+00  0.00000000E+00
  0.00000000E+00  0.00000000E+00  0.00000000E+00
  0.00000000E+00  0.00000000E+00  0.00000000E+00
  0.00000000E+00  0.00000000E+00  0.00000000E+00
  0.00000000E+00  0.00000000E+00  0.00000000E+00
  0.00000000E+00  0.00000000E+00  0.00000000E+00
  0.00000000E+00  0.00000000E+00  0.00000000E+00
  0.00000000E+00  0.00000000E+00  0.00000000E+00
  0.00000000E+00  0.00000000E+00  0.00000000E+00
  0.00000000E+00  0.00000000E+00  0.00000000E+00
  0.00000000E+00  0.00000000E+00  0.00000000E+00
  0.00000000E+00  0.00000000E+00  0.00000000E+00
  0.00000000E+00  0.00000000E+00  0.00000000E+00
  0.00000000E+00  0.00000000E+00  0.00000000E+00
  0.00000000E+00  0.00000000E+00  0.00000000E+00
  0.00000000E+00  0.00000000E+00  0.00000000E+00
  0.00000000E+00  0.00000000E+00  0.00000000E+00
  0.00000000E+00  0.00000000E+00  0.00000000E+00
  0.00000000E+00  0.00000000E+00  0.00000000E+00
  0.00000000E+00  0.00000000E+00  0.00000000E+00
  0.00000000E+00  0.00000000E+00  0.00000000E+00
  0.00000000E+00  0.00000000E+00  0.00000000E+00
  0.00000000E+00  0.00000000E+00  0.00000000E+00
  0.00000000E+00  0.00000000E+00  0.00000000E+00
  0.00000000E+00  0.00000000E+00  0.00000000E+00
  0.00000000E+00  0.00000000E+00  0.00000000E+00
  0.00000000E+00  0.00000000E+00  0.00000000E+00
  0.00000000E+00  0.00000000E+00  0.00000000E+00
  0.00000000E+00  0.00000000E+00  0.00000000E+00
  0.00000000E+00  0.00000000E+00  0.00000000E+00
  0.00000000E+00  0.00000000E+00  0.00000000E+00
  0.00000000E+00  0.00000000E+00  0.00000000E+00
  0.00000000E+00  0.00000000E+00  0.00000000E+00
  0.00000000E+00  0.00000000E+00  0.00000000E+00
  0.00000000E+00  0.00000000E+00  0.00000000E+00
  0.00000000E+00  0.00000000E+00  0.00000000E+00
  0.00000000E+00  0.00000000E+00  0.00000000E+00
  0.00000000E+00  0.00000000E+00  0.00000000E+00
  0.00000000E+00  0.00000000E+00  0.00000000E+00
  0.00000000E+00  0.00000000E+00  0.00000000E+00
  0.00000000E+00  0.00000000E+00  0.00000000E+00
  0.00000000E+00  0.00000000E+00  0.00000000E+00
  0.00000000E+00  0.00000000E+00  0.00000000E+00
  0.00000000E+00  0.00000000E+00  0.00000000E+00
  0.00000000E+00  0.00000000E+00  0.00000000E+00
  0.00000000E+00  0.00000000E+00  0.00000000E+00
  0.00000000E+00  0.00000000E+00  0.00000000E+00
  0.00000000E+00  0.00000000E+00  0.00000000E+00
  0.00000000E+00  0.00000000E+00  0.00000000E+00
  0.00000000E+00  0.00000000E+00  0.00000000E+00
  0.00000000E+00  0.00000000E+00  0.00000000E+00
  0.00000000E+00  0.00000000E+00  0.00000000E+00
  0.00000000E+00  0.00000000E+00  0.00000000E+00
  0.00000000E+00  0.00000000E+00  0.00000000E+00
  0.00000000E+00  0.00000000E+00  0.00000000E+00
  0.00000000E+00  0.00000000E+00  0.00000000E+00
  0.00000000E+00  0.00000000E+00  0.00000000E+00
  0.00000000E+00  0.00000000E+00  0.00000000E+00
  0.00000000E+00  0.00000000E+00  0.00000000E+00
  0.00000000E+00  0.00000000E+00  0.00000000E+00
  0.00000000E+00  0.00000000E+00  0.00000000E+00