Amorphous Sb                            
   1.00000000000000     
    21.9846953305744854    0.0000000000000000    0.0000000000000000
     0.0000000000000000   21.9846953305744819    0.0000000000000000
     0.0000000000000000    0.0000000000000000   21.9846953305744819
   Ge   Se
    90   210
Direct
  0.0495667044624816  0.4683667364874489  0.0945922043411623
  0.8177050294579382  0.3694666392841331  0.8943532198687436
  0.3093705314107960 -0.0166652393802366  0.9844994493219783
  0.5471001705538167  0.4233055138769997  0.9344663738177704
  0.8396358539082049  0.9288875179591991  0.5221974519110351
  0.1976111879837945  0.6904376349848774  0.5358516268728537
  0.2272843447874107  0.0259008033205141  0.3411487166453230
  0.1390450532812922  0.3933116943989503  0.6447749047200233
  0.5686046019274260  0.2520247951158436  0.7118778938680165
  0.0430067281695849  0.7215485982067952  0.7832574735958630
  0.5819302925574412  0.1648349949776059  0.1181670448291655
  0.4383454277720234  0.1507262526561814  0.0348983785378835
  0.5250750299678748  0.7592881061964587  0.1728342645890823
  0.1952031676533451  0.4861978227127368  0.2406147681963943
  0.6599505361313258  0.2364080658580845  0.2847131364623245
  0.4188502843234130  0.3751379369538190  0.0845505755489127
  0.8142529507138473  0.2456833915632181  0.5555170460170723
  0.6736798008799094  0.2947107023975900  0.9799392552140030
  0.4614510162466819  0.0326063143915737  0.6056693289695908
  0.4455375200427492  0.7166689908321532  0.8924875676103833
  0.5570538217712856  0.5610187348728423  0.3817137017541851
  0.2680312838899762  0.7327164893610300  0.9324536417967172
  0.9695364356397514  0.3632062523117340  0.0157717276164410
  0.8878921845348886  0.0703108073606838  0.4999872086826018
  0.5496242874650342  0.2190509925811762  0.9401731807276571
  0.2028873906201683  0.9185051915469188  0.4614555015900886
  0.3914019431868188  0.4943434999053264  0.0182548093488374
  0.3475872039612175  0.6552116057791127  0.7141863876425898
  0.9672382543119706  0.1525166583152719  0.2128629565081075
  0.7186480014852470  0.6406656227758758  0.6525736331614367
  0.0652878720283123  0.1154657450859497  0.0852861067392630
  0.7214249668829512  0.4562165403940374  0.1839398488655689
  0.0482862982286055  0.4126405815730941  0.2520251721827819
  0.9574725921612430  0.5489480305495132  0.1339519018516975
  0.0732677356686767  0.9964998026658339  0.2972298636706163
  0.5363694586256018  0.1432051892974088  0.3097972052585827
  0.2108609448416940  0.9637106369301875  0.1542650662375588
  0.7387128801398931  0.8733285725474755  0.8355852663548637
  0.0884615531509499  0.0136944199869210  0.4637831588878744
  0.4223798036245902  0.2082675800802415  0.6953081869788807
  0.0893045914270061  0.8565716237852633  0.0750674035387292
  0.5443521574657353  0.5805897464591158  0.8631581590533518
  0.0461710584171740  0.6827051042763993  0.1547480309436234
  0.1152634125712646  0.1897935598978724  0.6101486708332143
  0.1198123693339462  0.2518357448649651  0.1840615199865474
  0.6900417335178424  0.7480532620306189  0.7760786969909159
  0.1181506151887573 -0.0040636814774584 -0.0219155715069370
  0.7918559762895521  0.6030069797693306  0.4945504826769600
  0.5663365395252594  0.6424205817010901  0.0104218032037432
  0.7899771651720110  0.9098667883812042  0.3196183968506081
  0.0624856543885508  0.6992112952493899  0.9454866867863186
  0.9124016098791032  0.5234608905956237  0.5611816157018540
  0.6536428206548789  0.5837138138919135  0.2559846447524451
  0.1441894152244375  0.2729826036612251  0.9253370504868951
  0.8232698334632015  0.3577652094914109  0.1319030394299783
  0.7040598992629532  0.8577719137469940  0.4607645774254728
  0.8288496637312541  0.3759572947035331  0.7238150288084861
  0.3288879659240805  0.0501010414394114  0.7050417023758780
  0.5756037145377834  0.9378487799026918  0.5370055778378506
  0.3049961172903419  0.7159979851793642  0.3947393474996027
  0.1130113947227738  0.3282603601983599  0.0929507643852814
  0.2346952587021890  0.5219404161697961  0.6008728970697685
  0.3430509230134478  0.1686230743370412  0.9153694538654545
  0.2379627385190295  0.1556552137992318  0.2307369910533602
  0.1498513070367347  0.3055395504903629  0.7204253237488768
  0.3506133853863720  0.9180446927961458  0.4329386827904882
  0.9346761471763332  0.9044277469591331  0.3447178949709059
  0.9724735156048161  0.8616127506314725  0.1645880587854393
  0.0372035524612707  0.1540423652871686  0.9052718853964151
  0.6824564726809208  0.0200781750030271  0.1832050624136128
  0.6344517202482088  0.7971239639045539  0.5971529435367415
  0.9357915862064518  0.3691778733366851  0.2623796952140775
  0.8120829441198429  0.4539072478745082  0.3274758840312769
  0.7988041136334247  0.1736066728477226  0.2464549626511940
  0.1817620362928680  0.8955515098700804  0.8714172510483319
  0.1152714304308836  0.3162120074265736  0.3550270697858034
  0.2941612174396703  0.3081827788760075  0.2360462201705885
  0.8523310323016169  0.7131848453229399  0.2240323237221172
  0.1882872431643471  0.1875041435330886  0.0208798690245287
  0.3433266232186071  0.9059544204813115  0.8461002246595941
  0.7189781333015157  0.1060012418819826  0.5983315207611428
  0.5508205195812469  0.5156635564937493  0.5663663764854756
  0.7319864534137458  0.4793289364532756  0.6205818819104876
  0.6075715615338446  0.8783239803191544  0.1296957560367769
  0.2269043117241612  0.6020589522570415  0.1256219966040173
  0.2659948776704247  0.7746483978088496  0.8144751663024159
  0.3507308134070777  0.6419011420900188  0.0332585011461943
  0.9811507069687250  0.3210296603134183  0.6046979161021767
  0.4143361086058534  0.0437080668022798  0.3490977541401483
  0.3251029403957244  0.5904399167275700  0.2312539508363349
  0.7539603840441375  0.2816509757549613  0.2555622649612997
  0.8735071844092623  0.6092018483952436  0.4172363602955397
  0.9379505434040893  0.7508642964348012  0.8255968478860604
  0.1782504319002275  0.0132152372445356  0.8902709569771303
  0.0239726557189152  0.6132687346504392  0.7891986286264482
  0.1517233981260785  0.7850881044846850  0.5680673934585808
  0.9116066254798180  0.9156238429691097  0.7472023228894362
  0.9212664928009290  0.4317003760090861  0.3517214069591947
  0.7017751735438410  0.1373881925918036  0.3187251388712148
  0.1395517884987471  0.2156531729119715  0.5063103549543179
  0.0310416474138568  0.4158359484179369  0.6253049511820893
  0.4759962131719358  0.2494105574667288  0.7917868370191123
  0.0776538691515826  0.8931253235827012  0.9717147331243023
  0.0554077816355165  0.7308134071227348  0.5970556051380196
  0.7531966398408565  0.3292543704454363  0.5084306227728835
  0.8829710347255624  0.5332673702877289  0.8805561690944387
  0.4237214844495685  0.9360385498684415  0.3438759182244111
  0.0981046642862594  0.3521837486649941  0.8643018091167355
  0.0789593494909016  0.2475908344364472  0.0133143646858144
  0.3959774403400317  0.1178110213948199  0.5783289587199323
  0.3432923421865104  0.1433550495380265  0.7633832732334480
  0.5603387545364269  0.4387000353902922  0.0980373069547124
  0.4312428615509912  0.2356104377249926  0.9654734466066702
  0.2500096580277561  0.8710164531835650  0.5404770870048505
  0.4490223359261029  0.0919611992595108  0.2570492075605104
  0.8703998882247300  0.4221021282064147  0.0397604437212452
  0.8657935647424909  0.0986291214471522  0.8541344430419284
  0.4659922384162545  0.9497354566408500  0.5329733212422330
  0.8888651965690262  0.2845666627426707  0.0311929094945315
  0.8700820571898511  0.5344898701274468  0.0501900387791519
  0.1887347213271167  0.8247437155507478  0.0987646864901740
  0.5853206646152617  0.6700030936727962  0.2645535506716951
  0.0226065218553466  0.2312613715200356  0.6543378061999102
  0.8192295180495167  0.3015148087691106  0.8006467316043860
  0.3089965994575130  0.4585407001057188  0.3272272231468819
  0.7279181249879840  0.3911633925202205  0.6900140932272519
  0.5719193819552465  0.2280388666349042  0.2200367098523439
  0.2381360415180612  0.0086222725528573  0.7486477604055662
  0.0805652120512029  0.5079455530425876  0.2050167780587322
  0.5930420706722300  0.3265855890156925  0.8997223020161450
  0.2950682430008467  0.7016233853573015  0.1228469318085483
  0.4255490017508999  0.3400526425057042  0.8300132750308541
  0.8223312616095170  0.5715263060697120  0.3098111507854779
  0.4016227241494914  0.6247155996267983  0.8100583707320904
  0.0779712429481121  0.4297470488595090  0.3653087233161579
  0.2511937599367309  0.6261762391812952  0.9722688727857502
  0.4084909073703817  0.7119285137198498  0.6503860109218879
  0.3038998727821107  0.3158589988583845  0.7155990767416303
  0.5049276940179324  0.3936377359239440  0.6714143398216773
  0.0274097777688968  0.7777550713139252  0.6876210222567305
  0.1672915326712801  0.6121222646379544  0.6056792837798585
  0.6182381692283723  0.9325353163330100  0.2227161945833303
  0.9728462629368916  0.8207268988675095  0.2655783904280996
  0.2513879827731408  0.9072040238474022  0.3626733863118382
  0.2685064108052491  0.0504774128776147  0.2187484854560972
  0.4966939379531148  0.8612942710913274  0.1125882925974019
  0.5043187873079369  0.6305055952414258  0.7734358212388334
  0.0590294582805911  0.2931127037382786  0.7823036277308030
  0.6309347385367534  0.7303117535872415  0.8678431100533299
  0.5104425334327463  0.2982884945018951  0.6223502162040583
  0.2046407862450602  0.7320634633939856  0.0292547049951041
  0.3831142239916969  0.5483355754080251  0.5778323543639575
  0.4775722326270117  0.5956279280772254  0.5927344390431551
  0.7346988862491856  0.8081802135353594  0.5553740173094215
  0.0078819585222933  0.3570091608507449  0.1269132764438880
  0.3089965855684059  0.2086101827375534  0.2921118621088020
  0.0534061888063141  0.9331110225442503  0.1448422169865096
  0.6243425545337966  0.2730117223390453  0.3838825792896431
  0.8369698758076415  0.0010018143926654  0.8835539511550907
  0.8055064830793863  0.4130063829887405  0.5525141107579050
  0.7651324204299838  0.8521519643236903  0.9418286923552782
  0.3145135026828029  0.5252557698159797  0.1447721621012108
  0.1729732669181581  0.6668696337387674  0.4296823504398936
  0.4711281108990662  0.4970508303783864  0.4160951684669933
  0.0509871428797849  0.5958678889238039  0.8919480449906870
  0.5000849982401234  0.6072677968659989  0.2932891564305563
  0.9427313070811727  0.5616952533804397  0.9636681063847212
  0.4753707688828861  0.5996428259229184  0.9465373189543144
  0.5318016189332477  0.4424395270143294  0.4871393513709262
  0.8349437099972381  0.4925218781301987  0.4758537656177013
  0.9058733261595238  0.2283906943913263  0.4667940913722050
  0.9156307758582251  0.0827827621630655  0.2907599523714591
  0.5308119644291911  0.3195538555259517  0.3669278589324346
  0.3343044464074950  0.5460716434734278  0.6757259878828233
  0.0368008506988197  0.6052964051576909  0.0702998281715537
  0.1122556809181958  0.0801818454357814  0.6235440167861679
  0.2365589624029054  0.2849369573373304  0.9799316357998453
  0.0406760299500418  0.0939089271006405  0.7998438223912184
  0.8822350778702801  0.3026861212517860  0.6510676794456574
  0.9474077694023005  0.6471785328108519  0.2005238617456702
  0.6321081129268351  0.7241258581393218  0.6819107111563182
  0.7483518582585338  0.6436531699981737  0.7681579368283470
  0.7403269828637373  0.1648787030138787  0.4977768829394770
  0.3097056991542225  0.6854594528985838  0.5131629541425498
  0.0751984002450487  0.1036530633560557  0.2227751816868238
  0.9720443921213686  0.0743511327916416  0.1294530695768742
  0.5839646411584708  0.4979052229489168  0.2761782841323377
  0.1716274912346915  0.4860999744011472  0.6897772970433369
  0.3711351681127786  0.6853741382175982  0.2045578226758909
  0.0403512759388531  0.0644373110925625  0.3838644002705729
  0.5327365902124591  0.7516352790333243 -0.0068972945618966
  0.6674311482319070  0.4252771887990138  0.2752047595169896
  0.8296507676080678  0.4532881170190876  0.2078571573237925
  0.3914026532999029 -0.0116558851212367  0.1447736409086360
  0.4852853856245876  0.0888396157241865  0.4255079701392547
  0.4669645955276576  0.1770180370923214  0.1350074425107769
  0.9659522884735029  0.3175538827384329  0.4948255313471801
  0.2158508831801934  0.6058912027417748  0.2459769736345895
  0.3767462165449719  0.7673216483677755  0.5346614890879754
  0.2999575211324713  0.0765763599321247  0.6025512940826540
  0.7234839766137878  0.6064052031924042  0.3381005148947163
  0.6422226645443312  0.5806540701347783  0.5469256208177378
  0.4434405746347770  0.9116938262454980  0.1953712901678457
  0.4164921758661693  0.9411299985338391  0.9703405505925107
  0.7889378291882834  0.7961304363488653  0.7737465778196131
  0.1648012580002824  0.4935615491481852  0.3537687733763615
  0.1943514967278479  0.3795637829045864  0.5498973698760024
  0.6887787959484984  0.2095224531110692  0.9027864527398248
  0.7169139387806640  0.3904002641820886  0.0994853437260475
  0.9537981013036548  0.7398415495994335  0.9298903959871170
  0.0093472836784673  0.2844971599181046  0.3077378088165186
  0.7327943779309262  0.7850482736525884  0.3855998058747226
  0.0499159689365717  0.8738415444637992  0.3537331875226409
  0.8332395236832609  0.7737045987244584  0.1257337782057627
  0.0886652475763358  0.9003561501471946  0.4590768740307606
  0.3100332442551765  0.9332571993505175  0.0951847545053574
  0.6667664305609525  0.8410137917476933  0.9816205585982949
  0.7631861477637090  0.9764799895239050  0.8060292071907343
  0.0298090023049209  0.0637110566718290  0.9785836290690524
  0.7301098064722803  0.0823857500214671  0.0095933219484762
  0.6017080548905556  0.4825652115080115  0.0099372903820995
  0.5967306683599822  0.8913755532080730  0.6353491538383287
  0.7958989991959772  0.0909714576597878  0.0915058213594716
  0.1469725337124349  0.3485684759894642  0.2470336712054831
  0.7578979540509032  0.1806340640887666  0.1429269081531148
  0.1434803604846748  0.4221484891616407  0.0469414278979923
  0.1122146506313702  0.7535353191967596  0.8588164321013060
  0.4433238904791700  0.4026821061814748  0.9664520375655762
  0.2758111486439994  0.8752161454585661  0.9380529228998957
  0.3383357312922065  0.1117436329402308  0.0202413379872470
  0.5184981246209185  0.0797441019892541  0.0056451744307926
  0.5941225633505743  0.4527977400026592  0.6460948431052579
  0.6409999389143043  0.6238402137245369  0.8958039160229555
  0.6449100656850972  0.9308170922393477  0.0403043864329957
  0.4615704272041855  0.4830170287243037  0.1181088892414990
  0.3828247950402657  0.8042770955575943  0.4267929241300054
  0.7739705206201650  0.1649475003505177  0.9501199962986036
  0.3195344969062572  0.4100664545907780  0.0467258794996840
  0.0121482732167734  0.9494854603397578  0.7127338973088639
  0.4361422001971249  0.1838044660726132  0.4376799346163764
  0.5175263437862410  0.1466270134063859  0.7159562317313056
  0.1944940026555660  0.2122838866069262  0.6815488468043347
  0.0647870862584944  0.9809695560512807  0.7972654711368713
  0.2028007329113678  0.7641819021687853  0.3938968694308386
  0.5805018941755388  0.2582921784644796  0.0449573935590811
  0.6956517517519908  0.8499156206448235  0.3041099324157590
  0.1958755148429391  0.0308122662779960  0.4744837148233905
  0.5565369945366957  0.7356851294250673  0.5451214170126066
  0.8828216184638870  0.9115555685528673  0.1227941113779776
  0.3790616052384763  0.3857663328137825  0.7450196186970118
  0.2510248861387587  0.6776161138127429  0.7571386092402157
  0.1643499692852541  0.0341500187278436  0.0714548637832251
  0.3750998446681027  0.7981213096956726  0.8146981266526327
  0.6369654467001716  0.8526748945217495  0.8069880880274453
  0.1433008240535510  0.1636205096684893  0.2881267860498038
  0.2474198516053974  0.8986888406308932  0.7697911624296536
  0.2257542885857356  0.3361704242109915  0.7922483423057604
  0.7549964673699302  0.2123026647401235  0.6516719511407243
  0.8976621813964623  0.6347195398629542  0.5306592521635660
  0.6335981266627858  0.7740541837655818  0.1402562609826259
  0.3658948835204490  0.5504366110960014  0.3273724588478935
  0.3983856382765910  0.0908463417483352  0.8495075377935133
  0.1506606238735452  0.1694439294777313  0.8888495636766258
  0.4561087523105741  0.2406688271988114  0.3472431167635419
  0.5589497253139862  0.4756374849274778  0.8380921961356456
  0.4714374954374028  0.0225263683738691  0.9251032780686449
  0.9131380374157614  0.4303881359310732  0.8561760029552914
  0.4035056008899321  0.3396629495266723  0.2124359336773458
  0.8333676405191638  0.5288758939421284  0.6501092826268374
  0.7997298788560729  0.8783043202091486  0.1817015223863724
  0.8354788676400540  0.0291784254367939  0.5845583105276734
  0.6163106727784174  0.0373098780117417  0.5246920396913274
  0.3705949696479765  0.7438069612996515  0.9772538377315917
  0.1132167944308564  0.3197146412001027  0.5095460992895765
  0.6593716304671677  0.2083450479584454  0.6017436105907041
  0.4202136406979975 -0.0097803137630506  0.6993051227079472
  0.5963832338727885  0.8756040506033240  0.4498242374364649
  0.9307431573602146  0.8659104133420732  0.8366626802221030
  0.8828549864324717  0.2797725871540037  0.9214053504808953
  0.3176774323836138  0.0717413011888740  0.3931876497615793
  0.9380314268318051  0.0978174579086344  0.7692352174018872
  0.6326132738397080  0.0617853353435620  0.2823746487056814
  0.0332696374128556  0.0409802394568397  0.5595990223866016
  0.6086718771556135  0.6649335480609825  0.4852007156135534
  0.7554359361763997  0.9530868720492006  0.4431227601284569
  0.8198434553781954  0.1231683560715553  0.4305598364513568
  0.2253974172826045  0.2230725393420253  0.1431252805892971
  0.0046062220534080  0.7829918063988112  0.0884390247748461
  0.7807846798656622  0.9900315626949667  0.2374548648850996
  0.3723985815616403  0.3680495746144123  0.3135386796236312
  0.9276409246226271  0.9772619989965349  0.4600672924464178
  0.7782007560682792  0.6817171904399321  0.1451059847997626
  0.9591648284148555  0.2034639664777132  0.3569415893783163
  0.5589564689161252  0.0851758549347860  0.6146402644664561
  0.6960702388072394  0.5607973425901874  0.1586838979054463
  0.6748383129886601  0.5723159526447490  0.7298099734376324
  0.9588470557870954  0.9863643085832590  0.2625161906595707
  0.9690155951489430  0.1436062855282823  0.5171753058079779
  0.4828352957766803  0.7029348859599699  0.0775634008958354
  0.8798117918000273  0.4706432828348066  0.7455082537605667
 
  0.00000000E+00  0.00000000E+00  0.00000000E+00
  0.00000000E+00  0.00000000E+00  0.00000000E+00
  0.00000000E+00  0.00000000E+00  0.00000000E+00
  0.00000000E+00  0.00000000E+00  0.00000000E+00
  0.00000000E+00  0.00000000E+00  0.00000000E+00
  0.00000000E+00  0.00000000E+00  0.00000000E+00
  0.00000000E+00  0.00000000E+00  0.00000000E+00
  0.00000000E+00  0.00000000E+00  0.00000000E+00
  0.00000000E+00  0.00000000E+00  0.00000000E+00
  0.00000000E+00  0.00000000E+00  0.00000000E+00
  0.00000000E+00  0.00000000E+00  0.00000000E+00
  0.00000000E+00  0.00000000E+00  0.00000000E+00
  0.00000000E+00  0.00000000E+00  0.00000000E+00
  0.00000000E+00  0.00000000E+00  0.00000000E+00
  0.00000000E+00  0.00000000E+00  0.00000000E+00
  0.00000000E+00  0.00000000E+00  0.00000000E+00
  0.00000000E+00  0.00000000E+00  0.00000000E+00
  0.00000000E+00  0.00000000E+00  0.00000000E+00
  0.00000000E+00  0.00000000E+00  0.00000000E+00
  0.00000000E+00  0.00000000E+00  0.00000000E+00
  0.00000000E+00  0.00000000E+00  0.00000000E+00
  0.00000000E+00  0.00000000E+00  0.00000000E+00
  0.00000000E+00  0.00000000E+00  0.00000000E+00
  0.00000000E+00  0.00000000E+00  0.00000000E+00
  0.00000000E+00  0.00000000E+00  0.00000000E+00
  0.00000000E+00  0.00000000E+00  0.00000000E+00
  0.00000000E+00  0.00000000E+00  0.00000000E+00
  0.00000000E+00  0.00000000E+00  0.00000000E+00
  0.00000000E+00  0.00000000E+00  0.00000000E+00
  0.00000000E+00  0.00000000E+00  0.00000000E+00
  0.00000000E+00  0.00000000E+00  0.00000000E+00
  0.00000000E+00  0.00000000E+00  0.00000000E+00
  0.00000000E+00  0.00000000E+00  0.00000000E+00
  0.00000000E+00  0.00000000E+00  0.00000000E+00
  0.00000000E+00  0.00000000E+00  0.00000000E+00
  0.00000000E+00  0.00000000E+00  0.00000000E+00
  0.00000000E+00  0.00000000E+00  0.00000000E+00
  0.00000000E+00  0.00000000E+00  0.00000000E+00
  0.00000000E+00  0.00000000E+00  0.00000000E+00
  0.00000000E+00  0.00000000E+00  0.00000000E+00
  0.00000000E+00  0.00000000E+00  0.00000000E+00
  0.00000000E+00  0.00000000E+00  0.00000000E+00
  0.00000000E+00  0.00000000E+00  0.00000000E+00
  0.00000000E+00  0.00000000E+00  0.00000000E+00
  0.00000000E+00  0.00000000E+00  0.00000000E+00
  0.00000000E+00  0.00000000E+00  0.00000000E+00
  0.00000000E+00  0.00000000E+00  0.00000000E+00
  0.00000000E+00  0.00000000E+00  0.00000000E+00
  0.00000000E+00  0.00000000E+00  0.00000000E+00
  0.00000000E+00  0.00000000E+00  0.00000000E+00
  0.00000000E+00  0.00000000E+00  0.00000000E+00
  0.00000000E+00  0.00000000E+00  0.00000000E+00
  0.00000000E+00  0.00000000E+00  0.00000000E+00
  0.00000000E+00  0.00000000E+00  0.00000000E+00
  0.00000000E+00  0.00000000E+00  0.00000000E+00
  0.00000000E+00  0.00000000E+00  0.00000000E+00
  0.00000000E+00  0.00000000E+00  0.00000000E+00
  0.00000000E+00  0.00000000E+00  0.00000000E+00
  0.00000000E+00  0.00000000E+00  0.00000000E+00
  0.00000000E+00  0.00000000E+00  0.00000000E+00
  0.00000000E+00  0.00000000E+00  0.00000000E+00
  0.00000000E+00  0.00000000E+00  0.00000000E+00
  0.00000000E+00  0.00000000E+00  0.00000000E+00
  0.00000000E+00  0.00000000E+00  0.00000000E+00
  0.00000000E+00  0.00000000E+00  0.00000000E+00
  0.00000000E+00  0.00000000E+00  0.00000000E+00
  0.00000000E+00  0.00000000E+00  0.00000000E+00
  0.00000000E+00  0.00000000E+00  0.00000000E+00
  0.00000000E+00  0.00000000E+00  0.00000000E+00
  0.00000000E+00  0.00000000E+00  0.00000000E+00
  0.00000000E+00  0.00000000E+00  0.00000000E+00
  0.00000000E+00  0.00000000E+00  0.00000000E+00
  0.00000000E+00  0.00000000E+00  0.00000000E+00
  0.00000000E+00  0.00000000E+00  0.00000000E+00
  0.00000000E+00  0.00000000E+00  0.00000000E+00
  0.00000000E+00  0.00000000E+00  0.00000000E+00
  0.00000000E+00  0.00000000E+00  0.00000000E+00
  0.00000000E+00  0.00000000E+00  0.00000000E+00
  0.00000000E+00  0.00000000E+00  0.00000000E+00
  0.00000000E+00  0.00000000E+00  0.00000000E+00
  0.00000000E+00  0.00000000E+00  0.00000000E+00
  0.00000000E+00  0.00000000E+00  0.00000000E+00
  0.00000000E+00  0.00000000E+00  0.00000000E+00
  0.00000000E+00  0.00000000E+00  0.00000000E+00
  0.00000000E+00  0.00000000E+00  0.00000000E+00
  0.00000000E+00  0.00000000E+00  0.00000000E+00
  0.00000000E+00  0.00000000E+00  0.00000000E+00
  0.00000000E+00  0.00000000E+00  0.00000000E+00
  0.00000000E+00  0.00000000E+00  0.00000000E+00
  0.00000000E+00  0.00000000E+00  0.00000000E+00
  0.00000000E+00  0.00000000E+00  0.00000000E+00
  0.00000000E+00  0.00000000E+00  0.00000000E+00
  0.00000000E+00  0.00000000E+00  0.00000000E+00
  0.00000000E+00  0.00000000E+00  0.00000000E+00
  0.00000000E+00  0.00000000E+00  0.00000000E+00
  0.00000000E+00  0.00000000E+00  0.00000000E+00
  0.00000000E+00  0.00000000E+00  0.00000000E+00
  0.00000000E+00  0.00000000E+00  0.00000000E+00
  0.00000000E+00  0.00000000E+00  0.00000000E+00
  0.00000000E+00  0.00000000E+00  0.00000000E+00
  0.00000000E+00  0.00000000E+00  0.00000000E+00
  0.00000000E+00  0.00000000E+00  0.00000000E+00
  0.00000000E+00  0.00000000E+00  0.00000000E+00
  0.00000000E+00  0.00000000E+00  0.00000000E+00
  0.00000000E+00  0.00000000E+00  0.00000000E+00
  0.00000000E+00  0.00000000E+00  0.00000000E+00
  0.00000000E+00  0.00000000E+00  0.00000000E+00
  0.00000000E+00  0.00000000E+00  0.00000000E+00
  0.00000000E+00  0.00000000E+00  0.00000000E+00
  0.00000000E+00  0.00000000E+00  0.00000000E+00
  0.00000000E+00  0.00000000E+00  0.00000000E+00
  0.00000000E+00  0.00000000E+00  0.00000000E+00
  0.00000000E+00  0.00000000E+00  0.00000000E+00
  0.00000000E+00  0.00000000E+00  0.00000000E+00
  0.00000000E+00  0.00000000E+00  0.00000000E+00
  0.00000000E+00  0.00000000E+00  0.00000000E+00
  0.00000000E+00  0.00000000E+00  0.00000000E+00
  0.00000000E+00  0.00000000E+00  0.00000000E+00
  0.00000000E+00  0.00000000E+00  0.00000000E+00
  0.00000000E+00  0.00000000E+00  0.00000000E+00
  0.00000000E+00  0.00000000E+00  0.00000000E+00
  0.00000000E+00  0.00000000E+00  0.00000000E+00
  0.00000000E+00  0.00000000E+00  0.00000000E+00
  0.00000000E+00  0.00000000E+00  0.00000000E+00
  0.00000000E+00  0.00000000E+00  0.00000000E+00
  0.00000000E+00  0.00000000E+00  0.00000000E+00
  0.00000000E+00  0.00000000E+00  0.00000000E+00
  0.00000000E+00  0.00000000E+00  0.00000000E+00
  0.00000000E+00  0.00000000E+00  0.00000000E+00
  0.00000000E+00  0.00000000E+00  0.00000000E+00
  0.00000000E+00  0.00000000E+00  0.00000000E+00
  0.00000000E+00  0.00000000E+00  0.00000000E+00
  0.00000000E+00  0.00000000E+00  0.00000000E+00
  0.00000000E+00  0.00000000E+00  0.00000000E+00
  0.00000000E+00  0.00000000E+00  0.00000000E+00
  0.00000000E+00  0.00000000E+00  0.00000000E+00
  0.00000000E+00  0.00000000E+00  0.00000000E+00
  0.00000000E+00  0.00000000E+00  0.00000000E+00
  0.00000000E+00  0.00000000E+00  0.00000000E+00
  0.00000000E+00  0.00000000E+00  0.00000000E+00
  0.00000000E+00  0.00000000E+00  0.00000000E+00
  0.00000000E+00  0.00000000E+00  0.00000000E+00
  0.00000000E+00  0.00000000E+00  0.00000000E+00
  0.00000000E+00  0.00000000E+00  0.00000000E+00
  0.00000000E+00  0.00000000E+00  0.00000000E+00
  0.00000000E+00  0.00000000E+00  0.00000000E+00
  0.00000000E+00  0.00000000E+00  0.00000000E+00
  0.00000000E+00  0.00000000E+00  0.00000000E+00
  0.00000000E+00  0.00000000E+00  0.00000000E+00
  0.00000000E+00  0.00000000E+00  0.00000000E+00
  0.00000000E+00  0.00000000E+00  0.00000000E+00
  0.00000000E+00  0.00000000E+00  0.00000000E+00
  0.00000000E+00  0.00000000E+00  0.00000000E+00
  0.00000000E+00  0.00000000E+00  0.00000000E+00
  0.00000000E+00  0.00000000E+00  0.00000000E+00
  0.00000000E+00  0.00000000E+00  0.00000000E+00
  0.00000000E+00  0.00000000E+00  0.00000000E+00
  0.00000000E+00  0.00000000E+00  0.00000000E+00
  0.00000000E+00  0.00000000E+00  0.00000000E+00
  0.00000000E+00  0.00000000E+00  0.00000000E+00
  0.00000000E+00  0.00000000E+00  0.00000000E+00
  0.00000000E+00  0.00000000E+00  0.00000000E+00
  0.00000000E+00  0.00000000E+00  0.00000000E+00
  0.00000000E+00  0.00000000E+00  0.00000000E+00
  0.00000000E+00  0.00000000E+00  0.00000000E+00
  0.00000000E+00  0.00000000E+00  0.00000000E+00
  0.00000000E+00  0.00000000E+00  0.00000000E+00
  0.00000000E+00  0.00000000E+00  0.00000000E+00
  0.00000000E+00  0.00000000E+00  0.00000000E+00
  0.00000000E+00  0.00000000E+00  0.00000000E+00
  0.00000000E+00  0.00000000E+00  0.00000000E+00
  0.00000000E+00  0.00000000E+00  0.00000000E+00
  0.00000000E+00  0.00000000E+00  0.00000000E+00
  0.00000000E+00  0.00000000E+00  0.00000000E+00
  0.00000000E+00  0.00000000E+00  0.00000000E+00
  0.00000000E+00  0.00000000E+00  0.00000000E+00
  0.00000000E+00  0.00000000E+00  0.00000000E+00
  0.00000000E+00  0.00000000E+00  0.00000000E+00
  0.00000000E+00  0.00000000E+00  0.00000000E+00
  0.00000000E+00  0.00000000E+00  0.00000000E+00
  0.00000000E+00  0.00000000E+00  0.00000000E+00
  0.00000000E+00  0.00000000E+00  0.00000000E+00
  0.00000000E+00  0.00000000E+00  0.00000000E+00
  0.00000000E+00  0.00000000E+00  0.00000000E+00
  0.00000000E+00  0.00000000E+00  0.00000000E+00
  0.00000000E+00  0.00000000E+00  0.00000000E+00
  0.00000000E+00  0.00000000E+00  0.00000000E+00
  0.00000000E+00  0.00000000E+00  0.00000000E+00
  0.00000000E+00  0.00000000E+00  0.00000000E+00
  0.00000000E+00  0.00000000E+00  0.00000000E+00
  0.00000000E+00  0.00000000E+00  0.00000000E+00
  0.00000000E+00  0.00000000E+00  0.00000000E+00
  0.00000000E+00  0.00000000E+00  0.00000000E+00
  0.00000000E+00  0.00000000E+00  0.00000000E+00
  0.00000000E+00  0.00000000E+00  0.00000000E+00
  0.00000000E+00  0.00000000E+00  0.00000000E+00
  0.00000000E+00  0.00000000E+00  0.00000000E+00
  0.00000000E+00  0.00000000E+00  0.00000000E+00
  0.00000000E+00  0.00000000E+00  0.00000000E+00
  0.00000000E+00  0.00000000E+00  0.00000000E+00
  0.00000000E+00  0.00000000E+00  0.00000000E+00
  0.00000000E+00  0.00000000E+00  0.00000000E+00
  0.00000000E+00  0.00000000E+00  0.00000000E+00
  0.00000000E+00  0.00000000E+00  0.00000000E+00
  0.00000000E+00  0.00000000E+00  0.00000000E+00
  0.00000000E+00  0.00000000E+00  0.00000000E+00
  0.00000000E+00  0.00000000E+00  0.00000000E+00
  0.00000000E+00  0.00000000E+00  0.00000000E+00
  0.00000000E+00  0.00000000E+00  0.00000000E+00
  0.00000000E+00  0.00000000E+00  0.00000000E+00
  0.00000000E+00  0.00000000E+00  0.00000000E+00
  0.00000000E+00  0.00000000E+00  0.00000000E+00
  0.00000000E+00  0.00000000E+00  0.00000000E+00
  0.00000000E+00  0.00000000E+00  0.00000000E+00
  0.00000000E+00  0.00000000E+00  0.00000000E+00
  0.00000000E+00  0.00000000E+00  0.00000000E+00
  0.00000000E+00  0.00000000E+00  0.00000000E+00
  0.00000000E+00  0.00000000E+00  0.00000000E+00
  0.00000000E+00  0.00000000E+00  0.00000000E+00
  0.00000000E+00  0.00000000E+00  0.00000000E+00
  0.00000000E+00  0.00000000E+00  0.00000000E+00
  0.00000000E+00  0.00000000E+00  0.00000000E+00
  0.00000000E+00  0.00000000E+00  0.00000000E+00
  0.00000000E+00  0.00000000E+00  0.00000000E+00
  0.00000000E+00  0.00000000E+00  0.00000000E+00
  0.00000000E+00  0.00000000E+00  0.00000000E+00
  0.00000000E+00  0.00000000E+00  0.00000000E+00
  0.00000000E+00  0.00000000E+00  0.00000000E+00
  0.00000000E+00  0.00000000E+00  0.00000000E+00
  0.00000000E+00  0.00000000E+00  0.00000000E+00
  0.00000000E+00  0.00000000E+00  0.00000000E+00
  0.00000000E+00  0.00000000E+00  0.00000000E+00