Amorphous Sb                            
   1.00000000000000     
    20.1278869700586895    0.0000000000000000    0.0000000000000000
     0.0000000000000000   20.1278869700586895    0.0000000000000000
     0.0000000000000000    0.0000000000000000   20.1278869700586895
   Ge   Ga   Se
   135    15   150
Direct
  0.4946788044890982  0.7142678147760579  0.7649512237897205
  0.2171280288040197  0.4132378001776727  0.8113204660945552
  0.3667939651132293  0.2983282138631101  0.6186090583239809
  0.8231567688404371  0.0161374865449982  0.6437266324422303
  0.9138299114679815  0.5544578412132259  0.6432294327452135
  0.2309237530580895  0.6902748964068083  0.9641567050935816
  0.1852631535823680  0.1271425987994589  0.3418706770683689
  0.3339365150997921  0.6284171620429373  0.7878436327810699
  0.3553293840871987  0.8822686386788320  0.2209591957695758
  0.3835847366981000  0.0374682186972182  0.4172992432763585
  0.0068988013851388  0.0787473578902632  0.4141453277277741
  0.6049925342208827  0.3532534573112819  0.8443211985966785
  0.6544792493927476  0.4119222617390405  0.6153515302458071
  0.2585225229505638  0.0181729626583149  0.8408124139121737
  0.7034025052370232  0.9476911740660736  0.4439396883335210
  0.0256424329573181  0.7620172990229362  0.0741773284545104
  0.0458047501470170  0.7291682627395920  0.3170383776465910
  0.8050676418494918  0.4139616570711526  0.3942544388872521
  0.0996921150178846  0.4586154923072445  0.9881361339395323
  0.0414221736995464  0.8898958298155909  0.4633043855403417
  0.1613386266482278  0.8288218274063052  0.1899419238575394
  0.4146172631454584  0.7507824464038252  0.9496056613655990
  0.0012855734727832  0.1611766796403851  0.9391950268426985
  0.0248158514379794  0.0613671562215614  0.1202383880910961
  0.5633546814408816  0.3013198775450839  0.1750105021700593
  0.3790939527460419  0.1386939437830952  0.5896384866521852
  0.3981067706964694  0.7645819918221594  0.5368828091732900
  0.8044445386326675  0.9217864130761567  0.0267246719590509
  0.7227052716274474  0.5818910839055016  0.6590860390883599
  0.9219232317648155  0.7984919242010381  0.6010589422605179
  0.0414624984375174  0.3491965372131323  0.7372912358696412
  0.0278256486737840  0.0761221745038379  0.2527087318918749
  0.8974508527227198  0.4460971461540334  0.5044370885333398
  0.3941662890302431  0.4328512736013811  0.2530946308959222
  0.0549764081796620  0.5269611572323730  0.5676638195466417
  0.7448650548546826  0.7097192526891566  0.1807007452504634
  0.4385211788523928  0.4667167752715693  0.9269457717762368
  0.2867636058881265  0.0632765772934082  0.2056003769207300
  0.2367247151482703  0.3531846406654823  0.1499500206841058
  0.7412849202551881  0.3871857884701135  0.7932378782121077
  0.8614656157218895  0.8102685004989845  0.4074995531510515
  0.9418988766625273  0.1862143335224040  0.5318386556780448
  0.5658425900091218  0.8474398706463702  0.5372944815651226
  0.3715450316348262  0.9876500278104147  0.0861026358530631
  0.3607681033725028  0.6817531547649134  0.2593717299067351
  0.4012585286575970  0.4348898705951897  0.4948945577890101
  0.9003554184248301  0.7783245642027806  0.1859707643994980
  0.0426093363939099  0.3332139447393819  0.4071076824567187
  0.0145886164055474  0.7574468032396515  0.7583383842130010
  0.5773979837270038  0.0527479812114708  0.3348538328147300
  0.2597370485493123  0.4243206075863754  0.9645551622206897
  0.0401920920504973  0.2682559476138301  0.1264896624201066
  0.6465524893891947  0.7822445499138789  0.8151923535619916
  0.5785162225971160  0.2945365246387182  0.7274755566079246
  0.0567751144589450  0.5793784692997914  0.3621750709148472
  0.0323737593464399  0.9108608589507865  0.2181355704317166
  0.1959647863985416  0.5747882771289657  0.4468787311467032
  0.9819259126584606  0.2992797791082736  0.5773702253044352
  0.0888346933337602  0.0645152587535610  0.8063606798394686
  0.5160645208795593  0.4449488640185211  0.3209130063062451
  0.6890632259570588  0.1150085587647425  0.1172742515422950
  0.5347189083019467  0.7195051205768469  0.2606196502093928
  0.9191246092571395  0.6512192445647592  0.3221618995254745
  0.8524287407387003  0.9964951550584001  0.8343669236438921
  0.6335297673191567  0.8580685142638063  0.0285053214170010
  0.0700832005039889  0.3275418697293988  0.9420931804252770
  0.8163382762078973  0.8663003522078063  0.5561672181464605
  0.7161948311542768  0.7676421926140178  0.6729157492003591
  0.8215485813210157  0.2448882092609656  0.1365816438208536
  0.7967766587433591  0.3519545529879906  0.0315564365265855
  0.9283436679021959  0.3346615044939344  0.8154945869291310
  0.4215394221447502  0.1742440638956249  0.1735925609237169
  0.3569293243078719  0.5308359381747743  0.4212957708055982
  0.4876877503237867  0.8765643625323222  0.4082807361244583
  0.3379566995951786  0.4182413703206866  0.6652930514114339
  0.7367147793500229  0.9960753316840614  0.1508998308604527
  0.2314003518343681  0.2255956536181600  0.1788619145847569
  0.8549905327557129  0.0706950655675850  0.0106123465088256
  0.2245079531491446  0.8166442069437087  0.8775764517971379
  0.3609344810856880  0.2555118515573709  0.0445528713258309
  0.6426189667527124  0.9862046543380887  0.8906609159030581
  0.9871739142706950  0.5911834150509518  0.8277658102544910
  0.7825130495790326  0.5059935843635061  0.0784371805042137
  0.7670560323406153  0.5269710206689227  0.3429858062338920
  0.3247081289929812  0.1339575901583025  0.7064227821268751
  0.6111076881710101  0.1529524736223558  0.0206902700222745
  0.5251388908890944  0.6525512173872322  0.6068602077803267
  0.7539567661147547  0.2988569401480777  0.5348053363704649
  0.6169981790371126  0.6080713082373703  0.2295793352706639
  0.5526737176994384  0.2301435236405194  0.3490581165966501
  0.6133378970579139  0.1147527170938803  0.8941550934692012
  0.1351670897631198  0.0969036484274730  0.5533763302331424
  0.3204881523392764  0.5877215526154376  0.5899633998397511
  0.7499173965884091  0.0541220162794244  0.4904529004504433
  0.6501348926679960  0.9242549524829098  0.6321363053000191
  0.6796269621176046  0.6930898080422839  0.5176832981084653
  0.4355872857835837  0.0273590168135103  0.9038066084215931
  0.1592637195331283  0.4566497962307577  0.6596596270082442
  0.1550845354229818  0.7503698735956458  0.4479355336472050
  0.1894406541119150  0.1420140399322997  0.8136106255725145
  0.0949220949274539  0.4221796892744888  0.2323913109771211
  0.5351103890281039  0.3026908712916644  0.9363113911846522
  0.2412231930526200  0.4931616145880902  0.1087583721057555
  0.8658995097061355  0.0582847013494606  0.1858109203801132
  0.3929025309703020  0.8733679672197945  0.7926809044734476
  0.7121415867149692  0.6972454296998574  0.9392263536831525
  0.9618559385939190  0.4393131388603799  0.9864778722032673
  0.0627451303852762  0.6544594899531399  0.0074829849568300
  0.7129404632189017  0.1792793602550561  0.7299769982737678
  0.7004992497302225  0.9146480072561196  0.8058689681151430
  0.0976057865039331  0.9040961990522792  0.6583068659136150
  0.0948671715876980  0.9383048388059790  0.0152359372890851
  0.1774726125148280  0.9422105708511155  0.3624574448940276
  0.7592424350841783  0.1585989146565219  0.3011727779386340
  0.7621015064039747  0.8157281208142331  0.3309129274744079
  0.7385719558005798  0.6426622164474747  0.4075065498955238
  0.4039639886134859  0.2698143117187312  0.3101850247677452
  0.6532956722006622  0.6594652784160496  0.7533294934560252
  0.3254217482078937  0.2413108653867824  0.4391946260586943
  0.0968042589766288  0.9408702315979717  0.7773444668227840
  0.9034059634939667  0.4696138033489295  0.2208444018106687
  0.8529393063429495  0.2560680808227687  0.3559525772809814
  0.7969080819808247  0.6205751294373191  0.8060913253055785
  0.9608473281257074  0.8954918077256198  0.9402604490478316
  0.2016112293160700  0.4094445903420066  0.4109986705603928
  0.2196955393042148  0.7007893447610678  0.6477455604919312
  0.3831951216973905  0.9625928738314434  0.5347398152179426
  0.5264970626750730  0.8552947719743030  0.8026844513566053
  0.1941564770222424  0.1080271875339424  0.9837158605472285
  0.3165540195962486  0.8172771469220150  0.0788078354288707
  0.5208368494202456  0.5702458414962128  0.4522045088029418
  0.9073206016902416  0.7371066513656396  0.8653952296185535
  0.4705856612426100  0.1945899456803446  0.9308737929843864
  0.4355324353081860  0.5566214447749408  0.1215673570480019
  0.0181216152097950  0.6995982832366655  0.5770167073518974
  0.1604154654778989  0.6182295153177104  0.1800885524317756
  0.2694008510192190  0.2778117001294075  0.8265622361052386
  0.5418610411702710  0.0996326435575956  0.4940629827794857
  0.4379875268083543  0.7221168852045508  0.3705959321120892
  0.3321665120984610  0.8093915435826980  0.7064601497684799
  0.7139156533091742  0.4132461535407685  0.2285488702932713
  0.5963190810417525  0.5657949935748590  0.0632395896306234
  0.1839462921025506  0.9658866865451160  0.5858425844828375
  0.9128497981674988  0.1948316594525848  0.7108890600154072
  0.5787508130002341  0.1984539889691235  0.5590219664394445
  0.1373990729760245  0.2087773042414601  0.4976983681913449
  0.1537881149543611  0.5775631184121239  0.8526541282676270
  0.6021156222010311  0.8740186346893879  0.2377740074206478
  0.4696608115346422  0.4618254951710493  0.7422360863342324
  0.8790331865725822  0.4892502866699515  0.9166082677820006
  0.8694429856124604  0.1024724655830480  0.8922074111925469
  0.8471307777680177  0.9850336956550994  0.5161662496431346
  0.0915577993876016  0.7215184733016266  0.1894482070168510
  0.9683045531124954  0.4374975306063044  0.6102181056010384
  0.3364908494844222  0.6872437685377949  0.0296986703396014
  0.1268242648394988  0.9896518616049691  0.2440117233815873
  0.5606252066298617  0.5111159395246510  0.1646581371333762
  0.6916809297369401  0.0434340394365548  0.6082123389766184
  0.6235063456622771  0.2755016765126952  0.0162107329673811
  0.1434480892864766  0.0513277552800978  0.4329427157677986
  0.9449197948158263  0.8122973514998932  0.2993915288430888
  0.7530543426983748  0.0319576364436045  0.7776507388457666
  0.7797206711773351  0.6942273135413041  0.5928522465268031
  0.2728204985250690  0.7992801087928069  0.5926407441175190
  0.8683927100081306  0.6602254888678990  0.2107451638213672
  0.4962105168481626  0.1349511121615973  0.0350654353031002
  0.2909018262630030  0.1505602428736095  0.0934774821793686
  0.3740754380839219  0.8286288318085101  0.4251723344049039
  0.9390465906734793  0.9663919481632656  0.7511807077320883
  0.7112885183368814  0.2145623758337337  0.1930787500035848
  0.6957008063050344  0.9951908062272902  0.9967140710794998
  0.5879679876162879  0.1760324281006080  0.6849947879460822
  0.1388501556945318  0.0434923994235442  0.0834036886650943
  0.8715471503250174  0.4486411055011400  0.7879423727284289
  0.1675691646506650  0.3611799238357067  0.2997769754081161
  0.3348009830108526  0.3988991958420895  0.8678166712753204
  0.2853330220569167  0.7772799039042436  0.1981114160800605
  0.2987304930393746  0.0184623546591102  0.3309403328420155
  0.3389910164083819  0.4774184434411286  0.0467642179592615
  0.4197259604927857  0.0514201628470685  0.1859521225303080
  0.4496603099235879  0.2297949264898508  0.5488032823955807
  0.4321400939149425  0.3263044815820382  0.1895155357336962
  0.9369580775382543  0.9872520512295473  0.2724770538634568
  0.4294055645636786  0.8688023348611381  0.1165335055784469
  0.0931662638211711  0.4762226516532788  0.4327339846162868
  0.0729080682218285  0.4868074518268756  0.8585102406105463
  0.5373764519298460  0.4548866758802136  0.8465341280561297
  0.2994524356434376  0.9918889549811858  0.6241173889385229
  0.5444087912032588  0.1830432780617213  0.2280581213240119
  0.8993023112371382  0.5312815043946515  0.3410190903426089
  0.5932565288429115  0.5457311556520613  0.3392066392343849
  0.3535189464025228  0.2003535795863905  0.9313209572086723
  0.1728133246639246  0.8842837637142217  0.4843669295251313
  0.0524996426522114  0.2011736572010072  0.3984236250604901
  0.5205486072864898  0.9324845374213374  0.9083285626817061
  0.5921740988120676  0.9488286862196175  0.7394270465108330
  0.6791374586442481  0.4751678262624697  0.7236450535808717
  0.1332065950186889  0.8309723388384582  0.3261930392285202
  0.9204673596848861  0.3293439047830259  0.4518477120984617
  0.5296726386844256  0.7538232853928676  0.4513456870565595
  0.8455359114074759  0.2447105110335481  0.8020987545296147
  0.3124165989459615  0.6346497321950223  0.4704616628216644
  0.6751634933284757  0.2090658954537815  0.8460663631813469
  0.3177630353594202  0.1154673876738761  0.4825732272383357
  0.7887544006415821  0.8284658470670825  0.2060578406566560
  0.7300229287187151  0.5450264964006287  0.2303984837309818
  0.1676041729372540  0.6562059463178195  0.3512971455021798
  0.0528215079331388  0.8483301034443658  0.8523872060484414
  0.7715712437365758  0.4569457312203442  0.9568367049173560
  0.0091301328178747  0.0766535832281723  0.5485071881602606
  0.2660342905837275  0.9415827504828731  0.1461096937746378
  0.5463362702872906  0.6071943473308115  0.7199178863811020
  0.9981779271161954  0.9005977774594791  0.5805296173286526
  0.1058812008183659  0.2904155685055276  0.8270802657877807
  0.5196479431136082  0.3815502820817590  0.6530873164741335
  0.2738202050448155  0.2559823150543366  0.5513856958998402
  0.2529662051191847  0.9974180402966589  0.9581194397239471
  0.7761660189469411  0.1691787639898639  0.0376162646898202
  0.8691268380037778  0.6133293216869474  0.9089984107883912
  0.8955950702211883  0.1765236490066741  0.2166479787517378
  0.5210729531112952  0.4411391715392249  0.4476583101573585
  0.6191888788303160  0.3588185946715892  0.2912764732635374
  0.6282022123232779  0.5870927525519278  0.5675274439516224
  0.6908775014666160  0.7156458577396274  0.3104722366031307
  0.4902723791045060  0.8458626972381317  0.2817102368832375
  0.1042222512706837  0.7838877891858664  0.6806872150330613
  0.7831049256923264  0.7477544779039043  0.8205297164553419
  0.6088674365177325  0.7795095957095347  0.1679796212230930
  0.9110633055550827  0.8259307822763484  0.7162430857934662
  0.0960924010635376  0.2245966064945210  0.0131213777863337
  0.8358801243172463  0.8939632391743109  0.8926471797998049
  0.7428262626196065  0.8148852437290491  0.0393809851258048
  0.7643635550054229  0.0383223900595143  0.2697660588013151
  0.2039770595831177  0.5410123287790300  0.7407430828643958
  0.7807694593131634  0.4203938595915517  0.5472529275177993
  0.3768507031819501  0.2490465208827750  0.7315285021901450
  0.9963012305845691  0.9406671373843662  0.0919941827832370
  0.4315434342133981  0.5800690706924961  0.3445827726717152
  0.1103867527864682  0.1931275407643812  0.1950190375841052
  0.0250390028575633  0.7640692544498999  0.4600949604678299
  0.7424567058313246  0.3074754526171006  0.3939093823604513
  0.3981357295120909  0.7009504707979952  0.6876871514168965
  0.6863703983143454  0.9053543753463377  0.3302699653760056
  0.3473906513728453  0.8503043228235937  0.9041189813080365
  0.1358700815816522  0.8174002033284775  0.0465865973837823
  0.8626101077549819  0.1495968802178128  0.4386997905366759
  0.7172737655667555  0.8375120422485411  0.4912042752026801
  0.0238860225027738  0.2354030172367324  0.6920574745680607
  0.6874827554146721  0.5988472550414408  0.8634153466800102
  0.2476673878975418  0.3113507143200372  0.0342831354068386
  0.4251119662891306  0.6602162638641093  0.8634056766509381
  0.0773494980777983  0.6753523854232247  0.8802758170857138
  0.6122366991890754  0.9695697942012403  0.1697137458146760
  0.4646149578686809  0.3674894579398389  0.0022735877246227
  0.9301611985247256  0.7824143650642135  0.9813639415634997
  0.6494041775618489  0.1459827845520536  0.3715492114857334
  0.2589769233589823  0.5851310819795297  0.9119657078226415
  0.2581215568965696  0.4742952609293739  0.5835716114403919
  0.5018634537323711  0.1234502511889459  0.8387569890330947
  0.4333507545873115  0.5227385657787420  0.5894888677107628
  0.2159339713061710  0.9150614253858471  0.7833177333991006
  0.0624577380389290  0.0490395954790989  0.9193385921119512
  0.2615472597386051  0.5072176779896621  0.3552805606616759
  0.9538788073885434  0.1413541145699031  0.0512567279135980
  0.2314639313543166  0.3454379049044252  0.7056857272192273
  0.3115288384809630  0.1886052763622120  0.2654840612012418
  0.2530849897377677  0.7445407687322226  0.7801783274077588
  0.8522896953098311  0.6883145995283225  0.4265545403780990
  0.0749535649419640  0.5425375796222343  0.2322286532993336
  0.9841850280449292  0.5838546044696028  0.0488573665522986
  0.2098159625725856  0.2424336314096210  0.4016527718443961
  0.2083786016963017  0.1616211288489336  0.6933401601489504
  0.9459837739649201  0.3167223138579828  0.9311916146283721
  0.8202955449525146  0.3779261891528877  0.2656260240249043
  0.5816428033622406  0.9878910139670807  0.4466346198826910
  0.6997973711039520  0.6188147385167574  0.0585416713214869
  0.3735941462535964  0.9955755507775608  0.7888888792512152
  0.4914597303680763  0.5936454011370998  0.0123289998514679
  0.6242633973989112  0.3029379363312678  0.5259242934400169
  0.5903929938745675  0.7651800380751939  0.6304731492008573
  0.2787863050072940  0.5805394782540515  0.1885336660149950
  0.0948502989331178  0.3172030759083427  0.5307864060139716
  0.7671104045279081  0.8896437663609608  0.6679908624787355
  0.4512035720756680  0.6775412330858760  0.1755764043366015
  0.1721105537992516  0.6099321463637960  0.0436364898880272
  0.5973245841898591  0.7579847728826208  0.9286380992248885
  0.7026385289744097  0.3036071330505919  0.6926288097459329
  0.4511752944028775  0.8714331346271479  0.6046705644026251
  0.3497383451994339  0.3733944079197024  0.3498509200276211
  0.1383368697121584  0.6645019871019021  0.5511585424238963
  0.8471572291240786  0.1572576499272220  0.6179822167686591
  0.9844507348316804  0.3859911571275408  0.2649506791006802
  0.8978393609104581  0.4054045741550382  0.0850700432629088
  0.1166358634908683  0.3740934137904142  0.1210193664324925
  0.4787118069778139  0.1289742778993030  0.3900529224530821
  0.9574903880637409  0.5931650574394838  0.5287911868636380
  0.9811275502377736  0.0784653652601955  0.7401422474640099
  0.0128840767218921  0.6094444765636969  0.6952438346474767
  0.7049035836620834  0.4116710509759248  0.1022629206806256
  0.4688546227346058  0.0479280445221911  0.5808523462541259
 
 -0.36039542E-03  0.12171636E-03 -0.89341652E-04
 -0.12585431E-02 -0.13562750E-02  0.25056680E-02
 -0.22015533E-02  0.11170827E-02 -0.14676773E-02
  0.74912024E-03 -0.22702017E-02  0.17534684E-02
 -0.13749123E-02 -0.83051962E-03 -0.36175836E-03
 -0.63304563E-02  0.36594336E-03 -0.13668861E-02
 -0.12949521E-03 -0.26758218E-02  0.53393727E-04
  0.32398062E-03  0.26991687E-03 -0.14006336E-03
 -0.12619771E-02 -0.40441607E-02  0.89429546E-03
 -0.95560586E-03  0.37316628E-03  0.71864632E-03
  0.24441678E-02  0.14731036E-02 -0.14936008E-02
  0.30643203E-02  0.20012131E-02 -0.19809557E-02
 -0.32813333E-02  0.38970183E-03  0.35456985E-02
 -0.15446455E-04 -0.15797376E-02  0.17747739E-02
 -0.20360461E-02 -0.12685499E-02  0.69101309E-04
  0.30945980E-03  0.35039916E-02 -0.46260284E-03
 -0.34331805E-03 -0.90759480E-03  0.18922341E-02
  0.14951704E-02  0.20146330E-03 -0.15846261E-02
  0.99108907E-04 -0.15287069E-02  0.26296078E-02
  0.14652287E-02 -0.12150709E-02 -0.10615226E-02
  0.15938803E-03 -0.62382226E-03  0.59754307E-02
 -0.21257427E-02  0.31424042E-03 -0.22934248E-02
  0.24538052E-02  0.57282481E-03 -0.11940651E-02
 -0.17118278E-02 -0.65929978E-03  0.11072883E-02
 -0.30846903E-03  0.14768021E-02  0.10829545E-03
 -0.90359546E-03  0.11090012E-02  0.11621264E-02
  0.19780612E-02  0.56576724E-03 -0.54792803E-03
  0.10731874E-02  0.32652020E-02  0.15388996E-02
  0.53987380E-03  0.68535628E-03 -0.94683500E-05
 -0.16264199E-02  0.18211547E-02 -0.14974607E-02
  0.29271967E-02 -0.12633569E-02 -0.12066857E-03
 -0.57958341E-03  0.22989895E-02  0.29532141E-03
 -0.45540125E-03  0.10130847E-02  0.13576642E-02
 -0.33644432E-02 -0.17550118E-02 -0.18545179E-03
  0.10965221E-02  0.21769056E-02  0.15636059E-03
 -0.34824696E-02  0.37516953E-02  0.73361465E-03
  0.11682795E-02  0.12271654E-02  0.19356743E-02
 -0.26880209E-02 -0.65543126E-03  0.13656514E-02
 -0.93059613E-03 -0.23354101E-02  0.19568379E-02
 -0.16001735E-02  0.41053905E-03  0.77682405E-03
 -0.16077866E-02  0.17658788E-02  0.12402033E-02
  0.17645476E-02 -0.69767914E-03  0.25466407E-03
  0.14137327E-02 -0.89799189E-03  0.37895170E-02
  0.38513006E-02 -0.36979521E-02  0.11088107E-02
 -0.29370712E-02 -0.27994313E-02  0.14241974E-02
 -0.19540008E-02  0.27393115E-02 -0.12636296E-03
 -0.35017579E-03  0.14942195E-03  0.29451694E-03
  0.18231623E-02 -0.22182023E-02 -0.14834952E-02
  0.20033647E-02  0.16706494E-02 -0.17728175E-02
 -0.26405121E-02  0.26455101E-02 -0.38165805E-02
 -0.23158559E-02  0.47123778E-03  0.10634604E-02
  0.27624588E-02 -0.22814763E-03 -0.10979061E-02
 -0.83986336E-03  0.11836976E-02 -0.95250398E-05
  0.14434826E-02  0.53302396E-03  0.87467446E-03
  0.79988265E-03  0.11488741E-02 -0.18775899E-02
 -0.16294274E-02 -0.66258701E-03 -0.19565098E-04
  0.29180771E-02 -0.29584874E-03  0.20408066E-02
  0.74658712E-03  0.29264852E-02 -0.96624537E-03
  0.16312265E-02  0.30219199E-03  0.21482985E-02
  0.47013603E-03 -0.13211874E-02 -0.12482749E-02
 -0.16200300E-02 -0.31644572E-02  0.52100877E-03
  0.97483266E-03  0.54337883E-03  0.50433483E-03
 -0.38497228E-02  0.59009793E-03  0.60987116E-04
 -0.44079765E-03  0.12824474E-02  0.12559721E-02
  0.65672443E-03  0.27536532E-02 -0.22225897E-03
  0.53012134E-02 -0.58636472E-03 -0.99955533E-03
 -0.13641910E-02 -0.52447050E-03 -0.85537017E-04
  0.51451257E-03  0.14513776E-02  0.79945116E-03
 -0.21536715E-02 -0.31651014E-02  0.14785073E-02
  0.12950974E-02  0.38486597E-02  0.98059150E-03
  0.12134480E-02 -0.98041868E-03  0.11859637E-02
  0.70632285E-03 -0.19469093E-02  0.28759329E-02
  0.33609156E-03  0.44988996E-03 -0.17433998E-02
 -0.97128468E-03  0.26389822E-03  0.47631139E-02
 -0.20887436E-02 -0.16032018E-02 -0.31651926E-04
  0.15892178E-02  0.52801563E-03 -0.91220711E-03
 -0.22017644E-02 -0.23375142E-02  0.55358284E-03
 -0.13128845E-02  0.17243245E-02  0.14891964E-02
 -0.40136435E-03  0.22483271E-02  0.35477431E-02
 -0.84445133E-03 -0.31828355E-02  0.12957513E-02
  0.16913884E-02 -0.55421296E-03  0.42586585E-02
  0.24564057E-02  0.29255803E-02 -0.57267173E-03
 -0.26877421E-02 -0.17004437E-02  0.17236861E-02
  0.12883234E-02  0.10564743E-02 -0.15816232E-02
  0.74540495E-03 -0.10839068E-02 -0.21114359E-02
 -0.28094347E-02 -0.24631239E-02  0.12136731E-02
  0.24637838E-02 -0.17022985E-02  0.70816086E-03
 -0.58368634E-03  0.12373200E-03  0.10121615E-02
  0.24922861E-02  0.71624434E-03 -0.12199674E-02
 -0.25392915E-02  0.17048195E-02 -0.25034271E-02
  0.17127732E-02  0.43309873E-03  0.23713845E-02
  0.38535506E-04 -0.69365189E-03  0.80312959E-03
  0.23010905E-02 -0.45844502E-03  0.17994422E-02
  0.47404142E-03 -0.30277209E-03 -0.28834783E-03
  0.30873932E-04  0.11054889E-02  0.42093173E-02
 -0.14376492E-02  0.68069494E-03 -0.10436314E-02
  0.17337904E-02  0.13294229E-02 -0.33414084E-03
  0.22384859E-02 -0.82118816E-03 -0.38839697E-03
 -0.59456696E-03  0.19957641E-02 -0.12207713E-02
  0.86059899E-03 -0.48650881E-03  0.85577717E-03
  0.75653681E-03  0.23897771E-02  0.15824753E-02
 -0.80961536E-04  0.11214111E-02 -0.31458803E-02
  0.59541706E-03 -0.38355396E-02 -0.17881293E-02
  0.10458858E-02 -0.12630672E-04 -0.96784417E-03
  0.57172284E-03  0.41233169E-03  0.70142573E-03
  0.11728436E-02 -0.62712789E-03 -0.12419144E-02
 -0.26360084E-02  0.15520699E-02 -0.12992955E-02
  0.15626921E-02  0.36419787E-02  0.63793601E-03
 -0.12752496E-02 -0.28754717E-02 -0.24815184E-02
 -0.87109914E-03 -0.58549810E-03 -0.16719599E-02
 -0.22865196E-02  0.12299661E-02  0.14520364E-02
  0.97573971E-03 -0.24280727E-03  0.85603640E-03
  0.13560008E-02  0.13857645E-03  0.24534989E-02
  0.80566161E-04  0.54898305E-03 -0.16188724E-02
  0.48939879E-04  0.26663934E-03 -0.12026285E-02
  0.15885110E-02 -0.24208393E-02 -0.70123513E-03
  0.27529397E-02 -0.90983594E-03 -0.32187858E-02
  0.92320121E-03  0.14357158E-02 -0.21326497E-02
 -0.13337810E-02 -0.16437969E-02  0.44043305E-03
  0.62992703E-03 -0.23391789E-03  0.20264437E-02
 -0.14355497E-02  0.25841088E-02 -0.29663893E-02
 -0.69406451E-03 -0.21834792E-02 -0.26748105E-02
 -0.11600267E-02 -0.27896409E-02 -0.16389026E-02
  0.53449718E-03  0.77459325E-03 -0.50735568E-03
  0.67275764E-04  0.12336084E-02 -0.12164796E-02
  0.87998079E-03 -0.45786550E-02 -0.33112484E-02
 -0.21250472E-02  0.73000395E-03 -0.90212080E-03
  0.17009847E-02 -0.68766338E-04 -0.17717882E-03
 -0.20565911E-02  0.48573913E-03  0.34487598E-03
 -0.26651135E-02  0.26391428E-02 -0.12002391E-02
 -0.90719749E-03  0.21354866E-02 -0.32593059E-02
 -0.96600954E-03  0.16972699E-02 -0.21833497E-02
 -0.75859559E-03  0.14537443E-02  0.10808811E-03
 -0.20701726E-03 -0.16272605E-02 -0.45801698E-03
 -0.13820268E-02  0.13903467E-02 -0.39539199E-03
  0.25112430E-02 -0.42850057E-04 -0.11554447E-02
  0.66788929E-03  0.15769983E-02 -0.21729383E-02
  0.94767826E-03 -0.53838086E-03  0.19384593E-02
 -0.33501916E-03  0.48278177E-04 -0.30619190E-02
 -0.50687307E-02 -0.32674384E-02 -0.96753823E-03
 -0.44181169E-02  0.22673229E-02 -0.35643223E-02
  0.42307981E-04 -0.13179575E-02 -0.19093318E-02
  0.67955503E-03  0.12858069E-04  0.20394776E-02
  0.59745223E-03 -0.19284907E-02 -0.17895320E-03
 -0.18880976E-02 -0.11645327E-02  0.36694626E-03
  0.18844659E-02  0.15921037E-02  0.87038381E-03
  0.51259652E-05  0.29913988E-02 -0.17086996E-02
  0.38117618E-03  0.37195483E-02 -0.81249086E-03
  0.37251402E-02  0.75152413E-03 -0.61478466E-03
  0.18247513E-02  0.90125950E-03  0.58915162E-02
 -0.74790463E-04  0.30331012E-02 -0.21199512E-02
 -0.13411623E-02 -0.21504577E-04 -0.33913279E-02
 -0.11834102E-02 -0.57283725E-03 -0.18313188E-02
  0.13247033E-02 -0.19613225E-03 -0.46573230E-03
 -0.96630102E-03  0.10715277E-02  0.68411364E-03
 -0.97973382E-03 -0.79044179E-03  0.38342111E-02
 -0.92956566E-03  0.16023691E-03  0.33144353E-02
 -0.21468011E-02 -0.11036092E-02 -0.13477825E-02
  0.17627186E-03 -0.26228046E-02 -0.38099939E-02
 -0.83280619E-03  0.22918212E-02 -0.10268852E-02
  0.32921801E-02  0.21473975E-02  0.13976531E-02
  0.10637020E-02 -0.12757447E-02 -0.80524407E-03
  0.10790693E-02  0.23389831E-02 -0.59420037E-03
  0.43463195E-03 -0.23805536E-02  0.18223262E-02
  0.12212972E-02  0.26126506E-02  0.96180687E-03
 -0.14589543E-02 -0.28260966E-02  0.16996332E-03
 -0.30439691E-02 -0.36917199E-02 -0.16564435E-03
  0.14920331E-03 -0.22808324E-02 -0.61196396E-03
  0.40490845E-03  0.28159834E-03 -0.25615339E-03
  0.16223952E-03  0.15893187E-02 -0.45073992E-03
 -0.61935609E-03  0.26187479E-04  0.15941986E-02
  0.20607530E-02 -0.47689699E-03 -0.26683730E-02
  0.90616067E-03 -0.30344724E-03  0.18763237E-03
  0.16904014E-02  0.75661188E-03  0.24852556E-02
  0.67485375E-03  0.26032334E-04  0.40846491E-03
 -0.29492875E-02  0.22536804E-02  0.23425811E-02
  0.15854898E-02 -0.37714630E-03 -0.13838580E-02
 -0.14998384E-02  0.17057323E-02 -0.28051938E-02
 -0.10077498E-02  0.46599013E-03  0.52356546E-02
 -0.13634818E-02 -0.30768878E-02 -0.25491004E-02
 -0.13403665E-02 -0.30835972E-02 -0.22009602E-02
  0.90195013E-03 -0.24371347E-02 -0.12576559E-02
 -0.65771908E-04  0.33542028E-03  0.55011280E-03
 -0.12079017E-02 -0.16287443E-02 -0.12030223E-02
  0.18795838E-02  0.30839586E-02  0.42015233E-02
  0.85906965E-03 -0.18308441E-02  0.23086730E-02
 -0.18209567E-02 -0.14179967E-02  0.20425216E-02
 -0.29267252E-03 -0.20867100E-02 -0.67008718E-03
 -0.20321229E-02 -0.76835694E-03 -0.25931405E-02
  0.28410448E-02  0.32039586E-03  0.61966660E-03
  0.60018067E-03 -0.14016255E-02 -0.14122523E-02
 -0.18113248E-02 -0.20435835E-02  0.93368119E-03
 -0.93729891E-03 -0.57249230E-03 -0.93256908E-04
  0.40672518E-02  0.48296761E-02 -0.37990576E-03
  0.10903231E-02 -0.12161667E-02  0.71686699E-03
  0.63604117E-03  0.89659419E-03 -0.14822856E-02
 -0.27835654E-03  0.19282401E-02 -0.13553537E-02
  0.28206260E-02 -0.12297800E-02  0.20672217E-02
  0.93798238E-04 -0.32083802E-02 -0.13157100E-02
 -0.20118989E-03 -0.20337710E-02 -0.35910650E-03
 -0.16724128E-02  0.70708248E-03 -0.14323035E-02
  0.15032162E-02  0.72841146E-03 -0.50250452E-03
  0.10656773E-02  0.57501993E-03 -0.93730347E-03
  0.19911316E-02  0.79503443E-04  0.23153100E-02
  0.37086019E-03  0.15641638E-02 -0.27354791E-02
 -0.40029446E-02 -0.13640105E-03 -0.33653540E-02
 -0.16854158E-02 -0.25535064E-03  0.67795619E-03
 -0.26237162E-02 -0.20033332E-02  0.13704328E-02
  0.35789503E-04  0.32593254E-02 -0.20468555E-02
 -0.17493115E-02  0.21754893E-02 -0.21465459E-02
  0.19919283E-02 -0.10937235E-02  0.30244177E-02
 -0.19131661E-02  0.20834237E-04  0.15848957E-02
 -0.15280407E-02  0.18888867E-02 -0.22176565E-02
  0.81324648E-03  0.13982421E-02 -0.76098163E-03
  0.51583944E-03 -0.20549104E-03 -0.57279344E-03
  0.64585806E-03 -0.72031600E-03  0.88515396E-03
  0.73592873E-03  0.46584788E-03  0.13801133E-02
 -0.75507444E-04  0.14508769E-02 -0.99454005E-03
  0.31158471E-02  0.20633066E-02 -0.14369957E-03
 -0.29482617E-02  0.25168380E-03  0.21316225E-02
  0.27736588E-02 -0.47561887E-04 -0.11294416E-02
 -0.79225212E-03 -0.27700608E-02 -0.18557696E-02
  0.21787638E-02  0.36837515E-03 -0.15139419E-02
  0.18485236E-02 -0.13492247E-02 -0.10183633E-02
 -0.50310662E-03 -0.70657899E-03 -0.48538918E-02
 -0.22010707E-02  0.60378915E-03  0.19341776E-03
  0.77210144E-03  0.27382933E-03  0.19126831E-05
  0.22148539E-02 -0.77159659E-03  0.84098565E-03
 -0.21214645E-03 -0.53235536E-03 -0.26320263E-03
  0.33188987E-04 -0.23660440E-02 -0.12828073E-03
  0.13015596E-02 -0.46102854E-03  0.20537005E-02
 -0.12137644E-02 -0.18111936E-02  0.27778867E-02