Amorphous Sb                            
   1.00000000000000     
    20.5959151855578781    0.0000000000000000    0.0000000000000000
     0.0000000000000000   20.5959151855578781    0.0000000000000000
     0.0000000000000000    0.0000000000000000   20.5959151855578781
   Sn   Se
   150   150
Direct
  0.0701802979999968  0.8138375600000032  0.3938938300000032
  0.8460779400000007  0.2504640200000026  0.6038766899999999
  0.6031261999999984  0.1340074299999969  0.3886995499999983
  0.0211187479999992  0.0044921933999973  0.8038088400000021
  0.7618306099999970  0.9256734599999987  0.8333793500000013
  0.5190179200000031  0.1994744799999992  0.8708481099999972
  0.6942492299999969  0.1664155300000019  0.6254890499999988
  0.4524697900000021  0.9199434599999989  0.4070676899999981
  0.3330437700000033  0.9197836299999977  0.6763727599999996
  0.3458149499999976  0.2544502200000025  0.8369194799999988
  0.6254765300000003  0.5629640100000017  0.0049662398999999
  0.1338862100000000  0.1241257900000008  0.9025504100000035
  0.6816074099999980  0.3270583500000015  0.3509881800000016
  0.2510511999999991  0.1925379500000020  0.5106516900000031
  0.6092191500000013  0.8307286200000021  0.2619360500000028
  0.9536633600000002  0.6980108300000012  0.5248636000000033
  0.7971499100000017  0.7685760600000009  0.3389654599999972
  0.0120735850000031  0.6061317300000013  0.6650219599999971
  0.1465842499999965  0.1729045499999984  0.3324902000000023
  0.5079365599999974  0.6848330500000017  0.6886228099999983
  0.4958126200000024  0.6819952499999999  0.1772568000000021
  0.9161160700000011  0.1577409499999973  0.3701213100000018
  0.7229328399999986  0.2689176100000026  0.5138069400000020
  0.3495753799999974  0.8307573499999990  0.0361665830000035
  0.9951421648000007  0.9906457619999998  0.3188073999999972
  0.5814389800000015  0.8638713100000004  0.6351442100000000
  0.1671761799999985  0.4981569199999996  0.0817179940000017
  0.1439911000000009  0.5707011499999979  0.8712627299999980
  0.5888459100000034  0.5458980000000011  0.6833127599999997
  0.0118241970000028  0.5424201800000006  0.4819216599999976
  0.5003929299999967  0.3754531599999993  0.8745511799999974
  0.0595850600000034  0.3171660799999998  0.5823258499999966
  0.7573496799999972  0.6721976299999994  0.7587548400000017
  0.6371813200000034  0.7871914700000033  0.8028232799999984
  0.3010559000000015  0.0719824740000021  0.7859679199999974
  0.9760255799999982  0.8207657199999971  0.6945335799999981
  0.0785208759999989  0.2552891300000013  0.7523685900000032
  0.5537736799999990  0.9884602289999975  0.5280041600000018
  0.3909550999999993  0.8794672599999984  0.5432299900000004
  0.0398634980000026  0.3166955599999994  0.3834497699999986
  0.4772543099999993  0.2735055699999975  0.7338967199999971
  0.2578254100000024  0.2035811399999972  0.6691952999999984
  0.7408556399999995  0.1195409199999986  0.0288684579999980
  0.9765557999999999  0.1160999900000022  0.5425712600000026
  0.6641849199999967  0.4929157799999970  0.8279503099999985
  0.8667522200000022  0.7615508199999965  0.0687600759999967
  0.2907220499999994  0.6504823499999972  0.2788622799999985
  0.8276872599999976  0.0894309139999976  0.1995333300000013
  0.8941962399999994  0.4759914600000030  0.3749188000000032
  0.4763158700000005  0.0820574529999973  0.0321444679999985
  0.7457870699999987  0.9315797799999999  0.2683078000000023
  0.1027348200000020  0.6341315100000031  0.2687430100000014
  0.6543039000000022  0.0191719649999982  0.6870461000000034
  0.9072523600000011  0.4147751599999978  0.5114188100000021
  0.5127605500000030  0.0291087370000014  0.2666954899999965
  0.2705417800000021  0.4734963000000008  0.9318880000000007
  0.8028745900000018  0.5397263300000006  0.2660134799999980
  0.7079392899999988  0.5705399799999995  0.4189002800000026
  0.4898652400000003  0.2024780100000001  0.5440540600000006
  0.3844596599999974  0.2462873200000004  0.1857419500000006
  0.5557975400000004  0.7203727300000011  0.9835179900000028
  0.1924671700000005  0.8662015000000025  0.2141434899999979
  0.3962483000000034  0.8744322000000011  0.1923468800000023
  0.6857407600000016  0.3221117300000031  0.9493234039999976
  0.7568841900000010  0.8271228500000021  0.6916900800000008
  0.3520653799999991  0.3065789699999968  0.0295289170000004
  0.0708570190000017  0.3257970599999993  0.0984428470000012
  0.4622142899999986  0.3102990599999984  0.3548393599999997
  0.3143020400000012  0.6795340600000017  0.8968976399999988
  0.7059369899999979  0.3685513400000033  0.7117175799999984
  0.4750469900000027  0.9402599100000018  0.8991231299999995
  0.7219913599999970  0.4701282999999989  0.5436279299999995
  0.4090976399999988  0.7741808700000021  0.8104387699999975
  0.8428126299999974  0.2638046200000019  0.0453529409999973
  0.5594350200000022  0.2668058699999989  0.1918531399999992
  0.1948774399999991  0.9244687799999980  0.0217974819999966
  0.0313160230000022  0.2290229600000018  0.2187630700000014
  0.1743771000000010  0.7134374399999999  0.6610272899999998
  0.1276678300000000  0.4174011200000010  0.7107801399999971
  0.3548046399999976  0.1382987300000025  0.3546063499999974
  0.9081589299999990  0.4107496299999980  0.1473101400000019
  0.2484566199999989  0.6757877599999986  0.1191317500000011
  0.8043307399999975  0.8265877899999978  0.5223202000000029
  0.3502350799999974  0.4730374700000013  0.3083295400000026
  0.6113776500000014  0.6695946199999980  0.2931558300000034
  0.7029105299999969  0.8931509599999998  0.0524269380000035
  0.2031950800000004  0.5086297000000002  0.5877274500000027
  0.4908301800000032  0.2485399700000031  0.0063913171999985
  0.8773736300000010  0.5135536599999995  0.6608398799999975
  0.3292726000000030  0.0649480339999968  0.1952373199999968
  0.6457138199999974  0.1983652899999981  0.7753145900000007
  0.7567610899999977  0.0501680639999975  0.4846323699999999
  0.3442833300000032  0.7337506399999967  0.6292886100000032
  0.4651907699999995  0.7514453699999990  0.4031757300000010
  0.2728818300000029  0.3304830699999997  0.3593321600000010
  0.3772091399999979  0.0760904620000034  0.5665722099999968
  0.5506322299999979  0.4012917200000032  0.6270539400000033
  0.5126207799999989  0.5097031700000016  0.2250851100000020
  0.9400782599999999  0.6734551600000032  0.3201208400000013
  0.2314350099999984  0.9823089499999966  0.3338583900000032
  0.1944407000000012  0.2003550900000022  0.0638483179999980
  0.3338015499999969  0.3668304699999965  0.7094647899999984
  0.9759382700000003  0.5838542400000009  0.1491710800000021
  0.2103988100000009  0.4452961699999989  0.4525530800000013
  0.3293406100000027  0.0875076749999977  0.9632671900000034
  0.1724973000000034  0.0608141390000014  0.1580828800000020
  0.8903194499999998  0.1728524700000023  0.7711536600000031
  0.2814688400000023  0.8263434599999968  0.3704931299999998
  0.4224612800000003  0.6028860899999984  0.9996507158099988
  0.8008155799999983  0.5535447000000033  0.0687219409999997
  0.1031809600000031  0.0048600893000028  0.6466853299999968
  0.2691121399999972  0.3702569499999981  0.1868606499999999
  0.3420795299999995  0.3739870400000029  0.5220549200000022
  0.5060746199999997  0.8945069600000011  0.0843231059999994
  0.4743419799999984  0.5512564599999976  0.8069232599999978
  0.8748393300000004  0.0238912229999997  0.9516293200000021
  0.7894007599999995  0.2452961400000007  0.2374994600000022
  0.0146400730000025  0.6606422500000022  0.8775565600000022
  0.7554153099999965  0.6510481500000012  0.5672799800000021
  0.9939603300000002  0.0334706029999978  0.0940019539999994
  0.6820123800000033  0.3885838400000026  0.1384210100000018
  0.9216947800000028  0.8308459300000024  0.2258386500000000
  0.6528176999999999  0.8529660800000016  0.4596277400000019
  0.1816383500000001  0.3294556600000007  0.9070504099999965
  0.9469985400000027  0.3838795400000024  0.7609193199999993
  0.5645130999999992  0.4688274499999991  0.4164030499999996
  0.2009277800000007  0.8985583400000010  0.8156821399999998
  0.2035283000000021  0.6621307599999966  0.4584086699999972
  0.9594981700000034  0.1905835800000020  0.9484630500000009
  0.4441926599999988  0.4313953699999971  0.0653995790000010
  0.8283646300000029  0.3835572600000035  0.9034520399999977
  0.2663632000000007  0.5590981699999986  0.7283116300000003
  0.5139789099999987  0.0940976830000011  0.7282849300000009
  0.0509183839999992  0.7433706699999973  0.0730610909999996
  0.9738139000000032  0.8997351599999988  0.9573828799999973
  0.7074751099999972  0.7026665500000036  0.1586454199999991
  0.6244159999999965  0.0378265160000026  0.8758618999999968
  0.8536143700000025  0.5841443899999987  0.9150955300000021
  0.2042337600000010  0.9115942099999970  0.5443968100000021
  0.0282463599999971  0.4762101600000008  0.9586748899999975
  0.8336012999999980  0.2811501099999987  0.3880245699999989
  0.5878556400000008  0.6850255900000022  0.5120949800000005
  0.7571014700000021  0.7497406999999967  0.9218443299999990
  0.8516873299999972  0.9959995199999980  0.6761890699999995
  0.3996060599999964  0.5881924800000036  0.4865898500000014
  0.1543115799999981  0.7506168500000001  0.9406919999999985
  0.9661597489999991  0.9364322500000029  0.4628274299999973
  0.6421900799999989  0.0778290310000003  0.1996142200000008
  0.1385405500000019  0.4808990399999971  0.2721823999999984
  0.8751323400000004  0.7847638100000012  0.8138660500000015
  0.5822751199999985  0.9161992900000016  0.3649240900000024
  0.2804480499999968  0.8058781000000010  0.5114500500000005
  0.4802980700000035  0.7841561099999979  0.2665987600000008
  0.5813543399999972  0.7661576799999992  0.1107512499999999
  0.2177658199999968  0.2467917000000028  0.7957017800000017
  0.2403910100000033  0.3258040500000021  0.6129629300000019
  0.4329239300000012  0.4386861600000032  0.4213063300000002
  0.3464971599999984  0.4733982600000033  0.6287890400000009
  0.8950053900000015  0.7790990800000017  0.4349583400000014
  0.8358109300000010  0.6323347000000012  0.1761949500000028
  0.0569319479999990  0.0146094600000026  0.5159100699999968
  0.9683996699999966  0.6013868699999989  0.9900127008000013
  0.2298645199999996  0.1003075599999974  0.4100632500000003
  0.7726094300000028  0.2514949199999990  0.7207751600000023
  0.2055960799999994  0.3525292300000018  0.0695968989999969
  0.1675406600000002  0.0350915100000009  0.7993043700000015
  0.6229189700000006  0.3815770499999971  0.5113628800000001
  0.0750893680000004  0.8972322600000027  0.7336832800000010
  0.8737050000000011  0.1160605199999978  0.0664792729999988
  0.5638623700000025  0.1742276900000022  0.0853833239999986
  0.8435742799999986  0.7365190599999991  0.6283549500000021
  0.7875804299999984  0.4435684099999975  0.7862566700000002
  0.4302998499999973  0.4073737100000017  0.2020821799999979
  0.1539808200000010  0.9198824300000012  0.4205357100000029
  0.2839718099999970  0.9465853600000003  0.1451634499999983
  0.3438775899999982  0.5495064899999988  0.8500054699999993
  0.2424465599999976  0.5521557499999972  0.3772931900000032
  0.3834053699999984  0.6552380099999979  0.7318420499999974
  0.6320022700000010  0.3308475099999981  0.8227340999999981
  0.3961303600000008  0.9622557400000034  0.2964329500000034
  0.5299400299999988  0.6324100900000005  0.3974840099999994
  0.9011347599999979  0.6442719699999984  0.7989852400000004
  0.7366316800000021  0.1717347299999972  0.4247930599999989
  0.7964040100000034  0.3941995500000033  0.0690531910000018
  0.8175973700000014  0.3932075900000029  0.6076122099999992
  0.0409720190000016  0.8709626099999994  0.2729341000000005
  0.7467239799999987  0.0461750910000021  0.7752119600000000
  0.9756016999999986  0.0577212139999972  0.6837389599999995
  0.9263280799999976  0.3587702700000008  0.3180149100000023
  0.4428787599999993  0.3242635000000007  0.5946616100000028
  0.2793840200000020  0.2255834400000012  0.9524378799999980
  0.2387533599999969  0.4344274099999978  0.7803688899999983
  0.9669373300000004  0.8536026600000000  0.0974693849999966
  0.1796509400000019  0.2739735700000026  0.4369925499999994
  0.3432026699999966  0.1515249600000033  0.0926071620000002
  0.7152143799999990  0.9261781000000013  0.6062811600000018
  0.4088044699999998  0.1659163400000025  0.6940594800000000
  0.1052472499999979  0.9541643600000000  0.1195060399999974
  0.7758789600000000  0.8164706000000024  0.1550181899999998
  0.7587422799999999  0.3771891800000020  0.2483074499999987
  0.7198603800000001  0.0549621629999990  0.3038475899999966
  0.9100342699999970  0.2757601799999989  0.1634193900000014
  0.4648282499999965  0.0799837470000000  0.8547921099999982
  0.0558728860000031  0.7181998399999969  0.7257893700000011
  0.0688014859999981  0.1457113000000021  0.1201999900000033
  0.5976390000000009  0.9111393800000016  0.7622320600000023
  0.9665047399999978  0.2691168200000007  0.6709186200000019
  0.8847074399999997  0.0460429419999997  0.4294657000000015
  0.1760647799999973  0.7519928299999989  0.3339094000000031
  0.6514546900000013  0.7476110400000024  0.6565573299999983
  0.7331442099999990  0.9921711699999989  0.9471980000000002
  0.5287475000000015  0.7106690299999983  0.8240032200000016
  0.2699972799999983  0.8149694900000028  0.9252151700000013
  0.6160654299999990  0.1029323500000032  0.5295689800000005
  0.5670687000000001  0.9868399619999977  0.9975757277999975
  0.3404128999999969  0.7014562399999988  0.3942844800000032
  0.1000455900000006  0.5449412800000033  0.7442991400000025
  0.8985955899999993  0.9342997500000010  0.8306309099999964
  0.2048195100000001  0.6757914299999968  0.8175694099999973
  0.9592879300000021  0.1179399000000032  0.2535713799999968
  0.9948372774999967  0.4559736799999996  0.6006247700000031
  0.4729157100000023  0.0478521969999974  0.4401179600000020
  0.0078381933999978  0.7130662900000004  0.1995395300000027
  0.3790809600000031  0.9619496199999986  0.9913026899999977
  0.4125354299999984  0.5866522000000032  0.2778269000000009
  0.1166261099999986  0.6156739400000006  0.1295758699999965
  0.7346573399999983  0.0190689949999978  0.1218452299999981
  0.5105298599999983  0.5463153800000029  0.0904818039999995
  0.1659189499999982  0.3498388699999992  0.2742076400000002
  0.5175943799999985  0.4991464699999995  0.9214145600000023
  0.9839882200000005  0.5521725500000016  0.2814848900000015
  0.9579033699999968  0.2937509100000000  0.4938055900000009
  0.0186313330000019  0.1606285800000009  0.8249456599999974
  0.6533811700000030  0.2134384599999990  0.2703633300000021
  0.6836185800000010  0.5289959500000023  0.1267182799999986
  0.7324831500000002  0.6698624899999999  0.0292414239999985
  0.4585470500000000  0.8098481600000014  0.9571168100000023
  0.2540028100000029  0.8136065599999966  0.7140953299999993
  0.7033595400000010  0.4632179099999973  0.9501392700000011
  0.7660629599999993  0.8981825199999989  0.4020295700000034
  0.5715253300000001  0.3856971700000003  0.3042547499999984
  0.1221170499999999  0.0413064250000019  0.2822477500000034
  0.8420856700000030  0.1385360599999998  0.8946462800000035
  0.6430897799999968  0.1659037800000007  0.9137761499999968
  0.8575729100000018  0.5687489000000028  0.5385976099999965
  0.8952456900000030  0.9101388799999981  0.5738102999999981
  0.0694757249999967  0.3799568700000009  0.8305313199999986
  0.1759143499999993  0.7935708099999985  0.0954817719999994
  0.4632967499999978  0.5175155700000005  0.5957094500000011
  0.9250112499999972  0.4760294200000033  0.8737883800000006
  0.6803938099999982  0.7304249199999973  0.3965376599999999
  0.8765446499999996  0.9645323299999973  0.2395496500000007
  0.2039461000000031  0.0657632209999974  0.0068734776000028
  0.3614234699999983  0.3726597200000015  0.9089733400000028
  0.6911769600000000  0.6222468100000000  0.8586332699999986
  0.2747851800000021  0.0394178510000032  0.6559301799999986
  0.2490808299999969  0.5030554699999996  0.1916008399999996
  0.1034938999999966  0.8841446599999969  0.9251755700000004
  0.5831519400000005  0.5564222699999988  0.5509820799999972
  0.1301122300000017  0.1506716000000026  0.6703728999999967
  0.8206520999999967  0.6261411799999976  0.3699498499999976
  0.5705786799999970  0.3510999800000008  0.0110082070000033
  0.4502253499999966  0.0212011380000021  0.1473043499999989
  0.3685907200000003  0.2343232200000003  0.4543297100000032
  0.5549341099999978  0.2523350000000022  0.4361378500000015
  0.5877979999999994  0.9371677999999974  0.1875157699999974
  0.0824307700000020  0.4475874700000020  0.4187437000000003
  0.0204145370000006  0.0586551040000032  0.9617512499999989
  0.2851062900000016  0.6151656700000032  0.5613819800000002
  0.4568660099999988  0.8113279499999990  0.6852280900000025
  0.3055476999999982  0.7854928200000018  0.2278290200000015
  0.0989261269999986  0.2497758299999973  0.9753408400000012
  0.8161222399999986  0.1037298700000022  0.5975339599999998
  0.1053862099999989  0.6014898700000018  0.5609486000000032
  0.6696762099999987  0.5492336499999979  0.2936016800000019
  0.2262319100000028  0.6346889599999983  0.9892888999999983
  0.3185521600000030  0.9775965600000021  0.4904948399999967
  0.3366438400000007  0.5104294400000029  0.0454927359999999
  0.0997996729999997  0.1823447000000016  0.5609291000000027
  0.9059361500000023  0.2899207199999978  0.8444595400000026
  0.4691839500000015  0.4284586699999977  0.7533522000000019
  0.5844012199999966  0.2623667399999974  0.6523465699999988
  0.1293190700000011  0.7849900599999984  0.5515817200000015
  0.4746171299999986  0.1851913599999975  0.2652201900000009
  0.0643859079999984  0.4497636199999988  0.1566553600000020
  0.3914420699999965  0.6985384600000017  0.0927589590000011
  0.7313502700000001  0.5727184699999981  0.6750023199999973
  0.7319176099999964  0.2286295099999975  0.1167589599999985
  0.3436789499999975  0.9443501399999974  0.8043954400000004
  0.4555066400000030  0.7007799200000022  0.5446392500000030
  0.9661161300000032  0.3777091099999978  0.0267251550000012
  0.7626054500000023  0.4420863400000030  0.4168047300000026
  0.4679987700000012  0.9983949267000014  0.6353039700000025
  0.0380389230000020  0.6667431799999974  0.4121598400000011
  0.6412432899999985  0.8150258300000033  0.9394852699999987
  0.2827373599999987  0.2171408299999982  0.2695116900000016
  0.8167539900000023  0.8540291300000007  0.9842222199999995
  0.9503568700000002  0.7681345199999967  0.9221156300000004
  0.0367286210000017  0.1675245699999977  0.4170030000000011
  0.0164648240000034  0.8206940399999993  0.5643082200000009
 
  0.00000000E+00  0.00000000E+00  0.00000000E+00
  0.00000000E+00  0.00000000E+00  0.00000000E+00
  0.00000000E+00  0.00000000E+00  0.00000000E+00
  0.00000000E+00  0.00000000E+00  0.00000000E+00
  0.00000000E+00  0.00000000E+00  0.00000000E+00
  0.00000000E+00  0.00000000E+00  0.00000000E+00
  0.00000000E+00  0.00000000E+00  0.00000000E+00
  0.00000000E+00  0.00000000E+00  0.00000000E+00
  0.00000000E+00  0.00000000E+00  0.00000000E+00
  0.00000000E+00  0.00000000E+00  0.00000000E+00
  0.00000000E+00  0.00000000E+00  0.00000000E+00
  0.00000000E+00  0.00000000E+00  0.00000000E+00
  0.00000000E+00  0.00000000E+00  0.00000000E+00
  0.00000000E+00  0.00000000E+00  0.00000000E+00
  0.00000000E+00  0.00000000E+00  0.00000000E+00
  0.00000000E+00  0.00000000E+00  0.00000000E+00
  0.00000000E+00  0.00000000E+00  0.00000000E+00
  0.00000000E+00  0.00000000E+00  0.00000000E+00
  0.00000000E+00  0.00000000E+00  0.00000000E+00
  0.00000000E+00  0.00000000E+00  0.00000000E+00
  0.00000000E+00  0.00000000E+00  0.00000000E+00
  0.00000000E+00  0.00000000E+00  0.00000000E+00
  0.00000000E+00  0.00000000E+00  0.00000000E+00
  0.00000000E+00  0.00000000E+00  0.00000000E+00
  0.00000000E+00  0.00000000E+00  0.00000000E+00
  0.00000000E+00  0.00000000E+00  0.00000000E+00
  0.00000000E+00  0.00000000E+00  0.00000000E+00
  0.00000000E+00  0.00000000E+00  0.00000000E+00
  0.00000000E+00  0.00000000E+00  0.00000000E+00
  0.00000000E+00  0.00000000E+00  0.00000000E+00
  0.00000000E+00  0.00000000E+00  0.00000000E+00
  0.00000000E+00  0.00000000E+00  0.00000000E+00
  0.00000000E+00  0.00000000E+00  0.00000000E+00
  0.00000000E+00  0.00000000E+00  0.00000000E+00
  0.00000000E+00  0.00000000E+00  0.00000000E+00
  0.00000000E+00  0.00000000E+00  0.00000000E+00
  0.00000000E+00  0.00000000E+00  0.00000000E+00
  0.00000000E+00  0.00000000E+00  0.00000000E+00
  0.00000000E+00  0.00000000E+00  0.00000000E+00
  0.00000000E+00  0.00000000E+00  0.00000000E+00
  0.00000000E+00  0.00000000E+00  0.00000000E+00
  0.00000000E+00  0.00000000E+00  0.00000000E+00
  0.00000000E+00  0.00000000E+00  0.00000000E+00
  0.00000000E+00  0.00000000E+00  0.00000000E+00
  0.00000000E+00  0.00000000E+00  0.00000000E+00
  0.00000000E+00  0.00000000E+00  0.00000000E+00
  0.00000000E+00  0.00000000E+00  0.00000000E+00
  0.00000000E+00  0.00000000E+00  0.00000000E+00
  0.00000000E+00  0.00000000E+00  0.00000000E+00
  0.00000000E+00  0.00000000E+00  0.00000000E+00
  0.00000000E+00  0.00000000E+00  0.00000000E+00
  0.00000000E+00  0.00000000E+00  0.00000000E+00
  0.00000000E+00  0.00000000E+00  0.00000000E+00
  0.00000000E+00  0.00000000E+00  0.00000000E+00
  0.00000000E+00  0.00000000E+00  0.00000000E+00
  0.00000000E+00  0.00000000E+00  0.00000000E+00
  0.00000000E+00  0.00000000E+00  0.00000000E+00
  0.00000000E+00  0.00000000E+00  0.00000000E+00
  0.00000000E+00  0.00000000E+00  0.00000000E+00
  0.00000000E+00  0.00000000E+00  0.00000000E+00
  0.00000000E+00  0.00000000E+00  0.00000000E+00
  0.00000000E+00  0.00000000E+00  0.00000000E+00
  0.00000000E+00  0.00000000E+00  0.00000000E+00
  0.00000000E+00  0.00000000E+00  0.00000000E+00
  0.00000000E+00  0.00000000E+00  0.00000000E+00
  0.00000000E+00  0.00000000E+00  0.00000000E+00
  0.00000000E+00  0.00000000E+00  0.00000000E+00
  0.00000000E+00  0.00000000E+00  0.00000000E+00
  0.00000000E+00  0.00000000E+00  0.00000000E+00
  0.00000000E+00  0.00000000E+00  0.00000000E+00
  0.00000000E+00  0.00000000E+00  0.00000000E+00
  0.00000000E+00  0.00000000E+00  0.00000000E+00
  0.00000000E+00  0.00000000E+00  0.00000000E+00
  0.00000000E+00  0.00000000E+00  0.00000000E+00
  0.00000000E+00  0.00000000E+00  0.00000000E+00
  0.00000000E+00  0.00000000E+00  0.00000000E+00
  0.00000000E+00  0.00000000E+00  0.00000000E+00
  0.00000000E+00  0.00000000E+00  0.00000000E+00
  0.00000000E+00  0.00000000E+00  0.00000000E+00
  0.00000000E+00  0.00000000E+00  0.00000000E+00
  0.00000000E+00  0.00000000E+00  0.00000000E+00
  0.00000000E+00  0.00000000E+00  0.00000000E+00
  0.00000000E+00  0.00000000E+00  0.00000000E+00
  0.00000000E+00  0.00000000E+00  0.00000000E+00
  0.00000000E+00  0.00000000E+00  0.00000000E+00
  0.00000000E+00  0.00000000E+00  0.00000000E+00
  0.00000000E+00  0.00000000E+00  0.00000000E+00
  0.00000000E+00  0.00000000E+00  0.00000000E+00
  0.00000000E+00  0.00000000E+00  0.00000000E+00
  0.00000000E+00  0.00000000E+00  0.00000000E+00
  0.00000000E+00  0.00000000E+00  0.00000000E+00
  0.00000000E+00  0.00000000E+00  0.00000000E+00
  0.00000000E+00  0.00000000E+00  0.00000000E+00
  0.00000000E+00  0.00000000E+00  0.00000000E+00
  0.00000000E+00  0.00000000E+00  0.00000000E+00
  0.00000000E+00  0.00000000E+00  0.00000000E+00
  0.00000000E+00  0.00000000E+00  0.00000000E+00
  0.00000000E+00  0.00000000E+00  0.00000000E+00
  0.00000000E+00  0.00000000E+00  0.00000000E+00
  0.00000000E+00  0.00000000E+00  0.00000000E+00
  0.00000000E+00  0.00000000E+00  0.00000000E+00
  0.00000000E+00  0.00000000E+00  0.00000000E+00
  0.00000000E+00  0.00000000E+00  0.00000000E+00
  0.00000000E+00  0.00000000E+00  0.00000000E+00
  0.00000000E+00  0.00000000E+00  0.00000000E+00
  0.00000000E+00  0.00000000E+00  0.00000000E+00
  0.00000000E+00  0.00000000E+00  0.00000000E+00
  0.00000000E+00  0.00000000E+00  0.00000000E+00
  0.00000000E+00  0.00000000E+00  0.00000000E+00
  0.00000000E+00  0.00000000E+00  0.00000000E+00
  0.00000000E+00  0.00000000E+00  0.00000000E+00
  0.00000000E+00  0.00000000E+00  0.00000000E+00
  0.00000000E+00  0.00000000E+00  0.00000000E+00
  0.00000000E+00  0.00000000E+00  0.00000000E+00
  0.00000000E+00  0.00000000E+00  0.00000000E+00
  0.00000000E+00  0.00000000E+00  0.00000000E+00
  0.00000000E+00  0.00000000E+00  0.00000000E+00
  0.00000000E+00  0.00000000E+00  0.00000000E+00
  0.00000000E+00  0.00000000E+00  0.00000000E+00
  0.00000000E+00  0.00000000E+00  0.00000000E+00
  0.00000000E+00  0.00000000E+00  0.00000000E+00
  0.00000000E+00  0.00000000E+00  0.00000000E+00
  0.00000000E+00  0.00000000E+00  0.00000000E+00
  0.00000000E+00  0.00000000E+00  0.00000000E+00
  0.00000000E+00  0.00000000E+00  0.00000000E+00
  0.00000000E+00  0.00000000E+00  0.00000000E+00
  0.00000000E+00  0.00000000E+00  0.00000000E+00
  0.00000000E+00  0.00000000E+00  0.00000000E+00
  0.00000000E+00  0.00000000E+00  0.00000000E+00
  0.00000000E+00  0.00000000E+00  0.00000000E+00
  0.00000000E+00  0.00000000E+00  0.00000000E+00
  0.00000000E+00  0.00000000E+00  0.00000000E+00
  0.00000000E+00  0.00000000E+00  0.00000000E+00
  0.00000000E+00  0.00000000E+00  0.00000000E+00
  0.00000000E+00  0.00000000E+00  0.00000000E+00
  0.00000000E+00  0.00000000E+00  0.00000000E+00
  0.00000000E+00  0.00000000E+00  0.00000000E+00
  0.00000000E+00  0.00000000E+00  0.00000000E+00
  0.00000000E+00  0.00000000E+00  0.00000000E+00
  0.00000000E+00  0.00000000E+00  0.00000000E+00
  0.00000000E+00  0.00000000E+00  0.00000000E+00
  0.00000000E+00  0.00000000E+00  0.00000000E+00
  0.00000000E+00  0.00000000E+00  0.00000000E+00
  0.00000000E+00  0.00000000E+00  0.00000000E+00
  0.00000000E+00  0.00000000E+00  0.00000000E+00
  0.00000000E+00  0.00000000E+00  0.00000000E+00
  0.00000000E+00  0.00000000E+00  0.00000000E+00
  0.00000000E+00  0.00000000E+00  0.00000000E+00
  0.00000000E+00  0.00000000E+00  0.00000000E+00
  0.00000000E+00  0.00000000E+00  0.00000000E+00
  0.00000000E+00  0.00000000E+00  0.00000000E+00
  0.00000000E+00  0.00000000E+00  0.00000000E+00
  0.00000000E+00  0.00000000E+00  0.00000000E+00
  0.00000000E+00  0.00000000E+00  0.00000000E+00
  0.00000000E+00  0.00000000E+00  0.00000000E+00
  0.00000000E+00  0.00000000E+00  0.00000000E+00
  0.00000000E+00  0.00000000E+00  0.00000000E+00
  0.00000000E+00  0.00000000E+00  0.00000000E+00
  0.00000000E+00  0.00000000E+00  0.00000000E+00
  0.00000000E+00  0.00000000E+00  0.00000000E+00
  0.00000000E+00  0.00000000E+00  0.00000000E+00
  0.00000000E+00  0.00000000E+00  0.00000000E+00
  0.00000000E+00  0.00000000E+00  0.00000000E+00
  0.00000000E+00  0.00000000E+00  0.00000000E+00
  0.00000000E+00  0.00000000E+00  0.00000000E+00
  0.00000000E+00  0.00000000E+00  0.00000000E+00
  0.00000000E+00  0.00000000E+00  0.00000000E+00
  0.00000000E+00  0.00000000E+00  0.00000000E+00
  0.00000000E+00  0.00000000E+00  0.00000000E+00
  0.00000000E+00  0.00000000E+00  0.00000000E+00
  0.00000000E+00  0.00000000E+00  0.00000000E+00
  0.00000000E+00  0.00000000E+00  0.00000000E+00
  0.00000000E+00  0.00000000E+00  0.00000000E+00
  0.00000000E+00  0.00000000E+00  0.00000000E+00
  0.00000000E+00  0.00000000E+00  0.00000000E+00
  0.00000000E+00  0.00000000E+00  0.00000000E+00
  0.00000000E+00  0.00000000E+00  0.00000000E+00
  0.00000000E+00  0.00000000E+00  0.00000000E+00
  0.00000000E+00  0.00000000E+00  0.00000000E+00
  0.00000000E+00  0.00000000E+00  0.00000000E+00
  0.00000000E+00  0.00000000E+00  0.00000000E+00
  0.00000000E+00  0.00000000E+00  0.00000000E+00
  0.00000000E+00  0.00000000E+00  0.00000000E+00
  0.00000000E+00  0.00000000E+00  0.00000000E+00
  0.00000000E+00  0.00000000E+00  0.00000000E+00
  0.00000000E+00  0.00000000E+00  0.00000000E+00
  0.00000000E+00  0.00000000E+00  0.00000000E+00
  0.00000000E+00  0.00000000E+00  0.00000000E+00
  0.00000000E+00  0.00000000E+00  0.00000000E+00
  0.00000000E+00  0.00000000E+00  0.00000000E+00
  0.00000000E+00  0.00000000E+00  0.00000000E+00
  0.00000000E+00  0.00000000E+00  0.00000000E+00
  0.00000000E+00  0.00000000E+00  0.00000000E+00
  0.00000000E+00  0.00000000E+00  0.00000000E+00
  0.00000000E+00  0.00000000E+00  0.00000000E+00
  0.00000000E+00  0.00000000E+00  0.00000000E+00
  0.00000000E+00  0.00000000E+00  0.00000000E+00
  0.00000000E+00  0.00000000E+00  0.00000000E+00
  0.00000000E+00  0.00000000E+00  0.00000000E+00
  0.00000000E+00  0.00000000E+00  0.00000000E+00
  0.00000000E+00  0.00000000E+00  0.00000000E+00
  0.00000000E+00  0.00000000E+00  0.00000000E+00
  0.00000000E+00  0.00000000E+00  0.00000000E+00
  0.00000000E+00  0.00000000E+00  0.00000000E+00
  0.00000000E+00  0.00000000E+00  0.00000000E+00
  0.00000000E+00  0.00000000E+00  0.00000000E+00
  0.00000000E+00  0.00000000E+00  0.00000000E+00
  0.00000000E+00  0.00000000E+00  0.00000000E+00
  0.00000000E+00  0.00000000E+00  0.00000000E+00
  0.00000000E+00  0.00000000E+00  0.00000000E+00
  0.00000000E+00  0.00000000E+00  0.00000000E+00
  0.00000000E+00  0.00000000E+00  0.00000000E+00
  0.00000000E+00  0.00000000E+00  0.00000000E+00
  0.00000000E+00  0.00000000E+00  0.00000000E+00
  0.00000000E+00  0.00000000E+00  0.00000000E+00
  0.00000000E+00  0.00000000E+00  0.00000000E+00
  0.00000000E+00  0.00000000E+00  0.00000000E+00
  0.00000000E+00  0.00000000E+00  0.00000000E+00
  0.00000000E+00  0.00000000E+00  0.00000000E+00
  0.00000000E+00  0.00000000E+00  0.00000000E+00
  0.00000000E+00  0.00000000E+00  0.00000000E+00
  0.00000000E+00  0.00000000E+00  0.00000000E+00
  0.00000000E+00  0.00000000E+00  0.00000000E+00
  0.00000000E+00  0.00000000E+00  0.00000000E+00
  0.00000000E+00  0.00000000E+00  0.00000000E+00
  0.00000000E+00  0.00000000E+00  0.00000000E+00
  0.00000000E+00  0.00000000E+00  0.00000000E+00
  0.00000000E+00  0.00000000E+00  0.00000000E+00
  0.00000000E+00  0.00000000E+00  0.00000000E+00
  0.00000000E+00  0.00000000E+00  0.00000000E+00
  0.00000000E+00  0.00000000E+00  0.00000000E+00
  0.00000000E+00  0.00000000E+00  0.00000000E+00