Amorphous Sb                            
   1.00000000000000     
    22.5570374761353136    0.0000000000000000    0.0000000000000000
     0.0000000000000000   22.5570374761353136    0.0000000000000000
     0.0000000000000000    0.0000000000000000   22.5570374761353136
   In   Te
    90   210
Direct
  0.4902153047668018  0.3767378489381936  0.8208403591614856
  0.3825644772401262  0.3588856457733027  0.8828819160541482
  0.6368556089308345  0.2033235455582874  0.0476204829185250
  0.6988251791203564  0.2626943248801952  0.3999426859096938
  0.6516330362458291  0.6248597331306581  0.1038533224429691
  0.1325018542554817  0.9646024653468590  0.7107423995514641
  0.5896093311598306  0.7443565329536341  0.0222615823872412
  0.7905499382862087  0.5243574647341785  0.3084781882159446
  0.7965470740859701  0.1303675375249805  0.9583896219142757
  0.6224208578412521  0.0343278620452595  0.5546936444271515
  0.0527703454761389  0.1402085043154126  0.5667106050391066
  0.4500356808260882  0.9392701870918094  0.6499526797712101
  0.9273021795456315  0.1114999958201448  0.2584709361772994
  0.5383773898955536  0.9291160188566286  0.9952539193218343
  0.0954571133947758  0.4508496159406817  0.3666448247161628
  0.9285826510284507  0.6688946369608921  0.7154113471068777
  0.6409367395117221  0.4289031255503871  0.9373155102147915
  0.4367613725427436  0.3671763910505351  0.4329368730155636
  0.5440859472921186  0.8642549066694531  0.4393742043484010
  0.7178988052984995  0.6376296379557781  0.6077314252184046
  0.6275124199198315  0.5806475286116800  0.8283465726367972
  0.3722915943395240  0.7807145260352333  0.4175245227504267
  0.7065684369357496  0.6891774348703165  0.9023570332729695
  0.3885258028236097  0.9505380588149834  0.8500931387200338
  0.0857763623429409  0.7417074729028745  0.2455847749702249
  0.4155563609526923  0.5627534396395938  0.2880336512503283
  0.3654386145982965  0.8985924308127504  0.1295608426400740
  0.8162794858679041  0.0555403117441349  0.5744616648238826
  0.6966369739110928  0.6337548443721361  0.4192708751308562
  0.3256316437399679  0.9584608797275557  0.6793018753811266
  0.0777137459965317  0.9829935574901573  0.2815626360232585
  0.1201040532032637  0.5398189595967701  0.0161191501453928
  0.4426219511917198  0.1187477979135319  0.2747176386015104
  0.6442322484049046  0.9542652017668055  0.2347021250866404
  0.2767155957968269  0.7010786718847777  0.2605223283375738
  0.4240908944143278  0.7434203819383074  0.9353929170892576
  0.7297612857803497  0.4331103181677646  0.6452108407242406
  0.2800275179942875  0.2174251620932302  0.1995511755554626
  0.8101846115081616  0.9634588138944911  0.6594979834612796
  0.8271995636081948  0.5869051052913933  0.5744456429687486
  0.7222724263699520  0.0890263991823129  0.2908152690981561
  0.2556204102685355  0.7685653090419742  0.4648374358304531
  0.0922234449722435  0.2389740857056522  0.9933158015870696
  0.1787572628102488  0.9722132079028066  0.5168889534062902
  0.2225251086810408  0.1353706542467116  0.3552568249568131
  0.7592173248176250  0.7767030930145338  0.7075893226595047
  0.3520949553745700  0.1321243261499624  0.7356049738706547
  0.0851298829342143  0.1457357013515750  0.2492359344550631
  0.0670417055019967  0.8417562578786314  0.4911627962045297
  0.5768498250384931  0.7292878820299394  0.6931920070013534
  0.4801205861038212  0.6187350983577697  0.0813577910213670
  0.0630760146922371  0.0296348092498161  0.8447626516544002
  0.1000220012365756  0.7801963906160595  0.0126089778259082
  0.5238599387320194  0.2218089885203766  0.5308650565854023
  0.9267479396224313  0.7465779502323615  0.0385569640091615
  0.9967874562354133  0.9582004810792286  0.5917408046187076
  0.8798753208328604  0.3219071380669458  0.6882729951839176
  0.8666923272223440  0.6419563112037809  0.8654056391403548
  0.1647758012523807  0.4554391066041151  0.8742171694502133
  0.9542448709099459  0.8836673308912972  0.4420392790741002
  0.2206679245041761  0.4328000982304382  0.3504150434616117
  0.9586085648109374  0.3318863990812567  0.1875943856296503
  0.6931906782219235  0.7565422522065059  0.1722425476383092
  0.2327525903655479  0.6522047373299851  0.9502469609873608
  0.3807411030229340  0.6324304422646086  0.6434398023627314
  0.7779127592363443  0.4346749834876849  0.0572760723937128
  0.3254296924704130  0.3300324400618164  0.0707117099302494
  0.4721086159524201  0.4479240541269190  0.0278673217025160
  0.5710755448510851  0.1609120935374960  0.3035428370669367
  0.1102089627188708  0.2939062734778235  0.7562778969976794
  0.7678860558428785  0.1922408630430643  0.7480641810005729
  0.6221624257932568  0.1530468978735514  0.8638102313448449
  0.8391191940557615  0.9485801144333742  0.2378968039594087
  0.7677617190115021  0.8259826776892553  0.4748676406556479
  0.4021423387998286  0.8125999292243495  0.7675086060543431
  0.1005130012312779  0.2351208838439074  0.4105875761532137
  0.8404406465504658  0.3734699422253451  0.2158245093898302
  0.8267944407925317  0.3607375625418572  0.3899462888321811
  0.3183102613510223  0.1309360524860536  0.5446371765694096
  0.1238878963436059  0.8685300551808164  0.7984128015100908
  0.9047065783636692  0.7096224500789268  0.4562724899736404
  0.8123353749018484  0.1541477662699109  0.4227729129946227
  0.7197353851964532  0.6258061857920434  0.2151367922057333
  0.7209972611933976  0.9391811463025597  0.8068375695289952
  0.2463199707732446  0.3406350118856242  0.5750617552944193
  0.6526080023254514  0.4844028653443270  0.5581668803351756
  0.8216001833170606  0.3756757530251915  0.8572716638976003
  0.9260034022645760  0.8609560111819796  0.2542974318287512
  0.1048852220339576  0.6462967062078826  0.3837815412592024
  0.2564508594971001  0.9980216156877488  0.2135440215828451
  0.8941011849740874  0.9808011849141266  0.3836663346099419
  0.7139755490869155  0.7310088538749908  0.0346973119791526
  0.5645055804246482  0.7994324532727193  0.5888988015332470
  0.0807420463134237  0.4586300561386991  0.7721326228791433
  0.6813457168499099  0.8874494936443740  0.1306804021085729
  0.0183949231471318  0.3398088413998391  0.9685560565235849
  0.2273743851413595  0.7761007956757008  0.7950631008044697
  0.7955857838070336  0.0450808814955736  0.7696430836195600
  0.2713460296889899  0.2253408930811529  0.7187593456795188
  0.7521320114383268  0.9506141820984805  0.4852468583984158
  0.0191476180217252  0.7988777900008583  0.1180886232577155
  0.7281522586763304  0.4915818203636894  0.7635191094604141
  0.1382976886687662  0.5838354076093983  0.8976690018014299
  0.5405676407396361  0.4239141228701520  0.5558446881658717
  0.5540158851371463  0.0100669919151550  0.6614075896100616
  0.8643801775150841  0.6541769182564093  0.0955170187398285
  0.8405408726623961  0.4931811360840583  0.1520317532513177
  0.9972356801140955  0.7077043034757347  0.3686488193670290
  0.2193751652851256  0.0125307009983548  0.6291963357569257
  0.3740964735309163  0.3981140588996087  0.3254422614342928
  0.3397067618526645  0.1771206565920851  0.3385140298754858
  0.8439985219140542  0.7682998597036907  0.1968740775105162
  0.8867228676242662  0.2792546498936522  0.8067940750243798
  0.6276119257652719  0.9047711984234902  0.7160794774276117
  0.3140773527425114  0.2529687375451303  0.8722557385582436
  0.6244908802157928  0.6124353921455389  0.6918229675195342
  0.2114377698948543  0.7501121509797186  0.5848870029782551
  0.3727520025645070  0.5295608197969537  0.7393386927188923
  0.2262237541276776  0.6000379516672349  0.0693689866907971
  0.2537609633121111  0.6178868207009561  0.4937982747047551
  0.6827339401270436  0.1354967252917056  0.4048795643085529
  0.4818954210297601  0.6677287419890315  0.2943475958043044
  0.0352392684944031  0.3705681275232770  0.0897088145592472
  0.6313143895554636  0.0769591258144516  0.2050124210805060
  0.5640155767936091  0.6249679952029824  0.9815237464041151
  0.4606931600999807  0.7029311775628204  0.7459225282276042
  0.5103541176465295  0.0946944723199575  0.5097467450399011
  0.9613591326695100  0.8794136373037098  0.9542009936685144
  0.8003102272366950  0.2672708731042934  0.4799205790800839
  0.2298432669862091  0.7771789350327060  0.1692690518254926
  0.9869838571958074  0.6236364916929642  0.8236471982541570
  0.9240682749081488  0.4442375273844217  0.6829495885567790
  0.1406411654969749  0.4279024169427725  0.1924212346568622
  0.8265307104499561  0.8738344482229260  0.7490117254416649
  0.1500539750354525  0.6920334413317724  0.7457472630507930
  0.3845811610515817  0.7118992912541945  0.0518745719413354
  0.2440847371575749  0.3363750616476204  0.4323796627056324
  0.0839738716886446  0.9131519769581217  0.9914569716207114
  0.3950798485548397  0.6141063103866201  0.4990594617320649
  0.6317776956049251  0.2577571677337528  0.5806191122788804
  0.8421593109212933  0.8236218654128101  0.9767471360287071
  0.1981006175843645  0.0122510751592789  0.3241398243602267
  0.4201035994371837  0.1946256526754359  0.9076688063828358
  0.1701512377197583  0.1462974992297485  0.4684742355920679
  0.0178336060119199  0.6973895422456174  0.9653612550717984
  0.5600108196756406  0.8775215648375662  0.2919110523748757
  0.1518486521157899  0.6886977280237726  0.1175367057869754
  0.6533986897059026  0.7873073504438470  0.7777860048960156
  0.6442240403442528  0.9911427517935330  0.9628539781312739
  0.6932490908163339  0.3841754948995562  0.8237912439584618
  0.0593629195849186  0.3691268520349081  0.2694767596480872
  0.3910300027104540  0.7542644289040138  0.2893233764487045
  0.7422935206837434  0.3353652286642556  0.1264187999072587
  0.5671526695984017  0.1271898591016526  0.9778296264474224
  0.0972578730022244  0.7220151135808472  0.5547509867953310
  0.6738273099020221  0.0714841867765328  0.7176890389483606
  0.2932548575376698  0.9474884707704740  0.0354828076247542
  0.8142095199398031  0.2736330496863231  0.0354138352829926
  0.5787914181551952  0.2932665769527710  0.8703542278115718
  0.6632296116445804  0.7660942859745808  0.4295020043220394
  0.8221162298453994  0.1689014254645107  0.2943493915214350
  0.3044773583212351  0.8830025016015207  0.2363499217264929
  0.8426116420832644  0.4590587171533324  0.5784614196657368
  0.4127127348080091  0.2495737351450052  0.5886642030575251
  0.0824286134743567  0.8708722615029769  0.6209625693259107
  0.9878111689193577  0.5924018272159877  0.2544594635146083
  0.2612051073129224  0.4415235510266453  0.0601950238090730
  0.7246217578939417  0.4929733052548000  0.2013524790736536
  0.0588589599444820  0.0117474043454315  0.4941942648434829
  0.1874746322753039  0.0049350778565330  0.1087514253202188
  0.4419266131635058  0.8251408911294731  0.5943098936166223
  0.3893754250342205  0.3042128548792000  0.1823948724329822
  0.2952469906068459  0.5761133130021642  0.2411579847760194
  0.5536381354555453  0.4643640312965246  0.7474783787671243
  0.4613569006709494  0.1625379418376274  0.7972531706843978
  0.2409812225817326  0.5934559182350392  0.6346782826190849
  0.6901813658476639  0.5143884589564270  0.0174080095304631
  0.8633538618878666  0.3881046434500526  0.9768569076264467
  0.5556558553206394  0.5407863677013538  0.1653290572450593
  0.9975986177074454  0.9534031966938662  0.7655156172005684
  0.8950304862355378  0.2084856964729334  0.9440783100793726
  0.7437314776046356  0.3342438072788382  0.2994356594479829
  0.9872925746553755  0.2037948988524985  0.1933433794443176
  0.0297153904219641  0.7887186804012769  0.8346965269079685
  0.9819265908858108  0.9170876196141008  0.1428941582435776
  0.7851637439332485  0.5709452119805194  0.9283730520187236
  0.3883560689023169  0.3671408568266766  0.5508663919855228
  0.8930767997106945  0.5761886212507893  0.0011007408322540
  0.8995462695262807  0.0719779512671394  0.4716027638113015
  0.5228163107434377  0.0520464750085035  0.3925303314306990
  0.4433285344409222  0.0032526445137663  0.1542438372239106
  0.7169416206510908  0.7654536469152436  0.5874567070185025
  0.6262401431222643  0.6055422260824616  0.5212623017239342
  0.1647338438197651  0.3955771818437644  0.6957618892047649
  0.3160872499757164  0.4943077671281988  0.6284288154008160
  0.3664109478357753  0.9389523328899828  0.5180803835573605
  0.8936332556917059  0.8849997083428136  0.5612274504590129
  0.1916570291654124  0.7346892288359433  0.3521482064113868
  0.0628386150561427  0.1824875680687389  0.7138656280327758
  0.9475437852338547  0.6199384604115433  0.6006187785709349
  0.4631037793198575  0.2096558604783052  0.1467259591659140
  0.4102254842402960  0.5617640565096962  0.8759759781708737
  0.4545924263004105  0.0134926622104819  0.9393969582016262
  0.8246481602462877  0.7623262262118353  0.8702631061590533
  0.8587262207885240  0.4878764387423576  0.7980038768950646
  0.9759382791007316  0.2723354997440174  0.6186455074730209
  0.9761458566440476  0.5034885798409295  0.8578531053405345
  0.3188634168893867  0.4713692948016411  0.9046868499653176
  0.6950901152425969  0.8843862592584275  0.9204702132588829
  0.5916998783088073  0.3515675036855439  0.6561580516641223
  0.8258514921779001  0.6419928671996641  0.2809571981558753
  0.0831029954763521  0.0444030096136265  0.1696002530114919
  0.5349555578089342  0.8174734499704939  0.9345130001741345
  0.9263892945205269  0.7553753074706565  0.5735808490905143
  0.0406805074924603  0.1256938802327554  0.0263556117202203
  0.4303969580107070  0.3314657309452437  0.0004757785895009
  0.8095048157975797  0.8700576796870167  0.1325041484636549
  0.5090029998630223  0.4731394079968355  0.4329396983028586
  0.4629542247566846  0.7129792629718050  0.4732073400150826
  0.2075037323596202  0.5829883274637127  0.7589693644392147
  0.6247737483325871  0.0291562646999118  0.8306731399719907
  0.9495070937112300  0.3190944593571170  0.3598942186203528
  0.2106356991924333  0.7752526508867745  0.9539706241208289
  0.6973389678431663  0.9252189091656555  0.6021069030409981
  0.9114268035028207  0.9593851822064433  0.0368142506877294
  0.8897007723891315  0.4520366149302679  0.3220354687136271
  0.0169180831466143  0.5915665501991062  0.0697414916181221
  0.9101764370802059  0.1451699759385328  0.6011943770726450
  0.4615759589226414  0.4530912581103033  0.2527095149814088
  0.3884943693278997  0.5326738991571186  0.0628739497267109
  0.9908269935514470  0.7786054934983025  0.7153382219338390
  0.8138058693669694  0.0065807328954461  0.9502631261529605
  0.6542639400543903  0.7884009190976341  0.3061393245589388
  0.2508561128951719  0.3888126290163115  0.2340757159758834
  0.0195890875904723  0.0807134745500292  0.3395918747271077
  0.1623016620103379  0.2320445874525971  0.2946516141649932
  0.8041036437697383  0.6615449785533680  0.7430373217408924
  0.3707144776025842  0.2103198574102989  0.4590893648048046
  0.1252208419955056  0.6043884261776556  0.5007340180682162
  0.4699109608821952  0.4927168862749148  0.6606526102694749
  0.4052966046930969  0.9042272914475049  0.4059096117223464
  0.3003754683650643  0.0220818441294679  0.7922433601007706
  0.5113882907772905  0.2731577982108415  0.7312162248256204
  0.1227466904611085  0.3463193206246626  0.4656752436079823
  0.1517999171329207  0.2804259169181354  0.0968614860880765
  0.5248677478516841  0.4764003801047705  0.9133146825520451
  0.9663280448121213  0.0488403719105330  0.6749355024896906
  0.2277000787331021  0.1983610546227654  0.6029114416189499
  0.9757562030692905  0.0723113190165743  0.9218159213713609
  0.2601426840310748  0.4369582340157532  0.7911030337600594
  0.7099355641188192  0.1244417345597762  0.5708630286398814
  0.9391466689364613  0.1933454982905844  0.0596306715716148
  0.7325001519403459  0.2080632532131749  0.8834943632148748
  0.4491628228597478  0.8117633142618936  0.0983318007085203
  0.2984391405939509  0.8256725219353013  0.6952504590606834
  0.1522056043692142  0.1954279944728999  0.8945541860387546
  0.1552512898143955  0.9504036307728041  0.8969804434231903
  0.4615790970209920  0.9787006059764071  0.2778906520459754
  0.0216960160321768  0.3909402176466621  0.6080753749273837
  0.5079872584493348  0.2631243636577439  0.4090626156235955
  0.7424481954597343  0.9649159435886162  0.3160443486115648
  0.2592043409766426  0.5623624030792697  0.3665979018351025
  0.9800300308562265  0.3764760829179284  0.4841659341387447
  0.7544946601317275  0.1627444031401691  0.0765397417428525
  0.1867103831584564  0.3079532636519445  0.8575354799866063
  0.0413630731543617  0.8652368296787950  0.3122674540366823
  0.3862224597326038  0.5181315923881962  0.4112369705270432
  0.1384122923096715  0.0934737250810602  0.7657995896800158
  0.6184553685067328  0.1842769179126479  0.7359556286333715
  0.5664413409310132  0.4316328167052063  0.1101042400421895
  0.8950943635230714  0.9927521025328913  0.8488651218744168
  0.6902637183748501  0.5040252396018912  0.3823143928139773
  0.2893494303648944  0.0288519457036515  0.4692938460349901
  0.9977528531287544  0.5063313881441416  0.1632474794565344
  0.7507600386658183  0.4359039711087577  0.4748469695091710
  0.1525682948923456  0.4144113523153927  0.0002891271961363
  0.7588531078464472  0.3120548082357202  0.6629509811501346
  0.6030404870666763  0.3201651452137304  0.9925338749258829
  0.0045597414332586  0.4904104920587375  0.4460900174825336
  0.6306357453510302  0.6117373999637915  0.3095330613088548
  0.1795114427899079  0.8739521130116689  0.4374576450558300
  0.3436254144379773  0.0870364098777689  0.1835808748043045
  0.5410537813053261  0.9144323968273030  0.1201442650928209
  0.8603772617749961  0.8067424795089434  0.3886424280626265
  0.8931479003463240  0.0357970550296914  0.1657267913366166
  0.0044495194489060  0.3600417307462729  0.7999282067647044
  0.3667856495048935  0.0447788709666405  0.0229368310972560
  0.4081077369814817  0.0995753545960424  0.6277948406231230
  0.6036778940993691  0.3419928356464259  0.3895390952544591
  0.1053129276469199  0.5646642588518996  0.2887825592493182
  0.5581637566581615  0.7169296298389692  0.1421439365864051
  0.4818677842682684  0.9088292172754610  0.7766370761171326
  0.8247717177182243  0.6112423110453460  0.4473808751329984
  0.9754108119772598  0.2139904659056880  0.4188316532629382
  0.3312129544212729  0.6610984677719326  0.8680712437605084
  0.5807021600537947  0.2461969597935567  0.1555422419647377
  0.5088973070794081  0.6641711872697572  0.8667846996967432
  0.6311488936156635  0.9808008740755038  0.4368895078443925
  0.3437737170689379  0.8335662337327312  0.8808448037781070
  0.2584604308981859  0.2238645767947328  0.0604562011332756
 
  0.00000000E+00  0.00000000E+00  0.00000000E+00
  0.00000000E+00  0.00000000E+00  0.00000000E+00
  0.00000000E+00  0.00000000E+00  0.00000000E+00
  0.00000000E+00  0.00000000E+00  0.00000000E+00
  0.00000000E+00  0.00000000E+00  0.00000000E+00
  0.00000000E+00  0.00000000E+00  0.00000000E+00
  0.00000000E+00  0.00000000E+00  0.00000000E+00
  0.00000000E+00  0.00000000E+00  0.00000000E+00
  0.00000000E+00  0.00000000E+00  0.00000000E+00
  0.00000000E+00  0.00000000E+00  0.00000000E+00
  0.00000000E+00  0.00000000E+00  0.00000000E+00
  0.00000000E+00  0.00000000E+00  0.00000000E+00
  0.00000000E+00  0.00000000E+00  0.00000000E+00
  0.00000000E+00  0.00000000E+00  0.00000000E+00
  0.00000000E+00  0.00000000E+00  0.00000000E+00
  0.00000000E+00  0.00000000E+00  0.00000000E+00
  0.00000000E+00  0.00000000E+00  0.00000000E+00
  0.00000000E+00  0.00000000E+00  0.00000000E+00
  0.00000000E+00  0.00000000E+00  0.00000000E+00
  0.00000000E+00  0.00000000E+00  0.00000000E+00
  0.00000000E+00  0.00000000E+00  0.00000000E+00
  0.00000000E+00  0.00000000E+00  0.00000000E+00
  0.00000000E+00  0.00000000E+00  0.00000000E+00
  0.00000000E+00  0.00000000E+00  0.00000000E+00
  0.00000000E+00  0.00000000E+00  0.00000000E+00
  0.00000000E+00  0.00000000E+00  0.00000000E+00
  0.00000000E+00  0.00000000E+00  0.00000000E+00
  0.00000000E+00  0.00000000E+00  0.00000000E+00
  0.00000000E+00  0.00000000E+00  0.00000000E+00
  0.00000000E+00  0.00000000E+00  0.00000000E+00
  0.00000000E+00  0.00000000E+00  0.00000000E+00
  0.00000000E+00  0.00000000E+00  0.00000000E+00
  0.00000000E+00  0.00000000E+00  0.00000000E+00
  0.00000000E+00  0.00000000E+00  0.00000000E+00
  0.00000000E+00  0.00000000E+00  0.00000000E+00
  0.00000000E+00  0.00000000E+00  0.00000000E+00
  0.00000000E+00  0.00000000E+00  0.00000000E+00
  0.00000000E+00  0.00000000E+00  0.00000000E+00
  0.00000000E+00  0.00000000E+00  0.00000000E+00
  0.00000000E+00  0.00000000E+00  0.00000000E+00
  0.00000000E+00  0.00000000E+00  0.00000000E+00
  0.00000000E+00  0.00000000E+00  0.00000000E+00
  0.00000000E+00  0.00000000E+00  0.00000000E+00
  0.00000000E+00  0.00000000E+00  0.00000000E+00
  0.00000000E+00  0.00000000E+00  0.00000000E+00
  0.00000000E+00  0.00000000E+00  0.00000000E+00
  0.00000000E+00  0.00000000E+00  0.00000000E+00
  0.00000000E+00  0.00000000E+00  0.00000000E+00
  0.00000000E+00  0.00000000E+00  0.00000000E+00
  0.00000000E+00  0.00000000E+00  0.00000000E+00
  0.00000000E+00  0.00000000E+00  0.00000000E+00
  0.00000000E+00  0.00000000E+00  0.00000000E+00
  0.00000000E+00  0.00000000E+00  0.00000000E+00
  0.00000000E+00  0.00000000E+00  0.00000000E+00
  0.00000000E+00  0.00000000E+00  0.00000000E+00
  0.00000000E+00  0.00000000E+00  0.00000000E+00
  0.00000000E+00  0.00000000E+00  0.00000000E+00
  0.00000000E+00  0.00000000E+00  0.00000000E+00
  0.00000000E+00  0.00000000E+00  0.00000000E+00
  0.00000000E+00  0.00000000E+00  0.00000000E+00
  0.00000000E+00  0.00000000E+00  0.00000000E+00
  0.00000000E+00  0.00000000E+00  0.00000000E+00
  0.00000000E+00  0.00000000E+00  0.00000000E+00
  0.00000000E+00  0.00000000E+00  0.00000000E+00
  0.00000000E+00  0.00000000E+00  0.00000000E+00
  0.00000000E+00  0.00000000E+00  0.00000000E+00
  0.00000000E+00  0.00000000E+00  0.00000000E+00
  0.00000000E+00  0.00000000E+00  0.00000000E+00
  0.00000000E+00  0.00000000E+00  0.00000000E+00
  0.00000000E+00  0.00000000E+00  0.00000000E+00
  0.00000000E+00  0.00000000E+00  0.00000000E+00
  0.00000000E+00  0.00000000E+00  0.00000000E+00
  0.00000000E+00  0.00000000E+00  0.00000000E+00
  0.00000000E+00  0.00000000E+00  0.00000000E+00
  0.00000000E+00  0.00000000E+00  0.00000000E+00
  0.00000000E+00  0.00000000E+00  0.00000000E+00
  0.00000000E+00  0.00000000E+00  0.00000000E+00
  0.00000000E+00  0.00000000E+00  0.00000000E+00
  0.00000000E+00  0.00000000E+00  0.00000000E+00
  0.00000000E+00  0.00000000E+00  0.00000000E+00
  0.00000000E+00  0.00000000E+00  0.00000000E+00
  0.00000000E+00  0.00000000E+00  0.00000000E+00
  0.00000000E+00  0.00000000E+00  0.00000000E+00
  0.00000000E+00  0.00000000E+00  0.00000000E+00
  0.00000000E+00  0.00000000E+00  0.00000000E+00
  0.00000000E+00  0.00000000E+00  0.00000000E+00
  0.00000000E+00  0.00000000E+00  0.00000000E+00
  0.00000000E+00  0.00000000E+00  0.00000000E+00
  0.00000000E+00  0.00000000E+00  0.00000000E+00
  0.00000000E+00  0.00000000E+00  0.00000000E+00
  0.00000000E+00  0.00000000E+00  0.00000000E+00
  0.00000000E+00  0.00000000E+00  0.00000000E+00
  0.00000000E+00  0.00000000E+00  0.00000000E+00
  0.00000000E+00  0.00000000E+00  0.00000000E+00
  0.00000000E+00  0.00000000E+00  0.00000000E+00
  0.00000000E+00  0.00000000E+00  0.00000000E+00
  0.00000000E+00  0.00000000E+00  0.00000000E+00
  0.00000000E+00  0.00000000E+00  0.00000000E+00
  0.00000000E+00  0.00000000E+00  0.00000000E+00
  0.00000000E+00  0.00000000E+00  0.00000000E+00
  0.00000000E+00  0.00000000E+00  0.00000000E+00
  0.00000000E+00  0.00000000E+00  0.00000000E+00
  0.00000000E+00  0.00000000E+00  0.00000000E+00
  0.00000000E+00  0.00000000E+00  0.00000000E+00
  0.00000000E+00  0.00000000E+00  0.00000000E+00
  0.00000000E+00  0.00000000E+00  0.00000000E+00
  0.00000000E+00  0.00000000E+00  0.00000000E+00
  0.00000000E+00  0.00000000E+00  0.00000000E+00
  0.00000000E+00  0.00000000E+00  0.00000000E+00
  0.00000000E+00  0.00000000E+00  0.00000000E+00
  0.00000000E+00  0.00000000E+00  0.00000000E+00
  0.00000000E+00  0.00000000E+00  0.00000000E+00
  0.00000000E+00  0.00000000E+00  0.00000000E+00
  0.00000000E+00  0.00000000E+00  0.00000000E+00
  0.00000000E+00  0.00000000E+00  0.00000000E+00
  0.00000000E+00  0.00000000E+00  0.00000000E+00
  0.00000000E+00  0.00000000E+00  0.00000000E+00
  0.00000000E+00  0.00000000E+00  0.00000000E+00
  0.00000000E+00  0.00000000E+00  0.00000000E+00
  0.00000000E+00  0.00000000E+00  0.00000000E+00
  0.00000000E+00  0.00000000E+00  0.00000000E+00
  0.00000000E+00  0.00000000E+00  0.00000000E+00
  0.00000000E+00  0.00000000E+00  0.00000000E+00
  0.00000000E+00  0.00000000E+00  0.00000000E+00
  0.00000000E+00  0.00000000E+00  0.00000000E+00
  0.00000000E+00  0.00000000E+00  0.00000000E+00
  0.00000000E+00  0.00000000E+00  0.00000000E+00
  0.00000000E+00  0.00000000E+00  0.00000000E+00
  0.00000000E+00  0.00000000E+00  0.00000000E+00
  0.00000000E+00  0.00000000E+00  0.00000000E+00
  0.00000000E+00  0.00000000E+00  0.00000000E+00
  0.00000000E+00  0.00000000E+00  0.00000000E+00
  0.00000000E+00  0.00000000E+00  0.00000000E+00
  0.00000000E+00  0.00000000E+00  0.00000000E+00
  0.00000000E+00  0.00000000E+00  0.00000000E+00
  0.00000000E+00  0.00000000E+00  0.00000000E+00
  0.00000000E+00  0.00000000E+00  0.00000000E+00
  0.00000000E+00  0.00000000E+00  0.00000000E+00
  0.00000000E+00  0.00000000E+00  0.00000000E+00
  0.00000000E+00  0.00000000E+00  0.00000000E+00
  0.00000000E+00  0.00000000E+00  0.00000000E+00
  0.00000000E+00  0.00000000E+00  0.00000000E+00
  0.00000000E+00  0.00000000E+00  0.00000000E+00
  0.00000000E+00  0.00000000E+00  0.00000000E+00
  0.00000000E+00  0.00000000E+00  0.00000000E+00
  0.00000000E+00  0.00000000E+00  0.00000000E+00
  0.00000000E+00  0.00000000E+00  0.00000000E+00
  0.00000000E+00  0.00000000E+00  0.00000000E+00
  0.00000000E+00  0.00000000E+00  0.00000000E+00
  0.00000000E+00  0.00000000E+00  0.00000000E+00
  0.00000000E+00  0.00000000E+00  0.00000000E+00
  0.00000000E+00  0.00000000E+00  0.00000000E+00
  0.00000000E+00  0.00000000E+00  0.00000000E+00
  0.00000000E+00  0.00000000E+00  0.00000000E+00
  0.00000000E+00  0.00000000E+00  0.00000000E+00
  0.00000000E+00  0.00000000E+00  0.00000000E+00
  0.00000000E+00  0.00000000E+00  0.00000000E+00
  0.00000000E+00  0.00000000E+00  0.00000000E+00
  0.00000000E+00  0.00000000E+00  0.00000000E+00
  0.00000000E+00  0.00000000E+00  0.00000000E+00
  0.00000000E+00  0.00000000E+00  0.00000000E+00
  0.00000000E+00  0.00000000E+00  0.00000000E+00
  0.00000000E+00  0.00000000E+00  0.00000000E+00
  0.00000000E+00  0.00000000E+00  0.00000000E+00
  0.00000000E+00  0.00000000E+00  0.00000000E+00
  0.00000000E+00  0.00000000E+00  0.00000000E+00
  0.00000000E+00  0.00000000E+00  0.00000000E+00
  0.00000000E+00  0.00000000E+00  0.00000000E+00
  0.00000000E+00  0.00000000E+00  0.00000000E+00
  0.00000000E+00  0.00000000E+00  0.00000000E+00
  0.00000000E+00  0.00000000E+00  0.00000000E+00
  0.00000000E+00  0.00000000E+00  0.00000000E+00
  0.00000000E+00  0.00000000E+00  0.00000000E+00
  0.00000000E+00  0.00000000E+00  0.00000000E+00
  0.00000000E+00  0.00000000E+00  0.00000000E+00
  0.00000000E+00  0.00000000E+00  0.00000000E+00
  0.00000000E+00  0.00000000E+00  0.00000000E+00
  0.00000000E+00  0.00000000E+00  0.00000000E+00
  0.00000000E+00  0.00000000E+00  0.00000000E+00
  0.00000000E+00  0.00000000E+00  0.00000000E+00
  0.00000000E+00  0.00000000E+00  0.00000000E+00
  0.00000000E+00  0.00000000E+00  0.00000000E+00
  0.00000000E+00  0.00000000E+00  0.00000000E+00
  0.00000000E+00  0.00000000E+00  0.00000000E+00
  0.00000000E+00  0.00000000E+00  0.00000000E+00
  0.00000000E+00  0.00000000E+00  0.00000000E+00
  0.00000000E+00  0.00000000E+00  0.00000000E+00
  0.00000000E+00  0.00000000E+00  0.00000000E+00
  0.00000000E+00  0.00000000E+00  0.00000000E+00
  0.00000000E+00  0.00000000E+00  0.00000000E+00
  0.00000000E+00  0.00000000E+00  0.00000000E+00
  0.00000000E+00  0.00000000E+00  0.00000000E+00
  0.00000000E+00  0.00000000E+00  0.00000000E+00
  0.00000000E+00  0.00000000E+00  0.00000000E+00
  0.00000000E+00  0.00000000E+00  0.00000000E+00
  0.00000000E+00  0.00000000E+00  0.00000000E+00
  0.00000000E+00  0.00000000E+00  0.00000000E+00
  0.00000000E+00  0.00000000E+00  0.00000000E+00
  0.00000000E+00  0.00000000E+00  0.00000000E+00
  0.00000000E+00  0.00000000E+00  0.00000000E+00
  0.00000000E+00  0.00000000E+00  0.00000000E+00
  0.00000000E+00  0.00000000E+00  0.00000000E+00
  0.00000000E+00  0.00000000E+00  0.00000000E+00
  0.00000000E+00  0.00000000E+00  0.00000000E+00
  0.00000000E+00  0.00000000E+00  0.00000000E+00
  0.00000000E+00  0.00000000E+00  0.00000000E+00
  0.00000000E+00  0.00000000E+00  0.00000000E+00
  0.00000000E+00  0.00000000E+00  0.00000000E+00
  0.00000000E+00  0.00000000E+00  0.00000000E+00
  0.00000000E+00  0.00000000E+00  0.00000000E+00
  0.00000000E+00  0.00000000E+00  0.00000000E+00
  0.00000000E+00  0.00000000E+00  0.00000000E+00
  0.00000000E+00  0.00000000E+00  0.00000000E+00
  0.00000000E+00  0.00000000E+00  0.00000000E+00
  0.00000000E+00  0.00000000E+00  0.00000000E+00
  0.00000000E+00  0.00000000E+00  0.00000000E+00
  0.00000000E+00  0.00000000E+00  0.00000000E+00
  0.00000000E+00  0.00000000E+00  0.00000000E+00
  0.00000000E+00  0.00000000E+00  0.00000000E+00
  0.00000000E+00  0.00000000E+00  0.00000000E+00
  0.00000000E+00  0.00000000E+00  0.00000000E+00
  0.00000000E+00  0.00000000E+00  0.00000000E+00
  0.00000000E+00  0.00000000E+00  0.00000000E+00
  0.00000000E+00  0.00000000E+00  0.00000000E+00
  0.00000000E+00  0.00000000E+00  0.00000000E+00
  0.00000000E+00  0.00000000E+00  0.00000000E+00
  0.00000000E+00  0.00000000E+00  0.00000000E+00
  0.00000000E+00  0.00000000E+00  0.00000000E+00
  0.00000000E+00  0.00000000E+00  0.00000000E+00
  0.00000000E+00  0.00000000E+00  0.00000000E+00
  0.00000000E+00  0.00000000E+00  0.00000000E+00
  0.00000000E+00  0.00000000E+00  0.00000000E+00