Sb                                      
   1.00000000000000     
    18.9319575965077718    0.0000000000000000    0.0000000000000000
     0.0000000000000000   18.9319575965077718    0.0000000000000000
     0.0000000000000000    0.0000000000000000   18.9319575965077718
   Sb   Ge
   195    21
Direct
  0.8295298421089762  0.1284500225367293  0.4577619742860188
  0.9614860176615496  0.8177324414814856  0.2591362912668815
  0.4215908104324393  0.4874597434547119  0.9363762526560533
  0.7029971107188934  0.1805856256918245  0.9880496106533817
  0.8816174014798686  0.4711408934545129  0.2091414163894815
  0.5042359360034065  0.1130877326405424  0.7182454820008939
  0.3436374418670888  0.6358018543136827  0.3124569398995331
  0.3108521158377319 -0.0027035261501934  0.1642883871148552
  0.0455853511251539  0.2008931800552354  0.2374909535225453
  0.6600881014498907  0.9152396441691880  0.1069287741592060
  0.8696382076896289  0.1891179627978177  0.6281864649225325
  0.7789483390088811  0.5404667508985027  0.0862671616692108
  0.4780187100089689  0.6254085821111403  0.6214863687345600
  0.0008976193269676  0.2585791914793164  0.9597016090617768
  0.0739736331003402  0.7255697840310956  0.7723206325499546
  0.9437446147582358  0.1482042636309692  0.7588966790253351
  0.2715978340847658  0.2401875343270954  0.2588645017067155
  0.8790958412015113  0.8137917105725248  0.7214853741954734
  0.9354411313687214  0.7084530998031016  0.4668467549450701
  0.6820945241331756  0.1246123802596783  0.5061217151172096
  0.4834147300874194  0.0709850380009153  0.0681798613399778
  0.8991583523898107  0.3470824658273398  0.0339150917863980
  0.5605336207245739  0.6492661438736627  0.0528459224165887
  0.9227697189990688  0.5627340954568983 -0.0041579395945355
  0.7368792424569057  0.3149543708438036  0.1777865406293243
  0.1259675280470244  0.4345299386851821  0.6347497507398148
  0.6968630296769689  0.6564697622512141  0.6859221707674665
  0.0448928711432018  0.6080469566536677  0.1722397228677569
 -0.0094827623531725  0.4658255529960580  0.0960162149110040
  0.8330615490091570  0.4488509696403519  0.8828305585523822
  0.5215220669831095  0.2574467486835920  0.1964155092552802
  0.1435551788729990  0.5204435387361428  0.2500444457191547
  0.9224736226635122  0.6892643700276792  0.0878209544945018
  0.1712755529769028  0.8777978175892559  0.6269393839381274
  0.2663038372264183  0.8510171190173306  0.1700683269763680
  0.6558791803068410  0.8603923417283629  0.9144457583502326
  0.6726491050862106  0.1592981312115346  0.3232933782223374
  0.9882324830471847  0.9403319489046758  0.8581700422678954
  0.1667833914073113  0.9444150086314715  0.8606854559553740
  0.7922059186774499  0.8404519987102422  0.5942379992312954
  0.1798195001963279  0.4662173050342425  0.4724375762739777
  0.2552226686668281  0.5056332248228893  0.7831758918946373
  0.7089950768930351  0.5936509081659485  0.3869057496916747
  0.3610700007480853  0.7349711343789154  0.5043846038006713
  0.0105009886008324  0.0715761107112122  0.5444520668398800
  0.0487601716530778  0.7261018699142158  0.0006494900633400
  0.8692508824574219  0.0063091921144896  0.5436820771964275
  0.9731718644515713  0.8774950020135343  0.6171884210384266
  0.2613415530651581  0.8405532528535308  0.3261278256412334
  0.2727224360043854  0.1752365563295782  0.8462223789745075
  0.6609381094252903  0.9338019264439607  0.3171604577348253
  0.9370555386067745  0.4429661822693969  0.6429209370599887
  0.6212791261900917  0.0659851066545485  0.8268846757035527
  0.4629931373789424  0.9415613256986561  0.2199254688411973
  0.9930761168275416  0.1713186771235370  0.3849509244372539
  0.5797672047720958  0.7943333969885693  0.1593061148931477
  0.1099828896165875  0.8177022797899048  0.1787652536351791
  0.3205376829641182  0.0023344345721624  0.3300072127036016
  0.2060040729547001  0.6962088936519027  0.2890992737682013
  0.1555636783532004  0.2516069514813410  0.6626821621296968
  0.8178502204951550  0.8029122709820476  0.3278534785181205
  0.0944480371879685  0.3786114232688831  0.2149377610283900
  0.2400965113481171  0.7343899453257583  0.6864575236943894
  0.9698219649547335  0.0300398523528195  0.3285984277487559
  0.4327490585799368  0.4118813906097319  0.2605448571637857
  0.6506674954365914  0.9733326749178096  0.5322828240872894
  0.1828178101563565  0.0649565399719840  0.3621597127069950
  0.9602130791145682  0.5618287190303666  0.5036046761811386
  0.3693332373287022  0.9777667147000358  0.0102151482057277
  0.1023137183663542  0.7764364971093118  0.4406834438053002
  0.4525000203980522  0.8661804305133047  0.4763655590035666
  0.7235943951007843  0.7360378860830863  0.1481703163525288
  0.5966291750349435  0.0180643435250359  0.1996795062637047
  0.7454834313921938  0.1597446006043841  0.8353375728356157
  0.0112988957965952  0.3862292687485018  0.7939757582338153
  0.5468348776191594  0.5195772158856959  0.7099336092720822
  0.4716996307489713  0.5701730431687395  0.1514182092534088
  0.4472756689424422  0.0620836920642662  0.5355316409621311
  0.8797482446673540  0.9077552140417274  0.1064727972006904
  0.9896322016966622  0.0695998399633153  0.1774532934277709
  0.1329250215989142  0.9266621824254609  0.2957674002760344
  0.3730408607507839  0.7994326055898739  0.6433512968691042
  0.8666363108143315  0.2900979621206095  0.3467858709010995
  0.2110529561078261  0.8817279735934398  0.9941403766783463
  0.3759782579942917  0.2562515498200706  0.6026594411488755
  0.4454746148695735  0.3157557204011155  0.8064125559846437
  0.1614405655256747  0.0336575775456095  0.1367080387373938
  0.0633448427236667  0.4029057280167639  0.9414288277309945
  0.5287330617492290  0.2731336928391787  0.6827548097868743
  0.8478567443278117  0.5544844245345726  0.7640465600999641
  0.2575757307023347  0.2663306105512094  0.5033783895712367
  0.2006220602291420  0.0882895541224832  0.5358913243339963
  0.1096924639339958  0.5868854677742215  0.6097479882076184
  0.5708626914204006  0.5226004275852968  0.9608355326160402
  0.9632327548913597  0.4098655989807621  0.3274773019584811
  0.0952906947313922  0.2245812361000549  0.0773986415140889
  0.2803271176219141  0.4251294608054634  0.6487841856999117
  0.3354005992797640  0.6134007420480861  0.7055668741550236
  0.6608628168770925  0.2948573236870783  0.7578103491075183
  0.8163446068985672  0.5197274025419453  0.5838502336375401
  0.1639990206309690  0.6783507396845229  0.1074958249807308
  0.5114062466008192  0.3229344123557953  0.0565052507864169
  0.5781733398886745  0.2110192986754298  0.8998265042965299
  0.4583325640102808  0.8572198135820435  0.0517727779762622
  0.0678471203496698  0.8803975846962523  0.0486095761893772
  0.8165704885712414  0.0418839675804309  0.3312399104930961
  0.1939272133138890  0.3671094185078879  0.8625833262064140
  0.4133402148133489  0.1029189851986623  0.8468194660146011
  0.0977685199370143  0.2590788525046006  0.8046415178365367
  0.1715269902720874  0.3565839500977209  0.0801380447355063
  0.1680551656316720  0.3186826636597146  0.3388680445875503
  0.6135405179514002  0.0041747419782504  0.9712902594500749
  0.7985825019525717 -0.0049234176689830  0.0041412424908177
  0.3451964300621697  0.7530827766574896  0.0809616774131821
  0.7374276021484482  0.7504491841635222  0.8031931886360008
  0.3346674835116299  0.9687019332624923  0.4861855014546798
  0.7045432717566446  0.4193155345689954  0.6701891996190952
  0.8848471780219020  0.2751651008975629  0.1689965598447059
  0.5527164962014423  0.9867607879189843  0.4158881103452490
  0.5949748734802635  0.7917606932307349  0.3143059613097534
  0.7847632031485674  0.9196834803315929  0.4217945133021037
  0.8611006051390043  0.8006071895596616 -0.0005487563407470
  0.5110971144178166  0.2133662785490226  0.4963917078675052
  0.8516204346181010  0.1285349479243856  0.1356562394373178
  0.9695230331408590  0.7843596812597035  0.8718574176104640
  0.0322831608246293  0.0403076090752944  0.6939840563950445
  0.3189988040326571  0.9253953679904996  0.8131610006441282
  0.4060371872398671  0.1553288012057991  0.1718857539614256
  0.8438290079308495  0.3278675334293447  0.4947726490583491
  0.1050991503032347  0.5350934652227679  0.7560227029801692
  0.8613045717984259  0.6050475931138373  0.2866948980909636
  0.5116727960063860  0.7347474568095512  0.7302707869641326
  0.3093048623397934  0.9420724428166070  0.6546396861364823
  0.6275349547552600  0.3041114096707622  0.3510507921695318
  0.6524533646346249  0.1765458636038195  0.1684252401870076
  0.0608342955089407  0.5839611751360776  0.9224208644715948
  0.8379629972972694  0.3323757281583267  0.6824207826058042
  0.7183164546237334  0.1532062010346946  0.6557160343968617
  0.7378104732362243  0.3323192839619895  0.9536891553126725
  0.0281395692257496  0.2407651646005887  0.5748676825542041
  0.1137598386696378  0.9629030882802262  0.5056049180172417
  0.3313901382498503  0.1826916390119235  0.3926583720153365
  0.0100158097973725  0.0258554207607889  0.9893003328567102
  0.6016582858567706  0.3658681080279212  0.8840469168717948
  0.8787265289129105  0.3116964568207841  0.8292226744722129
  0.5890262119726176  0.6192251693129103  0.2917618069263557
  0.0370147542771300  0.7441082933310297  0.5803435711520331
  0.1723122699872088  0.5461720299572381  0.0225973126065557
  0.2475444699148772  0.6153386907144067  0.9095560238845891
  0.0751773208448714  0.5422605112338666  0.3890985687679323
  0.4421899749589532  0.2932515142169633  0.3828278269996039
  0.5191201748639117  0.7896576939274004  0.9187918799521487
  0.0001033846174798  0.6771791628243581  0.3073844859070402
  0.8138134415054690  0.6937393934784597  0.5593212987870194
  0.4204482654969885  0.4664697347086999  0.7816235132677093
  0.6469126168786770  0.2927408879099703  0.5017115155405634
  0.5845101187044390  0.4510287040457233  0.0977460199864398
  0.1250163619291667  0.0882229935829927  0.9040181392932514
  0.8317236495013841  0.9310347697091222  0.8671751759043207
  0.6166985411612473  0.7790763022798670  0.4889958277613800
  0.2388321915839313  0.8308047537378160  0.4890558721141608
  0.4267735148481282  0.7061752527596730  0.2034386241059037
  0.3437213869994456  0.5257935851680240  0.0790124890148993
  0.4439038883003190  0.8293135257982637  0.3270962068076735
  0.9443247423493993  0.6756341462379358  0.6957197482365932
  0.8836620753699708  0.1222257058623667 -0.0145272825857704
  0.4455784171533675  0.1870804655433697  0.9716751808244293
  0.1861446107047930  0.7575194394593595  0.9027084215158209
  0.6501759568530259  0.7994971160148457  0.6392162912681805
  0.3065516362392280  0.2910462018319896  0.7385453912325999
  0.7709688449971724  0.0090313368968265  0.6713751876137514
  0.4892156338388408  0.8914206624421540  0.8020588446864489
  0.8435488816024936  0.6606970584089005  0.8727520413263938
  0.3824998426960679  0.3803242994507859  0.1156317918265118
  0.2457451363301882  0.5971559187499182  0.5277732449797987
  0.2088836916337461  0.1301233420373221  0.0275355872328669
  0.3623491179757147  0.1141126531975782  0.6501710012545490
  0.9889305959529017  0.3776883007041242  0.5135109979073984
  0.6435355333192324  0.9269432103148016  0.7610506305726996
  0.4895123576061237  0.6183539277232303  0.4219114322283691
  0.1758681643220920  0.1014280133720017  0.6897859575578414
  0.3960330712626521  0.6387515638105274  0.9440126127681369
  0.5299723301820652  0.9736224785473824  0.6343063069193835
  0.5831417079423030  0.4600590882928037  0.2793390788256227
  0.3045154376502704  0.5040869354928971  0.2422968431378036
  0.7487731090125951  0.3894464908504987  0.3145725869901911
  0.3781414473456208  0.4872559935191849  0.5354088999854532
  0.6126146390305965  0.6242863052595143  0.5152373246891349
  0.7228386790919696  0.6143619944331542  0.9604960103923323
  0.6143422347154613  0.4459370511584412  0.5185434998318607
  0.7054621971573095  0.4968192775755720  0.8031718666610054
  0.6122334137360980  0.6557438927624751  0.8221377230352082
  0.3120919148289891  0.2961773762048663  0.9360273911383357
  0.4953145586120671  0.4143084708891093  0.6118017648930336
  0.5018684273003829  0.4664504745834659  0.4120637675779780
  0.8368319905858539  0.0551277843735628  0.7927627039517268
  0.1738206850717171  0.1356133254142380  0.2388201444178940
  0.3434005657670324  0.3725294915718045  0.4515888005631160
  0.4429299661458338  0.0740408991376689  0.2876340715315903
  0.8803880647414420  0.5089094061418266  0.3953484175468365
  0.3953336626564596  0.6940645844914688  0.8092599307016382
  0.2889006586354780  0.2693857909637749  0.0842839992346060
  0.5391959349945280  0.1254271811122548  0.3749291242422194
  0.7748356757936183  0.4527441152905859  0.4592105752272028
  0.2938929090330626  0.7837245604524304  0.8114612355876744
  0.2607077447619293  0.4267841579924342  0.3623170996604658
  0.0182808511802759  0.8889003054086860  0.3777451474552629
  0.0654788761741262  0.8714699336577939  0.7325599968569324
  0.7431647963794095  0.7258089601511024  0.4345046402986618
  0.1181713242798662  0.1966867140297640  0.4656376634590837
  0.4791116643088557 -0.0142246412489032  0.9102505154035919
  0.1639329675583169  0.6502542093312695  0.4191684765090611
  0.7176759131251568  0.4100381475578326  0.0719953174896954
  0.7677240040621666  0.8699683162840178  0.1988499429637245
  0.6615130105416969  0.6019095767399846  0.1541245411176412
  0.7235962021846535  0.7553890530231571  0.0056434283880952
 
  0.00000000E+00  0.00000000E+00  0.00000000E+00
  0.00000000E+00  0.00000000E+00  0.00000000E+00
  0.00000000E+00  0.00000000E+00  0.00000000E+00
  0.00000000E+00  0.00000000E+00  0.00000000E+00
  0.00000000E+00  0.00000000E+00  0.00000000E+00
  0.00000000E+00  0.00000000E+00  0.00000000E+00
  0.00000000E+00  0.00000000E+00  0.00000000E+00
  0.00000000E+00  0.00000000E+00  0.00000000E+00
  0.00000000E+00  0.00000000E+00  0.00000000E+00
  0.00000000E+00  0.00000000E+00  0.00000000E+00
  0.00000000E+00  0.00000000E+00  0.00000000E+00
  0.00000000E+00  0.00000000E+00  0.00000000E+00
  0.00000000E+00  0.00000000E+00  0.00000000E+00
  0.00000000E+00  0.00000000E+00  0.00000000E+00
  0.00000000E+00  0.00000000E+00  0.00000000E+00
  0.00000000E+00  0.00000000E+00  0.00000000E+00
  0.00000000E+00  0.00000000E+00  0.00000000E+00
  0.00000000E+00  0.00000000E+00  0.00000000E+00
  0.00000000E+00  0.00000000E+00  0.00000000E+00
  0.00000000E+00  0.00000000E+00  0.00000000E+00
  0.00000000E+00  0.00000000E+00  0.00000000E+00
  0.00000000E+00  0.00000000E+00  0.00000000E+00
  0.00000000E+00  0.00000000E+00  0.00000000E+00
  0.00000000E+00  0.00000000E+00  0.00000000E+00
  0.00000000E+00  0.00000000E+00  0.00000000E+00
  0.00000000E+00  0.00000000E+00  0.00000000E+00
  0.00000000E+00  0.00000000E+00  0.00000000E+00
  0.00000000E+00  0.00000000E+00  0.00000000E+00
  0.00000000E+00  0.00000000E+00  0.00000000E+00
  0.00000000E+00  0.00000000E+00  0.00000000E+00
  0.00000000E+00  0.00000000E+00  0.00000000E+00
  0.00000000E+00  0.00000000E+00  0.00000000E+00
  0.00000000E+00  0.00000000E+00  0.00000000E+00
  0.00000000E+00  0.00000000E+00  0.00000000E+00
  0.00000000E+00  0.00000000E+00  0.00000000E+00
  0.00000000E+00  0.00000000E+00  0.00000000E+00
  0.00000000E+00  0.00000000E+00  0.00000000E+00
  0.00000000E+00  0.00000000E+00  0.00000000E+00
  0.00000000E+00  0.00000000E+00  0.00000000E+00
  0.00000000E+00  0.00000000E+00  0.00000000E+00
  0.00000000E+00  0.00000000E+00  0.00000000E+00
  0.00000000E+00  0.00000000E+00  0.00000000E+00
  0.00000000E+00  0.00000000E+00  0.00000000E+00
  0.00000000E+00  0.00000000E+00  0.00000000E+00
  0.00000000E+00  0.00000000E+00  0.00000000E+00
  0.00000000E+00  0.00000000E+00  0.00000000E+00
  0.00000000E+00  0.00000000E+00  0.00000000E+00
  0.00000000E+00  0.00000000E+00  0.00000000E+00
  0.00000000E+00  0.00000000E+00  0.00000000E+00
  0.00000000E+00  0.00000000E+00  0.00000000E+00
  0.00000000E+00  0.00000000E+00  0.00000000E+00
  0.00000000E+00  0.00000000E+00  0.00000000E+00
  0.00000000E+00  0.00000000E+00  0.00000000E+00
  0.00000000E+00  0.00000000E+00  0.00000000E+00
  0.00000000E+00  0.00000000E+00  0.00000000E+00
  0.00000000E+00  0.00000000E+00  0.00000000E+00
  0.00000000E+00  0.00000000E+00  0.00000000E+00
  0.00000000E+00  0.00000000E+00  0.00000000E+00
  0.00000000E+00  0.00000000E+00  0.00000000E+00
  0.00000000E+00  0.00000000E+00  0.00000000E+00
  0.00000000E+00  0.00000000E+00  0.00000000E+00
  0.00000000E+00  0.00000000E+00  0.00000000E+00
  0.00000000E+00  0.00000000E+00  0.00000000E+00
  0.00000000E+00  0.00000000E+00  0.00000000E+00
  0.00000000E+00  0.00000000E+00  0.00000000E+00
  0.00000000E+00  0.00000000E+00  0.00000000E+00
  0.00000000E+00  0.00000000E+00  0.00000000E+00
  0.00000000E+00  0.00000000E+00  0.00000000E+00
  0.00000000E+00  0.00000000E+00  0.00000000E+00
  0.00000000E+00  0.00000000E+00  0.00000000E+00
  0.00000000E+00  0.00000000E+00  0.00000000E+00
  0.00000000E+00  0.00000000E+00  0.00000000E+00
  0.00000000E+00  0.00000000E+00  0.00000000E+00
  0.00000000E+00  0.00000000E+00  0.00000000E+00
  0.00000000E+00  0.00000000E+00  0.00000000E+00
  0.00000000E+00  0.00000000E+00  0.00000000E+00
  0.00000000E+00  0.00000000E+00  0.00000000E+00
  0.00000000E+00  0.00000000E+00  0.00000000E+00
  0.00000000E+00  0.00000000E+00  0.00000000E+00
  0.00000000E+00  0.00000000E+00  0.00000000E+00
  0.00000000E+00  0.00000000E+00  0.00000000E+00
  0.00000000E+00  0.00000000E+00  0.00000000E+00
  0.00000000E+00  0.00000000E+00  0.00000000E+00
  0.00000000E+00  0.00000000E+00  0.00000000E+00
  0.00000000E+00  0.00000000E+00  0.00000000E+00
  0.00000000E+00  0.00000000E+00  0.00000000E+00
  0.00000000E+00  0.00000000E+00  0.00000000E+00
  0.00000000E+00  0.00000000E+00  0.00000000E+00
  0.00000000E+00  0.00000000E+00  0.00000000E+00
  0.00000000E+00  0.00000000E+00  0.00000000E+00
  0.00000000E+00  0.00000000E+00  0.00000000E+00
  0.00000000E+00  0.00000000E+00  0.00000000E+00
  0.00000000E+00  0.00000000E+00  0.00000000E+00
  0.00000000E+00  0.00000000E+00  0.00000000E+00
  0.00000000E+00  0.00000000E+00  0.00000000E+00
  0.00000000E+00  0.00000000E+00  0.00000000E+00
  0.00000000E+00  0.00000000E+00  0.00000000E+00
  0.00000000E+00  0.00000000E+00  0.00000000E+00
  0.00000000E+00  0.00000000E+00  0.00000000E+00
  0.00000000E+00  0.00000000E+00  0.00000000E+00
  0.00000000E+00  0.00000000E+00  0.00000000E+00
  0.00000000E+00  0.00000000E+00  0.00000000E+00
  0.00000000E+00  0.00000000E+00  0.00000000E+00
  0.00000000E+00  0.00000000E+00  0.00000000E+00
  0.00000000E+00  0.00000000E+00  0.00000000E+00
  0.00000000E+00  0.00000000E+00  0.00000000E+00
  0.00000000E+00  0.00000000E+00  0.00000000E+00
  0.00000000E+00  0.00000000E+00  0.00000000E+00
  0.00000000E+00  0.00000000E+00  0.00000000E+00
  0.00000000E+00  0.00000000E+00  0.00000000E+00
  0.00000000E+00  0.00000000E+00  0.00000000E+00
  0.00000000E+00  0.00000000E+00  0.00000000E+00
  0.00000000E+00  0.00000000E+00  0.00000000E+00
  0.00000000E+00  0.00000000E+00  0.00000000E+00
  0.00000000E+00  0.00000000E+00  0.00000000E+00
  0.00000000E+00  0.00000000E+00  0.00000000E+00
  0.00000000E+00  0.00000000E+00  0.00000000E+00
  0.00000000E+00  0.00000000E+00  0.00000000E+00
  0.00000000E+00  0.00000000E+00  0.00000000E+00
  0.00000000E+00  0.00000000E+00  0.00000000E+00
  0.00000000E+00  0.00000000E+00  0.00000000E+00
  0.00000000E+00  0.00000000E+00  0.00000000E+00
  0.00000000E+00  0.00000000E+00  0.00000000E+00
  0.00000000E+00  0.00000000E+00  0.00000000E+00
  0.00000000E+00  0.00000000E+00  0.00000000E+00
  0.00000000E+00  0.00000000E+00  0.00000000E+00
  0.00000000E+00  0.00000000E+00  0.00000000E+00
  0.00000000E+00  0.00000000E+00  0.00000000E+00
  0.00000000E+00  0.00000000E+00  0.00000000E+00
  0.00000000E+00  0.00000000E+00  0.00000000E+00
  0.00000000E+00  0.00000000E+00  0.00000000E+00
  0.00000000E+00  0.00000000E+00  0.00000000E+00
  0.00000000E+00  0.00000000E+00  0.00000000E+00
  0.00000000E+00  0.00000000E+00  0.00000000E+00
  0.00000000E+00  0.00000000E+00  0.00000000E+00
  0.00000000E+00  0.00000000E+00  0.00000000E+00
  0.00000000E+00  0.00000000E+00  0.00000000E+00
  0.00000000E+00  0.00000000E+00  0.00000000E+00
  0.00000000E+00  0.00000000E+00  0.00000000E+00
  0.00000000E+00  0.00000000E+00  0.00000000E+00
  0.00000000E+00  0.00000000E+00  0.00000000E+00
  0.00000000E+00  0.00000000E+00  0.00000000E+00
  0.00000000E+00  0.00000000E+00  0.00000000E+00
  0.00000000E+00  0.00000000E+00  0.00000000E+00
  0.00000000E+00  0.00000000E+00  0.00000000E+00
  0.00000000E+00  0.00000000E+00  0.00000000E+00
  0.00000000E+00  0.00000000E+00  0.00000000E+00
  0.00000000E+00  0.00000000E+00  0.00000000E+00
  0.00000000E+00  0.00000000E+00  0.00000000E+00
  0.00000000E+00  0.00000000E+00  0.00000000E+00
  0.00000000E+00  0.00000000E+00  0.00000000E+00
  0.00000000E+00  0.00000000E+00  0.00000000E+00
  0.00000000E+00  0.00000000E+00  0.00000000E+00
  0.00000000E+00  0.00000000E+00  0.00000000E+00
  0.00000000E+00  0.00000000E+00  0.00000000E+00
  0.00000000E+00  0.00000000E+00  0.00000000E+00
  0.00000000E+00  0.00000000E+00  0.00000000E+00
  0.00000000E+00  0.00000000E+00  0.00000000E+00
  0.00000000E+00  0.00000000E+00  0.00000000E+00
  0.00000000E+00  0.00000000E+00  0.00000000E+00
  0.00000000E+00  0.00000000E+00  0.00000000E+00
  0.00000000E+00  0.00000000E+00  0.00000000E+00
  0.00000000E+00  0.00000000E+00  0.00000000E+00
  0.00000000E+00  0.00000000E+00  0.00000000E+00
  0.00000000E+00  0.00000000E+00  0.00000000E+00
  0.00000000E+00  0.00000000E+00  0.00000000E+00
  0.00000000E+00  0.00000000E+00  0.00000000E+00
  0.00000000E+00  0.00000000E+00  0.00000000E+00
  0.00000000E+00  0.00000000E+00  0.00000000E+00
  0.00000000E+00  0.00000000E+00  0.00000000E+00
  0.00000000E+00  0.00000000E+00  0.00000000E+00
  0.00000000E+00  0.00000000E+00  0.00000000E+00
  0.00000000E+00  0.00000000E+00  0.00000000E+00
  0.00000000E+00  0.00000000E+00  0.00000000E+00
  0.00000000E+00  0.00000000E+00  0.00000000E+00
  0.00000000E+00  0.00000000E+00  0.00000000E+00
  0.00000000E+00  0.00000000E+00  0.00000000E+00
  0.00000000E+00  0.00000000E+00  0.00000000E+00
  0.00000000E+00  0.00000000E+00  0.00000000E+00
  0.00000000E+00  0.00000000E+00  0.00000000E+00
  0.00000000E+00  0.00000000E+00  0.00000000E+00
  0.00000000E+00  0.00000000E+00  0.00000000E+00
  0.00000000E+00  0.00000000E+00  0.00000000E+00
  0.00000000E+00  0.00000000E+00  0.00000000E+00
  0.00000000E+00  0.00000000E+00  0.00000000E+00
  0.00000000E+00  0.00000000E+00  0.00000000E+00
  0.00000000E+00  0.00000000E+00  0.00000000E+00
  0.00000000E+00  0.00000000E+00  0.00000000E+00
  0.00000000E+00  0.00000000E+00  0.00000000E+00
  0.00000000E+00  0.00000000E+00  0.00000000E+00
  0.00000000E+00  0.00000000E+00  0.00000000E+00
  0.00000000E+00  0.00000000E+00  0.00000000E+00
  0.00000000E+00  0.00000000E+00  0.00000000E+00
  0.00000000E+00  0.00000000E+00  0.00000000E+00
  0.00000000E+00  0.00000000E+00  0.00000000E+00
  0.00000000E+00  0.00000000E+00  0.00000000E+00
  0.00000000E+00  0.00000000E+00  0.00000000E+00
  0.00000000E+00  0.00000000E+00  0.00000000E+00
  0.00000000E+00  0.00000000E+00  0.00000000E+00
  0.00000000E+00  0.00000000E+00  0.00000000E+00
  0.00000000E+00  0.00000000E+00  0.00000000E+00
  0.00000000E+00  0.00000000E+00  0.00000000E+00
  0.00000000E+00  0.00000000E+00  0.00000000E+00
  0.00000000E+00  0.00000000E+00  0.00000000E+00
  0.00000000E+00  0.00000000E+00  0.00000000E+00
  0.00000000E+00  0.00000000E+00  0.00000000E+00
  0.00000000E+00  0.00000000E+00  0.00000000E+00
  0.00000000E+00  0.00000000E+00  0.00000000E+00
  0.00000000E+00  0.00000000E+00  0.00000000E+00
  0.00000000E+00  0.00000000E+00  0.00000000E+00
  0.00000000E+00  0.00000000E+00  0.00000000E+00
  0.00000000E+00  0.00000000E+00  0.00000000E+00
  0.00000000E+00  0.00000000E+00  0.00000000E+00
  0.00000000E+00  0.00000000E+00  0.00000000E+00
  0.00000000E+00  0.00000000E+00  0.00000000E+00
  0.00000000E+00  0.00000000E+00  0.00000000E+00
 
           1
   4.00000000000000     
  0.10000000E+01  0.00000000E+00  0.00000000E+00  0.00000000E+00
  0.82952984E+00  0.12845002E+00  0.45776197E+00
  0.96148602E+00  0.81773244E+00  0.25913629E+00
  0.42159081E+00  0.48745974E+00  0.93637625E+00
  0.70299711E+00  0.18058563E+00  0.98804961E+00
  0.88161740E+00  0.47114089E+00  0.20914142E+00
  0.50423594E+00  0.11308773E+00  0.71824548E+00
  0.34363744E+00  0.63580185E+00  0.31245694E+00
  0.31085212E+00 -0.27035262E-02  0.16428839E+00
  0.45585351E-01  0.20089318E+00  0.23749095E+00
  0.66008810E+00  0.91523964E+00  0.10692877E+00
  0.86963821E+00  0.18911796E+00  0.62818646E+00
  0.77894834E+00  0.54046675E+00  0.86267162E-01
  0.47801871E+00  0.62540858E+00  0.62148637E+00
  0.89761933E-03  0.25857919E+00  0.95970161E+00
  0.73973633E-01  0.72556978E+00  0.77232063E+00
  0.94374461E+00  0.14820426E+00  0.75889668E+00
  0.27159783E+00  0.24018753E+00  0.25886450E+00
  0.87909584E+00  0.81379171E+00  0.72148537E+00
  0.93544113E+00  0.70845310E+00  0.46684675E+00
  0.68209452E+00  0.12461238E+00  0.50612172E+00
  0.48341473E+00  0.70985038E-01  0.68179861E-01
  0.89915835E+00  0.34708247E+00  0.33915092E-01
  0.56053362E+00  0.64926614E+00  0.52845922E-01
  0.92276972E+00  0.56273410E+00 -0.41579396E-02
  0.73687924E+00  0.31495437E+00  0.17778654E+00
  0.12596753E+00  0.43452994E+00  0.63474975E+00
  0.69686303E+00  0.65646976E+00  0.68592217E+00
  0.44892871E-01  0.60804696E+00  0.17223972E+00
 -0.94827624E-02  0.46582555E+00  0.96016215E-01
  0.83306155E+00  0.44885097E+00  0.88283056E+00
  0.52152207E+00  0.25744675E+00  0.19641551E+00
  0.14355518E+00  0.52044354E+00  0.25004445E+00
  0.92247362E+00  0.68926437E+00  0.87820954E-01
  0.17127555E+00  0.87779782E+00  0.62693938E+00
  0.26630384E+00  0.85101712E+00  0.17006833E+00
  0.65587918E+00  0.86039234E+00  0.91444576E+00
  0.67264911E+00  0.15929813E+00  0.32329338E+00
  0.98823248E+00  0.94033195E+00  0.85817004E+00
  0.16678339E+00  0.94441501E+00  0.86068546E+00
  0.79220592E+00  0.84045200E+00  0.59423800E+00
  0.17981950E+00  0.46621731E+00  0.47243758E+00
  0.25522267E+00  0.50563322E+00  0.78317589E+00
  0.70899508E+00  0.59365091E+00  0.38690575E+00
  0.36107000E+00  0.73497113E+00  0.50438460E+00
  0.10500989E-01  0.71576111E-01  0.54445207E+00
  0.48760172E-01  0.72610187E+00  0.64949006E-03
  0.86925088E+00  0.63091921E-02  0.54368208E+00
  0.97317186E+00  0.87749500E+00  0.61718842E+00
  0.26134155E+00  0.84055325E+00  0.32612783E+00
  0.27272244E+00  0.17523656E+00  0.84622238E+00
  0.66093811E+00  0.93380193E+00  0.31716046E+00
  0.93705554E+00  0.44296618E+00  0.64292094E+00
  0.62127913E+00  0.65985107E-01  0.82688468E+00
  0.46299314E+00  0.94156133E+00  0.21992547E+00
  0.99307612E+00  0.17131868E+00  0.38495092E+00
  0.57976720E+00  0.79433340E+00  0.15930611E+00
  0.10998289E+00  0.81770228E+00  0.17876525E+00
  0.32053768E+00  0.23344346E-02  0.33000721E+00
  0.20600407E+00  0.69620889E+00  0.28909927E+00
  0.15556368E+00  0.25160695E+00  0.66268216E+00
  0.81785022E+00  0.80291227E+00  0.32785348E+00
  0.94448037E-01  0.37861142E+00  0.21493776E+00
  0.24009651E+00  0.73438995E+00  0.68645752E+00
  0.96982196E+00  0.30039852E-01  0.32859843E+00
  0.43274906E+00  0.41188139E+00  0.26054486E+00
  0.65066750E+00  0.97333267E+00  0.53228282E+00
  0.18281781E+00  0.64956540E-01  0.36215971E+00
  0.96021308E+00  0.56182872E+00  0.50360468E+00
  0.36933324E+00  0.97776671E+00  0.10215148E-01
  0.10231372E+00  0.77643650E+00  0.44068344E+00
  0.45250002E+00  0.86618043E+00  0.47636556E+00
  0.72359440E+00  0.73603789E+00  0.14817032E+00
  0.59662918E+00  0.18064344E-01  0.19967951E+00
  0.74548343E+00  0.15974460E+00  0.83533757E+00
  0.11298896E-01  0.38622927E+00  0.79397576E+00
  0.54683488E+00  0.51957722E+00  0.70993361E+00
  0.47169963E+00  0.57017304E+00  0.15141821E+00
  0.44727567E+00  0.62083692E-01  0.53553164E+00
  0.87974824E+00  0.90775521E+00  0.10647280E+00
  0.98963220E+00  0.69599840E-01  0.17745329E+00
  0.13292502E+00  0.92666218E+00  0.29576740E+00
  0.37304086E+00  0.79943261E+00  0.64335130E+00
  0.86663631E+00  0.29009796E+00  0.34678587E+00
  0.21105296E+00  0.88172797E+00  0.99414038E+00
  0.37597826E+00  0.25625155E+00  0.60265944E+00
  0.44547461E+00  0.31575572E+00  0.80641256E+00
  0.16144057E+00  0.33657578E-01  0.13670804E+00
  0.63344843E-01  0.40290573E+00  0.94142883E+00
  0.52873306E+00  0.27313369E+00  0.68275481E+00
  0.84785674E+00  0.55448442E+00  0.76404656E+00
  0.25757573E+00  0.26633061E+00  0.50337839E+00
  0.20062206E+00  0.88289554E-01  0.53589132E+00
  0.10969246E+00  0.58688547E+00  0.60974799E+00
  0.57086269E+00  0.52260043E+00  0.96083553E+00
  0.96323275E+00  0.40986560E+00  0.32747730E+00
  0.95290695E-01  0.22458124E+00  0.77398642E-01
  0.28032712E+00  0.42512946E+00  0.64878419E+00
  0.33540060E+00  0.61340074E+00  0.70556687E+00
  0.66086282E+00  0.29485732E+00  0.75781035E+00
  0.81634461E+00  0.51972740E+00  0.58385023E+00
  0.16399902E+00  0.67835074E+00  0.10749582E+00
  0.51140625E+00  0.32293441E+00  0.56505251E-01
  0.57817334E+00  0.21101930E+00  0.89982650E+00
  0.45833256E+00  0.85721981E+00  0.51772778E-01
  0.67847120E-01  0.88039758E+00  0.48609576E-01
  0.81657049E+00  0.41883968E-01  0.33123991E+00
  0.19392721E+00  0.36710942E+00  0.86258333E+00
  0.41334021E+00  0.10291899E+00  0.84681947E+00
  0.97768520E-01  0.25907885E+00  0.80464152E+00
  0.17152699E+00  0.35658395E+00  0.80138045E-01
  0.16805517E+00  0.31868266E+00  0.33886804E+00
  0.61354052E+00  0.41747420E-02  0.97129026E+00
  0.79858250E+00 -0.49234177E-02  0.41412425E-02
  0.34519643E+00  0.75308278E+00  0.80961677E-01
  0.73742760E+00  0.75044918E+00  0.80319319E+00
  0.33466748E+00  0.96870193E+00  0.48618550E+00
  0.70454327E+00  0.41931553E+00  0.67018920E+00
  0.88484718E+00  0.27516510E+00  0.16899656E+00
  0.55271650E+00  0.98676079E+00  0.41588811E+00