Ge                                      
   1.00000000000000     
    19.3622781146416862    0.0000000000000000    0.0000000000000000
     0.0000000000000000   19.3622781146416898    0.0000000000000000
     0.0000000000000000    0.0000000000000000   19.3622781146416898
   Ge
   300
Direct
  0.4071520783377012  0.3034994971302795  0.4272875209240865
  0.4261064869371889  0.5155148975444365  0.4079699534425157
  0.5907308603210520  0.1934959537483561  0.1945184067624234
  0.8196119557527940  0.5778044585366198  0.1357182566654428
  0.0564075895004932  0.5719358878841266  0.8849177896792553
  0.6873700740529995  0.5491374826196898  0.5632140905599341
  0.5426512064087289  0.2162616301445176  0.5229435432518914
  0.3830886973406451  0.1279847229154089  0.6462168203010978
  0.9791030061073750  0.9605376557829534  0.4888799423455246
  0.0429745505850238  0.0874473877803808  0.2823659507469134
  0.2915452214316583  0.3771611583385973  0.6560548353065923
  0.3399863050989931  0.9919841973912369  0.6480541246143366
  0.1108798164810431  0.4611376849360784  0.9254659975699226
  0.5527724385413963  0.8188892981784260  0.6673199805130130
  0.1235169227908166  0.3972365369174178  0.3227711121461910
  0.3923674996417112  0.4628862214113131  0.6718670384386639
  0.9286998145133752  0.9339017635368606  0.7627470372059981
  0.1762256224735712  0.5679643198159379  0.2334490470281959
  0.8747441741483770  0.3669749380233540  0.7898650730667034
  0.9299138502964713  0.5361653880757277  0.8951208564696099
  0.9458029487557207  0.7616646575187381  0.0305467387928554
  0.9333827455938067  0.1023724627324497  0.8920110422991779
  0.9090805590452803  0.7361519647194112  0.5369447561404694
  0.5811133791401268  0.3728080384658718  0.6932889079789799
  0.5778080962958517  0.7564840716126952  0.4270792092775479
  0.2409299049601624  0.0256768228443796  0.7264012404795894
  0.1048106605632082  0.8498513938527389  0.5809592940137133
  0.6142316155406509  0.7235820264774948  0.9844250422811875
  0.0850868156573791  0.9820035994317732  0.5619115060983361
  0.4313247095659936  0.7742618311958149  0.5799721763725075
  0.7394830397117821  0.0445866790332658  0.0375433687112308
  0.8596230448799921  0.9998782835451305  0.8512433563132557
  0.6297394774246335  0.9242941480712540  0.8017557005212476
  0.5124774867026830  0.5398102520264940  0.8635015660646718
  0.9908327163312854  0.2361079878335887  0.4433304831588792
  0.0612199624489921  0.4888909738924570  0.5782270817067963
  0.5533751529129912  0.3799784907415344  0.2766871728354059
  0.5288990750041324  0.0110366093167545  0.2776017721856762
  0.0560867568939813  0.0770888624041507  0.8532326899605664
  0.7878584820068527  0.8076851850563009  0.7785575918902219
  0.4001266767806412  0.0199047979745294  0.2571443323408282
  0.8462788460977186  0.9321229639528574  0.9697885319762286
  0.9522481489404536  0.1418586479323754  0.3628049582269812
  0.9950829629020903  0.6616045138137459  0.2034562684648288
  0.9427624901254615  0.5379980433241146  0.5468776760492622
  0.2283912119108778  0.6897312465454654  0.3349570389764511
  0.7499538638556735  0.2054454477805157  0.9093108374242979
  0.4444276025054468  0.1537651257122920  0.0575972393350759
  0.7328621183331533  0.0041428695599971  0.8278539593397721
  0.5543035025316437  0.1811022667346595  0.3951223059914043
  0.0312371711936219  0.4649290228169916  0.7039097024571752
  0.3729369710570321  0.9232695494732318  0.3391589655962667
  0.4030173738756584  0.7541686014568285  0.1941168837204904
  0.8921308072837958  0.0474902125053959  0.4338908913980247
  0.1648030081000805  0.9707641064050909  0.3762798320094367
  0.8456071323080302  0.6742312026080505  0.0371713479829789
  0.3714643946091465  0.5888480512427782  0.5046664768823198
  0.4181579194528385  0.3488083963462191  0.8327599146860944
  0.4050313804475040  0.3156233556553519  0.1635821818073453
  0.1705009924249086  0.4827831095902181  0.0365601450518739
 -0.0044424580015245  0.8581495526316717  0.8438731093257912
  0.2687378234533987  0.7709893023942376  0.1444341827941628
  0.9077062413428058  0.8674225450060856  0.5541744851738378
  0.8262784953327996  0.5722060022361267  0.7325144689906482
  0.1137371332877664  0.5358429726050216  0.7723357146370454
  0.6123714134110713  0.3832626534442027  0.4604843567087085
  0.7033663571452120  0.6405604308602619  0.1639364698072435
  0.5628133935047147  0.0105042202375121  0.7240121977782076
  0.7024146393153481 -0.0081687617733423  0.5293068559897062
  0.6329200969526495  0.6525956294262724  0.6225950558546220
  0.4757275681876889  0.8926003079526246  0.7587131149838654
  0.2832894348394899  0.3276893762783178  0.4409326038191679
  0.5800444635036791  0.1213608430800589  0.8952713507381650
  0.9919226525624357  0.1131137376612404  0.1631551098399955
  0.3108558131569602  0.0515601806832606  0.8409763974956476
  0.8273482506968183  0.9131198398086210  0.1018460957843509
  0.0653184995968423  0.7465805001359410  0.8153899298038908
  0.7467957186133367  0.7071562046081963  0.4272649535353634
  0.7614003296047852  0.4584059107632004  0.9503354758481406
  0.7597249414880241  0.8287537151626496  0.9158219111880651
  0.1380111076481980  0.0112567030561603  0.9368712310356401
  0.9450349833966224  0.0385862548096699  0.0038586845090434
  0.2800397360582257  0.7849874469003829  0.6650805515800209
  0.1339205513684726  0.1724869654786543  0.8134359086450378
  0.7291877696062380  0.8319411552124303  0.1220447372184324
  0.6000455334950781  0.6834666883293830  0.2336002676713307
  0.3607545370622781  0.3512490111482315  0.0425596442598927
  0.7158389624224654  0.5327349122610515  0.3372209252750952
  0.0312147245989750  0.3348704789626806  0.6973118971813397
  0.8970467054310755  0.8124707233026034  0.9215439114038947
  0.2423751622537371  0.4037030277323129  0.5362532008617593
  0.6325174087449682  0.6467786783468028  0.3700681956817556
  0.9776604081829435  0.9749589529334999  0.2780903934412112
  0.2958105672770202  0.3065086773215395  0.2437607186663806
  0.2237076222939996  0.3464431870644185  0.7685724457314247
  0.9015539208948635  0.3320738530000214  0.6668160721033646
  0.3086939997369047  0.5328043749039177  0.8470961550098285
  0.1844514497988811  0.8067243348103835  0.7615078844793561
  0.8890400151287000  0.4376708604062692  0.9752921745550430
  0.5772840921634524  0.4879079318355786  0.5275309410711039
  0.3860614286316667  0.2421450263915089  0.9678374842198340
  0.6225714105485332  0.4876586661352547  0.2569506467245816
  0.5051492370186922  0.6602384686329942  0.5564906192818002
  0.1728327974502605  0.0622821334758366  0.2860388603735122
  0.3942083044093085  0.9546934781432675  0.4626424722470631
  0.4928905963959700  0.0913165320872169  0.8026701416882699
  0.6312953407018653  0.0749891750976812  0.2287765884861969
  0.3656786879530793  0.7197644581791501  0.4752472087715088
  0.1017368285980025  0.5099100084374750  0.1450188711076798
  0.7538331681700062  0.0728172156682196  0.3094958537699095
  0.1152700642916056  0.8861124477544468  0.9982923738704628
  0.8211805705645683  0.3927936620976444  0.4920016139805036
  0.8786116390701755  0.2142768572888125  0.9335482307615576
  0.8055251026009455  0.7317921019848620  0.6257591325265315
  0.8065326397418910  0.2894955440411318  0.5789141099027285
  0.6801629444909906  0.3132458173386917  0.8891898637320155
  0.6282238099625648  0.8574521453218199  0.3649451266734071
  0.4977688921799492  0.4199230736743464  0.6040268238382686
  0.4936609021715174  0.3969054374880604  0.3921628389579192
  0.5295192549277895  0.5744258358167901  0.2293153283509758
  0.4478306953938703  0.6422747244521906  0.9338789323761535
  0.7107209121389113  0.2288990052543410  0.1380292670576191
  0.6329453542297117  0.5935208211699120  0.8246841891651653
  0.9308595471621711  0.3313583557987191  0.9049503190570605
  0.0560452023881904  0.0785990422365167  0.6434731852383466
  0.1711288247770004  0.1500761382347336  0.5058201587139520
  0.1519815643555619  0.2151361032464514  0.1896423944579903
  0.7218211481458813  0.6790599695366538  0.7236303584994548
  0.8235801077032444  0.5785092161916855  0.2700993878307162
  0.3156596401664928  0.2656508992074520  0.8251969507743991
  0.7124946935919896  0.5034448538159347  0.7564447782538730
  0.4754487116836818  0.3003178506500838  0.7264481217673157
  0.3646988687298586  0.1432752706951209  0.2760380077010535
  0.4224064955932315  0.4710656169192325  0.0259797259921655
  0.6054533991913965  0.2628434183867073  0.3032865883540469
  0.8899519326308779  0.8350533158400424  0.6829400340891789
  0.1393131395192453  0.6665400936295982  0.9356161164261022
  0.9832996035282536  0.3517045472876442  0.1726485093397649
  0.3696357382939447  0.0469423357893254  0.0349995976749427
  0.7230391440968885  0.4152193317686710  0.3992388487128946
  0.2028410559923012  0.3288559535166907  0.1584753440545006
  0.0638793397151358  0.3413239182355958  0.9090868567387399
  0.4214979329978961  0.9794209448144249  0.8489478750605050
  0.3731070031988524  0.1518805086325993  0.7768386155502498
  0.3123562486094302  0.5438227786314471  0.1958078957970411
  0.0912050963996530  0.7193375526277510  0.1359033752851405
  0.0480748998834537  0.1802826863141703  0.5496893849759752
  0.8073314051564449  0.4479003593416654  0.1950045041718695
  0.5384062921423822  0.5856598856750918  0.4492091952360315
  0.5716188129851720  0.2479441099205883  0.8649653908801515
  0.4874439972645359  0.7876353866773710  0.8402027957694608
  0.9767952298410431  0.5376596275168866  0.1734908742967562
  0.4753518609561062  0.9784461538775848  0.6299256608234761
  0.6506716213594064  0.3498391607809551  0.1093226227174622
  0.7522376642215715  0.1969039549513867  0.4996788533023689
  0.1015544729009540  0.3944153304632111  0.1983157983264035
  0.2321133014499827  0.5683036306385955  0.3944905064464357
  0.4918079228466299  0.3192362343501311  0.9351149970102103
  0.0423130432534871  0.9248153338767779  0.3789408975829741
  0.0970527121280186  0.8096904198811066  0.2311014719410353
  0.1602108359225704  0.2780649019996785  0.9743793338418595
  0.6523343674520524  0.2779993648511105  0.5334128726868380
  0.5291471699769532  0.6297943138925582  0.0385108805548697
  0.8990040013553665  0.3224451282953324  0.4157278074896011
  0.4140116061626521  0.4203173673894699  0.2536301763357350
  0.1139039177535335  0.7772804666458568  0.4675277097553130
  0.0761167571641847  0.7556076938298756  0.0126924762386812
  0.3606548128570062  0.8551570925151478  0.1143500060215031
  0.5461947477184659  0.8172311467332909  0.0506887540250462
  0.6045178577786292  0.7272147270302013  0.8523921839005034
  0.8722920253720280  0.2117980312027005  0.0640939259518164
  0.9856040666122666  0.6578286039779593  0.6070943225611659
  0.4594911142681424  0.7324774212797851  0.3852365221955475
  0.7243396572962325  0.3122028295607910  0.3193128821953501
  0.3531408278487804  0.8790511569150978  0.7152058346748456
  0.0936830722393640  0.7404390213677159  0.6759079339862911
  0.0376859191251870  0.0024892363799821  0.7483542529727405
  0.2304653750224830  0.1974232001478620  0.9000731278104900
  0.0357239874848250  0.6005069711607210  0.4103354008430954
  0.6894602431345684  0.1671332408434901  0.0211164400507738
  0.1857606460549562  0.0220421913590174  0.4916894756808509
  0.5160074412522661  0.7190466434991147  0.1350670540371452
  0.4507337095291213  0.6168526803236023  0.3237032696314373
  0.4277373811153419  0.8490113518366381  0.0033672017430481
  0.2342540083728807  0.8407642026414669  0.5577693092408379
  0.2480099480923892  0.7805461906461381  0.4407165484335145
  0.1580479717441749  0.5790295944437769  0.5825721096110912
  0.5484776218989592  0.1979868105786726  0.7450234989877430
  0.9926567508721709  0.9150541672292239 -0.0361754369659113
  0.6699936350556839  0.1780312686308362  0.7000194607384106
  0.8553847510930129  0.9848068139507149  0.3238273432698677
  0.4074998791523495  0.5839429053374030  0.6298228038106013
  0.7578146410603951  0.4042079881580773  0.8318866394008129
  0.9595171674755295  0.7284125880190363  0.7256642615882113
  0.3394535725323933  0.9817434292165974  0.1476453937957382
  0.6376727222177000  0.0128412697237023  0.1149891122444057
  0.2538806087387426  0.8799344401940153  0.3547014022889746
  0.7368113836307587  0.7503964043041494  0.0219135032992471
  0.4141309631796612  0.4750874297817452  0.7986314049164155
  0.7024587784081340  0.9529183384999782  0.9441703386167249
  0.0477616448471537  0.7972078923301924  0.3543456780293275
  0.8310524146704608  0.8722087564764071  0.3793248945318640
  0.2548160715632908  0.0807632100112548  0.9632167927423037
  0.9207955806673255  0.7824316964960376  0.3480523199847585
  0.2131333989824967  0.2140840077822064  0.6163362065042797
  0.8067587858722188  0.3222507238918881  0.1004084200367031
  0.8024470914312128  0.2409949883136797  0.3918357885660388
  0.2306997452490057  0.3661132410028492  0.0411402546251227
  0.1167782548371085  0.9586421524447870  0.1067695744712055
  0.3255310787947722  0.8822965000515940  0.8440395326771206
  0.6940566988711316  0.3087444629156956  0.6547526499735128
  0.2882750039473363  0.9567136016680808  0.5359795681901314
  0.2534227463496282  0.3909752379232904  0.3335549109354973
  0.6546542926697814  0.5858393919875493  0.0520104305077088
  0.8505983359700685  0.6887033994318417  0.8006757342118298
  0.2373424436010018  0.1795246384791109  0.2902711952408238
  0.3189106123593460  0.5035571099481813  0.3241244597773889
  0.0265687179927695  0.2248728296669276  0.2450783131628037
  0.2137235911706816  0.0157195794324359  0.1702682382767018
  0.7599740306314188  0.5771271597872896  0.4574962684770700
  0.3758399499663458  0.7672463375197620  0.9105929012505231
  0.6046985207597789  0.7670761642549931  0.5550114356816301
  0.3398688943972332  0.6544009740878436  0.2624899627023598
  0.5738223168829315  0.2334159249276827  0.0637831056809642
  0.3755811782854335  0.2767050399231597  0.6443284232177346
  0.2243912856841994  0.1231223943484383  0.0958371855176000
  0.6858390704823726  0.4770996663582325  0.1409012416069998
  0.2746152951295716  0.6427502949043730  0.7829744080508321
  0.7341240686015725  0.4492815911450676  0.6369856848552484
  0.1125727880844759  0.1893447134976228  0.0585947735217692
  0.9189961575702217  0.4875255040981771  0.7727942713010780
  0.5193514666998259  0.3870626163316644  0.1486766899938437
  0.6031866066982338  0.9468654813433091  0.4588649509661485
  0.2203941709421270  0.8034279219756048  0.2588005010953211
  0.5780443695559796  0.9001598508575188  0.9279983150571209
  0.6288674862387823  0.0709310780512354  0.6223910303161235
  0.9115912442265610  0.5560650475226009  0.4162135982809239
  0.2270106933121223  0.5983796531570699  0.0160923200901685
  0.7892643211934152  0.8904744313398618  0.5052786203995172
  0.2019149903212052  0.2310100709761064  0.4089948910268398
  0.1197640005855489  0.5192190709827439  0.3604158494580286
  0.3243408999073531  0.1949518890494146  0.5452590609333368
  0.7152817239111620  0.5781152827363187  0.9310951683317858
  0.2070011289797965  0.6560179410629713  0.1332405285498688
  0.0956190486504818  0.3086924781398650  0.4119513981821804
  0.2365690400016997  0.7378374580637294  0.8681042301900175
  0.1024191848344758  0.2957509153181354  0.7951601693629210
  0.7839383022407345  0.0170795481644884  0.1670315646960688
  0.4547605905111660  0.3082112214422345  0.5459381950758451
  0.8172278745605276  0.2913243469298174  0.2303484780626587
  0.8657869902011444  0.4472237704251061  0.6058334553755922
  0.5302016540352525  0.5998003564432228  0.6923212535060268
  0.7678661685143752  0.7470666502997466  0.2118499636968345
  0.4649102886934643  0.9715823374090258  0.9704714739300043
  0.4936905974305272  0.8941443516178433  0.5266172447312710
  0.4491307464302019  0.1932758106442173  0.1861072136808428
  0.5456243109973458  0.0485959441630811  0.4000921415290918
  0.2032840399357891  0.4593561438005274  0.8323532036596901
  0.9088172447672620  0.4434859383764653  0.1072694790442326
  0.6109179786597935  0.4211704184151868  0.8127902074316429
  0.8222983079800135  0.5971290176200830  0.6030061727847773
  0.0612438661846360  0.0668907564236326  0.0575238762430052
  0.1468165877192880  0.9291667623336646  0.7179890685872677
  0.9295558564163839  0.8398922679110744  0.1331248920697256
  0.1159065509128139  0.3820317442202973  0.5204605621622107
  0.9155429641360092  0.3592994341251150  0.2886784913493360
  0.2560561021711983  0.5321257138557808  0.5161190746384671
  0.8370757415537642  0.6270889478296180  0.9154934540525947
  0.6553950497109045  0.3931580151541567  0.9883500834339164
  0.2093856812340103  0.9493922771360624  0.8406046662123644
  0.5347560715963021  0.4429417000402037  0.9546784021934780
  0.4470071330458019  0.5059279886421977  0.1519939171825231
  0.6119628978575034  0.8869725357942100  0.1396121854219206
  0.4993545507610332  0.1066368792297717  0.5809173994350160
  0.1685460235550642  0.6302764254793803  0.7021146517986898
  0.7619917582841560  0.0766716393302433  0.4506317566828813
  0.5613561676919323  0.0841114431604530  0.0227987039193749
  0.0856299513620315  0.6607009905162613  0.5144713060364010
  0.4836552835462145  0.7186761751228143  0.7252553662659277
  0.3463865052390364  0.5656108526741743  0.9677960616696345
  0.8437699539537391  0.1715304522776697  0.2894670631828977
  0.1026515414211012  0.2852964591667905  0.6033080372216174
  0.8774588974176399  0.6856074976121199  0.4202330289862705
  0.7311682385131654  0.7797921337872259  0.5332386305222223
  0.5563855607896480  0.8850333441423888  0.2616587307223164
  0.0883049007929051  0.6594453458153922  0.3024803855093142
  0.8742143579081889  0.0885679928146290  0.1073385696007731
  0.4252610450189895  0.1798464386311104  0.3859612587854843
  0.3597860733986397  0.6865676492050807  0.6944547994163089
  0.0270979912600064  0.9066513525034829  0.1818524868090290
  0.4452192226348274  0.8240941894859607  0.2940027873547871
  0.7385530036989809  0.7974004894580254  0.3305667395398894
  0.1658447726127214  0.1260931217648328  0.6978480370912848
  0.3260718960956432  0.2111652775564034  0.1018523529547219
  0.6536283459387834  0.8020372781241630  0.7541209795548344
  0.9953877090575468  0.2380389527471840  0.1064789825921945
  0.6911358919156078  0.1254669252778761  0.8234595574737307
  0.4376612782724194  0.0757864024050501  0.4679463101832719
  0.9218677836671547  0.4919049451959291  0.2894109197292047
  0.8988857943012381  0.7515364310679917  0.2234737601770873
 
  0.00000000E+00  0.00000000E+00  0.00000000E+00
  0.00000000E+00  0.00000000E+00  0.00000000E+00
  0.00000000E+00  0.00000000E+00  0.00000000E+00
  0.00000000E+00  0.00000000E+00  0.00000000E+00
  0.00000000E+00  0.00000000E+00  0.00000000E+00
  0.00000000E+00  0.00000000E+00  0.00000000E+00
  0.00000000E+00  0.00000000E+00  0.00000000E+00
  0.00000000E+00  0.00000000E+00  0.00000000E+00
  0.00000000E+00  0.00000000E+00  0.00000000E+00
  0.00000000E+00  0.00000000E+00  0.00000000E+00
  0.00000000E+00  0.00000000E+00  0.00000000E+00
  0.00000000E+00  0.00000000E+00  0.00000000E+00
  0.00000000E+00  0.00000000E+00  0.00000000E+00
  0.00000000E+00  0.00000000E+00  0.00000000E+00
  0.00000000E+00  0.00000000E+00  0.00000000E+00
  0.00000000E+00  0.00000000E+00  0.00000000E+00
  0.00000000E+00  0.00000000E+00  0.00000000E+00
  0.00000000E+00  0.00000000E+00  0.00000000E+00
  0.00000000E+00  0.00000000E+00  0.00000000E+00
  0.00000000E+00  0.00000000E+00  0.00000000E+00
  0.00000000E+00  0.00000000E+00  0.00000000E+00
  0.00000000E+00  0.00000000E+00  0.00000000E+00
  0.00000000E+00  0.00000000E+00  0.00000000E+00
  0.00000000E+00  0.00000000E+00  0.00000000E+00
  0.00000000E+00  0.00000000E+00  0.00000000E+00
  0.00000000E+00  0.00000000E+00  0.00000000E+00
  0.00000000E+00  0.00000000E+00  0.00000000E+00
  0.00000000E+00  0.00000000E+00  0.00000000E+00
  0.00000000E+00  0.00000000E+00  0.00000000E+00
  0.00000000E+00  0.00000000E+00  0.00000000E+00
  0.00000000E+00  0.00000000E+00  0.00000000E+00
  0.00000000E+00  0.00000000E+00  0.00000000E+00
  0.00000000E+00  0.00000000E+00  0.00000000E+00
  0.00000000E+00  0.00000000E+00  0.00000000E+00
  0.00000000E+00  0.00000000E+00  0.00000000E+00
  0.00000000E+00  0.00000000E+00  0.00000000E+00
  0.00000000E+00  0.00000000E+00  0.00000000E+00
  0.00000000E+00  0.00000000E+00  0.00000000E+00
  0.00000000E+00  0.00000000E+00  0.00000000E+00
  0.00000000E+00  0.00000000E+00  0.00000000E+00
  0.00000000E+00  0.00000000E+00  0.00000000E+00
  0.00000000E+00  0.00000000E+00  0.00000000E+00
  0.00000000E+00  0.00000000E+00  0.00000000E+00
  0.00000000E+00  0.00000000E+00  0.00000000E+00
  0.00000000E+00  0.00000000E+00  0.00000000E+00
  0.00000000E+00  0.00000000E+00  0.00000000E+00
  0.00000000E+00  0.00000000E+00  0.00000000E+00
  0.00000000E+00  0.00000000E+00  0.00000000E+00
  0.00000000E+00  0.00000000E+00  0.00000000E+00
  0.00000000E+00  0.00000000E+00  0.00000000E+00
  0.00000000E+00  0.00000000E+00  0.00000000E+00
  0.00000000E+00  0.00000000E+00  0.00000000E+00
  0.00000000E+00  0.00000000E+00  0.00000000E+00
  0.00000000E+00  0.00000000E+00  0.00000000E+00
  0.00000000E+00  0.00000000E+00  0.00000000E+00
  0.00000000E+00  0.00000000E+00  0.00000000E+00
  0.00000000E+00  0.00000000E+00  0.00000000E+00
  0.00000000E+00  0.00000000E+00  0.00000000E+00
  0.00000000E+00  0.00000000E+00  0.00000000E+00
  0.00000000E+00  0.00000000E+00  0.00000000E+00
  0.00000000E+00  0.00000000E+00  0.00000000E+00
  0.00000000E+00  0.00000000E+00  0.00000000E+00
  0.00000000E+00  0.00000000E+00  0.00000000E+00
  0.00000000E+00  0.00000000E+00  0.00000000E+00
  0.00000000E+00  0.00000000E+00  0.00000000E+00
  0.00000000E+00  0.00000000E+00  0.00000000E+00
  0.00000000E+00  0.00000000E+00  0.00000000E+00
  0.00000000E+00  0.00000000E+00  0.00000000E+00
  0.00000000E+00  0.00000000E+00  0.00000000E+00
  0.00000000E+00  0.00000000E+00  0.00000000E+00
  0.00000000E+00  0.00000000E+00  0.00000000E+00
  0.00000000E+00  0.00000000E+00  0.00000000E+00
  0.00000000E+00  0.00000000E+00  0.00000000E+00
  0.00000000E+00  0.00000000E+00  0.00000000E+00
  0.00000000E+00  0.00000000E+00  0.00000000E+00
  0.00000000E+00  0.00000000E+00  0.00000000E+00
  0.00000000E+00  0.00000000E+00  0.00000000E+00
  0.00000000E+00  0.00000000E+00  0.00000000E+00
  0.00000000E+00  0.00000000E+00  0.00000000E+00
  0.00000000E+00  0.00000000E+00  0.00000000E+00
  0.00000000E+00  0.00000000E+00  0.00000000E+00
  0.00000000E+00  0.00000000E+00  0.00000000E+00
  0.00000000E+00  0.00000000E+00  0.00000000E+00
  0.00000000E+00  0.00000000E+00  0.00000000E+00
  0.00000000E+00  0.00000000E+00  0.00000000E+00
  0.00000000E+00  0.00000000E+00  0.00000000E+00
  0.00000000E+00  0.00000000E+00  0.00000000E+00
  0.00000000E+00  0.00000000E+00  0.00000000E+00
  0.00000000E+00  0.00000000E+00  0.00000000E+00
  0.00000000E+00  0.00000000E+00  0.00000000E+00
  0.00000000E+00  0.00000000E+00  0.00000000E+00
  0.00000000E+00  0.00000000E+00  0.00000000E+00
  0.00000000E+00  0.00000000E+00  0.00000000E+00
  0.00000000E+00  0.00000000E+00  0.00000000E+00
  0.00000000E+00  0.00000000E+00  0.00000000E+00
  0.00000000E+00  0.00000000E+00  0.00000000E+00
  0.00000000E+00  0.00000000E+00  0.00000000E+00
  0.00000000E+00  0.00000000E+00  0.00000000E+00
  0.00000000E+00  0.00000000E+00  0.00000000E+00
  0.00000000E+00  0.00000000E+00  0.00000000E+00
  0.00000000E+00  0.00000000E+00  0.00000000E+00
  0.00000000E+00  0.00000000E+00  0.00000000E+00
  0.00000000E+00  0.00000000E+00  0.00000000E+00
  0.00000000E+00  0.00000000E+00  0.00000000E+00
  0.00000000E+00  0.00000000E+00  0.00000000E+00
  0.00000000E+00  0.00000000E+00  0.00000000E+00
  0.00000000E+00  0.00000000E+00  0.00000000E+00
  0.00000000E+00  0.00000000E+00  0.00000000E+00
  0.00000000E+00  0.00000000E+00  0.00000000E+00
  0.00000000E+00  0.00000000E+00  0.00000000E+00
  0.00000000E+00  0.00000000E+00  0.00000000E+00
  0.00000000E+00  0.00000000E+00  0.00000000E+00
  0.00000000E+00  0.00000000E+00  0.00000000E+00
  0.00000000E+00  0.00000000E+00  0.00000000E+00
  0.00000000E+00  0.00000000E+00  0.00000000E+00
  0.00000000E+00  0.00000000E+00  0.00000000E+00
  0.00000000E+00  0.00000000E+00  0.00000000E+00
  0.00000000E+00  0.00000000E+00  0.00000000E+00
  0.00000000E+00  0.00000000E+00  0.00000000E+00
  0.00000000E+00  0.00000000E+00  0.00000000E+00
  0.00000000E+00  0.00000000E+00  0.00000000E+00
  0.00000000E+00  0.00000000E+00  0.00000000E+00
  0.00000000E+00  0.00000000E+00  0.00000000E+00
  0.00000000E+00  0.00000000E+00  0.00000000E+00
  0.00000000E+00  0.00000000E+00  0.00000000E+00
  0.00000000E+00  0.00000000E+00  0.00000000E+00
  0.00000000E+00  0.00000000E+00  0.00000000E+00
  0.00000000E+00  0.00000000E+00  0.00000000E+00
  0.00000000E+00  0.00000000E+00  0.00000000E+00
  0.00000000E+00  0.00000000E+00  0.00000000E+00
  0.00000000E+00  0.00000000E+00  0.00000000E+00
  0.00000000E+00  0.00000000E+00  0.00000000E+00
  0.00000000E+00  0.00000000E+00  0.00000000E+00
  0.00000000E+00  0.00000000E+00  0.00000000E+00
  0.00000000E+00  0.00000000E+00  0.00000000E+00
  0.00000000E+00  0.00000000E+00  0.00000000E+00
  0.00000000E+00  0.00000000E+00  0.00000000E+00
  0.00000000E+00  0.00000000E+00  0.00000000E+00
  0.00000000E+00  0.00000000E+00  0.00000000E+00
  0.00000000E+00  0.00000000E+00  0.00000000E+00
  0.00000000E+00  0.00000000E+00  0.00000000E+00
  0.00000000E+00  0.00000000E+00  0.00000000E+00
  0.00000000E+00  0.00000000E+00  0.00000000E+00
  0.00000000E+00  0.00000000E+00  0.00000000E+00
  0.00000000E+00  0.00000000E+00  0.00000000E+00
  0.00000000E+00  0.00000000E+00  0.00000000E+00
  0.00000000E+00  0.00000000E+00  0.00000000E+00
  0.00000000E+00  0.00000000E+00  0.00000000E+00
  0.00000000E+00  0.00000000E+00  0.00000000E+00
  0.00000000E+00  0.00000000E+00  0.00000000E+00
  0.00000000E+00  0.00000000E+00  0.00000000E+00
  0.00000000E+00  0.00000000E+00  0.00000000E+00
  0.00000000E+00  0.00000000E+00  0.00000000E+00
  0.00000000E+00  0.00000000E+00  0.00000000E+00
  0.00000000E+00  0.00000000E+00  0.00000000E+00
  0.00000000E+00  0.00000000E+00  0.00000000E+00
  0.00000000E+00  0.00000000E+00  0.00000000E+00
  0.00000000E+00  0.00000000E+00  0.00000000E+00
  0.00000000E+00  0.00000000E+00  0.00000000E+00
  0.00000000E+00  0.00000000E+00  0.00000000E+00
  0.00000000E+00  0.00000000E+00  0.00000000E+00
  0.00000000E+00  0.00000000E+00  0.00000000E+00
  0.00000000E+00  0.00000000E+00  0.00000000E+00
  0.00000000E+00  0.00000000E+00  0.00000000E+00
  0.00000000E+00  0.00000000E+00  0.00000000E+00
  0.00000000E+00  0.00000000E+00  0.00000000E+00
  0.00000000E+00  0.00000000E+00  0.00000000E+00
  0.00000000E+00  0.00000000E+00  0.00000000E+00
  0.00000000E+00  0.00000000E+00  0.00000000E+00
  0.00000000E+00  0.00000000E+00  0.00000000E+00
  0.00000000E+00  0.00000000E+00  0.00000000E+00
  0.00000000E+00  0.00000000E+00  0.00000000E+00
  0.00000000E+00  0.00000000E+00  0.00000000E+00
  0.00000000E+00  0.00000000E+00  0.00000000E+00
  0.00000000E+00  0.00000000E+00  0.00000000E+00
  0.00000000E+00  0.00000000E+00  0.00000000E+00
  0.00000000E+00  0.00000000E+00  0.00000000E+00
  0.00000000E+00  0.00000000E+00  0.00000000E+00
  0.00000000E+00  0.00000000E+00  0.00000000E+00
  0.00000000E+00  0.00000000E+00  0.00000000E+00
  0.00000000E+00  0.00000000E+00  0.00000000E+00
  0.00000000E+00  0.00000000E+00  0.00000000E+00
  0.00000000E+00  0.00000000E+00  0.00000000E+00
  0.00000000E+00  0.00000000E+00  0.00000000E+00
  0.00000000E+00  0.00000000E+00  0.00000000E+00
  0.00000000E+00  0.00000000E+00  0.00000000E+00
  0.00000000E+00  0.00000000E+00  0.00000000E+00
  0.00000000E+00  0.00000000E+00  0.00000000E+00
  0.00000000E+00  0.00000000E+00  0.00000000E+00
  0.00000000E+00  0.00000000E+00  0.00000000E+00
  0.00000000E+00  0.00000000E+00  0.00000000E+00
  0.00000000E+00  0.00000000E+00  0.00000000E+00
  0.00000000E+00  0.00000000E+00  0.00000000E+00
  0.00000000E+00  0.00000000E+00  0.00000000E+00
  0.00000000E+00  0.00000000E+00  0.00000000E+00
  0.00000000E+00  0.00000000E+00  0.00000000E+00
  0.00000000E+00  0.00000000E+00  0.00000000E+00
  0.00000000E+00  0.00000000E+00  0.00000000E+00
  0.00000000E+00  0.00000000E+00  0.00000000E+00
  0.00000000E+00  0.00000000E+00  0.00000000E+00
  0.00000000E+00  0.00000000E+00  0.00000000E+00
  0.00000000E+00  0.00000000E+00  0.00000000E+00
  0.00000000E+00  0.00000000E+00  0.00000000E+00
  0.00000000E+00  0.00000000E+00  0.00000000E+00
  0.00000000E+00  0.00000000E+00  0.00000000E+00
  0.00000000E+00  0.00000000E+00  0.00000000E+00
  0.00000000E+00  0.00000000E+00  0.00000000E+00
  0.00000000E+00  0.00000000E+00  0.00000000E+00
  0.00000000E+00  0.00000000E+00  0.00000000E+00
  0.00000000E+00  0.00000000E+00  0.00000000E+00
  0.00000000E+00  0.00000000E+00  0.00000000E+00
  0.00000000E+00  0.00000000E+00  0.00000000E+00
  0.00000000E+00  0.00000000E+00  0.00000000E+00
  0.00000000E+00  0.00000000E+00  0.00000000E+00
  0.00000000E+00  0.00000000E+00  0.00000000E+00
  0.00000000E+00  0.00000000E+00  0.00000000E+00
  0.00000000E+00  0.00000000E+00  0.00000000E+00
  0.00000000E+00  0.00000000E+00  0.00000000E+00
  0.00000000E+00  0.00000000E+00  0.00000000E+00
  0.00000000E+00  0.00000000E+00  0.00000000E+00
  0.00000000E+00  0.00000000E+00  0.00000000E+00
  0.00000000E+00  0.00000000E+00  0.00000000E+00
  0.00000000E+00  0.00000000E+00  0.00000000E+00
  0.00000000E+00  0.00000000E+00  0.00000000E+00
  0.00000000E+00  0.00000000E+00  0.00000000E+00
  0.00000000E+00  0.00000000E+00  0.00000000E+00
  0.00000000E+00  0.00000000E+00  0.00000000E+00
  0.00000000E+00  0.00000000E+00  0.00000000E+00
  0.00000000E+00  0.00000000E+00  0.00000000E+00
  0.00000000E+00  0.00000000E+00  0.00000000E+00
  0.00000000E+00  0.00000000E+00  0.00000000E+00
  0.00000000E+00  0.00000000E+00  0.00000000E+00