   GeSe                                 
   1.00000000000000     
    20.1278870000000012    0.0000000000000000    0.0000000000000000
     0.0000000000000000   20.1278870000000012    0.0000000000000000
     0.0000000000000000    0.0000000000000000   20.1278870000000012
   Ge   Se
   150   150
Direct
  0.3273957180249417  0.6748712549748090  0.7707937659604251
  0.6204108878786064  0.1999987511153314  0.9240561526532520
  0.6062160683105512  0.3225867364804216  0.8951808059663420
  0.4616573481673067  0.5113599903087086  0.7591032139064900
  0.0841013494842291  0.7261058543031096  0.3324285054875899
  0.6122624829681448  0.0923670458794710  0.8550217153316513
  0.7514453620920908  0.3011829782412930  0.8260653226183169
  0.9268761982340562  0.9397108507119630  0.8198185124261563
  0.4912272926932805  0.8228297478357568  0.8909289220771039
  0.7226921991101519  0.7566031143560210  0.8045207232130829
  0.1180445672907915  0.0394208603807146  0.0872206491974466
  0.3260805224825623  0.5062825434413133  0.5093870757882150
  0.5453634144140959  0.6112994535621056  0.7914927826266409
  0.5323045309795940  0.3239225190977725  0.6320514403544100
  0.2117017368911923  0.5410689743788841  0.5777140334588875
  0.7935132045485223  0.8991056906632777  0.1745221109921508
  0.3759733787421454  0.6084367910753037  0.5752360070763025
  0.9734974447934448  0.9218794506640170  0.3205123675101092
  0.3053657860594191  0.7632796626176721  0.1393831327775641
  0.1665939885494190  0.2638008610885832  0.0043793519747895
  0.1310941637884069  0.4249865424524503  0.6680344163304825
  0.4737487271381771  0.1332076382424609  0.4174522031911141
  0.3422781854226252  0.6373908813339766  0.2368228472505763
  0.2521054246176853  0.9978510734663947  0.7106071202579646
  0.3160805135256209  0.3469923186208352  0.0238245829122474
  0.2431421935885063  0.1361199553764255  0.2730832460216422
  0.1584614321908646  0.6560639705790914  0.1955070168096281
  0.8274982773441949  0.5349176572956931  0.6375856756522374
  0.9341939641124968  0.5281620575018581  0.8370165207615069
  0.5669062858479332 -0.0087143638676745  0.1866881989440936
  0.3133095177900057  0.3074941212300293  0.5663017454781133
  0.9176477336747635  0.4597694916260376  0.3619798356305040
  0.2071342450716077  0.3536847250017014  0.5109619727084866
  0.8508363361829161  0.5124906724858611  0.2050961308786212
  0.6689599745568321  0.8644474731972084  0.5920629892120325
  0.3851242558958383  0.9711501085837557  0.3700722963624325
  0.5108782272886362  0.5546436634216045  0.4186930546179551
  0.2080808670696122  0.4722398520943161  0.1838714245572377
  0.9257949683408022  0.1024778606640779  0.7684165596916341
  0.7899402809493903  0.4824968739861334  0.3354466026745998
  0.1628147651366012  0.1112684206551103  0.7217802336234757
 -0.0064429632286528  0.4089184405825576  0.7931437755901677
  0.0627530310225546  0.5846354296624200  0.6898299551868414
  0.0099884368881778  0.3037513568421706  0.4722878552871755
  0.5873853092442891  0.3326304088769969  0.2722367757511299
  0.6315712291871004  0.7937576557747532  0.4721503287458000
  0.2992393078587626  0.1534346624873368  0.0203892271865439
  0.8383159834332585  0.9729247375257118  0.6086249589119628
  0.7074715112112021  0.1857670473067794  0.4821764305618734
  0.5687515544820275  0.9778005603719413  0.7396927059238035
  0.7096735778967173  0.1151602798769968  0.7649689070273037
  0.3058312994003095  0.8077637166427724  0.7105781841484948
  0.1241087477273910  0.4135024025878312  0.3332732943213900
  0.4156466001181496  0.0583884066536024  0.1852946226061827
  0.6213407906554913  0.7445668591042564  0.9797906519341369
  0.5893537557387791  0.1400042244704510  0.2780835303799204
  0.1801769726367334  0.8716170355263326  0.5304280810905893
  0.1424614135807760  0.0244255769990922  0.3006260122176105
  0.2795234667062662  0.5011556296413003  0.8523622483933759
  0.3897148755830713  0.9501028412667297  0.0698029638728445
  0.9529213493958852  0.2689454035462261  0.9790311976762763
  0.3712675680570583  0.2870048543907256  0.7938314191846007
  0.8421628571713616  0.7256622091728755  0.1925472429009989
  0.6610229171420416  0.1955018141609018  0.6734296386799301
  0.7514866000035084  0.9454993777403456  0.3963087954751675
  0.0953811167277927  0.2265608995845354  0.7522912083227760
  0.5513719173149108  0.9063911998132270  0.0064852679016973
  0.7978487051784492  0.0823257399347452  0.6608064109747126
  0.6418918263794352  0.3673653425854434  0.6893212899744172
  0.5274878683582402  0.8163634937196071  0.6372791694314085
 -0.0015889236652856  0.7019545933523822  0.5112438879129911
  0.6170555428095933  0.8803219949914344  0.2606616060650404
  0.2559128408378964  0.8889163005748277  0.8927253174819925
  0.2936394503041571  0.8030670220712958  0.2660377293964952
  0.0749630794882975  0.9807688700370039  0.9807464651259589
  0.7033231479169091  0.6179347258407268  0.6918066139495787
  0.4967590231858260  0.2945094374152997  0.1511511633927575
  0.0821743732518442  0.9288124744790087  0.8102803910951906
 -0.0143653990783985  0.2603388531803652  0.2745312336384706
  0.8428972869272264  0.7739238797343283  0.8503702116585401
  0.7655698752693811  0.3596394330835053  0.4951818329920168
  0.3242379806014066  0.2018922543557943  0.7096340776151423
  0.3688269387937776  0.4104375171120144  0.6269193348316555
  0.0912172595769581  0.8409328580686430  0.6251494756818529
  0.4653298666848250  0.2165402718252981  0.6040214073664449
  0.0794864637940334  0.7767408006065355  0.8747769876575026
  0.1419770897978341  0.8324632581744560  0.0301254110296680
  0.8914289043734738  0.2723203472218539  0.1493188777149391
  0.2881197302131818  0.1416314204429038  0.4987318275498204
  0.0061438845400617  0.8780932141528817  0.1689255316559070
  0.2361137102780003  0.6360538900994687  0.9649177703589966
  0.6029357315819315  0.3810493757751742  0.0829091434603159
  0.0717399343992755  0.6065446006053701  0.9741147190594243
  0.0420033811408253  0.5288924146874698  0.2139620573526540
  0.3374436728870243  0.5367804874373101  0.3263364168249679
  0.8849100909429065  0.7194576343410062  0.6531946856162869
  0.9311880930732971  0.0318464930891464  0.1037908443268626
  0.4995303275945217  0.0729674398041176  0.9178110667977665
  0.3199239318407253  0.3229551469609774  0.3336109392238580
  0.4413400356892533  0.2681098459666786  0.9645498835639339
  0.3122961004245290  0.0601191597648583  0.8325327931039007
  0.7961322398266587  0.6720373203411738  0.5297220396543819
  0.9711885719023244  0.5640499597666042  0.3112157703399334
  0.3709391920405608  0.7387014289153213  0.5520110275820043
  0.1695804899393907  0.3330697209228083  0.7458378699407096
  0.3999612170962354  0.9371971740765214  0.7944729457534131
  0.4448916970234539  0.9588876624696944  0.9529732672138813
  0.5072575517832951  0.9145688493815881  0.4571769142851914
  0.9272639624755998  0.7986333934785320  0.0188591586433478
  0.7544448326724219  0.0093480025596029  0.8218912571372803
  0.4748675724979939  0.1908767226145885  0.3032052313400594
  0.7818199455707605  0.3778413001004395  0.7118807580961130
  0.4593518381994489  0.0705644299471155  0.7334989533813291
  0.0536543827891886  0.1559174520249240  0.1071493261366308
  0.9179624432751680  0.0332617963997044  0.5276074803228037
  0.9477174189106374  0.7420018142346273  0.3323840043173781
  0.0863370240624333  0.0314754392500739  0.6238445802773094
  0.4618689618519255  0.4750071884782758  0.2409047957144292
  0.6149123719376177  0.7890109535971820  0.1323313608006924
  0.8785713463862069  0.0730614923577711  0.4091787914271359
  0.2461548374864174  0.8906204566044860  0.3407813765300395
  0.3222269663364442  0.6918120105598364  0.4177665597088666
  0.7380522973943200  0.6709073925562670  0.0977181451268121
  0.3915434455484975  0.6471370377018149  0.8790256630983969
  0.7152964513428136  0.3518112689855773  0.2623316130874552
  0.9526019308343086  0.6533800797644748  0.8347053049558153
  0.0200575640583377  0.1183257882362547  0.8578682046330544
  0.9959842793344930  0.8576924219314964  0.4594130318324025
  0.8981491729200474  0.2543324336484662  0.5855333209503626
  0.7644417777360778  0.1645208404365802  0.2614505670601658
  0.5066590085693055  0.6683812816679985  0.2682262427659682
  0.7552292111969431  0.7875414856156626  0.3609362774320859
  0.7513041189897069  0.8905876114029178  0.7759164632241426
  0.7604298035902615  0.4908226606030821 -0.0052092128366155
  0.7657469724026534  0.0997389073846691  0.9853430444308652
  0.9509227064032012  0.4457564628646901  0.0524532226320879
 -0.0290484876873744  0.0901637863816061  0.2343918240863537
  0.5576594013208130  0.2932724075819063  0.4538925481064912
  0.7412590423632273  0.6122208326082806  0.8371588291916326
  0.1961748816558514  0.6849224675729734  0.6550031915591098
  0.0170885038818910  0.4110402150272701  0.1734902013298008
  0.1230676281464608  0.3754252133330671  0.9393925951285518
  0.6364315891568768  0.6559977943465715  0.2788304800618692
  0.7286626233679661  0.5114719834010476  0.5192908887856793
  0.7811379508405255  0.1115356695801709  0.1421280417738006
  0.6128860001337952  0.5919388993003099  0.9792462196794582
  0.8995676357742237  0.2325780947030464  0.7686352746556709
  0.7476787833765716  0.6678168254443484  0.4094032493404602
  0.5132137199678086  0.5063548236080478  0.6323531606911613
  0.1505158597632290  0.2429669956407262  0.3807922356889172
  0.2381619060504120  0.2325125118622293  0.6290237426766419
  0.8728884803563692  0.3185770623000346  0.8491438532107974
  0.4016534156216428  0.8148869210012307  0.3252708318557804
  0.3498917046177907  0.6750328497209815  0.9873377065442704
  0.4665433988632051  0.7777103694225024  0.2296972222580239
  0.1038921254315023  0.3440860645146919  0.2387838864141806
  0.2848069601035664  0.3697232714855694  0.7544467390526500
  0.6861804038236702  0.7729310622373894  0.2577470472333439
  0.4969641973150222  0.6011611011408339  0.5520623815345598
  0.3198461062666103  0.8555577480155985  0.0524141743509167
  0.2870399883192817  0.9893887591332277  0.2886651337772024
  0.9098682656082014  0.1279950982309249  0.6159050616928806
  0.3800074386610163  0.1135235177671244  0.2856516849663026
  0.8538414121481713  0.4130034923764488  0.6177701654840980
  0.8654584265236300  0.0442365841176132  0.8655924538421608
  0.2634418030096584  0.5762736884112788  0.4236433447326542
  0.5167546065569140  0.1060427406935334  0.1489180557592917
  0.9798804214060598  0.8169249064596249  0.5795307738057015
  0.0411474059773227  0.6234617469741982  0.3899743462639381
  0.6002712728236739  0.6875638521946791  0.7174521909216297
  0.0745828043982247  0.6503159498600806  0.8491797385209101
  0.0343051201575675 -0.0001707691163801  0.5149037351786337
  0.5355249971376668  0.1685208446423883  0.6988646510875477
  0.4418409021940211  0.3023441698734571  0.2691891303241017
  0.6563381288567083  0.3052215521138240  0.5340879232568639
  0.0450167042802581  0.7548533341374968 -0.0024850318125343
  0.5935497387247276  0.9626737476752534  0.5419106785204053
  0.6166349763103451  0.6600056474848139  0.1269007365442367
 -0.0001451586994206  0.3816273586265049  0.9428801744939685
  0.7661680240686942  0.2677983345570427  0.1836985387178582
  0.5534000179688611  0.0580574505361505  0.3644676211868981
  0.3967736130788629  0.2573901934760199  0.0815997752435616
  0.6766749782576582  0.1250505807635236  0.0742674885765671
  0.2273743787160042  0.3963682238758305  0.3989566390957067
  0.7218936064378867  0.9583901257822844  0.2584746899261749
  0.5719564767337558  0.5121142162816512  0.2885398111203292
  0.2416259358518794  0.7052275811185339  0.3234685440356568
  0.3609580013570405  0.0966287303575625  0.6614426189189214
  0.5090617228315054  0.6888812235708835  0.8835844362361602
  0.9830373615972595  0.9217605138838184  0.0481351060329444
  0.5084484298419888  0.9529556533469956  0.6262108320229232
  0.4475005418895072  0.6579974826633596  0.3763905392903335
  0.1440502470657212  0.5264188587571039  0.2862547132325267
  0.0162841249330990  0.0384105673056887  0.3396740365757037
  0.5185516923915913  0.7919284982286328  0.0441770153462238
  0.8129505619008338  0.5097049582161731  0.8289688106303510
  0.5810967513803716  0.3862102831681025  0.7991500441815341
  0.5939736478830068  0.4193837978118118  0.3604934781359229
  0.6515694820296758  0.4962408919573688  0.0610078933407492
  0.8864105856019254  0.1666648615645790  0.2926946039993577
  0.8803414510687678  0.6445152335336248  0.2939100433820661
  0.1843264752811080  0.1437097324960279  0.0919273484591021
  0.4482284492560594  0.9389693189536603  0.1834463016861298
  0.6339349620003251  0.4841085902294892  0.6478378377294634
  0.1340722647922847  0.4439598599098971  0.5464365001737842
  0.4176432576145952  0.7573233849321841  0.6692224298383523
  0.3505306682808802  0.9259490401677745  0.6775292009335406
  0.6833213111598079  0.6246749861071531  0.5655592511730664
  0.6834150464912335  0.0165685390301294  0.9238182724144800
  0.0229981237814062  0.2123811380153354  0.3886105103321283
  0.7846531386547246  0.3602866122778197  0.3654689942320727
  0.9503504327941860  0.7559322319959317  0.1412906947123371
  0.2453186147227840  0.7660905733628415  0.5714209072417377
  0.8695758953247401  0.3441117264768681  0.0454388435829941
  0.0388560870778463  0.9335184421672054  0.6910806540100838
  0.1969461289407347  0.5200903040914570  0.7003648710524085
  0.6122958382148656  0.8892556948824211  0.3897712182619770
  0.4553514640316610  0.5906724059994972  0.1858810421773461
  0.7177214004323967  0.7894357244719580  0.0544448792761574
  0.4824742747076592  0.4097294442880889  0.5555625184988768
  0.0684656977020404  0.6039388250059273  0.1251982899279631
  0.9266332606839163  0.6010362769701962  0.6800312817019886
  0.3040485449261408  0.4364876031651272  0.2572041302830499
  0.8816182432846307  0.9438871265613709  0.4047620022874708
  0.0691997116506426  0.1718405725031276  0.2316806821889667
  0.7614084455556860  0.7349268883161539  0.6879736300375519
  0.2347454960520310  0.6223720813695878  0.8370831119036057
  0.8522930762617102  0.8139271813187718  0.2841925465805952
  0.1256940301511428  0.2631442104024574  0.5104018756843726
  0.3233235967757599  0.0437003624809598  0.1126404118115195
  0.1326955845905443  0.9156276941472352  0.3653560604979718
  0.7376166405144486  0.6183063990432272  0.9737091840786729
  0.7004714451521403  0.1122387847882332  0.5878030148554132
  0.1056138223812451  0.7507004529388427  0.7057371122725195
  0.6349591475638063  0.5479454380113040  0.8524473198672828
  0.4020222554201389  0.5247349813254336  0.8848829666370072
  0.0393541489806207  0.2716485650227597  0.0767763463669502
  0.7532605779888429  0.0731192593751290  0.4089878086144836
  0.1396213543960110  0.4864541981596534  0.9955325452053178
  0.7757587295439718  0.8975772497610808  0.5358484982516548
  0.3878809832778077  0.0633154487511394  0.4680393892496422
  0.8600607635652465  0.8806034666671773  0.9059237223116944
  0.0053403272405693  0.0854897063186117  0.9739885692910550
  0.0340217428305080  0.4156292736738145  0.4109725905315538
  0.9370038537168948  0.7598565061727922  0.7709733890850156
  0.9594813875980287  0.5503422097207924  0.9592138552610046
  0.1999698944836154  0.9848723274032528  0.5927317489940125
  0.2849299047041508  0.2549088077136634  0.9389443987495582
  0.3512982006982051  0.8259655586045713  0.8361382876408540
  0.2602601088143886  0.5880740914291128  0.1531711165422098
  0.4212890930404711  0.1301617516125169  0.8400793525272812
  0.6298097479180500  0.9458995425782754  0.0884699723295689
  0.8867471622981846  0.6934091776471711  0.9316392693645729
  0.2579299172762736  0.5016892218135127  0.9812960133707895
  0.4870223751634448  0.4187174798003946  0.1265604663097247
 -0.0043353494492605  0.2873918229350322  0.7091360863119163
  0.0917635192241583  0.7691433198497732  0.4519793025135469
  0.0174095152799399  0.4628474523971067  0.6729077855298276
  0.1189801462315911  0.0510069568303875  0.8254727148846981
  0.6176070882054009  0.8549660775855485  0.9133319912548665
  0.4106547567698917  0.4749188262368569  0.4032502163597046
  0.5075711937433970  0.8711942896184831  0.7717586449256020
  0.1771529780447386  0.7693604328196276  0.1377250828851650
  0.8593211120006474  0.9014435631565673  0.7130362906270156
  0.2900984088614727  0.0467503355125244  0.9509330870225250
  0.6974964402014474  0.2372512459649210  0.0142879734739093
  0.3650685790501872  0.5720067693464088  0.7000632845742649
  0.8223894233125550  0.2431999827184693  0.4845564067849337
  0.2077108201224518  0.1286556864040674  0.3964688180465397
  0.6273564081019369  0.2458146484938729  0.3554713028263408
  0.6828210118218170  0.9483318089785762  0.6880384468135995
  0.8486712703825660  0.5578379733968507  0.5136567020937478
  0.1140819063628447  0.6198109964124195  0.5732315683089457
  0.6229515220040115  0.6849501685709153  0.4110603056509110
  0.7326202839357493  0.4702149048842700  0.2232783340486459
  0.8095182578012129  0.2542016852199679  0.6815245163923140
  0.9045135096525931  0.7614444228642490  0.4448538850341049
  0.5427098821315326  0.1763769383995473  0.5097089735368705
  0.8495987139313113  0.5254267850632406  0.0828689576429276
  0.3175686973209493  0.8851155800795842  0.4384823958371706
  0.2174779464913875  0.3293097054397517  0.0948159393879478
  0.7166590841054779  0.3482667279444314  0.9391672681317160
  0.9062922612333751  0.9535739968497946  0.2096415432837880
  0.1212960098379864  0.4223042287902675  0.8216527342328297
  0.7048844570629949  0.5471962468863873  0.3969582360315932
  0.5290982747530604  0.3673486484140759  0.9775732300464987
  0.1991076263863064  0.8966307343895068  0.7767239244242257
  0.5208869331460079  0.1697099667160012 -0.0062944073308727
  0.1968982379013238  0.7784203796570331  0.9281450677905368
  0.1123920980929097  0.9701806687679035  0.1833149520247532
  0.4433585487172336  0.3617729653755358  0.7170378481462983
  0.7606003247687315  0.1784622031206609  0.8548736238753859
  0.9123228998843425  0.4033113338539400  0.2447244328802574
  0.2462562579907293  0.1672015750922919  0.8007321426076512
  0.0744750222520176  0.2253082392143059  0.8725302222719041
  0.5089942100060255  0.7970057993464974  0.5072799863801671
  0.8056150894067432  0.0023322823485548  0.0828221252491601
  0.3504095152665481  0.2476189959384164  0.4666937159675412
  0.2481501836180445  0.2579806425321941  0.2582112319611830
  0.8709387859548884  0.1656862188706612  0.0784755012642577
 
  0.00000000E+00  0.00000000E+00  0.00000000E+00
  0.00000000E+00  0.00000000E+00  0.00000000E+00
  0.00000000E+00  0.00000000E+00  0.00000000E+00
  0.00000000E+00  0.00000000E+00  0.00000000E+00
  0.00000000E+00  0.00000000E+00  0.00000000E+00
  0.00000000E+00  0.00000000E+00  0.00000000E+00
  0.00000000E+00  0.00000000E+00  0.00000000E+00
  0.00000000E+00  0.00000000E+00  0.00000000E+00
  0.00000000E+00  0.00000000E+00  0.00000000E+00
  0.00000000E+00  0.00000000E+00  0.00000000E+00
  0.00000000E+00  0.00000000E+00  0.00000000E+00
  0.00000000E+00  0.00000000E+00  0.00000000E+00
  0.00000000E+00  0.00000000E+00  0.00000000E+00
  0.00000000E+00  0.00000000E+00  0.00000000E+00
  0.00000000E+00  0.00000000E+00  0.00000000E+00
  0.00000000E+00  0.00000000E+00  0.00000000E+00
  0.00000000E+00  0.00000000E+00  0.00000000E+00
  0.00000000E+00  0.00000000E+00  0.00000000E+00
  0.00000000E+00  0.00000000E+00  0.00000000E+00
  0.00000000E+00  0.00000000E+00  0.00000000E+00
  0.00000000E+00  0.00000000E+00  0.00000000E+00
  0.00000000E+00  0.00000000E+00  0.00000000E+00
  0.00000000E+00  0.00000000E+00  0.00000000E+00
  0.00000000E+00  0.00000000E+00  0.00000000E+00
  0.00000000E+00  0.00000000E+00  0.00000000E+00
  0.00000000E+00  0.00000000E+00  0.00000000E+00
  0.00000000E+00  0.00000000E+00  0.00000000E+00
  0.00000000E+00  0.00000000E+00  0.00000000E+00
  0.00000000E+00  0.00000000E+00  0.00000000E+00
  0.00000000E+00  0.00000000E+00  0.00000000E+00
  0.00000000E+00  0.00000000E+00  0.00000000E+00
  0.00000000E+00  0.00000000E+00  0.00000000E+00
  0.00000000E+00  0.00000000E+00  0.00000000E+00
  0.00000000E+00  0.00000000E+00  0.00000000E+00
  0.00000000E+00  0.00000000E+00  0.00000000E+00
  0.00000000E+00  0.00000000E+00  0.00000000E+00
  0.00000000E+00  0.00000000E+00  0.00000000E+00
  0.00000000E+00  0.00000000E+00  0.00000000E+00
  0.00000000E+00  0.00000000E+00  0.00000000E+00
  0.00000000E+00  0.00000000E+00  0.00000000E+00
  0.00000000E+00  0.00000000E+00  0.00000000E+00
  0.00000000E+00  0.00000000E+00  0.00000000E+00
  0.00000000E+00  0.00000000E+00  0.00000000E+00
  0.00000000E+00  0.00000000E+00  0.00000000E+00
  0.00000000E+00  0.00000000E+00  0.00000000E+00
  0.00000000E+00  0.00000000E+00  0.00000000E+00
  0.00000000E+00  0.00000000E+00  0.00000000E+00
  0.00000000E+00  0.00000000E+00  0.00000000E+00
  0.00000000E+00  0.00000000E+00  0.00000000E+00
  0.00000000E+00  0.00000000E+00  0.00000000E+00
  0.00000000E+00  0.00000000E+00  0.00000000E+00
  0.00000000E+00  0.00000000E+00  0.00000000E+00
  0.00000000E+00  0.00000000E+00  0.00000000E+00
  0.00000000E+00  0.00000000E+00  0.00000000E+00
  0.00000000E+00  0.00000000E+00  0.00000000E+00
  0.00000000E+00  0.00000000E+00  0.00000000E+00
  0.00000000E+00  0.00000000E+00  0.00000000E+00
  0.00000000E+00  0.00000000E+00  0.00000000E+00
  0.00000000E+00  0.00000000E+00  0.00000000E+00
  0.00000000E+00  0.00000000E+00  0.00000000E+00
  0.00000000E+00  0.00000000E+00  0.00000000E+00
  0.00000000E+00  0.00000000E+00  0.00000000E+00
  0.00000000E+00  0.00000000E+00  0.00000000E+00
  0.00000000E+00  0.00000000E+00  0.00000000E+00
  0.00000000E+00  0.00000000E+00  0.00000000E+00
  0.00000000E+00  0.00000000E+00  0.00000000E+00
  0.00000000E+00  0.00000000E+00  0.00000000E+00
  0.00000000E+00  0.00000000E+00  0.00000000E+00
  0.00000000E+00  0.00000000E+00  0.00000000E+00
  0.00000000E+00  0.00000000E+00  0.00000000E+00
  0.00000000E+00  0.00000000E+00  0.00000000E+00
  0.00000000E+00  0.00000000E+00  0.00000000E+00
  0.00000000E+00  0.00000000E+00  0.00000000E+00
  0.00000000E+00  0.00000000E+00  0.00000000E+00
  0.00000000E+00  0.00000000E+00  0.00000000E+00
  0.00000000E+00  0.00000000E+00  0.00000000E+00
  0.00000000E+00  0.00000000E+00  0.00000000E+00
  0.00000000E+00  0.00000000E+00  0.00000000E+00
  0.00000000E+00  0.00000000E+00  0.00000000E+00
  0.00000000E+00  0.00000000E+00  0.00000000E+00
  0.00000000E+00  0.00000000E+00  0.00000000E+00
  0.00000000E+00  0.00000000E+00  0.00000000E+00
  0.00000000E+00  0.00000000E+00  0.00000000E+00
  0.00000000E+00  0.00000000E+00  0.00000000E+00
  0.00000000E+00  0.00000000E+00  0.00000000E+00
  0.00000000E+00  0.00000000E+00  0.00000000E+00
  0.00000000E+00  0.00000000E+00  0.00000000E+00
  0.00000000E+00  0.00000000E+00  0.00000000E+00
  0.00000000E+00  0.00000000E+00  0.00000000E+00
  0.00000000E+00  0.00000000E+00  0.00000000E+00
  0.00000000E+00  0.00000000E+00  0.00000000E+00
  0.00000000E+00  0.00000000E+00  0.00000000E+00
  0.00000000E+00  0.00000000E+00  0.00000000E+00
  0.00000000E+00  0.00000000E+00  0.00000000E+00
  0.00000000E+00  0.00000000E+00  0.00000000E+00
  0.00000000E+00  0.00000000E+00  0.00000000E+00
  0.00000000E+00  0.00000000E+00  0.00000000E+00
  0.00000000E+00  0.00000000E+00  0.00000000E+00
  0.00000000E+00  0.00000000E+00  0.00000000E+00
  0.00000000E+00  0.00000000E+00  0.00000000E+00
  0.00000000E+00  0.00000000E+00  0.00000000E+00
  0.00000000E+00  0.00000000E+00  0.00000000E+00
  0.00000000E+00  0.00000000E+00  0.00000000E+00
  0.00000000E+00  0.00000000E+00  0.00000000E+00
  0.00000000E+00  0.00000000E+00  0.00000000E+00
  0.00000000E+00  0.00000000E+00  0.00000000E+00
  0.00000000E+00  0.00000000E+00  0.00000000E+00
  0.00000000E+00  0.00000000E+00  0.00000000E+00
  0.00000000E+00  0.00000000E+00  0.00000000E+00
  0.00000000E+00  0.00000000E+00  0.00000000E+00
  0.00000000E+00  0.00000000E+00  0.00000000E+00
  0.00000000E+00  0.00000000E+00  0.00000000E+00
  0.00000000E+00  0.00000000E+00  0.00000000E+00
  0.00000000E+00  0.00000000E+00  0.00000000E+00
  0.00000000E+00  0.00000000E+00  0.00000000E+00
  0.00000000E+00  0.00000000E+00  0.00000000E+00
  0.00000000E+00  0.00000000E+00  0.00000000E+00
  0.00000000E+00  0.00000000E+00  0.00000000E+00
  0.00000000E+00  0.00000000E+00  0.00000000E+00
  0.00000000E+00  0.00000000E+00  0.00000000E+00
  0.00000000E+00  0.00000000E+00  0.00000000E+00
  0.00000000E+00  0.00000000E+00  0.00000000E+00
  0.00000000E+00  0.00000000E+00  0.00000000E+00
  0.00000000E+00  0.00000000E+00  0.00000000E+00
  0.00000000E+00  0.00000000E+00  0.00000000E+00
  0.00000000E+00  0.00000000E+00  0.00000000E+00
  0.00000000E+00  0.00000000E+00  0.00000000E+00
  0.00000000E+00  0.00000000E+00  0.00000000E+00
  0.00000000E+00  0.00000000E+00  0.00000000E+00
  0.00000000E+00  0.00000000E+00  0.00000000E+00
  0.00000000E+00  0.00000000E+00  0.00000000E+00
  0.00000000E+00  0.00000000E+00  0.00000000E+00
  0.00000000E+00  0.00000000E+00  0.00000000E+00
  0.00000000E+00  0.00000000E+00  0.00000000E+00
  0.00000000E+00  0.00000000E+00  0.00000000E+00
  0.00000000E+00  0.00000000E+00  0.00000000E+00
  0.00000000E+00  0.00000000E+00  0.00000000E+00
  0.00000000E+00  0.00000000E+00  0.00000000E+00
  0.00000000E+00  0.00000000E+00  0.00000000E+00
  0.00000000E+00  0.00000000E+00  0.00000000E+00
  0.00000000E+00  0.00000000E+00  0.00000000E+00
  0.00000000E+00  0.00000000E+00  0.00000000E+00
  0.00000000E+00  0.00000000E+00  0.00000000E+00
  0.00000000E+00  0.00000000E+00  0.00000000E+00
  0.00000000E+00  0.00000000E+00  0.00000000E+00
  0.00000000E+00  0.00000000E+00  0.00000000E+00
  0.00000000E+00  0.00000000E+00  0.00000000E+00
  0.00000000E+00  0.00000000E+00  0.00000000E+00
  0.00000000E+00  0.00000000E+00  0.00000000E+00
  0.00000000E+00  0.00000000E+00  0.00000000E+00
  0.00000000E+00  0.00000000E+00  0.00000000E+00
  0.00000000E+00  0.00000000E+00  0.00000000E+00
  0.00000000E+00  0.00000000E+00  0.00000000E+00
  0.00000000E+00  0.00000000E+00  0.00000000E+00
  0.00000000E+00  0.00000000E+00  0.00000000E+00
  0.00000000E+00  0.00000000E+00  0.00000000E+00
  0.00000000E+00  0.00000000E+00  0.00000000E+00
  0.00000000E+00  0.00000000E+00  0.00000000E+00
  0.00000000E+00  0.00000000E+00  0.00000000E+00
  0.00000000E+00  0.00000000E+00  0.00000000E+00
  0.00000000E+00  0.00000000E+00  0.00000000E+00
  0.00000000E+00  0.00000000E+00  0.00000000E+00
  0.00000000E+00  0.00000000E+00  0.00000000E+00
  0.00000000E+00  0.00000000E+00  0.00000000E+00
  0.00000000E+00  0.00000000E+00  0.00000000E+00
  0.00000000E+00  0.00000000E+00  0.00000000E+00
  0.00000000E+00  0.00000000E+00  0.00000000E+00
  0.00000000E+00  0.00000000E+00  0.00000000E+00
  0.00000000E+00  0.00000000E+00  0.00000000E+00
  0.00000000E+00  0.00000000E+00  0.00000000E+00
  0.00000000E+00  0.00000000E+00  0.00000000E+00
  0.00000000E+00  0.00000000E+00  0.00000000E+00
  0.00000000E+00  0.00000000E+00  0.00000000E+00
  0.00000000E+00  0.00000000E+00  0.00000000E+00
  0.00000000E+00  0.00000000E+00  0.00000000E+00
  0.00000000E+00  0.00000000E+00  0.00000000E+00
  0.00000000E+00  0.00000000E+00  0.00000000E+00
  0.00000000E+00  0.00000000E+00  0.00000000E+00
  0.00000000E+00  0.00000000E+00  0.00000000E+00
  0.00000000E+00  0.00000000E+00  0.00000000E+00
  0.00000000E+00  0.00000000E+00  0.00000000E+00
  0.00000000E+00  0.00000000E+00  0.00000000E+00
  0.00000000E+00  0.00000000E+00  0.00000000E+00
  0.00000000E+00  0.00000000E+00  0.00000000E+00
  0.00000000E+00  0.00000000E+00  0.00000000E+00
  0.00000000E+00  0.00000000E+00  0.00000000E+00
  0.00000000E+00  0.00000000E+00  0.00000000E+00
  0.00000000E+00  0.00000000E+00  0.00000000E+00
  0.00000000E+00  0.00000000E+00  0.00000000E+00
  0.00000000E+00  0.00000000E+00  0.00000000E+00
  0.00000000E+00  0.00000000E+00  0.00000000E+00
  0.00000000E+00  0.00000000E+00  0.00000000E+00
  0.00000000E+00  0.00000000E+00  0.00000000E+00
  0.00000000E+00  0.00000000E+00  0.00000000E+00
  0.00000000E+00  0.00000000E+00  0.00000000E+00
  0.00000000E+00  0.00000000E+00  0.00000000E+00
  0.00000000E+00  0.00000000E+00  0.00000000E+00
  0.00000000E+00  0.00000000E+00  0.00000000E+00
  0.00000000E+00  0.00000000E+00  0.00000000E+00
  0.00000000E+00  0.00000000E+00  0.00000000E+00
  0.00000000E+00  0.00000000E+00  0.00000000E+00
  0.00000000E+00  0.00000000E+00  0.00000000E+00
  0.00000000E+00  0.00000000E+00  0.00000000E+00
  0.00000000E+00  0.00000000E+00  0.00000000E+00
  0.00000000E+00  0.00000000E+00  0.00000000E+00
  0.00000000E+00  0.00000000E+00  0.00000000E+00
  0.00000000E+00  0.00000000E+00  0.00000000E+00
  0.00000000E+00  0.00000000E+00  0.00000000E+00
  0.00000000E+00  0.00000000E+00  0.00000000E+00
  0.00000000E+00  0.00000000E+00  0.00000000E+00
  0.00000000E+00  0.00000000E+00  0.00000000E+00
  0.00000000E+00  0.00000000E+00  0.00000000E+00
  0.00000000E+00  0.00000000E+00  0.00000000E+00
  0.00000000E+00  0.00000000E+00  0.00000000E+00
  0.00000000E+00  0.00000000E+00  0.00000000E+00
  0.00000000E+00  0.00000000E+00  0.00000000E+00
  0.00000000E+00  0.00000000E+00  0.00000000E+00
  0.00000000E+00  0.00000000E+00  0.00000000E+00
  0.00000000E+00  0.00000000E+00  0.00000000E+00
  0.00000000E+00  0.00000000E+00  0.00000000E+00
  0.00000000E+00  0.00000000E+00  0.00000000E+00
  0.00000000E+00  0.00000000E+00  0.00000000E+00
  0.00000000E+00  0.00000000E+00  0.00000000E+00
  0.00000000E+00  0.00000000E+00  0.00000000E+00
  0.00000000E+00  0.00000000E+00  0.00000000E+00
  0.00000000E+00  0.00000000E+00  0.00000000E+00
  0.00000000E+00  0.00000000E+00  0.00000000E+00
  0.00000000E+00  0.00000000E+00  0.00000000E+00
  0.00000000E+00  0.00000000E+00  0.00000000E+00
  0.00000000E+00  0.00000000E+00  0.00000000E+00
  0.00000000E+00  0.00000000E+00  0.00000000E+00
  0.00000000E+00  0.00000000E+00  0.00000000E+00