Amorphous Sb                            
   1.00000000000000     
    21.3885642626252945    0.0000000000000000    0.0000000000000000
     0.0000000000000000   21.3885642626252945    0.0000000000000000
     0.0000000000000000    0.0000000000000000   21.3885642626252945
   Pb   Se
   150   150
Direct
  0.5037310460507601  0.0046651541333205  0.5276027106366525
  0.3746275492878098  0.5029086496345706  0.3809297047607637
  0.6479387141794336  0.8695629192422102  0.0471551066278856
  0.6896220927498108  0.2793298135979473  0.0923564631609696
  0.1647790679221889  0.6856584213246525  0.6398280011380593
  0.9823934046968046  0.2595076356299467  0.1468975799692842
  0.7182861717543072  0.4301542856301598  0.2175120050712015
  0.8729861541013922  0.9101611520086549  0.7019388986791881
  0.4214410228336357  0.2480715471740635  0.0174590015657545
  0.4436902120538185  0.2298022292022796  0.4204710940786512
  0.1076168956879120  0.1318185529386490  0.1778811284387320
  0.3747715301068459  0.8671415586631021  0.2598609469614450
  0.5859884507099258  0.7152317244546175  0.3325492487215432
  0.4084600054673624  0.6829377111320580  0.2848921555808959
  0.6244437613307254  0.1555363475113865  0.5198625356335156
  0.9701264792639016  0.6525297846695119  0.6674537541959021
  0.3422291327150235  0.0790773641593681  0.5331206448302530
  0.3141389310210940  0.2350153898350680  0.8597331255930377
  0.4361915982371937  0.3562395495799378  0.1740735393027693
  0.8131601602690703  0.4888227343898684  0.3987836463426862
  0.5373936911729936  0.3194007936261795  0.5241071917918040
  0.0055318593063955  0.3964968924566110  0.7514065958311703
  0.4270983630797057  0.5308511289081331  0.7511050500836824
  0.5193512517940428  0.5314038704747128  0.2462631177410889
  0.9310914937075573  0.3703230865221171  0.0221626424442299
  0.8393492401708610  0.9361651825067597  0.0888910811470553
  0.0116625673571695  0.0138792942937915  0.6165099986896835
  0.8937100746931995  0.7069231041009341  0.8335366186242459
  0.4071468171925464  0.8779456515282006  0.7130154680406221
  0.1820688144904575  0.7296099396355459  0.8217425769212133
  0.4959464441168400  0.8675233908274120  0.9592647914717494
  0.2500578095396675  0.1671204249014605  0.0484170120682071
  0.8130932928967495  0.3823658793548965  0.7248125898622686
  0.9397641878501327  0.1123181102655563  0.7608328597647347
  0.8778769127498448  0.6292509298561346  0.2293681748149244
  0.0433668677368825  0.4320990873400009  0.5494615070370853
  0.7794685585374440  0.2177597634656604  0.8228050552456649
  0.1402868574089935  0.0106667612535817  0.3444928794590378
  0.6163134790657657  0.2478727354826292  0.7137115554741382
 -0.0010669027093063  0.6134705294217049  0.0621364258975766
  0.3258336632856212  0.5436150865136943  0.1669682591677692
  0.1812796746969552  0.3551862261896656  0.4371805776235722
  0.7027422248811457  0.0760444477644055  0.9498239813548421
  0.2555189481165187  0.9258598505693219  0.0276384592075316
  0.4265250802501238  0.3139354312194733  0.6779856532019244
  0.5858144632965909  0.2151485680156437  0.9462921184125949
  0.4248082654904164  0.4154034468817574  0.9353972518564311
  0.7063229654971923  0.8098789873910265  0.9056992267737445
  0.9942845574038595  0.4985743240090889  0.3505822416293171
  0.7820504378754146  0.0011385721044703  0.5156377850853924
  0.9333694799044030  0.2444638459755794  0.8789141880693376
  0.7788335197768910  0.9134829714534572  0.2949953830911152
  0.2423917820424428  0.8931618114643959  0.8418450896655265
  0.2595139084079758  0.7418267503109685  0.3512304438222985
  0.1921909586708558  0.3511479619228843  0.6537206730700212
  0.2450410456429291  0.9250709162442999  0.6161366115294021
  0.6356494399222919  0.4591799876576525  0.8076093495505604
  0.3660180082646942  0.0314934659447427  0.8697999020167584
  0.7417299390382484  0.2798553849639079  0.4580742735199788
  0.0677353128546974  0.8313378426102573  0.7615104126186178
  0.1446479684137826  0.7079621013323432  0.4614109695945107
  0.8509804616259052  0.7855302790118446  0.5694534110873923
  0.8023225917972449  0.5056149628862090  0.0328186450838973
  0.2726165757978744  0.5586218121116029  0.9096522044887103
  0.3351675978027154  0.1047440518343935  0.3493846408221226
  0.8567971622430677  0.6988987137559949  0.9886131577703144
  0.9806493069695998  0.2258229094128497  0.6154813945992853
  0.3346254929413573  0.7072359130833595  0.9020786485141877
  0.5707019105006101  0.7121308866364228  0.6733930413795380
  0.5323688264789399  0.1818446608452506  0.1636824528161870
  0.1635282087284671  0.6733862232209304  0.9988673401958088
  0.3493438204811411  0.1900915273203763  0.2162463189278061
  0.8167095271140009  0.1820388854462862  0.1056100768573225
  0.2836940743502468  0.4053566545195481  0.7910453979695273
  0.3483747040469622  0.6948390224617625  0.6907116332730009
  0.0241449465213227  0.7849255453924641  0.0851882030597400
  0.9586708631939300  0.9309761954585630  0.2870884544472673
  0.7434937019371106  0.8021860948785283  0.7469577308813292
  0.9180593048436726  0.0970972515220487 -0.0012437763900133
  0.9275442278877876  0.9562209206023979  0.8740451175992433
  0.1451120597352693  0.3497103823944015  0.2234149992970470
  0.2717642607660912  0.9969093093839889  0.1979782132509436
  0.3484027867732546  0.3406778272378665  0.3255219845710016
  0.7466557155493226  0.0207922779286563  0.7870162434118639
  0.4823641473669655  0.2090817168446557  0.8125465265683576
  0.5786650080194363  0.8929406377441189  0.2436106193998711
  0.8554160912285191  0.4818105671625990  0.8566440212183640
  0.3271331969086713  0.7459175462936932  0.0736390958802506
  0.2664176355811325  0.3897421388791925  0.0779170691874731
  0.5834707346105878  0.5317244341905052  0.6693180965544268
  0.6582908389036884  0.8645314788934499  0.5711797156427787
  0.4521439925641347  0.0534095166352744  0.7137973755314008
  0.1083146709960769  0.0432286040647322  0.9539190842492333
  0.5266044471518545  0.7357369463716898  0.1180016819691957
  0.7097888523486807  0.3629143038081808  0.9297210117348025
  0.6581477585844570  0.6260000848171523  0.9353415994866690
  0.8519469713195926  0.5016103161712219  0.5895619715446477
  0.6897376344229614  0.4267668757399802  0.5808024334958843
  0.3134121315340992  0.7829278089890362  0.5435155488344944
  0.5242403218219002  0.0406305586364373  0.9224994081379415
  0.4916781398658401  0.4854969079359195  0.5177500804191076
  0.1324708313882418  0.4229443364216546  0.9189194292126404
  0.9973380852022081  0.7650201316821735  0.3211554791206730
  0.7979517740515313  0.2154475774399314  0.6324246982321828
  0.5230625634194198  0.0470472100890498  0.3188874962073337
  0.1647702932490918  0.0213548793416510  0.7328864310747447
  0.0253457153775408  0.5822371227304962  0.8810875729720554
  0.7900814745736890  0.6382240393380718  0.7082289522650170
  0.8051006389729789  0.3001800559690421  0.2738141411885973
  0.2245984802055613  0.5406300073057834  0.4499676572581716
  0.1167337312290437  0.2822755015045690  0.0012318883372827
  0.5840720940360555  0.9296550460229517  0.7843396931134703
  0.7732722220504705  0.7665089669809931  0.1495430550809300
  0.0179130127536774  0.1272077030865105  0.3614763066624893
  0.0882281165192243  0.8200824038259210  0.9210866677687086
  0.1687656617681202  0.8126335194592537  0.2032950284668941
  0.0757984148454843  0.8670320397888018  0.5276501224325381
  0.5944697723162364  0.3440948355760111  0.3480047655788652
  0.6276540681920206  0.5531933130657971  0.4100278203858754
  0.2999227869281577  0.5333152005660814  0.6223932124574286
  0.5657749218520460  0.4286975915893272  0.0427691116495789
  0.1516462391671113  0.5936021164982136  0.2887055685261981
  0.5187321003450879  0.7205223764190046  0.8568633729654888
  0.7016835574035831  0.0386950908298281  0.1915542067912887
  0.8868046045886868  0.1095797229967123  0.2658741132860731
  0.3271874228165193  0.3276085302410492  0.5183085652702458
  0.9306620688250844  0.4444097128283692  0.1814579564541372
  0.1009379726836459  0.5118216400593344  0.1249639899968635
  0.3100314709335030  0.9216611326202788  0.4204871974393645
  0.2439606353972844  0.1761217835601846  0.6996055571733337
  0.4725588881629759  0.6752558892706345  0.5080783026884599
  0.9857617607523281  0.3064646353191989  0.3731277008798230
  0.9193291536677258  0.8986464225540624  0.4429995509538430
  0.1338497724392999  0.1416135191784706  0.5452108790096811
  0.4351197242899036  0.5895127127387132  0.0260018765195815
  0.6894905700583234  0.6710614661838250  0.5100822465282682
  0.4481384344518761  0.9978811494601413  0.1199305089824839
  0.9443080760162135  0.6200156028340534  0.4736589593785294
  0.7423808650976335  0.1253994561390274  0.3690960041577481
  0.4806571395827567  0.8469326775610811  0.4955367713958680
  0.1063277447292088  0.1958421833855148  0.8198831614678243
  0.8064789359053725  0.7497201743356567  0.3898964898263110
  0.6663463177824671  0.5830699806002049  0.1312938410828211
  0.1536482395400243  0.1896302505812553  0.3658260500182086
  0.7248673157388303  0.6570246073443222  0.2868547736940943
  0.1310201793894232  0.5467430813485634  0.7019838859685043
  0.8992779721954847  0.1369375033328979  0.4749759906034948
  0.6196178822615606  0.0401643371013822  0.6558745608088700
  0.0613662872192481  0.9650258097481417  0.1217571167341656
  0.6352486429514380  0.9026030216381170  0.4079061004767303
  0.9127404204009782  0.5444088312664598  0.9602621529351776
  0.5633708955780168  0.3957842604090736  0.9117054536790363
  0.2647175453012129  0.4288820040979105  0.9300175019376091
  0.6083743684963252  0.7518714619320331  0.9775871364369801
  0.8819037295787540  0.1025338675248730  0.6275700204653092
  0.8098121306571394  0.3633507038898564  0.5939766937138599
  0.1265068592160464  0.4474788899162971  0.7872207503993288
  0.1673393590346205  0.0451318196347351  0.0872662216115614
  0.2851067667629314  0.6175492031821425  0.0411959506713664
  0.6190995500444936  0.9371527764864280  0.9287568411611918
  0.7268869659740210  0.4985394244462181  0.8956952339762350
  0.9236523142039814  0.4768979058329491  0.4778932129643746
  0.7488942346303910  0.6285630019897590  0.0337361700487373
  0.8609879896019750  0.3205847195728468  0.1275225376758955
  0.6490912856759091  0.7063580009911342  0.1787779720096834
  0.4269003335584141  0.3880488543484666  0.4396235368557268
  0.5264329899655595  0.9382638365116440  0.6550925575398954
  0.7587635973586747  0.1485945817522773  0.5115346204121795
  0.2084888836651514  0.4709482849311537  0.1869886323787665
  0.4593529083759524  0.2456978023665358  0.2698087184269160
  0.7662403000870641  0.8643681194022859  0.4858024928976705
  0.9020364898158244  0.5859438294488043  0.7674372826868275
  0.1364774901359752  0.8692371893931083  0.0663986830630456
  0.0060040102929003  0.5558835810179006  0.2246589842342273
  0.1801625409651037  0.4415386262735517  0.5412430674816414
  0.7155674675694790  0.5120145704396258  0.6922700519112737
  0.2291213593210470  0.2411067593789833  0.5872470857750752
  0.8548907245314271  0.6163335264987768  0.3693045969553008
  0.8563830047864723  0.9915809046142737  0.2124507077756147
  0.9093538562727727  0.7025210084878883  0.1114826133928020
  0.3088208357652064  0.2375011447793506  0.4075715424595915
  0.6695557661133467  0.0074918324669405  0.3231960327891398
  0.9749478172070103  0.9840131210122615  0.7500111413028226
  0.1148040970164259  0.9305916106395574  0.8391141470056306
  0.8445842123252298  0.2289835676237004  0.3796320674271015
  0.9874776131786536  0.2476773922087759  0.0110887534714230
  0.2143170862411264  0.8501135156476518  0.4818509629923489
  0.7189584450539188  0.2148126956274913  0.9538787630656839
  0.3972503371918268  0.3385007978147896  0.8266145807460633
  0.4450381705567621  0.0957999964395156  0.4326562900040690
  0.5812935498482918  0.7529613585564942  0.4644160296157989
  0.5223958042018620  0.4070762049546849  0.6237367548871298
  0.5842028840012222  0.6046411334544263  0.5574437892862222
  0.8762189659868926  0.7590306985534324  0.7123514969503879
  0.5650329306800062  0.0480493101401696  0.1856637198515958
  0.8616664120889651  0.7987143872910328  0.2789299983135608
  0.4233324866620923  0.5788019613167417  0.6208250107693983
  0.3993887260955374  0.7617214896471728  0.7966455367359195
  0.5840612836198354  0.3915265818664237  0.2077702611199094
  0.6471119341372149  0.0056088301252998  0.5220372118648209
  0.4586805079643740  0.7671453601634777  0.6076860210946070
  0.6031732228315486  0.4292310854510513  0.4591374854814549
  0.5233561783788898  0.8751669922552872  0.0950072891016329
  0.2984545858869627  0.5790832485198361  0.7509085630000394
  0.8502798452443704  0.3541020990366478  0.9163826162348579
  0.2433169297167397  0.0071175546866834  0.9142416409877563
  0.9210986535658323  0.7589701142178527  0.4550262578479164
  0.0303992519532480  0.8427464781345385  0.2100016481289579
  0.4348828461334680  0.7263942545382110  0.9929528094813402
  0.6715334344026707  0.8177940693850853  0.3102654383639112
  0.3883441392451649  0.7759948451071371  0.4324415018224436
  0.5082500969671998  0.9208719371241543  0.3606419496143211
  0.4094343457630609  0.1482933131471873  0.1043575335534034
  0.6014751370589905  0.7952406001547115  0.7815058119334707
  0.8642559098923565  0.6414647464850322  0.5801369274117528
  0.0130427118952175  0.5165315422935003  0.6480439606441585
  0.7455792569726725  0.5295581001694063  0.5105159510874870
  0.2823112149225788  0.6085976314799642  0.3334254753301591
  0.0838376394912110  0.3985654508003888  0.3547039580248543
  0.0519904877976656  0.3332264120575744  0.6457402025922153
  0.4892433398905289  0.7872837193774646  0.2407688003046635
  0.7571726645669912  0.1653022566499086  0.2257015056755276
  0.2138374603706237  0.2898663548673953  0.7813950059847004
  0.2543888648983242  0.6598537397033960  0.5370632623204654
  0.3949191815126173  0.0193835884380801  0.2553484101166533
  0.3855440613319545  0.4535484983395608  0.0804607088109304
  0.8860396993968265  0.2678876130818447  0.7389148701575222
  0.6381865774979545  0.2918090221511233  0.2171688788989647
  0.8065839940469474  0.9078852815847963  0.8282619238889192
  0.0241467048972045  0.2189653763825259  0.4849928712475042
  0.3053879395652896  0.7510843643495474  0.2269927954957919
  0.1131912880055102  0.9253449869667686  0.6579644870708712
  0.3737601992316057  0.9451795857872144  0.5450355072475955
  0.7247756563854083  0.3776249800457726  0.3512131698018643
  0.7565265616186700  0.6932281910866703  0.8444312205750005
  0.0106402554308884  0.1175103425795306  0.8809062549911110
  0.6314227481893758  0.2220530446821869  0.4020028864937368
  0.6968220407688073  0.4094960854818928  0.0642369487421842
  0.4498270318017334  0.6224288862925211  0.1720687202662901
  0.2059865891032557  0.1121176455341294  0.2700226584292994
  0.3072571832431086  0.3150196316270809  0.1896261111686218
  0.5103850897291232  0.1114893451856270  0.6069522222325682
  0.1073220643269012  0.6842671411267691  0.1188806409164952
  0.5920167344317316  0.1048168339025436  0.0195030120977444
  0.7117421518931645  0.1586745884773639  0.7197703946742265
  0.1656548080890861  0.1698981120019030  0.9425548686385986
  0.0438220845678804  0.3092367831565286  0.8506624702554478
  0.6694617638669803  0.5383866359801542  0.2818257385060967
  0.0597729372755226  0.2384883477732977  0.2796306534338283
  0.0147941173826066  0.6933959529459663  0.9546618247515193
  0.0624804682978864  0.7281400965178181  0.5652596739748448
  0.9856789891835201  0.0255159591786797  0.4522050155048771
  0.9719349170424664  0.8306985402032937  0.8593704333153868
  0.2326570977796399  0.7807968956985534  0.7045228282042739
  0.0440027413927626  0.8703227388645388  0.3889580085078956
  0.4150250493780414  0.9760083549724559  0.9833437659570315
  0.8166175450263534  0.5237829855850322  0.1685096772958881
  0.7022731669633335  0.7378334812135920  0.6260681500700980
  0.5565929422987173  0.0970770989085033  0.7859321908460699
  0.2581641813084639  0.7969147535788678  0.9670878807534921
  0.2544046315498487  0.0455871743232439  0.4363726621266949
  0.6493516431598036  0.2721957686218092  0.5885004289221052
  0.7855789498717825  0.0532820539919919  0.0507709230930500
  0.8010539092871433  0.0197510043495857  0.6559984055027270
  0.9448437012130719  0.8925169736755891  0.5746448650287940
  0.2236812684388417  0.9102693744321865  0.2883123114168120
  0.7138961964111525  0.9208955937372597  0.6771676804633632
  0.1195569991640914  0.5432569841468509  0.9736721511763811
  0.1327691537109743  0.7256637898486572  0.3059372323649715
  0.7903636531080750  0.8137352141743684  0.0173087083622082
  0.4566597222270203  0.9290431918264446  0.8241814516686027
  0.4082543923973322  0.5434489354804369  0.8957893598365654
  0.5609814520329310  0.2809616330238570  0.0591726862581969
  0.5731058999781977  0.5697339182487519  0.0318458922343678
  0.4195693823180044  0.2435895744369641  0.5609247678218011
  0.2527620200312868  0.4345302041023442  0.3595679543668541
  0.0713770234318294  0.1394176182332647  0.6681389921941522
  0.4032021656324140  0.4616055131389374  0.2574677156162568
  0.0848579895440043  0.6535267502133932  0.7709472951583529
  0.8476790611917310  0.0358661934375635  0.3886265286531869
  0.2951959583909700  0.2816978554860902  0.9923358616054887
  0.5006644970920862  0.5865384485759668  0.3671645999308360
  0.7281092120121432  0.8956664568630001  0.1644209963915981
  0.3782583504936102  0.1802811829533712  0.7332333968103009
  0.2958649355969182  0.9668039888869306  0.7412346076433245
  0.6959658014899042  0.3390111074516918  0.7794610673336618
  0.2265594034207695  0.0602363190944347  0.6131615611322178
  0.3464577346058162  0.9000864014401470  0.1331282826895066
  0.3284863834169873  0.3996252781213655  0.6506765387777291
  0.9032812832045051  0.4000452524366249  0.3036361513823920
  0.9367267154787891  0.1307436378416036  0.1356692932610730
  0.5387684764479427  0.6121116344258127  0.7741238756191842
  0.4253291128441669  0.1557308697695134  0.9200691152267617
  0.9791778755764183  0.9814493995873272  0.0117622892784491
  0.0881371557648244  0.0110065267587784  0.4983528641513763
  0.1638775380403111  0.2437061378019107  0.1197547074844430
  0.0588052080193833  0.3849270743666980  0.1225802486979658
  0.1026732450851853  0.5812170279282592  0.4169864856195946
  0.0355730111438673  0.0351288828785449  0.2576392915962074
  0.8373170579489061  0.0941962476975917  0.8523293748163047
 
  0.00000000E+00  0.00000000E+00  0.00000000E+00
  0.00000000E+00  0.00000000E+00  0.00000000E+00
  0.00000000E+00  0.00000000E+00  0.00000000E+00
  0.00000000E+00  0.00000000E+00  0.00000000E+00
  0.00000000E+00  0.00000000E+00  0.00000000E+00
  0.00000000E+00  0.00000000E+00  0.00000000E+00
  0.00000000E+00  0.00000000E+00  0.00000000E+00
  0.00000000E+00  0.00000000E+00  0.00000000E+00
  0.00000000E+00  0.00000000E+00  0.00000000E+00
  0.00000000E+00  0.00000000E+00  0.00000000E+00
  0.00000000E+00  0.00000000E+00  0.00000000E+00
  0.00000000E+00  0.00000000E+00  0.00000000E+00
  0.00000000E+00  0.00000000E+00  0.00000000E+00
  0.00000000E+00  0.00000000E+00  0.00000000E+00
  0.00000000E+00  0.00000000E+00  0.00000000E+00
  0.00000000E+00  0.00000000E+00  0.00000000E+00
  0.00000000E+00  0.00000000E+00  0.00000000E+00
  0.00000000E+00  0.00000000E+00  0.00000000E+00
  0.00000000E+00  0.00000000E+00  0.00000000E+00
  0.00000000E+00  0.00000000E+00  0.00000000E+00
  0.00000000E+00  0.00000000E+00  0.00000000E+00
  0.00000000E+00  0.00000000E+00  0.00000000E+00
  0.00000000E+00  0.00000000E+00  0.00000000E+00
  0.00000000E+00  0.00000000E+00  0.00000000E+00
  0.00000000E+00  0.00000000E+00  0.00000000E+00
  0.00000000E+00  0.00000000E+00  0.00000000E+00
  0.00000000E+00  0.00000000E+00  0.00000000E+00
  0.00000000E+00  0.00000000E+00  0.00000000E+00
  0.00000000E+00  0.00000000E+00  0.00000000E+00
  0.00000000E+00  0.00000000E+00  0.00000000E+00
  0.00000000E+00  0.00000000E+00  0.00000000E+00
  0.00000000E+00  0.00000000E+00  0.00000000E+00
  0.00000000E+00  0.00000000E+00  0.00000000E+00
  0.00000000E+00  0.00000000E+00  0.00000000E+00
  0.00000000E+00  0.00000000E+00  0.00000000E+00
  0.00000000E+00  0.00000000E+00  0.00000000E+00
  0.00000000E+00  0.00000000E+00  0.00000000E+00
  0.00000000E+00  0.00000000E+00  0.00000000E+00
  0.00000000E+00  0.00000000E+00  0.00000000E+00
  0.00000000E+00  0.00000000E+00  0.00000000E+00
  0.00000000E+00  0.00000000E+00  0.00000000E+00
  0.00000000E+00  0.00000000E+00  0.00000000E+00
  0.00000000E+00  0.00000000E+00  0.00000000E+00
  0.00000000E+00  0.00000000E+00  0.00000000E+00
  0.00000000E+00  0.00000000E+00  0.00000000E+00
  0.00000000E+00  0.00000000E+00  0.00000000E+00
  0.00000000E+00  0.00000000E+00  0.00000000E+00
  0.00000000E+00  0.00000000E+00  0.00000000E+00
  0.00000000E+00  0.00000000E+00  0.00000000E+00
  0.00000000E+00  0.00000000E+00  0.00000000E+00
  0.00000000E+00  0.00000000E+00  0.00000000E+00
  0.00000000E+00  0.00000000E+00  0.00000000E+00
  0.00000000E+00  0.00000000E+00  0.00000000E+00
  0.00000000E+00  0.00000000E+00  0.00000000E+00
  0.00000000E+00  0.00000000E+00  0.00000000E+00
  0.00000000E+00  0.00000000E+00  0.00000000E+00
  0.00000000E+00  0.00000000E+00  0.00000000E+00
  0.00000000E+00  0.00000000E+00  0.00000000E+00
  0.00000000E+00  0.00000000E+00  0.00000000E+00
  0.00000000E+00  0.00000000E+00  0.00000000E+00
  0.00000000E+00  0.00000000E+00  0.00000000E+00
  0.00000000E+00  0.00000000E+00  0.00000000E+00
  0.00000000E+00  0.00000000E+00  0.00000000E+00
  0.00000000E+00  0.00000000E+00  0.00000000E+00
  0.00000000E+00  0.00000000E+00  0.00000000E+00
  0.00000000E+00  0.00000000E+00  0.00000000E+00
  0.00000000E+00  0.00000000E+00  0.00000000E+00
  0.00000000E+00  0.00000000E+00  0.00000000E+00
  0.00000000E+00  0.00000000E+00  0.00000000E+00
  0.00000000E+00  0.00000000E+00  0.00000000E+00
  0.00000000E+00  0.00000000E+00  0.00000000E+00
  0.00000000E+00  0.00000000E+00  0.00000000E+00
  0.00000000E+00  0.00000000E+00  0.00000000E+00
  0.00000000E+00  0.00000000E+00  0.00000000E+00
  0.00000000E+00  0.00000000E+00  0.00000000E+00
  0.00000000E+00  0.00000000E+00  0.00000000E+00
  0.00000000E+00  0.00000000E+00  0.00000000E+00
  0.00000000E+00  0.00000000E+00  0.00000000E+00
  0.00000000E+00  0.00000000E+00  0.00000000E+00
  0.00000000E+00  0.00000000E+00  0.00000000E+00
  0.00000000E+00  0.00000000E+00  0.00000000E+00
  0.00000000E+00  0.00000000E+00  0.00000000E+00
  0.00000000E+00  0.00000000E+00  0.00000000E+00
  0.00000000E+00  0.00000000E+00  0.00000000E+00
  0.00000000E+00  0.00000000E+00  0.00000000E+00
  0.00000000E+00  0.00000000E+00  0.00000000E+00
  0.00000000E+00  0.00000000E+00  0.00000000E+00
  0.00000000E+00  0.00000000E+00  0.00000000E+00
  0.00000000E+00  0.00000000E+00  0.00000000E+00
  0.00000000E+00  0.00000000E+00  0.00000000E+00
  0.00000000E+00  0.00000000E+00  0.00000000E+00
  0.00000000E+00  0.00000000E+00  0.00000000E+00
  0.00000000E+00  0.00000000E+00  0.00000000E+00
  0.00000000E+00  0.00000000E+00  0.00000000E+00
  0.00000000E+00  0.00000000E+00  0.00000000E+00
  0.00000000E+00  0.00000000E+00  0.00000000E+00
  0.00000000E+00  0.00000000E+00  0.00000000E+00
  0.00000000E+00  0.00000000E+00  0.00000000E+00
  0.00000000E+00  0.00000000E+00  0.00000000E+00
  0.00000000E+00  0.00000000E+00  0.00000000E+00
  0.00000000E+00  0.00000000E+00  0.00000000E+00
  0.00000000E+00  0.00000000E+00  0.00000000E+00
  0.00000000E+00  0.00000000E+00  0.00000000E+00
  0.00000000E+00  0.00000000E+00  0.00000000E+00
  0.00000000E+00  0.00000000E+00  0.00000000E+00
  0.00000000E+00  0.00000000E+00  0.00000000E+00
  0.00000000E+00  0.00000000E+00  0.00000000E+00
  0.00000000E+00  0.00000000E+00  0.00000000E+00
  0.00000000E+00  0.00000000E+00  0.00000000E+00
  0.00000000E+00  0.00000000E+00  0.00000000E+00
  0.00000000E+00  0.00000000E+00  0.00000000E+00
  0.00000000E+00  0.00000000E+00  0.00000000E+00
  0.00000000E+00  0.00000000E+00  0.00000000E+00
  0.00000000E+00  0.00000000E+00  0.00000000E+00
  0.00000000E+00  0.00000000E+00  0.00000000E+00
  0.00000000E+00  0.00000000E+00  0.00000000E+00
  0.00000000E+00  0.00000000E+00  0.00000000E+00
  0.00000000E+00  0.00000000E+00  0.00000000E+00
  0.00000000E+00  0.00000000E+00  0.00000000E+00
  0.00000000E+00  0.00000000E+00  0.00000000E+00
  0.00000000E+00  0.00000000E+00  0.00000000E+00
  0.00000000E+00  0.00000000E+00  0.00000000E+00
  0.00000000E+00  0.00000000E+00  0.00000000E+00
  0.00000000E+00  0.00000000E+00  0.00000000E+00
  0.00000000E+00  0.00000000E+00  0.00000000E+00
  0.00000000E+00  0.00000000E+00  0.00000000E+00
  0.00000000E+00  0.00000000E+00  0.00000000E+00
  0.00000000E+00  0.00000000E+00  0.00000000E+00
  0.00000000E+00  0.00000000E+00  0.00000000E+00
  0.00000000E+00  0.00000000E+00  0.00000000E+00
  0.00000000E+00  0.00000000E+00  0.00000000E+00
  0.00000000E+00  0.00000000E+00  0.00000000E+00
  0.00000000E+00  0.00000000E+00  0.00000000E+00
  0.00000000E+00  0.00000000E+00  0.00000000E+00
  0.00000000E+00  0.00000000E+00  0.00000000E+00
  0.00000000E+00  0.00000000E+00  0.00000000E+00
  0.00000000E+00  0.00000000E+00  0.00000000E+00
  0.00000000E+00  0.00000000E+00  0.00000000E+00
  0.00000000E+00  0.00000000E+00  0.00000000E+00
  0.00000000E+00  0.00000000E+00  0.00000000E+00
  0.00000000E+00  0.00000000E+00  0.00000000E+00
  0.00000000E+00  0.00000000E+00  0.00000000E+00
  0.00000000E+00  0.00000000E+00  0.00000000E+00
  0.00000000E+00  0.00000000E+00  0.00000000E+00
  0.00000000E+00  0.00000000E+00  0.00000000E+00
  0.00000000E+00  0.00000000E+00  0.00000000E+00
  0.00000000E+00  0.00000000E+00  0.00000000E+00
  0.00000000E+00  0.00000000E+00  0.00000000E+00
  0.00000000E+00  0.00000000E+00  0.00000000E+00
  0.00000000E+00  0.00000000E+00  0.00000000E+00
  0.00000000E+00  0.00000000E+00  0.00000000E+00
  0.00000000E+00  0.00000000E+00  0.00000000E+00
  0.00000000E+00  0.00000000E+00  0.00000000E+00
  0.00000000E+00  0.00000000E+00  0.00000000E+00
  0.00000000E+00  0.00000000E+00  0.00000000E+00
  0.00000000E+00  0.00000000E+00  0.00000000E+00
  0.00000000E+00  0.00000000E+00  0.00000000E+00
  0.00000000E+00  0.00000000E+00  0.00000000E+00
  0.00000000E+00  0.00000000E+00  0.00000000E+00
  0.00000000E+00  0.00000000E+00  0.00000000E+00
  0.00000000E+00  0.00000000E+00  0.00000000E+00
  0.00000000E+00  0.00000000E+00  0.00000000E+00
  0.00000000E+00  0.00000000E+00  0.00000000E+00
  0.00000000E+00  0.00000000E+00  0.00000000E+00
  0.00000000E+00  0.00000000E+00  0.00000000E+00
  0.00000000E+00  0.00000000E+00  0.00000000E+00
  0.00000000E+00  0.00000000E+00  0.00000000E+00
  0.00000000E+00  0.00000000E+00  0.00000000E+00
  0.00000000E+00  0.00000000E+00  0.00000000E+00
  0.00000000E+00  0.00000000E+00  0.00000000E+00
  0.00000000E+00  0.00000000E+00  0.00000000E+00
  0.00000000E+00  0.00000000E+00  0.00000000E+00
  0.00000000E+00  0.00000000E+00  0.00000000E+00
  0.00000000E+00  0.00000000E+00  0.00000000E+00
  0.00000000E+00  0.00000000E+00  0.00000000E+00
  0.00000000E+00  0.00000000E+00  0.00000000E+00
  0.00000000E+00  0.00000000E+00  0.00000000E+00
  0.00000000E+00  0.00000000E+00  0.00000000E+00
  0.00000000E+00  0.00000000E+00  0.00000000E+00
  0.00000000E+00  0.00000000E+00  0.00000000E+00
  0.00000000E+00  0.00000000E+00  0.00000000E+00
  0.00000000E+00  0.00000000E+00  0.00000000E+00
  0.00000000E+00  0.00000000E+00  0.00000000E+00
  0.00000000E+00  0.00000000E+00  0.00000000E+00
  0.00000000E+00  0.00000000E+00  0.00000000E+00
  0.00000000E+00  0.00000000E+00  0.00000000E+00
  0.00000000E+00  0.00000000E+00  0.00000000E+00
  0.00000000E+00  0.00000000E+00  0.00000000E+00
  0.00000000E+00  0.00000000E+00  0.00000000E+00
  0.00000000E+00  0.00000000E+00  0.00000000E+00
  0.00000000E+00  0.00000000E+00  0.00000000E+00
  0.00000000E+00  0.00000000E+00  0.00000000E+00
  0.00000000E+00  0.00000000E+00  0.00000000E+00
  0.00000000E+00  0.00000000E+00  0.00000000E+00
  0.00000000E+00  0.00000000E+00  0.00000000E+00
  0.00000000E+00  0.00000000E+00  0.00000000E+00
  0.00000000E+00  0.00000000E+00  0.00000000E+00
  0.00000000E+00  0.00000000E+00  0.00000000E+00
  0.00000000E+00  0.00000000E+00  0.00000000E+00
  0.00000000E+00  0.00000000E+00  0.00000000E+00
  0.00000000E+00  0.00000000E+00  0.00000000E+00
  0.00000000E+00  0.00000000E+00  0.00000000E+00
  0.00000000E+00  0.00000000E+00  0.00000000E+00
  0.00000000E+00  0.00000000E+00  0.00000000E+00
  0.00000000E+00  0.00000000E+00  0.00000000E+00
  0.00000000E+00  0.00000000E+00  0.00000000E+00
  0.00000000E+00  0.00000000E+00  0.00000000E+00
  0.00000000E+00  0.00000000E+00  0.00000000E+00
  0.00000000E+00  0.00000000E+00  0.00000000E+00
  0.00000000E+00  0.00000000E+00  0.00000000E+00
  0.00000000E+00  0.00000000E+00  0.00000000E+00
  0.00000000E+00  0.00000000E+00  0.00000000E+00
  0.00000000E+00  0.00000000E+00  0.00000000E+00
  0.00000000E+00  0.00000000E+00  0.00000000E+00
  0.00000000E+00  0.00000000E+00  0.00000000E+00
  0.00000000E+00  0.00000000E+00  0.00000000E+00
  0.00000000E+00  0.00000000E+00  0.00000000E+00
  0.00000000E+00  0.00000000E+00  0.00000000E+00
  0.00000000E+00  0.00000000E+00  0.00000000E+00
  0.00000000E+00  0.00000000E+00  0.00000000E+00
  0.00000000E+00  0.00000000E+00  0.00000000E+00
  0.00000000E+00  0.00000000E+00  0.00000000E+00
  0.00000000E+00  0.00000000E+00  0.00000000E+00
  0.00000000E+00  0.00000000E+00  0.00000000E+00
  0.00000000E+00  0.00000000E+00  0.00000000E+00
  0.00000000E+00  0.00000000E+00  0.00000000E+00
  0.00000000E+00  0.00000000E+00  0.00000000E+00
  0.00000000E+00  0.00000000E+00  0.00000000E+00
  0.00000000E+00  0.00000000E+00  0.00000000E+00
  0.00000000E+00  0.00000000E+00  0.00000000E+00
  0.00000000E+00  0.00000000E+00  0.00000000E+00
  0.00000000E+00  0.00000000E+00  0.00000000E+00