Amorphous Sb                            
   1.00000000000000     
    20.8277900740095099    0.0000000000000000    0.0000000000000000
     0.0000000000000000   20.8277900740095099    0.0000000000000000
     0.0000000000000000    0.0000000000000000   20.8277900740095099
   Pb   S 
   150   150
Direct
  0.3097696700000014  0.1822019800000021  0.4221256699999998
  0.3139327399999985  0.9146989899999980  0.9001996100000014
  0.5349517499999976  0.4799764799999977  0.9040062600000027
  0.6850777399999970  0.8051324699999967  0.0480118219999994
  0.0948314839999966  0.3525626400000021  0.7241788400000004
  0.1820008299999998  0.6357572599999983  0.1909923199999994
  0.7452781300000026  0.6498920000000012  0.1744313100000028
  0.1887283000000011  0.6893468999999968  0.3579856200000009
  0.7380637300000004  0.4106908500000017  0.5065451899999971
  0.4906663399999971  0.8239987700000029  0.6819724200000010
  0.1959036800000007  0.4509867100000022  0.3261402700000033
  0.9774165299999993  0.1685768400000001  0.6865929300000033
  0.5470035199999970  0.7777729900000026  0.4938866399999995
  0.1262055500000017  0.3789556999999988  0.0366906900000004
  0.2054606499999991  0.5393479800000023  0.0630302029999967
  0.2179777200000004  0.7885247399999997  0.8255112200000028
  0.6621228799999983  0.9385935899999964  0.3693497200000024
  0.1872382099999967  0.0436167619999992  0.9099127400000029
  0.8635028799999986  0.7229306999999991  0.0011959387000005
  0.2038060699999988  0.5716770000000011  0.5765802600000001
  0.3005226399999970  0.0548890549999967  0.1708770999999984
  0.9724281599999998  0.1983308599999987  0.1485708499999987
  0.9504773999999969  0.7254482100000033  0.5419473400000001
  0.5126348100000016  0.1700718800000018  0.3298389500000027
  0.3497751000000022  0.7292772999999997  0.5001455000000021
  0.0570026150000018  0.1133318999999986  0.3363095599999966
  0.8840637599999965  0.5586965299999989  0.7345565099999973
  0.1196389799999977  0.7561180699999994  0.5116506500000000
  0.4980471599999987  0.6607905400000007  0.7768378000000027
  0.6811474000000004  0.6253305700000027  0.9526601099999965
  0.7158145800000000  0.9753498399999998  0.9603026300000010
  0.1597967299999965  0.3059572900000020  0.8759377700000002
  0.8356123800000006  0.5686251699999971  0.5083685399999993
  0.3950254299999969  0.9750089839999987  0.7179826899999995
  0.9005666199999993  0.5614748500000033  0.1067782399999970
  0.4583887300000029  0.9404798500000027  0.0376733189999996
  0.6984696099999965  0.1477229199999996  0.8898718200000033
  0.1813906000000003  0.0050468952999978  0.6789230099999983
  0.5636009199999990  0.2986994299999992  0.0610579689999966
  0.1439882800000021  0.1823837700000013  0.7068928099999994
  0.9601696100000012  0.6394194200000030  0.2958587399999999
  0.4797634399999993  0.3189817900000023  0.4794742099999993
  0.8414896900000031  0.8341913100000014  0.8282134499999998
  0.7881087100000030  0.7096236300000029  0.3974793800000000
  0.3119525600000017  0.2925667800000014  0.6528217199999986
  0.8704969400000024  0.1741536500000009  0.3668754799999974
  0.4947083500000033  0.6462272099999993  0.0201656460000024
  0.6637147499999969  0.9149536899999973  0.7858863000000014
  0.0179402990000028  0.5083684000000019  0.6229543999999976
  0.9459239400000001  0.0442099440000021  0.5255150600000036
  0.8147190700000024  0.2403082599999991  0.5759741099999971
  0.9693081899999996  0.8059364699999989  0.1834292799999986
  0.0903424709999996  0.9420317699999998  0.4733621900000031
  0.3258075800000029  0.0428866290000016  0.5441436899999985
  0.2872393800000026  0.8355577499999995  0.6678393999999983
  0.3161031200000011  0.6739636000000004  0.7554836999999992
  0.7981019599999968  0.8310472900000008  0.2358780300000021
  0.4376012800000026  0.1644197500000004  0.6110544100000013
  0.5917883500000016  0.3311511699999983  0.2260300700000002
  0.6640017000000000  0.9395297200000030  0.1637851600000033
  0.8437541699999969  0.8879666999999998  0.4670206500000020
  0.0395829090000035  0.6593273100000019  0.0807943789999968
  0.4057563599999980  0.6056354199999987  0.3520493199999990
  0.3985776299999984  0.3749273800000026  0.9862090999999964
  0.1506220500000026  0.1321021500000015  0.1016643199999976
  0.9497350899999972  0.3687475099999986  0.0558760230000033
  0.9067255000000003  0.9384800200000001  0.9867267300000009
  0.2303422700000013  0.4467588099999986  0.9341795799999986
  0.5902024199999971  0.4006620700000028  0.6294976200000022
  0.1485858699999980  0.1675696499999972  0.5347249200000022
  0.0367110429999968  0.0298739460000021  0.7877274299999968
  0.2238085700000028  0.1879787299999975  0.2685248299999969
  0.2381734800000004  0.4960537899999977  0.7443531999999990
  0.3877922100000006  0.5084341600000002  0.5319006100000010
  0.6810298799999970  0.7137160500000022  0.7919959099999971
  0.6271488699999992  0.7592647700000015  0.3269738600000025
  0.1696482199999991  0.7959431800000019  0.0665713980000007
  0.7359533999999996  0.8602014000000011  0.6027035999999981
  0.6957798199999985  0.2479661799999988  0.3761753699999986
  0.6377667699999989  0.0984511070000025  0.7186528900000013
  0.0684166019999992  0.5625030799999990  0.4358181699999975
  0.9975196099999977  0.8912027699999996  0.6496379800000014
  0.3756084099999981  0.5500212099999970  0.8899000199999989
  0.9335415600000019  0.4569506500000031  0.2394318899999988
  0.3783683300000007  0.4978773599999968  0.1425314800000024
  0.5559687800000006  0.4862910499999984  0.1191794799999997
  0.7501790600000007  0.5097631200000023  0.2980322200000032
  0.3132389100000026  0.6862918300000018  0.9801385020000026
  0.0847320740000015  0.3544576000000035  0.2091158899999996
  0.3155692300000013  0.3620799099999985  0.4594100799999978
  0.8513496099999998  0.4027535700000016  0.6993594699999974
  0.8274002699999983  0.7168059799999966  0.6655916200000007
  0.7319732999999999  0.4574326500000012  0.0753092739999985
  0.5901653100000033  0.9537375299999979  0.5857831000000004
  0.0722117620000020  0.5182094500000005  0.1476471399999966
  0.7673891199999971  0.0441769379999997  0.5565763700000019
  0.0176581999999996  0.8153117600000002  0.3644627899999975
  0.6454445999999976  0.3497529999999998  0.8636805200000026
  0.4191898099999989  0.4381825199999980  0.7226569899999973
  0.4961197900000016  0.0008743644499987  0.8567301499999971
  0.1370590399999969  0.2796843599999974  0.3964248400000017
  0.5764460700000029  0.5867556600000015  0.2575102899999990
  0.2467371700000029  0.8293838399999984  0.2831016399999982
  0.6857535700000028  0.5917144900000011  0.5796892799999966
  0.4544650799999985  0.9711194899999995  0.2626734700000029
  0.7607629399999993  0.2436025900000018  0.7486243700000017
  0.0455685550000027  0.2078721700000017  0.9772083200000026
  0.8271053400000028  0.0150773700000002  0.1328555400000013
  0.0835014250000015  0.6869042699999994  0.7024193299999979
  0.3320700499999987  0.8791310100000018  0.1248414599999990
  0.5090616000000026  0.2875141600000006  0.7517125399999998
  0.0418104889999995  0.8701913700000006  0.8654474800000003
  0.7459283600000006  0.1883796099999984  0.0721383050000028
  0.9439640299999965  0.3021365999999972  0.8232415900000021
  0.9557922099999985  0.7000974600000021  0.8334586900000005
  0.4292996799999997  0.7987236499999995  0.3466525899999979
  0.9033333699999986  0.9816894100000013  0.3293778500000002
  0.5000003800000030  0.1973093200000022  0.9306849099999965
  0.5058709699999966  0.0618408579999965  0.4678522399999991
  0.7891851999999986  0.3278871799999976  0.2203477300000003
  0.5576154700000018  0.1104108999999980  0.1046331499999980
  0.3816486799999979  0.7005184699999987  0.1783840100000020
  0.4069579100000027  0.2125623800000014  0.1867756600000021
  0.0824403069999988  0.9610944599999982  0.0455777800000021
  0.2334844900000022  0.0074665173000028  0.3315371600000034
  0.1609253100000032  0.3827203900000029  0.5511682699999980
  0.8885180199999994  0.1623735100000019  0.9338696800000008
  0.2625095200000018  0.2634515199999967  0.0152066209999973
  0.1301147799999995  0.6188262699999996  0.9048993500000009
  0.3618405300000020  0.1014083700000015  0.0042485923000015
  0.3157819700000033  0.1740784899999994  0.8164449499999975
  0.9789527000000007  0.3134796100000017  0.5434699600000030
  0.9318984000000015  0.4341548399999979  0.4244781599999996
  0.8454687099999987  0.0188279199999997  0.7426422799999983
  0.5326037299999982  0.7837972399999984  0.1448853799999981
  0.2796869000000015  0.3572694599999977  0.1928534899999974
  0.7911382699999976  0.3736337500000033  0.9277447999999993
  0.6035541500000008  0.2033228900000026  0.5358183800000020
  0.8454420200000001  0.5555749800000029  0.9163456499999967
  0.5293831600000019  0.6186568999999977  0.6083292300000025
  0.4669204300000018  0.8178976700000007  0.8751157900000024
  0.4182505300000017  0.3869260399999987  0.3017544100000009
  0.5855676299999999  0.5926578099999986  0.4506130799999966
  0.0337607579999997  0.0047566530000012  0.2000269099999983
  0.5881535299999996  0.4238541599999976  0.3864409299999991
  0.0197710950000030  0.4802288400000023  0.8714058400000013
  0.9725118300000020  0.2982528599999981  0.3305166399999990
  0.6789695900000012  0.0947558940000022  0.2631719999999973
  0.2733805499999988  0.8785943600000010  0.4718656699999997
  0.6707173400000030  0.5230503299999967  0.7964611800000014
  0.8036725099999984  0.2483537000000027  0.8820933900000014
  0.5613683099999989  0.7863658400000020  0.7885910700000025
  0.9517263799999967  0.7641229700000025  0.6695845100000000
  0.4074902600000030  0.3403462400000024  0.1723851599999975
  0.7075499399999998  0.0777653829999991  0.1332866300000006
  0.8452464399999968  0.4093227500000012  0.3189936799999984
  0.2276020799999969  0.6778115799999966  0.4851164700000012
  0.7946289400000026  0.0942042659999984  0.9891210099999981
  0.2544227899999996  0.7961271100000005  0.9513891699999988
  0.5752581300000017  0.6049485500000031  0.8623988200000028
  0.6196531399999969  0.0326378930000004  0.8456202400000024
  0.0567569629999980  0.2354989700000019  0.7980743999999973
  0.7441445600000023  0.8112166399999978  0.7320663900000000
  0.2441935700000002  0.9358500700000008  0.2052535500000019
  0.7838449600000033  0.9112577799999997  0.0563994290000025
  0.0803378159999966  0.2398697699999985  0.2792647099999996
  0.6981838299999978  0.5151292799999965  0.4347776400000001
  0.8531492700000030  0.4360052299999992  0.1272084300000031
  0.3294764099999981  0.7094396299999985  0.3208473899999973
  0.1434042400000024  0.4677507600000013  0.6531414299999980
  0.5826570899999979  0.9878529349999994  0.2555335500000027
  0.9896660570000009  0.8500473000000000  0.4870540800000001
  0.3303986399999985  0.9027882099999971  0.3570569800000030
  0.3232009999999974  0.1005000600000017  0.3024983399999996
  0.7582321499999978  0.1149401899999987  0.7737980100000001
  0.7047668100000024  0.1822187799999995  0.6158327699999973
  0.4928283799999988  0.4925841599999998  0.6156145200000012
  0.0584295560000001  0.6929894599999997  0.4006164500000011
  0.7137834400000003  0.9376306500000027  0.4934471600000023
  0.9672420099999997  0.9148129399999974  0.1039659999999998
  0.0045091683999985  0.5901592399999984  0.7744020000000020
  0.7041877099999994  0.6486478899999994  0.2990163300000006
  0.1667845899999989  0.6698759399999972  0.0219006439999987
  0.2024080699999971  0.9161861400000006  0.8314862900000008
  0.9004865799999990  0.7493608400000014  0.3258981299999988
  0.3815735700000005  0.2789033999999972  0.7621476400000020
  0.0316415079999999  0.9852841699999999  0.9309855699999972
  0.5883828899999983  0.1838300300000029  0.2217199800000031
  0.2168547599999968  0.2846245699999983  0.7419115100000013
  0.6062314699999973  0.3531641000000008  0.5003118699999973
  0.4307223500000035  0.6270820100000023  0.4820421499999981
  0.3126583700000012  0.4670981000000012  0.2626646000000008
  0.4169643399999998  0.7005013599999970  0.8787978100000018
  0.2280683500000009  0.9989151293000020  0.4745083299999990
  0.6246138799999983  0.1933699900000008  0.0136480059999968
  0.7824187800000004  0.9622108599999990  0.2457005300000006
  0.9071138899999980  0.7108512699999991  0.1227013299999982
  0.4438748199999978  0.4452368500000006  0.4326511499999981
  0.4368626199999994  0.1051232000000013  0.7927652099999989
  0.3180949400000017  0.0482771089999972  0.8914720300000027
  0.1748921699999997  0.1497152900000032  0.3993859599999965
  0.0780095690000024  0.5010442199999972  0.0150633299999967
  0.2383789300000032  0.2612343500000023  0.5144835700000030
  0.1569954100000004  0.8417126200000027  0.4136257500000013
  0.6950653700000018  0.9833676900000015  0.6617112899999995
  0.6599156600000029  0.4885026999999980  0.9448766399999968
  0.5824859900000021  0.4290008999999984  0.7790658099999987
  0.9006233200000011  0.2436739099999983  0.0449539330000022
  0.2446407600000029  0.9271544300000016  0.0197839889999969
  0.6819268799999989  0.5310890100000023  0.1744034000000028
  0.4667159799999965  0.2018275399999965  0.0718753270000008
  0.1456727899999990  0.4387446300000022  0.8310882600000014
  0.3154843700000001  0.4256151000000017  0.6448148300000014
  0.5196856299999979  0.1623943100000034  0.7929148699999971
  0.0779056490000016  0.6111755700000003  0.5649877800000027
  0.9354193100000003  0.5660239300000001  0.4102854200000010
  0.5277390999999980  0.4563001200000016  0.2478198100000029
  0.2447522100000015  0.1083187400000014  0.6203691400000011
  0.4300075499999991  0.0190498700000035  0.1411587799999978
  0.8641642300000001  0.4482372100000021  0.5418007399999993
  0.7730216599999977  0.1994327000000027  0.2793577300000010
  0.9387171099999989  0.0789205299999978  0.2490958400000025
  0.0311332570000005  0.0775432080000016  0.0837977480000021
  0.5106872400000029  0.2696176399999999  0.6191992500000012
  0.4314351900000020  0.7555393900000027  0.0595422760000019
  0.2845015799999970  0.1993966599999979  0.1368772300000032
  0.0864235539999996  0.7450322999999983  0.1710558099999986
  0.1202289300000032  0.8295149899999998  0.6810639899999984
  0.8805204299999971  0.1283231299999983  0.5987426299999967
  0.5225580999999977  0.9495705300000026  0.7051194300000034
  0.9694817600000007  0.4184974300000022  0.7619947600000003
  0.6483842299999978  0.7067594900000032  0.4536171199999970
  0.5048489400000022  0.6846182499999998  0.3187702700000017
  0.4419005700000014  0.1764345599999970  0.4776978700000001
  0.0550348820000011  0.0384930940000032  0.6519580900000008
  0.9297535299999993  0.1062186600000032  0.7934272099999973
  0.4538091499999979  0.4888657300000006  0.0204519300000001
  0.9010113499999974  0.6102072799999974  0.6142876500000014
  0.8259208999999998  0.6608588799999993  0.7929558599999993
  0.0410384509999986  0.9755509200000034  0.3553359300000025
  0.9570618799999977  0.3281132799999966  0.1949631600000004
  0.3907563499999966  0.5617327300000028  0.7587338399999979
  0.3578085799999968  0.7322516999999991  0.6285450199999971
  0.6185418900000030  0.6819156399999997  0.0498782239999969
  0.7691567500000005  0.4062757100000027  0.8037820199999999
  0.8678455499999984  0.9546134400000028  0.5827615899999969
  0.0844233349999968  0.2487060400000018  0.0978772019999994
  0.6889021300000024  0.3394860499999979  0.1255740200000020
  0.8521536299999966  0.5822927399999998  0.2297601900000004
  0.2586620000000011  0.6148379899999981  0.8717872499999970
  0.0240522340000027  0.2356812299999973  0.4480327500000030
  0.5563224400000024  0.8680073399999984  0.4007668400000028
  0.6373161200000013  0.2355288199999990  0.8018695600000001
  0.1486093800000035  0.5710771099999974  0.3083583200000035
  0.4370561200000012  0.8453600100000003  0.2222288199999980
  0.9477055300000004  0.6323648400000010  0.9479365799999968
  0.1761915299999970  0.1798769800000031  0.9590516199999968
  0.2070191500000007  0.6234977900000018  0.6995890900000035
  0.0411455070000031  0.4308707400000031  0.5133477700000029
  0.4961293699999985  0.5984518300000019  0.1493466699999999
  0.3080341000000004  0.2936875700000030  0.3471416900000008
  0.4904223500000029  0.0542543090000009  0.9776166500000016
  0.6073282799999973  0.8199569699999998  0.6017740899999993
  0.8240749899999997  0.7684418699999966  0.5241660900000014
  0.5241340800000032  0.3333751400000011  0.9355307499999981
  0.1670619300000027  0.8579635099999976  0.5965552899999977
  0.5453950500000033  0.0923981330000032  0.5893365100000025
  0.6883090299999992  0.3667558300000024  0.3075048899999970
  0.0995941500000015  0.7291488799999968  0.8334566500000022
  0.2808141300000031  0.4204511100000019  0.0771109319999965
  0.3065950299999969  0.6068388600000034  0.1256075000000010
  0.2318350700000025  0.4616493899999980  0.4517624100000006
  0.5718066700000008  0.8871047399999981  0.0719961779999991
  0.2317259100000015  0.0225492710000026  0.0496325579999990
  0.7022580499999975  0.4679230099999998  0.6210222300000012
  0.2672170299999976  0.7703878299999971  0.1530821699999976
  0.7874335500000029  0.9518734099999975  0.8487387099999992
  0.5252379900000008  0.2989220899999978  0.3536291899999995
  0.6307462400000006  0.6199001399999986  0.6950616499999995
  0.9388499800000005  0.8207380899999990  0.9386725000000027
  0.9036353799999972  0.4381212899999980  0.9439687500000034
  0.6070926599999993  0.1174041000000017  0.4064573799999991
  0.8083363000000006  0.2595911399999977  0.4446582300000017
  0.6627977300000012  0.8502198799999974  0.9177240499999968
  0.7469047200000034  0.8278198399999965  0.3566285200000010
  0.3838227999999972  0.8538512399999973  0.7748673600000018
  0.8528612100000004  0.0557788160000001  0.4272772699999976
  0.1815078999999997  0.0856012670000013  0.7842651300000014
  0.9568886899999995  0.9175687899999971  0.7728292999999979
  0.7940635900000004  0.5939774100000008  0.0312625780000033
  0.1452127399999981  0.0831325770000007  0.2353273700000003
  0.6776460600000007  0.8025443900000013  0.1876976100000007
  0.3612830200000019  0.2184327599999989  0.9343971400000015
  0.8948074099999985  0.2773299400000013  0.7000871899999979
  0.0453166120000006  0.3355647899999994  0.9402871500000032
  0.3463469300000028  0.4226292199999975  0.8720039700000015
  0.3586534700000001  0.9252123999999995  0.5994228599999971
  0.0829542930000002  0.2782529799999978  0.6083155999999974
  0.0440291789999989  0.4083704900000029  0.3291210599999985
  0.7351278499999978  0.7813665999999984  0.9078699499999985
 
  0.00000000E+00  0.00000000E+00  0.00000000E+00
  0.00000000E+00  0.00000000E+00  0.00000000E+00
  0.00000000E+00  0.00000000E+00  0.00000000E+00
  0.00000000E+00  0.00000000E+00  0.00000000E+00
  0.00000000E+00  0.00000000E+00  0.00000000E+00
  0.00000000E+00  0.00000000E+00  0.00000000E+00
  0.00000000E+00  0.00000000E+00  0.00000000E+00
  0.00000000E+00  0.00000000E+00  0.00000000E+00
  0.00000000E+00  0.00000000E+00  0.00000000E+00
  0.00000000E+00  0.00000000E+00  0.00000000E+00
  0.00000000E+00  0.00000000E+00  0.00000000E+00
  0.00000000E+00  0.00000000E+00  0.00000000E+00
  0.00000000E+00  0.00000000E+00  0.00000000E+00
  0.00000000E+00  0.00000000E+00  0.00000000E+00
  0.00000000E+00  0.00000000E+00  0.00000000E+00
  0.00000000E+00  0.00000000E+00  0.00000000E+00
  0.00000000E+00  0.00000000E+00  0.00000000E+00
  0.00000000E+00  0.00000000E+00  0.00000000E+00
  0.00000000E+00  0.00000000E+00  0.00000000E+00
  0.00000000E+00  0.00000000E+00  0.00000000E+00
  0.00000000E+00  0.00000000E+00  0.00000000E+00
  0.00000000E+00  0.00000000E+00  0.00000000E+00
  0.00000000E+00  0.00000000E+00  0.00000000E+00
  0.00000000E+00  0.00000000E+00  0.00000000E+00
  0.00000000E+00  0.00000000E+00  0.00000000E+00
  0.00000000E+00  0.00000000E+00  0.00000000E+00
  0.00000000E+00  0.00000000E+00  0.00000000E+00
  0.00000000E+00  0.00000000E+00  0.00000000E+00
  0.00000000E+00  0.00000000E+00  0.00000000E+00
  0.00000000E+00  0.00000000E+00  0.00000000E+00
  0.00000000E+00  0.00000000E+00  0.00000000E+00
  0.00000000E+00  0.00000000E+00  0.00000000E+00
  0.00000000E+00  0.00000000E+00  0.00000000E+00
  0.00000000E+00  0.00000000E+00  0.00000000E+00
  0.00000000E+00  0.00000000E+00  0.00000000E+00
  0.00000000E+00  0.00000000E+00  0.00000000E+00
  0.00000000E+00  0.00000000E+00  0.00000000E+00
  0.00000000E+00  0.00000000E+00  0.00000000E+00
  0.00000000E+00  0.00000000E+00  0.00000000E+00
  0.00000000E+00  0.00000000E+00  0.00000000E+00
  0.00000000E+00  0.00000000E+00  0.00000000E+00
  0.00000000E+00  0.00000000E+00  0.00000000E+00
  0.00000000E+00  0.00000000E+00  0.00000000E+00
  0.00000000E+00  0.00000000E+00  0.00000000E+00
  0.00000000E+00  0.00000000E+00  0.00000000E+00
  0.00000000E+00  0.00000000E+00  0.00000000E+00
  0.00000000E+00  0.00000000E+00  0.00000000E+00
  0.00000000E+00  0.00000000E+00  0.00000000E+00
  0.00000000E+00  0.00000000E+00  0.00000000E+00
  0.00000000E+00  0.00000000E+00  0.00000000E+00
  0.00000000E+00  0.00000000E+00  0.00000000E+00
  0.00000000E+00  0.00000000E+00  0.00000000E+00
  0.00000000E+00  0.00000000E+00  0.00000000E+00
  0.00000000E+00  0.00000000E+00  0.00000000E+00
  0.00000000E+00  0.00000000E+00  0.00000000E+00
  0.00000000E+00  0.00000000E+00  0.00000000E+00
  0.00000000E+00  0.00000000E+00  0.00000000E+00
  0.00000000E+00  0.00000000E+00  0.00000000E+00
  0.00000000E+00  0.00000000E+00  0.00000000E+00
  0.00000000E+00  0.00000000E+00  0.00000000E+00
  0.00000000E+00  0.00000000E+00  0.00000000E+00
  0.00000000E+00  0.00000000E+00  0.00000000E+00
  0.00000000E+00  0.00000000E+00  0.00000000E+00
  0.00000000E+00  0.00000000E+00  0.00000000E+00
  0.00000000E+00  0.00000000E+00  0.00000000E+00
  0.00000000E+00  0.00000000E+00  0.00000000E+00
  0.00000000E+00  0.00000000E+00  0.00000000E+00
  0.00000000E+00  0.00000000E+00  0.00000000E+00
  0.00000000E+00  0.00000000E+00  0.00000000E+00
  0.00000000E+00  0.00000000E+00  0.00000000E+00
  0.00000000E+00  0.00000000E+00  0.00000000E+00
  0.00000000E+00  0.00000000E+00  0.00000000E+00
  0.00000000E+00  0.00000000E+00  0.00000000E+00
  0.00000000E+00  0.00000000E+00  0.00000000E+00
  0.00000000E+00  0.00000000E+00  0.00000000E+00
  0.00000000E+00  0.00000000E+00  0.00000000E+00
  0.00000000E+00  0.00000000E+00  0.00000000E+00
  0.00000000E+00  0.00000000E+00  0.00000000E+00
  0.00000000E+00  0.00000000E+00  0.00000000E+00
  0.00000000E+00  0.00000000E+00  0.00000000E+00
  0.00000000E+00  0.00000000E+00  0.00000000E+00
  0.00000000E+00  0.00000000E+00  0.00000000E+00
  0.00000000E+00  0.00000000E+00  0.00000000E+00
  0.00000000E+00  0.00000000E+00  0.00000000E+00
  0.00000000E+00  0.00000000E+00  0.00000000E+00
  0.00000000E+00  0.00000000E+00  0.00000000E+00
  0.00000000E+00  0.00000000E+00  0.00000000E+00
  0.00000000E+00  0.00000000E+00  0.00000000E+00
  0.00000000E+00  0.00000000E+00  0.00000000E+00
  0.00000000E+00  0.00000000E+00  0.00000000E+00
  0.00000000E+00  0.00000000E+00  0.00000000E+00
  0.00000000E+00  0.00000000E+00  0.00000000E+00
  0.00000000E+00  0.00000000E+00  0.00000000E+00
  0.00000000E+00  0.00000000E+00  0.00000000E+00
  0.00000000E+00  0.00000000E+00  0.00000000E+00
  0.00000000E+00  0.00000000E+00  0.00000000E+00
  0.00000000E+00  0.00000000E+00  0.00000000E+00
  0.00000000E+00  0.00000000E+00  0.00000000E+00
  0.00000000E+00  0.00000000E+00  0.00000000E+00
  0.00000000E+00  0.00000000E+00  0.00000000E+00
  0.00000000E+00  0.00000000E+00  0.00000000E+00
  0.00000000E+00  0.00000000E+00  0.00000000E+00
  0.00000000E+00  0.00000000E+00  0.00000000E+00
  0.00000000E+00  0.00000000E+00  0.00000000E+00
  0.00000000E+00  0.00000000E+00  0.00000000E+00
  0.00000000E+00  0.00000000E+00  0.00000000E+00
  0.00000000E+00  0.00000000E+00  0.00000000E+00
  0.00000000E+00  0.00000000E+00  0.00000000E+00
  0.00000000E+00  0.00000000E+00  0.00000000E+00
  0.00000000E+00  0.00000000E+00  0.00000000E+00
  0.00000000E+00  0.00000000E+00  0.00000000E+00
  0.00000000E+00  0.00000000E+00  0.00000000E+00
  0.00000000E+00  0.00000000E+00  0.00000000E+00
  0.00000000E+00  0.00000000E+00  0.00000000E+00
  0.00000000E+00  0.00000000E+00  0.00000000E+00
  0.00000000E+00  0.00000000E+00  0.00000000E+00
  0.00000000E+00  0.00000000E+00  0.00000000E+00
  0.00000000E+00  0.00000000E+00  0.00000000E+00
  0.00000000E+00  0.00000000E+00  0.00000000E+00
  0.00000000E+00  0.00000000E+00  0.00000000E+00
  0.00000000E+00  0.00000000E+00  0.00000000E+00
  0.00000000E+00  0.00000000E+00  0.00000000E+00
  0.00000000E+00  0.00000000E+00  0.00000000E+00
  0.00000000E+00  0.00000000E+00  0.00000000E+00
  0.00000000E+00  0.00000000E+00  0.00000000E+00
  0.00000000E+00  0.00000000E+00  0.00000000E+00
  0.00000000E+00  0.00000000E+00  0.00000000E+00
  0.00000000E+00  0.00000000E+00  0.00000000E+00
  0.00000000E+00  0.00000000E+00  0.00000000E+00
  0.00000000E+00  0.00000000E+00  0.00000000E+00
  0.00000000E+00  0.00000000E+00  0.00000000E+00
  0.00000000E+00  0.00000000E+00  0.00000000E+00
  0.00000000E+00  0.00000000E+00  0.00000000E+00
  0.00000000E+00  0.00000000E+00  0.00000000E+00
  0.00000000E+00  0.00000000E+00  0.00000000E+00
  0.00000000E+00  0.00000000E+00  0.00000000E+00
  0.00000000E+00  0.00000000E+00  0.00000000E+00
  0.00000000E+00  0.00000000E+00  0.00000000E+00
  0.00000000E+00  0.00000000E+00  0.00000000E+00
  0.00000000E+00  0.00000000E+00  0.00000000E+00
  0.00000000E+00  0.00000000E+00  0.00000000E+00
  0.00000000E+00  0.00000000E+00  0.00000000E+00
  0.00000000E+00  0.00000000E+00  0.00000000E+00
  0.00000000E+00  0.00000000E+00  0.00000000E+00
  0.00000000E+00  0.00000000E+00  0.00000000E+00
  0.00000000E+00  0.00000000E+00  0.00000000E+00
  0.00000000E+00  0.00000000E+00  0.00000000E+00
  0.00000000E+00  0.00000000E+00  0.00000000E+00
  0.00000000E+00  0.00000000E+00  0.00000000E+00
  0.00000000E+00  0.00000000E+00  0.00000000E+00
  0.00000000E+00  0.00000000E+00  0.00000000E+00
  0.00000000E+00  0.00000000E+00  0.00000000E+00
  0.00000000E+00  0.00000000E+00  0.00000000E+00
  0.00000000E+00  0.00000000E+00  0.00000000E+00
  0.00000000E+00  0.00000000E+00  0.00000000E+00
  0.00000000E+00  0.00000000E+00  0.00000000E+00
  0.00000000E+00  0.00000000E+00  0.00000000E+00
  0.00000000E+00  0.00000000E+00  0.00000000E+00
  0.00000000E+00  0.00000000E+00  0.00000000E+00
  0.00000000E+00  0.00000000E+00  0.00000000E+00
  0.00000000E+00  0.00000000E+00  0.00000000E+00
  0.00000000E+00  0.00000000E+00  0.00000000E+00
  0.00000000E+00  0.00000000E+00  0.00000000E+00
  0.00000000E+00  0.00000000E+00  0.00000000E+00
  0.00000000E+00  0.00000000E+00  0.00000000E+00
  0.00000000E+00  0.00000000E+00  0.00000000E+00
  0.00000000E+00  0.00000000E+00  0.00000000E+00
  0.00000000E+00  0.00000000E+00  0.00000000E+00
  0.00000000E+00  0.00000000E+00  0.00000000E+00
  0.00000000E+00  0.00000000E+00  0.00000000E+00
  0.00000000E+00  0.00000000E+00  0.00000000E+00
  0.00000000E+00  0.00000000E+00  0.00000000E+00
  0.00000000E+00  0.00000000E+00  0.00000000E+00
  0.00000000E+00  0.00000000E+00  0.00000000E+00
  0.00000000E+00  0.00000000E+00  0.00000000E+00
  0.00000000E+00  0.00000000E+00  0.00000000E+00
  0.00000000E+00  0.00000000E+00  0.00000000E+00
  0.00000000E+00  0.00000000E+00  0.00000000E+00
  0.00000000E+00  0.00000000E+00  0.00000000E+00
  0.00000000E+00  0.00000000E+00  0.00000000E+00
  0.00000000E+00  0.00000000E+00  0.00000000E+00
  0.00000000E+00  0.00000000E+00  0.00000000E+00
  0.00000000E+00  0.00000000E+00  0.00000000E+00
  0.00000000E+00  0.00000000E+00  0.00000000E+00
  0.00000000E+00  0.00000000E+00  0.00000000E+00
  0.00000000E+00  0.00000000E+00  0.00000000E+00
  0.00000000E+00  0.00000000E+00  0.00000000E+00
  0.00000000E+00  0.00000000E+00  0.00000000E+00
  0.00000000E+00  0.00000000E+00  0.00000000E+00
  0.00000000E+00  0.00000000E+00  0.00000000E+00
  0.00000000E+00  0.00000000E+00  0.00000000E+00
  0.00000000E+00  0.00000000E+00  0.00000000E+00
  0.00000000E+00  0.00000000E+00  0.00000000E+00
  0.00000000E+00  0.00000000E+00  0.00000000E+00
  0.00000000E+00  0.00000000E+00  0.00000000E+00
  0.00000000E+00  0.00000000E+00  0.00000000E+00
  0.00000000E+00  0.00000000E+00  0.00000000E+00
  0.00000000E+00  0.00000000E+00  0.00000000E+00
  0.00000000E+00  0.00000000E+00  0.00000000E+00
  0.00000000E+00  0.00000000E+00  0.00000000E+00
  0.00000000E+00  0.00000000E+00  0.00000000E+00
  0.00000000E+00  0.00000000E+00  0.00000000E+00
  0.00000000E+00  0.00000000E+00  0.00000000E+00
  0.00000000E+00  0.00000000E+00  0.00000000E+00
  0.00000000E+00  0.00000000E+00  0.00000000E+00
  0.00000000E+00  0.00000000E+00  0.00000000E+00
  0.00000000E+00  0.00000000E+00  0.00000000E+00
  0.00000000E+00  0.00000000E+00  0.00000000E+00
  0.00000000E+00  0.00000000E+00  0.00000000E+00
  0.00000000E+00  0.00000000E+00  0.00000000E+00
  0.00000000E+00  0.00000000E+00  0.00000000E+00
  0.00000000E+00  0.00000000E+00  0.00000000E+00
  0.00000000E+00  0.00000000E+00  0.00000000E+00
  0.00000000E+00  0.00000000E+00  0.00000000E+00
  0.00000000E+00  0.00000000E+00  0.00000000E+00
  0.00000000E+00  0.00000000E+00  0.00000000E+00
  0.00000000E+00  0.00000000E+00  0.00000000E+00
  0.00000000E+00  0.00000000E+00  0.00000000E+00
  0.00000000E+00  0.00000000E+00  0.00000000E+00
  0.00000000E+00  0.00000000E+00  0.00000000E+00
  0.00000000E+00  0.00000000E+00  0.00000000E+00
  0.00000000E+00  0.00000000E+00  0.00000000E+00
  0.00000000E+00  0.00000000E+00  0.00000000E+00
  0.00000000E+00  0.00000000E+00  0.00000000E+00
  0.00000000E+00  0.00000000E+00  0.00000000E+00
  0.00000000E+00  0.00000000E+00  0.00000000E+00
  0.00000000E+00  0.00000000E+00  0.00000000E+00
  0.00000000E+00  0.00000000E+00  0.00000000E+00
  0.00000000E+00  0.00000000E+00  0.00000000E+00
  0.00000000E+00  0.00000000E+00  0.00000000E+00
  0.00000000E+00  0.00000000E+00  0.00000000E+00
  0.00000000E+00  0.00000000E+00  0.00000000E+00