GST                                     
   1.00000000000000     
    22.1049502903316046    0.0000000000000000    0.0000000000000000
     0.0000000000000000   22.1049502903316046    0.0000000000000000
     0.0000000000000000    0.0000000000000000   22.1049502903316046
   Ge   Sb   Te
    82    55   163
Direct
  0.5458661668773754  0.8487560057524899  0.9801617595278413
  0.9001214751307430  0.7406503695424475  0.1396986440767918
  0.1241360910334909  0.2258808961833456  0.5763823614628072
  0.0028689355527913  0.4363297424046181  0.4140410279752985
  0.9704718003245499  0.6994034524263613  0.4131575948729805
  0.8037664379537079  0.5192802247596033  0.6478531767028300
  0.1915971727154661  0.3642854311472075  0.4136273894221088
  0.9512496784298978  0.0539253993404506  0.3571111205937734
  0.7767834984154393  0.1437563890932468  0.2957307143118257
  0.0307316197156191  0.0495788168540106  0.1177248445756120
  0.5361683845593892  0.6124634716304933  0.1261705990461007
  0.1549226526991347  0.5237157988836618  0.4130680567562220
  0.3666115444685235  0.8637436821152846  0.2688153018669873
  0.8095923781223960  0.6934179308478043  0.0299719159179398
  0.8678743808322756  0.8938555237569347  0.8497260076219477
  0.9031234647396101  0.7067583881441873  0.2513474025511688
  0.3008547310686953  0.9431873752569541  0.5207529639774465
  0.2374224616166845  0.1764327266889587  0.6967296624421450
  0.7075638337443998  0.7750139643467578  0.7853617071700227
  0.2911666493865815  0.9448671712810823  0.8545618432201245
  0.5562327461747625  0.7738205912063902  0.6798957921320770
  0.8308947447487919  0.3580229710214123  0.9846958544546106
  0.0197659463819941  0.2579038330676317  0.8150376540298856
  0.3158281506509300  0.2214164183591016  0.5379583319944060
  0.0602728510323711  0.5084346093025979  0.9444228055366226
  0.8531999537530622  0.8144091610966223  0.5224215105635459
  0.3845505901393613  0.7118306271038577  0.3737638288332942
  0.5963801094977796  0.6888519839561547  0.9543833498397035
  0.6143052749519907  0.3064419751156334  0.4614286999485420
  0.9642410560366106  0.9016505061050336  0.0880602160681213
  0.5812835331221885  0.3660173359530565  0.9909556007708439
  0.4521437616283298  0.3638648877105417  0.4960958957629519
  0.0477004539550379  0.3128877129427410  0.0001450553495270
  0.7528356365335709  0.5810907189136353  0.9097412683072473
  0.4836072994428690  0.5791295076247601  0.6240776218188753
  0.6794518957735384  0.6213768118425091  0.7114985637581925
  0.4349084293033799  0.0983810268646964  0.9969061814212385
  0.1854417069263369  0.2556628732829383  0.9099498038623361
  0.8343069821300796  0.4523369350239237  0.4367358390446912
  0.5093551112324169  0.8551049365451532  0.3400000298842056
  0.4948651156700322  0.4310913365398855  0.0384260893930510
  0.5477310385871245  0.7037577519263976  0.7763572650529752
  0.8985214105503661  0.5439537886147379  0.4806594259871799
  0.6839351744122693  0.8006420116247267  0.0311017346389782
  0.9403352568005806  0.8202056043017074  0.0078919804838879
  0.2597676839609478  0.9945837211496531  0.6805465693620488
  0.9534394626341677  0.3687447729142171  0.8356470082285903
  0.1825342466460838  0.8636711949551630  0.2459715776227863
  0.6220365322988878  0.3588858944061946  0.6501735092305235
  0.1407954552024374  0.3627203538531317  0.7333603956855239
  0.2268100150921451  0.1462891918505604  0.1403408792121220
  0.4226276714828801  0.7165750307824266  0.6818083988251562
  0.2505833160070728  0.8538799308091054  0.1464123270870574
  0.1673444656253611  0.6408817134254458  0.9794953519781082
  0.7950738739156354  0.5818143402964082  0.2113498097594491
  0.4394951819325906  0.9014270268119889  0.5157989406711679
  0.1322318332496992  0.7507873165800911  0.1810908121998564
  0.2656955428024162  0.0928519848081931  0.8217651654652395
  0.9931822305282573  0.3634807947420249  0.5036975476822775
  0.0080627041973643  0.6805621818863108  0.0120789179203562
  0.8314440386550276  0.6126209024271659  0.3521385796323031
  0.9739767657416533  0.7232566856744969  0.6928059623358810
  0.6451795274918614  0.2866141078356299  0.2058845961915446
  0.4683582748789379  0.6319537343068753  0.2747071131986769
  0.3940968388999339  0.9060450118175937  0.8962337687307800
  0.1279611103924429  0.3325292747902915  0.1775522699435838
  0.2037748407432368  0.5045932463577883  0.6196714015359153
  0.3777846036107812  0.9237893849697275  0.0657610432902560
  0.6235425470125358  0.5503298674222509  0.6364523523191936
  0.4232366695871633  0.7257716283540172  0.5236284612928706
  0.6911547434899045  0.0400829003260645  0.7433956680034807
  0.0460407914904179  0.0980281613346462  0.5250159326861581
  0.7721104009866813  0.2245871691888786  0.4647652324961941
  0.7955708627073004  0.8947987524936052  0.1327519993111968
  0.6841239028812510  0.1367447152100374  0.2229647894560400
  0.9379055156190099  0.5499307450964254  0.9223343361036077
  0.3554404168923255  0.3988681395616947  0.6212997481618642
  0.7318622396074734  0.3180855555692235  0.3356316957713668
  0.9390267199505919  0.1866773023625255  0.6534637988500205
  0.3018452433171143  0.9568746049316759  0.3706624576029480
  0.9816760409521034  0.1914736894488197  0.9446096926550065
  0.3384981381911161  0.5275604518858864  0.4323742240905622
  0.5561217642312684  0.0391069266758097  0.6019947264157923
  0.3284334235988015  0.0967932523748024  0.6558298928972431
  0.4116136729589889  0.0782701203562008  0.4280174536854474
  0.3543312519444255  0.2252133378504842  0.9541852612310026
  0.0163254690411199  0.6262403723040529  0.8479007031501794
  0.7884335664491696  0.1610556466371110  0.8712403187035371
  0.5676916276211369  0.8813049324846235  0.5244423716188973
  0.4710695403202371  0.3575320657581484  0.7620224875539137
  0.2820648642653794  0.6802988458385676  0.1948243231099102
  0.2818404084672214  0.1662024434721944  0.3146051983913432
  0.7505122004508762  0.9346666123314937  0.4058876214561241
  0.3224186887429456  0.5912403761418558  0.7316916922837615
  0.5371020090663362  0.4559104499952752  0.8230255891493883
  0.7897074337260938  0.4090801467157512  0.7048786783704059
  0.6042203400805626  0.0053466275269720  0.4837840920391066
  0.5817202038988603  0.0590698753256269  0.9210071330559741
  0.7897464497040839  0.9952921264984921 -0.0022636383373307
  0.3856174413349367  0.3755925348088003  0.2775949420284363
  0.3531045897101335  0.2805201548817797  0.3622729056556175
  0.5929945964830198  0.6862330056082712  0.4411843644261502
  0.0020816872818531  0.0756793261417521  0.8127263765071674
  0.7562968411865245  0.8723584956780889  0.6835348400776693
  0.2053167363857732  0.5004737788599536  0.1222415351848407
  0.3498166713810750  0.7220184609334280  0.8698162944317930
  0.3811477387446695  0.5362527594514619  0.0746135766235995
  0.5090329802810206  0.7891797364212827  0.4494288887028828
  0.1777104370590618  0.0276156850341253  0.7634920276393767
  0.8832531406451433  0.8233224492181545  0.6788176180497933
  0.5377022620049726  0.2490660641128826  0.9831316782642794
  0.5250278147510169  0.9159315730770938  0.6487944572478431
  0.7863111228016122  0.4513875497367794  0.8339229091686488
  0.4181068173080969  0.1714452558083284  0.1597795356843386
  0.8522053058310830  0.3327265616884070  0.1249946351824466
  0.6614341703493613  0.9794544267323346  0.2472458726615355
  0.8338487737940182  0.2457032177138742  0.3433445618559213
  0.4186796839378456  0.4875377809623437  0.3446684415527844
  0.1469844270861647  0.8683112841540994  0.4638976256478887
  0.9894762040839454  0.2382415933030821  0.5079187113775320
  0.6237055035444139  0.5488815589935847  0.2792781921717818
  0.0871084692309436  0.1411549383460160  0.3888287590602434
  0.1199451102272582  0.9779872965691673  0.4003904450368601
  0.1638887275044404  0.8769712706025593  0.9983286190370008
  0.9953231451904517  0.7641683518950786  0.8607630426743484
  0.2672894355910568  0.0527962226512241  0.9382646666135724
  0.8875577028320196  0.3945641541846789  0.5647015914729930
  0.7240480931052353  0.9355862950101079  0.5702941973914587
  0.8693020967665910  0.2257928013858801  0.9888939940951849
  0.4243028962909255  0.9510966013637379  0.3898296358124720
  0.7124076120643313  0.4736347446891553  0.0684957940328116
  0.6556560984480435  0.6623182339546024  0.8234384983231274
  0.6211738018108133  0.7895061913661052  0.2073233938642464
  0.7908550561861428  0.4410625051419677  0.1726219713322532
  0.8555086161666399  0.9332351843989796  0.5618216944103775
  0.4834216875818941  0.7409265646076298  0.8769229353683331
  0.1235033867357276  0.1305485220860756  0.7023835004265480
  0.2511168822167291  0.6327137861703751  0.4675216315468951
  0.9621963438777202  0.1790396345214045  0.3899111406166528
  0.3896490452618244  0.0924327913818505  0.2963751584443747
  0.2048851410089676  0.7618161407881410  0.0786196507946504
  0.9541856349959799  0.3864142970307189  0.9590341753665558
  0.5504167049964138  0.5413706078134547  0.0230160764388465
  0.9092759627377599  0.4349840215361566  0.3421263630251237
  0.7982820894872489  0.1333623737061081  0.0430361922629593
  0.0093163345414191  0.3039045227572256  0.2622676748823748
  0.3709464635788143  0.8288149466989710  0.1497570610136552
  0.1929504659773016  0.5934120621087177  0.7064937536882353
  0.8702292639492251  0.0902545124172576  0.6118217889198301
  0.9719813797276353  0.7991495117036386  0.4944475931117309
  0.5320857992244903  0.3008749528665367  0.1711831251200031
  0.0562586761454700  0.3956029430302437  0.0959665673963341
  0.4607059409636165  0.4435889382309869  0.6675391250517075
  0.7416949120959672  0.7812531327003569  0.1538136599246007
  0.3715470076681865  0.0682092174591515  0.1008302466036447
  0.4407668268597520  0.5747653597968989  0.9456213252535426
  0.9042088513853108  0.8640641190361863  0.1865447842415694
  0.7309261855532500  0.1571873923945442  0.7586942966680786
  0.3668852445298562  0.6314605585039247  0.6063027416611642
  0.9101833145129916  0.3603032677275214  0.6894494845409361
  0.2716386029923130  0.8539255749851070  0.4300571164752020
  0.2515105842976424  0.9492622723711859  0.0666542514413290
  0.8609599030392240  0.0558827423734789  0.2688562305901654
  0.5504523623956494  0.0975851987434074  0.0416477921807721
  0.0013583703702983  0.6028878989356937  0.7252207963243195
  0.7306275996787744  0.3114990040574921  0.6277251874076422
  0.6881065489205841  0.1582592975982206  0.9550711071667534
  0.1002910290729589  0.1584110009530431  0.8363129696240439
  0.3939742389865026  0.4794330845839596  0.5318143172761671
  0.8441494244590321  0.0382492714599728  0.8860239352674009
  0.0233380740354251  0.7470119150339801  0.1160706470369244
  0.1367956040840763  0.5786063751273143  0.8732629596362946
  0.5696805396263984  0.0225791762172067  0.7730751041632027
  0.0925380974678341  0.4500353456848667  0.6551569173117222
  0.4761576262772929  0.6099142640960805  0.7465004902729795
  0.8747578022871935  0.9557920830153565  0.4347893600546465
  0.0277006019100577  0.9809788234389986  0.4912484247823518
  0.9793551331690733  0.8908855903930997  0.9142231409198200
  0.5729251157770684  0.3912713236765712  0.5441459239196393
  0.4631986478429143  0.9590200252549992  0.2664875797063976
  0.6401570823326959  0.9226111353839774  0.0407289584546976
  0.6898801397210019  0.9580985557740695  0.9216561230208411
  0.8011831917110985  0.9748189147212534  0.7474240842663824
  0.4142814674097694  0.2585085912254505  0.6021234606037994
  0.0600895328422972  0.7887629414234697  0.7551749980244923
  0.8106951039564678  0.4878927961349895  0.9832724730297197
  0.2341043736814644  0.2728508599248558  0.6208144667263125
  0.0819186922101071  0.5803200027403814  0.0476772074129556
  0.2601743160017946  0.7751001019046925  0.2858314659982855
  0.8301509555551475  0.7286659026726867  0.6025239763400932
  0.0985299875322399  0.4305101313734041  0.3431700792449411
  0.4723709486464305  0.9827607706996487  0.9572725929297403
  0.9152156052113798  0.5309350554897475  0.6007896880039650
  0.3062336495914328  0.2282369865094409  0.2007374923354718
  0.5629964935093623  0.2810747835118699  0.7173484855633715
  0.6857301605905973  0.3490371811242362  0.0495050491204045
  0.9715582712559093  0.2167578047892171  0.0672085181225697
  0.8213991158791670  0.8620388822683270  0.0099290433550045
  0.5683634965846356  0.7546880709977831  0.0627529098449598
  0.4536931793304175  0.3011771007833851  0.9004480032824369
  0.5129899782182725  0.3526337693727916  0.2934067002640223
  0.8088323616880552  0.1080383398166533  0.4808305193845095
  0.6191785745579473  0.6760226132556205  0.3121247000103036
  0.0186122927402435  0.5438039749706558  0.4662884950255184
  0.9316088298312630  0.7864197572490743  0.3356033599279012
  0.8579411700054034  0.6087316703001088  0.1071178390559112
  0.1623160407984010  0.6332102853758024  0.2060871471615873
  0.3931704145699552  0.8286696605555405  0.9879756535194330
  0.7963147086949751  0.6033716405907519  0.7320746164078643
  0.2556580064204078  0.4631628746764711  0.3687776633567957
  0.5136066453845179  0.1450122692119687  0.8384290625560235
  0.1639139612994796  0.1057009808631154  0.5693010900989341
  0.2631295070591091  0.5441034420424791  0.0151262878034894
  0.9336585484670701  0.5956250248770499  0.2922349580858802
  0.3424009796864154  0.6208151449456230  0.2969042399578622
  0.8999981684687859  0.2528585416469205  0.2254331437580215
  0.1457180091886794  0.0012617301586347  0.9309596664998210
  0.1256312420514438  0.2196518781007092  0.1243165725876227
  0.4266011861176469  0.0135766719693085  0.5671618238826656
  0.6078593152756254  0.2247817558260928  0.8710280408470814
  0.4117223630262115  0.2638479554214636  0.0654888828707077
  0.6193923223062893  0.9059150335060731  0.7373892486550250
  0.2034460473166701  0.9338164622094766  0.5937773073832091
  0.4436932172529079  0.4395338400583523  0.9231877607107651
  0.0725563422514734  0.4185534268465336  0.8263670305140262
  0.6407811170340811  0.2408869170990112  0.3198585405159199
  0.8472860916928628  0.7720723538115924  0.7929603261064883
  0.7211735214395786  0.2198127845490503  0.1404554793242233
  0.6388107286134936  0.7969576938181628  0.9071395020317367
  0.8565935928530697  0.6520870326034154  0.9154720287210780
  0.9799422508848918  0.1083843862848857  0.2471434913982873
  0.2306483177714931  0.1693413085178062  0.9917890341851259
  0.2577340843300067  0.0418488358778735  0.4420066677278880
  0.9674394668565326  0.0650342333577083  0.9432313300412857
  0.3143158349131533  0.3301061769220106  0.4736432528666727
  0.1449296912689851  0.7002418097587856  0.6419729896871967
  0.3139402789127903  0.7255640337622610  0.7459813184723280
  0.8065023163122285  0.3276964058994136  0.8660044346510454
  0.6755086475089755  0.5900689295436019  0.1704168890580338
  0.9156399849472958  0.0121888604042072  0.0818925354464824
  0.4853002345082215  0.2593945287968326  0.4126798892037733
  0.0742606799376486  0.9331640034781348  0.1230060850169953
  0.0283238111908282  0.7139701849425495  0.5778634618816890
  0.1199422257505762  0.2491372199451321  0.4508215075729761
  0.6989840812477445  0.6341478167045274  0.0099574709209076
  0.0930453036504178  0.7482831386560944  0.9480172587849416
  0.9358994792631488  0.4263544047590694  0.1385931851678604
  0.2643415682824289  0.2150519524139895  0.8118082822466550
  0.6416296264729885  0.4569685211573607  0.7185312807591390
  0.6963937660258496  0.0535869347372032  0.6187998521218026
  0.0834525729190546  0.8610675860127691  0.3519715616895192
  0.5845237592136694  0.9067115747742405  0.1663762160926858
  0.6930140383446748  0.7566518442083442  0.5021172580095530
  0.3753962924964624  0.0787179977102263  0.7728804832057018
  0.6315826116189103  0.3976835245138243  0.8856313300803761
  0.2215543005539663  0.8494411798214978  0.8858555016913314
  0.6714828373720786  0.2268077398914162  0.5410196712702448
  0.5408724168134397  0.0900053338486689  0.4109869896164384
  0.7832959320792463  0.6934579875200717  0.2761826909224464
  0.1342750445450940  0.4030521276802921  0.9436285891236721
  0.3152003057326398  0.9069667978891054  0.7409572861116722
  0.5317295786722642  0.6938863397185245  0.5848889552349268
  0.2246074877909361  0.3066001595265530  0.3094557486827125
  0.7224233052991518  0.0834608975548649  0.3885873750325586
  0.6761782357632601  0.7374809250608851  0.6649379896228856
  0.9939267211074089  0.0737496810521410  0.6399711260423961
  0.4542732544590055  0.8469197653647262  0.8106254987386130
  0.2239217761219315  0.7302029131206434  0.5495480707880697
  0.7223375118265818  0.0419249704510114  0.1528663662576119
  0.9294201779912061  0.9406513768512432  0.7541237734175416
  0.8593206926544662  0.2622374836530609  0.5447215702302030
  0.9251015203785750  0.1765046992700349  0.7835036681622191
  0.1797880186617605  0.6337750939725794  0.3615714181023390
  0.4793186259626506  0.1856061990821886  0.5197965633840289
  0.2733056863127805  0.9583342172470554  0.2548211063083215
  0.4562802012053015  0.7642214963726048  0.2782567578152285
  0.0961999278483102  0.1905488349047264  0.2639661061438893
  0.2817817968679216  0.3285808618759404  0.9330560211056991
  0.8583428391712100  0.6589138396126104  0.4608186717537179
  0.3247211068616703  0.5957694490397216  0.8770614480543798
  0.4676286749116009  0.6218847316511308  0.4025604043335227
  0.3161758844427713  0.5028324083074350  0.1870355219704022
  0.0531394353618937  0.2803794131110842  0.6990782832528160
  0.7567037559962676  0.5223928604115097  0.3712581344256575
  0.7216677798032705  0.5370021449783250  0.5648646100158676
  0.9098159091906590  0.4892168814636457  0.8149021139156174
  0.7695899834426814  0.9160295688693239  0.2785706795360918
  0.5159220245551791  0.4361309960779589  0.4089455442654491
  0.2777974223294806  0.4542410202173247  0.7040681121073833
  0.2007696494240159  0.3768724841867096  0.0787267761520184
  0.1056424543620805  0.3846002316687878  0.5462203993686785
  0.0885378807041567  0.0903398984984276  0.0033328820525260
  0.7130336236830929  0.3788167993407743  0.4360456035079280
  0.5127947546242634  0.5228259083598198  0.2131794904982788
  0.7810569620736266  0.7996015902440424  0.4218348969134936
  0.3843274421139689  0.8209814278850172  0.5918107342817880
  0.4176682924194386  0.6520422828509349  0.1125824412006945
  0.1868399801102503  0.0929639284850979  0.2519338370502029
  0.6914830951697976  0.3957973804354091  0.2453376015651466
  0.6300285270668082  0.8468844759357684  0.3267388377165242
 
  0.00000000E+00  0.00000000E+00  0.00000000E+00
  0.00000000E+00  0.00000000E+00  0.00000000E+00
  0.00000000E+00  0.00000000E+00  0.00000000E+00
  0.00000000E+00  0.00000000E+00  0.00000000E+00
  0.00000000E+00  0.00000000E+00  0.00000000E+00
  0.00000000E+00  0.00000000E+00  0.00000000E+00
  0.00000000E+00  0.00000000E+00  0.00000000E+00
  0.00000000E+00  0.00000000E+00  0.00000000E+00
  0.00000000E+00  0.00000000E+00  0.00000000E+00
  0.00000000E+00  0.00000000E+00  0.00000000E+00
  0.00000000E+00  0.00000000E+00  0.00000000E+00
  0.00000000E+00  0.00000000E+00  0.00000000E+00
  0.00000000E+00  0.00000000E+00  0.00000000E+00
  0.00000000E+00  0.00000000E+00  0.00000000E+00
  0.00000000E+00  0.00000000E+00  0.00000000E+00
  0.00000000E+00  0.00000000E+00  0.00000000E+00
  0.00000000E+00  0.00000000E+00  0.00000000E+00
  0.00000000E+00  0.00000000E+00  0.00000000E+00
  0.00000000E+00  0.00000000E+00  0.00000000E+00
  0.00000000E+00  0.00000000E+00  0.00000000E+00
  0.00000000E+00  0.00000000E+00  0.00000000E+00
  0.00000000E+00  0.00000000E+00  0.00000000E+00
  0.00000000E+00  0.00000000E+00  0.00000000E+00
  0.00000000E+00  0.00000000E+00  0.00000000E+00
  0.00000000E+00  0.00000000E+00  0.00000000E+00
  0.00000000E+00  0.00000000E+00  0.00000000E+00
  0.00000000E+00  0.00000000E+00  0.00000000E+00
  0.00000000E+00  0.00000000E+00  0.00000000E+00
  0.00000000E+00  0.00000000E+00  0.00000000E+00
  0.00000000E+00  0.00000000E+00  0.00000000E+00
  0.00000000E+00  0.00000000E+00  0.00000000E+00
  0.00000000E+00  0.00000000E+00  0.00000000E+00
  0.00000000E+00  0.00000000E+00  0.00000000E+00
  0.00000000E+00  0.00000000E+00  0.00000000E+00
  0.00000000E+00  0.00000000E+00  0.00000000E+00
  0.00000000E+00  0.00000000E+00  0.00000000E+00
  0.00000000E+00  0.00000000E+00  0.00000000E+00
  0.00000000E+00  0.00000000E+00  0.00000000E+00
  0.00000000E+00  0.00000000E+00  0.00000000E+00
  0.00000000E+00  0.00000000E+00  0.00000000E+00
  0.00000000E+00  0.00000000E+00  0.00000000E+00
  0.00000000E+00  0.00000000E+00  0.00000000E+00
  0.00000000E+00  0.00000000E+00  0.00000000E+00
  0.00000000E+00  0.00000000E+00  0.00000000E+00
  0.00000000E+00  0.00000000E+00  0.00000000E+00
  0.00000000E+00  0.00000000E+00  0.00000000E+00
  0.00000000E+00  0.00000000E+00  0.00000000E+00
  0.00000000E+00  0.00000000E+00  0.00000000E+00
  0.00000000E+00  0.00000000E+00  0.00000000E+00
  0.00000000E+00  0.00000000E+00  0.00000000E+00
  0.00000000E+00  0.00000000E+00  0.00000000E+00
  0.00000000E+00  0.00000000E+00  0.00000000E+00
  0.00000000E+00  0.00000000E+00  0.00000000E+00
  0.00000000E+00  0.00000000E+00  0.00000000E+00
  0.00000000E+00  0.00000000E+00  0.00000000E+00
  0.00000000E+00  0.00000000E+00  0.00000000E+00
  0.00000000E+00  0.00000000E+00  0.00000000E+00
  0.00000000E+00  0.00000000E+00  0.00000000E+00
  0.00000000E+00  0.00000000E+00  0.00000000E+00
  0.00000000E+00  0.00000000E+00  0.00000000E+00
  0.00000000E+00  0.00000000E+00  0.00000000E+00
  0.00000000E+00  0.00000000E+00  0.00000000E+00
  0.00000000E+00  0.00000000E+00  0.00000000E+00
  0.00000000E+00  0.00000000E+00  0.00000000E+00
  0.00000000E+00  0.00000000E+00  0.00000000E+00
  0.00000000E+00  0.00000000E+00  0.00000000E+00
  0.00000000E+00  0.00000000E+00  0.00000000E+00
  0.00000000E+00  0.00000000E+00  0.00000000E+00
  0.00000000E+00  0.00000000E+00  0.00000000E+00
  0.00000000E+00  0.00000000E+00  0.00000000E+00
  0.00000000E+00  0.00000000E+00  0.00000000E+00
  0.00000000E+00  0.00000000E+00  0.00000000E+00
  0.00000000E+00  0.00000000E+00  0.00000000E+00
  0.00000000E+00  0.00000000E+00  0.00000000E+00
  0.00000000E+00  0.00000000E+00  0.00000000E+00
  0.00000000E+00  0.00000000E+00  0.00000000E+00
  0.00000000E+00  0.00000000E+00  0.00000000E+00
  0.00000000E+00  0.00000000E+00  0.00000000E+00
  0.00000000E+00  0.00000000E+00  0.00000000E+00
  0.00000000E+00  0.00000000E+00  0.00000000E+00
  0.00000000E+00  0.00000000E+00  0.00000000E+00
  0.00000000E+00  0.00000000E+00  0.00000000E+00
  0.00000000E+00  0.00000000E+00  0.00000000E+00
  0.00000000E+00  0.00000000E+00  0.00000000E+00
  0.00000000E+00  0.00000000E+00  0.00000000E+00
  0.00000000E+00  0.00000000E+00  0.00000000E+00
  0.00000000E+00  0.00000000E+00  0.00000000E+00
  0.00000000E+00  0.00000000E+00  0.00000000E+00
  0.00000000E+00  0.00000000E+00  0.00000000E+00
  0.00000000E+00  0.00000000E+00  0.00000000E+00
  0.00000000E+00  0.00000000E+00  0.00000000E+00
  0.00000000E+00  0.00000000E+00  0.00000000E+00
  0.00000000E+00  0.00000000E+00  0.00000000E+00
  0.00000000E+00  0.00000000E+00  0.00000000E+00
  0.00000000E+00  0.00000000E+00  0.00000000E+00
  0.00000000E+00  0.00000000E+00  0.00000000E+00
  0.00000000E+00  0.00000000E+00  0.00000000E+00
  0.00000000E+00  0.00000000E+00  0.00000000E+00
  0.00000000E+00  0.00000000E+00  0.00000000E+00
  0.00000000E+00  0.00000000E+00  0.00000000E+00
  0.00000000E+00  0.00000000E+00  0.00000000E+00
  0.00000000E+00  0.00000000E+00  0.00000000E+00
  0.00000000E+00  0.00000000E+00  0.00000000E+00
  0.00000000E+00  0.00000000E+00  0.00000000E+00
  0.00000000E+00  0.00000000E+00  0.00000000E+00
  0.00000000E+00  0.00000000E+00  0.00000000E+00
  0.00000000E+00  0.00000000E+00  0.00000000E+00
  0.00000000E+00  0.00000000E+00  0.00000000E+00
  0.00000000E+00  0.00000000E+00  0.00000000E+00
  0.00000000E+00  0.00000000E+00  0.00000000E+00
  0.00000000E+00  0.00000000E+00  0.00000000E+00
  0.00000000E+00  0.00000000E+00  0.00000000E+00
  0.00000000E+00  0.00000000E+00  0.00000000E+00
  0.00000000E+00  0.00000000E+00  0.00000000E+00
  0.00000000E+00  0.00000000E+00  0.00000000E+00
  0.00000000E+00  0.00000000E+00  0.00000000E+00
  0.00000000E+00  0.00000000E+00  0.00000000E+00
  0.00000000E+00  0.00000000E+00  0.00000000E+00
  0.00000000E+00  0.00000000E+00  0.00000000E+00
  0.00000000E+00  0.00000000E+00  0.00000000E+00
  0.00000000E+00  0.00000000E+00  0.00000000E+00
  0.00000000E+00  0.00000000E+00  0.00000000E+00
  0.00000000E+00  0.00000000E+00  0.00000000E+00
  0.00000000E+00  0.00000000E+00  0.00000000E+00
  0.00000000E+00  0.00000000E+00  0.00000000E+00
  0.00000000E+00  0.00000000E+00  0.00000000E+00
  0.00000000E+00  0.00000000E+00  0.00000000E+00
  0.00000000E+00  0.00000000E+00  0.00000000E+00
  0.00000000E+00  0.00000000E+00  0.00000000E+00
  0.00000000E+00  0.00000000E+00  0.00000000E+00
  0.00000000E+00  0.00000000E+00  0.00000000E+00
  0.00000000E+00  0.00000000E+00  0.00000000E+00
  0.00000000E+00  0.00000000E+00  0.00000000E+00
  0.00000000E+00  0.00000000E+00  0.00000000E+00
  0.00000000E+00  0.00000000E+00  0.00000000E+00
  0.00000000E+00  0.00000000E+00  0.00000000E+00
  0.00000000E+00  0.00000000E+00  0.00000000E+00
  0.00000000E+00  0.00000000E+00  0.00000000E+00
  0.00000000E+00  0.00000000E+00  0.00000000E+00
  0.00000000E+00  0.00000000E+00  0.00000000E+00
  0.00000000E+00  0.00000000E+00  0.00000000E+00
  0.00000000E+00  0.00000000E+00  0.00000000E+00
  0.00000000E+00  0.00000000E+00  0.00000000E+00
  0.00000000E+00  0.00000000E+00  0.00000000E+00
  0.00000000E+00  0.00000000E+00  0.00000000E+00
  0.00000000E+00  0.00000000E+00  0.00000000E+00
  0.00000000E+00  0.00000000E+00  0.00000000E+00
  0.00000000E+00  0.00000000E+00  0.00000000E+00
  0.00000000E+00  0.00000000E+00  0.00000000E+00
  0.00000000E+00  0.00000000E+00  0.00000000E+00
  0.00000000E+00  0.00000000E+00  0.00000000E+00
  0.00000000E+00  0.00000000E+00  0.00000000E+00
  0.00000000E+00  0.00000000E+00  0.00000000E+00
  0.00000000E+00  0.00000000E+00  0.00000000E+00
  0.00000000E+00  0.00000000E+00  0.00000000E+00
  0.00000000E+00  0.00000000E+00  0.00000000E+00
  0.00000000E+00  0.00000000E+00  0.00000000E+00
  0.00000000E+00  0.00000000E+00  0.00000000E+00
  0.00000000E+00  0.00000000E+00  0.00000000E+00
  0.00000000E+00  0.00000000E+00  0.00000000E+00
  0.00000000E+00  0.00000000E+00  0.00000000E+00
  0.00000000E+00  0.00000000E+00  0.00000000E+00
  0.00000000E+00  0.00000000E+00  0.00000000E+00
  0.00000000E+00  0.00000000E+00  0.00000000E+00
  0.00000000E+00  0.00000000E+00  0.00000000E+00
  0.00000000E+00  0.00000000E+00  0.00000000E+00
  0.00000000E+00  0.00000000E+00  0.00000000E+00
  0.00000000E+00  0.00000000E+00  0.00000000E+00
  0.00000000E+00  0.00000000E+00  0.00000000E+00
  0.00000000E+00  0.00000000E+00  0.00000000E+00
  0.00000000E+00  0.00000000E+00  0.00000000E+00
  0.00000000E+00  0.00000000E+00  0.00000000E+00
  0.00000000E+00  0.00000000E+00  0.00000000E+00
  0.00000000E+00  0.00000000E+00  0.00000000E+00
  0.00000000E+00  0.00000000E+00  0.00000000E+00
  0.00000000E+00  0.00000000E+00  0.00000000E+00
  0.00000000E+00  0.00000000E+00  0.00000000E+00
  0.00000000E+00  0.00000000E+00  0.00000000E+00
  0.00000000E+00  0.00000000E+00  0.00000000E+00
  0.00000000E+00  0.00000000E+00  0.00000000E+00
  0.00000000E+00  0.00000000E+00  0.00000000E+00
  0.00000000E+00  0.00000000E+00  0.00000000E+00
  0.00000000E+00  0.00000000E+00  0.00000000E+00
  0.00000000E+00  0.00000000E+00  0.00000000E+00
  0.00000000E+00  0.00000000E+00  0.00000000E+00
  0.00000000E+00  0.00000000E+00  0.00000000E+00
  0.00000000E+00  0.00000000E+00  0.00000000E+00
  0.00000000E+00  0.00000000E+00  0.00000000E+00
  0.00000000E+00  0.00000000E+00  0.00000000E+00
  0.00000000E+00  0.00000000E+00  0.00000000E+00
  0.00000000E+00  0.00000000E+00  0.00000000E+00
  0.00000000E+00  0.00000000E+00  0.00000000E+00
  0.00000000E+00  0.00000000E+00  0.00000000E+00
  0.00000000E+00  0.00000000E+00  0.00000000E+00
  0.00000000E+00  0.00000000E+00  0.00000000E+00
  0.00000000E+00  0.00000000E+00  0.00000000E+00
  0.00000000E+00  0.00000000E+00  0.00000000E+00
  0.00000000E+00  0.00000000E+00  0.00000000E+00
  0.00000000E+00  0.00000000E+00  0.00000000E+00
  0.00000000E+00  0.00000000E+00  0.00000000E+00
  0.00000000E+00  0.00000000E+00  0.00000000E+00
  0.00000000E+00  0.00000000E+00  0.00000000E+00
  0.00000000E+00  0.00000000E+00  0.00000000E+00
  0.00000000E+00  0.00000000E+00  0.00000000E+00
  0.00000000E+00  0.00000000E+00  0.00000000E+00
  0.00000000E+00  0.00000000E+00  0.00000000E+00
  0.00000000E+00  0.00000000E+00  0.00000000E+00
  0.00000000E+00  0.00000000E+00  0.00000000E+00
  0.00000000E+00  0.00000000E+00  0.00000000E+00
  0.00000000E+00  0.00000000E+00  0.00000000E+00
  0.00000000E+00  0.00000000E+00  0.00000000E+00
  0.00000000E+00  0.00000000E+00  0.00000000E+00
  0.00000000E+00  0.00000000E+00  0.00000000E+00
  0.00000000E+00  0.00000000E+00  0.00000000E+00
  0.00000000E+00  0.00000000E+00  0.00000000E+00
  0.00000000E+00  0.00000000E+00  0.00000000E+00
  0.00000000E+00  0.00000000E+00  0.00000000E+00
  0.00000000E+00  0.00000000E+00  0.00000000E+00
  0.00000000E+00  0.00000000E+00  0.00000000E+00
  0.00000000E+00  0.00000000E+00  0.00000000E+00
  0.00000000E+00  0.00000000E+00  0.00000000E+00
  0.00000000E+00  0.00000000E+00  0.00000000E+00
  0.00000000E+00  0.00000000E+00  0.00000000E+00
  0.00000000E+00  0.00000000E+00  0.00000000E+00
  0.00000000E+00  0.00000000E+00  0.00000000E+00
  0.00000000E+00  0.00000000E+00  0.00000000E+00
  0.00000000E+00  0.00000000E+00  0.00000000E+00
  0.00000000E+00  0.00000000E+00  0.00000000E+00
  0.00000000E+00  0.00000000E+00  0.00000000E+00
  0.00000000E+00  0.00000000E+00  0.00000000E+00
  0.00000000E+00  0.00000000E+00  0.00000000E+00
  0.00000000E+00  0.00000000E+00  0.00000000E+00