Amorphous Sb                            
   1.00000000000000     
    22.4713554274211269    0.0000000000000000    0.0000000000000000
     0.0000000000000000   22.4713554274211269    0.0000000000000000
     0.0000000000000000    0.0000000000000000   22.4713554274211269
   In   Te
    30   270
Direct
  0.0176643685449875  0.0268900218115528  0.7934760185024513
  0.7231266126035526  0.6769066992883894  0.2538738391456942
  0.1993968318100616  0.3289343350377629  0.6922747597599127
  0.8030791639321696  0.6754408702611164  0.9476502029629225
  0.9588715688065962  0.3359832381202787  0.0152391458670301
  0.7627383744963190  0.4192470805000132  0.1098346721983470
  0.1750396500460292  0.8786944338701174  0.2572531044190675
  0.0792039260225541  0.3483994232906843  0.2857704312040077
  0.3949682382485591  0.1232765974977325  0.9077717882746644
  0.8577442712033395  0.6167509238191624  0.3948378957716397
  0.0279619686997614  0.0710426363437840  0.9762626177134517
  0.7891335185321136  0.5835329694904867  0.7633553375724668
  0.0325478569579884  0.9491943283743552  0.6470604601167264
  0.0021298260950681  0.4185899612548926  0.5209260485173054
  0.2305242577721961  0.7422008698602983  0.4622174103239910
  0.6258473023415833  0.9094578502440155  0.2288643329248946
  0.0165430361531082  0.1226329295475723  0.4170024050343627
  0.5131859851937132  0.7176683425500044  0.7963043069369445
  0.1893516075566767  0.6067896378363966  0.8845949873939534
  0.7038002268520192  0.9499015934412729  0.4728765445033675
  0.2102702388198749  0.8413295946959976  0.8244767309468749
  0.2827471137202389  0.9681458759792071  0.3748229033306348
  0.5542053727832091  0.3695379013104571  0.1968810278629229
  0.4233126597016801  0.0348667931743674  0.2030301051620100
  0.0881044870727381  0.6355141882083754  0.4576115213858855
  0.2400575762746647  0.2935091460658430  0.3099920092212365
  0.5584055656238631  0.8081213034871271  0.6662821634378918
  0.8849032235912704  0.8142502453462855  0.6140648823584969
  0.8953994875010344  0.5605699379019908  0.2288296558379490
  0.0699780158289916  0.2175093729919690  0.7373500351662756
  0.4234492916638066  0.1321266941985540  0.3489221387028469
  0.4627821730707165  0.8412325422232152  0.4408737890087763
  0.2702200238287057  0.9886540282277723  0.8477951942344129
  0.3892484182009778  0.7696771854649317  0.1355211632375375
  0.7850739061586609  0.8547065190803657  0.7599820174311894
  0.9129214704282113  0.5297698945702912  0.6458532393281196
  0.4483403738162136  0.4398112902985813  0.9252393591167759
  0.1604926389386173  0.2725520826011538  0.2142595212649603
  0.1053362363064463  0.0508339408147758  0.6751381483607647
  0.7701184017074100  0.7255010085194205  0.5192686244241430
  0.9441351538071828  0.7809310633025583  0.9016838054215995
  0.7727074988246301  0.1067312026982466  0.0923829111494103
  0.3892958693880154  0.4781660482998805  0.4382691329008569
  0.6272713065780294  0.4523291336856471  0.5641181693498388
  0.6717994795022576  0.3426818525892243  0.3473343281179571
  0.6271581511654897  0.8234892889087285  0.9265833287020412
  0.9051154398622376  0.2115117537823839  0.1809018202292706
  0.6814945281290274  0.3397039991532110  0.8513999524304035
  0.2984491084260377  0.0428159450782990  0.5240838475020987
  0.5594094005922080  0.6937585439271516  0.1623011120982418
  0.4627654169999000  0.5963806346400866  0.7502119596658805
  0.1030390325410403  0.9682314018663521  0.9523922987203750
  0.0328733722313674  0.9236742494768796  0.1622565098235607
  0.7500000316605250  0.5482905174932278  0.1243586685042550
  0.5743575267700010  0.5774754689112106  0.6905075645630940
  0.5353073592082153  0.9251264654747073  0.5196231670039888
  0.0753968883948062  0.4730279538178081  0.9453751028902104
  0.3727115905087326  0.1529703761981664  0.2113867419984650
  0.2641432129941613  0.2364429954868332  0.8176298227496405
  0.0787136984824477  0.6993754114432672  0.1936930459422083
  0.7937130617835599  0.7300964840606626  0.6426703155467910
  0.2586195333630534  0.1027208387412606  0.2523472604538500
  0.0953209031854644  0.6270668334005224  0.9762318196601513
  0.7507122779968949  0.7817444727163323  0.9967471890394618
  0.4361605739816302  0.7797023791618639  0.6951367201313008
  0.5949725539869399  0.4631184848288495  0.3849155751785005
  0.4912482296317476  0.4249616779202657  0.7903206562941140
  0.5716277073272971  0.0391466928128292  0.3971765705266074
  0.6445760050752204  0.2863061621627050  0.2273105003334593
  0.8889645016898559  0.3015977385024401  0.8491191390902399
  0.8441521054095805  0.3411144128000947  0.4391319323192521
  0.8011441660541677  0.9941735764890900  0.4066448234436331
  0.3047093205200370  0.8831585724871257  0.2778054832287674
  0.3572262397515056  0.8571057434058367  0.5080132791262660
  0.7161634865690365  0.1583017852764840  0.4466180420522616
  0.0390580301366869  0.1825363271467745  0.9124560361250214
  0.9265433323750785  0.0236477009411090  0.0337983809556679
  0.1619122543469569  0.4368280676801777  0.2287279770460528
  0.5123631550943653  0.5600995791286617  0.9084987082679562
  0.7437473625427908  0.6826837525512375  0.8320149965731866
  0.9253034566188392  0.6591193297927997  0.9186766299156836
  0.6012228020928437  0.8987764619807831  0.7465761617952881
  0.1527240159479013  0.8667885543613085  0.1346021556333054
  0.3044321586253606  0.9857900660277044  0.1831525250841265
  0.3858038764525965  0.6538786549454566  0.4289939349911116
  0.2320560728354189  0.9365080300693875  0.5526206101597620
  0.1220639977538934  0.7458172293412723  0.9399533477590909
  0.3649959791031741  0.3154969886285147  0.2193607638602166
  0.1567721581455238  0.1580600865102897  0.5774070892895322
  0.8951077744518117  0.4210200967611864  0.7249105558509696
  0.8086403315859549  0.8711809011567466  0.1015774565083550
  0.6340705621639503  0.0362690836860042  0.2103494927942876
  0.0680118804189569  0.1905539084471933  0.3223122795548041
  0.9099790824036189  0.7955574605252631  0.0845689497811993
  0.9675867749811127  0.7755651572358796  0.7032940764416504
  0.0876277606582849  0.4810814606916807  0.4425927652872829
  0.9503325428652081  0.4917028505630599  0.8303229548272201
  0.2069073267731801  0.0401536799506870  0.9439288735174686
  0.8811346818128131  0.5266219131698295  0.1073632330479832
  0.1521293866964268  0.7634932564345218  0.3067990550845567
  0.0446193199272047  0.4126821332202006  0.6384765753867461
  0.0839319023219883  0.6513186740769453  0.8079537404409415
  0.9285143251486845  0.0421540463972003  0.8862771073161626
  0.6134831284219469  0.2777470214114769  0.4338727410388695
  0.5238305981858495  0.2753880908472169  0.5590873315005634
  0.6478046821220118  0.8589150225355221  0.1111951411605151
  0.9045463775807516  0.6875137195895435  0.2347019763251067
  0.1463918866336286  0.5635079591068385  0.2430411566870565
  0.4727106720345822  0.1179919170508532  0.4642863566975267
  0.5344384041378452  0.8525964087115008  0.8406241832717615
  0.5562092575995926  0.7400572617421842  0.9860892774056687
  0.4701947662400329  0.0203950044511677  0.9007377494890850
  0.4348487975740288  0.5017696192109469  0.2457757969085133
  0.5538223726018654  0.0091608196128923  0.6639264448789114
  0.0693428659698962  0.6424489804402476  0.5824946687036898
  0.3061129826930388  0.5804800341576222  0.1462678690331235
  0.8317060658440455  0.3690475544750344  0.6170123976816897
  0.9215827274996876  0.7565877430248480  0.5011744138659080
  0.0385569656922559  0.2029724404422893  0.6156707488912682
  0.7968830521330610  0.1231336299522111  0.8289781696775064
  0.5378663738819478  0.5789650527455839  0.5447389214952358
  0.8996774664670460  0.9760888701301493  0.4867878014072008
  0.5954136203130297  0.4733870692998002  0.9645092502550271
  0.5287632101276111  0.4506765313854694  0.6668975290629335
  0.4618297613676215  0.2223234399096775  0.9475731632131762
  0.3402634311461593  0.9009148857316470  0.9170942448466545
  0.9127096614103001  0.3967464052295508  0.2142180310738432
  0.9106350247247330  0.2032273718641861  0.6670101555064164
  0.3349604062550744  0.2064164246743944  0.6008052756040838
  0.2404909608980628  0.9063999589256569  0.6905560232173982
  0.7850545941403393  0.6963537747428851  0.1449297176479166
  0.6050070440545239  0.6846736339858250  0.4126603152073767
  0.7065848135023657  0.0583400255043846  0.3114157672809171
  0.5209221677561801  0.2390238033030697  0.7975951438962180
  0.1862864484562355  0.8014004245413440  0.5742261350760811
  0.8050014862348009  0.4048849750014566  0.9236802236203655
  0.4013575163422443  0.6465398231982361  0.6516411034875438
  0.5265311136454991  0.8123202944382429  0.1111069130117230
  0.2722202050738939  0.7733918105918787  0.6589084490026267
  0.1460840209897738  0.9958885074761233  0.2978656917933155
  0.6769225684819651  0.7867522835672592  0.3903540513699426
  0.7201182485552025  0.9701235351016065  0.9607459722723323
  0.9614777310183634  0.0171871892756756  0.3673661172982454
  0.6808875186382066  0.7069343335097719  0.0733142847573356
  0.0155617512981952  0.5297191248525712  0.1063186274378136
  0.8332557697636821  0.9285248648480605  0.5953156832512007
  0.4553291022419232  0.0701203284827172  0.7564510420789832
  0.0119441891440600  0.5070094801099269  0.2358461956613536
  0.3477501040188944  0.1330396256204613  0.7919994653286713
  0.0151645357376063  0.3077451358834397  0.4583394238298734
  0.9591277971580118  0.2113882845805877  0.0432387604747978
  0.6146507008756966  0.7419956845914829  0.2744873049020633
  0.8919186786046329  0.2776679634981471  0.5430992115341314
  0.8139007794300266  0.0614977648840765  0.2460432534559264
  0.0763076850606200  0.9647540970974335  0.4036896067393483
  0.7851762785852642  0.2299917738795867  0.1503371959145435
  0.2677901369283882  0.6509402965046667  0.7916119018236752
  0.9353532394940822  0.0201689252423834  0.1610340288330896
  0.3397741405920012  0.8914265601348458  0.1016792166157097
  0.1190489630880996  0.0574596083996824  0.1696813389579535
  0.3415927968020371  0.4784045595111263  0.8717381352523814
  0.5079638056056397  0.8775526853944354  0.2644294804999728
  0.4128254609650646  0.2266070922041834  0.5050759030329263
  0.2976589470505075  0.3935430021249344  0.4559635864503759
  0.3267441555481129  0.4416362222913691  0.2078177787318591
  0.2855390159105904  0.7647208457810870  0.3385625889943786
  0.7485156249010945  0.5659759804808899  0.9934265576523730
  0.5923383181297573  0.8104003888596174  0.5436373297020932
  0.9879608532735014  0.6224114306782310  0.3764075245205223
  0.4281304453875631  0.3224263107371115  0.7759270740053369
  0.8791412001094078  0.1746031358457317  0.3037443221573593
  0.5794505189683489  0.2827988973374180  0.9002053531708800
  0.1611488864424587  0.4773144850338922  0.8454873425834937
  0.4563491692744902  0.9410775582101409  0.6158244312593355
  0.3599542081210011  0.2870825153368716  0.3426850891585963
  0.6683848547555759  0.3229364459067752  0.7037134188335689
  0.3072395876670526  0.1412652024112380  0.0025711432082507
  0.4436797754175136  0.4646478774744521  0.5534436954224887
  0.1269013698560710  0.1190891160684342  0.0554728648713222
  0.8559655725317774  0.9336566154617778  0.8338300947175654
  0.5159277713359325  0.5634738152167773  0.4205436323117611
  0.4950391433641634  0.2123430942165730  0.1980865663159664
  0.8458481697879842  0.7500136351232570  0.7810381601245105
  0.0137486433560194  0.1092177787151080  0.2062402706848231
  0.5702796555849402  0.0908174924915649  0.8688371898590538
  0.7796710799772355  0.4553279008054454  0.7856919470100608
  0.8975408261983621  0.8524071223938356  0.4098540158123630
  0.6528135316515397  0.3229094457752014  0.5783551034421458
  0.6120492248955769  0.9071214061565942  0.3948963193187867
  0.6156880843016440  0.7059436856691854  0.7169859787466955
  0.7018056345351600  0.5506288027455610  0.2696307573042377
  0.9404747658901508  0.6262068790539499  0.5587161562127337
  0.2163115851771332  0.4600059501007671  0.5348906792025363
  0.6480673299371672  0.4606764221131551  0.8455873102893008
  0.8539001983735788  0.5204644172914215  0.9363187477048248
  0.8817738918343894  0.4570045061556823  0.5200208248467003
  0.3815717292113088  0.9739501635186907  0.4603281447865473
  0.5468296547130761  0.1226210440997164  0.6003903019667198
  0.6558326403742902  0.3813201322368618  0.0493811304146221
  0.8185696230845222  0.7188371706096081  0.3293508416289119
  0.4681714584436759  0.9882663257745570  0.3118010933230944
  0.5255882175363329  0.3657879039880753  0.4662759771274932
  0.4066308031839141  0.7372859501110189  0.8715328986251347
  0.4967543019389857  0.4841853269028935  0.0684576782806861
  0.2810991980204438  0.0944256094751935  0.3770275347343052
  0.1668813355460589  0.7112825106273362  0.7346627229108486
  0.4191507483829779  0.9581023761948790  0.0317704763356821
  0.2667325517301569  0.7416048896686921  0.9841771043924299
  0.8305256429244454  0.3415549209300083  0.0277764684910656
  0.0259774612522569  0.9051941521485936  0.5298696266670347
  0.1269839053884654  0.3490475553031845  0.4122223967049315
  0.3775546716996949  0.8436820062211734  0.7949218915608527
  0.2319870061531127  0.8671868140925604  0.9683566535444043
  0.7412813687268380  0.0201834254994292  0.7816157266556474
  0.2801323108298645  0.6035110513290916  0.9828486595075701
  0.2143027191814138  0.2023711253509587  0.7043763957160257
  0.7871697201367885  0.2678365654538735  0.6904120848748750
  0.0140344110388713  0.8035931899164409  0.0007254317636006
  0.4706296401957359  0.6077488567201556  0.0328131155285757
  0.7367414643122132  0.8754598793255117  0.2837856767781975
  0.6386661535215216  0.2425394082260068  0.0997356924989887
  0.7255809366880688  0.5836381316110080  0.6539676286180932
  0.1112113178380694  0.0657983785852433  0.4802733394430053
  0.0454846728002035  0.7768353743607271  0.5531257003101365
  0.0797361227493646  0.5376730467350747  0.7437586716723453
  0.7936546421800923  0.2539271288562613  0.3572976895456303
  0.1820482953837314  0.6035369429958102  0.0715910986431642
  0.8253824538826992  0.9305417377946802  0.2182540094348280
  0.4162417135253018  0.7503143853859784  0.3558763477506933
  0.5100356219114311  0.3444646723214174  0.0777996684380814
  0.2089800676563982  0.6184886455126148  0.4190236259646140
  0.1029094371275693  0.1239786427176144  0.8220362977663251
  0.9603729602629413  0.8334215134458409  0.2063459090239295
  0.6447534263353547  0.0664036595113472  0.4999724503246549
  0.2642420345464435  0.5077656791282511  0.7443634762218521
  0.6312702835195787  0.6677388993484467  0.5363904292029763
  0.4567200107348471  0.1698190968816155  0.6782375630373393
  0.1660996887592512  0.2226276087602315  0.3970665392222531
  0.8125593645181848  0.6041750387580570  0.5119158614614168
  0.6052873312899453  0.4798157875073683  0.1421160922773365
  0.3416440930866331  0.4382686552130245  0.0822595207323596
  0.9795485499454508  0.4911934383656639  0.3688777472063215
  0.1636059969419895  0.2891678347701088  0.8807401808111240
  0.8173706286015885  0.1032504522052001  0.9682608415509373
  0.3527240319493612  0.9567996733589427  0.7266806476023522
  0.9569242894419131  0.3534064148415687  0.3298247608979145
  0.7932779164676989  0.3521025754152315  0.2160487091229439
  0.2688793534991189  0.2583358271584331  0.9720288165900994
  0.2441643846441916  0.3947092363988361  0.9076011738154286
  0.2222755660371999  0.0319535551322900  0.7143522739897995
  0.5606927426087401  0.1425978049092186  0.1074460409456780
  0.3910489589053211  0.7594672571562865  0.0070002865435873
  0.7602386216232346  0.0899130027594154  0.6267696822168063
  0.9164696013260885  0.5983620792959740  0.7574931288091749
  0.1949518404032518  0.9007673661805963  0.4356012015838481
  0.6184081370549125  0.0641386239622279  0.9836580649131318
  0.5771477292488778  0.5701439518407636  0.2306250601341116
  0.2339777767087123  0.4216255880531142  0.3368930882795683
  0.6913818684357730  0.1865112057472021  0.8525701802267128
  0.3849816455423253  0.3222466184192970  0.0760928078134176
  0.1671189124661590  0.7331559602782229  0.1131595184160204
  0.0762986913698406  0.9162031697475852  0.8332829429131987
  0.3575178821144226  0.5296951816614288  0.6240485602282843
  0.9475294758792124  0.2044387694777519  0.7940907127769683
  0.3649993108032002  0.6074962576432210  0.8759568152806188
  0.8280068905505322  0.5144142937652234  0.3252347125528498
  0.0841583063701105  0.2359812960296102  0.0753509546072093
  0.1470260659765575  0.3923120315477505  0.0193259462281818
  0.2631794858381365  0.6008235290060994  0.2622401680527830
  0.5307598047951096  0.1940217746292258  0.3149952664702307
  0.3441251379043180  0.7148554906967071  0.5300698428414099
  0.9068008864847770  0.0865463523778290  0.5656617342387854
  0.7459564032179543  0.1985058003920428  0.5713972343895233
  0.6904102162804064  0.4916085914860709  0.4607722412957518
  0.2342264805960100  0.2469161201005594  0.5283892359267578
  0.9876900614259636  0.3730528475396605  0.8943578080809818
  0.5910988034443986  0.6616123442914381  0.8889829691969477
  0.2142807576415152  0.2857567798115919  0.0874311468370966
  0.3048763164262128  0.3931774460108261  0.7024472581862099
  0.6638184736637486  0.0900446967801899  0.7108498507594665
  0.1006325685702774  0.3376638754810531  0.7752700634795436
  0.1744469912945624  0.5521321695553228  0.6636338425311390
  0.9872366768649762  0.6566919541788226  0.1193687090121084
  0.5046816711769754  0.9967600142566621  0.1150801444203511
  0.4316154347552206  0.6429770716842163  0.1553181748789751
  0.7176714986301322  0.8661954201852496  0.5668898737057516
  0.9328170412810148  0.0036681719822348  0.7005352702724714
  0.0983236985274417  0.7679303578740917  0.4290143128798017
  0.9953801245955123  0.8373607934586388  0.3364872440602152
  0.7080747701474343  0.1615770586331781  0.9835444909614162
  0.4875123577519907  0.4047700849619947  0.2985839593348102
  0.8272958300102357  0.8987930810810751  0.9517097646083014
  0.6933657544633727  0.9841274288712591  0.0845659922626464
  0.2740427104450804  0.5740437541924137  0.5244628893477261
  0.0452145203427716  0.3825306116690704  0.0976120074718704
  0.7083205790978524  0.4573897639827179  0.6748463987064761
  0.0694182035942407  0.8492062870214302  0.7171700482981433
  0.4363469420273637  0.1700800399143211  0.0586357833396361
  0.1381561227211054  0.3459708510711565  0.5833333569665538
  0.9045478635573834  0.1621180910774972  0.4653150178991319
 
  0.00000000E+00  0.00000000E+00  0.00000000E+00
  0.00000000E+00  0.00000000E+00  0.00000000E+00
  0.00000000E+00  0.00000000E+00  0.00000000E+00
  0.00000000E+00  0.00000000E+00  0.00000000E+00
  0.00000000E+00  0.00000000E+00  0.00000000E+00
  0.00000000E+00  0.00000000E+00  0.00000000E+00
  0.00000000E+00  0.00000000E+00  0.00000000E+00
  0.00000000E+00  0.00000000E+00  0.00000000E+00
  0.00000000E+00  0.00000000E+00  0.00000000E+00
  0.00000000E+00  0.00000000E+00  0.00000000E+00
  0.00000000E+00  0.00000000E+00  0.00000000E+00
  0.00000000E+00  0.00000000E+00  0.00000000E+00
  0.00000000E+00  0.00000000E+00  0.00000000E+00
  0.00000000E+00  0.00000000E+00  0.00000000E+00
  0.00000000E+00  0.00000000E+00  0.00000000E+00
  0.00000000E+00  0.00000000E+00  0.00000000E+00
  0.00000000E+00  0.00000000E+00  0.00000000E+00
  0.00000000E+00  0.00000000E+00  0.00000000E+00
  0.00000000E+00  0.00000000E+00  0.00000000E+00
  0.00000000E+00  0.00000000E+00  0.00000000E+00
  0.00000000E+00  0.00000000E+00  0.00000000E+00
  0.00000000E+00  0.00000000E+00  0.00000000E+00
  0.00000000E+00  0.00000000E+00  0.00000000E+00
  0.00000000E+00  0.00000000E+00  0.00000000E+00
  0.00000000E+00  0.00000000E+00  0.00000000E+00
  0.00000000E+00  0.00000000E+00  0.00000000E+00
  0.00000000E+00  0.00000000E+00  0.00000000E+00
  0.00000000E+00  0.00000000E+00  0.00000000E+00
  0.00000000E+00  0.00000000E+00  0.00000000E+00
  0.00000000E+00  0.00000000E+00  0.00000000E+00
  0.00000000E+00  0.00000000E+00  0.00000000E+00
  0.00000000E+00  0.00000000E+00  0.00000000E+00
  0.00000000E+00  0.00000000E+00  0.00000000E+00
  0.00000000E+00  0.00000000E+00  0.00000000E+00
  0.00000000E+00  0.00000000E+00  0.00000000E+00
  0.00000000E+00  0.00000000E+00  0.00000000E+00
  0.00000000E+00  0.00000000E+00  0.00000000E+00
  0.00000000E+00  0.00000000E+00  0.00000000E+00
  0.00000000E+00  0.00000000E+00  0.00000000E+00
  0.00000000E+00  0.00000000E+00  0.00000000E+00
  0.00000000E+00  0.00000000E+00  0.00000000E+00
  0.00000000E+00  0.00000000E+00  0.00000000E+00
  0.00000000E+00  0.00000000E+00  0.00000000E+00
  0.00000000E+00  0.00000000E+00  0.00000000E+00
  0.00000000E+00  0.00000000E+00  0.00000000E+00
  0.00000000E+00  0.00000000E+00  0.00000000E+00
  0.00000000E+00  0.00000000E+00  0.00000000E+00
  0.00000000E+00  0.00000000E+00  0.00000000E+00
  0.00000000E+00  0.00000000E+00  0.00000000E+00
  0.00000000E+00  0.00000000E+00  0.00000000E+00
  0.00000000E+00  0.00000000E+00  0.00000000E+00
  0.00000000E+00  0.00000000E+00  0.00000000E+00
  0.00000000E+00  0.00000000E+00  0.00000000E+00
  0.00000000E+00  0.00000000E+00  0.00000000E+00
  0.00000000E+00  0.00000000E+00  0.00000000E+00
  0.00000000E+00  0.00000000E+00  0.00000000E+00
  0.00000000E+00  0.00000000E+00  0.00000000E+00
  0.00000000E+00  0.00000000E+00  0.00000000E+00
  0.00000000E+00  0.00000000E+00  0.00000000E+00
  0.00000000E+00  0.00000000E+00  0.00000000E+00
  0.00000000E+00  0.00000000E+00  0.00000000E+00
  0.00000000E+00  0.00000000E+00  0.00000000E+00
  0.00000000E+00  0.00000000E+00  0.00000000E+00
  0.00000000E+00  0.00000000E+00  0.00000000E+00
  0.00000000E+00  0.00000000E+00  0.00000000E+00
  0.00000000E+00  0.00000000E+00  0.00000000E+00
  0.00000000E+00  0.00000000E+00  0.00000000E+00
  0.00000000E+00  0.00000000E+00  0.00000000E+00
  0.00000000E+00  0.00000000E+00  0.00000000E+00
  0.00000000E+00  0.00000000E+00  0.00000000E+00
  0.00000000E+00  0.00000000E+00  0.00000000E+00
  0.00000000E+00  0.00000000E+00  0.00000000E+00
  0.00000000E+00  0.00000000E+00  0.00000000E+00
  0.00000000E+00  0.00000000E+00  0.00000000E+00
  0.00000000E+00  0.00000000E+00  0.00000000E+00
  0.00000000E+00  0.00000000E+00  0.00000000E+00
  0.00000000E+00  0.00000000E+00  0.00000000E+00
  0.00000000E+00  0.00000000E+00  0.00000000E+00
  0.00000000E+00  0.00000000E+00  0.00000000E+00
  0.00000000E+00  0.00000000E+00  0.00000000E+00
  0.00000000E+00  0.00000000E+00  0.00000000E+00
  0.00000000E+00  0.00000000E+00  0.00000000E+00
  0.00000000E+00  0.00000000E+00  0.00000000E+00
  0.00000000E+00  0.00000000E+00  0.00000000E+00
  0.00000000E+00  0.00000000E+00  0.00000000E+00
  0.00000000E+00  0.00000000E+00  0.00000000E+00
  0.00000000E+00  0.00000000E+00  0.00000000E+00
  0.00000000E+00  0.00000000E+00  0.00000000E+00
  0.00000000E+00  0.00000000E+00  0.00000000E+00
  0.00000000E+00  0.00000000E+00  0.00000000E+00
  0.00000000E+00  0.00000000E+00  0.00000000E+00
  0.00000000E+00  0.00000000E+00  0.00000000E+00
  0.00000000E+00  0.00000000E+00  0.00000000E+00
  0.00000000E+00  0.00000000E+00  0.00000000E+00
  0.00000000E+00  0.00000000E+00  0.00000000E+00
  0.00000000E+00  0.00000000E+00  0.00000000E+00
  0.00000000E+00  0.00000000E+00  0.00000000E+00
  0.00000000E+00  0.00000000E+00  0.00000000E+00
  0.00000000E+00  0.00000000E+00  0.00000000E+00
  0.00000000E+00  0.00000000E+00  0.00000000E+00
  0.00000000E+00  0.00000000E+00  0.00000000E+00
  0.00000000E+00  0.00000000E+00  0.00000000E+00
  0.00000000E+00  0.00000000E+00  0.00000000E+00
  0.00000000E+00  0.00000000E+00  0.00000000E+00
  0.00000000E+00  0.00000000E+00  0.00000000E+00
  0.00000000E+00  0.00000000E+00  0.00000000E+00
  0.00000000E+00  0.00000000E+00  0.00000000E+00
  0.00000000E+00  0.00000000E+00  0.00000000E+00
  0.00000000E+00  0.00000000E+00  0.00000000E+00
  0.00000000E+00  0.00000000E+00  0.00000000E+00
  0.00000000E+00  0.00000000E+00  0.00000000E+00
  0.00000000E+00  0.00000000E+00  0.00000000E+00
  0.00000000E+00  0.00000000E+00  0.00000000E+00
  0.00000000E+00  0.00000000E+00  0.00000000E+00
  0.00000000E+00  0.00000000E+00  0.00000000E+00
  0.00000000E+00  0.00000000E+00  0.00000000E+00
  0.00000000E+00  0.00000000E+00  0.00000000E+00
  0.00000000E+00  0.00000000E+00  0.00000000E+00
  0.00000000E+00  0.00000000E+00  0.00000000E+00
  0.00000000E+00  0.00000000E+00  0.00000000E+00
  0.00000000E+00  0.00000000E+00  0.00000000E+00
  0.00000000E+00  0.00000000E+00  0.00000000E+00
  0.00000000E+00  0.00000000E+00  0.00000000E+00
  0.00000000E+00  0.00000000E+00  0.00000000E+00
  0.00000000E+00  0.00000000E+00  0.00000000E+00
  0.00000000E+00  0.00000000E+00  0.00000000E+00
  0.00000000E+00  0.00000000E+00  0.00000000E+00
  0.00000000E+00  0.00000000E+00  0.00000000E+00
  0.00000000E+00  0.00000000E+00  0.00000000E+00
  0.00000000E+00  0.00000000E+00  0.00000000E+00
  0.00000000E+00  0.00000000E+00  0.00000000E+00
  0.00000000E+00  0.00000000E+00  0.00000000E+00
  0.00000000E+00  0.00000000E+00  0.00000000E+00
  0.00000000E+00  0.00000000E+00  0.00000000E+00
  0.00000000E+00  0.00000000E+00  0.00000000E+00
  0.00000000E+00  0.00000000E+00  0.00000000E+00
  0.00000000E+00  0.00000000E+00  0.00000000E+00
  0.00000000E+00  0.00000000E+00  0.00000000E+00
  0.00000000E+00  0.00000000E+00  0.00000000E+00
  0.00000000E+00  0.00000000E+00  0.00000000E+00
  0.00000000E+00  0.00000000E+00  0.00000000E+00
  0.00000000E+00  0.00000000E+00  0.00000000E+00
  0.00000000E+00  0.00000000E+00  0.00000000E+00
  0.00000000E+00  0.00000000E+00  0.00000000E+00
  0.00000000E+00  0.00000000E+00  0.00000000E+00
  0.00000000E+00  0.00000000E+00  0.00000000E+00
  0.00000000E+00  0.00000000E+00  0.00000000E+00
  0.00000000E+00  0.00000000E+00  0.00000000E+00
  0.00000000E+00  0.00000000E+00  0.00000000E+00
  0.00000000E+00  0.00000000E+00  0.00000000E+00
  0.00000000E+00  0.00000000E+00  0.00000000E+00
  0.00000000E+00  0.00000000E+00  0.00000000E+00
  0.00000000E+00  0.00000000E+00  0.00000000E+00
  0.00000000E+00  0.00000000E+00  0.00000000E+00
  0.00000000E+00  0.00000000E+00  0.00000000E+00
  0.00000000E+00  0.00000000E+00  0.00000000E+00
  0.00000000E+00  0.00000000E+00  0.00000000E+00
  0.00000000E+00  0.00000000E+00  0.00000000E+00
  0.00000000E+00  0.00000000E+00  0.00000000E+00
  0.00000000E+00  0.00000000E+00  0.00000000E+00
  0.00000000E+00  0.00000000E+00  0.00000000E+00
  0.00000000E+00  0.00000000E+00  0.00000000E+00
  0.00000000E+00  0.00000000E+00  0.00000000E+00
  0.00000000E+00  0.00000000E+00  0.00000000E+00
  0.00000000E+00  0.00000000E+00  0.00000000E+00
  0.00000000E+00  0.00000000E+00  0.00000000E+00
  0.00000000E+00  0.00000000E+00  0.00000000E+00
  0.00000000E+00  0.00000000E+00  0.00000000E+00
  0.00000000E+00  0.00000000E+00  0.00000000E+00
  0.00000000E+00  0.00000000E+00  0.00000000E+00
  0.00000000E+00  0.00000000E+00  0.00000000E+00
  0.00000000E+00  0.00000000E+00  0.00000000E+00
  0.00000000E+00  0.00000000E+00  0.00000000E+00
  0.00000000E+00  0.00000000E+00  0.00000000E+00
  0.00000000E+00  0.00000000E+00  0.00000000E+00
  0.00000000E+00  0.00000000E+00  0.00000000E+00
  0.00000000E+00  0.00000000E+00  0.00000000E+00
  0.00000000E+00  0.00000000E+00  0.00000000E+00
  0.00000000E+00  0.00000000E+00  0.00000000E+00
  0.00000000E+00  0.00000000E+00  0.00000000E+00
  0.00000000E+00  0.00000000E+00  0.00000000E+00
  0.00000000E+00  0.00000000E+00  0.00000000E+00
  0.00000000E+00  0.00000000E+00  0.00000000E+00
  0.00000000E+00  0.00000000E+00  0.00000000E+00
  0.00000000E+00  0.00000000E+00  0.00000000E+00
  0.00000000E+00  0.00000000E+00  0.00000000E+00
  0.00000000E+00  0.00000000E+00  0.00000000E+00
  0.00000000E+00  0.00000000E+00  0.00000000E+00
  0.00000000E+00  0.00000000E+00  0.00000000E+00
  0.00000000E+00  0.00000000E+00  0.00000000E+00
  0.00000000E+00  0.00000000E+00  0.00000000E+00
  0.00000000E+00  0.00000000E+00  0.00000000E+00
  0.00000000E+00  0.00000000E+00  0.00000000E+00
  0.00000000E+00  0.00000000E+00  0.00000000E+00
  0.00000000E+00  0.00000000E+00  0.00000000E+00
  0.00000000E+00  0.00000000E+00  0.00000000E+00
  0.00000000E+00  0.00000000E+00  0.00000000E+00
  0.00000000E+00  0.00000000E+00  0.00000000E+00
  0.00000000E+00  0.00000000E+00  0.00000000E+00
  0.00000000E+00  0.00000000E+00  0.00000000E+00
  0.00000000E+00  0.00000000E+00  0.00000000E+00
  0.00000000E+00  0.00000000E+00  0.00000000E+00
  0.00000000E+00  0.00000000E+00  0.00000000E+00
  0.00000000E+00  0.00000000E+00  0.00000000E+00
  0.00000000E+00  0.00000000E+00  0.00000000E+00
  0.00000000E+00  0.00000000E+00  0.00000000E+00
  0.00000000E+00  0.00000000E+00  0.00000000E+00
  0.00000000E+00  0.00000000E+00  0.00000000E+00
  0.00000000E+00  0.00000000E+00  0.00000000E+00
  0.00000000E+00  0.00000000E+00  0.00000000E+00
  0.00000000E+00  0.00000000E+00  0.00000000E+00
  0.00000000E+00  0.00000000E+00  0.00000000E+00
  0.00000000E+00  0.00000000E+00  0.00000000E+00
  0.00000000E+00  0.00000000E+00  0.00000000E+00
  0.00000000E+00  0.00000000E+00  0.00000000E+00
  0.00000000E+00  0.00000000E+00  0.00000000E+00
  0.00000000E+00  0.00000000E+00  0.00000000E+00
  0.00000000E+00  0.00000000E+00  0.00000000E+00
  0.00000000E+00  0.00000000E+00  0.00000000E+00
  0.00000000E+00  0.00000000E+00  0.00000000E+00
  0.00000000E+00  0.00000000E+00  0.00000000E+00
  0.00000000E+00  0.00000000E+00  0.00000000E+00
  0.00000000E+00  0.00000000E+00  0.00000000E+00
  0.00000000E+00  0.00000000E+00  0.00000000E+00
  0.00000000E+00  0.00000000E+00  0.00000000E+00
  0.00000000E+00  0.00000000E+00  0.00000000E+00
  0.00000000E+00  0.00000000E+00  0.00000000E+00
  0.00000000E+00  0.00000000E+00  0.00000000E+00
  0.00000000E+00  0.00000000E+00  0.00000000E+00
  0.00000000E+00  0.00000000E+00  0.00000000E+00
  0.00000000E+00  0.00000000E+00  0.00000000E+00
  0.00000000E+00  0.00000000E+00  0.00000000E+00