Te1 Pb2 S1
1.0
   7.3723640000000001   -2.2219760000000002    0.0000000000000000
   7.3723640000000001    2.2219760000000002    0.0000000000000000
   6.7026769999999996    0.0000000000000000    3.7898619999999998
Te Pb S
1 2 1
direct
   0.5000000000000000    0.5000000000000000    0.5000000000000000 Te
   0.2582879999999990    0.2582879999999990    0.2582879999999990 Pb
   0.7417119999999990    0.7417119999999990    0.7417119999999990 Pb
   0.0000000000000000    0.0000000000000000    0.0000000000000000 S
