Sb                                      
   1.00000000000000     
    17.9173007964999975    0.0000000000000000    0.0000000000000000
     0.0000000000000000   17.9173007964999975    0.0000000000000000
     0.0000000000000000    0.0000000000000000   17.9173007964999975
   As   Se
    80   120
Direct
  0.6249970019409193  0.0995317330710356  0.3452651120265743
  0.7309132731978226  0.1812620970173191  0.7363919431261523
  0.3321538470579463  0.3256505715797579  0.5201658259351175
  0.0636089979496492  0.2945551879745700  0.9498633411550634
  0.2766748072361644  0.5355713167392578  0.5505362542651967
  0.3477187948692562  0.9926342696696362  0.6482534944423421
  0.6535729407949052  0.2351772518957207  0.3355964398638782
  0.7642594641210866  0.6153512751073897  0.9142361065834522
  0.1982593318476996  0.2265247028354204  0.6414623585663780
  0.0706654714198604  0.4682309260610168  0.2769748486579226
  0.6450734337000107  0.0127432349593651  0.6912615382278704
  0.9527701327952314  0.4360064731899607  0.0674731302028709
  0.2103582600348449  0.0064738161429156  0.9056186564792724
  0.7664436684320043  0.3806149847928628  0.2088690370763737
  0.4945721861694998  0.1135254378747407  0.2923033978057222
  0.2591022269473240  0.0102506054052105  0.4869317425102175
  0.0863522436451969  0.9363079290263873  0.5824007025445013
  0.2277494454776507  0.7554266771270722  0.5395269454144259
  0.3776371910055451  0.0152439068030467  0.7838847730034174
  0.4167415532545357  0.2082742380481029  0.8390013907878165
  0.7750306570480628  0.4072988180698331  0.9141216975905850
  0.1816718548340201  0.9041644952503560  0.2573917367170636
  0.0629527722136490  0.6518218396456231  0.9803148219257425
  0.4267563870927918  0.9690328452244370  0.4243470119301447
  0.4326994332208040  0.9259308150351619  0.2871204583749545
  0.4666652501364965  0.7615333179647384  0.4038359395694616
  0.0767086565693169  0.1674832527751196  0.3860404150558192
  0.4973904816271256  0.0109723448074793  0.1966869228261494
  0.3023604286444824  0.8544865304247941  0.1855003050691789
  0.4768077701025589  0.3852168021448338  0.3627720452872058
  0.8159487738408847  0.8071037167598816  0.0487789614696276
  0.6488106268813831  0.7417003499267506  0.1793766673082816
  0.4273523123731743  0.3943303810150456  0.7949548623804378
  0.9563253143028621  0.9252341912088066  0.7144885317712359
  0.0615139800677063  0.8281863088691621  0.8972221434063665
  0.5413217038018222  0.8461380288957588  0.3213368848707081
  0.7602156291823285  0.3135036504807202  0.4914354444034516
  0.0354979499062721  0.0478054199142470  0.1919385700593853
  0.5596309772531576  0.9234405587696344  0.4377279809470073
  0.4080751554077818  0.4146282964619402  0.2086497093993247
  0.7693400850533978  0.3978968582887092  0.6912639699884113
  0.2403287303499227  0.3529888965155438  0.9475503188233924
  0.8671048255538912  0.5942631678509795  0.4512567300202770
  0.7975445454315265  0.0185820970517701  0.8414602937084245
  0.9444552267761891  0.4242430993446325  0.4824251352907634
  0.8914606333599860  0.5174261239945120  0.3382756377582595
  0.9287462285933581  0.2819839115784010  0.9954662717426362
  0.0205138964088014  0.3161332339736172  0.7343455327970669
  0.7156705865779338  0.7225873495488524 -0.0086852160723379
  0.8961154162432386  0.6401027111196645  0.8744044247990974
  0.4782508359200698  0.6397874645562281  0.0112361122696944
  0.1719779131472320  0.2337165404406110  0.3072584346058493
  0.6885794787029469  0.7170637545935993  0.4413899870983403
  0.7193179646747362  0.0586959173577218  0.2473897144548171
  0.2145831295046618  0.5789871621603400  0.4268924037958515
  0.3880769152001476  0.6895733363033790  0.8319758908650197
  0.0613752096213926  0.6486390946531575  0.1212610462779857
  0.7476956364555816  0.5284260785340638  0.4926098413399764
  0.2300302886133015  0.2303997190802481  0.5032465985061187
  0.0416022943813929  0.0806597720816681  0.9489472515685544
  0.0551161769983399  0.3406660346160666  0.4536472426041155
  0.6393626969902487  0.4382549027261969  0.0521030958910369
  0.7560100261794696  0.1662755389068107  0.0754874762315745
  0.3557848134606695  0.8492495394302731  0.4232143717879193
  0.0265122941014526  0.4868744290001411  0.8156886558165706
  0.3776353469666398  0.4870579437371510  0.0143011867804697
  0.4986104241596296  0.7143676294029212  0.7495274807587770
  0.4559081879738462  0.0479873552292966  0.9588885197946182
  0.4887533539551578  0.5453882142833105  0.6332410304922876
  0.0115609909951092  0.2613531664501550  0.1774624835439554
  0.8238834833727028  0.7154083374093865  0.4034089338185127
  0.2188525696390561  0.4071031750192033  0.5404519446587924
  0.3779185083105594  0.2909459636817108  0.3893508333070548
  0.0456496475170889  0.7490488807809207  0.4474185396468009
  0.3300783620825429  0.1326513360320432  0.5042113323578534
  0.6040062960960635  0.2659188376773202  0.1654731201796759
  0.0233326179065771  0.6682115865022004  0.6368846375204910
  0.8296028831005390  0.5724749357347623  0.2250529231310651
  0.8483653781940287  0.9028346801921368  0.5259348200183147
  0.6727368102112793  0.1919370867713780  0.6100480391733978
  0.5631057106675652  0.8859386461658921  0.9500159029534636
  0.9609580383395678  0.7586011154049016  0.5519194282111789
  0.5030050861030341  0.6153797417930601  0.2472728691076466
  0.0927281486889457  0.8040949722846362  0.2276046839906513
  0.9319344712697771  0.0092584500502436  0.4947602024359658
  0.1738991913246251  0.9031406220116887  0.6814247367592369
  0.8570295096775843  0.7209475948786241  0.7750580717560045
  0.9939421614141740  0.2737380131837583  0.3512195056493421
  0.5251510976444068  0.4344668007909247  0.4792471326532302
  0.7518768657593462  0.4208143198276640  0.4076425499491231
  0.4624408936977787  0.2046446061091257  0.4564977925515969
  0.1705358785208082  0.7710630658374733  0.6666740679179268
  0.4709291665596569  0.5338357663071330  0.9222290558987165
  0.7166497778759815  0.8505475386075377  0.1308646012556921
  0.6501974336528284  0.5905956732338157  0.4229288781268545
  0.6140002472998173  0.3160865236957300  0.6141468357872035
  0.6425754972845844  0.3733859886861254  0.7310262042180632
  0.3392454798440477  0.8310017891574408  0.5577513507000939
  0.4607590992518574  0.2796874972469194  0.7305920928645171
  0.9847292776657897  0.7433205447770317  0.7460158406417580
  0.4478650974469073  0.7261833687311900  0.2015963547435954
  0.6929235841132658  0.6440809279625944  0.7497343620129655
  0.0639303431842660  0.2537217301187787  0.6225058904647387
  0.4662182662407885  0.9498029235497498  0.6103755101197437
  0.8098350554123522  0.6992294592895816  0.2683205414693153
  0.8930559083815951  0.7363862988702241  0.1281247021601020
  0.3727097586953087  0.4697957484842694  0.3269667938572228
  0.7276206825291205  0.9616294054172831  0.4969367634225451
  0.1814122012993485  0.5920795438322951  0.6333707480178660
  0.4482859121305885  0.5419252291200324  0.5020172016390738
  0.1186167203099478  0.5905497339260343  0.8195879745998310
  0.4384693793975031  0.6697424459483682  0.6335533378249869
  0.8993924746112040  0.4024462313712150  0.1970749650451733
  0.6795290981567100  0.7491601100062670  0.6730860735757813
  0.0092133815531821  0.4665179166126883  0.5968400242418308
  0.3121985285167063  0.3214809648410712  0.8328446425303057
  0.5676371818258839  0.1037487453639319  0.6260990728572722
  0.3333712479152447  0.9444124812447017  0.0805656284750738
  0.0062624868663199  0.5843506496120503  0.3063847997434531
  0.6597306754946152  0.9127154320069331  0.5993965167264200
  0.3844089780786704  0.4666964236529335  0.6861132903509344
  0.2484400214870431  0.3521287499380192  0.6634102620986403
  0.4514628683666161  0.7502916552449955  0.9348878607301949
  0.8232941484857461  0.9103875729389095  0.3442163453682927
  0.7882927339389274  0.1703275961280442  0.2081933849836960
  0.7382611739935988  0.3461993742223973  0.0765842880784867
  0.7508984387258499  0.7148179562406597  0.5624906807648693
  0.7482090679394171  0.9785696650616121  0.9643246589411584
  0.8142813723316682  0.4696224199325205  0.7978158070274614
  0.6207114701659580  0.1503091548687227  0.0944513586278625
  0.9509996774977618  0.5784698527726739  0.0783082085690084
  0.7100296404216504  0.5023886369611564  0.2320097072687808
  0.2274405821995196  0.5515559904406176  0.7560683301587916
  0.8972794315269044  0.1085288827716815  0.8638868850307957
  0.9619122774851113  0.9288783132553696  0.1862618591282793
  0.2832540054474052  0.1553974592112816  0.3222928504383454
  0.4318133551640017  0.1718157213130056  0.0167061802306015
  0.0856052563505776  0.8845910634750540  0.0170912846284038
  0.8061622634265445  0.0426210100916063  0.3520554894696778
  0.2406536095624651  0.0315499098901571  0.3519123710619330
  0.0239245121387201  0.0582430288096472  0.3289928616844745
  0.0872229573095273 -0.0004227738658401  0.8460681147705765
  0.5681915403286885  0.0009774850120747  0.0178735391493050
  0.8090017301802779  0.0386851650959847  0.0642827564563944
  0.5351777734702063  0.7836090747938642  0.1142562453726467
  0.1388018256559328  0.4263025997003152  0.3893884462918099
  0.3179795624982796  0.7994375926724510  0.7872210132829297
  0.5658312818965919  0.6040632706198340  0.7872609971241004
  0.3015888739489327  0.6743977639180828  0.4069975684143529
  0.1838417938345500  0.5353422243999295  0.2394493935876227
  0.6404050811270787  0.1189131573783797  0.8907732548447251
  0.0667112701655087  0.3701724240846203  0.1141689452729225
  0.4915072420453954  0.2613569584763179  0.9368384530215179
  0.3580086499769111  0.1307050812800880  0.6366903744291252
  0.8044326429107908  0.5131344000573574 -0.0024102339041975
  0.2390192732592498  0.7527991522680830  0.1198115462855223
  0.6424135195742445  0.8902671575443984  0.8452543003469193
  0.5523239124153959  0.9245794901616241  0.7361346845316025
  0.3507417661665259  0.6133514203714255  0.0534469128628351
  0.9499034107647353  0.8868752511977440  0.3119759083548820
  0.0967748143087858  0.6317968466894691  0.4931888683887682
  0.6921856572732151  0.6428690099632225  0.0959615928450016
  0.1666731372150364  0.7389056189706821  0.3156908056994654
  0.1325749905149540  0.1969984859170215  0.1818343688637774
  0.2604873757935929  0.4857696313875666  0.9458492665681615
  0.3765791611967558  0.0517718820857908  0.1439106919993499
  0.8331180101207192  0.9182353104059612  0.6620891408147112
  0.3084367394217939  0.3110327462976911  0.0609896167118778
  0.9573002503694165  0.7380446132339215  0.9596810782179088
  0.8489119122221368  0.2296994447563994  0.9015247216386789
  0.2748075351068598  0.7009724413483223  0.2377291341277694
 -0.0103390876469301  0.9750983949913504  0.0267789405023279
  0.3716761550792458  0.9012783875836622  0.8574428539364490
  0.5349102717668860  0.3531943149498872  0.0825371537632505
  0.9341138441804046  0.5626103225442436  0.6498084310726380
  0.5398587047935890  0.8099088891453615  0.5079662603917078
  0.1607156882370295  0.9988034183752627  0.1638520895272911
  0.8245141436525409  0.2731740314196449  0.7099403645083771
  0.1576176260725933  0.5517583948506183  0.1100596538364874
  0.9118080757412931  0.0935684568907892  0.5927663594708793
  0.5000885863345884  0.5116240491646055  0.1641040315733397
  0.4842729176161779  0.2307556654272167  0.2232623968489312
  0.6399245096480548  0.4270484074924448  0.9142769584430469
  0.7817572087529261  0.2318813878876434  0.3833384907623671
  0.8869624564456398  0.3179070042605494  0.5425353478417562
  0.5831427907050236  0.2765185964620819  0.4484029319496629
  0.2817539994927594  0.4094689163735586  0.1487771285066795
  0.1694946475009302  0.1033002212465249  0.9925597672246891
  0.1601262448470007  0.7443394742742360  0.9338004128500201
  0.9060611976227719  0.9342131431062169  0.8416055297844066
  0.1155427261421937  0.4142771557744442  0.7458154132842212
  0.5161319362327980  0.0874834660811655  0.8403297693614150
  0.9675250839867796  0.1774191952942646  0.0730345794723330
 -0.0001146979995504  0.0551835520060101  0.6842236234073718
  0.1457151188884811  0.8509922923009543  0.4772485213934345
  0.2610135705792953  0.0832207537717319  0.8055918259815512
  0.0740029067710700  0.2334125762824359  0.8288741359512016
  0.6500258429773742  0.2373432959659344  0.8295311104568422
  0.0614493063440218  0.4333269540959571  0.9405421654967349
  0.1425502243395428  0.0542654582914933  0.5443665371122202
 
  0.00000000E+00  0.00000000E+00  0.00000000E+00
  0.00000000E+00  0.00000000E+00  0.00000000E+00
  0.00000000E+00  0.00000000E+00  0.00000000E+00
  0.00000000E+00  0.00000000E+00  0.00000000E+00
  0.00000000E+00  0.00000000E+00  0.00000000E+00
  0.00000000E+00  0.00000000E+00  0.00000000E+00
  0.00000000E+00  0.00000000E+00  0.00000000E+00
  0.00000000E+00  0.00000000E+00  0.00000000E+00
  0.00000000E+00  0.00000000E+00  0.00000000E+00
  0.00000000E+00  0.00000000E+00  0.00000000E+00
  0.00000000E+00  0.00000000E+00  0.00000000E+00
  0.00000000E+00  0.00000000E+00  0.00000000E+00
  0.00000000E+00  0.00000000E+00  0.00000000E+00
  0.00000000E+00  0.00000000E+00  0.00000000E+00
  0.00000000E+00  0.00000000E+00  0.00000000E+00
  0.00000000E+00  0.00000000E+00  0.00000000E+00
  0.00000000E+00  0.00000000E+00  0.00000000E+00
  0.00000000E+00  0.00000000E+00  0.00000000E+00
  0.00000000E+00  0.00000000E+00  0.00000000E+00
  0.00000000E+00  0.00000000E+00  0.00000000E+00
  0.00000000E+00  0.00000000E+00  0.00000000E+00
  0.00000000E+00  0.00000000E+00  0.00000000E+00
  0.00000000E+00  0.00000000E+00  0.00000000E+00
  0.00000000E+00  0.00000000E+00  0.00000000E+00
  0.00000000E+00  0.00000000E+00  0.00000000E+00
  0.00000000E+00  0.00000000E+00  0.00000000E+00
  0.00000000E+00  0.00000000E+00  0.00000000E+00
  0.00000000E+00  0.00000000E+00  0.00000000E+00
  0.00000000E+00  0.00000000E+00  0.00000000E+00
  0.00000000E+00  0.00000000E+00  0.00000000E+00
  0.00000000E+00  0.00000000E+00  0.00000000E+00
  0.00000000E+00  0.00000000E+00  0.00000000E+00
  0.00000000E+00  0.00000000E+00  0.00000000E+00
  0.00000000E+00  0.00000000E+00  0.00000000E+00
  0.00000000E+00  0.00000000E+00  0.00000000E+00
  0.00000000E+00  0.00000000E+00  0.00000000E+00
  0.00000000E+00  0.00000000E+00  0.00000000E+00
  0.00000000E+00  0.00000000E+00  0.00000000E+00
  0.00000000E+00  0.00000000E+00  0.00000000E+00
  0.00000000E+00  0.00000000E+00  0.00000000E+00
  0.00000000E+00  0.00000000E+00  0.00000000E+00
  0.00000000E+00  0.00000000E+00  0.00000000E+00
  0.00000000E+00  0.00000000E+00  0.00000000E+00
  0.00000000E+00  0.00000000E+00  0.00000000E+00
  0.00000000E+00  0.00000000E+00  0.00000000E+00
  0.00000000E+00  0.00000000E+00  0.00000000E+00
  0.00000000E+00  0.00000000E+00  0.00000000E+00
  0.00000000E+00  0.00000000E+00  0.00000000E+00
  0.00000000E+00  0.00000000E+00  0.00000000E+00
  0.00000000E+00  0.00000000E+00  0.00000000E+00
  0.00000000E+00  0.00000000E+00  0.00000000E+00
  0.00000000E+00  0.00000000E+00  0.00000000E+00
  0.00000000E+00  0.00000000E+00  0.00000000E+00
  0.00000000E+00  0.00000000E+00  0.00000000E+00
  0.00000000E+00  0.00000000E+00  0.00000000E+00
  0.00000000E+00  0.00000000E+00  0.00000000E+00
  0.00000000E+00  0.00000000E+00  0.00000000E+00
  0.00000000E+00  0.00000000E+00  0.00000000E+00
  0.00000000E+00  0.00000000E+00  0.00000000E+00
  0.00000000E+00  0.00000000E+00  0.00000000E+00
  0.00000000E+00  0.00000000E+00  0.00000000E+00
  0.00000000E+00  0.00000000E+00  0.00000000E+00
  0.00000000E+00  0.00000000E+00  0.00000000E+00
  0.00000000E+00  0.00000000E+00  0.00000000E+00
  0.00000000E+00  0.00000000E+00  0.00000000E+00
  0.00000000E+00  0.00000000E+00  0.00000000E+00
  0.00000000E+00  0.00000000E+00  0.00000000E+00
  0.00000000E+00  0.00000000E+00  0.00000000E+00
  0.00000000E+00  0.00000000E+00  0.00000000E+00
  0.00000000E+00  0.00000000E+00  0.00000000E+00
  0.00000000E+00  0.00000000E+00  0.00000000E+00
  0.00000000E+00  0.00000000E+00  0.00000000E+00
  0.00000000E+00  0.00000000E+00  0.00000000E+00
  0.00000000E+00  0.00000000E+00  0.00000000E+00
  0.00000000E+00  0.00000000E+00  0.00000000E+00
  0.00000000E+00  0.00000000E+00  0.00000000E+00
  0.00000000E+00  0.00000000E+00  0.00000000E+00
  0.00000000E+00  0.00000000E+00  0.00000000E+00
  0.00000000E+00  0.00000000E+00  0.00000000E+00
  0.00000000E+00  0.00000000E+00  0.00000000E+00
  0.00000000E+00  0.00000000E+00  0.00000000E+00
  0.00000000E+00  0.00000000E+00  0.00000000E+00
  0.00000000E+00  0.00000000E+00  0.00000000E+00
  0.00000000E+00  0.00000000E+00  0.00000000E+00
  0.00000000E+00  0.00000000E+00  0.00000000E+00
  0.00000000E+00  0.00000000E+00  0.00000000E+00
  0.00000000E+00  0.00000000E+00  0.00000000E+00
  0.00000000E+00  0.00000000E+00  0.00000000E+00
  0.00000000E+00  0.00000000E+00  0.00000000E+00
  0.00000000E+00  0.00000000E+00  0.00000000E+00
  0.00000000E+00  0.00000000E+00  0.00000000E+00
  0.00000000E+00  0.00000000E+00  0.00000000E+00
  0.00000000E+00  0.00000000E+00  0.00000000E+00
  0.00000000E+00  0.00000000E+00  0.00000000E+00
  0.00000000E+00  0.00000000E+00  0.00000000E+00
  0.00000000E+00  0.00000000E+00  0.00000000E+00
  0.00000000E+00  0.00000000E+00  0.00000000E+00
  0.00000000E+00  0.00000000E+00  0.00000000E+00
  0.00000000E+00  0.00000000E+00  0.00000000E+00
  0.00000000E+00  0.00000000E+00  0.00000000E+00
  0.00000000E+00  0.00000000E+00  0.00000000E+00
  0.00000000E+00  0.00000000E+00  0.00000000E+00
  0.00000000E+00  0.00000000E+00  0.00000000E+00
  0.00000000E+00  0.00000000E+00  0.00000000E+00
  0.00000000E+00  0.00000000E+00  0.00000000E+00
  0.00000000E+00  0.00000000E+00  0.00000000E+00
  0.00000000E+00  0.00000000E+00  0.00000000E+00
  0.00000000E+00  0.00000000E+00  0.00000000E+00
  0.00000000E+00  0.00000000E+00  0.00000000E+00
  0.00000000E+00  0.00000000E+00  0.00000000E+00
  0.00000000E+00  0.00000000E+00  0.00000000E+00
  0.00000000E+00  0.00000000E+00  0.00000000E+00
  0.00000000E+00  0.00000000E+00  0.00000000E+00
  0.00000000E+00  0.00000000E+00  0.00000000E+00
  0.00000000E+00  0.00000000E+00  0.00000000E+00
  0.00000000E+00  0.00000000E+00  0.00000000E+00
  0.00000000E+00  0.00000000E+00  0.00000000E+00
  0.00000000E+00  0.00000000E+00  0.00000000E+00
  0.00000000E+00  0.00000000E+00  0.00000000E+00
  0.00000000E+00  0.00000000E+00  0.00000000E+00
  0.00000000E+00  0.00000000E+00  0.00000000E+00
  0.00000000E+00  0.00000000E+00  0.00000000E+00
  0.00000000E+00  0.00000000E+00  0.00000000E+00
  0.00000000E+00  0.00000000E+00  0.00000000E+00
  0.00000000E+00  0.00000000E+00  0.00000000E+00
  0.00000000E+00  0.00000000E+00  0.00000000E+00
  0.00000000E+00  0.00000000E+00  0.00000000E+00
  0.00000000E+00  0.00000000E+00  0.00000000E+00
  0.00000000E+00  0.00000000E+00  0.00000000E+00
  0.00000000E+00  0.00000000E+00  0.00000000E+00
  0.00000000E+00  0.00000000E+00  0.00000000E+00
  0.00000000E+00  0.00000000E+00  0.00000000E+00
  0.00000000E+00  0.00000000E+00  0.00000000E+00
  0.00000000E+00  0.00000000E+00  0.00000000E+00
  0.00000000E+00  0.00000000E+00  0.00000000E+00
  0.00000000E+00  0.00000000E+00  0.00000000E+00
  0.00000000E+00  0.00000000E+00  0.00000000E+00
  0.00000000E+00  0.00000000E+00  0.00000000E+00
  0.00000000E+00  0.00000000E+00  0.00000000E+00
  0.00000000E+00  0.00000000E+00  0.00000000E+00
  0.00000000E+00  0.00000000E+00  0.00000000E+00
  0.00000000E+00  0.00000000E+00  0.00000000E+00
  0.00000000E+00  0.00000000E+00  0.00000000E+00
  0.00000000E+00  0.00000000E+00  0.00000000E+00
  0.00000000E+00  0.00000000E+00  0.00000000E+00
  0.00000000E+00  0.00000000E+00  0.00000000E+00
  0.00000000E+00  0.00000000E+00  0.00000000E+00
  0.00000000E+00  0.00000000E+00  0.00000000E+00
  0.00000000E+00  0.00000000E+00  0.00000000E+00
  0.00000000E+00  0.00000000E+00  0.00000000E+00
  0.00000000E+00  0.00000000E+00  0.00000000E+00
  0.00000000E+00  0.00000000E+00  0.00000000E+00
  0.00000000E+00  0.00000000E+00  0.00000000E+00
  0.00000000E+00  0.00000000E+00  0.00000000E+00
  0.00000000E+00  0.00000000E+00  0.00000000E+00
  0.00000000E+00  0.00000000E+00  0.00000000E+00
  0.00000000E+00  0.00000000E+00  0.00000000E+00
  0.00000000E+00  0.00000000E+00  0.00000000E+00
  0.00000000E+00  0.00000000E+00  0.00000000E+00
  0.00000000E+00  0.00000000E+00  0.00000000E+00
  0.00000000E+00  0.00000000E+00  0.00000000E+00
  0.00000000E+00  0.00000000E+00  0.00000000E+00
  0.00000000E+00  0.00000000E+00  0.00000000E+00
  0.00000000E+00  0.00000000E+00  0.00000000E+00
  0.00000000E+00  0.00000000E+00  0.00000000E+00
  0.00000000E+00  0.00000000E+00  0.00000000E+00
  0.00000000E+00  0.00000000E+00  0.00000000E+00
  0.00000000E+00  0.00000000E+00  0.00000000E+00
  0.00000000E+00  0.00000000E+00  0.00000000E+00
  0.00000000E+00  0.00000000E+00  0.00000000E+00
  0.00000000E+00  0.00000000E+00  0.00000000E+00
  0.00000000E+00  0.00000000E+00  0.00000000E+00
  0.00000000E+00  0.00000000E+00  0.00000000E+00
  0.00000000E+00  0.00000000E+00  0.00000000E+00
  0.00000000E+00  0.00000000E+00  0.00000000E+00
  0.00000000E+00  0.00000000E+00  0.00000000E+00
  0.00000000E+00  0.00000000E+00  0.00000000E+00
  0.00000000E+00  0.00000000E+00  0.00000000E+00
  0.00000000E+00  0.00000000E+00  0.00000000E+00
  0.00000000E+00  0.00000000E+00  0.00000000E+00
  0.00000000E+00  0.00000000E+00  0.00000000E+00
  0.00000000E+00  0.00000000E+00  0.00000000E+00
  0.00000000E+00  0.00000000E+00  0.00000000E+00
  0.00000000E+00  0.00000000E+00  0.00000000E+00
  0.00000000E+00  0.00000000E+00  0.00000000E+00
  0.00000000E+00  0.00000000E+00  0.00000000E+00
  0.00000000E+00  0.00000000E+00  0.00000000E+00
  0.00000000E+00  0.00000000E+00  0.00000000E+00
  0.00000000E+00  0.00000000E+00  0.00000000E+00
  0.00000000E+00  0.00000000E+00  0.00000000E+00
  0.00000000E+00  0.00000000E+00  0.00000000E+00
  0.00000000E+00  0.00000000E+00  0.00000000E+00
  0.00000000E+00  0.00000000E+00  0.00000000E+00
  0.00000000E+00  0.00000000E+00  0.00000000E+00
  0.00000000E+00  0.00000000E+00  0.00000000E+00
  0.00000000E+00  0.00000000E+00  0.00000000E+00
  0.00000000E+00  0.00000000E+00  0.00000000E+00
  0.00000000E+00  0.00000000E+00  0.00000000E+00
  0.00000000E+00  0.00000000E+00  0.00000000E+00
  0.00000000E+00  0.00000000E+00  0.00000000E+00
