Sb6                                     
   1.00000000000000     
     2.7609542032492302   -4.7821119355407484    0.0000000000000000
     2.7609542032492302    4.7821119355407484   -0.0000000000000001
     0.0000000000000000    0.0000000000000001    5.9969445568842250
   Sb
     6
Direct
  0.6666669999999968  0.3333330000000032  0.0833058154451202
  0.0000000000000000  0.0000000000000000  0.2500271845548758
  0.3333330000000032  0.6666669999999968  0.4166398154451210
  0.6666669999999968  0.3333330000000032  0.5833601845548787
  0.0000000000000000  0.0000000000000000  0.7499728154451245
  0.3333330000000032  0.6666669999999968  0.9166941845548794
 
  0.00000000E+00  0.00000000E+00  0.00000000E+00
  0.00000000E+00  0.00000000E+00  0.00000000E+00
  0.00000000E+00  0.00000000E+00  0.00000000E+00
  0.00000000E+00  0.00000000E+00  0.00000000E+00
  0.00000000E+00  0.00000000E+00  0.00000000E+00
  0.00000000E+00  0.00000000E+00  0.00000000E+00
