Amorphous GeAsSeSi                      
   1.00000000000000     
    20.8723529614235694    0.0000000000000000    0.0000000000000000
     0.0000000000000000   20.8723529614235694    0.0000000000000000
     0.0000000000000000    0.0000000000000000   20.8723529614235694
   Ge   As   Te   Si   N 
    28    86   156    15    15
Direct
  0.1659447560941132  0.5940394480296760  0.7188482663385827
  0.6747968367654238  0.1478677810200750  0.6453293234891930
  0.8262657818241905  0.3859734938109440  0.4519264280752537
  0.9893767107920013  0.8856372241648529  0.6468312131793752
  0.3644116897645304  0.9962497496979168  0.6693340504967082
  0.0958993194566204  0.2777931993496381  0.0201527010231786
  0.2448211860785676  0.7207609451009347  0.5965181541675122
  0.9640263637224535  0.7819351338326186  0.9562820772187024
  0.5571778474364066  0.0593635678024427  0.1633236144252947
  0.5755186429910779  0.5769783749396211  0.1093170469027882
  0.8665943511184366  0.9097827348479939  0.3423596887287630
  0.2406731322116968  0.6150302205694302  0.9847791680570168
  0.0433399294031815  0.9784301837365135  0.8147952826276850
  0.0732715622801976  0.2076500858317019  0.6774280499851812
  0.4109161857242967  0.3247674315841067  0.0952949850206082
  0.0045694857691672  0.5833512897484852  0.2219957215129398
  0.4709304698933821  0.0843276402588700  0.9911575418576390
  0.7436827280462595  0.5893878816230256  0.6391045464026845
  0.8108026684761072  0.9595639328358772  0.1290833257926209
  0.5005978440329244  0.1180330135344505  0.5493922935853632
  0.7918205945974393  0.0795871981428675  0.3918678930087367
  0.5866032073634742  0.9914055645237383  0.9402383563749126
  0.8299986180320573  0.7301909896676904  0.3227130108480054
  0.4329416297267983  0.9959338228198007  0.8361852145873101
  0.4567482964928331  0.8558511175355008  0.9383909314515506
  0.1128434344570479  0.0875191487145841  0.3007498492624237
  0.9429356029821463  0.2402274657578332  0.1234439405355729
  0.9673474004475011  0.6448884160742097  0.0373101331453753
  0.8810375556182564  0.7716900221133400  0.5498162355572944
  0.6792472591700971  0.1892243070652952  0.3570106716414330
  0.5743101827112014  0.6854512784637876  0.3561476453880346
  0.4693351155111287  0.2403482999324424  0.8846508400556559
  0.2353131848492964  0.7246093129948576  0.4717274078366458
  0.7258145222719889  0.0714314402057497  0.0751468918463658
  0.7400812067234241  0.6295513375908612  0.8657616653596634
  0.1992592419730883  0.5838722517832977  0.2304108516541845
  0.3861337559380047  0.4991295600157883  0.6473296544654517
  0.5154171100936793  0.5154456126671505  0.9710159787319341
  0.8459567151837319  0.4894326906760753  0.0381575830211034
  0.2449644253829177  0.1906077595805939  0.7683633597208654
  0.5910285783772693  0.7574102006451611  0.4658681474189947
  0.7677885578743471  0.3164366350403895  0.6103708156157239
  0.4625043440190595  0.3358257722668370  0.2737412207565626
  0.5629924387826932  0.8807896332611591  0.8465443591519630
  0.4191126453276084  0.3920950321026382  0.9515414903760941
  0.6641956544160266  0.4180879315353891  0.1867480687505676
  0.3211906798595976  0.0272890360883125  0.8050691743785876
  0.5239952185447905  0.3671762234087552  0.5885259031140748
  0.4319614189684913  0.6090582095164834  0.9715002450673964
  0.2260812019707146  0.6927065999725315  0.1828952793718486
  0.9127914010709759  0.2790450799612785  0.5229797860360534
  0.7798451715405434  0.2068052993478275  0.6607319782622412
  0.4178262556459416  0.9742692042795369  0.9539107757672909
  0.7603559973544591  0.4572247380703445  0.3646375421758776
  0.0889729491335984  0.1954673688945476  0.5556066152822368
  0.7046893213279475  0.7581750840301851  0.5023701502160094
  0.7550530409389182  0.8777904388541202  0.3761062763199519
  0.0036892711723411  0.5311960655271548  0.4300814121421936
  0.2372536287667444  0.3073337320179590  0.1643750130786970
  0.5118336318746017  0.6777742471975259  0.1259749064199198
  0.9510682079081931  0.1997254082676179  0.6978289331639118
  0.9102752089028172  0.2136833865152354  0.4200086774898750
  0.9991730514550667  0.4586150183851530  0.2800648033418014
  0.7749516221847230  0.1219324807631637  0.8072832303647957
  0.5049192677002097  0.7017961372723107  0.0037605722990719
  0.4112908013151326  0.9222824344676326  0.0928082621292674
  0.4939350260704032  0.2404008668433377  0.0497630481207381
  0.8581825930553748  0.0895565835480667  0.9263771761131565
  0.5159882980162394  0.9226451219346501  0.5071581259471785
  0.9013362760720156  0.5355966506914527  0.4961690173383744
  0.8973981170002716  0.7784399548466538  0.4189023911759406
  0.4714237947771309  0.9011337026599406  0.7685768172552230
  0.9734281221393459  0.4193653713589072  0.3938337312802673
  0.7802615722033792  0.2730031419120991  0.1210473597508397
  0.8282194662353248  0.6609439087794939  0.5406608454779800
  0.4059852514235658  0.3367289176980890  0.8456972870428103
  0.3083010449978616  0.2809380258400793  0.9878411195604428
  0.5494843376151906  0.7634021673241307  0.8782032782157643
  0.6091572318257263  0.7781331493075285  0.2888090801326513
  0.1901092422197266  0.4636209333061245  0.0820000695549297
  0.8374829266049275  0.7491685814900961  0.0284624489594449
  0.4945916870746530  0.4840425572335647  0.5641061399381826
  0.1975221127900824  0.4560277370718282  0.9607435789182901
  0.6367089643649919  0.7961174641700310  0.6739104996918144
  0.7194237592409038  0.9130401357906379  0.0137982422768843
  0.1257646701449104  0.8606792351923858  0.1305312019981812
  0.0662322178762835  0.1048172977882160  0.1711769940503558
  0.1976592473017220  0.3445688265081017  0.0563022435845184
  0.6146942272051845  0.0083248129460216  0.3666783698553431
  0.3282211010488822  0.7161944594659175  0.3961922700479477
  0.6868574811247115  0.1205296851100996  0.8888795112677741
  0.6445019474774654  0.0948403912636167  0.2886653060067559
  0.5865407692185798  0.2263648434220613  0.2870132148734825
  0.4099960638695634  0.4379421782344437  0.3151058340759576
  0.2968661141500704  0.9718221027386988  0.9643627305347238
  0.4013525171902685  0.6691884170902398  0.8696241562541829
  0.0499437781760292  0.0343910684256059  0.6185475293268610
  0.3711504156485645  0.6659191033180321  0.2574498627683468
  0.6803396957514991  0.4123012383224562  0.0244342034714506
  0.2839157399006496  0.8826203572444271  0.3768633582321215
  0.4069435768847782  0.1926703982290761  0.9784961181617362
  0.2590376953167777  0.5986840512586440  0.5785946714884389
  0.7324912692868253  0.5215259178123191  0.0059001585831879
  0.8724184762394387  0.3790299486517910  0.9530602285092158
  0.1520756008626805  0.8239406360235151  0.2453579477466761
  0.6839463425603967  0.5343141796414557  0.4180180021076225
  0.0257472696483561  0.3782579726448532  0.1294646339590813
  0.9884102731884781  0.6670162106178879  0.5351116308587009
  0.9426599899552457  0.1729965946186596  0.5771055335398501
  0.8967384468780750  0.2659268678897888  0.9915526656549503
  0.5862657359268582  0.8702826223195714  0.4208030434924765
  0.5776055469847776  0.4756361586229687  0.4325653654616417
  0.6825935964339109  0.9320210532830941  0.2940291166979421
  0.7566720175298016  0.3915953774587635  0.1142596154684270
  0.1236866307351860  0.1720123860059175  0.3991945571368305
  0.2224969409252608  0.4244049825367213  0.2580140206146808
  0.4952750335420930  0.5044155281146629  0.1791456294152809
  0.7558305985274529  0.8514565816054045  0.1881623274631465
  0.5139269153457704  0.9959302969567645  0.2879177191676874
  0.1251117039480363  0.9532076486508316  0.5551096751131368
  0.1749738372884835  0.8229994510971324  0.4175917048668509
  0.7596097875384373  0.2764627449242170  0.4898838741571225
  0.8917205248430378  0.8513457742786557  0.2283745185862998
  0.4191351098165441  0.8578823447098287  0.6063415427803420
  0.5871932198697039  0.8874264938284071  0.0270057086781321
  0.2281719354146929  0.6888238440015542  0.7829774803283840
  0.7900629669785033  0.5078769641435841  0.8559416694289155
  0.2406091908343484  0.8378915148841202  0.0695467727291259
  0.3810499369526497  0.8361036719487700  0.8303614423260797
  0.5990247057928073  0.3490575285080055  0.4462245184160594
  0.0295940742915732  0.6950616233939897  0.1513910604046842
  0.1607655265640062  0.4928048653519710  0.7979724350414727
  0.9487412515976317  0.4635254483295554  0.5925079540383535
  0.6986837109703146  0.0541926934857173  0.7291183629646198
  0.0888196942947559  0.3324050876410993  0.8674278928260080
  0.9071386045081411  0.6163769816909053  0.3307109553686089
  0.7026127829485702  0.5640083001148213  0.1282321365996495
  0.2246832941639738  0.4009057015173951  0.5518520685329236
  0.0687098612931365  0.5003058324106533  0.1128914918200081
  0.2532389047011563  0.2875823544896932  0.6795886030464757
  0.8673598998972594  0.8834537959335833  0.0297316834390244
  0.0508721562373324  0.6354659126449818  0.6763306147013282
  0.3250737198425213  0.5848279243532986  0.8060486720966082
  0.5593934183951461  0.6715439969237451  0.7839658888285186
  0.9990066497554508  0.4157348983302214  0.9734570874461284
  0.4568924894763668  0.6700717905531448  0.5532899309605241
  0.2379219363001965  0.1213119188776162  0.2540548413615227
  0.3143470613956509  0.5089652155742215  0.9792044032441680
  0.0887768667876259  0.8849038929722823  0.9663049009560183
  0.3340817447458875  0.6401014612040399  0.1379088508393238
  0.9873040756764695  0.0000293624228789  0.1854329342554379
  0.8633877473008980  0.1318931942473185  0.1357865438690595
  0.8236030195938397  0.1228092527121305  0.5520685128972431
  0.9246633967992466  0.0544720442595832  0.0362953243185231
  0.3525269547285887  0.3251061823204466  0.3406237157150187
  0.6659666859507496  0.8765052259099093  0.7716956574813310
  0.9072191081400334  0.0300872080415573  0.3552659971738876
  0.8796232213437207  0.9053370103965577  0.8180136882548155
  0.9526395106341354  0.0307918102920297  0.7393027666940526
  0.2540344845265778  0.4676277541670899  0.6671936478707892
  0.6524786170678425  0.6663263612241934  0.5775146044222552
  0.3457844241092545  0.4573880327162811  0.2050289298763772
  0.4834011015553514  0.6075038932557888  0.2799588367844308
  0.3837905840583247  0.6287315419726838  0.6653130676528889
  0.8273858610523206  0.0056196320770070  0.6306961421334591
  0.1023321860176480  0.5992704379720948  0.3120132347796485
  0.7322773708108414  0.3355392400290924  0.9365161753100750
  0.3350348168799684  0.0260386389297835  0.2978910922964531
  0.4498148173299086  0.4872626847650281  0.7551056439228532
  0.5161681026277449  0.4119644626811905  0.0775088365968557
  0.9262447584678455  0.3256372488194685  0.7002195627307373
  0.0775124360684671  0.3598641554809561  0.2467744183822020
  0.3688339271332524  0.8263209841648305  0.4530780623018558
  0.9080228722758932  0.2004722664143799  0.8812646516594071
  0.8757369015338341  0.5894433737961577  0.1299912638919807
  0.4081388778158086  0.4482123834567631  0.4768999303207266
  0.3337511393462265  0.9707029706635666  0.5404344384742430
  0.8975108511445669  0.6773744688614798  0.7954390013584103
  0.3282535853776452  0.7814584894162593  0.6798662383210257
  0.7133518790251401  0.9768525370918013  0.9028453346805989
  0.0418444390254251  0.0094326495250527  0.9405516766943975
  0.1526080000749275  0.6538203720870470  0.0838514556141732
  0.3835593009653451  0.8082958726430647  0.0348067143902995
  0.3009982749941997  0.7188079431881036  0.9344334064779929
  0.4371903085427320  0.8734220360526024  0.2077478130900872
  0.6744430819428899  0.8867773399722552  0.5896681070822396
  0.7498616255705741  0.4760329700727937  0.5435846737366035
  0.2184807506135655  0.1989984287558499  0.5568593525201848
  0.8194671005575884  0.5230440089020760  0.2678280570529168
  0.6262041141789965  0.5358722542953274  0.6814737683011316
  0.3036064068922286  0.8379978201211031  0.2458037900744969
  0.7452872543303641  0.2586569285599580  0.7816455539170946
  0.9636992622159610  0.5528689719704971  0.7626997172253311
  0.5099725321492699  0.7727140424814962  0.6717213121216616
  0.5819888691778488  0.2366115483344373  0.6492153672511023
  0.1194681751999838  0.3198414653044921  0.7188979296935472
  0.8380072198278725  0.7874966973138058  0.8708913571735621
  0.3217854171089556  0.2154317012140226  0.1274106187364268
  0.2355274709226265  0.9164214332508180  0.6246717301960700
  0.5709670833137253  0.9265932688886735  0.1713137568047074
  0.8620175960783953  0.4890171741594784  0.6934724715076968
  0.2351443422017994  0.4585713059940062  0.3904552886865105
  0.8589949523167562  0.8667372660475863  0.6885635045492506
  0.1842121621013675  0.3341214410015709  0.4178306225013273
  0.6242451325829492  0.2274421424428610  0.8370221172187300
  0.7645474213808754  0.6706541769404026  0.4234200907104722
  0.8947554583456423  0.5506275228965549  0.9348896263715716
  0.6810639528401623  0.1999155214154698  0.1576549554594564
  0.9401181503553886  0.3572084536790143  0.8331836854410213
  0.6895178186451005  0.3888913244579726  0.7506226781278542
  0.7578087453272744  0.0364033290847985  0.2670744982389053
  0.0796761834054251  0.7121627547902705  0.9578868879059570
  0.5406265915952133  0.3367573003069779  0.9443581255652589
  0.9159758305364178  0.4133252703773493  0.1922335383272156
  0.4738643668312008  0.1857419838631600  0.1681507220205773
  0.6131418261015398  0.7473875733775301  0.1624291786268444
  0.1216542178531057  0.7505537446186565  0.6152274556041135
  0.4485477160343123  0.1756455248423663  0.7549756782642447
  0.4585908675256718  0.0256860349221171  0.4580597955944441
  0.0434305612655592  0.6780534503737741  0.8281455675403109
  0.6786561880972926  0.7694777368024646  0.9032380108424931
  0.6046086887887157  0.0936390628881654  0.0290017938300693
  0.7737581793716402  0.2068138552422454  0.2727486487611941
  0.4297517190881806  0.0623438454569651  0.1204697486356849
  0.5219574001657961  0.0871230189150509  0.8415632261372537
  0.4851338894008705  0.3626087776605118  0.7131348446757357
  0.0176425120451853  0.8969721088353779  0.3893403513901461
  0.2304745431850321  0.1381099398934680  0.0535792735645373
  0.5117674461579114  0.1846018388662216  0.3908453489517854
  0.2850257117927768  0.3097560827080343  0.8638075058235302
  0.0935916594728212  0.4842298116165580  0.5142986972925456
  0.0290662166231357  0.1640928017190149  0.0518623313473867
  0.4977356893425977  0.8171170304946429  0.3434905554916838
  0.9522737705650641  0.1774318411608746  0.2435123023352475
  0.3843243774450826  0.3048876604266084  0.4751373015973641
  0.9953994659954546  0.8566486702805420  0.0747638201710288
  0.1693814652266852  0.6160662707748088  0.4777018234230894
  0.1346728562495727  0.5652003713746083  0.9145880521997043
  0.5886255532384652  0.4910580690612250  0.8651873754037140
  0.8555732699686942  0.3034775037428332  0.3458416385680039
  0.3832039214040464  0.6159276123183872  0.4542861113300205
  0.7569114916484949  0.6773138201061855  0.7489530968092026
  0.8185297895223655  0.7139086369435717  0.1542945517560312
  0.1456528620891575  0.2273943407941204  0.2020180903047830
  0.0034109964472080  0.7093293706077262  0.4074587157961105
  0.1997619334270695  0.8817467933531873  0.8672199070984021
  0.6872165510200858  0.6981777201148276  0.0234807125550773
  0.1476303975084718  0.9843624110381626  0.3765703584144333
  0.5146884221650012  0.0348029243099504  0.6542181426005627
  0.2400326716271763  0.1055964508108005  0.4557937054124963
  0.3930578426224045  0.2588796298078719  0.6300425418903259
  0.1684649023412348  0.9998485607683492  0.7998813909376139
  0.0218853222819533  0.8522079163002161  0.7905332896525152
  0.7125331439026823  0.3631072253885606  0.2923598374100820
  0.9939875715536459  0.0288860093346699  0.4953095760417483
  0.9051386235043566  0.9392554876914048  0.5380039229523987
  0.0409024148411703  0.3164329378374049  0.5480946677661009
  0.6488112211826262  0.0850137278516243  0.5314344443999275
  0.0266960860835468  0.8130138727794574  0.2766643436967442
  0.7436100036001463  0.9731317991274508  0.4584752449988230
  0.1532653532767227  0.8189608232530787  0.7484807118660015
  0.3598114952942666  0.1660352120827966  0.4159255788129599
  0.1589574574753740  0.1130964264204124  0.7051073734963751
  0.1462186751441621  0.2183756427840322  0.9135386300524004
  0.6484760892949666  0.5888395160091306  0.3039639885410494
  0.0147983305080004  0.2505579113113399  0.3536240239460753
  0.2862510588558109  0.5919380033155477  0.3254400968290838
  0.2874758206898491  0.0904962454435179  0.9161729654528870
  0.3611341902334146  0.1334013596274417  0.5778120842924608
  0.5902211199999314  0.3160631469566795  0.1472785649868626
  0.5945040459028235  0.6341550397053979  0.9757033318965540
  0.6346709331059017  0.4683195786712133  0.5788039099906896
  0.7833980194465298  0.2451059322709241  0.0075123049782420
  0.5912106407424531  0.9795088877975289  0.5736616357155313
  0.2981871669585701  0.9468570323315433  0.0828574175000014
  0.1038535257524202  0.9678277499938588  0.1735803465307200
  0.5336520041504969  0.3003471360903873  0.3575597248445490
  0.2658089101693122  0.9569305937853656  0.2271480366781731
  0.7632023047864323  0.1339971645624445  0.9780603107859562
  0.1601605828306063  0.9377254195374505  0.2648732734346311
  0.3378328611709875  0.1223651802307799  0.7403900078715395
  0.6582992440690774  0.3346804063772737  0.6444616135643884
  0.6241151460632679  0.6087583434579429  0.8679992989477086
  0.0732797155674803  0.3833595847892610  0.4457277219214362
  0.2140861601024824  0.0596907916050924  0.1444399776225538
  0.5799761884047996  0.5613448650947177  0.0167233711033319
  0.9181018798570975  0.7195642007919503  0.0112573405513032
  0.7407532014727920  0.9814741999950343  0.0678032425000694
  0.9079194334559020  0.6210470813330460  0.5296330434386647
  0.0001050512828158  0.9788812330674901  0.6693931659858521
  0.6142672083962850  0.3884405524551013  0.5970322281325053
  0.3704387166017185  0.3422496829365897  0.0098768094531181
  0.2148179207445367  0.5583216203435200  0.6486099106514942
  0.9225952391208310  0.8637733631203872  0.4007393935109889
  0.5776519833200027  0.4953253634787345  0.5219184304470161
  0.0461240736060802  0.3290528691193373  0.9607253800768802
  0.9606560459069016  0.7433559997705359  0.5666453482407050
  0.1330059538251120  0.0406043812135124  0.1420264920262753
  0.2623809764513680  0.9897822007851147  0.1466144195910530
  0.3414712725057854  0.0877311231693909  0.6646346412498048
 
  0.00000000E+00  0.00000000E+00  0.00000000E+00
  0.00000000E+00  0.00000000E+00  0.00000000E+00
  0.00000000E+00  0.00000000E+00  0.00000000E+00
  0.00000000E+00  0.00000000E+00  0.00000000E+00
  0.00000000E+00  0.00000000E+00  0.00000000E+00
  0.00000000E+00  0.00000000E+00  0.00000000E+00
  0.00000000E+00  0.00000000E+00  0.00000000E+00
  0.00000000E+00  0.00000000E+00  0.00000000E+00
  0.00000000E+00  0.00000000E+00  0.00000000E+00
  0.00000000E+00  0.00000000E+00  0.00000000E+00
  0.00000000E+00  0.00000000E+00  0.00000000E+00
  0.00000000E+00  0.00000000E+00  0.00000000E+00
  0.00000000E+00  0.00000000E+00  0.00000000E+00
  0.00000000E+00  0.00000000E+00  0.00000000E+00
  0.00000000E+00  0.00000000E+00  0.00000000E+00
  0.00000000E+00  0.00000000E+00  0.00000000E+00
  0.00000000E+00  0.00000000E+00  0.00000000E+00
  0.00000000E+00  0.00000000E+00  0.00000000E+00
  0.00000000E+00  0.00000000E+00  0.00000000E+00
  0.00000000E+00  0.00000000E+00  0.00000000E+00
  0.00000000E+00  0.00000000E+00  0.00000000E+00
  0.00000000E+00  0.00000000E+00  0.00000000E+00
  0.00000000E+00  0.00000000E+00  0.00000000E+00
  0.00000000E+00  0.00000000E+00  0.00000000E+00
  0.00000000E+00  0.00000000E+00  0.00000000E+00
  0.00000000E+00  0.00000000E+00  0.00000000E+00
  0.00000000E+00  0.00000000E+00  0.00000000E+00
  0.00000000E+00  0.00000000E+00  0.00000000E+00
  0.00000000E+00  0.00000000E+00  0.00000000E+00
  0.00000000E+00  0.00000000E+00  0.00000000E+00
  0.00000000E+00  0.00000000E+00  0.00000000E+00
  0.00000000E+00  0.00000000E+00  0.00000000E+00
  0.00000000E+00  0.00000000E+00  0.00000000E+00
  0.00000000E+00  0.00000000E+00  0.00000000E+00
  0.00000000E+00  0.00000000E+00  0.00000000E+00
  0.00000000E+00  0.00000000E+00  0.00000000E+00
  0.00000000E+00  0.00000000E+00  0.00000000E+00
  0.00000000E+00  0.00000000E+00  0.00000000E+00
  0.00000000E+00  0.00000000E+00  0.00000000E+00
  0.00000000E+00  0.00000000E+00  0.00000000E+00
  0.00000000E+00  0.00000000E+00  0.00000000E+00
  0.00000000E+00  0.00000000E+00  0.00000000E+00
  0.00000000E+00  0.00000000E+00  0.00000000E+00
  0.00000000E+00  0.00000000E+00  0.00000000E+00
  0.00000000E+00  0.00000000E+00  0.00000000E+00
  0.00000000E+00  0.00000000E+00  0.00000000E+00
  0.00000000E+00  0.00000000E+00  0.00000000E+00
  0.00000000E+00  0.00000000E+00  0.00000000E+00
  0.00000000E+00  0.00000000E+00  0.00000000E+00
  0.00000000E+00  0.00000000E+00  0.00000000E+00
  0.00000000E+00  0.00000000E+00  0.00000000E+00
  0.00000000E+00  0.00000000E+00  0.00000000E+00
  0.00000000E+00  0.00000000E+00  0.00000000E+00
  0.00000000E+00  0.00000000E+00  0.00000000E+00
  0.00000000E+00  0.00000000E+00  0.00000000E+00
  0.00000000E+00  0.00000000E+00  0.00000000E+00
  0.00000000E+00  0.00000000E+00  0.00000000E+00
  0.00000000E+00  0.00000000E+00  0.00000000E+00
  0.00000000E+00  0.00000000E+00  0.00000000E+00
  0.00000000E+00  0.00000000E+00  0.00000000E+00
  0.00000000E+00  0.00000000E+00  0.00000000E+00
  0.00000000E+00  0.00000000E+00  0.00000000E+00
  0.00000000E+00  0.00000000E+00  0.00000000E+00
  0.00000000E+00  0.00000000E+00  0.00000000E+00
  0.00000000E+00  0.00000000E+00  0.00000000E+00
  0.00000000E+00  0.00000000E+00  0.00000000E+00
  0.00000000E+00  0.00000000E+00  0.00000000E+00
  0.00000000E+00  0.00000000E+00  0.00000000E+00
  0.00000000E+00  0.00000000E+00  0.00000000E+00
  0.00000000E+00  0.00000000E+00  0.00000000E+00
  0.00000000E+00  0.00000000E+00  0.00000000E+00
  0.00000000E+00  0.00000000E+00  0.00000000E+00
  0.00000000E+00  0.00000000E+00  0.00000000E+00
  0.00000000E+00  0.00000000E+00  0.00000000E+00
  0.00000000E+00  0.00000000E+00  0.00000000E+00
  0.00000000E+00  0.00000000E+00  0.00000000E+00
  0.00000000E+00  0.00000000E+00  0.00000000E+00
  0.00000000E+00  0.00000000E+00  0.00000000E+00
  0.00000000E+00  0.00000000E+00  0.00000000E+00
  0.00000000E+00  0.00000000E+00  0.00000000E+00
  0.00000000E+00  0.00000000E+00  0.00000000E+00
  0.00000000E+00  0.00000000E+00  0.00000000E+00
  0.00000000E+00  0.00000000E+00  0.00000000E+00
  0.00000000E+00  0.00000000E+00  0.00000000E+00
  0.00000000E+00  0.00000000E+00  0.00000000E+00
  0.00000000E+00  0.00000000E+00  0.00000000E+00
  0.00000000E+00  0.00000000E+00  0.00000000E+00
  0.00000000E+00  0.00000000E+00  0.00000000E+00
  0.00000000E+00  0.00000000E+00  0.00000000E+00
  0.00000000E+00  0.00000000E+00  0.00000000E+00
  0.00000000E+00  0.00000000E+00  0.00000000E+00
  0.00000000E+00  0.00000000E+00  0.00000000E+00
  0.00000000E+00  0.00000000E+00  0.00000000E+00
  0.00000000E+00  0.00000000E+00  0.00000000E+00
  0.00000000E+00  0.00000000E+00  0.00000000E+00
  0.00000000E+00  0.00000000E+00  0.00000000E+00
  0.00000000E+00  0.00000000E+00  0.00000000E+00
  0.00000000E+00  0.00000000E+00  0.00000000E+00
  0.00000000E+00  0.00000000E+00  0.00000000E+00
  0.00000000E+00  0.00000000E+00  0.00000000E+00
  0.00000000E+00  0.00000000E+00  0.00000000E+00
  0.00000000E+00  0.00000000E+00  0.00000000E+00
  0.00000000E+00  0.00000000E+00  0.00000000E+00
  0.00000000E+00  0.00000000E+00  0.00000000E+00
  0.00000000E+00  0.00000000E+00  0.00000000E+00
  0.00000000E+00  0.00000000E+00  0.00000000E+00
  0.00000000E+00  0.00000000E+00  0.00000000E+00
  0.00000000E+00  0.00000000E+00  0.00000000E+00
  0.00000000E+00  0.00000000E+00  0.00000000E+00
  0.00000000E+00  0.00000000E+00  0.00000000E+00
  0.00000000E+00  0.00000000E+00  0.00000000E+00
  0.00000000E+00  0.00000000E+00  0.00000000E+00
  0.00000000E+00  0.00000000E+00  0.00000000E+00
  0.00000000E+00  0.00000000E+00  0.00000000E+00
  0.00000000E+00  0.00000000E+00  0.00000000E+00
  0.00000000E+00  0.00000000E+00  0.00000000E+00
  0.00000000E+00  0.00000000E+00  0.00000000E+00
  0.00000000E+00  0.00000000E+00  0.00000000E+00
  0.00000000E+00  0.00000000E+00  0.00000000E+00
  0.00000000E+00  0.00000000E+00  0.00000000E+00
  0.00000000E+00  0.00000000E+00  0.00000000E+00
  0.00000000E+00  0.00000000E+00  0.00000000E+00
  0.00000000E+00  0.00000000E+00  0.00000000E+00
  0.00000000E+00  0.00000000E+00  0.00000000E+00
  0.00000000E+00  0.00000000E+00  0.00000000E+00
  0.00000000E+00  0.00000000E+00  0.00000000E+00
  0.00000000E+00  0.00000000E+00  0.00000000E+00
  0.00000000E+00  0.00000000E+00  0.00000000E+00
  0.00000000E+00  0.00000000E+00  0.00000000E+00
  0.00000000E+00  0.00000000E+00  0.00000000E+00
  0.00000000E+00  0.00000000E+00  0.00000000E+00
  0.00000000E+00  0.00000000E+00  0.00000000E+00
  0.00000000E+00  0.00000000E+00  0.00000000E+00
  0.00000000E+00  0.00000000E+00  0.00000000E+00
  0.00000000E+00  0.00000000E+00  0.00000000E+00
  0.00000000E+00  0.00000000E+00  0.00000000E+00
  0.00000000E+00  0.00000000E+00  0.00000000E+00
  0.00000000E+00  0.00000000E+00  0.00000000E+00
  0.00000000E+00  0.00000000E+00  0.00000000E+00
  0.00000000E+00  0.00000000E+00  0.00000000E+00
  0.00000000E+00  0.00000000E+00  0.00000000E+00
  0.00000000E+00  0.00000000E+00  0.00000000E+00
  0.00000000E+00  0.00000000E+00  0.00000000E+00
  0.00000000E+00  0.00000000E+00  0.00000000E+00
  0.00000000E+00  0.00000000E+00  0.00000000E+00
  0.00000000E+00  0.00000000E+00  0.00000000E+00
  0.00000000E+00  0.00000000E+00  0.00000000E+00
  0.00000000E+00  0.00000000E+00  0.00000000E+00
  0.00000000E+00  0.00000000E+00  0.00000000E+00
  0.00000000E+00  0.00000000E+00  0.00000000E+00
  0.00000000E+00  0.00000000E+00  0.00000000E+00
  0.00000000E+00  0.00000000E+00  0.00000000E+00
  0.00000000E+00  0.00000000E+00  0.00000000E+00
  0.00000000E+00  0.00000000E+00  0.00000000E+00
  0.00000000E+00  0.00000000E+00  0.00000000E+00
  0.00000000E+00  0.00000000E+00  0.00000000E+00
  0.00000000E+00  0.00000000E+00  0.00000000E+00
  0.00000000E+00  0.00000000E+00  0.00000000E+00
  0.00000000E+00  0.00000000E+00  0.00000000E+00
  0.00000000E+00  0.00000000E+00  0.00000000E+00
  0.00000000E+00  0.00000000E+00  0.00000000E+00
  0.00000000E+00  0.00000000E+00  0.00000000E+00
  0.00000000E+00  0.00000000E+00  0.00000000E+00
  0.00000000E+00  0.00000000E+00  0.00000000E+00
  0.00000000E+00  0.00000000E+00  0.00000000E+00
  0.00000000E+00  0.00000000E+00  0.00000000E+00
  0.00000000E+00  0.00000000E+00  0.00000000E+00
  0.00000000E+00  0.00000000E+00  0.00000000E+00
  0.00000000E+00  0.00000000E+00  0.00000000E+00
  0.00000000E+00  0.00000000E+00  0.00000000E+00
  0.00000000E+00  0.00000000E+00  0.00000000E+00
  0.00000000E+00  0.00000000E+00  0.00000000E+00
  0.00000000E+00  0.00000000E+00  0.00000000E+00
  0.00000000E+00  0.00000000E+00  0.00000000E+00
  0.00000000E+00  0.00000000E+00  0.00000000E+00
  0.00000000E+00  0.00000000E+00  0.00000000E+00
  0.00000000E+00  0.00000000E+00  0.00000000E+00
  0.00000000E+00  0.00000000E+00  0.00000000E+00
  0.00000000E+00  0.00000000E+00  0.00000000E+00
  0.00000000E+00  0.00000000E+00  0.00000000E+00
  0.00000000E+00  0.00000000E+00  0.00000000E+00
  0.00000000E+00  0.00000000E+00  0.00000000E+00
  0.00000000E+00  0.00000000E+00  0.00000000E+00
  0.00000000E+00  0.00000000E+00  0.00000000E+00
  0.00000000E+00  0.00000000E+00  0.00000000E+00
  0.00000000E+00  0.00000000E+00  0.00000000E+00
  0.00000000E+00  0.00000000E+00  0.00000000E+00
  0.00000000E+00  0.00000000E+00  0.00000000E+00
  0.00000000E+00  0.00000000E+00  0.00000000E+00
  0.00000000E+00  0.00000000E+00  0.00000000E+00
  0.00000000E+00  0.00000000E+00  0.00000000E+00
  0.00000000E+00  0.00000000E+00  0.00000000E+00
  0.00000000E+00  0.00000000E+00  0.00000000E+00
  0.00000000E+00  0.00000000E+00  0.00000000E+00
  0.00000000E+00  0.00000000E+00  0.00000000E+00
  0.00000000E+00  0.00000000E+00  0.00000000E+00
  0.00000000E+00  0.00000000E+00  0.00000000E+00
  0.00000000E+00  0.00000000E+00  0.00000000E+00
  0.00000000E+00  0.00000000E+00  0.00000000E+00
  0.00000000E+00  0.00000000E+00  0.00000000E+00
  0.00000000E+00  0.00000000E+00  0.00000000E+00
  0.00000000E+00  0.00000000E+00  0.00000000E+00
  0.00000000E+00  0.00000000E+00  0.00000000E+00
  0.00000000E+00  0.00000000E+00  0.00000000E+00
  0.00000000E+00  0.00000000E+00  0.00000000E+00
  0.00000000E+00  0.00000000E+00  0.00000000E+00
  0.00000000E+00  0.00000000E+00  0.00000000E+00
  0.00000000E+00  0.00000000E+00  0.00000000E+00
  0.00000000E+00  0.00000000E+00  0.00000000E+00
  0.00000000E+00  0.00000000E+00  0.00000000E+00
  0.00000000E+00  0.00000000E+00  0.00000000E+00
  0.00000000E+00  0.00000000E+00  0.00000000E+00
  0.00000000E+00  0.00000000E+00  0.00000000E+00
  0.00000000E+00  0.00000000E+00  0.00000000E+00
  0.00000000E+00  0.00000000E+00  0.00000000E+00
  0.00000000E+00  0.00000000E+00  0.00000000E+00
  0.00000000E+00  0.00000000E+00  0.00000000E+00
  0.00000000E+00  0.00000000E+00  0.00000000E+00
  0.00000000E+00  0.00000000E+00  0.00000000E+00
  0.00000000E+00  0.00000000E+00  0.00000000E+00
  0.00000000E+00  0.00000000E+00  0.00000000E+00
  0.00000000E+00  0.00000000E+00  0.00000000E+00
  0.00000000E+00  0.00000000E+00  0.00000000E+00
  0.00000000E+00  0.00000000E+00  0.00000000E+00
  0.00000000E+00  0.00000000E+00  0.00000000E+00
  0.00000000E+00  0.00000000E+00  0.00000000E+00
  0.00000000E+00  0.00000000E+00  0.00000000E+00
  0.00000000E+00  0.00000000E+00  0.00000000E+00
  0.00000000E+00  0.00000000E+00  0.00000000E+00
  0.00000000E+00  0.00000000E+00  0.00000000E+00
  0.00000000E+00  0.00000000E+00  0.00000000E+00