Sb
1.0
       18.8173007965         0.0000000000         0.0000000000
        0.0000000000        18.8173007965         0.0000000000
        0.0000000000         0.0000000000        18.8173007965
   Sb   
  216   
Direct
     0.001220000         0.008560000         0.585089982
     0.569899976         0.783860028         0.312779993
     0.938889980         0.922290027         0.928340018
     0.213520005         0.359120011         0.017519999
     0.803600013         0.957849979         0.854629993
     0.384169996         0.955789983         0.953639984
     0.973349988         0.202790007         0.408939987
     0.772960007         0.221790001         0.712149978
     0.444429994         0.719250023         0.101839997
     0.300680012         0.089970000         0.245260000
     0.329219997         0.760710001         0.338310003
     0.537039995         0.214100003         0.438430011
     0.514840007         0.037179999         0.312489986
     0.488599986         0.843519986         0.979260027
     0.111510001         0.285189986         0.432489991
     0.781660020         0.330700010         0.102890000
     0.434709996         0.220660001         0.213560000
     0.103929996         0.908389986         0.031020001
     0.846069992         0.119029999         0.853779972
     0.324429989         0.122769997         0.021180000
     0.712670028         0.757210016         0.885110021
     0.787909985         0.973439991         0.652029991
     0.851540029         0.142550007         0.511860013
     0.621370018         0.926699996         0.271210015
     0.974089980         0.398600012         0.026179999
     0.488819987         0.541989982         0.100429997
     0.772509992         0.521089971         0.976029992
     0.805249989         0.967040002         0.318129987
     0.043770000         0.268090010         0.863059998
     0.766170025         0.721140027         0.651069999
     0.972899973         0.473239988         0.216700003
     0.099650003         0.289290011         0.186780006
     0.727769971         0.575670004         0.693750024
     0.343529999         0.372079998         0.865490019
     0.152309999         0.061840001         0.157240003
     0.697849989         0.610870004         0.083619997
     0.285670012         0.132479995         0.664110005
     0.177959993         0.673340023         0.059200000
     0.316280007         0.509930015         0.957499981
     0.624360025         0.939930022         0.449779987
     0.948270023         0.315230012         0.179660007
     0.182480007         0.188280001         0.847500026
     0.118400000         0.786339998         0.895259976
     0.123910002         0.392369986         0.320549995
     0.286020011         0.497090012         0.766889989
     0.767530024         0.429399997         0.277440012
     0.055420000         0.781790018         0.247060001
     0.836499989         0.854080021         0.743359983
     0.764299989         0.849860013         0.198159993
     0.917859972         0.590059996         0.026079999
     0.910160005         0.825179994         0.574079990
     0.183630005         0.717989981         0.732900023
     0.191719994         0.723540008         0.205669999
     0.508549988         0.165319994         0.891139984
     0.811919987         0.708589971         0.018940000
     0.019950001         0.740029991         0.777369976
     0.835640013         0.036440000         0.086369999
     0.599439979         0.690330029         0.968089998
     0.330089986         0.662249982         0.906149983
     0.025170000         0.806200027         0.474090010
     0.576420009         0.686049998         0.185499996
     0.974669993         0.625469983         0.230389997
     0.410329998         0.894760013         0.332610011
     0.059540000         0.509639978         0.092189997
     0.426239997         0.962040007         0.488480002
     0.982919991         0.821309984         0.107819997
     0.398669988         0.150049999         0.357639998
     0.864629984         0.733470023         0.163350001
     0.815479994         0.386960000         0.502730012
     0.909600019         0.209079996         0.640150011
     0.346709996         0.946479976         0.621630013
     0.271840006         0.968850017         0.337419987
     0.407880008         0.308539987         0.005400000
     0.989600003         0.874440014         0.703079998
     0.309859991         0.059920002         0.457920015
     0.817650020         0.506380022         0.400990009
     0.343650013         0.193110004         0.883509994
     0.224539995         0.809580028         0.448370010
     0.296640009         0.060300000         0.803849995
     0.541869998         0.065870002         0.517740011
     0.650829971         0.797930002         0.098650001
     0.341280013         0.973720014         0.109389998
     0.309570014         0.240950003         0.125819996
     0.200700000         0.582830012         0.656329989
     0.412970006         0.584490001         0.795570016
     0.398719996         0.414779991         0.118359998
     0.446359992         0.880230010         0.720830023
     0.082400002         0.280140013         0.028790001
     0.917829990         0.790180027         0.355729997
     0.960319996         0.956570029         0.201470003
     0.565169990         0.956600010         0.647970021
     0.925320029         0.062109999         0.313670009
     0.170780003         0.134169996         0.019490000
     0.405979991         0.242650002         0.573509991
     0.345759988         0.293300003         0.408510000
     0.216879994         0.884029984         0.137099996
     0.992009997         0.427089989         0.874279976
     0.245879993         0.269670010         0.526899993
     0.687259972         0.626209974         0.436199993
     0.257889986         0.313510001         0.279929996
     0.459850013         0.106780000         0.649600029
     0.363860011         0.666270018         0.667999983
     0.489100009         0.524890006         0.934629977
     0.770950019         0.252860010         0.431879997
     0.986000001         0.584810019         0.883870006
     0.220899999         0.423869997         0.552890003
     0.297690004         0.801289976         0.583739996
     0.528379977         0.340689987         0.163780004
     0.811909974         0.686190009         0.506680012
     0.187490001         0.438540012         0.148949996
     0.560020030         0.260100007         0.013780000
     0.803680003         0.171729997         0.253230006
     0.523509979         0.048730001         0.991829991
     0.844730020         0.885770023         0.045120001
     0.562160015         0.923600018         0.126350001
     0.349790007         0.655569971         0.212050006
     0.117749996         0.051750001         0.425150007
     0.551050007         0.315780014         0.729749978
     0.001260000         0.952049971         0.399520010
     0.132789999         0.588029981         0.257129997
     0.938149989         0.635819972         0.379770011
     0.143160000         0.840149999         0.618059993
     0.269210011         0.856230021         0.907549977
     0.573170006         0.942950010         0.889750004
     0.290459991         0.779649973         0.040440001
     0.703890026         0.890309989         0.961640000
     0.195879996         0.963699996         0.526950002
     0.683600008         0.390659988         0.001020000
     0.724200010         0.056139998         0.423099995
     0.868990004         0.963970006         0.513040006
     0.721639991         0.746020019         0.307269990
     0.783280015         0.821850002         0.430620015
     0.784929991         0.606620014         0.221839994
     0.663770020         0.990939975         0.762639999
     0.887920022         0.311060011         0.319840014
     0.087849997         0.953480005         0.825469971
     0.203030005         0.177239999         0.340009987
     0.155330002         0.051970001         0.648389995
     0.392830014         0.295520008         0.723230004
     0.021870000         0.032510001         0.080420002
     0.843010008         0.280149996         0.840560019
     0.210170001         0.929440022         0.732699990
     0.965210021         0.431059986         0.388960004
     0.448159993         0.016500000         0.798420012
     0.594760001         0.172769994         0.688369989
     0.648310006         0.133520007         0.825640023
     0.627460003         0.141460001         0.332679987
     0.484589994         0.081380002         0.165739998
     0.842809975         0.609910011         0.822529972
     0.750129998         0.362699986         0.653850019
     0.059090000         0.099940002         0.778729975
     0.693949997         0.296380013         0.875630021
     0.073210001         0.416469991         0.612810016
     0.973179996         0.328390002         0.507099986
     0.076449998         0.154379994         0.256509990
     0.614690006         0.130899996         0.092869997
     0.681429982         0.250340015         0.193340003
     0.730620027         0.041630000         0.201859996
     0.830659986         0.450129986         0.825940013
     0.665319979         0.325439990         0.331880003
     0.074150003         0.524439991         0.726459980
     0.161170006         0.488880008         0.947179973
     0.017759999         0.716260016         0.995850027
     0.008300000         0.539709985         0.519410014
     0.650699973         0.538820028         0.274780005
     0.328949988         0.773850024         0.778150022
     0.088830002         0.682720006         0.371939987
     0.520969987         0.360159993         0.583050013
     0.361070007         0.428559989         0.650510013
     0.465229988         0.566619992         0.259550005
     0.870790005         0.529470026         0.593400002
     0.496430010         0.381300002         0.885429978
     0.919080019         0.165900007         0.146750003
     0.704379976         0.105260000         0.579029977
     0.841409981         0.486640006         0.132029995
     0.143439993         0.416509986         0.811600029
     0.632420003         0.559459984         0.889280021
     0.911289990         0.772080004         0.894779980
     0.623359978         0.473820001         0.135879993
     0.678690016         0.874339998         0.579289973
     0.456950009         0.791119993         0.510689974
     0.268660009         0.567650020         0.349339992
     0.156660005         0.497319996         0.431600004
     0.429569989         0.861570001         0.175290003
     0.058520000         0.679539979         0.578230023
     0.095459998         0.929220021         0.274520010
     0.062619999         0.143299997         0.536180019
     0.192019999         0.994319975         0.935769975
     0.905040026         0.654879987         0.686860025
     0.218759999         0.263540000         0.718010008
     0.865649998         0.233510002         0.013560000
     0.487760007         0.740649998         0.860979974
     0.680549979         0.423049986         0.783729970
     0.277790010         0.559570014         0.100550003
     0.186590001         0.658919990         0.492870003
     0.989409983         0.130380005         0.916849971
     0.656310022         0.246720001         0.536800027
     0.895709991         0.409139991         0.689710021
     0.758340001         0.126540005         0.984009981
     0.443239987         0.678089976         0.404509991
     0.062080000         0.269380003         0.701020002
     0.179590002         0.643459976         0.870190024
     0.920099974         0.067730002         0.703530014
     0.610360026         0.782060027         0.769689977
     0.382110000         0.331250012         0.472550005
     0.314830005         0.447780013         0.350659996
     0.516650021         0.331259996         0.350659996
     0.382110000         0.564300001         0.472550005
     0.449380010         0.447780013         0.269730002
     0.516650021         0.564310014         0.675360024
     0.449380010         0.447780013         0.553470016
     0.516650021         0.564310014         0.350659996
     0.583930016         0.680819988         0.472550005
     0.449380010         0.680830002         0.553470016
     0.651199996         0.564300001         0.553470016
     0.583930016         0.447770000         0.472550005
