POSCAR                                  
   1.00000000000000     
    21.0035911595442357    0.0000000000000000    0.0000000000000000
     0.0000000000000000   21.0035911595442357    0.0000000000000000
     0.0000000000000000    0.0000000000000000   21.0035911595442357
   Ge   Sb   Te
    43    86   172
Direct
  0.2076787944015266  0.6062344393663093  0.0788748094608943
  0.0263730828391905  0.8476496906044765  0.8609339725827044
  0.7994397410397668  0.5854059334263292  0.7914541346775604
  0.6242241479776877  0.2497087955047556  0.9121854522339071
  0.3041167779999910  0.6442737907936887  0.7805340797291372
  0.3059837898516022  0.1280140559530429  0.9500235008035897
  0.2073372385408788  0.2551622433606191  0.3708907098315637
  0.8639695158610200  0.8067987323587720  0.3366216891141464
  0.0120833968397280  0.2493086637652145  0.3430522684075034
  0.0675372531467468  0.4183019968134812  0.0205875951468612
  0.3273805977919736  0.4997370634742285  0.2040540089409769
  0.7447336177332111  0.1633543803923402  0.0414941452857135
  0.9431596157301853  0.3435139336764217  0.7942904377077140
  0.4208750925064033  0.1581781278889932  0.5280674436800822
  0.3898366973613414  0.0885033180011293  0.7446403354308381
  0.9095283704113561  0.6028979866931105  0.2103712348815271
  0.5167829380336838  0.3486047395823857  0.7818308843663494
  0.7958855800451982  0.5520462877547853 -0.0186914551494814
  0.6040380200116301  0.1176813040295099  0.1468894190784925
  0.0210037640665104  0.7467600299676735  0.6915917202099369
  0.0676688131653650  0.9618914343008801  0.7537075831501052
  0.7953363786639732  0.6883734619583336  0.1136253104709272
  0.7001604130305369  0.4103629102468102  0.1227333402936187
  0.5284341743698061  0.3423272943223793  0.1241259700640108
  0.9027933899891832  0.2480626027499473 -0.0065708286261423
  0.1669176420934185  0.8405383409806846  0.9724990377763835
  0.8090375205991083  0.1491802120077424  0.3968838174504528
  0.9902896104111241  0.8417433696985969  0.3505162655334914
  0.4678923624287503  0.0242499726845488  0.9075171323992748
  0.0840162305005580  0.5581518334988306  0.6845595307790393
  0.4309645254543905  0.1537980820382957  0.8709375938636832
  0.3703723891705710  0.8120542459371257  0.2040584088666900
  0.9101086269121930  0.7536819918085864  0.5568857329102980
  0.4911441306938034  0.5485018506167848  0.3254200023316036
  0.1708094739289354  0.9159275663418580  0.4252547315703563
  0.4109664152540284  0.6967791732291342  0.3396634885108392
  0.8727625547807786  0.6663720756280024  0.4788291882516366
 -0.0132504956464923  0.6015907476812672  0.9355851825295517
  0.1630150964918529  0.2597486398724100  0.9121128419933469
  0.2257610211500127  0.0763448184247928  0.2024996890721104
  0.3078522837821277  0.6700355054849901  0.6581061809334908
  0.6356062926065609  0.2898063579640341  0.6398674292643876
  0.8724788326860294  0.7289745095484998  0.6743788571919942
  0.8864509568939791  0.3722986925883872  0.4715191343400545
  0.0352055556125065  0.7147802545038897  0.0823610186149513
  0.0503683348634829  0.1144608339512496  0.6058041420187807
  0.2478693252550677  0.7549258277693695  0.4648688702130430
  0.1367797540906922  0.2110687747800238  0.5476127791301620
  0.8506458401284215  0.8380983559652654  0.4738708119708915
  0.7318396641758035  0.8108081150954468  0.9987961804894748
  0.9279187647635733 -0.0056976840764611  0.1057123019827713
  0.8765012765357439  0.8098780128137056  0.1964819269770278
  0.8743787095344420  0.0772419437847093  0.8922580952680642
  0.9763936519220023  0.2055381582054593  0.1312496614102446
  0.7375532971653971  0.3861369376180490  0.5074788084626544
  0.9368913083793038  0.0508754645740416  0.6864160772850049
  0.3998525306415154  0.2699949434520349  0.8189758854637978
  0.7037979303309372  0.1467993686875754  0.7556407176990281
  0.7961373218183654  0.3708726065014489  0.2146571442870062
  0.3750547059796893  0.9145361186896608  0.0397025600811426
  0.4579345793448605  0.3621651641650031  0.6579673422027681
  0.9212597828979041  0.7153439741125110  0.9657525570065323
  0.6423496571256309  0.8738116704931954  0.8300563489489140
  0.0781758733507976  0.8475665191259067  0.0906663621780232
  0.7561302713941561  0.7305574243453739  0.4598076053621369
  0.1503563505654858  0.6714910613550229  0.8284746852212089
  0.1608778594187522  0.5066877562055683  0.5711823666201282
  0.2904114602037703  0.8662339050720945  0.3722594938022760
  0.4599236642789416  0.2167815675895660  0.9836051290327095
  0.8020052782659967  0.8727520459971874  0.6150583523648072
  0.2323759445770533  0.2931885835463579  0.2470234421219044
  0.6056267560028218  0.6970961358863689  0.1170355644042272
  0.3052334047331137  0.6383221408750525  0.9214467585538435
  0.4694099746954628  0.4691871152600693  0.7929365951946188
  0.2182752541968364  0.9083580084711755  0.1667326075555832
  0.3227543158291561  0.2800974999452255  0.6462318440455104
  0.4996080335108936  0.2244168757661965  0.3752781770243869
  0.6361406082475405  0.3966552189127261  0.3210001970463814
  0.9633886796230049  0.2172451698659329  0.7682235842465316
  0.7710198594877673  0.8576599013531059  0.7586574540450979
  0.5924771985514753  0.1758604298382850  0.0166399223226807
  0.5989432166469167  0.7074799472064095  0.4128155244467139
  0.3549316028214679  0.6236291196566415  0.4924793344925036
  0.2400961838686202  0.0914159237091436  0.7577033318406586
  0.7876538052434697  0.7125415623182307  0.8170198876065954
  0.6208076115060868  0.5739333571648237  0.7806192640657666
  0.7862389185158779  0.6886006033714492  0.9541127466602992
  0.5942452420939429  0.6065547918324573  0.9454159662690149
  0.5335809159154603  0.0072495030292848  0.1331307253548041
  0.2161121109886466  0.3797571812009587  0.7774593162961638
  0.6765179970968507  0.8631259522334292  0.4940922265752304
  0.6286688712406331  0.7633088158704739  0.6988494262910899
  0.6408676742365652  0.6623072093573170  0.5520039635134250
  0.4193058030647560  0.2746772541785372  0.2642657132251422
  0.6033722423871585 -0.0193743669792172  0.3347208142426753
  0.0047558167976641  0.2112645955825339  0.9087882696466317
  0.4822665431875127  0.6342350209130602  0.4258174119282372
  0.4176729255533911  0.4122101671929951  0.0541757626930600
  0.4258668928608583  0.1093062529169901  0.4083980005319749
  0.7002683500260454  0.1047264808568832  0.5755108317808955
  0.9663724269326202  0.2318355053474756  0.6207805407698955
  0.8793575937792374  0.4688288528977861  0.1385456170054494
  0.8990241317801152  0.3052237125250239  0.2824563419181288
  0.3607250715177993  0.1986697000991903  0.1010189903533274
  0.5225239981206168  0.0163056270638549  0.6166183779886680
  0.1102745750651416  0.1097927111795957  0.0387870512152198
  0.6064271257755551  0.7507218643161221  0.9885672236992974
  0.7373512971652358  0.5286258246807843  0.1978880736159103
  0.7847623371763256  0.9952369776423857  0.7735062518172122
  0.3507632771612679  0.9442873203611823  0.1892102958005021
  0.2909847115671594  0.6500106041656502  0.3369181835477829
  0.9050401498904790  0.5172817556551105  0.7639402485725787
  0.0810957484055124  0.3704620447193370  0.4257696624125047
  0.0994156217135625  0.2628834937253521  0.7734407935637143
  0.9329022832549914  0.9639353120625430  0.7998824555677504
  0.3273751331373035  0.2433305134623730  0.5131147903336578
  0.5471575629126232  0.8527303740017543  0.0648010841339225
  0.4601491971897874  0.6327124331699524  0.9080452001059984
  0.3091531159010626  0.1708167987915749  0.2465859850587041
  0.0748065392676326  0.4714511418174885  0.8568075674885924
  0.4536592041775585  0.4910572342109081  0.9296503034653407
  0.7908987337878804  0.3167275886769349  0.6833649964106775
  0.5697825756816273  0.5298346941562253  0.5072811188357302
  0.0544447104576495  0.3985036255828236  0.2153453025576089
  0.1834786299036284  0.5159927497304582  0.1898393959548614
  0.9188410876676493  0.8625902870197980  0.6978800194538555
  0.4498493148714097  0.9253569147734713  0.4621710310657566
  0.5446113094030260  0.1940520334304182  0.5185226380223906
  0.3016785603376739  0.9398651685030820  0.5896014912627445
  0.0001394484586209  0.9748160705164562  0.3582015386770077
  0.5239680297113795  0.3303211748372450  0.9347548353484082
  0.3253154897743977  0.3534948008839711  0.3332148731169540
  0.6952150360903280  0.4117393652115262  0.6383422231728852
  0.0461559257511601  0.8911800406841355  0.4583816435743475
  0.3542216200225491  0.3355123342746703  0.9411294150958447
  0.1965422315769190  0.8545910016913918  0.5454287017270915
  0.2985406050619875  0.9888192829995121  0.3060604461835807
  0.9620761299601631  0.4190322475500278  0.3402775731205016
  0.1583122396273700  0.4005006507185359  0.1175856752347635
  0.1739539535652994  0.5944603257014410  0.9535243799178564
  0.6570784658613723  0.5901718542117511  0.3653172982898119
  0.0100938959334214  0.9469382031653529  0.6315841073552498
  0.9049324727257992  0.5083343158837687  0.9142043682197636
  0.2056190678556022  0.3308927633684590  0.4744844175269803
  0.8813413223382084  0.8360036963733063  0.0437488259877782
  0.7164841735619418  0.3388587228672684  0.9367457996835289
  0.4471876684259267  0.5043138224626554  0.1586086537386004
  0.0788948787998561  0.2526087875453953  0.0239228303710022
  0.8667345572566379  0.1641469595476238  0.5287540836961159
  0.8981417171018087  0.5985525338109196  0.0785662948789934
  0.5907832847681207  0.4717207741720678  0.0856649451979930
  0.2767860313183106  0.8216978651283577  0.0767637687084144
  0.3861763085270453  0.0665013573377766  0.6109292371802217
  0.3582178282621079  0.5206777346557465  0.3367503675665940
  0.7984698380706572  0.2862880028183607  0.3735994100463003
  0.0584599445859670  0.6369177635495731  0.4997762286825280
  0.1585532005348352  0.7105165830570221  0.1389686820147619
  0.0562987253237011  0.5523541796792277  0.0354777849440293
  0.1548917742194123  0.0370363561565697  0.4667342175189376
  0.3263172479216447  0.6540816885324020  0.0542373035581249
  0.4377053975971081  0.2172933710831793  0.6909646186963450
  0.8681625255982689  0.1206834801352883  0.0230545154073298
  0.8342042618210127  0.1690502081665486  0.7190174876974064
  0.8300550271385064  0.4027336593062003  0.7955531435308536
  0.3212650408148106  0.9878311477167879  0.4632656716363516
  0.2651272301290743  0.2452466361492974  0.8019159418782328
  0.9389784667201503  0.1402431697045430  0.3294420296241921
  0.5242753445094120  0.4489835671573505  0.4083076780499684
  0.2068773480966633  0.9588396161052475  0.7361138074071135
  0.6768181576434600  0.1238896938307226  0.4405056305443583
  0.4662480169842459  0.8947987951827796  0.5964389349926086
  0.7897193870679097  0.0264935156787297  0.4606180552858600
  0.4657842110681358  0.7839320406511646  0.8972402902148221
  0.7239251457111109  0.5743174409832457  0.6920831935259930
  0.2298188554214173  0.6496664243837539  0.5572023509284668
  0.9815432754361250  0.3573604981482861  0.9129732269527853
  0.7005337554336603  0.6015154677604655  0.0780059235533133
  0.3517967960216039  0.7888160263487239  0.6481867562915736
  0.7306390535703918  0.1483322422201220  0.8937395643548086
  0.9662070727663177  0.3704812804676884  0.0984523090948938
  0.1784830251901745  0.9833489712130778  0.0538440947955046
  0.2676145759725706  0.7725974089930424  0.7845394365038266
  0.6030736242720585  0.5143097947672640  0.2247574671493993
  0.4668781200100193  0.9709612746636188  0.3110502492727242
  0.5379126619944952  0.3292979018580859  0.5509975570489122
  0.5504361687649834  0.1720176572033676  0.8188907853907719
  0.3043339612233903  0.0429961504481800  0.0556846984970399
  0.8177981775322603  0.2609062879981810  0.8905046650349269
  0.4354458588153575  0.7805012744777533  0.0295965652348431
  0.6251471810394865  0.4228219483612134  0.7777632686873349
  0.7850436418081300  0.9282176586805626  0.2219493367314445
  0.2002759068145435  0.1774805649057445  0.1220716020405765
  0.5357567115002274  0.4800338111788792  0.6301501481939538
  0.2480037044336276  0.1622279324008545  0.6158751363014476
  0.1219334633342519  0.9622359600208545  0.2919381850759411
  0.1763901470178812  0.0043544764948857  0.5964819599384312
  0.8442063819510235  0.8605971143741143  0.8839983335584688
  0.2776676907486177  0.7907177475045428  0.9175495687368082
  0.8083923423544203  0.2613633666155656  0.1039309566148264
  0.5746916567284170  0.7821493230216781  0.5628202355851670
  0.0365302583163161  0.7739514608049934  0.5641785005364325
  0.0427410153312549  0.4565148096569974  0.5283546781749460
  0.5992862089656814  0.4645051988842447  0.9441984710031301
  0.0893572667638191  0.3027984078121356  0.6376301079719662
  0.6797814934408887  0.2820091347730445  0.7688111099443928
  0.6552711029621853  0.9624167327053458  0.5908453820932019
  0.1147519369078835  0.9401149953755845  0.9026189008389575
  0.7919986664055211  0.9460205903968094  0.0813668056212260
  0.7322373458798068  0.7825548221664159  0.3269545235391254
  0.4901224704664879  0.2100117466918087  0.1552986768214109
  0.9429692032931422  0.6213109561121574  0.6533088358168326
  0.3747798544578849  0.9264368575784369  0.8996743877551149
  0.9794545362363249  0.7149842064541033  0.2092742752618092
 -0.0007242649277709  0.9080042562365076  0.9926418453097053
  0.2124818269908141  0.5128198429948099  0.4382037560760296
  0.7077571480926301  0.5240208830647702  0.4906526894837244
  0.7387390934717178  0.0999005818313276  0.2891333019035146
  0.2962904289602494  0.4754344712358316  0.0554939840838143
  0.7583973910827686  0.7222518402361103  0.6080356291566495
  0.1761967464665397  0.5218651689737897  0.7722509516626413
  0.5879699853338880  0.1536511306115940  0.6425042316694373
  0.0805120653749722  0.5435414778526655  0.4005122584833739
  0.0991431335536631  0.8332799483196460  0.7517080949384508
  0.7400465651340461  0.2477439248515794  0.5677789714178274
  0.0345294587337710  0.4152455372321911  0.7378417418100427
  0.6478171819750105  0.3122404378186535  0.4329378856628367
  0.2900387225697810  0.1568651661606352  0.3830615092207282
  0.4587614695270934  0.0874454566025693  0.2394714519676062
  0.9278744068330826  0.7481979479295942  0.8294630908596455
  0.6442653417936267  0.0009483557801678  0.7731737141007021
  0.5632106000488686  0.6464707013004927  0.6689129811380155
  0.3819914725920288  0.7714118907650033  0.5166247835583734
  0.7517440007106128  0.9192634791091726  0.3792172960901129
  0.3334876352015204  0.4703077134868234  0.7753578111529534
  0.9035124969281882  0.3693688534197237  0.6077864909141353
  0.7268941004294821  0.5201740553238254  0.8716701331403786
  0.0842729837652013  0.7476706814665314  0.9286158605401852
  0.8758968234713087  0.5321223083705369  0.4769853909190681
 -0.0210024899172141  0.1008148301044310  0.4840181669155918
  0.7032955379622047  0.2776513212029313  0.2647928168256902
  0.6308620163751419  0.9847677021031812  0.0245621425857135
  0.1091767908443993  0.7282561212161388  0.4113842888646996
  0.7793579092895826 -0.0238948067365289  0.9272776752841271
  0.8826773687504326  0.0193419155192155  0.2381023180470793
  0.5051413677237832  0.3812976571423157  0.2491983328911244
  0.3473980958578161  0.4814272190777039  0.4873652962147279
  0.6467121602107498  0.7105307886020414  0.8317170509269904
  0.7688904535323516  0.4568063136811976  0.3202080895832734
  0.8649047947388137  0.1848036762335258  0.2155479481279589
  0.0989222283065514  0.8206417508180279  0.2840815229886741
  0.3165217370350016  0.6319004931451875  0.1999997888327688
  0.7976208917463118  0.4217606996416119  0.0359290604750535
 -0.0887512574321330 -0.0295066565606467  0.4862204584314326
  0.6269212960581210  0.9142290552273751  0.2139450785074045
  0.9970837312905222  0.2731393208073577  0.4810109490336587
  0.0299981877198991  0.0807003548176883  0.1565007642921650
  0.4627489182286832  0.6610068388900248  0.2280222299787021
  0.5991320027878435  0.6846654297919851  0.2747395349611832
  0.1640050264050356  0.4253903498522405  0.3023150457779022
  0.7264498716741667  0.0743736942149868  0.1335840324070421
  0.3559809772514604  0.9537348949456024  0.7430586757450468
  0.4119278085889962  0.6071719434912802  0.6164361802732684
  0.9875232107714509  0.8988257498012190  0.1882096443318983
  0.1079584739131842  0.6361545256865258  0.3047416208586917
  0.5978751590714898  0.1176098491493555  0.2816014808086099
  0.0101491787532625  0.0691325142028476  0.9182869974202540
  0.3429150458574581  0.3263549098456937  0.1489314163534775
  0.0501806600359825  0.5462891248828573  0.2028841330755844
  0.9186165961843467  0.5509469135320374  0.3460456478762740
  0.8152667290824240  0.0118239455395477  0.6356000344242093
  0.4490183740178614  0.0666731904658557  0.0362412684745958
  0.5029880539849053  0.6096569432552076  0.0514276110874631
  0.5302461765522524  0.8355699440195133  0.7602994681889108
  0.6477908767070637  0.2891302365366613  0.1247058152957186
  0.5427350948019668  0.9156529073337015  0.9370041179307992
  0.3124464520431203  0.4967836523892904  0.9156031994683449
  0.1035984669207342  0.1256692183528606  0.7505946925086519
  0.2550763591910135  0.7866388094999759  0.2647880854822981
  0.1773448358735560  0.3955708067323448  0.9133438170366626
  0.4335263184990064  0.6497594020769416  0.7719043280384348
  0.5334021897116921  0.0360662698582763  0.4713733812591845
  0.1796063936472861  0.1237973048982329  0.9153393038661625
  0.2218214820669800  0.3916603282901923  0.6261763753090668
  0.5303223790083108  0.8168535607982630  0.2017029826274081
  0.2591371496490583  0.2696593457857099  0.0057186127141317
  0.4235583623550150  0.3173803613670415  0.4436642525633015
  0.4232840400870467  0.8226998850925964  0.3302715662409019
  0.5726213150941599  0.8585589980325178  0.4057998181175726
  0.7129912204805500  0.7922734706745352  0.1346910032475889
  0.0261901746438833  0.6117563420513573  0.8100009391380677
  0.9296493372904717  0.6964589479012748  0.3685569464426384
  0.3248195465081700  0.4889577608000509  0.6238054577948645
  0.6016412851996558  0.0803001288996084  0.9161880096378306
  0.7882864498649742  0.6519586906226573  0.2409429432090619
  0.1358694684265792  0.6786771861478883  0.6855124545416645
  0.1215974107352186  0.1058349654064497  0.2779973182190995
  0.0696047177573100  0.2553907341798218  0.2208536717943645
  0.1086655565608288  0.1759154948730225  0.3996906591093044
  0.8632995336963462  0.5119362069487160  0.6261989521553900
  0.4907962901348507  0.0028377424235125  0.7614530653519916
  0.2733107507511921  0.0190383049775871  0.8818076418409407
 
  0.00000000E+00  0.00000000E+00  0.00000000E+00
  0.00000000E+00  0.00000000E+00  0.00000000E+00
  0.00000000E+00  0.00000000E+00  0.00000000E+00
  0.00000000E+00  0.00000000E+00  0.00000000E+00
  0.00000000E+00  0.00000000E+00  0.00000000E+00
  0.00000000E+00  0.00000000E+00  0.00000000E+00
  0.00000000E+00  0.00000000E+00  0.00000000E+00
  0.00000000E+00  0.00000000E+00  0.00000000E+00
  0.00000000E+00  0.00000000E+00  0.00000000E+00
  0.00000000E+00  0.00000000E+00  0.00000000E+00
  0.00000000E+00  0.00000000E+00  0.00000000E+00
  0.00000000E+00  0.00000000E+00  0.00000000E+00
  0.00000000E+00  0.00000000E+00  0.00000000E+00
  0.00000000E+00  0.00000000E+00  0.00000000E+00
  0.00000000E+00  0.00000000E+00  0.00000000E+00
  0.00000000E+00  0.00000000E+00  0.00000000E+00
  0.00000000E+00  0.00000000E+00  0.00000000E+00
  0.00000000E+00  0.00000000E+00  0.00000000E+00
  0.00000000E+00  0.00000000E+00  0.00000000E+00
  0.00000000E+00  0.00000000E+00  0.00000000E+00
  0.00000000E+00  0.00000000E+00  0.00000000E+00
  0.00000000E+00  0.00000000E+00  0.00000000E+00
  0.00000000E+00  0.00000000E+00  0.00000000E+00
  0.00000000E+00  0.00000000E+00  0.00000000E+00
  0.00000000E+00  0.00000000E+00  0.00000000E+00
  0.00000000E+00  0.00000000E+00  0.00000000E+00
  0.00000000E+00  0.00000000E+00  0.00000000E+00
  0.00000000E+00  0.00000000E+00  0.00000000E+00
  0.00000000E+00  0.00000000E+00  0.00000000E+00
  0.00000000E+00  0.00000000E+00  0.00000000E+00
  0.00000000E+00  0.00000000E+00  0.00000000E+00
  0.00000000E+00  0.00000000E+00  0.00000000E+00
  0.00000000E+00  0.00000000E+00  0.00000000E+00
  0.00000000E+00  0.00000000E+00  0.00000000E+00
  0.00000000E+00  0.00000000E+00  0.00000000E+00
  0.00000000E+00  0.00000000E+00  0.00000000E+00
  0.00000000E+00  0.00000000E+00  0.00000000E+00
  0.00000000E+00  0.00000000E+00  0.00000000E+00
  0.00000000E+00  0.00000000E+00  0.00000000E+00
  0.00000000E+00  0.00000000E+00  0.00000000E+00
  0.00000000E+00  0.00000000E+00  0.00000000E+00
  0.00000000E+00  0.00000000E+00  0.00000000E+00
  0.00000000E+00  0.00000000E+00  0.00000000E+00
  0.00000000E+00  0.00000000E+00  0.00000000E+00
  0.00000000E+00  0.00000000E+00  0.00000000E+00
  0.00000000E+00  0.00000000E+00  0.00000000E+00
  0.00000000E+00  0.00000000E+00  0.00000000E+00
  0.00000000E+00  0.00000000E+00  0.00000000E+00
  0.00000000E+00  0.00000000E+00  0.00000000E+00
  0.00000000E+00  0.00000000E+00  0.00000000E+00
  0.00000000E+00  0.00000000E+00  0.00000000E+00
  0.00000000E+00  0.00000000E+00  0.00000000E+00
  0.00000000E+00  0.00000000E+00  0.00000000E+00
  0.00000000E+00  0.00000000E+00  0.00000000E+00
  0.00000000E+00  0.00000000E+00  0.00000000E+00
  0.00000000E+00  0.00000000E+00  0.00000000E+00
  0.00000000E+00  0.00000000E+00  0.00000000E+00
  0.00000000E+00  0.00000000E+00  0.00000000E+00
  0.00000000E+00  0.00000000E+00  0.00000000E+00
  0.00000000E+00  0.00000000E+00  0.00000000E+00
  0.00000000E+00  0.00000000E+00  0.00000000E+00
  0.00000000E+00  0.00000000E+00  0.00000000E+00
  0.00000000E+00  0.00000000E+00  0.00000000E+00
  0.00000000E+00  0.00000000E+00  0.00000000E+00
  0.00000000E+00  0.00000000E+00  0.00000000E+00
  0.00000000E+00  0.00000000E+00  0.00000000E+00
  0.00000000E+00  0.00000000E+00  0.00000000E+00
  0.00000000E+00  0.00000000E+00  0.00000000E+00
  0.00000000E+00  0.00000000E+00  0.00000000E+00
  0.00000000E+00  0.00000000E+00  0.00000000E+00
  0.00000000E+00  0.00000000E+00  0.00000000E+00
  0.00000000E+00  0.00000000E+00  0.00000000E+00
  0.00000000E+00  0.00000000E+00  0.00000000E+00
  0.00000000E+00  0.00000000E+00  0.00000000E+00
  0.00000000E+00  0.00000000E+00  0.00000000E+00
  0.00000000E+00  0.00000000E+00  0.00000000E+00
  0.00000000E+00  0.00000000E+00  0.00000000E+00
  0.00000000E+00  0.00000000E+00  0.00000000E+00
  0.00000000E+00  0.00000000E+00  0.00000000E+00
  0.00000000E+00  0.00000000E+00  0.00000000E+00
  0.00000000E+00  0.00000000E+00  0.00000000E+00
  0.00000000E+00  0.00000000E+00  0.00000000E+00
  0.00000000E+00  0.00000000E+00  0.00000000E+00
  0.00000000E+00  0.00000000E+00  0.00000000E+00
  0.00000000E+00  0.00000000E+00  0.00000000E+00
  0.00000000E+00  0.00000000E+00  0.00000000E+00
  0.00000000E+00  0.00000000E+00  0.00000000E+00
  0.00000000E+00  0.00000000E+00  0.00000000E+00
  0.00000000E+00  0.00000000E+00  0.00000000E+00
  0.00000000E+00  0.00000000E+00  0.00000000E+00
  0.00000000E+00  0.00000000E+00  0.00000000E+00
  0.00000000E+00  0.00000000E+00  0.00000000E+00
  0.00000000E+00  0.00000000E+00  0.00000000E+00
  0.00000000E+00  0.00000000E+00  0.00000000E+00
  0.00000000E+00  0.00000000E+00  0.00000000E+00
  0.00000000E+00  0.00000000E+00  0.00000000E+00
  0.00000000E+00  0.00000000E+00  0.00000000E+00
  0.00000000E+00  0.00000000E+00  0.00000000E+00
  0.00000000E+00  0.00000000E+00  0.00000000E+00
  0.00000000E+00  0.00000000E+00  0.00000000E+00
  0.00000000E+00  0.00000000E+00  0.00000000E+00
  0.00000000E+00  0.00000000E+00  0.00000000E+00
  0.00000000E+00  0.00000000E+00  0.00000000E+00
  0.00000000E+00  0.00000000E+00  0.00000000E+00
  0.00000000E+00  0.00000000E+00  0.00000000E+00
  0.00000000E+00  0.00000000E+00  0.00000000E+00
  0.00000000E+00  0.00000000E+00  0.00000000E+00
  0.00000000E+00  0.00000000E+00  0.00000000E+00
  0.00000000E+00  0.00000000E+00  0.00000000E+00
  0.00000000E+00  0.00000000E+00  0.00000000E+00
  0.00000000E+00  0.00000000E+00  0.00000000E+00
  0.00000000E+00  0.00000000E+00  0.00000000E+00
  0.00000000E+00  0.00000000E+00  0.00000000E+00
  0.00000000E+00  0.00000000E+00  0.00000000E+00
  0.00000000E+00  0.00000000E+00  0.00000000E+00
  0.00000000E+00  0.00000000E+00  0.00000000E+00
  0.00000000E+00  0.00000000E+00  0.00000000E+00
  0.00000000E+00  0.00000000E+00  0.00000000E+00
  0.00000000E+00  0.00000000E+00  0.00000000E+00
  0.00000000E+00  0.00000000E+00  0.00000000E+00
  0.00000000E+00  0.00000000E+00  0.00000000E+00
  0.00000000E+00  0.00000000E+00  0.00000000E+00
  0.00000000E+00  0.00000000E+00  0.00000000E+00
  0.00000000E+00  0.00000000E+00  0.00000000E+00
  0.00000000E+00  0.00000000E+00  0.00000000E+00
  0.00000000E+00  0.00000000E+00  0.00000000E+00
  0.00000000E+00  0.00000000E+00  0.00000000E+00
  0.00000000E+00  0.00000000E+00  0.00000000E+00
  0.00000000E+00  0.00000000E+00  0.00000000E+00
  0.00000000E+00  0.00000000E+00  0.00000000E+00
  0.00000000E+00  0.00000000E+00  0.00000000E+00
  0.00000000E+00  0.00000000E+00  0.00000000E+00
  0.00000000E+00  0.00000000E+00  0.00000000E+00
  0.00000000E+00  0.00000000E+00  0.00000000E+00
  0.00000000E+00  0.00000000E+00  0.00000000E+00
  0.00000000E+00  0.00000000E+00  0.00000000E+00
  0.00000000E+00  0.00000000E+00  0.00000000E+00
  0.00000000E+00  0.00000000E+00  0.00000000E+00
  0.00000000E+00  0.00000000E+00  0.00000000E+00
  0.00000000E+00  0.00000000E+00  0.00000000E+00
  0.00000000E+00  0.00000000E+00  0.00000000E+00
  0.00000000E+00  0.00000000E+00  0.00000000E+00
  0.00000000E+00  0.00000000E+00  0.00000000E+00
  0.00000000E+00  0.00000000E+00  0.00000000E+00
  0.00000000E+00  0.00000000E+00  0.00000000E+00
  0.00000000E+00  0.00000000E+00  0.00000000E+00
  0.00000000E+00  0.00000000E+00  0.00000000E+00
  0.00000000E+00  0.00000000E+00  0.00000000E+00
  0.00000000E+00  0.00000000E+00  0.00000000E+00
  0.00000000E+00  0.00000000E+00  0.00000000E+00
  0.00000000E+00  0.00000000E+00  0.00000000E+00
  0.00000000E+00  0.00000000E+00  0.00000000E+00
  0.00000000E+00  0.00000000E+00  0.00000000E+00
  0.00000000E+00  0.00000000E+00  0.00000000E+00
  0.00000000E+00  0.00000000E+00  0.00000000E+00
  0.00000000E+00  0.00000000E+00  0.00000000E+00
  0.00000000E+00  0.00000000E+00  0.00000000E+00
  0.00000000E+00  0.00000000E+00  0.00000000E+00
  0.00000000E+00  0.00000000E+00  0.00000000E+00
  0.00000000E+00  0.00000000E+00  0.00000000E+00
  0.00000000E+00  0.00000000E+00  0.00000000E+00
  0.00000000E+00  0.00000000E+00  0.00000000E+00
  0.00000000E+00  0.00000000E+00  0.00000000E+00
  0.00000000E+00  0.00000000E+00  0.00000000E+00
  0.00000000E+00  0.00000000E+00  0.00000000E+00
  0.00000000E+00  0.00000000E+00  0.00000000E+00
  0.00000000E+00  0.00000000E+00  0.00000000E+00
  0.00000000E+00  0.00000000E+00  0.00000000E+00
  0.00000000E+00  0.00000000E+00  0.00000000E+00
  0.00000000E+00  0.00000000E+00  0.00000000E+00
  0.00000000E+00  0.00000000E+00  0.00000000E+00
  0.00000000E+00  0.00000000E+00  0.00000000E+00
  0.00000000E+00  0.00000000E+00  0.00000000E+00
  0.00000000E+00  0.00000000E+00  0.00000000E+00
  0.00000000E+00  0.00000000E+00  0.00000000E+00
  0.00000000E+00  0.00000000E+00  0.00000000E+00
  0.00000000E+00  0.00000000E+00  0.00000000E+00
  0.00000000E+00  0.00000000E+00  0.00000000E+00
  0.00000000E+00  0.00000000E+00  0.00000000E+00
  0.00000000E+00  0.00000000E+00  0.00000000E+00
  0.00000000E+00  0.00000000E+00  0.00000000E+00
  0.00000000E+00  0.00000000E+00  0.00000000E+00
  0.00000000E+00  0.00000000E+00  0.00000000E+00
  0.00000000E+00  0.00000000E+00  0.00000000E+00
  0.00000000E+00  0.00000000E+00  0.00000000E+00
  0.00000000E+00  0.00000000E+00  0.00000000E+00
  0.00000000E+00  0.00000000E+00  0.00000000E+00
  0.00000000E+00  0.00000000E+00  0.00000000E+00
  0.00000000E+00  0.00000000E+00  0.00000000E+00
  0.00000000E+00  0.00000000E+00  0.00000000E+00
  0.00000000E+00  0.00000000E+00  0.00000000E+00
  0.00000000E+00  0.00000000E+00  0.00000000E+00
  0.00000000E+00  0.00000000E+00  0.00000000E+00
  0.00000000E+00  0.00000000E+00  0.00000000E+00
  0.00000000E+00  0.00000000E+00  0.00000000E+00
  0.00000000E+00  0.00000000E+00  0.00000000E+00
  0.00000000E+00  0.00000000E+00  0.00000000E+00
  0.00000000E+00  0.00000000E+00  0.00000000E+00
  0.00000000E+00  0.00000000E+00  0.00000000E+00
  0.00000000E+00  0.00000000E+00  0.00000000E+00
  0.00000000E+00  0.00000000E+00  0.00000000E+00
  0.00000000E+00  0.00000000E+00  0.00000000E+00
  0.00000000E+00  0.00000000E+00  0.00000000E+00
  0.00000000E+00  0.00000000E+00  0.00000000E+00
  0.00000000E+00  0.00000000E+00  0.00000000E+00
  0.00000000E+00  0.00000000E+00  0.00000000E+00
  0.00000000E+00  0.00000000E+00  0.00000000E+00
  0.00000000E+00  0.00000000E+00  0.00000000E+00
  0.00000000E+00  0.00000000E+00  0.00000000E+00
  0.00000000E+00  0.00000000E+00  0.00000000E+00
  0.00000000E+00  0.00000000E+00  0.00000000E+00
  0.00000000E+00  0.00000000E+00  0.00000000E+00
  0.00000000E+00  0.00000000E+00  0.00000000E+00
  0.00000000E+00  0.00000000E+00  0.00000000E+00
  0.00000000E+00  0.00000000E+00  0.00000000E+00
  0.00000000E+00  0.00000000E+00  0.00000000E+00
  0.00000000E+00  0.00000000E+00  0.00000000E+00
  0.00000000E+00  0.00000000E+00  0.00000000E+00
  0.00000000E+00  0.00000000E+00  0.00000000E+00
  0.00000000E+00  0.00000000E+00  0.00000000E+00
  0.00000000E+00  0.00000000E+00  0.00000000E+00
  0.00000000E+00  0.00000000E+00  0.00000000E+00
  0.00000000E+00  0.00000000E+00  0.00000000E+00
  0.00000000E+00  0.00000000E+00  0.00000000E+00
  0.00000000E+00  0.00000000E+00  0.00000000E+00
  0.00000000E+00  0.00000000E+00  0.00000000E+00
  0.00000000E+00  0.00000000E+00  0.00000000E+00
  0.00000000E+00  0.00000000E+00  0.00000000E+00
  0.00000000E+00  0.00000000E+00  0.00000000E+00
  0.00000000E+00  0.00000000E+00  0.00000000E+00
  0.00000000E+00  0.00000000E+00  0.00000000E+00