Amorphous Sb                            
   1.00000000000000     
    20.3978869700586891    0.0000000000000000    0.0000000000000000
     0.0000000000000000   20.3978869700586891    0.0000000000000000
     0.0000000000000000    0.0000000000000000   20.3978697005868987
   Ge   Se   Te   Si
   105   105    45    45
Direct
  0.6079245666238474  0.5207762436809964  0.8106047176140565
  0.1193380866462339  0.4510092456558019  0.7732991175870128
  0.2554283847331577  0.2686771056274841  0.1073750826447657
  0.8840486890806802  0.1845738285550281  0.8513163316688618
  0.7207539507346645  0.2084522243793371  0.3305060168242616
  0.4696621942193184  0.8104234033042615  0.0145960330111027
  0.1909609655151363  0.0237601266706680  0.8950782758190344
  0.5199038483973226  0.2321218651476081  0.7414724844475518
  0.0087169433777661  0.8788661141587431  0.8229315084002361
  0.2348815762463562  0.9169145215538943  0.4575253474465631
  0.8376885871610140  0.9427570636306388  0.3110359901461070
 -0.0002554409805840  0.3816075676190329  0.4078793633905703
  0.7902105907215080  0.0543018631857800  0.8899619950185307
  0.3487849546207588  0.5331557311498536  0.7389409890480529
  0.3863311427279392  0.0388495449453059  0.9395678648453216
  0.0285155872805392  0.1690527536010235  0.8240787698881678
  0.7785808341592437  0.9117825533493170  0.0434130137765465
  0.8886202753716381  0.5023554110423555  0.8019961244423117
  0.1202947029643414  0.7398316976630762  0.4861439052726371
  0.3355260628026304  0.1187526496063546  0.8371374472756310
  0.6816327770396770  0.4722658334680713  0.3325314021073368
  0.9860725765397091  0.1810239694532581  0.0164457759197042
  0.1496574763886138  0.1279786011125833  0.8351455316701022
  0.1066094959315338  0.5326032663579869  0.4879422711647490
  0.8001710576752979  0.1192272281517766  0.2684971308675977
  0.6262540169594970  0.3495795133273124  0.2922610385751159
  0.7394367096791022  0.6610657619316032  0.2776947002084099
  0.9275927496050533  0.0358150301700691  0.9768407981242632
  0.7980975464456651  0.0416480130349837  0.0776690314526453
  0.3470991974682725  0.0344565182214278  0.3706536799310880
  0.1190783960023075  0.3297716938237621  0.2869953854380802
  0.1366124641715964  0.1490434035222946  0.0586947230528204
  0.2071024799962265  0.4552309827355989  0.4041917432162886
  0.1569621278480503  0.7195805329387874  0.0140646820812834
  0.9278086371933514  0.2250442295113123  0.5186846799062226
  0.1287125538327239  0.0536881608372934  0.3978987042672067
  0.4602441420426474  0.6455360595808326  0.9499651653534358
  0.6685855429474339  0.9568086777619929  0.4148798823580833
  0.2355943108208643  0.2371282025078921  0.7688696002565494
  0.3353158490050550  0.3461035742380675  0.1611132347224418
  0.7159475734223347  0.5057027831392441  0.4520843406764202
  0.7032840925685604  0.0242616724597285  0.5254324798835733
  0.6496344510828282  0.8312061058299348  0.3679484804523497
  0.5526959677051857  0.8900951778332835  0.9440935669444841
  0.8280777626442020  0.6710582038225769  0.9704277418701246
  0.4435325695923133  0.7222875685168002  0.4790839786729452
  0.0338410635430964  0.6882194642508566  0.0583369379903465
  0.0931452752883842  0.5734534093166841  0.6058296126037525
  0.1359472076314992  0.8156203526606268  0.9344781263422266
  0.6009658403145434  0.1684278918940927  0.9472872287111417
  0.3855586937445589  0.3014777401471218  0.8679508057906318
  0.0047866993368984  0.5810820093923219  0.3228189431627336
  0.8814923362715578  0.3515603396891318  0.3750726770720994
  0.0290635261732994  0.1721537514538886  0.2238749539800386
  0.1570875367590683  0.4523881175590125  0.9476699247372562
  0.0812238398449241  0.7347281139717503  0.7341168223248068
  0.9425777330082435  0.4123837882568483  0.5162065173677131
  0.2928987180180264  0.5973290319520896  0.5002704884781752
  0.3607748520293187  0.5772485812708223  0.2560031097652181
  0.5896709958633025  0.4516328975937423  0.4576196226904056
  0.2979647105157486  0.1452448756875072  0.1083709566814659
  0.4679173467616017  0.1214893621652454  0.8580352368327947
  0.9471021909376905  0.6736289326202479  0.6682268072611954
  0.8043584079907452  0.9308668153528634  0.1873809119789616
  0.7425700706906017  0.4798826744742865  0.0583189957411572
  0.2102099808248768  0.2037938351501832  0.2416358826189637
  0.0520478346311575  0.2479566662162558  0.6788463771428598
  0.9225357927015985  0.0799422531293480  0.2424465644358400
  0.0274702689086278  0.5174464873989072  0.6947666633951457
  0.4270323182887251  0.8193614148896636  0.5634723062856112
  0.2445749595094305  0.1886245339968081  0.8967120074976211
  0.4302798996986935  0.9349422175925062  0.1262272472662499
  0.4557419321698032  0.9606794290665106  0.4445138571489288
  0.3922007002032797  0.2373740332470902  0.3646092239072735
  0.3014081992495931  0.9925409146391831  0.8447420482412883
  0.0707561345302022  0.9614469305629096  0.2963604463234938
  0.3149157512242666  0.2228871773212891  0.6741822557125035
  0.4606421674643931  0.1097298846485028  0.0972300942438453
  0.3214061638134659  0.4047790675652184  0.7324822486654733
  0.7022761684638268  0.2782955759523518  0.1612681110878998
  0.4828937166568071  0.3072918329425766  0.0364099442247621
  0.8407413187607882  0.6844776709790006  0.4387811225229463
  0.6250050386000759  0.1423302056876333  0.6016673738961240
  0.7469730806288054  0.4439755828314292  0.9353422568544979
  0.5906299358627612  0.9280336003420758  0.6210376464743841
  0.6294486054887121  0.7821810035755928  0.1643496892261881
  0.7571136367737821  0.2292125889051440  0.8686202979647492
  0.6305941926398931  0.3156757398491440  0.6729896418016739
  0.7202394221002361  0.2655721028830781  0.4620411431913359
  0.5366778766230923  0.6419178619898261  0.4595821765251273
  0.6036100821665510  0.9771473407670321  0.1172926572109369
  0.1514492439617133  0.9643853757988962  0.5519326766732545
  0.1276082500032590  0.6044429683560518  0.8589123434645840
  0.6875066004833802  0.9221881870484179  0.7086328564225065
  0.9976028496901834  0.8688935862423103  0.5906821679276064
  0.8130691694846223  0.4121790816844481  0.5637217283912037
  0.5058691692325357  0.9419682746532222  0.3265326826187765
  0.2115351874932812  0.8777495944005057  0.1067693249891154
  0.3822716530119307  0.0220259797751197  0.6503206142113528
  0.7104966267188048  0.6428504859481647  0.7270683408429799
  0.5416224778827606  0.6851548786416300  0.1348687058598074
  0.7465257867341953  0.3550518313351517  0.8431320963279721
  0.3470077271495677  0.8995606624446720  0.9246367721852340
  0.7019392797020854  0.4908878692749994  0.5803895830598672
  0.8137006107226957  0.8815022496249770  0.5218734036828461
  0.8706605016780273  0.4703283797879280  0.9250166084066831
  0.5038879808375095  0.9387148955944790  0.7017101527881580
  0.0869401485485965  0.7887321249411738  0.1317353935423009
  0.6800340771112161  0.1415302743259994  0.4889742563715168
  0.7487549253247513  0.9334283197172420  0.9134354568749988
  0.7952392647634857  0.8860905383473349  0.6565623137947072
  0.3546834214053057  0.0402894725489517  0.2451884887227774
  0.6089548915184319  0.0210136046724113  0.8317284945630726
  0.5916682602677257  0.0229014357186391  0.3494013533468550
  0.5955749789526379  0.6029476418439447  0.5594713288041194
  0.8497108925965262  0.2409403462777244  0.4237967557556707
  0.2498783972770184  0.8562330310878977  0.2241634941678432
  0.8227917271631480  0.4006079400131678  0.7541080000560535
  0.3678798901271543  0.2651198114935213  0.9905420833374231
  0.9613588860881408  0.4679216726107581  0.3033092217766388
  0.8997331861217358  0.9996742248835925  0.1502518993429997
  0.4759976646682326  0.1543688155752264  0.4062900393217235
  0.3416247793440891  0.4465914837643274  0.6090715667763201
  0.9068451419297782  0.3052092526126630  0.8798951902567652
  0.4372200331673219  0.5784024317338043  0.5695765538359635
  0.6437018704048273  0.3736293344611215  0.7792449057681322
  0.5478432346673280  0.7153460840901485  0.0129026697469489
  0.7163472121831551  0.6263047395987108  0.9687291873692881
  0.4655354058693667  0.4904515638149014  0.7325907355968011
  0.3056061244797948  0.7450386050845148  0.6282805063756285
  0.8697893997761158  0.5548585780761316  0.0936217468986903
  0.5653557793969350  0.5382978493980252  0.9998989181884149
  0.2229874947469337  0.3485484726053761  0.9172750048774043
  0.9091451979189834  0.6476169605470706  0.2810031046549861
  0.1551668336135718  0.8340341758407311  0.5750110109862857
  0.9656573690924506  0.8679987279713089  0.0273210120501235
  0.3641696777953475  0.0887323699129882  0.5345452509899878
  0.1121582261626143  0.2083572487177699  0.3202410585227656
  0.4755457754174839  0.7641394848284546  0.3675304326991793
  0.0493301258053809  0.7691356716167619  0.8672313105379873
  0.0036669448301663  0.5998026051433220  0.4559934153126723
  0.4204456119172167  0.4678713728162471  0.0308772606852227
  0.5823332882690991  0.0324361007378940  0.5580435829254771
  0.9922029703619840  0.3536953905777347  0.7107203645450800
  0.1661999195060259  0.1000415150871940  0.5157880616379117
  0.5035419304956538  0.9797170290660179  0.0426600197161165
  0.8460847043183769  0.7766433915401669  0.9153454269724697
  0.6364049652208035  0.7119510343975108  0.8563762194906164
  0.4967024650656344  0.2477141636282193  0.8672435061891249
  0.0043897615779535  0.5683723028814417  0.9828092033283856
  0.6053744333208109  0.3780130583644443  0.9589790784050348
  0.7738138080075170  0.0191052951533722  0.3749882820062446
  0.7801422185656319  0.3953761725631452  0.4454533356375391
  0.0644927501558552  0.6903445123116924  0.6123717884433975
  0.9482193965136104  0.9946881628939950  0.3297052583235824
  0.3449662676157740  0.6759718307751378  0.4292349034771671
  0.6089995216578187  0.6672551989415751  0.2867013875062556
  0.3559307685341208  0.8504593146976753  0.7566356635335858
  0.5444389201566450  0.1988623333220266  0.0596293321008292
  0.0313285041737993  0.2659610547029062  0.4691978106239802
  0.5150725207029883  0.2048978877234914  0.5846721228353737
  0.7163223960883680  0.6807356993849359  0.4471805975144414
  0.0521759601520057  0.4143826148094159  0.5731377341051065
  0.9149343104385296  0.9418389939458601  0.5328406174958573
  0.8529849811672234  0.7189413758106856  0.0780982223779365
  0.4813919269657158  0.1177766170545494  0.7354770036270667
  0.9963697002821950  0.2513569325140748  0.1127165700568716
  0.0763003975209022  0.9564284223095049  0.4514279492114697
  0.7782390960488569  0.5038176858174992  0.2642274976730729
  0.3696332776551267  0.5886105017155486  0.8465350115087962
  0.4555239083100206  0.9468417247816978  0.8802463972324794
  0.2249200612199483  0.0920086270875736  0.9940795973760413
  0.5364209404756246  0.0702666816288528  0.1906904567529692
  0.7500610611298885  0.3168420440746409  0.2719771817082229
  0.1510806277046543  0.2892465038513582  0.1671097273653991
  0.0543141648438190  0.6045708605773464  0.1469617087464280
  0.3261227673811330  0.4943389762281708  0.4340244505070622
  0.5803550900750843  0.4182593090854436  0.1520810071423177
  0.0427980649577616  0.9726561940530160  0.6490534615722171
  0.4142592364311335  0.7523467066311131  0.8970300502884464
  0.2574919382895287  0.7571716879047788  0.0798559624970349
  0.7041109049011747  0.2308577393898771  0.9762011206652548
  0.2314936957146946  0.9859020962692701  0.3556708797067563
  0.2248068033436275  0.8259879998457563  0.8559632521584442
  0.4222916097063683  0.4179318020134649  0.3089607616591387
  0.1715217505925791  0.6820584173417003  0.2423263137810126
  0.2259682625243684  0.6540125724811627  0.9372488514004916
  0.9134243691624416  0.0957819984035155  0.6270338804424884
  0.7477862881887610  0.7690587146112094  0.2072415744481476
  0.0675820788945913  0.9557878637547914  0.1695351479435545
  0.9211485022811535  0.5510234404284027  0.6263146822178842
  0.2463675287413551  0.4993963605575068  0.1140894783449762
  0.2788293799362443  0.9510333746844549  0.6275621031989188
  0.1919154396954128  0.3185779656801253  0.5293641723374338
  0.7648234324768640  0.5966066112117929  0.6130540417832741
  0.1977487606515273  0.1022485942014254  0.1686719896893688
  0.6695576938858309  0.1879837376468409  0.7932670632749566
  0.0043266698576198  0.6132456541758763  0.7675480204386407
  0.9516410469919568  0.2561607014626716  0.2750898185683274
  0.8412201965820231  0.5592435160043046  0.4519277343893634
  0.8591671581801096  0.2287773173077254  0.7175879514377976
  0.2050292091181333  0.5067536403509887  0.8443106739689203
  0.7900332795091591  0.3700018900788993  0.0938651074291773
  0.1818225123332528  0.6285003966046130  0.4568900628093725
  0.6749685341787567  0.7554471149261905  0.6151138933636008
  0.1867083610212095  0.6600936691904590  0.7624636158116391
  0.7864985994806223  0.5768639599128766  0.8087785874683482
  0.0259173298181064  0.0755269789939853  0.0541651914035709
  0.8780454772564804  0.1524462388811359  0.9790008558250980
  0.8051749516593010  0.7211617218606164  0.7405413297107144
  0.0079847027684841  0.7750220509346120  0.3929588004444934
  0.6581134967932841  0.0596711859781810  0.0193929784446053
  0.9921425709795705  0.0399197648410271  0.8557212333467454
  0.8101679033082985  0.1913471912792706  0.1473612187662254
  0.4538539452142303  0.2998676584340020  0.1714633181741285
  0.3755052805125454  0.2875754063921376  0.4990391159074463
  0.3967492917427497  0.1768181414743429  0.2103278257690018
  0.6138443939201551  0.2112366644887275  0.2521447299482971
  0.9932716212197874  0.4169234585630015  0.1144192740884067
  0.9547943781186549  0.0992032098197075  0.5072273773450771
  0.1984711683784808  0.8057308651114751  0.3895952909732810
  0.4117663259942853  0.3076508049313185  0.6913906445766034
  0.1999602794548906  0.5203611878312636  0.6504212358813865
  0.3559829374683355  0.7064775694931782  0.2499589920894728
  0.3210203343922191  0.9596500518122092  0.0595772066339018
  0.8443073942245226  0.8274221942151895  0.3739997393606558
  0.5452223570504228  0.8669757529302776  0.5093912959903568
  0.8678318842852627  0.7537845946359121  0.5564507939088994
  0.6446308439322002  0.5951976005561816  0.1347104053585025
  0.1665620070080903  0.5117365195662139  0.2895144121904538
  0.6139799152458196  0.8336991543173484  0.8217858203379638
  0.9178497022150638  0.8228108834398925  0.2117735222444295
  0.6049587114853194  0.8791414337436168  0.2533657705408596
  0.2840100219442862  0.1556788959083693  0.3764176485908225
  0.5417686876549049  0.4075952167097159  0.5774230395109586
  0.0749849643296847  0.2277983227923277  0.9379913080767104
  0.1152008699415683  0.9307993211923601  0.7441054684872803
  0.4252299797933621  0.4350467069795138  0.9016091165365607
  0.2485081402311523  0.3372531940782406  0.3425424339041749
  0.8699589121415475  0.0328900188515953  0.7853565582567732
  0.5834751371149802  0.3259530679746326  0.4171777460618542
  0.4972824961800456  0.7444236017421877  0.6745797872762122
  0.4597372499476453  0.8130089352576007  0.1483030821979705
  0.1921328393153162  0.1197102268907724  0.7059391793445499
  0.6627032872002422  0.8482751112716508  0.0511045499214103
  0.3602526180946742  0.8691495697936197  0.4411591019991693
  0.4464485207652784  0.5578366111137479  0.1547849367694828
  0.1947012745197171  0.3526455510415789  0.7135825861494024
  0.9588340902307503  0.8147327191599941  0.7151881854429883
  0.1095363771710567  0.9395340292307292  0.9603974389537336
  0.5355711871993954  0.6367164262909805  0.8348701544264309
  0.0511748111740616  0.4127621229214201  0.8766033310734628
  0.7341941427928467  0.0458002597750895  0.6857969953480885
  0.7475758201422049  0.2996293844425185  0.5991211701991731
  0.7233832559312350  0.0384568899728845  0.1944249973302400
  0.5912717999305612  0.5498275014388071  0.3059452283001396
  0.4398901058536970  0.1773076591723938  0.5086124444604406
  0.1612555376122725  0.8236103441025998  0.6898580593563355
  0.4940527326829664  0.8419468266779037  0.7650135862779032
  0.2454438810979139  0.7161399231435616  0.8416115687047111
  0.0814084858635591  0.3030925228834270  0.5678038637003214
  0.9801880972338962  0.7336636994531240  0.2769250469548378
  0.4076849521303610  0.5230152095543407  0.3550315728404071
  0.6242138951232522  0.4521233137963094  0.0478669458670946
  0.7432579007217732  0.7742409123127324  0.3245632914583998
  0.3556598827770772  0.6963724921322696  0.8175044227337179
  0.6420859839918793  0.9731588168995960  0.9293216146135133
  0.2655898958321691  0.1446691920866634  0.5007689482182308
  0.8902744908795596  0.5677873911422489  0.9822776752107694
  0.8589480755372901  0.8178896630019016  0.0212038207707532
  0.5813498976188443  0.7280549755861438  0.3849958092466063
  0.2742877778986510  0.8488244354980241  0.6752089046760585
  0.9832237202283686  0.5378874539887032  0.0927222955525387
  0.8571323637154564  0.4226091114214445  0.2738845108985304
  0.4577519091233636  0.9959115479675834  0.2270582350441353
  0.2790746858815011  0.3380465920736893  0.0120939825173025
  0.3219908221145790  0.1092930938128208  0.7160903795525662
  0.0046031761133300  0.8693530619226156  0.1359303644958276
  0.3244921630105695  0.4251898213672303  0.0738708900297560
  0.0883387060469418  0.7588296649138345  0.2431827410798484
  0.0934832397969048  0.8418125570356472  0.3273540061356549
  0.8781678338660183  0.3849257701504245  0.1630485620262314
  0.6919922875815865  0.6600932407977815  0.5549657050148809
  0.3797676414881680  0.7461726953301104  0.7150568342196585
  0.3230317615633395  0.5663408782348763  0.6187810558117984
  0.7061431250495201  0.5441630785859858  0.8841539895856629
  0.3193019212107596  0.4025339978046829  0.2621304746810276
  0.5536094330748123  0.4678445559470747  0.9097032431263876
  0.7825066829499192  0.7751091925796038  0.6466940280153329
  0.4529850806530563  0.4809947549926408  0.6216724392066161
  0.9039451161422458  0.3202633552370502  0.7695689271091890
  0.2714877975311701  0.5010879160748588  0.2261399871195193
  0.9311296505191727  0.5313477542960874  0.5133800037846991
  0.9021346570001120  0.2721236929679319  0.1756282192145380
  0.9420724128487558  0.2044887139827624  0.6416423706212659
  0.5624336309670711  0.5230950986581268  0.1948635830156129
  0.2727680957990328  0.2428486923148286  0.5597374111023954
  0.2516731881920901  0.7483573577646047  0.1968325117039442
  0.5177059978548313  0.5374882842281618  0.3979262838122818
  0.7028652942088384  0.0796239440060233  0.8039156778566391
 
  0.00000000E+00  0.00000000E+00  0.00000000E+00
  0.00000000E+00  0.00000000E+00  0.00000000E+00
  0.00000000E+00  0.00000000E+00  0.00000000E+00
  0.00000000E+00  0.00000000E+00  0.00000000E+00
  0.00000000E+00  0.00000000E+00  0.00000000E+00
  0.00000000E+00  0.00000000E+00  0.00000000E+00
  0.00000000E+00  0.00000000E+00  0.00000000E+00
  0.00000000E+00  0.00000000E+00  0.00000000E+00
  0.00000000E+00  0.00000000E+00  0.00000000E+00
  0.00000000E+00  0.00000000E+00  0.00000000E+00
  0.00000000E+00  0.00000000E+00  0.00000000E+00
  0.00000000E+00  0.00000000E+00  0.00000000E+00
  0.00000000E+00  0.00000000E+00  0.00000000E+00
  0.00000000E+00  0.00000000E+00  0.00000000E+00
  0.00000000E+00  0.00000000E+00  0.00000000E+00
  0.00000000E+00  0.00000000E+00  0.00000000E+00
  0.00000000E+00  0.00000000E+00  0.00000000E+00
  0.00000000E+00  0.00000000E+00  0.00000000E+00
  0.00000000E+00  0.00000000E+00  0.00000000E+00
  0.00000000E+00  0.00000000E+00  0.00000000E+00
  0.00000000E+00  0.00000000E+00  0.00000000E+00
  0.00000000E+00  0.00000000E+00  0.00000000E+00
  0.00000000E+00  0.00000000E+00  0.00000000E+00
  0.00000000E+00  0.00000000E+00  0.00000000E+00
  0.00000000E+00  0.00000000E+00  0.00000000E+00
  0.00000000E+00  0.00000000E+00  0.00000000E+00
  0.00000000E+00  0.00000000E+00  0.00000000E+00
  0.00000000E+00  0.00000000E+00  0.00000000E+00
  0.00000000E+00  0.00000000E+00  0.00000000E+00
  0.00000000E+00  0.00000000E+00  0.00000000E+00
  0.00000000E+00  0.00000000E+00  0.00000000E+00
  0.00000000E+00  0.00000000E+00  0.00000000E+00
  0.00000000E+00  0.00000000E+00  0.00000000E+00
  0.00000000E+00  0.00000000E+00  0.00000000E+00
  0.00000000E+00  0.00000000E+00  0.00000000E+00
  0.00000000E+00  0.00000000E+00  0.00000000E+00
  0.00000000E+00  0.00000000E+00  0.00000000E+00
  0.00000000E+00  0.00000000E+00  0.00000000E+00
  0.00000000E+00  0.00000000E+00  0.00000000E+00
  0.00000000E+00  0.00000000E+00  0.00000000E+00
  0.00000000E+00  0.00000000E+00  0.00000000E+00
  0.00000000E+00  0.00000000E+00  0.00000000E+00
  0.00000000E+00  0.00000000E+00  0.00000000E+00
  0.00000000E+00  0.00000000E+00  0.00000000E+00
  0.00000000E+00  0.00000000E+00  0.00000000E+00
  0.00000000E+00  0.00000000E+00  0.00000000E+00
  0.00000000E+00  0.00000000E+00  0.00000000E+00
  0.00000000E+00  0.00000000E+00  0.00000000E+00
  0.00000000E+00  0.00000000E+00  0.00000000E+00
  0.00000000E+00  0.00000000E+00  0.00000000E+00
  0.00000000E+00  0.00000000E+00  0.00000000E+00
  0.00000000E+00  0.00000000E+00  0.00000000E+00
  0.00000000E+00  0.00000000E+00  0.00000000E+00
  0.00000000E+00  0.00000000E+00  0.00000000E+00
  0.00000000E+00  0.00000000E+00  0.00000000E+00
  0.00000000E+00  0.00000000E+00  0.00000000E+00
  0.00000000E+00  0.00000000E+00  0.00000000E+00
  0.00000000E+00  0.00000000E+00  0.00000000E+00
  0.00000000E+00  0.00000000E+00  0.00000000E+00
  0.00000000E+00  0.00000000E+00  0.00000000E+00
  0.00000000E+00  0.00000000E+00  0.00000000E+00
  0.00000000E+00  0.00000000E+00  0.00000000E+00
  0.00000000E+00  0.00000000E+00  0.00000000E+00
  0.00000000E+00  0.00000000E+00  0.00000000E+00
  0.00000000E+00  0.00000000E+00  0.00000000E+00
  0.00000000E+00  0.00000000E+00  0.00000000E+00
  0.00000000E+00  0.00000000E+00  0.00000000E+00
  0.00000000E+00  0.00000000E+00  0.00000000E+00
  0.00000000E+00  0.00000000E+00  0.00000000E+00
  0.00000000E+00  0.00000000E+00  0.00000000E+00
  0.00000000E+00  0.00000000E+00  0.00000000E+00
  0.00000000E+00  0.00000000E+00  0.00000000E+00
  0.00000000E+00  0.00000000E+00  0.00000000E+00
  0.00000000E+00  0.00000000E+00  0.00000000E+00
  0.00000000E+00  0.00000000E+00  0.00000000E+00
  0.00000000E+00  0.00000000E+00  0.00000000E+00
  0.00000000E+00  0.00000000E+00  0.00000000E+00
  0.00000000E+00  0.00000000E+00  0.00000000E+00
  0.00000000E+00  0.00000000E+00  0.00000000E+00
  0.00000000E+00  0.00000000E+00  0.00000000E+00
  0.00000000E+00  0.00000000E+00  0.00000000E+00
  0.00000000E+00  0.00000000E+00  0.00000000E+00
  0.00000000E+00  0.00000000E+00  0.00000000E+00
  0.00000000E+00  0.00000000E+00  0.00000000E+00
  0.00000000E+00  0.00000000E+00  0.00000000E+00
  0.00000000E+00  0.00000000E+00  0.00000000E+00
  0.00000000E+00  0.00000000E+00  0.00000000E+00
  0.00000000E+00  0.00000000E+00  0.00000000E+00
  0.00000000E+00  0.00000000E+00  0.00000000E+00
  0.00000000E+00  0.00000000E+00  0.00000000E+00
  0.00000000E+00  0.00000000E+00  0.00000000E+00
  0.00000000E+00  0.00000000E+00  0.00000000E+00
  0.00000000E+00  0.00000000E+00  0.00000000E+00
  0.00000000E+00  0.00000000E+00  0.00000000E+00
  0.00000000E+00  0.00000000E+00  0.00000000E+00
  0.00000000E+00  0.00000000E+00  0.00000000E+00
  0.00000000E+00  0.00000000E+00  0.00000000E+00
  0.00000000E+00  0.00000000E+00  0.00000000E+00
  0.00000000E+00  0.00000000E+00  0.00000000E+00
  0.00000000E+00  0.00000000E+00  0.00000000E+00
  0.00000000E+00  0.00000000E+00  0.00000000E+00
  0.00000000E+00  0.00000000E+00  0.00000000E+00
  0.00000000E+00  0.00000000E+00  0.00000000E+00
  0.00000000E+00  0.00000000E+00  0.00000000E+00
  0.00000000E+00  0.00000000E+00  0.00000000E+00
  0.00000000E+00  0.00000000E+00  0.00000000E+00
  0.00000000E+00  0.00000000E+00  0.00000000E+00
  0.00000000E+00  0.00000000E+00  0.00000000E+00
  0.00000000E+00  0.00000000E+00  0.00000000E+00
  0.00000000E+00  0.00000000E+00  0.00000000E+00
  0.00000000E+00  0.00000000E+00  0.00000000E+00
  0.00000000E+00  0.00000000E+00  0.00000000E+00
  0.00000000E+00  0.00000000E+00  0.00000000E+00
  0.00000000E+00  0.00000000E+00  0.00000000E+00
  0.00000000E+00  0.00000000E+00  0.00000000E+00
  0.00000000E+00  0.00000000E+00  0.00000000E+00
  0.00000000E+00  0.00000000E+00  0.00000000E+00
  0.00000000E+00  0.00000000E+00  0.00000000E+00
  0.00000000E+00  0.00000000E+00  0.00000000E+00
  0.00000000E+00  0.00000000E+00  0.00000000E+00
  0.00000000E+00  0.00000000E+00  0.00000000E+00
  0.00000000E+00  0.00000000E+00  0.00000000E+00
  0.00000000E+00  0.00000000E+00  0.00000000E+00
  0.00000000E+00  0.00000000E+00  0.00000000E+00
  0.00000000E+00  0.00000000E+00  0.00000000E+00
  0.00000000E+00  0.00000000E+00  0.00000000E+00
  0.00000000E+00  0.00000000E+00  0.00000000E+00
  0.00000000E+00  0.00000000E+00  0.00000000E+00
  0.00000000E+00  0.00000000E+00  0.00000000E+00
  0.00000000E+00  0.00000000E+00  0.00000000E+00
  0.00000000E+00  0.00000000E+00  0.00000000E+00
  0.00000000E+00  0.00000000E+00  0.00000000E+00
  0.00000000E+00  0.00000000E+00  0.00000000E+00
  0.00000000E+00  0.00000000E+00  0.00000000E+00
  0.00000000E+00  0.00000000E+00  0.00000000E+00
  0.00000000E+00  0.00000000E+00  0.00000000E+00
  0.00000000E+00  0.00000000E+00  0.00000000E+00
  0.00000000E+00  0.00000000E+00  0.00000000E+00
  0.00000000E+00  0.00000000E+00  0.00000000E+00
  0.00000000E+00  0.00000000E+00  0.00000000E+00
  0.00000000E+00  0.00000000E+00  0.00000000E+00
  0.00000000E+00  0.00000000E+00  0.00000000E+00
  0.00000000E+00  0.00000000E+00  0.00000000E+00
  0.00000000E+00  0.00000000E+00  0.00000000E+00
  0.00000000E+00  0.00000000E+00  0.00000000E+00
  0.00000000E+00  0.00000000E+00  0.00000000E+00
  0.00000000E+00  0.00000000E+00  0.00000000E+00
  0.00000000E+00  0.00000000E+00  0.00000000E+00
  0.00000000E+00  0.00000000E+00  0.00000000E+00
  0.00000000E+00  0.00000000E+00  0.00000000E+00
  0.00000000E+00  0.00000000E+00  0.00000000E+00
  0.00000000E+00  0.00000000E+00  0.00000000E+00
  0.00000000E+00  0.00000000E+00  0.00000000E+00
  0.00000000E+00  0.00000000E+00  0.00000000E+00
  0.00000000E+00  0.00000000E+00  0.00000000E+00
  0.00000000E+00  0.00000000E+00  0.00000000E+00
  0.00000000E+00  0.00000000E+00  0.00000000E+00
  0.00000000E+00  0.00000000E+00  0.00000000E+00
  0.00000000E+00  0.00000000E+00  0.00000000E+00
  0.00000000E+00  0.00000000E+00  0.00000000E+00
  0.00000000E+00  0.00000000E+00  0.00000000E+00
  0.00000000E+00  0.00000000E+00  0.00000000E+00
  0.00000000E+00  0.00000000E+00  0.00000000E+00
  0.00000000E+00  0.00000000E+00  0.00000000E+00
  0.00000000E+00  0.00000000E+00  0.00000000E+00
  0.00000000E+00  0.00000000E+00  0.00000000E+00
  0.00000000E+00  0.00000000E+00  0.00000000E+00
  0.00000000E+00  0.00000000E+00  0.00000000E+00
  0.00000000E+00  0.00000000E+00  0.00000000E+00
  0.00000000E+00  0.00000000E+00  0.00000000E+00
  0.00000000E+00  0.00000000E+00  0.00000000E+00
  0.00000000E+00  0.00000000E+00  0.00000000E+00
  0.00000000E+00  0.00000000E+00  0.00000000E+00
  0.00000000E+00  0.00000000E+00  0.00000000E+00
  0.00000000E+00  0.00000000E+00  0.00000000E+00
  0.00000000E+00  0.00000000E+00  0.00000000E+00
  0.00000000E+00  0.00000000E+00  0.00000000E+00
  0.00000000E+00  0.00000000E+00  0.00000000E+00
  0.00000000E+00  0.00000000E+00  0.00000000E+00
  0.00000000E+00  0.00000000E+00  0.00000000E+00
  0.00000000E+00  0.00000000E+00  0.00000000E+00
  0.00000000E+00  0.00000000E+00  0.00000000E+00
  0.00000000E+00  0.00000000E+00  0.00000000E+00
  0.00000000E+00  0.00000000E+00  0.00000000E+00
  0.00000000E+00  0.00000000E+00  0.00000000E+00
  0.00000000E+00  0.00000000E+00  0.00000000E+00
  0.00000000E+00  0.00000000E+00  0.00000000E+00
  0.00000000E+00  0.00000000E+00  0.00000000E+00
  0.00000000E+00  0.00000000E+00  0.00000000E+00
  0.00000000E+00  0.00000000E+00  0.00000000E+00
  0.00000000E+00  0.00000000E+00  0.00000000E+00
  0.00000000E+00  0.00000000E+00  0.00000000E+00
  0.00000000E+00  0.00000000E+00  0.00000000E+00
  0.00000000E+00  0.00000000E+00  0.00000000E+00
  0.00000000E+00  0.00000000E+00  0.00000000E+00
  0.00000000E+00  0.00000000E+00  0.00000000E+00
  0.00000000E+00  0.00000000E+00  0.00000000E+00
  0.00000000E+00  0.00000000E+00  0.00000000E+00
  0.00000000E+00  0.00000000E+00  0.00000000E+00
  0.00000000E+00  0.00000000E+00  0.00000000E+00
  0.00000000E+00  0.00000000E+00  0.00000000E+00
  0.00000000E+00  0.00000000E+00  0.00000000E+00
  0.00000000E+00  0.00000000E+00  0.00000000E+00
  0.00000000E+00  0.00000000E+00  0.00000000E+00
  0.00000000E+00  0.00000000E+00  0.00000000E+00
  0.00000000E+00  0.00000000E+00  0.00000000E+00
  0.00000000E+00  0.00000000E+00  0.00000000E+00
  0.00000000E+00  0.00000000E+00  0.00000000E+00
  0.00000000E+00  0.00000000E+00  0.00000000E+00
  0.00000000E+00  0.00000000E+00  0.00000000E+00
  0.00000000E+00  0.00000000E+00  0.00000000E+00
  0.00000000E+00  0.00000000E+00  0.00000000E+00
  0.00000000E+00  0.00000000E+00  0.00000000E+00
  0.00000000E+00  0.00000000E+00  0.00000000E+00
  0.00000000E+00  0.00000000E+00  0.00000000E+00
  0.00000000E+00  0.00000000E+00  0.00000000E+00
  0.00000000E+00  0.00000000E+00  0.00000000E+00
  0.00000000E+00  0.00000000E+00  0.00000000E+00
  0.00000000E+00  0.00000000E+00  0.00000000E+00
  0.00000000E+00  0.00000000E+00  0.00000000E+00
  0.00000000E+00  0.00000000E+00  0.00000000E+00
  0.00000000E+00  0.00000000E+00  0.00000000E+00
  0.00000000E+00  0.00000000E+00  0.00000000E+00
  0.00000000E+00  0.00000000E+00  0.00000000E+00
  0.00000000E+00  0.00000000E+00  0.00000000E+00
  0.00000000E+00  0.00000000E+00  0.00000000E+00
  0.00000000E+00  0.00000000E+00  0.00000000E+00
  0.00000000E+00  0.00000000E+00  0.00000000E+00
  0.00000000E+00  0.00000000E+00  0.00000000E+00
  0.00000000E+00  0.00000000E+00  0.00000000E+00
  0.00000000E+00  0.00000000E+00  0.00000000E+00
  0.00000000E+00  0.00000000E+00  0.00000000E+00