Amorphous GeTe6                         
   1.00000000000000     
    21.6494838840084753    0.0000000000000000    0.0000000000000000
     0.0000000000000000   21.6494838840084753    0.0000000000000000
     0.0000000000000000    0.0000000000000000   21.6494838840084753
   Ga   Te   Zr
   114   171    15
Direct
  0.9320311852781200  0.8423236673860574  0.0985218400900147
  0.9256299615584619  0.0148311900147824  0.1267648162626793
  0.8732331103494690  0.8506956385345682  0.9096300107307758
  0.8341354232644169  0.2343875437667326  0.8592654747859235
  0.1132649161018985  0.0687424048792807  0.6534442205887756
  0.9716504363672305  0.5295561330820774  0.7652361935899898
  0.9758041841637450  0.1768775440720036  0.8421785044589439
  0.6414681492588441  0.7314322302133360  0.3835789612353624
  0.5287872943960471  0.0093662020117914  0.0183474300593459
  0.2425399543439726  0.8848536033036274  0.7203052404885507
  0.5769960695299075  0.8404599894382673  0.6289434536370245
  0.0807220134184447  0.4862421450211890  0.1101045334716507
  0.8387303838560709  0.2463178876989001  0.2525521931341804
  0.0993670578991792  0.8649610104922215  0.3425812882172681
  0.6910009315189509  0.1182983120998918  0.4747387916875029
  0.8655642725458679  0.8805419109177960  0.7356801205046750
  0.1164321793378271  0.7769537171156833  0.9284456662642463
  0.3429348139178715  0.3433596833724845  0.6574060262777158
  0.9604085874932826  0.2517368957579831  0.7584509223296231
  0.0011084075762496  0.4268368534161334  0.7197904438943080
  0.5405154704887621  0.0452198250152051  0.5717079043424130
  0.4038378730096264  0.9356821680506501  0.3033335446636590
  0.3028616866490639  0.4612346439543192  0.3552485213245012
  0.4672806110893479  0.2794822005922720  0.4834835516242375
  0.1908486956254298  0.0183598027909127  0.9602381179140966
  0.1219498659744274  0.1473439395093264  0.7357047132695279
  0.4961554402567928  0.7035882318554381  0.2811247332186208
  0.1170289106028635  0.7825257169683647  0.1324454436372549
  0.1097770035947853  0.4258721944800715  0.6830881699409389
  0.6147937672203492  0.4533766262911815  0.5676634407746300
  0.3542490430071801  0.9712073229086476  0.3999138448742602
  0.9274880138791631  0.3267503414855868  0.9270737964609336
  0.6702058691560945  0.2047921791091180  0.5873791185178535
  0.5113454657559240  0.0362742290427968  0.7732515195146403
  0.6693303814890251  0.6341467316966942  0.7604555147447318
  0.8019818032395871  0.1423879913380437  0.7081674378762438
  0.9126017714317141  0.4588716119641373  0.4773772504918891
  0.2358754207074452  0.3606194287993984 -0.0066900420562184
  0.9631937917414183  0.3661851150346420  0.2714323891106910
  0.5538857129531687  0.7699505715593733  0.1738340555278468
  0.5728470886379537  0.4465046482663204  0.1609398611095163
  0.1469751673700053  0.4398558201126234  0.4783872579112776
  0.2617010390103658  0.6509235977429395  0.1752952377618395
  0.9807809857578819  0.8953909749801524  0.3517320951180215
  0.7766462902005520  0.0395608394634610  0.8784784674836874
  0.3242775708494823  0.4874364819818158  0.7482882293469258
  0.7564389719908556  0.3986963130977174  0.3439116645679300
  0.4536082584876273  0.4837925996296703  0.6687943088074516
  0.5966455197264083  0.6638840175572033  0.2222398950004319
  0.7152399445613650  0.2178307987809500  0.1227184489733900
  0.0404032863483141  0.9219619749887579  0.0131819850230222
  0.6663444509800561  0.2616460566052297  0.8403364459007102
  0.4546883260783643  0.2966018950624097  0.9323307084443194
  0.4536271820237378  0.4748732187046517  0.9483083430993954
  0.2967308993133960  0.0336322912572861  0.5547813906637209
  0.0688639403221852  0.8529708262308877  0.5339454356704137
  0.1438798336307429  0.7092204212209708  0.6283404764415291
  0.9867173109106046  0.0046370098380548  0.3995633096304657
  0.7903020458440282  0.4101067501487079  0.8593651772759818
  0.8564521544486499  0.7733081448732204  0.5614554630356350
  0.2595909791043706  0.6733854195688141  0.6402630169087742
  0.7616814491496462  0.6890016183331270  0.9419994696616584
  0.2335277072651722  0.4745450817751227  0.8944079135999532
  0.6134757959218929  0.8419811011792140  0.7572317700777728
  0.8412279219519204  0.4598523790292773  0.1852034272805428
  0.6198857977271192  0.4073323680911597  0.7302465304622241
  0.6839578042033865  0.4396362195127348  0.2004540206911843
  0.4245763639587164  0.6335951785876497  0.5881271994815300
  0.9547716425213386  0.1358268215669884  0.2641358057180098
  0.8086496513450325  0.0074048759626114  0.3470377593523971
 -0.0156669772119019  0.0180056466771192  0.8902565410962485
  0.9730554496755350  0.3934599091434330  0.5511334493897297
  0.8421703539749041  0.8597873229337908  0.2588000220636048
  0.8974015659245727  0.2471717218402995  0.4342433147634917
  0.2127497985904543  0.8609431720146093  0.4732870388931850
  0.4737674392311877  0.8123350590721378  0.0083199962080066
  0.7518811822898176  0.1542711659264691  0.0303325000186712
  0.4943794188578744  0.3775300915212813  0.2142138853142034
  0.3722913702145570  0.7919913459312035  0.5593038831741376
  0.4726861766262483  0.1114130505593850  0.0000944468044902
  0.9892227555266695  0.9176886177283761  0.5858291533270259
  0.1478869107627591  0.5308932948518571  0.7103642803441194
  0.4894311215996311  0.8651211382808293  0.1820224999502368
  0.4284520768653657  0.9335288657853714  0.6676204952192548
  0.5766097974357959  0.2904727204699021  0.1300845875601650
  0.2005601207218986  0.2238277261754672  0.1116605543224319
  0.2174544063963086  0.9102610652203482  0.2592742133612973
  0.8054617187139861  0.0929854332877856  0.5828519483495507
  0.8671200650659849  0.6204269516379547  0.4899668520806341
  0.4925319083659699  0.3767863074805667  0.0102771431719014
  0.8925660488177657  0.6803078187294138  0.0337764871345447
  0.2504398776558777  0.7982789737319623  0.2899914127990421
  0.6141073554049801  0.6198064750354315  0.1177257138679411
  0.9527894259498531  0.7607090914366221  0.3826646530759832
  0.1380734846606606  0.7295513211878465  0.2565660481741561
  0.8350745394853613  0.5701642793169439  0.6428845000922543
  0.0079813887309749  0.2668370927788317  0.0762781992763094
  0.3495325543933590  0.6617361967428693  0.8678918400171330
  0.9285676009861049  0.0442878769175343  0.6933197463413404
  0.3230128689620482  0.1566399310092183  0.4339001068610399
  0.0854875892463626  0.3009297387676412  0.2836166612375645
  0.1424395751247908  0.0997441388054973  0.0279007401839607
  0.3803157605243659  0.8368383975919512  0.2044251097934176
  0.0464631248559018  0.2056974659992545  0.5873333614855480
  0.7249626950285630  0.7503409994947210  0.0982655329511961
  0.3953719849445118  0.6800026557696205  0.2332099976659324
  0.0874444056280217  0.8540619955939462  0.2222689728778044
  0.7427754624568590  0.7903208431519319  0.2677144911645711
  0.4968369103374365  0.1336134311337251  0.5096587601654411
  0.4168854287718136  0.5210945531227791  0.3400677207935879
  0.0573873404124207  0.4662737012301281  0.9227507578014091
  0.5136102156143928  0.6642963983475721  0.4663800524949212
  0.1920981904347255  0.0146828107754603  0.3136779150877759
  0.1801551031186641  0.0939187248879197  0.2277279218807458
  0.4974416525147192  0.9291054997633340  0.5653963181733037
  0.0692564306797357  0.4757446056021087  0.5699682218231947
  0.3019936976760774  0.1778915677039540  0.5548828106144470
  0.0509645233183735  0.0599870588631849  0.2386408384838512
  0.7858320360358940  0.9734123626402739  0.2284108730928455
  0.2045713148825786  0.3847384136201328  0.3144378994912058
  0.4569649510853788  0.0579713951934453  0.1779892717927270
  0.6967233794162276  0.6048828739967219  0.8768135755993837
  0.4396393322302927  0.1500910725455276  0.3994404788199425
  0.3426885187776343  0.3752637426067666  0.7987512780573142
  0.8774338401779124  0.7247495317386906  0.9148035443159044
  0.1933003300751950  0.5698960770781474  0.6004760722476252
  0.9092139226704475  0.1591696690636525  0.1547306569578672
  0.7415375536155736  0.1419915227561720  0.2310793905842496
  0.1995816088936526  0.5358181677177871  0.4178983301530058
  0.2328601109805065  0.1020373811250801  0.1153811497865121
  0.6958523575115875  0.0320310268576480  0.7671686982918905
  0.7621371600238860  0.8930464123853621  0.8841574490074523
  0.4790190369695291  0.4063191939685137  0.4027140984645331
  0.1460988790581063  0.5387010754898650  0.2457016233725015
  0.5171550000177582  0.7129751213488372  0.0664627850447188
  0.7732502111119385  0.2027661761379192  0.5087647293384439
  0.2210505992914625  0.0331779478526274  0.8341229246440718
  0.6952689101291457  0.3954546686755537  0.6373244251335837
  0.6387765391646406  0.3829841808295571  0.8505347353726342
  0.4069949505771392  0.1012234515779366  0.8010888208938884
  0.1282704844174737  0.6409094833500495  0.4579201657218531
  0.3504034571892444  0.8348697368963862  0.6762278086607575
  0.5373317573660218  0.5846624610316732  0.3006943030467481
  0.4007059401905844  0.1424179481626854  0.0952915583463871
  0.1255079788594380  0.1232229689032575  0.5436117786068467
  0.7253487453016864  0.1722520264839333  0.9103719142326718
  0.2854928494203463  0.9577046428207351  0.0055647237634406
  0.5027129986673208  0.3697054389438618  0.6878041427341819
  0.2169270572205173  0.7599866231239023  0.8373930498501768
  0.0323319175391598  0.9775740546293359  0.6882835356747722
  0.3888900517747269  0.0489570230822166  0.6454676568382240
  0.1534625735394836  0.9390441345285264  0.1525029836244642
  0.3748135243736971  0.0690881715964878  0.9260803675524318
  0.0248435128383103  0.6731234586672480  0.2902946358747181
  0.6695483073070934  0.8293809559642745  0.1723838110273921
  0.9423965497849380  0.2082933499452773  0.9558472522477564
  0.1147379901016539  0.9276403525646875  0.9134055560100048
  0.2080931807956701  0.3624456438517259  0.8495271063177007
  0.3449229229279269  0.7378860161252712  0.1353483209431618
  0.6035939344093831  0.0201202384409907  0.1195816958773914
  0.9934776870695597  0.5680890977543303  0.8875504122963979
  0.4248866161071992  0.2098249682392401  0.5852733097414926
  0.6556205519084736  0.6731386150771803  0.4909357653544951
  0.3284009345982354  0.4640450326803673  0.9714258650776532
  0.9322357241304523  0.8246142213241744  0.6481763208785365
  0.1430982644799357  0.6611878239640261  0.1359014941231821
  0.3156163176144328  0.6906842521673712  0.5264763326484626
  0.7192489731551024  0.0258139666402617  0.0525571423493619
  0.3589411740996161  0.3831562374336624  0.4518136361131784
  0.5264790474166252  0.7963088661527377  0.9006702349142588
  0.2355272392129958  0.5575178603301747  0.8001245289498103
 -0.0052075690822467  0.3941407996004838  0.0081054294777531
  0.5376342585267865  0.1090335443828565  0.6779897859113214
  0.2578956894674848  0.0479275372834479  0.4173488182321451
  0.7189355430656335  0.6284066860914750  0.6476233374818262
  0.0165224796522619  0.2889675784364701  0.5024321347655406
  0.5823497612699704  0.9550384853130505  0.9214814672846557
  0.8959963443978921  0.0920740926817021  0.3650736801887753
  0.2839149629978964  0.6701139932245939  0.2947618357810224
  0.6959941462435620  0.0351383925635346  0.3865038047000650
  0.8868783064900515  0.0913700010515318  0.8031480954124676
  0.5984004992072284  0.0678192365136211  0.8567353049221134
  0.8239942641916106  0.9813031627539746  0.6789638324530555
  0.1456948231024257  0.8122353562052598  0.7418794618695245
  0.1530164755975157  0.5067279662619263  0.9846159314312417
  0.3284058123211259  0.8991549521589853  0.5002927439899675
  0.8076833248328232  0.5185542877472874  0.5289556277597633
  0.2867630506839799  0.9208385494942803  0.8346995702083491
  0.5947089166842936  0.1545597810915028  0.1097446694824153
  0.0230394823210386  0.7375302815566633  0.4996837741958477
  0.0702038273945674  0.2562216282489718  0.6980868318147365
  0.1023344057831179  0.6483448882212202  0.8747084843648361
  0.8505254858395849  0.7563052577422910  0.1232067939273288
  0.3245647361041489  0.9527933547613593  0.2087611236099272
  0.6186567920119582  0.5650703630726555  0.0078878062177325
  0.5955072182061445  0.2081123602318425  0.4820320304449078
  0.7406612014726245  0.7592468377452016  0.6311279872901799
  0.3702089417766822  0.8173435386370688  0.3302781939337783
  0.6780341377089553  0.7641918028550463  0.9861033986141717
  0.2581420446766485  0.7274891219109193  0.9864883233516554
  0.3779191949196611  0.3888672877626826  0.2659150807363032
  0.9203175471079320  0.5298204739493289  0.1230860411395352
  0.9103427091780975  0.9224040007589948  0.0066727491282193
  0.2137391279606706  0.8411636325254852  0.0819553885637527
  0.8752647840023424  0.3793595207185668  0.3787708244466123
  0.6376515985965963  0.5055104469138786  0.4607181589178724
  0.9754133149800780  0.5697688832814100  0.4556612348269974
  0.5181045462540040  0.9487191107433097  0.2681524954373317
  0.8085707560308815  0.3307361290844947  0.9715900450702900
  0.4126124378013728  0.5564729677408079  0.2040146756775311
  0.5294790375848000  0.2851728434807069  0.2884657028771971
  0.4892779986018213  0.9180805408754324  0.7716867779827595
  0.8526676258316848  0.0817676867636204  0.0145716043205707
  0.0510444825385932  0.6132289157031267  0.7057010842234843
  0.0060614852795496  0.6444760266486371  0.0615195506191034
  0.4512763740610694  0.3049689719606918  0.1210704414793346
  0.1167445573662495  0.9359429242510182  0.4475071152891957
  0.6106766131926615  0.3796361520918285  0.0533628625257419
  0.3712993150468835  0.1979266636348402  0.2614278420584226
  0.5765587310886996  0.2061525953273337  0.7825586939212540
  0.9728075564017515  0.5113784193492151  0.2780641570848145
  0.0287406504732780  0.7538418373646339  0.8423134137020011
  0.7552048664173759  0.8907783746643992  0.5595811253125265
  0.5937024587682054  0.5278527931357990  0.7530340688657010
  0.5137268656730155  0.5391057609957688  0.1000343392009738
  0.8492215637607821  0.5461378636264484  0.7592456380284394
  0.5337640911349923  0.2060445136275656  0.9508846469811223
  0.1261335366649532  0.2215869698862911  0.0140628373765830
  0.6504568169254473  0.3919712266791963  0.4032336282598106
  0.4890509059666358  0.7574256816365180  0.5689455251246069
  0.9842376551670294  0.2385482043895376  0.3234890839594652
  0.2873871758704328  0.1631152150650310  0.9261216070489018
  0.0806786310876898  0.1142252533794695  0.8479386822438872
  0.0784104657451138  0.3797021613368488  0.8384389315031998
  0.3445693897217540  0.2658178312794250  0.9798278832994363
  0.8266930274333023  0.7024271568264209  0.4101254808143299
  0.2186378664462850  0.9951403421261913  0.6561133264294752
  0.0530714030804844  0.4292756527763512  0.3981087332373326
  0.7005491683244628  0.6729030701257904  0.2901270960549585
  0.9397423600674832  0.1312519603574217  0.6002971226628320
  0.5079714672925670  0.3875575394751437  0.5533755352970294
  0.5663370044985566  0.1275769133265472  0.2868287965207795
  0.5253708386692856  0.7709141351624035  0.3771282226213765
  0.9528392683394692  0.8879852218741205  0.8242265635013942
  0.7959377819687857  0.6000946170289840  0.0262817611554534
  0.4713967611592594  0.3853638195843940  0.8408057475405034
  0.7430135744826025  0.2563101086147570  0.7422577075536089
  0.3050588042911679  0.5479424519362626  0.1302114089843624
  0.9148871632925789  0.6563335333869628  0.6001082352640345
  0.6690660951932839  0.0591977107521148  0.5864161324276911
  0.7059123335433167  0.8385942833789898  0.3776834686227792
  0.9622938145384248  0.8944685129604506  0.2087698340601993
  0.0899514927160488  0.3675507397648211  0.1513252920155606
  0.3399605357284257  0.4775499464086048  0.6249622859600066
  0.0339198292380321  0.7992447349064059  0.0429125283861622
  0.6398470957930229  0.8607268407826243  0.5145084544692340
  0.7658063169271505  0.5022503607703223  0.2749479221964872
  0.9323543246543272  0.0005451954860095  0.5160221257638622
  0.1775483344030865  0.7778245147134464  0.3903044339880221
  0.8867168718744929  0.3461051357864818  0.1719268988319447
  0.8576334701177121  0.8938507531987842  0.3809649495936905
  0.8824065186352735  0.2330241562045557  0.6634856409338400
  0.3667349947008655  0.6606987294249385  0.7123458304303937
  0.2778410919690706  0.3150548674069245  0.1274907614790594
  0.4686890254867854  0.6054732554299527  0.9241884127627507
  0.3641049969012619  0.7877010394743679  0.9407182028749564
  0.4269178116607151  0.5546510547760336  0.7697662419236518
  0.0341337018640310  0.0378475655034952  0.0592783980340863
  0.2717061038954657  0.2560113908030780  0.3870999794521938
  0.2410602512941645  0.1896671399720734  0.7364677788540951
  0.9032060935246059  0.4031889432399859  0.6480533308904658
  0.7658802944566782  0.8213059519865158  0.7762720781927518
  0.4560064951836107  0.9174263143252716  0.0698140930496158
  0.1777338615076210  0.8280102255567027  0.5852194613401386
  0.0882571296727026  0.0794520596923136  0.3614355952599719
  0.7535522011317437  0.4534817406487784  0.0938028029729067
  0.8587664090334906  0.5048503407838196  0.9284612864929220
  0.1690769504923408  0.2200880555839448  0.2340673705901038
  0.7161840767626041  0.3243442410792529  0.2480801199120166
  0.2152781092883423  0.3440196922475568  0.5149515221633755
  0.7440250330271735  0.6358275591918540  0.1416570013013743
  0.9213035022772490  0.3610218498464006  0.8074106355169526
  0.2038289799062715  0.3509789589497201  0.6452164006978639
  0.5768932301310152  0.7063773627704986  0.7902497111308648
  0.5526433327732766  0.5502418869295587  0.6314977248269908
  0.4865744040919520  0.1880122259962881  0.1926807751313567
  0.0749544534869016  0.5617936704799888  0.3585746104756868
  0.8064519377945230  0.0719044851618757  0.1418968885005860
  0.2270221368232129  0.8498495161957245  0.9443738868528894
  0.8674055582084201  0.4297663568803307  0.0315131133991092
  0.0539910984963200  0.6180723028129633  0.5707200053296796
  0.4088619009101888  0.2899757947718862  0.3649349499567593
  0.0815396527498736  0.4262269643290303  0.2669420135602314
  0.6334353178396872  0.2182813865814879  0.2260237505481520
  0.2843999728979258  0.2953167198608675  0.2566707456079087
  0.0306022473536422  0.5851553411566055  0.1843578361015849
  0.6669751281020390  0.1479966431434876  0.7043562048189479
  0.5799766581467259  0.6746364234841050  0.9265465535010924
  0.2941462822204253  0.0761908380120991  0.7326980367247627
  0.7442968387489504  0.7716430758784535  0.4935546216111217
 
  0.00000000E+00  0.00000000E+00  0.00000000E+00
  0.00000000E+00  0.00000000E+00  0.00000000E+00
  0.00000000E+00  0.00000000E+00  0.00000000E+00
  0.00000000E+00  0.00000000E+00  0.00000000E+00
  0.00000000E+00  0.00000000E+00  0.00000000E+00
  0.00000000E+00  0.00000000E+00  0.00000000E+00
  0.00000000E+00  0.00000000E+00  0.00000000E+00
  0.00000000E+00  0.00000000E+00  0.00000000E+00
  0.00000000E+00  0.00000000E+00  0.00000000E+00
  0.00000000E+00  0.00000000E+00  0.00000000E+00
  0.00000000E+00  0.00000000E+00  0.00000000E+00
  0.00000000E+00  0.00000000E+00  0.00000000E+00
  0.00000000E+00  0.00000000E+00  0.00000000E+00
  0.00000000E+00  0.00000000E+00  0.00000000E+00
  0.00000000E+00  0.00000000E+00  0.00000000E+00
  0.00000000E+00  0.00000000E+00  0.00000000E+00
  0.00000000E+00  0.00000000E+00  0.00000000E+00
  0.00000000E+00  0.00000000E+00  0.00000000E+00
  0.00000000E+00  0.00000000E+00  0.00000000E+00
  0.00000000E+00  0.00000000E+00  0.00000000E+00
  0.00000000E+00  0.00000000E+00  0.00000000E+00
  0.00000000E+00  0.00000000E+00  0.00000000E+00
  0.00000000E+00  0.00000000E+00  0.00000000E+00
  0.00000000E+00  0.00000000E+00  0.00000000E+00
  0.00000000E+00  0.00000000E+00  0.00000000E+00
  0.00000000E+00  0.00000000E+00  0.00000000E+00
  0.00000000E+00  0.00000000E+00  0.00000000E+00
  0.00000000E+00  0.00000000E+00  0.00000000E+00
  0.00000000E+00  0.00000000E+00  0.00000000E+00
  0.00000000E+00  0.00000000E+00  0.00000000E+00
  0.00000000E+00  0.00000000E+00  0.00000000E+00
  0.00000000E+00  0.00000000E+00  0.00000000E+00
  0.00000000E+00  0.00000000E+00  0.00000000E+00
  0.00000000E+00  0.00000000E+00  0.00000000E+00
  0.00000000E+00  0.00000000E+00  0.00000000E+00
  0.00000000E+00  0.00000000E+00  0.00000000E+00
  0.00000000E+00  0.00000000E+00  0.00000000E+00
  0.00000000E+00  0.00000000E+00  0.00000000E+00
  0.00000000E+00  0.00000000E+00  0.00000000E+00
  0.00000000E+00  0.00000000E+00  0.00000000E+00
  0.00000000E+00  0.00000000E+00  0.00000000E+00
  0.00000000E+00  0.00000000E+00  0.00000000E+00
  0.00000000E+00  0.00000000E+00  0.00000000E+00
  0.00000000E+00  0.00000000E+00  0.00000000E+00
  0.00000000E+00  0.00000000E+00  0.00000000E+00
  0.00000000E+00  0.00000000E+00  0.00000000E+00
  0.00000000E+00  0.00000000E+00  0.00000000E+00
  0.00000000E+00  0.00000000E+00  0.00000000E+00
  0.00000000E+00  0.00000000E+00  0.00000000E+00
  0.00000000E+00  0.00000000E+00  0.00000000E+00
  0.00000000E+00  0.00000000E+00  0.00000000E+00
  0.00000000E+00  0.00000000E+00  0.00000000E+00
  0.00000000E+00  0.00000000E+00  0.00000000E+00
  0.00000000E+00  0.00000000E+00  0.00000000E+00
  0.00000000E+00  0.00000000E+00  0.00000000E+00
  0.00000000E+00  0.00000000E+00  0.00000000E+00
  0.00000000E+00  0.00000000E+00  0.00000000E+00
  0.00000000E+00  0.00000000E+00  0.00000000E+00
  0.00000000E+00  0.00000000E+00  0.00000000E+00
  0.00000000E+00  0.00000000E+00  0.00000000E+00
  0.00000000E+00  0.00000000E+00  0.00000000E+00
  0.00000000E+00  0.00000000E+00  0.00000000E+00
  0.00000000E+00  0.00000000E+00  0.00000000E+00
  0.00000000E+00  0.00000000E+00  0.00000000E+00
  0.00000000E+00  0.00000000E+00  0.00000000E+00
  0.00000000E+00  0.00000000E+00  0.00000000E+00
  0.00000000E+00  0.00000000E+00  0.00000000E+00
  0.00000000E+00  0.00000000E+00  0.00000000E+00
  0.00000000E+00  0.00000000E+00  0.00000000E+00
  0.00000000E+00  0.00000000E+00  0.00000000E+00
  0.00000000E+00  0.00000000E+00  0.00000000E+00
  0.00000000E+00  0.00000000E+00  0.00000000E+00
  0.00000000E+00  0.00000000E+00  0.00000000E+00
  0.00000000E+00  0.00000000E+00  0.00000000E+00
  0.00000000E+00  0.00000000E+00  0.00000000E+00
  0.00000000E+00  0.00000000E+00  0.00000000E+00
  0.00000000E+00  0.00000000E+00  0.00000000E+00
  0.00000000E+00  0.00000000E+00  0.00000000E+00
  0.00000000E+00  0.00000000E+00  0.00000000E+00
  0.00000000E+00  0.00000000E+00  0.00000000E+00
  0.00000000E+00  0.00000000E+00  0.00000000E+00
  0.00000000E+00  0.00000000E+00  0.00000000E+00
  0.00000000E+00  0.00000000E+00  0.00000000E+00
  0.00000000E+00  0.00000000E+00  0.00000000E+00
  0.00000000E+00  0.00000000E+00  0.00000000E+00
  0.00000000E+00  0.00000000E+00  0.00000000E+00
  0.00000000E+00  0.00000000E+00  0.00000000E+00
  0.00000000E+00  0.00000000E+00  0.00000000E+00
  0.00000000E+00  0.00000000E+00  0.00000000E+00
  0.00000000E+00  0.00000000E+00  0.00000000E+00
  0.00000000E+00  0.00000000E+00  0.00000000E+00
  0.00000000E+00  0.00000000E+00  0.00000000E+00
  0.00000000E+00  0.00000000E+00  0.00000000E+00
  0.00000000E+00  0.00000000E+00  0.00000000E+00
  0.00000000E+00  0.00000000E+00  0.00000000E+00
  0.00000000E+00  0.00000000E+00  0.00000000E+00
  0.00000000E+00  0.00000000E+00  0.00000000E+00
  0.00000000E+00  0.00000000E+00  0.00000000E+00
  0.00000000E+00  0.00000000E+00  0.00000000E+00
  0.00000000E+00  0.00000000E+00  0.00000000E+00
  0.00000000E+00  0.00000000E+00  0.00000000E+00
  0.00000000E+00  0.00000000E+00  0.00000000E+00
  0.00000000E+00  0.00000000E+00  0.00000000E+00
  0.00000000E+00  0.00000000E+00  0.00000000E+00
  0.00000000E+00  0.00000000E+00  0.00000000E+00
  0.00000000E+00  0.00000000E+00  0.00000000E+00
  0.00000000E+00  0.00000000E+00  0.00000000E+00
  0.00000000E+00  0.00000000E+00  0.00000000E+00
  0.00000000E+00  0.00000000E+00  0.00000000E+00
  0.00000000E+00  0.00000000E+00  0.00000000E+00
  0.00000000E+00  0.00000000E+00  0.00000000E+00
  0.00000000E+00  0.00000000E+00  0.00000000E+00
  0.00000000E+00  0.00000000E+00  0.00000000E+00
  0.00000000E+00  0.00000000E+00  0.00000000E+00
  0.00000000E+00  0.00000000E+00  0.00000000E+00
  0.00000000E+00  0.00000000E+00  0.00000000E+00
  0.00000000E+00  0.00000000E+00  0.00000000E+00
  0.00000000E+00  0.00000000E+00  0.00000000E+00
  0.00000000E+00  0.00000000E+00  0.00000000E+00
  0.00000000E+00  0.00000000E+00  0.00000000E+00
  0.00000000E+00  0.00000000E+00  0.00000000E+00
  0.00000000E+00  0.00000000E+00  0.00000000E+00
  0.00000000E+00  0.00000000E+00  0.00000000E+00
  0.00000000E+00  0.00000000E+00  0.00000000E+00
  0.00000000E+00  0.00000000E+00  0.00000000E+00
  0.00000000E+00  0.00000000E+00  0.00000000E+00
  0.00000000E+00  0.00000000E+00  0.00000000E+00
  0.00000000E+00  0.00000000E+00  0.00000000E+00
  0.00000000E+00  0.00000000E+00  0.00000000E+00
  0.00000000E+00  0.00000000E+00  0.00000000E+00
  0.00000000E+00  0.00000000E+00  0.00000000E+00
  0.00000000E+00  0.00000000E+00  0.00000000E+00
  0.00000000E+00  0.00000000E+00  0.00000000E+00
  0.00000000E+00  0.00000000E+00  0.00000000E+00
  0.00000000E+00  0.00000000E+00  0.00000000E+00
  0.00000000E+00  0.00000000E+00  0.00000000E+00
  0.00000000E+00  0.00000000E+00  0.00000000E+00
  0.00000000E+00  0.00000000E+00  0.00000000E+00
  0.00000000E+00  0.00000000E+00  0.00000000E+00
  0.00000000E+00  0.00000000E+00  0.00000000E+00
  0.00000000E+00  0.00000000E+00  0.00000000E+00
  0.00000000E+00  0.00000000E+00  0.00000000E+00
  0.00000000E+00  0.00000000E+00  0.00000000E+00
  0.00000000E+00  0.00000000E+00  0.00000000E+00
  0.00000000E+00  0.00000000E+00  0.00000000E+00
  0.00000000E+00  0.00000000E+00  0.00000000E+00
  0.00000000E+00  0.00000000E+00  0.00000000E+00
  0.00000000E+00  0.00000000E+00  0.00000000E+00
  0.00000000E+00  0.00000000E+00  0.00000000E+00
  0.00000000E+00  0.00000000E+00  0.00000000E+00
  0.00000000E+00  0.00000000E+00  0.00000000E+00
  0.00000000E+00  0.00000000E+00  0.00000000E+00
  0.00000000E+00  0.00000000E+00  0.00000000E+00
  0.00000000E+00  0.00000000E+00  0.00000000E+00
  0.00000000E+00  0.00000000E+00  0.00000000E+00
  0.00000000E+00  0.00000000E+00  0.00000000E+00
  0.00000000E+00  0.00000000E+00  0.00000000E+00
  0.00000000E+00  0.00000000E+00  0.00000000E+00
  0.00000000E+00  0.00000000E+00  0.00000000E+00
  0.00000000E+00  0.00000000E+00  0.00000000E+00
  0.00000000E+00  0.00000000E+00  0.00000000E+00
  0.00000000E+00  0.00000000E+00  0.00000000E+00
  0.00000000E+00  0.00000000E+00  0.00000000E+00
  0.00000000E+00  0.00000000E+00  0.00000000E+00
  0.00000000E+00  0.00000000E+00  0.00000000E+00
  0.00000000E+00  0.00000000E+00  0.00000000E+00
  0.00000000E+00  0.00000000E+00  0.00000000E+00
  0.00000000E+00  0.00000000E+00  0.00000000E+00
  0.00000000E+00  0.00000000E+00  0.00000000E+00
  0.00000000E+00  0.00000000E+00  0.00000000E+00
  0.00000000E+00  0.00000000E+00  0.00000000E+00
  0.00000000E+00  0.00000000E+00  0.00000000E+00
  0.00000000E+00  0.00000000E+00  0.00000000E+00
  0.00000000E+00  0.00000000E+00  0.00000000E+00
  0.00000000E+00  0.00000000E+00  0.00000000E+00
  0.00000000E+00  0.00000000E+00  0.00000000E+00
  0.00000000E+00  0.00000000E+00  0.00000000E+00
  0.00000000E+00  0.00000000E+00  0.00000000E+00
  0.00000000E+00  0.00000000E+00  0.00000000E+00
  0.00000000E+00  0.00000000E+00  0.00000000E+00
  0.00000000E+00  0.00000000E+00  0.00000000E+00
  0.00000000E+00  0.00000000E+00  0.00000000E+00
  0.00000000E+00  0.00000000E+00  0.00000000E+00
  0.00000000E+00  0.00000000E+00  0.00000000E+00
  0.00000000E+00  0.00000000E+00  0.00000000E+00
  0.00000000E+00  0.00000000E+00  0.00000000E+00
  0.00000000E+00  0.00000000E+00  0.00000000E+00
  0.00000000E+00  0.00000000E+00  0.00000000E+00
  0.00000000E+00  0.00000000E+00  0.00000000E+00
  0.00000000E+00  0.00000000E+00  0.00000000E+00
  0.00000000E+00  0.00000000E+00  0.00000000E+00
  0.00000000E+00  0.00000000E+00  0.00000000E+00
  0.00000000E+00  0.00000000E+00  0.00000000E+00
  0.00000000E+00  0.00000000E+00  0.00000000E+00
  0.00000000E+00  0.00000000E+00  0.00000000E+00
  0.00000000E+00  0.00000000E+00  0.00000000E+00
  0.00000000E+00  0.00000000E+00  0.00000000E+00
  0.00000000E+00  0.00000000E+00  0.00000000E+00
  0.00000000E+00  0.00000000E+00  0.00000000E+00
  0.00000000E+00  0.00000000E+00  0.00000000E+00
  0.00000000E+00  0.00000000E+00  0.00000000E+00
  0.00000000E+00  0.00000000E+00  0.00000000E+00
  0.00000000E+00  0.00000000E+00  0.00000000E+00
  0.00000000E+00  0.00000000E+00  0.00000000E+00
  0.00000000E+00  0.00000000E+00  0.00000000E+00
  0.00000000E+00  0.00000000E+00  0.00000000E+00
  0.00000000E+00  0.00000000E+00  0.00000000E+00
  0.00000000E+00  0.00000000E+00  0.00000000E+00
  0.00000000E+00  0.00000000E+00  0.00000000E+00
  0.00000000E+00  0.00000000E+00  0.00000000E+00
  0.00000000E+00  0.00000000E+00  0.00000000E+00
  0.00000000E+00  0.00000000E+00  0.00000000E+00
  0.00000000E+00  0.00000000E+00  0.00000000E+00
  0.00000000E+00  0.00000000E+00  0.00000000E+00
  0.00000000E+00  0.00000000E+00  0.00000000E+00
  0.00000000E+00  0.00000000E+00  0.00000000E+00
  0.00000000E+00  0.00000000E+00  0.00000000E+00
  0.00000000E+00  0.00000000E+00  0.00000000E+00
  0.00000000E+00  0.00000000E+00  0.00000000E+00
  0.00000000E+00  0.00000000E+00  0.00000000E+00
  0.00000000E+00  0.00000000E+00  0.00000000E+00
  0.00000000E+00  0.00000000E+00  0.00000000E+00
  0.00000000E+00  0.00000000E+00  0.00000000E+00
  0.00000000E+00  0.00000000E+00  0.00000000E+00
  0.00000000E+00  0.00000000E+00  0.00000000E+00
  0.00000000E+00  0.00000000E+00  0.00000000E+00
  0.00000000E+00  0.00000000E+00  0.00000000E+00
  0.00000000E+00  0.00000000E+00  0.00000000E+00
  0.00000000E+00  0.00000000E+00  0.00000000E+00
  0.00000000E+00  0.00000000E+00  0.00000000E+00
  0.00000000E+00  0.00000000E+00  0.00000000E+00
  0.00000000E+00  0.00000000E+00  0.00000000E+00