Cu Ge Sb Te                             
   1.00000000000000     
    17.7049152944953082    0.0000000000000000    0.0000000000000000
     0.0000000000000000   17.7049152944953082    0.0000000000000000
     0.0000000000000000    0.0000000000000000   17.7049152944953082
   Cu   Ge   Sb   Te
     8    32    32    80
Direct
  0.2189945004481198  0.2615791952791529  0.2249135405304414
  0.9039911681104001  0.5116838544446720  0.8327673803896579
  0.0670997046707413  0.2647115339884518  0.0851351554256618
  0.5446949108800628  0.9296935203679012  0.0504655365138609
  0.0132216278952669  0.9542079153436567  0.1338621481975556
  0.2718976618929357  0.7126467543782223  0.3444897440480046
  0.8277683940486116  0.3216439129515636  0.4329104665043468
  0.9365354753032162  0.4672858237401425  0.1557157880843604
  0.4888111611836415  0.8933762803903280  0.8056695613085200
  0.2619328135239532  0.5803621345140328  0.6828544422670297
  0.2395771027074571  0.5370164891024666  0.1959523636407134
  0.3143618176518921  0.3930016940175065  0.0447055937053019
  0.0435661304051798  0.0769676961141602  0.3214628908482277
  0.9783899049868610  0.0426080379794641  0.9556103631307363
  0.8316228665484741  0.0050076772145289  0.4561487345797759
  0.9513036276866531  0.3024223042454007  0.5916626693167627
  0.6070031862525984  0.9109604366384181  0.3718302769890343
  0.1822659669311578  0.4638381737460259  0.0849551616048255
  0.7523894922488517  0.1465552100639936  0.5809555739764847
  0.0054517614257488  0.8657780238980300  0.3548477181179482
  0.9800980410446412  0.8751259596441600  0.6798918183738507
  0.6062952210840874  0.4576445660174059  0.5299624280710444
  0.6719323075674454  0.1190876753171387  0.3518081192230407
  0.8423985583425010  0.7768201055277223  0.8639041681116563
  0.9861360840674729  0.6540357024140910  0.2570519178218734
  0.2086394912266303  0.1244553070086110  0.9591814955973165
  0.4555387818941011  0.6289991621940529  0.0910240375843730
  0.7532751527821159  0.6557118943568905  0.2614496400185755
  0.4471767954408811  0.0128905043573123  0.6715718391203724
  0.4089470325803438  0.9082446651095751  0.2916208064797045
  0.3081551895709874  0.8813094304495998  0.6722824588269668
  0.8907398593902853  0.3421287815377844  0.2325108132330552
  0.8119227398193350  0.1191802744054177  0.0260237632466853
  0.8588927941457168  0.8295380751084755  0.3554549550028407
  0.3254899198426791  0.7208993858516124  0.5128715819650244
  0.4555816190932266  0.7474112446206834  0.1999012947359659
  0.8383650220221235  0.3760360295071855  0.7582780172068535
  0.6885277545289001  0.9441244969948376  0.1350121946617565
  0.5692334054899092  0.1883596158900982  0.0146607157261060
  0.1463868952108232  0.9456745968491261  0.8059625784125594
  0.5256529301956551  0.3381717893137348  0.6434526423257514
  0.7356545796312030  0.3700320503894821  0.9841700815790383
  0.8443017386045473  0.1615573690300486  0.4571643087495633
  0.6310953425885478  0.6391117071742385  0.7391222045318033
  0.6382566479127635  0.7071195046623222  0.1633858651621360
  0.7640384522094198  0.6954514891388379  0.5086983515513868
  0.5832434730065920  0.2005997177033055  0.7036818332926463
  0.5293918481195480  0.6821161096903089  0.3268498290451348
  0.1107467450450790  0.8492247061774325  0.9437835362946521
  0.9650625794048250  0.4619845568477445  0.9655410176385497
  0.3733809353002685  0.3451863025653157  0.6948219779740006
  0.8831481656622361  0.3179759888884254  0.9660413486124574
  0.5242175396173950  0.3614061692197357  0.8541445134475504
  0.3333565933686782  0.0898230193489904  0.4479673700116210
  0.4719711310189760  0.7880376032114683  0.6906767603454406
  0.7127526363546488  0.9234716343403806  0.6936170049695566
  0.7483736665356284  0.4763274027960352  0.2946916960910233
  0.1552191430347400  0.5801592599529383  0.9797941271624514
  0.5439392549170148  0.4400234976531645  0.9982211415867694
  0.0726765126182263  0.1592845774462254  0.7819870628941790
  0.2897751957070557  0.1726178433113423  0.5777047234393269
  0.3215193416947393  0.3300479988588074  0.5442543203399067
  0.6268235303515458  0.0802974304291797  0.1978256297332645
  0.0669602717917787  0.3770729540921058  0.7750623288441749
  0.0802825939768353  0.7638136988906111  0.4299853773403275
  0.2471375022404131  0.5071802757508133  0.4222146656253360
  0.2676838671088468  0.5171088956192419  0.8715879546548652
  0.6735025670298591  0.8536316357582915  0.9192150068583842
  0.7987663093203167  0.8622254474209642  0.5287289755264454
  0.8624621985025350  0.5723762812777257  0.0019022809348580
  0.1600724676452707  0.7922748187809654  0.6492187158203103
  0.4644572677640644  0.2768112037240065  0.4724817524402196
  0.5278607070794837  0.0461489645642421  0.3747715083892722
  0.5251958397742127  0.8800398420312562  0.1893441796221336
  0.6932785921379568  0.7585989092117275  0.3680200168169778
  0.7506384486190428  0.2763745995258304  0.6606393971292989
  0.0548837182733513  0.7831838004472090  0.7738704659197264
  0.8394028065742539  0.8068723333255327  0.7142055714243376
  0.7064014909037567  0.1905876925460766  0.1221308739459037
  0.2023584719778854  0.6330645262073468  0.5544517985739790
  0.9041614623672172  0.8937778907419496  0.9670564143402153
  0.4080602955217579  0.1616766141728496  0.6979580418514060
  0.2683625129861569  0.4189968548792573  0.2874986690363107
  0.2275666213959206  0.8246662366053289  0.4429083410167473
  0.4065504397938021  0.0341386222719319  0.0538926049392021
  0.0837532408534262  0.9489081121710242  0.2598026131383512
  0.4762535353684439  0.8135215394051427  0.4049737410758079
  0.9767112167985413  0.1576763743205316  0.5425496928746690
  0.9011609708349755  0.1153196721848674  0.2457329452491414
  0.9041535317907611  0.4926668643185185  0.2989741862595728
  0.4666689495337811  0.6689483533398558  0.7858213277419521
  0.1985535695204504  0.2749346206600272  0.3656117773099786
  0.7914559896460628  0.4373825950130219  0.1187897792012403
  0.2668278510592336  0.6709409688877636  0.0670338697416226
  0.5992562615677867  0.9962262476619264  0.7971569011763302
  0.8983953594527631  0.6946049091033791  0.4201807951020871
  0.9019726467748623  0.2503131818494870  0.8221087849635008
  0.4837123789681330  0.1373270310180706  0.1632694816511972
  0.5066128650373709  0.8325693727876745  0.9376315898712880
  0.6006056358757640  0.4405123613025399  0.7451144224892422
  0.8721344334109769  0.7506021666386058  0.2137327623216381
  0.1439317366210195  0.5282015435091717  0.7594991575259004
  0.1569687002027680  0.9540706271237051  0.6530391147080659
  0.7015282603425893  0.6904053594629181  0.8749937852244780
  0.1535728169958061  0.1599915733646018  0.1421960690659916
  0.4261136296403422  0.5388267962263106  0.9713297173086262
  0.9336766514595497  0.6492112278733065  0.8751461640381573
  0.7577791804240097  0.4897149070648155  0.8741513687104800
  0.3730779967825464  0.6109870844113720  0.4162368597772142
  0.9822542907823175  0.9889118798844074  0.4398857145797798
  0.0826354098521491  0.2189724856977875  0.9294790978523262
  0.0144011590494497  0.7658603432189521  0.5794967633269695
  0.0239276462476893  0.3035141453116814  0.3446500121201193
  0.3513979346567043  0.9732094027603838  0.7984528521954104
  0.5366955737668103  0.3967441786064601  0.4042553394802996
  0.5867534105174530  0.5550960704539788  0.1455601101127195
  0.3691219606419570  0.9571855281000593  0.5511737997922557
  0.1030160545439199  0.2902889218698251  0.6471298019388455
  0.1691659774603337  0.6053337074001186  0.3135328998541768
  0.2507134071723301  0.3669884593857756  0.9090683979947585
  0.0727514068087596  0.3848126406754949  0.1550037652954138
  0.4854907007381579  0.3047425152589374  0.0667246658177770
  0.6309618362678908  0.2425713460763931  0.8868328733608941
  0.0078364650340389  0.0055747019422322  0.7994536402743218
  0.9566671450615772  0.3842365064514590  0.4502008645253341
  0.5986317961662109  0.1421279923242279  0.5535715675155561
  0.3631419431518778  0.2235126815876047  0.3575804681380271
  0.1806166030052027  0.1360020587467200  0.4447703222479716
  0.6432821535130868  0.9222774323928064  0.5262276911303287
  0.0167885989062000  0.8133538799107550  0.0797634623343008
  0.7411994958088562  0.7937061824772651  0.0551455000211211
  0.3949058479456494  0.5039936271802765  0.6892816904943241
  0.9579916553183362  0.4657596053550428  0.7034250537313965
  0.4415785444369167  0.1264254325379816  0.9329513850832386
  0.0968884615308284  0.7573276003019510  0.2148681647155538
  0.6220343805845245  0.7601019351732938  0.6415047151209453
  0.7556056065513934  0.3927237838595810  0.5492089214670590
  0.8745842560835615  0.0019479117922188  0.1253161500897486
  0.3144043923462675  0.7897913248009759  0.2354007007702551
  0.2863393746732247  0.6971698761582382  0.7709330811187870
  0.7485912755510623  0.9956415626411140  0.3249935903320740
  0.3035290786360857  0.2391702065894145  0.1188648127918552
  0.3965764781436392  0.5437076255822942  0.1987397527841115
  0.1149775838011941  0.0031014952939509  0.0220542202448332
  0.7580242429614729  0.3152153788429157  0.3064393261099777
  0.6505544710898316  0.0032178158534031  0.0029165622210441
  0.9956164684708053  0.5952513305588982  0.1060674811051123
  0.8126040622609916  0.0522099000425840  0.6860939758410012
  0.2154436959055862  0.0960988416207671  0.7896463550225757
  0.7217230924100472  0.5335938217002127  0.4487755156978389
  0.9119954796290568  0.2279644991588666  0.1004470751836217
  0.2695812872697779  0.8047886292248326  0.9755236497442346
 
  0.99541790E-04  0.11139005E-02 -0.26668763E-02
  0.65370156E-03 -0.32069491E-04  0.94435676E-03
  0.62606731E-03  0.16749843E-02  0.57987127E-03
 -0.11642658E-02  0.30051341E-02  0.24017333E-02
 -0.21276309E-02 -0.73119995E-03 -0.47014576E-03
  0.17770703E-02  0.65431406E-03  0.24889460E-02
  0.87248833E-03 -0.38489644E-02  0.70023745E-03
 -0.21099956E-02 -0.75615903E-03  0.16034054E-03
  0.22572196E-03 -0.14237595E-02 -0.12340798E-03
 -0.47021865E-03  0.73042228E-03 -0.10139602E-02
  0.66759225E-05 -0.72076467E-03 -0.33932381E-02
  0.13169807E-02 -0.10751962E-02  0.43094852E-03
 -0.54379812E-02  0.36608486E-03 -0.17657685E-02
 -0.65491920E-03 -0.48583479E-03 -0.16146197E-02
  0.10706619E-02 -0.32925850E-03  0.66401898E-03
 -0.12591260E-02  0.36710511E-03  0.95193471E-03
  0.13371453E-04 -0.67027871E-03  0.40127139E-03
  0.12849276E-02  0.24378563E-02  0.72246382E-03
  0.12135019E-02 -0.74201252E-03  0.10511951E-02
 -0.30809645E-03  0.10429257E-02 -0.11716918E-02
  0.14591390E-02  0.21585167E-02 -0.19521562E-02
  0.14059809E-02  0.28735899E-02  0.15632298E-02
 -0.51517593E-03 -0.23033715E-02  0.11582281E-02
  0.23987919E-02  0.22321488E-02 -0.21085891E-02
 -0.14549843E-04  0.13041560E-02  0.57418152E-03
 -0.20237786E-02  0.17110313E-02  0.18629827E-02
  0.39521786E-02  0.29232733E-02  0.14455268E-03
  0.43653927E-02 -0.10644059E-02 -0.27408853E-02
 -0.15129606E-02  0.57405253E-05  0.41831752E-03
 -0.12255351E-02 -0.15825287E-02 -0.93782860E-03
 -0.21003234E-02  0.35552844E-03  0.36473916E-03
  0.15920336E-02  0.49756884E-02 -0.79364238E-03
  0.22191090E-03  0.10641208E-02 -0.88325475E-03
 -0.29237124E-02  0.97819846E-03 -0.19279742E-02
  0.18283596E-02  0.19898469E-02 -0.16918058E-02
 -0.89157311E-03 -0.69310715E-03  0.26867525E-02
  0.16852260E-02 -0.38904389E-03  0.51466451E-03
  0.37917692E-04  0.33370790E-02 -0.36389056E-03
 -0.12116864E-02  0.26356779E-02  0.88935916E-03
 -0.27764323E-02  0.76884417E-03 -0.23783484E-02
  0.15757538E-02  0.69435493E-03  0.11703069E-02
 -0.67926221E-03 -0.91102337E-03 -0.46444529E-02
  0.13392902E-02  0.58525289E-03  0.10827986E-02
  0.24225713E-02  0.11158678E-02  0.12916525E-02
  0.17448219E-02 -0.10357498E-02 -0.28576110E-02
 -0.15678407E-02 -0.54834400E-03 -0.42903972E-03
  0.31326408E-05 -0.19949742E-03  0.28549597E-02
 -0.63271502E-03 -0.14641700E-02 -0.31451804E-03
 -0.45498342E-03  0.63439682E-03 -0.45424602E-03
  0.68283507E-03 -0.11704920E-02  0.14681684E-02
  0.15076174E-02  0.11214708E-03  0.15846437E-03
 -0.45049834E-03  0.74690508E-03 -0.28680036E-03
  0.14323975E-02 -0.11567793E-02  0.20517899E-02
 -0.21055468E-03  0.90297830E-03 -0.17006857E-03
 -0.56931819E-03 -0.17230186E-02  0.24732609E-04
 -0.24437922E-02  0.12276460E-02 -0.25127143E-02
 -0.24109576E-02  0.22522630E-02 -0.12596071E-02
  0.14459948E-02 -0.27059453E-03  0.10136698E-02
  0.92903204E-04 -0.14109852E-02 -0.24664843E-02
  0.23188553E-02 -0.22874275E-02  0.12907604E-02
  0.95243761E-03  0.66375716E-03  0.39882327E-04
 -0.17629737E-02  0.16609676E-02  0.25479574E-03
  0.13026267E-02 -0.93651720E-03  0.26508862E-02
 -0.19143245E-02 -0.21986101E-03 -0.65726282E-03
 -0.11791196E-02  0.15097880E-02  0.26597575E-03
 -0.27330001E-02 -0.24368169E-02 -0.19066410E-02
 -0.11490185E-02 -0.69043862E-03  0.10109682E-02
  0.18356469E-02  0.10225346E-02  0.37014832E-03
  0.20858547E-02  0.19561627E-02 -0.97704920E-03
 -0.12425711E-02 -0.24023109E-02  0.16119363E-02
 -0.20197345E-02  0.11659308E-02 -0.72607952E-04
  0.92960129E-04  0.97333551E-03  0.25655645E-02
  0.69648352E-03  0.85176551E-03  0.26486666E-02
 -0.36337933E-02  0.12344835E-03  0.16011019E-02
  0.63060167E-03 -0.39106660E-03  0.48473961E-03
  0.21513573E-02 -0.18367580E-02  0.11803328E-02
 -0.37560533E-03  0.11776303E-02  0.42572395E-03
 -0.24024333E-02 -0.15436229E-02 -0.59716777E-03
 -0.12170290E-02  0.24364780E-02 -0.12323610E-03
  0.77504546E-03 -0.82642784E-03 -0.13358211E-02
 -0.13229621E-03  0.12034265E-02  0.24988930E-02
 -0.30839809E-02  0.22873902E-02 -0.48438194E-03
  0.15396432E-02 -0.56204891E-03  0.34332440E-03
 -0.26857326E-03  0.25249268E-03 -0.68259381E-03
 -0.40314248E-03  0.10197835E-02 -0.14984636E-02
 -0.16568838E-02 -0.66759725E-03 -0.52830005E-03
 -0.11636350E-02  0.28917552E-02  0.15263087E-02
 -0.21506599E-02  0.34975996E-03  0.11021911E-02
 -0.22300292E-02 -0.39203376E-03 -0.29874132E-03
 -0.50704958E-03 -0.62314905E-03  0.53601907E-03
 -0.17828820E-02 -0.17883044E-02 -0.12756412E-03
  0.23060601E-02 -0.38046759E-03 -0.11799898E-02
  0.14167078E-02 -0.10095838E-02  0.17605409E-02
 -0.39172101E-02  0.11971842E-04 -0.17870949E-02
  0.61370383E-03  0.30289496E-03 -0.13424131E-02
  0.18931936E-02  0.60593493E-03  0.20799326E-04
  0.13186439E-03  0.17726250E-02 -0.41049054E-03
  0.21596330E-02 -0.13939334E-02 -0.22328935E-02
 -0.62396952E-03 -0.56270025E-03 -0.21116311E-02
  0.47150047E-03 -0.13494903E-03  0.10061252E-02
  0.15704827E-02 -0.85723494E-03  0.16603985E-02
  0.13787328E-02  0.63007008E-03 -0.48808008E-03
 -0.20991970E-03 -0.40005948E-03  0.92634724E-03
 -0.15762103E-02 -0.17342717E-02 -0.41908320E-03
  0.16225555E-02  0.14939229E-02  0.21854318E-02
 -0.15689039E-02 -0.18780536E-03 -0.32245824E-03
  0.16511628E-02 -0.21116889E-03 -0.79665738E-03
 -0.27530213E-03  0.36446000E-03  0.11322260E-02
 -0.16667900E-02  0.15302748E-02 -0.83508488E-03
 -0.22127363E-02 -0.76848525E-03 -0.17210513E-02
  0.49911940E-02 -0.19447193E-03  0.20049033E-04
  0.70774124E-03  0.88245526E-05 -0.52697030E-03
 -0.65393600E-03 -0.50961756E-03  0.85772315E-03
 -0.32713455E-03  0.13076299E-02 -0.23625922E-02
  0.95912257E-03 -0.86766122E-03 -0.65272948E-03
  0.13302468E-02  0.25008186E-02 -0.14110001E-02
  0.51733735E-03 -0.28241268E-02  0.39120272E-03
  0.76775052E-03 -0.22546462E-02 -0.20140639E-03
  0.10828602E-02  0.11950057E-02 -0.24758114E-03
 -0.15902244E-02 -0.88764757E-03 -0.12336070E-02
  0.56637618E-03 -0.54430229E-03  0.61777027E-04
  0.14862981E-03 -0.32946862E-03 -0.23203406E-02
 -0.14648725E-02 -0.92652246E-03 -0.33344964E-03
 -0.21087547E-02 -0.14654893E-02 -0.16756439E-02
  0.14999982E-02  0.15652761E-02 -0.44129917E-03
  0.13539008E-04  0.49057998E-03 -0.16340613E-02
  0.19287715E-02 -0.39068647E-04 -0.20208179E-02
 -0.18789862E-02 -0.16369996E-02  0.46525179E-03
 -0.17821143E-02 -0.26809722E-02 -0.16011224E-02
 -0.49664998E-03 -0.49745041E-03 -0.22304170E-02
  0.13794082E-03 -0.17386951E-02  0.27026160E-02
  0.12367889E-02 -0.17905097E-02  0.16028085E-02
 -0.68247532E-03  0.69193330E-03  0.92729392E-03
  0.61920751E-03 -0.14435021E-02 -0.74933836E-03
  0.99112767E-03  0.10803660E-02 -0.14526718E-02
 -0.44362992E-03  0.20293641E-02  0.11577282E-02
  0.11216810E-02 -0.70136992E-04  0.61521286E-04
  0.17525526E-02 -0.13253027E-03  0.36511812E-03
  0.11769911E-02  0.10617991E-02  0.52262728E-03
  0.10826164E-02 -0.29690365E-03  0.71833755E-03
 -0.18150753E-02  0.13969875E-02 -0.11144222E-03
 -0.11580452E-02 -0.10814178E-02  0.16268636E-02
 -0.23399750E-02 -0.71253132E-03  0.71194724E-04
  0.32983970E-03  0.38520963E-04  0.47928287E-03
  0.60204449E-03 -0.13351437E-02  0.26054867E-02
  0.23000327E-02 -0.15601960E-02  0.93872850E-03
  0.19651668E-04 -0.11314798E-02  0.18171124E-02
 -0.11536854E-03 -0.24370912E-02 -0.49121460E-03
 -0.12143497E-02  0.32103222E-02  0.81894193E-03
  0.21782380E-02  0.11633929E-02 -0.61492944E-03
  0.24568110E-02 -0.26982476E-02  0.23038732E-02
  0.41641185E-03 -0.62350239E-03  0.19046478E-02
 
           1
   3.00000000000000     
  0.10000000E+01  0.00000000E+00  0.00000000E+00  0.00000000E+00
  0.21901130E+00  0.26176720E+00  0.22446343E+00
  0.90410150E+00  0.51167844E+00  0.83292677E+00
  0.67205371E-01  0.26499423E+00  0.85233024E-01
  0.54449841E+00  0.93020072E+00  0.50870894E-01
  0.12862532E-01  0.95408451E+00  0.13378280E+00
  0.27219759E+00  0.71275719E+00  0.34490982E+00
  0.82791565E+00  0.32099430E+00  0.43302865E+00
  0.93617936E+00  0.46715820E+00  0.15574285E+00
  0.48884926E+00  0.89313598E+00  0.80564873E+00
  0.26185345E+00  0.58048541E+00  0.68268331E+00
  0.23957823E+00  0.53689484E+00  0.19537966E+00
  0.31458409E+00  0.39282023E+00  0.44778328E-01
  0.42648323E-01  0.77029483E-01  0.32116487E+00
  0.97827937E+00  0.42526040E-01  0.95533785E+00
  0.83180357E+00  0.49521059E-02  0.45626081E+00
  0.95109112E+00  0.30248426E+00  0.59182333E+00
  0.60700544E+00  0.91084731E+00  0.37189800E+00
  0.18248283E+00  0.46424963E+00  0.85077097E-01
  0.75259430E+00  0.14642998E+00  0.58113299E+00
  0.53997618E-02  0.86595405E+00  0.35464996E+00
  0.98034431E+00  0.87549027E+00  0.67956234E+00
  0.60653252E+00  0.45812956E+00  0.53022627E+00
  0.67184536E+00  0.11869892E+00  0.35200360E+00
  0.84280342E+00  0.77719684E+00  0.86354829E+00
  0.98613363E+00  0.65425581E+00  0.25714883E+00
  0.20829792E+00  0.12474409E+00  0.95949592E+00
  0.45620582E+00  0.62949254E+00  0.91048435E-01
  0.75401193E+00  0.65553225E+00  0.26098704E+00
  0.44692144E+00  0.12891473E-01  0.67164244E+00
  0.40874019E+00  0.90797757E+00  0.29146252E+00
  0.30780070E+00  0.88136944E+00  0.67234402E+00
  0.89100856E+00  0.34296856E+00  0.23237686E+00
  0.81196019E+00  0.11935987E+00  0.25874690E-01
  0.85839934E+00  0.82970317E+00  0.35512956E+00
  0.32579851E+00  0.72123523E+00  0.51258604E+00
  0.45543114E+00  0.74729426E+00  0.20035476E+00
  0.83864945E+00  0.37597037E+00  0.75836488E+00
  0.68853415E+00  0.94468772E+00  0.13495078E+00
  0.56902890E+00  0.18880446E+00  0.14810819E-01
  0.14591830E+00  0.94580436E+00  0.80556117E+00
  0.52591888E+00  0.33828898E+00  0.64365016E+00
  0.73553994E+00  0.36987829E+00  0.98338620E+00
  0.84452778E+00  0.16165615E+00  0.45734706E+00
  0.63150422E+00  0.63930004E+00  0.73934021E+00
  0.63855113E+00  0.70694469E+00  0.16290357E+00
  0.76377384E+00  0.69535894E+00  0.50862594E+00
  0.58324400E+00  0.20056605E+00  0.70416369E+00
  0.52928506E+00  0.68186899E+00  0.32679675E+00
  0.11066995E+00  0.84933178E+00  0.94370687E+00
  0.96517783E+00  0.46178700E+00  0.96578881E+00
  0.37363539E+00  0.34520523E+00  0.69484872E+00
  0.88307213E+00  0.31810205E+00  0.96599294E+00
  0.52445930E+00  0.36121093E+00  0.85449081E+00
  0.33332106E+00  0.89975421E-01  0.44793867E+00
  0.47187504E+00  0.78774680E+00  0.69068093E+00
  0.71234018E+00  0.92367883E+00  0.69319292E+00
  0.74796675E+00  0.47670753E+00  0.29447910E+00
  0.15546319E+00  0.58011359E+00  0.97996521E+00
  0.54395493E+00  0.43978536E+00  0.99780486E+00
  0.73067882E-01  0.15889851E+00  0.78220491E+00
  0.28993595E+00  0.17272987E+00  0.57771145E+00
  0.32122179E+00  0.33032833E+00  0.54429732E+00
  0.62704338E+00  0.80139368E-01  0.19827304E+00
  0.66637178E-01  0.37703585E+00  0.77495140E+00
  0.80083586E-01  0.76406852E+00  0.43003027E+00
  0.24667623E+00  0.50676900E+00  0.42189287E+00
  0.26748994E+00  0.51699237E+00  0.87175858E+00
  0.67381238E+00  0.85380422E+00  0.91927748E+00
  0.79911835E+00  0.86255560E+00  0.52856407E+00
  0.86225248E+00  0.57197083E+00  0.21743390E-02
  0.15973158E+00  0.79247160E+00  0.64920646E+00
  0.46447296E+00  0.27697548E+00  0.47291476E+00
  0.52797826E+00  0.46292723E-01  0.37521854E+00
  0.52458254E+00  0.88006068E+00  0.18961441E+00
  0.69338502E+00  0.75853291E+00  0.36810183E+00
  0.75100155E+00  0.27606460E+00  0.66083861E+00
  0.54820325E-01  0.78338256E+00  0.77394232E+00
  0.83899733E+00  0.80661181E+00  0.71410478E+00
  0.70619608E+00  0.19099891E+00  0.12211007E+00
  0.20248928E+00  0.63292504E+00  0.55422634E+00
  0.90413913E+00  0.89398100E+00  0.96747817E+00
  0.40753979E+00  0.16206267E+00  0.69787629E+00
  0.26862237E+00  0.41890199E+00  0.28755661E+00
  0.22752129E+00  0.82470885E+00  0.44279313E+00
  0.40648240E+00  0.34310738E-01  0.53639698E-01
  0.83473597E-01  0.94879544E+00  0.25971345E+00
  0.47605714E+00  0.81400960E+00  0.40523135E+00
  0.97634823E+00  0.15773541E+00  0.54273572E+00
  0.90078459E+00  0.11525351E+00  0.24568252E+00
  0.90406795E+00  0.49256169E+00  0.29906465E+00
  0.46636804E+00  0.66864653E+00  0.78579980E+00
  0.19894278E+00  0.27487041E+00  0.36541262E+00
  0.79169510E+00  0.43721220E+00  0.11908692E+00
  0.26616672E+00  0.67094299E+00  0.66732249E-01
  0.59935984E+00  0.99627737E+00  0.79693033E+00
  0.89871489E+00  0.69470718E+00  0.42018431E+00
  0.90199490E+00  0.25061236E+00  0.82203950E+00
  0.48407688E+00  0.13709177E+00  0.16289262E+00
  0.50650755E+00  0.83247440E+00  0.93727519E+00
  0.60068521E+00  0.44048958E+00  0.74528423E+00
  0.87239950E+00  0.75045748E+00  0.21401300E+00
  0.14416444E+00  0.52830788E+00  0.75941678E+00
  0.15693327E+00  0.95400311E+00  0.65319546E+00
  0.70126223E+00  0.69011265E+00  0.87492305E+00
  0.15384667E+00  0.16024371E+00  0.14256492E+00
  0.42584883E+00  0.53879510E+00  0.97127529E+00
  0.93395533E+00  0.64917559E+00  0.87501171E+00
  0.75773272E+00  0.48977642E+00  0.87434246E+00
  0.37279668E+00  0.61124536E+00  0.41609592E+00
  0.98188083E+00  0.98878218E+00  0.43959524E+00
  0.83477809E-01  0.21893966E+00  0.92948248E+00
  0.14520610E-01  0.76586183E+00  0.57940782E+00
  0.23817277E-01  0.30342813E+00  0.34479478E+00
  0.35134272E+00  0.97343010E+00  0.79805410E+00
  0.53685745E+00  0.39659774E+00  0.40414517E+00
  0.58697793E+00  0.55551815E+00  0.14532197E+00
  0.36920928E+00  0.95670888E+00  0.55123983E+00
  0.10314563E+00  0.28990839E+00  0.64709581E+00
  0.16934874E+00  0.60553540E+00  0.31349111E+00
  0.25044501E+00  0.36683864E+00  0.90886019E+00
  0.72846998E-01  0.38472077E+00  0.15501419E+00
  0.48551579E+00  0.30468691E+00  0.66333045E-01
  0.63071460E+00  0.24241497E+00  0.88677659E+00
  0.74805554E-02  0.53273608E-02  0.79917083E+00
  0.95692031E+00  0.38450069E+00  0.45012638E+00
  0.59863408E+00  0.14221079E+00  0.55329578E+00
  0.36346748E+00  0.22350609E+00  0.35723940E+00
  0.18029947E+00  0.13572577E+00  0.44484885E+00
  0.64298137E+00  0.92182495E+00  0.52595746E+00
  0.16704776E-01  0.81326992E+00  0.79387019E-01
  0.74122278E+00  0.79341273E+00  0.55601640E-01
  0.39511459E+00  0.50369143E+00  0.68955221E+00
  0.95787647E+00  0.46587639E+00  0.70358156E+00
  0.44168305E+00  0.12618180E+00  0.93282491E+00
  0.97055741E-01  0.75750994E+00  0.21462299E+00
  0.62195951E+00  0.76044445E+00  0.64170011E+00
  0.75579492E+00  0.39271195E+00  0.54921930E+00
  0.87488005E+00  0.19255437E-02  0.12537777E+00
  0.31460304E+00  0.78997053E+00  0.23548891E+00
  0.28652210E+00  0.69711977E+00  0.77105432E+00
  0.74828493E+00  0.99587734E+00  0.32497478E+00
  0.30333363E+00  0.23898769E+00  0.11913939E+00
  0.39618154E+00  0.54358737E+00  0.19875177E+00
  0.11503325E+00  0.31079968E-02  0.22135112E-01
  0.75812585E+00  0.31499004E+00  0.30687907E+00
  0.65094266E+00  0.29544904E-02  0.30749982E-02
  0.99561979E+00  0.59506036E+00  0.10637417E+00
  0.81258459E+00  0.51798575E-01  0.68601107E+00
  0.21523874E+00  0.96640671E-01  0.78978457E+00
  0.72209073E+00  0.53379018E+00  0.44867173E+00
  0.91241013E+00  0.22750910E+00  0.10083592E+00
  0.26965157E+00  0.80468340E+00  0.97584511E+00
  0.26796700E-04  0.18183996E-03 -0.46312635E-03
  0.11703045E-03 -0.19133897E-05  0.16034161E-03
  0.11093824E-03  0.31090120E-03  0.97428672E-04
 -0.15847637E-03  0.51378809E-03  0.39692275E-03
 -0.35920896E-03 -0.11761816E-03 -0.68214301E-04
  0.30019806E-03  0.11998963E-03  0.39860070E-03
  0.15702341E-03 -0.64673033E-03  0.11083107E-03
 -0.36489679E-03 -0.12033728E-03  0.35953175E-04
  0.42171980E-04 -0.25690724E-03 -0.10470935E-04
 -0.97389423E-04  0.12241628E-03 -0.16060710E-03
 -0.11428016E-04 -0.12058861E-03 -0.57486946E-03
  0.22859162E-03 -0.17560442E-03  0.61388665E-04
 -0.89380241E-03  0.31827419E-04 -0.30734836E-03
 -0.10958892E-03 -0.72910646E-04 -0.26396196E-03
  0.18961159E-03 -0.48433910E-04  0.11611526E-03
 -0.22698480E-03  0.69056968E-04  0.16440622E-03
  0.36990745E-05 -0.12389677E-03  0.65504506E-04
  0.20670690E-03  0.41324466E-03  0.13359540E-03
  0.21494123E-03 -0.11898212E-03  0.17308407E-03
 -0.24778706E-04  0.16697438E-03 -0.18485022E-03
  0.25926905E-03  0.33496742E-03 -0.33592803E-03
  0.23151066E-03  0.50126824E-03  0.27421553E-03
 -0.56128951E-04 -0.39837646E-03  0.20354926E-03
  0.40816155E-03  0.39413887E-03 -0.35896193E-03
 -0.34399975E-05  0.21553107E-03  0.11144193E-03
 -0.32977685E-03  0.28188476E-03  0.31781804E-03
  0.66068400E-03  0.48882378E-03  0.78142278E-05
  0.73385874E-03 -0.19364259E-03 -0.46319436E-03
 -0.26111016E-03 -0.30660931E-05  0.63045147E-04
 -0.20722005E-03 -0.25768194E-03 -0.16748302E-03
 -0.34961325E-03  0.53864302E-04  0.61694680E-04
  0.25677985E-03  0.83519347E-03 -0.12718164E-03
  0.30627117E-04  0.17963870E-03 -0.16441525E-03
 -0.50278820E-03  0.17830390E-03 -0.31305475E-03
  0.31277882E-03  0.33350395E-03 -0.29051987E-03
 -0.15246766E-03 -0.96944121E-04  0.45648405E-03
  0.29090730E-03 -0.75013895E-04  0.85660608E-04
  0.14625530E-05  0.57774088E-03 -0.60991088E-04
 -0.19098856E-03  0.46476368E-03  0.13934839E-03
 -0.47772481E-03  0.12124627E-03 -0.39966278E-03
  0.26052464E-03  0.10657849E-03  0.20288920E-03
 -0.97927985E-04 -0.15624956E-03 -0.77880509E-03
  0.22864692E-03  0.85568761E-04  0.18260603E-03
  0.41403287E-03  0.19437768E-03  0.20486206E-03
  0.29180055E-03 -0.17603459E-03 -0.48347754E-03
 -0.26196566E-03 -0.10153308E-03 -0.62181095E-04
  0.73635737E-05 -0.24464111E-04  0.48447148E-03
 -0.10390660E-03 -0.25511060E-03 -0.54330098E-04
 -0.84501480E-04  0.10363811E-03 -0.88537046E-04
  0.99660046E-04 -0.18750386E-03  0.25071905E-03
  0.26239477E-03  0.20174328E-04  0.18257573E-04
 -0.87791012E-04  0.12533555E-03 -0.52302137E-04
  0.24838931E-03 -0.18265936E-03  0.33985158E-03
 -0.49327515E-04  0.15421426E-03 -0.20309894E-04
 -0.86757013E-04 -0.30240904E-03  0.12946310E-04
 -0.41235986E-03  0.20053269E-03 -0.41761601E-03
 -0.39723935E-03  0.37448878E-03 -0.21152232E-03
  0.23506464E-03 -0.45040214E-04  0.16258039E-03
  0.71016538E-05 -0.23250924E-03 -0.41911295E-03
  0.40542061E-03 -0.38839424E-03  0.22558641E-03
  0.16300766E-03  0.10809268E-03 -0.59879273E-06
 -0.29660445E-03  0.28190605E-03  0.52526231E-04
  0.21897950E-03 -0.16113092E-03  0.43250257E-03
 -0.32490174E-03 -0.37741593E-04 -0.11284900E-03
 -0.20694774E-03  0.27072067E-03  0.44205742E-04
 -0.45969107E-03 -0.41394400E-03 -0.31905183E-03
 -0.19164975E-03 -0.12693092E-03  0.16936085E-03
  0.32097232E-03  0.17209223E-03  0.58200610E-04
  0.36184331E-03  0.32351442E-03 -0.17075610E-03
 -0.19639148E-03 -0.41516270E-03  0.26820512E-03
 -0.34322719E-03  0.20751708E-03 -0.74237960E-05
  0.19937820E-04  0.16728045E-03  0.42567682E-03
  0.11516772E-03  0.14539386E-03  0.44563122E-03
 -0.61774281E-03  0.15860414E-04  0.27217749E-03
  0.10780826E-03 -0.52897492E-04  0.82350873E-04
  0.36535752E-03 -0.30308641E-03  0.19522827E-03
 -0.68990920E-04  0.20307462E-03  0.65995678E-04
 -0.40616425E-03 -0.25966595E-03 -0.98344146E-04
 -0.21664189E-03  0.40488639E-03 -0.12080985E-04
  0.13064620E-03 -0.13731124E-03 -0.22710087E-03
 -0.23210670E-04  0.19867376E-03  0.42013120E-03
 -0.53331321E-03  0.38923434E-03 -0.83582386E-04
  0.25036452E-03 -0.86093162E-04  0.59619644E-04
 -0.46547937E-04  0.43355166E-04 -0.11467704E-03
 -0.82949181E-04  0.16333186E-03 -0.24909906E-03
 -0.28825787E-03 -0.10313401E-03 -0.77325792E-04
 -0.19327820E-03  0.48582395E-03  0.26024793E-03
 -0.35790784E-03  0.54446459E-04  0.18185512E-03
 -0.38029810E-03 -0.63249636E-04 -0.45981573E-04
 -0.89575398E-04 -0.10888129E-03  0.93068057E-04
 -0.30937404E-03 -0.28911260E-03 -0.24779624E-04
  0.39249472E-03 -0.73116795E-04 -0.19704695E-03
  0.23230712E-03 -0.17570838E-03  0.29316399E-03
 -0.65307033E-03 -0.16500027E-05 -0.29120730E-03
  0.10460402E-03  0.52075830E-04 -0.22356336E-03
  0.31851074E-03  0.10597263E-03 -0.81611583E-06
  0.19390691E-04  0.29550753E-03 -0.66437937E-04
  0.37638616E-03 -0.22968521E-03 -0.37326824E-03
 -0.11531765E-03 -0.92127173E-04 -0.37102836E-03
  0.76055832E-04 -0.25118853E-04  0.17524314E-03
  0.27555930E-03 -0.14712792E-03  0.27793827E-03
  0.23291266E-03  0.10801041E-03 -0.89029312E-04
 -0.40934418E-04 -0.68238422E-04  0.15728969E-03
 -0.26929913E-03 -0.29459747E-03 -0.68309049E-04
  0.27378354E-03  0.24511583E-03  0.37746271E-03
 -0.25741463E-03 -0.30833967E-04 -0.41687973E-04
  0.27591547E-03 -0.39246855E-04 -0.13686002E-03
 -0.50836947E-04  0.64678218E-04  0.19048375E-03
 -0.28376051E-03  0.25541916E-03 -0.13386996E-03
 -0.38020253E-03 -0.13401762E-03 -0.29362742E-03