Ge3 Te15 Pb12                           
   1.00000000000000     
     2.2758132363553081   -3.9418241539051500    0.0000000000000000
     2.2758132363553081    3.9418241539051500    0.0000000000000000
    -0.0000000000000001    0.0000000000000001   56.1573241710356541
   Ge   Te   Pb
     3    15    12
Direct
  0.0000000000000000  0.0000000000000000  0.0000000000000000
  0.6666666666666643  0.3333333333333357  0.3333333333333357
  0.3333333333333357  0.6666666666666643  0.6666666666666643
  0.6666666666666643  0.3333333333333357  0.0283788292354116
  0.3333333333333357  0.6666666666666643  0.1666666666666643
  0.0000000000000000  0.0000000000000000  0.0977444949621851
  0.0000000000000000  0.0000000000000000  0.3049545040979241
  0.6666666666666643  0.3333333333333357  0.2355888383711505
  0.3333333333333357  0.6666666666666643  0.3617121625687402
  0.0000000000000000  0.0000000000000000  0.5000000000000000
  0.6666666666666643  0.3333333333333357  0.4310778282955208
  0.6666666666666643  0.3333333333333357  0.6382878374312599
  0.3333333333333357  0.6666666666666643  0.5689221717044791
  0.0000000000000000  0.0000000000000000  0.6950454959020758
  0.6666666666666643  0.3333333333333357  0.8333333333333357
  0.3333333333333357  0.6666666666666643  0.7644111616288495
  0.3333333333333357  0.6666666666666643  0.9716211707645885
  0.0000000000000000  0.0000000000000000  0.9022555050378148
  0.3333333333333357  0.6666666666666643  0.2700640081548710
  0.0000000000000000  0.0000000000000000  0.2011209132692423
  0.6666666666666643  0.3333333333333357  0.1322124200640863
  0.3333333333333357  0.6666666666666643  0.0632693251784647
  0.0000000000000000  0.0000000000000000  0.6033973414882067
  0.6666666666666643  0.3333333333333357  0.5344542466025781
  0.3333333333333357  0.6666666666666643  0.4655457533974220
  0.0000000000000000  0.0000000000000000  0.3966026585117933
  0.6666666666666643  0.3333333333333357  0.9367306748215353
  0.3333333333333357  0.6666666666666643  0.8677875799359138
  0.0000000000000000  0.0000000000000000  0.7988790867307576
  0.6666666666666643  0.3333333333333357  0.7299359918451290
 
  0.00000000E+00  0.00000000E+00  0.00000000E+00
  0.00000000E+00  0.00000000E+00  0.00000000E+00
  0.00000000E+00  0.00000000E+00  0.00000000E+00
  0.00000000E+00  0.00000000E+00  0.00000000E+00
  0.00000000E+00  0.00000000E+00  0.00000000E+00
  0.00000000E+00  0.00000000E+00  0.00000000E+00
  0.00000000E+00  0.00000000E+00  0.00000000E+00
  0.00000000E+00  0.00000000E+00  0.00000000E+00
  0.00000000E+00  0.00000000E+00  0.00000000E+00
  0.00000000E+00  0.00000000E+00  0.00000000E+00
  0.00000000E+00  0.00000000E+00  0.00000000E+00
  0.00000000E+00  0.00000000E+00  0.00000000E+00
  0.00000000E+00  0.00000000E+00  0.00000000E+00
  0.00000000E+00  0.00000000E+00  0.00000000E+00
  0.00000000E+00  0.00000000E+00  0.00000000E+00
  0.00000000E+00  0.00000000E+00  0.00000000E+00
  0.00000000E+00  0.00000000E+00  0.00000000E+00
  0.00000000E+00  0.00000000E+00  0.00000000E+00
  0.00000000E+00  0.00000000E+00  0.00000000E+00
  0.00000000E+00  0.00000000E+00  0.00000000E+00
  0.00000000E+00  0.00000000E+00  0.00000000E+00
  0.00000000E+00  0.00000000E+00  0.00000000E+00
  0.00000000E+00  0.00000000E+00  0.00000000E+00
  0.00000000E+00  0.00000000E+00  0.00000000E+00
  0.00000000E+00  0.00000000E+00  0.00000000E+00
  0.00000000E+00  0.00000000E+00  0.00000000E+00
  0.00000000E+00  0.00000000E+00  0.00000000E+00
  0.00000000E+00  0.00000000E+00  0.00000000E+00
  0.00000000E+00  0.00000000E+00  0.00000000E+00
  0.00000000E+00  0.00000000E+00  0.00000000E+00
