AIST                                    
  0.990000000000000     
    21.7666543877800116    0.0000000000000000    0.0000000000000000
     0.0000000000000000   21.7670216467637587    0.0000000000000000
     0.0000000000000000    0.0000000000000000   21.7613986770381906
   Ag   In   Sb   Te
    15    15   180    90
Direct
  0.6876845666615901  0.5142952584665881  0.4953614660267580
  0.9043993875777679  0.3976796068526531  0.7957099266339993
  0.2643277212427714  0.4036502449238961  0.5138219365886135
  0.0887445653749611  0.8040173336310663  0.9349420406901738
  0.5401642799583767  0.4015709302372109  0.0744520390501503
  0.2121932446323446  0.3723106130998039  0.1355641661153617
  0.7176918245207005  0.7037266527045338  0.8150158392875874
  0.5838515839534302  0.1963908755330112  0.7744111251827915
  0.1054667237957362  0.7979208000491632  0.5019452185570499
  0.1327998680295594  0.8978452166315297  0.1943384518408223
  0.8606097539363546  0.6427304470979843  0.2949959869855299
  0.3156614837704175  0.4985228098816246  0.5921431035586561
  0.7330118886286808  0.4098940940764217  0.5774255853363310
  0.0047471066603196  0.7231543535700506  0.7833755619369966
  0.2766374659964601  0.7933280208410809  0.3999062428989608
  0.6937722216466975  0.9529133086604396  0.9389356193397272
  0.2176671594778909  0.0261054313279779  0.7377413199356267
  0.6709696183173856  0.8379262452384334  0.3302088360973813
  0.4169914643798007  0.9867330147192682  0.6300817903105732
  0.9263386411365984  0.8304228375716054  0.5499522012780508
  0.3850684302545533  0.4738104095140544  0.0322941167700000
  0.3139249626028832  0.1151226929946591  0.5544318355166955
  0.1628502788069228  0.1424780941440310  0.1872389897439513
  0.6651324089985472  0.5944188680405976  0.0865284015784207
  0.7731205389106388  0.1578607304575801  0.7169006646659121
  0.5737647296358502  0.6472360791762073  0.9490338145649092
  0.0211810855601316  0.3925530918829224  0.8682496633808702
  0.6059069218261015  0.6737603024158858  0.4730768399140274
  0.1641362982117941  0.7294341879010710  0.3647152890672054
  0.4540136349896729  0.9488492830851634  0.8238671815842266
  0.4562389454581318  0.3331348997927630  0.7820054118627462
  0.8412933774784461  0.9640530634577837  0.7802018275543250
  0.8581479069679225  0.0027096462797446  0.6492472451684954
  0.6817807563756302  0.4250962774060332  0.9936334768080934
  0.4628680476245576  0.1574641843120816  0.8338621836319097
  0.6715199100556094  0.1325594875744369  0.3062234185597961
  0.0105612768093237  0.0284084820070292  0.2991852139663017
  0.8736476369983618  0.2599994211276743  0.2521118315467741
  0.1202858735702748  0.9117497436684202  0.7975857838799488
  0.5835039702231515  0.5674756070104530  0.8404400470658575
  0.5703493589608136  0.8242586851860554  0.7645698887819729
  0.4996522519212801  0.5833086181322708  0.6205419458393869
  0.2455230872408498  0.6390342002595952  0.2646478183847203
  0.0895513152707570  0.1610464566507721  0.7590817041799308
  0.4365818722915264  0.1943138498307805  0.4149977297710077
  0.5530579553652201  0.1054961863352280  0.3706359502568017
  0.5163928627884518  0.7228252132925682  0.0502616894374219
  0.8699445463420610  0.6372598941218576  0.6945077323789632
  0.5819029266531472  0.0956073171702307  0.8649040894325098
  0.2019593964850916  0.2744266932637843  0.7324459370796753
  0.6116684842331932  0.2620835554407137  0.3338908527793356
  0.8352980523512527  0.9469378631859220  0.0551470774951569
  0.6549244335997306  0.2880885994519903  0.9988644014703062
  0.6252940836288748  0.5216306175398432  0.6067091325282716
  0.9362513795365340  0.5713429610270713  0.9277362855568811
  0.5992040067904361  0.1436880947499245  0.9911941186820229
  0.0956998268962077  0.6668603548222848  0.4793744430066524
  0.1110670041647039  0.4564611528734587  0.7212712602495535
  0.7011623556440788  0.9317126743331533  0.1019677990829223
  0.1332432488917520  0.4639515833558908  0.8541260528578335
  0.4741945638646120  0.1331382475929503  0.6947112863259309
  0.8218836527217657  0.4066240452267448  0.9907021873646248
  0.1715609894986241  0.0958456706439974  0.8463353138155831
  0.4164399562934754  0.9072203088036370  0.1227371420766399
  0.1885382324479252  0.2984125683155542  0.5190186885074477
  0.4136265068301378  0.5521592897435273  0.1793176782977269
  0.2756131739274759  0.3889270147861050  0.7142886236618399
  0.9846915074599574  0.6206552116684085  0.0775978190197327
  0.0523953033483087  0.0181139962098109  0.8958882785234296
  0.2529423486258250  0.5121904534595211  0.1158707153674965
  0.0473678472816133  0.5762881671499808  0.7327935629801265
  0.0998807526994707  0.0315181205461383  0.4601119837420820
  0.2564078738863836  0.2302943276323598  0.6123592489781781
  0.8602767677323042  0.1055255772767366  0.9113497912876252
  0.9580886357306602  0.7081163538548088  0.3558924947538531
  0.2772277426766262  0.0494669217363410  0.2245510562194683
  0.2366414514787900  0.0191530908152804  0.9673530428628079
  0.8569067414040230  0.7317982931691593 -0.0042131839226949
  0.2802969718739159  0.9638149367934746  0.0852255382246463
  0.4853417834176440  0.2251603274427239  0.1247324204832630
  0.5935961364943856  0.7567649155470343  0.1566789599556848
  0.8144366555843713  0.6129290429486468  0.8209760253121307
  0.4329951939694553  0.7903955982106011  0.7063935798187398
  0.2196513872861882  0.5304545906629484  0.6943723791966804
  0.6079897116914045  0.7018767704436273  0.7220467954115123
  0.3794722481708981  0.9907840692743232  0.3899087540757254
  0.9971565790497732  0.8667640830588652  0.8424073803950922
  0.6570982931680306  0.4441619752173950  0.2873848171996825
  0.9822412943931633  0.0770905110785493  0.7932848830266364
  0.9667465835481187  0.5640864447020668  0.6262707644421821
  0.4629128958652456  0.7845685726732956  0.3861177065790821
  0.7772281600257394  0.0565753916428065  0.4803616437526146
  0.8587855788634700  0.8277539326650976  0.8013300924640602
  0.7811255143409822  0.5221408496549333  0.9316958029513330
  0.3709447379160832  0.6370028491582365  0.0805394541597939
  0.1077778961727045  0.4821351731884298  0.0006691116561134
  0.4815081448119065  0.6485973226610721  0.2512286729798253
  0.0911550871518437  0.5113893542806038  0.3223891598688341
  0.5621476758927203  0.0381716768539469  0.0671621414595175
  0.4490502316420005  0.4509397149716763  0.6157160997600892
  0.3006912783098944  0.7245159826322496  0.9093524436689976
  0.7034403495424234  0.5674211521054170  0.7067387590473621
  0.5434060242706982  0.9762425664815955  0.4083400234715033
  0.8823877082406920  0.1819575123613446  0.1383268898285240
  0.0891271850863150  0.3245473286355504  0.6079836390333684
  0.7385977774948327  0.7102668709198239  0.4769723993707732
  0.5709006817764205  0.1267738128310604  0.1692949867705070
  0.2658889089980541  0.0506490774989549  0.4439760799075145
  0.3577371602338143  0.6219872262352177  0.6108898686554463
  0.9608259531667217  0.6116110871865015  0.2171719729094291
  0.7868489859115461  0.5923311496568342  0.5180242246694059
  0.2169999145066859  0.6293455520866222  0.5418394893748838
  0.4960615653145579  0.6433784404930675  0.7725817136706241
  0.4524660133134139  0.3866324111083565  0.4525067757137800
  0.3494527931065602  0.7738342363010029  0.0272900378979488
  0.5096270233961206  0.4718554387108105  0.8981430255041543
  0.7347178876629993  0.2816381870497616  0.5729481672163482
  0.3154661489736736  0.5208184685064561  0.2650850195326781
  0.2832809555967672  0.9063762077426966  0.7765182769638224
  0.7360162073589653  0.8428137105010274  0.1976137097944943
  0.3191845457327239  0.3615118724145611  0.8398295841895032
  0.5620962103829840  0.4944893293745397  0.3715112482131138
  0.2217035992275864  0.7015621623922045  0.7716484524119671
  0.8694655559733095  0.3062397924577928  0.8877370619504230
  0.4770966156904677  0.1962207617864616  0.9923585802039391
  0.2402263850111790  0.5088470792933963  0.9815526852440691
  0.3236644815110198  0.9311697014429542  0.2821955732906368
  0.3941789834684511  0.8268493423027669  0.8315571798953062
  0.2327030807558823  0.8271221262496001  0.6763174104663066
  0.8507590229802868  0.3066824848960591  0.6367771739572801
  0.5377882265729651  0.3531891182537555  0.5823185447094953
  0.9777733117684122  0.7543943728365530  0.0509132120684949
  0.3252988175292738  0.6631142688210562  0.4136370974747050
  0.4076874940123579  0.5687858938340056  0.3537218480368601
  0.8872608616061206  0.2160897940930636  0.9906843911673526
  0.0988911802354227  0.1978869057514611  0.2967855380772334
  0.7185154028263846  0.5328717399694757  0.3698298806987581
  0.2090967664438539  0.5873044620811126  0.3934225537801525
  0.0439054861146079  0.3459175235342308  0.0462155816868585
  0.0635601132265174  0.6081613287102653  0.9641101420272519
  0.6850171124556798  0.8453806822078306  0.8314356772872429
  0.2427375489386825  0.6492637081906635  0.1167710308526999
  0.8969619445441638  0.1861720048202198  0.6782216126465687
  0.1631434260495673  0.9092826158144259  0.4628580210910380
  0.8658750252065123  0.8771033171600782  0.1880454442766938
  0.9321313421056433  0.9595485766966261  0.9196770768164523
  0.4526960090301812  0.8590861765032576  0.2719959160572585
  0.4093866848763936  0.8862274398884953  0.9897047919196079
  0.8887789306462837  0.4350599693990791  0.3028520923000159
  0.0564515922020272  0.3139017360422933  0.2315177206999803
  0.5755987145079622  0.0019444041627358  0.5371280459350917
  0.6791689030369550  0.6290195760588195  0.2812675446089680
  0.1534685356892883  0.6482523784896038  0.6645448287780648
  0.2293323595288597  0.3735577910937596 -0.0006942310973291
  0.6938039159097715  0.8068804145768274 -0.0068894987249018
  0.9390579392729724  0.2218032392251920  0.8014471453752369
  0.7353061771306461  0.1719149452562049  0.4209763235926335
  0.3777014430111115  0.5142970651017349  0.8879712744779265
  0.4928075912486575  0.5929904324996621  0.4851799428534274
  0.3555647531685114  0.6823568340367271  0.7301628317431734
  0.7804729968711405  0.4583202578871240  0.2015475633880452
  0.1351336082446914  0.0243114640491775  0.1238659548975750
  0.7213536313215427  0.7413185163965369  0.1108254249434571
 -0.0085461378243108  0.4799020575610082  0.2289006243502383
  0.7874855213001608  0.3827656198042109  0.7477473122198424
  0.4190402175098242  0.2194362872998382  0.2818814228890538
  0.5483115310748261  0.2649630722277782  0.4528377636212131
  0.5284769051309078  0.3177594461943452  0.9582785594709095
  0.3448402804136958  0.3341465772608481  0.6099499456008515
  0.9065194512861040  0.6956290937470140  0.8739185189796554
  0.9483940072352308  0.1290709082646904  0.4154311828526275
  0.0903600851129824  0.4023736491894174  0.4050959731227273
  0.5093159833732914  0.7504701986514242  0.8608678091881150
  0.1655427739467699  0.1742897399994739  0.4655399088677502
  0.1865707563992420  0.3420754552469714  0.8717622100013076
  0.4205968568313501  0.7412645192651892  0.1612130018553905
  0.8811544268495501  0.4577721586003829  0.1048328910885882
  0.3833190025866587  0.1144407198442773  0.1688656016912637
  0.9146133570793771  0.3215756277886554  0.5171742053298760
  0.8150553817955989  0.8537228750676221  0.9517915848314163
  0.5630539414064132  0.8898351846035373  0.1317475332283703
  0.4122131341268237  0.6984634733532511  0.5140330453024792
  0.2738459359613354  0.9432298271796612  0.5308429254751799
  0.3329271136598456  0.3216973196958630  0.1407866874201642
  0.3178888518514276  0.1300705578990639  0.3300225087893008
  0.0586916682422445  0.7606897965359848  0.2815720493245222
  0.3298506234084913  0.1157498450259961  0.9673728505367332
  0.6364098430608064  0.3979195655258154  0.6633244893537155
  0.0011823904531593  0.0342789187980912  0.1032372456337745
  0.5000816050250456  0.4527534722706440  0.7403251899985795
  0.7232879375910620  0.0500080545676199  0.1690640504897466
  0.7560763800451462  0.6634622145171634  0.6285184024548341
  0.6821862291193149  0.2546399885010238  0.6955261301444218
  0.8332512558077851 -0.0012921665687437  0.3670586902052224
  0.7134569707488334  0.3458571324046157  0.3606484603093120
  0.5701244742736709  0.9210380214632879  0.2670040960612345
  0.9784612188712825  0.9169416460131062  0.0395752978087135
  0.4582205798875894  0.2735082888664966  0.6626891139008561
  0.1643694779243562  0.1165399788557963  0.0274611220560687
  0.0147665963922114  0.6847843638797114  0.5891280030072737
  0.3706248842810851  0.4954478142597852  0.4680279157616160
  0.5780666080567503  0.3075841768385276  0.8330305018364428
  0.4529370823296118  0.4242026334838790  0.3228843927770358
  0.2404255337355442  0.1964516307535272  0.9025247532080797
  0.7962485849494682  0.8731889348333651  0.3985588921459414
  0.0450669653783834  0.2281098027342885  0.4326927921683428
  0.2326226374484611  0.8410825515482863  0.0525745462526718
  0.1022398560394668  0.7975489853201456  0.7214196398291006
  0.3144599961279136  0.2322227299837233  0.7957902001503643
  0.9728608068761569  0.9796437865068207  0.4476613605463529
  0.5462896979923666  0.8780030754712800  0.5759985331495053
  0.2024961552428944  0.6746886744757206  0.9891788030157846
  0.7078032435995745  0.9735725276145611  0.7940897274737120
  0.9126045778428740  0.7555746041625430  0.1674176472964010
  0.1796764866785113  0.4880081766123933  0.5644836281937727
  0.6177578624356946  0.4105942987119401  0.4610284442706427
  0.3828399651421099  0.5132700518007869  0.7555870412799426
  0.0321932467897352  0.2743235379852729  0.9356029415935821
  0.7767666907778038  0.2203870679629766  0.0656928236808074
  0.9943790965922744  0.9552501749317167  0.7339953195606392
  0.7654509219809895  0.7189240781399093  0.3482568367986283
  0.7352593050313805  0.0516970627550865  0.6458083955890541
  0.4467780813999855  0.0845696282925964  0.5425674792889861
  0.5776079179872377  0.5660772826229780  0.2055598389970529
  0.2415564151760554  0.5813403641490025  0.8245173976353426
  0.0128133882462352  0.4126935681217209  0.5442606193146591
  0.9327580949576746  0.3207930948768162  0.1214168407093568
  0.1379014831894881  0.0467389671562796  0.3203422134094059
  0.0994298764178668  0.7013064849872988  0.8638113342502026
  0.2285983187183286  0.2259899137303564  0.3586932698792406
  0.9377431350212040  0.5210520978079357  0.8021490826103489
  0.2002979577448961  0.8829732515312365  0.3373966422585404
  0.0090415381388943  0.5894433396720659  0.4052034212778778
  0.3464042975458010  0.7295748413347163  0.2835680321535421
  0.7480360235150160  0.1524977593447117  0.8526814717924358
  0.8547062654228567  0.5410183345696167  0.3769136523066102
  0.3726584690848705  0.8722711507950017  0.4493946536607318
  0.7119444114436949  0.4421256290188094  0.8447798294798445
  0.2606010820097125  0.4572066352199582  0.3926796056497832
  0.3344427825324632  0.3199354483482543  0.2802986047993553
  0.0046542250508633  0.3243392872589019  0.7492684419742609
  0.4234828421972339  0.0313255061636158  0.0663368518967714
  0.7537868289099107  0.3089687082844346  0.2295537792512412
  0.3563299708290893  0.2946191682613386  0.4582999993388806
  0.5240310548350391  0.5202699726350903  0.0221102935762219
  0.3572842204997470  0.3370227979414626 -0.0077252412467085
  0.1234332206051777  0.4767148489515491  0.1370626318604447
  0.3728975504902979  0.0576034424182354  0.8468504710568797
  0.2171626840595425  0.8644750101118824  0.8821936206821107
  0.8024623359825426  0.4876624003996326  0.6641604496256153
  0.2282727335336530  0.7654386782731574  0.5250829836476377
  0.7785243518944648  0.5993439148100416  0.1934070518269169
  0.7507534258133362  0.7935664705055510  0.7282190886616829
  0.4937290784444323  0.0499237647774500  0.2453871960585120
  0.8555803510599678  0.0478425757531173  0.1717117406567376
  0.9980763577707653  0.1403998663201097  0.2266549779845572
  0.2841142963218367  0.1807534845426714  0.0999481377729459
  0.9023051058465036  0.7024277582166344  0.5186803563529644
  0.0159921653378970  0.0140733834819269  0.5673895211673922
  0.0136789024424272  0.9341181719931783  0.2054626611474816
  0.4073347695559589  0.6410049509617471  0.9164825857391093
  0.5350553322802476  0.8374615291862014 -0.0157618976860567
  0.8761571430839150  0.1467939477410119  0.5219741626994797
  0.0302786818520440  0.1114355860980478  0.9863832852369306
  0.1382215042833531  0.1013098817029368  0.6538694389706409
  0.6003439733735303  0.2961040471461324  0.1219478628363479
  0.7372026847332205  0.2890539419532716  0.8628800101229623
  0.3632550016182612  0.8647011677122576  0.6219608778424258
  0.6722202619291299  0.9640480966788733  0.4513888796149421
  0.7083185945426661  0.6823353374452857  0.9396870218871203
  0.4311782525422977  0.4148407159046786  0.1517316987718034
  0.7722524545061538  0.0548173509585761 -0.0000288269234303
  0.8215523249544088  0.9102530234508305  0.5613472053424864
  0.5266111269755388  0.3297021344358489  0.2595739264268492
  0.0481078358083859  0.8503666485041737  0.6091165559231854
  0.0888679617740629  0.6490095077807163  0.2168031053882822
  0.8187859677729759  0.4060768154690203  0.4815248195341119
  0.1799847537390125  0.9409225944112586  0.6278173880884178
  0.5716051185302812  0.8190455002513681  0.4604096711206810
  0.2264138041031390  0.8170047024995108  0.1810760428915171
  0.5481229504524101  0.9764668955184064  0.9147646344569066
  0.5755380480526279  0.7166801925539158  0.3388292871077848
  0.1069633625397947  0.9070765380826168  0.0043862520856742
  0.5196746464015053  0.9924047393422514  0.7141937531665192
  0.7141927728726072 -0.0003597021001335  0.2943322325530361
  0.0204511157477757  0.2183773493306089  0.5700967982204680
  0.8433064568631498  0.1544022006026950  0.3295204590675112
  0.8540138819763183  0.5886679669499665  0.0575548466607148
  0.9751992052571057  0.3491739894480780  0.3639642449709686
  0.3307100820039429  0.0767536450476608  0.6837364020458238
  0.1601335341064600  0.3809021668923537  0.2863891698250998
  0.6707411567725210  0.4514824878622337  0.1228097202456469
  0.8996420279885657  0.8508546604506113  0.3181216490964716
  0.9623451712899294  0.4433459670550867  0.9833587907486399
  0.5529165671287618  0.7157526626290152  0.6018715454497536
  0.6095267164251014  0.1509478889086637  0.4886983327829882
  0.6053814714782801  0.1482641157710119  0.6570034376685123
  0.1272400688896215  0.2677462384008844  0.1261975315414487
  0.0024607819436983  0.8456582665660727  0.4348509980229952
  0.9208356185767828  0.7606336770447324  0.6960288239121444
 
  0.00000000E+00  0.00000000E+00  0.00000000E+00
  0.00000000E+00  0.00000000E+00  0.00000000E+00
  0.00000000E+00  0.00000000E+00  0.00000000E+00
  0.00000000E+00  0.00000000E+00  0.00000000E+00
  0.00000000E+00  0.00000000E+00  0.00000000E+00
  0.00000000E+00  0.00000000E+00  0.00000000E+00
  0.00000000E+00  0.00000000E+00  0.00000000E+00
  0.00000000E+00  0.00000000E+00  0.00000000E+00
  0.00000000E+00  0.00000000E+00  0.00000000E+00
  0.00000000E+00  0.00000000E+00  0.00000000E+00
  0.00000000E+00  0.00000000E+00  0.00000000E+00
  0.00000000E+00  0.00000000E+00  0.00000000E+00
  0.00000000E+00  0.00000000E+00  0.00000000E+00
  0.00000000E+00  0.00000000E+00  0.00000000E+00
  0.00000000E+00  0.00000000E+00  0.00000000E+00
  0.00000000E+00  0.00000000E+00  0.00000000E+00
  0.00000000E+00  0.00000000E+00  0.00000000E+00
  0.00000000E+00  0.00000000E+00  0.00000000E+00
  0.00000000E+00  0.00000000E+00  0.00000000E+00
  0.00000000E+00  0.00000000E+00  0.00000000E+00
  0.00000000E+00  0.00000000E+00  0.00000000E+00
  0.00000000E+00  0.00000000E+00  0.00000000E+00
  0.00000000E+00  0.00000000E+00  0.00000000E+00
  0.00000000E+00  0.00000000E+00  0.00000000E+00
  0.00000000E+00  0.00000000E+00  0.00000000E+00
  0.00000000E+00  0.00000000E+00  0.00000000E+00
  0.00000000E+00  0.00000000E+00  0.00000000E+00
  0.00000000E+00  0.00000000E+00  0.00000000E+00
  0.00000000E+00  0.00000000E+00  0.00000000E+00
  0.00000000E+00  0.00000000E+00  0.00000000E+00
  0.00000000E+00  0.00000000E+00  0.00000000E+00
  0.00000000E+00  0.00000000E+00  0.00000000E+00
  0.00000000E+00  0.00000000E+00  0.00000000E+00
  0.00000000E+00  0.00000000E+00  0.00000000E+00
  0.00000000E+00  0.00000000E+00  0.00000000E+00
  0.00000000E+00  0.00000000E+00  0.00000000E+00
  0.00000000E+00  0.00000000E+00  0.00000000E+00
  0.00000000E+00  0.00000000E+00  0.00000000E+00
  0.00000000E+00  0.00000000E+00  0.00000000E+00
  0.00000000E+00  0.00000000E+00  0.00000000E+00
  0.00000000E+00  0.00000000E+00  0.00000000E+00
  0.00000000E+00  0.00000000E+00  0.00000000E+00
  0.00000000E+00  0.00000000E+00  0.00000000E+00
  0.00000000E+00  0.00000000E+00  0.00000000E+00
  0.00000000E+00  0.00000000E+00  0.00000000E+00
  0.00000000E+00  0.00000000E+00  0.00000000E+00
  0.00000000E+00  0.00000000E+00  0.00000000E+00
  0.00000000E+00  0.00000000E+00  0.00000000E+00
  0.00000000E+00  0.00000000E+00  0.00000000E+00
  0.00000000E+00  0.00000000E+00  0.00000000E+00
  0.00000000E+00  0.00000000E+00  0.00000000E+00
  0.00000000E+00  0.00000000E+00  0.00000000E+00
  0.00000000E+00  0.00000000E+00  0.00000000E+00
  0.00000000E+00  0.00000000E+00  0.00000000E+00
  0.00000000E+00  0.00000000E+00  0.00000000E+00
  0.00000000E+00  0.00000000E+00  0.00000000E+00
  0.00000000E+00  0.00000000E+00  0.00000000E+00
  0.00000000E+00  0.00000000E+00  0.00000000E+00
  0.00000000E+00  0.00000000E+00  0.00000000E+00
  0.00000000E+00  0.00000000E+00  0.00000000E+00
  0.00000000E+00  0.00000000E+00  0.00000000E+00
  0.00000000E+00  0.00000000E+00  0.00000000E+00
  0.00000000E+00  0.00000000E+00  0.00000000E+00
  0.00000000E+00  0.00000000E+00  0.00000000E+00
  0.00000000E+00  0.00000000E+00  0.00000000E+00
  0.00000000E+00  0.00000000E+00  0.00000000E+00
  0.00000000E+00  0.00000000E+00  0.00000000E+00
  0.00000000E+00  0.00000000E+00  0.00000000E+00
  0.00000000E+00  0.00000000E+00  0.00000000E+00
  0.00000000E+00  0.00000000E+00  0.00000000E+00
  0.00000000E+00  0.00000000E+00  0.00000000E+00
  0.00000000E+00  0.00000000E+00  0.00000000E+00
  0.00000000E+00  0.00000000E+00  0.00000000E+00
  0.00000000E+00  0.00000000E+00  0.00000000E+00
  0.00000000E+00  0.00000000E+00  0.00000000E+00
  0.00000000E+00  0.00000000E+00  0.00000000E+00
  0.00000000E+00  0.00000000E+00  0.00000000E+00
  0.00000000E+00  0.00000000E+00  0.00000000E+00
  0.00000000E+00  0.00000000E+00  0.00000000E+00
  0.00000000E+00  0.00000000E+00  0.00000000E+00
  0.00000000E+00  0.00000000E+00  0.00000000E+00
  0.00000000E+00  0.00000000E+00  0.00000000E+00
  0.00000000E+00  0.00000000E+00  0.00000000E+00
  0.00000000E+00  0.00000000E+00  0.00000000E+00
  0.00000000E+00  0.00000000E+00  0.00000000E+00
  0.00000000E+00  0.00000000E+00  0.00000000E+00
  0.00000000E+00  0.00000000E+00  0.00000000E+00
  0.00000000E+00  0.00000000E+00  0.00000000E+00
  0.00000000E+00  0.00000000E+00  0.00000000E+00
  0.00000000E+00  0.00000000E+00  0.00000000E+00
  0.00000000E+00  0.00000000E+00  0.00000000E+00
  0.00000000E+00  0.00000000E+00  0.00000000E+00
  0.00000000E+00  0.00000000E+00  0.00000000E+00
  0.00000000E+00  0.00000000E+00  0.00000000E+00
  0.00000000E+00  0.00000000E+00  0.00000000E+00
  0.00000000E+00  0.00000000E+00  0.00000000E+00
  0.00000000E+00  0.00000000E+00  0.00000000E+00
  0.00000000E+00  0.00000000E+00  0.00000000E+00
  0.00000000E+00  0.00000000E+00  0.00000000E+00
  0.00000000E+00  0.00000000E+00  0.00000000E+00
  0.00000000E+00  0.00000000E+00  0.00000000E+00
  0.00000000E+00  0.00000000E+00  0.00000000E+00
  0.00000000E+00  0.00000000E+00  0.00000000E+00
  0.00000000E+00  0.00000000E+00  0.00000000E+00
  0.00000000E+00  0.00000000E+00  0.00000000E+00
  0.00000000E+00  0.00000000E+00  0.00000000E+00
  0.00000000E+00  0.00000000E+00  0.00000000E+00
  0.00000000E+00  0.00000000E+00  0.00000000E+00
  0.00000000E+00  0.00000000E+00  0.00000000E+00
  0.00000000E+00  0.00000000E+00  0.00000000E+00
  0.00000000E+00  0.00000000E+00  0.00000000E+00
  0.00000000E+00  0.00000000E+00  0.00000000E+00
  0.00000000E+00  0.00000000E+00  0.00000000E+00
  0.00000000E+00  0.00000000E+00  0.00000000E+00
  0.00000000E+00  0.00000000E+00  0.00000000E+00
  0.00000000E+00  0.00000000E+00  0.00000000E+00
  0.00000000E+00  0.00000000E+00  0.00000000E+00
  0.00000000E+00  0.00000000E+00  0.00000000E+00
  0.00000000E+00  0.00000000E+00  0.00000000E+00
  0.00000000E+00  0.00000000E+00  0.00000000E+00
  0.00000000E+00  0.00000000E+00  0.00000000E+00
  0.00000000E+00  0.00000000E+00  0.00000000E+00
  0.00000000E+00  0.00000000E+00  0.00000000E+00
  0.00000000E+00  0.00000000E+00  0.00000000E+00
  0.00000000E+00  0.00000000E+00  0.00000000E+00
  0.00000000E+00  0.00000000E+00  0.00000000E+00
  0.00000000E+00  0.00000000E+00  0.00000000E+00
  0.00000000E+00  0.00000000E+00  0.00000000E+00
  0.00000000E+00  0.00000000E+00  0.00000000E+00
  0.00000000E+00  0.00000000E+00  0.00000000E+00
  0.00000000E+00  0.00000000E+00  0.00000000E+00
  0.00000000E+00  0.00000000E+00  0.00000000E+00
  0.00000000E+00  0.00000000E+00  0.00000000E+00
  0.00000000E+00  0.00000000E+00  0.00000000E+00
  0.00000000E+00  0.00000000E+00  0.00000000E+00
  0.00000000E+00  0.00000000E+00  0.00000000E+00
  0.00000000E+00  0.00000000E+00  0.00000000E+00
  0.00000000E+00  0.00000000E+00  0.00000000E+00
  0.00000000E+00  0.00000000E+00  0.00000000E+00
  0.00000000E+00  0.00000000E+00  0.00000000E+00
  0.00000000E+00  0.00000000E+00  0.00000000E+00
  0.00000000E+00  0.00000000E+00  0.00000000E+00
  0.00000000E+00  0.00000000E+00  0.00000000E+00
  0.00000000E+00  0.00000000E+00  0.00000000E+00
  0.00000000E+00  0.00000000E+00  0.00000000E+00
  0.00000000E+00  0.00000000E+00  0.00000000E+00
  0.00000000E+00  0.00000000E+00  0.00000000E+00
  0.00000000E+00  0.00000000E+00  0.00000000E+00
  0.00000000E+00  0.00000000E+00  0.00000000E+00
  0.00000000E+00  0.00000000E+00  0.00000000E+00
  0.00000000E+00  0.00000000E+00  0.00000000E+00
  0.00000000E+00  0.00000000E+00  0.00000000E+00
  0.00000000E+00  0.00000000E+00  0.00000000E+00
  0.00000000E+00  0.00000000E+00  0.00000000E+00
  0.00000000E+00  0.00000000E+00  0.00000000E+00
  0.00000000E+00  0.00000000E+00  0.00000000E+00
  0.00000000E+00  0.00000000E+00  0.00000000E+00
  0.00000000E+00  0.00000000E+00  0.00000000E+00
  0.00000000E+00  0.00000000E+00  0.00000000E+00
  0.00000000E+00  0.00000000E+00  0.00000000E+00
  0.00000000E+00  0.00000000E+00  0.00000000E+00
  0.00000000E+00  0.00000000E+00  0.00000000E+00
  0.00000000E+00  0.00000000E+00  0.00000000E+00
  0.00000000E+00  0.00000000E+00  0.00000000E+00
  0.00000000E+00  0.00000000E+00  0.00000000E+00
  0.00000000E+00  0.00000000E+00  0.00000000E+00
  0.00000000E+00  0.00000000E+00  0.00000000E+00
  0.00000000E+00  0.00000000E+00  0.00000000E+00
  0.00000000E+00  0.00000000E+00  0.00000000E+00
  0.00000000E+00  0.00000000E+00  0.00000000E+00
  0.00000000E+00  0.00000000E+00  0.00000000E+00
  0.00000000E+00  0.00000000E+00  0.00000000E+00
  0.00000000E+00  0.00000000E+00  0.00000000E+00
  0.00000000E+00  0.00000000E+00  0.00000000E+00
  0.00000000E+00  0.00000000E+00  0.00000000E+00
  0.00000000E+00  0.00000000E+00  0.00000000E+00
  0.00000000E+00  0.00000000E+00  0.00000000E+00
  0.00000000E+00  0.00000000E+00  0.00000000E+00
  0.00000000E+00  0.00000000E+00  0.00000000E+00
  0.00000000E+00  0.00000000E+00  0.00000000E+00
  0.00000000E+00  0.00000000E+00  0.00000000E+00
  0.00000000E+00  0.00000000E+00  0.00000000E+00
  0.00000000E+00  0.00000000E+00  0.00000000E+00
  0.00000000E+00  0.00000000E+00  0.00000000E+00
  0.00000000E+00  0.00000000E+00  0.00000000E+00
  0.00000000E+00  0.00000000E+00  0.00000000E+00
  0.00000000E+00  0.00000000E+00  0.00000000E+00
  0.00000000E+00  0.00000000E+00  0.00000000E+00
  0.00000000E+00  0.00000000E+00  0.00000000E+00
  0.00000000E+00  0.00000000E+00  0.00000000E+00
  0.00000000E+00  0.00000000E+00  0.00000000E+00
  0.00000000E+00  0.00000000E+00  0.00000000E+00
  0.00000000E+00  0.00000000E+00  0.00000000E+00
  0.00000000E+00  0.00000000E+00  0.00000000E+00
  0.00000000E+00  0.00000000E+00  0.00000000E+00
  0.00000000E+00  0.00000000E+00  0.00000000E+00
  0.00000000E+00  0.00000000E+00  0.00000000E+00
  0.00000000E+00  0.00000000E+00  0.00000000E+00
  0.00000000E+00  0.00000000E+00  0.00000000E+00
  0.00000000E+00  0.00000000E+00  0.00000000E+00
  0.00000000E+00  0.00000000E+00  0.00000000E+00
  0.00000000E+00  0.00000000E+00  0.00000000E+00
  0.00000000E+00  0.00000000E+00  0.00000000E+00
  0.00000000E+00  0.00000000E+00  0.00000000E+00
  0.00000000E+00  0.00000000E+00  0.00000000E+00
  0.00000000E+00  0.00000000E+00  0.00000000E+00
  0.00000000E+00  0.00000000E+00  0.00000000E+00
  0.00000000E+00  0.00000000E+00  0.00000000E+00
  0.00000000E+00  0.00000000E+00  0.00000000E+00
  0.00000000E+00  0.00000000E+00  0.00000000E+00
  0.00000000E+00  0.00000000E+00  0.00000000E+00
  0.00000000E+00  0.00000000E+00  0.00000000E+00
  0.00000000E+00  0.00000000E+00  0.00000000E+00
  0.00000000E+00  0.00000000E+00  0.00000000E+00
  0.00000000E+00  0.00000000E+00  0.00000000E+00
  0.00000000E+00  0.00000000E+00  0.00000000E+00
  0.00000000E+00  0.00000000E+00  0.00000000E+00
  0.00000000E+00  0.00000000E+00  0.00000000E+00
  0.00000000E+00  0.00000000E+00  0.00000000E+00
  0.00000000E+00  0.00000000E+00  0.00000000E+00
  0.00000000E+00  0.00000000E+00  0.00000000E+00
  0.00000000E+00  0.00000000E+00  0.00000000E+00
  0.00000000E+00  0.00000000E+00  0.00000000E+00
  0.00000000E+00  0.00000000E+00  0.00000000E+00
  0.00000000E+00  0.00000000E+00  0.00000000E+00
  0.00000000E+00  0.00000000E+00  0.00000000E+00
  0.00000000E+00  0.00000000E+00  0.00000000E+00
  0.00000000E+00  0.00000000E+00  0.00000000E+00
  0.00000000E+00  0.00000000E+00  0.00000000E+00
  0.00000000E+00  0.00000000E+00  0.00000000E+00
  0.00000000E+00  0.00000000E+00  0.00000000E+00
  0.00000000E+00  0.00000000E+00  0.00000000E+00