Sb                                      
   1.00000000000000     
    18.0673007964999982    0.0000000000000000    0.0000000000000000
     0.0000000000000000   18.0673007964999982    0.0000000000000000
     0.0000000000000000    0.0000000000000000   18.0673007964999982
   Ge   Te
   100   100
Direct
  0.6600447021396210  0.9563173467455660  0.1057531060660977
  0.8342213449332301  0.7157355775197873  0.8173168553208826
  0.0375589528887070  0.4398440743444433  0.2224513273190506
  0.2615180711917338  0.6796919272723394  0.2564619038837055
  0.6892249505429979  0.0222562731325704  0.7554054875237084
  0.8730794675320392  0.1904219562250798  0.7786598285216032
  0.3888343836532603  0.2372973360977951  0.4598451757724801
  0.2544500213211807  0.2094121914787310  0.1255127930807564
  0.2398988633308657  0.8259683393251789  0.8851557430846569
  0.6587891051202287  0.9768179841147361  0.2529803023841293
  0.1865990855410979  0.9922974412117566  0.1256933152688668
  0.0874921702815327  0.8444290936645507  0.5313072244807672
  0.9632968885752236  0.6616929305421737  0.0176072529939803
  0.5855792144269245  0.6474904972790031  0.3074950612577915
  0.4173802547450924  0.1900378384052010  0.9771401491101791
  0.8596590027443889  0.1846866087486400  0.1052786686614611
  0.1282211511856494  0.7072705028039818  0.7236861690614949
  0.2660005516824347  0.3031905682153438  0.5259760456907993
  0.7751866889075137  0.8350900827843117  0.5387282677534373
  0.5621128006749380  0.7589744268266352  0.1413368808484330
  0.5004094576405816  0.2069705613614346  0.5481816854985350
  0.8331996859697109  0.3629923255728221  0.0560089966045892
  0.0529228727763399  0.0232457693281399  0.9097439911392489
  0.1232043021328749  0.0952656732097214  0.5743404225553501
  0.5476049115276393  0.2991841799610069  0.8002573072893284
  0.3661393428860770  0.5664309919892175  0.4768384288459042
  0.7688792805279534  0.0561359486264189  0.0920342107786633
  0.6446525347845641  0.5902825411786313  0.1882667605711242
  0.5404507283941801  0.8532343183718455  0.5170588130119195
  0.1879586041126632  0.0145198133938284  0.9750003011793855
  0.4718939930866894  0.0853770901494025  0.4299970728192118
  0.6958184411103338  0.1745670199120598  0.0560746741262105
  0.3613568333531369  0.4562957916719748  0.6925775071239481
  0.6377217134181749  0.8790739075457870  0.7767142019498348
  0.3732072104869718  0.9591581807173151  0.7252354876756610
  0.9490002076189354  0.3899417531826390  0.4248950052419656
  0.8389875058856680  0.6044164033491918  0.1926853886041733
  0.7097412853928975  0.4985065965966273  0.7218500348661430
  0.9762556135168854  0.4698947642072295  0.6098473757609274
  0.4711478769884718  0.8451388604885670  0.9550279955190200
  0.8017292681935051  0.0467356705644588  0.5482605082087467
  0.7050350622530482  0.8803732896717271  0.9852326026113959
  0.0601485379331352  0.9974000669454052  0.6692880810990357
  0.4359994677216473  0.2465030336235912  0.1189438949043922
  0.3788223321415417  0.0446941193386581  0.8954453802705195
  0.6738883194493678  0.2918218752467631  0.9541785878824860
  0.0223952397566014  0.6343322448843910  0.8927314393462163
  0.7306557814680780  0.6143231930817528  0.9787341399926300
  0.9424490386393469  0.1273944065506122  0.4742378277422138
  0.6713998353086637  0.9840131838043430  0.4086671347096945
  0.6910605825415614  0.7038289692700360  0.8631294694556515
  0.9681873360582388  0.2888130326832739  0.8318680538782007
  0.2503088627467152  0.1938801704103188  0.4205029648734082
  0.5844228176235655  0.2330396086624414  0.4274554338605774
  0.0763788431039699  0.3104910133646564  0.7318860503911531
  0.6051723406324799  0.6531752418087123  0.4468055859615424
  0.2275074571989630  0.4084688895153568  0.6865911110373767
  0.1452755266112525  0.8455900497584371  0.3029046059098460
  0.1713206560836052  0.9196492165006985  0.8095039418026422
  0.4320384602482784  0.9602641526819903  0.5862618611967164
  0.3179622867173731  0.3018599407001353  0.7752084539311593
  0.5081715338905289  0.0084030969525373  0.2574749062910827
  0.5885352019457245  0.0961682226460225  0.6773924433379389
  0.6161096482301068  0.8159220667965462  0.9074229727230727
  0.8304221037593865  0.6836149130528029  0.0647646927730408
  0.5683992385340799  0.3183575366587332  0.6398712216302197
  0.7340639253931062  0.2320352867358066  0.7687680015231690
  0.1533828190299157  0.4257872823038789  0.5047583283283108
  0.5685681355104993  0.5288203668689013  0.7351199694929827
  0.0415478272800941  0.5925438827057798  0.7516397564055991
  0.0882131277628513  0.2850883251728344  0.0867704909248587
  0.6943409150456302  0.4814193478591148  0.3841476937446636
  0.0109915444406798  0.3100592154094528  0.6054117214723873
  0.3129304102723596  0.9315968957462383  0.4318356686498209
  0.4075755641224080  0.4367357309099485  0.9704791410104909
  0.4235012511778083  0.1389399949010101  0.6490734563242451
  0.5755853932358130  0.6450460999590227  0.0122046456204598
  0.0288526525067704  0.9340531576037849  0.7996694806200828
  0.8709939383100846  0.7829982419802943  0.3204250507679461
  0.3862542887247064  0.2905130595480735  0.6092897043208697
  0.4488251170169954  0.2100883569313109  0.2543771149297210
  0.9764949756955277  0.9677516446755798  0.4349540421389967
  0.4610274643795465  0.7881149087153803  0.8085096233581714
  0.5101465827472438  0.4257010011910689  0.2173317199722483
  0.1833481023271680  0.2314272358392904  0.7677587691125494
  0.4322782087701828  0.6470866998322558  0.1551131644440090
  0.7718476748960118  0.3132244550966745  0.5489835286926599
  0.2281718565337030  0.6920973179256569  0.8423199862710249
  0.2364257867189255  0.4119018600316072  0.2769548208659268
  0.7212171004039080  0.5889641145123554  0.5204664128776085
  0.9094568134436501  0.7399898547335608  0.6277023442000831
  0.8924270949702496  0.5756767167215558  0.3847812140730255
  0.9037824130670306  0.4556151940361442  0.9740921294809529
  0.1199465498772602  0.1941938526961188  0.3081684952069815
  0.7890263442886309  0.4703480491662032  0.1508812153547466
  0.8584781836446497  0.9316276482919467  0.8391007462698102
  0.3446468865510315  0.4798888363622110  0.2112113025891278
  0.0333795188776142  0.4433265421889045  0.7728612471414794
  0.0917276238399533  0.7149620214719494  0.0544385366749922
  0.1377075745681483  0.7508950535648983  0.1864582730400957
  0.2419332458965802  0.1679627866774316  0.6354939870323071
  0.1510731554602338  0.4165019650985724  0.1121172808082707
  0.1131673542251038  0.8453637775894098  0.9802234094447284
  0.5240463708571276  0.0829688571124844  0.9803176156388279
  0.6800126831949475  0.6424202147739386  0.6493376060829357
  0.8216187483682437  0.9336191900242132  0.4317272691844177
  0.8417999745615784  0.7980718027153683  0.9628007969944781
  0.3405345055964197  0.8448774406620138  0.5482733234331868
  0.8274040104182487  0.2410642276848953  0.9562251064636514
  0.5468227231912315  0.8220876905458284  0.6859084161624722
  0.3466700083913605  0.8132281412205236  0.2231370472721889
  0.3249135244089465  0.8171271687244949  0.7402067198858658
  0.9766251481772564  0.0036595945220226  0.2615761777145927
  0.3459893750374863  0.0626604457168305  0.5273311386825806
  0.1863633038784148  0.9194306106054874  0.6557013923345818
  0.9589201951977598  0.5298691426063186  0.0995473966514034
  0.5328567216961071  0.5074516037762382  0.4229625366593894
  0.0666175530211871  0.2090451652493723  0.4944629192409565
  0.3157385464164342  0.0631055443622436  0.1209679440769027
  0.1386079526797649  0.0135458570919817  0.2770942723163123
  0.5183020343118703  0.5260706253834524  0.0942468051015457
  0.0868564076740123  0.3399401856609214  0.3377324041917573
  0.2359164667766266  0.6543837522078009  0.4841928843782374
  0.6884336083793458  0.3347350918632715  0.4135907351342875
  0.3030086620913869  0.5845214428123470  0.1122063543477064
  0.0864754103236257  0.2426316933097300  0.9492938759307092
  0.4812774144221519  0.7179094246909179  0.4842938831160204
  0.8660917394389377  0.8245149538500754  0.1711155020933190
  0.0547647224995854  0.6953284797199968  0.5847892434313805
  0.0203572071012879  0.8265855610643115  0.3949918396884645
  0.5060818181530783  0.3185615804088276  0.9506966369222845
  0.8381824705392886  0.5552587670570756  0.8843281990746412
  0.5113075873794310  0.9048634451384775  0.0965038333322565
  0.8861278434957333  0.4010810235036896  0.7658452646252862
  0.0277947970817002  0.5215637860267278  0.4645844542169356
  0.1676815456231427  0.6150619195796188  0.9581376048113273
  0.5090488011475426  0.6232156465239035  0.6305600234497242
  0.6305018039095518  0.1717832315286213  0.8580158211447239
  0.7915803842333982  0.0609469930854180  0.2540844317523523
  0.3443087833101032  0.6113849744050155  0.6744491037779452
  0.5635649288542732  0.1103836812170111  0.1295277381156727
  0.0109841375394845  0.7692837758802828  0.8104255387602314
  0.8980717121702012  0.9826788866910749  0.0605442835071601
  0.8478235601137831  0.4531785210757792  0.5238947967376402
  0.0245331310217235  0.8556394433980533  0.1648868306087876
  0.2817019033875886  0.2593618039677435  0.2868460861455420
  0.4753760183525463  0.3244286974360166  0.3579192527057050
  0.9611164053818996  0.1036886049327406  0.9894081753727013
  0.5210133102388644  0.7792624139480793  0.2828225332385940
  0.4219083209405226  0.7032175969113700  0.0010200539181208
  0.8626711078901098  0.2656388002991292  0.4249376328599761
  0.6973175279593218  0.4606254374596243  0.0162631274786461
  0.8528276263954045  0.0398681047328913  0.7283122989957492
  0.9586874932272097  0.6624664384533904  0.2714217901275547
  0.2784878464637776  0.7782367730691482  0.3773032724993943
  0.4164314562252008  0.1909920618479749  0.8084890681942132
  0.8915304039621714  0.2237593479212291  0.6333596635463312
  0.3383047807467520  0.3587815071096413  0.1026514081466500
  0.6883281644071677  0.3635749581207730  0.8201572678202776
  0.6603412209513881  0.4497314233696740  0.2377115563516519
  0.8342715660531704  0.7018665197093767  0.4948127732348979
  0.7828309851811073  0.8367358894469448  0.7403506684754183
  0.1464922049390026  0.5548593389848193  0.2484659278261895
  0.4886374033077036  0.9686487439474271  0.8251679998628126
  0.2864164013198311  0.3731917382043113  0.9175719591473053
  0.6811354905022353  0.2065408231924479  0.6232837718576220
  0.0396228204512424  0.4328071312007721  0.9273958670970495
  0.7536920107929073  0.6543252327757659  0.3064217496574613
  0.7542004847621101  0.2593246516048707  0.1801691381367104
  0.0663679495769973  0.1224966352626203  0.7810623518217021
  0.8850633145723629  0.4486980200565860  0.2954264784568089
  0.9471932495229739  0.3100607083294619  0.1444724935503405
  0.2372901031842247  0.8473219703375736  0.1156669257973230
  0.1104123637508997  0.1565951310088772  0.1547177669152756
  0.6488471667331889  0.9960570245993778  0.5851590319406140
  0.1777783453118484  0.5332161382005207  0.6135930321069720
  0.4446365216282174  0.4314406507300698  0.5729293814820641
  0.2555645582282156  0.0427885555348711  0.8078781028055569
  0.9660004193855289  0.9148850328090223  0.5874058806893502
  0.1452442424023456  0.0091193161997272  0.4470531685053982
  0.6710844108046476  0.8283602752477418  0.4343345276962514
  0.9654419388177883  0.1545691577077466  0.3214538260013484
  0.5637040247603819  0.3168143206648388  0.1334253888311442
  0.9088033434117306  0.5968023573245809  0.6874065948880725
  0.3743279438243794  0.0893044389212344  0.3042028919297772
  0.1115991881012378  0.6643066968497570  0.3663470244314668
  0.3250484812156655  0.9170957111785651  0.9778804099425916
  0.3774287455664783  0.6466370177162466  0.8438025877138239
  0.3920584518116612  0.6046493028309323  0.3110566058775096
  0.5698567324670574  0.6111975594783503  0.8561033843394470
  0.7407489242431455  0.0123331989105196  0.9040185121661407
  0.4837024476021244  0.9313207704530762  0.3910493072320302
  0.2292231438216835  0.1649523543743139  0.9711544261449746
  0.5902121235460609  0.1259711951473227  0.3040185535897707
  0.6655433923716015  0.4211464941333962  0.5984531274790983
  0.7484118141971584  0.1413374482308498  0.4507821833506300
  0.7024105937990542  0.8335724400099535  0.2164273612847941
  0.2820850942108886  0.4384215772474379  0.4258894219078554
  0.4545918090396006  0.4400006484903300  0.8027967373761994
  0.2269617452102922  0.4898006701936135  0.8095977692760714
 
  0.14468494E-02  0.73004959E-03 -0.73136206E-03
 -0.16158723E-03 -0.18677133E-02 -0.74377238E-03
 -0.66436277E-03 -0.12513339E-02 -0.12533891E-02
 -0.47954938E-03 -0.87913918E-03 -0.94281488E-03
  0.41963015E-03 -0.11968893E-02 -0.25959728E-02
 -0.13800407E-02  0.28860351E-02 -0.74554036E-03
 -0.53321265E-03  0.74617239E-03 -0.14102594E-02
  0.30159406E-03  0.98899825E-03  0.31676463E-02
  0.13871678E-02 -0.52159999E-03 -0.26609690E-02
  0.25390301E-02  0.65115224E-03 -0.82851300E-04
 -0.25059941E-03  0.26445799E-02  0.40330327E-03
 -0.24830344E-02  0.55423149E-03 -0.95382207E-03
  0.20452964E-02  0.18231652E-02 -0.11675848E-02
  0.20759611E-03  0.20316998E-02 -0.53547359E-03
  0.88549384E-03  0.12189141E-02  0.15212461E-03
  0.14964984E-02 -0.16351579E-02  0.18959969E-02
  0.74760406E-03  0.60358494E-03  0.94288280E-03
  0.22853068E-02 -0.23955175E-02 -0.34946271E-03
 -0.29055108E-02 -0.12820645E-02 -0.12289251E-02
 -0.22841047E-02  0.36226419E-03 -0.28639360E-02
 -0.44765172E-02 -0.34715871E-02 -0.34796195E-02
  0.90053299E-03  0.27969073E-02 -0.26477458E-02
  0.34948791E-03  0.34089530E-02  0.18572254E-02
 -0.14973657E-03  0.10781365E-02  0.14361194E-02
  0.15649213E-03 -0.59090224E-03  0.17788553E-02
  0.15144491E-02 -0.32945090E-02  0.12577310E-02
  0.12493808E-02 -0.31916935E-02  0.13106197E-02
  0.38521620E-03  0.28158413E-03 -0.12750527E-02
 -0.21193886E-02 -0.16743859E-02  0.12255631E-02
  0.42772833E-03 -0.12458843E-03  0.10413977E-03
 -0.52762522E-04 -0.71697988E-04  0.15917233E-02
  0.16958540E-02 -0.10820221E-02  0.41053894E-05
 -0.15482377E-02  0.25235756E-02 -0.43803533E-03
 -0.79550690E-03  0.18821731E-03  0.76193364E-03
  0.33947739E-02 -0.73434041E-03  0.16181483E-02
  0.68265853E-03 -0.30324536E-03 -0.61005277E-03
  0.41576707E-03 -0.38070263E-03  0.17860957E-02
  0.25122992E-02  0.20558247E-02 -0.11728729E-02
 -0.45768465E-02  0.25765846E-02 -0.14461566E-02
  0.43572320E-02 -0.89206146E-03 -0.17155991E-03
  0.14321533E-03 -0.31853476E-02 -0.12000523E-03
 -0.42037952E-03 -0.39810560E-03  0.93375934E-03
  0.50935682E-03 -0.95388873E-03  0.19865947E-02
  0.71204167E-03  0.28777909E-02 -0.14927292E-02
  0.12449306E-02  0.34057624E-02  0.36456394E-03
 -0.32961417E-02 -0.16944793E-02  0.42230188E-02
  0.26419777E-02 -0.96579326E-03  0.63340227E-03
  0.23098535E-02  0.25018629E-02 -0.20843789E-02
 -0.22676622E-02 -0.46435513E-03  0.15605082E-02
 -0.61420181E-03  0.22594263E-04  0.24898343E-03
 -0.19827680E-03 -0.22449077E-02  0.28714535E-02
  0.50587165E-03  0.15924237E-02 -0.71945794E-03
 -0.29267125E-03  0.20008790E-03  0.10498833E-02
  0.86460676E-03  0.12797802E-02  0.30013172E-02
 -0.93085604E-03  0.14222650E-02 -0.36799685E-03
 -0.44534727E-02 -0.16327403E-02 -0.87174820E-03
  0.21431417E-02 -0.18580950E-02  0.30410050E-02
 -0.49465501E-03 -0.18165998E-03 -0.98684757E-03
  0.12794986E-03  0.99593985E-03  0.36497916E-03
 -0.10182619E-02 -0.20187571E-02  0.35875912E-02
  0.20739057E-02 -0.53361276E-03  0.11999645E-03
 -0.67374171E-03  0.41255293E-03 -0.32031985E-02
  0.49918235E-03 -0.13136882E-03 -0.30136451E-02
 -0.22018241E-02  0.18913194E-02 -0.12217229E-02
 -0.23343994E-02  0.13349362E-02  0.14813375E-02
 -0.33860442E-02  0.52897348E-03 -0.19151351E-02
 -0.19243397E-03  0.39026378E-02  0.12023550E-03
 -0.75082191E-03  0.19577952E-02 -0.59117379E-03
 -0.17142272E-02 -0.22486805E-02  0.17605421E-02
 -0.28319880E-02  0.89020735E-03  0.30848017E-03
 -0.12085816E-02  0.22471814E-02 -0.11689419E-02
 -0.10422259E-03  0.60129576E-04  0.64624453E-03
 -0.46532439E-02  0.15922952E-02 -0.33653185E-02
  0.10928657E-02  0.15769014E-02 -0.39732204E-02
 -0.10434418E-02  0.23828973E-02  0.13143298E-02
 -0.12677509E-02 -0.12466611E-02  0.27412623E-02
 -0.13191858E-02 -0.14914961E-02 -0.94457863E-04
 -0.20815996E-02 -0.28922577E-02  0.23619529E-02
 -0.10779446E-02 -0.98882373E-03  0.30951316E-03
 -0.28672751E-02  0.16919445E-03  0.16928836E-02
  0.24169051E-02  0.26162381E-02 -0.14047126E-02
  0.11615047E-02 -0.92455758E-03 -0.20895373E-03
 -0.32109428E-02 -0.47593796E-03  0.73292360E-03
 -0.38505804E-03 -0.26928591E-02 -0.26942149E-02
  0.25986575E-02 -0.13645887E-02 -0.19867693E-02
 -0.15119672E-02 -0.12895922E-02  0.18402631E-02
 -0.30647490E-02  0.10068644E-02  0.96095684E-03
  0.76312616E-03  0.97626420E-04 -0.20525646E-02
  0.25526433E-04 -0.29546350E-02 -0.34328491E-03
  0.35294694E-03 -0.22575126E-02 -0.60537006E-03
  0.13408942E-02 -0.29072551E-02  0.92746329E-03
  0.10503149E-02  0.41352443E-03 -0.16995599E-02
 -0.37092601E-03 -0.16789556E-02 -0.10574168E-02
 -0.62925813E-04  0.22419712E-03  0.25720844E-02
  0.28630190E-03 -0.48777337E-03 -0.62507335E-03
  0.33248733E-02 -0.45576671E-03 -0.10392285E-02
  0.38223350E-03  0.72597117E-03  0.11400267E-02
  0.49408251E-03  0.18131425E-02  0.35836331E-02
  0.19270519E-02  0.25509262E-02 -0.92873962E-03
 -0.45079585E-03 -0.18382535E-02 -0.22597987E-03
  0.59717806E-03 -0.52425275E-04 -0.11701266E-02
  0.28770024E-03 -0.12241077E-02 -0.37950445E-03
  0.68812544E-03 -0.41334146E-03 -0.22291127E-02
 -0.32802078E-03 -0.26263880E-03  0.12265282E-02
  0.47741203E-03  0.16082578E-02  0.57301058E-03
  0.31920790E-02  0.24919907E-03 -0.27953400E-02
 -0.26840569E-05  0.84746399E-03  0.13641987E-02
 -0.27613097E-02  0.56135340E-03 -0.10443644E-02
 -0.16677143E-03 -0.20017709E-02 -0.31670938E-02
  0.13895162E-02  0.10645980E-02  0.16306291E-03
  0.11611858E-02  0.33505826E-02  0.54863028E-03
  0.15475144E-02  0.31053656E-04  0.13969184E-02
 -0.84362716E-03 -0.57471483E-03 -0.13118626E-02
  0.95747029E-03  0.28214606E-02 -0.45314270E-03
 -0.93494181E-04 -0.13552537E-02  0.47589079E-03
  0.13965330E-02 -0.26228905E-03 -0.42549170E-03
  0.81523914E-03 -0.75245566E-03 -0.21501168E-02
 -0.19625760E-02  0.98825783E-03 -0.12489119E-02
  0.42212669E-03  0.29288104E-03  0.11292919E-02
 -0.21184908E-03 -0.33722327E-02 -0.51437758E-03
 -0.24472778E-02  0.21769672E-03 -0.88735479E-03
 -0.16347052E-02  0.20606490E-02  0.29498611E-02
  0.18092946E-02  0.25436114E-03  0.11346534E-02
  0.11938105E-02 -0.78995329E-03 -0.91202038E-03
  0.12893553E-03  0.39671992E-03 -0.11728508E-03
 -0.15794618E-02  0.34169520E-03  0.30439175E-02
 -0.10990858E-05 -0.14476529E-02  0.94518313E-03
  0.81179065E-03 -0.18060944E-02  0.17212058E-02
 -0.14751386E-02  0.13514044E-02 -0.97108186E-03
 -0.10067484E-02  0.11603835E-03  0.88417167E-03
  0.69882351E-03 -0.17158046E-03  0.13095863E-02
  0.25690337E-02 -0.31714066E-03  0.71630967E-03
 -0.33231662E-03 -0.68553032E-03  0.30151586E-03
 -0.75998771E-03  0.16651627E-02  0.42542717E-03
  0.12332257E-02 -0.63390751E-03 -0.14038967E-02
  0.98786528E-03  0.50521953E-03  0.21523548E-02
  0.84440958E-05 -0.77288198E-03  0.70950098E-03
  0.34832812E-02 -0.13340539E-02 -0.15167387E-02
 -0.18430031E-02  0.81699500E-03 -0.29996214E-03
  0.77202368E-03 -0.28872331E-02  0.29906679E-03
  0.13248597E-02 -0.50197851E-03  0.55847571E-03
 -0.12625923E-02 -0.63540440E-03  0.19324047E-02
  0.12009670E-04  0.18514398E-02 -0.49559342E-03
  0.24408608E-03  0.27048227E-02  0.95125535E-03
 -0.16283420E-02  0.25285542E-02  0.23816285E-02
  0.95920949E-03  0.76758000E-03  0.23405018E-04
  0.10553805E-02  0.22406168E-03 -0.34757357E-03
 -0.11406193E-02 -0.23645073E-03 -0.40071825E-02
 -0.18198679E-02 -0.71532862E-03 -0.13516181E-02
  0.14722811E-02 -0.18484729E-02 -0.13810187E-02
 -0.18414259E-03  0.11625489E-02  0.79035901E-03
 -0.12033858E-03  0.11032282E-02  0.14375154E-02
  0.35053630E-02 -0.21373531E-02  0.19968680E-02
  0.26634256E-02 -0.17334371E-02  0.24505658E-02
  0.13109395E-02 -0.85778657E-03 -0.16773804E-02
  0.77020038E-04  0.12733217E-02 -0.17768498E-02
  0.25529168E-02  0.59200690E-03  0.16632346E-02
  0.25701154E-02  0.41512343E-03 -0.36239858E-04
  0.77739937E-03  0.38485098E-03 -0.44321110E-03
  0.21729783E-02 -0.25347046E-03  0.25155003E-03
 -0.31146149E-02 -0.21241868E-02 -0.41334589E-03
  0.26734219E-03  0.38843819E-03 -0.90645849E-03
  0.57934378E-03  0.15679210E-02  0.15630438E-02
 -0.42215433E-03  0.19868750E-02  0.17087912E-02
  0.13035063E-02  0.77700585E-03 -0.12776507E-02
 -0.11556072E-02  0.82592655E-04 -0.22777814E-02
  0.79970288E-03  0.32537228E-02 -0.55418918E-03
 -0.15550949E-02 -0.12547130E-02  0.48740182E-03
  0.87846479E-03 -0.54574580E-03  0.15076099E-03
 -0.10001388E-02 -0.32899252E-02  0.65959914E-03
 -0.63975647E-03  0.24622223E-02  0.22221272E-02
 -0.97722893E-03 -0.31565984E-03  0.12839378E-02
  0.61788251E-03  0.52136355E-03  0.20048240E-02
 -0.36392985E-03  0.33965831E-03 -0.13249079E-03
  0.13037218E-02 -0.54875320E-02 -0.47880934E-02
 -0.16145080E-02 -0.61213119E-03 -0.45538236E-03
  0.19657928E-04 -0.52580689E-03 -0.13388369E-03
 -0.73665388E-03  0.15645760E-03  0.15126753E-02
  0.75452495E-03  0.26474879E-02 -0.53022636E-03
 -0.44172902E-03 -0.12747938E-02  0.14976187E-02
 -0.14984491E-02 -0.23562189E-02 -0.16070915E-02
  0.18099078E-02  0.16496180E-02 -0.13097766E-03
 -0.11587818E-03 -0.30298405E-03 -0.22021393E-03
 -0.58604539E-03  0.10802846E-02  0.92857123E-03
  0.30266505E-03  0.89423299E-03  0.68614183E-03
 -0.21818582E-02 -0.15053676E-02  0.88421186E-03
 -0.12061388E-02  0.12951983E-02 -0.21751177E-03
  0.32961786E-03  0.41269588E-03  0.13314399E-03
 -0.11188735E-02  0.23430790E-02  0.28217749E-03
  0.68999188E-03  0.18327709E-02  0.31819171E-02
  0.63739030E-03 -0.70658917E-03  0.30687151E-02
  0.14423610E-04  0.49125190E-03 -0.17812347E-02
  0.83434342E-05 -0.10856876E-04 -0.26620433E-02
  0.74535565E-03  0.29173749E-02 -0.65022484E-03
 -0.19145720E-02  0.70849945E-03 -0.70383289E-03
  0.27576925E-03 -0.19358689E-02  0.13404963E-03
 -0.13459293E-02 -0.62307319E-03 -0.10092725E-02
  0.50310764E-03 -0.17255790E-02 -0.10231027E-03
  0.46501409E-03  0.69427443E-03  0.19487487E-02
  0.19522508E-02 -0.36552214E-03 -0.37505424E-03
 
           1
   3.00000000000000     
  0.10000000E+01  0.00000000E+00  0.00000000E+00  0.00000000E+00
  0.66028628E+00  0.95643924E+00  0.10563099E+00
  0.83419436E+00  0.71542373E+00  0.81719267E+00
  0.37448024E-01  0.43963514E+00  0.22224205E+00
  0.26143800E+00  0.67954514E+00  0.25630448E+00
  0.68929502E+00  0.22056429E-01  0.75497204E+00
  0.87284904E+00  0.19090384E+00  0.77853535E+00
  0.38874535E+00  0.23742192E+00  0.45960970E+00
  0.25450038E+00  0.20957732E+00  0.12604169E+00
  0.24013048E+00  0.82588125E+00  0.88471144E+00
  0.65921305E+00  0.97692671E+00  0.25296647E+00
  0.18655724E+00  0.99273901E+00  0.12576065E+00
  0.87077578E-01  0.84452163E+00  0.53114796E+00
  0.96363839E+00  0.66199734E+00  0.17412301E-01
  0.58561388E+00  0.64782973E+00  0.30740565E+00
  0.41752811E+00  0.19024136E+00  0.97716555E+00
  0.85990887E+00  0.18441359E+00  0.10559524E+00
  0.12834598E+00  0.70737128E+00  0.72384360E+00
  0.26638213E+00  0.30279059E+00  0.52591770E+00
  0.77470156E+00  0.83487602E+00  0.53852307E+00
  0.56173142E+00  0.75903491E+00  0.14085869E+00
  0.49966201E+00  0.20639091E+00  0.54760069E+00
  0.83335005E+00  0.36345933E+00  0.55566903E-01
  0.52981227E-01  0.23814962E-01  0.91005409E+00
  0.12317930E+00  0.95445690E-01  0.57458021E+00
  0.54763104E+00  0.29908552E+00  0.80055432E+00
  0.36639221E+00  0.56588091E+00  0.47704843E+00
  0.76908789E+00  0.55603032E-01  0.92253045E-01
  0.64471685E+00  0.59032956E+00  0.18805387E+00
  0.54009685E+00  0.85295475E+00  0.51726345E+00
  0.18803002E+00  0.14499011E-01  0.97501769E+00
  0.47188518E+00  0.85365119E-01  0.43026284E+00
  0.69610160E+00  0.17438635E+00  0.56075360E-01
  0.36109832E+00  0.45671715E+00  0.69250437E+00
  0.63758889E+00  0.87910533E+00  0.77684142E+00
  0.37377404E+00  0.95903557E+00  0.72550567E+00
  0.94911419E+00  0.38989112E+00  0.42479314E+00
  0.83905693E+00  0.60435284E+00  0.19298361E+00
  0.71016076E+00  0.49884986E+00  0.72165420E+00
  0.97549142E+00  0.47032498E+00  0.60960591E+00
  0.47187540E+00  0.84498991E+00  0.95499935E+00
  0.80175318E+00  0.46203813E-01  0.54824047E+00
  0.70496487E+00  0.88030682E+00  0.98538851E+00
  0.60233585E-01  0.99724080E+00  0.66961978E+00
  0.43611836E+00  0.24698354E+00  0.11869465E+00
  0.37903020E+00  0.45262779E-01  0.89550625E+00
  0.67333796E+00  0.29153895E+00  0.95488371E+00
  0.22836371E-01  0.63417099E+00  0.89283720E+00
  0.73104146E+00  0.61474093E+00  0.97838611E+00
  0.94207041E+00  0.12731687E+00  0.47449839E+00
  0.67129728E+00  0.98401696E+00  0.40870871E+00
  0.69102748E+00  0.70345414E+00  0.86360892E+00
  0.96827180E+00  0.28907892E+00  0.83174793E+00
  0.25026000E+00  0.19391358E+00  0.42067826E+00
  0.58456718E+00  0.23325329E+00  0.42795656E+00
  0.76223418E-01  0.31072849E+00  0.73182461E+00
  0.60442874E+00  0.65290262E+00  0.44666003E+00
  0.22786530E+00  0.40815864E+00  0.68709887E+00
  0.14519293E+00  0.84555972E+00  0.30273983E+00
  0.17134202E+00  0.91981551E+00  0.80956488E+00
  0.43186844E+00  0.95992708E+00  0.58686088E+00
  0.31830857E+00  0.30177084E+00  0.77522849E+00
  0.50805904E+00  0.84719809E-02  0.25694007E+00
  0.58861855E+00  0.96146288E-01  0.67688926E+00
  0.61574201E+00  0.81623786E+00  0.90721898E+00
  0.83003233E+00  0.68383781E+00  0.65012032E-01
  0.56783387E+00  0.31844586E+00  0.63955145E+00
  0.73403179E+00  0.23268691E+00  0.76878808E+00
  0.15325745E+00  0.42611418E+00  0.50465962E+00
  0.56828191E+00  0.52844490E+00  0.73541393E+00
  0.41074970E-01  0.59269252E+00  0.75169126E+00
  0.88011331E-01  0.28546354E+00  0.86575313E-01
  0.69432351E+00  0.48142939E+00  0.38425560E+00
  0.10214592E-01  0.31032508E+00  0.60484981E+00
  0.31311289E+00  0.93186019E+00  0.43117226E+00
  0.40740134E+00  0.43713360E+00  0.97069859E+00
  0.42328957E+00  0.13873184E+00  0.64953116E+00
  0.57536513E+00  0.64479706E+00  0.12188874E-01
  0.28505088E-01  0.93357024E+00  0.80006386E+00
  0.87081395E+00  0.78283314E+00  0.32047673E+00
  0.38577554E+00  0.29054131E+00  0.60957237E+00
  0.44922867E+00  0.21052519E+00  0.25414257E+00
  0.97668891E+00  0.96759727E+00  0.43491915E+00
  0.46049133E+00  0.78803544E+00  0.80863200E+00
  0.51008229E+00  0.42525137E+00  0.21688187E+00
  0.18378200E+00  0.23119939E+00  0.76742704E+00
  0.43202576E+00  0.64687138E+00  0.15542043E+00
  0.77133595E+00  0.31339257E+00  0.54914398E+00
  0.22829928E+00  0.69211362E+00  0.84197727E+00
  0.23643005E+00  0.41140852E+00  0.27689750E+00
  0.72127603E+00  0.58858718E+00  0.52036533E+00
  0.90968070E+00  0.73950443E+00  0.62785720E+00
  0.89260247E+00  0.57574576E+00  0.38449744E+00
  0.90372048E+00  0.45533486E+00  0.97391557E+00
  0.11993604E+00  0.19423129E+00  0.30859796E+00
  0.78907415E+00  0.47026661E+00  0.15077685E+00
  0.85903334E+00  0.93155155E+00  0.83892723E+00
  0.34471071E+00  0.48001005E+00  0.21140165E+00
  0.33462016E-01  0.44362928E+00  0.77345961E+00
  0.92049384E-01  0.71538795E+00  0.54283465E-01
  0.13763231E+00  0.75058812E+00  0.18642054E+00
  0.24203296E+00  0.16795403E+00  0.63529861E+00
  0.15112119E+00  0.41629758E+00  0.11205391E+00
  0.11328225E+00  0.84529476E+00  0.97985121E+00
  0.52399160E+00  0.82925004E-01  0.98052241E+00
  0.68009240E+00  0.64268875E+00  0.64943328E+00
  0.82215173E+00  0.93366080E+00  0.43126053E+00
  0.84179953E+00  0.79821330E+00  0.96302858E+00
  0.34007345E+00  0.84497117E+00  0.54809895E+00
  0.82737616E+00  0.24072999E+00  0.95569630E+00
  0.54705473E+00  0.82226545E+00  0.68593564E+00
  0.34686389E+00  0.81378759E+00  0.22322865E+00
  0.32517191E+00  0.81713235E+00  0.74043996E+00
  0.97648429E+00  0.35636344E-02  0.26135714E+00
  0.34614924E+00  0.63131545E-01  0.52725548E+00
  0.18634769E+00  0.91920432E+00  0.65578085E+00
  0.95915337E+00  0.52982535E+00  0.99476352E-01
  0.53299284E+00  0.50732597E+00  0.42260353E+00
  0.66289862E-01  0.20921017E+00  0.49425439E+00
  0.31580903E+00  0.63154447E-01  0.12115650E+00
  0.13857258E+00  0.12982795E-01  0.27700839E+00
  0.51789341E+00  0.52610697E+00  0.94098643E-01
  0.86583461E-01  0.34028425E+00  0.33822494E+00
  0.23621856E+00  0.65442622E+00  0.48438234E+00
  0.68863294E+00  0.33460319E+00  0.41343846E+00
  0.30303019E+00  0.58458768E+00  0.11218677E+00
  0.86211688E-01  0.24268875E+00  0.94980212E+00
  0.48127723E+00  0.71766771E+00  0.48445170E+00
  0.86622728E+00  0.82421339E+00  0.17140289E+00
  0.54518419E-01  0.69555412E+00  0.58462710E+00
  0.20189110E-01  0.82660494E+00  0.39513947E+00
  0.50619850E+00  0.31853293E+00  0.95091530E+00
  0.83861142E+00  0.55520581E+00  0.88444780E+00
  0.51125210E+00  0.90474898E+00  0.96554177E-01
  0.88600095E+00  0.40135906E+00  0.76591630E+00
  0.28000709E-01  0.52145794E+00  0.46435005E+00
  0.16784649E+00  0.61514628E+00  0.95849698E+00
  0.50905021E+00  0.62308660E+00  0.63067849E+00
  0.63108341E+00  0.17156048E+00  0.85776257E+00
  0.79127266E+00  0.61083407E-01  0.25403435E+00
  0.34443769E+00  0.61090289E+00  0.67449904E+00
  0.56378614E+00  0.11029987E+00  0.12962099E+00
  0.10773323E-01  0.76917768E+00  0.81074819E+00
  0.89807372E+00  0.98298802E+00  0.60461534E-01
  0.84786432E+00  0.45363015E+00  0.52405363E+00
  0.24261247E-01  0.85606164E+00  0.16528449E+00
  0.28186206E+00  0.25948997E+00  0.28684999E+00
  0.47555224E+00  0.32446611E+00  0.35786122E+00
  0.96092596E+00  0.10364912E+00  0.98873910E+00
  0.52070945E+00  0.77914298E+00  0.28259685E+00
  0.42215415E+00  0.70290896E+00  0.78946525E-03
  0.86264036E+00  0.26583291E+00  0.42506960E+00
  0.69729744E+00  0.46080964E+00  0.16503149E-01
  0.85341292E+00  0.39511231E-01  0.72864572E+00
  0.95913221E+00  0.66217701E+00  0.27183096E+00