Amorphous GeAsSeSi                      
   1.00000000000000     
    19.0036188657994742    0.0000000000000000    0.0000000000000000
     0.0000000000000000   19.0036188657994742    0.0000000000000000
     0.0000000000000000    0.0000000000000000   19.0036188657994742
   Ge   Si   Se
   108    24   108
Direct
  0.1062475709638992  0.4251679029130367  0.7150923080714320
  0.0381006267680499  0.7934960194077932  0.8927765884197897
  0.6224666323348178  0.8139989113765576  0.5868067835220006
  0.5721330125255322  0.9385186594617616  0.0147068563688750
  0.4174979392736010  0.2700270587355036  0.2895797813852178
  0.9566878960909563  0.6139532668073923  0.2778876379942289
  0.2775531514224595  0.0135802412215719  0.6357520038834774
  0.1412313300151852  0.4400198055452547  0.4928542920350382
  0.8060528137559346  0.6272914050514984  0.3614326414253173
  0.3558583467494170  0.8832922338972243  0.4168976484103900
  0.0144307828545081  0.1793444755150833  0.4758893954333639
  0.3540056968493122  0.1627604897562876  0.9419624734164607
  0.5176286549964273  0.3234983913081068  0.3558676876557272
  0.8969061489734425  0.8099484975656858  0.8300508931029399
  0.8683837679390322  0.0541575680442299  0.7457843098499338
  0.3476643272707218  0.1895756583883960  0.7017842930472479
  0.4622556709223473  0.0406184982769346  0.8480285351328434
  0.1917539464470340  0.5405434492916290  0.3331637031275352
  0.5973025944493834  0.6117862841433953  0.2763648709085180
  0.2813661766012355  0.8636809136032715  0.1632326176599331
  0.0592462465598698  0.6712389670816814  0.1405831429373577
  0.8550137550179050  0.5421437395792005  0.8776268949423186
  0.9549323603103079  0.2366121499713758  0.9692002659432069
  0.9083928500539524  0.7917048340298863  0.3926011937360943
  0.9351037559576838  0.2661777539515939  0.3993407484339281
  0.1310094624001308  0.2311043405682476  0.8083044308431745
  0.0846092039458640  0.7505664599576022  0.5371756530936008
  0.3599572628312130  0.6099162958796437  0.1926640364152884
  0.7698228900901083  0.9631853903497087  0.7266307385180945
  0.4873318557515291  0.8058334882310771  0.2730872068760211
  0.3503367424956967  0.6913180133792334  0.4747239956787815
  0.5378087903733723  0.5868499569371404  0.4791405471907483
  0.2740933474806055  0.0211306647872860  0.9965290299075410
  0.8313878547476666  0.3306407152671922  0.8405236654595093
  0.5910109471157962  0.4311611835738415  0.1536830314406639
  0.6881079087377002  0.0207552029249671  0.6316508525733323
  0.5775148082067014  0.0455538851038801  0.4874500526530441
  0.0370743240892179  0.6415250037394770  0.3894709464268366
  0.6370620265505925  0.7145733843759545  0.8676683740956405
  0.6145474698193827  0.1845060437348646  0.7341688086200000
  0.5055556409133254  0.0690465103884323  0.3670307665760335
  0.4570131408123085  0.4400554639711824  0.1498902747221422
  0.5287345851530739  0.3712841489495021  0.9543941725953251
  0.3044678272440402  0.8893827182605127  0.5829506215943675
  0.2620302051916059  0.6468714129228266  0.2772185913935723
  0.1730278331563757  0.8047148352049079  0.3645141090565530
  0.7654951692465954  0.3406577550397869  0.0604833173517856
  0.8789602732346641  0.4817794701608595  0.5203149314408956
  0.7809104617799096  0.2175895500749721  0.8965777710618493
  0.8802191267746052  0.1477039103613727  0.8387432002064237
  0.9332059297472322  0.0916203335867676  0.1935233602516064
  0.7841060483159834  0.4182758848088128  0.7467443697976399
  0.0063561262450427  0.9134822874497247  0.7632652831082649
  0.4939740337748305  0.1538247156880655  0.1588623834620388
  0.6501656105115858  0.3465820498865724  0.3673576468536487
  0.4574986059876113  0.6476095285733550  0.1069057981058275
  0.8152531847735949  0.2134077883434393  0.2099141972945789
  0.1947137946237157  0.6636260001303905  0.1621887823105268
  0.5073567219753471  0.0597355868468033  0.0587691692335199
  0.9589836111827237  0.9269917910935068  0.0302683097132428
  0.2517017908503791  0.7054271204412293  0.6435174090765990
  0.5155805497123014  0.2938366321775220  0.7529451527424860
  0.3818743454443744  0.6403279191577956  0.7953959240653719
  0.4354137683112297  0.8229896471911864  0.5174870019313879
  0.5770907848090097  0.9617483486172218  0.1728640438774628
  0.4282621380243528  0.4093532770801976  0.7571076479434451
  0.1010421668321796  0.9116064387923091  0.6643569781337756
  0.2422386547239446  0.0784823898878835  0.1696293950339666
  0.3610139924702508  0.5205456347800548  0.7138074878393778
  0.9707229173530928  0.7075892958535641  0.4867784117003558
  0.7578194316885503  0.7045472206736797  0.9333388067377422
  0.1635774659555236  0.5848350215052939  0.6331846180068689
  0.0016460377448075  0.0470801285273173  0.7514266246455362
  0.5883218709542785  0.4230434674942667  0.5754778205343845
  0.3453335247771476  0.6760987357323253  0.0255256288630459
  0.7065818963604505  0.6402489945674792  0.6444754925737688
  0.7100804219686212  0.7941980920141469  0.3652925562094416
  0.3054576258898346  0.2913038189790990  0.3663793296232747
  0.2041081512901735  0.7369563523800805  0.4801018482892316
  0.7527712067010752  0.1621377077639924  0.0240754429948825
  0.8014178168106670  0.3188832316594551  0.4911996143617854
  0.9885826809674586  0.4449819405303354  0.7882359763535881
  0.4014108944241886  0.1506204890219371  0.4940277346312668
  0.3125896449037672  0.1111064990627136  0.8098895466758435
  0.1302936028735331  0.9009536284003137  0.2644220545527552
  0.6144667257607980  0.2178565246639492  0.1505414891211897
  0.4490894190755015  0.4021547938991972  0.5665360126567873
  0.0458103565951272  0.4945949238504367  0.0073096194345974
  0.5613908409913984  0.2193319010789236  0.5000336268622919
  0.5857240577314026  0.6953770714463952  0.6539605527025190
  0.9377259404508559  0.3854945024783389  0.3223957810626024
  0.6901560141335980  0.5204645098800466  0.5720184996650033
  0.3494427816385022  0.4659754132546820  0.9576104335128376
  0.1460675451176958  0.0973547453751148  0.9712805889919977
  0.2631919389812647  0.4708515621646483  0.2289014263438155
  0.6217932164771469  0.5822161913658050  0.0419353425861790
  0.9431771911233476  0.6950430959196537  0.0378607743086368
  0.4097826595045245  0.1350216805634653  0.2879334003080818
  0.0148729575776342  0.1529145916657450  0.8323023581369666
  0.7518587276194441  0.8891005981917957  0.4677532053359998
  0.6345450755310300  0.3258409069869051  0.2261945341420409
  0.9178487676128142  0.8253627377799403  0.5536861903935201
  0.9577134455478354  0.6281809518333867  0.6021396023145614
  0.3283083770978746  0.5460019179500096  0.4920032410898739
  0.4999145207451302  0.7780110574688601  0.4097462268936608
  0.6530138892799997  0.4324776487234789  0.7869082833572346
  0.3975240131389638  0.3205155730086930  0.1690370834263422
  0.7272082224942658  0.5454201542292996  0.4419117710805310
  0.1465558621025596  0.2561740197641312  0.0494092263897884
  0.5908886753944290  0.9324300128778773  0.6405306378472079
  0.2724648828511521  0.3462311868868238  0.1832013846925221
  0.4968363225106308  0.9427328336551104  0.5163745464868559
  0.0730225854546764  0.2598476354115911  0.5586032022807972
  0.8570910422095227  0.8910891970117089  0.1085542920176797
  0.0501843735854450  0.0935785286019468  0.6433523747299972
  0.7280741997168730  0.8119963265838349  0.9949890629054207
  0.7034723719816490  0.0437886275428540  0.8054323920673280
  0.7312092554992369  0.1658519672477637  0.7912637615096408
  0.4684937858350080  0.7487775167804600  0.6256626716941212
  0.0841967126451001  0.0666941241887411  0.3309191973014013
  0.9486619738311666  0.9745602777554467  0.2417697852183774
  0.2646551389915927  0.5055209635630943  0.8017090929874038
  0.3841873794073640  0.8707090364864548  0.9676191576402099
  0.3317057056686769  0.3379199806359351  0.8022482162878445
  0.3871143833742189  0.8972801071352615  0.0886309092463405
  0.6066198676489526  0.5546827776549016  0.7863690177198591
  0.4991835291312434  0.9773609183062201  0.2764457517945233
  0.9377879078638051  0.3671501394595216  0.4946569194003275
  0.7881938113086830  0.7425041627525595  0.6739404311236370
  0.7640443710713798  0.9294537780802199  0.9666892607883658
  0.5750830920860295  0.7684349977859372  0.7588482092707241
  0.9682082605521988  0.4717167963123582  0.1774125964443020
  0.7611490185768425  0.3388571960586463  0.1981926422034093
  0.3153276428271712  0.9950687195226461  0.7552770851681214
  0.0215759350463598  0.8056746407551535  0.0237480648730967
  0.4887948709101076  0.1259962315737173  0.9454278573447243
  0.6104333043935012  0.7826974594427224  0.9823749169843599
  0.6235727125666702  0.3381287437844543  0.8676566408240068
  0.1519269701616489  0.5431137465349826  0.7666497873534018
  0.3970395029923623  0.4964023075813720  0.2516886863726369
  0.7501858160097881  0.6014266333453722  0.0067020632414423
  0.6576824346725497  0.5377928732865090  0.1803480679023539
  0.0100847772718591  0.1113401310902665  0.9577215588298851
  0.2458554125429820  0.3999217740735097  0.8656031302483398
  0.9928989615652798  0.5296704601561366  0.8872709937144100
  0.6000463361035652  0.2183671337756100  0.3664350520459180
  0.0447659022115894  0.8745840796033287  0.5512695513341656
  0.4082967826258367  0.7561980283514698  0.9394186309091965
  0.0112908705318220  0.3668859106455564  0.2158049294403887
  0.4470888897182160  0.5259896464517223  0.0520936317114620
  0.6283275351748252  0.4436377403176218  0.0287969813079625
  0.9618291901145605  0.0979598007852289  0.5623327036351572
  0.2077743378705763  0.9672236523536298  0.1003124727221467
  0.8678359509006672  0.8847326381456523  0.2316973602828366
  0.3011964320692697  0.5781941038996308  0.8985486673723376
  0.2971174932817431  0.4786779774458105  0.6038860776075138
  0.1813656804747317  0.1091804252305671  0.8044133864063351
  0.3836953276301622  0.0202506641528462  0.0876109615873408
  0.8849689534453110  0.6974132967983462  0.9070075963333126
  0.4603774831112655  0.4624341532889942  0.8752365602948077
  0.7995234532742015  0.4394256097823288  0.4177998061894068
  0.4029117953613360  0.2660576570192512  0.8702735948937637
  0.1722881714721382  0.3146097159532755  0.5191689203331832
  0.6201149555476122  0.3571737955961978  0.6848055329815979
  0.4459523261707289  0.4893874475074687  0.4638511758205992
  0.7150092719125829  0.6098213852360346  0.7696994014285388
  0.3153390912654334  0.1578459751015699  0.3951072288990060
  0.6159357907029026  0.8841970725099765  0.7528423858452274
  0.6576386301577891  0.2588177563735869  0.0330266227370890
  0.1913618933539766  0.2192798611261044  0.9418936371325051
  0.5829061623888563  0.0596670585856901  0.7720201738533056
  0.2673539383861099  0.6991828143072234  0.7700261028702982
  0.7116881855430173  0.0155946233818393  0.4994075580117853
  0.0200356418523218  0.9845086145258334  0.1435053574311852
  0.8799253852475887  0.9123443622829570  0.4543084267209427
  0.0785786885129208  0.9119130690123182  0.8712950814605518
  0.7992375980214750  0.7312921645353008  0.4469360830742018
  0.2407754573404069  0.9107379087286068  0.4693277193140999
  0.5036433525915830  0.8645074232955792  0.1125203399735474
  0.9579614962392325  0.3261096905801039  0.8250911438815971
  0.0157394614150507  0.4370600384384925  0.4231310222747386
  0.6536596268891913  0.1451212637501702  0.6155611126690883
  0.2717198608564606  0.4638295064709302  0.4070880292035346
  0.9063703439259819  0.7276642045161942  0.6809890123933426
  0.7139704392409296  0.6774916125435790  0.2812312261067144
  0.0803413993764368  0.7310923799302618  0.3045668638731926
  0.2991523559696839  0.1359954675235478  0.5924689419466131
  0.0389635231347921  0.3071794493242516  0.0420288589210450
  0.4621915506669046  0.6532661275030962  0.3918106219281243
  0.4117649837109278  0.0120653028768474  0.4505163086046174
  0.7967984394326548  0.4267524409008373  0.9147741079098446
  0.4525522462439983  0.2379993071512038  0.6469924846706236
  0.8827651341754003  0.5038742394943395  0.2590692309359690
  0.2634383505134759  0.2868571638187234  0.7165951805051478
  0.4520667193539245  0.7800604544503786  0.7448728114897224
  0.4747909548917280  0.9670617450665395  0.6357540719517071
  0.0617152983310921  0.6306427115324358  0.0117821303662783
  0.8294595332643100  0.1798139844039035  0.7151599182942300
  0.2511575127261063  0.7541407716577594  0.0823231530190260
  0.3965216436348440  0.9087563136322235  0.2762304674135593
  0.7712596955045472  0.7992955750887270  0.7806030656258823
  0.4533721994908090  0.3030113561653160  0.4736022896620014
  0.2809875235476780  0.9113264087012399  0.9236895260360936
  0.7794535494943925  0.4324185435221191  0.6065621576191207
  0.0251075874531905  0.9545985402958276  0.3403300436862085
  0.3844598844244574  0.6610230096512831  0.6051067737171205
  0.7104118591440507  0.1378464011514676  0.1804694226201834
  0.6810778377273473  0.0084010728945004  0.9227032435041116
  0.2228843351133773  0.2699223553362080  0.2604468316746206
  0.4264379625702432  0.2348804013778206  0.0794695506674400
  0.1123778057098840  0.1978664182313727  0.6574610925935241
  0.2120948077124249  0.8462744732511474  0.6719303748673344
  0.0583497089472719  0.5524877796298953  0.2073125383193586
  0.6129541329587670  0.5239391658740647  0.3809628902407335
  0.2614489688708412  0.5532513482124133  0.1183210686836394
  0.6483084132511322  0.3240899024396493  0.5124069458344744
  0.9842612870047321  0.3307416154627238  0.6020003596841081
  0.5352607964748912  0.5659391716705293  0.6929822321328167
  0.4857920676566242  0.9205065339258417  0.9110695706046524
  0.5914371326962029  0.8902139918777244  0.2912162298277042
  0.7813732414412891  0.9831500106862225  0.0748499278398130
  0.2103039010121524  0.3560049596034868  0.0789294750957389
  0.1201973939948019  0.1161708392285756  0.4328389747762069
  0.2934885908394305  0.7665495812760366  0.3142996250978098
  0.5651517472001620  0.6064750203125708  0.8889302931496825
  0.8559447471686292  0.2323414187915972  0.0754417988592198
  0.6201790361876380  0.7566319503241467  0.4589763887860830
  0.1492089503842509  0.6164974653819212  0.4592176476269429
  0.7883506089035558  0.7881196267516861  0.0985287338398391
  0.8794857872999874  0.5079180018051653  0.7449242252248351
  0.8660381310691100  0.9229879826637323  0.9022348338193912
  0.8116682905940310  0.2287176269966381  0.3983786205290475
  0.1357522201473529  0.1468047351771220  0.1050782829943450
  0.9262763417245169  0.4828804070094367  0.0668994027779749
  0.7520955085363776  0.8421648409838105  0.5997352173773135
  0.1916191930147554  0.0211032274526617  0.2900953949585790
  0.1414964424266550  0.0188925875273099  0.6022545480849939
  0.0700028968383950  0.4925190002233789  0.6074834891662797
  0.0725197882415577  0.6879552599726927  0.6527290055202996
  0.0228766400937005  0.1484818649947229  0.2697984177175627
 
  0.00000000E+00  0.00000000E+00  0.00000000E+00
  0.00000000E+00  0.00000000E+00  0.00000000E+00
  0.00000000E+00  0.00000000E+00  0.00000000E+00
  0.00000000E+00  0.00000000E+00  0.00000000E+00
  0.00000000E+00  0.00000000E+00  0.00000000E+00
  0.00000000E+00  0.00000000E+00  0.00000000E+00
  0.00000000E+00  0.00000000E+00  0.00000000E+00
  0.00000000E+00  0.00000000E+00  0.00000000E+00
  0.00000000E+00  0.00000000E+00  0.00000000E+00
  0.00000000E+00  0.00000000E+00  0.00000000E+00
  0.00000000E+00  0.00000000E+00  0.00000000E+00
  0.00000000E+00  0.00000000E+00  0.00000000E+00
  0.00000000E+00  0.00000000E+00  0.00000000E+00
  0.00000000E+00  0.00000000E+00  0.00000000E+00
  0.00000000E+00  0.00000000E+00  0.00000000E+00
  0.00000000E+00  0.00000000E+00  0.00000000E+00
  0.00000000E+00  0.00000000E+00  0.00000000E+00
  0.00000000E+00  0.00000000E+00  0.00000000E+00
  0.00000000E+00  0.00000000E+00  0.00000000E+00
  0.00000000E+00  0.00000000E+00  0.00000000E+00
  0.00000000E+00  0.00000000E+00  0.00000000E+00
  0.00000000E+00  0.00000000E+00  0.00000000E+00
  0.00000000E+00  0.00000000E+00  0.00000000E+00
  0.00000000E+00  0.00000000E+00  0.00000000E+00
  0.00000000E+00  0.00000000E+00  0.00000000E+00
  0.00000000E+00  0.00000000E+00  0.00000000E+00
  0.00000000E+00  0.00000000E+00  0.00000000E+00
  0.00000000E+00  0.00000000E+00  0.00000000E+00
  0.00000000E+00  0.00000000E+00  0.00000000E+00
  0.00000000E+00  0.00000000E+00  0.00000000E+00
  0.00000000E+00  0.00000000E+00  0.00000000E+00
  0.00000000E+00  0.00000000E+00  0.00000000E+00
  0.00000000E+00  0.00000000E+00  0.00000000E+00
  0.00000000E+00  0.00000000E+00  0.00000000E+00
  0.00000000E+00  0.00000000E+00  0.00000000E+00
  0.00000000E+00  0.00000000E+00  0.00000000E+00
  0.00000000E+00  0.00000000E+00  0.00000000E+00
  0.00000000E+00  0.00000000E+00  0.00000000E+00
  0.00000000E+00  0.00000000E+00  0.00000000E+00
  0.00000000E+00  0.00000000E+00  0.00000000E+00
  0.00000000E+00  0.00000000E+00  0.00000000E+00
  0.00000000E+00  0.00000000E+00  0.00000000E+00
  0.00000000E+00  0.00000000E+00  0.00000000E+00
  0.00000000E+00  0.00000000E+00  0.00000000E+00
  0.00000000E+00  0.00000000E+00  0.00000000E+00
  0.00000000E+00  0.00000000E+00  0.00000000E+00
  0.00000000E+00  0.00000000E+00  0.00000000E+00
  0.00000000E+00  0.00000000E+00  0.00000000E+00
  0.00000000E+00  0.00000000E+00  0.00000000E+00
  0.00000000E+00  0.00000000E+00  0.00000000E+00
  0.00000000E+00  0.00000000E+00  0.00000000E+00
  0.00000000E+00  0.00000000E+00  0.00000000E+00
  0.00000000E+00  0.00000000E+00  0.00000000E+00
  0.00000000E+00  0.00000000E+00  0.00000000E+00
  0.00000000E+00  0.00000000E+00  0.00000000E+00
  0.00000000E+00  0.00000000E+00  0.00000000E+00
  0.00000000E+00  0.00000000E+00  0.00000000E+00
  0.00000000E+00  0.00000000E+00  0.00000000E+00
  0.00000000E+00  0.00000000E+00  0.00000000E+00
  0.00000000E+00  0.00000000E+00  0.00000000E+00
  0.00000000E+00  0.00000000E+00  0.00000000E+00
  0.00000000E+00  0.00000000E+00  0.00000000E+00
  0.00000000E+00  0.00000000E+00  0.00000000E+00
  0.00000000E+00  0.00000000E+00  0.00000000E+00
  0.00000000E+00  0.00000000E+00  0.00000000E+00
  0.00000000E+00  0.00000000E+00  0.00000000E+00
  0.00000000E+00  0.00000000E+00  0.00000000E+00
  0.00000000E+00  0.00000000E+00  0.00000000E+00
  0.00000000E+00  0.00000000E+00  0.00000000E+00
  0.00000000E+00  0.00000000E+00  0.00000000E+00
  0.00000000E+00  0.00000000E+00  0.00000000E+00
  0.00000000E+00  0.00000000E+00  0.00000000E+00
  0.00000000E+00  0.00000000E+00  0.00000000E+00
  0.00000000E+00  0.00000000E+00  0.00000000E+00
  0.00000000E+00  0.00000000E+00  0.00000000E+00
  0.00000000E+00  0.00000000E+00  0.00000000E+00
  0.00000000E+00  0.00000000E+00  0.00000000E+00
  0.00000000E+00  0.00000000E+00  0.00000000E+00
  0.00000000E+00  0.00000000E+00  0.00000000E+00
  0.00000000E+00  0.00000000E+00  0.00000000E+00
  0.00000000E+00  0.00000000E+00  0.00000000E+00
  0.00000000E+00  0.00000000E+00  0.00000000E+00
  0.00000000E+00  0.00000000E+00  0.00000000E+00
  0.00000000E+00  0.00000000E+00  0.00000000E+00
  0.00000000E+00  0.00000000E+00  0.00000000E+00
  0.00000000E+00  0.00000000E+00  0.00000000E+00
  0.00000000E+00  0.00000000E+00  0.00000000E+00
  0.00000000E+00  0.00000000E+00  0.00000000E+00
  0.00000000E+00  0.00000000E+00  0.00000000E+00
  0.00000000E+00  0.00000000E+00  0.00000000E+00
  0.00000000E+00  0.00000000E+00  0.00000000E+00
  0.00000000E+00  0.00000000E+00  0.00000000E+00
  0.00000000E+00  0.00000000E+00  0.00000000E+00
  0.00000000E+00  0.00000000E+00  0.00000000E+00
  0.00000000E+00  0.00000000E+00  0.00000000E+00
  0.00000000E+00  0.00000000E+00  0.00000000E+00
  0.00000000E+00  0.00000000E+00  0.00000000E+00
  0.00000000E+00  0.00000000E+00  0.00000000E+00
  0.00000000E+00  0.00000000E+00  0.00000000E+00
  0.00000000E+00  0.00000000E+00  0.00000000E+00
  0.00000000E+00  0.00000000E+00  0.00000000E+00
  0.00000000E+00  0.00000000E+00  0.00000000E+00
  0.00000000E+00  0.00000000E+00  0.00000000E+00
  0.00000000E+00  0.00000000E+00  0.00000000E+00
  0.00000000E+00  0.00000000E+00  0.00000000E+00
  0.00000000E+00  0.00000000E+00  0.00000000E+00
  0.00000000E+00  0.00000000E+00  0.00000000E+00
  0.00000000E+00  0.00000000E+00  0.00000000E+00
  0.00000000E+00  0.00000000E+00  0.00000000E+00
  0.00000000E+00  0.00000000E+00  0.00000000E+00
  0.00000000E+00  0.00000000E+00  0.00000000E+00
  0.00000000E+00  0.00000000E+00  0.00000000E+00
  0.00000000E+00  0.00000000E+00  0.00000000E+00
  0.00000000E+00  0.00000000E+00  0.00000000E+00
  0.00000000E+00  0.00000000E+00  0.00000000E+00
  0.00000000E+00  0.00000000E+00  0.00000000E+00
  0.00000000E+00  0.00000000E+00  0.00000000E+00
  0.00000000E+00  0.00000000E+00  0.00000000E+00
  0.00000000E+00  0.00000000E+00  0.00000000E+00
  0.00000000E+00  0.00000000E+00  0.00000000E+00
  0.00000000E+00  0.00000000E+00  0.00000000E+00
  0.00000000E+00  0.00000000E+00  0.00000000E+00
  0.00000000E+00  0.00000000E+00  0.00000000E+00
  0.00000000E+00  0.00000000E+00  0.00000000E+00
  0.00000000E+00  0.00000000E+00  0.00000000E+00
  0.00000000E+00  0.00000000E+00  0.00000000E+00
  0.00000000E+00  0.00000000E+00  0.00000000E+00
  0.00000000E+00  0.00000000E+00  0.00000000E+00
  0.00000000E+00  0.00000000E+00  0.00000000E+00
  0.00000000E+00  0.00000000E+00  0.00000000E+00
  0.00000000E+00  0.00000000E+00  0.00000000E+00
  0.00000000E+00  0.00000000E+00  0.00000000E+00
  0.00000000E+00  0.00000000E+00  0.00000000E+00
  0.00000000E+00  0.00000000E+00  0.00000000E+00
  0.00000000E+00  0.00000000E+00  0.00000000E+00
  0.00000000E+00  0.00000000E+00  0.00000000E+00
  0.00000000E+00  0.00000000E+00  0.00000000E+00
  0.00000000E+00  0.00000000E+00  0.00000000E+00
  0.00000000E+00  0.00000000E+00  0.00000000E+00
  0.00000000E+00  0.00000000E+00  0.00000000E+00
  0.00000000E+00  0.00000000E+00  0.00000000E+00
  0.00000000E+00  0.00000000E+00  0.00000000E+00
  0.00000000E+00  0.00000000E+00  0.00000000E+00
  0.00000000E+00  0.00000000E+00  0.00000000E+00
  0.00000000E+00  0.00000000E+00  0.00000000E+00
  0.00000000E+00  0.00000000E+00  0.00000000E+00
  0.00000000E+00  0.00000000E+00  0.00000000E+00
  0.00000000E+00  0.00000000E+00  0.00000000E+00
  0.00000000E+00  0.00000000E+00  0.00000000E+00
  0.00000000E+00  0.00000000E+00  0.00000000E+00
  0.00000000E+00  0.00000000E+00  0.00000000E+00
  0.00000000E+00  0.00000000E+00  0.00000000E+00
  0.00000000E+00  0.00000000E+00  0.00000000E+00
  0.00000000E+00  0.00000000E+00  0.00000000E+00
  0.00000000E+00  0.00000000E+00  0.00000000E+00
  0.00000000E+00  0.00000000E+00  0.00000000E+00
  0.00000000E+00  0.00000000E+00  0.00000000E+00
  0.00000000E+00  0.00000000E+00  0.00000000E+00
  0.00000000E+00  0.00000000E+00  0.00000000E+00
  0.00000000E+00  0.00000000E+00  0.00000000E+00
  0.00000000E+00  0.00000000E+00  0.00000000E+00
  0.00000000E+00  0.00000000E+00  0.00000000E+00
  0.00000000E+00  0.00000000E+00  0.00000000E+00
  0.00000000E+00  0.00000000E+00  0.00000000E+00
  0.00000000E+00  0.00000000E+00  0.00000000E+00
  0.00000000E+00  0.00000000E+00  0.00000000E+00
  0.00000000E+00  0.00000000E+00  0.00000000E+00
  0.00000000E+00  0.00000000E+00  0.00000000E+00
  0.00000000E+00  0.00000000E+00  0.00000000E+00
  0.00000000E+00  0.00000000E+00  0.00000000E+00
  0.00000000E+00  0.00000000E+00  0.00000000E+00
  0.00000000E+00  0.00000000E+00  0.00000000E+00
  0.00000000E+00  0.00000000E+00  0.00000000E+00
  0.00000000E+00  0.00000000E+00  0.00000000E+00
  0.00000000E+00  0.00000000E+00  0.00000000E+00
  0.00000000E+00  0.00000000E+00  0.00000000E+00
  0.00000000E+00  0.00000000E+00  0.00000000E+00
  0.00000000E+00  0.00000000E+00  0.00000000E+00
  0.00000000E+00  0.00000000E+00  0.00000000E+00
  0.00000000E+00  0.00000000E+00  0.00000000E+00
  0.00000000E+00  0.00000000E+00  0.00000000E+00
  0.00000000E+00  0.00000000E+00  0.00000000E+00
  0.00000000E+00  0.00000000E+00  0.00000000E+00
  0.00000000E+00  0.00000000E+00  0.00000000E+00
  0.00000000E+00  0.00000000E+00  0.00000000E+00
  0.00000000E+00  0.00000000E+00  0.00000000E+00
  0.00000000E+00  0.00000000E+00  0.00000000E+00
  0.00000000E+00  0.00000000E+00  0.00000000E+00
  0.00000000E+00  0.00000000E+00  0.00000000E+00
  0.00000000E+00  0.00000000E+00  0.00000000E+00
  0.00000000E+00  0.00000000E+00  0.00000000E+00
  0.00000000E+00  0.00000000E+00  0.00000000E+00
  0.00000000E+00  0.00000000E+00  0.00000000E+00
  0.00000000E+00  0.00000000E+00  0.00000000E+00
  0.00000000E+00  0.00000000E+00  0.00000000E+00
  0.00000000E+00  0.00000000E+00  0.00000000E+00
  0.00000000E+00  0.00000000E+00  0.00000000E+00
  0.00000000E+00  0.00000000E+00  0.00000000E+00
  0.00000000E+00  0.00000000E+00  0.00000000E+00
  0.00000000E+00  0.00000000E+00  0.00000000E+00
  0.00000000E+00  0.00000000E+00  0.00000000E+00
  0.00000000E+00  0.00000000E+00  0.00000000E+00
  0.00000000E+00  0.00000000E+00  0.00000000E+00
  0.00000000E+00  0.00000000E+00  0.00000000E+00
  0.00000000E+00  0.00000000E+00  0.00000000E+00
  0.00000000E+00  0.00000000E+00  0.00000000E+00
  0.00000000E+00  0.00000000E+00  0.00000000E+00
  0.00000000E+00  0.00000000E+00  0.00000000E+00
  0.00000000E+00  0.00000000E+00  0.00000000E+00
  0.00000000E+00  0.00000000E+00  0.00000000E+00
  0.00000000E+00  0.00000000E+00  0.00000000E+00
  0.00000000E+00  0.00000000E+00  0.00000000E+00
  0.00000000E+00  0.00000000E+00  0.00000000E+00
  0.00000000E+00  0.00000000E+00  0.00000000E+00
  0.00000000E+00  0.00000000E+00  0.00000000E+00
  0.00000000E+00  0.00000000E+00  0.00000000E+00
  0.00000000E+00  0.00000000E+00  0.00000000E+00
  0.00000000E+00  0.00000000E+00  0.00000000E+00
  0.00000000E+00  0.00000000E+00  0.00000000E+00
  0.00000000E+00  0.00000000E+00  0.00000000E+00
  0.00000000E+00  0.00000000E+00  0.00000000E+00
  0.00000000E+00  0.00000000E+00  0.00000000E+00
  0.00000000E+00  0.00000000E+00  0.00000000E+00
  0.00000000E+00  0.00000000E+00  0.00000000E+00
  0.00000000E+00  0.00000000E+00  0.00000000E+00
  0.00000000E+00  0.00000000E+00  0.00000000E+00
  0.00000000E+00  0.00000000E+00  0.00000000E+00
  0.00000000E+00  0.00000000E+00  0.00000000E+00
  0.00000000E+00  0.00000000E+00  0.00000000E+00
  0.00000000E+00  0.00000000E+00  0.00000000E+00
  0.00000000E+00  0.00000000E+00  0.00000000E+00
  0.00000000E+00  0.00000000E+00  0.00000000E+00
  0.00000000E+00  0.00000000E+00  0.00000000E+00
  0.00000000E+00  0.00000000E+00  0.00000000E+00
  0.00000000E+00  0.00000000E+00  0.00000000E+00
  0.00000000E+00  0.00000000E+00  0.00000000E+00
  0.00000000E+00  0.00000000E+00  0.00000000E+00
  0.00000000E+00  0.00000000E+00  0.00000000E+00
  0.00000000E+00  0.00000000E+00  0.00000000E+00
  0.00000000E+00  0.00000000E+00  0.00000000E+00
