Ge Sb Te                                
   1.00000000000000     
    13.0692088473267471   -0.0000000264961705    0.0000000000000000
    -6.5346059537241556   11.3182659858063293    0.0000000000000000
     0.0000000000000000    0.0000000000000000   73.8501217186323373
   Ge   Sb   Te
    27   108   189
Direct
  0.0016277204427720  0.0007566553537224  0.1664460605545359
  0.9973309030799385  0.0015712607346432  0.5007190886032551
  0.0047146610780813 -0.0022703388880783  0.8332024664097165
  0.0016865225579866  0.3340492672183822  0.1664092242677838
 -0.0024496825879516  0.3351309235273023  0.5007286620526188
  0.0048814045839099  0.3311895148302907  0.8332061020213440
  0.0015527627646205  0.6672625727765663  0.1664320683324792
 -0.0022495723405568  0.6685598911969537  0.5007117621509776
  0.0048071934462832  0.6645163993415032  0.8331938413514742
  0.3351403446622755  0.0009221068271852  0.1664106426429330
  0.3308940196543079  0.0019037323187521  0.5007163000654629
  0.3381431647584299 -0.0022679321907025  0.8332151951397236
  0.3350634575847181  0.3341318520303660  0.1664155886259025
  0.3306065308742610  0.3349094749102035  0.5007410421981542
  0.3381692565645481  0.3312646919539920  0.8331502903260909
  0.3351080400631763  0.6672803887120214  0.1664534862797713
  0.3310791133276513  0.6685375086099977  0.5007056609112711
  0.3378448319999804  0.6642348498332953  0.8332104168749869
  0.6684246577672338  0.0008827523419014  0.1664192739823643
  0.6639126772598613  0.0015386143031343  0.5007319582787805
  0.6713481688203431  0.9976568577754508  0.8331657319571106
  0.6682629349604801  0.3339498937824979  0.1664458317611110
  0.6639623686904241  0.3346948032488338  0.5007118241630159
  0.6714137295530949  0.3311560749445845  0.8331667014805770
  0.6682641216696388  0.6673500607550175  0.1664231567559970
  0.6639358102555113  0.6683563920180592  0.5006818570408048
  0.6712446837573602  0.6643260234321667  0.8331868938458917
  0.2230538085737533  0.1109774526628078  0.3073958926672150
  0.2230367976649138  0.1124333759323895  0.6409679765331703
  0.2210999607151225  0.1096619654550436  0.9736555532670165
  0.2229753869668908  0.4441706223486138  0.3073659510466807
  0.2229087054027019  0.4457416525312105  0.6409582215389479
  0.2209940732472167  0.4429895508361462  0.9736851115982661
  0.2228445424407869  0.7775718915081445  0.3073781885653906
  0.2231207642489179  0.7793181523794797  0.6409679285484400
  0.2210409324829566  0.7762433907299006  0.9736162461608662
  0.5562305903125564  0.1108104450841181  0.3073708119078731
  0.5564389138364361  0.1124747579397505  0.6409780636223843
  0.5543557898011844  0.1095918202303607  0.9737030660846279
  0.5566000681176771  0.4442419801451796  0.3073583033215277
  0.5563034816903154  0.4458708873680277  0.6409754917564437
  0.5543380409239799  0.4428670705905381  0.9737119618492477
  0.5563250412895336  0.7775477901526934  0.3073487132632832
  0.5563316251800597  0.7789863792690055  0.6409808713784232
  0.5543564413577668  0.7763134566862977  0.9736579409366367
  0.8898780514896227  0.1109962096558503  0.3073795034527960
  0.8897292637184500  0.1124607095188686  0.6409801854685936
  0.8877157513548349  0.1096284522297682  0.9736739275524220
  0.8895773388302856  0.4441229053891941  0.3073716673001555
  0.8897596927396489  0.4458889166473533  0.6409760874422555
  0.8876510937814596  0.4428842605896732  0.9736891229279609
  0.8896938032614562  0.7776141553053966  0.3073568318501104
  0.8895966118777735  0.7790515551114952  0.6409960715870753
  0.8877957494867571  0.7762908025807909  0.9735946501612519
  0.1129451978259630  0.2238508030684160  0.1165160770512663
  0.1093925326527780  0.2233531908314156  0.4508728451622230
  0.1149579462967649  0.2210865834772307  0.7832970190324086
  0.1128078856642040  0.5571571575610382  0.1165550755739094
  0.1092995943062534  0.5564919595446876  0.4508703819842390
  0.1151104649745281  0.5544380838447577  0.7832781955759233
  0.1128869992344022  0.8902713222540964  0.1165791043522700
  0.1093273831317596  0.8896653801050037  0.4508678305163719
  0.1149488598319677  0.8878508859024904  0.7833115504843232
  0.4461318434821462  0.2237640635071003  0.1165210774427829
  0.4425975504635988  0.2230438164717303  0.4508666635288018
  0.4482519226410263  0.2211129973902788  0.7832923943525706
  0.4462408441576728  0.5571908308116645  0.1165357464732217
  0.4428291881501535  0.5563419434943232  0.4508438278410992
  0.4483656942617187  0.5544299159079722  0.7832626071174611
  0.4462631254869735  0.8902875009032152  0.1165524110321940
  0.4427809958614593  0.8897365138547829  0.4507269375981341
  0.4483156180588025  0.8878657989525652  0.7832880295074495
  0.7795251052985550  0.2237504785689598  0.1165048941759757
  0.7760183441166083  0.2231296767232419  0.4508209916847578
  0.7816667242804459  0.2212421057235732  0.7833291173744761
  0.7794282698147462  0.5569265301440728  0.1165212722701152
  0.7758975279110164  0.5561528841649863  0.4508330563770326
  0.7818939225359202  0.5546430535133016  0.7832874840154525
  0.7797254622961237  0.8903596020640507  0.1165633439773382
  0.7762871863090389  0.8898307533978091  0.4508431868515573
  0.7815035376343817  0.8879162968245601  0.7833406124157687
  0.1099242847874793  0.2208218206939547  0.0268820094583534
  0.1119680147423067  0.2221069271921597  0.3605433059062725
  0.1119706254554338  0.2235503265038430  0.6941544872772624
  0.1100351619807791  0.5542852004464793  0.0268111076291066
  0.1116690632578403  0.5552781626467979  0.3606205892316170
  0.1119827411393991  0.5570551198760727  0.6941593019842269
  0.1100590215950470  0.8876264222891369  0.0268236177699209
  0.1118315816597513  0.8885282062286151  0.3606378008094825
  0.1120270666818880  0.8903462564526291  0.6941684030644764
  0.4432328378721482  0.2208072240731010  0.0268731597508575
  0.4450527996762191  0.2218098033221239  0.3605908627511827
  0.4453966975120977  0.2237659042847319  0.6941567034148830
  0.4434239734314214  0.5542946353554477  0.0268219666147473
  0.4452065904635545  0.5551832391789921  0.3606084354456655
  0.4451526981571971  0.5569963767855446  0.6941771928935592
  0.4432842873042707  0.8874951579897620  0.0268843432899222
  0.4451960660872696  0.8886094247674141  0.3606180816749023
  0.4453411068477925  0.8903419361982274  0.6941560705991524
  0.7766870336718620  0.2208288356451632  0.0269313143546975
  0.7783941304616501  0.2218389164469896  0.3606282221340564
  0.7785345425417314  0.2234889271548168  0.6941384776355566
  0.7768149195633481  0.5542706562170722  0.0268444706231844
  0.7784073242407776  0.5550037349825494  0.3606398721916585
  0.7786480698003909  0.5569750742288920  0.6941665521052766
  0.7766368498082833  0.8874533416726840  0.0268637049392935
  0.7784356927708053  0.8884937371854863  0.3606259440145233
  0.7786392683103573  0.8902804594555418  0.6941717125258876
  0.2241248227546681  0.1126098778638619  0.2163253608688232
  0.2206778882940690  0.1122931750692745  0.5506045277864671
  0.2262121509393235  0.1097981677451323  0.8830892355561701
  0.2241129534129613  0.4460157828578573  0.2163580382961946
  0.2207159696950916  0.4455638495696522  0.5505652004742760
  0.2259817362520414  0.4429008369777318  0.8831077930636509
  0.2239965774818676  0.7792069720546468  0.2162815661306518
  0.2204752812733889  0.7787767267260804  0.5505659577641185
  0.2260851906468040  0.7763691658351632  0.8831181745664078
  0.5571514714204215  0.1124663987437604  0.2163202233600587
  0.5537414963758607  0.1121186350186678  0.5505499923697018
  0.5595087841036586  0.1097910276685350  0.8830283547609290
  0.5575495629840055  0.4460692843292606  0.2163636171949699
  0.5541613159571271  0.4456476549263789  0.5505391794734485
  0.5594992249090752  0.4430325073618959  0.8830722913168317
  0.5574665171090686  0.7795706136386507  0.2163180036177703
  0.5539590189518366  0.7787690392638204  0.5505284443612896
  0.5593805460862267  0.7763810900893817  0.8830848223584160
  0.8908180630117393  0.1126653079776152  0.2162948086420743
  0.8871846272004679  0.1121768985240057  0.5505670784313639
  0.8927374321788889  0.1096950659309953  0.8830382125602976
  0.8907663869527377  0.4459453733765242  0.2163218119113148
  0.8872105433916996  0.4455743055330887  0.5505092538651355
  0.8927815761846845  0.4430178643980130  0.8830896023159399
  0.8907693846315033  0.7792442408281591  0.2163115202765568
  0.8873846201772618  0.7787578724888878  0.5505305512545050
  0.8928804902459277  0.7763794788593672  0.8830694092271706
  0.1118917572095136  0.2219342680419322  0.2849924265148358
  0.1119523526783835  0.2235217190990782  0.6186380882691246
  0.1101413601920331  0.2211965839664954  0.9513160675436815
  0.1120101804950190  0.5553389474518023  0.2850119486449024
  0.1119289334203314  0.5571208344940121  0.6186379217684210
  0.1098692461316786  0.5541612538122089  0.9512951506807015
  0.1118856519130129  0.8887443722958619  0.2849874272844314
  0.1119091976678594  0.8902585128944052  0.6186354248406531
  0.1101814232370814  0.8878751193057326  0.9512640218191768
  0.4453453965338359  0.2220541378009445  0.2850020258174335
  0.4453647440381505  0.2236142184584927  0.6186521484143982
  0.4435282542550970  0.2212007136520358  0.9513258624881763
  0.4452886217524283  0.5553456374770946  0.2850052710458477
  0.4453377959827794  0.5570002416190549  0.6186439813841671
  0.4433908345896123  0.5543396008834195  0.9513268219550505
  0.4450993405141560  0.8886123229810196  0.2850089834337482
  0.4453958248689858  0.8903100853062522  0.6186302193895422
  0.4434887619175182  0.8878833511709633  0.9512956375567627
  0.7786958925291914  0.2219553525294079  0.2850124673657848
  0.7787323222963015  0.2236478213517331  0.6186364879759106
  0.7765946862035624  0.2210345519879983  0.9513391260076266
  0.7787715025480234  0.5553376506294776  0.2849940402981512
  0.7786688070897655  0.5570939100440597  0.6186487256673366
  0.7763929147081424  0.5540084152232062  0.9513116876627088
  0.7786933711282971  0.8887253785032497  0.2849786797932613
  0.7786912319952617  0.8901963091142309  0.6186550030176904
  0.7765543001471761  0.8878282882990063  0.9512907413464834
  0.2211928676235162  0.1100593325442115  0.0492846413201482
  0.2230674175790612  0.1110817176205647  0.3829963502792422
  0.2232853878072469  0.1126568247596953  0.7166063368766505
  0.2213571110591269  0.4436499170582648  0.0492579300317333
  0.2229185986819510  0.4439764347509513  0.3830118278653289
  0.2229174037171202  0.4458932570459995  0.7166114400331209
  0.2211138062478835  0.7767366449460614  0.0492718736987526
  0.2231003136514370  0.7774659768254467  0.3830572610218265
  0.2231885911964961  0.7793261905845124  0.7165971155312664
  0.5544103559563103  0.1100650741804155  0.0493208279613234
  0.5561865356433061  0.1104577975825610  0.3830482625428264
  0.5564872757883124  0.1126589685452770  0.7166016413533475
  0.5546395002694609  0.4436356105783366  0.0492690438403822
  0.5562653649787397  0.4437666451763345  0.3830524419791695
  0.5564286487699800  0.4459349732995634  0.7165932918658400
  0.5545194255344964  0.7765341191611863  0.0492842922139972
  0.5562437371157111  0.7772718912702429  0.3830523190716940
  0.5564536545226650  0.7793694210613481  0.7166121254797990
  0.8879016138412885  0.1099954424535716  0.0493308712353931
  0.8898497881013424  0.1110183698736763  0.3830052659547294
  0.8897907703586304  0.1125727911707538  0.7165947154868533
  0.8881844696253844  0.4437872203423096  0.0492909475899000
  0.8895179289162736  0.4439647621971231  0.3830793744960410
  0.8897317754077630  0.4458404655786593  0.7165745183860563
  0.8880253666927106  0.7767794943537363  0.0492695676447381
  0.8897352339316433  0.7774523069696807  0.3830599027925768
  0.8898582544609432  0.7792703339191197  0.7166214181545068
  0.0021821264985391  0.0030778082905496  0.2381849506141511
 -0.0002633654720885  0.0000231105763213  0.5724491462753293
  0.0026588637633912  0.0001429358860282  0.9049677436514842
  0.0022855296330594  0.3363943794402473  0.2382163635198132
 -0.0002017169594569  0.3334639915704576  0.5724412656846887
  0.0025816094127521  0.3331201210677802  0.9049899481319599
  0.0023459420896615  0.6697813810638067  0.2382070833053218
 -0.0002121057769562  0.6667041536445332  0.5724440165936218
  0.0026670079569205  0.6667343689316474  0.9050018175164547
  0.3353413801037388  0.0028793269739767  0.2382140368032411
  0.3330348900551556 -0.0000009718431804  0.5724574881141776
  0.3362612537563099  0.0001927769951035  0.9049900850789648
  0.3355993730841672  0.3363456579084554  0.2382246106494635
  0.3332805100905257  0.3335053231659435  0.5724515812719843
  0.3362065166936452  0.3333681540024053  0.9049833681668468
  0.3357853600882938  0.6701014943613133  0.2382083442888550
  0.3332189893055404  0.6667940350842541  0.5724401150849411
  0.3359479689276227  0.6665769733350982  0.9049982164421211
  0.6691144590181454  0.0032911338297233  0.2382117598135444
  0.6663119544681845 -0.0000598464135711  0.5724359817814001
  0.6694271943589963  0.0001884601464442  0.9049529366335873
  0.6689125323538527  0.3362534242031838  0.2382085613239713
  0.6664235063150831  0.3332574292304941  0.5724416859641626
  0.6694353073558310  0.3332620711466319  0.9049653610577347
  0.6690344602594035  0.6700835775311779  0.2382277233263390
  0.6665373566003282  0.6667954120339673  0.5724310524127050
  0.6695134714267440  0.6667470368628378  0.9049517381650340
  0.2245713439990160  0.1150914934761561  0.1438087725022643
  0.2223234131261130  0.1109354169629307  0.4781782388814454
  0.2243660034703607  0.1118020525424295  0.8105608351281133
  0.2246176298424551  0.4484237663483331  0.1438202942148132
  0.2224110212827440  0.4442380087310570  0.4781721557058605
  0.2243853841792631  0.4452359049921279  0.8105720184256726
  0.2246392203828982  0.7817765732992563  0.1438348169198352
  0.2224293805903694  0.7776085221138399  0.4781694542498526
  0.2244569633206993  0.7784981935659131  0.8105807090643027
  0.5579677287609821  0.1151499294301410  0.1438070270135089
  0.5556489082859144  0.1108808953197282  0.4781697296118707
  0.5578101402524063  0.1118054484781857  0.8105915743892305
  0.5578885709818580  0.4483642392216293  0.1438126343447432
  0.5557386959476159  0.4443041384236496  0.4781660722488940
  0.5577728025002230  0.4452193817670710  0.8105687194746508
  0.5578366548777917  0.7815159143435529  0.1438332299769593
  0.5556671140719919  0.7776614356776668  0.4781590282381761
  0.5577553129673912  0.7784745396169975  0.8105689216759105
  0.8911607735253932  0.1151439434920536  0.1438091868730368
  0.8890671080881565  0.1109735845087004  0.4781776539690145
  0.8913012531680568  0.1119648299106646  0.8106007553387636
  0.8911446894559971  0.4483215830106432  0.1438163381273047
  0.8890179180156224  0.4442008344547869  0.4781684784836277
  0.8912888709493807  0.4453478331616773  0.8105857567403998
  0.8911119011101343  0.7814961029241397  0.1438251481986595
  0.8888933993414877  0.7774178679479320  0.4781661472247035
  0.8913061382433884  0.7785962255048756  0.8105863248355216
  0.1135702772412300  0.2260913362714358  0.1889571579988704
  0.1112967085809454  0.2219514542004069  0.5232674464017752
  0.1136658543145052  0.2228869785683329  0.8557208973285608
  0.1134180790552644  0.5591302843212405  0.1889371893400894
  0.1113022381448042  0.5553062826654879  0.5232812103032407
  0.1136908687781920  0.5561490150425946  0.8557397153928750
  0.1134563481692158  0.8927291366319144  0.1889458412778245
  0.1112933000022850  0.8887674428693546  0.5232623369942576
  0.1136213510729723  0.8894837920152365  0.8557269159092759
  0.4468516842002129  0.2261301459410075  0.1889602299069078
  0.4445711675000459  0.2219730058666328  0.5232676533139544
  0.4468009989912810  0.2228547191452137  0.8557076652520876
  0.4468322041310508  0.5593104574512875  0.1889604771335740
  0.4446119256753925  0.5553811315393826  0.5232465745186923
  0.4467002494377807  0.5559803378822155  0.8557082934706740
  0.4468651689742179  0.8927387009993064  0.1889458133785070
  0.4445889756097228  0.8886289535730599  0.5232630092288354
  0.4467572965390063  0.8892668479718014  0.8557183426414396
  0.7800223263130549  0.2258842743141866  0.1889580481020072
  0.7779559484307910  0.2220309721923541  0.5232524645390192
  0.7801996735560860  0.2229790047240078  0.8557084390956787
  0.7801141568387119  0.5592347083886338  0.1889530300386274
  0.7779038654042639  0.5553250875334829  0.5232589584985584
  0.7801367333306191  0.5560571515883618  0.8557189399382339
  0.7802540264408956  0.8927523764998725  0.1889441201070689
  0.7779277419348315  0.8887565739427468  0.5232445039120677
  0.7800852843924875  0.8892924237533663  0.8557165201017998
 -0.0011216002882139 -0.0011222457586087  0.0002935118831360
  0.0009325166728255  0.9996952628391965  0.3339968572021262
  0.0009943743117302  0.0016065424558189  0.6676365357360525
 -0.0012916789186313  0.3320572615431773  0.0003122631892665
  0.0008079365980642  0.3331571944461402  0.3339936092448457
  0.0010145270059003  0.3348407261664920  0.6676090896555420
 -0.0009773051394734  0.6657370607324454  0.0002700169476158
  0.0007862939254499  0.6663431083989266  0.3340335272147181
  0.0009668225260415  0.6682284323490072  0.6676333419705737
  0.3321915822105216 -0.0012384190351273  0.0003064363081748
  0.3339363842723115 -0.0003958752206274  0.3340055428260504
  0.3343110230857155  0.0016809482565268  0.6676262005540043
  0.3320801351917985  0.3320541555450843  0.0003041762312002
  0.3344786618727517  0.3330899399101858  0.3339932789394515
  0.3342019895223696  0.3349718364923632  0.6676204303829986
  0.3322971494152908  0.6658565184795923  0.0002821735040025
  0.3342441265421842  0.6665388990107456  0.3340387574327673
  0.3342018631631766  0.6681612648097802  0.6676114685576648
  0.6656753022292045 -0.0009874189303475  0.0003242484722095
  0.6677483457225895  0.9997082750087001  0.3340141486396819
  0.6676242014217783  0.0014211880963628  0.6676272735651926
  0.6656645459855300  0.3322138272421612  0.0003302461054766
  0.6677287570312054  0.3333209132024442  0.3339907635146303
  0.6676239042402365  0.3348898170883520  0.6676127525883094
  0.6658402575900786  0.6658277314969090  0.0002831966328566
  0.6675112850913963  0.6663494602112193  0.3340146480837229
  0.6674438268790149  0.6681286493180747  0.6676298893203986
  0.0021395602569496  0.0031551478480617  0.0946022308787286
  0.9997854093277768  0.0000371058075725  0.4289515795633561
  0.0024394273579971  0.0003934013977654  0.7613436259449713
  0.0021813949089818  0.3365881803217672  0.0945733377916601
 -0.0003876434920533  0.3334096192020657  0.4289273049875980
  0.0024364730649251  0.3335380734873949  0.7613122815278669
  0.0020053633618562  0.6697751491815735  0.0945798967570690
  0.9996519879584087  0.6667198153693922  0.4289292959675610
  0.0027480151575579  0.6671283052663937  0.7613186354096276
  0.3353823965623858  0.0029037253673795  0.0946059981487094
  0.3327615236214034  0.0000484455839508  0.4289054578667732
  0.3359652410279923  0.0004650590036331  0.7613122747490003
  0.3353825648489933  0.3365731438049708  0.0945630639588046
  0.3328697345470765  0.3332894439683072  0.4289183181047987
  0.3358547238126423  0.3335464103828583  0.7613037409703396
  0.3353275792905116  0.6698582728647908  0.0945876611529550
  0.3328316386333983  0.6664489249834846  0.4289098167589129
  0.3360681094786230  0.6671892270209584  0.7613003180031496
  0.6687907232273950  0.0029865986236509  0.0945928874141855
  0.6664752852592464 -0.0000305016711621  0.4288800596107636
  0.6694305893531634  0.0006083691911008  0.7613434694051852
  0.6687014162400324  0.3363872127592297  0.0945552706248472
  0.6660261485121195  0.3331352410195807  0.4288778320854557
  0.6694414587357326  0.3337709952935963  0.7613376246429415
  0.6688452322260502  0.6699499476868289  0.0945772797260570
  0.6664894102381586  0.6667599633500346  0.4289164199247633
  0.6693977603740888  0.6672954433942805  0.7613210170815996
 
  0.00000000E+00  0.00000000E+00  0.00000000E+00
  0.00000000E+00  0.00000000E+00  0.00000000E+00
  0.00000000E+00  0.00000000E+00  0.00000000E+00
  0.00000000E+00  0.00000000E+00  0.00000000E+00
  0.00000000E+00  0.00000000E+00  0.00000000E+00
  0.00000000E+00  0.00000000E+00  0.00000000E+00
  0.00000000E+00  0.00000000E+00  0.00000000E+00
  0.00000000E+00  0.00000000E+00  0.00000000E+00
  0.00000000E+00  0.00000000E+00  0.00000000E+00
  0.00000000E+00  0.00000000E+00  0.00000000E+00
  0.00000000E+00  0.00000000E+00  0.00000000E+00
  0.00000000E+00  0.00000000E+00  0.00000000E+00
  0.00000000E+00  0.00000000E+00  0.00000000E+00
  0.00000000E+00  0.00000000E+00  0.00000000E+00
  0.00000000E+00  0.00000000E+00  0.00000000E+00
  0.00000000E+00  0.00000000E+00  0.00000000E+00
  0.00000000E+00  0.00000000E+00  0.00000000E+00
  0.00000000E+00  0.00000000E+00  0.00000000E+00
  0.00000000E+00  0.00000000E+00  0.00000000E+00
  0.00000000E+00  0.00000000E+00  0.00000000E+00
  0.00000000E+00  0.00000000E+00  0.00000000E+00
  0.00000000E+00  0.00000000E+00  0.00000000E+00
  0.00000000E+00  0.00000000E+00  0.00000000E+00
  0.00000000E+00  0.00000000E+00  0.00000000E+00
  0.00000000E+00  0.00000000E+00  0.00000000E+00
  0.00000000E+00  0.00000000E+00  0.00000000E+00
  0.00000000E+00  0.00000000E+00  0.00000000E+00
  0.00000000E+00  0.00000000E+00  0.00000000E+00
  0.00000000E+00  0.00000000E+00  0.00000000E+00
  0.00000000E+00  0.00000000E+00  0.00000000E+00
  0.00000000E+00  0.00000000E+00  0.00000000E+00
  0.00000000E+00  0.00000000E+00  0.00000000E+00
  0.00000000E+00  0.00000000E+00  0.00000000E+00
  0.00000000E+00  0.00000000E+00  0.00000000E+00
  0.00000000E+00  0.00000000E+00  0.00000000E+00
  0.00000000E+00  0.00000000E+00  0.00000000E+00
  0.00000000E+00  0.00000000E+00  0.00000000E+00
  0.00000000E+00  0.00000000E+00  0.00000000E+00
  0.00000000E+00  0.00000000E+00  0.00000000E+00
  0.00000000E+00  0.00000000E+00  0.00000000E+00
  0.00000000E+00  0.00000000E+00  0.00000000E+00
  0.00000000E+00  0.00000000E+00  0.00000000E+00
  0.00000000E+00  0.00000000E+00  0.00000000E+00
  0.00000000E+00  0.00000000E+00  0.00000000E+00
  0.00000000E+00  0.00000000E+00  0.00000000E+00
  0.00000000E+00  0.00000000E+00  0.00000000E+00
  0.00000000E+00  0.00000000E+00  0.00000000E+00
  0.00000000E+00  0.00000000E+00  0.00000000E+00
  0.00000000E+00  0.00000000E+00  0.00000000E+00
  0.00000000E+00  0.00000000E+00  0.00000000E+00
  0.00000000E+00  0.00000000E+00  0.00000000E+00
  0.00000000E+00  0.00000000E+00  0.00000000E+00
  0.00000000E+00  0.00000000E+00  0.00000000E+00
  0.00000000E+00  0.00000000E+00  0.00000000E+00
  0.00000000E+00  0.00000000E+00  0.00000000E+00
  0.00000000E+00  0.00000000E+00  0.00000000E+00
  0.00000000E+00  0.00000000E+00  0.00000000E+00
  0.00000000E+00  0.00000000E+00  0.00000000E+00
  0.00000000E+00  0.00000000E+00  0.00000000E+00
  0.00000000E+00  0.00000000E+00  0.00000000E+00
  0.00000000E+00  0.00000000E+00  0.00000000E+00
  0.00000000E+00  0.00000000E+00  0.00000000E+00
  0.00000000E+00  0.00000000E+00  0.00000000E+00
  0.00000000E+00  0.00000000E+00  0.00000000E+00
  0.00000000E+00  0.00000000E+00  0.00000000E+00
  0.00000000E+00  0.00000000E+00  0.00000000E+00
  0.00000000E+00  0.00000000E+00  0.00000000E+00
  0.00000000E+00  0.00000000E+00  0.00000000E+00
  0.00000000E+00  0.00000000E+00  0.00000000E+00
  0.00000000E+00  0.00000000E+00  0.00000000E+00
  0.00000000E+00  0.00000000E+00  0.00000000E+00
  0.00000000E+00  0.00000000E+00  0.00000000E+00
  0.00000000E+00  0.00000000E+00  0.00000000E+00
  0.00000000E+00  0.00000000E+00  0.00000000E+00
  0.00000000E+00  0.00000000E+00  0.00000000E+00
  0.00000000E+00  0.00000000E+00  0.00000000E+00
  0.00000000E+00  0.00000000E+00  0.00000000E+00
  0.00000000E+00  0.00000000E+00  0.00000000E+00
  0.00000000E+00  0.00000000E+00  0.00000000E+00
  0.00000000E+00  0.00000000E+00  0.00000000E+00
  0.00000000E+00  0.00000000E+00  0.00000000E+00
  0.00000000E+00  0.00000000E+00  0.00000000E+00
  0.00000000E+00  0.00000000E+00  0.00000000E+00
  0.00000000E+00  0.00000000E+00  0.00000000E+00
  0.00000000E+00  0.00000000E+00  0.00000000E+00
  0.00000000E+00  0.00000000E+00  0.00000000E+00
  0.00000000E+00  0.00000000E+00  0.00000000E+00
  0.00000000E+00  0.00000000E+00  0.00000000E+00
  0.00000000E+00  0.00000000E+00  0.00000000E+00
  0.00000000E+00  0.00000000E+00  0.00000000E+00
  0.00000000E+00  0.00000000E+00  0.00000000E+00
  0.00000000E+00  0.00000000E+00  0.00000000E+00
  0.00000000E+00  0.00000000E+00  0.00000000E+00
  0.00000000E+00  0.00000000E+00  0.00000000E+00
  0.00000000E+00  0.00000000E+00  0.00000000E+00
  0.00000000E+00  0.00000000E+00  0.00000000E+00
  0.00000000E+00  0.00000000E+00  0.00000000E+00
  0.00000000E+00  0.00000000E+00  0.00000000E+00
  0.00000000E+00  0.00000000E+00  0.00000000E+00
  0.00000000E+00  0.00000000E+00  0.00000000E+00
  0.00000000E+00  0.00000000E+00  0.00000000E+00
  0.00000000E+00  0.00000000E+00  0.00000000E+00
  0.00000000E+00  0.00000000E+00  0.00000000E+00
  0.00000000E+00  0.00000000E+00  0.00000000E+00
  0.00000000E+00  0.00000000E+00  0.00000000E+00
  0.00000000E+00  0.00000000E+00  0.00000000E+00
  0.00000000E+00  0.00000000E+00  0.00000000E+00
  0.00000000E+00  0.00000000E+00  0.00000000E+00
  0.00000000E+00  0.00000000E+00  0.00000000E+00
  0.00000000E+00  0.00000000E+00  0.00000000E+00
  0.00000000E+00  0.00000000E+00  0.00000000E+00
  0.00000000E+00  0.00000000E+00  0.00000000E+00
  0.00000000E+00  0.00000000E+00  0.00000000E+00
  0.00000000E+00  0.00000000E+00  0.00000000E+00
  0.00000000E+00  0.00000000E+00  0.00000000E+00
  0.00000000E+00  0.00000000E+00  0.00000000E+00
  0.00000000E+00  0.00000000E+00  0.00000000E+00
  0.00000000E+00  0.00000000E+00  0.00000000E+00
  0.00000000E+00  0.00000000E+00  0.00000000E+00
  0.00000000E+00  0.00000000E+00  0.00000000E+00
  0.00000000E+00  0.00000000E+00  0.00000000E+00
  0.00000000E+00  0.00000000E+00  0.00000000E+00
  0.00000000E+00  0.00000000E+00  0.00000000E+00
  0.00000000E+00  0.00000000E+00  0.00000000E+00
  0.00000000E+00  0.00000000E+00  0.00000000E+00
  0.00000000E+00  0.00000000E+00  0.00000000E+00
  0.00000000E+00  0.00000000E+00  0.00000000E+00
  0.00000000E+00  0.00000000E+00  0.00000000E+00
  0.00000000E+00  0.00000000E+00  0.00000000E+00
  0.00000000E+00  0.00000000E+00  0.00000000E+00
  0.00000000E+00  0.00000000E+00  0.00000000E+00
  0.00000000E+00  0.00000000E+00  0.00000000E+00
  0.00000000E+00  0.00000000E+00  0.00000000E+00
  0.00000000E+00  0.00000000E+00  0.00000000E+00
  0.00000000E+00  0.00000000E+00  0.00000000E+00
  0.00000000E+00  0.00000000E+00  0.00000000E+00
  0.00000000E+00  0.00000000E+00  0.00000000E+00
  0.00000000E+00  0.00000000E+00  0.00000000E+00
  0.00000000E+00  0.00000000E+00  0.00000000E+00
  0.00000000E+00  0.00000000E+00  0.00000000E+00
  0.00000000E+00  0.00000000E+00  0.00000000E+00
  0.00000000E+00  0.00000000E+00  0.00000000E+00
  0.00000000E+00  0.00000000E+00  0.00000000E+00
  0.00000000E+00  0.00000000E+00  0.00000000E+00
  0.00000000E+00  0.00000000E+00  0.00000000E+00
  0.00000000E+00  0.00000000E+00  0.00000000E+00
  0.00000000E+00  0.00000000E+00  0.00000000E+00
  0.00000000E+00  0.00000000E+00  0.00000000E+00
  0.00000000E+00  0.00000000E+00  0.00000000E+00
  0.00000000E+00  0.00000000E+00  0.00000000E+00
  0.00000000E+00  0.00000000E+00  0.00000000E+00
  0.00000000E+00  0.00000000E+00  0.00000000E+00
  0.00000000E+00  0.00000000E+00  0.00000000E+00
  0.00000000E+00  0.00000000E+00  0.00000000E+00
  0.00000000E+00  0.00000000E+00  0.00000000E+00
  0.00000000E+00  0.00000000E+00  0.00000000E+00
  0.00000000E+00  0.00000000E+00  0.00000000E+00
  0.00000000E+00  0.00000000E+00  0.00000000E+00
  0.00000000E+00  0.00000000E+00  0.00000000E+00
  0.00000000E+00  0.00000000E+00  0.00000000E+00
  0.00000000E+00  0.00000000E+00  0.00000000E+00
  0.00000000E+00  0.00000000E+00  0.00000000E+00
  0.00000000E+00  0.00000000E+00  0.00000000E+00
  0.00000000E+00  0.00000000E+00  0.00000000E+00
  0.00000000E+00  0.00000000E+00  0.00000000E+00
  0.00000000E+00  0.00000000E+00  0.00000000E+00
  0.00000000E+00  0.00000000E+00  0.00000000E+00
  0.00000000E+00  0.00000000E+00  0.00000000E+00
  0.00000000E+00  0.00000000E+00  0.00000000E+00
  0.00000000E+00  0.00000000E+00  0.00000000E+00
  0.00000000E+00  0.00000000E+00  0.00000000E+00
  0.00000000E+00  0.00000000E+00  0.00000000E+00
  0.00000000E+00  0.00000000E+00  0.00000000E+00
  0.00000000E+00  0.00000000E+00  0.00000000E+00
  0.00000000E+00  0.00000000E+00  0.00000000E+00
  0.00000000E+00  0.00000000E+00  0.00000000E+00
  0.00000000E+00  0.00000000E+00  0.00000000E+00
  0.00000000E+00  0.00000000E+00  0.00000000E+00
  0.00000000E+00  0.00000000E+00  0.00000000E+00
  0.00000000E+00  0.00000000E+00  0.00000000E+00
  0.00000000E+00  0.00000000E+00  0.00000000E+00
  0.00000000E+00  0.00000000E+00  0.00000000E+00
  0.00000000E+00  0.00000000E+00  0.00000000E+00
  0.00000000E+00  0.00000000E+00  0.00000000E+00
  0.00000000E+00  0.00000000E+00  0.00000000E+00
  0.00000000E+00  0.00000000E+00  0.00000000E+00
  0.00000000E+00  0.00000000E+00  0.00000000E+00
  0.00000000E+00  0.00000000E+00  0.00000000E+00
  0.00000000E+00  0.00000000E+00  0.00000000E+00
  0.00000000E+00  0.00000000E+00  0.00000000E+00
  0.00000000E+00  0.00000000E+00  0.00000000E+00
  0.00000000E+00  0.00000000E+00  0.00000000E+00
  0.00000000E+00  0.00000000E+00  0.00000000E+00
  0.00000000E+00  0.00000000E+00  0.00000000E+00
  0.00000000E+00  0.00000000E+00  0.00000000E+00
  0.00000000E+00  0.00000000E+00  0.00000000E+00
  0.00000000E+00  0.00000000E+00  0.00000000E+00
  0.00000000E+00  0.00000000E+00  0.00000000E+00
  0.00000000E+00  0.00000000E+00  0.00000000E+00
  0.00000000E+00  0.00000000E+00  0.00000000E+00
  0.00000000E+00  0.00000000E+00  0.00000000E+00
  0.00000000E+00  0.00000000E+00  0.00000000E+00