Ge3 Sb2 Te6
1.0
   3.0480749999999999    6.7802179999999996    0.0000000000000000
  -3.0480749999999999    6.7802179999999996    0.0000000000000000
   0.0000000000000000    2.6422249999999998    8.1546629999999993
Ge Sb Te
3 2 6
direct
   0.3286429999999990    0.3286429999999990    0.3317450000000000 Ge
   0.0000000000000000    0.0000000000000000    0.5000000000000000 Ge
   0.6713570000000000    0.6713570000000000    0.6682549999999990 Ge
   0.6670920000000000    0.6670920000000000    0.1630300000000000 Sb
   0.3329080000000000    0.3329080000000000    0.8369700000000001 Sb
   0.8324009999999999    0.8324009999999999    0.3440229999999990 Te
   0.5000000000000000    0.5000000000000000    0.5000000000000000 Te
   0.8346990000000000    0.8346990000000000    0.8242800000000000 Te
   0.5000000000000000    0.5000000000000000    0.0000000000000000 Te
   0.1675990000000000    0.1675990000000000    0.6559769999999990 Te
   0.1653010000000000    0.1653010000000000    0.1757200000000000 Te
