In2O3 structure 3 - random placement wit
   1.00000000000000     
     7.9679925535048337    0.0201140044079774   -0.0885628254256917
     0.0202126276401300    8.0472149343784096   -0.0165320264801754
    -0.0883090623232159   -0.0166531626095631    7.9698202388938384
   In   Ga   O 
    15     1    24
Direct
  0.0807040449743610  0.0671222513617735  0.8429439397889169
  0.8014760402057846  0.8397331723529078  0.6193626189204693
  0.8048541397393905  0.8420459384406627  0.1245902041518789
  0.3313445463325309  0.3363686377096187  0.0944545734392506
  0.8377148270989210  0.3340248902445211  0.5889259286222099
  0.3269191851655648  0.3331308143519180  0.5841772968258425
  0.0503202927715876  0.5658122454908039  0.8706130427979843
  0.5806591737911191  0.0672006162070318  0.3424930226765923
  0.8337443093386412  0.3346196525635747  0.0916000889541024
  0.5505620923071035  0.5673132466082933  0.3701893409996870
  0.2994710718728015  0.8405140717091300  0.6192196133736800
  0.5519106735605348  0.5651591794568986  0.8719535350573508
  0.0534078925792443  0.5677448886748735  0.3715597285895811
  0.2971448350381181  0.8443579838483402  0.1229212669818622
  0.5788758276613137  0.0668568234807694  0.8401328275950988
  0.0748473623712655  0.0601616938264442  0.3422613200654325
  0.0446100239940179  0.9679807201242454  0.0983850415604692
  0.5491918579916586  0.8050125082140909  0.2366042856837183
  0.9371516486155897  0.6030014611841281  0.1251230334060622
  0.4351611224083314  0.6037841384852243  0.6235575986551538
  0.7993797654824277  0.6018688696524421  0.4831357982788091
  0.8474078116241657  0.9606907517724466  0.3794525363592314
  0.0861041659686208  0.3047400907385338  0.9729937886151205
  0.9605071109737437  0.2873143858524401  0.3352321334355182
  0.6905136660694993  0.1029794765666807  0.0892917397907240
  0.4406532201313524  0.3019811306714644  0.8350631840568710
  0.1786235147527293  0.8102788966999341  0.3728976737261860
  0.5452174674502714  0.9537312935471505  0.5858637993252742
  0.5875823113868819  0.4494027677769168  0.1264900560806765
  0.8326243062840177  0.1026933749336223  0.7304009346198654
  0.3235874139629473  0.1043579276993398  0.2387642425528753
  0.0472978477554520  0.8030166216819481  0.7394374335946026
  0.6878524463930020  0.8021495882653937  0.8753545090463177
  0.7964232296464857  0.4494821047378466  0.8350042035422618
  0.2975561035801277  0.4571541975599800  0.3357595083050100
  0.5866727484153529  0.3028508944526322  0.4768003435529877
  0.3331119666487865  0.9560689181407653  0.8754575697723297
  0.2981809660076138  0.6062447938305624  0.9888578401011969
  0.1805407448244623  0.0996561810275054  0.5727794370418238
  0.0867485814359199  0.4543472599012190  0.6246579767760139
 
  0.00000000E+00  0.00000000E+00  0.00000000E+00
  0.00000000E+00  0.00000000E+00  0.00000000E+00
  0.00000000E+00  0.00000000E+00  0.00000000E+00
  0.00000000E+00  0.00000000E+00  0.00000000E+00
  0.00000000E+00  0.00000000E+00  0.00000000E+00
  0.00000000E+00  0.00000000E+00  0.00000000E+00
  0.00000000E+00  0.00000000E+00  0.00000000E+00
  0.00000000E+00  0.00000000E+00  0.00000000E+00
  0.00000000E+00  0.00000000E+00  0.00000000E+00
  0.00000000E+00  0.00000000E+00  0.00000000E+00
  0.00000000E+00  0.00000000E+00  0.00000000E+00
  0.00000000E+00  0.00000000E+00  0.00000000E+00
  0.00000000E+00  0.00000000E+00  0.00000000E+00
  0.00000000E+00  0.00000000E+00  0.00000000E+00
  0.00000000E+00  0.00000000E+00  0.00000000E+00
  0.00000000E+00  0.00000000E+00  0.00000000E+00
  0.00000000E+00  0.00000000E+00  0.00000000E+00
  0.00000000E+00  0.00000000E+00  0.00000000E+00
  0.00000000E+00  0.00000000E+00  0.00000000E+00
  0.00000000E+00  0.00000000E+00  0.00000000E+00
  0.00000000E+00  0.00000000E+00  0.00000000E+00
  0.00000000E+00  0.00000000E+00  0.00000000E+00
  0.00000000E+00  0.00000000E+00  0.00000000E+00
  0.00000000E+00  0.00000000E+00  0.00000000E+00
  0.00000000E+00  0.00000000E+00  0.00000000E+00
  0.00000000E+00  0.00000000E+00  0.00000000E+00
  0.00000000E+00  0.00000000E+00  0.00000000E+00
  0.00000000E+00  0.00000000E+00  0.00000000E+00
  0.00000000E+00  0.00000000E+00  0.00000000E+00
  0.00000000E+00  0.00000000E+00  0.00000000E+00
  0.00000000E+00  0.00000000E+00  0.00000000E+00
  0.00000000E+00  0.00000000E+00  0.00000000E+00
  0.00000000E+00  0.00000000E+00  0.00000000E+00
  0.00000000E+00  0.00000000E+00  0.00000000E+00
  0.00000000E+00  0.00000000E+00  0.00000000E+00
  0.00000000E+00  0.00000000E+00  0.00000000E+00
  0.00000000E+00  0.00000000E+00  0.00000000E+00
  0.00000000E+00  0.00000000E+00  0.00000000E+00
  0.00000000E+00  0.00000000E+00  0.00000000E+00
  0.00000000E+00  0.00000000E+00  0.00000000E+00
