Se                                      
   1.00000000000000     
    23.6630223476483685    0.0000000000000000    0.0000000000000000
     0.0000000000000000   23.6630223476483685    0.0000000000000000
     0.0000000000000000    0.0000000000000000   23.6630223476483685
   Se
   300
Direct
  0.1470384584730784  0.1485247659815198  0.9714241976804946
  0.7113894155837998  0.1290675447129039  0.3062812455516939
  0.2793838685120394  0.9427240279107268  0.6873312176284957
  0.0065085014448618  0.7655211022271331  0.6417910488517881
  0.5022011836872917  0.8953806628190302  0.8335216978198872
  0.0917244363152080  0.6270710397484255  0.0846428349826517
  0.4379291313364674  0.4919493450412710  0.3944803979427729
  0.5112998095633374  0.9577561563890384  0.9176112289122023
  0.7064009834582157 -0.0102038356485501  0.4739828107835446
  0.7387850931394998  0.0560659632775472  0.7630042691186635
  0.7813419961337893  0.7555640916691545  0.9306884064756438
  0.2192076570257673  0.4258944543678267  0.3631827690136674
  0.3080092036615434  0.7082653258874744  0.6665759088131034
  0.1116758554411232  0.1723572510292829  0.2340690380509131
  0.6464665010117123  0.5433490095350613  0.1264294101167396
  0.2378985080648908  0.1992961492412646  0.4083171358643952
  0.3365481490398269  0.8522982842858985  0.4840924801649006
  0.1277215228556488  0.6856353558629240  0.4157766419689877
  0.5190705788873439  0.4118329155369638  0.0622518869668723
  0.3824672618999880  0.1768862928936160 -0.0174951628514424
  0.6191105363381808  0.2438282199660129  0.9624666562330071
  0.8098452799164634  0.0071773492508097  0.8971697294234904
  0.6206928852982074  0.6367372676522012  0.1006566337965082
  0.7354423110295374  0.8899823389979811  0.1858620266539937
  0.8283908599085243  0.3005924291529000  0.0225359852420642
  0.2562779910682544  0.5403834455567320  0.2116782846096491
  0.1470554757711214  0.8362696925433856  0.8196806205396229
  0.1257887990936209  0.4384999003780153  0.7986314281685626
  0.2209782014699572  0.2990424965323594  0.1411519243423062
  0.3358901415850153  0.5479387154258997  0.2720732775193468
  0.1198488557062279  0.2927784187941105  0.6815026419839930
  0.9596021041092682  0.7922145234230735  0.7937962878148210
  0.3363049390069504  0.1415559226992406  0.7716654249978742
  0.8199422371325568  0.5044576614156652  0.2252250160135396
  0.4495328702152731  0.8197621780679651  0.8630888863563414
  0.1906432445030530  0.8974964006687474  0.6764845110435979
  0.6274122097358119 -0.0113372055658169  0.2738888250391960
  0.5810293024284175  0.3118407910710400  0.1714015532078007
  0.1322715092491606  0.2451747829502829  0.9428983349067429
  0.4550422994267896  0.3350925379332869  0.6540526180291470
  0.2375249445453172  0.1230532712150977  0.9405102920552890
  0.2619488006947611  0.5961293234236532  0.9044915078703046
  0.8969858578972952  0.5892894496526361  0.3274284998783605
  0.8997113925394367  0.0859648177712770  0.4229242894940313
  0.7586168722152093  0.7043145491409696  0.6791153657692814
  0.9385349648945440  0.4824069974427014  0.0014204746243856
  0.9205957775402871  0.7212097602654449  0.2404099450148046
  0.3755379394743818  0.2683179505763113  0.8543377585659907
  0.5328566566214662  0.2928777349939204  0.9498447361977412
  0.0451633338694524  0.0262786716043003  0.1858320409637597
  0.6640022413284780  0.5411888571654113  0.4264858650195518
  0.0999870732309785  0.8320952959453645  0.2213410567482800
  0.4649110312858645  0.9362808440162155  0.6422823029522760
  0.9596248092180142  0.8418877700083266  0.5072037581304263
  0.6748612609229152  0.0573286121887639  0.5313693843268418
  0.3473133370500991  0.1352224190019652  0.3045974148567137
  0.8542063970299837  0.6758386950120413  0.2993157357915260
  0.3898817901125188  0.3143895972133321  0.5048738157665095
  0.1864999516723994  0.8905729634137670  0.1071085260120075
  0.5525422055405921  0.5656258846539129  0.7534427003247621
  0.0845253427711201  0.4665346878420129  0.0649550930771794
  0.2073453322483196  0.6943985495654147  0.8022027441530418
  0.6827576867464275  0.7570843095092408  0.1841512898100864
  0.8906754217502969  0.1205756064778096  0.9664741708790265
  0.9269054078174930  0.8618107006715963  0.9988577625946852
  0.7783491782901021  0.1469258682539178  0.2340173284651141
  0.3490621366344551  0.6353773075536887  0.9318243521101189
  0.5615256172127835  0.7260047634228547  0.5640186495516537
  0.6024528485457197  0.3645906932945726  0.7564915808107359
  0.4237719197816301  0.8322917123334378  0.1760067338625610
  0.7531277679576078  0.5566718994355644  0.3855018579182015
  0.8036222505732703  0.7904102186735077  0.5149461921330297
  0.5607265721610244  0.6328255166392286  0.0201536167496919
  0.3473250583959562  0.3524801251291365  0.3412239571613022
  0.5681481481229526  0.6848221218450129  0.2653296760019641
  0.9161151565053191  0.4146395650647007  0.3880316299756118
  0.1177379170107436 -0.0541768162711625  0.0617679250953074
  0.8432125979456403  0.3546405524276711  0.6626156971040268
  0.3105296070027515  0.8742953767730954  0.9455246667871707
  0.4613276555956425  0.1819341838623189  0.2041516232908225
  0.8672654722349811  0.1679785528540735  0.0525960941218197
  0.3275699925670938  0.4443610877802047  0.0685244561861708
  0.9610231092839154  0.9161770137494706  0.0755144358866018
  0.2972687578800417  0.3521137980853230  0.1807087089866320
  0.4584783290838214  0.9168984086378772  0.9880891791190262
  0.1003867071972822  0.2820006671741863  0.7791387662155416
  0.5336038725976293  0.7394451129675701  0.4706812434912312
  0.6892711209588192  0.9421656735411351  0.6717278337062537
  0.7601808340058640  0.5540168957202338  0.8576685725053053
  0.3106425851056905  0.4631451109659458  0.4915457331166632
  0.1196929071827296  0.9682186500117121  0.6841217370957304
  0.0298427097501235  0.4431613793086321  0.4933342527675819
  0.1251299136306373  0.7042711243023499  0.3106457530292187
  0.7011278467699341  0.6219060480246069  0.9001685303387597
  0.5089705751006336  0.0913845357261108  0.4240883561848591
  0.3020256360019599  0.5106354880396194  0.6876152022060710
  0.4580915975611431  0.5237301619227949  0.1762499014294065
  0.8288024912328552  0.7548453935391441  0.1129644632281896
  0.7503915137490056  0.6706522269508842  0.9724063689140905
  0.8597282013475714  0.9162747280303961  0.7760680634429409
  0.2040483186593169  0.2452866237962178  0.6586436325010367
  0.8199981146823978  0.5183484025562990  0.4509260997310532
  0.7660872398469920  0.9053847976414285  0.6310857715175626
  0.7524854915465868  0.2272406175626052  0.6359302262895201
  0.5524037740361457  0.5910147676362212  0.2943100572873997
  0.6564003363598511  0.2117392619587484  0.6133512440411173
  0.9550421172736221  0.8924386533826935  0.7914669339350093
  0.0689575797430348  0.1015565987897455  0.7382986388902480
  0.9635464494367041  0.5275290279626155  0.7230712065563689
  0.2847457431256117  0.3746615881417720  0.6063716100612808
  0.1981737865721575  0.7762156118043304  0.7493576391877806
  0.2520675308347550  0.9481240612104620  0.3028529694724203
  0.5032931561524234  0.5414726103652295  0.4486236452473163
  0.8801993485421439  0.4320649584306758  0.1910254903159252
  0.0092721425792628  0.8231946097407600  0.9564500442433470
  0.2464682484764581  0.3426179491355927  0.3185086959211106
  0.0967224057568907  0.5364512365989133  0.1336029911029884
  0.6140608360653057  0.9330883901028836  0.5904170118864215
  0.5510786734710627  0.3890004213745976  0.9705018214397003
  0.4436603780356249  0.6939630132991117  0.4606589663473864
  0.0422495423335932  0.3326940975817405  0.3438022926865262
  0.2759704321199666  0.4389052194521673  0.8904922527651918
  0.7367566830076789  0.5250881984216137  0.0863560443390849
  0.5046552945797907  0.7428250082803204  0.9045254469801175
  0.5263659958094206  0.1407007799524490  0.6594951138580823
  0.7024421045062119  0.8167128618530959  0.9305612103318741
  0.1479976495803442  0.6746520524703822  0.1500387113783521
  0.0120917428816616  0.3019132136606369  0.0307227682559751
  0.4429334848082246  0.9597950153730340  0.5492689380306863
  0.2815057155302820  0.5237158573865601  0.8383041075520486
  0.9525708080672739  0.8589953255608346  0.1567699059011080
  0.9291054963852552  0.7603435500988655  0.7047572152178841
  0.7465669709626739  0.0028509973820341  0.0695995567489018
  0.7521981449742016  0.3095670484643478  0.4646420475792931
  0.9514800718974813  0.2081338136345374  0.5781906459558265
  0.1202545036484683  0.7719934362418586  0.5305732934551735
  0.5247870599023596  0.8005168405038292  0.6221012472389985
  0.2717188398671976  0.0077379036880044  0.8366554696118509
  0.1439361262741151  0.1614954172766310  0.4182365600435823
  0.3683086087977557  0.4133649565238854  0.9165323588202187
  0.5517247542085711  0.4193328255211916  0.8252099216818520
 -0.0098962400709787  0.0967603693338877  0.4701012801928239
  0.6669760257105481  0.8980545561472304  0.5206714701192577
  0.2760013757682365  0.2117625224442417  0.4993731903098514
  0.7668817234439015  0.4183492297360891  0.6534513146513977
  0.9467363821789587  0.9447481859695933  0.3653267280405521
  0.3675299685369663  0.7840799127576186  0.6443272564123829
  0.1445892850439860  0.9984344267430718  0.4176438251057408
  0.3897038232537481  0.4704856570537781  0.9977887912081983
 -0.0561099658600076  0.3223527400359973  0.3612361698152033
  0.4262470011262504  0.2540484001812462  0.7047550143725544
  0.4953591903887168  0.4861063940524496  0.7800976155641012
  0.8681024637582347  0.5988157435335361  0.4812011778857165
  0.7306812379930168  0.1770027009870441  0.1512978993389234
  0.9624391123254589  0.0406152055632084  0.2381652505675960
  0.2257991110329015  0.0333869741198494  0.5188981456348732
  0.6478263706615132  0.6129363316369741  0.4942658730404711
  0.4394576465475962  0.0938066230176661  0.6424279423487548
  0.4039144677882870  0.2007074771968980  0.3496711331853350
  0.3303871686675138  0.9564510272198402  0.3641350257644706
  0.7681646139395174  0.7746463834484151  0.7489752002071101
  0.6932123046732422  0.2709325382232458  0.3948592415236811
  0.5304167069952233  0.6833438427166312  0.8317138147003934
  0.7974166955566072  0.7584758015476376  0.4207470467105237
  0.0674581491574947  0.4703447246641143  0.8733335146931637
 -0.0148840446797153  0.4310472412030945  0.7030023846902155
  0.6765572238907768  0.5720692986286441  0.5811335032527120
  0.3954997870438057  0.2835689581818620  0.2904811988218303
  0.1664831008874453  0.0050700431214777  0.9961057166833981
  0.5673991687726410  0.9616938815186090  0.3492165821307742
  0.2897810723148630  0.7162053133619053  0.3720317438094161
  0.5606863959625304  0.2180886245833762  0.3299832594742337
  0.3460037356144101  0.9397879498624611  0.5295806389283874
  0.3005686173378085  0.6406165316291221  0.5920621248687383
  0.2440914128097870  0.6766420107280662  0.1207432203594518
  0.1631501081933091  0.4690998096277818  0.0021520235023860
  0.7615618956704617  0.2165947071260289  0.7349413243558743
  0.7335150743517136  0.2772918202907219  0.1511242321639189
  0.8758708297687937  0.4306603508401008  0.9426903925139416
  0.4585564206311034  0.7630265325052286  0.6848507213428078
  0.0095377666043181  0.6614667646758207  0.9381930241982800
  0.7096971263033869  0.0290260358056025  0.3146966362247510
  0.7391640441464571  0.7099084356625500  0.1140705720734545
  0.9710838704482944  0.4704469736945875  0.1738156333548442
  0.9438122202198416  0.6033415058839360  0.4132923654350146
  0.5969648767566061  0.0516923206227902  0.0962955366900439
  0.1815442444304501  0.6002783155682525  0.3881402694279805
  0.3868465149158581  0.6913782748057578  0.2472907320359017
  0.9002616917144861  0.5729593032324111  0.0196811959338679
  0.0923028698989835  0.9837603566600316  0.5896710770923983
  0.0928178609236606  0.5930060423237137  0.6510565495786712
  0.5562439223668790  0.1274497687513476  0.0476024320523072
  0.6512302068250621 -0.0104631014027478  0.0396752077151198
  0.2958426350405899  0.2222222778607866  0.8140005966311936
  0.4260646604982066  0.0131556765627816  0.6979987476840710
  0.8632879231353020  0.8709265370748879  0.5106952421122060
  0.0570543993233418  0.0271076196367166  0.8826586720066719
  0.6156051028323497  0.2095793792715641  0.0555768324200689
  0.4370925050972679  0.7772480795249140  0.2579195298531676
  0.6004719710386534  0.5137828551767439  0.6088107017535912
  0.3678807191176675  0.3603011694702222  0.1121028262921094
  0.6845814154010323  0.8259877396331227  0.7696120448208722
  0.5072061157588563  0.2043345735792648  0.7348108284174112
  0.2968779580537698  0.8107643308374602  0.0222814448056735
  0.0758773385768311  0.1184649072730434  0.1584867891948996
  0.6987505667102649  0.3850078048485518  0.5048918270882321
  0.6402893917636785  0.3886871698658594  0.2970452854971808
  0.9530803256327448  0.1642044696016773  0.1044307078427787
  0.6122842252699677  0.3427858420952530  0.5302870877104953
  0.6462731841362610  0.7870739762137643  0.8533239711045408
  0.9809714436647861  0.2600662365378742  0.1151510529731624
  0.2923806502941337  0.7118318068508934  0.2719466687622473
  0.4708412964236101  0.6544408135037419  0.0576848681199473
  0.9310223215955781  0.4254362147821180  0.4860298189312954
  0.5996559964914463  0.3957528709969076  0.1196132477645157
  0.2754581974918170  0.5809078631222441  0.1234512374155516
  0.4917040635548072  0.0261261567612330  0.3500878867517970
  0.8062936052473948  0.1282274614933518  0.7476750337294464
  0.5564172461741581  0.3458493940416685  0.2623913520952893
  0.9897547087486902  0.5858841339589833  0.6494310723364862
  0.2792642094970543  0.3077117821559450  0.6807929406245130
  0.0644000815535722  0.2849482024405857  0.4874718723114160
  0.2419502018982851  0.2021329119640085  0.1480987965852229
  0.1128209963049174  0.2973399603000147  0.0245764149892956
  0.6963553551171143  0.3711035372149910  0.7878059457297898
  0.6150809383542767  0.3022922494279704  0.6218747497090144
  0.0250670710819305  0.7354448885692587  0.0035314899668306
  0.8093167957520587  0.9135826038035990  0.8625721170239694
  0.3498669012104044  0.0703529425156658  0.8408173491865026
  0.9142333298591951  0.6317279142320453  0.9400285250187045
  0.1260255976948237  0.5275307356229354  0.9301384423587229
  0.1365459092781513  0.9717173549054086  0.9061625227673072
  0.4969308031324663  0.8080708817026614  0.1128173953376980
  0.4377902806106517  0.6426628874245935  0.8005374765025540
  0.0907398309399789  0.1096124508460217  0.8353573836499375
  0.9630899202580961  0.2228550228337998  0.7301997340355784
  0.3962566878274952  0.4756689504337217  0.2386493569908466
  0.8144060269622834  0.8650071361171425  0.2405312160572697
  0.0315353797277893  0.4579583458258616  0.2520704376494794
  0.1666190968553415  0.9284718750864980  0.3513061399865787
  0.3037593221114936  0.9298189035810199  0.7832451158531476
  0.7436691461542733  0.4487658516034316  0.7457320370768027
  0.0785067084148159  0.7883347692815661  0.4438061434544581
  0.8082667097421156  0.5938714500449666  0.7801859177620083
  0.7918817276173198  0.8931618372672931  0.3342159163448384
  0.1546339656907929  0.6806506385115021  0.5218648221407183
  0.0743533099040203  0.7902045273822551  0.3102340888495097
  0.9567624096179825  0.2509714288736191  0.8919360987838015
 -0.0317489670796414  0.2515954637930626  0.4930100657770414
  0.3621776151531512  0.9493956252545838  0.9846771961141642
  0.9799127372689250  0.1079117135591446  0.5662739091313701
  0.4691312887672721  0.3013607040067617  0.5596513461709295
  0.3619432539831047  0.2710658043543003  0.9533136775709949
  0.9264019597464931  0.3987681240903087  0.6292671201567940
  0.2988385006863756  0.1406516624940833  0.0203784291402408
  0.3699432514469412  0.8694132110714309  0.3899463489465331
  0.3549648080302540  0.5616189875782522  0.6197190065109470
  0.9989561850391389  0.8552075441888267  0.5977387994089017
  0.6662050346829475  0.7085711630603198  0.2697542076830336
  0.1615729681399669  0.3483610380924965  0.8225910211602301
  0.7549434858044451  0.0636351787068648  0.6076797056363742
  0.3717078366472878  0.6926914116798004  0.8511475334028457
  0.4539050940363732  0.6073904313423767  0.5067534491353245
  0.8975166582960923  0.6912693520854261  0.1478569096110848
  0.2121412458587336  0.1669079920454410  0.2369697353907589
  0.8261968280904559  0.3018955577799456  0.1223800889754777
  0.7328129898650204  0.6153294623632306  0.7162451663332604
  0.9035578217941564  0.2383455157187950  0.8086331189730259
  0.1213527750616039  0.5746277405204867  0.7428500110076256
  0.8112048816915055  0.9924090082888559  0.5815587078709096
  0.1313073399350230  0.0836908915230162  0.3597960511508453
  0.4094444161866492  0.1021525314787817  0.2276085147607252
  0.8740308905595033 -0.0071737944756408  0.4280919302482809
  0.9990795538530052  0.0179040074352296  0.3318049091899370
  0.2008980801858204  0.8107927952921202  0.0468038962456074
  0.1371288679646137  0.0655546422562980  0.5534667340324557
  0.5473807807088561  0.5225958869248617  0.2209473205967504
  0.5346134652270305  0.5722935028511029  0.6555541569699682
  0.5556587296692896  0.1743256246491365  0.2397868967469405
  0.5874370459013798  0.1441955187417054  0.3923978374945311
  0.0538864423540236  0.3592850735734322  0.2490259796753276
  0.4572927716026717  0.7523496091582916  0.0400758843580173
  0.2776606547767511  0.6243513548763838  0.4066587766515330
  0.1245572729786339  0.7779987789155759  0.8906651190665028
  0.3390396220752246  0.1364321179018926  0.5185204162182936
  0.7426590563371992  0.9900721609301573  0.1679623843013168
  0.2344223608015044  0.4547341259838940  0.6403488113281027
  0.3994070949584386  0.4220607704309299  0.4662297017995988
  0.8024798568289755  0.5669012846514160  0.1492598698853752
  0.1150557774390122  0.6541937471708955  0.8049146942563413
  0.0309864033294094  0.7961818488705252  0.1584342769958124
  0.9736064599369683  0.1593954686174190  0.9298491935174058
  0.0638066687732938  0.3658021936944487  0.5458121504107490
  0.7987503651395884  0.3924497600473216  0.9921582003543430
  0.2921448390210490  0.0766238245177400  0.5828649338287956
  0.2354483156712019  0.4057038392829936  0.4610656659114040
  0.9722947249367343  0.1229991317563375  0.7236187283065557
  0.7086079772029565  0.3173476080843490  0.3072081974946984
  0.7347946897672405  0.8212639737931898  0.3744854079726164
  0.7256817160227699  0.0482231955819154  0.8616950011066603
 
  0.00000000E+00  0.00000000E+00  0.00000000E+00
  0.00000000E+00  0.00000000E+00  0.00000000E+00
  0.00000000E+00  0.00000000E+00  0.00000000E+00
  0.00000000E+00  0.00000000E+00  0.00000000E+00
  0.00000000E+00  0.00000000E+00  0.00000000E+00
  0.00000000E+00  0.00000000E+00  0.00000000E+00
  0.00000000E+00  0.00000000E+00  0.00000000E+00
  0.00000000E+00  0.00000000E+00  0.00000000E+00
  0.00000000E+00  0.00000000E+00  0.00000000E+00
  0.00000000E+00  0.00000000E+00  0.00000000E+00
  0.00000000E+00  0.00000000E+00  0.00000000E+00
  0.00000000E+00  0.00000000E+00  0.00000000E+00
  0.00000000E+00  0.00000000E+00  0.00000000E+00
  0.00000000E+00  0.00000000E+00  0.00000000E+00
  0.00000000E+00  0.00000000E+00  0.00000000E+00
  0.00000000E+00  0.00000000E+00  0.00000000E+00
  0.00000000E+00  0.00000000E+00  0.00000000E+00
  0.00000000E+00  0.00000000E+00  0.00000000E+00
  0.00000000E+00  0.00000000E+00  0.00000000E+00
  0.00000000E+00  0.00000000E+00  0.00000000E+00
  0.00000000E+00  0.00000000E+00  0.00000000E+00
  0.00000000E+00  0.00000000E+00  0.00000000E+00
  0.00000000E+00  0.00000000E+00  0.00000000E+00
  0.00000000E+00  0.00000000E+00  0.00000000E+00
  0.00000000E+00  0.00000000E+00  0.00000000E+00
  0.00000000E+00  0.00000000E+00  0.00000000E+00
  0.00000000E+00  0.00000000E+00  0.00000000E+00
  0.00000000E+00  0.00000000E+00  0.00000000E+00
  0.00000000E+00  0.00000000E+00  0.00000000E+00
  0.00000000E+00  0.00000000E+00  0.00000000E+00
  0.00000000E+00  0.00000000E+00  0.00000000E+00
  0.00000000E+00  0.00000000E+00  0.00000000E+00
  0.00000000E+00  0.00000000E+00  0.00000000E+00
  0.00000000E+00  0.00000000E+00  0.00000000E+00
  0.00000000E+00  0.00000000E+00  0.00000000E+00
  0.00000000E+00  0.00000000E+00  0.00000000E+00
  0.00000000E+00  0.00000000E+00  0.00000000E+00
  0.00000000E+00  0.00000000E+00  0.00000000E+00
  0.00000000E+00  0.00000000E+00  0.00000000E+00
  0.00000000E+00  0.00000000E+00  0.00000000E+00
  0.00000000E+00  0.00000000E+00  0.00000000E+00
  0.00000000E+00  0.00000000E+00  0.00000000E+00
  0.00000000E+00  0.00000000E+00  0.00000000E+00
  0.00000000E+00  0.00000000E+00  0.00000000E+00
  0.00000000E+00  0.00000000E+00  0.00000000E+00
  0.00000000E+00  0.00000000E+00  0.00000000E+00
  0.00000000E+00  0.00000000E+00  0.00000000E+00
  0.00000000E+00  0.00000000E+00  0.00000000E+00
  0.00000000E+00  0.00000000E+00  0.00000000E+00
  0.00000000E+00  0.00000000E+00  0.00000000E+00
  0.00000000E+00  0.00000000E+00  0.00000000E+00
  0.00000000E+00  0.00000000E+00  0.00000000E+00
  0.00000000E+00  0.00000000E+00  0.00000000E+00
  0.00000000E+00  0.00000000E+00  0.00000000E+00
  0.00000000E+00  0.00000000E+00  0.00000000E+00
  0.00000000E+00  0.00000000E+00  0.00000000E+00
  0.00000000E+00  0.00000000E+00  0.00000000E+00
  0.00000000E+00  0.00000000E+00  0.00000000E+00
  0.00000000E+00  0.00000000E+00  0.00000000E+00
  0.00000000E+00  0.00000000E+00  0.00000000E+00
  0.00000000E+00  0.00000000E+00  0.00000000E+00
  0.00000000E+00  0.00000000E+00  0.00000000E+00
  0.00000000E+00  0.00000000E+00  0.00000000E+00
  0.00000000E+00  0.00000000E+00  0.00000000E+00
  0.00000000E+00  0.00000000E+00  0.00000000E+00
  0.00000000E+00  0.00000000E+00  0.00000000E+00
  0.00000000E+00  0.00000000E+00  0.00000000E+00
  0.00000000E+00  0.00000000E+00  0.00000000E+00
  0.00000000E+00  0.00000000E+00  0.00000000E+00
  0.00000000E+00  0.00000000E+00  0.00000000E+00
  0.00000000E+00  0.00000000E+00  0.00000000E+00
  0.00000000E+00  0.00000000E+00  0.00000000E+00
  0.00000000E+00  0.00000000E+00  0.00000000E+00
  0.00000000E+00  0.00000000E+00  0.00000000E+00
  0.00000000E+00  0.00000000E+00  0.00000000E+00
  0.00000000E+00  0.00000000E+00  0.00000000E+00
  0.00000000E+00  0.00000000E+00  0.00000000E+00
  0.00000000E+00  0.00000000E+00  0.00000000E+00
  0.00000000E+00  0.00000000E+00  0.00000000E+00
  0.00000000E+00  0.00000000E+00  0.00000000E+00
  0.00000000E+00  0.00000000E+00  0.00000000E+00
  0.00000000E+00  0.00000000E+00  0.00000000E+00
  0.00000000E+00  0.00000000E+00  0.00000000E+00
  0.00000000E+00  0.00000000E+00  0.00000000E+00
  0.00000000E+00  0.00000000E+00  0.00000000E+00
  0.00000000E+00  0.00000000E+00  0.00000000E+00
  0.00000000E+00  0.00000000E+00  0.00000000E+00
  0.00000000E+00  0.00000000E+00  0.00000000E+00
  0.00000000E+00  0.00000000E+00  0.00000000E+00
  0.00000000E+00  0.00000000E+00  0.00000000E+00
  0.00000000E+00  0.00000000E+00  0.00000000E+00
  0.00000000E+00  0.00000000E+00  0.00000000E+00
  0.00000000E+00  0.00000000E+00  0.00000000E+00
  0.00000000E+00  0.00000000E+00  0.00000000E+00
  0.00000000E+00  0.00000000E+00  0.00000000E+00
  0.00000000E+00  0.00000000E+00  0.00000000E+00
  0.00000000E+00  0.00000000E+00  0.00000000E+00
  0.00000000E+00  0.00000000E+00  0.00000000E+00
  0.00000000E+00  0.00000000E+00  0.00000000E+00
  0.00000000E+00  0.00000000E+00  0.00000000E+00
  0.00000000E+00  0.00000000E+00  0.00000000E+00
  0.00000000E+00  0.00000000E+00  0.00000000E+00
  0.00000000E+00  0.00000000E+00  0.00000000E+00
  0.00000000E+00  0.00000000E+00  0.00000000E+00
  0.00000000E+00  0.00000000E+00  0.00000000E+00
  0.00000000E+00  0.00000000E+00  0.00000000E+00
  0.00000000E+00  0.00000000E+00  0.00000000E+00
  0.00000000E+00  0.00000000E+00  0.00000000E+00
  0.00000000E+00  0.00000000E+00  0.00000000E+00
  0.00000000E+00  0.00000000E+00  0.00000000E+00
  0.00000000E+00  0.00000000E+00  0.00000000E+00
  0.00000000E+00  0.00000000E+00  0.00000000E+00
  0.00000000E+00  0.00000000E+00  0.00000000E+00
  0.00000000E+00  0.00000000E+00  0.00000000E+00
  0.00000000E+00  0.00000000E+00  0.00000000E+00
  0.00000000E+00  0.00000000E+00  0.00000000E+00
  0.00000000E+00  0.00000000E+00  0.00000000E+00
  0.00000000E+00  0.00000000E+00  0.00000000E+00
  0.00000000E+00  0.00000000E+00  0.00000000E+00
  0.00000000E+00  0.00000000E+00  0.00000000E+00
  0.00000000E+00  0.00000000E+00  0.00000000E+00
  0.00000000E+00  0.00000000E+00  0.00000000E+00
  0.00000000E+00  0.00000000E+00  0.00000000E+00
  0.00000000E+00  0.00000000E+00  0.00000000E+00
  0.00000000E+00  0.00000000E+00  0.00000000E+00
  0.00000000E+00  0.00000000E+00  0.00000000E+00
  0.00000000E+00  0.00000000E+00  0.00000000E+00
  0.00000000E+00  0.00000000E+00  0.00000000E+00
  0.00000000E+00  0.00000000E+00  0.00000000E+00
  0.00000000E+00  0.00000000E+00  0.00000000E+00
  0.00000000E+00  0.00000000E+00  0.00000000E+00
  0.00000000E+00  0.00000000E+00  0.00000000E+00
  0.00000000E+00  0.00000000E+00  0.00000000E+00
  0.00000000E+00  0.00000000E+00  0.00000000E+00
  0.00000000E+00  0.00000000E+00  0.00000000E+00
  0.00000000E+00  0.00000000E+00  0.00000000E+00
  0.00000000E+00  0.00000000E+00  0.00000000E+00
  0.00000000E+00  0.00000000E+00  0.00000000E+00
  0.00000000E+00  0.00000000E+00  0.00000000E+00
  0.00000000E+00  0.00000000E+00  0.00000000E+00
  0.00000000E+00  0.00000000E+00  0.00000000E+00
  0.00000000E+00  0.00000000E+00  0.00000000E+00
  0.00000000E+00  0.00000000E+00  0.00000000E+00
  0.00000000E+00  0.00000000E+00  0.00000000E+00
  0.00000000E+00  0.00000000E+00  0.00000000E+00
  0.00000000E+00  0.00000000E+00  0.00000000E+00
  0.00000000E+00  0.00000000E+00  0.00000000E+00
  0.00000000E+00  0.00000000E+00  0.00000000E+00
  0.00000000E+00  0.00000000E+00  0.00000000E+00
  0.00000000E+00  0.00000000E+00  0.00000000E+00
  0.00000000E+00  0.00000000E+00  0.00000000E+00
  0.00000000E+00  0.00000000E+00  0.00000000E+00
  0.00000000E+00  0.00000000E+00  0.00000000E+00
  0.00000000E+00  0.00000000E+00  0.00000000E+00
  0.00000000E+00  0.00000000E+00  0.00000000E+00
  0.00000000E+00  0.00000000E+00  0.00000000E+00
  0.00000000E+00  0.00000000E+00  0.00000000E+00
  0.00000000E+00  0.00000000E+00  0.00000000E+00
  0.00000000E+00  0.00000000E+00  0.00000000E+00
  0.00000000E+00  0.00000000E+00  0.00000000E+00
  0.00000000E+00  0.00000000E+00  0.00000000E+00
  0.00000000E+00  0.00000000E+00  0.00000000E+00
  0.00000000E+00  0.00000000E+00  0.00000000E+00
  0.00000000E+00  0.00000000E+00  0.00000000E+00
  0.00000000E+00  0.00000000E+00  0.00000000E+00
  0.00000000E+00  0.00000000E+00  0.00000000E+00
  0.00000000E+00  0.00000000E+00  0.00000000E+00
  0.00000000E+00  0.00000000E+00  0.00000000E+00
  0.00000000E+00  0.00000000E+00  0.00000000E+00
  0.00000000E+00  0.00000000E+00  0.00000000E+00
  0.00000000E+00  0.00000000E+00  0.00000000E+00
  0.00000000E+00  0.00000000E+00  0.00000000E+00
  0.00000000E+00  0.00000000E+00  0.00000000E+00
  0.00000000E+00  0.00000000E+00  0.00000000E+00
  0.00000000E+00  0.00000000E+00  0.00000000E+00
  0.00000000E+00  0.00000000E+00  0.00000000E+00
  0.00000000E+00  0.00000000E+00  0.00000000E+00
  0.00000000E+00  0.00000000E+00  0.00000000E+00
  0.00000000E+00  0.00000000E+00  0.00000000E+00
  0.00000000E+00  0.00000000E+00  0.00000000E+00
  0.00000000E+00  0.00000000E+00  0.00000000E+00
  0.00000000E+00  0.00000000E+00  0.00000000E+00
  0.00000000E+00  0.00000000E+00  0.00000000E+00
  0.00000000E+00  0.00000000E+00  0.00000000E+00
  0.00000000E+00  0.00000000E+00  0.00000000E+00
  0.00000000E+00  0.00000000E+00  0.00000000E+00
  0.00000000E+00  0.00000000E+00  0.00000000E+00
  0.00000000E+00  0.00000000E+00  0.00000000E+00
  0.00000000E+00  0.00000000E+00  0.00000000E+00
  0.00000000E+00  0.00000000E+00  0.00000000E+00
  0.00000000E+00  0.00000000E+00  0.00000000E+00
  0.00000000E+00  0.00000000E+00  0.00000000E+00
  0.00000000E+00  0.00000000E+00  0.00000000E+00
  0.00000000E+00  0.00000000E+00  0.00000000E+00
  0.00000000E+00  0.00000000E+00  0.00000000E+00
  0.00000000E+00  0.00000000E+00  0.00000000E+00
  0.00000000E+00  0.00000000E+00  0.00000000E+00
  0.00000000E+00  0.00000000E+00  0.00000000E+00
  0.00000000E+00  0.00000000E+00  0.00000000E+00
  0.00000000E+00  0.00000000E+00  0.00000000E+00
  0.00000000E+00  0.00000000E+00  0.00000000E+00
  0.00000000E+00  0.00000000E+00  0.00000000E+00
  0.00000000E+00  0.00000000E+00  0.00000000E+00
  0.00000000E+00  0.00000000E+00  0.00000000E+00
  0.00000000E+00  0.00000000E+00  0.00000000E+00
  0.00000000E+00  0.00000000E+00  0.00000000E+00
  0.00000000E+00  0.00000000E+00  0.00000000E+00
  0.00000000E+00  0.00000000E+00  0.00000000E+00
  0.00000000E+00  0.00000000E+00  0.00000000E+00
  0.00000000E+00  0.00000000E+00  0.00000000E+00
  0.00000000E+00  0.00000000E+00  0.00000000E+00
  0.00000000E+00  0.00000000E+00  0.00000000E+00
  0.00000000E+00  0.00000000E+00  0.00000000E+00
  0.00000000E+00  0.00000000E+00  0.00000000E+00
  0.00000000E+00  0.00000000E+00  0.00000000E+00
  0.00000000E+00  0.00000000E+00  0.00000000E+00
  0.00000000E+00  0.00000000E+00  0.00000000E+00
  0.00000000E+00  0.00000000E+00  0.00000000E+00
  0.00000000E+00  0.00000000E+00  0.00000000E+00
  0.00000000E+00  0.00000000E+00  0.00000000E+00
  0.00000000E+00  0.00000000E+00  0.00000000E+00
  0.00000000E+00  0.00000000E+00  0.00000000E+00
  0.00000000E+00  0.00000000E+00  0.00000000E+00
  0.00000000E+00  0.00000000E+00  0.00000000E+00
  0.00000000E+00  0.00000000E+00  0.00000000E+00
  0.00000000E+00  0.00000000E+00  0.00000000E+00
  0.00000000E+00  0.00000000E+00  0.00000000E+00
  0.00000000E+00  0.00000000E+00  0.00000000E+00
  0.00000000E+00  0.00000000E+00  0.00000000E+00
  0.00000000E+00  0.00000000E+00  0.00000000E+00
  0.00000000E+00  0.00000000E+00  0.00000000E+00
  0.00000000E+00  0.00000000E+00  0.00000000E+00