Amorphous Sb                            
   1.00000000000000     
    20.4622120348827323    0.0000000000000000    0.0000000000000000
     0.0000000000000000   20.4622120348827288    0.0000000000000000
     0.0000000000000000    0.0000000000000000   20.4622120348827288
   Ge   Se
   150   150
Direct
  0.8907702451578549  0.0199848892655390  0.8659481926472965
  0.9642096558099441  0.3494810815805498  0.9668773388301692
  0.1141972055929978  0.2350281518521910  0.5490821981768984
  0.6819281794497548  0.2367832742306349  0.7257525418442679
  0.0539946136256974  0.7283691145881098  0.9405452356487941
  0.1890882069777966  0.7494597436425026  0.0827811026919891
  0.9079391449326317  0.0954376086192855  0.3431868135203807
  0.0146147599263775  0.7525830547039101  0.5711066401739389
  0.1326880613324005  0.7629776858706563  0.3546536236510230
  0.2449229389620101  0.0118166756431285  0.4637963901158004
  0.8159478225012551  0.3968393960466019  0.5307792489393108
  0.7550115577651235  0.5365068518861255  0.6906849757963063
  0.3447802702055051  0.3293117940362639  0.6898310749131721
 -0.0062412351607070  0.1105615356633488  0.1689209511346778
  0.6939914266673818  0.8295705116457022  0.5040853015328197
  0.8873858269313379  0.7587362877158769  0.2960368054088364
  0.9474941461978211  0.7242087489934532  0.7243999110581673
  0.0670951240988879  0.3470139002541716  0.2773537011023463
  0.0856481736684021  0.1523050462480363  0.0052780840861120
  0.0490262006355392  0.2167043178530185  0.3540902469612870
  0.1710406043036596  0.4492080244440209  0.1881724763806471
  0.5442154215170204  0.0394995969013762  0.8861701769410534
  0.0347464876748344  0.0733984077171016  0.7484810401293190
  0.0805622014642137  0.0492188891118901  0.2525668045146872
  0.6023278286267730  0.2692321714761127  0.1578022835033439
  0.5236156880447307  0.3158829778405255  0.7218955712225466
  0.5774726661492716  0.9254545392507270  0.7039124994409051
  0.7495282057705349  0.1459903380921991  0.9681246056761682
  0.0372356194492181  0.7021113518760153  0.8175468353317049
  0.9600283167463711  0.9699279515421187  0.5687477034056889
  0.9509310472735885  0.4077271988230746  0.6720978311542504
  0.7045023668075979  0.2861294384898117  0.4461032686135846
  0.8224416913998278  0.3628124548124212  0.1423461929438979
  0.6069778328388238  0.0412581160569562  0.3232986633877208
  0.7517738143390479  0.5553906698369911  0.2779781994329492
  0.9256865177738025  0.5725232025668281  0.1004967160497628
  0.5563294448870848  0.4942751914912155  0.8903301354117711
  0.4692736068535602  0.9753259875924324  0.2631206213448985
  0.3838053440459069  0.2458124600891856  0.1641973853683812
  0.7509615461187801  0.4065838318538030  0.0343231922156763
  0.5024622381013623  0.2120131938192999  0.5824304480732925
  0.8825999015419373  0.0329110878859019  0.4993709914766804
  0.7305669783662609  0.8402332477841451  0.1075130010096824
  0.2499915904632189  0.1831196335786560  0.8672813072047455
  0.4275869344796997  0.7649594954121465  0.2592474340402993
  0.6097659152793090  0.4165931389043006  0.5469906491740456
  0.7081028353736251  0.1159982837973738  0.3298860030046052
  0.1972719235206547  0.1115226874682026  0.6486606902742272
  0.7969414383001076  0.5482447545328285  0.9623619308446549
  0.3105188880283347  0.8355407070470653  0.1824942975532455
  0.8998428164924765  0.8430880676613188  0.4737509436337582
  0.5199054523155165  0.1705863199530735  0.0332148347221332
  0.5129316511318718  0.8158321516329593  0.7211522617857749
  0.6137596354955966  0.2285792501421607  0.8872389866300574
  0.1115640129388876  0.5255417603695233  0.8410993314796008
  0.0794092561721423  0.0609882937491343  0.4198496233424347
  0.0413975008909536  0.3322204344751788  0.7691718866524591
  0.9615616739401148  0.5870492471706592  0.5687304013547702
  0.8527153608617498  0.0902825477106070  0.6651322874057362
  0.4556780124764087  0.6273331164691371  0.1673209976256359
  0.7373049364475096  0.9169244523188376  0.8075286658473375
  0.8025466678834610  0.9585174672105086  0.2693946592626765
  0.7674281169983334  0.6360424591851297  0.4310800972413760
  0.9954058394141397  0.7919455916533804  0.0932098437854237
  0.7480992406724810  0.7260602462868820  0.0469082635046696
  0.6616796999362582  0.5022572442519163  0.7759696992368205
  0.7268220806434703  0.9713061013110499  0.4470157845243405
  0.9446320071149548  0.6695961382717923  0.9649258049646837
  0.8776370298426988  0.3011930730780875  0.2728295028767782
  0.8751300285806507  0.2304852506673348  0.6669532037671221
  0.4016448898845145  0.7573473668195077  0.0303822362797484
  0.5156859599943071  0.9132539151674610  0.0793653716619162
  0.5013592281008340  0.4462258592644491  0.7424180869686243
  0.3595722052847643  0.8584351000863835  0.4693860454861217
  0.0936226039277177  0.5997024583840442 -0.0077904289794873
  0.7661010213277643  0.7365479922379908  0.2489922455200828
  0.3257092744665555  0.2317481008995509  0.3245429142606435
  0.0462921499963506  0.8927604650652486  0.0144993118592223
  0.1941649688049874  0.2766602524738361  0.7005272138890262
  0.4109708774350475  0.2945054287621718  0.9937416907799490
  0.6618285158718225  0.0155629179812361  0.0574485953093363
  0.0391529560052917  0.4488122432327137  0.0566101707077495
  0.4375452942954989  0.4574005600900731  0.0357413971110592
  0.4989073899348515  0.4803368129706639  0.4043478058664811
  0.4072549213555908  0.1770806533190772  0.7309673579729232
  0.4365178296852611  0.9759082407921013  0.7469950286443727
  0.3865172533762755  0.7450821516962898  0.5817229901716756
  0.9368827601562537  0.4662671382643980  0.3031937942723570
  0.6219157217505430  0.7039208786651654  0.1688724654574692
  0.5564703163259894  0.2122037102598911  0.2982050859841293
  0.1982894885766841  0.8972992382518161  0.9468381542316932
  0.0333074411792537  0.4862436931334994  0.4608896548190121
  0.2213747176498008  0.5836910965461273  0.8353658588955207
  0.5645846948184429  0.1472020598815766  0.4898673002397728
  0.8800087104327173  0.9067843901091427  0.6462120871293546
  0.7712825198097575  0.6547817762457070  0.5602419310983449
  0.1943080728950576  0.8999787383584426  0.1897091940093856
  0.2809162736959390  0.1812496642240508  0.5020316909663413
  0.1666931768920352  0.8486960610861514  0.4460181237897428
  0.5824086624236757  0.8318927823776285  0.9083605030699665
  0.4010095372685896  0.5974944506420785  0.9253144752262985
  0.6541829411077769  0.2862048515614633 -0.0019583059432242
  0.2960772455802287  0.5089210409449708  0.2779541758271474
  0.8651355154522672  0.1494539881963108  0.4524715890598938
  0.2971299109746988  0.8916296870836108  0.6614563791651911
  0.6173656470844504  0.6014874795500678  0.0159875548896423
  0.9117833153158328  0.2274998968018857  0.1209403520139992
  0.6821846635460258  0.3840073554152597  0.2731378390581923
  0.2401902791488819  0.3853231345753769  0.7901021574560890
  0.9433474715668998  0.1560168190815604  0.9810415547319985
  0.1962115262316493  0.6703565262186624  0.6494676694737237
  0.3705777164421217  0.9116038882225593  0.9002937099617284
  0.1754709783882286  0.1228659113712767  0.1568523654746892
  0.6844593742259114  0.2386130378860362  0.5718697771973117
  0.4388824685422384  0.5718140413657453  0.3297871792658093
  0.5551112034973530  0.7579468857339530  0.5185995556517335
  0.3188073557177979  0.0950709979851739  0.2341687256777510
  0.7504578214576270  0.7752808231237122  0.6922928919280884
  0.1743197366877734  0.3711017984790340  0.3453846480937609
  0.3589290881447985  0.6175156597640071  0.6974450677981424
  0.6345111379704144  0.5073513199107261  0.3940923952293349
  0.9185796403084088  0.9595680635445030  0.1588853950866222
  0.8857973012564360  0.4740245451281038  0.8314165396798039
  0.1190384123565392  0.8978630172203954  0.6046238522502445
  0.2878741377199985  0.3701520059185995  0.4683797078270550
  0.4828313260622956  0.0786574910905245  0.1406934682624006
  0.1350171880324239  0.8503255761821293  0.7509664861786918
  0.7858063073863375  0.1486017979057529  0.8375398269443518
  0.2646692368055205  0.0217512234559171  0.0733400503549607
  0.6728911813725076  0.7303868570811362  0.7932982910924170
  0.1361916268126419  0.7932391009783114  0.2278347876401494
  0.8864033006695852  0.6238874408116711  0.4003601753104713
  0.5846689777038823  0.9647530745608522  0.4638197217448983
  0.5311710858180337  0.8682124863571289  0.3909875295978260
  0.8064387261024857  0.5984277099200631  0.8303504503342027
  0.2581532098899102  0.5120604486427295  0.0461463767967978
  0.4248639516737161  0.2914661170869186  0.4707181659159606
  0.4064437734222592  0.0585892249342138  0.4201153594427932
  0.3797366905700013  0.4688392040230875  0.5502424712517668
  0.9782962983892177  0.6919908346119614  0.4546883890966092
  0.5521264747112223  0.4495524543552804  0.0974110217598785
  0.1075451415005790  0.2720551423860448  0.8651978348646784
  0.4133196170364703  0.3616736876675846  0.2689437494609495
  0.2325352926825624  0.0123754928476271  0.7959231055238295
  0.3887960154979295  0.5104001525313761  0.8365339412505010
  0.0537564052432641  0.8995259343350899  0.8419306744194608
  0.2304428007662110  0.6929298052242072  0.9037707857941486
  0.8373769724897921  0.9820840812058097  0.9901686693178851
  0.2714787420630541  0.6523532534131132  0.4213446180199593
  0.8236535273629059  0.8149278585029720  0.8958997793305330
  0.9264233006161521  0.1364168781496335  0.8602236589649532
  0.8145979845704052  0.3235983222898109  0.4314104465951163
  0.0694199051226428  0.2795947373023341 -0.0202100660518318
  0.0156304973042446  0.4788390058119009  0.5892582912125421
  0.4069075656086100  0.8554472861569885  0.7629322221840008
  0.8122523184290453  0.4157367356502564  0.2556837664105592
  0.5374731516656884  0.3002116006496604  0.0510967172294689
  0.5410616457688028  0.1934965751556420  0.6932810074993824
  0.8030119315642291  0.2456194794192133  0.1756888137655857
  0.7964981652798019  0.1885353118677618  0.5811778179013715
  0.6154488210480115  0.7831956672228660  0.4064161329177611
  0.4484229312128534  0.4335084170231673  0.9132933349787820
 -0.0068397348314793  0.8263410175957379  0.6662816239370078
  0.1699543923206062  0.9715054071107471  0.2823732290395475
  0.1449506810987847  0.3940420593222386  0.0900925340196957
  0.4116754203411897  0.9749469956824544  0.1536136990097151
  0.6605719911604658  0.1786210396675117  0.0567623411865146
  0.3962574157714656  0.4451562314571070  0.6735476273227952
 -0.0226307504433345  0.0734380944769941  0.6329624912507708
  0.9605184742464058  0.1795543474740119  0.2704044227201928
  0.8450761864291153  0.0989419869228755  0.0347176621935741
  0.2711069525620849  0.1869069136599825  0.7433336211973678
  0.2324143848889015  0.8885053338574633  0.8209461760819116
  0.1502515792864459  0.7295176346370364  0.7802519850534203
  0.2450747405467570  0.3754015484145999  0.2449747469505882
  0.5220279184367703  0.6115808830530748  0.9271680567497844
  0.2137987526501096  0.4552385148512365  0.4216415372177243
  0.9926795585714829  0.0071092221310131  0.3322338696528901
  0.3021207234198213  0.8253427086214482  0.0605048884266422
  0.4582523535005594  0.8601222630842147  0.9792358124757451
  0.3017613759213811  0.1150458175510290  0.3591141275962481
  0.6716526393540833  0.3713406178354294  0.1474539576844000
  0.8019466576760701  0.0069512959384432  0.5883578383417227
  0.5654815332725665  0.5753629768351018  0.1246960276083466
  0.3764113823616012  0.5651137398185268  0.0418917526250656
  0.4865311210566725  0.7220546022116702  0.6507549615980873
  0.6705819557595984  0.7286688708255278  0.5775431871424952
  0.3964352314803772  0.8751703163589896  0.5834453335745209
  0.7913922727009562  0.9437610285506935  0.1324539292933655
  0.6333810924554070  0.4983495527471190  0.2715873831682690
  0.3354961855773787  0.6294245637258862  0.3063900458632794
  0.1296092755685476  0.1542506602308391  0.8613762097497107
  0.2260965249208693  0.2870177895665017  0.5822652263105293
  0.9776444376942084  0.3652714713752244  0.3589485492186997
  0.5401135693972137  0.0192403122867647  0.0129213135925571
  0.6973425938170793  0.8930974600369647  0.6925797381876168
  0.8686796879518585  0.6985597555432362  0.8743180342210067
  0.0592249927682334  0.9501365206459730  0.5078762420899952
  0.7027061967082503  0.6624355515235787  0.3289261387733098
  0.5165154708933235  0.8567147580369044  0.2702318518159400
  0.8185893080051313  0.6374408269546625  0.7109608403369326
  0.5096707481456191  0.6567557525143551  0.2784730348512205
  0.8366866562759657  0.4448981017036842  0.7165087882652184
  0.0768503764407571  0.1926597630593132  0.1312240424079605
  0.6888350118699285  0.9491975544078078  0.3272121105858756
  0.6151927910756813  0.4535457367228026 -0.0085609340819337
  0.0595108245357419  0.6083584989458954  0.4881034201613344
  0.1239626163923915  0.4294850184432144  0.7677713234689414
  0.8799822619977331  0.2627606167844062  0.9993927712698645
  0.1375232775545890  0.0125137393119230  0.7056759725636050
  0.2385189165436857  0.7315135501298905  0.1967915799309655
  0.4161958164415112  0.4874992898937626  0.2369661418998698
  0.5083837565559669  0.3319878833886659  0.5583430824001403
  0.9460306226273149  0.3505841580422096  0.8418630495515393
  0.2318101436144310  0.2747108719025300  0.3985798681478755
  0.4847254818836574  0.2018628187821071  0.4048718837696437
  0.3546350688897364  0.7038043820640054  0.8985374549887518
  0.9695584171067876  0.9658950354751156  0.7852985616861748
  0.6812357591296175  0.6134924093386032  0.8381814170892165
  0.8489600125587845  0.9498606257966093  0.4164640382224480
  0.6852852136380245  0.2359224221477217  0.3290658217586139
  0.5368030619963984  0.3306837003472391  0.2638287818989243
  0.5856298056327325  0.8782305020922466  0.5551886544627276
  0.7443161541135062  0.6604335472704131  0.1562196898178205
  0.1309950043728415  0.7788666918249223  0.5466193415545116
  0.0272401664302606  0.6589203791375523  0.6485050919053446
  0.7991947143631291  0.2539610893894001  0.7669640738691718
  0.9048239441187286  0.6969780465376681  0.0760790660809068
  0.2298263607673328  0.9308062096182749  0.5598857584044742
  0.9464595051244223  0.3385106696992614  0.1688030485412987
  0.8330810011738935  0.8356000710786710  0.7754687293446988
  0.6223430627668399  0.7288636406792552  0.0469147469315023
  0.8261662058337753  0.7704856901507631  0.4049336235708534
  0.2132628021685117  0.6313874960959804  0.0205799542907209
  0.7297831695257672  0.5399994979731184  0.5747915073021731
  0.1028136310577201  0.1954786122087224  0.6701034936489643
  0.9619773847890982  0.8522977226351833  0.1915560736916752
  0.4175163559363958  0.2934728483531014  0.7844660204758072
  0.2684773484818410  0.2102619124255627  0.2101029511953109
  0.7353428354290489  0.0993311119701392  0.4437581582142978
  0.9153452796465100  0.5062489765983117  0.4221952683193839
  0.2698003397287341  0.7806595417875043  0.4595350865682065
  0.6779362087895866  0.8174521638693873  0.2145482425071047
  0.5518524014385462  0.7467725460474377  0.8154448169504891
  0.0113245445512565  0.7669119426557942  0.3688013925056834
  0.9061229651785262  0.3288819141624204  0.5920717559710647
  0.4459353781198450  0.7893969924415921  0.4278137342322144
  0.2225092652091444  0.3094109789366102  0.8861862576359079
  0.5730233523159023  0.5245990053162800  0.6922670629510916
  0.2415171218765196  0.5686141088447516  0.7171891735546942
  0.4719680118873522  0.7517007785803064  0.1423226045472898
  0.1160931567578657  0.4810280700304478  0.9539718826072481
  0.5899929072924462  0.9303782093629783  0.8305465829780512
  0.6481585851302422  0.8930064834432179  0.0375492742876372
  0.9269501118772877  0.5503028077203862  0.9755161402738542
  0.3842668160183795  0.2214374994574620  0.6148542866001976
  0.2348535113838357  0.5952547673963725  0.5502424022388187
  0.2758898380845680  0.4827329566611864  0.8793622702501748
  0.5044141874086653  0.1851984049297143  0.9087075064558090
  0.6564726707215187  0.1442789094505357  0.8097738461168308
  0.1338736975641387  0.1350621410990572  0.3198514649975784
  0.9830138691608163  0.8350733992490821  0.9182734153625627
  0.8932813455365929  0.6328109996970537  0.2836839587960487
  0.1563022019303369 -0.0392089977363527  0.0938754876645768
  0.3373462366916289  0.0680507873738504  0.5252640311205394
  0.2129505503043419  0.1334913880115187  0.0409621301116645
  0.8041157980557381  0.0308264154559197  0.7772207067118589
  0.8308761758161827  0.8211871473570910  0.5726321170335237
  0.4057666169885623  0.3908556171806483  0.3946562751712971
  0.0559613195832943  0.5646932758785962  0.1044320972538932
  0.0027784778071016  0.1554692195030964  0.4543107474997661
  0.4212958716529579  0.0197146791967707  0.8646400525497595
  0.1010635009209908  0.9745747925797901  0.9232622675560869
  0.6244979268842380  0.3833921152068623  0.4262583319714160
  0.8074186787272392  0.0822009584240838  0.2619317809219552
  0.6178037371855630  0.3203476008465441  0.8029058134992550
  0.3388977168470420  0.9463302624443091  0.3942653261394726
  0.7049940003542864  0.7793544110463173  0.8991764421889711
  0.7131861213145326  0.3539877002403607  0.5973475232033801
  0.4900772277574121  0.5104561007042958  0.5201084421286970
  0.1670605395251664  0.6500158443592703  0.3584000232480978
  0.0167123822969292  0.5810631375704484  0.8032185177516528
  0.5091171653111402  0.0411608343228635  0.5208831428586804
  0.3560223730963268  0.3764661111618213  0.0703210492042561
  0.2359796917315506  0.5466968137551526  0.1700647710620301
  0.9647201956158408  0.9800063266436849  0.0457439383797342
  0.7149991144331759  0.0305389553655869  0.9450102150234700
  0.3500735968890854  0.5902596953306948  0.5692333753351390
  0.4339060130349462  0.1496029244385581  0.2346095005203453
  0.3059659743572937  0.7294427286525007  0.6780814200381569
  0.1685088722074606  0.1261461129408272  0.5149934222847196
  0.0805619038943653  0.4709906558735499  0.2597455316461050
  0.7747158746553807  0.5158285215719159  0.0788993883125733
  0.3845067083427000  0.1899781145048295  0.0530701254423102
  0.5748764384670836  0.0168279779998450  0.2056537759562956
  0.7584207263966212  0.5141202492350299  0.3995706571299041
  0.2803646949661793 -0.0110591800604857  0.9541474442676172
  0.0726228792954892  0.7194536010809442  0.1547845103663548
  0.7925929801008074  0.4372089765686717  0.9079278560780523
  0.3211496465569091  0.0084675650870600  0.7035937823749570
 
  0.00000000E+00  0.00000000E+00  0.00000000E+00
  0.00000000E+00  0.00000000E+00  0.00000000E+00
  0.00000000E+00  0.00000000E+00  0.00000000E+00
  0.00000000E+00  0.00000000E+00  0.00000000E+00
  0.00000000E+00  0.00000000E+00  0.00000000E+00
  0.00000000E+00  0.00000000E+00  0.00000000E+00
  0.00000000E+00  0.00000000E+00  0.00000000E+00
  0.00000000E+00  0.00000000E+00  0.00000000E+00
  0.00000000E+00  0.00000000E+00  0.00000000E+00
  0.00000000E+00  0.00000000E+00  0.00000000E+00
  0.00000000E+00  0.00000000E+00  0.00000000E+00
  0.00000000E+00  0.00000000E+00  0.00000000E+00
  0.00000000E+00  0.00000000E+00  0.00000000E+00
  0.00000000E+00  0.00000000E+00  0.00000000E+00
  0.00000000E+00  0.00000000E+00  0.00000000E+00
  0.00000000E+00  0.00000000E+00  0.00000000E+00
  0.00000000E+00  0.00000000E+00  0.00000000E+00
  0.00000000E+00  0.00000000E+00  0.00000000E+00
  0.00000000E+00  0.00000000E+00  0.00000000E+00
  0.00000000E+00  0.00000000E+00  0.00000000E+00
  0.00000000E+00  0.00000000E+00  0.00000000E+00
  0.00000000E+00  0.00000000E+00  0.00000000E+00
  0.00000000E+00  0.00000000E+00  0.00000000E+00
  0.00000000E+00  0.00000000E+00  0.00000000E+00
  0.00000000E+00  0.00000000E+00  0.00000000E+00
  0.00000000E+00  0.00000000E+00  0.00000000E+00
  0.00000000E+00  0.00000000E+00  0.00000000E+00
  0.00000000E+00  0.00000000E+00  0.00000000E+00
  0.00000000E+00  0.00000000E+00  0.00000000E+00
  0.00000000E+00  0.00000000E+00  0.00000000E+00
  0.00000000E+00  0.00000000E+00  0.00000000E+00
  0.00000000E+00  0.00000000E+00  0.00000000E+00
  0.00000000E+00  0.00000000E+00  0.00000000E+00
  0.00000000E+00  0.00000000E+00  0.00000000E+00
  0.00000000E+00  0.00000000E+00  0.00000000E+00
  0.00000000E+00  0.00000000E+00  0.00000000E+00
  0.00000000E+00  0.00000000E+00  0.00000000E+00
  0.00000000E+00  0.00000000E+00  0.00000000E+00
  0.00000000E+00  0.00000000E+00  0.00000000E+00
  0.00000000E+00  0.00000000E+00  0.00000000E+00
  0.00000000E+00  0.00000000E+00  0.00000000E+00
  0.00000000E+00  0.00000000E+00  0.00000000E+00
  0.00000000E+00  0.00000000E+00  0.00000000E+00
  0.00000000E+00  0.00000000E+00  0.00000000E+00
  0.00000000E+00  0.00000000E+00  0.00000000E+00
  0.00000000E+00  0.00000000E+00  0.00000000E+00
  0.00000000E+00  0.00000000E+00  0.00000000E+00
  0.00000000E+00  0.00000000E+00  0.00000000E+00
  0.00000000E+00  0.00000000E+00  0.00000000E+00
  0.00000000E+00  0.00000000E+00  0.00000000E+00
  0.00000000E+00  0.00000000E+00  0.00000000E+00
  0.00000000E+00  0.00000000E+00  0.00000000E+00
  0.00000000E+00  0.00000000E+00  0.00000000E+00
  0.00000000E+00  0.00000000E+00  0.00000000E+00
  0.00000000E+00  0.00000000E+00  0.00000000E+00
  0.00000000E+00  0.00000000E+00  0.00000000E+00
  0.00000000E+00  0.00000000E+00  0.00000000E+00
  0.00000000E+00  0.00000000E+00  0.00000000E+00
  0.00000000E+00  0.00000000E+00  0.00000000E+00
  0.00000000E+00  0.00000000E+00  0.00000000E+00
  0.00000000E+00  0.00000000E+00  0.00000000E+00
  0.00000000E+00  0.00000000E+00  0.00000000E+00
  0.00000000E+00  0.00000000E+00  0.00000000E+00
  0.00000000E+00  0.00000000E+00  0.00000000E+00
  0.00000000E+00  0.00000000E+00  0.00000000E+00
  0.00000000E+00  0.00000000E+00  0.00000000E+00
  0.00000000E+00  0.00000000E+00  0.00000000E+00
  0.00000000E+00  0.00000000E+00  0.00000000E+00
  0.00000000E+00  0.00000000E+00  0.00000000E+00
  0.00000000E+00  0.00000000E+00  0.00000000E+00
  0.00000000E+00  0.00000000E+00  0.00000000E+00
  0.00000000E+00  0.00000000E+00  0.00000000E+00
  0.00000000E+00  0.00000000E+00  0.00000000E+00
  0.00000000E+00  0.00000000E+00  0.00000000E+00
  0.00000000E+00  0.00000000E+00  0.00000000E+00
  0.00000000E+00  0.00000000E+00  0.00000000E+00
  0.00000000E+00  0.00000000E+00  0.00000000E+00
  0.00000000E+00  0.00000000E+00  0.00000000E+00
  0.00000000E+00  0.00000000E+00  0.00000000E+00
  0.00000000E+00  0.00000000E+00  0.00000000E+00
  0.00000000E+00  0.00000000E+00  0.00000000E+00
  0.00000000E+00  0.00000000E+00  0.00000000E+00
  0.00000000E+00  0.00000000E+00  0.00000000E+00
  0.00000000E+00  0.00000000E+00  0.00000000E+00
  0.00000000E+00  0.00000000E+00  0.00000000E+00
  0.00000000E+00  0.00000000E+00  0.00000000E+00
  0.00000000E+00  0.00000000E+00  0.00000000E+00
  0.00000000E+00  0.00000000E+00  0.00000000E+00
  0.00000000E+00  0.00000000E+00  0.00000000E+00
  0.00000000E+00  0.00000000E+00  0.00000000E+00
  0.00000000E+00  0.00000000E+00  0.00000000E+00
  0.00000000E+00  0.00000000E+00  0.00000000E+00
  0.00000000E+00  0.00000000E+00  0.00000000E+00
  0.00000000E+00  0.00000000E+00  0.00000000E+00
  0.00000000E+00  0.00000000E+00  0.00000000E+00
  0.00000000E+00  0.00000000E+00  0.00000000E+00
  0.00000000E+00  0.00000000E+00  0.00000000E+00
  0.00000000E+00  0.00000000E+00  0.00000000E+00
  0.00000000E+00  0.00000000E+00  0.00000000E+00
  0.00000000E+00  0.00000000E+00  0.00000000E+00
  0.00000000E+00  0.00000000E+00  0.00000000E+00
  0.00000000E+00  0.00000000E+00  0.00000000E+00
  0.00000000E+00  0.00000000E+00  0.00000000E+00
  0.00000000E+00  0.00000000E+00  0.00000000E+00
  0.00000000E+00  0.00000000E+00  0.00000000E+00
  0.00000000E+00  0.00000000E+00  0.00000000E+00
  0.00000000E+00  0.00000000E+00  0.00000000E+00
  0.00000000E+00  0.00000000E+00  0.00000000E+00
  0.00000000E+00  0.00000000E+00  0.00000000E+00
  0.00000000E+00  0.00000000E+00  0.00000000E+00
  0.00000000E+00  0.00000000E+00  0.00000000E+00
  0.00000000E+00  0.00000000E+00  0.00000000E+00
  0.00000000E+00  0.00000000E+00  0.00000000E+00
  0.00000000E+00  0.00000000E+00  0.00000000E+00
  0.00000000E+00  0.00000000E+00  0.00000000E+00
  0.00000000E+00  0.00000000E+00  0.00000000E+00
  0.00000000E+00  0.00000000E+00  0.00000000E+00
  0.00000000E+00  0.00000000E+00  0.00000000E+00
  0.00000000E+00  0.00000000E+00  0.00000000E+00
  0.00000000E+00  0.00000000E+00  0.00000000E+00
  0.00000000E+00  0.00000000E+00  0.00000000E+00
  0.00000000E+00  0.00000000E+00  0.00000000E+00
  0.00000000E+00  0.00000000E+00  0.00000000E+00
  0.00000000E+00  0.00000000E+00  0.00000000E+00
  0.00000000E+00  0.00000000E+00  0.00000000E+00
  0.00000000E+00  0.00000000E+00  0.00000000E+00
  0.00000000E+00  0.00000000E+00  0.00000000E+00
  0.00000000E+00  0.00000000E+00  0.00000000E+00
  0.00000000E+00  0.00000000E+00  0.00000000E+00
  0.00000000E+00  0.00000000E+00  0.00000000E+00
  0.00000000E+00  0.00000000E+00  0.00000000E+00
  0.00000000E+00  0.00000000E+00  0.00000000E+00
  0.00000000E+00  0.00000000E+00  0.00000000E+00
  0.00000000E+00  0.00000000E+00  0.00000000E+00
  0.00000000E+00  0.00000000E+00  0.00000000E+00
  0.00000000E+00  0.00000000E+00  0.00000000E+00
  0.00000000E+00  0.00000000E+00  0.00000000E+00
  0.00000000E+00  0.00000000E+00  0.00000000E+00
  0.00000000E+00  0.00000000E+00  0.00000000E+00
  0.00000000E+00  0.00000000E+00  0.00000000E+00
  0.00000000E+00  0.00000000E+00  0.00000000E+00
  0.00000000E+00  0.00000000E+00  0.00000000E+00
  0.00000000E+00  0.00000000E+00  0.00000000E+00
  0.00000000E+00  0.00000000E+00  0.00000000E+00
  0.00000000E+00  0.00000000E+00  0.00000000E+00
  0.00000000E+00  0.00000000E+00  0.00000000E+00
  0.00000000E+00  0.00000000E+00  0.00000000E+00
  0.00000000E+00  0.00000000E+00  0.00000000E+00
  0.00000000E+00  0.00000000E+00  0.00000000E+00
  0.00000000E+00  0.00000000E+00  0.00000000E+00
  0.00000000E+00  0.00000000E+00  0.00000000E+00
  0.00000000E+00  0.00000000E+00  0.00000000E+00
  0.00000000E+00  0.00000000E+00  0.00000000E+00
  0.00000000E+00  0.00000000E+00  0.00000000E+00
  0.00000000E+00  0.00000000E+00  0.00000000E+00
  0.00000000E+00  0.00000000E+00  0.00000000E+00
  0.00000000E+00  0.00000000E+00  0.00000000E+00
  0.00000000E+00  0.00000000E+00  0.00000000E+00
  0.00000000E+00  0.00000000E+00  0.00000000E+00
  0.00000000E+00  0.00000000E+00  0.00000000E+00
  0.00000000E+00  0.00000000E+00  0.00000000E+00
  0.00000000E+00  0.00000000E+00  0.00000000E+00
  0.00000000E+00  0.00000000E+00  0.00000000E+00
  0.00000000E+00  0.00000000E+00  0.00000000E+00
  0.00000000E+00  0.00000000E+00  0.00000000E+00
  0.00000000E+00  0.00000000E+00  0.00000000E+00
  0.00000000E+00  0.00000000E+00  0.00000000E+00
  0.00000000E+00  0.00000000E+00  0.00000000E+00
  0.00000000E+00  0.00000000E+00  0.00000000E+00
  0.00000000E+00  0.00000000E+00  0.00000000E+00
  0.00000000E+00  0.00000000E+00  0.00000000E+00
  0.00000000E+00  0.00000000E+00  0.00000000E+00
  0.00000000E+00  0.00000000E+00  0.00000000E+00
  0.00000000E+00  0.00000000E+00  0.00000000E+00
  0.00000000E+00  0.00000000E+00  0.00000000E+00
  0.00000000E+00  0.00000000E+00  0.00000000E+00
  0.00000000E+00  0.00000000E+00  0.00000000E+00
  0.00000000E+00  0.00000000E+00  0.00000000E+00
  0.00000000E+00  0.00000000E+00  0.00000000E+00
  0.00000000E+00  0.00000000E+00  0.00000000E+00
  0.00000000E+00  0.00000000E+00  0.00000000E+00
  0.00000000E+00  0.00000000E+00  0.00000000E+00
  0.00000000E+00  0.00000000E+00  0.00000000E+00
  0.00000000E+00  0.00000000E+00  0.00000000E+00
  0.00000000E+00  0.00000000E+00  0.00000000E+00
  0.00000000E+00  0.00000000E+00  0.00000000E+00
  0.00000000E+00  0.00000000E+00  0.00000000E+00
  0.00000000E+00  0.00000000E+00  0.00000000E+00
  0.00000000E+00  0.00000000E+00  0.00000000E+00
  0.00000000E+00  0.00000000E+00  0.00000000E+00
  0.00000000E+00  0.00000000E+00  0.00000000E+00
  0.00000000E+00  0.00000000E+00  0.00000000E+00
  0.00000000E+00  0.00000000E+00  0.00000000E+00
  0.00000000E+00  0.00000000E+00  0.00000000E+00
  0.00000000E+00  0.00000000E+00  0.00000000E+00
  0.00000000E+00  0.00000000E+00  0.00000000E+00
  0.00000000E+00  0.00000000E+00  0.00000000E+00
  0.00000000E+00  0.00000000E+00  0.00000000E+00
  0.00000000E+00  0.00000000E+00  0.00000000E+00
  0.00000000E+00  0.00000000E+00  0.00000000E+00
  0.00000000E+00  0.00000000E+00  0.00000000E+00
  0.00000000E+00  0.00000000E+00  0.00000000E+00
  0.00000000E+00  0.00000000E+00  0.00000000E+00
  0.00000000E+00  0.00000000E+00  0.00000000E+00
  0.00000000E+00  0.00000000E+00  0.00000000E+00
  0.00000000E+00  0.00000000E+00  0.00000000E+00
  0.00000000E+00  0.00000000E+00  0.00000000E+00
  0.00000000E+00  0.00000000E+00  0.00000000E+00
  0.00000000E+00  0.00000000E+00  0.00000000E+00
  0.00000000E+00  0.00000000E+00  0.00000000E+00
  0.00000000E+00  0.00000000E+00  0.00000000E+00
  0.00000000E+00  0.00000000E+00  0.00000000E+00
  0.00000000E+00  0.00000000E+00  0.00000000E+00
  0.00000000E+00  0.00000000E+00  0.00000000E+00
  0.00000000E+00  0.00000000E+00  0.00000000E+00
  0.00000000E+00  0.00000000E+00  0.00000000E+00
  0.00000000E+00  0.00000000E+00  0.00000000E+00
  0.00000000E+00  0.00000000E+00  0.00000000E+00
  0.00000000E+00  0.00000000E+00  0.00000000E+00
  0.00000000E+00  0.00000000E+00  0.00000000E+00
  0.00000000E+00  0.00000000E+00  0.00000000E+00
  0.00000000E+00  0.00000000E+00  0.00000000E+00
  0.00000000E+00  0.00000000E+00  0.00000000E+00
  0.00000000E+00  0.00000000E+00  0.00000000E+00
  0.00000000E+00  0.00000000E+00  0.00000000E+00
  0.00000000E+00  0.00000000E+00  0.00000000E+00
  0.00000000E+00  0.00000000E+00  0.00000000E+00
  0.00000000E+00  0.00000000E+00  0.00000000E+00
  0.00000000E+00  0.00000000E+00  0.00000000E+00
  0.00000000E+00  0.00000000E+00  0.00000000E+00
  0.00000000E+00  0.00000000E+00  0.00000000E+00
  0.00000000E+00  0.00000000E+00  0.00000000E+00