Amorphous GeAsSeSi                      
   1.00000000000000     
    20.4271757306331949    0.0000000000000000    0.0000000000000000
     0.0000000000000000   20.4271757306331949    0.0000000000000000
     0.0000000000000000    0.0000000000000000   20.4271757306331949
   Ge   As   Se
   100   100   100
Direct
  0.9186116953815724  0.8389955780019553  0.1675290133399549
  0.3210275555769320  0.2946554267761219  0.6896529942951688
  0.5953785615465279  0.5481191396550152  0.7685413444559416
  0.3722116683347523  0.7402876970365337  0.3292854930105253
  0.6014844925751199  0.6089843646487195  0.9334976000134234
  0.2429746088544339  0.3824966071871214  0.6500630667298015
  0.5475175771394731  0.5523619402049663  0.5627587124008818
  0.5483634630112737  0.2461978664706130  0.5372955153283294
  0.3621356681806631  0.9900375824988351  0.5115900158673201
  0.5556050508153869  0.3410828222355762  0.8161476643451584
  0.2088728325060684  0.6027613639421806  0.6944435476144269
  0.6247060361582001  0.6526491008955861  0.5868800596596258
  0.0141992522788580  0.6722086212963113  0.5047635464871746
  0.6997869695187608  0.3604250440579250  0.1381713056411897
  0.1681843595540179  0.7589965020951024  0.5261350417083486
  0.5412651422238103  0.4595256726137215  0.0081084665638991
  0.1478875862478927  0.4492564543172158  0.7978853489884133
  0.5975801992116107  0.8721321110004417  0.4863025525158808
  0.7373416726246358  0.7986672928069477  0.4315686258789919
  0.2160123661931626  0.2227856187663164  0.5538338110606739
  0.1995271982082023  0.9080121003245059  0.5363861257020509
  0.5946224244975923  0.0420202651927560  0.3035749341566430
  0.1799963080424110  0.0526977894636703  0.0293416656603995
  0.6109530758254911  0.0405189472681650  0.6586165902096818
  0.1937044941039931  0.7744533901823419  0.0765216718445470
  0.4866914944292662  0.3886692117750288  0.4400569377027600
  0.9954672425203943  0.4700101913507644  0.4112684784357603
  0.2935042969024288  0.9690634544021237  0.7549994445627346
  0.7264428727877568  0.8030996407686991  0.5898763609342530
  0.6839367188190226  0.1855720636804255  0.3856732369249511
  0.1818534894197763  0.4701778535468278  0.0965901154021259
  0.2430914685751941  0.0672251929282559  0.1470915118210999
  0.9828461104127284  0.1873487268448419  0.9678900271069374
  0.6955916377749223  0.9868962208986426  0.1699730659483958
  0.0946607796350295  0.4416675625724454  0.0068040657185049
  0.0196290968467598  0.8470520649376128  0.5256181656352219
  0.3128339209995501  0.7013226475291456  0.1784177476639266
  0.8867901831884843  0.3946153971049149  0.5728775928123379
  0.4037605076414405  0.8174799261837546  0.9586223940227460
  0.1037792200364679  0.3696667204132195  0.5129946969126340
  0.0869560275543715  0.6437641801866471  0.9332848117403566
  0.7509305916631143  0.4521167698018307  0.8278644896400414
  0.3176342954614089  0.0500230970026830  0.3151252295082982
  0.4599897296258105  0.8015634921616942  0.4012343686446043
  0.0414181865834491  0.7160429556502502  0.3790590052099570
  0.3955118971574530  0.2457485672472214  0.4146079303949579
  0.8049300871243137  0.1231210460251614  0.1587407660761115
  0.1410952763112439  0.1972054232090924  0.3046564013228992
  0.2755581054660390  0.8362391435476013  0.6102934755413253
  0.9618309241353162  0.4748574044048357  0.8332381919968194
  0.4200801502925681  0.3385098526251267  0.9279408241781723
  0.1030861478010096  0.0214352651480893  0.3852059610975552
  0.7966927222826155  0.1962323090852719  0.9858273287470047
  0.3208340497011793  0.2481657936574273  0.0625121279840857
  0.7544712882757363  0.6945823305266629  0.9488678415620679
  0.4985427339595310  0.3881894588274211  0.6675426863038655
  0.8800150175057688  0.0006378533505317  0.9303575853845069
  0.6564740774731141  0.9806506536659957  0.0488624345541732
  0.7695663971429831  0.9827568705732176  0.7959146534861886
  0.4134760597649885  0.5361878937777933  0.1272987011880684
  0.5863930532963426  0.9128796312902576  0.3229584334359550
  0.3555462241494859  0.3705860955289559  0.0330520438137076
  0.2061530577202029  0.0468187938894960  0.4720789804589866
  0.4849789000524501  0.5989177155400384  0.8844258787389062
  0.7152622121396963  0.4977491207646046  0.0380146277804457
  0.2040839895316066  0.2773136180095594  0.3908603550350862
  0.0773379207809283  0.0412996070171453  0.5585398951312147
  0.5506311099774398  0.7884648052512145  0.0015276528432234
  0.2088608236261268  0.2706724510452756  0.1131844674927903
  0.0728791933737008  0.1601343740152011  0.7791107061026463
  0.7302058708611453  0.6343619120282868  0.7282908194986716
  0.5717202128392809  0.4006359330569813  0.2661694417939872
  0.5986328874640441  0.6543268684902791  0.0547840993874617
  0.1949295259087401  0.0649582384770316  0.2904387462365268
  0.0924680486020549  0.5658729128074643  0.6619781094070806
  0.5042172145095947  0.2743819482323232  0.0741163159028267
  0.8603228484192698  0.7975945809722632  0.7318968863023004
  0.3512201740534615  0.2161210025413876  0.8366862258592247
  0.7770069850536638  0.6986797560889182  0.5454374451116702
  0.9407101873147592  0.0877981476072554  0.4109309275144404
  0.6251282614602183  0.4643810203379613  0.1678152832355147
  0.8234400830442039  0.3154036720107307  0.0401214472079708
  0.9609173375543500  0.2964414384333308  0.2966452907126639
  0.4673921319029047  0.0938083253612951  0.0471824891743536
  0.0691068911285753  0.3735008682565065  0.1964844811046153
  0.5745482924391316  0.4448943480891671  0.5061843870433610
  0.3023223916385754  0.7195931627652311  0.6369749731078337
  0.2881405336862437  0.4954832857747590  0.2087579329881878
  0.9371903566716264  0.3606469128589029  0.4007163342796185
  0.0860469297665567  0.3159949476282835  0.8412229011155885
  0.1277272268147594  0.8290295500241073  0.8685077593992091
  0.9251313867181954  0.8843526771648693  0.8738246789242924
  0.8744371366464599  0.1335095830610191  0.6506430498512100
  0.0815855128861174  0.0212915471859764  0.8776641048607441
  0.8315285064273695  0.3799052882280720  0.7507389561813409
  0.2874353784331077  0.2388517500502745  0.2782375440376545
  0.4809921674025429  0.5639397772784116  0.3349056891381572
  0.2783803620736073  0.4499092392393712  0.3295810604651068
  0.3931147476956168  0.5728154202798700  0.4294351775607519
  0.5000290421941594  0.0622329723649980  0.2192422556553232
  0.2744567756377699  0.1839584915023948  0.6532385970785284
  0.0012577006099906  0.8473982422914109  0.2612788010104048
  0.8954098911828815  0.6181264440544326  0.9483183021181095
  0.2404263802779370  0.6628291438804511  0.0892837841697834
  0.3500021332297857  0.3192902929693672  0.2033263029360649
  0.9051016971768268  0.6750022894563252  0.1356718860172501
  0.4724953944416362  0.7166998358921381  0.9254910608990308
  0.9118983416649538  0.6388864121894662  0.7707161422107076
  0.0351495587486053  0.6253107250496690  0.7570279087609584
  0.9473091673091428  0.8016309812574229  0.3609831034801657
  0.4134639330646147  0.4496004758830468  0.5806428809986489
  0.0891041227262708  0.9187491279876989  0.9470501080035471
  0.0551489504430612  0.3668187317246059  0.6278305934991476
  0.2882834174208977  0.5503641866567397  0.9575537477299648
  0.6745727361608164  0.4344318539700287  0.3290740812802974
  0.1349323096191409  0.0168332952993353  0.7661383428778684
  0.7794770231117889  0.0618531809214013  0.7033482647568026
  0.5819422132784396  0.2735353578425682  0.2630277871991881
  0.9793872544194250  0.0605745186032962  0.6429755822891199
  0.1021036740957262  0.2419813785233780  0.0582692609640943
  0.7323583073685896  0.8210207159927118  0.9591813666154213
  0.6167650244972612  0.8587271037427855  0.6065448620217621
  0.4550591697219522  0.1089410151938094  0.6659958582011183
  0.4259752450005812  0.5702365763823509  0.5500813052756699
  0.9106383694725423  0.8384003850588559  0.6230939535445564
  0.5266190534803621  0.1882749284925072  0.9207421597255635
  0.4325006161765413  0.7176796747076902  0.1457038797414465
  0.8333498751135139  0.1517166880121956  0.5107113212694665
  0.0187467564858708  0.9795961090327510  0.7343938949230933
  0.2895691477344658  0.3173847088210502  0.8089852897757239
  0.8684356933890790  0.5514711281877924  0.8458596262248980
  0.8142399766195260  0.3961570429636709  0.2621926008031537
  0.4331248402441872  0.2885273221855811  0.5826105019522789
  0.8554716091013623  0.7811696394436669  0.8737185697364909
  0.5205758056444861  0.7819599863638687  0.8385909798143615
  0.3055296270038522  0.4844820896854271  0.0622037295181802
  0.3804106728419693  0.3617003185142110  0.4981685546793438
  0.5448989081970009  0.2156395846718368  0.8011592310047276
  0.4056250312373542  0.1413285481442843  0.1912419422529966
  0.3768632207682391  0.1584318757850041  0.3096441718515834
  0.6024676865380528  0.7522472367611442  0.4586383107108974
  0.2458164377991903  0.7097409423109031  0.7441543378522046
  0.8517958445811864  0.7348168654257476  0.3168115039771177
  0.8436217441673479  0.2566249575550672  0.1884954572135353
  0.3681118528536349  0.1323100085670260  0.4779129657409552
  0.9717896412341810  0.4556623725020532  0.6393016336603689
  0.2246860521612421  0.7337438385105058  0.2616254966643569
  0.8223083006316364  0.3276991426095310  0.3645412366121257
  0.6597637368558440  0.4964797661627157  0.4330630007103136
  0.4100387097664251  0.2157300106841986  0.9439330622331116
  0.6930195867000264  0.9489875978126642  0.6466002769958392
  0.8440487286050539  0.5076172325106192  0.3057996960092297
  0.0115618337057069  0.9677913445445055  0.2955117824428927
  0.4270437582869049  0.6382044410340076  0.0549548599028750
  0.3415945288425117  0.6978775726131492  0.8205690614466021
  0.8220735754650791  0.8684786895303742  0.5447631091432142
  0.3784564234429456  0.1785796570453146  0.5890532760623596
  0.9147643082624065  0.3589591228584780  0.2001218860859272
  0.2731345385157217  0.6122139954593412  0.5848291447943424
  0.7293451721186164  0.1935014213100107  0.5611599311020955
  0.1962724649137882  0.6390293053885299  0.4932299657674266
  0.6639322397795265  0.5360303339233954  0.2615770369788316
  0.7308085635718907  0.2400233430560523  0.8045872785872549
  0.1356445093211739  0.9386754397334532  0.0587139531039112
  0.4562396843426185  0.8105677092812775  0.5785945306360446
  0.8489625995710883  0.9138407759934826  0.0936197418851517
  0.0649160597224408  0.5391097895368883  0.8349054691259320
  0.5305540185709426  0.0813392614743383  0.5737452865762236
  0.8419087587226621  0.3913815946943523  0.9394271654184723
  0.3205002419787924  0.6627427687712029  0.9990524838332300
  0.9389703284953068  0.9773488863187570  0.0415911033605498
  0.1346624401566435  0.4466250420003691  0.6737776717898097
  0.8642205931746957  0.2246275910514260  0.3114250321169306
  0.2103698854551212  0.1794050357682164  0.1997106156256872
  0.4102106744160331  0.7825234859454625  0.7576014804435016
  0.4037230793256560  0.3663420053467359  0.8085094737724220
  0.1194514265075615  0.4672757451372354  0.4394423938976024
  0.0840612542090387  0.2698097650034924  0.4464926499733728
  0.1549638497418387  0.2712012702614907  0.9504342634798246
  0.4370067222479191  0.2561567346692436  0.7608123866904639
  0.4239576063814192  0.7174273747569054  0.6541149172011523
  0.3332162639690440  0.0567136083904871  0.8999563316106435
  0.9385895756540927  0.5204746074270979  0.2280515791170244
  0.2531991876891277  0.1625891744345550  0.4534692887781435
  0.1585250664538823  0.9872612516125177  0.2019634813539151
  0.4685621304888751  0.4357203474397877  0.3286875141058175
  0.5091888404600022  0.8736413040100180  0.9159492628449150
  0.9815509315033798  0.8781590317511241  0.9898969439052440
  0.4850207146848569  0.7250942300851477  0.4954147398543994
  0.3943041094312026  0.9422869189496187  0.1327993066580517
  0.9473596853784232  0.7009802417215542  0.8715283396805734
  0.2457237116878854  0.8825900122581489  0.0423511776108016
  0.7759956226597264  0.1085464836618741  0.4089784429336824
  0.8833640601698268  0.7617714008066342  0.5327650856920066
  0.4562167968725798  0.9959909648953450  0.6235845037955881
  0.9028014353157637  0.5492369750429520  0.4510896490781394
  0.7361551595829059  0.0778471325020204  0.5192140942585849
  0.3686475433649857  0.3574877494853403  0.3184327338891255
  0.9553956655732233  0.3922485336705671  0.7434224806646581
  0.2888930708956597  0.9764331262861493  0.4087416040692505
  0.2549093712330314  0.2062120510226209  0.9667674132131180
  0.9135842318883568  0.1793823319171544  0.1311142826472874
  0.3003299643438946  0.1158505869755701  0.7990657764127820
  0.6485825275474824  0.4985294579773110  0.9276096417179073
  0.6566925358434361  0.8908747849409296  0.2252852504591855
  0.9997834658515167  0.5937682472416367  0.0059630354561912
  0.0295618558072435  0.5047042077195287  0.3027043052087263
  0.5809380441119396  0.1272707063164269  0.3886032734463603
  0.1646930774471784  0.3963767490555422  0.3476095972834312
  0.5343433863058086  0.0098084246844730  0.1129305931687429
  0.5398690135998061  0.3441151189745699  0.9429209701173517
  0.3549469411762040  0.8502118508910924  0.5199077393410574
  0.2256361836541717  0.3462951429109030  0.5310730709531102
  0.7184572167319399  0.6335922247754410  0.0539533743465613
  0.5723751316158474  0.5768884948724539  0.4200494762537187
  0.3589117997401151  0.5987289467428171  0.2278038557020381
  0.6772209493672349  0.3498109788943674  0.7943142420404266
  0.8007593514302431  0.3480872711709363  0.6370732983729607
  0.2582353601300343  0.0129739124685646  0.5816862438299477
  0.5179011726504577  0.5107916785920230  0.6786910793933735
  0.8431719543435333  0.2750832829627484  0.8118455335233812
  0.6731354687466354  0.9276026400284548  0.4146730613823026
  0.6701015176513156  0.9278490282158059  0.7621341627987330
  0.5205754160978969  0.2748502308298204  0.4162772414992211
  0.3562731165395013  0.8792487073331204  0.6982549249228496
  0.5237811943685867  0.9999550801330057  0.7290962174390422
  0.4923838840227443  0.9121392830950141  0.4484886093806757
  0.1403542467507247  0.2599940713296927  0.7502024545301942
  0.2274277902500063  0.0058332597361350  0.9292746271984395
  0.7062889181834836  0.3506602827306493  0.0181149713079145
  0.0391325829648689  0.3395984298792061  0.0768985366616678
  0.7041804842293974  0.1916360304257001  0.9084986635531453
  0.6971401575082524  0.2592377816467855  0.2920604580437735
  0.8679738696273911  0.9226210814727929  0.7606991815360068
  0.0939041735824556  0.9206837116283031  0.6006521368187272
  0.2804632882774900  0.8189871402849238  0.3231475099444598
  0.4396526024088042  0.5099517994540910  0.9497781368874808
  0.3675349394828554  0.9545151832238385  0.8512846656684446
  0.8197076264303910  0.9952120088874240  0.1808318286424818
  0.8819986684502317  0.1296083299077779  0.9216942591328401
  0.3022632800158555  0.4918317574267360  0.4391988607665158
  0.8463553979403003  0.8012763244638310  0.9976767844401404
  0.1101788806566728  0.7567972751431502  0.9946731129431728
  0.9748742998169070  0.0467803668861943  0.8237581626454969
  0.5945589576477442  0.3560891318317202  0.5868309548700432
  0.0881128859333438  0.1100840785022089  0.9585519347630653
  0.2851323464487683  0.8952129756931424  0.1547771809474759
  0.9631101495227851  0.6376840980945654  0.2324171022249319
  0.3637549108623635  0.0201324332405165  0.0504115168843166
  0.0076521137209681  0.9953997888817886  0.4666486354230843
  0.0615688321271835  0.7440137195913176  0.5913587395369051
  0.4048798293537979  0.9851037831586804  0.2548704259138299
  0.0543709922690327  0.1321422806457601  0.3729893399579310
  0.0985851860028956  0.2088509474853606  0.5478690782901412
  0.1693753034703827  0.5590540043647143  0.9832758906545080
  0.7451250504975947  0.7765914657437993  0.7053871795137934
  0.9974266355058214  0.2287725901811529  0.8495217078651007
  0.6763744532273362  0.8534421909006950  0.0602229296583712
  0.9937766239209784  0.1733139542506081  0.6789923123589229
  0.8322840640010390  0.7563423577477236  0.1956674005053515
  0.3245263634736359  0.4713550695948295  0.6556108861197940
  0.0963381401051849  0.5819749803767578  0.5366027217506578
  0.0208466914349270  0.8504004515747642  0.8068729299020786
  0.1956145831036358  0.3693088209827628  0.1795776101160598
  0.1490545033001228  0.7900225186032492  0.1883250602800637
  0.4518455801645290  0.2519547403809373  0.1927558643165207
  0.7790299411641062  0.8289456005288846  0.3255049350559734
  0.7415888383426071  0.1154089956600381  0.0542421870039659
  0.6640681298147710  0.6778916917722428  0.8620749377598919
  0.2435630198497500  0.5252916096421408  0.7780570518127885
  0.8303257637005949  0.4651268053450423  0.4919201954059395
  0.5643384106649560  0.7676574431411654  0.3467816812123027
  0.7585636750393102  0.9987096784616334  0.9122635871185378
  0.6785596461361318  0.1232086807870171  0.7142706269778938
  0.6797788882536299  0.0869443028058639  0.2343029408954037
  0.4139300665475758  0.6087349683470973  0.7854217780814683
  0.0545920866656388  0.2518839899238781  0.2332380348008963
  0.9266688711039492  0.6035658769028472  0.5550553528807576
  0.6861198795176683  0.2630583546399440  0.4755061639623907
  0.7017707875714611  0.5044218492114702  0.7248906575159602
  0.0438856930226954  0.0245809880286479  0.1962563073526997
  0.7762784977686712  0.5644955375729047  0.2263682146875322
  0.3335423913290267  0.6780809304522294  0.4306097795181624
  0.1069494282990934  0.8084080656907998  0.4293587221988869
  0.9804746883617194  0.7601132280242743  0.1004383492104511
  0.9068570482357977  0.0141089139311044  0.3199097038443180
  0.9425371772853622  0.3082831485174726  0.5090055634527045
  0.4586046989011683  0.3888974971611082  0.0984083678697853
  0.1837382263631934  0.9074979360811248  0.7711319745902375
  0.5536276493046325  0.5507018286248566  0.1171466719782362
  0.9619617383811611  0.3973173809776227  0.9247210750162829
  0.6125960567173601  0.2697463531363639  0.1453732102375907
  0.8351451480558018  0.4870278372045047  0.0118473787340949
  0.7744563942718599  0.6766299215487031  0.4299451899696091
  0.6072581555683276  0.6594542275124642  0.7089337061826465
  0.5033689061547988  0.0702969437391737  0.9312731274758302
  0.1965487200511190  0.3797720437032283  0.9689250658718755
  0.4511481727580479  0.8182262276182448  0.0795068411208611
  0.7396272908525131  0.5999794920069044  0.6008193963826910
  0.1784552277553619  0.5422622944271684  0.1925018431873570
 
  0.00000000E+00  0.00000000E+00  0.00000000E+00
  0.00000000E+00  0.00000000E+00  0.00000000E+00
  0.00000000E+00  0.00000000E+00  0.00000000E+00
  0.00000000E+00  0.00000000E+00  0.00000000E+00
  0.00000000E+00  0.00000000E+00  0.00000000E+00
  0.00000000E+00  0.00000000E+00  0.00000000E+00
  0.00000000E+00  0.00000000E+00  0.00000000E+00
  0.00000000E+00  0.00000000E+00  0.00000000E+00
  0.00000000E+00  0.00000000E+00  0.00000000E+00
  0.00000000E+00  0.00000000E+00  0.00000000E+00
  0.00000000E+00  0.00000000E+00  0.00000000E+00
  0.00000000E+00  0.00000000E+00  0.00000000E+00
  0.00000000E+00  0.00000000E+00  0.00000000E+00
  0.00000000E+00  0.00000000E+00  0.00000000E+00
  0.00000000E+00  0.00000000E+00  0.00000000E+00
  0.00000000E+00  0.00000000E+00  0.00000000E+00
  0.00000000E+00  0.00000000E+00  0.00000000E+00
  0.00000000E+00  0.00000000E+00  0.00000000E+00
  0.00000000E+00  0.00000000E+00  0.00000000E+00
  0.00000000E+00  0.00000000E+00  0.00000000E+00
  0.00000000E+00  0.00000000E+00  0.00000000E+00
  0.00000000E+00  0.00000000E+00  0.00000000E+00
  0.00000000E+00  0.00000000E+00  0.00000000E+00
  0.00000000E+00  0.00000000E+00  0.00000000E+00
  0.00000000E+00  0.00000000E+00  0.00000000E+00
  0.00000000E+00  0.00000000E+00  0.00000000E+00
  0.00000000E+00  0.00000000E+00  0.00000000E+00
  0.00000000E+00  0.00000000E+00  0.00000000E+00
  0.00000000E+00  0.00000000E+00  0.00000000E+00
  0.00000000E+00  0.00000000E+00  0.00000000E+00
  0.00000000E+00  0.00000000E+00  0.00000000E+00
  0.00000000E+00  0.00000000E+00  0.00000000E+00
  0.00000000E+00  0.00000000E+00  0.00000000E+00
  0.00000000E+00  0.00000000E+00  0.00000000E+00
  0.00000000E+00  0.00000000E+00  0.00000000E+00
  0.00000000E+00  0.00000000E+00  0.00000000E+00
  0.00000000E+00  0.00000000E+00  0.00000000E+00
  0.00000000E+00  0.00000000E+00  0.00000000E+00
  0.00000000E+00  0.00000000E+00  0.00000000E+00
  0.00000000E+00  0.00000000E+00  0.00000000E+00
  0.00000000E+00  0.00000000E+00  0.00000000E+00
  0.00000000E+00  0.00000000E+00  0.00000000E+00
  0.00000000E+00  0.00000000E+00  0.00000000E+00
  0.00000000E+00  0.00000000E+00  0.00000000E+00
  0.00000000E+00  0.00000000E+00  0.00000000E+00
  0.00000000E+00  0.00000000E+00  0.00000000E+00
  0.00000000E+00  0.00000000E+00  0.00000000E+00
  0.00000000E+00  0.00000000E+00  0.00000000E+00
  0.00000000E+00  0.00000000E+00  0.00000000E+00
  0.00000000E+00  0.00000000E+00  0.00000000E+00
  0.00000000E+00  0.00000000E+00  0.00000000E+00
  0.00000000E+00  0.00000000E+00  0.00000000E+00
  0.00000000E+00  0.00000000E+00  0.00000000E+00
  0.00000000E+00  0.00000000E+00  0.00000000E+00
  0.00000000E+00  0.00000000E+00  0.00000000E+00
  0.00000000E+00  0.00000000E+00  0.00000000E+00
  0.00000000E+00  0.00000000E+00  0.00000000E+00
  0.00000000E+00  0.00000000E+00  0.00000000E+00
  0.00000000E+00  0.00000000E+00  0.00000000E+00
  0.00000000E+00  0.00000000E+00  0.00000000E+00
  0.00000000E+00  0.00000000E+00  0.00000000E+00
  0.00000000E+00  0.00000000E+00  0.00000000E+00
  0.00000000E+00  0.00000000E+00  0.00000000E+00
  0.00000000E+00  0.00000000E+00  0.00000000E+00
  0.00000000E+00  0.00000000E+00  0.00000000E+00
  0.00000000E+00  0.00000000E+00  0.00000000E+00
  0.00000000E+00  0.00000000E+00  0.00000000E+00
  0.00000000E+00  0.00000000E+00  0.00000000E+00
  0.00000000E+00  0.00000000E+00  0.00000000E+00
  0.00000000E+00  0.00000000E+00  0.00000000E+00
  0.00000000E+00  0.00000000E+00  0.00000000E+00
  0.00000000E+00  0.00000000E+00  0.00000000E+00
  0.00000000E+00  0.00000000E+00  0.00000000E+00
  0.00000000E+00  0.00000000E+00  0.00000000E+00
  0.00000000E+00  0.00000000E+00  0.00000000E+00
  0.00000000E+00  0.00000000E+00  0.00000000E+00
  0.00000000E+00  0.00000000E+00  0.00000000E+00
  0.00000000E+00  0.00000000E+00  0.00000000E+00
  0.00000000E+00  0.00000000E+00  0.00000000E+00
  0.00000000E+00  0.00000000E+00  0.00000000E+00
  0.00000000E+00  0.00000000E+00  0.00000000E+00
  0.00000000E+00  0.00000000E+00  0.00000000E+00
  0.00000000E+00  0.00000000E+00  0.00000000E+00
  0.00000000E+00  0.00000000E+00  0.00000000E+00
  0.00000000E+00  0.00000000E+00  0.00000000E+00
  0.00000000E+00  0.00000000E+00  0.00000000E+00
  0.00000000E+00  0.00000000E+00  0.00000000E+00
  0.00000000E+00  0.00000000E+00  0.00000000E+00
  0.00000000E+00  0.00000000E+00  0.00000000E+00
  0.00000000E+00  0.00000000E+00  0.00000000E+00
  0.00000000E+00  0.00000000E+00  0.00000000E+00
  0.00000000E+00  0.00000000E+00  0.00000000E+00
  0.00000000E+00  0.00000000E+00  0.00000000E+00
  0.00000000E+00  0.00000000E+00  0.00000000E+00
  0.00000000E+00  0.00000000E+00  0.00000000E+00
  0.00000000E+00  0.00000000E+00  0.00000000E+00
  0.00000000E+00  0.00000000E+00  0.00000000E+00
  0.00000000E+00  0.00000000E+00  0.00000000E+00
  0.00000000E+00  0.00000000E+00  0.00000000E+00
  0.00000000E+00  0.00000000E+00  0.00000000E+00
  0.00000000E+00  0.00000000E+00  0.00000000E+00
  0.00000000E+00  0.00000000E+00  0.00000000E+00
  0.00000000E+00  0.00000000E+00  0.00000000E+00
  0.00000000E+00  0.00000000E+00  0.00000000E+00
  0.00000000E+00  0.00000000E+00  0.00000000E+00
  0.00000000E+00  0.00000000E+00  0.00000000E+00
  0.00000000E+00  0.00000000E+00  0.00000000E+00
  0.00000000E+00  0.00000000E+00  0.00000000E+00
  0.00000000E+00  0.00000000E+00  0.00000000E+00
  0.00000000E+00  0.00000000E+00  0.00000000E+00
  0.00000000E+00  0.00000000E+00  0.00000000E+00
  0.00000000E+00  0.00000000E+00  0.00000000E+00
  0.00000000E+00  0.00000000E+00  0.00000000E+00
  0.00000000E+00  0.00000000E+00  0.00000000E+00
  0.00000000E+00  0.00000000E+00  0.00000000E+00
  0.00000000E+00  0.00000000E+00  0.00000000E+00
  0.00000000E+00  0.00000000E+00  0.00000000E+00
  0.00000000E+00  0.00000000E+00  0.00000000E+00
  0.00000000E+00  0.00000000E+00  0.00000000E+00
  0.00000000E+00  0.00000000E+00  0.00000000E+00
  0.00000000E+00  0.00000000E+00  0.00000000E+00
  0.00000000E+00  0.00000000E+00  0.00000000E+00
  0.00000000E+00  0.00000000E+00  0.00000000E+00
  0.00000000E+00  0.00000000E+00  0.00000000E+00
  0.00000000E+00  0.00000000E+00  0.00000000E+00
  0.00000000E+00  0.00000000E+00  0.00000000E+00
  0.00000000E+00  0.00000000E+00  0.00000000E+00
  0.00000000E+00  0.00000000E+00  0.00000000E+00
  0.00000000E+00  0.00000000E+00  0.00000000E+00
  0.00000000E+00  0.00000000E+00  0.00000000E+00
  0.00000000E+00  0.00000000E+00  0.00000000E+00
  0.00000000E+00  0.00000000E+00  0.00000000E+00
  0.00000000E+00  0.00000000E+00  0.00000000E+00
  0.00000000E+00  0.00000000E+00  0.00000000E+00
  0.00000000E+00  0.00000000E+00  0.00000000E+00
  0.00000000E+00  0.00000000E+00  0.00000000E+00
  0.00000000E+00  0.00000000E+00  0.00000000E+00
  0.00000000E+00  0.00000000E+00  0.00000000E+00
  0.00000000E+00  0.00000000E+00  0.00000000E+00
  0.00000000E+00  0.00000000E+00  0.00000000E+00
  0.00000000E+00  0.00000000E+00  0.00000000E+00
  0.00000000E+00  0.00000000E+00  0.00000000E+00
  0.00000000E+00  0.00000000E+00  0.00000000E+00
  0.00000000E+00  0.00000000E+00  0.00000000E+00
  0.00000000E+00  0.00000000E+00  0.00000000E+00
  0.00000000E+00  0.00000000E+00  0.00000000E+00
  0.00000000E+00  0.00000000E+00  0.00000000E+00
  0.00000000E+00  0.00000000E+00  0.00000000E+00
  0.00000000E+00  0.00000000E+00  0.00000000E+00
  0.00000000E+00  0.00000000E+00  0.00000000E+00
  0.00000000E+00  0.00000000E+00  0.00000000E+00
  0.00000000E+00  0.00000000E+00  0.00000000E+00
  0.00000000E+00  0.00000000E+00  0.00000000E+00
  0.00000000E+00  0.00000000E+00  0.00000000E+00
  0.00000000E+00  0.00000000E+00  0.00000000E+00
  0.00000000E+00  0.00000000E+00  0.00000000E+00
  0.00000000E+00  0.00000000E+00  0.00000000E+00
  0.00000000E+00  0.00000000E+00  0.00000000E+00
  0.00000000E+00  0.00000000E+00  0.00000000E+00
  0.00000000E+00  0.00000000E+00  0.00000000E+00
  0.00000000E+00  0.00000000E+00  0.00000000E+00
  0.00000000E+00  0.00000000E+00  0.00000000E+00
  0.00000000E+00  0.00000000E+00  0.00000000E+00
  0.00000000E+00  0.00000000E+00  0.00000000E+00
  0.00000000E+00  0.00000000E+00  0.00000000E+00
  0.00000000E+00  0.00000000E+00  0.00000000E+00
  0.00000000E+00  0.00000000E+00  0.00000000E+00
  0.00000000E+00  0.00000000E+00  0.00000000E+00
  0.00000000E+00  0.00000000E+00  0.00000000E+00
  0.00000000E+00  0.00000000E+00  0.00000000E+00
  0.00000000E+00  0.00000000E+00  0.00000000E+00
  0.00000000E+00  0.00000000E+00  0.00000000E+00
  0.00000000E+00  0.00000000E+00  0.00000000E+00
  0.00000000E+00  0.00000000E+00  0.00000000E+00
  0.00000000E+00  0.00000000E+00  0.00000000E+00
  0.00000000E+00  0.00000000E+00  0.00000000E+00
  0.00000000E+00  0.00000000E+00  0.00000000E+00
  0.00000000E+00  0.00000000E+00  0.00000000E+00
  0.00000000E+00  0.00000000E+00  0.00000000E+00
  0.00000000E+00  0.00000000E+00  0.00000000E+00
  0.00000000E+00  0.00000000E+00  0.00000000E+00
  0.00000000E+00  0.00000000E+00  0.00000000E+00
  0.00000000E+00  0.00000000E+00  0.00000000E+00
  0.00000000E+00  0.00000000E+00  0.00000000E+00
  0.00000000E+00  0.00000000E+00  0.00000000E+00
  0.00000000E+00  0.00000000E+00  0.00000000E+00
  0.00000000E+00  0.00000000E+00  0.00000000E+00
  0.00000000E+00  0.00000000E+00  0.00000000E+00
  0.00000000E+00  0.00000000E+00  0.00000000E+00
  0.00000000E+00  0.00000000E+00  0.00000000E+00
  0.00000000E+00  0.00000000E+00  0.00000000E+00
  0.00000000E+00  0.00000000E+00  0.00000000E+00
  0.00000000E+00  0.00000000E+00  0.00000000E+00
  0.00000000E+00  0.00000000E+00  0.00000000E+00
  0.00000000E+00  0.00000000E+00  0.00000000E+00
  0.00000000E+00  0.00000000E+00  0.00000000E+00
  0.00000000E+00  0.00000000E+00  0.00000000E+00
  0.00000000E+00  0.00000000E+00  0.00000000E+00
  0.00000000E+00  0.00000000E+00  0.00000000E+00
  0.00000000E+00  0.00000000E+00  0.00000000E+00
  0.00000000E+00  0.00000000E+00  0.00000000E+00
  0.00000000E+00  0.00000000E+00  0.00000000E+00
  0.00000000E+00  0.00000000E+00  0.00000000E+00
  0.00000000E+00  0.00000000E+00  0.00000000E+00
  0.00000000E+00  0.00000000E+00  0.00000000E+00
  0.00000000E+00  0.00000000E+00  0.00000000E+00
  0.00000000E+00  0.00000000E+00  0.00000000E+00
  0.00000000E+00  0.00000000E+00  0.00000000E+00
  0.00000000E+00  0.00000000E+00  0.00000000E+00
  0.00000000E+00  0.00000000E+00  0.00000000E+00
  0.00000000E+00  0.00000000E+00  0.00000000E+00
  0.00000000E+00  0.00000000E+00  0.00000000E+00
  0.00000000E+00  0.00000000E+00  0.00000000E+00
  0.00000000E+00  0.00000000E+00  0.00000000E+00
  0.00000000E+00  0.00000000E+00  0.00000000E+00
  0.00000000E+00  0.00000000E+00  0.00000000E+00
  0.00000000E+00  0.00000000E+00  0.00000000E+00
  0.00000000E+00  0.00000000E+00  0.00000000E+00
  0.00000000E+00  0.00000000E+00  0.00000000E+00
  0.00000000E+00  0.00000000E+00  0.00000000E+00
  0.00000000E+00  0.00000000E+00  0.00000000E+00
  0.00000000E+00  0.00000000E+00  0.00000000E+00
  0.00000000E+00  0.00000000E+00  0.00000000E+00
  0.00000000E+00  0.00000000E+00  0.00000000E+00
  0.00000000E+00  0.00000000E+00  0.00000000E+00
  0.00000000E+00  0.00000000E+00  0.00000000E+00
  0.00000000E+00  0.00000000E+00  0.00000000E+00
  0.00000000E+00  0.00000000E+00  0.00000000E+00
  0.00000000E+00  0.00000000E+00  0.00000000E+00
  0.00000000E+00  0.00000000E+00  0.00000000E+00
  0.00000000E+00  0.00000000E+00  0.00000000E+00
  0.00000000E+00  0.00000000E+00  0.00000000E+00