POSCAR file written by OVITO Basic 3.10.4
1
22.7638 0.0 0.0
0.0 22.7638 0.0
0.0 0.0 22.7638
Sb Te 
150 150 
Direct
0.8163926937 0.3266783226 0.3875587556
0.5365053286 0.9058417312 0.1408345707
0.7240179583 0.8774501621 0.3133681547
0.4729438846 0.8186902011 0.8576907195
0.6311116773 0.0317420202 0.0237072896
0.7518955535 0.5289890089 0.3847885678
0.7244923958 0.361073283 0.5387017985
0.0046778657 0.2161651394 0.2378645042
0.4802405574 0.4694646764 0.9638636783
0.9220384997 0.9737390067 0.174758608
0.6517145644 0.8768659011 0.6782742776
0.9714371063 0.0342792065 0.5911403193
0.5227422487 0.986096346 0.7695903144
0.6936583523 0.6550663773 0.1653959357
0.6749400364 0.3277849041 0.9295767842
0.1961548599 0.4378899832 0.6231121342
0.106431703 0.5928228152 0.5856886812
0.0650379111 0.1353943542 0.0057631415
0.7079222274 0.4531053691 0.9056045124
0.6124504696 0.4988929792 0.4880424182
0.9827006036 0.5362549311 0.9690078106
0.380089001 0.8877384268 0.4574983087
0.5380560363 0.4655066377 0.1475588434
0.4889869003 0.4792082166 0.5184064172
0.1434848312 0.7570177211 0.2312900307
0.5985468156 0.0939491649 0.5349062986
0.2782290303 0.2137046539 0.9395839008
0.9457823386 0.3504884949 0.2476379163
0.831583479 0.6523076112 0.8706762491
0.6195362813 0.6102012845 0.6472161941
0.7231481563 0.5992540788 0.9518753459
0.5141452657 0.2326702923 0.01058984
0.0886578691 0.2827787979 0.7616610583
0.7810251364 0.811850394 0.1038969768
0.8981936232 0.155345329 0.8953030689
0.1487269261 0.3100224919 0.0926585192
0.0057574307 0.7041882287 0.3557341041
0.9664686915 0.2033909101 0.067460178
0.2476625168 0.5964997057 0.2373654662
0.1011606147 0.2730897302 0.3561615372
0.1346247112 0.6767762852 0.0209864346
0.3245134819 0.1736542229 0.823069962
0.6031989387 0.3732355758 0.8350890449
0.3905538618 0.8990370676 0.9900675634
0.6722867008 0.6212539207 0.3371691018
0.9777805112 0.6315992936 0.6937725687
0.0202612042 0.26194001 0.4622602553
0.6322099122 0.2239933579 0.8284952424
0.9162925346 0.3976774528 0.7068371713
0.3366735782 0.5063609766 0.8262943797
0.3357804936 0.4450091812 0.1897727972
0.0039266379 0.7152452578 0.0045666365
0.5596473348 0.5714819143 0.9902037445
0.2357264604 0.827287184 0.0459123696
0.4699610786 0.1440133018 0.7185926778
0.1452450821 0.3184960332 0.2279680897
0.3331842662 0.922165895 0.2606493643
0.6125383284 0.9654407436 0.8583276957
0.7818466161 0.8715811947 0.5029476625
0.4830959682 0.6638610425 0.9281095423
0.0665921331 0.8964452332 0.8525378012
0.9808248184 0.8102952934 0.4758827612
0.3184780221 0.0022872411 0.9650453791
0.8730923659 0.8114330648 0.4169123784
0.8350670802 0.0411787136 0.6394187262
0.8970778165 0.1502503976 0.6250801711
0.8693935107 0.7842934835 0.945466047
0.4760804435 0.8189098481 0.3224641756
0.904980715 0.4995914566 0.2093231359
0.3467224277 0.8563508729 0.579143201
0.0279805656 0.7388792732 0.6352234688
0.772173363 0.0271086989 0.2202237763
0.4747537757 0.1058144949 0.8749022571
0.8087709433 0.3982933429 0.9643337228
0.926897091 0.9385339882 0.0454186032
0.7585069277 0.6392517945 0.6935748864
0.2152465757 0.3462998269 0.4034734974
0.9120050255 0.1576920374 0.1813625142
0.4357440322 0.9336622181 0.8558764354
0.9254737785 0.6724272749 0.1942456883
0.2258072027 0.8898690025 0.5939781583
0.3538490937 0.033405934 0.8495637811
0.5575167591 0.7299791775 0.2266075963
0.5308164718 0.481650691 0.8292376493
0.890053506 0.2354013829 0.3141641554
0.1014180409 0.8894253156 0.6611681705
0.3882589902 0.2216760822 0.6524350065
0.984347956 0.6155387062 0.0828033984
0.2779632575 0.3711410221 0.981070823
0.9341937638 0.0186268988 0.8255344011
0.2368629139 0.9084643162 0.4153783639
0.6601270438 0.6757175867 0.0281537792
0.5524868431 0.2662156582 0.1983399081
0.9279557895 0.3221887383 0.8259121939
0.3858103656 0.2283349001 0.3134186735
0.7897407287 0.7249536545 0.202355055
0.307019039 0.7213031216 0.6798337712
0.8597817588 0.8313023309 0.6138606032
0.3284420879 0.3776416943 0.7619905288
0.017702185 0.5174707211 0.2828952108
0.7491367874 0.188092937 0.4733172845
0.3149575203 0.8765671812 0.808068073
0.569825776 0.3730559046 0.0070799691
0.2188935942 0.5434154227 0.4673121359
0.09920356 0.2059717622 0.554823887
0.6553563113 0.0269178257 0.393520414
0.3111150159 0.0402770188 0.3195525352
0.3460643654 0.3236665232 0.5486078774
0.7374779255 0.0593600365 0.5128405626
0.3147128335 0.5556321879 0.3481597976
0.4803547738 0.4043266063 0.6472205871
0.836828649 0.9854549768 0.9189546561
0.5301619238 0.100844323 0.3902116518
0.153437036 0.1425561637 0.2078242648
0.1135548546 0.5053989229 0.9490990081
0.2231868142 0.2962185575 0.5971718254
0.0113587802 0.0192993261 0.2707869512
0.271641378 0.3151402666 0.2671276325
0.4305427916 0.5655690175 0.2897978369
0.1375635878 0.0020333248 0.2983781267
0.566184029 0.2239516249 0.6937022817
0.6342394504 0.0643104403 0.7301461092
0.8830335884 0.2621961184 0.9696579657
0.180620986 0.0916841652 0.6366863178
0.7651490524 0.2547716111 0.7372890291
0.1410063346 0.8991293194 0.1279544716
0.1124908847 0.4706024477 0.4414816507
0.4300231069 0.4671979195 0.0860212267
0.3263817992 0.7064769502 0.2221325086
0.7415589664 0.6676697212 0.4972148763
0.4787908873 0.6077412383 0.0883279593
0.482454599 0.650137499 0.4516908425
0.4317165851 0.1594382309 0.5386886197
0.5227949639 0.8712605101 0.7016798601
0.0606098279 0.5807202664 0.4578629227
0.0473528146 0.4676240347 0.1679912844
0.4555961658 0.6817007705 0.6510380516
0.4264718544 0.0937721294 0.3073748671
0.341541834 0.6939043569 0.8394029116
0.6457840958 0.0383178116 0.258867588
0.9630202339 0.4972763774 0.5265201768
0.2269726496 0.174940915 0.5263532451
0.1277646966 0.0213380016 0.9700137938
0.6081409958 0.372593328 0.4625633682
0.0208097506 0.1713712122 0.8769801176
0.463810963 0.9416969047 0.3106027992
0.3563227581 0.5802590077 0.1839662095
0.7155439777 0.1266690974 0.8022034985
0.9211555189 0.7249668333 0.566473963
0.1314068829 0.0081110799 0.55482828
0.3574675581 0.4135188325 0.6436139836
0.4007498748 0.7054885388 0.5474964637
0.5058645745 0.2928649874 0.6057292719
0.9985679017 0.2867877947 0.9143420694
0.7784640526 0.2354255441 0.581546139
0.3491846704 0.4837417303 0.9575158805
0.0712754461 0.0228822077 0.8373074794
0.4575993463 0.4470518982 0.252228099
0.9092814029 0.9628576951 0.7178239134
0.2565867737 0.0501581458 0.2007999543
0.6722867008 0.3193746211 0.1805713457
0.7477574043 0.4424964198 0.7769089519
0.2713532011 0.2394674879 0.4142963829
0.7409175972 0.0598186595 0.0831482441
0.3968867237 0.6720319103 0.3540480939
0.6889403351 0.3450219208 0.3708427415
0.1663825899 0.9586931883 0.7423496956
0.3871660268 0.7947311082 0.7571758669
0.921506954 0.811564853 0.0614633761
0.2229061053 0.5290021877 0.7667480825
0.3934378267 0.5514588953 0.474367197
0.3548691343 0.8237025453 0.340473471
0.0959800209 0.6017844121 0.7128598916
0.6722471644 0.5593925443 0.7522338098
0.5661444926 0.8740456339 0.9364429489
0.0477683866 0.4326364667 0.0169475659
0.1547588715 0.4425271703 0.224966394
0.4100115095 0.2423382739 0.1931869899
0.2472820882 0.0089815848 0.4906430385
0.937018424 0.3059454045 0.5682311389
0.5927964575 0.5247630009 0.3477995765
0.0137106283 0.3171333433 0.118159534
0.8092585596 0.1321119497 0.3051239248
0.0602689358 0.632372451 0.916705471
0.823579543 0.5152215359 0.0053500294
0.9468278583 0.8934492484 0.8568297033
0.8455574201 0.9710022053 0.5221623806
0.2077368453 0.8162389408 0.4867640728
0.2020624852 0.9926374331 0.0763923422
0.6011825794 0.2121170455 0.1057894552
0.6618798267 0.4332756394 0.6146469394
0.6312917878 0.6789376115 0.4441745227
0.7932638663 0.8700173082 0.9119479173
0.7332123811 0.518639243 0.2400934818
0.6798733076 0.9938191339 0.6419490595
0.0721935705 0.4722761578 0.5988938578
0.906948752 0.431297938 0.9016991891
0.1706648275 0.6622751913 0.4571995888
0.5045554784 0.5466310546 0.6513850939
0.6371343976 0.9038429436 0.4111136981
0.2312118363 0.6949630554 0.1434123477
0.5086101617 0.8641834843 0.4408314956
0.9390391762 0.0923580422 0.9928439013
0.8523576907 0.2961566171 0.1239670002
0.8661778789 0.4371739341 0.3157381457
0.7688874441 0.7276640983 0.7823386254
0.202692872 0.7150827191 0.9262952583
0.9449652518 0.3739028633 0.4215842698
0.6341867351 0.9132965498 0.0497425737
0.1282378162 0.3226864583 0.5143561268
0.6589145925 0.7865953839 0.1238519052
0.4816550839 0.0575743066 0.6067176833
0.0459984713 0.107483812 0.6692555724
0.869446226 0.4900016693 0.7766409826
0.1981558439 0.5496929335 0.0375496183
0.3916033351 0.9714151416 0.6135574904
0.0953171263 0.578128432 0.1310326044
0.0441437721 0.9277625001 0.9931689788
0.8218926541 0.8891222028 0.2048845096
0.9151899068 0.5183844525 0.6394890133
0.7673235576 0.2804421933 0.8618596192
0.5681564589 0.6566698003 0.8326904998
0.6639532943 0.7127017458 0.8888454476
0.7670687671 0.2822024442 0.0514263875
0.3618938841 0.3032626363 0.9391929291
0.3118512726 0.4284614168 0.3103308762
0.6602324744 0.4257790879 0.250926471
0.0276633075 0.3938296769 0.7561479191
0.1070721936 0.9317425034 0.3893682074
0.1250393168 0.1236102935 0.3398118943
0.2147716989 0.9716479674 0.8876857115
0.3016284627 0.8155404634 0.9389908539
0.6475632364 0.1515155642 0.6310941056
0.1803205089 0.3766756868 0.9057319077
0.2412677145 0.6644980188 0.7704557236
0.8724114603 0.1848896054 0.7414842865
0.8069566593 0.6416810902 0.392456444
0.1201482178 0.8168627382 0.9714722498
0.5468111651 0.0390862685 0.1240381659
0.0117722437 0.0770468902 0.1558140556
0.0391594549 0.3802102461 0.326302287
0.507933649 0.9221834667 0.5878763651
0.2881684956 0.2588456233 0.733871322
0.2019258648 0.8728375754 0.2299659986
0.6723613808 0.8632829317 0.8006967202
0.7788154877 0.9836450856 0.3554964461
0.2262267284 0.5596649066 0.5988543213
0.9652913837 0.8802792152 0.5771356276
0.7312355582 0.1384263612 0.1716378636
0.5743285392 0.1913507411 0.4647334804
0.5812298474 0.1570924011 0.9277844648
0.3168346234 0.1085464641 0.5981338792
0.2724347429 0.1925926251 0.2074864478
0.1636348061 0.1876184995 0.0860691097
0.8099921806 0.6179943595 0.1139581265
0.9264006888 0.7758326817 0.2873962168
0.4458350539 0.2110579077 0.8248403166
0.4555478435 0.7776513587 0.1877054798
0.3405709943 0.8611743206 0.1017874872
0.4670441666 0.3677430833 0.7755119971
0.6481431044 0.3443669335 0.7173670477
0.8553448897 0.5906351312 0.2721984027
0.9143464624 0.9031883956 0.3489847916
0.4161928149 0.6059313471 0.8001168522
0.2935072352 0.4064576213 0.4683532626
0.7309763748 0.0714182166 0.9295811771
0.052428417 0.8087753363 0.7490621074
0.2711388257 0.6013802616 0.9239538214
0.1724439681 0.2584647554 0.9026876005
0.7399072211 0.5412672752 0.5171412506
0.1012330982 0.7841529094 0.3529384373
0.5607455697 0.1798210316 0.29680809
0.8081032165 0.014184934 0.7914935116
0.0255670407 0.9021340901 0.2061184864
0.18106643 0.4069491913 0.7458684402
0.5679631696 0.7262847152 0.6501155343
0.492791186 0.3512673631 0.110121333
0.4947328653 0.2948172098 0.3553809118
0.3118047075 0.3220767183 0.1525509801
0.5430903452 0.6035064444 0.2057389364
0.225800174 0.7098243703 0.3110803117
0.0388099526 0.0915097655 0.4980627136
0.4278604627 0.9787864943 0.1924498546
0.0365330481 0.6426870733 0.2529674307
0.3919758564 0.0508315835 0.4229935248
0.8220376211 0.4512735132 0.497597062
0.2831442905 0.9473418322 0.7080715873
0.2055654153 0.8007011132 0.6753002574
0.162821673 0.7283933262 0.5680949578
0.0157471951 0.2441305933 0.6502341437
0.5098445778 0.4206055228 0.4034888727
0.6174715996 0.9176543459 0.243642977
0.7947486799 0.6896212407 0.9930635483
0.6505416495 0.4759135118 0.0339380508
0.7983245328 0.2916156354 0.2638373207
0.9965691141 0.1488573964 0.3534097998
0.4790017484 0.7282220016 0.0328080988
0.4296391639 0.1291572585 0.9856702308
0.8450170885 0.1281499574 0.4217692125
0.1539220165 0.5295513051 0.3370917861
