In2O3                                   
   1.00000000000000     
     8.1942175510847157    0.0266547568644434    0.0068445516272140
     0.0270656835292222    8.0331684485489561    0.0653947450979799
     0.0064825258562798    0.0673538080665988    8.1215043323413347
   In   O 
    16    24
Direct
  0.0032080676719528  0.9916983097774096  0.0024461609841203
  0.0094671924971959 -0.0030062196672269  0.5109286922818020
  0.7344788569581111  0.2305953734101196  0.2557456792377736
 -0.0001198097763327  0.4847541303862131  0.5112765946191740
  0.5049839333718190  0.9665810013816185  0.9716066187388732
  0.5056506209396640  0.9689393515824604  0.4948462472338040
  0.4889942641454891  0.4725051079059910  0.9663567754418477
  0.2227853538961498  0.7136128689790004  0.7274190472642584
  0.2284404007516511  0.2096430129141520  0.2275054412199224
  0.2307722908413387  0.2140061566212909  0.7293644846293037
  0.2043669878825593  0.6991877504571808  0.2257147991078449
  0.9977917485069956  0.4838255540593175  0.9973281886603093
  0.4954836619705152  0.4739235738231930  0.4809992584092522
  0.7287052408601589  0.2503937499777810  0.7568337100413145
  0.7645907920308265  0.7594698618689307  0.2750465154684196
  0.7326995144626012  0.7476942724151016  0.7572389352397835
  0.9544987071991146  0.5816631725422441  0.2572867891241587
  0.1124328635308149  0.9504805410720348  0.2626537167097149
  0.7588857522515317  0.5010285994827999  0.8736987201122227
  0.9663572217902864  0.1146857225355578  0.7598530751176111
  0.7613965460609375  0.8690725562213616  0.0238606943013276
  0.2679628840588771  0.9621071825594518  0.6147603118087586
  0.6185946412622816  0.7155241154039131  0.5107963795930721
  0.4627295450349660  0.7180710766957262  0.8484055865623220
  0.4655677964365187  0.3475537983119154  0.7204067387918196
  0.1186711185207149  0.2457867562362419  0.4709217467137036
  0.9651056881568925  0.2402422765465315  0.1203850853583170
  0.7548096770670624  0.3667525746287031  0.4954321111300233
  0.2680460856037680  0.0918914151182574  0.9764343453572453
  0.1029811318894788  0.7418021700382954  0.9693238789810286
  0.7662227367508220  0.0004583754953536  0.3883057695141890
  0.6243933645530957  0.0033849388433532  0.7295538701560755
  0.5424791273736390  0.6252840484625068  0.2041491396320884
  0.1147094981730218  0.4563147683189284  0.7594933342427054
  0.6103627351079036  0.2257319292806969  0.0184921150025949
  0.2580114136950950  0.5976109444067667  0.4729090926139574
  0.2602510060532067  0.4534362755529241  0.1073951065286356
  0.9634312532666901  0.7455724266916138  0.6156039316017766
  0.4563237472474577  0.7941815791938207  0.2080893973853578
  0.4709899789097890  0.2116430912258502  0.3540948360938825
 
  0.00000000E+00  0.00000000E+00  0.00000000E+00
  0.00000000E+00  0.00000000E+00  0.00000000E+00
  0.00000000E+00  0.00000000E+00  0.00000000E+00
  0.00000000E+00  0.00000000E+00  0.00000000E+00
  0.00000000E+00  0.00000000E+00  0.00000000E+00
  0.00000000E+00  0.00000000E+00  0.00000000E+00
  0.00000000E+00  0.00000000E+00  0.00000000E+00
  0.00000000E+00  0.00000000E+00  0.00000000E+00
  0.00000000E+00  0.00000000E+00  0.00000000E+00
  0.00000000E+00  0.00000000E+00  0.00000000E+00
  0.00000000E+00  0.00000000E+00  0.00000000E+00
  0.00000000E+00  0.00000000E+00  0.00000000E+00
  0.00000000E+00  0.00000000E+00  0.00000000E+00
  0.00000000E+00  0.00000000E+00  0.00000000E+00
  0.00000000E+00  0.00000000E+00  0.00000000E+00
  0.00000000E+00  0.00000000E+00  0.00000000E+00
  0.00000000E+00  0.00000000E+00  0.00000000E+00
  0.00000000E+00  0.00000000E+00  0.00000000E+00
  0.00000000E+00  0.00000000E+00  0.00000000E+00
  0.00000000E+00  0.00000000E+00  0.00000000E+00
  0.00000000E+00  0.00000000E+00  0.00000000E+00
  0.00000000E+00  0.00000000E+00  0.00000000E+00
  0.00000000E+00  0.00000000E+00  0.00000000E+00
  0.00000000E+00  0.00000000E+00  0.00000000E+00
  0.00000000E+00  0.00000000E+00  0.00000000E+00
  0.00000000E+00  0.00000000E+00  0.00000000E+00
  0.00000000E+00  0.00000000E+00  0.00000000E+00
  0.00000000E+00  0.00000000E+00  0.00000000E+00
  0.00000000E+00  0.00000000E+00  0.00000000E+00
  0.00000000E+00  0.00000000E+00  0.00000000E+00
  0.00000000E+00  0.00000000E+00  0.00000000E+00
  0.00000000E+00  0.00000000E+00  0.00000000E+00
  0.00000000E+00  0.00000000E+00  0.00000000E+00
  0.00000000E+00  0.00000000E+00  0.00000000E+00
  0.00000000E+00  0.00000000E+00  0.00000000E+00
  0.00000000E+00  0.00000000E+00  0.00000000E+00
  0.00000000E+00  0.00000000E+00  0.00000000E+00
  0.00000000E+00  0.00000000E+00  0.00000000E+00
  0.00000000E+00  0.00000000E+00  0.00000000E+00
  0.00000000E+00  0.00000000E+00  0.00000000E+00
