Amorphous GeAsSeSi                      
   1.00000000000000     
    18.8336188657994725    0.0000000000000000    0.0000000000000000
     0.0000000000000000   18.8336188657994725    0.0000000000000000
     0.0000000000000000    0.0000000000000000   18.8336188657994725
   Ge   N    Se
   114    12   114
Direct
  0.4497742654310833  0.8436128509597273  0.3880185630947981
  0.4009466307948231  0.3319042287712916  0.6415196963989230
  0.3650869783955449  0.6920822984970985  0.0323707560019205
  0.9344427598549271  0.2528509450214691  0.4433294142052214
  0.6791130634547209  0.9054800881036897  0.6702898376935446
  0.0311775289577976  0.2805728606258043  0.8706097098523694
  0.5503021945080425  0.2264987509784961  0.7811160071442821
  0.9846168869766324  0.6914505032064080  0.0691476144437359
  0.3348252224237918  0.6244222063873228  0.8242867090775249
  0.5899755837630700  0.4846326248188187  0.2113373511230779
  0.9310727076792271  0.4533468177401139  0.6036197836214583
  0.0762643852197170  0.9918721308614902  0.8158706509302863
  0.8457111958634815  0.9133467236357797  0.5822409038399513
  0.8704016890807736  0.0517166143761192  0.7787539607470465
  0.3339315160517601  0.3873584488827835  0.1079223691806520
  0.2779907747259974  0.3604625147126425  0.4731386587821543
  0.0174399245768297  0.1463416839427452  0.3403593718304592
  0.4990584232064406  0.7314404020513278  0.9179562288551709
  0.4797731241479835  0.9033386532409802  0.0165970237218743
  0.7008692368235651  0.3546693246681961  0.2505891359233121
  0.1153129271640751  0.4952951891162850  0.6004750107897729
  0.4858108096232904  0.9303992343789740  0.4875799653913945
  0.7521589551285308  0.4148810240712396  0.0651133045431178
  0.5934686785026069  0.5080487807894234  0.8119603414866521
  0.9733886325352431  0.1183863927921980  0.0423357679116124
  0.3705784979447567  0.0530124346900279  0.0928426815623802
  0.6402198145259812  0.9912039315438563  0.9964572903790397
  0.0344927805318019  0.8455726335367012  0.4340272662422067
  0.0198767358950244  0.4573754656606696  0.2442419092169518
  0.2987244749718589  0.5123515969468161  0.4929997505758706
  0.5678061284946995  0.3541084082607285  0.4107351372297205
  0.3194658899856307  0.8406257598230219  0.1905619523870878
  0.2387953739271355  0.9460024103391753  0.1499902524597459
  0.1791606415322608  0.3280652922407512  0.2771177238926015
  0.2507256765300822  0.1888897392827519  0.0605338347923855
  0.4578275264041226  0.8502045513631695  0.2118616407120474
  0.5373777452726305  0.5825708317204316  0.9942292572555785
  0.7087203109672902  0.8407942014265397  0.9608246360690295
  0.0450014178996172  0.1410303110159093  0.8690639189603337
  0.2729029757885370  0.3183295215463511  0.9133924072984144
  0.5241644285887507  0.3128464657453566  0.5467297901242207
  0.5105312276947744  0.8613086404005540  0.8584763382073974
  0.4076912167199467  0.0112052017143341  0.6613763629229162
  0.7802839086318637  0.2655922775765876  0.8052525963672335
  0.2238366897184158  0.5317298515669853  0.2203953705314796
  0.0246296637038938  0.2554903046570379  0.6495763060883990
  0.2859423127133402  0.0281996011661290  0.4738312160487924
  0.8558786649556261  0.0388058284037743  0.6362041806508630
  0.3892143816531661  0.2586879437416552  0.3557213870733226
  0.9288199636887265  0.8627937571977767  0.8835409659012214
  0.9203587853649304  0.3740009874390679  0.0589519292350121
  0.6027665837522922  0.1843571146486176  0.3156181501449229
  0.4455179620727670  0.6017600106782275  0.3261851038686112
  0.2409086174368756  0.1554226226974537  0.5077247355021155
  0.8732317053277977  0.0818892259797029  0.9317679103552281
  0.8836787910334165  0.0552433049651707  0.4310639566690233
  0.6597691055725540  0.6378305788662116  0.4668856246026291
  0.8786084512032939  0.4745620845281770  0.7297118570373137
  0.7639630416236125  0.7128437521230565  0.3380082893450168
  0.7047287420680554  0.1475709117897721  0.9742510321580398
  0.2098499296446666  0.8351592274076177  0.0091613206175812
  0.5456040039358024  0.1061385966440028  0.9204806929443188
  0.5533693291757232  0.3992322313836451  0.1033884883098481
  0.3973671289864164  0.7000727742662072  0.5631020972279167
  0.6952914853899289  0.4092365205627477  0.8013815078674498
  0.4188260369268673  0.0063281763452573  0.8058928995620077
  0.5201620301238693  0.6491986702825802  0.4660708336611604
  0.6842838505056803  0.7460424048856763  0.7883869690620546
  0.1277903044997636  0.8039485540062249  0.7149489489997852
  0.8190117077510498  0.1607667000889772  0.2872503895978298
  0.4999079889798135  0.1842006413779775  0.1479171778379662
  0.0921374439837761  0.1190900112580021  0.2237428782833603
  0.2240543618832892  0.0988566117574970  0.7053333411668287
  0.3175279555188190  0.4350283679435447  0.8502636057293717
  0.2928029882823355  0.7587873476827476  0.2943819007719233
  0.7974749908494049  0.6872622602602335  0.9064867959559298
  0.1742669376993965  0.3551820822990813  0.7303063624774757
  0.2246706726028225  0.9219750808975637  0.7118845436445571
  0.0702536849761323  0.9107620003142313  0.0873117365905949
  0.6876861886996266  0.0764268558423400  0.7331254110070643
  0.3661897584757923  0.1825588801813555  0.7132927304154718
  0.0444182493063503  0.7740046146434050  0.5875731025153060
  0.6198164215408681  0.6010346151294513  0.6282017638586836
  0.2765850695286896  0.6249190609876959  0.6863267790486042
  0.6583256994536579  0.1776733036569379  0.4430905053924111
  0.9865954195573445  0.6076997827612479  0.6432111775574137
  0.8406003603921416  0.4693044879569193  0.2579994542653318
  0.1630663423159895  0.2874358335784779  0.8437418025704392
  0.6108090818413631  0.1000931303860703  0.5461817609264664
  0.4875030888424121  0.4540216034333558  0.5110531442606958
  0.8124148677570358  0.2601972443107712  0.0196307189563360
  0.2220522295697941  0.0009421348234031  0.0056579555228693
  0.7482075944225534  0.2895531758731006  0.6667087739066521
  0.4287820258671500  0.9979598385167603  0.2982558937492105
  0.6262923525939637  0.8384769366168859  0.4317176411262221
  0.0363373740415360  0.6522228747728177  0.7699881228135397
  0.4160234068693209  0.5661113628075939  0.1247224053705051
  0.3766640551667249  0.1666921321002218  0.5575352048796278
  0.7316385237017300  0.5592998972910868  0.0841259295382867
  0.6802691802995892  0.4776855632614460  0.5353067265006751
  0.9913246271546581  0.5554793668467798  0.4830052043357361
  0.9351752463742753  0.6254046387976443  0.2444934132544649
  0.5262002608729954  0.1480093753092028  0.6512614364815753
  0.3091187106648917  0.4604099787163980  0.3088391451309764
  0.0351669227562205  0.7696943245009161  0.8791885910712838
  0.0685364031264791  0.2847391682998223  0.0659936120139834
  0.1355267845113336  0.9996670256625737  0.3695512968196819
  0.1310682653819293  0.6457338134508445  0.2213803747753576
  0.8036452177885036  0.8699184962191669  0.3520414084079737
  0.8412025005344201  0.3919778193477262  0.8986979376672085
  0.6778711177606646  0.0184500535373817  0.3578377297476150
  0.3322211514269199  0.8635930694915842  0.8387864006632563
  0.8042659141479378  0.6153117114870689  0.5510617813305344
  0.4461658383179259  0.3125714401096863  0.9457381355954693
  0.7832747955432769  0.0786655421545721  0.9802618194384600
  0.2763604400718097  0.0199070832603153  0.0933368850739930
  0.3653113523085031  0.2388577361399033  0.6284523983807287
  0.4271617973666573  0.9050921335552613  0.8248297549357949
  0.7528951638953284  0.3483242631287862  0.8562872168718314
  0.1763662367342322  0.9204468015409488  0.0709374337642452
  0.4284877775965418  0.1100567880493752  0.6342592637320208
  0.6210902813120230  0.0891089798949177  0.9911032179808362
  0.0106279658246621  0.5204281823435783  0.5844781326915862
  0.4447685426612806  0.8985167893752134  0.3045772302730902
  0.8275326158715024  0.3666311844859438  0.0048932949215293
  0.6906471971875124  0.5864337608397767  0.5543166391300851
  0.8127805792490004  0.3617361412693748  0.1752720475258587
  0.3927913647779467  0.3903881422618669  0.3986060369984179
  0.9169248525539562  0.9409230621038521  0.9882858829486556
  0.3503606805132625  0.2169809218198735  0.9299471100438220
  0.4649911322668542  0.4730072231316378  0.0284075815314851
  0.6882898971551471  0.1655558572912026  0.8266102440075335
  0.6193264780958035  0.9397645459543132  0.8781642636446221
  0.0505131607986568  0.5747507097593939  0.3052733973927428
  0.0397725419889962  0.2754110583000940  0.3570870633760139
  0.1723939516126551  0.1590733490055682  0.8273505731663456
  0.1671847589319182  0.5693031613323967  0.4902432070105241
  0.1600551087951900  0.2128230949675125  0.1661190257420006
  0.6252323619344069  0.3227220020925435  0.7180816469303787
  0.7956891110591008  0.9554975989822420  0.4665616027443618
  0.2671772993270333  0.5389053433451158  0.9019533482568848
  0.6556393986340028  0.2980001879598106  0.5022214967348282
  0.7655429155660733  0.7195108094914497  0.0356311871185551
  0.8702362187644220  0.2219287283937036  0.8976184594158984
  0.1212251747946923  0.0070590743938483  0.6849113237197031
  0.9210771793050535  0.5499943820569478  0.8751265121247495
  0.3231051511118327  0.5815671734913783  0.3816066675180054
  0.8559652438826085  0.5981535025547264  0.6819980932986573
  0.3343835272533068  0.7339734795847002  0.9048781867114803
  0.4496813706086257  0.4934884095220143  0.2361336311680785
  0.1411848204798424  0.4297620457706751  0.1881968519423318
  0.4617036851223998  0.9707453536606840  0.1381345042305505
  0.0140434714024242  0.0479350861425015  0.1483874138005676
  0.7615299014725458  0.0420547776565121  0.2446803411133175
  0.0177900826467909  0.9532128145631609  0.3566918896340440
  0.6073937422308353  0.8943102903424268  0.0718506667831900
  0.5405954501484730  0.7502643601229829  0.3707113379545260
  0.9605347251499516  0.5139818578604540  0.1308596986400643
  0.6082233671515901  0.9769943049963251  0.4954006255105101
  0.2879598720595226 -0.0003656185525677  0.6047496972535021
  0.7785933273069245  0.8200263192896240  0.6400359743498076
  0.3639192806477549  0.1600205573646771  0.1626476999127409
  0.7334229465296752  0.1095121739924495  0.6150275484614234
  0.9722368265542883  0.8845876227579397  0.5542135161297408
  0.9316072962358454  0.0920872081053267  0.5504801598796903
  0.8584233876794147  0.4972315958736576  0.5034094618043115
  0.9923438655344518  0.3433591647303315  0.7551830104951787
  0.5588754672279089  0.2462110521936158  0.9183086628573894
  0.7433778219071188  0.5862048248546816  0.3851487018315926
  0.8964881495362027  0.6958062776058931  0.3698473789964244
  0.2603548649556280  0.2352560757644001  0.4052124347156657
  0.3192610133793662  0.9058809597225689  0.9698592374544358
  0.9285529831094005  0.6654481135122012  0.9316213035427792
  0.4687841607104641  0.2160015688591139  0.4711087772004962
  0.3395084921328332  0.7834652234643700  0.4145212137117839
  0.2759236851784737  0.0122944828315011  0.8005139983789272
  0.6363461682175297  0.5141142042162675  0.9358595425819070
  0.8675383553347393  0.7309940034120512  0.1121353131434687
  0.1453687141065715  0.3035984613319485  0.6183057399091028
  0.2805984906430870  0.4254044450977231  0.7217245964906136
  0.2244030030627803  0.3239623254044449  0.0369975405463628
  0.5857432447256702  0.4859784128266488  0.4234265192332884
  0.7794580277310456  0.3911794860088377  0.3549792178490527
  0.1995828448145676  0.4235647899510081  0.3824799723157479
  0.7617753969940438  0.4253524221688728  0.6807949263955650
  0.3095351399217297  0.3348231294103537  0.2309978735070088
  0.1551089435353462  0.6288083855953776  0.6034868663790028
  0.4569886419599286  0.8996478436221778  0.6044010778223348
  0.0687085934955204  0.7731551636234366  0.0105487228965680
  0.5183171421928765  0.2626779312300441  0.2579815574928617
  0.3247916542800396  0.7455218651580088  0.6608966058700861
  0.5680527240117923  0.0374164588124717  0.7180198113811691
  0.5459756356482149  0.7006297677987102  0.5932241702981367
  0.4306940035813584  0.2992945891126189  0.7706977892567808
  0.6682470108756513  0.6101619115416463  0.7465478604141720
  0.5872502406166727  0.8237030312388783  0.7400430858892560
  0.8119539541663960  0.8169067848501287  0.8518006231353544
  0.1900412142126845  0.0320834085978035  0.2531445813576941
  0.4169526455801758  0.0307930624672393  0.4406020797433971
  0.7872993095956999  0.1677787370060970  0.4206935403561264
  0.4591385541320854  0.5800781086306049  0.8551615804578693
  0.0907709421637567  0.1653546885059819  0.9948626310899379
  0.4410957185537920  0.4583687953008520  0.8133919205437271
  0.0454456482238765  0.5759203497536490  0.0622306897556832
  0.0747793640250218  0.4397211631617436  0.7532998962776078
  0.1670272215660581  0.6885443752930372  0.7680975749714409
  0.1774135311328845  0.7154779961893429  0.3258702570062186
  0.7555451285786309  0.9779249470554588  0.7795872120394358
  0.9359027878074798  0.2356344148225640  0.1007789627497523
  0.6389313868801143  0.7280970009780083  0.9168025356215216
  0.5703253756465596  0.0625553959894322  0.2845719011878451
  0.9491391216201704  0.3285556348016428  0.5635708515260842
  0.9519570054850092  0.9447185593783691  0.7773492267074724
  0.2870313835917206  0.5223835601322782  0.1063297293479272
  0.7273478248412191  0.7544980338976816  0.4640402748645458
  0.7949066778289968  0.5242513282360316  0.8968698649267656
  0.1142325501203664  0.1094958980633046  0.4285221331384860
  0.4765242066721001  0.7679731906002307  0.0483516977023189
  0.9895641437236162  0.7663203544525855  0.7137923279739692
  0.2241415589050875  0.9257050617247765  0.4226920721104015
  0.3740058211387854  0.5698897738911385  0.5873519514680768
  0.2647887100105218  0.7560734888563598  0.1071595127937666
  0.9025795486274760  0.3307093590684186  0.3440860953296775
  0.6002431160065774  0.5849813001005630  0.1202872596723546
  0.6527944956079861  0.3307370083567472  0.0519467550728501
  0.6684706367129045  0.8902908451297153  0.3148161977522615
  0.0388871522457672  0.9752036069683351  0.9718344538456737
  0.4643368031414284  0.3007361165689516  0.0877112248793646
  0.8561377584164328  0.9609197962725607  0.2707174776447561
  0.9490817931142854  0.8087670936509793  0.3404941034047150
  0.0135039408164537  0.7267530007390953  0.1943099249101001
  0.5715481589455167  0.4816235597699358  0.6258300040504645
  0.9584486488348729  0.6806439233125566  0.5353217967628997
  0.7636235357197242  0.9932855402354994  0.0284315500858088
  0.4190408358810964  0.0687978689527380  0.9750002446680511
  0.3830993109584234  0.6822192582246529  0.2361816424312153
  0.7049362771768832  0.2141997215515881  0.2381263865495243
  0.1302901034526832  0.8676923808105185  0.8358916061984796
  0.0204022741811636  0.3720185459218636  0.9604259471979222
  0.7407669965997761  0.5458769145471422  0.2171681588181222
 
  0.00000000E+00  0.00000000E+00  0.00000000E+00
  0.00000000E+00  0.00000000E+00  0.00000000E+00
  0.00000000E+00  0.00000000E+00  0.00000000E+00
  0.00000000E+00  0.00000000E+00  0.00000000E+00
  0.00000000E+00  0.00000000E+00  0.00000000E+00
  0.00000000E+00  0.00000000E+00  0.00000000E+00
  0.00000000E+00  0.00000000E+00  0.00000000E+00
  0.00000000E+00  0.00000000E+00  0.00000000E+00
  0.00000000E+00  0.00000000E+00  0.00000000E+00
  0.00000000E+00  0.00000000E+00  0.00000000E+00
  0.00000000E+00  0.00000000E+00  0.00000000E+00
  0.00000000E+00  0.00000000E+00  0.00000000E+00
  0.00000000E+00  0.00000000E+00  0.00000000E+00
  0.00000000E+00  0.00000000E+00  0.00000000E+00
  0.00000000E+00  0.00000000E+00  0.00000000E+00
  0.00000000E+00  0.00000000E+00  0.00000000E+00
  0.00000000E+00  0.00000000E+00  0.00000000E+00
  0.00000000E+00  0.00000000E+00  0.00000000E+00
  0.00000000E+00  0.00000000E+00  0.00000000E+00
  0.00000000E+00  0.00000000E+00  0.00000000E+00
  0.00000000E+00  0.00000000E+00  0.00000000E+00
  0.00000000E+00  0.00000000E+00  0.00000000E+00
  0.00000000E+00  0.00000000E+00  0.00000000E+00
  0.00000000E+00  0.00000000E+00  0.00000000E+00
  0.00000000E+00  0.00000000E+00  0.00000000E+00
  0.00000000E+00  0.00000000E+00  0.00000000E+00
  0.00000000E+00  0.00000000E+00  0.00000000E+00
  0.00000000E+00  0.00000000E+00  0.00000000E+00
  0.00000000E+00  0.00000000E+00  0.00000000E+00
  0.00000000E+00  0.00000000E+00  0.00000000E+00
  0.00000000E+00  0.00000000E+00  0.00000000E+00
  0.00000000E+00  0.00000000E+00  0.00000000E+00
  0.00000000E+00  0.00000000E+00  0.00000000E+00
  0.00000000E+00  0.00000000E+00  0.00000000E+00
  0.00000000E+00  0.00000000E+00  0.00000000E+00
  0.00000000E+00  0.00000000E+00  0.00000000E+00
  0.00000000E+00  0.00000000E+00  0.00000000E+00
  0.00000000E+00  0.00000000E+00  0.00000000E+00
  0.00000000E+00  0.00000000E+00  0.00000000E+00
  0.00000000E+00  0.00000000E+00  0.00000000E+00
  0.00000000E+00  0.00000000E+00  0.00000000E+00
  0.00000000E+00  0.00000000E+00  0.00000000E+00
  0.00000000E+00  0.00000000E+00  0.00000000E+00
  0.00000000E+00  0.00000000E+00  0.00000000E+00
  0.00000000E+00  0.00000000E+00  0.00000000E+00
  0.00000000E+00  0.00000000E+00  0.00000000E+00
  0.00000000E+00  0.00000000E+00  0.00000000E+00
  0.00000000E+00  0.00000000E+00  0.00000000E+00
  0.00000000E+00  0.00000000E+00  0.00000000E+00
  0.00000000E+00  0.00000000E+00  0.00000000E+00
  0.00000000E+00  0.00000000E+00  0.00000000E+00
  0.00000000E+00  0.00000000E+00  0.00000000E+00
  0.00000000E+00  0.00000000E+00  0.00000000E+00
  0.00000000E+00  0.00000000E+00  0.00000000E+00
  0.00000000E+00  0.00000000E+00  0.00000000E+00
  0.00000000E+00  0.00000000E+00  0.00000000E+00
  0.00000000E+00  0.00000000E+00  0.00000000E+00
  0.00000000E+00  0.00000000E+00  0.00000000E+00
  0.00000000E+00  0.00000000E+00  0.00000000E+00
  0.00000000E+00  0.00000000E+00  0.00000000E+00
  0.00000000E+00  0.00000000E+00  0.00000000E+00
  0.00000000E+00  0.00000000E+00  0.00000000E+00
  0.00000000E+00  0.00000000E+00  0.00000000E+00
  0.00000000E+00  0.00000000E+00  0.00000000E+00
  0.00000000E+00  0.00000000E+00  0.00000000E+00
  0.00000000E+00  0.00000000E+00  0.00000000E+00
  0.00000000E+00  0.00000000E+00  0.00000000E+00
  0.00000000E+00  0.00000000E+00  0.00000000E+00
  0.00000000E+00  0.00000000E+00  0.00000000E+00
  0.00000000E+00  0.00000000E+00  0.00000000E+00
  0.00000000E+00  0.00000000E+00  0.00000000E+00
  0.00000000E+00  0.00000000E+00  0.00000000E+00
  0.00000000E+00  0.00000000E+00  0.00000000E+00
  0.00000000E+00  0.00000000E+00  0.00000000E+00
  0.00000000E+00  0.00000000E+00  0.00000000E+00
  0.00000000E+00  0.00000000E+00  0.00000000E+00
  0.00000000E+00  0.00000000E+00  0.00000000E+00
  0.00000000E+00  0.00000000E+00  0.00000000E+00
  0.00000000E+00  0.00000000E+00  0.00000000E+00
  0.00000000E+00  0.00000000E+00  0.00000000E+00
  0.00000000E+00  0.00000000E+00  0.00000000E+00
  0.00000000E+00  0.00000000E+00  0.00000000E+00
  0.00000000E+00  0.00000000E+00  0.00000000E+00
  0.00000000E+00  0.00000000E+00  0.00000000E+00
  0.00000000E+00  0.00000000E+00  0.00000000E+00
  0.00000000E+00  0.00000000E+00  0.00000000E+00
  0.00000000E+00  0.00000000E+00  0.00000000E+00
  0.00000000E+00  0.00000000E+00  0.00000000E+00
  0.00000000E+00  0.00000000E+00  0.00000000E+00
  0.00000000E+00  0.00000000E+00  0.00000000E+00
  0.00000000E+00  0.00000000E+00  0.00000000E+00
  0.00000000E+00  0.00000000E+00  0.00000000E+00
  0.00000000E+00  0.00000000E+00  0.00000000E+00
  0.00000000E+00  0.00000000E+00  0.00000000E+00
  0.00000000E+00  0.00000000E+00  0.00000000E+00
  0.00000000E+00  0.00000000E+00  0.00000000E+00
  0.00000000E+00  0.00000000E+00  0.00000000E+00
  0.00000000E+00  0.00000000E+00  0.00000000E+00
  0.00000000E+00  0.00000000E+00  0.00000000E+00
  0.00000000E+00  0.00000000E+00  0.00000000E+00
  0.00000000E+00  0.00000000E+00  0.00000000E+00
  0.00000000E+00  0.00000000E+00  0.00000000E+00
  0.00000000E+00  0.00000000E+00  0.00000000E+00
  0.00000000E+00  0.00000000E+00  0.00000000E+00
  0.00000000E+00  0.00000000E+00  0.00000000E+00
  0.00000000E+00  0.00000000E+00  0.00000000E+00
  0.00000000E+00  0.00000000E+00  0.00000000E+00
  0.00000000E+00  0.00000000E+00  0.00000000E+00
  0.00000000E+00  0.00000000E+00  0.00000000E+00
  0.00000000E+00  0.00000000E+00  0.00000000E+00
  0.00000000E+00  0.00000000E+00  0.00000000E+00
  0.00000000E+00  0.00000000E+00  0.00000000E+00
  0.00000000E+00  0.00000000E+00  0.00000000E+00
  0.00000000E+00  0.00000000E+00  0.00000000E+00
  0.00000000E+00  0.00000000E+00  0.00000000E+00
  0.00000000E+00  0.00000000E+00  0.00000000E+00
  0.00000000E+00  0.00000000E+00  0.00000000E+00
  0.00000000E+00  0.00000000E+00  0.00000000E+00
  0.00000000E+00  0.00000000E+00  0.00000000E+00
  0.00000000E+00  0.00000000E+00  0.00000000E+00
  0.00000000E+00  0.00000000E+00  0.00000000E+00
  0.00000000E+00  0.00000000E+00  0.00000000E+00
  0.00000000E+00  0.00000000E+00  0.00000000E+00
  0.00000000E+00  0.00000000E+00  0.00000000E+00
  0.00000000E+00  0.00000000E+00  0.00000000E+00
  0.00000000E+00  0.00000000E+00  0.00000000E+00
  0.00000000E+00  0.00000000E+00  0.00000000E+00
  0.00000000E+00  0.00000000E+00  0.00000000E+00
  0.00000000E+00  0.00000000E+00  0.00000000E+00
  0.00000000E+00  0.00000000E+00  0.00000000E+00
  0.00000000E+00  0.00000000E+00  0.00000000E+00
  0.00000000E+00  0.00000000E+00  0.00000000E+00
  0.00000000E+00  0.00000000E+00  0.00000000E+00
  0.00000000E+00  0.00000000E+00  0.00000000E+00
  0.00000000E+00  0.00000000E+00  0.00000000E+00
  0.00000000E+00  0.00000000E+00  0.00000000E+00
  0.00000000E+00  0.00000000E+00  0.00000000E+00
  0.00000000E+00  0.00000000E+00  0.00000000E+00
  0.00000000E+00  0.00000000E+00  0.00000000E+00
  0.00000000E+00  0.00000000E+00  0.00000000E+00
  0.00000000E+00  0.00000000E+00  0.00000000E+00
  0.00000000E+00  0.00000000E+00  0.00000000E+00
  0.00000000E+00  0.00000000E+00  0.00000000E+00
  0.00000000E+00  0.00000000E+00  0.00000000E+00
  0.00000000E+00  0.00000000E+00  0.00000000E+00
  0.00000000E+00  0.00000000E+00  0.00000000E+00
  0.00000000E+00  0.00000000E+00  0.00000000E+00
  0.00000000E+00  0.00000000E+00  0.00000000E+00
  0.00000000E+00  0.00000000E+00  0.00000000E+00
  0.00000000E+00  0.00000000E+00  0.00000000E+00
  0.00000000E+00  0.00000000E+00  0.00000000E+00
  0.00000000E+00  0.00000000E+00  0.00000000E+00
  0.00000000E+00  0.00000000E+00  0.00000000E+00
  0.00000000E+00  0.00000000E+00  0.00000000E+00
  0.00000000E+00  0.00000000E+00  0.00000000E+00
  0.00000000E+00  0.00000000E+00  0.00000000E+00
  0.00000000E+00  0.00000000E+00  0.00000000E+00
  0.00000000E+00  0.00000000E+00  0.00000000E+00
  0.00000000E+00  0.00000000E+00  0.00000000E+00
  0.00000000E+00  0.00000000E+00  0.00000000E+00
  0.00000000E+00  0.00000000E+00  0.00000000E+00
  0.00000000E+00  0.00000000E+00  0.00000000E+00
  0.00000000E+00  0.00000000E+00  0.00000000E+00
  0.00000000E+00  0.00000000E+00  0.00000000E+00
  0.00000000E+00  0.00000000E+00  0.00000000E+00
  0.00000000E+00  0.00000000E+00  0.00000000E+00
  0.00000000E+00  0.00000000E+00  0.00000000E+00
  0.00000000E+00  0.00000000E+00  0.00000000E+00
  0.00000000E+00  0.00000000E+00  0.00000000E+00
  0.00000000E+00  0.00000000E+00  0.00000000E+00
  0.00000000E+00  0.00000000E+00  0.00000000E+00
  0.00000000E+00  0.00000000E+00  0.00000000E+00
  0.00000000E+00  0.00000000E+00  0.00000000E+00
  0.00000000E+00  0.00000000E+00  0.00000000E+00
  0.00000000E+00  0.00000000E+00  0.00000000E+00
  0.00000000E+00  0.00000000E+00  0.00000000E+00
  0.00000000E+00  0.00000000E+00  0.00000000E+00
  0.00000000E+00  0.00000000E+00  0.00000000E+00
  0.00000000E+00  0.00000000E+00  0.00000000E+00
  0.00000000E+00  0.00000000E+00  0.00000000E+00
  0.00000000E+00  0.00000000E+00  0.00000000E+00
  0.00000000E+00  0.00000000E+00  0.00000000E+00
  0.00000000E+00  0.00000000E+00  0.00000000E+00
  0.00000000E+00  0.00000000E+00  0.00000000E+00
  0.00000000E+00  0.00000000E+00  0.00000000E+00
  0.00000000E+00  0.00000000E+00  0.00000000E+00
  0.00000000E+00  0.00000000E+00  0.00000000E+00
  0.00000000E+00  0.00000000E+00  0.00000000E+00
  0.00000000E+00  0.00000000E+00  0.00000000E+00
  0.00000000E+00  0.00000000E+00  0.00000000E+00
  0.00000000E+00  0.00000000E+00  0.00000000E+00
  0.00000000E+00  0.00000000E+00  0.00000000E+00
  0.00000000E+00  0.00000000E+00  0.00000000E+00
  0.00000000E+00  0.00000000E+00  0.00000000E+00
  0.00000000E+00  0.00000000E+00  0.00000000E+00
  0.00000000E+00  0.00000000E+00  0.00000000E+00
  0.00000000E+00  0.00000000E+00  0.00000000E+00
  0.00000000E+00  0.00000000E+00  0.00000000E+00
  0.00000000E+00  0.00000000E+00  0.00000000E+00
  0.00000000E+00  0.00000000E+00  0.00000000E+00
  0.00000000E+00  0.00000000E+00  0.00000000E+00
  0.00000000E+00  0.00000000E+00  0.00000000E+00
  0.00000000E+00  0.00000000E+00  0.00000000E+00
  0.00000000E+00  0.00000000E+00  0.00000000E+00
  0.00000000E+00  0.00000000E+00  0.00000000E+00
  0.00000000E+00  0.00000000E+00  0.00000000E+00
  0.00000000E+00  0.00000000E+00  0.00000000E+00
  0.00000000E+00  0.00000000E+00  0.00000000E+00
  0.00000000E+00  0.00000000E+00  0.00000000E+00
  0.00000000E+00  0.00000000E+00  0.00000000E+00
  0.00000000E+00  0.00000000E+00  0.00000000E+00
  0.00000000E+00  0.00000000E+00  0.00000000E+00
  0.00000000E+00  0.00000000E+00  0.00000000E+00
  0.00000000E+00  0.00000000E+00  0.00000000E+00
  0.00000000E+00  0.00000000E+00  0.00000000E+00
  0.00000000E+00  0.00000000E+00  0.00000000E+00
  0.00000000E+00  0.00000000E+00  0.00000000E+00
  0.00000000E+00  0.00000000E+00  0.00000000E+00
  0.00000000E+00  0.00000000E+00  0.00000000E+00
  0.00000000E+00  0.00000000E+00  0.00000000E+00
  0.00000000E+00  0.00000000E+00  0.00000000E+00
  0.00000000E+00  0.00000000E+00  0.00000000E+00
  0.00000000E+00  0.00000000E+00  0.00000000E+00
  0.00000000E+00  0.00000000E+00  0.00000000E+00
  0.00000000E+00  0.00000000E+00  0.00000000E+00
  0.00000000E+00  0.00000000E+00  0.00000000E+00
  0.00000000E+00  0.00000000E+00  0.00000000E+00
  0.00000000E+00  0.00000000E+00  0.00000000E+00
  0.00000000E+00  0.00000000E+00  0.00000000E+00
  0.00000000E+00  0.00000000E+00  0.00000000E+00
  0.00000000E+00  0.00000000E+00  0.00000000E+00
  0.00000000E+00  0.00000000E+00  0.00000000E+00
  0.00000000E+00  0.00000000E+00  0.00000000E+00
  0.00000000E+00  0.00000000E+00  0.00000000E+00
  0.00000000E+00  0.00000000E+00  0.00000000E+00
  0.00000000E+00  0.00000000E+00  0.00000000E+00
  0.00000000E+00  0.00000000E+00  0.00000000E+00
  0.00000000E+00  0.00000000E+00  0.00000000E+00
  0.00000000E+00  0.00000000E+00  0.00000000E+00
  0.00000000E+00  0.00000000E+00  0.00000000E+00
