3D\Atomistic                            
   1.00000000000000     
    18.8173099491580764    0.0000000000000000    0.0000000000000000
     0.0000000000000000   18.8173099491580764    0.0000000000000000
     0.0000000000000000    0.0000000000000000   18.8173099491580764
   Sb
   216
Direct
  0.9655795721562263  0.9184052376890532  0.5819908517600366
  0.5742211850725494  0.8001464486581240  0.2916014592620036
  0.9601124215939485  0.9880184885515817  0.9346485223276714
  0.2319997988227118  0.3380564195262333  0.0430759881850434
  0.8268384050156937  0.0051345302052061  0.8351636812865135
  0.3887409305966302  0.9708393927553159  0.9513130529523971
  0.9474631634989444  0.1628600614276512  0.4521875125045383
  0.7304243762138773  0.2798970642518315  0.7069550014622688
  0.4035043770887524  0.7341042503784374  0.0894827877880252
  0.2966750412772403  0.0961035768582867  0.2478935507480471
  0.3537010853133601  0.7575861158778141  0.3777118294197429
  0.5016331853411107  0.2781276457778755  0.3226752780204947
  0.4634420089499728  0.0492179938881729  0.2955423853807274
  0.4877983067252373  0.8571116002282692  0.9987981289851465
  0.0823315313983762  0.2559990849085692  0.4755086807096123
  0.7682334957422802  0.3409290512735549  0.0958328921418358
  0.5126476024415838  0.7275625839510117  0.6351276009617273
  0.4169854679037790  0.2350449175176184  0.1986983328932053
  0.1154086527998298  0.8874339779548835  0.0349874766113219
  0.8438204378240055  0.1814052752258508  0.8413140875153244
  0.3179059090177128  0.1493153657553868  0.9806423829079900
  0.7377970015596897  0.8028793757688726  0.8992110872650717
  0.7580973430943194  0.9397010123399718  0.5966111485284973
  0.7816663196253213  0.1325039521958100  0.5583418218556332
  0.6106553537630778  0.9583829894913128  0.2764154960546881
  0.9905285583378680  0.3943225989598220  0.0425477649864058
  0.5186711103010023  0.5903581355087234  0.0509481501439542
  0.7725510538949794  0.5076208010715556  0.9538986439430306
  0.7914055626944022  0.9911177693792534  0.3376230561837940
  0.0685775079955897  0.3011428019732963  0.8486533154078729
  0.7921433961551683  0.7475684958268414  0.6907371794571128
  0.0407057976028929  0.4894354788428961  0.2482402102083696
  0.0801986272823769  0.3088936078484845  0.1859610091766650
  0.7515634721603561  0.5992577182195895  0.6208194792208360
  0.3577319534597352  0.3850798313527128  0.8972507564303527
  0.1662070803824235  0.0982276209480301  0.1399796765324851
  0.7180658189561009  0.6081912055095927  0.0709659537033617
  0.3264326469716077  0.0933786976773521  0.6616146577005579
  0.1749376105231570  0.6566420718767100  0.0838869082668614
  0.3127038877497510  0.5256604623554751  0.9823063183970746
  0.5639639538004122  0.9500464926609021  0.4245630954803789
  0.9186448781651033  0.3746367240501108  0.2021376966638937
  0.1794752140342276  0.1790598164196541  0.8146957860222726
  0.1479368167286881  0.7951407039315230  0.9138090007307574
  0.1112313463239651  0.3535391823739485  0.3498316454793641
  0.3245857921965303  0.4959308519041545  0.7899567876361040
  0.8470232166291043  0.4775341995492067  0.3157756890093426
  0.0002550946346788  0.7748514797641023  0.4077088710849237
  0.8589314288098187  0.8629973073633012  0.8094293230015625
  0.7549255271137976  0.9254893921110224  0.1887830891072489
  0.9514197059926632  0.6083362226531294  0.0913922267850622
  0.9121601631603231  0.7548351475430822  0.5929243742875027
  0.5047051387091775  0.5813690045639111  0.5799618256642939
  0.1776901248724118  0.6640723269407781  0.7755399082796507
  0.1789833290363997  0.7525343844408084  0.2477150744875027
  0.5011719066443971  0.1638899591906783  0.8588696151237611
  0.8562115120613124  0.6848968088338384  0.9827941586133982
  0.0167455741612536  0.7254677342363193  0.8281795415845445
  0.8329056712509523  0.0668067588106409  0.0498654060472479
  0.6172534132924462  0.6939158864346286  0.9713689838598158
  0.4062143980259740  0.4281613350696102  0.4426286675523312
  0.3927308853330776  0.6592328684682587  0.9414988621908196
  0.0767454844085097  0.7993273379035540  0.5463672212363314
  0.5926553354177595  0.6689284942496595  0.1869892700356090
  0.9744230641067553  0.6265258983554552  0.2595202484245433
  0.4337642844313954  0.8779005907544227  0.3301108070327910
  0.0945275166235746  0.5075306148291674  0.0996243699188398
  0.4180660108826522  0.9615073632022652  0.4889070132345305
  0.0247634706962637  0.7757936008487203  0.2169189792558899
  0.3683814751938717  0.1581472362790613  0.3821788520561208
  0.8625324773805558  0.7399097702572588  0.1410163266480697
  0.7670938986877475  0.2884580845997244  0.5001681726949950
  0.8781449140069072  0.1685793698204043  0.6781393325489116
  0.3377057937838402  0.9433494367660094  0.6402582435641164
  0.2618322363896822  0.9531223005538672  0.3043427976820269
  0.3841042641906577  0.2838467083027320  0.0304195083304646
  0.0112340175689406  0.8557293600744870  0.7375134666804635
  0.2937517711521032  0.0377693312306217  0.4494449755156524
  0.7849593337298466  0.4567120759406362  0.4605123801645264
  0.3366109087697605  0.2403374725433189  0.8288780967826163
  0.1566904266013841  0.8252943796149692  0.3794634329413246
  0.2904652306193904  0.0633945287484057  0.8151563657372676
  0.4872462031001595  0.1105920566793777  0.5151991278836715
  0.6350103928208215  0.8075331202678907  0.0736141989183648
  0.3457644548659997  0.0378179570778595  0.0985667515182502
  0.2236868744375229  0.2498581727081271  0.1769210163304643
  0.2070123726468097  0.5582646817615060  0.6622941327000829
  0.4765633295559761  0.5845652858494659  0.7984358191305023
  0.4536268716605490  0.4527967331411510  0.0648239375315258
  0.4393212275372175  0.8589446746953808  0.7334623142407123
  0.0794763826685060  0.2620007286891927  0.0309662718030956
  0.8399931164467481  0.7875977212586563  0.3045303607672027
  0.9525796883519699  0.9326929002824847  0.1889608147456928
  0.5639877418750159  0.9342916970610761  0.6644838008861059
  0.9525304320673375  0.0507144919491988  0.3151948963689379
  0.1699447970006209  0.1394007190393495  0.9825103846762511
  0.4117772989997605  0.2612478117605766  0.4932629179220125
  0.2638216907121619  0.2758244423861850  0.5015745307488514
  0.2293586194606125  0.8626451757115294  0.1372246960779734
  0.3612100030734877  0.4005912296750342  0.3023897742263667
  0.0027450508830850  0.4533348029129535  0.8891285847117497
  0.2005658812288956  0.1535241875134910  0.5687298229448934
  0.6668045692959538  0.6458612685140593  0.3926688525752215
  0.2533205435138672  0.2741573466910368  0.3427776963341009
  0.4834469589795917  0.1038610227184163  0.6667497391224748
  0.3669625744433096  0.6516991460360053  0.6655989071667160
  0.5676036704620184  0.5145095626508756  0.9134719341611083
  0.7737242441206519  0.2415451090511256  0.3567706921023015
  0.9997174615815539  0.6043514895497981  0.9373624690960215
  0.2126685114612613  0.4029888145929461  0.5807695245750405
  0.3595902095875720  0.5711002260369740  0.4888241207512563
  0.2984402055838301  0.7700769054303253  0.5914601261205259
  0.6480232773754083  0.5370092645336038  0.4917999990240911
  0.5403337132756275  0.3081677348480035  0.1427784078044625
  0.7925506600024250  0.7042853776550213  0.5098212569401197
  0.2165300423732051  0.4344213859273892  0.1671928185154743
  0.5375810135092834  0.2799963628573767  0.9755023192382696
  0.8622401237446234  0.1545041708291092  0.2315816477292573
  0.5219892119176505  0.0591775816541203  0.9774544630431360
  0.8623268165294169  0.8887518869330565  0.0728119045326059
  0.5531677328800807  0.9371541978380651  0.1302032440853809
  0.3343592404795912  0.6718674690569670  0.2192108402832876
  0.0864603006800418  0.0082131905638351  0.4415488371857881
  0.5117625748112170  0.2782856521945917  0.7216507595142843
  0.9547430047038448  0.9155222601383296  0.4125800953029244
  0.1758188815006159  0.5816642200524997  0.2523430005567121
  0.8524717792622718  0.6527617287189402  0.3732527862233312
  0.4924805422581301  0.4339644504859795  0.2124499154967029
  0.1667196837553319  0.7935573824474320  0.6883825531522296
  0.2850829645525920  0.8595792328615450  0.8581523372762521
  0.5798918304421264  0.9435500842128476  0.8842571481230443
  0.2627253231664852  0.7604677463097463  0.0278579825851693
  0.7081268210231897  0.9124539590366606  0.9975402735107737
  0.1881334614264148  0.9171733224688488  0.5266692767250485
  0.6590044815869821  0.4042284114384778  0.9890045806469349
  0.6899430365054258  0.1131097139895138  0.4139562569626995
  0.5457843009180577  0.4800225881051219  0.3834790549383232
  0.8496804005375854  0.0182310937211714  0.4898985752949680
  0.6258912841545194  0.8021043389168104  0.4549346940935555
  0.7227253864337859  0.7712317956433210  0.2107725013740885
  0.7750020484450272  0.8508738091979765  0.4302100322500323
  0.7919317566207392  0.5929944558594812  0.2020387211830170
  0.6741509807599662  0.0050896500261402  0.7710093099641468
  0.9335574599771030  0.2910966238205280  0.3340082917834603
  0.0893547071436057  0.9466087080872264  0.8575861955939369
  0.1571749062828756  0.1477273006386556  0.3763174453809285
  0.1042110512210396  0.0085649913992828  0.6303162272978697
  0.3642462725196967  0.2867041460063149  0.6814479205727239
  0.0276035787627075  0.0200471969163866  0.0776480279081887
  0.6349045073178948  0.3528382448993814  0.3850269734978397
  0.8203318530437567  0.3366168649149742  0.8642269417984032
  0.2196841777021995  0.9294171006987118  0.7379718416970640
  0.9374408999330922  0.4053924060472448  0.4411466570226124
  0.4564527823463395  0.9997835402809676  0.8097402264100100
  0.6401373530146376  0.1633853519146110  0.6566857678544245
  0.6549558100248469  0.1414863839523449  0.8381131763248986
  0.5820155730429442  0.1457592261802209  0.2965181774879603
  0.4862552667031788  0.1016215841242374  0.1490580630804274
  0.8821285418659902  0.6490301026225820  0.7966515028912057
  0.6934539918977687  0.3885011895964400  0.6082241796366102
  0.0394466181997499  0.0782882248711005  0.7678250976215220
  0.6712875023078237  0.3414411766466772  0.8326655468092967
  0.0331133045667787  0.4099466156611631  0.6310176961282038
  0.9220730995261689  0.2854651098896266  0.5366759361289408
  0.0603605069398822  0.1607549230525776  0.2398906192645998
  0.6316930192575760  0.1395769496380541  0.0625574636823912
  0.6758809692922049  0.2416481841826471  0.1976712511406841
  0.7296483727719555  0.0833348892486993  0.1678547796573220
  0.8745646046105378  0.4868751698993284  0.8121075937944368
  0.7290341833314874  0.3836081938278741  0.2688046041673259
  0.0852843509455854  0.4969724830652386  0.7413156073570627
  0.1639716221358461  0.4630905461156664  0.9575641017918450
  0.0529866877214499  0.7419985054540702  0.0589858339266702
  0.0441770007722801  0.5273817313046181  0.4799480063222185
  0.6596174029148369  0.5543754307836609  0.2776585632011095
  0.5092050274543783  0.4789869156091451  0.6887135956709126
  0.3252260068289869  0.7232435344345396  0.7989352558877690
  0.0848671991440957  0.6356995145919565  0.3732988321170755
  0.5429400086424898  0.3423075933925112  0.5877730541163656
  0.3574625121797672  0.4323881972424400  0.6572989233145641
  0.4526249876051995  0.5884820529230538  0.2779085728571318
  0.8865583025441193  0.5239967336406282  0.5842086223076437
  0.4995953376582118  0.3899013325329632  0.8495448583356127
  0.6038032341758611  0.6436382283660863  0.7270867871333407
  0.9595016278066874  0.1528623045619630  0.1138920214004765
  0.6397024941736341  0.0284746299055951  0.5426175450205761
  0.8511732589316712  0.4857463156534053  0.0966475594450726
  0.1979374958921499  0.4024180606006859  0.7982241520909518
  0.6874203485693587  0.6012292256147511  0.8623066463654969
  0.9506173300666499  0.8170944355345352  0.9386831867335473
  0.6269090000686275  0.4855102188274872  0.1234142775199846
  0.6526956103672922  0.8210713578868540  0.6275218577957716
  0.4356740444794199  0.8028205630929033  0.5123588567993176
  0.2880195760961596  0.5339449295387463  0.3533016346039991
  0.1751308931687424  0.4606567915471041  0.4423177968920129
  0.4205816101821251  0.8830018515766795  0.1674009266663819
  0.1220257887551747  0.6531974502269691  0.5738310987881019
  0.1082439774996753  0.9651830593327339  0.2900431622163550
  0.0104552737034480  0.1386906578580460  0.5885479686324289
  0.2201921593550362  0.9936926775819585  0.9496179978098176
  0.9775951304445145  0.6227336271802145  0.6713632822729260
  0.1851212494316192  0.2585249400661692  0.6873826561896241
  0.8857612791782358  0.2786959382216064  0.0066118903588401
  0.5077886338102791  0.7474874345701672  0.8822262173456763
  0.6965910276242602  0.4756882505935614  0.7352685844778745
  0.3359229351958257  0.5288451337383880  0.1346500721598318
  0.2270018469123044  0.6981480294830836  0.4672058040365467
  0.9886963224241345  0.1500371245902193  0.9012588530996940
  0.6083174007254939  0.2192507506181858  0.5069850723316018
  0.8882763384512178  0.4047966089376337  0.6787121649607825
  0.7490764418947680  0.1835728904006025  0.9804134195713730
  0.4689166829635774  0.6633125040614710  0.4214877547880139
  0.0361030068850530  0.2687030583230990  0.7085467669925394
  0.1684408638825726  0.6154757080594950  0.9320885151872318
  0.8988482419444324  0.0169600317357317  0.7025962394495282
  0.6220732074512961  0.8008137806288734  0.7928796552671460
 
 -0.68883493E-03 -0.27666717E-02  0.87858602E-04
  0.55851734E-03  0.49759603E-03 -0.24973156E-02
 -0.21545626E-02 -0.15473523E-02 -0.17904194E-02
  0.25922393E-02  0.24181710E-02 -0.29926740E-02
  0.15555084E-02 -0.77266544E-03 -0.21720951E-03
 -0.31187960E-03  0.19788667E-02  0.25412358E-02
 -0.19504553E-02  0.83878641E-03  0.22548675E-02
 -0.25502104E-03 -0.42630473E-02  0.13019270E-02
 -0.31540675E-02 -0.30433254E-02 -0.39275741E-02
 -0.18788709E-02  0.99558925E-03 -0.37763441E-03
  0.28816960E-02  0.16741410E-03  0.18329694E-03
 -0.81600792E-03  0.11379415E-02 -0.42890805E-02
 -0.28927943E-03 -0.13235220E-02  0.45030116E-03
  0.33421130E-02  0.18261652E-02  0.10357388E-02
  0.20805108E-02  0.14738315E-02 -0.29394169E-02
  0.22643543E-02 -0.72610676E-03  0.39489737E-03
 -0.22813446E-03  0.25853812E-02 -0.16251102E-03
 -0.22394081E-02  0.19193814E-05 -0.82441153E-03
 -0.24287051E-03 -0.58910070E-03  0.11687614E-02
  0.26682756E-02  0.29030474E-02  0.18988740E-02
 -0.51244725E-03  0.10707901E-03  0.20312255E-02
  0.80417984E-03  0.29572035E-03  0.12439052E-02
  0.19563541E-03  0.24180554E-04 -0.15055002E-02
  0.40058151E-03  0.34503077E-02  0.54785017E-03
 -0.12286435E-02 -0.34163869E-03 -0.43324110E-04
 -0.66104457E-03 -0.26281533E-02  0.42461116E-03
 -0.28084809E-02 -0.29382642E-02 -0.85027595E-03
  0.12404011E-02  0.46978796E-04 -0.42932412E-03
 -0.14048135E-03  0.23361342E-03  0.30868490E-02
 -0.19939881E-03  0.24374291E-02  0.49424129E-02
 -0.78600957E-03  0.31689398E-02  0.12167152E-02
 -0.12276674E-02 -0.38028519E-03 -0.17634391E-02
  0.29930451E-02  0.79193184E-03 -0.10580576E-02
 -0.10906947E-02 -0.93125666E-03  0.32538666E-04
  0.15937843E-02 -0.76331024E-04  0.10607840E-02
  0.12278426E-02  0.97292100E-04  0.55935037E-03
 -0.19737859E-02 -0.27729352E-02  0.32583593E-03
  0.58867432E-03  0.13499787E-02 -0.51850588E-03
 -0.38668550E-02 -0.10867509E-02  0.81012575E-03
  0.26087015E-03  0.19462895E-02  0.70430170E-03
  0.23285102E-02 -0.64152845E-03 -0.10552806E-02
  0.26264837E-02 -0.73155448E-03  0.26866421E-02
  0.75570938E-03  0.11091157E-02  0.11453601E-02
 -0.12122038E-02 -0.81192874E-04 -0.43360867E-03
  0.12682105E-02  0.25362707E-02  0.13357708E-02
 -0.48047686E-03  0.59543933E-03  0.17326749E-02
  0.16539106E-02 -0.13258328E-02 -0.38184710E-03
 -0.62311269E-03 -0.13602698E-02  0.15227267E-02
 -0.26873922E-02 -0.77795815E-03  0.88320093E-03
  0.13700565E-02  0.24373057E-02  0.13909738E-02
  0.98839321E-03 -0.26640138E-02  0.50025646E-03
 -0.10132820E-02 -0.18794587E-02  0.69313082E-03
 -0.38228240E-04 -0.16477235E-02  0.15884039E-02
 -0.48976650E-03  0.40517243E-02 -0.10842068E-03
  0.10919387E-02 -0.55039061E-04  0.87784742E-03
 -0.76715000E-03  0.11981281E-02  0.11857568E-02
 -0.23867444E-02 -0.10489573E-02 -0.20619646E-02
 -0.25724106E-02  0.12210396E-02 -0.17938011E-02
  0.57510800E-03 -0.36757073E-02 -0.36633708E-02
  0.25162594E-02 -0.19385776E-02 -0.83933657E-03
 -0.11379493E-02  0.10858002E-02  0.96722309E-03
  0.74337498E-03  0.26172615E-02 -0.18258892E-03
  0.16433608E-03  0.10422832E-02 -0.16723537E-02
 -0.11237268E-02  0.21419399E-02  0.12367437E-03
  0.83382142E-03  0.32468966E-02  0.71604422E-03
  0.21768764E-02 -0.20974333E-02  0.17938129E-02
  0.10545679E-02  0.10108663E-02  0.10751910E-02
 -0.65333748E-03 -0.13651530E-02  0.21549317E-04
  0.18136729E-02  0.52278184E-04  0.15797465E-03
 -0.35182211E-02 -0.27487630E-02  0.11694969E-02
  0.69658753E-04 -0.11886715E-02 -0.33587474E-02
 -0.15915831E-02 -0.10014764E-02  0.59873443E-03
  0.19694592E-03 -0.10126383E-02 -0.32404123E-02
 -0.23072084E-02 -0.15651218E-02 -0.51001453E-04
  0.91935054E-03  0.20541566E-02 -0.82424314E-03
  0.67688164E-03 -0.31873511E-03  0.11663743E-02
  0.13144868E-02  0.19144715E-02 -0.32394977E-03
  0.98854255E-03  0.51025785E-03 -0.15038099E-02
  0.15662087E-02 -0.20269113E-02 -0.74951496E-03
 -0.25887272E-02 -0.18264955E-02  0.29517404E-03
 -0.24996393E-02 -0.23303393E-03  0.29125912E-02
  0.34784256E-02  0.39604337E-02  0.14429860E-02
  0.25687177E-02  0.45996196E-03 -0.58789308E-03
 -0.72706299E-03 -0.12849359E-02  0.15942441E-02
 -0.34173813E-03  0.10190698E-02 -0.24780534E-02
 -0.11963439E-03  0.51323374E-04  0.17079356E-02
 -0.51108478E-03 -0.12274246E-02 -0.11569528E-02
  0.34533008E-03 -0.17503599E-02  0.96256766E-03
 -0.28746236E-02  0.67542444E-03  0.20357846E-02
  0.12829290E-02 -0.17137416E-02 -0.21109968E-02
  0.43930533E-03 -0.66727111E-03 -0.13465972E-02
 -0.64734749E-03 -0.15548772E-02 -0.78660539E-03
  0.53848443E-03  0.13233905E-02 -0.38473776E-03
 -0.17620590E-03 -0.32558536E-02  0.19025586E-02
 -0.29374382E-02  0.29438311E-03  0.55071650E-03
  0.36417174E-03 -0.25322495E-03  0.40552288E-03
 -0.15883259E-03  0.22511040E-03  0.31907371E-02
  0.54920040E-03 -0.65739241E-03  0.23356548E-02
 -0.18150750E-02  0.22863337E-03 -0.18598003E-02
  0.18883297E-02 -0.17088270E-02  0.16805688E-02
  0.17928090E-02 -0.14222827E-02 -0.64759096E-03
 -0.25893791E-03  0.69066721E-03 -0.85088930E-03
  0.43823199E-03  0.28192970E-03  0.88354413E-03
  0.15047159E-02 -0.10969225E-02 -0.47340361E-03
 -0.90567854E-03  0.12584947E-03  0.13158374E-02
 -0.76799695E-03  0.26920809E-03 -0.14289827E-02
 -0.62766111E-03 -0.13705606E-02  0.40934497E-03
  0.76083652E-03 -0.51141989E-03 -0.14049221E-03
 -0.73382356E-03 -0.21301120E-02  0.83511199E-03
 -0.90813267E-04  0.12507206E-03  0.24321384E-02
 -0.43068383E-03 -0.44753181E-03  0.42206235E-03
 -0.22369227E-02  0.35626269E-03 -0.10207435E-02
  0.13833216E-02  0.26556213E-02 -0.11967679E-02
 -0.35226338E-03 -0.26292792E-02 -0.33173612E-04
 -0.20923251E-02  0.77948413E-04  0.95667901E-03
 -0.13988208E-02  0.59647323E-03 -0.29181302E-02
 -0.15120853E-02  0.69241159E-03  0.49595903E-03
  0.66395913E-04  0.98322678E-03 -0.92016272E-03
 -0.38773351E-02  0.27046224E-02 -0.76740231E-03
 -0.10786180E-02 -0.49448111E-03 -0.28810492E-02
  0.95019278E-03 -0.18386216E-02 -0.65870405E-03
  0.53842950E-03 -0.15059959E-02 -0.40584535E-03
  0.30174773E-03  0.44562796E-03  0.27066409E-03
 -0.57287445E-03 -0.57882380E-03 -0.30310631E-03
  0.14700655E-02  0.33004061E-02  0.29032721E-03
  0.18207398E-02  0.37007379E-02 -0.87850982E-03
  0.26974295E-02 -0.18764083E-02  0.12259006E-02
  0.12030535E-02 -0.17160272E-02 -0.15232671E-02
 -0.27280310E-03  0.41692931E-04 -0.36568838E-03
 -0.89708230E-03 -0.61165654E-03  0.17300618E-04
  0.16167149E-02 -0.34404875E-03  0.90305384E-03
 -0.84159787E-03  0.30901884E-02  0.21103713E-02
 -0.14283736E-02 -0.41018672E-02 -0.38538877E-03
 -0.63149960E-03 -0.23023435E-02  0.38883561E-03
  0.18550377E-02 -0.13386941E-02 -0.27397181E-02
  0.40243306E-02  0.43003724E-03 -0.97724052E-03
  0.15417557E-03 -0.46187975E-03 -0.12653845E-02
  0.11456220E-02 -0.15526085E-02  0.23733780E-02
  0.28820209E-03 -0.47346330E-02  0.43294116E-04
 -0.23015221E-02  0.15474631E-02  0.58590696E-03
 -0.21540875E-02 -0.85528576E-03  0.91150897E-03
 -0.52195344E-03 -0.97962369E-03 -0.17818127E-02
 -0.27294987E-03  0.95608317E-03 -0.31029974E-03
 -0.37000030E-03  0.32630399E-03  0.17833135E-02
 -0.21401411E-02 -0.32291748E-03  0.17198372E-02
  0.33612797E-02  0.29668078E-03 -0.15918018E-02
 -0.12777705E-02  0.14157712E-02 -0.14308611E-02
  0.48363633E-03  0.21666457E-03 -0.79727451E-03
 -0.38169613E-03 -0.47681002E-03 -0.50886846E-05
  0.38268633E-03  0.27756073E-02 -0.58112205E-03
  0.35608893E-02  0.99769737E-03 -0.30580831E-02
 -0.11675382E-02 -0.39297729E-02 -0.13559645E-02
 -0.66466083E-03 -0.20781455E-02  0.30397932E-02
 -0.12044743E-02  0.31615439E-02 -0.84075231E-03
  0.10501018E-02 -0.11566216E-02 -0.29937101E-02
 -0.92501451E-04  0.24763872E-03  0.77793913E-03
  0.32724511E-02  0.24501704E-02  0.15879111E-02
  0.15162502E-02  0.38906395E-03  0.77452612E-03
 -0.11176039E-02  0.29251032E-02 -0.42325856E-03
  0.73021628E-03  0.79487971E-04 -0.21639396E-02
  0.55669240E-03  0.14750764E-02  0.17572354E-02
  0.51410030E-03 -0.15845613E-02 -0.18190325E-02
  0.12554443E-02  0.36640070E-03  0.21683181E-02
  0.10525659E-02  0.16117234E-03 -0.54475326E-03
 -0.13334654E-02 -0.16998419E-02  0.17476068E-02
  0.24504590E-02 -0.17897987E-02 -0.14232470E-02
 -0.19262757E-03  0.68304761E-03 -0.83539630E-03
  0.42827819E-04  0.11298749E-02 -0.13675520E-02
 -0.22647861E-02 -0.69808192E-03  0.56561938E-03
  0.14838315E-02  0.15439678E-02  0.90011041E-03
 -0.32084881E-02  0.57154339E-03 -0.97238169E-03
 -0.19750182E-02  0.21740246E-02 -0.17483995E-02
 -0.16335070E-02 -0.90573299E-03  0.17790328E-03
 -0.33705012E-02  0.11323328E-02 -0.22124172E-02
  0.32696009E-02  0.51719717E-03 -0.50190327E-03
 -0.86148129E-03 -0.25700729E-03 -0.20215503E-02
  0.29688433E-02 -0.13375200E-02  0.12344093E-03
 -0.67049976E-03  0.17358969E-02  0.15074691E-03
  0.52307677E-03 -0.37768510E-03  0.78100069E-03
 -0.72312925E-03 -0.52302569E-03 -0.55693642E-03
 -0.19258474E-02 -0.19779477E-02  0.26804752E-02
 -0.34228509E-03 -0.18737977E-02 -0.23964836E-02
  0.21540694E-02 -0.34897277E-03 -0.81100603E-03
 -0.70034958E-03  0.72003211E-03  0.11693899E-02
 -0.52094324E-03 -0.12440632E-02 -0.17736757E-02
 -0.72948560E-03  0.20870015E-02  0.21324263E-02
  0.22319670E-02  0.20418126E-02 -0.17788506E-02
 -0.26356802E-02  0.61361431E-03  0.80015572E-03
  0.29230905E-02  0.25567741E-03  0.12337737E-02
  0.69021908E-03  0.95396507E-03  0.11889448E-02
  0.23076127E-02 -0.67663518E-03 -0.17770177E-02
 -0.20341386E-02 -0.17297725E-03  0.78396302E-03
  0.38719395E-02 -0.22244663E-02 -0.13102372E-02
  0.16110136E-02  0.80868814E-03 -0.15265607E-03
  0.23361451E-02  0.18172327E-02  0.12267942E-02
  0.77110585E-03 -0.28358627E-03  0.27900788E-02
 -0.13042482E-02  0.74177158E-03 -0.18969672E-02
  0.23825876E-04 -0.30086908E-03 -0.79020619E-03
 -0.85226896E-03 -0.14559860E-02 -0.24748054E-03
  0.17557842E-02  0.51173901E-03 -0.61776787E-03
  0.31772287E-03 -0.12298881E-02 -0.55431475E-03
 -0.35636744E-02  0.39383856E-02  0.17438066E-02
 -0.17231781E-02  0.25327748E-02  0.21191769E-02
  0.85692125E-03  0.22179800E-02  0.13629445E-02
 -0.32215971E-02  0.12385781E-02 -0.18115096E-02
 -0.18339598E-02 -0.29444158E-02  0.23997306E-02
 -0.16041615E-02  0.26138040E-02 -0.28847608E-02
  0.50824920E-03  0.57460603E-03 -0.36157247E-03
 -0.54383695E-03 -0.42682725E-03 -0.19449627E-03
 -0.54916583E-03 -0.30167402E-02 -0.72867975E-03
 -0.69368297E-04 -0.72772322E-03 -0.18459780E-02
 -0.29936896E-02  0.45915955E-05 -0.83669715E-03
  0.11446902E-02 -0.19573325E-02  0.23997312E-02
  0.14387800E-02  0.20683127E-02  0.22518776E-02
 -0.45894971E-04  0.15982659E-02  0.20808247E-02
  0.98090777E-03  0.13543731E-02  0.87358165E-04
 
           1
   2.00000000000000     
  0.10000000E+01  0.00000000E+00  0.00000000E+00  0.00000000E+00
  0.96550636E+00  0.91811118E+00  0.58200019E+00
  0.57428055E+00  0.80019934E+00  0.29133603E+00
  0.95988342E+00  0.98785403E+00  0.93445823E+00
  0.23227532E+00  0.33831344E+00  0.42757911E-01
  0.82700373E+00  0.50524074E-02  0.83514060E+00
  0.38870778E+00  0.97104972E+00  0.95158315E+00
  0.94725586E+00  0.16294921E+00  0.45242717E+00
  0.73039727E+00  0.27944397E+00  0.70709338E+00
  0.40316915E+00  0.73378079E+00  0.89065345E-01
  0.29647535E+00  0.96209393E-01  0.24785341E+00
  0.35400737E+00  0.75760391E+00  0.37773131E+00
  0.50154646E+00  0.27824859E+00  0.32221941E+00
  0.46341126E+00  0.49077323E-01  0.29559025E+00
  0.48815352E+00  0.85730569E+00  0.99890821E+00
  0.82552659E-01  0.25615573E+00  0.47519626E+00
  0.76847416E+00  0.34085188E+00  0.95874864E-01
  0.51262336E+00  0.72783737E+00  0.63511033E+00
  0.41674745E+00  0.23504512E+00  0.19861071E+00
  0.11538284E+00  0.88737137E+00  0.35111699E-01
  0.84410404E+00  0.18171383E+00  0.84151591E+00
  0.31785144E+00  0.14932675E+00  0.98085827E+00
  0.73788247E+00  0.80291081E+00  0.89934330E+00
  0.75811814E+00  0.93970358E+00  0.59645114E+00
  0.78170890E+00  0.13287067E+00  0.55840005E+00
  0.61052477E+00  0.95834668E+00  0.27641089E+00
  0.99045830E+00  0.39404327E+00  0.42592895E-01
  0.51837261E+00  0.59004584E+00  0.50857778E-01
  0.77268289E+00  0.50762579E+00  0.95385301E+00
  0.79139063E+00  0.99114260E+00  0.33795114E+00
  0.68556315E-01  0.30140186E+00  0.84917862E+00
  0.79205986E+00  0.74790531E+00  0.69086650E+00
  0.40575315E-01  0.48939506E+00  0.24805278E+00
  0.80516743E-01  0.30897778E+00  0.18584855E+00
  0.75144755E+00  0.59915874E+00  0.62082294E+00
  0.35790135E+00  0.38507172E+00  0.89736350E+00
  0.16633758E+00  0.98237962E-01  0.14003913E+00
  0.71785603E+00  0.60789648E+00  0.71000585E-01
  0.32649521E+00  0.93522180E-01  0.66155955E+00
  0.17452662E+00  0.65652657E+00  0.83973013E-01
  0.31273161E+00  0.52586732E+00  0.98238118E+00
  0.56421144E+00  0.94997831E+00  0.42445093E+00
  0.91892403E+00  0.37455897E+00  0.20242325E+00
  0.17955553E+00  0.17917770E+00  0.81481752E+00
  0.14780798E+00  0.79513207E+00  0.91376291E+00
  0.11136614E+00  0.35380875E+00  0.34997362E+00
  0.32453472E+00  0.49599414E+00  0.79014095E+00
  0.84719900E+00  0.47739328E+00  0.31573510E+00
  0.18886703E-03  0.77470690E+00  0.40787071E+00
  0.85864580E+00  0.86291462E+00  0.80952319E+00
  0.75507114E+00  0.92574844E+00  0.18893093E+00
  0.95152476E+00  0.60805308E+00  0.91445397E-01
  0.91205247E+00  0.75463539E+00  0.59299804E+00
  0.50470108E+00  0.58119388E+00  0.58013065E+00
  0.17763807E+00  0.66450296E+00  0.77552838E+00
  0.17909939E+00  0.75252853E+00  0.24780838E+00
  0.50109037E+00  0.16401730E+00  0.85899564E+00
  0.85595784E+00  0.68478532E+00  0.98257500E+00
  0.16472165E-01  0.72559751E+00  0.82798889E+00
  0.83296680E+00  0.66416086E-01  0.49476044E-01
  0.61752085E+00  0.69370984E+00  0.97127977E+00
  0.40609345E+00  0.42827674E+00  0.44273147E+00
  0.39280990E+00  0.65951104E+00  0.94147946E+00
  0.76762951E-01  0.79943812E+00  0.54618947E+00
  0.59253590E+00  0.66915615E+00  0.18700241E+00
  0.97451169E+00  0.62687100E+00  0.25959635E+00
  0.43399565E+00  0.87767766E+00  0.33030146E+00
  0.94639601E-01  0.50763805E+00  0.99738647E-01
  0.41799657E+00  0.96136227E+00  0.48890930E+00
  0.24956237E-01  0.77579916E+00  0.21693577E+00
  0.36800754E+00  0.15785508E+00  0.38230315E+00
  0.86253988E+00  0.73978343E+00  0.14065934E+00
  0.76692474E+00  0.28835164E+00  0.50023181E+00
  0.87816585E+00  0.16847174E+00  0.67779492E+00
  0.33746057E+00  0.94318309E+00  0.64025282E+00
  0.26192995E+00  0.95334063E+00  0.30425519E+00
  0.38417621E+00  0.28381283E+00  0.30543477E-01
  0.11373728E-01  0.85593284E+00  0.73747904E+00
  0.29385684E+00  0.37823564E-01  0.44928514E+00
  0.78512580E+00  0.45649665E+00  0.46043272E+00
  0.33633577E+00  0.24014334E+00  0.82890947E+00
  0.15642475E+00  0.82526961E+00  0.37977300E+00
  0.29083494E+00  0.63815464E-01  0.81530973E+00
  0.48751922E+00  0.11064094E+00  0.51513664E+00
  0.63493312E+00  0.80739655E+00  0.73783643E-01
  0.34572813E+00  0.37926269E-01  0.98303371E-01
  0.22367416E+00  0.24986363E+00  0.17710254E+00
  0.20695805E+00  0.55813422E+00  0.66217117E+00
  0.47660003E+00  0.58437925E+00  0.79853813E+00
  0.45332134E+00  0.45286852E+00  0.65040311E-01
  0.43945758E+00  0.85876253E+00  0.73323795E+00
  0.79523074E-01  0.26192981E+00  0.30823149E-01
  0.83992431E+00  0.78743246E+00  0.30444676E+00
  0.95263692E+00  0.93283356E+00  0.18891992E+00
  0.56396901E+00  0.93394565E+00  0.66468601E+00
  0.95221823E+00  0.50745780E-01  0.31525343E+00
  0.16998350E+00  0.13937380E+00  0.98255349E+00
  0.41176042E+00  0.26127174E+00  0.49360205E+00
  0.26388006E+00  0.27575457E+00  0.50182278E+00
  0.22916570E+00  0.86266948E+00  0.13702703E+00
  0.36141070E+00  0.40040961E+00  0.30256839E+00
  0.29355998E-02  0.45318364E+00  0.88905976E+00
  0.20053836E+00  0.15359760E+00  0.56863939E+00
  0.66685115E+00  0.64589123E+00  0.39276276E+00
  0.25348047E+00  0.27404076E+00  0.34272738E+00
  0.48335070E+00  0.10387440E+00  0.66688959E+00
  0.36688095E+00  0.65172776E+00  0.66544703E+00
  0.56753696E+00  0.51436389E+00  0.91351544E+00
  0.77380511E+00  0.24149075E+00  0.35675576E+00
  0.99963947E+00  0.60412509E+00  0.93745123E+00
  0.21265886E+00  0.40300211E+00  0.58102802E+00
  0.35954443E+00  0.57105266E+00  0.48886898E+00
  0.29820245E+00  0.77011477E+00  0.59135164E+00
  0.64817030E+00  0.53729152E+00  0.49167280E+00
  0.54029627E+00  0.30788828E+00  0.14277488E+00
  0.79232828E+00  0.70429366E+00  0.50992294E+00
  0.21638137E+00  0.43448478E+00  0.16688266E+00
  0.53742030E+00  0.28006996E+00  0.97555503E+00
  0.86224718E+00  0.15460867E+00  0.23148385E+00
  0.52157711E+00  0.59465043E-01  0.97737290E+00