Amorphous GeAsSeSi                      
   1.00000000000000     
    19.1036188657994757    0.0000000000000000    0.0000000000000000
     0.0000000000000000   19.1036188657994757    0.0000000000000000
     0.0000000000000000    0.0000000000000000   19.1036188657994757
   Ge   Sb   Se
   108    24   108
Direct
  0.8839297401791962  0.5233292904720374  0.9866675024981213
  0.2164041228657499  0.5987079382209399  0.8053761074148149
  0.0501779155716040  0.4299362933116087  0.7699424285299632
  0.1388937257721408  0.7147381609969434  0.8229252407243438
  0.4076694164162239  0.1021377680521666  0.0696060475264719
  0.2824643146271064  0.2603452774076149  0.5438031218802289
  0.9484061135620240  0.4781494723073994  0.6963287948524897
  0.9638912414830549  0.6345319201040935  0.4102976770270747
  0.5118749520613179  0.7330825097022639  0.9250086126603452
  0.0165462090668950  0.6351936449348629  0.1722509051897363
  0.4508726658943009  0.3581441705751438  0.0911096554476338
  0.7159131134575248  0.3478041134327622  0.3286248159668705
  0.2724494524092402  0.9434431853325675  0.5916930197460545
  0.7437076969562246  0.1066571697515751  0.3375340205916945
  0.9040738270680010  0.2453765925923752  0.2640921497466446
  0.1909391044548819  0.8212350956969514  0.6533544817470728
  0.7094863001399535  0.7649375961169603  0.4801242167810894
  0.2799011372848682  0.8981646479271357  0.3574545134924166
  0.3136624838887655  0.3897660876512862  0.9832015982203359
  0.4974492116354389  0.5121077869747812  0.9976103865084884
  0.7231648577958882  0.9286165030777206  0.4180016053362718
  0.9230151012906984  0.0794175886741762  0.0189060915671114
  0.2778624659714556  0.5518287416298827  0.0759479938959817
  0.4022475050254094  0.8330595770007836  0.3642510003117958
  0.7904384836381229  0.3053717722303105  0.6857963221955110
  0.9939682115178116  0.0754240876661907  0.7568056697302603
  0.6288842006548030  0.3019304865143110  0.6424697411128348
  0.9638036886432801  0.8493776600817375  0.6911633062928204
  0.3463980644939180  0.7412709996860338  0.5093354387514881
  0.0171043618478671  0.9757417535862476  0.6617164239410974
  0.2500680441630686  0.9651207855469389  0.9202069766440877
  0.4845000366976090  0.9936730755510800  0.8131380214962952
  0.1241036750960747  0.2830205010288290  0.5590477085921574
  0.3145403918763420  0.2517660421967963  0.9773145853322412
  0.0387274110502141  0.8320111141202705  0.5271894599289736
  0.4554131690907446  0.5762252632174959  0.3163284172680980
  0.4708484917883059  0.1869252221892753  0.8728998273194654
  0.0717042941398444  0.9999081149627361  0.3300868322629250
  0.9065182571158994  0.7395253205837714  0.9488761509742573
  0.9899984213052995  0.6360102413922252  0.8054477420155838
  0.9319315935917067  0.3846527423378327  0.0020536690969420
  0.1292296785733011  0.4358128717576171  0.0210458918185954
  0.5198328138715531  0.5684999142165553  0.7909571839230497
  0.8257242199575618  0.6121141504544376  0.5575411695476549
  0.6237825267328501  0.0283675176770192  0.3505147236904219
  0.5898883658922075  0.4764781298827417  0.2530399179811253
  0.0046094108056736  0.9348840982695246  0.2156466763983870
  0.6257512443536951  0.6548038196012612  0.5019858663021014
  0.7919406533644466  0.4497553192865411  0.8412839713693877
  0.3161777613504891  0.2823552239647052  0.2162668104427033
  0.5057149562021103  0.4778051959198142  0.6137190067219340
  0.5253803986939810  0.7547543218909666  0.7864543822077995
  0.7876674536818863  0.9034885907853990  0.0195624962376164
  0.2637867836506203  0.7170935103154085  0.2704231936217464
  0.3342100285467455  0.0995464899584139  0.8221394449498388
  0.1056833431948167  0.3865840156505668  0.1902853382199533
  0.1450485597217979  0.0661390182279436  0.4797837683048860
  0.1761903283794528  0.1108973706546970  0.0475422943969226
  0.0760108037172266  0.1886849551013249  0.0996660282513216
  0.9015899179963054  0.8635536079098425  0.2781778877344308
  0.7753214818647157  0.6821332340071941  0.0231542889036375
  0.3814968773776555  0.0643994188684398  0.5636096441067032
  0.0866375462414229  0.1298754625256340  0.8894064828996934
  0.3792898806154591  0.6239130769310868  0.6684413889819173
  0.6658534323284159  0.7835727430061638  0.7975749806029285
  0.0052562014611861  0.7721663573215770  0.8306215231690656
  0.6868021596135881  0.1982806419728162  0.5174746099199424
  0.8141346190830318  0.1598068548226497  0.0525366302161442
  0.1519552073534964  0.6863583335202987  0.5386027516929925
  0.4613547274259958  0.4748130090250277  0.2243782029078388
  0.1061576629945692  0.2838056851275819  0.9433720096586817
  0.7442517132802008  0.9012906331645378  0.8031673467235151
  0.4952660627210266  0.7612686363997450  0.5661736845840378
  0.9407644388799301  0.9079786937917189  0.8839681743791139
  0.3116654587874453  0.5801400395117550  0.2496579866046813
  0.8839440012808523  0.9293787009236846  0.4754072893289613
  0.2345272683986823  0.2685229210830772  0.4025298510143575
  0.2652081684435671  0.9731413983523425  0.1424209005706275
  0.3265965949695365  0.0860371463203010  0.3476556213500218
  0.5446275147881577  0.3820323252927404  0.8228769699876659
  0.0775090518388868  0.2312027162660091  0.3205623506358314
  0.7346645058504040  0.0382368406802070  0.8389720614654487
  0.4452309532962676  0.2631140196023899  0.6776351771880461
  0.0564617711006748  0.1035817722807654  0.2094838132790738
  0.7579311687381839  0.8280930885606649  0.5966460343669217
  0.8045366514135969  0.1621811151735774  0.8665020681075336
  0.9288276377744714  0.0424479646810927  0.3240448510257468
  0.3577136885009026  0.3403174482150553  0.7461872551587450
  0.8140765849476159  0.2647127657741277  0.4841099012807848
  0.7031120178786344  0.7993370843618417  0.2118683840337842
  0.6355549324802454  0.0136268203192157  0.0822120125835368
  0.6267665098297317  0.0891821231378287  0.6942959547395549
  0.3649860599115879  0.3998184338763508  0.3711881854266003
  0.7192437059645809  0.4854748321462458  0.4439034347841804
  0.1470497018381597  0.4069585528933830  0.4008076979942101
  0.6639141297544843  0.7152545383129769  0.9146928434983929
  0.4072798314247399  0.6665468929473289  0.8034490015403756
  0.0998643205484269  0.5024961148570618  0.4981701960807787
  0.7370607541821274  0.5942385682433233  0.8814997992009165
  0.7480999229344447  0.6453556021025392  0.2935987008331225
  0.8859236065667412  0.5382455836065287  0.2455529520379862
  0.1771579481499481  0.3752244464667524  0.7393097840079130
  0.0334689801715667  0.0097821618621373  0.1030033955247960
  0.7025524476075037  0.1409954156391600  0.2064197909094895
  0.2327472051351231  0.8109535352456987  0.8387304480844121
  0.2791548806456690  0.4599211324602870  0.7980876836765686
  0.7217666608954935  0.3506507272445581  0.9799226669746604
  0.8538670716021860  0.7076294868849149  0.1367814816421962
  0.0927810980625657  0.5708511652771824  0.3571923561735442
  0.3861076375296011  0.4841736473138569  0.8962395672046437
  0.7153764289561149  0.2043039387664311  0.9599043923484875
  0.6836518243043161  0.9436482720771781  0.6675716639932295
  0.5895161900782585  0.0503041004162320  0.4895288937466530
  0.5189888125505139  0.9728362645429489  0.2680704925739325
  0.3296379041545311  0.9400854666164804  0.7307971450564155
  0.6720299288997521  0.4036540610584486  0.1215047598511485
  0.0062004522899871  0.2131517678236522  0.6158529907310061
  0.5655392486408676  0.8417959551332427  0.6754683193593101
  0.3815279449256292  0.8764188190364262  0.9325036368578057
  0.9367397200751405  0.4543039268925885  0.5589451235195491
  0.2200172497365364  0.5773993330877186  0.4558267120901263
  0.5479838870539649  0.1472193144567255  0.3845975081680381
  0.5944952700042032  0.8044274276733371  0.0464891098746040
  0.9905468838198078  0.1279717828280122  0.4910062991280030
  0.4129898370010744  0.8338324741597819  0.1784682868484443
  0.6766131592308365  0.6243036320797870  0.6374882972738223
  0.7932051371524030  0.3850249777019936  0.2104230117957356
  0.9508088276840376  0.2462558123642958  0.0592120107473143
  0.4677170213926292  0.4955513005898797  0.4336547886600673
  0.5943881203688572  0.1783998176882241  0.1156350201773288
  0.1395030270970264  0.6514417344722389  0.0863728408894229
  0.2738095020285586  0.4798412083146423  0.5939636971055379
  0.6177541968215057  0.8955221438407406  0.1548359758054279
  0.4303658219694494  0.0707465539223597  0.9233769182885792
  0.8018248192487268  0.4809539116330712  0.5660710079063541
  0.8651704112589650  0.3897865597824279  0.7485175794499069
  0.3592239752309803  0.6190187766876879  0.9153853400486457
  0.4867436242067400  0.1271073698587064  0.1807378191764902
  0.9283446228468777  0.1639802733642581  0.9142907056815619
  0.2410932233609376  0.8393525476616134  0.9626565073833003
  0.7892872258091392  0.8184560873723775  0.9125538571674311
  0.5171860439969307  0.8424361832308443  0.3218429855584798
  0.3449756064763457  0.2416859855204671  0.3378816115319325
  0.9263353919411561  0.1236032292845921  0.2165879030538896
  0.5921853035915969  0.3051184759754128  0.1805258556512488
  0.3290686597589829  0.9729619068308207  0.2554948947371682
  0.0534743092778199  0.4457838139935318  0.3012056337935157
  0.0865668070262000  0.7503500192674001  0.9320631678742898
  0.1964809661425206  0.3835155426982063  0.9166837019905144
  0.2630225155476466  0.2883579058549228  0.6772030893163192
  0.3951409310466666  0.1974527238780392  0.5583910407089521
  0.3793789901489401  0.4664241160228171  0.6931337802086929
  0.2454870521415913  0.6208798654460895  0.6790329514716298
  0.6831915106781353  0.7086790256440004  0.1030942732040327
  0.1980934953744543  0.9318535122149880  0.8010587255781442
  0.1851277445472158  0.8232338556804866  0.3216349260356675
  0.0376900343129357  0.9930769226317633  0.8487607115130503
  0.4180326005938150  0.5165371240089350  0.1125339315879090
  0.7557563058963479  0.5265138282918762  0.2355313064385706
  0.0780032032694814  0.7445010492635952  0.6323313122654346
  0.8294300497670927  0.3564612265630556  0.3951072024561422
  0.2213507345065147  0.8007402435616963  0.5144044370076112
  0.9607875044525997  0.5999527589384885  0.5407361623093013
  0.6261545100998646  0.8658881338989172  0.4806314563258981
  0.5499372313185719  0.6587074164688888  0.6981140656859355
  0.5386467697428247  0.8620101061808815  0.8888789212975027
  0.6740062173040187  0.9666472689075973  0.9703587094592560
  0.4938509944297634  0.6444367375345814  0.4984699258647087
  0.8180504566132158  0.8389106221133008  0.1663522535959342
  0.1294677244973387  0.9157537559519795  0.2308824600665699
  0.1408341674098701  0.9869490207912982  0.0320643641616097
  0.6273936346148816  0.5262364937980899  0.5394816577434953
  0.3885556462042576  0.7477143559289354  0.6379140631788058
  0.1111759139740466  0.1428498524376869  0.7649091688555445
  0.1324091986536261  0.9329382298597223  0.6063940069809528
  0.8998771939672471  0.5937917007369505  0.7246984628669655
  0.7739442165673701  0.6085501670751271  0.4281444647854785
  0.2778500447385736  0.4924149947609534  0.3366968849957772
  0.9271142221125723  0.5452189376687716  0.1191815596949253
  0.8278171438631943  0.9749647351141150  0.2846847807914339
  0.8824844198405808  0.3035642032208024  0.5912754243407143
  0.4207347107537349  0.3605644357651486  0.2520760612379197
  0.2779837267293900  0.1169507690007232  0.1242065243325465
  0.2875810416466365  0.0597247257164018  0.6610279414101727
  0.4552671243058672  0.0355948933199134  0.3828234305995514
  0.8389023708439236  0.3478315746110651  0.9207011641325127
  0.7223730568420602  0.0723488812914465  0.5164314318869875
  0.5834896953503228  0.4730253438119117  0.7287325445127482
  0.6847650919855561  0.2222761577427648  0.3696326019947381
  0.4348335022989523  0.2359955398005311  0.0189565228657183
  0.5175876933485771  0.3488249858653609  0.5932630748330516
  0.2251861994049676  0.1398306768320908  0.9380050785522008
  0.0719431942023335  0.7229702054666838  0.4374967532870012
  0.8949720512613417  0.8222935791227240  0.5764374493552259
  0.0178739966973760  0.3816618974116314  0.9076733726691938
  0.3037508464343080  0.7598983354831726  0.1520117361630085
  0.8465984739471601  0.9958684904784258  0.9383354191777268
  0.3465912107774572  0.2292633261796602  0.8489010029859196
  0.5722190394673857  0.6071202747418715  0.2684786027791233
  0.4739175551688082  0.7565642120625000  0.0793861721975342
  0.2519002495646072  0.4159871493567194  0.0933070318108690
  0.0863425754438088  0.5476009133201331  0.8142076620275276
  0.7538745947206066  0.0502587868070210  0.1214487975262083
  0.3738854029843188  0.7081716099599996  0.3327709930053584
  0.2828093650410336  0.0322772619936940  0.4700904226907370
  0.1144997571955477  0.4321364555716014  0.6351474507537010
  0.8758399526503597  0.1736366618786691  0.4242539753614985
  0.3649950104124199  0.8007853684815732  0.8153242414628056
  0.5519519014359211  0.3991616862992121  0.0037361230392630
  0.9382437035619985  0.0218006029729629  0.5664360429069639
  0.8567008966020918  0.2095962343100270  0.7556893766690990
  0.6689595012583398  0.3865699123542015  0.8657881723932380
  0.1348221022564552  0.1538115104299373  0.5836487701813236
  0.1709164021090673  0.5610178447368002  0.9846687247133387
  0.0680663820614286  0.2975065588755795  0.4379048625198754
  0.5991815660404036  0.5906068382840214  0.8967738341023582
  0.3293973048859585  0.3739723120428509  0.5148202875255639
  0.9889847445682000  0.9022762874622403  0.4032039171551133
  0.1581332575240147  0.2797374863303479  0.0735498019145224
  0.9824923412631542  0.3252833652955373  0.1802207841160899
  0.1775541596604159  0.3019393260493972  0.2720928881332070
  0.4851621163278172  0.9543277285290034  0.6708229540544274
  0.5696544680231457  0.2651043915574494  0.7564439161787758
  0.1699748201026803  0.1492065285585340  0.3728689572056220
  0.7584381768148720  0.5420239289338757  0.0108341854582670
  0.7554160130262645  0.0661332426638285  0.7059237834526321
  0.7793742538394625  0.8170996241730425  0.3778316655831258
  0.5785262868535568  0.4345990304711900  0.3745458580905505
  0.3538087739779893  0.5761941530994273  0.5380987091391632
  0.9067967438596963  0.6198420989644419  0.9009988268690455
  0.4489366762463686  0.1222973726659214  0.7512725450785035
  0.3815947537251925  0.9343321714035379  0.0834760220060684
  0.9766371044370428  0.7406906282139792  0.0970248547427956
  0.1910572137262579  0.5548682174618785  0.1817521564071977
  0.4163599676527397  0.8540196029662515  0.4970364310157459
  0.7561810374928544  0.7375833991091044  0.7015815187536164
  0.6048038014382390  0.0776784656316314  0.8236722275425894
  0.8760370146481089  0.9083052826836245  0.7725008727019149
  0.8783469831276774  0.6803843054959813  0.2708034639220488
  0.7952791228915719  0.2339919949769242  0.1697477372002939
 
 -0.12979618E-02  0.22892469E-03  0.97924808E-03
 -0.73500027E-03 -0.71509245E-03 -0.29197845E-02
  0.13108041E-02  0.11974067E-02 -0.12551579E-02
 -0.18151447E-02  0.31557218E-02 -0.11938488E-02
  0.78947068E-03 -0.16214143E-02  0.84451389E-03
 -0.21385335E-02  0.37298426E-02 -0.50399608E-03
 -0.27852337E-02  0.70410435E-03  0.88009352E-03
 -0.63649495E-03 -0.50089449E-02 -0.17564614E-02
  0.39906381E-02  0.34569906E-02  0.28972047E-02
  0.94122712E-03  0.88956713E-03 -0.17264190E-02
  0.30284469E-02  0.13798643E-02  0.34199739E-02
 -0.19408475E-02  0.20792667E-02 -0.17462209E-03
  0.13709029E-02 -0.33768180E-02 -0.24031252E-03
  0.10238625E-02 -0.11478569E-02 -0.84986630E-03
 -0.26622575E-02 -0.16786012E-02 -0.59967764E-03
 -0.19161711E-03  0.75832246E-03  0.91908681E-03
 -0.16872318E-02  0.70702586E-03  0.51272802E-04
 -0.28527834E-03 -0.47532469E-03  0.19790768E-02
 -0.29072773E-02  0.45401658E-03  0.14292220E-02
 -0.14513333E-03  0.12293511E-03 -0.20451232E-02
  0.16311512E-02 -0.18566901E-02 -0.26416228E-03
 -0.34718545E-03  0.32854469E-03 -0.11518342E-02
  0.14883041E-02 -0.25554746E-03  0.38852763E-04
  0.78736917E-03 -0.19277009E-02 -0.73937059E-03
 -0.45911984E-02 -0.10282693E-02  0.24950365E-02
 -0.34060429E-02  0.12556510E-02 -0.11569990E-02
 -0.20621161E-02  0.44157171E-03 -0.11518920E-02
 -0.51970680E-02  0.21140931E-02 -0.19866679E-02
  0.47469911E-03 -0.29378881E-02 -0.92786507E-03
  0.13624631E-02 -0.15797727E-02  0.10198736E-02
  0.15382416E-02  0.41964583E-03  0.13608542E-02
  0.92962844E-03  0.25748066E-03  0.10071452E-02
 -0.47855553E-03 -0.20573662E-02 -0.24145115E-02
  0.63483613E-03 -0.12870959E-03 -0.35039186E-03
 -0.51323407E-03  0.15827460E-02  0.30342452E-02
 -0.49904199E-04  0.18104332E-03 -0.21212419E-02
  0.27736861E-03 -0.33000034E-02  0.14503625E-02
 -0.35400426E-02  0.61990230E-03  0.18411092E-02
  0.18554900E-02  0.57729522E-03 -0.69787330E-06
 -0.97656426E-03  0.12821042E-02  0.29878284E-03
 -0.17250035E-02 -0.69594034E-03 -0.24967600E-03
 -0.18966140E-02  0.87026525E-03  0.16791844E-02
  0.68776250E-03 -0.15377386E-02  0.10063670E-02
  0.30881152E-02 -0.31067046E-03  0.68377015E-03
  0.35826439E-02 -0.23476925E-03  0.13944502E-02
 -0.12401667E-02  0.17632652E-02 -0.22219205E-03
  0.30001063E-03 -0.17986218E-02  0.12940952E-02
 -0.14803506E-02 -0.28084600E-03  0.20211591E-02
 -0.34183578E-02 -0.51864115E-03 -0.14891859E-02
 -0.96167329E-03 -0.26987393E-02 -0.33951120E-03
 -0.58792974E-04 -0.19651034E-02  0.18473084E-02
  0.10739771E-02  0.90026249E-04 -0.18622713E-02
 -0.25623704E-02  0.31336398E-03 -0.26094490E-03
  0.10122161E-02 -0.36333932E-03  0.28584917E-02
 -0.52797104E-03  0.14574850E-02  0.10431635E-02
 -0.15447233E-02 -0.65846509E-03 -0.13382425E-02
 -0.16462762E-02  0.34727390E-03 -0.25590776E-03
 -0.34094930E-03 -0.11317152E-02  0.13743552E-03
 -0.24968547E-02  0.29420027E-03 -0.48986734E-02
  0.15442983E-02  0.21281874E-02 -0.23945586E-03
 -0.19318228E-02  0.10180404E-02  0.45359060E-02
 -0.99000797E-03  0.16170221E-02 -0.44393806E-03
  0.31560616E-03  0.30366882E-02  0.20039531E-02
 -0.28536825E-02  0.42782170E-03 -0.17654866E-02
  0.98311800E-03 -0.63631904E-03 -0.63995209E-03
  0.17969163E-02  0.21825408E-03 -0.42230210E-02
 -0.62137598E-03  0.62511689E-03 -0.48336949E-03
  0.24952927E-02 -0.15307626E-02  0.34424131E-03
 -0.20274757E-02 -0.14454382E-02 -0.18466274E-02
  0.25433470E-02  0.15371242E-02 -0.18393676E-02
 -0.55522978E-03  0.19472368E-02  0.75650970E-03
  0.42037223E-02  0.13357501E-02 -0.64488995E-03
 -0.10894975E-02  0.74575173E-03  0.28731220E-02
  0.10844779E-02 -0.27048720E-02  0.42165505E-02
  0.30707636E-02 -0.82973189E-03 -0.13327008E-02
 -0.64180726E-03 -0.17039161E-02  0.32217614E-02
 -0.11516900E-02  0.78723153E-03  0.98440229E-03
 -0.22175038E-03  0.88936252E-03  0.74522310E-03
  0.28539542E-02  0.33236255E-03 -0.22146057E-02
  0.18386514E-02  0.61711857E-03  0.96444697E-03
 -0.11862399E-02 -0.53547039E-03  0.78434936E-03
 -0.12513315E-02 -0.69203317E-03 -0.26885424E-02
 -0.18061753E-02  0.12125966E-02 -0.11452929E-02
  0.14205076E-03  0.12151918E-02  0.41975457E-03
  0.29766547E-03 -0.27320227E-02 -0.41686656E-02
  0.71601107E-03  0.88477407E-03  0.10286301E-02
  0.31889182E-02  0.55100116E-04  0.17634111E-02
 -0.16773860E-02 -0.26021085E-02 -0.28908998E-02
 -0.59083460E-03 -0.70206572E-03 -0.76896359E-03
  0.26127790E-02  0.30510125E-03 -0.68798710E-03
  0.98708896E-03  0.50956583E-02 -0.14712239E-02
  0.12275960E-02 -0.10453188E-02  0.25338278E-02
  0.19133943E-02 -0.72975356E-03  0.10289707E-03
 -0.22377105E-02  0.18514999E-02 -0.32111990E-02
  0.79911241E-03 -0.17266876E-02 -0.42073932E-03
 -0.83270397E-03  0.97711034E-03 -0.47573044E-03
 -0.20620434E-02 -0.93852957E-04 -0.23923340E-02
 -0.67233831E-03  0.17088815E-02  0.54731102E-03
 -0.19577826E-02  0.11255332E-02  0.32780702E-03
  0.15268983E-02 -0.50477068E-02 -0.87043998E-03
 -0.13785552E-03 -0.52451126E-03  0.27496890E-02
  0.16045923E-02 -0.40123550E-03  0.13802330E-02
  0.77436837E-03  0.27897726E-02  0.10739815E-02
  0.10430540E-02  0.30448783E-02 -0.75597795E-03
  0.80483472E-03  0.78958756E-03  0.23794793E-02
 -0.30049323E-02  0.15325253E-02 -0.50037536E-03
 -0.17674996E-02 -0.21117267E-02  0.12041847E-02
 -0.12558357E-02 -0.85775084E-03  0.12608792E-02
  0.33211234E-03 -0.27507803E-03 -0.81951402E-03
  0.91257562E-03 -0.96360971E-03  0.89307103E-03
  0.12145433E-02 -0.14631847E-02  0.12931832E-02
  0.42610468E-02  0.33855563E-03 -0.13459735E-03
  0.15360955E-02 -0.72614929E-05  0.92881769E-03
  0.18473678E-03  0.21807400E-02 -0.84243551E-03
  0.74402761E-03 -0.47277584E-03 -0.24392539E-03
  0.40532810E-03 -0.21116048E-02 -0.10080252E-02
 -0.60662846E-03 -0.24744344E-02 -0.36752206E-03
 -0.66787998E-03 -0.14640206E-02 -0.53345045E-03
  0.13071696E-02 -0.13714789E-03  0.38243161E-02
  0.22707799E-03 -0.35252332E-02 -0.24924758E-02
  0.17886626E-02  0.10928485E-02  0.13711943E-02
  0.38337019E-02  0.23685308E-03 -0.55163835E-04
  0.29270931E-02  0.40324063E-02  0.35999238E-03
  0.36894011E-03 -0.16588696E-02 -0.16889696E-02
 -0.56206111E-03  0.14301531E-02 -0.21518619E-02
 -0.20953195E-03 -0.13623601E-03  0.25685647E-02
  0.59044246E-03 -0.99644550E-03  0.83036548E-03
 -0.25008482E-03  0.89859783E-03  0.18274327E-02
  0.39177735E-03  0.80861450E-03 -0.31135847E-03
  0.47271197E-03 -0.80236346E-03  0.17153217E-02
  0.47325426E-03  0.46765700E-03  0.11500864E-02
 -0.22887380E-03 -0.82127865E-03 -0.11323149E-02
  0.10377755E-02  0.14473037E-02 -0.37045847E-02
  0.24231942E-02  0.21334080E-02 -0.29839553E-02
 -0.22635269E-02 -0.62882560E-03 -0.27702961E-02
 -0.31787842E-02  0.11388760E-02  0.11738140E-03
 -0.12323979E-02 -0.10969228E-02 -0.93549637E-03
 -0.25612399E-02  0.14021782E-03  0.16142946E-02
  0.26181963E-02 -0.70381719E-04 -0.11164884E-02
  0.20561356E-02 -0.13201321E-02 -0.17537881E-02
  0.53774346E-03  0.15791525E-02  0.11145492E-02
 -0.26711719E-03 -0.40696359E-02  0.16238375E-02
  0.21683053E-02 -0.14434436E-02 -0.18641864E-03
  0.34546135E-03 -0.97612423E-03 -0.21826788E-02
 -0.16022853E-03  0.20870272E-03  0.52779566E-04
 -0.23203064E-02 -0.20300194E-02  0.17971193E-03
  0.17110105E-03 -0.11006023E-02  0.44262050E-04
 -0.36540827E-02  0.20301872E-03  0.27297122E-02
 -0.15264722E-02  0.12290833E-02  0.17180887E-02
  0.14658474E-02 -0.25217323E-02  0.14432889E-03
 -0.17410614E-02 -0.18368105E-02  0.72653909E-03
  0.23281180E-02 -0.32247263E-03 -0.21649480E-02
 -0.16168359E-02  0.66545138E-03 -0.82471080E-03
 -0.16901941E-02 -0.25884566E-02  0.53696339E-02
  0.15332197E-02 -0.16464162E-02 -0.19438018E-02
  0.80763495E-02 -0.17685106E-02  0.96556411E-03
  0.47458476E-03 -0.15451508E-03 -0.15394959E-02
  0.44827354E-03 -0.71770345E-04  0.62472132E-04
  0.15314556E-02 -0.10387807E-02  0.10672133E-02
  0.19000039E-02  0.28454106E-02 -0.16234582E-02
  0.17406111E-02  0.28293058E-03  0.15895290E-02
 -0.59595290E-03 -0.88725488E-03 -0.24758903E-02
 -0.16466067E-02 -0.15445108E-02  0.14195812E-02
 -0.98161739E-03 -0.15877527E-02  0.58199558E-03
  0.15669736E-02 -0.11688133E-02 -0.22704901E-02
 -0.43187232E-03  0.26543987E-02  0.97257273E-03
 -0.42954400E-03 -0.42362910E-04 -0.47828623E-03
  0.10506800E-02  0.47348702E-02  0.12742114E-02
 -0.12161268E-02 -0.24654454E-02 -0.96120951E-03
 -0.92147514E-03  0.21303282E-02  0.10326241E-02
 -0.69404196E-03  0.88722393E-03 -0.14605795E-02
  0.25778492E-02  0.97255015E-03 -0.63919756E-03
 -0.11582210E-02 -0.70248484E-03 -0.31924094E-03
 -0.32322209E-02  0.25659199E-02 -0.25934663E-02
  0.16866225E-03 -0.82940325E-04  0.41482595E-04
 -0.14153992E-03  0.70087401E-03 -0.16591921E-02
  0.25425567E-02  0.17661078E-02 -0.62545494E-03
  0.11017940E-02  0.28774721E-02  0.38034177E-02
 -0.94958599E-03  0.17963070E-03  0.15722365E-02
 -0.28154738E-02  0.76524923E-03  0.20846756E-02
 -0.16489312E-03  0.34095853E-05  0.95850355E-03
 -0.33958656E-02  0.22558554E-02  0.44034273E-02
  0.79192883E-03 -0.24306514E-02 -0.23242089E-02
  0.26055205E-03  0.36339791E-02 -0.23357194E-02
 -0.40907239E-02 -0.46974361E-03 -0.21511464E-02
 -0.30836179E-02  0.12704684E-03  0.69893748E-03
  0.16142484E-02  0.33945046E-02  0.13016251E-02
  0.36292193E-02  0.37425983E-03  0.13325484E-02
 -0.24011999E-03 -0.30277263E-02  0.11167756E-02
 -0.12498329E-03 -0.13045278E-02 -0.38839436E-03
 -0.58276505E-03  0.27143725E-02 -0.91153174E-03
 -0.19787232E-03 -0.19356367E-02  0.41979124E-04
 -0.12871319E-02  0.10285990E-02  0.11968902E-02
 -0.21987511E-02  0.51082821E-03  0.28510757E-02
  0.22039289E-02  0.28636138E-03  0.14485326E-02
 -0.23969880E-02  0.31326750E-03  0.10894486E-02
 -0.20162935E-02  0.68215155E-03 -0.18460658E-02
  0.85328913E-03  0.96639655E-03  0.10411445E-02
  0.20130959E-02 -0.10628239E-02  0.39789149E-02
  0.14872726E-02  0.21871759E-02 -0.36314219E-02
  0.17719115E-02 -0.45943266E-03 -0.15614576E-02
 -0.16988691E-02 -0.34688311E-03 -0.12322625E-02
 -0.20006629E-02 -0.50094860E-03  0.16163009E-02
 -0.16827828E-02 -0.29042952E-03  0.32641975E-02
  0.11161603E-02  0.35098265E-02  0.19319579E-02
  0.23078224E-02 -0.21964318E-02 -0.17437455E-02
  0.70230006E-04 -0.94901915E-03 -0.14290006E-02
 -0.72940828E-03 -0.19182181E-03 -0.23912672E-02
 -0.13299757E-02 -0.25295336E-03  0.19580050E-02
 -0.62583234E-03  0.10861107E-02  0.87126070E-03
 -0.80965700E-03 -0.12286859E-02 -0.12699828E-02
 -0.13051347E-02  0.76694906E-03  0.91674864E-04
 -0.93087387E-03 -0.20267312E-02  0.11777226E-02
 -0.20956867E-02 -0.24322947E-02  0.72570699E-03
 -0.59023159E-03  0.15825229E-03 -0.74110578E-03
 -0.18298760E-03 -0.34183330E-03 -0.65610821E-03
  0.36368877E-02  0.27343121E-03 -0.19429339E-03
 -0.19968137E-02 -0.13526110E-02  0.10958676E-02
  0.48093008E-03 -0.67294836E-03 -0.56535766E-03
 -0.32503554E-04  0.23603792E-02  0.18353277E-02
 -0.10202948E-02  0.25622566E-02  0.11249174E-02
 -0.14896951E-02  0.44403158E-03 -0.80786709E-04
  0.18021666E-02  0.20201472E-03  0.51625397E-03
 -0.31860423E-02 -0.44280526E-02 -0.19176802E-02
  0.38431412E-03 -0.20740921E-02 -0.51369235E-04
  0.27488424E-02  0.18286459E-02 -0.19666693E-02
  0.70519051E-03  0.10986374E-02 -0.42703344E-02
 -0.14328540E-02  0.10209880E-02  0.38641179E-03
 -0.12503656E-02  0.15975666E-02  0.96508068E-04
 -0.14096709E-02 -0.15115936E-02 -0.11930505E-02
  0.16061107E-02 -0.82526773E-03 -0.30517334E-02
  0.24861692E-02 -0.87470254E-03 -0.10385371E-02
 -0.81190221E-04 -0.46849165E-03 -0.24654658E-02
 -0.74406710E-03  0.15409282E-02  0.83638580E-03
 -0.32308575E-02 -0.16049994E-02 -0.19706178E-02
  0.67720620E-03 -0.31132904E-02 -0.13731193E-02
  0.70660372E-03  0.12583389E-02  0.12595944E-02
 -0.12602940E-02  0.28179315E-02 -0.78120300E-03
 -0.27284817E-02 -0.52280122E-03  0.85794063E-03
  0.14379106E-02  0.14152737E-02 -0.19123158E-02
 
           1
   3.00000000000000     
  0.10000000E+01  0.00000000E+00  0.00000000E+00  0.00000000E+00
  0.88372591E+00  0.52336524E+00  0.98682128E+00
  0.21628870E+00  0.59859564E+00  0.80491759E+00
  0.50383762E-01  0.43012433E+00  0.76974532E+00
  0.13860868E+00  0.71523373E+00  0.82273776E+00
  0.40779339E+00  0.10188314E+00  0.69738669E-01
  0.28212848E+00  0.26093101E+00  0.54372398E+00
  0.94796873E+00  0.47826004E+00  0.69646700E+00
  0.96379129E+00  0.63374532E+00  0.41002185E+00
  0.51250164E+00  0.73362539E+00  0.92546358E+00
  0.16694018E-01  0.63533334E+00  0.17197979E+00
  0.45134825E+00  0.35836086E+00  0.91646722E-01
  0.71560833E+00  0.34813064E+00  0.32859739E+00
  0.27266474E+00  0.94291290E+00  0.59165528E+00
  0.74386848E+00  0.10647691E+00  0.33740056E+00
  0.90365575E+00  0.24511299E+00  0.26399798E+00
  0.19090901E+00  0.82135418E+00  0.65349881E+00
  0.70922134E+00  0.76504863E+00  0.48013227E+00
  0.27985634E+00  0.89809000E+00  0.35776530E+00
  0.31320593E+00  0.38983739E+00  0.98342604E+00
  0.49742642E+00  0.51212709E+00  0.99728922E+00
  0.72342101E+00  0.92832493E+00  0.41796012E+00
  0.92296058E+00  0.79469183E-01  0.18725209E-01
  0.27809619E+00  0.55178861E+00  0.75954095E-01
  0.40237115E+00  0.83275685E+00  0.36413489E+00
  0.78971749E+00  0.30521029E+00  0.68618814E+00
  0.99343333E+00  0.75621273E-01  0.75662398E+00
  0.62856037E+00  0.30199983E+00  0.64228885E+00
  0.96298755E+00  0.84970965E+00  0.69085132E+00
  0.34647261E+00  0.74080964E+00  0.50918973E+00
  0.17318321E-01  0.97549367E+00  0.66187658E+00
  0.25030961E+00  0.96518669E+00  0.92042068E+00
  0.48464602E+00  0.99371351E+00  0.81329618E+00
  0.12402852E+00  0.28269742E+00  0.55866854E+00
  0.31464009E+00  0.25174583E+00  0.97725956E+00
  0.38646814E-01  0.83225967E+00  0.52766595E+00
  0.45540533E+00  0.57625369E+00  0.31599530E+00
  0.47089205E+00  0.18640700E+00  0.87312759E+00
  0.71148372E-01  0.54633720E-05  0.33037596E+00
  0.90680964E+00  0.73961598E+00  0.94887604E+00
  0.98984506E+00  0.63621158E+00  0.80549466E+00
  0.93166070E+00  0.38454345E+00  0.20144604E-02
  0.12893184E+00  0.43594954E+00  0.21309588E-01
  0.51994082E+00  0.56825843E+00  0.79111522E+00
  0.82620917E+00  0.61206536E+00  0.55764855E+00
  0.62434514E+00  0.28330650E-01  0.35073371E+00
  0.58969361E+00  0.47675503E+00  0.25300503E+00
  0.46565240E-02  0.93460165E+00  0.21584990E+00
  0.62551877E+00  0.65475972E+00  0.50230327E+00
  0.79140384E+00  0.44967387E+00  0.84105011E+00
  0.31602674E+00  0.28193142E+00  0.21621349E+00
  0.50570572E+00  0.47749660E+00  0.61400910E+00
  0.52554905E+00  0.75476846E+00  0.78616193E+00
  0.78726506E+00  0.90353780E+00  0.19521518E-01
  0.26394574E+00  0.71703645E+00  0.27087209E+00
  0.33412712E+00  0.99775371E-01  0.82230326E+00
  0.10544076E+00  0.38648061E+00  0.19007518E+00
  0.14479003E+00  0.66193554E-01  0.47974358E+00
  0.17613679E+00  0.11071965E+00  0.47563877E-01
  0.75618702E-01  0.18873116E+00  0.98896749E-01
  0.90183243E+00  0.86388781E+00  0.27814028E+00
  0.77501811E+00  0.68229311E+00  0.23866600E-01
  0.38134141E+00  0.64653353E-01  0.56353993E+00
  0.86687108E-01  0.13035234E+00  0.88972118E+00
  0.37884174E+00  0.62398026E+00  0.66816414E+00