Sb
1.0
       18.8173007965         0.0000000000         0.0000000000
        0.0000000000        18.8173007965         0.0000000000
        0.0000000000         0.0000000000        18.8173007965
   Sb   
  216
Selective dynamics    
Direct
     0.001220000         0.008560000         0.585089982      T   T   T 
     0.569899976         0.783860028         0.312779993      T   T   T 
     0.938889980         0.922290027         0.928340018      T   T   T 
     0.213520005         0.359120011         0.017519999      T   T   T 
     0.803600013         0.957849979         0.854629993      T   T   T 
     0.384169996         0.955789983         0.953639984      T   T   T 
     0.973349988         0.202790007         0.408939987      T   T   T 
     0.772960007         0.221790001         0.712149978      T   T   T 
     0.444429994         0.719250023         0.101839997      T   T   T 
     0.300680012         0.089970000         0.245260000      T   T   T 
     0.329219997         0.760710001         0.338310003      T   T   T 
     0.537039995         0.214100003         0.438430011      T   T   T 
     0.514840007         0.037179999         0.312489986      T   T   T 
     0.488599986         0.843519986         0.979260027      T   T   T 
     0.111510001         0.285189986         0.432489991      T   T   T 
     0.781660020         0.330700010         0.102890000      T   T   T 
     0.506550014         0.713289976         0.633880019      T   T   T 
     0.434709996         0.220660001         0.213560000      T   T   T 
     0.103929996         0.908389986         0.031020001      T   T   T 
     0.846069992         0.119029999         0.853779972      T   T   T 
     0.324429989         0.122769997         0.021180000      T   T   T 
     0.712670028         0.757210016         0.885110021      T   T   T 
     0.787909985         0.973439991         0.652029991      T   T   T 
     0.851540029         0.142550007         0.511860013      T   T   T 
     0.621370018         0.926699996         0.271210015      T   T   T 
     0.974089980         0.398600012         0.026179999      T   T   T 
     0.488819987         0.541989982         0.100429997      T   T   T 
     0.772509992         0.521089971         0.976029992      T   T   T 
     0.805249989         0.967040002         0.318129987      T   T   T 
     0.043770000         0.268090010         0.863059998      T   T   T 
     0.766170025         0.721140027         0.651069999      T   T   T 
     0.972899973         0.473239988         0.216700003      T   T   T 
     0.099650003         0.289290011         0.186780006      T   T   T 
     0.727769971         0.575670004         0.693750024      T   T   T 
     0.343529999         0.372079998         0.865490019      T   T   T 
     0.152309999         0.061840001         0.157240003      T   T   T 
     0.697849989         0.610870004         0.083619997      T   T   T 
     0.285670012         0.132479995         0.664110005      T   T   T 
     0.177959993         0.673340023         0.059200000      T   T   T 
     0.316280007         0.509930015         0.957499981      T   T   T 
     0.624360025         0.939930022         0.449779987      T   T   T 
     0.948270023         0.315230012         0.179660007      T   T   T 
     0.182480007         0.188280001         0.847500026      T   T   T 
     0.118400000         0.786339998         0.895259976      T   T   T 
     0.123910002         0.392369986         0.320549995      T   T   T 
     0.286020011         0.497090012         0.766889989      T   T   T 
     0.767530024         0.429399997         0.277440012      T   T   T 
     0.055420000         0.781790018         0.247060001      T   T   T 
     0.836499989         0.854080021         0.743359983      T   T   T 
     0.764299989         0.849860013         0.198159993      T   T   T 
     0.917859972         0.590059996         0.026079999      T   T   T 
     0.910160005         0.825179994         0.574079990      T   T   T 
     0.183630005         0.717989981         0.732900023      T   T   T 
     0.191719994         0.723540008         0.205669999      T   T   T 
     0.508549988         0.165319994         0.891139984      T   T   T 
     0.811919987         0.708589971         0.018940000      T   T   T 
     0.019950001         0.740029991         0.777369976      T   T   T 
     0.835640013         0.036440000         0.086369999      T   T   T 
     0.599439979         0.690330029         0.968089998      T   T   T 
     0.330089986         0.662249982         0.906149983      T   T   T 
     0.025170000         0.806200027         0.474090010      T   T   T 
     0.576420009         0.686049998         0.185499996      T   T   T 
     0.974669993         0.625469983         0.230389997      T   T   T 
     0.410329998         0.894760013         0.332610011      T   T   T 
     0.059540000         0.509639978         0.092189997      T   T   T 
     0.426239997         0.962040007         0.488480002      T   T   T 
     0.982919991         0.821309984         0.107819997      T   T   T 
     0.398669988         0.150049999         0.357639998      T   T   T 
     0.864629984         0.733470023         0.163350001      T   T   T 
     0.815479994         0.386960000         0.502730012      T   T   T 
     0.909600019         0.209079996         0.640150011      T   T   T 
     0.346709996         0.946479976         0.621630013      T   T   T 
     0.271840006         0.968850017         0.337419987      T   T   T 
     0.407880008         0.308539987         0.005400000      T   T   T 
     0.989600003         0.874440014         0.703079998      T   T   T 
     0.309859991         0.059920002         0.457920015      T   T   T 
     0.817650020         0.506380022         0.400990009      T   T   T 
     0.343650013         0.193110004         0.883509994      T   T   T 
     0.224539995         0.809580028         0.448370010      T   T   T 
     0.296640009         0.060300000         0.803849995      T   T   T 
     0.541869998         0.065870002         0.517740011      T   T   T 
     0.650829971         0.797930002         0.098650001      T   T   T 
     0.341280013         0.973720014         0.109389998      T   T   T 
     0.309570014         0.240950003         0.125819996      T   T   T 
     0.200700000         0.582830012         0.656329989      T   T   T 
     0.412970006         0.584490001         0.795570016      T   T   T 
     0.398719996         0.414779991         0.118359998      T   T   T 
     0.446359992         0.880230010         0.720830023      T   T   T 
     0.082400002         0.280140013         0.028790001      T   T   T 
     0.917829990         0.790180027         0.355729997      T   T   T 
     0.960319996         0.956570029         0.201470003      T   T   T 
     0.565169990         0.956600010         0.647970021      T   T   T 
     0.925320029         0.062109999         0.313670009      T   T   T 
     0.170780003         0.134169996         0.019490000      T   T   T 
     0.405979991         0.242650002         0.573509991      T   T   T 
     0.345759988         0.293300003         0.408510000      T   T   T 
     0.216879994         0.884029984         0.137099996      T   T   T 
     0.992009997         0.427089989         0.874279976      T   T   T 
     0.245879993         0.269670010         0.526899993      T   T   T 
     0.687259972         0.626209974         0.436199993      T   T   T 
     0.257889986         0.313510001         0.279929996      T   T   T 
     0.459850013         0.106780000         0.649600029      T   T   T 
     0.363860011         0.666270018         0.667999983      T   T   T 
     0.489100009         0.524890006         0.934629977      T   T   T 
     0.770950019         0.252860010         0.431879997      T   T   T 
     0.986000001         0.584810019         0.883870006      T   T   T 
     0.220899999         0.423869997         0.552890003      T   T   T 
     0.297690004         0.801289976         0.583739996      T   T   T 
     0.528379977         0.340689987         0.163780004      T   T   T 
     0.811909974         0.686190009         0.506680012      T   T   T 
     0.187490001         0.438540012         0.148949996      T   T   T 
     0.560020030         0.260100007         0.013780000      T   T   T 
     0.803680003         0.171729997         0.253230006      T   T   T 
     0.523509979         0.048730001         0.991829991      T   T   T 
     0.844730020         0.885770023         0.045120001      T   T   T 
     0.562160015         0.923600018         0.126350001      T   T   T 
     0.349790007         0.655569971         0.212050006      T   T   T 
     0.117749996         0.051750001         0.425150007      T   T   T 
     0.551050007         0.315780014         0.729749978      T   T   T 
     0.001260000         0.952049971         0.399520010      T   T   T 
     0.132789999         0.588029981         0.257129997      T   T   T 
     0.938149989         0.635819972         0.379770011      T   T   T 
     0.508790016         0.348589987         0.324090004      T   T   T 
     0.143160000         0.840149999         0.618059993      T   T   T 
     0.269210011         0.856230021         0.907549977      T   T   T 
     0.573170006         0.942950010         0.889750004      T   T   T 
     0.290459991         0.779649973         0.040440001      T   T   T 
     0.703890026         0.890309989         0.961640000      T   T   T 
     0.195879996         0.963699996         0.526950002      T   T   T 
     0.683600008         0.390659988         0.001020000      T   T   T 
     0.724200010         0.056139998         0.423099995      T   T   T 
     0.868990004         0.963970006         0.513040006      T   T   T 
     0.606549978         0.769630015         0.471190006      T   T   T 
     0.721639991         0.746020019         0.307269990      T   T   T 
     0.783280015         0.821850002         0.430620015      T   T   T 
     0.784929991         0.606620014         0.221839994      T   T   T 
     0.663770020         0.990939975         0.762639999      T   T   T 
     0.887920022         0.311060011         0.319840014      T   T   T 
     0.087849997         0.953480005         0.825469971      T   T   T 
     0.203030005         0.177239999         0.340009987      T   T   T 
     0.155330002         0.051970001         0.648389995      T   T   T 
     0.392830014         0.295520008         0.723230004      T   T   T 
     0.021870000         0.032510001         0.080420002      T   T   T 
     0.843010008         0.280149996         0.840560019      T   T   T 
     0.210170001         0.929440022         0.732699990      T   T   T 
     0.965210021         0.431059986         0.388960004      T   T   T 
     0.448159993         0.016500000         0.798420012      T   T   T 
     0.594760001         0.172769994         0.688369989      T   T   T 
     0.648310006         0.133520007         0.825640023      T   T   T 
     0.627460003         0.141460001         0.332679987      T   T   T 
     0.484589994         0.081380002         0.165739998      T   T   T 
     0.842809975         0.609910011         0.822529972      T   T   T 
     0.750129998         0.362699986         0.653850019      T   T   T 
     0.059090000         0.099940002         0.778729975      T   T   T 
     0.693949997         0.296380013         0.875630021      T   T   T 
     0.073210001         0.416469991         0.612810016      T   T   T 
     0.973179996         0.328390002         0.507099986      T   T   T 
     0.076449998         0.154379994         0.256509990      T   T   T 
     0.614690006         0.130899996         0.092869997      T   T   T 
     0.681429982         0.250340015         0.193340003      T   T   T 
     0.730620027         0.041630000         0.201859996      T   T   T 
     0.830659986         0.450129986         0.825940013      T   T   T 
     0.665319979         0.325439990         0.331880003      T   T   T 
     0.074150003         0.524439991         0.726459980      T   T   T 
     0.161170006         0.488880008         0.947179973      T   T   T 
     0.017759999         0.716260016         0.995850027      T   T   T 
     0.008300000         0.539709985         0.519410014      T   T   T 
     0.650699973         0.538820028         0.274780005      T   T   T 
     0.328949988         0.773850024         0.778150022      T   T   T 
     0.088830002         0.682720006         0.371939987      T   T   T 
     0.870790005         0.529470026         0.593400002      T   T   T 
     0.496430010         0.381300002         0.885429978      T   T   T 
     0.919080019         0.165900007         0.146750003      T   T   T 
     0.704379976         0.105260000         0.579029977      T   T   T 
     0.841409981         0.486640006         0.132029995      T   T   T 
     0.143439993         0.416509986         0.811600029      T   T   T 
     0.632420003         0.559459984         0.889280021      T   T   T 
     0.911289990         0.772080004         0.894779980      T   T   T 
     0.623359978         0.473820001         0.135879993      T   T   T 
     0.678690016         0.874339998         0.579289973      T   T   T 
     0.456950009         0.791119993         0.510689974      T   T   T 
     0.268660009         0.567650020         0.349339992      T   T   T 
     0.156660005         0.497319996         0.431600004      T   T   T 
     0.429569989         0.861570001         0.175290003      T   T   T 
     0.058520000         0.679539979         0.578230023      T   T   T 
     0.095459998         0.929220021         0.274520010      T   T   T 
     0.062619999         0.143299997         0.536180019      T   T   T 
     0.192019999         0.994319975         0.935769975      T   T   T 
     0.905040026         0.654879987         0.686860025      T   T   T 
     0.218759999         0.263540000         0.718010008      T   T   T 
     0.865649998         0.233510002         0.013560000      T   T   T 
     0.487760007         0.740649998         0.860979974      T   T   T 
     0.680549979         0.423049986         0.783729970      T   T   T 
     0.277790010         0.559570014         0.100550003      T   T   T 
     0.186590001         0.658919990         0.492870003      T   T   T 
     0.989409983         0.130380005         0.916849971      T   T   T 
     0.656310022         0.246720001         0.536800027      T   T   T 
     0.895709991         0.409139991         0.689710021      T   T   T 
     0.758340001         0.126540005         0.984009981      T   T   T 
     0.443239987         0.678089976         0.404509991      T   T   T 
     0.062080000         0.269380003         0.701020002      T   T   T 
     0.179590002         0.643459976         0.870190024      T   T   T 
     0.920099974         0.067730002         0.703530014      T   T   T 
     0.610360026         0.782060027         0.769689977      T   T   T 
     0.409829974         0.410549998         0.349319994      F   F   F 
     0.421000004         0.590610027         0.328860015      F   F   F 
     0.589300036         0.429410011         0.329459995      F   F   F 
     0.409829974         0.579590023         0.509729981      F   F   F 
     0.577870011         0.585940003         0.333779991      F   F   F 
     0.410090029         0.412070006         0.686280012      F   F   F 
     0.421259999         0.423070014         0.505410016      F   F   F 
     0.589300036         0.598450005         0.489879996      F   F   F 
     0.578130007         0.587440014         0.670750022      F   F   F 
     0.421259999         0.592109978         0.665830016      F   F   F 
     0.589560032         0.430909991         0.666419983      F   F   F 
     0.578130007         0.418390006         0.510330021      F   F   F 
