seed=5 POSCAR cation-sublattice shuffle 
   1.00000000000000     
    18.3342833498086186   -0.0688296501848986   -0.0207083384039636
    -0.0647277325110597   18.4862883496387838    0.1751128611346910
    -0.0207840806942963    0.1799554074401322   18.4319401179348645
   Ge   Sb   Te   N 
    43    43   108    10
Direct
  0.1631209901008937  0.1704862581955459  0.6677486950510908
  0.1663316179004326  0.0173993637361590  0.8357943165533094
  0.0036439679169517  0.4816272506265749  0.1602575660093012
  0.1659392667089550  0.6679494020815077  0.5066876366527805
  0.5068751013287484  0.1662970445087278  0.0061374944745061
  0.4979614166229593  0.1599661389207365  0.3384536070076947
  0.4999353030629626  0.0136323834409782  0.5028778472560133
  0.3282370029599694  0.0161141412080282  0.6537212139537742
  0.3451701453913835  0.1750380471871739  0.8375991816778999
  0.3288057184585164  0.5062961429373354  0.5064729675473651
  0.5014871677654749  0.3411479269042241  0.8385877893712164
  0.3235349352367777  0.6694237974932854  0.0057998722592423
  0.3358804523372945  0.8288663709336171  0.1669849280496094
  0.3396779009540396  0.6741743795422728  0.6704006094123393
  0.4927065567271089  0.6794831466812014  0.8326556125884478
  0.6554522866967247  0.1741445246514613  0.5099811321069989
  0.6650921865978972  0.9953025347959924  0.6698314725241072
  0.6673003196650308  0.3217404028399311  0.0060678109087756
  0.6739541280983529  0.6623058800071961  0.3415903161477013
  0.8414705510549003  0.6728509510796464  0.4982708951447944
  0.1613179281935802  0.0027661716552934  0.1636944438408893
  0.1626875372009201  0.1794392003336513  0.3436796506418388
  0.0046745483214251  0.1589920791456975  0.4885289326070004
  0.9849864963612731  0.3424596941137517  0.9994314843191577
  0.1589704701755284  0.3405045865763958  0.5056210108443360
  0.0012750597463499  0.5066131103268617  0.4959706899030395
  0.9959987092815983  0.5200052569751284  0.8275298110475128
  0.9918586629144358  0.6740079691930736  0.0034294705246870
  0.1622366668320925  0.6664236783019205  0.8375343676991310
  0.4919218972977486  0.0045236858673469  0.1761178441657652
  0.3268632824391130  0.9788445024157388  0.3279513278092195
  0.5107393213846241  0.1703246363875527  0.6691412338583835
  0.4941834033799982  0.5099130212298062  0.3353186402727665
  0.6767832179735491  0.1821391576777171  0.8357725938017183
  0.6767564679535746  0.5193198180083324  0.1772868985830873
  0.6720038435087258  0.5102601785317060  0.5049285547201439
  0.6639039016969173  0.5089075330478314  0.8416119987504649
  0.8421918623816818  0.8201085076598960  0.9851472719296566
  0.1804109609274905  0.8182219193158461  0.3336095513179494
  0.4927997205026227  0.3395695459985881  0.5108172141177688
  0.3247706726924304  0.6567363518045575  0.3375388100811528
  0.6652933172703914  0.6554597741867931  0.9959718794033782
  0.8381175923269332  0.8259499200978893  0.6584024907710794
  0.1720108007173593  0.1739888108926610  0.0081138196682871
  0.1549453920451267  0.0043697202353643  0.4957452281082798
  0.9918667973575380  0.9941719308553961  0.6633984338344721
  0.1524428323124169  0.5022901068485782  0.6681002775788408
  0.1604432076625033  0.6504197638878264  0.1783729493070934
  0.9909889021229104  0.6629467995745090  0.6594723573160144
  0.1580791094897495  0.8355735258959398  0.6678892153201423
  0.4955941609700153  0.5010769949223980  0.0025128631109144
  0.5073593119718638  0.3336229638026331  0.1747802514984931
  0.3320342250058324  0.3201924253666605  0.3388241620927081
  0.3072267740448962  0.3415994403208473  0.6751378316964540
  0.3246880589706954  0.5144751047499424  0.8339893944076842
  0.5105756732849531  0.8378270373376876  0.0022748497896382
  0.5139529141200601  0.6712767863478730  0.1668002659723253
  0.5061258440353231  0.6733202080258225  0.4982659028995721
  0.3313609093032147  0.8389586768569370  0.5095893416938535
  0.8286559090523177  0.9962333845847883  0.1725516692572102
  0.8367010346591091  0.0103956026168478  0.8181735189064290
  0.8432928325883596  0.4867503586664623  0.9881222648852540
  0.8293335617814604  0.6665500956954293  0.8345138315329910
  0.6695345855254859  0.8393148889284340  0.8373153167014883
  0.9741688533465344  0.0224253795053855  0.9941006463456709
  0.0011227298093793  0.3356832178382860  0.3215992873390641
  0.1714643982351968  0.8263478245887279  0.0062682130238127
  0.3306938126210030  0.9971397946912830  0.9919240225836322
  0.3275254520497916  0.1620365724366463  0.1766115505974838
  0.4965861158333941  0.0100304872392734  0.8359868969282264
  0.3277387800262717  0.3366149880215188  0.9999594980332583
  0.3252323841988710  0.4974747089008817  0.1759256429505913
  0.5123445882654324  0.5026890685184962  0.6649236987426123
  0.8391224070055290  0.1405082189439999  0.9957382622396606
  0.6598774647464611  0.9941891830890083  0.3266895435406886
  0.8344166017688388  0.1613524122517071  0.3463454936400565
  0.6751356374663289  0.3330486306247226  0.3358663366722118
  0.8415589334081266  0.4914397639766099  0.3368208286565779
  0.6667314108707023  0.3391590559794762  0.6772201083908205
  0.8351378615805324  0.8219813581124468  0.3229643879844939
  0.6862312045846425  0.8460106202170805  0.4983026326080309
  0.0010487286897520  0.9851068086306785  0.3282773359559684
  0.0112475578877112  0.1852817079901576  0.8329965974848375
  0.9904619683992615  0.8299025556417396  0.1610233235881769
  0.5044679941674359  0.8366699713306538  0.6588154042753478
  0.6805712060437575  0.1634303568276332  0.1678951260446543
  0.1653447714617029  0.0005893553951487  0.9980414246713915
  0.0094187096327304  0.1775679102497633  0.0013748561958437
  0.0030336502317374  0.9987565404582487  0.1632671745048684
  0.1666135931854056  0.1616772041606157  0.1682090625694734
  0.1706386370976818  0.9959616581160049  0.3278362826258710
  0.0049996922564879  0.1629546114727265  0.3345742812118862
  0.9986425659439974  0.9938155721332335  0.4985484294662758
  0.1605629054044138  0.1642913625507539  0.4974337742923685
  0.1702823729653375  0.0081902645060229  0.6669382153618917
  0.0081082169318558  0.1864303387818593  0.6608619184338007
  0.0033300300564448  0.0094948597475103  0.8346851359367293
  0.1722660528567233  0.1683028706387260  0.8273330878439310
  0.1640949781049969  0.3385269275082928  0.9961324868162038
  0.0031138791984097  0.4976498452993668  0.0050860706430958
  0.9953167129431812  0.3347949423756491  0.1662505388973795
  0.1618036996956269  0.4966082031137655  0.1765636799346748
  0.1652627430161396  0.3311186407335789  0.3446727709235809
  0.0003494401426502  0.4979507260398501  0.3385060563802041
  0.0072139816514549  0.3179743112421924  0.5199112084853624
  0.1588291267805519  0.4958015984777588  0.5011281332006733
  0.1478697107939040  0.3295043330090588  0.6673599029360160
  0.9915034749142059  0.5030220835462078  0.6716899300372932
  0.0410574908036886  0.3462669694593017  0.8561559681636131
  0.1673110686314860  0.5142103119302517  0.8366859416819827
  0.1664432621428201  0.6649035691408375  0.9936687446420440
  0.9950751352812246  0.8322156587133666  0.9952521040789011
  0.9834107857420120  0.6595039554581171  0.1589474488174542
  0.1715262703802092  0.8344419363007161  0.1642607119732533
  0.1688896660555355  0.6637774985956647  0.3351955074687306
  0.9942289498518596  0.8251491218252671  0.3313879936796509
  0.9990461025320191  0.6581567255804947  0.4946348220247305
  0.1683666253483651  0.8230152945199696  0.4902924526195617
  0.1686128177630848  0.6691511883760609  0.6615785008663049
  0.9981871162052802  0.8400759534858520  0.6981532613234238
  0.0031661161969860  0.6707329036654252  0.8316463231684075
  0.2010566670353316  0.8291187725719310  0.8238840518240376
  0.5019431324854362  0.0031221211216996  0.9975824869103411
  0.3435375408181918  0.1679101847721322  0.9921384249315827
  0.3349992107199858  0.9930892328288309  0.1679566611596081
  0.5022664418695498  0.1595226506628152  0.1616959233107891
  0.4940935713334279  0.0012820760627635  0.3298668208262918
  0.3340771849140580  0.1591533082204619  0.3355186722726936
  0.3412700639990444  0.9984121162750649  0.4973762613348313
  0.4996244484529158  0.1629301136193697  0.4944552454458165
  0.5037307667068813  0.0075354517301473  0.6604983191894241
  0.3333885561053100  0.1727124704316945  0.6450302230290093
  0.3304612393344810  0.0133849908615001  0.8276898330076896
  0.5026086093218844  0.1709358403330939  0.8269088742849036
  0.5075130099488292  0.3259594090018094  0.9945011555800475
  0.3310099620643605  0.5067027292302333  0.9967747327588210
  0.3302565632462174  0.3307078608779370  0.1727031305656727
  0.5031321367424705  0.4998660259225380  0.1686088972622326
  0.5018276479662975  0.3280553571564374  0.3342145264111449
  0.3339064935300538  0.4988126353404401  0.3336232614480834
  0.3312908975788270  0.3094046425380633  0.5140086604035017
  0.4923424047877095  0.4930885579609695  0.4952513763434936
  0.4989982575544268  0.3319671301783360  0.6620371003924886
  0.3308286486913356  0.5017819714462350  0.6599669981958528
  0.3384858020896280  0.3384965458127223  0.8390814064476799
  0.5055946360020770  0.4987888815122309  0.8314167592064927
  0.5017425235761825  0.6657036613756850  0.9950764080379380
  0.3359863262021290  0.8284469264385935  0.0043322487410431
  0.3284536814115900  0.6671430020043160  0.1625655616572667
  0.5066052134070529  0.8332838247205088  0.1814916682394055
  0.4989344621123813  0.6627221861946183  0.3330508705625945
  0.3328225368816881  0.8267928354855817  0.3289530706146879
  0.3278503506408930  0.6565723788732514  0.4949174286007160
  0.5053862457476112  0.8324260752004888  0.4981135354386000
  0.4994166122429391  0.6712762189306614  0.6706202958406167
  0.3335154307640543  0.8309797161549014  0.6714893515259471
  0.3284713179773768  0.6877127139334154  0.8259480933272774
  0.4982686642207164  0.8317972519539831  0.8386760792728626
  0.7967800228189950  0.9814118477488805  0.0059827988151438
  0.6680036237828361  0.1699046844273361  0.9944319367938805
  0.6650788103121256  0.9972132228708052  0.1655465571406881
  0.8385585944983619  0.1614848206902135  0.1649116013265932
  0.8318878670860860  0.9914998284312744  0.3391735409127417
  0.6665348031362133  0.1689643089727006  0.3348670425823966
  0.6784978845955146  0.0113070212873533  0.5017602717094021
  0.8160964125908484  0.1431973495064826  0.5040160374351222
  0.8318830677681602  0.0093744977231235  0.6610392602819726
  0.6645094969387584  0.1679698179922779  0.6664744701876176
  0.6664214680467002  0.0017990468557936  0.8268583922603373
  0.8320355929073190  0.1690410550607971  0.8321747796055730
  0.8373236139026972  0.3303099121313789  0.9743399083967113
  0.6663257133582015  0.5032045861510901  0.9967482922118073
  0.6716628114958195  0.3339884091684574  0.1598541195215521
  0.8456387534070641  0.5283684347552278  0.1742720389454473
  0.8360353344072768  0.3255687852360380  0.3515160982359937
  0.6624528796835991  0.5082311946659581  0.3323333816316981
  0.6651181556021649  0.3281607255364197  0.5003654194752633
  0.8265294303305013  0.5066901478213983  0.5114558985603107
  0.8216104705320093  0.3471032518884283  0.6106682038109240
  0.6714013647299141  0.5012376232026244  0.6625722506171116
  0.6716608336857109  0.3361011127045654  0.8351183762966682
  0.8386473658543969  0.5037038264091969  0.8301572303850530
  0.8338843047347745  0.6675560048691291  0.9983828186366684
  0.6744038323518117  0.8406185062347354  0.0041252767803823
  0.6718352301578451  0.6687504683309066  0.1635717592204787
  0.8303919444227379  0.8272008179741026  0.1621060970500835
  0.8319367534538822  0.6592395579967564  0.3429802967808546
  0.6458177687831361  0.8330042673152086  0.3185287210738961
  0.6696088681740076  0.6647331960674142  0.4972544467268776
  0.8436058523944817  0.8330024279213839  0.5019228482337270
  0.8313867297227372  0.6731186626260749  0.6645297092503838
  0.6737825818479917  0.8381703947370669  0.6630118764559320
  0.6627448139781115  0.6638857617483964  0.8340933528987742
  0.8341900238359581  0.8353898941270784  0.8329277779183413
  0.5388681808555905  0.8302102141076608  0.2891558097233071
  0.7889749789763556  0.0362566191189466  0.5151597691023156
  0.0190925182057314  0.2950732839123594  0.6298821523337753
  0.1474820535427233  0.3545895146656195  0.8879585241352108
  0.3387019344568398  0.2006387345066583  0.5361242444232378
  0.3061583307431242  0.8016882528855728  0.8112786967032581
  0.6911023015611879  0.9460425733551192  0.0285518030368469
  0.7781767593700438  0.3193231280891999  0.5168245015254735
  0.8361040699636160  0.4551179454141450  0.6101667107209189
  0.8746833685379826  0.6340907834231846  0.1780472315397653
 
  0.00000000E+00  0.00000000E+00  0.00000000E+00
  0.00000000E+00  0.00000000E+00  0.00000000E+00
  0.00000000E+00  0.00000000E+00  0.00000000E+00
  0.00000000E+00  0.00000000E+00  0.00000000E+00
  0.00000000E+00  0.00000000E+00  0.00000000E+00
  0.00000000E+00  0.00000000E+00  0.00000000E+00
  0.00000000E+00  0.00000000E+00  0.00000000E+00
  0.00000000E+00  0.00000000E+00  0.00000000E+00
  0.00000000E+00  0.00000000E+00  0.00000000E+00
  0.00000000E+00  0.00000000E+00  0.00000000E+00
  0.00000000E+00  0.00000000E+00  0.00000000E+00
  0.00000000E+00  0.00000000E+00  0.00000000E+00
  0.00000000E+00  0.00000000E+00  0.00000000E+00
  0.00000000E+00  0.00000000E+00  0.00000000E+00
  0.00000000E+00  0.00000000E+00  0.00000000E+00
  0.00000000E+00  0.00000000E+00  0.00000000E+00
  0.00000000E+00  0.00000000E+00  0.00000000E+00
  0.00000000E+00  0.00000000E+00  0.00000000E+00
  0.00000000E+00  0.00000000E+00  0.00000000E+00
  0.00000000E+00  0.00000000E+00  0.00000000E+00
  0.00000000E+00  0.00000000E+00  0.00000000E+00
  0.00000000E+00  0.00000000E+00  0.00000000E+00
  0.00000000E+00  0.00000000E+00  0.00000000E+00
  0.00000000E+00  0.00000000E+00  0.00000000E+00
  0.00000000E+00  0.00000000E+00  0.00000000E+00
  0.00000000E+00  0.00000000E+00  0.00000000E+00
  0.00000000E+00  0.00000000E+00  0.00000000E+00
  0.00000000E+00  0.00000000E+00  0.00000000E+00
  0.00000000E+00  0.00000000E+00  0.00000000E+00
  0.00000000E+00  0.00000000E+00  0.00000000E+00
  0.00000000E+00  0.00000000E+00  0.00000000E+00
  0.00000000E+00  0.00000000E+00  0.00000000E+00
  0.00000000E+00  0.00000000E+00  0.00000000E+00
  0.00000000E+00  0.00000000E+00  0.00000000E+00
  0.00000000E+00  0.00000000E+00  0.00000000E+00
  0.00000000E+00  0.00000000E+00  0.00000000E+00
  0.00000000E+00  0.00000000E+00  0.00000000E+00
  0.00000000E+00  0.00000000E+00  0.00000000E+00
  0.00000000E+00  0.00000000E+00  0.00000000E+00
  0.00000000E+00  0.00000000E+00  0.00000000E+00
  0.00000000E+00  0.00000000E+00  0.00000000E+00
  0.00000000E+00  0.00000000E+00  0.00000000E+00
  0.00000000E+00  0.00000000E+00  0.00000000E+00
  0.00000000E+00  0.00000000E+00  0.00000000E+00
  0.00000000E+00  0.00000000E+00  0.00000000E+00
  0.00000000E+00  0.00000000E+00  0.00000000E+00
  0.00000000E+00  0.00000000E+00  0.00000000E+00
  0.00000000E+00  0.00000000E+00  0.00000000E+00
  0.00000000E+00  0.00000000E+00  0.00000000E+00
  0.00000000E+00  0.00000000E+00  0.00000000E+00
  0.00000000E+00  0.00000000E+00  0.00000000E+00
  0.00000000E+00  0.00000000E+00  0.00000000E+00
  0.00000000E+00  0.00000000E+00  0.00000000E+00
  0.00000000E+00  0.00000000E+00  0.00000000E+00
  0.00000000E+00  0.00000000E+00  0.00000000E+00
  0.00000000E+00  0.00000000E+00  0.00000000E+00
  0.00000000E+00  0.00000000E+00  0.00000000E+00
  0.00000000E+00  0.00000000E+00  0.00000000E+00
  0.00000000E+00  0.00000000E+00  0.00000000E+00
  0.00000000E+00  0.00000000E+00  0.00000000E+00
  0.00000000E+00  0.00000000E+00  0.00000000E+00
  0.00000000E+00  0.00000000E+00  0.00000000E+00
  0.00000000E+00  0.00000000E+00  0.00000000E+00
  0.00000000E+00  0.00000000E+00  0.00000000E+00
  0.00000000E+00  0.00000000E+00  0.00000000E+00
  0.00000000E+00  0.00000000E+00  0.00000000E+00
  0.00000000E+00  0.00000000E+00  0.00000000E+00
  0.00000000E+00  0.00000000E+00  0.00000000E+00
  0.00000000E+00  0.00000000E+00  0.00000000E+00
  0.00000000E+00  0.00000000E+00  0.00000000E+00
  0.00000000E+00  0.00000000E+00  0.00000000E+00
  0.00000000E+00  0.00000000E+00  0.00000000E+00
  0.00000000E+00  0.00000000E+00  0.00000000E+00
  0.00000000E+00  0.00000000E+00  0.00000000E+00
  0.00000000E+00  0.00000000E+00  0.00000000E+00
  0.00000000E+00  0.00000000E+00  0.00000000E+00
  0.00000000E+00  0.00000000E+00  0.00000000E+00
  0.00000000E+00  0.00000000E+00  0.00000000E+00
  0.00000000E+00  0.00000000E+00  0.00000000E+00
  0.00000000E+00  0.00000000E+00  0.00000000E+00
  0.00000000E+00  0.00000000E+00  0.00000000E+00
  0.00000000E+00  0.00000000E+00  0.00000000E+00
  0.00000000E+00  0.00000000E+00  0.00000000E+00
  0.00000000E+00  0.00000000E+00  0.00000000E+00
  0.00000000E+00  0.00000000E+00  0.00000000E+00
  0.00000000E+00  0.00000000E+00  0.00000000E+00
  0.00000000E+00  0.00000000E+00  0.00000000E+00
  0.00000000E+00  0.00000000E+00  0.00000000E+00
  0.00000000E+00  0.00000000E+00  0.00000000E+00
  0.00000000E+00  0.00000000E+00  0.00000000E+00
  0.00000000E+00  0.00000000E+00  0.00000000E+00
  0.00000000E+00  0.00000000E+00  0.00000000E+00
  0.00000000E+00  0.00000000E+00  0.00000000E+00
  0.00000000E+00  0.00000000E+00  0.00000000E+00
  0.00000000E+00  0.00000000E+00  0.00000000E+00
  0.00000000E+00  0.00000000E+00  0.00000000E+00
  0.00000000E+00  0.00000000E+00  0.00000000E+00
  0.00000000E+00  0.00000000E+00  0.00000000E+00
  0.00000000E+00  0.00000000E+00  0.00000000E+00
  0.00000000E+00  0.00000000E+00  0.00000000E+00
  0.00000000E+00  0.00000000E+00  0.00000000E+00
  0.00000000E+00  0.00000000E+00  0.00000000E+00
  0.00000000E+00  0.00000000E+00  0.00000000E+00
  0.00000000E+00  0.00000000E+00  0.00000000E+00
  0.00000000E+00  0.00000000E+00  0.00000000E+00
  0.00000000E+00  0.00000000E+00  0.00000000E+00
  0.00000000E+00  0.00000000E+00  0.00000000E+00
  0.00000000E+00  0.00000000E+00  0.00000000E+00
  0.00000000E+00  0.00000000E+00  0.00000000E+00
  0.00000000E+00  0.00000000E+00  0.00000000E+00
  0.00000000E+00  0.00000000E+00  0.00000000E+00
  0.00000000E+00  0.00000000E+00  0.00000000E+00
  0.00000000E+00  0.00000000E+00  0.00000000E+00
  0.00000000E+00  0.00000000E+00  0.00000000E+00
  0.00000000E+00  0.00000000E+00  0.00000000E+00
  0.00000000E+00  0.00000000E+00  0.00000000E+00
  0.00000000E+00  0.00000000E+00  0.00000000E+00
  0.00000000E+00  0.00000000E+00  0.00000000E+00
  0.00000000E+00  0.00000000E+00  0.00000000E+00
  0.00000000E+00  0.00000000E+00  0.00000000E+00
  0.00000000E+00  0.00000000E+00  0.00000000E+00
  0.00000000E+00  0.00000000E+00  0.00000000E+00
  0.00000000E+00  0.00000000E+00  0.00000000E+00
  0.00000000E+00  0.00000000E+00  0.00000000E+00
  0.00000000E+00  0.00000000E+00  0.00000000E+00
  0.00000000E+00  0.00000000E+00  0.00000000E+00
  0.00000000E+00  0.00000000E+00  0.00000000E+00
  0.00000000E+00  0.00000000E+00  0.00000000E+00
  0.00000000E+00  0.00000000E+00  0.00000000E+00
  0.00000000E+00  0.00000000E+00  0.00000000E+00
  0.00000000E+00  0.00000000E+00  0.00000000E+00
  0.00000000E+00  0.00000000E+00  0.00000000E+00
  0.00000000E+00  0.00000000E+00  0.00000000E+00
  0.00000000E+00  0.00000000E+00  0.00000000E+00
  0.00000000E+00  0.00000000E+00  0.00000000E+00
  0.00000000E+00  0.00000000E+00  0.00000000E+00
  0.00000000E+00  0.00000000E+00  0.00000000E+00
  0.00000000E+00  0.00000000E+00  0.00000000E+00
  0.00000000E+00  0.00000000E+00  0.00000000E+00
  0.00000000E+00  0.00000000E+00  0.00000000E+00
  0.00000000E+00  0.00000000E+00  0.00000000E+00
  0.00000000E+00  0.00000000E+00  0.00000000E+00
  0.00000000E+00  0.00000000E+00  0.00000000E+00
  0.00000000E+00  0.00000000E+00  0.00000000E+00
  0.00000000E+00  0.00000000E+00  0.00000000E+00
  0.00000000E+00  0.00000000E+00  0.00000000E+00
  0.00000000E+00  0.00000000E+00  0.00000000E+00
  0.00000000E+00  0.00000000E+00  0.00000000E+00
  0.00000000E+00  0.00000000E+00  0.00000000E+00
  0.00000000E+00  0.00000000E+00  0.00000000E+00
  0.00000000E+00  0.00000000E+00  0.00000000E+00
  0.00000000E+00  0.00000000E+00  0.00000000E+00
  0.00000000E+00  0.00000000E+00  0.00000000E+00
  0.00000000E+00  0.00000000E+00  0.00000000E+00
  0.00000000E+00  0.00000000E+00  0.00000000E+00
  0.00000000E+00  0.00000000E+00  0.00000000E+00
  0.00000000E+00  0.00000000E+00  0.00000000E+00
  0.00000000E+00  0.00000000E+00  0.00000000E+00
  0.00000000E+00  0.00000000E+00  0.00000000E+00
  0.00000000E+00  0.00000000E+00  0.00000000E+00
  0.00000000E+00  0.00000000E+00  0.00000000E+00
  0.00000000E+00  0.00000000E+00  0.00000000E+00
  0.00000000E+00  0.00000000E+00  0.00000000E+00
  0.00000000E+00  0.00000000E+00  0.00000000E+00
  0.00000000E+00  0.00000000E+00  0.00000000E+00
  0.00000000E+00  0.00000000E+00  0.00000000E+00
  0.00000000E+00  0.00000000E+00  0.00000000E+00
  0.00000000E+00  0.00000000E+00  0.00000000E+00
  0.00000000E+00  0.00000000E+00  0.00000000E+00
  0.00000000E+00  0.00000000E+00  0.00000000E+00
  0.00000000E+00  0.00000000E+00  0.00000000E+00
  0.00000000E+00  0.00000000E+00  0.00000000E+00
  0.00000000E+00  0.00000000E+00  0.00000000E+00
  0.00000000E+00  0.00000000E+00  0.00000000E+00
  0.00000000E+00  0.00000000E+00  0.00000000E+00
  0.00000000E+00  0.00000000E+00  0.00000000E+00
  0.00000000E+00  0.00000000E+00  0.00000000E+00
  0.00000000E+00  0.00000000E+00  0.00000000E+00
  0.00000000E+00  0.00000000E+00  0.00000000E+00
  0.00000000E+00  0.00000000E+00  0.00000000E+00
  0.00000000E+00  0.00000000E+00  0.00000000E+00
  0.00000000E+00  0.00000000E+00  0.00000000E+00
  0.00000000E+00  0.00000000E+00  0.00000000E+00
  0.00000000E+00  0.00000000E+00  0.00000000E+00
  0.00000000E+00  0.00000000E+00  0.00000000E+00
  0.00000000E+00  0.00000000E+00  0.00000000E+00
  0.00000000E+00  0.00000000E+00  0.00000000E+00
  0.00000000E+00  0.00000000E+00  0.00000000E+00
  0.00000000E+00  0.00000000E+00  0.00000000E+00
  0.00000000E+00  0.00000000E+00  0.00000000E+00
  0.00000000E+00  0.00000000E+00  0.00000000E+00
  0.00000000E+00  0.00000000E+00  0.00000000E+00
  0.00000000E+00  0.00000000E+00  0.00000000E+00
  0.00000000E+00  0.00000000E+00  0.00000000E+00
  0.00000000E+00  0.00000000E+00  0.00000000E+00
  0.00000000E+00  0.00000000E+00  0.00000000E+00
  0.00000000E+00  0.00000000E+00  0.00000000E+00
  0.00000000E+00  0.00000000E+00  0.00000000E+00
  0.00000000E+00  0.00000000E+00  0.00000000E+00
  0.00000000E+00  0.00000000E+00  0.00000000E+00
  0.00000000E+00  0.00000000E+00  0.00000000E+00
  0.00000000E+00  0.00000000E+00  0.00000000E+00
  0.00000000E+00  0.00000000E+00  0.00000000E+00
  0.00000000E+00  0.00000000E+00  0.00000000E+00
