Te4
1.0
   3.1522016399999999    0.0000000000000000    0.0000000000000000
   0.0000000000000000    4.4566412000000000   -0.0000000000000000
   0.0000000000000000   -0.0000000000000000    9.2140158900000007
Te
4
direct
   0.5000000000000000    0.5206231000000000    0.7500000000000000 Te
   0.5000000000000000    0.4793769000000000    0.2500000000000000 Te
   0.5000000000000000    0.0000000000000000    0.0000000000000000 Te
   0.5000000000000000    0.0000000000000000    0.5000000000000000 Te
