Bi6 Te6                                 
   1.00000000000000     
     2.2430040559433513   -3.8849969864769487    0.0000000000000001
     2.2430040559433513    3.8849969864769487   -0.0000000000000001
     0.0000000000000000    0.0000000000000002   24.7398525283498358
   Bi   Te
     6     6
Direct
  0.6666666666666643  0.3333333333333357  0.4660983469429446
  0.3333333333333357  0.6666666666666643  0.5339016530570555
  0.3333333333333357  0.6666666666666643  0.2918585190458596
  0.6666666666666643  0.3333333333333357  0.7081414809541409
  0.0000000000000000  0.0000000000000000  0.8719012835041920
  0.0000000000000000  0.0000000000000000  0.1280987164958084
  0.3333333333333357  0.6666666666666643  0.0593552825774246
  0.6666666666666643  0.3333333333333357  0.9406447174225754
  0.0000000000000000  0.0000000000000000  0.6383377956274326
  0.0000000000000000  0.0000000000000000  0.3616622043725675
  0.6666666666666643  0.3333333333333357  0.2106629079452701
  0.3333333333333357  0.6666666666666643  0.7893370920547301
 
  0.00000000E+00  0.00000000E+00  0.00000000E+00
  0.00000000E+00  0.00000000E+00  0.00000000E+00
  0.00000000E+00  0.00000000E+00  0.00000000E+00
  0.00000000E+00  0.00000000E+00  0.00000000E+00
  0.00000000E+00  0.00000000E+00  0.00000000E+00
  0.00000000E+00  0.00000000E+00  0.00000000E+00
  0.00000000E+00  0.00000000E+00  0.00000000E+00
  0.00000000E+00  0.00000000E+00  0.00000000E+00
  0.00000000E+00  0.00000000E+00  0.00000000E+00
  0.00000000E+00  0.00000000E+00  0.00000000E+00
  0.00000000E+00  0.00000000E+00  0.00000000E+00
  0.00000000E+00  0.00000000E+00  0.00000000E+00
