Sb1
1.0
   3.6466932600000002   -0.0000000100000000    0.8357868500000000
   1.8233471200000000    2.6469237799999998    0.4178939200000000
   1.2304639300000000   -0.0000000100000000    2.9976861900000000
Sb
1
direct
   0.0175750000000000    0.9982540000000000    0.0020330000000000 Sb
