Sb                                      
   1.00000000000000     
    18.9953272448789647    0.0000000000000000    0.0000000000000000
     0.0000000000000000   18.9953272448789647    0.0000000000000000
     0.0000000000000000    0.0000000000000000   18.9953272448789647
   Sb
   216
Direct
  0.0739049740000000  0.9215237900000000  0.5072585500000000
  0.5905288300000000  0.7728479100000000  0.3271720300000000
  0.0983362590000000  0.9286591500000000  0.9972950400000000
  0.2590319400000000  0.4191581000000000  0.0122539800000000
  0.7710052300000000  0.9328770500000000  0.9966966300000000
  0.2703594400000000  0.0976624780000000  0.3348120500000000
  0.7497809000000000  0.9212998700000000  0.6713037200000000
  0.7465483000000001  0.4076594000000000  0.6761664300000000
  0.5826445200000000  0.5657045100000000  0.0089667141000000
  0.0893086780000000  0.0790038820000000  0.3325053100000000
  0.0986376260000000  0.7557051400000000  0.5081958600000001
  0.5726609000000000  0.2675462100000000  0.5017483600000000
  0.2583630700000000  0.9371180000000000  0.5064709900000000
  0.6129186500000000  0.9277995000000000  0.1615323100000000
  0.2540064700000000  0.2506662900000000  0.3460970300000000
  0.7453798000000000  0.4167082400000000  0.9934859200000000
  0.2441277000000000  0.9193364400000000  0.6665118900000000
  0.4163443000000000  0.0888962370000000  0.4937880000000000
  0.0870587910000000  0.7570356400000000  0.8378091100000000
  0.5683273300000000  0.0588986440000000  0.8296176300000000
  0.2567489800000000  0.7562084800000000  0.0008350394300000
  0.5649489500000000  0.7466520200000000  0.8530960000000000
  0.7613375500000000  0.9175164700000000  0.8352735000000000
  0.7253351600000000  0.0765006130000000  0.6676630099999999
  0.4241158500000000  0.9171727400000000  0.3361095700000000
  0.0959707230000000  0.2583686200000000  0.3334282300000000
  0.5881632500000000  0.4223179300000000  0.1718024200000000
  0.9352809600000001  0.4336950400000000  0.9980390900000000
  0.9106254000000000  0.5654330700000000  0.3449281400000000
  0.9181179900000001  0.0611195450000000  0.8322625400000000
  0.7656542000000000  0.7601479700000000  0.5058802000000000
  0.9254678600000000  0.2605382400000000  0.1662175700000000
  0.9277617600000000  0.4170512200000000  0.1695824100000000
  0.7541184700000000  0.5917143400000000  0.6656477800000000
  0.4288849700000000  0.2476262300000000  0.8532701900000000
  0.0763154720000000  0.2564514200000000  0.5023743200000000
  0.7704764900000000  0.5896919100000000  0.9862058500000001
  0.0825600290000000  0.0726024880000000  0.6732145600000000
  0.0994773510000000  0.5882696200000000  0.9988232600000000
  0.4286794200000000  0.7513719100000000  0.1761270200000000
  0.4150096700000000  0.9021413100000000  0.5206689900000000
  0.0898128550000000  0.2528287400000000  0.1733018300000000
  0.4299744600000000  0.2387723800000000  0.0102288560000000
  0.0832571430000000  0.9147749700000000  0.8386918700000000
  0.0831931000000000  0.4186238500000000  0.3312798900000000
  0.2358266300000000  0.4105091100000000  0.8313933800000000
  0.7438715299999999  0.2467333700000000  0.3410007400000000
  0.0876357890000000  0.9104618500000000  0.1603744300000000
  0.5818129399999999  0.7621453300000000  0.6744056000000000
  0.0856279870000000  0.7441909900000000  0.3497771700000000
  0.7487181400000000  0.7612066100000000  0.8347350000000000
  0.9049764800000000  0.7464079500000000  0.8355655500000000
  0.0898327680000000  0.4057762400000000  0.0068265316000000
  0.2570213000000000  0.7713200600000000  0.3394340300000000
  0.5778990400000000  0.2397274800000000  0.0013227410000000
  0.7543102300000000  0.7453533000000000  0.0117878160000000
  0.0729400690000000  0.7500611600000000  0.6825112100000000
  0.9357227700000000  0.9331435500000000  0.1528243800000000
  0.9275203300000000  0.9143903700000000  0.9943554200000000
  0.4112011100000000  0.5682943900000000  0.8395872500000000
  0.9204025300000001  0.7555069200000000  0.5120008200000000
  0.7597881700000000  0.5858527100000001  0.3373926700000000
  0.9257973400000000  0.4091472800000000  0.3371083200000000
  0.1048663800000000  0.9125962399999999  0.3222914300000000
  0.0905352600000000  0.5980871800000001  0.3302424600000000
  0.4326214500000000  0.2537500900000000  0.6635080400000000
  0.0710812030000000  0.5943301600000001  0.1702966600000000
  0.2469527500000000  0.2620498800000000  0.5178490600000000
  0.9120414700000000  0.2426602800000000  0.3414974800000000
  0.7379907400000000  0.4210009100000000  0.4914954400000000
  0.7500275199999999  0.2486165700000000  0.6676061599999999
  0.4135488900000000  0.9315513700000000  0.6826576000000000
  0.2408141200000000  0.1053544200000000  0.6752528100000000
  0.4193570500000000  0.3999365500000000  0.0245284810000000
  0.7301515800000000  0.7534873800000000  0.6782583800000000
  0.9090570800000000  0.9262897000000000  0.6508272600000000
  0.9261206100000000  0.6039180200000001  0.5078017000000000
  0.2608299100000000  0.2580001000000000  0.8344791600000000
  0.1002359600000000  0.0986363650000000  0.4928576500000000
  0.9301747299999999  0.0900975190000000  0.1686317500000000
  0.5847413200000000  0.9160756200000000  0.6799672800000000
  0.5872736200000001  0.9236488700000000  0.3440659100000000
  0.2576055400000000  0.9221274699999999  0.3326638100000000
  0.2677065500000000  0.0864449630000000  0.1734851300000000
  0.2441513100000000  0.5751343300000000  0.8355754500000000
  0.4223737700000000  0.4212594700000000  0.8531635900000000
  0.4320074500000000  0.4069787600000000  0.1811358100000000
  0.4142776300000000  0.0852407270000000  0.8391724600000000
  0.9123994100000000  0.2330266800000000  0.0034152469000000
  0.9194049300000000  0.7638920700000000  0.6628669300000000
  0.0972420980000000  0.7655472700000000  0.1667695200000000
  0.5705572600000000  0.0910998850000000  0.6402056699999999
  0.9383118300000000  0.9135873400000000  0.3200012200000000
  0.2685496900000000  0.0827614220000000  0.0147871730000000
  0.4096471100000000  0.2422682400000000  0.5130083900000000
  0.4222013100000000  0.2410283800000000  0.3263424500000000
  0.2656880600000000  0.9217182400000000  0.1693550400000000
  0.9183550500000000  0.2485774000000000  0.8292443100000000
  0.2414547800000000  0.4207640100000000  0.5091080900000000
  0.7456674500000000  0.5677839500000000  0.4914901300000000
  0.2620151400000000  0.2509649500000000  0.1856153000000000
  0.5745733600000000  0.4172712600000000  0.8366560000000000
  0.2609000900000000  0.5750906800000000  0.0150306640000000
  0.5915681800000000  0.5954004600000000  0.1553592500000000
  0.9164636500000000  0.2551559600000000  0.5019539000000000
  0.0890177380000000  0.5943002800000000  0.8319278300000000
  0.2444695200000000  0.4249656100000000  0.6781980800000000
  0.2558777500000000  0.7558534500000000  0.5096972900000000
  0.7697152600000000  0.0971743020000000  0.1524783600000000
  0.8983999400000000  0.0797157100000000  0.5026703500000000
  0.2458449200000000  0.4094216500000000  0.1739078900000000
  0.4152034200000000  0.2347546200000000  0.1749567700000000
  0.7489834500000000  0.0852954710000000  0.5085447000000000
  0.4245994000000000  0.0734455200000000  0.3387608200000000
  0.7447904600000000  0.0764022230000000  0.0039999715000000
  0.4289334000000000  0.9114592100000000  0.1801910700000000
  0.5859940600000000  0.7588180800000000  0.1607297900000000
  0.8998620800000000  0.2612719100000000  0.6725560800000000
  0.5820999700000000  0.4106193200000000  0.9944337700000000
  0.9039070600000000  0.4063900800000000  0.8384799500000000
  0.2338514500000000  0.5778541500000000  0.3323404600000000
  0.7434984800000000  0.7417243400000000  0.3349584000000000
  0.5750051600000000  0.2462932100000000  0.3366262900000000
  0.0839143690000000  0.1008825900000000  0.8366281500000000
  0.2431112600000000  0.7315475700000000  0.8514673100000000
  0.4223288200000000  0.0750456400000000  0.0051414657000000
  0.2566669400000000  0.5974870100000000  0.1664699800000000
  0.9189320600000001  0.6073804400000000  0.1690866400000000
  0.0901099300000000  0.9190489700000000  0.6582102900000000
  0.7596961000000000  0.2462126500000000  0.0038292723000000
  0.7387010800000000  0.9229968700000000  0.5103978900000000
  0.5810320800000000  0.9318040399999999  0.5155821800000000
  0.4234617600000000  0.7564400300000000  0.4996569200000000
  0.5897979000000000  0.7471035700000001  0.4946964000000000
  0.7580694500000000  0.7547212700000000  0.1682496200000000
  0.7466816600000000  0.5709103200000000  0.1621966900000000
  0.5932801400000000  0.9072686400000000  0.8372417500000000
  0.0780299330000000  0.4285759400000000  0.4959299800000000
  0.2582749800000000  0.9090872300000000  0.0013301136000000
  0.2549474100000000  0.0976384700000000  0.5072580300000000
  0.2374216100000000  0.0820298210000000  0.8524939400000000
  0.5950019700000000  0.2519547600000000  0.8395564900000000
  0.0788295860000000  0.7474092100000000  0.0146111420000000
  0.0880763480000000  0.2538502700000000  0.9945834900000000
  0.2590436400000000  0.9158437200000000  0.8373686500000000
  0.0910138030000000  0.5867961600000000  0.4955271900000000
  0.4249517400000000  0.8950269500000000  0.0081615717000000
  0.4154776300000000  0.0823159340000000  0.6884452900000000
  0.5907512100000000  0.0830256850000000  0.9837188300000000
  0.7676484300000000  0.9226356000000000  0.3327472900000000
  0.5793756300000000  0.0774535980000000  0.4861335500000000
  0.9296113200000000  0.5903014200000000  0.8241706900000000
  0.7504909300000000  0.4246613700000000  0.8308338600000000
  0.0783556770000000  0.2493673100000000  0.8242445100000000
  0.7575700600000000  0.2410578300000000  0.8296045800000000
  0.0660997310000000  0.4109747000000000  0.6751749600000000
  0.0983566560000000  0.2564544500000000  0.6648049800000000
  0.1142847600000000  0.0953213160000000  0.1715451800000000
  0.5983296600000000  0.0985088970000000  0.3047493900000000
  0.7617135200000000  0.0796404570000000  0.3332582500000000
  0.9350564500000000  0.7495204700000000  0.3492356900000000
  0.7480782800000000  0.5868013300000000  0.8320829500000000
  0.7429932600000000  0.2440983500000000  0.5056984300000000
  0.2539787200000000  0.2422551900000000  0.0179955720000000
  0.0856464770000000  0.4379864000000000  0.1669485200000000
  0.9283043100000000  0.5885016300000000  0.0034562490000000
  0.9206336100000000  0.9274081500000000  0.4722848500000000
  0.7387093200000000  0.3961709100000000  0.3342472800000000
  0.5943092200000000  0.7478124100000000  0.9950439800000001
  0.0955592300000000  0.5963892600000000  0.6485158700000000
  0.9045606100000000  0.5842654500000000  0.6653909300000000
  0.5917411299999999  0.2585233300000000  0.1695582800000000
  0.9396283700000000  0.0915365140000000  0.3335993800000000
  0.7604826300000000  0.0887112480000000  0.8268885600000000
  0.9276110600000000  0.7550628000000000  0.9940812100000000
  0.9374420600000000  0.0797162490000000  0.9920309100000000
  0.5824422299999999  0.5865337800000000  0.8297371700000000
  0.9109988300000000  0.7540175500000000  0.1844132100000000
  0.7545686200000000  0.2591973200000000  0.1670447800000000
  0.3966794300000000  0.7494852800000000  0.6893003900000000
  0.4098441100000000  0.9026187000000000  0.8533417700000000
  0.2521195500000000  0.6043751900000000  0.4971085900000000
  0.2591206900000000  0.4207767900000000  0.3392738800000000
  0.4158708500000000  0.7357597000000000  0.0264486880000000
  0.2571339500000000  0.5930399000000000  0.6690180200000000
  0.2575766100000000  0.7548101300000000  0.1694347900000000
  0.9344983300000000  0.1041341800000000  0.6740117799999999
  0.4470385000000000  0.0838978820000000  0.1590618000000000
  0.0759381930000000  0.4323510300000000  0.8463167500000000
  0.2536483700000000  0.2626675600000000  0.6818831300000000
  0.6015372500000000  0.0779507570000000  0.1544045700000000
  0.4075456500000000  0.7573154800000000  0.8409018700000001
  0.7693978800000000  0.4244510700000000  0.1500160400000000
  0.4215461400000000  0.5630166400000000  0.1812357700000000
  0.2452616800000000  0.7630412500000000  0.6683713900000000
  0.0853268260000000  0.0864326050000000  0.0035396129000000
  0.5778417600000000  0.2388558000000000  0.6728109000000000
  0.9005069300000000  0.4220386900000000  0.5166176800000000
  0.7660482600000000  0.9111156200000000  0.1794030500000000
  0.4169209800000000  0.7454444800000000  0.3517505300000000
  0.9172671200000000  0.4236474900000000  0.6685903399999999
  0.4173209800000000  0.5624216399999999  0.0079397488000000
  0.9320048500000000  0.9099725200000000  0.8015045700000000
  0.5773503800000001  0.9067892400000001  0.0104932020000000
  0.4098299700000000  0.4105500000000000  0.3493199900000000
  0.4210000000000000  0.5906100300000000  0.3288600100000000
  0.5893000400000000  0.4294100100000000  0.3294600000000000
  0.4098299700000000  0.5795900200000000  0.5097299800000000
  0.5778700100000000  0.5859400000000000  0.3337799900000000
  0.4100900300000000  0.4120700100000000  0.6862800100000001
  0.4212600000000000  0.4230700100000000  0.5054100200000000
  0.5893000400000000  0.5984500000000000  0.4898800000000000
  0.5781300100000000  0.5874400100000000  0.6707500199999999
  0.4212600000000000  0.5921099800000000  0.6658300200000000
  0.5895600300000000  0.4309099900000000  0.6664199800000000
  0.5781300100000000  0.4183900100000000  0.5103300200000001
 
  0.00000000E+00  0.00000000E+00  0.00000000E+00
  0.00000000E+00  0.00000000E+00  0.00000000E+00
  0.00000000E+00  0.00000000E+00  0.00000000E+00
  0.00000000E+00  0.00000000E+00  0.00000000E+00
  0.00000000E+00  0.00000000E+00  0.00000000E+00
  0.00000000E+00  0.00000000E+00  0.00000000E+00
  0.00000000E+00  0.00000000E+00  0.00000000E+00
  0.00000000E+00  0.00000000E+00  0.00000000E+00
  0.00000000E+00  0.00000000E+00  0.00000000E+00
  0.00000000E+00  0.00000000E+00  0.00000000E+00
  0.00000000E+00  0.00000000E+00  0.00000000E+00
  0.00000000E+00  0.00000000E+00  0.00000000E+00
  0.00000000E+00  0.00000000E+00  0.00000000E+00
  0.00000000E+00  0.00000000E+00  0.00000000E+00
  0.00000000E+00  0.00000000E+00  0.00000000E+00
  0.00000000E+00  0.00000000E+00  0.00000000E+00
  0.00000000E+00  0.00000000E+00  0.00000000E+00
  0.00000000E+00  0.00000000E+00  0.00000000E+00
  0.00000000E+00  0.00000000E+00  0.00000000E+00
  0.00000000E+00  0.00000000E+00  0.00000000E+00
  0.00000000E+00  0.00000000E+00  0.00000000E+00
  0.00000000E+00  0.00000000E+00  0.00000000E+00
  0.00000000E+00  0.00000000E+00  0.00000000E+00
  0.00000000E+00  0.00000000E+00  0.00000000E+00
  0.00000000E+00  0.00000000E+00  0.00000000E+00
  0.00000000E+00  0.00000000E+00  0.00000000E+00
  0.00000000E+00  0.00000000E+00  0.00000000E+00
  0.00000000E+00  0.00000000E+00  0.00000000E+00
  0.00000000E+00  0.00000000E+00  0.00000000E+00
  0.00000000E+00  0.00000000E+00  0.00000000E+00
  0.00000000E+00  0.00000000E+00  0.00000000E+00
  0.00000000E+00  0.00000000E+00  0.00000000E+00
  0.00000000E+00  0.00000000E+00  0.00000000E+00
  0.00000000E+00  0.00000000E+00  0.00000000E+00
  0.00000000E+00  0.00000000E+00  0.00000000E+00
  0.00000000E+00  0.00000000E+00  0.00000000E+00
  0.00000000E+00  0.00000000E+00  0.00000000E+00
  0.00000000E+00  0.00000000E+00  0.00000000E+00
  0.00000000E+00  0.00000000E+00  0.00000000E+00
  0.00000000E+00  0.00000000E+00  0.00000000E+00
  0.00000000E+00  0.00000000E+00  0.00000000E+00
  0.00000000E+00  0.00000000E+00  0.00000000E+00
  0.00000000E+00  0.00000000E+00  0.00000000E+00
  0.00000000E+00  0.00000000E+00  0.00000000E+00
  0.00000000E+00  0.00000000E+00  0.00000000E+00
  0.00000000E+00  0.00000000E+00  0.00000000E+00
  0.00000000E+00  0.00000000E+00  0.00000000E+00
  0.00000000E+00  0.00000000E+00  0.00000000E+00
  0.00000000E+00  0.00000000E+00  0.00000000E+00
  0.00000000E+00  0.00000000E+00  0.00000000E+00
  0.00000000E+00  0.00000000E+00  0.00000000E+00
  0.00000000E+00  0.00000000E+00  0.00000000E+00
  0.00000000E+00  0.00000000E+00  0.00000000E+00
  0.00000000E+00  0.00000000E+00  0.00000000E+00
  0.00000000E+00  0.00000000E+00  0.00000000E+00
  0.00000000E+00  0.00000000E+00  0.00000000E+00
  0.00000000E+00  0.00000000E+00  0.00000000E+00
  0.00000000E+00  0.00000000E+00  0.00000000E+00
  0.00000000E+00  0.00000000E+00  0.00000000E+00
  0.00000000E+00  0.00000000E+00  0.00000000E+00
  0.00000000E+00  0.00000000E+00  0.00000000E+00
  0.00000000E+00  0.00000000E+00  0.00000000E+00
  0.00000000E+00  0.00000000E+00  0.00000000E+00
  0.00000000E+00  0.00000000E+00  0.00000000E+00
  0.00000000E+00  0.00000000E+00  0.00000000E+00
  0.00000000E+00  0.00000000E+00  0.00000000E+00
  0.00000000E+00  0.00000000E+00  0.00000000E+00
  0.00000000E+00  0.00000000E+00  0.00000000E+00
  0.00000000E+00  0.00000000E+00  0.00000000E+00
  0.00000000E+00  0.00000000E+00  0.00000000E+00
  0.00000000E+00  0.00000000E+00  0.00000000E+00
  0.00000000E+00  0.00000000E+00  0.00000000E+00
  0.00000000E+00  0.00000000E+00  0.00000000E+00
  0.00000000E+00  0.00000000E+00  0.00000000E+00
  0.00000000E+00  0.00000000E+00  0.00000000E+00
  0.00000000E+00  0.00000000E+00  0.00000000E+00
  0.00000000E+00  0.00000000E+00  0.00000000E+00
  0.00000000E+00  0.00000000E+00  0.00000000E+00
  0.00000000E+00  0.00000000E+00  0.00000000E+00
  0.00000000E+00  0.00000000E+00  0.00000000E+00
  0.00000000E+00  0.00000000E+00  0.00000000E+00
  0.00000000E+00  0.00000000E+00  0.00000000E+00
  0.00000000E+00  0.00000000E+00  0.00000000E+00
  0.00000000E+00  0.00000000E+00  0.00000000E+00
  0.00000000E+00  0.00000000E+00  0.00000000E+00
  0.00000000E+00  0.00000000E+00  0.00000000E+00
  0.00000000E+00  0.00000000E+00  0.00000000E+00
  0.00000000E+00  0.00000000E+00  0.00000000E+00
  0.00000000E+00  0.00000000E+00  0.00000000E+00
  0.00000000E+00  0.00000000E+00  0.00000000E+00
  0.00000000E+00  0.00000000E+00  0.00000000E+00
  0.00000000E+00  0.00000000E+00  0.00000000E+00
  0.00000000E+00  0.00000000E+00  0.00000000E+00
  0.00000000E+00  0.00000000E+00  0.00000000E+00
  0.00000000E+00  0.00000000E+00  0.00000000E+00
  0.00000000E+00  0.00000000E+00  0.00000000E+00
  0.00000000E+00  0.00000000E+00  0.00000000E+00
  0.00000000E+00  0.00000000E+00  0.00000000E+00
  0.00000000E+00  0.00000000E+00  0.00000000E+00
  0.00000000E+00  0.00000000E+00  0.00000000E+00
  0.00000000E+00  0.00000000E+00  0.00000000E+00
  0.00000000E+00  0.00000000E+00  0.00000000E+00
  0.00000000E+00  0.00000000E+00  0.00000000E+00
  0.00000000E+00  0.00000000E+00  0.00000000E+00
  0.00000000E+00  0.00000000E+00  0.00000000E+00
  0.00000000E+00  0.00000000E+00  0.00000000E+00
  0.00000000E+00  0.00000000E+00  0.00000000E+00
  0.00000000E+00  0.00000000E+00  0.00000000E+00
  0.00000000E+00  0.00000000E+00  0.00000000E+00
  0.00000000E+00  0.00000000E+00  0.00000000E+00
  0.00000000E+00  0.00000000E+00  0.00000000E+00
  0.00000000E+00  0.00000000E+00  0.00000000E+00
  0.00000000E+00  0.00000000E+00  0.00000000E+00
  0.00000000E+00  0.00000000E+00  0.00000000E+00
  0.00000000E+00  0.00000000E+00  0.00000000E+00
  0.00000000E+00  0.00000000E+00  0.00000000E+00
  0.00000000E+00  0.00000000E+00  0.00000000E+00
  0.00000000E+00  0.00000000E+00  0.00000000E+00
  0.00000000E+00  0.00000000E+00  0.00000000E+00
  0.00000000E+00  0.00000000E+00  0.00000000E+00
  0.00000000E+00  0.00000000E+00  0.00000000E+00
  0.00000000E+00  0.00000000E+00  0.00000000E+00
  0.00000000E+00  0.00000000E+00  0.00000000E+00
  0.00000000E+00  0.00000000E+00  0.00000000E+00
  0.00000000E+00  0.00000000E+00  0.00000000E+00
  0.00000000E+00  0.00000000E+00  0.00000000E+00
  0.00000000E+00  0.00000000E+00  0.00000000E+00
  0.00000000E+00  0.00000000E+00  0.00000000E+00
  0.00000000E+00  0.00000000E+00  0.00000000E+00
  0.00000000E+00  0.00000000E+00  0.00000000E+00
  0.00000000E+00  0.00000000E+00  0.00000000E+00
  0.00000000E+00  0.00000000E+00  0.00000000E+00
  0.00000000E+00  0.00000000E+00  0.00000000E+00
  0.00000000E+00  0.00000000E+00  0.00000000E+00
  0.00000000E+00  0.00000000E+00  0.00000000E+00
  0.00000000E+00  0.00000000E+00  0.00000000E+00
  0.00000000E+00  0.00000000E+00  0.00000000E+00
  0.00000000E+00  0.00000000E+00  0.00000000E+00
  0.00000000E+00  0.00000000E+00  0.00000000E+00
  0.00000000E+00  0.00000000E+00  0.00000000E+00
  0.00000000E+00  0.00000000E+00  0.00000000E+00
  0.00000000E+00  0.00000000E+00  0.00000000E+00
  0.00000000E+00  0.00000000E+00  0.00000000E+00
  0.00000000E+00  0.00000000E+00  0.00000000E+00
  0.00000000E+00  0.00000000E+00  0.00000000E+00
  0.00000000E+00  0.00000000E+00  0.00000000E+00
  0.00000000E+00  0.00000000E+00  0.00000000E+00
  0.00000000E+00  0.00000000E+00  0.00000000E+00
  0.00000000E+00  0.00000000E+00  0.00000000E+00
  0.00000000E+00  0.00000000E+00  0.00000000E+00
  0.00000000E+00  0.00000000E+00  0.00000000E+00
  0.00000000E+00  0.00000000E+00  0.00000000E+00
  0.00000000E+00  0.00000000E+00  0.00000000E+00
  0.00000000E+00  0.00000000E+00  0.00000000E+00
  0.00000000E+00  0.00000000E+00  0.00000000E+00
  0.00000000E+00  0.00000000E+00  0.00000000E+00
  0.00000000E+00  0.00000000E+00  0.00000000E+00
  0.00000000E+00  0.00000000E+00  0.00000000E+00
  0.00000000E+00  0.00000000E+00  0.00000000E+00
  0.00000000E+00  0.00000000E+00  0.00000000E+00
  0.00000000E+00  0.00000000E+00  0.00000000E+00
  0.00000000E+00  0.00000000E+00  0.00000000E+00
  0.00000000E+00  0.00000000E+00  0.00000000E+00
  0.00000000E+00  0.00000000E+00  0.00000000E+00
  0.00000000E+00  0.00000000E+00  0.00000000E+00
  0.00000000E+00  0.00000000E+00  0.00000000E+00
  0.00000000E+00  0.00000000E+00  0.00000000E+00
  0.00000000E+00  0.00000000E+00  0.00000000E+00
  0.00000000E+00  0.00000000E+00  0.00000000E+00
  0.00000000E+00  0.00000000E+00  0.00000000E+00
  0.00000000E+00  0.00000000E+00  0.00000000E+00
  0.00000000E+00  0.00000000E+00  0.00000000E+00
  0.00000000E+00  0.00000000E+00  0.00000000E+00
  0.00000000E+00  0.00000000E+00  0.00000000E+00
  0.00000000E+00  0.00000000E+00  0.00000000E+00
  0.00000000E+00  0.00000000E+00  0.00000000E+00
  0.00000000E+00  0.00000000E+00  0.00000000E+00
  0.00000000E+00  0.00000000E+00  0.00000000E+00
  0.00000000E+00  0.00000000E+00  0.00000000E+00
  0.00000000E+00  0.00000000E+00  0.00000000E+00
  0.00000000E+00  0.00000000E+00  0.00000000E+00
  0.00000000E+00  0.00000000E+00  0.00000000E+00
  0.00000000E+00  0.00000000E+00  0.00000000E+00
  0.00000000E+00  0.00000000E+00  0.00000000E+00
  0.00000000E+00  0.00000000E+00  0.00000000E+00
  0.00000000E+00  0.00000000E+00  0.00000000E+00
  0.00000000E+00  0.00000000E+00  0.00000000E+00
  0.00000000E+00  0.00000000E+00  0.00000000E+00
  0.00000000E+00  0.00000000E+00  0.00000000E+00
  0.00000000E+00  0.00000000E+00  0.00000000E+00
  0.00000000E+00  0.00000000E+00  0.00000000E+00
  0.00000000E+00  0.00000000E+00  0.00000000E+00
  0.00000000E+00  0.00000000E+00  0.00000000E+00
  0.00000000E+00  0.00000000E+00  0.00000000E+00
  0.00000000E+00  0.00000000E+00  0.00000000E+00
  0.00000000E+00  0.00000000E+00  0.00000000E+00
  0.00000000E+00  0.00000000E+00  0.00000000E+00
  0.00000000E+00  0.00000000E+00  0.00000000E+00
  0.00000000E+00  0.00000000E+00  0.00000000E+00
  0.00000000E+00  0.00000000E+00  0.00000000E+00
  0.00000000E+00  0.00000000E+00  0.00000000E+00
  0.00000000E+00  0.00000000E+00  0.00000000E+00
  0.00000000E+00  0.00000000E+00  0.00000000E+00
  0.00000000E+00  0.00000000E+00  0.00000000E+00
  0.00000000E+00  0.00000000E+00  0.00000000E+00
  0.00000000E+00  0.00000000E+00  0.00000000E+00
  0.00000000E+00  0.00000000E+00  0.00000000E+00
  0.00000000E+00  0.00000000E+00  0.00000000E+00
  0.00000000E+00  0.00000000E+00  0.00000000E+00
  0.00000000E+00  0.00000000E+00  0.00000000E+00
  0.00000000E+00  0.00000000E+00  0.00000000E+00
  0.00000000E+00  0.00000000E+00  0.00000000E+00
  0.00000000E+00  0.00000000E+00  0.00000000E+00
  0.00000000E+00  0.00000000E+00  0.00000000E+00
  0.00000000E+00  0.00000000E+00  0.00000000E+00
  0.00000000E+00  0.00000000E+00  0.00000000E+00
 
           1
   4.00000000000000     
  0.10000000E+01  0.00000000E+00  0.00000000E+00  0.00000000E+00
  0.73904974E-01  0.92152379E+00  0.50725855E+00
  0.59052883E+00  0.77284791E+00  0.32717203E+00
  0.98336259E-01  0.92865915E+00  0.99729504E+00
  0.25903194E+00  0.41915810E+00  0.12253980E-01
  0.77100523E+00  0.93287705E+00  0.99669663E+00
  0.27035944E+00  0.97662478E-01  0.33481205E+00
  0.74978090E+00  0.92129987E+00  0.67130372E+00
  0.74654830E+00  0.40765940E+00  0.67616643E+00
  0.58264452E+00  0.56570451E+00  0.89667141E-02
  0.89308678E-01  0.79003882E-01  0.33250531E+00
  0.98637626E-01  0.75570514E+00  0.50819586E+00
  0.57266090E+00  0.26754621E+00  0.50174836E+00
  0.25836307E+00  0.93711800E+00  0.50647099E+00
  0.61291865E+00  0.92779950E+00  0.16153231E+00
  0.25400647E+00  0.25066629E+00  0.34609703E+00
  0.74537980E+00  0.41670824E+00  0.99348592E+00
  0.24412770E+00  0.91933644E+00  0.66651189E+00
  0.41634430E+00  0.88896237E-01  0.49378800E+00
  0.87058791E-01  0.75703564E+00  0.83780911E+00
  0.56832733E+00  0.58898644E-01  0.82961763E+00
  0.25674898E+00  0.75620848E+00  0.83503943E-03
  0.56494895E+00  0.74665202E+00  0.85309600E+00
  0.76133755E+00  0.91751647E+00  0.83527350E+00
  0.72533516E+00  0.76500613E-01  0.66766301E+00
  0.42411585E+00  0.91717274E+00  0.33610957E+00
  0.95970723E-01  0.25836862E+00  0.33342823E+00
  0.58816325E+00  0.42231793E+00  0.17180242E+00
  0.93528096E+00  0.43369504E+00  0.99803909E+00
  0.91062540E+00  0.56543307E+00  0.34492814E+00
  0.91811799E+00  0.61119545E-01  0.83226254E+00
  0.76565420E+00  0.76014797E+00  0.50588020E+00
  0.92546786E+00  0.26053824E+00  0.16621757E+00
  0.92776176E+00  0.41705122E+00  0.16958241E+00
  0.75411847E+00  0.59171434E+00  0.66564778E+00
  0.42888497E+00  0.24762623E+00  0.85327019E+00
  0.76315472E-01  0.25645142E+00  0.50237432E+00
  0.77047649E+00  0.58969191E+00  0.98620585E+00
  0.82560029E-01  0.72602488E-01  0.67321456E+00
  0.99477351E-01  0.58826962E+00  0.99882326E+00
  0.42867942E+00  0.75137191E+00  0.17612702E+00
  0.41500967E+00  0.90214131E+00  0.52066899E+00
  0.89812855E-01  0.25282874E+00  0.17330183E+00
  0.42997446E+00  0.23877238E+00  0.10228856E-01
  0.83257143E-01  0.91477497E+00  0.83869187E+00
  0.83193100E-01  0.41862385E+00  0.33127989E+00
  0.23582663E+00  0.41050911E+00  0.83139338E+00
  0.74387153E+00  0.24673337E+00  0.34100074E+00
  0.87635789E-01  0.91046185E+00  0.16037443E+00
  0.58181294E+00  0.76214533E+00  0.67440560E+00
  0.85627987E-01  0.74419099E+00  0.34977717E+00
  0.74871814E+00  0.76120661E+00  0.83473500E+00
  0.90497648E+00  0.74640795E+00  0.83556555E+00
  0.89832768E-01  0.40577624E+00  0.68265316E-02
  0.25702130E+00  0.77132006E+00  0.33943403E+00
  0.57789904E+00  0.23972748E+00  0.13227410E-02
  0.75431023E+00  0.74535330E+00  0.11787816E-01
  0.72940069E-01  0.75006116E+00  0.68251121E+00
  0.93572277E+00  0.93314355E+00  0.15282438E+00
  0.92752033E+00  0.91439037E+00  0.99435542E+00
  0.41120111E+00  0.56829439E+00  0.83958725E+00
  0.92040253E+00  0.75550692E+00  0.51200082E+00
  0.75978817E+00  0.58585271E+00  0.33739267E+00
  0.92579734E+00  0.40914728E+00  0.33710832E+00
  0.10486638E+00  0.91259624E+00  0.32229143E+00
  0.90535260E-01  0.59808718E+00  0.33024246E+00
  0.43262145E+00  0.25375009E+00  0.66350804E+00
  0.71081203E-01  0.59433016E+00  0.17029666E+00
  0.24695275E+00  0.26204988E+00  0.51784906E+00
  0.91204147E+00  0.24266028E+00  0.34149748E+00
  0.73799074E+00  0.42100091E+00  0.49149544E+00
  0.75002752E+00  0.24861657E+00  0.66760616E+00
  0.41354889E+00  0.93155137E+00  0.68265760E+00
  0.24081412E+00  0.10535442E+00  0.67525281E+00
  0.41935705E+00  0.39993655E+00  0.24528481E-01
  0.73015158E+00  0.75348738E+00  0.67825838E+00
  0.90905708E+00  0.92628970E+00  0.65082726E+00
  0.92612061E+00  0.60391802E+00  0.50780170E+00
  0.26082991E+00  0.25800010E+00  0.83447916E+00
  0.10023596E+00  0.98636365E-01  0.49285765E+00
  0.93017473E+00  0.90097519E-01  0.16863175E+00
  0.58474132E+00  0.91607562E+00  0.67996728E+00
  0.58727362E+00  0.92364887E+00  0.34406591E+00
  0.25760554E+00  0.92212747E+00  0.33266381E+00
  0.26770655E+00  0.86444963E-01  0.17348513E+00
  0.24415131E+00  0.57513433E+00  0.83557545E+00
  0.42237377E+00  0.42125947E+00  0.85316359E+00
  0.43200745E+00  0.40697876E+00  0.18113581E+00
  0.41427763E+00  0.85240727E-01  0.83917246E+00
  0.91239941E+00  0.23302668E+00  0.34152469E-02
  0.91940493E+00  0.76389207E+00  0.66286693E+00
  0.97242098E-01  0.76554727E+00  0.16676952E+00
  0.57055726E+00  0.91099885E-01  0.64020567E+00
  0.93831183E+00  0.91358734E+00  0.32000122E+00
  0.26854969E+00  0.82761422E-01  0.14787173E-01
  0.40964711E+00  0.24226824E+00  0.51300839E+00
  0.42220131E+00  0.24102838E+00  0.32634245E+00
  0.26568806E+00  0.92171824E+00  0.16935504E+00
  0.91835505E+00  0.24857740E+00  0.82924431E+00
  0.24145478E+00  0.42076401E+00  0.50910809E+00
  0.74566745E+00  0.56778395E+00  0.49149013E+00
  0.26201514E+00  0.25096495E+00  0.18561530E+00
  0.57457336E+00  0.41727126E+00  0.83665600E+00
  0.26090009E+00  0.57509068E+00  0.15030664E-01
  0.59156818E+00  0.59540046E+00  0.15535925E+00
  0.91646365E+00  0.25515596E+00  0.50195390E+00
  0.89017738E-01  0.59430028E+00  0.83192783E+00
  0.24446952E+00  0.42496561E+00  0.67819808E+00
  0.25587775E+00  0.75585345E+00  0.50969729E+00
  0.76971526E+00  0.97174302E-01  0.15247836E+00
  0.89839994E+00  0.79715710E-01  0.50267035E+00
  0.24584492E+00  0.40942165E+00  0.17390789E+00
  0.41520342E+00  0.23475462E+00  0.17495677E+00
  0.74898345E+00  0.85295471E-01  0.50854470E+00
  0.42459940E+00  0.73445520E-01  0.33876082E+00
  0.74479046E+00  0.76402223E-01  0.39999715E-02
  0.42893340E+00  0.91145921E+00  0.18019107E+00
  0.58599406E+00  0.75881808E+00  0.16072979E+00
  0.89986208E+00  0.26127191E+00  0.67255608E+00
  0.58209997E+00  0.41061932E+00  0.99443377E+00