Ge Se                                   
   1.00000000000000     
    19.5652080139291868    0.0000000000000000    0.0000000000000000
     0.0000000000000000   19.5652080139291868    0.0000000000000000
     0.0000000000000000    0.0000000000000000   19.5652080139291868
   Ge   Se
   270    30
Direct
  0.7804786942107016  0.9568888401626956  0.1892396385035306
  0.5143904769890504  0.9463172169084867  0.5611270375134242
  0.4152021595268801  0.1685898064068189  0.1601484611254908
  0.1906824951862585  0.7208489825991865  0.6005381841737140
  0.1300775031292078  0.7743958859195550  0.2263973745542170
  0.3408496946251880  0.1461169287499417  0.9668116601440431
  0.1926796088403533  0.9047605456049390  0.7333399672229880
  0.3098006465671124  0.2827600566882666  0.7749296068407204
  0.0308848037860097  0.2921147813979222  0.7528097608059980
  0.3479328073854172  0.4070447203786425  0.7599794764453460
  0.3626765770631302  0.7497572914566042  0.2936535018184164
  0.2990401431141000  0.3340123429221673  0.3865049542260743
  0.5868777193502590  0.0744476838486996  0.2283227085507835
  0.5495118392027531  0.6980264356848260  0.2560392684274094
  0.6444803812818423  0.5087523406914768  0.4366959022476254
  0.4669758425225632  0.6102494352239829  0.6826066958551483
  0.8253741293475209  0.1766753145292464  0.4397471671185962
  0.3454540444234975  0.5649372704379161  0.6579296991878962
  0.9396910971813510  0.7716736416897386  0.9822762231160250
  0.4077350855950900  0.4411591152905393  0.3892728092503325
  0.6780549949102229  0.3689893214719986  0.4297396434325293
  0.4184539113235523  0.5867486345487010  0.1637797821300259
  0.7330834477113628  0.7307672329656865  0.9291045060405548
  0.0945195500132102  0.5896285885932788  0.2219230313730152
  0.6380227483015173  0.6476430152578320  0.8737798597706850
  0.9097533346584538  0.9456971153512700  0.0467765484439939
  0.7017682151084955  0.3513307086612790  0.6444384621795278
  0.4624324772707670  0.1947465964227409  0.6527735707034411
  0.1165969392692214  0.4989070119050070  0.9515658966692976
 -0.0215314237940037  0.8819512436630843  0.2012750831701588
  0.2332425036344126  0.1012539364505349  0.7960647890155644
  0.9755327396039444  0.1950275372237200  0.6877330720166531
  0.4875517391166864  0.2206272572887148  0.3492568085563118
  0.5959101502875300  0.4864061210600226  0.2469416996114595
  0.0352371169621795  0.2452668360428567  0.4396824733504496
  0.3554725105571222  0.9384030121317659  0.3673771625741384
  0.0322167030101397  0.0709994593641265 -0.0018053953196219
  0.0652426852006219  0.7440038504814925  0.0214588159481423
  0.7696898449551932  0.0942630990281727  0.6825867628433967
  0.2198077492456337  0.4150346235364724  0.3200816372560795
  0.6114348817721704  0.1319270031321371  0.5487043446992269
  0.9072782146596896  0.6894331430860492  0.6481499465674858
  0.6363567977986030  0.8901067611708876  0.4076841114915702
  0.2439409914723785  0.9345509524877460  0.8615298935271016
  0.9815593035075416  0.4453207867028915  0.0862168985769940
  0.6194846558165873  0.2859631436799943  0.7187226479932672
  0.6411127068964981  0.4151348933832529  0.5497289423375348
  0.0594374878804923  0.8333577244368308  0.4669023415474890
  0.8991482067164390  0.0923700907915080  0.7225173452480060
  0.0246718796854811  0.4200140947927527  0.2998899275718883
  0.5903057662365755  0.1978347410845127  0.2764492024406430
  0.7116825854057818  0.4341624662324951  0.2687182279256033
  0.7473733732121431  0.5469359630141474  0.1973512728529563
  0.7026923351753162  0.7574924181858085  0.1923260821254480
  0.0617342758704276  0.6929977477586888  0.1457298375317012
  0.9001187368379836  0.5599121793988120  0.6268508636867975
  0.7216217424576695  0.7923899494347243  0.8154241883844729
  0.7856618573412169  0.2256059937775467  0.6440419498755893
  0.9682501156017010  0.1352227063585063  0.9077569100362703
  0.7795344389011811  0.1256111670650681  0.9150291732120518
  0.3601881301836364  0.5540758502778095  0.3497874828917916
  0.8973051693294490  0.4456829921759343  0.6891420987698094
  0.5294777999234952  0.3492090968028158  0.1246940510587412
  0.7993232404606118  0.5733471803252810  0.5460283594562442
  0.6164249296125391  0.8880077740586576 -0.0079556435742059
  0.4983009006547422  0.2849594917396940  0.0156728153027588
  0.1994532239245034  0.3631784275139795  0.0978977471138955
  0.9358513204573098  0.3680443948144689  0.5944644356204406
  0.3462142673218261  0.0645253532225232  0.1941398236297247
  0.0413137657936880  0.2501949196070882  0.1085123475354554
  0.9793247155404237  0.4071779857391041  0.7800016025741248
  0.5719675533241564  0.8384535604971853  0.5107609598266192
  0.1411109870682487  0.9905923080500217  0.3083578639811483
  0.7598952090640583  0.4661838985128381  0.3832068166414211
  0.2261268143236745  0.0957353464865698  0.1659991535303088
  0.3749719462946382  0.0347450829621893  0.8460366549920473
  0.2693067367527411  0.4668031627603451  0.0705179703196098
  0.0217656976226259  0.9437265043040490  0.9810063924840265
  0.0667474546617565  0.3641159368779557  0.5940651754417882
  0.7746071518722075  0.8403669021886961  0.1261049776443673
  0.5206140400981293  0.3808885045071225  0.5265881561018684
  0.5885635907736797  0.5234829239681589  0.9050739654373522
  0.0018053185446852  0.0626968457837491  0.5569895357871095
  0.9930332331089249  0.6052551020684170  0.8094841647481504
  0.6956354333454630  0.2690761625221899  0.8185227990913468
  0.4436871397644367  0.4576460302245449  0.0167271223042326
  0.8404132217561128  0.6792687031508056  0.2006462238865221
  0.7521154134455550  0.9136349843896359  0.7854874052032840
  0.6548763433386127  0.9779887908829515  0.1692182055923235
  0.8603845564520312  0.9396709629162630  0.8543236369730757
  0.7758545068286250  0.7326827098472742  0.3023095996497198
  0.1071729658530778  0.1191710874491252  0.7602757302891394
  0.1910739151022837  0.4454273909363833  0.6272598631176520
  0.9059998756854076  0.2438993560047898  0.5931454462666906
  0.1444637221779209  0.3854884831621821  0.2182856815454256
  0.4346117916514952  0.6391591305320117  0.2846960445063340
  0.7131163103849874  0.2847115447538310  0.0296639847959711
  0.6872777362581685  0.1775335999825671  0.3554288854938845
  0.8872443652385997  0.1915736504217266  0.2630792040868208
  0.2810033492834235  0.8726041111435219  0.1734903353460468
  0.0968055971794824  0.7140252124695152  0.5039023808899569
  0.5809401575908707  0.4696213573207669  0.1139019340243932
  0.1282839991056843  0.0145464049761617  0.1348900187591026
  0.7307409878639967  0.7742334198945313  0.5329406713632745
  0.9989608464285157  0.5305178438554049  0.5489059713180058
  0.8286363580519146  0.5723127725215176  0.4174261802381156
  0.9386199960562213  0.4301885712173532  0.4832978757756013
  0.9346854214585075  0.4060049348926184  0.8989544699517205
  0.8800286962802230  0.5539613878887646  0.2092062511615450
  0.2748174178084899  0.5773321995915787  0.4451113668522467
  0.4081026592384261  0.2560443090739891  0.2542131395181246
  0.7297595190773978  0.8345193165532473  0.0053757720951394
  0.9515102438503056  0.3042602551806654  0.2472659632405938
  0.8073382549581253  0.9291629679548985  0.9673212030365776
  0.7431754301227753  0.1547038408493814  0.2174854272741952
  0.3566035002823019  0.6665830677164641  0.5022335702355191
  0.4676993774589369  0.6079498529182057  0.5500698420392711
  0.1180486379554240  0.6547412929565287  0.6794199260141931
  0.0783466752754032  0.1810664371092134  0.3348672220336033
  0.3974502167838794  0.1056209676575673  0.5866946538452734
  0.5318066489366988  0.6074052240860366  0.0961424407128722
  0.4500770962656058  0.4860555394920043  0.5037600171991056
  0.9436377007118287  0.5692876687895868  0.0938600241089504
  0.0606685959033471  0.5539028926209598  0.3470885825302873
  0.9775018518147766  0.1073625078328586  0.3043261953272814
  0.6527625974311988  0.1694357616408932  0.0934377007979321
  0.6636191684240025  0.1610743944816599  0.8740074809624248
  0.6677309059036317  0.4947960223431703  0.0099698833676078
  0.7258724773289362  0.5882663847375517  0.0758863020787550
  0.5879423115453707  0.7771301961638226  0.3603883464943819
  0.9120926414256364  0.6793623292230170  0.4398949417575367
  0.7471975750252303  0.3461840392502366  0.9077676660995644
  0.6430942584734382  0.2279720244991058  0.4665287928972706
  0.6891556288815999  0.6849163865633534  0.7541303108472579
  0.9613948948492839  0.9913347838870739  0.6662009618769634
  0.9490398527531412  0.7443062472820554  0.1798908562995924
  0.8331485284633818  0.6979245809344038  0.5438938386450386
  0.2951865350205418  0.5491075157075485  0.8675035146868034
  0.1875580973103396  0.8488295108377526  0.6134282828410973
  0.8601140936458677  0.5167076503200503  0.8918125654785845
  0.6549734809391242  0.7092360989633296  0.4502176774809047
  0.5293057495840571  0.1277270208337701  0.1268704575830509
  0.4461765246667622  0.8533425300494508  0.3145449444712686
  0.3545393296672965  0.9600917922768767  0.1172532819700902
  0.6718340752336260  0.5519068309549188  0.5619450232694507
  0.7222491577887077  0.6351118978931337  0.3712800984879645
  0.4414780419477173  0.3745362123329885  0.2160575219432188
  0.0924491295262865  0.1509101343902787  0.6273053858199057
  0.9636441849460993  0.8652218543030069  0.8927851087394508
  0.7167270999420176  0.0581812690215967  0.3083210177607446
  0.1484362961368374  0.3287894474325825  0.7053904094301738
  0.9425045650699367  0.1743995234210357  0.4911944112306142
  0.9863752266298986  0.1335306276144061  0.1014261566386097
  0.8116076354786688  0.4197230229165054  0.1657391887451245
  0.0937097989495713  0.5321729999135061  0.6413182479546646
  0.3687514896490879  0.0070515194761906  0.6639737328751667
  0.4608928732688270  0.0978770466797563  0.3910657621253402
  0.0839318349976353  0.2697214195026714  0.2312592890679887
  0.3072620286914924  0.9641792957010703 -0.0076010734913780
  0.3151590527078728  0.9719333814456300  0.4900974861599464
  0.1144528371428974  0.3056689482957027  0.0170646900177904
  0.9314968048154262  0.9756888098339701  0.4889568644524753
  0.8729395261057420  0.3975031067174025  0.2974811873742902
  0.8516763516940117  0.6825955651566356  0.9437143434540129
  0.4450676195921077  0.9687706560363530  0.9426715699626518
  0.7511668063980991  0.0377764737772375  0.0030805911553763
  0.9481223568740070  0.7991639960307405  0.4032087321899658
  0.1996129205556862  0.0812695690267462  0.5899654694602446
  0.7850641101540666  0.9561693915120079  0.6700213290668949
  0.2128193378007558  0.3013912466506727  0.4845025606777030
  0.2390574326002504  0.8687927291493284  0.4962494288009962
  0.0259428420309528  0.7181242583574525  0.6151481929688623
  0.5562198707236246  0.9226936067248940  0.8808839157568111
  0.2867702900671438  0.5041468247777406  0.2593924907327192
  0.4828867009176070  0.7327316157249882  0.1366886983741501
  0.0080053066518384  0.8151287463630331  0.7822386750115810
  0.8313446496974579  0.0350452036997404  0.1026977210044998
  0.3098266667931772  0.7723629066729245  0.4305346972482574
  0.2287061901878101  0.2250930728709416  0.6816671929511444
  0.5748133952853210  0.9370205316315681  0.6826864364275752
  0.3200725155682150  0.4871641711709349  0.5542755998104314
  0.8307476812698552  0.8374327734102776  0.3602185368396082
  0.5486337864993165  0.3156795441252123  0.4162795650463372
  0.0364944472494243  0.4032652162641205  0.9783035877222979
  0.0234215590543978  0.6178468483787660  0.4578660747809409
  0.1518202623654772  0.1030695706010253  0.9738475619703836
  0.2433359506048831  0.0180857900465730  0.6950063903441474
  0.6273629665165859  0.0178325827244147  0.3976522580112392
  0.8976160959138372  0.8281609987449897  0.0938754074848841
  0.2139915416328674  0.2191851130758283  0.2063945638357386
  0.7930513213215736  0.2532007253137515  0.3320384423589359
  0.5915755447308427  0.8117914964710428  0.8226922885646488
  0.9241445641886737  0.5176930542172501  0.3311001417684746
  0.3639670702765372  0.4686416622741839  0.1643597097798351
  0.0324649152156949  0.0204794367427838  0.8066298735717273
  0.1659455384462171  0.4913877803873637  0.8305366898628939
  0.8326333003503581  0.3602320835064254  0.4255007099333468
  0.5439175288974453  0.8395477400147348  0.0908668602328242
  0.2712194396039345  0.2029553646687193  0.8716876534238446
  0.6462666352189822  0.6048752621549776  0.2686464385627499
  0.6899110712470486  0.3897355083650275  0.1052019459486664
  0.1691068858941785  0.5001287852316425  0.4043685990644848
  0.8019174861043089 -0.0083849570632598  0.4925791925024228
  0.5012523541409820  0.0685120118675584  0.5175598889064594
  0.1101902367205050  0.8649884760070596  0.0386305887986298
  0.9325968075328408  0.8523139417506619  0.5315482408174832
  0.0540175832022173  0.8453822705686403  0.6077036475567548
  0.9321018888366218  0.6647630733400193  0.3038624533096952
  0.9370605101001933  0.3284101108563593  0.1224819311924212
  0.1422455847757073  0.9286745719976447  0.4313488691908010
  0.4714913292240030  0.4473933903368304  0.8008088989606559
  0.5044204476703121  0.3357772243217453  0.7426206651587821
  0.8372825266600999  0.2604316440545161  0.0696374206667150
  0.2589472808182849  0.4974850960543478  0.7314868815678383
  0.8763187353827111  0.6649075038723509  0.8177595894418692
  0.3835191165844932  0.2293927089700724  0.0511796268607138
  0.7622057989163541  0.2716587097994541  0.5129760991122628
  0.6586285406848772  0.0993899611798137  0.7593979174277828
  0.8725506766201638  0.2047547701399633  0.9594809861760921
  0.8762048371748034  0.0686843209294350  0.8462564697061058
  0.6201663481673017  0.2694713139684333  0.1737953569884400
  0.6443440919264740  0.4858586115313759  0.6755148637877523
  0.1419353767685078  0.4101787181397609  0.4929915452771668
  0.1534335345597245  0.0265737866681353  0.8710854881968504
  0.8134860008320509  0.0610246853273719  0.3879776064527152
  0.5705500766185114  0.1737788130468430 -0.0237305738080197
  0.7544156217605380  0.8769053780735437  0.4563325725698739
  0.2355070607207412  0.7146459297314457  0.2835831729849860
  0.8745654149765876  0.9208648969484504  0.2730023105162119
  0.2568989482122442  0.0763878891080355  0.0392454845527031
  0.1132246743937716  0.6907828643574010  0.9120422684652851
  0.1508352227203250  0.8862287591396344  0.1609470418068678
  0.3554183586419441  0.3856995581890500  0.6295285344602445
  0.1662632401986008  0.5430096292212947  0.0640328384049515
  0.3557876009494736  0.7649639288804437  0.1648140946577932
  0.6375351014432092 -0.0222650918437866  0.7949668087339800
  0.4655707971458548  0.3203594291142181  0.6224582105478889
  0.2238694508970765  0.6060518710190956  0.2178087890068086
  0.8650533827201421  0.3018014191889380  0.8798982419769023
  0.7869845796475086  0.3991146695805017  0.7301255121437997
  0.7858096784949865  0.4294134582328281  0.0117842500789893
  0.8131038220274237  0.2779290197685934  0.7647487416715468
  0.5109996335111577  0.0386749194754375  0.0358044202592750
  0.0868748958407877  0.4820453538106595  0.1523375545034543
  0.8631023800267380  0.1548667801513520  0.1393144744605137
  0.6490863011587390  0.6934532645078041  0.0842144236792860
  0.1093627100549420  0.2497242536665674  0.5440969688756959
  0.0569534924623501  0.5046181021060210  0.7601086427934343
  0.0738664113522047  0.7043803068748574  0.7891218862316669
  0.8888311643396885  0.7782391277563385  0.7430757254665474
  0.5175102541439935  0.5365511440100209  0.3868174641232112
  0.3081414039558630  0.6510337804130815  0.1256894386722545
  0.7157733819744652  0.0541187077362731  0.5689240196655471
  0.2975088795305309  0.1059130969316286  0.4997636018246847
  0.0616507111337270  0.9188459241381328  0.7240764483783636
  0.7392893068121007  0.3148047995918224  0.2184969493255196
  0.2030522725849662  0.6687906208754129  0.0524321501592176
  0.8400572310179713  0.5733770351112093  0.0141786077685855
  0.4581006088452266  0.1112536653539038  0.9168147586168455
  0.0144137610231183  0.7843218662406493  0.2886517357693356
  0.6447810359754339  0.7317370378876921  0.6344570407961442
  0.0363721873854711  0.3723938308007976  0.4208934529075106
  0.8878796215896556  0.8824526209522582  0.6519875889529835
  0.9237239587698202  0.0043809859128331  0.3600352919459591
  0.6354232217196156  0.0017188697012738  0.0429546624447226
  0.5159830750907791  0.4107846678331470  0.3202236229334565
  0.1546980010006514  0.2216819123620110  0.9265852865885552
  0.5897261208342228  0.6527232746354918  0.5433880895801647
  0.5894103036346756  0.1690064716044855  0.6716759322894050
  0.0586467575591803  0.2055970426823565  0.8438728001554422
  0.2939097139597334  0.2858631626820304  0.1270183884302088
  0.2349885819843565  0.6564999607197607  0.9246666670174609
  0.0298592664007161  0.5919638435058016  0.9353411936471580
  0.2497058838726683  0.9063347032467989  0.3015872664373525
  0.4896947725300558  0.5758638133086438  0.9755944724213831
  0.1772784255027809  0.1070322559614062  0.3538175472062016
  0.4322709889028464  0.2293184312167278  0.7731796898400779
  0.6106007506624557  0.8599507080890203  0.1975233812061490
  0.4779649548089023  0.7929564545489681  0.4282997557362925
  0.5344160463247027  0.7168113298812815  0.8765142784890589
  0.2939387297489728  0.2822569526642844  0.5825371950609255
  0.1145066254788810  0.9954333903611908  0.5385486656487362
  0.4398310518941039 -0.0314853063960942  0.7582895771890701
  0.3910439302112349  0.9131240617167166  0.5790047567657938
  0.5238265908831022  0.0117982008817140  0.3211356581331184
  0.3504120321213650  0.0606198193084585  0.3278271937105779
  0.2192682674443310  0.8610210239393351  0.9731119883979897
  0.2977830054654709  0.2288475338808610  0.3091457246972493
  0.2090068090505247  0.6937967799613380  0.4075293527122337
  0.3195966169274090  0.4527148134858942  0.9550564069271713
  0.3133497383861775  0.6863700473927615  0.6214037936494976
  0.4783739450771823  0.9429254474394554  0.1339112503713791
  0.5118239592915027  0.4875298872572166  0.6755816449641060
  0.7496967669662769  0.4599694279795958  0.8414523064702968
  0.4995786267563636  0.3794159086351023  0.9313048574039932
  0.0154451340074404  0.0509501139223341  0.1937727209907296
  0.1728044702329305  0.3665037909471429  0.8272816559888243
  0.6777118128121364  0.9329024437476189  0.6014950935824670
  0.7875674215009364  0.6078599169122578  0.7482215233261956
  0.5553908423482321  0.8076205693344634  0.6962279449502895
 
  0.00000000E+00  0.00000000E+00  0.00000000E+00
  0.00000000E+00  0.00000000E+00  0.00000000E+00
  0.00000000E+00  0.00000000E+00  0.00000000E+00
  0.00000000E+00  0.00000000E+00  0.00000000E+00
  0.00000000E+00  0.00000000E+00  0.00000000E+00
  0.00000000E+00  0.00000000E+00  0.00000000E+00
  0.00000000E+00  0.00000000E+00  0.00000000E+00
  0.00000000E+00  0.00000000E+00  0.00000000E+00
  0.00000000E+00  0.00000000E+00  0.00000000E+00
  0.00000000E+00  0.00000000E+00  0.00000000E+00
  0.00000000E+00  0.00000000E+00  0.00000000E+00
  0.00000000E+00  0.00000000E+00  0.00000000E+00
  0.00000000E+00  0.00000000E+00  0.00000000E+00
  0.00000000E+00  0.00000000E+00  0.00000000E+00
  0.00000000E+00  0.00000000E+00  0.00000000E+00
  0.00000000E+00  0.00000000E+00  0.00000000E+00
  0.00000000E+00  0.00000000E+00  0.00000000E+00
  0.00000000E+00  0.00000000E+00  0.00000000E+00
  0.00000000E+00  0.00000000E+00  0.00000000E+00
  0.00000000E+00  0.00000000E+00  0.00000000E+00
  0.00000000E+00  0.00000000E+00  0.00000000E+00
  0.00000000E+00  0.00000000E+00  0.00000000E+00
  0.00000000E+00  0.00000000E+00  0.00000000E+00
  0.00000000E+00  0.00000000E+00  0.00000000E+00
  0.00000000E+00  0.00000000E+00  0.00000000E+00
  0.00000000E+00  0.00000000E+00  0.00000000E+00
  0.00000000E+00  0.00000000E+00  0.00000000E+00
  0.00000000E+00  0.00000000E+00  0.00000000E+00
  0.00000000E+00  0.00000000E+00  0.00000000E+00
  0.00000000E+00  0.00000000E+00  0.00000000E+00
  0.00000000E+00  0.00000000E+00  0.00000000E+00
  0.00000000E+00  0.00000000E+00  0.00000000E+00
  0.00000000E+00  0.00000000E+00  0.00000000E+00
  0.00000000E+00  0.00000000E+00  0.00000000E+00
  0.00000000E+00  0.00000000E+00  0.00000000E+00
  0.00000000E+00  0.00000000E+00  0.00000000E+00
  0.00000000E+00  0.00000000E+00  0.00000000E+00
  0.00000000E+00  0.00000000E+00  0.00000000E+00
  0.00000000E+00  0.00000000E+00  0.00000000E+00
  0.00000000E+00  0.00000000E+00  0.00000000E+00
  0.00000000E+00  0.00000000E+00  0.00000000E+00
  0.00000000E+00  0.00000000E+00  0.00000000E+00
  0.00000000E+00  0.00000000E+00  0.00000000E+00
  0.00000000E+00  0.00000000E+00  0.00000000E+00
  0.00000000E+00  0.00000000E+00  0.00000000E+00
  0.00000000E+00  0.00000000E+00  0.00000000E+00
  0.00000000E+00  0.00000000E+00  0.00000000E+00
  0.00000000E+00  0.00000000E+00  0.00000000E+00
  0.00000000E+00  0.00000000E+00  0.00000000E+00
  0.00000000E+00  0.00000000E+00  0.00000000E+00
  0.00000000E+00  0.00000000E+00  0.00000000E+00
  0.00000000E+00  0.00000000E+00  0.00000000E+00
  0.00000000E+00  0.00000000E+00  0.00000000E+00
  0.00000000E+00  0.00000000E+00  0.00000000E+00
  0.00000000E+00  0.00000000E+00  0.00000000E+00
  0.00000000E+00  0.00000000E+00  0.00000000E+00
  0.00000000E+00  0.00000000E+00  0.00000000E+00
  0.00000000E+00  0.00000000E+00  0.00000000E+00
  0.00000000E+00  0.00000000E+00  0.00000000E+00
  0.00000000E+00  0.00000000E+00  0.00000000E+00
  0.00000000E+00  0.00000000E+00  0.00000000E+00
  0.00000000E+00  0.00000000E+00  0.00000000E+00
  0.00000000E+00  0.00000000E+00  0.00000000E+00
  0.00000000E+00  0.00000000E+00  0.00000000E+00
  0.00000000E+00  0.00000000E+00  0.00000000E+00
  0.00000000E+00  0.00000000E+00  0.00000000E+00
  0.00000000E+00  0.00000000E+00  0.00000000E+00
  0.00000000E+00  0.00000000E+00  0.00000000E+00
  0.00000000E+00  0.00000000E+00  0.00000000E+00
  0.00000000E+00  0.00000000E+00  0.00000000E+00
  0.00000000E+00  0.00000000E+00  0.00000000E+00
  0.00000000E+00  0.00000000E+00  0.00000000E+00
  0.00000000E+00  0.00000000E+00  0.00000000E+00
  0.00000000E+00  0.00000000E+00  0.00000000E+00
  0.00000000E+00  0.00000000E+00  0.00000000E+00
  0.00000000E+00  0.00000000E+00  0.00000000E+00
  0.00000000E+00  0.00000000E+00  0.00000000E+00
  0.00000000E+00  0.00000000E+00  0.00000000E+00
  0.00000000E+00  0.00000000E+00  0.00000000E+00
  0.00000000E+00  0.00000000E+00  0.00000000E+00
  0.00000000E+00  0.00000000E+00  0.00000000E+00
  0.00000000E+00  0.00000000E+00  0.00000000E+00
  0.00000000E+00  0.00000000E+00  0.00000000E+00
  0.00000000E+00  0.00000000E+00  0.00000000E+00
  0.00000000E+00  0.00000000E+00  0.00000000E+00
  0.00000000E+00  0.00000000E+00  0.00000000E+00
  0.00000000E+00  0.00000000E+00  0.00000000E+00
  0.00000000E+00  0.00000000E+00  0.00000000E+00
  0.00000000E+00  0.00000000E+00  0.00000000E+00
  0.00000000E+00  0.00000000E+00  0.00000000E+00
  0.00000000E+00  0.00000000E+00  0.00000000E+00
  0.00000000E+00  0.00000000E+00  0.00000000E+00
  0.00000000E+00  0.00000000E+00  0.00000000E+00
  0.00000000E+00  0.00000000E+00  0.00000000E+00
  0.00000000E+00  0.00000000E+00  0.00000000E+00
  0.00000000E+00  0.00000000E+00  0.00000000E+00
  0.00000000E+00  0.00000000E+00  0.00000000E+00
  0.00000000E+00  0.00000000E+00  0.00000000E+00
  0.00000000E+00  0.00000000E+00  0.00000000E+00
  0.00000000E+00  0.00000000E+00  0.00000000E+00
  0.00000000E+00  0.00000000E+00  0.00000000E+00
  0.00000000E+00  0.00000000E+00  0.00000000E+00
  0.00000000E+00  0.00000000E+00  0.00000000E+00
  0.00000000E+00  0.00000000E+00  0.00000000E+00
  0.00000000E+00  0.00000000E+00  0.00000000E+00
  0.00000000E+00  0.00000000E+00  0.00000000E+00
  0.00000000E+00  0.00000000E+00  0.00000000E+00
  0.00000000E+00  0.00000000E+00  0.00000000E+00
  0.00000000E+00  0.00000000E+00  0.00000000E+00
  0.00000000E+00  0.00000000E+00  0.00000000E+00
  0.00000000E+00  0.00000000E+00  0.00000000E+00
  0.00000000E+00  0.00000000E+00  0.00000000E+00
  0.00000000E+00  0.00000000E+00  0.00000000E+00
  0.00000000E+00  0.00000000E+00  0.00000000E+00
  0.00000000E+00  0.00000000E+00  0.00000000E+00
  0.00000000E+00  0.00000000E+00  0.00000000E+00
  0.00000000E+00  0.00000000E+00  0.00000000E+00
  0.00000000E+00  0.00000000E+00  0.00000000E+00
  0.00000000E+00  0.00000000E+00  0.00000000E+00
  0.00000000E+00  0.00000000E+00  0.00000000E+00
  0.00000000E+00  0.00000000E+00  0.00000000E+00
  0.00000000E+00  0.00000000E+00  0.00000000E+00
  0.00000000E+00  0.00000000E+00  0.00000000E+00
  0.00000000E+00  0.00000000E+00  0.00000000E+00
  0.00000000E+00  0.00000000E+00  0.00000000E+00
  0.00000000E+00  0.00000000E+00  0.00000000E+00
  0.00000000E+00  0.00000000E+00  0.00000000E+00
  0.00000000E+00  0.00000000E+00  0.00000000E+00
  0.00000000E+00  0.00000000E+00  0.00000000E+00
  0.00000000E+00  0.00000000E+00  0.00000000E+00
  0.00000000E+00  0.00000000E+00  0.00000000E+00
  0.00000000E+00  0.00000000E+00  0.00000000E+00
  0.00000000E+00  0.00000000E+00  0.00000000E+00
  0.00000000E+00  0.00000000E+00  0.00000000E+00
  0.00000000E+00  0.00000000E+00  0.00000000E+00
  0.00000000E+00  0.00000000E+00  0.00000000E+00
  0.00000000E+00  0.00000000E+00  0.00000000E+00
  0.00000000E+00  0.00000000E+00  0.00000000E+00
  0.00000000E+00  0.00000000E+00  0.00000000E+00
  0.00000000E+00  0.00000000E+00  0.00000000E+00
  0.00000000E+00  0.00000000E+00  0.00000000E+00
  0.00000000E+00  0.00000000E+00  0.00000000E+00
  0.00000000E+00  0.00000000E+00  0.00000000E+00
  0.00000000E+00  0.00000000E+00  0.00000000E+00
  0.00000000E+00  0.00000000E+00  0.00000000E+00
  0.00000000E+00  0.00000000E+00  0.00000000E+00
  0.00000000E+00  0.00000000E+00  0.00000000E+00
  0.00000000E+00  0.00000000E+00  0.00000000E+00
  0.00000000E+00  0.00000000E+00  0.00000000E+00
  0.00000000E+00  0.00000000E+00  0.00000000E+00
  0.00000000E+00  0.00000000E+00  0.00000000E+00
  0.00000000E+00  0.00000000E+00  0.00000000E+00
  0.00000000E+00  0.00000000E+00  0.00000000E+00
  0.00000000E+00  0.00000000E+00  0.00000000E+00
  0.00000000E+00  0.00000000E+00  0.00000000E+00
  0.00000000E+00  0.00000000E+00  0.00000000E+00
  0.00000000E+00  0.00000000E+00  0.00000000E+00
  0.00000000E+00  0.00000000E+00  0.00000000E+00
  0.00000000E+00  0.00000000E+00  0.00000000E+00
  0.00000000E+00  0.00000000E+00  0.00000000E+00
  0.00000000E+00  0.00000000E+00  0.00000000E+00
  0.00000000E+00  0.00000000E+00  0.00000000E+00
  0.00000000E+00  0.00000000E+00  0.00000000E+00
  0.00000000E+00  0.00000000E+00  0.00000000E+00
  0.00000000E+00  0.00000000E+00  0.00000000E+00
  0.00000000E+00  0.00000000E+00  0.00000000E+00
  0.00000000E+00  0.00000000E+00  0.00000000E+00
  0.00000000E+00  0.00000000E+00  0.00000000E+00
  0.00000000E+00  0.00000000E+00  0.00000000E+00
  0.00000000E+00  0.00000000E+00  0.00000000E+00
  0.00000000E+00  0.00000000E+00  0.00000000E+00
  0.00000000E+00  0.00000000E+00  0.00000000E+00
  0.00000000E+00  0.00000000E+00  0.00000000E+00
  0.00000000E+00  0.00000000E+00  0.00000000E+00
  0.00000000E+00  0.00000000E+00  0.00000000E+00
  0.00000000E+00  0.00000000E+00  0.00000000E+00
  0.00000000E+00  0.00000000E+00  0.00000000E+00
  0.00000000E+00  0.00000000E+00  0.00000000E+00
  0.00000000E+00  0.00000000E+00  0.00000000E+00
  0.00000000E+00  0.00000000E+00  0.00000000E+00
  0.00000000E+00  0.00000000E+00  0.00000000E+00
  0.00000000E+00  0.00000000E+00  0.00000000E+00
  0.00000000E+00  0.00000000E+00  0.00000000E+00
  0.00000000E+00  0.00000000E+00  0.00000000E+00
  0.00000000E+00  0.00000000E+00  0.00000000E+00
  0.00000000E+00  0.00000000E+00  0.00000000E+00
  0.00000000E+00  0.00000000E+00  0.00000000E+00
  0.00000000E+00  0.00000000E+00  0.00000000E+00
  0.00000000E+00  0.00000000E+00  0.00000000E+00
  0.00000000E+00  0.00000000E+00  0.00000000E+00
  0.00000000E+00  0.00000000E+00  0.00000000E+00
  0.00000000E+00  0.00000000E+00  0.00000000E+00
  0.00000000E+00  0.00000000E+00  0.00000000E+00
  0.00000000E+00  0.00000000E+00  0.00000000E+00
  0.00000000E+00  0.00000000E+00  0.00000000E+00
  0.00000000E+00  0.00000000E+00  0.00000000E+00
  0.00000000E+00  0.00000000E+00  0.00000000E+00
  0.00000000E+00  0.00000000E+00  0.00000000E+00
  0.00000000E+00  0.00000000E+00  0.00000000E+00
  0.00000000E+00  0.00000000E+00  0.00000000E+00
  0.00000000E+00  0.00000000E+00  0.00000000E+00
  0.00000000E+00  0.00000000E+00  0.00000000E+00
  0.00000000E+00  0.00000000E+00  0.00000000E+00
  0.00000000E+00  0.00000000E+00  0.00000000E+00
  0.00000000E+00  0.00000000E+00  0.00000000E+00
  0.00000000E+00  0.00000000E+00  0.00000000E+00
  0.00000000E+00  0.00000000E+00  0.00000000E+00
  0.00000000E+00  0.00000000E+00  0.00000000E+00
  0.00000000E+00  0.00000000E+00  0.00000000E+00
  0.00000000E+00  0.00000000E+00  0.00000000E+00
  0.00000000E+00  0.00000000E+00  0.00000000E+00
  0.00000000E+00  0.00000000E+00  0.00000000E+00
  0.00000000E+00  0.00000000E+00  0.00000000E+00
  0.00000000E+00  0.00000000E+00  0.00000000E+00
  0.00000000E+00  0.00000000E+00  0.00000000E+00
  0.00000000E+00  0.00000000E+00  0.00000000E+00
  0.00000000E+00  0.00000000E+00  0.00000000E+00
  0.00000000E+00  0.00000000E+00  0.00000000E+00
  0.00000000E+00  0.00000000E+00  0.00000000E+00
  0.00000000E+00  0.00000000E+00  0.00000000E+00
  0.00000000E+00  0.00000000E+00  0.00000000E+00
  0.00000000E+00  0.00000000E+00  0.00000000E+00
  0.00000000E+00  0.00000000E+00  0.00000000E+00
  0.00000000E+00  0.00000000E+00  0.00000000E+00
  0.00000000E+00  0.00000000E+00  0.00000000E+00
  0.00000000E+00  0.00000000E+00  0.00000000E+00
  0.00000000E+00  0.00000000E+00  0.00000000E+00
  0.00000000E+00  0.00000000E+00  0.00000000E+00
  0.00000000E+00  0.00000000E+00  0.00000000E+00
  0.00000000E+00  0.00000000E+00  0.00000000E+00
  0.00000000E+00  0.00000000E+00  0.00000000E+00
  0.00000000E+00  0.00000000E+00  0.00000000E+00