Amorphous GeAsSeSi                      
   1.00000000000000     
    18.9300323354591136    0.0000000000000000    0.0000000000000000
     0.0000000000000000   18.9300323354591136    0.0000000000000000
     0.0000000000000000    0.0000000000000000   18.9300323354591136
   Ge   As   S 
   108    24   108
Direct
  0.1810611098268564  0.5342055410071367  0.7585915345477402
  0.0029075934965892  0.1709176681373371  0.9078000884900677
  0.5153943435443543  0.1802535809033293  0.4227686062532294
  0.2949242934393440  0.9496057208617225  0.4072598099024898
  0.9448331418624795  0.3580167998129889  0.9419885733358292
  0.2755570936800542  0.3892993770758137  0.8412212666097524
  0.6999193062973095  0.5563314018426331  0.0125338431122907
  0.2493106455482819  0.6902569245637816  0.1857868543805501
  0.4188386904742968  0.5011799492469907  0.3711604717550880
  0.8457286976803740  0.1007495777331356  0.6910672435517384
  0.9096077492734966  0.8642810258564966  0.1917721588283365
  0.9629710477486940  0.7597485891960705  0.9586176949607419
  0.0752967176343060  0.0611634727574055  0.2660749376012883
  0.8252733411425218  0.0320951493992096  0.5032403285380954
  0.4508420864645208  0.0220441565354519  0.6658028386990151
  0.4180960563521389  0.5668914196637859  0.4967860832962694
  0.0816789812928286  0.3840981544902696  0.4611112111217323
  0.8029094028447809  0.7280147743234051  0.7294140155873353
  0.3483857294236501  0.7686391012519945  0.3291909823929143
  0.0056895215237364  0.7755276851711888  0.5354970606967931
  0.0689609815061265  0.9791819658894463  0.8709691215134926
  0.9225672008865197  0.8768682518062750  0.3921954225095579
  0.5250724217307020  0.5790753942368093  0.9395625581415915
  0.7523071321868596  0.3514533043133287  0.8839954825794152
  0.1793394830392253  0.9515050619928507  0.9994860586896488
  0.2545442035976321  0.4773919441022562  0.5166940978345255
  0.3002851731331267  0.7924100232582423  0.5792843680093962
  0.6807540215344576  0.6277330051897910  0.2059162625781623
  0.4822538902157522  0.9663487833602989  0.3162039318245287
  0.9510121483827128  0.6337904573102855  0.6457226910757156
  0.9835618786806485  0.6467476952252192  0.8457711184992802
  0.6585899892046424  0.3868819586500471  0.1097833642639150
  0.9193744606846187  0.6097440123506594  0.4675438992530771
  0.9378496438597091  0.2402373433674466  0.6055894830715937
  0.4937610052589794  0.2868080538445620  0.6377956418290599
  0.4420442151933766  0.9872475096004379  0.5326756288572366
  0.9074765444004509  0.4825598469957479  0.7774333098858963
  0.3276809984243006  0.8485628993102801  0.1371254093982172
  0.9261176964804483  0.5484471009890740  0.2008647061400705
  0.9560665884054417  0.9722027954590267  0.0119348006993927
  0.1105135371016955  0.5660304172069374  0.1569493776762740
  0.5908675134510342  0.6550211493927386  0.5164445393208148
  0.9358122380759097  0.3768793908789178  0.5796670618984310
  0.7832607679174848  0.7437710884297267  0.5080663584574892
  0.8855000071405191  0.1348779733469367  0.4455322163879700
  0.1578938996616011  0.2495153306484926  0.9795502553093621
  0.0145767164079758  0.0516350742958562  0.5747751507446789
  0.6323651174650362  0.0018823081747957  0.9412276351212546
  0.8374365715038468  0.6907336037148790  0.1097223219306052
  0.6353485035488596  0.8650362893049195  0.8578987838977580
  0.2258077090224798  0.9359590130747842  0.7847026506471747
  0.8385088404756426  0.4908041865728585  0.2855719481690005
  0.9785045744661549  0.8324829797985535  0.7012753757128083
  0.8451250817203736  0.1798047752953714  0.2415100610490262
  0.0211598067000904  0.5894608472994632  0.3389519737596051
  0.4841538912255289  0.7182454126391107  0.1336460167795322
  0.6168429139855041  0.6865235527817021  0.8346162833260987
  0.1145421532708330  0.4281960730080643  0.8827315349299606
  0.4830050055034565  0.1633524207819342  0.2535886881744727
  0.4329286429341396  0.3583276712111312  0.2867695881980655
  0.3507334367703986  0.4937497203499642  0.6828130568742139
  0.2169945454986503  0.2257411433397777  0.7995553747461605
  0.3077064090968704  0.9810612433478714  0.9689778144605954
  0.7136991003103172  0.0946388475515807  0.5472127924437005
  0.1263511826582017  0.7044773404619331  0.7077868063643902
  0.2640716364877078  0.1291935779135669  0.4845887417560591
  0.6709044357720045  0.3049179166472661  0.5894048033944073
  0.6258846042244317  0.3263248063272457  0.7675538033263392
  0.6429922355740181  0.5010521746618625  0.3509484392239133
  0.7769219730644982  0.2385039428819481  0.0680921753066084
  0.6326579738691276  0.0421516789287203  0.2790070530380183
  0.4785367780307938  0.3178412193264845  0.9473537947401022
  0.8425107333649492  0.7031223517409420  0.2861854590678727
  0.5331532438021397  0.6742069399182395  0.3202505429749646
  0.4526070597276303  0.0155993810697897  0.0235324912368459
  0.5631881498313464  0.1378787560956399  0.0981302425830399
  0.6960823268045915  0.1302325551640033  0.0986832536938765
  0.7848188032811685  0.3422515173331261  0.2956220121725062
  0.1201131286202272  0.0308790617492124  0.4179697603265734
  0.4465359037277936  0.7344009088813719  0.9959504884669126
  0.0055514693125370  0.3048653254243663  0.7642785778752664
  0.7868192107707804  0.9122557091750678  0.0170340103325581
  0.1559838647061415  0.8232378238111714  0.4703152983747377
  0.6450134218145080  0.9071098305029690  0.5004033635613057
  0.0186969570866624  0.3346603122641613  0.0542289301736897
  0.2153891347735185  0.0962351071109267  0.8538542670259121
  0.5863755171171456  0.5387788230525176  0.1717794212117076
  0.7523022301404821  0.9186856128648997  0.3471389064611280
  0.4651513121263693  0.3958851677507954  0.7946990997528853
  0.3227668223425927  0.3644444753290115  0.4789768410884183
  0.6252125743296135  0.9875831958515501  0.6558639432631368
  0.6127907249098292  0.3517406592631459  0.9865823991231195
  0.7772971175047672  0.6839047252054846  0.9279494715870796
  0.0832107620790005  0.5073348686047844  0.5931717982415050
  0.8556751361504820  0.4165093397492819  0.0886959921628341
  0.2951148409099641  0.5100481589339139  0.9060827565097644
  0.6888334013519894  0.5568127681679366  0.5320248448814257
  0.9134866532090870  0.8605121720089204  0.8588094497030722
  0.0876443384078205  0.7655857783083210  0.1183401885507069
  0.0648440350004925  0.5966818928452358  0.0253156598608052
  0.2439798937551676  0.9768665278029305  0.6189955703041951
  0.3404644156954715  0.1596990426603964  0.5863494077115595
  0.7897551812712965  0.2245193174512130  0.4327320732731077
  0.4745084762874272  0.8270971936966486  0.6166502537750878
  0.5412299601785553  0.4509205945759810  0.5645740109119705
  0.9536239722006016  0.2847683203289950  0.3482684487695025
  0.2103767598918521  0.1740702487731919  0.3055363160126632
  0.6039702035115627  0.5635942660872879  0.6959488897601281
  0.1752088270280181  0.0714230282130823  0.1313503466114848
  0.3284810573889934  0.9189779958755536  0.5294962704467274
  0.4475603468942054  0.0541487226619739  0.4161489884453171
  0.6339703574536194  0.7390194719574784  0.2649582100026626
  0.1647086993653965  0.3915998130865917  0.7686216910205467
  0.0971718046927988  0.8714933045370391  0.5798490524870665
  0.1571788370249436  0.2070082671180326  0.1500822185034867
  0.5064127964210644  0.7224898286983665  0.7728769540567130
  0.2645556901806683  0.6644149453245407  0.0537238901534464
  0.7193976716258516  0.7667518369429963  0.8345767228636963
  0.3865372882687907  0.5238579653227343  0.2388012706873314
  0.1837972820093985  0.2308597737855416  0.5275493179022079
  0.5195792986806278  0.0686071095040542  0.9229939640166471
  0.5218519022314343  0.0171756993209586  0.1367003313994699
  0.7602537931287837  0.5978858104360472  0.3048086528008178
  0.5558189522534768  0.4329587463372694  0.7081091911413212
  0.4831568425140382  0.6089573880342585  0.2152792750737521
  0.9600964385124052  0.6685595866285304  0.2428360128082489
  0.6737514408893712  0.2065581410849892  0.4917137938243807
  0.4259805695313023  0.0497306547483323  0.2209111796775118
  0.3232776845723446  0.0760807409216557  0.3778050226865100
  0.5803627056974023  0.7930535624142792  0.6884057025251877
  0.2688135736793308  0.5818802502745133  0.2666096197676720
  0.5228087486226278  0.8509402509193250  0.7912520866380124
  0.6104332897532864  0.8871590092579349  0.9738440729274630
  0.8398881618023927  0.7700537754962336  0.0035958641802829
  0.8674308582272364  0.9523063859846195  0.1088154954327063
  0.0293639225036708  0.2139303978401924  0.0243212720050942
  0.4165881331686302  0.4470324897814652  0.5426772899915087
  0.5853883624361002  0.4226087375045461  0.2002245089401064
  0.0158189222601838  0.8618538403819415  0.0027046960549000
  0.7005249543418336  0.2644737324715485  0.9662291843868192
  0.3109465965596921  0.0165916987800580  0.8489635434117340
  0.8157084777585515  0.9187589105316165  0.4612044514215890
  0.9213237815159043  0.5139897902819753  0.3791360191563379
  0.1518596330773415  0.6983120362159009  0.0244986282543926
  0.3850228638190230  0.7531398313459462  0.2004552398981468
  0.4558573812342033  0.7328390337744933  0.3861962774496979
  0.8571301755328358  0.6616479313840508  0.8274253381855393
  0.2799606300792586  0.2784289178530981  0.8946824630368156
  0.6795132443934231  0.9741281458970600  0.8327878454806017
  0.7085361122962204  0.6642072757429318  0.0945728114459095
  0.0167560300429787  0.9859259365513361  0.4666359225975222
  0.2546667166988620  0.7570817752111960  0.4648586291004745
  0.5044566333462263  0.2268673532190685  0.1542686190960423
  0.4126128233523489  0.7342231524860204  0.5792349205031638
  0.5411592962679922  0.1690512872590040  0.9814567486458642
  0.4018518936884721  0.9023526053942070  0.6782822467650882
  0.3278116165368008  0.0683767872997509  0.6670770002309887
  0.2684946419232196  0.2548338339926426  0.6124354514867107
  0.9189822797761238  0.5265373916047988  0.0821994866299447
  0.7513716167002331  0.2119963715716357  0.3186079306549486
  0.9931281751863996  0.6902594056011309  0.0709307130721106
  0.6615368810359015  0.4341335589548475  0.9137992290606672
  0.0378712777294663  0.5041230696519454  0.2387056861707925
  0.2214813141463081  0.5169544710039228  0.1765751503156286
  0.1273062703640026  0.3780831198073615  0.9953838459217649
  0.2967518743211442  0.5868575635645886  0.4974004083738283
  0.0612267007110068  0.0388733059300141  0.1440341401598966
  0.0010815058587870  0.5620308014387900  0.7393020513313172
  0.2250777803427608  0.8084050490016619  0.1945673760244941
  0.5554975426843349  0.3302337978124793  0.5337030346580052
  0.5729562056516264  0.7907224598295300  0.1773542452149045
  0.1604510818057412  0.0716813433370943  0.9605150731146924
  0.9928532799520973  0.4512205115593040  0.8771346971021260
  0.4090565806392509  0.9130488007089103  0.9784485831027496
  0.3342284579050052  0.4085875668909403  0.3577513353653133
  0.1250781294446531  0.6746018610368250  0.2112117552189308
  0.1831634113105474  0.0538685674187201  0.5355997032986396
  0.5937289076669554  0.6873642649602546  0.9527334998243870
  0.7167336524028594  0.0821513281095456  0.6673556475683324
  0.0647995401643387  0.7655126655276382  0.4227926559171988
  0.8919317240428088  0.0124852124216646  0.6025374941307532
  0.9842561389700631  0.1655026949103840  0.5114624524292493
  0.1777009139637771  0.9184435743713142  0.3842866834119098
  0.4569203804102757  0.1750861185991075  0.5785065923822905
  0.0307896213317897  0.7467615507444416  0.7843751506392226
  0.8032449685840568  0.7830253231645886  0.1983507845182872
  0.9559653359914889  0.5336821618162474  0.5643291041731500
  0.0644078003491557  0.3757950888311604  0.5884725187350551
  0.1399281942276741  0.0331985678074396  0.7747338063178775
  0.0635571837826908  0.6778929888908261  0.6007191326973337
  0.4467003506040902  0.4366100015933766  0.9047393233724809
  0.1515978126186024  0.8237715520749380  0.6751294026019156
  0.8458882642331474  0.7660572142587343  0.3885879077557172
  0.6051741592021129  0.2362989350360609  0.6776836064353656
  0.1923085332836603  0.3159816313966060  0.4436129452552538
  0.8568439159200159  0.8405982925760029  0.7431983325214832
  0.1053583936347128  0.2390628602274816  0.8649287071114390
  0.5124331166705564  0.4209909067992786  0.3624489788138814
  0.5875280504320215  0.1600701538576046  0.3144195895783661
  0.9864438303525328  0.9303318447103121  0.7835120324863050
  0.5696790023264198  0.5924637259055614  0.4028502831111312
  0.3624570393515680  0.8990836029582818  0.3199766940900773
  0.2036185258074246  0.0531168877955846  0.2492555316019393
  0.7224443804250633  0.0481776321568584  0.0046247548012934
  0.8003299915962001  0.6185562220890719  0.5159940156907995
  0.2599275153455861  0.2289055619201276  0.2066276671241949
  0.8393725691591534  0.4156684280485313  0.9594253432080643
  0.3507823273751656  0.0780863070759912  0.0278199193291542
  0.9964146566512790  0.1958574940815453  0.7010322671115135
  0.3182283862951436  0.7697240440141582  0.0306264533354642
  0.7261646541859935  0.0739517934434665  0.1997232209326378
  0.7025596291364398  0.5073133768471808  0.6410311371769557
  0.9330801393049247  0.1496132364215863  0.3357952450399707
  0.9226754915512198  0.2649240595350330  0.8662107312157628
  0.6903628327585424  0.8917665342097343  0.6140027425453324
  0.1621421259739132  0.8913048696071670  0.8883761983610643
  0.6099014759654544  0.0335881705917408  0.5322817233440238
  0.8740403999304840  0.9378283328942503  0.2905814902375714
  0.3547834330661754  0.3758322881077591  0.7441177555866823
  0.7431228094999744  0.4767946116688865  0.1098863843167740
  0.8615055641009737  0.9587790855940991  0.9225014164810750
  0.8503603239975805  0.3288557070137723  0.4186744377766308
  0.5103831171773555  0.8843930722879776  0.5129808615754399
  0.1632676249870132  0.5370184714693745  0.8983069149932528
  0.1383009790700952  0.4980736857232887  0.4737155278308793
  0.6923757667338625  0.4621386824785133  0.4553682265497534
  0.2366998918630128  0.4637371370854129  0.6381624001732309
  0.8256650129957194  0.1949014171312073  0.6110263077895202
  0.7167175822804931  0.0353961503678879  0.3699874738278465
  0.3043797006354935  0.5584314402987228  0.7898961536927580
  0.5797992797066822  0.5276296730250890  0.0505688922297327
  0.6628077713196968  0.7480031201451021  0.4795609369489062
  0.0906123944509539  0.1929361036124755  0.2522205708252915
  0.6594263996803879  0.5795030707920169  0.8064193910720854
  0.4241492770446748  0.2310612657216942  0.3357086717402698
  0.5126861335310479  0.2867262599300743  0.8249890444589074
  0.8931016300132557  0.3071776726275446  0.2389154196383468
  0.9109908897102980  0.3775649499682492  0.7051729820661932
  0.7140836934220498  0.2943084063153130  0.1626231499127792
  0.4162614336050999  0.6173926218315491  0.9837455842158270
 
  0.00000000E+00  0.00000000E+00  0.00000000E+00
  0.00000000E+00  0.00000000E+00  0.00000000E+00
  0.00000000E+00  0.00000000E+00  0.00000000E+00
  0.00000000E+00  0.00000000E+00  0.00000000E+00
  0.00000000E+00  0.00000000E+00  0.00000000E+00
  0.00000000E+00  0.00000000E+00  0.00000000E+00
  0.00000000E+00  0.00000000E+00  0.00000000E+00
  0.00000000E+00  0.00000000E+00  0.00000000E+00
  0.00000000E+00  0.00000000E+00  0.00000000E+00
  0.00000000E+00  0.00000000E+00  0.00000000E+00
  0.00000000E+00  0.00000000E+00  0.00000000E+00
  0.00000000E+00  0.00000000E+00  0.00000000E+00
  0.00000000E+00  0.00000000E+00  0.00000000E+00
  0.00000000E+00  0.00000000E+00  0.00000000E+00
  0.00000000E+00  0.00000000E+00  0.00000000E+00
  0.00000000E+00  0.00000000E+00  0.00000000E+00
  0.00000000E+00  0.00000000E+00  0.00000000E+00
  0.00000000E+00  0.00000000E+00  0.00000000E+00
  0.00000000E+00  0.00000000E+00  0.00000000E+00
  0.00000000E+00  0.00000000E+00  0.00000000E+00
  0.00000000E+00  0.00000000E+00  0.00000000E+00
  0.00000000E+00  0.00000000E+00  0.00000000E+00
  0.00000000E+00  0.00000000E+00  0.00000000E+00
  0.00000000E+00  0.00000000E+00  0.00000000E+00
  0.00000000E+00  0.00000000E+00  0.00000000E+00
  0.00000000E+00  0.00000000E+00  0.00000000E+00
  0.00000000E+00  0.00000000E+00  0.00000000E+00
  0.00000000E+00  0.00000000E+00  0.00000000E+00
  0.00000000E+00  0.00000000E+00  0.00000000E+00
  0.00000000E+00  0.00000000E+00  0.00000000E+00
  0.00000000E+00  0.00000000E+00  0.00000000E+00
  0.00000000E+00  0.00000000E+00  0.00000000E+00
  0.00000000E+00  0.00000000E+00  0.00000000E+00
  0.00000000E+00  0.00000000E+00  0.00000000E+00
  0.00000000E+00  0.00000000E+00  0.00000000E+00
  0.00000000E+00  0.00000000E+00  0.00000000E+00
  0.00000000E+00  0.00000000E+00  0.00000000E+00
  0.00000000E+00  0.00000000E+00  0.00000000E+00
  0.00000000E+00  0.00000000E+00  0.00000000E+00
  0.00000000E+00  0.00000000E+00  0.00000000E+00
  0.00000000E+00  0.00000000E+00  0.00000000E+00
  0.00000000E+00  0.00000000E+00  0.00000000E+00
  0.00000000E+00  0.00000000E+00  0.00000000E+00
  0.00000000E+00  0.00000000E+00  0.00000000E+00
  0.00000000E+00  0.00000000E+00  0.00000000E+00
  0.00000000E+00  0.00000000E+00  0.00000000E+00
  0.00000000E+00  0.00000000E+00  0.00000000E+00
  0.00000000E+00  0.00000000E+00  0.00000000E+00
  0.00000000E+00  0.00000000E+00  0.00000000E+00
  0.00000000E+00  0.00000000E+00  0.00000000E+00
  0.00000000E+00  0.00000000E+00  0.00000000E+00
  0.00000000E+00  0.00000000E+00  0.00000000E+00
  0.00000000E+00  0.00000000E+00  0.00000000E+00
  0.00000000E+00  0.00000000E+00  0.00000000E+00
  0.00000000E+00  0.00000000E+00  0.00000000E+00
  0.00000000E+00  0.00000000E+00  0.00000000E+00
  0.00000000E+00  0.00000000E+00  0.00000000E+00
  0.00000000E+00  0.00000000E+00  0.00000000E+00
  0.00000000E+00  0.00000000E+00  0.00000000E+00
  0.00000000E+00  0.00000000E+00  0.00000000E+00
  0.00000000E+00  0.00000000E+00  0.00000000E+00
  0.00000000E+00  0.00000000E+00  0.00000000E+00
  0.00000000E+00  0.00000000E+00  0.00000000E+00
  0.00000000E+00  0.00000000E+00  0.00000000E+00
  0.00000000E+00  0.00000000E+00  0.00000000E+00
  0.00000000E+00  0.00000000E+00  0.00000000E+00
  0.00000000E+00  0.00000000E+00  0.00000000E+00
  0.00000000E+00  0.00000000E+00  0.00000000E+00
  0.00000000E+00  0.00000000E+00  0.00000000E+00
  0.00000000E+00  0.00000000E+00  0.00000000E+00
  0.00000000E+00  0.00000000E+00  0.00000000E+00
  0.00000000E+00  0.00000000E+00  0.00000000E+00
  0.00000000E+00  0.00000000E+00  0.00000000E+00
  0.00000000E+00  0.00000000E+00  0.00000000E+00
  0.00000000E+00  0.00000000E+00  0.00000000E+00
  0.00000000E+00  0.00000000E+00  0.00000000E+00
  0.00000000E+00  0.00000000E+00  0.00000000E+00
  0.00000000E+00  0.00000000E+00  0.00000000E+00
  0.00000000E+00  0.00000000E+00  0.00000000E+00
  0.00000000E+00  0.00000000E+00  0.00000000E+00
  0.00000000E+00  0.00000000E+00  0.00000000E+00
  0.00000000E+00  0.00000000E+00  0.00000000E+00
  0.00000000E+00  0.00000000E+00  0.00000000E+00
  0.00000000E+00  0.00000000E+00  0.00000000E+00
  0.00000000E+00  0.00000000E+00  0.00000000E+00
  0.00000000E+00  0.00000000E+00  0.00000000E+00
  0.00000000E+00  0.00000000E+00  0.00000000E+00
  0.00000000E+00  0.00000000E+00  0.00000000E+00
  0.00000000E+00  0.00000000E+00  0.00000000E+00
  0.00000000E+00  0.00000000E+00  0.00000000E+00
  0.00000000E+00  0.00000000E+00  0.00000000E+00
  0.00000000E+00  0.00000000E+00  0.00000000E+00
  0.00000000E+00  0.00000000E+00  0.00000000E+00
  0.00000000E+00  0.00000000E+00  0.00000000E+00
  0.00000000E+00  0.00000000E+00  0.00000000E+00
  0.00000000E+00  0.00000000E+00  0.00000000E+00
  0.00000000E+00  0.00000000E+00  0.00000000E+00
  0.00000000E+00  0.00000000E+00  0.00000000E+00
  0.00000000E+00  0.00000000E+00  0.00000000E+00
  0.00000000E+00  0.00000000E+00  0.00000000E+00
  0.00000000E+00  0.00000000E+00  0.00000000E+00
  0.00000000E+00  0.00000000E+00  0.00000000E+00
  0.00000000E+00  0.00000000E+00  0.00000000E+00
  0.00000000E+00  0.00000000E+00  0.00000000E+00
  0.00000000E+00  0.00000000E+00  0.00000000E+00
  0.00000000E+00  0.00000000E+00  0.00000000E+00
  0.00000000E+00  0.00000000E+00  0.00000000E+00
  0.00000000E+00  0.00000000E+00  0.00000000E+00
  0.00000000E+00  0.00000000E+00  0.00000000E+00
  0.00000000E+00  0.00000000E+00  0.00000000E+00
  0.00000000E+00  0.00000000E+00  0.00000000E+00
  0.00000000E+00  0.00000000E+00  0.00000000E+00
  0.00000000E+00  0.00000000E+00  0.00000000E+00
  0.00000000E+00  0.00000000E+00  0.00000000E+00
  0.00000000E+00  0.00000000E+00  0.00000000E+00
  0.00000000E+00  0.00000000E+00  0.00000000E+00
  0.00000000E+00  0.00000000E+00  0.00000000E+00
  0.00000000E+00  0.00000000E+00  0.00000000E+00
  0.00000000E+00  0.00000000E+00  0.00000000E+00
  0.00000000E+00  0.00000000E+00  0.00000000E+00
  0.00000000E+00  0.00000000E+00  0.00000000E+00
  0.00000000E+00  0.00000000E+00  0.00000000E+00
  0.00000000E+00  0.00000000E+00  0.00000000E+00
  0.00000000E+00  0.00000000E+00  0.00000000E+00
  0.00000000E+00  0.00000000E+00  0.00000000E+00
  0.00000000E+00  0.00000000E+00  0.00000000E+00
  0.00000000E+00  0.00000000E+00  0.00000000E+00
  0.00000000E+00  0.00000000E+00  0.00000000E+00
  0.00000000E+00  0.00000000E+00  0.00000000E+00
  0.00000000E+00  0.00000000E+00  0.00000000E+00
  0.00000000E+00  0.00000000E+00  0.00000000E+00
  0.00000000E+00  0.00000000E+00  0.00000000E+00
  0.00000000E+00  0.00000000E+00  0.00000000E+00
  0.00000000E+00  0.00000000E+00  0.00000000E+00
  0.00000000E+00  0.00000000E+00  0.00000000E+00
  0.00000000E+00  0.00000000E+00  0.00000000E+00
  0.00000000E+00  0.00000000E+00  0.00000000E+00
  0.00000000E+00  0.00000000E+00  0.00000000E+00
  0.00000000E+00  0.00000000E+00  0.00000000E+00
  0.00000000E+00  0.00000000E+00  0.00000000E+00
  0.00000000E+00  0.00000000E+00  0.00000000E+00
  0.00000000E+00  0.00000000E+00  0.00000000E+00
  0.00000000E+00  0.00000000E+00  0.00000000E+00
  0.00000000E+00  0.00000000E+00  0.00000000E+00
  0.00000000E+00  0.00000000E+00  0.00000000E+00
  0.00000000E+00  0.00000000E+00  0.00000000E+00
  0.00000000E+00  0.00000000E+00  0.00000000E+00
  0.00000000E+00  0.00000000E+00  0.00000000E+00
  0.00000000E+00  0.00000000E+00  0.00000000E+00
  0.00000000E+00  0.00000000E+00  0.00000000E+00
  0.00000000E+00  0.00000000E+00  0.00000000E+00
  0.00000000E+00  0.00000000E+00  0.00000000E+00
  0.00000000E+00  0.00000000E+00  0.00000000E+00
  0.00000000E+00  0.00000000E+00  0.00000000E+00
  0.00000000E+00  0.00000000E+00  0.00000000E+00
  0.00000000E+00  0.00000000E+00  0.00000000E+00
  0.00000000E+00  0.00000000E+00  0.00000000E+00
  0.00000000E+00  0.00000000E+00  0.00000000E+00
  0.00000000E+00  0.00000000E+00  0.00000000E+00
  0.00000000E+00  0.00000000E+00  0.00000000E+00
  0.00000000E+00  0.00000000E+00  0.00000000E+00
  0.00000000E+00  0.00000000E+00  0.00000000E+00
  0.00000000E+00  0.00000000E+00  0.00000000E+00
  0.00000000E+00  0.00000000E+00  0.00000000E+00
  0.00000000E+00  0.00000000E+00  0.00000000E+00
  0.00000000E+00  0.00000000E+00  0.00000000E+00
  0.00000000E+00  0.00000000E+00  0.00000000E+00
  0.00000000E+00  0.00000000E+00  0.00000000E+00
  0.00000000E+00  0.00000000E+00  0.00000000E+00
  0.00000000E+00  0.00000000E+00  0.00000000E+00
  0.00000000E+00  0.00000000E+00  0.00000000E+00
  0.00000000E+00  0.00000000E+00  0.00000000E+00
  0.00000000E+00  0.00000000E+00  0.00000000E+00
  0.00000000E+00  0.00000000E+00  0.00000000E+00
  0.00000000E+00  0.00000000E+00  0.00000000E+00
  0.00000000E+00  0.00000000E+00  0.00000000E+00
  0.00000000E+00  0.00000000E+00  0.00000000E+00
  0.00000000E+00  0.00000000E+00  0.00000000E+00
  0.00000000E+00  0.00000000E+00  0.00000000E+00
  0.00000000E+00  0.00000000E+00  0.00000000E+00
  0.00000000E+00  0.00000000E+00  0.00000000E+00
  0.00000000E+00  0.00000000E+00  0.00000000E+00
  0.00000000E+00  0.00000000E+00  0.00000000E+00
  0.00000000E+00  0.00000000E+00  0.00000000E+00
  0.00000000E+00  0.00000000E+00  0.00000000E+00
  0.00000000E+00  0.00000000E+00  0.00000000E+00
  0.00000000E+00  0.00000000E+00  0.00000000E+00
  0.00000000E+00  0.00000000E+00  0.00000000E+00
  0.00000000E+00  0.00000000E+00  0.00000000E+00
  0.00000000E+00  0.00000000E+00  0.00000000E+00
  0.00000000E+00  0.00000000E+00  0.00000000E+00
  0.00000000E+00  0.00000000E+00  0.00000000E+00
  0.00000000E+00  0.00000000E+00  0.00000000E+00
  0.00000000E+00  0.00000000E+00  0.00000000E+00
  0.00000000E+00  0.00000000E+00  0.00000000E+00
  0.00000000E+00  0.00000000E+00  0.00000000E+00
  0.00000000E+00  0.00000000E+00  0.00000000E+00
  0.00000000E+00  0.00000000E+00  0.00000000E+00
  0.00000000E+00  0.00000000E+00  0.00000000E+00
  0.00000000E+00  0.00000000E+00  0.00000000E+00
  0.00000000E+00  0.00000000E+00  0.00000000E+00
  0.00000000E+00  0.00000000E+00  0.00000000E+00
  0.00000000E+00  0.00000000E+00  0.00000000E+00
  0.00000000E+00  0.00000000E+00  0.00000000E+00
  0.00000000E+00  0.00000000E+00  0.00000000E+00
  0.00000000E+00  0.00000000E+00  0.00000000E+00
  0.00000000E+00  0.00000000E+00  0.00000000E+00
  0.00000000E+00  0.00000000E+00  0.00000000E+00
  0.00000000E+00  0.00000000E+00  0.00000000E+00
  0.00000000E+00  0.00000000E+00  0.00000000E+00
  0.00000000E+00  0.00000000E+00  0.00000000E+00
  0.00000000E+00  0.00000000E+00  0.00000000E+00
  0.00000000E+00  0.00000000E+00  0.00000000E+00
  0.00000000E+00  0.00000000E+00  0.00000000E+00
  0.00000000E+00  0.00000000E+00  0.00000000E+00
  0.00000000E+00  0.00000000E+00  0.00000000E+00
  0.00000000E+00  0.00000000E+00  0.00000000E+00
  0.00000000E+00  0.00000000E+00  0.00000000E+00
  0.00000000E+00  0.00000000E+00  0.00000000E+00
  0.00000000E+00  0.00000000E+00  0.00000000E+00
  0.00000000E+00  0.00000000E+00  0.00000000E+00
  0.00000000E+00  0.00000000E+00  0.00000000E+00
  0.00000000E+00  0.00000000E+00  0.00000000E+00
  0.00000000E+00  0.00000000E+00  0.00000000E+00
  0.00000000E+00  0.00000000E+00  0.00000000E+00
  0.00000000E+00  0.00000000E+00  0.00000000E+00
  0.00000000E+00  0.00000000E+00  0.00000000E+00
  0.00000000E+00  0.00000000E+00  0.00000000E+00
  0.00000000E+00  0.00000000E+00  0.00000000E+00
  0.00000000E+00  0.00000000E+00  0.00000000E+00
  0.00000000E+00  0.00000000E+00  0.00000000E+00
  0.00000000E+00  0.00000000E+00  0.00000000E+00
  0.00000000E+00  0.00000000E+00  0.00000000E+00
  0.00000000E+00  0.00000000E+00  0.00000000E+00
  0.00000000E+00  0.00000000E+00  0.00000000E+00
  0.00000000E+00  0.00000000E+00  0.00000000E+00
  0.00000000E+00  0.00000000E+00  0.00000000E+00
  0.00000000E+00  0.00000000E+00  0.00000000E+00
  0.00000000E+00  0.00000000E+00  0.00000000E+00
  0.00000000E+00  0.00000000E+00  0.00000000E+00
