GeSbTe                                  
   1.00000000000000     
    18.0002652525626097    0.0000000000000000    0.0000000000000000
     0.0000000000000000   18.9209480389207911    0.0000000000000000
     0.0000000000000000    0.0000000000000000   18.9209480389207911
   Ge   Sb   Te
    54    54   108
Direct
  0.0000000000000000  0.0000000000000000  0.0000000000000000
  0.0000000000000000  0.0000000000000000  0.3333333429999996
  0.0000000000000000  0.0000000000000000  0.6666666850000027
  0.0000000000000000  0.3333333429999996  0.0000000000000000
  0.0000000000000000  0.3333333429999996  0.3333333429999996
  0.0000000000000000  0.3333333429999996  0.6666666850000027
  0.0000000000000000  0.6666666850000027  0.0000000000000000
  0.0000000000000000  0.6666666850000027  0.3333333429999996
  0.0000000000000000  0.6666666850000027  0.6666666850000027
  0.3333333429999996  0.0000000000000000  0.0000000000000000
  0.3333333429999996  0.0000000000000000  0.3333333429999996
  0.3333333429999996  0.0000000000000000  0.6666666850000027
  0.3333333429999996  0.3333333429999996  0.0000000000000000
  0.3333333429999996  0.3333333429999996  0.3333333429999996
  0.3333333429999996  0.3333333429999996  0.6666666850000027
  0.3333333429999996  0.6666666850000027  0.0000000000000000
  0.3333333429999996  0.6666666850000027  0.3333333429999996
  0.3333333429999996  0.6666666850000027  0.6666666850000027
  0.6666666850000027  0.0000000000000000  0.0000000000000000
  0.6666666850000027  0.0000000000000000  0.3333333429999996
  0.6666666850000027  0.0000000000000000  0.6666666850000027
  0.6666666850000027  0.3333333429999996  0.0000000000000000
  0.6666666850000027  0.3333333429999996  0.3333333429999996
  0.6666666850000027  0.3333333429999996  0.6666666850000027
  0.6666666850000027  0.6666666850000027  0.0000000000000000
  0.6666666850000027  0.6666666850000027  0.3333333429999996
  0.6666666850000027  0.6666666850000027  0.6666666850000027
  0.0000000000000000  0.1666666710000015  0.1666666710000015
  0.0000000000000000  0.1666666710000015  0.5000000000000000
  0.0000000000000000  0.1666666710000015  0.8333333710000019
  0.0000000000000000  0.5000000000000000  0.1666666710000015
  0.0000000000000000  0.5000000000000000  0.5000000000000000
  0.0000000000000000  0.5000000000000000  0.8333333710000019
  0.0000000000000000  0.8333333710000019  0.1666666710000015
  0.0000000000000000  0.8333333710000019  0.5000000000000000
  0.0000000000000000  0.8333333710000019  0.8333333710000019
  0.3333333429999996  0.1666666710000015  0.1666666710000015
  0.3333333429999996  0.1666666710000015  0.5000000000000000
  0.3333333429999996  0.1666666710000015  0.8333333710000019
  0.3333333429999996  0.5000000000000000  0.1666666710000015
  0.3333333429999996  0.5000000000000000  0.5000000000000000
  0.3333333429999996  0.5000000000000000  0.8333333710000019
  0.3333333429999996  0.8333333710000019  0.1666666710000015
  0.3333333429999996  0.8333333710000019  0.5000000000000000
  0.3333333429999996  0.8333333710000019  0.8333333710000019
  0.6666666850000027  0.1666666710000015  0.1666666710000015
  0.6666666850000027  0.1666666710000015  0.5000000000000000
  0.6666666850000027  0.1666666710000015  0.8333333710000019
  0.6666666850000027  0.5000000000000000  0.1666666710000015
  0.6666666850000027  0.5000000000000000  0.5000000000000000
  0.6666666850000027  0.5000000000000000  0.8333333710000019
  0.6666666850000027  0.8333333710000019  0.1666666710000015
  0.6666666850000027  0.8333333710000019  0.5000000000000000
  0.6666666850000027  0.8333333710000019  0.8333333710000019
  0.1666666710000015  0.0000000000000000  0.1666666710000015
  0.1666666710000015  0.0000000000000000  0.5000000000000000
  0.1666666710000015  0.0000000000000000  0.8333333710000019
  0.1666666710000015  0.3333333429999996  0.1666666710000015
  0.1666666710000015  0.3333333429999996  0.5000000000000000
  0.1666666710000015  0.3333333429999996  0.8333333710000019
  0.1666666710000015  0.6666666850000027  0.1666666710000015
  0.1666666710000015  0.6666666850000027  0.5000000000000000
  0.1666666710000015  0.6666666850000027  0.8333333710000019
  0.5000000000000000  0.0000000000000000  0.1666666710000015
  0.5000000000000000  0.0000000000000000  0.5000000000000000
  0.5000000000000000  0.0000000000000000  0.8333333710000019
  0.5000000000000000  0.3333333429999996  0.1666666710000015
  0.5000000000000000  0.3333333429999996  0.5000000000000000
  0.5000000000000000  0.3333333429999996  0.8333333710000019
  0.5000000000000000  0.6666666850000027  0.1666666710000015
  0.5000000000000000  0.6666666850000027  0.5000000000000000
  0.5000000000000000  0.6666666850000027  0.8333333710000019
  0.8333333710000019  0.0000000000000000  0.1666666710000015
  0.8333333710000019  0.0000000000000000  0.5000000000000000
  0.8333333710000019  0.0000000000000000  0.8333333710000019
  0.8333333710000019  0.3333333429999996  0.1666666710000015
  0.8333333710000019  0.3333333429999996  0.5000000000000000
  0.8333333710000019  0.3333333429999996  0.8333333710000019
  0.8333333710000019  0.6666666850000027  0.1666666710000015
  0.8333333710000019  0.6666666850000027  0.5000000000000000
  0.8333333710000019  0.6666666850000027  0.8333333710000019
  0.1666666710000015  0.1666666710000015  0.0000000000000000
  0.1666666710000015  0.1666666710000015  0.3333333429999996
  0.1666666710000015  0.1666666710000015  0.6666666850000027
  0.1666666710000015  0.5000000000000000  0.0000000000000000
  0.1666666710000015  0.5000000000000000  0.3333333429999996
  0.1666666710000015  0.5000000000000000  0.6666666850000027
  0.1666666710000015  0.8333333710000019  0.0000000000000000
  0.1666666710000015  0.8333333710000019  0.3333333429999996
  0.1666666710000015  0.8333333710000019  0.6666666850000027
  0.5000000000000000  0.1666666710000015  0.0000000000000000
  0.5000000000000000  0.1666666710000015  0.3333333429999996
  0.5000000000000000  0.1666666710000015  0.6666666850000027
  0.5000000000000000  0.5000000000000000  0.0000000000000000
  0.5000000000000000  0.5000000000000000  0.3333333429999996
  0.5000000000000000  0.5000000000000000  0.6666666850000027
  0.5000000000000000  0.8333333710000019  0.0000000000000000
  0.5000000000000000  0.8333333710000019  0.3333333429999996
  0.5000000000000000  0.8333333710000019  0.6666666850000027
  0.8333333710000019  0.1666666710000015  0.0000000000000000
  0.8333333710000019  0.1666666710000015  0.3333333429999996
  0.8333333710000019  0.1666666710000015  0.6666666850000027
  0.8333333710000019  0.5000000000000000  0.0000000000000000
  0.8333333710000019  0.5000000000000000  0.3333333429999996
  0.8333333710000019  0.5000000000000000  0.6666666850000027
  0.8333333710000019  0.8333333710000019  0.0000000000000000
  0.8333333710000019  0.8333333710000019  0.3333333429999996
  0.8333333710000019  0.8333333710000019  0.6666666850000027
  0.0000000000000000  0.0000000000000000  0.1666666710000015
  0.0000000000000000  0.0000000000000000  0.5000000000000000
  0.0000000000000000  0.0000000000000000  0.8333333710000019
  0.0000000000000000  0.3333333429999996  0.1666666710000015
  0.0000000000000000  0.3333333429999996  0.5000000000000000
  0.0000000000000000  0.3333333429999996  0.8333333710000019
  0.0000000000000000  0.6666666850000027  0.1666666710000015
  0.0000000000000000  0.6666666850000027  0.5000000000000000
  0.0000000000000000  0.6666666850000027  0.8333333710000019
  0.3333333429999996  0.0000000000000000  0.1666666710000015
  0.3333333429999996  0.0000000000000000  0.5000000000000000
  0.3333333429999996  0.0000000000000000  0.8333333710000019
  0.3333333429999996  0.3333333429999996  0.1666666710000015
  0.3333333429999996  0.3333333429999996  0.5000000000000000
  0.3333333429999996  0.3333333429999996  0.8333333710000019
  0.3333333429999996  0.6666666850000027  0.1666666710000015
  0.3333333429999996  0.6666666850000027  0.5000000000000000
  0.3333333429999996  0.6666666850000027  0.8333333710000019
  0.6666666850000027  0.0000000000000000  0.1666666710000015
  0.6666666850000027  0.0000000000000000  0.5000000000000000
  0.6666666850000027  0.0000000000000000  0.8333333710000019
  0.6666666850000027  0.3333333429999996  0.1666666710000015
  0.6666666850000027  0.3333333429999996  0.5000000000000000
  0.6666666850000027  0.3333333429999996  0.8333333710000019
  0.6666666850000027  0.6666666850000027  0.1666666710000015
  0.6666666850000027  0.6666666850000027  0.5000000000000000
  0.6666666850000027  0.6666666850000027  0.8333333710000019
  0.1666666710000015  0.0000000000000000  0.0000000000000000
  0.1666666710000015  0.0000000000000000  0.3333333429999996
  0.1666666710000015  0.0000000000000000  0.6666666850000027
  0.1666666710000015  0.3333333429999996  0.0000000000000000
  0.1666666710000015  0.3333333429999996  0.3333333429999996
  0.1666666710000015  0.3333333429999996  0.6666666850000027
  0.1666666710000015  0.6666666850000027  0.0000000000000000
  0.1666666710000015  0.6666666850000027  0.3333333429999996
  0.1666666710000015  0.6666666850000027  0.6666666850000027
  0.5000000000000000  0.0000000000000000  0.0000000000000000
  0.5000000000000000  0.0000000000000000  0.3333333429999996
  0.5000000000000000  0.0000000000000000  0.6666666850000027
  0.5000000000000000  0.3333333429999996  0.0000000000000000
  0.5000000000000000  0.3333333429999996  0.3333333429999996
  0.5000000000000000  0.3333333429999996  0.6666666850000027
  0.5000000000000000  0.6666666850000027  0.0000000000000000
  0.5000000000000000  0.6666666850000027  0.3333333429999996
  0.5000000000000000  0.6666666850000027  0.6666666850000027
  0.8333333710000019  0.0000000000000000  0.0000000000000000
  0.8333333710000019  0.0000000000000000  0.3333333429999996
  0.8333333710000019  0.0000000000000000  0.6666666850000027
  0.8333333710000019  0.3333333429999996  0.0000000000000000
  0.8333333710000019  0.3333333429999996  0.3333333429999996
  0.8333333710000019  0.3333333429999996  0.6666666850000027
  0.8333333710000019  0.6666666850000027  0.0000000000000000
  0.8333333710000019  0.6666666850000027  0.3333333429999996
  0.8333333710000019  0.6666666850000027  0.6666666850000027
  0.0000000000000000  0.1666666710000015  0.0000000000000000
  0.0000000000000000  0.1666666710000015  0.3333333429999996
  0.0000000000000000  0.1666666710000015  0.6666666850000027
  0.0000000000000000  0.5000000000000000  0.0000000000000000
  0.0000000000000000  0.5000000000000000  0.3333333429999996
  0.0000000000000000  0.5000000000000000  0.6666666850000027
  0.0000000000000000  0.8333333710000019  0.0000000000000000
  0.0000000000000000  0.8333333710000019  0.3333333429999996
  0.0000000000000000  0.8333333710000019  0.6666666850000027
  0.3333333429999996  0.1666666710000015  0.0000000000000000
  0.3333333429999996  0.1666666710000015  0.3333333429999996
  0.3333333429999996  0.1666666710000015  0.6666666850000027
  0.3333333429999996  0.5000000000000000  0.0000000000000000
  0.3333333429999996  0.5000000000000000  0.3333333429999996
  0.3333333429999996  0.5000000000000000  0.6666666850000027
  0.3333333429999996  0.8333333710000019  0.0000000000000000
  0.3333333429999996  0.8333333710000019  0.3333333429999996
  0.3333333429999996  0.8333333710000019  0.6666666850000027
  0.6666666850000027  0.1666666710000015  0.0000000000000000
  0.6666666850000027  0.1666666710000015  0.3333333429999996
  0.6666666850000027  0.1666666710000015  0.6666666850000027
  0.6666666850000027  0.5000000000000000  0.0000000000000000
  0.6666666850000027  0.5000000000000000  0.3333333429999996
  0.6666666850000027  0.5000000000000000  0.6666666850000027
  0.6666666850000027  0.8333333710000019  0.0000000000000000
  0.6666666850000027  0.8333333710000019  0.3333333429999996
  0.6666666850000027  0.8333333710000019  0.6666666850000027
  0.1666666710000015  0.1666666710000015  0.1666666710000015
  0.1666666710000015  0.1666666710000015  0.5000000000000000
  0.1666666710000015  0.1666666710000015  0.8333333710000019
  0.1666666710000015  0.5000000000000000  0.1666666710000015
  0.1666666710000015  0.5000000000000000  0.5000000000000000
  0.1666666710000015  0.5000000000000000  0.8333333710000019
  0.1666666710000015  0.8333333710000019  0.1666666710000015
  0.1666666710000015  0.8333333710000019  0.5000000000000000
  0.1666666710000015  0.8333333710000019  0.8333333710000019
  0.5000000000000000  0.1666666710000015  0.1666666710000015
  0.5000000000000000  0.1666666710000015  0.5000000000000000
  0.5000000000000000  0.1666666710000015  0.8333333710000019
  0.5000000000000000  0.5000000000000000  0.1666666710000015
  0.5000000000000000  0.5000000000000000  0.5000000000000000
  0.5000000000000000  0.5000000000000000  0.8333333710000019
  0.5000000000000000  0.8333333710000019  0.1666666710000015
  0.5000000000000000  0.8333333710000019  0.5000000000000000
  0.5000000000000000  0.8333333710000019  0.8333333710000019
  0.8333333710000019  0.1666666710000015  0.1666666710000015
  0.8333333710000019  0.1666666710000015  0.5000000000000000
  0.8333333710000019  0.1666666710000015  0.8333333710000019
  0.8333333710000019  0.5000000000000000  0.1666666710000015
  0.8333333710000019  0.5000000000000000  0.5000000000000000
  0.8333333710000019  0.5000000000000000  0.8333333710000019
  0.8333333710000019  0.8333333710000019  0.1666666710000015
  0.8333333710000019  0.8333333710000019  0.5000000000000000
  0.8333333710000019  0.8333333710000019  0.8333333710000019
 
  0.00000000E+00  0.00000000E+00  0.00000000E+00
  0.00000000E+00  0.00000000E+00  0.00000000E+00
  0.00000000E+00  0.00000000E+00  0.00000000E+00
  0.00000000E+00  0.00000000E+00  0.00000000E+00
  0.00000000E+00  0.00000000E+00  0.00000000E+00
  0.00000000E+00  0.00000000E+00  0.00000000E+00
  0.00000000E+00  0.00000000E+00  0.00000000E+00
  0.00000000E+00  0.00000000E+00  0.00000000E+00
  0.00000000E+00  0.00000000E+00  0.00000000E+00
  0.00000000E+00  0.00000000E+00  0.00000000E+00
  0.00000000E+00  0.00000000E+00  0.00000000E+00
  0.00000000E+00  0.00000000E+00  0.00000000E+00
  0.00000000E+00  0.00000000E+00  0.00000000E+00
  0.00000000E+00  0.00000000E+00  0.00000000E+00
  0.00000000E+00  0.00000000E+00  0.00000000E+00
  0.00000000E+00  0.00000000E+00  0.00000000E+00
  0.00000000E+00  0.00000000E+00  0.00000000E+00
  0.00000000E+00  0.00000000E+00  0.00000000E+00
  0.00000000E+00  0.00000000E+00  0.00000000E+00
  0.00000000E+00  0.00000000E+00  0.00000000E+00
  0.00000000E+00  0.00000000E+00  0.00000000E+00
  0.00000000E+00  0.00000000E+00  0.00000000E+00
  0.00000000E+00  0.00000000E+00  0.00000000E+00
  0.00000000E+00  0.00000000E+00  0.00000000E+00
  0.00000000E+00  0.00000000E+00  0.00000000E+00
  0.00000000E+00  0.00000000E+00  0.00000000E+00
  0.00000000E+00  0.00000000E+00  0.00000000E+00
  0.00000000E+00  0.00000000E+00  0.00000000E+00
  0.00000000E+00  0.00000000E+00  0.00000000E+00
  0.00000000E+00  0.00000000E+00  0.00000000E+00
  0.00000000E+00  0.00000000E+00  0.00000000E+00
  0.00000000E+00  0.00000000E+00  0.00000000E+00
  0.00000000E+00  0.00000000E+00  0.00000000E+00
  0.00000000E+00  0.00000000E+00  0.00000000E+00
  0.00000000E+00  0.00000000E+00  0.00000000E+00
  0.00000000E+00  0.00000000E+00  0.00000000E+00
  0.00000000E+00  0.00000000E+00  0.00000000E+00
  0.00000000E+00  0.00000000E+00  0.00000000E+00
  0.00000000E+00  0.00000000E+00  0.00000000E+00
  0.00000000E+00  0.00000000E+00  0.00000000E+00
  0.00000000E+00  0.00000000E+00  0.00000000E+00
  0.00000000E+00  0.00000000E+00  0.00000000E+00
  0.00000000E+00  0.00000000E+00  0.00000000E+00
  0.00000000E+00  0.00000000E+00  0.00000000E+00
  0.00000000E+00  0.00000000E+00  0.00000000E+00
  0.00000000E+00  0.00000000E+00  0.00000000E+00
  0.00000000E+00  0.00000000E+00  0.00000000E+00
  0.00000000E+00  0.00000000E+00  0.00000000E+00
  0.00000000E+00  0.00000000E+00  0.00000000E+00
  0.00000000E+00  0.00000000E+00  0.00000000E+00
  0.00000000E+00  0.00000000E+00  0.00000000E+00
  0.00000000E+00  0.00000000E+00  0.00000000E+00
  0.00000000E+00  0.00000000E+00  0.00000000E+00
  0.00000000E+00  0.00000000E+00  0.00000000E+00
  0.00000000E+00  0.00000000E+00  0.00000000E+00
  0.00000000E+00  0.00000000E+00  0.00000000E+00
  0.00000000E+00  0.00000000E+00  0.00000000E+00
  0.00000000E+00  0.00000000E+00  0.00000000E+00
  0.00000000E+00  0.00000000E+00  0.00000000E+00
  0.00000000E+00  0.00000000E+00  0.00000000E+00
  0.00000000E+00  0.00000000E+00  0.00000000E+00
  0.00000000E+00  0.00000000E+00  0.00000000E+00
  0.00000000E+00  0.00000000E+00  0.00000000E+00
  0.00000000E+00  0.00000000E+00  0.00000000E+00
  0.00000000E+00  0.00000000E+00  0.00000000E+00
  0.00000000E+00  0.00000000E+00  0.00000000E+00
  0.00000000E+00  0.00000000E+00  0.00000000E+00
  0.00000000E+00  0.00000000E+00  0.00000000E+00
  0.00000000E+00  0.00000000E+00  0.00000000E+00
  0.00000000E+00  0.00000000E+00  0.00000000E+00
  0.00000000E+00  0.00000000E+00  0.00000000E+00
  0.00000000E+00  0.00000000E+00  0.00000000E+00
  0.00000000E+00  0.00000000E+00  0.00000000E+00
  0.00000000E+00  0.00000000E+00  0.00000000E+00
  0.00000000E+00  0.00000000E+00  0.00000000E+00
  0.00000000E+00  0.00000000E+00  0.00000000E+00
  0.00000000E+00  0.00000000E+00  0.00000000E+00
  0.00000000E+00  0.00000000E+00  0.00000000E+00
  0.00000000E+00  0.00000000E+00  0.00000000E+00
  0.00000000E+00  0.00000000E+00  0.00000000E+00
  0.00000000E+00  0.00000000E+00  0.00000000E+00
  0.00000000E+00  0.00000000E+00  0.00000000E+00
  0.00000000E+00  0.00000000E+00  0.00000000E+00
  0.00000000E+00  0.00000000E+00  0.00000000E+00
  0.00000000E+00  0.00000000E+00  0.00000000E+00
  0.00000000E+00  0.00000000E+00  0.00000000E+00
  0.00000000E+00  0.00000000E+00  0.00000000E+00
  0.00000000E+00  0.00000000E+00  0.00000000E+00
  0.00000000E+00  0.00000000E+00  0.00000000E+00
  0.00000000E+00  0.00000000E+00  0.00000000E+00
  0.00000000E+00  0.00000000E+00  0.00000000E+00
  0.00000000E+00  0.00000000E+00  0.00000000E+00
  0.00000000E+00  0.00000000E+00  0.00000000E+00
  0.00000000E+00  0.00000000E+00  0.00000000E+00
  0.00000000E+00  0.00000000E+00  0.00000000E+00
  0.00000000E+00  0.00000000E+00  0.00000000E+00
  0.00000000E+00  0.00000000E+00  0.00000000E+00
  0.00000000E+00  0.00000000E+00  0.00000000E+00
  0.00000000E+00  0.00000000E+00  0.00000000E+00
  0.00000000E+00  0.00000000E+00  0.00000000E+00
  0.00000000E+00  0.00000000E+00  0.00000000E+00
  0.00000000E+00  0.00000000E+00  0.00000000E+00
  0.00000000E+00  0.00000000E+00  0.00000000E+00
  0.00000000E+00  0.00000000E+00  0.00000000E+00
  0.00000000E+00  0.00000000E+00  0.00000000E+00
  0.00000000E+00  0.00000000E+00  0.00000000E+00
  0.00000000E+00  0.00000000E+00  0.00000000E+00
  0.00000000E+00  0.00000000E+00  0.00000000E+00
  0.00000000E+00  0.00000000E+00  0.00000000E+00
  0.00000000E+00  0.00000000E+00  0.00000000E+00
  0.00000000E+00  0.00000000E+00  0.00000000E+00
  0.00000000E+00  0.00000000E+00  0.00000000E+00
  0.00000000E+00  0.00000000E+00  0.00000000E+00
  0.00000000E+00  0.00000000E+00  0.00000000E+00
  0.00000000E+00  0.00000000E+00  0.00000000E+00
  0.00000000E+00  0.00000000E+00  0.00000000E+00
  0.00000000E+00  0.00000000E+00  0.00000000E+00
  0.00000000E+00  0.00000000E+00  0.00000000E+00
  0.00000000E+00  0.00000000E+00  0.00000000E+00
  0.00000000E+00  0.00000000E+00  0.00000000E+00
  0.00000000E+00  0.00000000E+00  0.00000000E+00
  0.00000000E+00  0.00000000E+00  0.00000000E+00
  0.00000000E+00  0.00000000E+00  0.00000000E+00
  0.00000000E+00  0.00000000E+00  0.00000000E+00
  0.00000000E+00  0.00000000E+00  0.00000000E+00
  0.00000000E+00  0.00000000E+00  0.00000000E+00
  0.00000000E+00  0.00000000E+00  0.00000000E+00
  0.00000000E+00  0.00000000E+00  0.00000000E+00
  0.00000000E+00  0.00000000E+00  0.00000000E+00
  0.00000000E+00  0.00000000E+00  0.00000000E+00
  0.00000000E+00  0.00000000E+00  0.00000000E+00
  0.00000000E+00  0.00000000E+00  0.00000000E+00
  0.00000000E+00  0.00000000E+00  0.00000000E+00
  0.00000000E+00  0.00000000E+00  0.00000000E+00
  0.00000000E+00  0.00000000E+00  0.00000000E+00
  0.00000000E+00  0.00000000E+00  0.00000000E+00
  0.00000000E+00  0.00000000E+00  0.00000000E+00
  0.00000000E+00  0.00000000E+00  0.00000000E+00
  0.00000000E+00  0.00000000E+00  0.00000000E+00
  0.00000000E+00  0.00000000E+00  0.00000000E+00
  0.00000000E+00  0.00000000E+00  0.00000000E+00
  0.00000000E+00  0.00000000E+00  0.00000000E+00
  0.00000000E+00  0.00000000E+00  0.00000000E+00
  0.00000000E+00  0.00000000E+00  0.00000000E+00
  0.00000000E+00  0.00000000E+00  0.00000000E+00
  0.00000000E+00  0.00000000E+00  0.00000000E+00
  0.00000000E+00  0.00000000E+00  0.00000000E+00
  0.00000000E+00  0.00000000E+00  0.00000000E+00
  0.00000000E+00  0.00000000E+00  0.00000000E+00
  0.00000000E+00  0.00000000E+00  0.00000000E+00
  0.00000000E+00  0.00000000E+00  0.00000000E+00
  0.00000000E+00  0.00000000E+00  0.00000000E+00
  0.00000000E+00  0.00000000E+00  0.00000000E+00
  0.00000000E+00  0.00000000E+00  0.00000000E+00
  0.00000000E+00  0.00000000E+00  0.00000000E+00
  0.00000000E+00  0.00000000E+00  0.00000000E+00
  0.00000000E+00  0.00000000E+00  0.00000000E+00
  0.00000000E+00  0.00000000E+00  0.00000000E+00
  0.00000000E+00  0.00000000E+00  0.00000000E+00
  0.00000000E+00  0.00000000E+00  0.00000000E+00
  0.00000000E+00  0.00000000E+00  0.00000000E+00
  0.00000000E+00  0.00000000E+00  0.00000000E+00
  0.00000000E+00  0.00000000E+00  0.00000000E+00
  0.00000000E+00  0.00000000E+00  0.00000000E+00
  0.00000000E+00  0.00000000E+00  0.00000000E+00
  0.00000000E+00  0.00000000E+00  0.00000000E+00
  0.00000000E+00  0.00000000E+00  0.00000000E+00
  0.00000000E+00  0.00000000E+00  0.00000000E+00
  0.00000000E+00  0.00000000E+00  0.00000000E+00
  0.00000000E+00  0.00000000E+00  0.00000000E+00
  0.00000000E+00  0.00000000E+00  0.00000000E+00
  0.00000000E+00  0.00000000E+00  0.00000000E+00
  0.00000000E+00  0.00000000E+00  0.00000000E+00
  0.00000000E+00  0.00000000E+00  0.00000000E+00
  0.00000000E+00  0.00000000E+00  0.00000000E+00
  0.00000000E+00  0.00000000E+00  0.00000000E+00
  0.00000000E+00  0.00000000E+00  0.00000000E+00
  0.00000000E+00  0.00000000E+00  0.00000000E+00
  0.00000000E+00  0.00000000E+00  0.00000000E+00
  0.00000000E+00  0.00000000E+00  0.00000000E+00
  0.00000000E+00  0.00000000E+00  0.00000000E+00
  0.00000000E+00  0.00000000E+00  0.00000000E+00
  0.00000000E+00  0.00000000E+00  0.00000000E+00
  0.00000000E+00  0.00000000E+00  0.00000000E+00
  0.00000000E+00  0.00000000E+00  0.00000000E+00
  0.00000000E+00  0.00000000E+00  0.00000000E+00
  0.00000000E+00  0.00000000E+00  0.00000000E+00
  0.00000000E+00  0.00000000E+00  0.00000000E+00
  0.00000000E+00  0.00000000E+00  0.00000000E+00
  0.00000000E+00  0.00000000E+00  0.00000000E+00
  0.00000000E+00  0.00000000E+00  0.00000000E+00
  0.00000000E+00  0.00000000E+00  0.00000000E+00
  0.00000000E+00  0.00000000E+00  0.00000000E+00
  0.00000000E+00  0.00000000E+00  0.00000000E+00
  0.00000000E+00  0.00000000E+00  0.00000000E+00
  0.00000000E+00  0.00000000E+00  0.00000000E+00
  0.00000000E+00  0.00000000E+00  0.00000000E+00
  0.00000000E+00  0.00000000E+00  0.00000000E+00
  0.00000000E+00  0.00000000E+00  0.00000000E+00
  0.00000000E+00  0.00000000E+00  0.00000000E+00
  0.00000000E+00  0.00000000E+00  0.00000000E+00
  0.00000000E+00  0.00000000E+00  0.00000000E+00
  0.00000000E+00  0.00000000E+00  0.00000000E+00
  0.00000000E+00  0.00000000E+00  0.00000000E+00
  0.00000000E+00  0.00000000E+00  0.00000000E+00
  0.00000000E+00  0.00000000E+00  0.00000000E+00
  0.00000000E+00  0.00000000E+00  0.00000000E+00
  0.00000000E+00  0.00000000E+00  0.00000000E+00
  0.00000000E+00  0.00000000E+00  0.00000000E+00
  0.00000000E+00  0.00000000E+00  0.00000000E+00
  0.00000000E+00  0.00000000E+00  0.00000000E+00
  0.00000000E+00  0.00000000E+00  0.00000000E+00
  0.00000000E+00  0.00000000E+00  0.00000000E+00
  0.00000000E+00  0.00000000E+00  0.00000000E+00
  0.00000000E+00  0.00000000E+00  0.00000000E+00
  0.00000000E+00  0.00000000E+00  0.00000000E+00
