Amorphous Sb                            
   1.00000000000000     
    22.4271481478061503    0.0000000000000000    0.0000000000000000
     0.0000000000000000   22.4271481478061503    0.0000000000000000
     0.0000000000000000    0.0000000000000000   22.4271481478061503
   As   Te
    30   270
Direct
  0.6464711177311449  0.7853875158801469  0.3763244168990370
  0.5604609043258698  0.7157697590264696  0.5049240813940421
  0.2756039358611373  0.5883482145469928 -0.0009722120563878
  0.7290571130054178  0.2366270378697350  0.7070122889010341
  0.0533065128013381  0.4870620139900810  0.8958578080201219
  0.4433662566226970  0.6890224570382936  0.2299026893005286
  0.6027659173718554  0.6150103214457664  0.8957824583572539
  0.5678657593577308  0.0569635691881656  0.2982333546637715
  0.3887138203457020  0.2953521989979123  0.2830410507407875
  0.3062515579437535  0.1340609763598050  0.2362505203881820
  0.8514209036733226  0.3732972449224386  0.0601543811628821
  0.7721483403184640  0.4400286742462786  0.4691695665329985
  0.2738729484221960  0.6886969152592131  0.3284228076206980
  0.1721955951699641  0.7329451172471296  0.3423530319657074
  0.4238774599344637  0.2808376886498155  0.3902982569212815
  0.7723410864691731  0.8198501018916294  0.8311901737606902
  0.2396890765432104  0.2436628808580160  0.3531739460969089
  0.7222835550459110  0.3562355463783433  0.1776945469949224
  0.4873439667422116  0.0288871192226892  0.4574378799955151
  0.5078115316428127  0.0504484482158807  0.7565025847539683
  0.9562008193808517  0.9063027844211818  0.4533999938355754
  0.0780393625081335  0.9655743639897721  0.3874127267867853
  0.2367772247140363  0.5858389456279443  0.3529816897658524
  0.7787150616395508  0.0081203253452467  0.6723707389002634
  0.4078001478891559  0.7949949827439147  0.2526924632625694
  0.2857110440024666  0.1391089684411667  0.1256389649473245
  0.3530182084573308  0.4157020491438300  0.7429387471502785
  0.2408201845705703  0.9804582683876414  0.3696664705757733
  0.4634684130968337  0.3379568395102696  0.6162026917028396
  0.2403257090904615  0.7464255034591240  0.6384932344214375
  0.6615695742626859  0.1913128723588893  0.2150183853658698
  0.4046726318902132  0.7914040250363913  0.9397896594968921
  0.1027783366516101  0.3806706881784506  0.9111858369008445
  0.6379786630940755  0.5089150577247091  0.8479343665276574
  0.9251717208556259  0.7475547699197355  0.6914854987842062
  0.4820149773466553  0.5148136626140347  0.4029826918185321
  0.1445301677960526  0.8697164389806007  0.0409921594098471
  0.5211989063288606  0.9333270679759698  0.7575873502215612
  0.8964711482867174  0.8413298285167728  0.9222017647749889
  0.1240116450790823  0.6715451357557256  0.2501466151849202
  0.0759969138054095  0.5229598783615543  0.0116219850070083
  0.5033255051758946  0.4616325086045142  0.5182750899939749
  0.6060523782064333  0.3789540384151325  0.2236140471305464
  0.7366143467678442  0.3855231904947747  0.0435229736827963
  0.4543160304356028  0.1667489018877819  0.3870118883145449
  0.7419183875198826  0.0366889065933678  0.4156976049191606
  0.6641069827942685  0.1724066241769100  0.7831930490768387
  0.8561123382443672  0.5013664519043448  0.5967341046452808
  0.6617091034598124  0.4503081685531968  0.5151840163769302
  0.9824372621122917  0.2635091533599756  0.6663993611363729
  0.4603044555710767  0.6082402563393776  0.9558439565234602
  0.7220890320299654  0.1335737909429067  0.3401258173685544
  0.3600049971195029  0.5142176093917643  0.0404892517901596
  0.2329822283606330  0.4124709374724896  0.7471835398443750
  0.2914940467604045  0.0169990378599595  0.2457444313154408
  0.9367744663766248  0.0198129298802894  0.8769254268026604
  0.4399616098590829  0.1861491251812255  0.7744437958440028
  0.5266929789015133  0.9622655012889456  0.3661625522636431
  0.9031736303140154  0.1198980135240225  0.1705340852314443
  0.9319595444213433  0.7282403669758257  0.1663409060016535
  0.2005671328352908  0.1796859526648014  0.2603834213830009
  0.5526222069260984  0.6700413311652792  0.3613453485867892
  0.0625639946676696  0.4153580824881337  0.5721788107819488
  0.3052404797558125  0.6278367964025618  0.6016105272124552
  0.8720886917787977  0.5587254557369967  0.3223600654678160
  0.2297981409994242  0.3626778880518523  0.0887811236488102
  0.3132757322774471  0.2646905196790236  0.5655965043829811
  0.6991571011896471  0.1370254931158149  0.9481809201100474
  0.4838164717847780  0.1968074296371376  0.5094226037757404
  0.7238317141671915  0.9848594235186279  0.5712869864069057
  0.1545242294094991  0.1213281714213498  0.6575956985754083
  0.0000198133317295  0.7592287249682638  0.5750412423357503
  0.9156445788138501  0.5701564094284816  0.7775488116723241
  0.4923342330291728  0.3990599830332702  0.0659888690089745
  0.4161349650145678  0.6984407689266557  0.0315382533883228
  0.4725553626762620  0.7195023508638926  0.8213548427455419
  0.4066622292717799  0.9932216765604910  0.3064277032288701
  0.9005311795255529  0.1659790035750688  0.6428670489620901
  0.4165959784969633  0.9489160427874993  0.5095175062435681
  0.2334110279887262  0.3724454116295898  0.4710544715757843
  0.4063162501492712  0.8561469432065294  0.6779069646362689
  0.2766428298991370  0.5328107026765843  0.6846095490545053
  0.1615657663890674  0.8903899648603310  0.9131956378434579
  0.3802106404228158  0.0916210718658927  0.9851591081589472
  0.3385628094883538  0.9022785602190043  0.3825421627575654
  0.5932297211775802  0.3119916639367380  0.0368397585096006
  0.4822612086760616  0.9481807376030635  0.6320561763390757
  0.0883433918039370  0.4108989121430803  0.1028255508617356
  0.7228169842212840  0.9131257748396422  0.1439625203638208
  0.0425505882845796  0.8427994598784847  0.2383424247092146
  0.0078545682193165  0.6385995034957184  0.7213226610126551
  0.3998322072224170  0.8160330903126219  0.1372602492365832
  0.3301492468788292  0.8872480598428315  0.0173117489093754
  0.6879000005590495  0.8227324984800266  0.5614462736507968
  0.1264115161838689  0.6651895561493221  0.4292416263271782
  0.5178823741696100  0.9431018869128979  0.9374748720130380
  0.7718204338443477  0.9710300172038320  0.9520372048384284
  0.2495841984171474  0.4747039705940085  0.5728534660466456
  0.9998894360004362  0.2645337656973555  0.2190212052124035
  0.1130915829440478  0.5411432823719651  0.5835544205269547
  0.9082360176823010  0.6540006217202461  0.8771777295857545
  0.6130962564525710  0.4005602931854795  0.7080760165096180
  0.4028701595002165  0.3847926611604206  0.5231486674609364
  0.8540201316038961  0.2363066131743203  0.0186946501196225
  0.0031276635655577  0.2452384183948280  0.5234110482450967
  0.4284016466426469  0.7451460204875874  0.5308135276415116
  0.9032477346209473  0.5571650416163717  0.4967380667348086
  0.6256249652053172  0.1378685943634630  0.6525842232727109
  0.8587855666357332  0.8230415538831523  0.2234961599552652
  0.6181836981603653  0.3280355382212199  0.5695943214364072
  0.0002563124162826  0.4628525749829879  0.7515996785524076
  0.7263441651121226  0.6606920100693838  0.2870426211301205
  0.1533464312090337  0.6591605672378534  0.0368725735104843
  0.8224538855261216  0.3822913258570399  0.6960173300342496
  0.1522624808101648  0.8722521626632280  0.1862550194924821
  0.6369160745197172  0.2741357615682304  0.8637338170670408
  0.8473038825704007  0.9364723701121420  0.4893582425096296
  0.7500058011878825  0.1167554006730909  0.5219315406949049
  0.7130754913558778  0.2609750090617277  0.9879857365789189
  0.6503429522671884  0.5303488686194878  0.2919807979535985
  0.1360873039392227  0.0270376286288453  0.3036590631269332
  0.8543424185513736  0.6820453897126295  0.3184136710370797
  0.7006575654387956  0.7568260366559075  0.9608304660398184
  0.7264472137188214  0.9457346793378346  0.3148698300340871
  0.3016165627595149  0.3982530451940630  0.9056248669519684
  0.9848941129109960  0.9693143889413263  0.6674971058192440
  0.0862041481210459  0.5057687698293813  0.4575484129712245
  0.5129553110635262  0.8678983279090750  0.1211353206987230
  0.7818694424656921  0.6007865329640545  0.6287010737345426
  0.3400917592013827  0.3037211175646856  0.0578076827843325
  0.0494931672021450  0.9574066971467929  0.0370313452400721
  0.6024968629575210  0.9841205973716411  0.0200725333021758
  0.8921345252877263  0.3884462221035534  0.7982095934963493
  0.3140246281101013  0.9397209323307486  0.7344330357830723
  0.2203381717199123  0.2353820978945426  0.6941114206854470
  0.6843563352635389  0.8935519625171542  0.8964940166706634
  0.4866385350641733  0.4292580700172235  0.6876560763224009
  0.5311142752835416  0.8224537162289172  0.9820679193637656
  0.1272842867834502  0.0081692755902726  0.8049748026099921
  0.8691124377702737  0.3271819451238234  0.3546747575736193
  0.1824956365135877  0.4563534937252571  0.3922875183619184
  0.1590492843087480  0.2376212386544581  0.8013846207126099
  0.9847967474755108  0.2475651127785946  0.7909925247984188
  0.6476440475230223  0.7075832590948355  0.7274114152691298
  0.7227696630628996  0.5753224192511784  0.0633206471777477
  0.2368637627457918  0.7540600922034884  0.0460860770936330
  0.3015583311185076  0.9627916043341587  0.9158416661411246
  0.3331953603629538  0.8411730150912547  0.5734004456239450
  0.0586232123135218  0.1322447898967221  0.5370290531261903
  0.4792874798631169  0.8453288101206424  0.4344259557143036
  0.2928917656837796  0.7459716564231025  0.7454221126344962
  0.8435012191157091  0.9120312684500398  0.8019938695548539
  0.0121721310505131  0.0583714671473116  0.1766585185902504
  0.9108475719011931  0.3583298105166881  0.5395338590780564
  0.5783351442676100  0.6196868237900458  0.5721962060288547
  0.6742678824929157  0.8911870120431735  0.4180590232826188
  0.5445854329735555  0.1518755900538208  0.0784013727343040
  0.2078825213884069  0.4941082838218942  0.9681770450532561
  0.8737832259288519  0.2089229889912698  0.8993137231589238
  0.2506293351795922  0.0376650561059686  0.7942467339648249
  0.6730545409884684  0.0047982939370146  0.8328337484204874
  0.0348408628674079  0.3381020854502454  0.0044178962213636
  0.2980775056288846  0.5662374170106270  0.4522169137365830
  0.3704373666682824  0.1536685674838065  0.5486313796914868
  0.4316566588811646  0.6248200504320778  0.3290984470525057
  0.5829384029227741  0.7551237227770847  0.8846140306710802
  0.5578646164379620  0.8127582031785965  0.5767785484036301
  0.8913821709563572  0.1563937847019266  0.4467584622286301
  0.6509383013254304  0.9873710331644515  0.2178696119246840
  0.1132977756542494  0.3046959691557616  0.1765752130990027
  0.0546552369167633  0.1419062213964463  0.7854673375588453
  0.7326333046721094  0.8006601166630080  0.7178652739585669
  0.3062651813822710  0.6274614022753593  0.8891763265753877
  0.2781841155844013  0.3406201242216514  0.2939651195511273
  0.5641677306943064  0.2609135214228331  0.1715826131109982
  0.1091715133949765  0.9952606004723483  0.6677036581550193
  0.6737938715991109  0.4945029001711688  0.6410199675237102
  0.8372647690428880  0.6537802214763888  0.1211136406917389
  0.1722405996020910  0.1015911367528859  0.1239187165972685
  0.9525835183608607  0.7973930942918936  0.4092288239834785
  0.3449656671581401  0.0388503157699829  0.1004219470294614
  0.6845671147339916  0.7078631084639908  0.5116889352119296
  0.5499046500314554  0.2378352392442087  0.6372759005547717
  0.0327386176487772  0.8717819935476880  0.9045714525866108
  0.1076525751119864  0.1527315478205888  0.9437145351847083
  0.3654919381097998  0.3246036491308361  0.8245301034824926
  0.4629506488749275  0.5710070702921258  0.5823393546726894
  0.0324905890063048  0.7705843197755547  0.8280692584479133
  0.0122105000143042  0.8851948346010630  0.5613997065437389
  0.2765134263788481  0.6151338248386401  0.1830178996208051
  0.7550548549902142  0.1821442625227572  0.1311358047565125
  0.3222099265106481  0.5390021942784843  0.2825223631718771
  0.7919669091124041  0.3151987975506513  0.5404675951289333
  0.7850492269297648  0.5545855588804458  0.4325273499941923
  0.3909246535911721  0.0725938939309581  0.7523846826748902
  0.0870495452295367  0.8500712026234551  0.3549209830934267
  0.1358330248951440  0.2000247317768303  0.0588599567849097
  0.4970637312288733  0.5126039664577174  0.8261448997606456
  0.8764600177340413  0.9689072905810644  0.3199118405790678
  0.4123468348971072  0.6827218655169522  0.6416869376244215
  0.9492799481527900  0.0650072825088656  0.7602434881657587
  0.5373544688208570  0.7668608383168494  0.6982434738815557
  0.9461335675019268  0.2305147105109487  0.3493430742503774
  0.2185873421593800  0.7633738732541214  0.1786374858574911
  0.6038254219047515  0.6426366958431017  0.2340837226103363
  0.3623953251906898  0.5005847899312615  0.8283827422195691
  0.5773161648850829  0.0115576891042777  0.5331546963700873
  0.3129743943693687  0.7157028864702036  0.4367996968480235
  0.2498849535611457  0.9357951983970649  0.6079573448622123
  0.2922162616927619  0.0765517524135750  0.4168001965262994
  0.3611449038997060  0.4658757035340597  0.3909767668680316
  0.5951316731844118  0.1548168357663706  0.3630104903487263
  0.5257290954453248  0.3403287389459742  0.3767935026988536
  0.4719475377002926  0.0912243955760076  0.2412366013049241
  0.0937899240597232  0.6983069527331922  0.9145284829135490
  0.7080569276778764  0.3169770225241115  0.2991976828378529
  0.2361298524409420  0.2947713045522119  0.9598873907692226
  0.8631558219638105  0.9153607592516129  0.0244320573376316
  0.1242208093516331  0.2659658714590339  0.3671095864607491
  0.7717759944191005  0.2273164368619462  0.4498829167596675
  0.6095133103593087  0.2738652343059829  0.4551739287560235
  0.2801618541775743  0.7484278013859694  0.9136151684365665
  0.9443968160256999  0.3796552705471113  0.1918245141874866
  0.0997665512644969  0.5449084340787086  0.7220350937571691
  0.3970848549009342  0.6135351058018665  0.1473008038039290
  0.6165415917939338  0.1319211608542927  0.5209409151693828
  0.7190882554221590  0.6599947772961183  0.8829444658036900
  0.7263418341340024  0.0829160604738159  0.0595461567441728
  0.7530379441894824  0.4672415897578185  0.1994537584473938
  0.0167359969810481  0.6152939263321848  0.5491231026225275
  0.1350729275372435  0.3870056391998565  0.2849441940283168
  0.0736804576755906  0.3727960996319209  0.6914907706871931
  0.5749676338421572  0.5818581479324147  0.0053664861198250
  0.5383399799128400  0.3076239054619290  0.7833766221490002
  0.1586037669390727  0.5282009012716609  0.8541623010626128
  0.1306181861336216  0.7164686634702403  0.6844904515945169
  0.6043823946584638  0.3873568994766315  0.9345322169349798
  0.1119005830299216  0.3117260672641542  0.4902209510375894
  0.9769375755169143  0.8686970173834215  0.0917230293148031
  0.4260828108274521  0.3264669474751501  0.1490260890223436
  0.1380417650771741  0.7617603194773089  0.5222794422294345
  0.9458232832404121  0.5319432308488549  0.0301114497851283
  0.9686485588323471  0.1959700574702177  0.0713474969803977
  0.8635049850764210  0.4764033224338617  0.1304191943874244
  0.1450065229814206  0.0200885246327077  0.9355692524698086
  0.7582467472962535  0.7514898457141296  0.1341528717098226
  0.9222639428863169  0.9316606513736069  0.1994885074176441
  0.5353980563373383  0.0320065942106406  0.1160783651886659
  0.5116888818674251  0.6184569430017104  0.7581796562877591
  0.8187607112123528  0.9927693693860072  0.1349945324667768
  0.9156780366080988  0.4175415328111616  0.4276732527845063
  0.2434237558215608  0.9604671259482213  0.0764450608137543
  0.2972645889551271  0.8337369582538282  0.2790124602843642
  0.2345958134737657  0.0917328126407831  0.5672247892400106
  0.1810280490536120  0.1234236457729717  0.4581132550405842
  0.8009070414267315  0.5958059451227768  0.9630390686419462
  0.2449132386785694  0.1946373285474907  0.8824122283518376
  0.5480986405525453  0.0735340295001806  0.8695956296792902
  0.4393099189260793  0.4010693363795149  0.2897203627824947
  0.2593906466587308  0.4862159779749276  0.1240881651787807
  0.6134841070139234  0.5627265142246247  0.4104382593677781
  0.9910140325684121  0.1127915428246281  0.9818920348227209
  0.1665611162262413  0.9473836195444717  0.4635704482654454
  0.4648522781633111  0.1664397549180881  0.8952827452838912
  0.7123415970725465  0.7853978952681335  0.2767916753699142
  0.7308329940572553  0.3381382747546445  0.7735399776277202
  0.3925071597069217  0.9178816441933043  0.8414774163721931
  0.8607420008198295  0.6921534737535933  0.5954802513602946
  0.8292764051875762  0.4843772435548703  0.8672319622665381
  0.5512625008027700  0.4700907654809692  0.1465478532347195
  0.9790504893753169  0.5505582102903833  0.2383358147241119
  0.8987987090896272  0.7375249070680232  0.9904506717524190
  0.9944432172322518  0.0769661354230639  0.4424374717783902
  0.7111305274356913  0.5610365271730118  0.7606629637754647
  0.8356884369649378  0.7161672315372846  0.7912000415148009
  0.9983341566116789  0.6164636605680025  0.1266151760851391
  0.6035889492104526  0.7993896188632523  0.1769402655094987
  0.8298855517966780  0.0894571503519472  0.8998497604142582
  0.0179588763026699  0.0836832090996990  0.3040147487237258
  0.4221187077818933  0.1833612756351868  0.0605178228917617
  0.4855573642546793  0.3669571645225329  0.8806289374295225
  0.9129527860067730  0.4332780155805195  0.9471621800641399
  0.8462518519451326  0.3066522851963930  0.1666921984529478
  0.6553284614087667  0.6841038501426175  0.1037459829479415
  0.8307367201366491  0.8256156741638603  0.5455495693727549
  0.6707542888154084  0.9778738956028193  0.7109903248006151
  0.5367799657754028  0.8038576504124350  0.3254186119466585
  0.8386740120111834  0.7491023214623375  0.4412425669567601
  0.1659234876666242  0.8443944715531130  0.6396143216163376
  0.2210473488221032  0.3646967651348705  0.6305551661119593
  0.0275194788505852  0.7153762395527422  0.0225703755493816
  0.3703762182936970  0.2882156399594340  0.6742464183354560
  0.1460194543549691  0.4876080642770635  0.2071329896580335
  0.8233363970064060  0.1714122652915539  0.7386246953723437
  0.2356958529078720  0.8154707936595744  0.4561014383100067
  0.0373739489923678  0.6224014281845109  0.3283683406733174
  0.8426433876783882  0.9073973500797091  0.6770578473828789
  0.8773438138894204  0.0914166997438626  0.2968799226504651
  0.7448684927506499  0.4301884750452051  0.3483798288502842
  0.1744475810406002  0.7555309437953001  0.7971930974299957
 
  0.00000000E+00  0.00000000E+00  0.00000000E+00
  0.00000000E+00  0.00000000E+00  0.00000000E+00
  0.00000000E+00  0.00000000E+00  0.00000000E+00
  0.00000000E+00  0.00000000E+00  0.00000000E+00
  0.00000000E+00  0.00000000E+00  0.00000000E+00
  0.00000000E+00  0.00000000E+00  0.00000000E+00
  0.00000000E+00  0.00000000E+00  0.00000000E+00
  0.00000000E+00  0.00000000E+00  0.00000000E+00
  0.00000000E+00  0.00000000E+00  0.00000000E+00
  0.00000000E+00  0.00000000E+00  0.00000000E+00
  0.00000000E+00  0.00000000E+00  0.00000000E+00
  0.00000000E+00  0.00000000E+00  0.00000000E+00
  0.00000000E+00  0.00000000E+00  0.00000000E+00
  0.00000000E+00  0.00000000E+00  0.00000000E+00
  0.00000000E+00  0.00000000E+00  0.00000000E+00
  0.00000000E+00  0.00000000E+00  0.00000000E+00
  0.00000000E+00  0.00000000E+00  0.00000000E+00
  0.00000000E+00  0.00000000E+00  0.00000000E+00
  0.00000000E+00  0.00000000E+00  0.00000000E+00
  0.00000000E+00  0.00000000E+00  0.00000000E+00
  0.00000000E+00  0.00000000E+00  0.00000000E+00
  0.00000000E+00  0.00000000E+00  0.00000000E+00
  0.00000000E+00  0.00000000E+00  0.00000000E+00
  0.00000000E+00  0.00000000E+00  0.00000000E+00
  0.00000000E+00  0.00000000E+00  0.00000000E+00
  0.00000000E+00  0.00000000E+00  0.00000000E+00
  0.00000000E+00  0.00000000E+00  0.00000000E+00
  0.00000000E+00  0.00000000E+00  0.00000000E+00
  0.00000000E+00  0.00000000E+00  0.00000000E+00
  0.00000000E+00  0.00000000E+00  0.00000000E+00
  0.00000000E+00  0.00000000E+00  0.00000000E+00
  0.00000000E+00  0.00000000E+00  0.00000000E+00
  0.00000000E+00  0.00000000E+00  0.00000000E+00
  0.00000000E+00  0.00000000E+00  0.00000000E+00
  0.00000000E+00  0.00000000E+00  0.00000000E+00
  0.00000000E+00  0.00000000E+00  0.00000000E+00
  0.00000000E+00  0.00000000E+00  0.00000000E+00
  0.00000000E+00  0.00000000E+00  0.00000000E+00
  0.00000000E+00  0.00000000E+00  0.00000000E+00
  0.00000000E+00  0.00000000E+00  0.00000000E+00
  0.00000000E+00  0.00000000E+00  0.00000000E+00
  0.00000000E+00  0.00000000E+00  0.00000000E+00
  0.00000000E+00  0.00000000E+00  0.00000000E+00
  0.00000000E+00  0.00000000E+00  0.00000000E+00
  0.00000000E+00  0.00000000E+00  0.00000000E+00
  0.00000000E+00  0.00000000E+00  0.00000000E+00
  0.00000000E+00  0.00000000E+00  0.00000000E+00
  0.00000000E+00  0.00000000E+00  0.00000000E+00
  0.00000000E+00  0.00000000E+00  0.00000000E+00
  0.00000000E+00  0.00000000E+00  0.00000000E+00
  0.00000000E+00  0.00000000E+00  0.00000000E+00
  0.00000000E+00  0.00000000E+00  0.00000000E+00
  0.00000000E+00  0.00000000E+00  0.00000000E+00
  0.00000000E+00  0.00000000E+00  0.00000000E+00
  0.00000000E+00  0.00000000E+00  0.00000000E+00
  0.00000000E+00  0.00000000E+00  0.00000000E+00
  0.00000000E+00  0.00000000E+00  0.00000000E+00
  0.00000000E+00  0.00000000E+00  0.00000000E+00
  0.00000000E+00  0.00000000E+00  0.00000000E+00
  0.00000000E+00  0.00000000E+00  0.00000000E+00
  0.00000000E+00  0.00000000E+00  0.00000000E+00
  0.00000000E+00  0.00000000E+00  0.00000000E+00
  0.00000000E+00  0.00000000E+00  0.00000000E+00
  0.00000000E+00  0.00000000E+00  0.00000000E+00
  0.00000000E+00  0.00000000E+00  0.00000000E+00
  0.00000000E+00  0.00000000E+00  0.00000000E+00
  0.00000000E+00  0.00000000E+00  0.00000000E+00
  0.00000000E+00  0.00000000E+00  0.00000000E+00
  0.00000000E+00  0.00000000E+00  0.00000000E+00
  0.00000000E+00  0.00000000E+00  0.00000000E+00
  0.00000000E+00  0.00000000E+00  0.00000000E+00
  0.00000000E+00  0.00000000E+00  0.00000000E+00
  0.00000000E+00  0.00000000E+00  0.00000000E+00
  0.00000000E+00  0.00000000E+00  0.00000000E+00
  0.00000000E+00  0.00000000E+00  0.00000000E+00
  0.00000000E+00  0.00000000E+00  0.00000000E+00
  0.00000000E+00  0.00000000E+00  0.00000000E+00
  0.00000000E+00  0.00000000E+00  0.00000000E+00
  0.00000000E+00  0.00000000E+00  0.00000000E+00
  0.00000000E+00  0.00000000E+00  0.00000000E+00
  0.00000000E+00  0.00000000E+00  0.00000000E+00
  0.00000000E+00  0.00000000E+00  0.00000000E+00
  0.00000000E+00  0.00000000E+00  0.00000000E+00
  0.00000000E+00  0.00000000E+00  0.00000000E+00
  0.00000000E+00  0.00000000E+00  0.00000000E+00
  0.00000000E+00  0.00000000E+00  0.00000000E+00
  0.00000000E+00  0.00000000E+00  0.00000000E+00
  0.00000000E+00  0.00000000E+00  0.00000000E+00
  0.00000000E+00  0.00000000E+00  0.00000000E+00
  0.00000000E+00  0.00000000E+00  0.00000000E+00
  0.00000000E+00  0.00000000E+00  0.00000000E+00
  0.00000000E+00  0.00000000E+00  0.00000000E+00
  0.00000000E+00  0.00000000E+00  0.00000000E+00
  0.00000000E+00  0.00000000E+00  0.00000000E+00
  0.00000000E+00  0.00000000E+00  0.00000000E+00
  0.00000000E+00  0.00000000E+00  0.00000000E+00
  0.00000000E+00  0.00000000E+00  0.00000000E+00
  0.00000000E+00  0.00000000E+00  0.00000000E+00
  0.00000000E+00  0.00000000E+00  0.00000000E+00
  0.00000000E+00  0.00000000E+00  0.00000000E+00
  0.00000000E+00  0.00000000E+00  0.00000000E+00
  0.00000000E+00  0.00000000E+00  0.00000000E+00
  0.00000000E+00  0.00000000E+00  0.00000000E+00
  0.00000000E+00  0.00000000E+00  0.00000000E+00
  0.00000000E+00  0.00000000E+00  0.00000000E+00
  0.00000000E+00  0.00000000E+00  0.00000000E+00
  0.00000000E+00  0.00000000E+00  0.00000000E+00
  0.00000000E+00  0.00000000E+00  0.00000000E+00
  0.00000000E+00  0.00000000E+00  0.00000000E+00
  0.00000000E+00  0.00000000E+00  0.00000000E+00
  0.00000000E+00  0.00000000E+00  0.00000000E+00
  0.00000000E+00  0.00000000E+00  0.00000000E+00
  0.00000000E+00  0.00000000E+00  0.00000000E+00
  0.00000000E+00  0.00000000E+00  0.00000000E+00
  0.00000000E+00  0.00000000E+00  0.00000000E+00
  0.00000000E+00  0.00000000E+00  0.00000000E+00
  0.00000000E+00  0.00000000E+00  0.00000000E+00
  0.00000000E+00  0.00000000E+00  0.00000000E+00
  0.00000000E+00  0.00000000E+00  0.00000000E+00
  0.00000000E+00  0.00000000E+00  0.00000000E+00
  0.00000000E+00  0.00000000E+00  0.00000000E+00
  0.00000000E+00  0.00000000E+00  0.00000000E+00
  0.00000000E+00  0.00000000E+00  0.00000000E+00
  0.00000000E+00  0.00000000E+00  0.00000000E+00
  0.00000000E+00  0.00000000E+00  0.00000000E+00
  0.00000000E+00  0.00000000E+00  0.00000000E+00
  0.00000000E+00  0.00000000E+00  0.00000000E+00
  0.00000000E+00  0.00000000E+00  0.00000000E+00
  0.00000000E+00  0.00000000E+00  0.00000000E+00
  0.00000000E+00  0.00000000E+00  0.00000000E+00
  0.00000000E+00  0.00000000E+00  0.00000000E+00
  0.00000000E+00  0.00000000E+00  0.00000000E+00
  0.00000000E+00  0.00000000E+00  0.00000000E+00
  0.00000000E+00  0.00000000E+00  0.00000000E+00
  0.00000000E+00  0.00000000E+00  0.00000000E+00
  0.00000000E+00  0.00000000E+00  0.00000000E+00
  0.00000000E+00  0.00000000E+00  0.00000000E+00
  0.00000000E+00  0.00000000E+00  0.00000000E+00
  0.00000000E+00  0.00000000E+00  0.00000000E+00
  0.00000000E+00  0.00000000E+00  0.00000000E+00
  0.00000000E+00  0.00000000E+00  0.00000000E+00
  0.00000000E+00  0.00000000E+00  0.00000000E+00
  0.00000000E+00  0.00000000E+00  0.00000000E+00
  0.00000000E+00  0.00000000E+00  0.00000000E+00
  0.00000000E+00  0.00000000E+00  0.00000000E+00
  0.00000000E+00  0.00000000E+00  0.00000000E+00
  0.00000000E+00  0.00000000E+00  0.00000000E+00
  0.00000000E+00  0.00000000E+00  0.00000000E+00
  0.00000000E+00  0.00000000E+00  0.00000000E+00
  0.00000000E+00  0.00000000E+00  0.00000000E+00
  0.00000000E+00  0.00000000E+00  0.00000000E+00
  0.00000000E+00  0.00000000E+00  0.00000000E+00
  0.00000000E+00  0.00000000E+00  0.00000000E+00
  0.00000000E+00  0.00000000E+00  0.00000000E+00
  0.00000000E+00  0.00000000E+00  0.00000000E+00
  0.00000000E+00  0.00000000E+00  0.00000000E+00
  0.00000000E+00  0.00000000E+00  0.00000000E+00
  0.00000000E+00  0.00000000E+00  0.00000000E+00
  0.00000000E+00  0.00000000E+00  0.00000000E+00
  0.00000000E+00  0.00000000E+00  0.00000000E+00
  0.00000000E+00  0.00000000E+00  0.00000000E+00
  0.00000000E+00  0.00000000E+00  0.00000000E+00
  0.00000000E+00  0.00000000E+00  0.00000000E+00
  0.00000000E+00  0.00000000E+00  0.00000000E+00
  0.00000000E+00  0.00000000E+00  0.00000000E+00
  0.00000000E+00  0.00000000E+00  0.00000000E+00
  0.00000000E+00  0.00000000E+00  0.00000000E+00
  0.00000000E+00  0.00000000E+00  0.00000000E+00
  0.00000000E+00  0.00000000E+00  0.00000000E+00
  0.00000000E+00  0.00000000E+00  0.00000000E+00
  0.00000000E+00  0.00000000E+00  0.00000000E+00
  0.00000000E+00  0.00000000E+00  0.00000000E+00
  0.00000000E+00  0.00000000E+00  0.00000000E+00
  0.00000000E+00  0.00000000E+00  0.00000000E+00
  0.00000000E+00  0.00000000E+00  0.00000000E+00
  0.00000000E+00  0.00000000E+00  0.00000000E+00
  0.00000000E+00  0.00000000E+00  0.00000000E+00
  0.00000000E+00  0.00000000E+00  0.00000000E+00
  0.00000000E+00  0.00000000E+00  0.00000000E+00
  0.00000000E+00  0.00000000E+00  0.00000000E+00
  0.00000000E+00  0.00000000E+00  0.00000000E+00
  0.00000000E+00  0.00000000E+00  0.00000000E+00
  0.00000000E+00  0.00000000E+00  0.00000000E+00
  0.00000000E+00  0.00000000E+00  0.00000000E+00
  0.00000000E+00  0.00000000E+00  0.00000000E+00
  0.00000000E+00  0.00000000E+00  0.00000000E+00
  0.00000000E+00  0.00000000E+00  0.00000000E+00
  0.00000000E+00  0.00000000E+00  0.00000000E+00
  0.00000000E+00  0.00000000E+00  0.00000000E+00
  0.00000000E+00  0.00000000E+00  0.00000000E+00
  0.00000000E+00  0.00000000E+00  0.00000000E+00
  0.00000000E+00  0.00000000E+00  0.00000000E+00
  0.00000000E+00  0.00000000E+00  0.00000000E+00
  0.00000000E+00  0.00000000E+00  0.00000000E+00
  0.00000000E+00  0.00000000E+00  0.00000000E+00
  0.00000000E+00  0.00000000E+00  0.00000000E+00
  0.00000000E+00  0.00000000E+00  0.00000000E+00
  0.00000000E+00  0.00000000E+00  0.00000000E+00
  0.00000000E+00  0.00000000E+00  0.00000000E+00
  0.00000000E+00  0.00000000E+00  0.00000000E+00
  0.00000000E+00  0.00000000E+00  0.00000000E+00
  0.00000000E+00  0.00000000E+00  0.00000000E+00
  0.00000000E+00  0.00000000E+00  0.00000000E+00
  0.00000000E+00  0.00000000E+00  0.00000000E+00
  0.00000000E+00  0.00000000E+00  0.00000000E+00
  0.00000000E+00  0.00000000E+00  0.00000000E+00
  0.00000000E+00  0.00000000E+00  0.00000000E+00
  0.00000000E+00  0.00000000E+00  0.00000000E+00
  0.00000000E+00  0.00000000E+00  0.00000000E+00
  0.00000000E+00  0.00000000E+00  0.00000000E+00
  0.00000000E+00  0.00000000E+00  0.00000000E+00
  0.00000000E+00  0.00000000E+00  0.00000000E+00
  0.00000000E+00  0.00000000E+00  0.00000000E+00
  0.00000000E+00  0.00000000E+00  0.00000000E+00
  0.00000000E+00  0.00000000E+00  0.00000000E+00
  0.00000000E+00  0.00000000E+00  0.00000000E+00
  0.00000000E+00  0.00000000E+00  0.00000000E+00
  0.00000000E+00  0.00000000E+00  0.00000000E+00
  0.00000000E+00  0.00000000E+00  0.00000000E+00
  0.00000000E+00  0.00000000E+00  0.00000000E+00
  0.00000000E+00  0.00000000E+00  0.00000000E+00
  0.00000000E+00  0.00000000E+00  0.00000000E+00
  0.00000000E+00  0.00000000E+00  0.00000000E+00
  0.00000000E+00  0.00000000E+00  0.00000000E+00
  0.00000000E+00  0.00000000E+00  0.00000000E+00
  0.00000000E+00  0.00000000E+00  0.00000000E+00
  0.00000000E+00  0.00000000E+00  0.00000000E+00
  0.00000000E+00  0.00000000E+00  0.00000000E+00
  0.00000000E+00  0.00000000E+00  0.00000000E+00
  0.00000000E+00  0.00000000E+00  0.00000000E+00
  0.00000000E+00  0.00000000E+00  0.00000000E+00
  0.00000000E+00  0.00000000E+00  0.00000000E+00