In3 Te4
1.0
  13.9030059999999995   -2.1702879999999989    0.0000000000000000
  13.9030059999999995    2.1702879999999989    0.0000000000000000
  13.5642189999999996    0.0000000000000000    3.7437510000000001
In Te
3 4
direct
   0.0000000000000000    0.0000000000000000    0.0000000000000000 In
   0.4266330000000000    0.4266330000000000    0.4266330000000000 In
   0.5733670000000000    0.5733670000000000    0.5733670000000000 In
   0.1287680000000000    0.1287680000000000    0.1287680000000000 Te
   0.8712320000000000    0.8712320000000000    0.8712320000000000 Te
   0.2906070000000000    0.2906070000000000    0.2906070000000000 Te
   0.7093929999999991    0.7093929999999991    0.7093929999999991 Te
