Cd Ge Sb Te                             
   1.00000000000000     
    17.7523124591410394    0.0000000000000000    0.0000000000000000
     0.0000000000000000   17.7523124591410394    0.0000000000000000
     0.0000000000000000    0.0000000000000000   17.7523124591410394
   Cd   Ge   Sb   Te
     8    32    32    80
Direct
  0.1461730120652824  0.2417768076875632  0.8030375000889536
  0.5550625858311256  0.2926555322118095  0.8348408464948176
  0.2762469827409298  0.4337678657518492  0.0000579602421171
  0.6058948272316981  0.4565395860835202  0.5922832434338609
  0.2956179327521593  0.7329610128271420  0.8635254083001574
  0.9935957899197481  0.4574934014610444  0.0313212793303887
  0.4058116066057282  0.0137071136024382  0.4128257806649752
  0.6042621338567153  0.2470554015709687  0.0717836457780329
  0.4632031841976605  0.5211155494894761  0.8974603104613559
  0.2979540233912096  0.8793273610469263  0.2131122185500421
  0.6033278216459403  0.0273143246071570  0.0716978609004322
  0.3655861359562300  0.7234588963519367  0.1437601697381241
  0.8235404782381569  0.7824238320931903  0.4495681958950601
  0.1418572993654919  0.4257365426994684  0.8518398311672749
  0.7608442878160188  0.4190953814888123  0.9452449953345236
  0.6251571799935389  0.8964571095949646  0.7839005258153058
  0.1364550757650048  0.6582762349232809  0.0077653707868761
  0.4488942924871062  0.7669451829008824  0.6453003761497268
  0.7913982076827129  0.3076227911894266  0.7343216272024146
  0.4327314088557325  0.9277286207086236  0.8824655778277745
  0.1875117881956806  0.0762395915044423  0.0452951195303397
  0.5702588385044439  0.8599981039052494  0.4326676202272823
  0.7817760685890577  0.4104023832606446  0.0895233133771327
  0.1785619593470809  0.1198538151028069  0.2757115397037896
  0.3953768828173945  0.6645190274745318  0.5360734912719104
  0.9476619202877630  0.8415833408109518  0.6377041641184621
  0.9820401412998205  0.2146611361841329  0.9079261561740162
  0.7388042949546338  0.5526521524344127  0.1111154577867792
  0.3540518738118595  0.3465276637985826  0.8271359752948070
  0.3691733329457521  0.5727649131500394  0.6825123393073373
  0.5274565409474868  0.4758863539012485  0.1072300868736231
  0.0960674935056657  0.6531431295683857  0.1538470561243976
  0.9922352070089997  0.0682307880585697  0.1510827489493626
  0.1694641605626762  0.5736825956812267  0.2548415225373850
  0.7097317168221274  0.8603583764944293  0.8964340990382790
  0.9870480624637891  0.2665606582520796  0.2106219501644788
  0.8796724104653887  0.1762053271986175  0.7898364771887680
  0.7853635910665954  0.7048531215221844  0.2498074010820144
  0.6893535243848393  0.6079644808764242  0.8569542677798381
  0.1348339612439305  0.9437521662926697  0.4114271819621182
  0.1336502512588359  0.3472202804609301  0.2114584396900813
  0.1399810461821163  0.4262768115253702  0.4433575044619280
  0.9609622464779475  0.0427511523150243  0.7568516751847690
  0.8271288885823344  0.4767841965094136  0.5997264095298206
  0.4946480150584821  0.8573946522048379  0.2873611867216450
  0.1046337872668256  0.2688430750922268  0.4167466166018200
  0.5303455642192947  0.2309307852940594  0.3462012136295732
  0.1135112000185103  0.8759470304483798  0.7731827503899341
  0.5103351247241212  0.7474313205608480  0.9586186491035850
  0.1841726856362851  0.0875322590790591  0.5903612271004924
  0.8429927282223247  0.8314767157978963  0.8245464017761848
  0.4818475258791325  0.1667374083139624  0.6084015630464285
  0.9520191858129881  0.8180734288225906  0.3770138492601269
  0.3385444979203371  0.1556901791272839  0.9548418921789654
  0.7046385372173710  0.6000008233729905  0.4170675450346502
  0.8641548827075882  0.7158497813360040  0.1099273375021930
  0.7386356602586397  0.1292439505734853  0.8577253684653122
  0.0582870603390809  0.4613812726482562  0.3013355797808527
  0.3569801595429008  0.7571207594301261  0.4109547829120807
  0.7296916663417480  0.0650537632480606  0.6159722219468754
  0.2167926923822137  0.8989412550086694  0.9029692094184024
  0.1953659829023183  0.5572664188949068  0.5464035794649924
  0.2723631570391336  0.3676713625107850  0.2913601890542705
  0.3576610468857926  0.5540329192467555  0.4276813273208711
  0.0592071846041087  0.9279316087383348  0.5593704664831430
  0.6150751618986700  0.8672581801415835  0.1786842622846310
  0.9233896578885811  0.5052193883168059  0.7989974941134783
  0.8439196305241637  0.6470072293805050  0.4999303272979345
  0.0594763478716618  0.7806208663284472  0.9493815764765516
  0.1792904429723169  0.4502407993911928  0.7069507899258559
  0.5176476624125237  0.6088176393870922  0.6659358941805089
  0.7116509318645509  0.3375847449329954  0.2675807065491124
  0.7271438706638192  0.9692284466396917  0.9947994145041791
  0.1240640390462934  0.7182288719769117  0.8183761539052700
  0.2211202231294916  0.2692985443852930  0.9335988329000197
  0.1450513102476080  0.4563606583721612  0.0987694683278930
  0.0221517141711587  0.7641511449132767  0.5195082346099246
  0.3932153098007906  0.2702444609396136  0.1041038842713893
  0.0374411475843620  0.5571384509048154  0.9036316830534954
  0.8968657760617283  0.1373900106929131  0.6413461033208937
  0.8637799311513883  0.3222800883131538  0.5959566341227079
  0.7244199323479280  0.4544153270088724  0.7189229347579255
  0.5320650613091014  0.8968915820687112  0.0404036569958409
  0.3474537665912619  0.4187938015202673  0.1545755788314226
  0.4296272894154550  0.8775357406535782  0.4983344728784767
  0.8233894773397334  0.5561083873890126  0.9136668637919764
  0.9587652392168781  0.8418715288495167  0.1311768319855013
  0.4224409109957735  0.1714455817716415  0.4603678279202814
  0.9088342184221064  0.6409615460689744  0.7027378047371214
  0.6701917381499036  0.7174335759610052  0.9623891624797603
  0.1192340067603017  0.0842083719267356  0.7565604629193519
  0.2725058532608229  0.6840989158297595  0.6287254306812120
  0.0057704682580838  0.4984651091039921  0.4996727900644440
  0.8589397582135295  0.6023137420839030  0.3325990563183338
  0.2005940204686793  0.9936213294122523  0.1841111223637689
  0.4921827246568516  0.1358538137535106  0.0589200331358828
  0.3173293066198936  0.2209894754809865  0.2756875713139016
  0.0960155732900791  0.1792281587122365  0.1126566104977891
  0.4684655479475572  0.3690441426072373  0.9998728127347782
  0.7332940681615351  0.4441703898077722  0.4726494280499389
  0.7659670796949604  0.7102827184681549  0.7486966583726246
  0.3293524073523574  0.1086374444023421  0.6658645289901195
  0.8987520695509419  0.0080029791216084  0.0182738465867162
  0.5655527598091730  0.0198309499799448  0.5972935062914373
  0.9538307783255535  0.5955386408600624  0.1488972390305653
  0.4092149832417722  0.9882090691978341  0.2476954397871136
  0.2625882147800118  0.7623697756970308  0.0236634387582823
  0.0466674906262941  0.5781731906431444  0.6280753830024940
  0.9641676064432885  0.3244945552122733  0.3625141022945776
  0.3132523873926655  0.5160052610499157  0.8713487112544742
  0.4844060080786189  0.4313008989664122  0.7832162411990059
  0.5298993774734730  0.0035796535639681  0.7977671341903325
  0.8115661324464942  0.8746154195987182  0.5611224767822101
  0.5916121471677205  0.7864446653041187  0.6872418679270620
  0.3171726790295196  0.0202907522062957  0.8524470773365966
  0.8625755521895363  0.1591875911341476  0.9848584751580127
  0.2031391145430346  0.6433962212286849  0.3972081890275624
  0.4872720287179892  0.3496919205960358  0.5599423810994910
  0.0864850000542137  0.7960716796906013  0.2063053345733835
  0.9145261292722034  0.3546189562104229  0.9163768271063069
  0.3425727650288081  0.4652308322134929  0.5639324956755957
  0.2209718205767584  0.8253944082314725  0.3371316830437982
  0.7053342680624092  0.7862324277655126  0.3570788355101733
  0.9206665237112731  0.4064023255827500  0.1708243624262612
  0.4950350369471129  0.6946552167471676  0.3417491887701117
  0.6240334489575035  0.0203566892694232  0.2265261803606957
  0.0770128717287416  0.2089186603338913  0.5622928791246208
  0.6780004400973736  0.1950581004546284  0.7110512725833505
  0.0562313722197660  0.9919420061747433  0.2744138897640817
  0.4654508005072484  0.6581485160338647  0.8315475734080419
  0.4245136684374098  0.2002185622339098  0.8254295118966146
  0.6813236073099361  0.2692473797504791  0.9131142742072640
  0.4830193731648332  0.6533283917409324  0.0798794497132619
  0.1948686926188248  0.8851990360091542  0.6416382666714521
  0.9093027418787767  0.7155904665790331  0.9235902011240735
  0.6141413159980691  0.0115866173131508  0.4452378821502807
  0.5610873008741396  0.3465629584780220  0.2149126709977212
  0.8966806605573688  0.1487545128087191  0.2328812232267694
  0.0965222081021413  0.9759448610275678  0.9791666181923095
  0.6343251843141275  0.5085682152217567  0.0105125120074401
  0.7540212988662930  0.9760282633993976  0.7565574320655390
  0.3647431191030335  0.8401624010545938  0.7632325494916327
  0.5472119010430881  0.5935034322147592  0.5011411427089180
  0.0527251412538511  0.3609779322001074  0.7465923164849629
  0.7496414858968465  0.2630488506621396  0.1313874960511494
  0.9523367199553725  0.9742403570443924  0.4020023367387919
  0.5115168708531898  0.3811607905689768  0.4012659836154394
  0.2312969350110119  0.0596905363080635  0.4242655123364858
  0.6867586684866063  0.2097974013104546  0.3553508837387510
  0.6603649874636431  0.6251764240302302  0.2203057638892175
  0.2705539787298819  0.3166173338755813  0.6984582878569394
  0.3127516641691716  0.5923110143540696  0.2073114162894806
 
 -0.16583236E-02 -0.15941911E-02  0.57175492E-03
 -0.91437282E-03  0.10649644E-02 -0.18406280E-02
 -0.16914731E-02  0.45129518E-03  0.62694976E-03
  0.38792436E-03 -0.28603493E-03  0.90487559E-03
 -0.78803438E-03 -0.68713799E-03 -0.22692156E-02
 -0.11987939E-02 -0.84851151E-04 -0.20210051E-02
 -0.91397949E-03 -0.22136436E-03 -0.22489961E-02
  0.62766307E-03  0.25429330E-04 -0.33189873E-03
  0.36448361E-02 -0.27325719E-02 -0.36176988E-02
 -0.85864197E-03  0.30943089E-03 -0.12449714E-02
 -0.54494003E-03 -0.23744550E-02  0.16638221E-02
  0.45499741E-03 -0.24470376E-02 -0.18511752E-02
 -0.17852572E-02  0.17837733E-02 -0.24472459E-02
  0.95330694E-03  0.11586384E-02  0.10803059E-02
  0.70700289E-03  0.73437625E-03 -0.33056389E-02
  0.16813536E-02  0.93271134E-04 -0.18867810E-02
  0.10601661E-02 -0.12083221E-02  0.10911710E-03
  0.12500815E-02  0.30178534E-02  0.23947726E-02
 -0.31937823E-02 -0.74315040E-03 -0.44324065E-02
  0.25978443E-02 -0.66088823E-03  0.25519157E-02
  0.74105605E-03 -0.28890604E-03 -0.20543745E-02
  0.88524959E-03 -0.24467813E-02 -0.54415223E-03
 -0.13265986E-02 -0.16815552E-02  0.15355573E-02
  0.25884349E-02 -0.22197566E-02  0.76047506E-03
  0.21470225E-04  0.86066324E-04 -0.62419032E-03
  0.12086218E-02 -0.52819989E-03 -0.11389463E-02
 -0.10628734E-02 -0.28922747E-02 -0.15275041E-02
 -0.99154037E-03  0.21303494E-02  0.83125249E-03
 -0.29956359E-02  0.22769998E-02  0.23522343E-02
 -0.44169559E-02  0.87777568E-03 -0.43430442E-03
 -0.17714176E-02 -0.27720828E-02 -0.31267337E-02
 -0.23736402E-02 -0.65834313E-03 -0.17160926E-02
  0.83919577E-03  0.10909775E-02 -0.28129203E-03
  0.38005416E-02 -0.52461452E-03 -0.18002529E-02
  0.14836210E-02  0.13802681E-02 -0.20982345E-02
  0.48694616E-03 -0.23684912E-03 -0.39573201E-03
 -0.10586946E-02  0.25680594E-02  0.13168140E-02
  0.23084526E-02 -0.38651703E-02 -0.27063172E-02
  0.12905152E-02  0.18097830E-03 -0.18853390E-02
  0.39010833E-03  0.26095860E-02 -0.34729237E-03
  0.19362459E-02 -0.29459436E-02 -0.61075095E-03
 -0.28347815E-02  0.18439565E-02  0.19970532E-02
  0.15276087E-02  0.16483731E-03  0.12519180E-03
  0.29091470E-03  0.30987075E-03  0.17529227E-02
  0.72194967E-03  0.22193218E-02  0.12509489E-02
  0.14002891E-03 -0.95434724E-03  0.18573512E-02
 -0.17010387E-03 -0.60947875E-03  0.14273812E-02
 -0.36591226E-02  0.27519372E-02  0.17278345E-02
  0.38992000E-03  0.86868958E-03  0.12187157E-02
 -0.24079526E-02 -0.61834090E-03  0.17434868E-03
 -0.12751454E-02 -0.68054024E-03  0.47331204E-03
 -0.52261720E-03 -0.13701440E-02  0.43710882E-03
 -0.16440111E-02  0.13148700E-02  0.58489135E-03
  0.79446499E-03 -0.10991622E-02 -0.15853235E-03
 -0.88374445E-03 -0.12964087E-02  0.23076168E-02
  0.65843779E-03  0.52527975E-03  0.16445403E-02
  0.15066748E-03  0.11609814E-02 -0.64404177E-03
  0.23119552E-02 -0.29287896E-04  0.49246058E-03
  0.74498612E-03  0.14281591E-02  0.29336686E-02
 -0.24195108E-02  0.26907212E-03  0.14572410E-02
  0.10834991E-02 -0.12290866E-02  0.20235853E-02
  0.12625273E-02 -0.11955381E-02  0.20232966E-02
 -0.14368313E-02 -0.20751872E-03 -0.59651679E-03
  0.13715371E-02  0.62819232E-03 -0.23132621E-04
  0.20285903E-02  0.13916705E-03 -0.14376912E-02
 -0.19687218E-02 -0.19451161E-02  0.30130932E-02
 -0.33147387E-03  0.48184356E-04 -0.10910728E-03
  0.99613963E-03  0.20348464E-02  0.55854524E-03
 -0.37372514E-03  0.54842352E-03  0.10331492E-02
 -0.64611190E-03  0.21541055E-02  0.19935938E-02
 -0.13996544E-02  0.22871490E-03 -0.47569090E-03
 -0.65505110E-03  0.41730728E-03  0.67189300E-03
 -0.45788471E-03  0.12782269E-02  0.57552285E-03
  0.18790807E-03  0.18899551E-03  0.21156580E-02
  0.25074224E-02 -0.49195827E-03 -0.13789200E-02
  0.31682554E-03  0.21964413E-02  0.18406342E-02
  0.11741582E-02 -0.14842521E-02 -0.16837242E-02
 -0.23724570E-03 -0.24774403E-03 -0.10900643E-02
  0.10760942E-02 -0.20524333E-02 -0.13608954E-03
 -0.60224925E-03  0.62726360E-03 -0.59796784E-03
  0.25051006E-02 -0.10583495E-02 -0.18676857E-02
 -0.10520070E-02  0.59258542E-03 -0.16620841E-02
 -0.16173422E-02  0.58487775E-03 -0.26828257E-02
  0.12012544E-02  0.20405550E-02 -0.25492270E-02
 -0.98896287E-03  0.36934700E-03  0.50342986E-03
  0.19532171E-02  0.94276542E-03 -0.41707684E-03
  0.14508175E-02  0.36482100E-03  0.70293110E-03
  0.16968603E-02  0.24580101E-03 -0.16131681E-02
 -0.10278515E-02 -0.19136368E-02  0.70698551E-03
 -0.14726570E-02  0.90555249E-03 -0.32966923E-03
  0.15538686E-02  0.47473202E-03  0.20298078E-02
  0.16754947E-02  0.19100306E-02 -0.10690569E-02
 -0.51658192E-03  0.14431467E-02 -0.60591470E-03
  0.24417836E-02 -0.12777625E-02  0.22835313E-02
 -0.91563580E-03  0.18130643E-02 -0.15795959E-03
 -0.18779085E-02  0.50850851E-03  0.11586319E-03
 -0.16341776E-02 -0.32978667E-03  0.23218254E-02
  0.48096664E-03  0.75142618E-03  0.88726040E-03
  0.12862757E-02 -0.77167886E-03  0.14548121E-02
 -0.50290020E-03  0.10203346E-03  0.91879252E-03
 -0.98246735E-03 -0.50292869E-03 -0.31844913E-03
 -0.19059544E-02 -0.72984169E-05  0.14974197E-02
  0.99066213E-03 -0.20351321E-02 -0.84208766E-03
 -0.21801354E-03 -0.13178306E-03 -0.20991193E-03
 -0.66540520E-03  0.69919585E-03  0.10049431E-02
 -0.83991307E-03 -0.69559702E-03 -0.26767938E-02
  0.10680274E-02 -0.84610183E-03 -0.67793741E-03
  0.84826854E-03 -0.16002505E-03 -0.12895725E-02
 -0.70571075E-03 -0.49680905E-03  0.44359839E-03
 -0.93605060E-03 -0.16331097E-04 -0.14039662E-02
  0.33560269E-03  0.11961249E-02  0.50300109E-03
  0.14348729E-02 -0.12201946E-02  0.16277665E-03
  0.13198047E-02 -0.42166353E-02 -0.71800178E-03
  0.17856316E-03  0.12011765E-02  0.20507545E-02
 -0.31468324E-04 -0.10949889E-03 -0.59800051E-03
 -0.22079831E-03  0.10969402E-02  0.13841238E-02
  0.44448417E-03 -0.10424458E-02  0.12249783E-02
  0.35523787E-02 -0.97889327E-03  0.16029494E-02
 -0.19718338E-03 -0.41168915E-03  0.17434662E-02
 -0.17944066E-02  0.71353150E-03  0.12037748E-02
  0.83352075E-03 -0.33459165E-02 -0.18845807E-02
  0.17766217E-02  0.46259452E-03  0.14361032E-03
  0.20190365E-02 -0.34345875E-02  0.45916974E-03
  0.88285290E-03  0.60627994E-03 -0.14470322E-03
 -0.26387349E-02  0.92626261E-03 -0.13550554E-02
 -0.18357314E-02  0.61786799E-03  0.12009949E-02
  0.21210547E-03 -0.58479983E-04 -0.10721531E-02
  0.11281115E-02  0.14463101E-02  0.18184633E-02
 -0.19305139E-02  0.55200350E-03  0.57507090E-03
 -0.60490818E-03 -0.17898172E-02 -0.17211324E-03
  0.44697946E-03  0.10001910E-02  0.33195977E-03
 -0.18752894E-02  0.14210739E-02 -0.11828343E-02
  0.47087947E-03 -0.94699009E-03 -0.48533363E-03
  0.82395560E-03  0.15766382E-02  0.14608605E-02
 -0.29056034E-02 -0.11135319E-02  0.12683702E-03
 -0.23888049E-02 -0.50307699E-03 -0.51811350E-03
 -0.53970557E-03  0.31730372E-02 -0.22569876E-02
  0.78629790E-03 -0.14625039E-02 -0.20345462E-02
  0.34722351E-03 -0.14926325E-02  0.24563847E-02
  0.80355908E-03  0.54446908E-03 -0.68315114E-03
 -0.20840523E-02 -0.11539194E-03 -0.19524406E-02
  0.19806368E-02  0.20293345E-02 -0.18919781E-02
 -0.21377065E-02  0.15580630E-02  0.10872149E-02
 -0.39908746E-03  0.37323378E-03  0.67872769E-03
  0.17325454E-02  0.37543321E-02  0.99464821E-04
 -0.12505239E-02 -0.25306277E-02 -0.21295751E-02
  0.15911499E-02 -0.13598063E-02  0.41700339E-03
  0.27546917E-03  0.26517325E-02 -0.25453408E-02
 -0.12767835E-02 -0.25610528E-02 -0.96765809E-03
  0.68385906E-03 -0.84951240E-03 -0.86490461E-03
  0.17891080E-02  0.12085197E-02  0.20280967E-02
  0.93282169E-03 -0.10219245E-02 -0.12602035E-02
 
           1
   3.00000000000000     
  0.10000000E+01  0.00000000E+00  0.00000000E+00  0.00000000E+00
  0.14589434E+00  0.24150891E+00  0.80313358E+00
  0.55490893E+00  0.29283449E+00  0.83453154E+00
  0.27596274E+00  0.43384370E+00  0.16331630E-03
  0.60596002E+00  0.45649152E+00  0.59243530E+00
  0.29548551E+00  0.73284554E+00  0.86314408E+00
  0.99339434E+00  0.45747914E+00  0.30981659E-01
  0.40565802E+00  0.13669914E-01  0.41244785E+00
  0.60436761E+00  0.24705967E+00  0.71727872E-01
  0.46381568E+00  0.52065635E+00  0.89685237E+00
  0.29780973E+00  0.87937936E+00  0.21290301E+00
  0.60323625E+00  0.26915308E-01  0.71977459E-01
  0.36566260E+00  0.72304768E+00  0.14344909E+00
  0.82324047E+00  0.78272359E+00  0.44915695E+00
  0.14201750E+00  0.42593125E+00  0.85202137E+00
  0.76096310E+00  0.41921879E+00  0.94468950E+00
  0.62543972E+00  0.89647278E+00  0.78358346E+00
  0.13663323E+00  0.65807318E+00  0.77837074E-02
  0.44910436E+00  0.76745232E+00  0.64570281E+00
  0.79086151E+00  0.30749791E+00  0.73357678E+00
  0.43316796E+00  0.92761756E+00  0.88289442E+00
  0.18763632E+00  0.76191042E-01  0.44949891E-01
  0.57040760E+00  0.85958693E+00  0.43257618E+00
  0.78155314E+00  0.41011981E+00  0.89781357E-01
  0.17899693E+00  0.11948080E+00  0.27583933E+00
  0.39538049E+00  0.66453349E+00  0.53596860E+00
  0.94786502E+00  0.84149458E+00  0.63751277E+00
  0.98186153E+00  0.21417510E+00  0.90766947E+00
  0.73863767E+00  0.55301015E+00  0.11125515E+00
  0.35354847E+00  0.34691030E+00  0.82753126E+00
  0.36843108E+00  0.57291242E+00  0.68243936E+00
  0.52715886E+00  0.47542052E+00  0.10670465E+00
  0.95668614E-01  0.65303250E+00  0.15355867E+00
  0.99237623E+00  0.68414122E-01  0.15103548E+00
  0.17010282E+00  0.57359444E+00  0.25453900E+00
  0.70998103E+00  0.86059032E+00  0.89608150E+00
  0.98712989E+00  0.26652086E+00  0.21055545E+00
  0.87949450E+00  0.17663688E+00  0.79005776E+00
  0.78575152E+00  0.70420360E+00  0.24935262E+00
  0.68957039E+00  0.60799489E+00  0.85663745E+00
  0.13489952E+00  0.94419070E+00  0.41136882E+00
  0.13397563E+00  0.34672523E+00  0.21135581E+00
  0.13950467E+00  0.42658668E+00  0.44369310E+00
  0.96121895E+00  0.42778852E-01  0.75687271E+00
  0.82717778E+00  0.47683627E+00  0.60002098E+00
  0.49476934E+00  0.85776760E+00  0.28757140E+00
  0.10465732E+00  0.26868270E+00  0.41705874E+00
  0.53031698E+00  0.23082837E+00  0.34644108E+00
  0.11289630E+00  0.87640948E+00  0.77347311E+00
  0.51040065E+00  0.74757730E+00  0.95882345E+00
  0.18376804E+00  0.87428350E-01  0.59039053E+00
  0.84277845E+00  0.83136235E+00  0.82462594E+00
  0.48175970E+00  0.16650716E+00  0.60847502E+00
  0.95174292E+00  0.81829439E+00  0.37711214E+00
  0.33867800E+00  0.15550547E+00  0.95481525E+00
  0.70449003E+00  0.59978297E+00  0.41745533E+00
  0.86426553E+00  0.71593805E+00  0.11020370E+00
  0.73866098E+00  0.12943905E+00  0.85761714E+00
  0.58675574E-01  0.46137635E+00  0.30141834E+00
  0.35710535E+00  0.75736076E+00  0.41144777E+00
  0.72928508E+00  0.65098980E-01  0.61621710E+00
  0.21697477E+00  0.89873471E+00  0.90330926E+00
  0.19557814E+00  0.55706551E+00  0.54674359E+00
  0.27212170E+00  0.36763649E+00  0.29125995E+00
  0.35789153E+00  0.55413848E+00  0.42767744E+00
  0.59548080E-01  0.92795500E+00  0.55912887E+00
  0.61474433E+00  0.86693131E+00  0.17919060E+00
  0.92333396E+00  0.50522749E+00  0.79897916E+00
  0.84408703E+00  0.64734918E+00  0.50002419E+00
  0.59413545E-01  0.78071303E+00  0.94955519E+00
  0.17918187E+00  0.45060279E+00  0.70728580E+00
  0.51741246E+00  0.60885607E+00  0.66585596E+00
  0.71154085E+00  0.33765487E+00  0.26769362E+00
  0.72706693E+00  0.96944325E+00  0.99489613E+00
  0.12409562E+00  0.71826063E+00  0.81873168E+00
  0.22154158E+00  0.26921587E+00  0.93336711E+00
  0.14510455E+00  0.45672976E+00  0.99078779E-01
  0.22349026E-01  0.76390172E+00  0.51922529E+00
  0.39317544E+00  0.27020283E+00  0.10392070E+00
  0.37621980E-01  0.55679355E+00  0.90360881E+00
  0.89676457E+00  0.13749542E+00  0.64124562E+00
  0.86420090E+00  0.32210224E+00  0.59564278E+00
  0.72424315E+00  0.45451491E+00  0.71864363E+00
  0.53179327E+00  0.89698987E+00  0.39952820E-01
  0.34765563E+00  0.41913671E+00  0.15414719E+00
  0.42946110E+00  0.87759781E+00  0.49841907E+00
  0.82371771E+00  0.55626681E+00  0.91359678E+00
  0.95900904E+00  0.84193284E+00  0.13129496E+00
  0.42272606E+00  0.17148689E+00  0.46009674E+00
  0.90866149E+00  0.64063997E+00  0.70285661E+00
  0.66994426E+00  0.71758575E+00  0.96233376E+00
  0.11949513E+00  0.84288148E-01  0.75690156E+00
  0.27278741E+00  0.68441989E+00  0.62854578E+00
  0.56836590E-02  0.49870762E+00  0.49957097E+00
  0.85935009E+00  0.60209902E+00  0.33298279E+00
  0.20044015E+00  0.99392601E+00  0.18408458E+00
  0.49186715E+00  0.13593927E+00  0.58939503E-01
  0.31705469E+00  0.22093406E+00  0.27607774E+00
  0.96096398E-01  0.17935443E+00  0.11280571E+00
  0.46868170E+00  0.36891447E+00  0.11728730E-03
  0.73320956E+00  0.44418754E+00  0.47280383E+00
  0.76580198E+00  0.71019820E+00  0.74864314E+00
  0.32903212E+00  0.10863622E+00  0.66611616E+00
  0.89891855E+00  0.76609844E-02  0.18132338E-01
  0.56551612E+00  0.19808804E-01  0.59725823E+00
  0.95371896E+00  0.59565614E+00  0.14906612E+00
  0.40907384E+00  0.98809218E+00  0.24724562E+00
  0.26276769E+00  0.76222759E+00  0.23549514E-01
  0.46810038E-01  0.57814630E+00  0.62785868E+00
  0.96404901E+00  0.32441107E+00  0.36258865E+00
  0.31309509E+00  0.51600252E+00  0.87111278E+00
  0.48446240E+00  0.43150190E+00  0.78330077E+00
  0.53014050E+00  0.33746054E-02  0.79779449E+00
  0.81178792E+00  0.87390683E+00  0.56100182E+00
  0.59164215E+00  0.78664652E+00  0.68758649E+00
  0.31716739E+00  0.20272351E-01  0.85234659E+00
  0.86253845E+00  0.15937193E+00  0.98509107E+00
  0.20321381E+00  0.64322104E+00  0.39741404E+00
  0.48786899E+00  0.34952742E+00  0.56021175E+00
  0.86451864E-01  0.79600250E+00  0.20659832E+00
  0.91422459E+00  0.35473886E+00  0.91657912E+00
  0.34271283E+00  0.46466857E+00  0.56361580E+00
  0.22127037E+00  0.82547215E+00  0.33715582E+00
  0.70567356E+00  0.78565526E+00  0.35715600E+00
  0.92081488E+00  0.40650421E+00  0.17080005E+00
  0.49459161E+00  0.69481087E+00  0.34152148E+00
  0.62372496E+00  0.20460519E-01  0.22672800E+00
  0.77048515E-01  0.20890883E+00  0.56211271E+00
  0.67819001E+00  0.19530115E+00  0.71135686E+00
  0.55906958E-01  0.99203477E+00  0.27451053E+00
  0.46534915E+00  0.65784775E+00  0.83151865E+00
  0.42458878E+00  0.20038664E+00  0.82548530E+00
  0.68100847E+00  0.26948618E+00  0.91291550E+00
  0.48309850E+00  0.65316925E+00  0.79797892E-01
  0.19500715E+00  0.88546398E+00  0.64188376E+00
  0.90881447E+00  0.71540334E+00  0.92361152E+00
  0.61373989E+00  0.11502078E-01  0.44515082E+00
  0.56099661E+00  0.34709617E+00  0.21453339E+00
  0.89681279E+00  0.14850875E+00  0.23253933E+00
  0.96580557E-01  0.97569403E+00  0.97957940E+00
  0.63446022E+00  0.50865971E+00  0.10397712E-01
  0.75367108E+00  0.97600887E+00  0.75622933E+00
  0.36507596E+00  0.84050342E+00  0.76291461E+00
  0.54685267E+00  0.59376526E+00  0.50132384E+00
  0.52658076E-01  0.36104065E+00  0.74670637E+00
  0.74993263E+00  0.26367975E+00  0.13140421E+00
  0.95212658E+00  0.97381510E+00  0.40164447E+00
  0.51178426E+00  0.38093228E+00  0.40133606E+00
  0.23134323E+00  0.60136148E-01  0.42383778E+00
  0.68654411E+00  0.20936703E+00  0.35518827E+00
  0.66047991E+00  0.62503367E+00  0.22016042E+00
  0.27085463E+00  0.31682042E+00  0.69879910E+00
  0.31290842E+00  0.59213928E+00  0.20709964E+00
 -0.27860969E-03 -0.26008687E-03  0.11146775E-03
 -0.14100872E-03  0.17308246E-03 -0.30678386E-03
 -0.28172504E-03  0.78809658E-04  0.10277089E-03
  0.63793168E-04 -0.47390177E-04  0.15481236E-03
 -0.13328206E-03 -0.11086884E-03 -0.38352765E-03
 -0.20383779E-03 -0.83299368E-05 -0.33552445E-03
 -0.15061704E-03 -0.40693925E-04 -0.37455947E-03
  0.11285228E-03  0.39151193E-05 -0.51432147E-04
  0.61518078E-03 -0.46308369E-03 -0.64498341E-03
 -0.15727793E-03  0.52050456E-04 -0.21065763E-03
 -0.81936841E-04 -0.41444753E-03  0.26868338E-03
  0.97063941E-04 -0.41908894E-03 -0.31065286E-03
 -0.30143481E-03  0.27758829E-03 -0.40102595E-03
  0.16701164E-03  0.18003969E-03  0.15398106E-03
  0.11833043E-03  0.14938090E-03 -0.55089972E-03
  0.27118132E-03  0.23494843E-04 -0.31084955E-03
  0.17071214E-03 -0.20727110E-03  0.34812070E-05
  0.20992575E-03  0.51118822E-03  0.39377019E-03
 -0.54730204E-03 -0.12124531E-03 -0.73279265E-03
  0.43635598E-03 -0.89826178E-04  0.43101664E-03
  0.11597681E-03 -0.49824591E-04 -0.34476699E-03
  0.15462809E-03 -0.41788628E-03 -0.77164524E-04
 -0.22442245E-03 -0.28592690E-03  0.24141878E-03
  0.43637515E-03 -0.38347080E-03  0.12254409E-03
  0.11398388E-05  0.14908540E-04 -0.97551713E-04
  0.21751716E-03 -0.84586657E-04 -0.17929455E-03
 -0.16400552E-03 -0.49004962E-03 -0.24111678E-03
 -0.17413763E-03  0.35607755E-03  0.13297154E-03
 -0.49777815E-03  0.38029707E-03  0.39064734E-03
 -0.73095840E-03  0.16288131E-03 -0.73686435E-04
 -0.27252867E-03 -0.45206262E-03 -0.53800260E-03
 -0.41133498E-03 -0.11975464E-03 -0.28189699E-03
  0.14617074E-03  0.17686182E-03 -0.36394669E-04
  0.63782594E-03 -0.91163262E-04 -0.29700168E-03
  0.26008251E-03  0.25235614E-03 -0.35702429E-03
  0.94522314E-04 -0.40388043E-04 -0.79625939E-04
 -0.18452982E-03  0.43012176E-03  0.19921726E-03
  0.40030379E-03 -0.65095402E-03 -0.46166784E-03
  0.22072809E-03  0.29606041E-04 -0.29332902E-03
  0.67851003E-04  0.44531042E-03 -0.47724512E-04
  0.32685530E-03 -0.49357844E-03 -0.10038525E-03
 -0.47585888E-03  0.30447052E-03  0.33762527E-03
  0.26009016E-03  0.22944818E-04  0.26339108E-04
  0.44081092E-04  0.56706347E-04  0.30220540E-03
  0.11348578E-03  0.38105235E-03  0.20364082E-03
  0.22456731E-04 -0.15365442E-03  0.31060838E-03
 -0.18920397E-04 -0.10725076E-03  0.24505893E-03
 -0.61039719E-03  0.46175420E-03  0.28328926E-03
  0.64927680E-04  0.14831324E-03  0.21004142E-03
 -0.40102726E-03 -0.99927026E-04  0.30261688E-04
 -0.21453358E-03 -0.10534249E-03  0.78103650E-04
 -0.76955422E-04 -0.22697531E-03  0.75357878E-04
 -0.27974279E-03  0.22168315E-03  0.96181330E-04
  0.13307991E-03 -0.18628050E-03 -0.33369741E-04
 -0.15725961E-03 -0.21201482E-03  0.38331993E-03
  0.11647348E-03  0.82571333E-04  0.28441017E-03
  0.21495391E-04  0.20061455E-03 -0.95195828E-04
  0.38505023E-03 -0.31082390E-06  0.75174590E-04
  0.11433110E-03  0.24183412E-03  0.49088771E-03
 -0.40667624E-03  0.41270860E-04  0.22981581E-03
  0.18539545E-03 -0.21378369E-03  0.34324483E-03
  0.20088342E-03 -0.20341794E-03  0.33991126E-03
 -0.24757951E-03 -0.43419341E-04 -0.99420238E-04
  0.23536099E-03  0.10234397E-03 -0.83835590E-05
  0.33378188E-03  0.30847375E-04 -0.23963230E-03
 -0.33454010E-03 -0.33056500E-03  0.50368405E-03
 -0.58293409E-04  0.10346532E-04 -0.14826660E-04
  0.16820461E-03  0.35831183E-03  0.10270122E-03
 -0.55741383E-04  0.92000158E-04  0.16694439E-03
 -0.11367206E-03  0.36475935E-03  0.34202318E-03
 -0.23951088E-03  0.29016063E-04 -0.76219047E-04
 -0.10904731E-03  0.64490378E-04  0.11688295E-03
 -0.87425160E-04  0.21558023E-03  0.96128821E-04
  0.23548531E-04  0.30921751E-04  0.36402918E-03
  0.41609294E-03 -0.85919723E-04 -0.24257460E-03
  0.58608386E-04  0.36257098E-03  0.31639826E-03
  0.19917606E-03 -0.26286926E-03 -0.28109662E-03
 -0.37503794E-04 -0.40246168E-04 -0.18753236E-03
  0.17396849E-03 -0.33265692E-03 -0.18391190E-04
 -0.99846168E-04  0.11130426E-03 -0.10509264E-03
  0.42270026E-03 -0.17602031E-03 -0.32230261E-03
 -0.16664233E-03  0.10022958E-03 -0.28003427E-03
 -0.26759565E-03  0.93714012E-04 -0.46134184E-03
  0.19766254E-03  0.33724639E-03 -0.42871927E-03
 -0.16298857E-03  0.56902118E-04  0.85457909E-04
  0.32821987E-03  0.15061676E-03 -0.78942119E-04
  0.24834026E-03  0.57998039E-04  0.12308291E-03
  0.28419837E-03  0.48086278E-04 -0.27489325E-03
 -0.16888699E-03 -0.32340846E-03  0.11875992E-03
 -0.25188602E-03  0.13960165E-03 -0.59689851E-04
  0.26289072E-03  0.73454879E-04  0.34294020E-03
  0.28361954E-03  0.32375079E-03 -0.17962331E-03
 -0.79534428E-04  0.24421588E-03 -0.98604234E-04
  0.40996415E-03 -0.21374458E-03  0.36517878E-03
 -0.15289544E-03  0.29393919E-03 -0.21758926E-04
 -0.32267723E-03  0.90509413E-04  0.18572244E-04
 -0.27837287E-03 -0.45180054E-04  0.39288278E-03
  0.79493066E-04  0.13275245E-03  0.14737552E-03
  0.21341850E-03 -0.13194952E-03  0.23791740E-03
 -0.80121561E-04  0.94072471E-05  0.15289471E-03
 -0.16344683E-03 -0.86068670E-04 -0.58386841E-04
 -0.32304869E-03 -0.66214176E-05  0.25597622E-03
  0.16743564E-03 -0.34922297E-03 -0.14641086E-03
 -0.36172554E-04 -0.20217491E-04 -0.32942927E-04
 -0.11431187E-03  0.11571957E-03  0.16559605E-03
 -0.13419613E-03 -0.11714041E-03 -0.45619491E-03
  0.17911904E-03 -0.13202413E-03 -0.11355687E-03
  0.14053170E-03 -0.26563621E-04 -0.21856292E-03
 -0.12160362E-03 -0.82696404E-04  0.78180237E-04
 -0.15152120E-03 -0.30961986E-05 -0.23915167E-03