Amorphous Sb                            
   1.00000000000000     
    22.6970374761353142    0.0000000000000000    0.0000000000000000
     0.0000000000000000   22.6970374761353142    0.0000000000000000
     0.0000000000000000    0.0000000000000000   22.6970374761353142
   In   Te
    90   210
Direct
  0.6910935826535737  0.8589173119365545  0.0568307315781432
  0.0937212420021009  0.0175616920803806  0.0890080372738153
  0.7571258275431255  0.3040433481628368  0.4231588614272825
  0.9582499240338177  0.8442291130528613  0.6401066480449517
  0.5007569555861161  0.0511279457925086  0.9440919774311641
  0.0471589104717397  0.3532593658000412  0.2269286629720038
  0.4659302735198541  0.4832079212990232  0.5194661392082401
  0.8243620995567307  0.8322260425929147  0.9702786575342243
  0.6103772459162858  0.5713619830756451  0.2115193309204717
  0.7898063706580062  0.3198387249599862  0.1751656634014502
  0.8973710447095448  0.6928189170190924  0.3451194654067882
  0.2007643935188176  0.7312360021114156  0.9144521805471371
  0.4436851603424088  0.6499838988273912  0.8838998580463816
  0.9733494283867890  0.9735519059717540 -0.0133365138545550
  0.5621093323077664  0.1998278980013200  0.6440288506263721
  0.8007109725196849  0.7448711077343597  0.5967304267211332
  0.3999720816736113  0.3649434888487707  0.0867180991655179
  0.6774719312926724  0.7508725777469940  0.1932114885121418
  0.8398963929889462  0.4580523732751686  0.4870378907386868
  0.9228521208929465  0.8462687571926658  0.8416243088960627
  0.0599231715355532  0.8471314492207866  0.2335894021143816
  0.6796227239603509  0.3302469533995222  0.7567333515773487
  0.6308453793076247  0.0084633308943633  0.1827596423308802
  0.1219180006839858  0.5582966987541519  0.4419825549488025
  0.7407790004168977  0.7851861864272111  0.7530963866720906
  0.6379883525545835  0.4298253149587941  0.8767013102610912
  0.1811932700765645  0.8831446025602152  0.3770213695514812
  0.1294963702746224  0.7805136450728914  0.6309199235160781
  0.3499051149602235  0.6435914554423611  0.0269023142628365
  0.2080753821971209  0.1689190888261265  0.5495814607653083
  0.7602965375816376  0.0433633155604862  0.7607696424460360
  0.4059459106475398  0.0137898139243870  0.7392966949887486
  0.7733488231625373  0.4542582440799894  0.2999844897082810
  0.7620702737205297  0.9813538179591913  0.4941801038054802
  0.0516728854656440  0.5929077556220950  0.2921766227621329
  0.2485875292078599  0.9386073245092338  0.5342749686636449
  0.0889944117855468  0.3035735488420921  0.4065394598263718
  0.9736279626654116  0.3993824598461799  0.1340549052129494
  0.7049200119973992  0.7883504972541431  0.4177666708974556
  0.4678604082483208  0.5189199582915838  0.3564806141588035
  0.0284243201590664  0.5132836679423611  0.9608511021929159
  0.4246069692621182  0.0504936002951276  0.5598892703243995
  0.8079747447308978  0.4323963618751938  0.8315869052983575
  0.0068157863296795  0.0548204388607438  0.8038519274191023
  0.8553914248317974  0.1367340332560365  0.5919367887833716
  0.0635602137879913  0.2375063377585414  0.6302446438283644
  0.1349967963731341  0.6295058426421944  0.0928458397404926
  0.1379447859946782  0.3023802169835377  0.7750616293693460
  0.7424415476376138  0.1168491779322673  0.2819063573450366
  0.0670390445950122  0.7127859968749444  0.7922622203678706
  0.0239885802030153  0.3872762515822296  0.4802235212337933
  0.6026287275081480  0.3875157711125221  0.2153678820500818
  0.3773800889622146  0.3203651320719480  0.3391815253542083
  0.8850582036164797  0.8706271781206600  0.3177077637464145
  0.4454657901768347  0.7153796578268325  0.4478434470346239
  0.1385588773590606  0.8870990744179507  0.5723185636518049
  0.8574422236218238  0.4880468063587151  0.6827664192270069
  0.3969268034461030  0.3898502762459022  0.7346369767115709
  0.3110777391259853  0.9805156749128618  0.3463615697161782
  0.8254250808955108  0.4435935962022698  0.0487070974115388
  0.2412265245792690  0.5789131828533129  0.8757204539317885
  0.8595610785778302  0.5951162273852783  0.9589435039607239
  0.4404709004672423  0.8129455704892131  0.2411122053759387
  0.5714773633089775  0.9324505403281014  0.6032406006983214
  0.4915410017686212  0.1316839872656774  0.2189373245422979
  0.5902511488990536  0.5747870269278320  0.9957798719371846
  0.5893858099410736  0.0963829033293116  0.5084818788734996
  0.6283583325091922  0.1624696432200100  0.3152057163071528
  0.2147361147879477  0.3283515502698151  0.9284299262198813
  0.1744645047357841  0.6960836896142327  0.3299541461799743
  0.0036611240934380  0.3859111770357233  0.7153321323621400
  0.3888239473146473  0.1129346103672634  0.0794537747856099
  0.5020527120867028  0.9555794256767886  0.3682682565015891
  0.9170771342574303  0.0948570611301768  0.2263463224307426
  0.1969630502638172 -0.0020554938058462  0.2180848043528583
  0.1339746085812230  0.4800231725923942  0.7292550284212513
  0.5571429077584142  0.7770013573609961  0.6531500056912520
  0.8801059667628809  0.6625733361270062  0.1748101773934276
  0.3362801096418663  0.8066416244874570  0.9934902165041988
  0.4070349124155839  0.4823885651032045  0.0355209522161457
  0.3963941254315635  0.7719061086072033  0.7704823864698955
  0.2689933907822559  0.1604392085314523  0.8178754993692281
  0.1669470873825704  0.0392135429421168  0.6491917421163422
  0.5379229096746764  0.8011536478099406  0.8569762523368348
  0.6456585056906630  0.4841496404880995  0.4740533392432981
  0.0500252088396159  0.0679834374714489  0.4182364281066510
  0.6909550225615849  0.6107643412785229  0.7163900254784372
  0.3372209110590456  0.5845304624707299  0.7285096976681399
 -0.0179974510953727  0.8902659927298513  0.4488820688470439
  0.2647546230396589  0.6754559675905624  0.6898251467779117
  0.8475054064871602  0.5709883569170180  0.0807527194891377
  0.7168831284094680  0.1265960483765957  0.9111817160133229
  0.4810281175066544  0.9295499950887844  0.9831196381991884
  0.7661006980029349  0.6390155308690647  0.2413280898505984
  0.1292072262723399  0.3434362380558403  0.6574724938773058
  0.5676730960423521  0.0416223351753008  0.2860587744811933
  0.5022975686780656  0.1734014064454868  0.3458255040212127
  0.4586396685988080  0.3788789690918919  0.8438602877337870
  0.1782703799155047  0.8097971925818598  0.2740955916631959
  0.2108533651212687  0.6172867974576639  0.5846982406996829
  0.9597146843275633  0.6819281604695298  0.5502384976555603
  0.5994384406242957  0.8690778997526792  0.2430687980001298
  0.3738733200350718  0.1332965266225527  0.4829639092484161
  0.6812401820429328  0.1603583801697620  0.7686170436695896
  0.8627659462585583  0.0146496394599157  0.4163857022979210
  0.2899826874657143  0.8700380570935949  0.8933908741141973
  0.6913999136511930  0.1860023776144989  0.6463908847254433
  0.5103594950134372  0.9792845158799279  0.5003586375733775
  0.2895536151282416  0.4281244404848249  0.5607277585435256
  0.5747074958841331  0.6479713358299029  0.8969385970619242
  0.6391615256804369  0.5349634724752644  0.5940511507488268
  0.3014960603187758  0.6907039480782978  0.8506914323985117
  0.0601704415936587  0.4747550329804977  0.3429620211127690
  0.6278693961499429  0.0269136794985545 -0.0379550562178020
  0.4246849243743128  0.3117028280887500  0.6387353620523141
  0.8798503244467923  0.7910168321209951  0.1996460608166818
  0.0158910070489969  0.7353333861790258  0.6660524957590425
  0.7946757221655807  0.7544775061186917  0.3015750877834930
  0.2677536305370370  0.9829771415436509  0.7052513614426220
  0.1784358596304611  0.0467289655885551  0.5228425320989009
  0.6435063857059153  0.6587893003888395  0.5761646141669973
  0.7493766684922006  0.2760788633520462  0.2882822607676342
  0.3728064729244631  0.5567979795542565  0.9328979559629943
  0.5236070551096492  0.4840262757522081  0.2302932641326282
  0.9021376661674642  0.7929100736795716  0.5346536426260281
  0.9481708976724734  0.8504131646421681  0.9737815274373403
  0.8583426025390191  0.3709263256392918  0.7304501525038382
  0.9586288420723479  0.1081644750331631  0.6825203591179623
  0.6318297070307043  0.4485924416564426  0.7518885127784760
  0.0939378526847987  0.1786470894379029  0.2359576812665795
  0.9257406882598991  0.1225506649429009  0.1050135116377945
  0.0897518780545121  0.9646097368508755  0.7137270593815274
  0.2477922975719517  0.7223646639188810  0.0334433698316377
  0.2633494911798668  0.6734407441014472  0.4140857258595466
  0.3693574121904718  0.3861938047353229  0.2165582444436880
  0.8811367083768881  0.3846328762866444  0.3141081955181797
  0.5101821050224821  0.3012665687063423  0.0866219025745820
  0.1805613937862666  0.7522569967657927  0.7411048457261596
  0.3484332158633157  0.1506737680564612  0.9184694471549956
  0.9622416648460788  0.4982259240726873  0.4471376520960544
  0.9055326344156744  0.1321145211319497  0.4272273414765989
  0.5900678024713383  0.6732741088341826  0.2846150872079407
  0.3555435709819372  0.6653084338804437  0.3313981357492404
  0.1473484836517134  0.4239829764708850  0.2666864114736757
  0.5841868258633489  0.2538144128485865  0.9031333552456041
  0.4781636311992855  0.1563161953362352  0.0051258500140330
  0.8571152561611993 -0.0197723175483308  0.2262693954087110
  0.7548122899114252  0.6728377706704369  0.5039879053535118
  0.6422774638191261  0.8295315329064487  0.5691395043125155
  0.1214404424298363  0.6395748098181002  0.8858061698929278
  0.5407022442614811  0.6221799445900348  0.3867514577638701
  0.3588323492303044  0.1503972482903982  0.7268533994210493
  0.2587335163531305  0.3608933023169127  0.1702762605007934
  0.6742268854849768  0.2180391184376177  0.9790846158193215
  0.8512556897851824  0.4282280106347165  0.1775092215529982
  0.4638866829319283  0.6884991582632333  0.2175175202082222
  0.6203120185691554  0.2864022456887707  0.5098067579566811
  0.2201709602903679  0.2580046815547626  0.2327103126136230
  0.3749598057481365  0.0250653713722024  0.8830996908222902
  0.3236785094502851  0.2038986079781673  0.5744582973745908
  0.8646434616140474  0.8770020742034796  0.7147085699969289
  0.7972996824911515  0.5368501667443814  0.3895574990253028
  0.3848180016979423  0.8841877017752368  0.0804201755424809
  0.7321240899048894  0.3424100358672340  0.8736217229197439
  0.0395368804353123  0.2802849980266424  0.9901315485426527
  0.6827308670269632  0.2004655030365937  0.4406050154721272
  0.9829016097199603  0.5262869756423431  0.6873543533880732
  0.4312446641347624  0.9018896782656127  0.8727007829814395
  0.6740392488685361  0.7189389659049954  0.9688419690641279
  0.4533487661087978  0.8400805019605773  0.3597293322562410
  0.2829945058364405  0.9865692463724247  0.9586348319495706
  0.2768702620864610  0.1057400558676147  0.0197913721115259
  0.2081028037772710  0.3588479602320025  0.4907275870383156
  0.5609190767521189  0.3670367666128411  0.9563574009383659
  0.7631368414620485  0.2922279900084803  0.6737682732290973
  0.0641128420231819  0.6746287703224226  0.3929358071668425
  0.3188938756037299  0.9698802102473273  0.2217361603272038
  0.8210110726165633  0.7674465195090041  0.8605366462870973
  0.6240085803067525  0.9079215427621319  0.3927500680178047
  0.3350711674726152  0.7723071760082015  0.6466512408073052
  0.8967620108655791  0.2717922245053351  0.5775652620836488
  0.8119088984866687  0.6878332752901393  0.7059512057869668
  0.1815276137414756  0.9848887895743536  0.8057909744657608
  0.7026491320412869  0.1120480284551152  0.1595010458281356
  0.8810715778069454  0.4710431153866380  0.9350249301872203
  0.4461621216967282  0.0245570189857848  0.1549860466242522
  0.8046738102419326  0.5450450713065569  0.7810426319586272
  0.0269572214412293  0.5473121710469210  0.5485326999323653
  0.6034306904827323  0.1956957372944087  0.1872910863002040
  0.1372425839018423  0.2273607067953160  0.9402186002943836
  0.5208842253903819  0.0727004539535172  0.8203342503542883
  0.6737235437980403  0.3735672712427460  0.3221529187605064
  0.0082298900549713  0.3656212505228612  0.9031365703060155
  0.0517083792278004  0.2199390902314824  0.8153700986240183
  0.3919540749664956  0.2005203822898667  0.1708257516208236
  0.7006589669789095  0.4363682320866615  0.0459307253315888
  0.6404059628711235  0.0381404851249931  0.6282281229151411
  0.9691335694154904  0.0033763198351102  0.1112112637172843
  0.9839568653152121  0.5297504851432402  0.0978850263453818
  0.0191142998388000  0.2599635063454240  0.3088841945087133
  0.7691254226990102  0.0221794509386211  0.6103836455288039
  0.8075700951560895  0.9658455487119202  0.1023381721917754
  0.6464060367094877  0.8708917689741416  0.8115135043629685
  0.0030177257084637  0.2236576025428501  0.5216864926243677
  0.4077171236466736  0.5773118971307765  0.4676735612430168
  0.3517356402077785  0.9564507884460260  0.6051517117211195
  0.2076627733632015  0.3371075126810508  0.3547352353290822
  0.7468913880549728  0.8541857971465254  0.6408675867012751
  0.1607736331958834  0.1656904387310608  0.6686590093063638
  0.7550515391425759  0.6369520922813446  0.9012873690778044
  0.1670051424100432  0.7171509826713059  0.5241682412392598
  0.3896016270612451  0.3774577854188425  0.5104383194550655
  0.5139365943872195  0.5135820477813740  0.6294122799185533
  0.1218224726568823  0.1912370139603651  0.4568254679861931
  0.4109871839674728  0.0492094046709403  0.3722663573520929
  0.2639307675354587  0.4955247627645063  0.7867961209754726
  0.7671211233292859  0.7550518488886886  0.0540031386770483
  0.8455226591692412  0.2405884298135544  0.0933073324167271
  0.6697115513769428  0.0194651201459711  0.4178275301159399
  0.0873015926852187  0.0150939410266825  0.9647443367475987
  0.1272429580981387  0.4535309125576021  0.5271772850574111
  0.8084919839917371  0.1636475183687620  0.8268610941089742
  0.9660780035523590  0.6574810560290543  0.9417806480077998
  0.7260748909659781  0.5205835397974320  0.2004557550595425
  0.5078851142735241  0.0816023719839552  0.6551768134982227
 -0.0057782043547358  0.6790018098380474  0.1061859067349220
  0.3645411119676239  0.4325159443627410  0.3945659071216350
  0.0100314820695699  0.5231431081439816  0.8106751180689710
  0.5130816754012748  0.8629851414935517  0.1516300472077090
  0.7113541679977997  0.9102749620084494  0.1719776296555950
  0.7259293590890774  0.3940640467170712  0.5112212096545525
  0.9564808683871197  0.6363169420559595  0.8196610890988425
  0.6435292232948521  0.9924009242237224  0.8412442448939064
  0.0316755171673645  0.0583065805720488  0.2692504486270610
  0.1824485657426121  0.0076154809825820  0.3448227874746404
  0.5147305831764922  0.2314435949875318  0.5313770351588816
  0.6205877998532304  0.7351043581193579  0.7560024711159926
  0.3786382084684662  0.6810033386833864  0.5745156691283562
  0.9888006849583186  0.8012944814520488  0.1312732941138350
  0.8801666388155661  0.3417242940762738  0.4297801078422227
  0.8529348376149375  0.1780300520545918  0.2966262984489101
  0.9186681610235861  0.1431643701445412  0.8934772272777651
  0.1559726350067585  0.1043751661243926  0.8264000660022029
  0.6741760101946883  0.3376292808759312  0.1209731892076001
  0.1677222990257471  0.1008097207718519  0.1502323039684065
  0.3798443607685290  0.4892787870334375  0.6537006955724204
  0.5091533328923578  0.6833412379751119  0.5805924421840777
  0.4485218548864499  0.6421743609427845  0.7598914982120273
  0.4364737916785482  0.7297335240772055  0.9822520416913719
  0.1380659663783487  0.9126433653120245  0.1471365702903143
  0.1173891485383187  0.3989292360324797  0.8605020859270032
  0.8753447225346334  0.0346238784802122  0.9302678233582574
 -0.0304708357009971  0.2263059333361791  0.7183140841026850
  0.5444121136467424  0.7383371987223321  0.1214933014570288
  0.1595408475198402  0.6146886932004577  0.2345599802837101
  0.7677060404221184 -0.0034971944614198  0.3149379295215423
  0.5401470876236001  0.4326038479804404  0.4301986919262247
  0.0101594434795559  0.9377936349336746  0.3104612450959319
  0.3273015202477952  0.8245772258548228  0.1813939009186109
  0.1086419240369009  0.5910438215819884  0.6509361537326948
  0.1040466853864292  0.4960596888238818  0.1314510965160822
  0.8135078319152194  0.5383354327821227  0.5804015881539796
  0.2920924619327369  0.2500872689859468  0.4117091846884963
  0.0900197822615076  0.3881116022125587  0.0630241871876029
  0.3510369428184727  0.5601891824703541  0.1180006762097409
  0.5349442273880519  0.4741597097083993  0.0401628319989024
  0.2579134034271958  0.2905909466696183  0.8114522428187417
  0.2970078961176480  0.8830740256548982  0.4268713568579967
  0.5000077833017365  0.2960435659509850  0.3612589620624918
  0.9390560327652180  0.0498964715856100  0.5184746886883618
  0.0444740857945930  0.8322215225124149  0.8221725371186771
  0.3518998298534402  0.7021239363592249  0.1572042797305348
  0.9486449828306653  0.3868466445878782  0.5860962486788135
  0.8809987766079881  0.9667752468288997  0.8194189860174520
  0.5632400122215657  0.2745697756495076  0.7493547397110372
  0.1116549479546672  0.2812784846097296  0.1416165217423412
  0.7561361680746378  0.9366375278552945 -0.0176283196703220
  0.2493838503008375  0.4260848462581694  0.0046671105531887
  0.1885591423844905  0.5308068325769276  0.9813571234417087
  0.1657013786309713  0.8486806650648366  0.9056388400734938
  0.4410646382122355  0.1718354465436813  0.8179497866792663
  0.5508917944636994  0.0134734009938898  0.0861864677567012
  0.9046367518515941  0.3340614236713165  0.0386547590818604
  0.9274762427636746  0.5923824144317658  0.2718184108583388
  0.9937125482069912  0.7753289252696984  0.3439153861085127
  0.8071055537990068  0.8744568554995128  0.4524284082251015
  0.4934920606968243  0.8791354633886033  0.6847786125107713
  0.1060055282664896  0.8313736096008242  0.4604157032207099
  0.3364342025312969  0.2981147374923126 -0.0128803540222072
  0.0211838569033042  0.9429738490721647  0.5943840878314206
  0.5871289998350987  0.8072177328392218  0.0140030629023455
  0.6285417832989928  0.6341120641472240  0.1015980034932705
  0.5274953300069503  0.3790060708953788  0.6830852425303197
  0.6998541034742998  0.5251031170971044  0.9438488624801671
  0.5130446038349991  0.2980238049244847  0.2111824774862238
  0.6754900275088757  0.5729831212387232  0.3937316101825645
  0.3645559979042999  0.3992059659614314  0.9208096501160712
  0.3250105811153163  0.2093348757975752  0.2892398371999422
  0.3684113242393308  0.5542960282517269  0.2837541072570256
  0.8793860490651247  0.6416563323003761  0.4598841791334161
 
  0.00000000E+00  0.00000000E+00  0.00000000E+00
  0.00000000E+00  0.00000000E+00  0.00000000E+00
  0.00000000E+00  0.00000000E+00  0.00000000E+00
  0.00000000E+00  0.00000000E+00  0.00000000E+00
  0.00000000E+00  0.00000000E+00  0.00000000E+00
  0.00000000E+00  0.00000000E+00  0.00000000E+00
  0.00000000E+00  0.00000000E+00  0.00000000E+00
  0.00000000E+00  0.00000000E+00  0.00000000E+00
  0.00000000E+00  0.00000000E+00  0.00000000E+00
  0.00000000E+00  0.00000000E+00  0.00000000E+00
  0.00000000E+00  0.00000000E+00  0.00000000E+00
  0.00000000E+00  0.00000000E+00  0.00000000E+00
  0.00000000E+00  0.00000000E+00  0.00000000E+00
  0.00000000E+00  0.00000000E+00  0.00000000E+00
  0.00000000E+00  0.00000000E+00  0.00000000E+00
  0.00000000E+00  0.00000000E+00  0.00000000E+00
  0.00000000E+00  0.00000000E+00  0.00000000E+00
  0.00000000E+00  0.00000000E+00  0.00000000E+00
  0.00000000E+00  0.00000000E+00  0.00000000E+00
  0.00000000E+00  0.00000000E+00  0.00000000E+00
  0.00000000E+00  0.00000000E+00  0.00000000E+00
  0.00000000E+00  0.00000000E+00  0.00000000E+00
  0.00000000E+00  0.00000000E+00  0.00000000E+00
  0.00000000E+00  0.00000000E+00  0.00000000E+00
  0.00000000E+00  0.00000000E+00  0.00000000E+00
  0.00000000E+00  0.00000000E+00  0.00000000E+00
  0.00000000E+00  0.00000000E+00  0.00000000E+00
  0.00000000E+00  0.00000000E+00  0.00000000E+00
  0.00000000E+00  0.00000000E+00  0.00000000E+00
  0.00000000E+00  0.00000000E+00  0.00000000E+00
  0.00000000E+00  0.00000000E+00  0.00000000E+00
  0.00000000E+00  0.00000000E+00  0.00000000E+00
  0.00000000E+00  0.00000000E+00  0.00000000E+00
  0.00000000E+00  0.00000000E+00  0.00000000E+00
  0.00000000E+00  0.00000000E+00  0.00000000E+00
  0.00000000E+00  0.00000000E+00  0.00000000E+00
  0.00000000E+00  0.00000000E+00  0.00000000E+00
  0.00000000E+00  0.00000000E+00  0.00000000E+00
  0.00000000E+00  0.00000000E+00  0.00000000E+00
  0.00000000E+00  0.00000000E+00  0.00000000E+00
  0.00000000E+00  0.00000000E+00  0.00000000E+00
  0.00000000E+00  0.00000000E+00  0.00000000E+00
  0.00000000E+00  0.00000000E+00  0.00000000E+00
  0.00000000E+00  0.00000000E+00  0.00000000E+00
  0.00000000E+00  0.00000000E+00  0.00000000E+00
  0.00000000E+00  0.00000000E+00  0.00000000E+00
  0.00000000E+00  0.00000000E+00  0.00000000E+00
  0.00000000E+00  0.00000000E+00  0.00000000E+00
  0.00000000E+00  0.00000000E+00  0.00000000E+00
  0.00000000E+00  0.00000000E+00  0.00000000E+00
  0.00000000E+00  0.00000000E+00  0.00000000E+00
  0.00000000E+00  0.00000000E+00  0.00000000E+00
  0.00000000E+00  0.00000000E+00  0.00000000E+00
  0.00000000E+00  0.00000000E+00  0.00000000E+00
  0.00000000E+00  0.00000000E+00  0.00000000E+00
  0.00000000E+00  0.00000000E+00  0.00000000E+00
  0.00000000E+00  0.00000000E+00  0.00000000E+00
  0.00000000E+00  0.00000000E+00  0.00000000E+00
  0.00000000E+00  0.00000000E+00  0.00000000E+00
  0.00000000E+00  0.00000000E+00  0.00000000E+00
  0.00000000E+00  0.00000000E+00  0.00000000E+00
  0.00000000E+00  0.00000000E+00  0.00000000E+00
  0.00000000E+00  0.00000000E+00  0.00000000E+00
  0.00000000E+00  0.00000000E+00  0.00000000E+00
  0.00000000E+00  0.00000000E+00  0.00000000E+00
  0.00000000E+00  0.00000000E+00  0.00000000E+00
  0.00000000E+00  0.00000000E+00  0.00000000E+00
  0.00000000E+00  0.00000000E+00  0.00000000E+00
  0.00000000E+00  0.00000000E+00  0.00000000E+00
  0.00000000E+00  0.00000000E+00  0.00000000E+00
  0.00000000E+00  0.00000000E+00  0.00000000E+00
  0.00000000E+00  0.00000000E+00  0.00000000E+00
  0.00000000E+00  0.00000000E+00  0.00000000E+00
  0.00000000E+00  0.00000000E+00  0.00000000E+00
  0.00000000E+00  0.00000000E+00  0.00000000E+00
  0.00000000E+00  0.00000000E+00  0.00000000E+00
  0.00000000E+00  0.00000000E+00  0.00000000E+00
  0.00000000E+00  0.00000000E+00  0.00000000E+00
  0.00000000E+00  0.00000000E+00  0.00000000E+00
  0.00000000E+00  0.00000000E+00  0.00000000E+00
  0.00000000E+00  0.00000000E+00  0.00000000E+00
  0.00000000E+00  0.00000000E+00  0.00000000E+00
  0.00000000E+00  0.00000000E+00  0.00000000E+00
  0.00000000E+00  0.00000000E+00  0.00000000E+00
  0.00000000E+00  0.00000000E+00  0.00000000E+00
  0.00000000E+00  0.00000000E+00  0.00000000E+00
  0.00000000E+00  0.00000000E+00  0.00000000E+00
  0.00000000E+00  0.00000000E+00  0.00000000E+00
  0.00000000E+00  0.00000000E+00  0.00000000E+00
  0.00000000E+00  0.00000000E+00  0.00000000E+00
  0.00000000E+00  0.00000000E+00  0.00000000E+00
  0.00000000E+00  0.00000000E+00  0.00000000E+00
  0.00000000E+00  0.00000000E+00  0.00000000E+00
  0.00000000E+00  0.00000000E+00  0.00000000E+00
  0.00000000E+00  0.00000000E+00  0.00000000E+00
  0.00000000E+00  0.00000000E+00  0.00000000E+00
  0.00000000E+00  0.00000000E+00  0.00000000E+00
  0.00000000E+00  0.00000000E+00  0.00000000E+00
  0.00000000E+00  0.00000000E+00  0.00000000E+00
  0.00000000E+00  0.00000000E+00  0.00000000E+00
  0.00000000E+00  0.00000000E+00  0.00000000E+00
  0.00000000E+00  0.00000000E+00  0.00000000E+00
  0.00000000E+00  0.00000000E+00  0.00000000E+00
  0.00000000E+00  0.00000000E+00  0.00000000E+00
  0.00000000E+00  0.00000000E+00  0.00000000E+00
  0.00000000E+00  0.00000000E+00  0.00000000E+00
  0.00000000E+00  0.00000000E+00  0.00000000E+00
  0.00000000E+00  0.00000000E+00  0.00000000E+00
  0.00000000E+00  0.00000000E+00  0.00000000E+00
  0.00000000E+00  0.00000000E+00  0.00000000E+00
  0.00000000E+00  0.00000000E+00  0.00000000E+00
  0.00000000E+00  0.00000000E+00  0.00000000E+00
  0.00000000E+00  0.00000000E+00  0.00000000E+00
  0.00000000E+00  0.00000000E+00  0.00000000E+00
  0.00000000E+00  0.00000000E+00  0.00000000E+00
  0.00000000E+00  0.00000000E+00  0.00000000E+00
  0.00000000E+00  0.00000000E+00  0.00000000E+00
  0.00000000E+00  0.00000000E+00  0.00000000E+00
  0.00000000E+00  0.00000000E+00  0.00000000E+00
  0.00000000E+00  0.00000000E+00  0.00000000E+00
  0.00000000E+00  0.00000000E+00  0.00000000E+00
  0.00000000E+00  0.00000000E+00  0.00000000E+00
  0.00000000E+00  0.00000000E+00  0.00000000E+00
  0.00000000E+00  0.00000000E+00  0.00000000E+00
  0.00000000E+00  0.00000000E+00  0.00000000E+00
  0.00000000E+00  0.00000000E+00  0.00000000E+00
  0.00000000E+00  0.00000000E+00  0.00000000E+00
  0.00000000E+00  0.00000000E+00  0.00000000E+00
  0.00000000E+00  0.00000000E+00  0.00000000E+00
  0.00000000E+00  0.00000000E+00  0.00000000E+00
  0.00000000E+00  0.00000000E+00  0.00000000E+00
  0.00000000E+00  0.00000000E+00  0.00000000E+00
  0.00000000E+00  0.00000000E+00  0.00000000E+00
  0.00000000E+00  0.00000000E+00  0.00000000E+00
  0.00000000E+00  0.00000000E+00  0.00000000E+00
  0.00000000E+00  0.00000000E+00  0.00000000E+00
  0.00000000E+00  0.00000000E+00  0.00000000E+00
  0.00000000E+00  0.00000000E+00  0.00000000E+00
  0.00000000E+00  0.00000000E+00  0.00000000E+00
  0.00000000E+00  0.00000000E+00  0.00000000E+00
  0.00000000E+00  0.00000000E+00  0.00000000E+00
  0.00000000E+00  0.00000000E+00  0.00000000E+00
  0.00000000E+00  0.00000000E+00  0.00000000E+00
  0.00000000E+00  0.00000000E+00  0.00000000E+00
  0.00000000E+00  0.00000000E+00  0.00000000E+00
  0.00000000E+00  0.00000000E+00  0.00000000E+00
  0.00000000E+00  0.00000000E+00  0.00000000E+00
  0.00000000E+00  0.00000000E+00  0.00000000E+00
  0.00000000E+00  0.00000000E+00  0.00000000E+00
  0.00000000E+00  0.00000000E+00  0.00000000E+00
  0.00000000E+00  0.00000000E+00  0.00000000E+00
  0.00000000E+00  0.00000000E+00  0.00000000E+00
  0.00000000E+00  0.00000000E+00  0.00000000E+00
  0.00000000E+00  0.00000000E+00  0.00000000E+00
  0.00000000E+00  0.00000000E+00  0.00000000E+00
  0.00000000E+00  0.00000000E+00  0.00000000E+00
  0.00000000E+00  0.00000000E+00  0.00000000E+00
  0.00000000E+00  0.00000000E+00  0.00000000E+00
  0.00000000E+00  0.00000000E+00  0.00000000E+00
  0.00000000E+00  0.00000000E+00  0.00000000E+00
  0.00000000E+00  0.00000000E+00  0.00000000E+00
  0.00000000E+00  0.00000000E+00  0.00000000E+00
  0.00000000E+00  0.00000000E+00  0.00000000E+00
  0.00000000E+00  0.00000000E+00  0.00000000E+00
  0.00000000E+00  0.00000000E+00  0.00000000E+00
  0.00000000E+00  0.00000000E+00  0.00000000E+00
  0.00000000E+00  0.00000000E+00  0.00000000E+00
  0.00000000E+00  0.00000000E+00  0.00000000E+00
  0.00000000E+00  0.00000000E+00  0.00000000E+00
  0.00000000E+00  0.00000000E+00  0.00000000E+00
  0.00000000E+00  0.00000000E+00  0.00000000E+00
  0.00000000E+00  0.00000000E+00  0.00000000E+00
  0.00000000E+00  0.00000000E+00  0.00000000E+00
  0.00000000E+00  0.00000000E+00  0.00000000E+00
  0.00000000E+00  0.00000000E+00  0.00000000E+00
  0.00000000E+00  0.00000000E+00  0.00000000E+00
  0.00000000E+00  0.00000000E+00  0.00000000E+00
  0.00000000E+00  0.00000000E+00  0.00000000E+00
  0.00000000E+00  0.00000000E+00  0.00000000E+00
  0.00000000E+00  0.00000000E+00  0.00000000E+00
  0.00000000E+00  0.00000000E+00  0.00000000E+00
  0.00000000E+00  0.00000000E+00  0.00000000E+00
  0.00000000E+00  0.00000000E+00  0.00000000E+00
  0.00000000E+00  0.00000000E+00  0.00000000E+00
  0.00000000E+00  0.00000000E+00  0.00000000E+00
  0.00000000E+00  0.00000000E+00  0.00000000E+00
  0.00000000E+00  0.00000000E+00  0.00000000E+00
  0.00000000E+00  0.00000000E+00  0.00000000E+00
  0.00000000E+00  0.00000000E+00  0.00000000E+00
  0.00000000E+00  0.00000000E+00  0.00000000E+00
  0.00000000E+00  0.00000000E+00  0.00000000E+00
  0.00000000E+00  0.00000000E+00  0.00000000E+00
  0.00000000E+00  0.00000000E+00  0.00000000E+00
  0.00000000E+00  0.00000000E+00  0.00000000E+00
  0.00000000E+00  0.00000000E+00  0.00000000E+00
  0.00000000E+00  0.00000000E+00  0.00000000E+00
  0.00000000E+00  0.00000000E+00  0.00000000E+00
  0.00000000E+00  0.00000000E+00  0.00000000E+00
  0.00000000E+00  0.00000000E+00  0.00000000E+00
  0.00000000E+00  0.00000000E+00  0.00000000E+00
  0.00000000E+00  0.00000000E+00  0.00000000E+00
  0.00000000E+00  0.00000000E+00  0.00000000E+00
  0.00000000E+00  0.00000000E+00  0.00000000E+00
  0.00000000E+00  0.00000000E+00  0.00000000E+00
  0.00000000E+00  0.00000000E+00  0.00000000E+00
  0.00000000E+00  0.00000000E+00  0.00000000E+00
  0.00000000E+00  0.00000000E+00  0.00000000E+00
  0.00000000E+00  0.00000000E+00  0.00000000E+00
  0.00000000E+00  0.00000000E+00  0.00000000E+00
  0.00000000E+00  0.00000000E+00  0.00000000E+00
  0.00000000E+00  0.00000000E+00  0.00000000E+00
  0.00000000E+00  0.00000000E+00  0.00000000E+00
  0.00000000E+00  0.00000000E+00  0.00000000E+00
  0.00000000E+00  0.00000000E+00  0.00000000E+00
  0.00000000E+00  0.00000000E+00  0.00000000E+00
  0.00000000E+00  0.00000000E+00  0.00000000E+00
  0.00000000E+00  0.00000000E+00  0.00000000E+00
  0.00000000E+00  0.00000000E+00  0.00000000E+00
  0.00000000E+00  0.00000000E+00  0.00000000E+00
  0.00000000E+00  0.00000000E+00  0.00000000E+00
  0.00000000E+00  0.00000000E+00  0.00000000E+00
  0.00000000E+00  0.00000000E+00  0.00000000E+00
  0.00000000E+00  0.00000000E+00  0.00000000E+00
  0.00000000E+00  0.00000000E+00  0.00000000E+00
  0.00000000E+00  0.00000000E+00  0.00000000E+00
  0.00000000E+00  0.00000000E+00  0.00000000E+00
  0.00000000E+00  0.00000000E+00  0.00000000E+00
  0.00000000E+00  0.00000000E+00  0.00000000E+00
  0.00000000E+00  0.00000000E+00  0.00000000E+00
  0.00000000E+00  0.00000000E+00  0.00000000E+00
  0.00000000E+00  0.00000000E+00  0.00000000E+00
  0.00000000E+00  0.00000000E+00  0.00000000E+00