                                        
   1.00000000000000     
     8.1854000092000003    0.0000000000000000    0.0000000000000000
    -4.0722759495999998   17.2659646687000006    0.0000000000000000
    -0.0582093188000000   -0.0761945632000000   18.5283525898999990
   Sb   Se   K 
    32    52     8
Direct
  0.6231799720000026  0.0031800000000004  0.2520900069999996
  0.3768200279999974  0.9968199730000009  0.7479100230000029
  0.1353400050000033  0.0210000000000008  0.2549999949999986
  0.8646600249999992  0.9789999719999969  0.7450000050000014
  0.3457100090000012  0.9227700229999982  0.4196900130000003
  0.6542899610000035  0.0772299770000018  0.5803099869999997
  0.6069800260000022  0.4897400139999988  0.1101099999999988
  0.3930199739999978  0.5102599860000012  0.8898900149999989
  0.8230999709999978  0.9152799840000014  0.4201000030000017
  0.1769000290000022  0.0847200159999986  0.5799000259999971
  0.7144700289999975  0.6763799790000036  0.4779500069999969
  0.2855299710000025  0.3236200209999964  0.5220500229999985
  0.9607200029999987  0.1779000009999976  0.3721100089999965
  0.0392800010000016  0.8220999839999976  0.6278899910000035
  0.9772300119999997  0.7038400169999974  0.0494000019999987
  0.0227699880000003  0.2961599830000026  0.9506000279999967
  0.2101700010000016  0.6751199959999994  0.4829599859999973
  0.7898299690000030  0.3248800040000006  0.5170400140000027
  0.4555599990000019  0.1714099940000011  0.3729700149999999
  0.5444400310000006  0.8285900349999977  0.6270300150000025
  0.1241900030000025  0.5014100069999969  0.1175400019999984
  0.8758100270000000  0.4985899930000031  0.8824599980000016
  0.7749299999999977  0.3084799949999990  0.1748100069999978
  0.2250700000000023  0.6915199760000021  0.8251900079999999
  0.8256099820000031  0.8950300220000003  0.0223099999999974
  0.1743900179999969  0.1049699779999997  0.9776899809999975
  0.4766300020000003  0.6971700189999979  0.0363599989999983
  0.5233700280000022  0.3028299810000021  0.9636399749999995
  0.3191199899999972  0.9011499880000002  0.0279399989999973
  0.6808800100000028  0.0988500119999998  0.9720600249999976
  0.9871000050000021  0.7243999840000015  0.3036000130000005
  0.0128999949999979  0.2756000159999985  0.6963999869999995
  0.1534799929999977  0.0472999999999999  0.4015100000000018
  0.8465200070000023  0.9527000189999981  0.5984899999999982
  0.6403599980000010  0.0375999990000011  0.4089300039999983
  0.3596400019999990  0.9624000190000004  0.5910699960000017
  0.7650200129999973  0.2781299950000005  0.3427099880000029
  0.2349800020000004  0.7218700049999995  0.6572899820000018
  0.9152200219999997  0.5799900290000011  0.5119500160000001
  0.0847799780000003  0.4200099709999989  0.4880499839999999
  0.4070799949999966  0.5676900149999966  0.1817000059999998
  0.5929200050000034  0.4323099850000034  0.8183000089999979
  0.4136700030000000  0.5781499739999987  0.5046399829999970
  0.5863299970000000  0.4218500260000013  0.4953600170000030
  0.0236300010000008  0.8025000100000028  0.4329499899999973
  0.9763699769999974  0.1974999899999972  0.5670499800000002
  0.5798900129999964  0.3948200049999997  0.2218299959999968
  0.4201099870000036  0.6051800250000028  0.7781699900000021
  0.2595900000000029  0.2745099959999990  0.3554100099999999
  0.7404099700000017  0.7254899739999985  0.6445900200000025
  0.9304699899999989  0.5929399730000000  0.1769199969999988
  0.0695300100000011  0.4070600270000000  0.8230800030000012
  0.5339300039999983  0.8122599719999997  0.4427599910000026
  0.4660699960000017  0.1877400280000003  0.5572400089999974
  0.4363699849999989  0.1292299930000027  0.2370100019999981
  0.5636299849999986  0.8707699779999984  0.7629899980000019
  0.9388400320000017  0.1302199960000010  0.2391500029999989
  0.0611599980000008  0.8697800039999990  0.7608500119999988
  0.0601099989999980  0.3986800010000024  0.2196400019999984
  0.9398900269999970  0.6013200280000035  0.7803599829999968
  0.8108100299999990  0.3831999900000014  0.0454699989999980
  0.1891899700000010  0.6168000099999986  0.9545300010000020
  0.6983199720000002  0.6337400079999966  0.3393200040000011
  0.3016800279999998  0.3662599920000034  0.6606799959999989
  0.7703199979999980  0.7739199999999968  0.1214800030000021
  0.2296800020000020  0.2260800000000032  0.8785200120000027
  0.3348999919999969  0.3983899950000023  0.0348999980000002
  0.6650999780000006  0.6016100049999977  0.9650999899999988
  0.3237900139999965  0.8976299759999975  0.2792600100000016
  0.6762099860000035  0.1023700240000025  0.7207399609999996
  0.1878200020000023  0.6359800099999973  0.3448599869999995
  0.8121799830000000  0.3640199900000027  0.6551400419999993
  0.1178399989999974  0.9844599959999982  0.0958899999999971
  0.8821600079999996  0.0155400040000018  0.9041100139999969
  0.2513099909999994  0.7822899820000018  0.1210099979999981
  0.7486900090000006  0.2177100179999982  0.8789899949999977
  0.8213000300000033  0.8965200190000004  0.2803899939999965
  0.1786999699999967  0.1034799809999996  0.7196099760000010
  0.0326699989999995  0.8170700069999981  0.9465699790000031
  0.9673299789999987  0.1829299930000019  0.0534299979999986
  0.5283300279999992  0.8086799980000023  0.9435600039999983
  0.4716699720000008  0.1913200019999977  0.0564399989999984
  0.6100800039999967  0.9762399789999989  0.1056400020000012
  0.3899199960000033  0.0237600210000011  0.8943600059999994
  0.2518999870000016  0.2651599940000011  0.1700599939999989
  0.7481000419999972  0.7348400349999977  0.8299400209999988
  0.4970999960000029  0.7484800220000025  0.2584500009999999
  0.5029000039999971  0.2515199779999975  0.7415499689999976
  0.6373000139999974  0.5255399939999990  0.6536700130000028
  0.3626999860000026  0.4744600060000010  0.3463299869999972
  0.1351999939999970  0.5196200009999998  0.6524199839999980
  0.8647999760000005  0.4803799990000002  0.3475800160000020
 
  0.00000000E+00  0.00000000E+00  0.00000000E+00
  0.00000000E+00  0.00000000E+00  0.00000000E+00
  0.00000000E+00  0.00000000E+00  0.00000000E+00
  0.00000000E+00  0.00000000E+00  0.00000000E+00
  0.00000000E+00  0.00000000E+00  0.00000000E+00
  0.00000000E+00  0.00000000E+00  0.00000000E+00
  0.00000000E+00  0.00000000E+00  0.00000000E+00
  0.00000000E+00  0.00000000E+00  0.00000000E+00
  0.00000000E+00  0.00000000E+00  0.00000000E+00
  0.00000000E+00  0.00000000E+00  0.00000000E+00
  0.00000000E+00  0.00000000E+00  0.00000000E+00
  0.00000000E+00  0.00000000E+00  0.00000000E+00
  0.00000000E+00  0.00000000E+00  0.00000000E+00
  0.00000000E+00  0.00000000E+00  0.00000000E+00
  0.00000000E+00  0.00000000E+00  0.00000000E+00
  0.00000000E+00  0.00000000E+00  0.00000000E+00
  0.00000000E+00  0.00000000E+00  0.00000000E+00
  0.00000000E+00  0.00000000E+00  0.00000000E+00
  0.00000000E+00  0.00000000E+00  0.00000000E+00
  0.00000000E+00  0.00000000E+00  0.00000000E+00
  0.00000000E+00  0.00000000E+00  0.00000000E+00
  0.00000000E+00  0.00000000E+00  0.00000000E+00
  0.00000000E+00  0.00000000E+00  0.00000000E+00
  0.00000000E+00  0.00000000E+00  0.00000000E+00
  0.00000000E+00  0.00000000E+00  0.00000000E+00
  0.00000000E+00  0.00000000E+00  0.00000000E+00
  0.00000000E+00  0.00000000E+00  0.00000000E+00
  0.00000000E+00  0.00000000E+00  0.00000000E+00
  0.00000000E+00  0.00000000E+00  0.00000000E+00
  0.00000000E+00  0.00000000E+00  0.00000000E+00
  0.00000000E+00  0.00000000E+00  0.00000000E+00
  0.00000000E+00  0.00000000E+00  0.00000000E+00
  0.00000000E+00  0.00000000E+00  0.00000000E+00
  0.00000000E+00  0.00000000E+00  0.00000000E+00
  0.00000000E+00  0.00000000E+00  0.00000000E+00
  0.00000000E+00  0.00000000E+00  0.00000000E+00
  0.00000000E+00  0.00000000E+00  0.00000000E+00
  0.00000000E+00  0.00000000E+00  0.00000000E+00
  0.00000000E+00  0.00000000E+00  0.00000000E+00
  0.00000000E+00  0.00000000E+00  0.00000000E+00
  0.00000000E+00  0.00000000E+00  0.00000000E+00
  0.00000000E+00  0.00000000E+00  0.00000000E+00
  0.00000000E+00  0.00000000E+00  0.00000000E+00
  0.00000000E+00  0.00000000E+00  0.00000000E+00
  0.00000000E+00  0.00000000E+00  0.00000000E+00
  0.00000000E+00  0.00000000E+00  0.00000000E+00
  0.00000000E+00  0.00000000E+00  0.00000000E+00
  0.00000000E+00  0.00000000E+00  0.00000000E+00
  0.00000000E+00  0.00000000E+00  0.00000000E+00
  0.00000000E+00  0.00000000E+00  0.00000000E+00
  0.00000000E+00  0.00000000E+00  0.00000000E+00
  0.00000000E+00  0.00000000E+00  0.00000000E+00
  0.00000000E+00  0.00000000E+00  0.00000000E+00
  0.00000000E+00  0.00000000E+00  0.00000000E+00
  0.00000000E+00  0.00000000E+00  0.00000000E+00
  0.00000000E+00  0.00000000E+00  0.00000000E+00
  0.00000000E+00  0.00000000E+00  0.00000000E+00
  0.00000000E+00  0.00000000E+00  0.00000000E+00
  0.00000000E+00  0.00000000E+00  0.00000000E+00
  0.00000000E+00  0.00000000E+00  0.00000000E+00
  0.00000000E+00  0.00000000E+00  0.00000000E+00
  0.00000000E+00  0.00000000E+00  0.00000000E+00
  0.00000000E+00  0.00000000E+00  0.00000000E+00
  0.00000000E+00  0.00000000E+00  0.00000000E+00
  0.00000000E+00  0.00000000E+00  0.00000000E+00
  0.00000000E+00  0.00000000E+00  0.00000000E+00
  0.00000000E+00  0.00000000E+00  0.00000000E+00
  0.00000000E+00  0.00000000E+00  0.00000000E+00
  0.00000000E+00  0.00000000E+00  0.00000000E+00
  0.00000000E+00  0.00000000E+00  0.00000000E+00
  0.00000000E+00  0.00000000E+00  0.00000000E+00
  0.00000000E+00  0.00000000E+00  0.00000000E+00
  0.00000000E+00  0.00000000E+00  0.00000000E+00
  0.00000000E+00  0.00000000E+00  0.00000000E+00
  0.00000000E+00  0.00000000E+00  0.00000000E+00
  0.00000000E+00  0.00000000E+00  0.00000000E+00
  0.00000000E+00  0.00000000E+00  0.00000000E+00
  0.00000000E+00  0.00000000E+00  0.00000000E+00
  0.00000000E+00  0.00000000E+00  0.00000000E+00
  0.00000000E+00  0.00000000E+00  0.00000000E+00
  0.00000000E+00  0.00000000E+00  0.00000000E+00
  0.00000000E+00  0.00000000E+00  0.00000000E+00
  0.00000000E+00  0.00000000E+00  0.00000000E+00
  0.00000000E+00  0.00000000E+00  0.00000000E+00
  0.00000000E+00  0.00000000E+00  0.00000000E+00
  0.00000000E+00  0.00000000E+00  0.00000000E+00
  0.00000000E+00  0.00000000E+00  0.00000000E+00
  0.00000000E+00  0.00000000E+00  0.00000000E+00
  0.00000000E+00  0.00000000E+00  0.00000000E+00
  0.00000000E+00  0.00000000E+00  0.00000000E+00
  0.00000000E+00  0.00000000E+00  0.00000000E+00
  0.00000000E+00  0.00000000E+00  0.00000000E+00
