Co Ge Sb Te                             
   1.00000000000000     
    17.2359871327019022    0.0000000000000000    0.0000000000000000
     0.0000000000000000   17.2359871327019022    0.0000000000000000
     0.0000000000000000    0.0000000000000000   17.2359871327019022
   Co   Ge   Sb   Te
     8    32    32    80
Direct
  0.3945906186092301  0.9111294634744534  0.4582001050555022
  0.3964817580201982  0.8941858939332314  0.2895212772375569
  0.5467485796180339  0.1170907320422449  0.3745235022279776
  0.6183129787026145  0.9584770462660783  0.1746118030946090
  0.3328825030019308  0.8216468536713353  0.9383451829409449
  0.6958855462176028  0.2179450363664824  0.1670441763448025
  0.3821519692623426  0.0379623527178067  0.3451432828909270
  0.8454562505086206  0.3273106347992579  0.9512099049494199
  0.5689884095211681  0.8575416391827450  0.1004199686671638
  0.8976744096297676  0.5247562846770440  0.6856228186911206
  0.6719096303760140  0.4860553099455597  0.3331083932123931
  0.2694597411658849  0.6396799237141246  0.2451937381572288
  0.2402741955013692  0.0836654182944576  0.5308766635598141
  0.7655232526712824  0.3048382334842212  0.8240824539879646
  0.0443333887789183  0.0405664226728378  0.2316090847131384
  0.8795515642272966  0.5780852679705821  0.4295585358649410
  0.9644719131868713  0.3101267754538046  0.4366054382685956
  0.7425574930146632  0.9840373100868532  0.3490589972957064
  0.6542281299316242  0.5424817363699407  0.8145300290368713
  0.9470631133036717  0.8007071946027557  0.3925169254275618
  0.9207006399513353  0.1809732641234444  0.6891104443956201
  0.2097319725706685  0.4537902421096904  0.1978338912023427
  0.7214430229085701  0.5234315950132368  0.1467353945362891
  0.8303811904002982  0.6810907953771179  0.2164043998114946
  0.1154780893983188  0.7598447109395720  0.2863650871375376
  0.1844801079602023  0.6330882932987136  0.3775206983614117
  0.0070866899004572  0.8286946533538413  0.5628110186439745
  0.2274419391916477  0.2142389969078579  0.6075547151068743
  0.9160121977373444  0.0331873801918939  0.4596450085823220
  0.3520648071031175  0.9521434936011315  0.7067634911655889
  0.4936827939656362  0.2552700270344044  0.6073205909231146
  0.2853790351928847  0.9853077168372401  0.4253132829667893
  0.8325821882653377  0.4348464313462231  0.0530984061016210
  0.0322321593086348  0.9600087337891937  0.4925931986828204
  0.8395439854255049  0.1831934986276924  0.9590949526934704
  0.1924948024234488  0.0363928017530976  0.0840280408439451
  0.4479266700382009  0.8163858486275261  0.8677576719354418
  0.4793559469961833  0.3337928042779388  0.4324339415752871
  0.4668868817926922  0.7974556938651540  0.4158225730819308
  0.4784016241735546  0.9732454245386672  0.2003637920266504
  0.4126085463575991  0.0366283089731911  0.0714366831069267
  0.5854266708144226  0.7204042898221884  0.9005845204178904
  0.2937281780030879  0.6202208815293784  0.5741940414819918
  0.2705645747164886  0.7438221191735598  0.8187253994781888
  0.1022929868432329  0.6168232874834632  0.6115351871814352
  0.3270889686742204  0.4345261343306380  0.9924372445447751
  0.7083237224332579  0.3705099988384600  0.6139449365517652
  0.5076391003943457  0.9670973987160845  0.3741740164202722
  0.0962631377154158  0.9054148235712842  0.9167467101752080
  0.2868762050411806  0.1498966227742172  0.2947660840827319
  0.4192685669694708  0.0044613463343314  0.5625372502532840
  0.0944504666752483  0.0860368849320245  0.5768844991319383
  0.5032390491411629  0.6746798422327512  0.0351098491459065
  0.7085386733011025  0.9517785638355921  0.8472914230417317
  0.0444267311617240  0.4274595775370192  0.8364749406385573
  0.5822260825420167  0.9854199959102734  0.6093620429438298
  0.0639727640323235  0.4616700555285659  0.0054913303984613
  0.9375762049174499  0.9241079565169217  0.0086279399548247
  0.7270204672414021  0.3064540871699392  0.0412186085861723
  0.1843208928575265  0.3263447465992808  0.4311686766096091
  0.5768583193871425  0.2033180143882028  0.0919851033196815
  0.8467096705091596  0.4523483663935284  0.8700175358341737
  0.0880944937452020  0.9968028594956904  0.7202910140446056
  0.2125753083078915  0.8455963015028864  0.0336426843536702
  0.8791063121333049  0.9277333808377470  0.8448310843842609
  0.8523447133359705  0.2157133524217365  0.3848589922723724
  0.3569297117988858  0.2611462183820241  0.8110710794633189
  0.5374476314286275  0.8306612422937680  0.6377330748312264
  0.8598228828306997  0.8314181804387019  0.1282816899812654
  0.5095686262534356  0.4336335291746215  0.1598968065242719
  0.2267020474377847  0.4213759946966136  0.6519596487160775
  0.0056128056219151  0.5548629909153907  0.1895338404985420
  0.6470017863505656  0.0888750991297817  0.2572955025276722
  0.2658748331607748  0.9134101622856106  0.8501513868991361
  0.7480698753818485  0.5477229194571013  0.9590843098262973
  0.7284983579881851  0.7859902022318429  0.7689588123427906
  0.8192357782709602  0.7184728877706168  0.3802882850187346
  0.4155939424077310  0.3087696458715340  0.1095735892804346
  0.5780816891032821  0.0295981609012346  0.0518607706506762
  0.9376675984866721  0.9390359026293069  0.6701892017769854
  0.2812356979837364  0.1406414015553728  0.7477168856004377
  0.5990305998295228  0.5950525783891104  0.2515437876840503
  0.3573417903399511  0.5122273847619054  0.6836586581736700
  0.6264676743608657  0.3156732771662192  0.2432562689472109
  0.6038837789768728  0.7670294551146666  0.5027438266358377
  0.3043229869323636  0.8232535062337988  0.3842214947340347
  0.9935240875685376  0.5894219271650616  0.8164071739313127
  0.3278999992540941  0.6939650463343938  0.0049896607570737
  0.0521729423780710  0.3794595941538528  0.3389245625864581
  0.9336498864669174  0.6639350870799383  0.0848059255066241
  0.9030176130050800  0.0581437000425464  0.3047712850802443
  0.6470896821298563  0.0462736447360415  0.4665568406496954
  0.7235428310558262  0.5474824145577941  0.4704680219028648
  0.1381712766175053  0.6696840394861672  0.1554892896399772
  0.1854381491663468  0.3587934648886064  0.0556705017635229
  0.3336948344594491  0.7836200467506445  0.1926569143327989
  0.9816433728611949  0.8471091137769100  0.2374315686384864
  0.1320510275344758  0.7266420019901034  0.4942821239339769
  0.8305461528512371  0.1328796111805224  0.5412660251447793
  0.6283731545252373  0.3886855760031717  0.7716961010587552
  0.0756510992796245  0.7485800916143182  0.7115250229421538
  0.6964658874824379  0.6859966070982854  0.1370975838236424
  0.8419142018408897  0.5119098205664756  0.2544691862645128
  0.8308381573441069  0.3899329872014189  0.4627265245108633
  0.1663512405600023  0.1601678919140284  0.4081627318300124
  0.4246497018023724  0.1387110754288696  0.4524656529684951
  0.5355386252597273  0.4113217389372800  0.5559047558630582
  0.2124798177846788  0.4136391079425766  0.8201115627837583
  0.6494095667677912  0.8751553936440168  0.2879083727283007
  0.9307429689365662  0.6319062947292939  0.5715067115531761
  0.2888013706012095  0.3424162698301003  0.3042601288246409
  0.0369658091306625  0.2802247202634435  0.5767003127470168
  0.4132088784505228  0.8760577641999647  0.0388306175133289
  0.1990438030657731  0.1338192782403309  0.9491798092086734
  0.1196845563824654  0.7504473502258437  0.9350335663576205
  0.0415679316075755  0.4409209612142592  0.6405501670553706
  0.4187920292425518  0.7080898135863666  0.7555757145667319
  0.7384022571468779  0.9650540350264174  0.0953948222343964
  0.7968128349257012  0.0799036080175594  0.7331131583452526
  0.7363255084690390  0.5987704376722645  0.7056064967438914
  0.4967218050001604  0.4769875973245821  0.3392592742375662
  0.8355500059505160  0.8960317825938504  0.4541404700761231
  0.4645678220001369  0.1352502414125235  0.2531962675410241
  0.4199318349786854  0.6414540052668658  0.4507819566855220
  0.0196605489117504  0.0540490343472028  0.0673242322193940
  0.6055877373677654  0.2803274895836002  0.9438964071112594
  0.8536301271767245  0.3193140435903698  0.6959969879466408
  0.0274259427718922  0.6289172495323405  0.3415201092832306
  0.2914628176071051  0.9903176020140175  0.2343088418654240
  0.1544089605832650  0.8819750714484982  0.6261474709958348
  0.6685799419926689  0.8457279904114242  0.9666043782687398
  0.7136213303298040  0.1607339856069349  0.8404060633859248
  0.6496894610512571  0.2211922792265709  0.5835913059860248
  0.1509563280783094  0.1521291482678744  0.1864091473691858
  0.2630798657252811  0.5673554968123994  0.9156647214911297
  0.3776208594153830  0.8223651340739432  0.5750869707263480
  0.8109614992469946  0.1481102191992164  0.1235650162020393
  0.4858983138592610  0.9428127874307470  0.7879985230521711
  0.3524719044047046  0.5235541599633097  0.1386885844113142
  0.3389677964066081  0.2117237537248821  0.9715846992026856
  0.9479757369296344  0.2519171430667876  0.8674333824759226
  0.8606685831118276  0.7673834481307503  0.8514042198984726
  0.4901535767091455  0.7741379193264802  0.2465706424101721
  0.2106018460470415  0.5112117715999221  0.4758414384208683
  0.5257281555792320  0.5151485459192057  0.9961408547354818
  0.9585913607033312  0.3278222973950398  0.0453026292055209
  0.8242507887200189  0.2858071469875283  0.2113335987617411
  0.6167188435077928  0.2474024522873983  0.3998589551094230
  0.1346789283977434  0.9552919756598713  0.3652637863803068
  0.3211533695438383  0.3183483220639116  0.5503148624510493
  0.5049660609599079  0.2057982083230298  0.7572855724669980
  0.5584790552005134  0.6048024760312712  0.5263599471047867
 
 -0.60242982E-03  0.47412972E-03  0.17733806E-02
 -0.32227495E-02 -0.31833519E-04 -0.11403746E-02
  0.35726551E-02 -0.21832004E-02  0.71202838E-03
 -0.30905970E-02 -0.10192945E-03 -0.11325818E-02
  0.33064360E-02 -0.22524626E-02  0.28083438E-02
  0.71461289E-04  0.14698308E-02 -0.38942880E-02
  0.16160404E-02  0.10394353E-03  0.30300347E-02
  0.15038182E-02 -0.92937020E-07 -0.20408065E-02
  0.19122732E-02  0.22142220E-02  0.96099714E-03
 -0.33942242E-02  0.13702673E-02  0.14929761E-02
  0.26442865E-02 -0.75244619E-03 -0.24054817E-02
  0.17089123E-03 -0.39531699E-03 -0.18513342E-02
 -0.14043338E-02 -0.40024263E-03 -0.61958522E-03
  0.21614507E-02  0.15207823E-04  0.43772566E-03
  0.11074985E-02  0.21060804E-02 -0.13848709E-02
 -0.73332603E-03  0.18231215E-02  0.96007116E-03
 -0.36958705E-03  0.33893710E-02  0.11726209E-02
 -0.55406744E-03 -0.18176073E-02  0.93701895E-03
 -0.76761480E-03  0.34938568E-02  0.13148600E-02
  0.90747189E-03  0.12347989E-02 -0.27351572E-02
 -0.35023338E-02 -0.13826799E-02  0.25210209E-02
  0.22521239E-02 -0.17089265E-02 -0.32053195E-03
  0.10241967E-02 -0.34379039E-02  0.20878463E-02
 -0.10968594E-03 -0.18956019E-02 -0.38253493E-03
 -0.14344961E-02 -0.11094144E-02  0.11526312E-02
 -0.14186405E-03 -0.66410262E-03  0.36384620E-03
  0.29873576E-02 -0.18817854E-02  0.24391300E-02
 -0.54130994E-02 -0.22969290E-02 -0.59340464E-03
  0.20680397E-02  0.14572743E-02  0.15866847E-02
  0.57788105E-04 -0.35018741E-03  0.14027226E-02
 -0.15393586E-02 -0.19253677E-02  0.28788657E-02
 -0.45371650E-03 -0.37455582E-02  0.19673264E-02
  0.79602998E-03  0.58559349E-03 -0.82922198E-03
 -0.23508247E-02 -0.49995636E-03  0.41094276E-02
  0.20661590E-03  0.20209099E-02 -0.20616821E-02
 -0.13632616E-02 -0.27393511E-02 -0.17813227E-02
  0.44655214E-03 -0.51513154E-03 -0.17299456E-02
 -0.12089588E-02 -0.17975804E-02  0.15331040E-03
 -0.19931510E-03  0.32470413E-02  0.25549232E-03
  0.62855081E-03 -0.14057749E-03 -0.11124948E-02
 -0.16279625E-02  0.22770928E-02  0.99207460E-03
 -0.65110794E-03  0.16377162E-02  0.14129824E-02
 -0.73095855E-03  0.35491891E-03 -0.38296208E-03
 -0.30238635E-03 -0.13134558E-02  0.22615358E-02
 -0.15111632E-03  0.61966654E-03 -0.20321135E-02
 -0.14216134E-02 -0.71048082E-05 -0.36638331E-03
 -0.17524091E-02  0.17058579E-02  0.19237310E-02
 -0.24862547E-02 -0.22844135E-02 -0.52807589E-03
 -0.38082659E-03  0.86986258E-03 -0.71060894E-03
 -0.12233526E-02  0.86017711E-03 -0.11700131E-02
  0.78389007E-03  0.13530768E-02 -0.56358549E-03
  0.61091517E-03  0.20383849E-02  0.88799069E-03
  0.26940427E-03 -0.72422799E-03 -0.55017719E-03
  0.71881839E-03 -0.16256772E-02  0.18880114E-03
 -0.21887830E-02  0.40567579E-03 -0.75645864E-03
 -0.11444920E-04  0.57002696E-03 -0.12198049E-02
 -0.61934276E-03 -0.26540095E-02 -0.62057159E-04
  0.31205242E-03 -0.19286721E-02 -0.11341303E-03
 -0.39282869E-03 -0.20873257E-02  0.40277646E-03
  0.14194682E-02 -0.14155559E-02 -0.10051995E-03
  0.66516673E-04  0.42877518E-03 -0.17913090E-02
  0.28945167E-02 -0.32919037E-04  0.13107056E-02
 -0.61205433E-05 -0.13612753E-02 -0.10115923E-02
 -0.55464132E-03 -0.18237227E-02 -0.29739445E-03
  0.12324144E-02 -0.13780388E-02  0.16389485E-03
  0.54361994E-03  0.29165814E-03 -0.24829798E-02
  0.14578384E-02  0.30067564E-03 -0.21077015E-02
  0.17575205E-02 -0.15871894E-02 -0.24923415E-02
  0.49658057E-03  0.21862907E-02  0.72301659E-03
 -0.18692606E-03  0.13872595E-02 -0.36544076E-03
  0.18349389E-02 -0.11655620E-02  0.18967426E-02
  0.22180761E-02  0.60504942E-03 -0.18933500E-03
  0.12980274E-04  0.10127889E-02  0.17842654E-02
  0.20389843E-02 -0.19896712E-02  0.26825782E-03
 -0.21640933E-03  0.44390097E-02  0.10481632E-02
 -0.37633673E-03  0.25797075E-02 -0.24446930E-03
 -0.12665923E-02 -0.13336576E-02  0.25833636E-02
  0.23108164E-02 -0.14614065E-02 -0.11259147E-02
  0.60031284E-04  0.10647512E-02 -0.88665107E-03
 -0.60116983E-03  0.99255470E-03 -0.62336992E-03
 -0.30915390E-02 -0.17647355E-02  0.10586846E-02
  0.91551304E-03  0.25239938E-02 -0.16300351E-02
  0.22387953E-03  0.22407210E-02  0.12037246E-02
 -0.30027207E-02 -0.87921679E-03 -0.47305389E-03
 -0.48580491E-03 -0.65667853E-04 -0.44859486E-03
  0.18065113E-03 -0.11270363E-02 -0.10410587E-02
  0.17999564E-02  0.16290827E-02 -0.13284101E-02
  0.13692437E-02  0.31040650E-02 -0.69399326E-03
  0.41118528E-03  0.74755043E-04 -0.11651971E-02
 -0.60640006E-03  0.19400428E-02 -0.98705815E-03
  0.29227304E-02  0.96470962E-03 -0.18704277E-02
 -0.29128140E-02  0.26307085E-03 -0.52358055E-03
 -0.16485197E-02  0.86313403E-03  0.12560592E-02
 -0.21011245E-02  0.15718419E-04  0.41433256E-03
  0.23802709E-02 -0.18988670E-02  0.55600349E-04
 -0.12727144E-02 -0.19780983E-02 -0.17135963E-02
 -0.13895246E-02  0.47780667E-03 -0.24115764E-03
 -0.23311215E-02  0.13193817E-02 -0.10452213E-02
  0.89941159E-03 -0.11780600E-02  0.29858707E-03
 -0.81669792E-03 -0.30507581E-02 -0.12509480E-02
  0.37287417E-03  0.62794187E-03 -0.38643832E-03
 -0.23475169E-02 -0.62474788E-03 -0.13346453E-02
 -0.78667931E-04  0.45590572E-03 -0.13269660E-02
  0.47142088E-03  0.28651706E-03  0.18125965E-02
 -0.31037794E-03 -0.13136100E-02  0.12607987E-02
  0.54432631E-03  0.58792232E-04  0.13289467E-02
  0.21193764E-02  0.97102099E-03 -0.30709696E-02
  0.77488438E-03  0.54983162E-03 -0.72665325E-03
  0.32243147E-03 -0.55100409E-03 -0.18319191E-02
  0.25174654E-04 -0.85033738E-03  0.23904116E-02
  0.24036306E-02  0.86254621E-04  0.16566360E-02
  0.35524160E-02 -0.12033234E-03  0.93023758E-03
 -0.16778864E-02  0.14143592E-03  0.11012777E-02
  0.14091128E-02  0.21268538E-02  0.46217837E-03
  0.34791480E-03 -0.29629910E-02 -0.46460069E-03
 -0.25354105E-02 -0.28640788E-03  0.32610789E-03
  0.12998936E-02  0.11033166E-03  0.17213856E-02
  0.97981856E-03  0.16565369E-02  0.24902381E-02
 -0.81951007E-03 -0.70009753E-03 -0.48505195E-03
 -0.29788016E-02  0.41940677E-03 -0.27010186E-02
 -0.19039510E-02 -0.27986846E-02  0.34786001E-04
 -0.10743059E-02 -0.85619091E-03  0.14294721E-02
 -0.33085481E-03  0.78466630E-03  0.27669067E-03
 -0.87545499E-04  0.11250606E-02 -0.11812019E-03
 -0.82086155E-03 -0.25674005E-03  0.12496063E-02
 -0.43408394E-03 -0.82568888E-03 -0.78754994E-03
  0.68398457E-03  0.12556633E-02  0.10459798E-02
  0.39462323E-03  0.67577862E-03  0.12855434E-02
  0.54848954E-03  0.90335188E-03 -0.23245222E-02
  0.58261488E-03 -0.58175393E-03  0.11367859E-03
 -0.16023976E-02 -0.24291728E-02 -0.31690545E-03
  0.16090042E-02  0.11070062E-02  0.10507654E-02
  0.16764090E-02  0.16948987E-02  0.18808781E-02
  0.24398512E-02  0.13475127E-02  0.16602158E-03
  0.38432599E-02 -0.98281795E-03  0.83731604E-03
  0.12873395E-02  0.22078955E-03 -0.15333368E-02
 -0.55493280E-03  0.12713774E-03 -0.22590232E-03
  0.18463692E-02  0.20868105E-02 -0.19702498E-02
 -0.19775868E-02 -0.62643773E-03  0.32134505E-03
 -0.31650087E-02  0.11309322E-02 -0.85001754E-03
 -0.15570381E-02  0.70673047E-03  0.84075406E-03
  0.22184375E-03 -0.17112319E-02  0.49774565E-03
  0.12047072E-02 -0.13786247E-02 -0.51962369E-03
  0.47544101E-03 -0.55625295E-03  0.10511194E-02
  0.19760593E-02 -0.50423532E-03 -0.87736475E-03
 -0.12036029E-02  0.81654115E-03  0.85221228E-04
  0.60146766E-03 -0.24970658E-02 -0.15724565E-02
  0.12836637E-03  0.13190591E-02  0.92645398E-03
 -0.11724585E-02  0.10390342E-02  0.25695945E-02
 -0.72287006E-03 -0.77709582E-03  0.29719643E-02
  0.76617874E-03  0.60690851E-03 -0.19714732E-02
 -0.10878791E-02 -0.82584888E-03 -0.55925268E-03
 
           1
   3.00000000000000     
  0.10000000E+01  0.00000000E+00  0.00000000E+00  0.00000000E+00
  0.39448637E+00  0.91121151E+00  0.45850699E+00
  0.39592406E+00  0.89418039E+00  0.28932393E+00
  0.54736683E+00  0.11671293E+00  0.37464672E+00
  0.61777815E+00  0.95845941E+00  0.17441581E+00
  0.33345468E+00  0.82125706E+00  0.93883117E+00
  0.69589791E+00  0.21819939E+00  0.16637027E+00
  0.38243163E+00  0.37980340E-01  0.34566763E+00
  0.84571649E+00  0.32731062E+00  0.95085674E+00
  0.56931933E+00  0.85792481E+00  0.10058627E+00
  0.89708704E+00  0.52499341E+00  0.68588118E+00
  0.67236723E+00  0.48592510E+00  0.33269212E+00
  0.26948931E+00  0.63961151E+00  0.24487336E+00
  0.24003117E+00  0.83596156E-01  0.53076944E+00
  0.76589729E+00  0.30484087E+00  0.82415820E+00
  0.44525042E-01  0.40930881E-01  0.23136943E+00
  0.87942466E+00  0.57840076E+00  0.42972468E+00
  0.96440796E+00  0.31071331E+00  0.43680836E+00
  0.74246161E+00  0.98372277E+00  0.34922115E+00
  0.65409529E+00  0.54308635E+00  0.81475757E+00
  0.94722015E+00  0.80092088E+00  0.39204361E+00
  0.92009456E+00  0.18073399E+00  0.68954671E+00
  0.21012170E+00  0.45349451E+00  0.19777842E+00
  0.72162026E+00  0.52283666E+00  0.14709670E+00
  0.83036221E+00  0.68076276E+00  0.21633820E+00
  0.11522985E+00  0.75965273E+00  0.28656455E+00
  0.18445556E+00  0.63297337E+00  0.37758366E+00
  0.76036534E-02  0.82836901E+00  0.56323311E+00
  0.22650520E+00  0.21384151E+00  0.60745203E+00
  0.91637007E+00  0.33439562E-01  0.45991959E+00
  0.35207481E+00  0.95208289E+00  0.70700623E+00
  0.49341641E+00  0.25493684E+00  0.60781878E+00
  0.28530052E+00  0.98465955E+00  0.42565373E+00
  0.83271994E+00  0.43494777E+00  0.52954909E-01
  0.31825348E-01  0.95992222E+00  0.49330434E+00
  0.83957974E+00  0.18354322E+00  0.95873818E+00
  0.19225889E+00  0.35918756E-01  0.83719782E-01
  0.44800395E+00  0.81629670E+00  0.86745830E+00
  0.47914674E+00  0.33348173E+00  0.43246047E+00
  0.46685239E+00  0.79801760E+00  0.41586679E+00
  0.47851040E+00  0.97322110E+00  0.20017127E+00
  0.41232683E+00  0.37022361E-01  0.71608362E-01
  0.58531400E+00  0.72068770E+00  0.90082904E+00
  0.29360169E+00  0.62028230E+00  0.57412777E+00
  0.27051225E+00  0.74359483E+00  0.81911676E+00
  0.10226684E+00  0.61693052E+00  0.61118353E+00
  0.32684296E+00  0.43452490E+00  0.99237384E+00
  0.70802047E+00  0.37080520E+00  0.61427784E+00
  0.50720885E+00  0.96670208E+00  0.37408263E+00
  0.96197236E-01  0.90556535E+00  0.91662374E+00
  0.28666450E+00  0.15004548E+00  0.29456361E+00
  0.41940422E+00  0.46954969E-02  0.56243972E+00
  0.94556186E-01  0.86389628E-01  0.57703817E+00
  0.50328567E+00  0.67455451E+00  0.35014641E-01
  0.70866307E+00  0.95149724E+00  0.84732410E+00
  0.44047961E-01  0.42752978E+00  0.83634404E+00
  0.58222410E+00  0.98551864E+00  0.60915096E+00
  0.63865587E-01  0.46121078E+00  0.54805914E-02
  0.93763021E+00  0.92377420E+00  0.86083138E-02
  0.72695249E+00  0.30609287E+00  0.41288309E-01
  0.18456653E+00  0.32609978E+00  0.43115128E+00
  0.57686983E+00  0.20339221E+00  0.91675117E-01
  0.84721057E+00  0.45234267E+00  0.87024435E+00
  0.88093435E-01  0.99656729E+00  0.72011596E+00
  0.21247933E+00  0.84528071E+00  0.33591220E-01
  0.87931958E+00  0.92749491E+00  0.84485945E+00
  0.85243879E+00  0.21576382E+00  0.38442931E+00
  0.35718199E+00  0.26119825E+00  0.81070634E+00
  0.53775177E+00  0.83038658E+00  0.63730177E+00
  0.85990882E+00  0.83179652E+00  0.12840681E+00
  0.50953628E+00  0.43387360E+00  0.15983357E+00
  0.22701958E+00  0.42117429E+00  0.65228788E+00
  0.59966446E-02  0.55496769E+00  0.18950108E+00
  0.64700403E+00  0.89050363E-01  0.25760427E+00
  0.26622768E+00  0.91306585E+00  0.85019781E+00
  0.74803243E+00  0.54849109E+00  0.95926569E+00
  0.72843323E+00  0.78643662E+00  0.76891651E+00
  0.81901659E+00  0.71824210E+00  0.38073534E+00
  0.41599383E+00  0.30851675E+00  0.10937875E+00
  0.57809208E+00  0.29782417E-01  0.51707335E-01
  0.93756357E+00  0.93920766E+00  0.67008133E+00
  0.28070071E+00  0.14033601E+00  0.74790009E+00
  0.59918903E+00  0.59548936E+00  0.25126171E+00
  0.35738053E+00  0.51261514E+00  0.68386696E+00
  0.62594805E+00  0.31552113E+00  0.24317441E+00
  0.60379971E+00  0.76701809E+00  0.50266620E+00
  0.30435425E+00  0.82305847E+00  0.38404134E+00
  0.99383557E+00  0.58970384E+00  0.81617729E+00
  0.32813695E+00  0.69450221E+00  0.48695649E-02
  0.52244098E-01  0.37947253E+00  0.33872292E+00
  0.93354495E+00  0.66427081E+00  0.84635115E-01
  0.90352339E+00  0.58310643E-01  0.30444761E+00
  0.64658562E+00  0.46319169E-01  0.46646623E+00
  0.72325755E+00  0.54763178E+00  0.47068538E+00
  0.13780768E+00  0.66968676E+00  0.15556099E+00
  0.18585006E+00  0.35846487E+00  0.55680123E-01
  0.33347459E+00  0.78327774E+00  0.19236038E+00
  0.98140292E+00  0.84719180E+00  0.23738984E+00
  0.13164763E+00  0.72687032E+00  0.49410125E+00
  0.83070180E+00  0.13267575E+00  0.54131770E+00
  0.62823182E+00  0.38815764E+00  0.77147962E+00
  0.75715625E-01  0.74868876E+00  0.71145815E+00
  0.69605965E+00  0.68588849E+00  0.13686662E+00
  0.84190059E+00  0.51198872E+00  0.25423955E+00
  0.83091974E+00  0.38998257E+00  0.46304020E+00
  0.16629753E+00  0.15994057E+00  0.40838091E+00
  0.42474390E+00  0.13872125E+00  0.45269563E+00
  0.53590538E+00  0.41148977E+00  0.55537332E+00
  0.21261391E+00  0.41373426E+00  0.81998582E+00
  0.64946536E+00  0.87506004E+00  0.28759136E+00
  0.93074733E+00  0.63175914E+00  0.57192037E+00
  0.28921732E+00  0.34243120E+00  0.30454681E+00
  0.37580556E-01  0.28020390E+00  0.57686129E+00
  0.41291852E+00  0.87608224E+00  0.39021194E-01
  0.19928765E+00  0.13418733E+00  0.94925979E+00
  0.11974476E+00  0.74993460E+00  0.93495317E+00
  0.41129178E-01  0.44087140E+00  0.64060660E+00
  0.41901698E+00  0.70810891E+00  0.75587360E+00
  0.73857182E+00  0.96534070E+00  0.95825759E-01
  0.79667102E+00  0.79782456E-01  0.73302922E+00
  0.73581003E+00  0.59884302E+00  0.70513908E+00
  0.49639233E+00  0.47650328E+00  0.33926529E+00
  0.83536410E+00  0.89588362E+00  0.45438784E+00
  0.46451057E+00  0.13538603E+00  0.25324415E+00
  0.41991669E+00  0.64164870E+00  0.45076152E+00
  0.19518498E-01  0.54004605E-01  0.67540477E-01
  0.60551262E+00  0.28018460E+00  0.94376012E+00
  0.85374849E+00  0.31953134E+00  0.69617800E+00
  0.27494232E-01  0.62903419E+00  0.34174257E+00
  0.29155773E+00  0.99047393E+00  0.23390658E+00
  0.15450978E+00  0.88187440E+00  0.62616714E+00
  0.66830265E+00  0.84530762E+00  0.96654954E+00
  0.71389977E+00  0.16092555E+00  0.84058790E+00
  0.64997956E+00  0.22148558E+00  0.58391679E+00
  0.15137855E+00  0.15236234E+00  0.18643788E+00
  0.26374494E+00  0.56718542E+00  0.91580962E+00
  0.37784363E+00  0.82240334E+00  0.57482163E+00
  0.81086547E+00  0.14813222E+00  0.12352592E+00
  0.48621783E+00  0.94317391E+00  0.78765757E+00
  0.35212968E+00  0.52344575E+00  0.13874419E+00
  0.33842009E+00  0.21191946E+00  0.97143760E+00
  0.94770629E+00  0.25203944E+00  0.86757888E+00
  0.86070697E+00  0.76708732E+00  0.85149035E+00
  0.49036205E+00  0.77389935E+00  0.24648072E+00
  0.21068412E+00  0.51111551E+00  0.47602334E+00
  0.52607011E+00  0.51506129E+00  0.99598903E+00
  0.95838308E+00  0.32796360E+00  0.45317377E-01
  0.82435487E+00  0.28537503E+00  0.21106148E+00
  0.61674106E+00  0.24763072E+00  0.40001928E+00
  0.13447603E+00  0.95547178E+00  0.36570846E+00
  0.32102828E+00  0.31821385E+00  0.55082916E+00
  0.50509865E+00  0.20590323E+00  0.75694441E+00
  0.55829080E+00  0.60465956E+00  0.52626317E+00
 -0.11683406E-03  0.97763458E-04  0.34136074E-03
 -0.56094531E-03 -0.59549961E-05 -0.18246734E-03
  0.59234096E-03 -0.36276079E-03  0.13562736E-03
 -0.51169088E-03 -0.53847235E-04 -0.19866476E-03
  0.59758061E-03 -0.36688165E-03  0.49259508E-03
  0.76408910E-05  0.26057319E-03 -0.66881855E-03
  0.28950736E-03  0.25373420E-04  0.52014349E-03
  0.26610197E-03  0.19924717E-05 -0.33601227E-03
  0.32445608E-03  0.39713194E-03  0.16266455E-03
 -0.58788854E-03  0.23221211E-03  0.24630787E-03
  0.44811641E-03 -0.11001564E-03 -0.42231877E-03
  0.33828440E-04 -0.65750489E-04 -0.31106396E-03
 -0.25645510E-03 -0.84811415E-04 -0.10592089E-03
  0.36980038E-03 -0.28454593E-04  0.57257558E-04
  0.17796571E-03  0.38440572E-03 -0.24302589E-03
 -0.11759694E-03  0.32872519E-03  0.17612388E-03
 -0.52315818E-04  0.58340391E-03  0.18405257E-03
 -0.10338294E-03 -0.31431992E-03  0.15739529E-03
 -0.12729595E-03  0.60786417E-03  0.20366914E-03
  0.14718740E-03  0.20163568E-03 -0.46796233E-03
 -0.60483108E-03 -0.22138407E-03  0.43855539E-03
  0.36970590E-03 -0.28222185E-03 -0.59774285E-04
  0.18395086E-03 -0.59269759E-03  0.36873992E-03
 -0.37124502E-04 -0.31660308E-03 -0.68739634E-04
 -0.24089203E-03 -0.18077342E-03  0.20361789E-03
 -0.21073425E-04 -0.11479465E-03  0.61985579E-04
  0.52442641E-03 -0.32409706E-03  0.41099721E-03
 -0.93051855E-03 -0.37393865E-03 -0.12579025E-03
  0.37568266E-03  0.26314294E-03  0.28619575E-03
  0.13499677E-04 -0.58233878E-04  0.23473118E-03
 -0.26815973E-03 -0.33826394E-03  0.50259814E-03
 -0.71718139E-04 -0.65989420E-03  0.33797200E-03
  0.14047657E-03  0.11346011E-03 -0.13353142E-03
 -0.44675323E-03 -0.10149614E-03  0.71479887E-03
  0.47401491E-04  0.34952405E-03 -0.34984611E-03
 -0.22161336E-03 -0.48769571E-03 -0.29119374E-03
  0.65528913E-04 -0.60448384E-04 -0.29489656E-03
 -0.21494994E-03 -0.32188970E-03  0.38793969E-04
 -0.36970740E-04  0.57307495E-03  0.48772571E-04
  0.10742323E-03 -0.21969284E-04 -0.20292899E-03
 -0.26832380E-03  0.39281257E-03  0.16958114E-03
 -0.10085794E-03  0.27913405E-03  0.25835309E-03
 -0.12895977E-03  0.64463942E-04 -0.69473053E-04
 -0.50066012E-04 -0.23506635E-03  0.38014645E-03
 -0.21789408E-04  0.10995887E-03 -0.35091620E-03
 -0.25179737E-03  0.19322517E-05 -0.72724167E-04
 -0.29718485E-03  0.28699238E-03  0.33454694E-03
 -0.42568474E-03 -0.39014151E-03 -0.96824283E-04
 -0.61896560E-04  0.14210093E-03 -0.12692326E-03
 -0.21975813E-03  0.14173701E-03 -0.19991291E-03
  0.12849427E-03  0.22300471E-03 -0.94187240E-04
  0.12294189E-03  0.36510754E-03  0.15342989E-03
  0.49675652E-04 -0.11481706E-03 -0.10124226E-03
  0.11851234E-03 -0.27412829E-03  0.43387380E-04
 -0.37983697E-03  0.66898246E-04 -0.12966192E-03
  0.85367479E-07  0.86123757E-04 -0.21425963E-03
 -0.10381485E-03 -0.44932924E-03 -0.12468458E-04
  0.45694787E-04 -0.32971780E-03 -0.19230634E-04
 -0.88820394E-04 -0.36479848E-03  0.60881179E-04
  0.24464785E-03 -0.25416624E-03 -0.13777570E-04
  0.22182439E-04  0.83133553E-04 -0.31382589E-03
  0.50239995E-03 -0.37455304E-05  0.22101226E-03
  0.68588587E-05 -0.23438682E-03 -0.17459927E-03
 -0.94710226E-04 -0.31507885E-03 -0.40345411E-04
  0.21762761E-03 -0.24690271E-03  0.28224913E-04
  0.98224048E-04  0.49531849E-04 -0.42732088E-03
  0.24248702E-03  0.42505091E-04 -0.36541304E-03
  0.30813110E-03 -0.26021184E-03 -0.43570703E-03
  0.90857878E-04  0.37988197E-03  0.12710037E-03
 -0.28198860E-04  0.23724989E-03 -0.66646822E-04
  0.31898212E-03 -0.20138809E-03  0.32895816E-03
  0.38211226E-03  0.10215919E-03 -0.29339869E-04
  0.53687224E-05  0.16748573E-03  0.31700465E-03
  0.35106177E-03 -0.34237944E-03  0.50642990E-04
 -0.36443801E-04  0.76438683E-03  0.19357203E-03
 -0.54825958E-04  0.44315896E-03 -0.31866989E-04
 -0.21262217E-03 -0.22539210E-03  0.44536362E-03
  0.39754157E-03 -0.25607229E-03 -0.19703354E-03
  0.55167589E-05  0.17595283E-03 -0.14608822E-03
 -0.10659938E-03  0.16735558E-03 -0.10672510E-03
 -0.52156668E-03 -0.29306775E-03  0.19754971E-03
  0.16033778E-03  0.42669927E-03 -0.27322705E-03
  0.37528309E-04  0.37778443E-03  0.21359868E-03
 -0.51769605E-03 -0.15877881E-03 -0.85518720E-04
 -0.94302187E-04 -0.76762559E-05 -0.77528459E-04
  0.38543003E-04 -0.19050554E-03 -0.17654587E-03
  0.31269702E-03  0.28578547E-03 -0.21847757E-03
  0.22619416E-03  0.53631438E-03 -0.12092162E-03
  0.70651115E-04  0.11063763E-04 -0.19470501E-03
 -0.10418661E-03  0.34123166E-03 -0.17562693E-03
  0.51545728E-03  0.15557448E-03 -0.32658597E-03
 -0.50016842E-03  0.42288137E-04 -0.87410679E-04
 -0.28325285E-03  0.14839435E-03  0.20881116E-03
 -0.37351704E-03  0.12684209E-05  0.69670386E-04
  0.40908264E-03 -0.33890495E-03  0.31473308E-05
 -0.21767364E-03 -0.34634235E-03 -0.29800521E-03
 -0.24372702E-03  0.72641415E-04 -0.49064614E-04
 -0.41208371E-03  0.21859938E-03 -0.17347580E-03
  0.14763020E-03 -0.20973815E-03  0.55164307E-04
 -0.15483293E-03 -0.52403573E-03 -0.21463360E-03
  0.61767929E-04  0.11106676E-03 -0.69360278E-04
 -0.39651579E-03 -0.10102053E-03 -0.23169391E-03
 -0.86321003E-05  0.72347474E-04 -0.22862953E-03
  0.78369949E-04  0.56810221E-04  0.31546095E-03
 -0.46094135E-04 -0.22167679E-03  0.21191495E-03
  0.90312959E-04  0.11728174E-04  0.23175382E-03
  0.36674780E-03  0.16704141E-03 -0.53756645E-03
  0.13775953E-03  0.97395443E-04 -0.13028481E-03
  0.61083935E-04 -0.91025299E-04 -0.31203099E-03
  0.19272117E-05 -0.15274577E-03  0.40448125E-03