Amorphous Sb2Se3                        
   1.00000000000000     
    21.6803730487583621    0.0000000000000000    0.0000000000000000
     0.0000000000000000   21.6803730487583621    0.0000000000000000
     0.0000000000000000    0.0000000000000000   21.6803730487583621
   Sb   Se
   120   180
Direct
  0.1102912711097680  0.4269486958195897  0.8979355946886305
  0.2022316268598338  0.7750895735160711  0.1076850733084551
  0.4150994023513426 -0.0007375942612044  0.3251739959405964
  0.3693358507469240  0.2516984690952849  0.2663791267259292
  0.6331745643817152  0.8321089330703425  0.0871925318323549
  0.7133451679310260  0.2094096050207168  0.4517494500060924
  0.1889843350480577  0.2245950179662007  0.2313435164778182
  0.6380122865609703  0.6124006865741651  0.7809984610084690
  0.8610870593462727  0.7959841031263399  0.8455768028942671
  0.9422560527386192  0.0381621111664951  0.4280680396829799
  0.8849583859587129  0.7087074648390075  0.2169322583001975
  0.8446397522332798  0.2198396281447245  0.6953049706612893
  0.3006651455282836  0.6437142552649551  0.3736341821078554
  0.1247119779332248  0.6311218159163633  0.8598666235560717
  0.2220120840876923  0.5365837138424545  0.1769720155537257
  0.8281527568253332  0.9139545905423245  0.3532581970399299
  0.4854692810736274  0.5330840444821149  0.8044189751828368
  0.6533001494229075  0.0006453626488103  0.8868753298204117
  0.8642696620678507  0.4374279885452710  0.2766952045116792
  0.3884018434114750  0.8554892709478811  0.7368651186250313
  0.1619839008188134  0.1637005240230681  0.0148621939538778
  0.3561658177272290  0.6341431789538808  0.0686835574986117
  0.3261160084077299  0.6011963987650328  0.5805540268201311
  0.9791592048713070  0.4854876113440693  0.1573704680519022
  0.2365138996533283  0.3018306594179527  0.9256719067593977
  0.4435161984007052  0.8064537045808509  0.8506451587312661
  0.1649812777592684  0.8617741318285064  0.6006128635786696
  0.5790214700416152  0.3945122151047029  0.4583221891169138
  0.4652615242879927  0.6541291777838303  0.1452784313834655
  0.6421507034316446  0.6839376790389161  0.5136589746224403
  0.7344056470835223  0.4135450534015089  0.4306391072707529
  0.4434695688166773  0.7876320634113773  0.1396851862560770
  0.4047251478331075  0.3835968756996031  0.5791963698153333
  0.0093254652750222  0.7792111223776516  0.9551459481493788
  0.9087264328877152  0.8093091261488717  0.5586569864816570
  0.8670976755315221  0.9779263447957317  0.5910857557271217
  0.9679678467034266  0.5704284179236578  0.3953165029497491
  0.6204759066555101  0.3312070989535991  0.7861803745635395
  0.3223770400864452  0.1829691485980147  0.4248518818696649
  0.3485436062227809  0.8408749648356132  0.2886183016162980
  0.6612622696476115  0.1645067400499578  0.9771837350790290
  0.5071187768870568  0.2400292850623800  0.5149298795920978
  0.0460830147930344  0.3446764757811298  0.0312086652639174
  0.4377607005036518  0.3723079293719534  0.7726821470654784
  0.1956323997063276  0.0726622175359756  0.4799922633894637
  0.5440280317370776  0.2040331008766727  0.2437973135701766
  0.0737827938440641  0.9634686448181130  0.2102901173344202
  0.9316171361908039  0.0978144969346628  0.9307419708989465
  0.7574467606614987  0.7050631764859150  0.6891162012135141
  0.9504036958177696  0.9774055142178149  0.8797044322284827
  0.9705423123489658  0.6284997122883760  0.5766040524543184
  0.6409159960218056  0.9989659593946352  0.3673529030392677
  0.8995956369249183  0.4410748496195301  0.9201223652934503
  0.9925947217332787  0.3437297674711706  0.3867769345739195
  0.6300579889510041  0.0177016453482838  0.6854782902611892
  0.7308346344459167  0.5469375802911225  0.0542824219025014
  0.4534660218708039  0.6763758588742604  0.6917598666557907
  0.7384564718386480  0.5642457558863454  0.9197465113555328
  0.8671005960329570  0.4781889810498353  0.6680584965702158
  0.8697031398141518  0.8650881649277895  0.2278378675439849
  0.7137597235025527  0.7129131465348745  0.1873652742297582
  0.2776650233856773  0.7929714251977799  0.9064705150569589
  0.7613496085626884  0.9892563400298630  0.0454226535260645
  0.3198028090176589  0.9165838272440554  0.0960904118226512
  0.5838248135597476  0.3984536770612229  0.2034961380129635
  0.9425502923913539  0.3159670486788996  0.8123716418635473
  0.0593990032635725  0.2061370881872549  0.5184413825465165
  0.7032485682825895  0.2397299947380213  0.1586569428844956
  0.7700160199011793  0.0474591574027117  0.2306037051168082
  0.2731726744908298  0.6729666302104093  0.7669133451739252
  0.1377553644081860  0.8627520993585392  0.8168050514489791
  0.9792930576797070  0.4083349968582500  0.6405305782381804
  0.1695308014007469  0.2686109210409460  0.3872633573122244
  0.9708572047859770  0.7574859259142441  0.4479862802551606
  0.3682057773330250  0.5571591838540950  0.8652688754907309
  0.0449719243071493  0.1342272967817372  0.1464338202599095
  0.6715998846459459  0.8656861241975802  0.4941707119417675
  0.8512023578966452  0.1562806041008063  0.1027272166360981
  0.8340492247586211  0.0484342482606449  0.6985571266745177
  0.2229638607959983  0.9715325188800268  0.3492361002756164
  0.1931500870604232  0.9427066600475555  0.9715352816479741
  0.4496647066496098  0.2474093931863168  0.9167058747923506
  0.7357423141098350  0.5506061253555514  0.5924589066343622
  0.5459026442554094  0.5262639609931683  0.4593129426829894
  0.0639185569519985  0.0708398953477457  0.5062528522588446
  0.8965523989945829  0.3577184564282171  0.4808737147799682
  0.4641077622608976  0.0192572685142823  0.8633135554257277
  0.1328463083738945  0.2191678765283687  0.8954665554852306
  0.5111472682825511  0.9234568489849111  0.4828874603376829
  0.7304210507198394  0.5660976912688448  0.3434116012045826
  0.3237382871492795  0.2603255055397325  0.6830830021957617
  0.7561894451325709  0.2606486558335231  0.8736096874507667
  0.4418329047244224  0.0270199852361995  0.6821642986188277
  0.1178595042227104  0.6461331842215019  0.4342851609395698
  0.2355792685023977  0.3400992260445961  0.5252415356427824
  0.3250171523632299  0.1389685570573654  0.9331690772740873
  0.4108893271112571  0.2633854599125964  0.0460063398332891
  0.0061004335412737  0.8618205026249042  0.6997457927281643
  0.4097823085230565  0.5105311680071366  0.3406745450134827
  0.6469791539745938  0.2026957999837967  0.6305712153841780
  0.4444026942689956  0.4163885659725683  0.9659695574830038
  0.4814376372919494  0.7401545071247595  0.4927276947038915
  0.0058309124126535  0.2940436919864045  0.2065783675854762
  0.9155443638558185  0.6054699981923816  0.8816357606707986
  0.7753271692672351  0.9458672185764583  0.7681028077693479
  0.2881977411832704  0.8883201623048690  0.4828009967251262
  0.5782545877920385  0.0234924172654203  0.0895202333167720
  0.6500679650838348  0.4055658947121680  0.0020066246332888
  0.1387029305530738  0.5012433558033628  0.7017634421123879
  0.2515884310495052  0.0112991530535769  0.6985118419696551
  0.4155579306121210  0.0662953644464584  0.5192180152989736
  0.5577143195514952  0.8297867081360765  0.7793023199319207
  0.5610017453520127  0.4441602010993644  0.6428421322583276
  0.5477323801979087  0.9365313174635915  0.1860564516649082
  0.4600631842065704  0.4900948583017352  0.1500792900242451
  0.8832015482034483  0.8894161052387092  0.0156644340955021
  0.6413461862021551  0.7430720362780732  0.3342436292798155
  0.0733169888382818  0.6744218453750335  0.1864144208047836
  0.4348370727611816  0.2393028666430526  0.7594905383394188
  0.5418509745387581  0.7268579124100413  0.9760797922812249
  0.1564230673030841  0.3763115235834937  0.4403240263898465
  0.3873182544128933  0.6915610506006341  0.8125724561166715
  0.9591158665187607  0.9173759297846149  0.1641015470947496
  0.8513204629295174  0.4561253477063717  0.4224285707574201
  0.6015627574046402  0.7510528134006663  0.1868866344624503
  0.6742620992453907  0.1106656305734614  0.2735957872188786
  0.9614912875548156  0.2033210572741367  0.0675808301063866
  0.5004059411924144  0.8750271290660092  0.6851693812951097
  0.1372109229965888  0.3238535414718339  0.2783426792617583
  0.1709454725072747  0.3421048593638572  0.7035617821866882
  0.0067638329055566  0.6535424327541913  0.9453621773816049
  0.4657202521593458  0.3486598812507857  0.4639192553985937
  0.8684042878338939  0.6309994731144455  0.3098065316738838
  0.3368640251855289  0.3807964444536901  0.6974591210055296
  0.9626225882238483  0.6459067387296346  0.1475345916763460
  0.7718137308549127  0.3026547632042025  0.3967791709589579
  0.7532531997586690  0.7768671404753833  0.2802556962468119
  0.2065607304996552  0.3795034209206299  0.8378804229844746
  0.1095274505803732  0.7953935401235531  0.2693943436451357
  0.7573500087557717  0.9115129769986468  0.1497868348179114
  0.7042696840502204  0.4493397063532152  0.3175517413232944
  0.7154556394946613  0.0752232188187632  0.1206815293893870
  0.6346249073136800  0.7085032141257552  0.7079060581093741
  0.8186015584436359  0.0353487844986790  0.3683629705738237
  0.2855198802088859  0.2770974570427649  0.1815050603786300
  0.6076212478252558  0.4746245564005958  0.9069240322210849
  0.9209612585137249  0.3012498996321543  0.1161926839740662
  0.5232991904366955  0.3440184800667227  0.9038739115930837
  0.1695305317571786  0.5374669516189068  0.9147084175259864
  0.1568803046768938  0.3928223247641086  0.0063227510344018
  0.7077326353999770  0.2150707850062510  0.2798304003875694
  0.5052425764519279  0.8236485424084601  0.0415457669866419
  0.7513522337195606  0.2452756539848340  0.9950691705249658
  0.9165040603611732  0.7200079293635565  0.6400579402000116
  0.5259787362623556  0.9108712988955824  0.8699487338522840
  0.3378036540644020  0.0881342356094738  0.6532911147547629
  0.3148652934972571  0.4363770130008462  0.5203461893513852
  0.1409188000516871  0.3749050727047266  0.6009169719876440
  0.7038551156342473  0.0947681500795409  0.6244228256327781
  0.0339893769172508  0.6571792798570188  0.3441081756639045
  0.3214771364741795  0.0131574948426687  0.4121620959207218
  0.7418721919190115  0.0150312497503939  0.4462578215290336
  0.0770076277595383  0.2021188926308095  0.7449438084414972
  0.7092294259712640  0.3733309170857521  0.8622089526952595
  0.4971967685057417  0.1103148456162226  0.5963538517245027
  0.8871619435599418  0.1456151005202476  0.2173819372416147
  0.1840761507338471  0.5122901313301829  0.5889712801524166
  0.8795134550639564  0.0432426057168737  0.0695801062594389
  0.3423216259144287  0.7045173164508025  0.6429973335417251
  0.0622400169109886  0.5463785734659378  0.4726066447759164
  0.7707224309487453  0.4340556916009845  0.6078151031747849
  0.7030861460136395  0.2613635761405385  0.7207430471592973
  0.1774427850192839  0.9428926593083811  0.4646483957172142
  0.1014641740723403  0.8981835728036424  0.3096510144384911
  0.0676066966066408  0.0873964495653692  0.0364964375877503
  0.9779369560554674  0.4816950609686489  0.2831264783099827
  0.9331385128281915  0.0370772267323257  0.1891935368281950
  0.4494104670145856  0.5561553247498416  0.6881874272614587
  0.0156449686037942  0.8662262558296587  0.5794196721810208
  0.8222179130941859  0.9162268701076923  0.9156632530709680
  0.1095891949536444  0.9283944253396824  0.7167310295497540
  0.2329155684444252  0.7896256318258257  0.5281499912080053
  0.9177405193677811  0.3135013973826914  0.2952353070844085
  0.6455528543508227  0.2032121826352517  0.8659635174845793
  0.1568785807090810  0.7553566542035185  0.6562692897461033
  0.9391461440428243  0.2273369834886796  0.6162038238168026
  0.5415451095801307  0.0184409603186469  0.2734191222606073
  0.1384997041960572  0.6164724196691393  0.7337963045272912
  0.9953953442354294  0.9265644368927300  0.9825175732690654
  0.3100537339479694  0.0396260466159845  0.1109271113579198
  0.3052392563563764  0.2001455919074630  0.0352463081825480
  0.6107801725305572  0.5466035274419314  0.6067680131434918
  0.9061540795087617  0.6567005191860021  0.4728440711460093
  0.0681923507128766  0.7277149580796882  0.5115549367400216
  0.9456322408016985 -0.0006472296362384  0.6802515223559316
  0.8980561627316519  0.7696199955805516  0.9971650221309202
  0.0750380051370014  0.0598983111505681  0.6276716592699226
  0.5463689348455772  0.6793996813932622  0.4137631602773835
  0.9814588027416150  0.8193304637579447  0.8420337064729398
  0.4442295917870826  0.8836296202138408  0.3501276978560684
  0.7085045601397487  0.9485038689534625  0.2784985607971580
  0.7543202502991800  0.7130306953554363  0.5701200866649891
  0.1113307665459227  0.5670007642897135  0.1375104155083254
  0.0138659574362986  0.2717842081823044  0.6845637709541621
  0.5899348830286748  0.2102568500912273  0.1330340142728837
  0.8798709013475211  0.3214965978394985  0.9211995562983649
  0.1760974797958483  0.9707754903101522  0.8546474867809725
  0.6508685818509071  0.6291329909866717  0.2742657723694324
  0.8460506653442162  0.1257534772388082  0.8421729947888922
  0.3772330059072542  0.5040865124544611  0.0654540420873681
  0.2070595640955721  0.7616465883983450  0.2326180120883262
  0.8754608381842843  0.4216024541211218  0.1525141511044528
  0.6961694558389270  0.9163719500827163  0.6803516092388096
  0.6391798605558466  0.4377980035600961  0.7331107849049625
  0.2748282282832238  0.9146052220770763  0.6293631342581708
  0.9461531926249332  0.7844922190769738  0.2855460227974443
  0.4981223844412098  0.0889928100039439  0.7727203660387560
  0.8465059779142645  0.3333860967786699  0.7379997317608552
  0.6189392591085100  0.3658937619398294  0.5678711044419664
  0.3602989700747954  0.4309957029749517  0.8777163876341870
  0.6160787877047336  0.9681823515767749  0.5328369709812844
  0.3998810832333303  0.6267321937761708  0.3064422709825711
  0.3422939242879143  0.7683215183577004  0.0806587569512236
  0.5043501442732347  0.3813385508500808  0.1111389336843886
  0.0748196435395362  0.7612908280739319  0.7294734930130831
  0.9227419869292406  0.1767999972379268  0.7797883775366571
  0.0290956224820836  0.2267605345281102  0.4009928768826326
  0.2025254287554059  0.0516480846958053  0.1015293048816944
  0.6639658989264632  0.5553090476879806  0.4521619016120085
  0.7600714638913896  0.8136088739357793  0.0985178774668190
  0.8206434923627679  0.5588384329330692  0.2420943980812091
  0.6940231251230632  0.6676450992881779  0.8731669529032945
  0.9594398791320496  0.4413845602199737  0.8157813567442151
  0.1176883837969473  0.2364080749498509  0.1310584230804192
  0.0087812647360658  0.0400331279018136  0.2788488072201688
  0.0207857615414882  0.5174555723858090  0.6727856599794028
  0.1730629168518988  0.2314427281002817  0.6988572588234370
  0.0287438530449034  0.0721794775998815  0.8656506842828262
  0.5305183428324152  0.4990624425256713  0.3395163924886894
  0.9938590228416809  0.4513092775246281  0.0016869323854214
  0.1798476466963908  0.2058656528041194  0.5111720005024726
  0.3694153417982704  0.9668707428885052  0.7777976822693452
  0.9306002874115497  0.9200295127488842  0.4308457481860838
  0.4986063306695038  0.6538542741856226  0.5720539178876470
  0.2402877375279343  0.6720673525866548  0.8932321246612612
  0.3748054203096073  0.6308273529166989  0.4699634323040308
  0.7637943754506344  0.5833622529955923  0.7070568573407302
  0.2627256403192489  0.8331303702046075  0.3743577115380100
  0.8803897230789731  0.6798876077575542  0.7964795646243477
  0.1786388274583027  0.5594784167081791  0.2884799808030379
  0.3838067429369550  0.4530897119820762  0.2376059951921245
  0.8350640399971988  0.6197824207233359  0.9705753205665008
  0.7347959987091969  0.2504869476525896  0.5631133451955244
  0.4954954877871188  0.0323264631739673  0.4288389178011839
  0.5157625805732010  0.5161384939770904  0.9526162240983783
  0.2143123313699536  0.0899475443831878  0.9308044546253652
  0.2950713256025203  0.2965253155502611  0.3966438383974075
  0.5868644741896094  0.7948669306045573  0.5496345720492400
  0.1575615744890217  0.0789523506540143  0.3638133664979151
  0.2958026089755477  0.5525808109262728  0.7701707773843780
  0.3727201668122009  0.2656962112729622  0.5703176071486368
  0.6137060542102419  0.8770643439793787  0.3879366522894634
  0.1823134451793236  0.0886227408085281  0.6289484085829625
  0.2540105169507870  0.8223027822730021  0.7909167494988963
  0.1710060596811228  0.8192671358224195  0.9578164429847297
  0.9965495892959786  0.4125288895966914  0.5210158992076184
  0.6858658897403782  0.0631984517295714  0.7834759180839060
  0.7389715840902467  0.0734032137157841  0.9399407696280428
  0.4463545665605305  0.1811407073110445  0.4251887074362208
  0.4658584520504071  0.9762963022826462  0.1062633355922238
  0.3125536158811527  0.9259121515435497  0.9696262591474843
  0.4928450058480818  0.1839374187459495  0.0106818690800111
  0.4203439629890094  0.9491000536821859  0.5607179461618147
  0.2786207285665821  0.6416269304624699  0.1629532955528266
  0.2003487065455971  0.8973458748306214  0.1163260855480852
  0.6370367238163696  0.9450893741123104  0.0166529440800775
  0.2068552621093622  0.6194757214446738  0.5689638997767947
  0.5422869981252983  0.3189331620481322  0.2826327486837879
  0.0455528014918487  0.3010540224909994  0.9115545827108719
  0.3018907201001075  0.2230019741657667  0.8488007447252701
  0.5449384897829666  0.6387049534080803  0.0582245960360785
  0.1563590242122589  0.0694550629912142  0.2017260699353400
  0.7161993990076870  0.7311773064921729  0.4289046674719517
  0.6244729660677656  0.4958107808723412  0.0814151091770085
  0.3227675304295519  0.1477179573684304  0.3096707549592753
  0.0823239258677039  0.7540476778082315  0.0961601174861488
  0.7676158968574049  0.4399229738014523  0.0112806058945120
  0.8875149004972589  0.0786482749668981  0.5280998020836952
  0.4370448926491621  0.1905983198370704  0.1863293950605864
  0.6895098695721340  0.3587409681874249  0.1581327355710616
  0.2525915738100996  0.5319998082946794  0.3649782792002728
  0.5076194407146295  0.3045562985293061  0.6868160003559851
  0.5962672873861384  0.2231682273047416  0.4285336005906020
  0.8413997498847171  0.8453387351678994  0.7344905734056442
  0.0614009780675045  0.3951153830930825  0.1631990019326895
  0.5275042359445500  0.6438834549638734  0.8249555646709887
  0.5614982476331222  0.0676670196845328  0.9286846874680641
  0.3241897343243432  0.9468487329965608  0.2411261386910270
  0.8788537120404722  0.5477996404701669  0.5690849451161777
  0.6567485705102998  0.7600101455357759  0.9922351911954458
 
  0.00000000E+00  0.00000000E+00  0.00000000E+00
  0.00000000E+00  0.00000000E+00  0.00000000E+00
  0.00000000E+00  0.00000000E+00  0.00000000E+00
  0.00000000E+00  0.00000000E+00  0.00000000E+00
  0.00000000E+00  0.00000000E+00  0.00000000E+00
  0.00000000E+00  0.00000000E+00  0.00000000E+00
  0.00000000E+00  0.00000000E+00  0.00000000E+00
  0.00000000E+00  0.00000000E+00  0.00000000E+00
  0.00000000E+00  0.00000000E+00  0.00000000E+00
  0.00000000E+00  0.00000000E+00  0.00000000E+00
  0.00000000E+00  0.00000000E+00  0.00000000E+00
  0.00000000E+00  0.00000000E+00  0.00000000E+00
  0.00000000E+00  0.00000000E+00  0.00000000E+00
  0.00000000E+00  0.00000000E+00  0.00000000E+00
  0.00000000E+00  0.00000000E+00  0.00000000E+00
  0.00000000E+00  0.00000000E+00  0.00000000E+00
  0.00000000E+00  0.00000000E+00  0.00000000E+00
  0.00000000E+00  0.00000000E+00  0.00000000E+00
  0.00000000E+00  0.00000000E+00  0.00000000E+00
  0.00000000E+00  0.00000000E+00  0.00000000E+00
  0.00000000E+00  0.00000000E+00  0.00000000E+00
  0.00000000E+00  0.00000000E+00  0.00000000E+00
  0.00000000E+00  0.00000000E+00  0.00000000E+00
  0.00000000E+00  0.00000000E+00  0.00000000E+00
  0.00000000E+00  0.00000000E+00  0.00000000E+00
  0.00000000E+00  0.00000000E+00  0.00000000E+00
  0.00000000E+00  0.00000000E+00  0.00000000E+00
  0.00000000E+00  0.00000000E+00  0.00000000E+00
  0.00000000E+00  0.00000000E+00  0.00000000E+00
  0.00000000E+00  0.00000000E+00  0.00000000E+00
  0.00000000E+00  0.00000000E+00  0.00000000E+00
  0.00000000E+00  0.00000000E+00  0.00000000E+00
  0.00000000E+00  0.00000000E+00  0.00000000E+00
  0.00000000E+00  0.00000000E+00  0.00000000E+00
  0.00000000E+00  0.00000000E+00  0.00000000E+00
  0.00000000E+00  0.00000000E+00  0.00000000E+00
  0.00000000E+00  0.00000000E+00  0.00000000E+00
  0.00000000E+00  0.00000000E+00  0.00000000E+00
  0.00000000E+00  0.00000000E+00  0.00000000E+00
  0.00000000E+00  0.00000000E+00  0.00000000E+00
  0.00000000E+00  0.00000000E+00  0.00000000E+00
  0.00000000E+00  0.00000000E+00  0.00000000E+00
  0.00000000E+00  0.00000000E+00  0.00000000E+00
  0.00000000E+00  0.00000000E+00  0.00000000E+00
  0.00000000E+00  0.00000000E+00  0.00000000E+00
  0.00000000E+00  0.00000000E+00  0.00000000E+00
  0.00000000E+00  0.00000000E+00  0.00000000E+00
  0.00000000E+00  0.00000000E+00  0.00000000E+00
  0.00000000E+00  0.00000000E+00  0.00000000E+00
  0.00000000E+00  0.00000000E+00  0.00000000E+00
  0.00000000E+00  0.00000000E+00  0.00000000E+00
  0.00000000E+00  0.00000000E+00  0.00000000E+00
  0.00000000E+00  0.00000000E+00  0.00000000E+00
  0.00000000E+00  0.00000000E+00  0.00000000E+00
  0.00000000E+00  0.00000000E+00  0.00000000E+00
  0.00000000E+00  0.00000000E+00  0.00000000E+00
  0.00000000E+00  0.00000000E+00  0.00000000E+00
  0.00000000E+00  0.00000000E+00  0.00000000E+00
  0.00000000E+00  0.00000000E+00  0.00000000E+00
  0.00000000E+00  0.00000000E+00  0.00000000E+00
  0.00000000E+00  0.00000000E+00  0.00000000E+00
  0.00000000E+00  0.00000000E+00  0.00000000E+00
  0.00000000E+00  0.00000000E+00  0.00000000E+00
  0.00000000E+00  0.00000000E+00  0.00000000E+00
  0.00000000E+00  0.00000000E+00  0.00000000E+00
  0.00000000E+00  0.00000000E+00  0.00000000E+00
  0.00000000E+00  0.00000000E+00  0.00000000E+00
  0.00000000E+00  0.00000000E+00  0.00000000E+00
  0.00000000E+00  0.00000000E+00  0.00000000E+00
  0.00000000E+00  0.00000000E+00  0.00000000E+00
  0.00000000E+00  0.00000000E+00  0.00000000E+00
  0.00000000E+00  0.00000000E+00  0.00000000E+00
  0.00000000E+00  0.00000000E+00  0.00000000E+00
  0.00000000E+00  0.00000000E+00  0.00000000E+00
  0.00000000E+00  0.00000000E+00  0.00000000E+00
  0.00000000E+00  0.00000000E+00  0.00000000E+00
  0.00000000E+00  0.00000000E+00  0.00000000E+00
  0.00000000E+00  0.00000000E+00  0.00000000E+00
  0.00000000E+00  0.00000000E+00  0.00000000E+00
  0.00000000E+00  0.00000000E+00  0.00000000E+00
  0.00000000E+00  0.00000000E+00  0.00000000E+00
  0.00000000E+00  0.00000000E+00  0.00000000E+00
  0.00000000E+00  0.00000000E+00  0.00000000E+00
  0.00000000E+00  0.00000000E+00  0.00000000E+00
  0.00000000E+00  0.00000000E+00  0.00000000E+00
  0.00000000E+00  0.00000000E+00  0.00000000E+00
  0.00000000E+00  0.00000000E+00  0.00000000E+00
  0.00000000E+00  0.00000000E+00  0.00000000E+00
  0.00000000E+00  0.00000000E+00  0.00000000E+00
  0.00000000E+00  0.00000000E+00  0.00000000E+00
  0.00000000E+00  0.00000000E+00  0.00000000E+00
  0.00000000E+00  0.00000000E+00  0.00000000E+00
  0.00000000E+00  0.00000000E+00  0.00000000E+00
  0.00000000E+00  0.00000000E+00  0.00000000E+00
  0.00000000E+00  0.00000000E+00  0.00000000E+00
  0.00000000E+00  0.00000000E+00  0.00000000E+00
  0.00000000E+00  0.00000000E+00  0.00000000E+00
  0.00000000E+00  0.00000000E+00  0.00000000E+00
  0.00000000E+00  0.00000000E+00  0.00000000E+00
  0.00000000E+00  0.00000000E+00  0.00000000E+00
  0.00000000E+00  0.00000000E+00  0.00000000E+00
  0.00000000E+00  0.00000000E+00  0.00000000E+00
  0.00000000E+00  0.00000000E+00  0.00000000E+00
  0.00000000E+00  0.00000000E+00  0.00000000E+00
  0.00000000E+00  0.00000000E+00  0.00000000E+00
  0.00000000E+00  0.00000000E+00  0.00000000E+00
  0.00000000E+00  0.00000000E+00  0.00000000E+00
  0.00000000E+00  0.00000000E+00  0.00000000E+00
  0.00000000E+00  0.00000000E+00  0.00000000E+00
  0.00000000E+00  0.00000000E+00  0.00000000E+00
  0.00000000E+00  0.00000000E+00  0.00000000E+00
  0.00000000E+00  0.00000000E+00  0.00000000E+00
  0.00000000E+00  0.00000000E+00  0.00000000E+00
  0.00000000E+00  0.00000000E+00  0.00000000E+00
  0.00000000E+00  0.00000000E+00  0.00000000E+00
  0.00000000E+00  0.00000000E+00  0.00000000E+00
  0.00000000E+00  0.00000000E+00  0.00000000E+00
  0.00000000E+00  0.00000000E+00  0.00000000E+00
  0.00000000E+00  0.00000000E+00  0.00000000E+00
  0.00000000E+00  0.00000000E+00  0.00000000E+00
  0.00000000E+00  0.00000000E+00  0.00000000E+00
  0.00000000E+00  0.00000000E+00  0.00000000E+00
  0.00000000E+00  0.00000000E+00  0.00000000E+00
  0.00000000E+00  0.00000000E+00  0.00000000E+00
  0.00000000E+00  0.00000000E+00  0.00000000E+00
  0.00000000E+00  0.00000000E+00  0.00000000E+00
  0.00000000E+00  0.00000000E+00  0.00000000E+00
  0.00000000E+00  0.00000000E+00  0.00000000E+00
  0.00000000E+00  0.00000000E+00  0.00000000E+00
  0.00000000E+00  0.00000000E+00  0.00000000E+00
  0.00000000E+00  0.00000000E+00  0.00000000E+00
  0.00000000E+00  0.00000000E+00  0.00000000E+00
  0.00000000E+00  0.00000000E+00  0.00000000E+00
  0.00000000E+00  0.00000000E+00  0.00000000E+00
  0.00000000E+00  0.00000000E+00  0.00000000E+00
  0.00000000E+00  0.00000000E+00  0.00000000E+00
  0.00000000E+00  0.00000000E+00  0.00000000E+00
  0.00000000E+00  0.00000000E+00  0.00000000E+00
  0.00000000E+00  0.00000000E+00  0.00000000E+00
  0.00000000E+00  0.00000000E+00  0.00000000E+00
  0.00000000E+00  0.00000000E+00  0.00000000E+00
  0.00000000E+00  0.00000000E+00  0.00000000E+00
  0.00000000E+00  0.00000000E+00  0.00000000E+00
  0.00000000E+00  0.00000000E+00  0.00000000E+00
  0.00000000E+00  0.00000000E+00  0.00000000E+00
  0.00000000E+00  0.00000000E+00  0.00000000E+00
  0.00000000E+00  0.00000000E+00  0.00000000E+00
  0.00000000E+00  0.00000000E+00  0.00000000E+00
  0.00000000E+00  0.00000000E+00  0.00000000E+00
  0.00000000E+00  0.00000000E+00  0.00000000E+00
  0.00000000E+00  0.00000000E+00  0.00000000E+00
  0.00000000E+00  0.00000000E+00  0.00000000E+00
  0.00000000E+00  0.00000000E+00  0.00000000E+00
  0.00000000E+00  0.00000000E+00  0.00000000E+00
  0.00000000E+00  0.00000000E+00  0.00000000E+00
  0.00000000E+00  0.00000000E+00  0.00000000E+00
  0.00000000E+00  0.00000000E+00  0.00000000E+00
  0.00000000E+00  0.00000000E+00  0.00000000E+00
  0.00000000E+00  0.00000000E+00  0.00000000E+00
  0.00000000E+00  0.00000000E+00  0.00000000E+00
  0.00000000E+00  0.00000000E+00  0.00000000E+00
  0.00000000E+00  0.00000000E+00  0.00000000E+00
  0.00000000E+00  0.00000000E+00  0.00000000E+00
  0.00000000E+00  0.00000000E+00  0.00000000E+00
  0.00000000E+00  0.00000000E+00  0.00000000E+00
  0.00000000E+00  0.00000000E+00  0.00000000E+00
  0.00000000E+00  0.00000000E+00  0.00000000E+00
  0.00000000E+00  0.00000000E+00  0.00000000E+00
  0.00000000E+00  0.00000000E+00  0.00000000E+00
  0.00000000E+00  0.00000000E+00  0.00000000E+00
  0.00000000E+00  0.00000000E+00  0.00000000E+00
  0.00000000E+00  0.00000000E+00  0.00000000E+00
  0.00000000E+00  0.00000000E+00  0.00000000E+00
  0.00000000E+00  0.00000000E+00  0.00000000E+00
  0.00000000E+00  0.00000000E+00  0.00000000E+00
  0.00000000E+00  0.00000000E+00  0.00000000E+00
  0.00000000E+00  0.00000000E+00  0.00000000E+00
  0.00000000E+00  0.00000000E+00  0.00000000E+00
  0.00000000E+00  0.00000000E+00  0.00000000E+00
  0.00000000E+00  0.00000000E+00  0.00000000E+00
  0.00000000E+00  0.00000000E+00  0.00000000E+00
  0.00000000E+00  0.00000000E+00  0.00000000E+00
  0.00000000E+00  0.00000000E+00  0.00000000E+00
  0.00000000E+00  0.00000000E+00  0.00000000E+00
  0.00000000E+00  0.00000000E+00  0.00000000E+00
  0.00000000E+00  0.00000000E+00  0.00000000E+00
  0.00000000E+00  0.00000000E+00  0.00000000E+00
  0.00000000E+00  0.00000000E+00  0.00000000E+00
  0.00000000E+00  0.00000000E+00  0.00000000E+00
  0.00000000E+00  0.00000000E+00  0.00000000E+00
  0.00000000E+00  0.00000000E+00  0.00000000E+00
  0.00000000E+00  0.00000000E+00  0.00000000E+00
  0.00000000E+00  0.00000000E+00  0.00000000E+00
  0.00000000E+00  0.00000000E+00  0.00000000E+00
  0.00000000E+00  0.00000000E+00  0.00000000E+00
  0.00000000E+00  0.00000000E+00  0.00000000E+00
  0.00000000E+00  0.00000000E+00  0.00000000E+00
  0.00000000E+00  0.00000000E+00  0.00000000E+00
  0.00000000E+00  0.00000000E+00  0.00000000E+00
  0.00000000E+00  0.00000000E+00  0.00000000E+00
  0.00000000E+00  0.00000000E+00  0.00000000E+00
  0.00000000E+00  0.00000000E+00  0.00000000E+00
  0.00000000E+00  0.00000000E+00  0.00000000E+00
  0.00000000E+00  0.00000000E+00  0.00000000E+00
  0.00000000E+00  0.00000000E+00  0.00000000E+00
  0.00000000E+00  0.00000000E+00  0.00000000E+00
  0.00000000E+00  0.00000000E+00  0.00000000E+00
  0.00000000E+00  0.00000000E+00  0.00000000E+00
  0.00000000E+00  0.00000000E+00  0.00000000E+00
  0.00000000E+00  0.00000000E+00  0.00000000E+00
  0.00000000E+00  0.00000000E+00  0.00000000E+00
  0.00000000E+00  0.00000000E+00  0.00000000E+00
  0.00000000E+00  0.00000000E+00  0.00000000E+00
  0.00000000E+00  0.00000000E+00  0.00000000E+00
  0.00000000E+00  0.00000000E+00  0.00000000E+00
  0.00000000E+00  0.00000000E+00  0.00000000E+00
  0.00000000E+00  0.00000000E+00  0.00000000E+00
  0.00000000E+00  0.00000000E+00  0.00000000E+00
  0.00000000E+00  0.00000000E+00  0.00000000E+00
  0.00000000E+00  0.00000000E+00  0.00000000E+00
  0.00000000E+00  0.00000000E+00  0.00000000E+00
  0.00000000E+00  0.00000000E+00  0.00000000E+00
  0.00000000E+00  0.00000000E+00  0.00000000E+00
  0.00000000E+00  0.00000000E+00  0.00000000E+00
  0.00000000E+00  0.00000000E+00  0.00000000E+00
  0.00000000E+00  0.00000000E+00  0.00000000E+00
  0.00000000E+00  0.00000000E+00  0.00000000E+00
  0.00000000E+00  0.00000000E+00  0.00000000E+00
  0.00000000E+00  0.00000000E+00  0.00000000E+00
  0.00000000E+00  0.00000000E+00  0.00000000E+00
  0.00000000E+00  0.00000000E+00  0.00000000E+00
  0.00000000E+00  0.00000000E+00  0.00000000E+00