Sb48 Te9                                
   1.00000000000000     
     2.9533940852904275   -5.1154286104964299    0.0000000000000000
     2.9533940852904275    5.1154286104964299    0.0000000000000000
     0.0000000000000000    0.0000000000000000   76.1799899066319881
   Sb   Te
    48     9
Direct
  0.0000000000000000  0.0000000000000000  0.2032429264999658
  0.0000000000000000  0.0000000000000000  0.3135902313652465
  0.0000000000000000  0.0000000000000000  0.0598192800924155
  0.3333333333333357  0.6666666666666643  0.2381634021018501
  0.6666666666666643  0.3333333333333357  0.2343895869464525
  0.0000000000000000  0.0000000000000000  0.2691076083366649
  0.6666666666666643  0.3333333333333357  0.2735140532409130
  0.3333333333333357  0.6666666666666643  0.1337656412507600
  0.0000000000000000  0.0000000000000000  0.0989437463868833
  0.6666666666666643  0.3333333333333357  0.1684912441929063
  0.3333333333333357  0.6666666666666643  0.1995676920825757
  0.6666666666666643  0.3333333333333357  0.0642257249966708
  0.6666666666666643  0.3333333333333357  0.1300904068333699
  0.0000000000000000  0.0000000000000000  0.1648420891404294
  0.3333333333333357  0.6666666666666643  0.0951699312314856
  0.6666666666666643  0.3333333333333357  0.0197431019680893
  0.6666666666666643  0.3333333333333357  0.5365762598332943
  0.6666666666666643  0.3333333333333357  0.6469235646985820
  0.6666666666666643  0.3333333333333357  0.3931526134257513
  0.0000000000000000  0.0000000000000000  0.5714967354351859
  0.3333333333333357  0.6666666666666643  0.5677229202797810
  0.6666666666666643  0.3333333333333357  0.6024409416699935
  0.3333333333333357  0.6666666666666643  0.6068473865742487
  0.0000000000000000  0.0000000000000000  0.4670989745840887
  0.6666666666666643  0.3333333333333357  0.4322770797202189
  0.3333333333333357  0.6666666666666643  0.5018245775262420
  0.0000000000000000  0.0000000000000000  0.5329010254159114
  0.3333333333333357  0.6666666666666643  0.3975590583300065
  0.3333333333333357  0.6666666666666643  0.4634237401667057
  0.6666666666666643  0.3333333333333357  0.4981754224737580
  0.0000000000000000  0.0000000000000000  0.4285032645648143
  0.3333333333333357  0.6666666666666643  0.3530764353014178
  0.3333333333333357  0.6666666666666643  0.8699095931666300
  0.3333333333333357  0.6666666666666643  0.9802568980319106
  0.3333333333333357  0.6666666666666643  0.7264859467590870
  0.6666666666666643  0.3333333333333357  0.9048300687685145
  0.0000000000000000  0.0000000000000000  0.9010562536131167
  0.3333333333333357  0.6666666666666643  0.9357742750033292
  0.0000000000000000  0.0000000000000000  0.9401807199075845
  0.6666666666666643  0.3333333333333357  0.8004323079174243
  0.3333333333333357  0.6666666666666643  0.7656104130535476
  0.0000000000000000  0.0000000000000000  0.8351579108595706
  0.6666666666666643  0.3333333333333357  0.8662343587492400
  0.0000000000000000  0.0000000000000000  0.7308923916633351
  0.0000000000000000  0.0000000000000000  0.7967570735000343
  0.3333333333333357  0.6666666666666643  0.8315087558070937
  0.6666666666666643  0.3333333333333357  0.7618365978981498
  0.0000000000000000  0.0000000000000000  0.6864097686347537
  0.3333333333333357  0.6666666666666643  0.3029567817342679
  0.0000000000000000  0.0000000000000000  0.0000000000000000
  0.3333333333333357  0.6666666666666643  0.0303765515990678
  0.0000000000000000  0.0000000000000000  0.6362901150675964
  0.6666666666666643  0.3333333333333357  0.3333333333333357
  0.0000000000000000  0.0000000000000000  0.3637098849324035
  0.6666666666666643  0.3333333333333357  0.9696234484009321
  0.3333333333333357  0.6666666666666643  0.6666666666666643
  0.6666666666666643  0.3333333333333357  0.6970432182657322
 
  0.00000000E+00  0.00000000E+00  0.00000000E+00
  0.00000000E+00  0.00000000E+00  0.00000000E+00
  0.00000000E+00  0.00000000E+00  0.00000000E+00
  0.00000000E+00  0.00000000E+00  0.00000000E+00
  0.00000000E+00  0.00000000E+00  0.00000000E+00
  0.00000000E+00  0.00000000E+00  0.00000000E+00
  0.00000000E+00  0.00000000E+00  0.00000000E+00
  0.00000000E+00  0.00000000E+00  0.00000000E+00
  0.00000000E+00  0.00000000E+00  0.00000000E+00
  0.00000000E+00  0.00000000E+00  0.00000000E+00
  0.00000000E+00  0.00000000E+00  0.00000000E+00
  0.00000000E+00  0.00000000E+00  0.00000000E+00
  0.00000000E+00  0.00000000E+00  0.00000000E+00
  0.00000000E+00  0.00000000E+00  0.00000000E+00
  0.00000000E+00  0.00000000E+00  0.00000000E+00
  0.00000000E+00  0.00000000E+00  0.00000000E+00
  0.00000000E+00  0.00000000E+00  0.00000000E+00
  0.00000000E+00  0.00000000E+00  0.00000000E+00
  0.00000000E+00  0.00000000E+00  0.00000000E+00
  0.00000000E+00  0.00000000E+00  0.00000000E+00
  0.00000000E+00  0.00000000E+00  0.00000000E+00
  0.00000000E+00  0.00000000E+00  0.00000000E+00
  0.00000000E+00  0.00000000E+00  0.00000000E+00
  0.00000000E+00  0.00000000E+00  0.00000000E+00
  0.00000000E+00  0.00000000E+00  0.00000000E+00
  0.00000000E+00  0.00000000E+00  0.00000000E+00
  0.00000000E+00  0.00000000E+00  0.00000000E+00
  0.00000000E+00  0.00000000E+00  0.00000000E+00
  0.00000000E+00  0.00000000E+00  0.00000000E+00
  0.00000000E+00  0.00000000E+00  0.00000000E+00
  0.00000000E+00  0.00000000E+00  0.00000000E+00
  0.00000000E+00  0.00000000E+00  0.00000000E+00
  0.00000000E+00  0.00000000E+00  0.00000000E+00
  0.00000000E+00  0.00000000E+00  0.00000000E+00
  0.00000000E+00  0.00000000E+00  0.00000000E+00
  0.00000000E+00  0.00000000E+00  0.00000000E+00
  0.00000000E+00  0.00000000E+00  0.00000000E+00
  0.00000000E+00  0.00000000E+00  0.00000000E+00
  0.00000000E+00  0.00000000E+00  0.00000000E+00
  0.00000000E+00  0.00000000E+00  0.00000000E+00
  0.00000000E+00  0.00000000E+00  0.00000000E+00
  0.00000000E+00  0.00000000E+00  0.00000000E+00
  0.00000000E+00  0.00000000E+00  0.00000000E+00
  0.00000000E+00  0.00000000E+00  0.00000000E+00
  0.00000000E+00  0.00000000E+00  0.00000000E+00
  0.00000000E+00  0.00000000E+00  0.00000000E+00
  0.00000000E+00  0.00000000E+00  0.00000000E+00
  0.00000000E+00  0.00000000E+00  0.00000000E+00
  0.00000000E+00  0.00000000E+00  0.00000000E+00
  0.00000000E+00  0.00000000E+00  0.00000000E+00
  0.00000000E+00  0.00000000E+00  0.00000000E+00
  0.00000000E+00  0.00000000E+00  0.00000000E+00
  0.00000000E+00  0.00000000E+00  0.00000000E+00
  0.00000000E+00  0.00000000E+00  0.00000000E+00
  0.00000000E+00  0.00000000E+00  0.00000000E+00
  0.00000000E+00  0.00000000E+00  0.00000000E+00
  0.00000000E+00  0.00000000E+00  0.00000000E+00
