Cr Ge Sb Te                             
   1.00000000000000     
    17.5504379355235423    0.0000000000000000    0.0000000000000000
     0.0000000000000000   17.5504379355235423    0.0000000000000000
     0.0000000000000000    0.0000000000000000   17.5504379355235423
   Cr   Ge   Sb   Te
     8    32    32    80
Direct
  0.5231025406914828  0.8301034322248053  0.4974889209672969
  0.4652443196011561  0.7295050634538999  0.4839282854502343
  0.8074277681224503  0.1488778113534439  0.7911139876546336
  0.7840269946629973  0.1074507609868266  0.8780294639217550
  0.6431511236378398  0.3853484787962744  0.4564154762470782
  0.7142866775471568  0.4827242519520927  0.9482986286635040
  0.7199177751972916  0.3188887409532973  0.9471038927996392
  0.7451668013530277  0.3599768229155722  0.8553042920660620
  0.9480501816430758  0.7253786452244223  0.2662959641448017
  0.8542653646574094  0.2774089501210762  0.8390910465612943
  0.1321441898241691  0.9413152380864349  0.4440954196029293
  0.0989603856003851  0.4732204905536169  0.3876585655459648
  0.2320592963293251  0.0422215392640588  0.2760933501036547
  0.1607475009022817  0.5017558488590584  0.8363725828170794
  0.4121337789135885  0.3488739400312095  0.3941394657302654
  0.0567936110849884  0.7934147501623261  0.8389596115901083
  0.4226034630394843  0.6585770507556508  0.2713875114847139
  0.8676341931808326  0.9047668058192061  0.6208456169695721
  0.9642859322888101  0.6150505007362009  0.9601532696588037
  0.7173631941563539  0.2235360225611842  0.2519770517155847
  0.1963421408435300  0.4870883194190024  0.1688155900568983
  0.0897339172076293  0.1816987440469913  0.0310577445477750
  0.4092359395558698  0.4561714516106546  0.7725334570713310
  0.0997627303665905  0.6516545350400113  0.8326185047153373
  0.6744520044091037  0.5896718444202012  0.8643600955173133
  0.2229532858186831  0.4204671271232079  0.5659963006028796
  0.3826019575561641  0.7443539075732399  0.1416591651757088
  0.5569338019936483  0.9278711735730394  0.5991841713797784
  0.9840902947692667  0.4516176763246940  0.9067455001079879
  0.5553890225523956  0.6852692417826931  0.9861618881292685
  0.9391352952771687  0.1343859898174306  0.8910106595219361
  0.2162123258895657  0.9476127008094142  0.0453299939330775
  0.3804610037766106  0.6547495537789371  0.8326370621519539
  0.8936312250570533  0.3771527680440793  0.4439239032296353
  0.8781656217576655  0.4121829351569972  0.6488547909974126
  0.7130066329455755  0.0975773922039431  0.6329813697685486
  0.2788379469041017  0.5982123633541990  0.0106850329965817
  0.0338326944098870  0.3976348067788680  0.4999592888346769
  0.8655260211471293  0.2333159117152901  0.1818562136422113
  0.7805265702217591  0.5190692770172537  0.3257118420030394
  0.7129979738744042  0.5585070415976604  0.0944528546400624
  0.8001674698776992  0.8979894096358900  0.7671770516489851
  0.3821148679856573  0.5695725794722086  0.4432948946629812
  0.5084082640220773  0.9826873542400399  0.1898836061257251
  0.1140670106632302  0.1165300324963991  0.8786638995933744
  0.2897034646312897  0.0951196024930196  0.4694008221049843
  0.7727383698925188  0.7643043197248295  0.3776100647359440
  0.6865650191867038  0.7429986845033517  0.9114700933028422
  0.5085417725813377  0.8963693979931669  0.0415044485093486
  0.8812401209314383  0.0787095385404780  0.2111304498932004
  0.8845887734961981  0.1287029299249627  0.3770854397585529
  0.0363120735701521  0.6754427598954111  0.1475466754349698
  0.1470071375807157  0.6141732530423554  0.2546532551369247
  0.9322310025384859  0.8004915576468027  0.4498035501674383
  0.4677018389306135  0.2295939662817541  0.2070081042783304
  0.5713547289094532  0.5288254602599366  0.0116668862231049
  0.2578952311568140  0.1823796308852162  0.6560448125151097
  0.7035142271274616  0.2639980083216508  0.5336442598251757
  0.9158224224325566  0.6552070467594850  0.6711548989977337
  0.0936057215969500  0.2426713881725406  0.1961789420202471
  0.7360902149053385  0.7308542219674983  0.0761060671666689
  0.3402789570941172  0.7285661948064981  0.3877972043459433
  0.4260582599178978  0.8041395809987664  0.7216008872428410
  0.0913647445833019  0.6189070105840369  0.4545412849327779
  0.0673606979813368  0.2565777189181396  0.6348397751815242
  0.3412963213637543  0.4126897230860742  0.2196761709789386
  0.5801634901716990  0.7212664908072856  0.7185391792489663
  0.5450016990067611  0.2212176924173848  0.7033712041282708
  0.9081898473866590  0.0440761665849608  0.7602549527539101
  0.8086555934596306  0.6278336118043313  0.9565543378111104
  0.3012846264132278  0.9021844261780199  0.8993722343568973
  0.3304190052910775  0.1051431453185334  0.7719643051355641
  0.6783074375397745  0.8625680155792331  0.6554776791733130
  0.4083583976342462  0.5522306729922454  0.1717519582147421
  0.4019812505264075  0.6588635960590015  0.5980086035503498
  0.6133053814698695  0.3088421186803308  0.1912071430124277
  0.7220702442282055  0.9390773837471488  0.1044024456060271
  0.1669651022298315  0.7971128902441024  0.0734132692834013
  0.7129826469536804  0.2538019490961755  0.7501664460670004
  0.1937151731058810  0.2743071779905633  0.0699252404499292
  0.7162922206755200  0.0762890770100966  0.1929288294690798
  0.8285512310366046  0.4736519152562152  0.8622287853321609
  0.1394001122482640  0.5176282209524697  0.0216010322457736
  0.4099724960567598  0.4018804725569831  0.5371892980718774
  0.0574202191142463  0.8012594125066214  0.3429223715895077
  0.5150994445009119  0.1374834682023475  0.8371137028724869
  0.0147393843234657  0.5024386092313371  0.7597089834964378
  0.4877522544010286  0.9526657427139208  0.7299401438412531
  0.2947245836399471  0.1756590845079802  0.3365832978898104
  0.6488819605067471  0.5452402599247106  0.2554189443870118
  0.1282238632520839  0.0892574665493324  0.5050583142959200
  0.0803264967577983  0.0528591722798278  0.3473283461058140
  0.5077642786557268  0.8390177868558623  0.3523575252881379
  0.0840942645799910  0.9733274340779989  0.9643308111507529
  0.5674222716016177  0.0813241820717045  0.5800208491077583
  0.7285698611053260  0.4188199050822438  0.6968256734802706
  0.8624289891779926  0.2762443523707485  0.5533545559102014
  0.8675344417934066  0.5141615681373890  0.5326246194372551
  0.3953683098582028  0.2912606507878323  0.7386123092939054
  0.7525819524375407  0.3507874660454324  0.3597446653221288
  0.7823750206571939  0.9937177169271734  0.5313080429488317
  0.7291800857963963  0.5780706226801900  0.7196078101832056
  0.1885149962123533  0.3340745834238475  0.7011481396822312
  0.3847496271028604  0.8428464721442953  0.5519785399814933
  0.6364809606860959  0.9568900146523479  0.9710455780941925
  0.5545725616754079  0.2736831848299554  0.4145335162426082
  0.8166238032792072  0.7593535316827519  0.5786779447774283
  0.7219647693940168  0.1475638470592001  0.4052088194294763
  0.2334121853436053  0.6908820107011385  0.5183191736435959
  0.2398170991983951  0.7008872648796722  0.8976686990248788
  0.3894051608437314  0.5245725160540505  0.9293964300835241
  0.0829360659131915  0.5165276672004095  0.5842917880128446
  0.3658641721885520  0.8931259559158020  0.1883186827192000
  0.0474808134136590  0.7450351901367327  0.6116949919585647
  0.0730391725307167  0.4284969224736450  0.2455616391635344
  0.1670729834882331  0.6857786838133955  0.6983527068719617
  0.2731952255251393  0.1644053154299241  0.9112220983092562
  0.6104050505429962  0.4062708887692551  0.8863075350597192
  0.1062999835025179  0.1080693840425370  0.6913298419406821
  0.5633395894517707  0.4274290629672149  0.3470669080060890
  0.1510756800324554  0.2922396546025074  0.4998264266750401
  0.4989701285520278  0.5771602090729908  0.7077588583938120
  0.9027049616073178  0.7581977827795466  0.7983113776613783
  0.5825884317998938  0.7469666131024241  0.1265540664010260
  0.4237404024599843  0.9937874420347874  0.9377072633298094
  0.5317733337823538  0.6193184961918311  0.3882363669450866
  0.6556104425380178  0.8896929942602648  0.4172109578891173
  0.0961660832009507  0.0816100655007100  0.1428479368042296
  0.6448363065855909  0.1733007006890969  0.9477463239333633
  0.8708799914809833  0.9818213411159431  0.9026631392878641
  0.2761634444140532  0.5217996546976273  0.7219328145724219
  0.9380818137380867  0.2698228367391525  0.3131376437215649
  0.9985126082185312  0.9287771904129002  0.5414755649721953
  0.9764760734326237  0.2781444292092901  0.0846192750842063
  0.7088352174908443  0.5133822351189837  0.4714295387368223
  0.4239358534961415  0.3274679895623516  0.0915542864383789
  0.9250356314582154  0.5652537470937826  0.1079141677905724
  0.6970255678016551  0.0255308435579294  0.7812716437640913
  0.9988126538602218  0.7641399418214208  0.9942988259380285
  0.2438349870347832  0.9666158651378931  0.7662067871329351
  0.2504598655053324  0.4483117198061538  0.3835014640158925
  0.5699432179517292  0.4083918134016452  0.5807343236322904
  0.2932865663420475  0.9528386565745228  0.3944952134563469
  0.8282857025840477  0.8111740472882166  0.2353464993120314
  0.4259042925530147  0.7544712200668420  0.9497041016591478
  0.4513367346610032  0.1064974075254966  0.1001067529599945
  0.0057109354289334  0.2894735674781072  0.8507192941918629
  0.8964577505341110  0.6365478803565091  0.3736018224313912
  0.7869121895242642  0.3979274311640997  0.0497547654095092
  0.8011065594092230  0.2053817599990982  0.9997000526096433
  0.2428173706171000  0.7438308044982962  0.2227220619976643
  0.5958115291153925  0.7156018749072159  0.5506053163948702
 
 -0.64836134E-04  0.32406535E-02 -0.66459826E-03
  0.21982112E-02  0.36944785E-02 -0.21367770E-02
  0.37691127E-02  0.37299363E-02  0.28274720E-02
 -0.29449208E-02  0.27969903E-02  0.28409847E-04
 -0.18890118E-02  0.59632169E-03  0.50395636E-02
  0.37997186E-02 -0.14602092E-02 -0.18590342E-02
  0.21412480E-02 -0.12765335E-02  0.30759594E-02
  0.32013804E-03 -0.12502234E-02 -0.18420378E-03
  0.12269073E-02  0.11428456E-02 -0.26806902E-02
  0.15071665E-02 -0.37054579E-02  0.26932573E-02
  0.36915700E-03 -0.44604522E-03 -0.22604251E-02
 -0.24781608E-02  0.12343038E-03 -0.11185702E-02
  0.11333477E-02 -0.31785497E-03  0.76870372E-03
 -0.13126255E-02 -0.10103059E-02 -0.23413130E-03
 -0.25399397E-02  0.27737950E-03 -0.18756682E-02
 -0.89838726E-03  0.86217745E-03  0.58292568E-03
  0.37133185E-02  0.99694295E-03  0.53898444E-03
 -0.43628776E-02 -0.25121860E-02 -0.20212702E-02
 -0.25091627E-02 -0.21340023E-02 -0.29695766E-02
 -0.25248765E-02 -0.28062980E-03 -0.18570197E-02
  0.50212099E-03  0.83156488E-03 -0.23778541E-02
  0.12106242E-03 -0.68320087E-03 -0.10385662E-02
  0.11179350E-02 -0.15485663E-02  0.90518793E-04
 -0.14142937E-02  0.28765993E-03  0.15456880E-02
 -0.34947878E-02  0.89211485E-03  0.21268545E-03
  0.26220155E-03  0.27099411E-02 -0.12495205E-02
  0.27197909E-02  0.11276532E-03 -0.10139839E-02
 -0.25841100E-02  0.32643686E-02  0.23116286E-04
 -0.15785815E-02  0.26445316E-02  0.36594516E-02
 -0.15012119E-02 -0.17228593E-02 -0.16668682E-02
  0.44102244E-02 -0.47527865E-03 -0.30077102E-02
  0.14868456E-02  0.11334098E-02 -0.49898904E-03
  0.97391723E-03 -0.18146826E-02 -0.34009356E-02
 -0.33950356E-02 -0.33490623E-03  0.35487910E-02
 -0.19001981E-02  0.22986892E-03  0.27916969E-02
  0.12457521E-02 -0.12715453E-02 -0.11236192E-03
 -0.10086693E-02  0.71094452E-05  0.21282705E-02
 -0.15353139E-02 -0.97679116E-03 -0.11802147E-02
  0.18559627E-02 -0.15220392E-02  0.26946634E-02
  0.91793924E-03  0.22580150E-02  0.25384442E-02
 -0.23153927E-02 -0.10054868E-02 -0.25177376E-03
  0.59021681E-03 -0.21851765E-02 -0.33247519E-02
  0.10394235E-02 -0.12448075E-02 -0.11362371E-02
 -0.19781442E-02  0.68136975E-03  0.45658381E-03
 -0.12536327E-04  0.85625928E-03 -0.28159288E-02
 -0.28277681E-02 -0.13430475E-02 -0.83553901E-03
  0.50073358E-02 -0.81357281E-04  0.14161435E-02
 -0.26119212E-02  0.12112051E-02  0.87695389E-03
 -0.57160103E-03  0.70655729E-04  0.19726955E-03
  0.12293196E-02  0.47061972E-03  0.38646105E-03
 -0.18834756E-03  0.31837403E-03 -0.22382604E-03
 -0.21830395E-02  0.17553925E-02 -0.13745384E-02
  0.17981287E-02 -0.85539272E-03  0.11909374E-02
 -0.12079643E-02 -0.21316671E-03  0.21461383E-03
 -0.61634981E-03 -0.13583971E-02 -0.21520919E-02
  0.37639697E-02  0.13839616E-02  0.41926635E-03
  0.14326008E-02  0.22484871E-02 -0.21345225E-02
  0.57387321E-04 -0.67139291E-03 -0.25047388E-02
 -0.31233646E-03  0.99805837E-03  0.10203576E-02
  0.25535740E-03 -0.93572571E-03  0.22298513E-02
 -0.30771631E-03 -0.25584305E-02  0.78088839E-04
 -0.76302441E-03  0.37638034E-03 -0.45178905E-04
 -0.52876197E-04 -0.22231095E-02 -0.78128083E-03
 -0.41622351E-03 -0.25599165E-02 -0.12053868E-02
  0.17168058E-02 -0.83586260E-05 -0.95978907E-03
  0.11985837E-02  0.10323653E-02  0.38199699E-03
 -0.19147484E-02  0.23766889E-02  0.69462638E-03
  0.46531016E-03  0.56278987E-03 -0.91963570E-03
  0.84554562E-03 -0.88087164E-03  0.87371267E-03
 -0.15892659E-02  0.12379434E-03  0.14236635E-04
  0.93253242E-03  0.25167640E-03  0.89412679E-03
 -0.10822508E-03 -0.90863880E-03 -0.46893436E-03
  0.58054559E-03 -0.29947691E-03  0.11805658E-02
 -0.25790488E-02  0.23393355E-03 -0.49220003E-04
 -0.22764607E-02 -0.11588216E-02 -0.15420608E-02
  0.12530901E-02 -0.51130758E-03  0.60857917E-03
 -0.68840219E-03  0.10848942E-02  0.56929146E-03
  0.93978453E-03 -0.72356707E-03  0.25632480E-02
  0.19958370E-02 -0.31419918E-04 -0.10228147E-02
 -0.73258286E-03  0.25737863E-03  0.25520734E-02
  0.15977360E-03  0.18960069E-03  0.12808276E-02
 -0.86671120E-03 -0.10755989E-02  0.29370384E-03
 -0.63661143E-03  0.21102084E-02 -0.29120808E-02
  0.17835995E-02  0.97300593E-03 -0.11619480E-03
  0.11346723E-03  0.35626184E-02 -0.19512695E-02
  0.95326089E-03  0.26638339E-02 -0.63034847E-03
 -0.13769311E-02  0.68106833E-04  0.31325485E-03
 -0.86437079E-03  0.72928382E-03  0.18369740E-02
 -0.34838879E-03 -0.73985742E-03  0.30774436E-02
  0.25426945E-02  0.23656328E-03  0.10264882E-03
 -0.22478930E-02 -0.11160579E-02 -0.11572672E-02
 -0.96844772E-03 -0.20739413E-03 -0.26805527E-02
  0.14049271E-02 -0.14242554E-02  0.12117730E-03
  0.24153648E-02  0.19936404E-02 -0.14717133E-04
 -0.17573056E-02 -0.10108443E-02 -0.27251564E-02
 -0.64466128E-03 -0.42825118E-03  0.35742512E-04
  0.10260708E-02 -0.11433077E-02  0.22859622E-02
  0.17188145E-02 -0.17720853E-02  0.12368655E-02
  0.18944781E-03  0.12206167E-02  0.22300983E-02
 -0.12510114E-02  0.45101781E-03  0.47127040E-03
 -0.47214332E-03  0.59918258E-03  0.19908742E-03
  0.79698510E-03  0.11421210E-02 -0.13549911E-02
  0.23874571E-02 -0.25258789E-03  0.88595305E-03
 -0.78645992E-04 -0.18075955E-02 -0.68129978E-04
  0.11576968E-02  0.31889317E-03 -0.12872124E-02
 -0.14665834E-02 -0.67497593E-03  0.39319294E-03
 -0.59395238E-03  0.17404965E-02  0.22610319E-02
  0.88429701E-04  0.31614417E-03  0.32096057E-02
  0.18323611E-02 -0.13446779E-02 -0.38964927E-03
 -0.47387918E-04 -0.16854405E-02  0.14122852E-02
 -0.10119717E-02 -0.23685104E-02 -0.25775841E-03
  0.34957664E-03 -0.29799239E-03  0.16950977E-02
 -0.16749583E-02  0.69842277E-03  0.24974052E-02
 -0.17541666E-02  0.22146750E-02  0.71488091E-03
  0.24033751E-03 -0.87615190E-03 -0.12067543E-04
 -0.13504546E-02  0.46271212E-03  0.16706091E-02
 -0.86701847E-04  0.17175945E-02  0.60188728E-04
  0.71372835E-03 -0.15920849E-02 -0.20565365E-02
 -0.10868340E-02 -0.16182286E-02 -0.46996742E-02
  0.17970311E-02 -0.14436008E-04  0.10283056E-02
 -0.11119239E-03 -0.68525179E-03  0.34384930E-02
  0.14883023E-02  0.11638060E-03 -0.13797945E-02
 -0.88793812E-03 -0.24232546E-02  0.75993161E-03
  0.57222233E-03  0.64335923E-03  0.81513030E-03
  0.13386716E-03 -0.24056752E-02 -0.70731672E-03
 -0.30659220E-04 -0.74545751E-03 -0.99352485E-04
 -0.31214084E-03  0.80437766E-03  0.94193631E-03
 -0.14781205E-02  0.10291699E-02 -0.18393761E-02
 -0.10683050E-02  0.16340388E-02  0.33822484E-03
  0.47174610E-03 -0.12280129E-02  0.94633615E-03
 -0.39336441E-03  0.47883106E-04 -0.10331733E-02
  0.93209384E-03  0.32048960E-03  0.22686007E-03
  0.58714787E-03  0.18415806E-03 -0.15675137E-03
 -0.59821736E-03 -0.18321123E-02 -0.67703413E-03
  0.13617389E-03 -0.15422540E-02 -0.55466558E-03
  0.52628947E-03  0.27286874E-02  0.48422434E-03
 -0.14474724E-03 -0.12929574E-03 -0.38888009E-03
  0.68329447E-04 -0.89603703E-03 -0.19229338E-02
  0.18646384E-02  0.11421060E-02  0.87810793E-03
 -0.15420197E-02 -0.67941426E-04 -0.33320674E-03
 -0.68130322E-03  0.52109956E-03  0.63031819E-03
  0.15876251E-02 -0.29067304E-03 -0.23523126E-02
  0.11103444E-02 -0.65675997E-03 -0.11997625E-04
  0.14420508E-02  0.38864635E-03 -0.94919444E-04
 -0.89961443E-03 -0.46979896E-03  0.64290903E-03
 -0.84396383E-03  0.11776421E-03 -0.34641876E-03
  0.96491418E-03  0.28400662E-02  0.18804168E-02
  0.16774959E-02  0.15983626E-02 -0.95972992E-03
 -0.18711164E-02  0.32555839E-03  0.29729819E-02
  0.10612440E-03 -0.77935743E-03 -0.22225827E-02
  0.13435178E-03  0.33073328E-03 -0.13742512E-02
  0.68533394E-03  0.27934046E-03  0.32210811E-03
 
           1
   3.00000000000000     
  0.10000000E+01  0.00000000E+00  0.00000000E+00  0.00000000E+00
  0.52309150E+00  0.83065549E+00  0.49737570E+00
  0.46561879E+00  0.73013443E+00  0.48356428E+00
  0.80806985E+00  0.14951322E+00  0.79159566E+00
  0.78352532E+00  0.10792724E+00  0.87803430E+00
  0.64282932E+00  0.38545006E+00  0.45727398E+00
  0.71493397E+00  0.48247550E+00  0.94798194E+00
  0.72028254E+00  0.31867128E+00  0.94762789E+00
  0.74522134E+00  0.35976384E+00  0.85527291E+00
  0.94825919E+00  0.72557333E+00  0.26583930E+00
  0.85452212E+00  0.27677771E+00  0.83954985E+00
  0.13220708E+00  0.94123925E+00  0.44371035E+00
  0.98538222E-01  0.47324152E+00  0.38746801E+00
  0.23225237E+00  0.42167392E-01  0.27622430E+00
  0.16052389E+00  0.50158374E+00  0.83633270E+00
  0.41170109E+00  0.34892119E+00  0.39381994E+00
  0.56640568E-01  0.79356163E+00  0.83905892E+00
  0.42323604E+00  0.65874688E+00  0.27147933E+00
  0.86689096E+00  0.90433885E+00  0.62050129E+00
  0.96385849E+00  0.61468697E+00  0.95964739E+00
  0.71693307E+00  0.22348822E+00  0.25166070E+00
  0.19642768E+00  0.48722998E+00  0.16841051E+00
  0.89754541E-01  0.18158236E+00  0.30880821E-01
  0.40942638E+00  0.45590765E+00  0.77254888E+00
  0.99521800E-01  0.65170354E+00  0.83288182E+00
  0.67385666E+00  0.58982382E+00  0.86439633E+00
  0.22299795E+00  0.42092878E+00  0.56578344E+00
  0.38306528E+00  0.74437312E+00  0.14148643E+00
  0.55649359E+00  0.92842727E+00  0.59918811E+00
  0.98382138E+00  0.45206818E+00  0.90736890E+00
  0.55513329E+00  0.68497575E+00  0.98587793E+00
  0.93988659E+00  0.13430502E+00  0.89049829E+00
  0.21646562E+00  0.94780578E+00  0.45244989E-01
  0.38062691E+00  0.65444042E+00  0.83205770E+00
  0.89305287E+00  0.37709572E+00  0.44452845E+00
  0.87784192E+00  0.41222209E+00  0.64933037E+00
  0.71321885E+00  0.97360780E-01  0.63296223E+00
  0.27866612E+00  0.59821357E+00  0.11047591E-01
  0.33571148E-01  0.39746841E+00  0.49975824E+00
  0.86584219E+00  0.23305663E+00  0.18231526E+00
  0.78068294E+00  0.51945394E+00  0.32614427E+00
  0.71260354E+00  0.55833575E+00  0.94409964E-01
  0.80026802E+00  0.89761716E+00  0.76661067E+00
  0.38229194E+00  0.56936052E+00  0.44310133E+00
  0.50807128E+00  0.98280343E+00  0.18996139E+00
  0.11406488E+00  0.11667590E+00  0.87818420E+00
  0.28922174E+00  0.94890810E-01  0.46925849E+00
  0.77359139E+00  0.76429046E+00  0.37785131E+00
  0.68612007E+00  0.74320502E+00  0.91161949E+00
  0.50844440E+00  0.89638143E+00  0.41538054E-01
  0.88144954E+00  0.78789710E-01  0.21119628E+00
  0.88455669E+00  0.12875717E+00  0.37704731E+00
  0.35940185E-01  0.67574180E+00  0.14731252E+00
  0.14731346E+00  0.61402753E+00  0.25485614E+00
  0.93202522E+00  0.80045524E+00  0.44984011E+00
  0.46759684E+00  0.22936256E+00  0.20664149E+00
  0.57199593E+00  0.52906122E+00  0.11738310E-01
  0.25813928E+00  0.18276267E+00  0.65568119E+00
  0.70352400E+00  0.26388363E+00  0.53321757E+00
  0.91576921E+00  0.65537707E+00  0.67132872E+00
  0.93649223E-01  0.24251198E+00  0.19655881E+00
  0.73603779E+00  0.73041838E+00  0.76119370E-01
  0.34014897E+00  0.72863031E+00  0.38778951E+00
  0.42604925E+00  0.80376087E+00  0.72146779E+00
  0.91293839E-01  0.61847092E+00  0.45433594E+00
  0.67653162E-01  0.25657629E+00  0.63467627E+00
  0.34150050E+00  0.41286559E+00  0.21974125E+00
  0.57983731E+00  0.72167137E+00  0.71865751E+00
  0.54508097E+00  0.22131357E+00  0.70321454E+00
  0.90833389E+00  0.43926107E-01  0.76040379E+00
  0.80838486E+00  0.62785470E+00  0.95655676E+00
  0.30144349E+00  0.90222730E+00  0.89952455E+00
  0.33040057E+00  0.10498836E+00  0.77188442E+00
  0.67840634E+00  0.86251700E+00  0.65567879E+00
  0.40791905E+00  0.55227052E+00  0.17174357E+00
  0.40159345E+00  0.65866619E+00  0.59774591E+00
  0.61351885E+00  0.30875502E+00  0.19131082E+00
  0.72195297E+00  0.93926220E+00  0.10449943E+00
  0.16712520E+00  0.79698963E+00  0.73849928E-01
  0.71332264E+00  0.25379660E+00  0.74999221E+00
  0.19359038E+00  0.27435102E+00  0.70359995E-01
  0.71631944E+00  0.76321376E-01  0.19314702E+00
  0.82840358E+00  0.47346868E+00  0.86227882E+00
  0.13929166E+00  0.51798770E+00  0.21104949E-01
  0.41027634E+00  0.40204623E+00  0.53716950E+00
  0.57439549E-01  0.80186632E+00  0.34258997E+00
  0.51526184E+00  0.13793726E+00  0.83700632E+00
  0.14504819E-01  0.50245021E+00  0.75976235E+00
  0.48760501E+00  0.95278998E+00  0.73025308E+00
  0.29466523E+00  0.17553305E+00  0.33710755E+00
  0.64931512E+00  0.54528056E+00  0.25543643E+00
  0.12784093E+00  0.89067342E-01  0.50486117E+00
  0.80161518E-01  0.52823842E-01  0.34687170E+00
  0.50800361E+00  0.83877516E+00  0.35237817E+00
  0.84505730E-01  0.97366706E+00  0.96432830E+00
  0.56712291E+00  0.81151981E-01  0.57955661E+00
  0.72846004E+00  0.41874695E+00  0.69683176E+00
  0.86260378E+00  0.27604959E+00  0.55374398E+00
  0.86782725E+00  0.51385969E+00  0.53283532E+00
  0.39540058E+00  0.29146859E+00  0.73899221E+00
  0.75236884E+00  0.35086430E+00  0.35982495E+00
  0.78229459E+00  0.99381979E+00  0.53134196E+00
  0.72931586E+00  0.57826519E+00  0.71937698E+00
  0.18892171E+00  0.33403155E+00  0.70129906E+00
  0.38473623E+00  0.84253854E+00  0.55196693E+00
  0.63667818E+00  0.95694434E+00  0.97082630E+00
  0.55432272E+00  0.27356820E+00  0.41460050E+00
  0.81652262E+00  0.75965003E+00  0.57906312E+00
  0.72197983E+00  0.14761770E+00  0.40575559E+00
  0.23372433E+00  0.69065294E+00  0.51825280E+00
  0.23980903E+00  0.70060014E+00  0.89790929E+00
  0.38923277E+00  0.52416903E+00  0.92935252E+00
  0.82995618E-01  0.51647690E+00  0.58458055E+00
  0.36557884E+00  0.89324493E+00  0.18874412E+00
  0.47181985E-01  0.74541247E+00  0.61181677E+00
  0.73080115E-01  0.42834767E+00  0.24555958E+00
  0.16684293E+00  0.68585751E+00  0.69863730E+00
  0.27318046E+00  0.16469791E+00  0.91123235E+00
  0.61052664E+00  0.40599967E+00  0.88595720E+00
  0.10611484E+00  0.10779371E+00  0.69052924E+00
  0.56364572E+00  0.42742660E+00  0.34724208E+00
  0.15105674E+00  0.29212292E+00  0.50041219E+00
  0.49922367E+00  0.57718003E+00  0.70752381E+00
  0.90255370E+00  0.75778497E+00  0.79844083E+00
  0.58268591E+00  0.74707621E+00  0.12669293E+00
  0.42376321E+00  0.99337763E+00  0.93758677E+00
  0.53176811E+00  0.61919150E+00  0.38821944E+00
  0.65555727E+00  0.88983002E+00  0.41737142E+00
  0.95914280E-01  0.81785388E-01  0.14253459E+00
  0.64465432E+00  0.17357906E+00  0.94780394E+00
  0.87096036E+00  0.98161214E+00  0.90282435E+00
  0.27609643E+00  0.52180781E+00  0.72175681E+00
  0.93824060E+00  0.26987743E+00  0.31317629E+00
  0.99861263E+00  0.92880856E+00  0.54144886E+00
  0.97637417E+00  0.27783232E+00  0.84503940E-01
  0.70885842E+00  0.51311951E+00  0.47133505E+00
  0.42402551E+00  0.32793283E+00  0.91636776E-01
  0.92501097E+00  0.56523172E+00  0.10784792E+00
  0.69703721E+00  0.25378200E-01  0.78094407E+00
  0.99913030E+00  0.76433450E+00  0.99444841E+00
  0.24357230E+00  0.96660429E+00  0.76615002E+00
  0.25034380E+00  0.44840049E+00  0.38360884E+00
  0.57021368E+00  0.40834230E+00  0.58033360E+00
  0.29347572E+00  0.95272678E+00  0.39449317E+00
  0.82853136E+00  0.81124025E+00  0.23533033E+00
  0.42575104E+00  0.75439119E+00  0.94981362E+00
  0.45119296E+00  0.10651747E+00  0.10004774E+00
  0.58753120E-02  0.28995738E+00  0.85103963E+00
  0.89674352E+00  0.63682017E+00  0.37343833E+00
  0.78659344E+00  0.39798289E+00  0.50261223E-01
  0.80112464E+00  0.20524899E+00  0.99932143E+00
  0.24284026E+00  0.74388715E+00  0.22248795E+00
  0.59592828E+00  0.71564946E+00  0.55066019E+00
  0.16397628E-04  0.54392976E-03 -0.73457864E-04
  0.36802218E-03  0.61213073E-03 -0.36138445E-03
  0.62166319E-03  0.67158887E-03  0.43770602E-03
 -0.46779940E-03  0.44687021E-03  0.68325100E-06
 -0.32826079E-03  0.11286970E-03  0.86741755E-03
  0.64817414E-03 -0.26507950E-03 -0.38260615E-03
  0.38959191E-03 -0.24546014E-03  0.52592200E-03
  0.48385328E-04 -0.17529798E-03 -0.12515621E-04
  0.19133617E-03  0.19053525E-03 -0.44412925E-03
  0.24848609E-03 -0.61152034E-03  0.45208896E-03
  0.60615481E-04 -0.66123605E-04 -0.37874710E-03
 -0.43545731E-03  0.21913201E-04 -0.20055334E-03
  0.19644048E-03 -0.57128303E-04  0.13043300E-03
 -0.21562634E-03 -0.18213069E-03 -0.36875845E-04
 -0.44234827E-03  0.49665091E-04 -0.31690196E-03
 -0.12947022E-03  0.15302702E-03  0.83641801E-04
  0.62250205E-03  0.15515517E-03  0.79327594E-04
 -0.73478125E-03 -0.42295571E-03 -0.34378713E-03
 -0.44315117E-03 -0.35192981E-03 -0.51578843E-03
 -0.45304992E-03 -0.53737795E-04 -0.32762469E-03
  0.90988772E-04  0.13368081E-03 -0.40841793E-03
  0.32558079E-04 -0.98746467E-04 -0.14269587E-03
  0.20752611E-03 -0.26547279E-03  0.25331124E-05
 -0.25232645E-03  0.73164231E-04  0.25821634E-03
 -0.59193085E-03  0.14670043E-03  0.34966579E-04
  0.39027671E-04  0.45448649E-03 -0.21837558E-03
  0.45964168E-03  0.21913405E-04 -0.17733509E-03
 -0.42490560E-03  0.54856739E-03  0.18377023E-05
 -0.27454278E-03  0.45162914E-03  0.63236774E-03
 -0.27719545E-03 -0.29625785E-03 -0.29201809E-03
  0.76501352E-03 -0.83789810E-04 -0.50523939E-03
  0.25697954E-03  0.20494364E-03 -0.70159801E-04
  0.17237655E-03 -0.29898126E-03 -0.57940424E-03
 -0.57447778E-03 -0.61316004E-04  0.61631633E-03
 -0.33253822E-03  0.49447761E-04  0.47663083E-03
  0.20281832E-03 -0.22329348E-03 -0.83230222E-05
 -0.15770529E-03 -0.23456147E-05  0.35821988E-03
 -0.26738801E-03 -0.16380071E-03 -0.18543244E-03
  0.34232722E-03 -0.24695908E-03  0.45503362E-03
  0.16062601E-03  0.40505235E-03  0.42422404E-03
 -0.39691804E-03 -0.17025239E-03 -0.36651315E-04
  0.11097052E-03 -0.36533613E-03 -0.56218393E-03
  0.17946595E-03 -0.21940524E-03 -0.19822811E-03
 -0.32950843E-03  0.12028406E-03  0.91359556E-04
 -0.77319923E-05  0.15148791E-03 -0.49348861E-03
 -0.48685976E-03 -0.22614798E-03 -0.15080492E-03
  0.85626835E-03 -0.18605707E-04  0.23378954E-03
 -0.43933392E-03  0.20696490E-03  0.14919023E-03
 -0.90912695E-04  0.17075672E-04  0.22231582E-04
  0.21674355E-03  0.76328250E-04  0.60487759E-04
 -0.28830149E-04  0.54060289E-04 -0.32721855E-04
 -0.36621241E-03  0.29927962E-03 -0.23042509E-03
  0.29751634E-03 -0.13957713E-03  0.20154819E-03
 -0.20464892E-03 -0.33122419E-04  0.27887833E-04
 -0.10782285E-03 -0.23196151E-03 -0.36664026E-03
  0.63599888E-03  0.22785448E-03  0.68497991E-04
  0.25144254E-03  0.36560946E-03 -0.35832510E-03
  0.19003636E-04 -0.10895310E-03 -0.42293065E-03
 -0.53621024E-04  0.16197881E-03  0.17518270E-03
  0.41660977E-04 -0.16229914E-03  0.37342731E-03
 -0.58454427E-04 -0.44057864E-03  0.15592424E-04
 -0.12597427E-03  0.67795222E-04 -0.16152945E-04
 -0.12078139E-04 -0.37785803E-03 -0.13060409E-03
 -0.71776491E-04 -0.44294164E-03 -0.20460685E-03
  0.31088012E-03 -0.78462545E-05 -0.16299858E-03
  0.20568168E-03  0.17661840E-03  0.71521525E-04
 -0.32445862E-03  0.39375861E-03  0.12430451E-03
  0.88275579E-04  0.96466645E-04 -0.15950649E-03
  0.12880791E-03 -0.15557105E-03  0.15746216E-03
 -0.25335668E-03  0.28331736E-04  0.31286558E-05
  0.16395774E-03  0.51505036E-04  0.14002128E-03
 -0.33545523E-04 -0.14933211E-03 -0.94067950E-04
  0.92943022E-04 -0.40213049E-04  0.19508704E-03
 -0.43778697E-03  0.50737166E-04 -0.78926228E-06
 -0.38539488E-03 -0.18832581E-03 -0.26639675E-03
  0.22088294E-03 -0.88042924E-04  0.10689944E-03
 -0.11608906E-03  0.19164165E-03  0.10508938E-03
  0.16031307E-03 -0.12963850E-03  0.43391454E-03
  0.35111043E-03 -0.72090893E-05 -0.17128926E-03
 -0.13780910E-03  0.32992903E-04  0.43026337E-03
  0.20676675E-04  0.33902855E-04  0.21914938E-03
 -0.16646207E-03 -0.18650114E-03  0.55076523E-04
 -0.11641649E-03  0.35666427E-03 -0.49835094E-03
  0.30652397E-03  0.16247154E-03 -0.20512963E-04
  0.18514250E-04  0.60469593E-03 -0.33016010E-03
  0.15319955E-03  0.45048182E-03 -0.10988230E-03
 -0.23689323E-03  0.12718869E-04  0.42637183E-04
 -0.14310178E-03  0.12820609E-03  0.30868219E-03
 -0.56284151E-04 -0.13092751E-03  0.53221599E-03
  0.43131558E-03  0.37265052E-04  0.22903508E-04
 -0.37558573E-03 -0.18559936E-03 -0.19209104E-03
 -0.17504589E-03 -0.40540029E-04 -0.45445354E-03
  0.23327576E-03 -0.24250342E-03  0.83047779E-05
  0.40546885E-03  0.33662813E-03 -0.49204930E-06
 -0.30196491E-03 -0.17437009E-03 -0.46278038E-03
 -0.10650314E-03 -0.77475123E-04  0.64433418E-05
  0.16904541E-03 -0.19299698E-03  0.38075994E-03
  0.29112477E-03 -0.30339256E-03  0.20971639E-03
  0.30904102E-04  0.20830855E-03  0.38509674E-03
 -0.21425734E-03  0.66478810E-04  0.77017325E-04
 -0.76640334E-04  0.99473726E-04  0.33235374E-04
  0.13384298E-03  0.17716923E-03 -0.22015399E-03
  0.39635361E-03 -0.43300397E-04  0.13760525E-03
 -0.32082584E-04 -0.30355715E-03 -0.10503853E-04
  0.18657912E-03  0.53932882E-04 -0.22338071E-03
 -0.24353893E-03 -0.10576967E-03  0.71141033E-04
 -0.10670900E-03  0.30180368E-03  0.38440139E-03
  0.12095583E-04  0.50332403E-04  0.54754668E-03
  0.31653528E-03 -0.22455717E-03 -0.51722816E-04
 -0.56489335E-05 -0.28752078E-03  0.24246169E-03