seed=5 POSCAR cation-sublattice shuffle 
   1.00000000000000     
    18.3913873167883786    0.0439548059082508   -0.0034160218934988
     0.0439969251833835   18.3846467807479712   -0.0250025897994398
    -0.0035237947903040   -0.0247523870826551   18.4799173170078532
   Ge   Sb   Te
    43    43   108
Direct
  0.1515055246303375  0.1725152247468116  0.9976506986944257
  0.1512420431813293  0.9958373371321283  0.4997644250737552
  0.9862797602595087  0.9795955977045496  0.6714853106219901
  0.1618661808870771  0.5125492331115009  0.6621438209290764
  0.1642120486487698  0.6626687216630680  0.1925051023842282
  0.1499118771837874  0.6809511690451354  0.4642075077395785
  0.1567380191040331  0.8307839638313804  0.6499743296139817
  0.4966102133121742  0.9987463954736948  0.5005596036829483
  0.5080262991807692  0.3367152183054753  0.1753245150868923
  0.3231158390346673  0.3434597654603059  0.3289854051117736
  0.3241192468975952  0.3353639456780163  0.6607360128710348
  0.5168867609500944  0.3323689856323241  0.8286939181824162
  0.3271735573489167  0.6630167713463636  0.0144916764261778
  0.5108468679121941  0.8310565168337650  0.9917871527523738
  0.4982089930336604  0.6728570887091829  0.4969921024264812
  0.3260017553799454  0.8357182235672129  0.4954407078376332
  0.3361172538580781  0.6690170411295069  0.6626550636825945
  0.8287493370318048  0.0262846877957309  0.1741075036206737
  0.6795291600173224  0.1691753915330463  0.5004877548300346
  0.6742335417811246  0.9659785363580359  0.6696459822361323
  0.8445658639442672  0.0211824105027211  0.8412222354933709
  0.6721374758469781  0.6701532426407733  0.3318717944129180
  0.8293132798100258  0.6858740373133672  0.5048733330016901
  0.8434777918539318  0.6715463143620765  0.8272871146986190
  0.6785485427686565  0.8277638014158434  0.8210617718077206
  0.9951121844493670  0.9785762896581239  0.0179337606311647
  0.9974766872247213  0.1601989489195952  0.4977908366584358
  0.9910782453236966  0.3126113695396710  0.0311994047279019
  0.9920595624769371  0.3284796111373562  0.3391532967929968
  0.0025616413179636  0.5107724434715828  0.4907884259104455
  0.9958297236860228  0.5111938790170546  0.8199091524717365
  0.1668258782286619  0.6689997700790314  0.8262082829862541
  0.3170682569308200  0.9899290501615159  0.0033099315921332
  0.3124215924721484  0.4989626238519933  0.1604556677752094
  0.4923080305250940  0.5079465618186340  0.3314136662896845
  0.8484380726694396  0.1718396551983025  0.9849857880204206
  0.8356504263190458  0.1765526215258321  0.3168090504168849
  0.6828924398492058  0.1698857546241377  0.8376013212249404
  0.6615053820865910  0.3233184338551767  0.6655584677632131
  0.8393792811248169  0.5112891603666064  0.6610171371823020
  0.6765799895329286  0.5125104201985412  0.8255597764922152
  0.8615921178946276  0.8470625184742563  0.3045257110447185
  0.6838965251260373  0.8367544380282821  0.4927133482468480
  0.1501291902770708  0.1703994984550129  0.6636597631639113
  0.1468205600090529  0.9980130561152387  0.8314788635311717
  0.0114634956983273  0.4895295676994253  0.1648959550489273
  0.9937567820027300  0.6775775416054086  0.6599742047640629
  0.5164204413168028  0.1665335541492147  0.9974128887541206
  0.5047781160255835  0.1749462231639964  0.3324927549448762
  0.3302698259934883  0.9977134301491947  0.6682139721301183
  0.3235532803825156  0.1656528572979994  0.8346065630264000
  0.4948184267703782  0.5037402258349862  0.0002024564648062
  0.3321745631542447  0.5115793582551709  0.4900073146721186
  0.3227851701849301  0.5013316412393158  0.8281418593082427
  0.5044837760418622  0.6721078108379216  0.1706618260126526
  0.3269813130697705  0.8271371399442460  0.1670796274521607
  0.5003248539391898  0.8328111453087251  0.3436530701408158
  0.5160839347513440  0.6676891772051817  0.8274485502541031
  0.8335647959243008  0.0016385840954944  0.5203985133223386
  0.6688876975597775  0.3327542449618121  0.9959136774885760
  0.8467171829178630  0.4885108983562667  0.9881505724361399
  0.1603862319625462  0.0022257840125728  0.1691500532477705
  0.1543832060751153  0.1717684909670665  0.3287023127534205
  0.1648462135181431  0.3426517211985977  0.4927367367639865
  0.9876505326649688  0.3260090214186117  0.6753893698420435
  0.1494278535576693  0.3408937916523763  0.8393669927318803
  0.9966469210407658  0.6616932136665852  0.0110212473901047
  0.1670781569172544  0.8199866232633846  0.0049093146466438
  0.5164061670503448  0.0048132563791403  0.1715701825961143
  0.3251459098049742  0.1743192186097526  0.1687455447565268
  0.3208445837858577  0.9922287060311108  0.3322491839439908
  0.3358637116941879  0.1714505692149129  0.5015814345453384
  0.5202627966206433  0.1589691613639260  0.6661588223195301
  0.5116687337677670 -0.0010599991894799  0.8290415963259152
  0.3187457182176506  0.3274937528664183  0.9981278854437512
  0.5083500530205591  0.5092659954058811  0.6604064883468681
  0.3220559588033044  0.8282067253796100  0.8199447561484225
  0.6698950301252837  0.9801101489743091  0.9995342185087043
  0.6807251946921472  0.9940873666836272  0.3346883544748055
  0.6685641660610038  0.4993888360736616  0.1630327147655079
  0.6660732780735925  0.3372920141788525  0.3280599607390957
  0.8439769589865422  0.5109076926154567  0.3241654456038380
  0.8305139874928175  0.3340968313256935  0.5118092810945797
  0.6722321273386918  0.5143548762262644  0.4992342545499894
  0.8384910102482146  0.8287712644420799  0.9838309551091873
  0.8388335008713934  0.6800541212161965  0.1677399168026152
  0.1623695460022646  0.0021407433438806  0.0008714908098169
  0.9978832360498522  0.1621358589931072  0.0234362872238879
  0.9934487529516957  0.9944482815738798  0.1720874761994860
  0.1636958103097554  0.1697120532748397  0.1655170074868381
  0.1621606138682669  0.9993108866837289  0.3349530347056314
  0.9969955306172241  0.1651970991047865  0.3405496167645264
  0.0027711523673306  0.0033803305770979  0.5040011954408770
  0.1655865078433719  0.1624734129213964  0.5005322963440447
  0.1635215817125162  0.9952484913928892  0.6627776851367599
  0.9967125090336587  0.1626603645028120  0.6665332447750474
  0.9928123820714049  0.9739127084443238  0.8277647643162352
  0.1606251416142981  0.1646112943055707  0.8394779617361287
  0.1569493699484306  0.3307102687124391  0.0005568598986339
  0.0051527635334211  0.4932659754634487  0.9980862917354058
  0.0204425938814981  0.3324990913044351  0.1742521406635484
  0.1689359169266157  0.5110277014115016  0.2046092349021612
  0.1658602640507493  0.3386091083759394  0.3341884693127301
 -0.0001180087021784  0.4968769935298583  0.3350625364433508
  0.0017695202081044  0.3322926981111518  0.4981192537983858
  0.1650382228077106  0.5074553829584004  0.5027190123390715
  0.1689283719018110  0.3356546067238724  0.6680481899780569
 -0.0002582866491759  0.5015043114746328  0.6654093754944436
  0.9943812103066593  0.3378650799647523  0.8358769925100714
  0.1603212334940151  0.5052435436644348  0.8346238236910464
  0.1666874963379282  0.6633481365026100  0.0008577477146909
 -0.0004430157325882  0.8305727737693480  0.9839579754351403
  0.0006558175088594  0.6704875085363453  0.1666942905039865
  0.1650957783945256  0.8324415797475077  0.1636080738257353
  0.1223589213718475  0.7198368704034142  0.3260873184513848
  0.0052516078571401  0.8717291750949081  0.2650271520950061
  0.9985482997259930  0.6631212744209384  0.4963436964967004
  0.1733105483652119  0.8342807056504157  0.4989845431896400
  0.1716710603183720  0.6667592275872163  0.6689360205609387
  0.0067815206043623  0.8347601712057949  0.6245072804828862
  0.9990289604128247  0.6652331651907569  0.8293877605986888
  0.1644998072616125  0.8284749254274809  0.8260846070486354
  0.5003818451957515  0.9926852228993601  0.0021745332466787
  0.3286154450882140  0.1644534868426279  0.0016243558352226
  0.3312255202816974  0.0016251779903355  0.1620181142352230
  0.5020852688916033  0.1673767434731769  0.1703184138224462
  0.5011518370650409  0.9984441878670705  0.3400922020208724
  0.3343547616065140  0.1709281686798024  0.3356737402606728
  0.3363101172787836  0.9958305824914729  0.5004858631064738
  0.5054551063589904  0.1569115475607511  0.5022916208630677
  0.5063474590081499  0.9941477597502147  0.6656876719856882
  0.3358041178531292  0.1648584651637156  0.6686569155738432
  0.3324385001404475  0.9975855323495336  0.8359928658472505
  0.5033084022855647  0.1648182951412291  0.8360120988195346
  0.5009783013500427  0.3303014657657177  0.0083522603398667
  0.3268727727228324  0.5031163165278961  0.0070139013170185
  0.3347150360431912  0.3407349254767499  0.1758876470589953
  0.4968596700235481  0.4957259792224684  0.1748790754951401
  0.5007655779041033  0.3351483690914517  0.3366414054345274
  0.3365569760940028  0.4992822017380439  0.3328499297786383
  0.3369825557772846  0.3344028615077428  0.5074280895444052
  0.5031295169523745  0.5008575234092759  0.5008104049311124
  0.5070399416404582  0.3298108939312174  0.6765244994535785
  0.3308192289048545  0.4961234802733933  0.6674923422456234
  0.3355927728327681  0.3316534458075137  0.8385576978777005
  0.5030607451449660  0.4950356883369569  0.8372432502698631
  0.4910494016315710  0.6667274598212608  0.0052250220116933
  0.3341816724354925  0.8325038878902079  0.0020761790651385
  0.3261614919236789  0.6628241593457682  0.1719771525516844
  0.4987823882452768  0.8304950293520532  0.1668171899999089
  0.4987026047427313  0.6617946635524868  0.3407340500676557
  0.3288440140905408  0.8328878297661521  0.3388919328756428
  0.3381990315210559  0.6698993918407309  0.5063771875870853
  0.5026992720730664  0.8299744798469529  0.5011853952878655
  0.5004136269687437  0.6671402924336448  0.6664996517349130
  0.3415099822335775  0.8274319220755054  0.6621943801187613
  0.3287078908782459  0.6639567197964334  0.8385330951081637
  0.5017100518467101  0.8293900138201836  0.8396926786463521
  0.8387964910680614  0.0030644062783838  0.9987973451272797
  0.6737651196341931  0.1624124684277393  0.9986397856729724
  0.6717438689326825  0.9810352562057668  0.1689887127041248
  0.8302146062970733  0.1702266162488453  0.1695248298214573
  0.8380424455042016  0.9989570477018843  0.3273310821178039
  0.6724026226499713  0.1657682019519560  0.3441799370048360
  0.6702235727827893  0.9948154090079407  0.5066425447515539
  0.8362932738114255  0.1627584815300387  0.4999305666120094
  0.8342423825414000  0.9957583778282717  0.6757738817139191
  0.6749323582598593  0.1643193656075255  0.6713193821147200
  0.6736294571808221  0.9927860236620897  0.8300672127861146
  0.8380870958699592  0.1694978126769866  0.8359039284892411
  0.8364595563646289  0.3275883801915397  0.0138176408254972
  0.6654872548078540  0.4967441828580899 -0.0002227468536341
  0.6643643318471077  0.3288378332172086  0.1717905606707283
  0.8359305137395941  0.4959784878326026  0.1667748723383542
  0.8361269824565842  0.3294591026375121  0.3363103962719693
  0.6629197640959120  0.5030382239064806  0.3361404751710425
  0.6689928157858170  0.3272822989713655  0.5093524742270018
  0.8384329798262975  0.5021362861144228  0.5056576776906918
  0.8315438042037367  0.3379537946112497  0.6733868425999501
  0.6715089589229636  0.4936557177781649  0.6723087914952844
  0.6713748763953633  0.3291994987941459  0.8355939753885179
  0.8347581437861438  0.4989775366170087  0.8296373350247392
  0.8327973342600207  0.6638115880742146  0.9932742591902231
  0.6654041080301757  0.8257559717208076  0.9954902318732648
  0.6642491820632470  0.6631367660057216  0.1724658361556864
  0.8117938864750341  0.8328872482585861  0.1626709423907938
  0.8321214353880653  0.6718296243588052  0.3320622038041076
  0.6684773249353611  0.8297603454987045  0.3402244107673121
  0.6708716155892158  0.6702685562084745  0.5012697892422668
  0.8363963638760142  0.8332666376191915  0.4834765245137666
  0.8340620765199154  0.6684424245390868  0.6633953266982282
  0.6640943402200828  0.8232797243643666  0.6696892886647374
  0.6716315497895713  0.6638226986133120  0.8461015154009854
  0.8314071828726144  0.8276133231235316  0.8269779857923072
 
  0.00000000E+00  0.00000000E+00  0.00000000E+00
  0.00000000E+00  0.00000000E+00  0.00000000E+00
  0.00000000E+00  0.00000000E+00  0.00000000E+00
  0.00000000E+00  0.00000000E+00  0.00000000E+00
  0.00000000E+00  0.00000000E+00  0.00000000E+00
  0.00000000E+00  0.00000000E+00  0.00000000E+00
  0.00000000E+00  0.00000000E+00  0.00000000E+00
  0.00000000E+00  0.00000000E+00  0.00000000E+00
  0.00000000E+00  0.00000000E+00  0.00000000E+00
  0.00000000E+00  0.00000000E+00  0.00000000E+00
  0.00000000E+00  0.00000000E+00  0.00000000E+00
  0.00000000E+00  0.00000000E+00  0.00000000E+00
  0.00000000E+00  0.00000000E+00  0.00000000E+00
  0.00000000E+00  0.00000000E+00  0.00000000E+00
  0.00000000E+00  0.00000000E+00  0.00000000E+00
  0.00000000E+00  0.00000000E+00  0.00000000E+00
  0.00000000E+00  0.00000000E+00  0.00000000E+00
  0.00000000E+00  0.00000000E+00  0.00000000E+00
  0.00000000E+00  0.00000000E+00  0.00000000E+00
  0.00000000E+00  0.00000000E+00  0.00000000E+00
  0.00000000E+00  0.00000000E+00  0.00000000E+00
  0.00000000E+00  0.00000000E+00  0.00000000E+00
  0.00000000E+00  0.00000000E+00  0.00000000E+00
  0.00000000E+00  0.00000000E+00  0.00000000E+00
  0.00000000E+00  0.00000000E+00  0.00000000E+00
  0.00000000E+00  0.00000000E+00  0.00000000E+00
  0.00000000E+00  0.00000000E+00  0.00000000E+00
  0.00000000E+00  0.00000000E+00  0.00000000E+00
  0.00000000E+00  0.00000000E+00  0.00000000E+00
  0.00000000E+00  0.00000000E+00  0.00000000E+00
  0.00000000E+00  0.00000000E+00  0.00000000E+00
  0.00000000E+00  0.00000000E+00  0.00000000E+00
  0.00000000E+00  0.00000000E+00  0.00000000E+00
  0.00000000E+00  0.00000000E+00  0.00000000E+00
  0.00000000E+00  0.00000000E+00  0.00000000E+00
  0.00000000E+00  0.00000000E+00  0.00000000E+00
  0.00000000E+00  0.00000000E+00  0.00000000E+00
  0.00000000E+00  0.00000000E+00  0.00000000E+00
  0.00000000E+00  0.00000000E+00  0.00000000E+00
  0.00000000E+00  0.00000000E+00  0.00000000E+00
  0.00000000E+00  0.00000000E+00  0.00000000E+00
  0.00000000E+00  0.00000000E+00  0.00000000E+00
  0.00000000E+00  0.00000000E+00  0.00000000E+00
  0.00000000E+00  0.00000000E+00  0.00000000E+00
  0.00000000E+00  0.00000000E+00  0.00000000E+00
  0.00000000E+00  0.00000000E+00  0.00000000E+00
  0.00000000E+00  0.00000000E+00  0.00000000E+00
  0.00000000E+00  0.00000000E+00  0.00000000E+00
  0.00000000E+00  0.00000000E+00  0.00000000E+00
  0.00000000E+00  0.00000000E+00  0.00000000E+00
  0.00000000E+00  0.00000000E+00  0.00000000E+00
  0.00000000E+00  0.00000000E+00  0.00000000E+00
  0.00000000E+00  0.00000000E+00  0.00000000E+00
  0.00000000E+00  0.00000000E+00  0.00000000E+00
  0.00000000E+00  0.00000000E+00  0.00000000E+00
  0.00000000E+00  0.00000000E+00  0.00000000E+00
  0.00000000E+00  0.00000000E+00  0.00000000E+00
  0.00000000E+00  0.00000000E+00  0.00000000E+00
  0.00000000E+00  0.00000000E+00  0.00000000E+00
  0.00000000E+00  0.00000000E+00  0.00000000E+00
  0.00000000E+00  0.00000000E+00  0.00000000E+00
  0.00000000E+00  0.00000000E+00  0.00000000E+00
  0.00000000E+00  0.00000000E+00  0.00000000E+00
  0.00000000E+00  0.00000000E+00  0.00000000E+00
  0.00000000E+00  0.00000000E+00  0.00000000E+00
  0.00000000E+00  0.00000000E+00  0.00000000E+00
  0.00000000E+00  0.00000000E+00  0.00000000E+00
  0.00000000E+00  0.00000000E+00  0.00000000E+00
  0.00000000E+00  0.00000000E+00  0.00000000E+00
  0.00000000E+00  0.00000000E+00  0.00000000E+00
  0.00000000E+00  0.00000000E+00  0.00000000E+00
  0.00000000E+00  0.00000000E+00  0.00000000E+00
  0.00000000E+00  0.00000000E+00  0.00000000E+00
  0.00000000E+00  0.00000000E+00  0.00000000E+00
  0.00000000E+00  0.00000000E+00  0.00000000E+00
  0.00000000E+00  0.00000000E+00  0.00000000E+00
  0.00000000E+00  0.00000000E+00  0.00000000E+00
  0.00000000E+00  0.00000000E+00  0.00000000E+00
  0.00000000E+00  0.00000000E+00  0.00000000E+00
  0.00000000E+00  0.00000000E+00  0.00000000E+00
  0.00000000E+00  0.00000000E+00  0.00000000E+00
  0.00000000E+00  0.00000000E+00  0.00000000E+00
  0.00000000E+00  0.00000000E+00  0.00000000E+00
  0.00000000E+00  0.00000000E+00  0.00000000E+00
  0.00000000E+00  0.00000000E+00  0.00000000E+00
  0.00000000E+00  0.00000000E+00  0.00000000E+00
  0.00000000E+00  0.00000000E+00  0.00000000E+00
  0.00000000E+00  0.00000000E+00  0.00000000E+00
  0.00000000E+00  0.00000000E+00  0.00000000E+00
  0.00000000E+00  0.00000000E+00  0.00000000E+00
  0.00000000E+00  0.00000000E+00  0.00000000E+00
  0.00000000E+00  0.00000000E+00  0.00000000E+00
  0.00000000E+00  0.00000000E+00  0.00000000E+00
  0.00000000E+00  0.00000000E+00  0.00000000E+00
  0.00000000E+00  0.00000000E+00  0.00000000E+00
  0.00000000E+00  0.00000000E+00  0.00000000E+00
  0.00000000E+00  0.00000000E+00  0.00000000E+00
  0.00000000E+00  0.00000000E+00  0.00000000E+00
  0.00000000E+00  0.00000000E+00  0.00000000E+00
  0.00000000E+00  0.00000000E+00  0.00000000E+00
  0.00000000E+00  0.00000000E+00  0.00000000E+00
  0.00000000E+00  0.00000000E+00  0.00000000E+00
  0.00000000E+00  0.00000000E+00  0.00000000E+00
  0.00000000E+00  0.00000000E+00  0.00000000E+00
  0.00000000E+00  0.00000000E+00  0.00000000E+00
  0.00000000E+00  0.00000000E+00  0.00000000E+00
  0.00000000E+00  0.00000000E+00  0.00000000E+00
  0.00000000E+00  0.00000000E+00  0.00000000E+00
  0.00000000E+00  0.00000000E+00  0.00000000E+00
  0.00000000E+00  0.00000000E+00  0.00000000E+00
  0.00000000E+00  0.00000000E+00  0.00000000E+00
  0.00000000E+00  0.00000000E+00  0.00000000E+00
  0.00000000E+00  0.00000000E+00  0.00000000E+00
  0.00000000E+00  0.00000000E+00  0.00000000E+00
  0.00000000E+00  0.00000000E+00  0.00000000E+00
  0.00000000E+00  0.00000000E+00  0.00000000E+00
  0.00000000E+00  0.00000000E+00  0.00000000E+00
  0.00000000E+00  0.00000000E+00  0.00000000E+00
  0.00000000E+00  0.00000000E+00  0.00000000E+00
  0.00000000E+00  0.00000000E+00  0.00000000E+00
  0.00000000E+00  0.00000000E+00  0.00000000E+00
  0.00000000E+00  0.00000000E+00  0.00000000E+00
  0.00000000E+00  0.00000000E+00  0.00000000E+00
  0.00000000E+00  0.00000000E+00  0.00000000E+00
  0.00000000E+00  0.00000000E+00  0.00000000E+00
  0.00000000E+00  0.00000000E+00  0.00000000E+00
  0.00000000E+00  0.00000000E+00  0.00000000E+00
  0.00000000E+00  0.00000000E+00  0.00000000E+00
  0.00000000E+00  0.00000000E+00  0.00000000E+00
  0.00000000E+00  0.00000000E+00  0.00000000E+00
  0.00000000E+00  0.00000000E+00  0.00000000E+00
  0.00000000E+00  0.00000000E+00  0.00000000E+00
  0.00000000E+00  0.00000000E+00  0.00000000E+00
  0.00000000E+00  0.00000000E+00  0.00000000E+00
  0.00000000E+00  0.00000000E+00  0.00000000E+00
  0.00000000E+00  0.00000000E+00  0.00000000E+00
  0.00000000E+00  0.00000000E+00  0.00000000E+00
  0.00000000E+00  0.00000000E+00  0.00000000E+00
  0.00000000E+00  0.00000000E+00  0.00000000E+00
  0.00000000E+00  0.00000000E+00  0.00000000E+00
  0.00000000E+00  0.00000000E+00  0.00000000E+00
  0.00000000E+00  0.00000000E+00  0.00000000E+00
  0.00000000E+00  0.00000000E+00  0.00000000E+00
  0.00000000E+00  0.00000000E+00  0.00000000E+00
  0.00000000E+00  0.00000000E+00  0.00000000E+00
  0.00000000E+00  0.00000000E+00  0.00000000E+00
  0.00000000E+00  0.00000000E+00  0.00000000E+00
  0.00000000E+00  0.00000000E+00  0.00000000E+00
  0.00000000E+00  0.00000000E+00  0.00000000E+00
  0.00000000E+00  0.00000000E+00  0.00000000E+00
  0.00000000E+00  0.00000000E+00  0.00000000E+00
  0.00000000E+00  0.00000000E+00  0.00000000E+00
  0.00000000E+00  0.00000000E+00  0.00000000E+00
  0.00000000E+00  0.00000000E+00  0.00000000E+00
  0.00000000E+00  0.00000000E+00  0.00000000E+00
  0.00000000E+00  0.00000000E+00  0.00000000E+00
  0.00000000E+00  0.00000000E+00  0.00000000E+00
  0.00000000E+00  0.00000000E+00  0.00000000E+00
  0.00000000E+00  0.00000000E+00  0.00000000E+00
  0.00000000E+00  0.00000000E+00  0.00000000E+00
  0.00000000E+00  0.00000000E+00  0.00000000E+00
  0.00000000E+00  0.00000000E+00  0.00000000E+00
  0.00000000E+00  0.00000000E+00  0.00000000E+00
  0.00000000E+00  0.00000000E+00  0.00000000E+00
  0.00000000E+00  0.00000000E+00  0.00000000E+00
  0.00000000E+00  0.00000000E+00  0.00000000E+00
  0.00000000E+00  0.00000000E+00  0.00000000E+00
  0.00000000E+00  0.00000000E+00  0.00000000E+00
  0.00000000E+00  0.00000000E+00  0.00000000E+00
  0.00000000E+00  0.00000000E+00  0.00000000E+00
  0.00000000E+00  0.00000000E+00  0.00000000E+00
  0.00000000E+00  0.00000000E+00  0.00000000E+00
  0.00000000E+00  0.00000000E+00  0.00000000E+00
  0.00000000E+00  0.00000000E+00  0.00000000E+00
  0.00000000E+00  0.00000000E+00  0.00000000E+00
  0.00000000E+00  0.00000000E+00  0.00000000E+00
  0.00000000E+00  0.00000000E+00  0.00000000E+00
  0.00000000E+00  0.00000000E+00  0.00000000E+00
  0.00000000E+00  0.00000000E+00  0.00000000E+00
  0.00000000E+00  0.00000000E+00  0.00000000E+00
  0.00000000E+00  0.00000000E+00  0.00000000E+00
  0.00000000E+00  0.00000000E+00  0.00000000E+00
  0.00000000E+00  0.00000000E+00  0.00000000E+00
  0.00000000E+00  0.00000000E+00  0.00000000E+00
  0.00000000E+00  0.00000000E+00  0.00000000E+00
  0.00000000E+00  0.00000000E+00  0.00000000E+00
  0.00000000E+00  0.00000000E+00  0.00000000E+00
  0.00000000E+00  0.00000000E+00  0.00000000E+00
  0.00000000E+00  0.00000000E+00  0.00000000E+00
  0.00000000E+00  0.00000000E+00  0.00000000E+00
  0.00000000E+00  0.00000000E+00  0.00000000E+00
  0.00000000E+00  0.00000000E+00  0.00000000E+00
  0.00000000E+00  0.00000000E+00  0.00000000E+00
  0.00000000E+00  0.00000000E+00  0.00000000E+00
