Ta Ge Sb Te                             
   1.00000000000000     
    17.5683608826378666    0.0000000000000000    0.0000000000000000
     0.0000000000000000   17.5683608826378666    0.0000000000000000
     0.0000000000000000    0.0000000000000000   17.5683608826378666
   Ta   Ge   Sb   Te
     8    32    32    80
Direct
  0.8114665643054833  0.3564596468864699  0.6720891570852314
  0.0058002138095490  0.7430522228939641  0.1806107593290135
  0.7910674029425904  0.3183367318404173  0.8299635281887966
  0.2898806143249980  0.2809798544038636  0.5816817963752104
  0.4985260996461753  0.8005326321142716  0.1668177958482544
  0.2537824528784932  0.4037605982097321  0.7214938742462016
  0.7481733882337400  0.1927681842719929  0.7041315527666286
  0.3013427044569679  0.0084200498881324  0.1761809818320624
  0.0159620487860208  0.8897885558442804  0.5677773651651826
  0.5743626410001899  0.3181125755589648  0.5500002334219080
  0.1271912249920160  0.6152378092543235  0.5775118939803944
  0.5270620921546871  0.6996212400385624  0.3893836750754188
  0.1945103211117288  0.6260970783921544  0.2242006374815915
  0.3520995580293344  0.7894327602958969  0.0303995302860784
  0.5982732169284295  0.9082938673178668  0.2218999808584824
  0.6970088470944470  0.1795931660772975  0.3885576086598967
  0.4537368293306654  0.2398046419416766  0.1134206975496549
  0.5030511224586883  0.1614038968512745  0.7636306054908436
  0.9002454591088304  0.3487288654749717  0.9167951042297339
  0.3374174569673060  0.2624473816110977  0.2285598222225931
  0.7287613422085215  0.1332085758314560  0.2497468794634238
  0.1768471879291661  0.8332676450212239  0.7402225331422155
  0.8075330406376323  0.4916923338378215  0.6130511266643370
  0.7561385007608634  0.3776041526579110  0.1210489595753666
  0.0215830002368515  0.7688033515769345  0.4578237013570628
  0.3419691756999296  0.5096667687564937  0.7863822196482582
  0.4385420693844432  0.2762448439440527  0.3823631675040348
  0.1167544317017182  0.8182375542536676  0.2959899414619442
  0.1582094044549895  0.0249263366491643  0.6240824549124792
  0.3247092582258194  0.1407701543406972  0.0092773893978280
  0.6513348981673406  0.5963918157282799  0.2233402932624907
  0.8728200677679633  0.1285080986579056  0.1056738296714413
  0.6921390387830570  0.4847463170934934  0.8599483727999484
  0.0714525707510541  0.9129263435306157  0.7995738929144841
  0.3228021418301347  0.0112412547422239  0.5039304616505577
  0.6976021497096994  0.3880475603041540  0.5645337757305636
  0.3466732625489568  0.1670771442294153  0.8536226799831473
  0.5556834896464434  0.4822458154569907  0.4459307440983709
  0.0174629485823739  0.2935751102526518  0.0936089038090016
  0.4139970671374434  0.9152166519167707  0.2038603726497742
  0.0447096714094297  0.3101534985490073  0.8909210386367606
  0.5039033264701163  0.8534327269341488  0.6799699273442777
  0.8043918348855315  0.2304145414585781  0.5443068633231878
  0.2249898700776610  0.1421009593105872  0.5256825783878875
  0.8493751113904079  0.8313398923865176  0.5786588382128679
  0.6636307343598121  0.8057591576970562  0.6587416538176991
  0.7454915508304208  0.5052533236992141  0.4683257328547513
  0.5859716985387879  0.0605782347399451  0.2166043886431928
  0.5168377192638969  0.9837297761261855  0.5680511144768289
  0.1413042648838920  0.8625176492925515  0.0174705058231144
  0.3805916175353031  0.6540567062344353  0.7199177264175014
  0.8171531504424100  0.7813868523314407  0.7397038052679872
  0.0845392259956691  0.4931737848590383  0.1587068737773524
  0.3608593955887568  0.7689100434291394  0.8412052087758228
  0.5550303354272186  0.5358876479850840  0.9367385634584418
  0.4203511406384318  0.6448103539706919  0.9568850284607772
  0.3267238374633374  0.5724693284191349  0.5157251782810364
  0.0438907448010805  0.1378491662989123  0.2824387381889459
  0.7385170437814461  0.8622280306719092  0.2842248701344404
  0.8183293719591046  0.5706367172720701  0.0817574402289701
  0.8029594379492332  0.6915594569604820  0.4953940414895439
  0.4174627160651087  0.1029750766155260  0.4073044161710520
  0.6552034723084922  0.6703509041909852  0.5823948310011154
  0.8126382093587393  0.0129406901084968  0.1989118692362901
  0.6585172938514943  0.6676195503591167  0.9723108519164009
  0.1521051433502566  0.3640630375117920  0.5670840269531693
  0.0963260346179175  0.4071104243477138  0.7170488524072967
  0.3238183129198538  0.4203110574479877  0.2643017088056329
  0.7614110189001340  0.9963503486826075  0.3727096155557330
  0.3394191495049740  0.9247645446759900  0.7378815411877491
  0.0587441821547299  0.7547804088705686  0.6513016834314241
  0.6427760585395951  0.8930901937900911  0.8648481652891311
  0.6812102219537359  0.0219017029229803  0.0767289612880385
  0.5883782285098073  0.0682403001422806  0.3867561162337878
  0.7737740481336411  0.4219708110326676  0.2735822386193010
  0.5049704949801319  0.8573135164284504  0.3247230675211961
  0.2524162003461172  0.2708238203635823  0.4276964407878900
  0.1802096146222532  0.5018996849345251  0.4801494123050560
  0.5943808210212009  0.3063736270118022  0.3886229477812341
  0.4304574910214141  0.0745086596238993  0.1133129798161422
  0.1233151867827638  0.6897722025712474  0.0971169464159607
  0.9420406218267094  0.3508952244507879  0.5712235639005389
  0.0386884813349021  0.6157148491358885  0.2742873403705585
  0.4200597736999620  0.4259462333026530  0.4297547189487417
  0.4624861290673926  0.3804668466897049  0.1947798887936284
  0.7117345553540662  0.8585394650222233  0.0096563506186839
  0.9051392059882687  0.4308887263598955  0.0583668296270569
  0.1229011822736516  0.3925909355268159  0.9990059696414946
  0.7911616957227070  0.5739994567475879  0.2622288131948361
  0.2248319616453120  0.2360828610575530  0.7068370809828297
  0.1997921923001416  0.0975039850248658  0.0966910163596389
  0.2958680647405599  0.9300492380783090  0.0285878269840432
  0.4698802381606670  0.6409685170950986  0.1286412939664861
  0.6868017454624389  0.3365669322058661  0.9432036182171466
  0.6716179332820469  0.7696881339989461  0.4101124745762569
  0.7856691130327701  0.1564727031225511  0.8522151867212695
  0.9122723255255378  0.7271270989930899  0.0713483672491833
  0.7911725060598772  0.5894383912189652  0.9122921999193774
  0.3741333699039641  0.3969192845214295  0.6294181689460728
  0.8265647672196587  0.0853440572986091  0.6153825304450715
  0.0174051580311749  0.9963302259840593  0.6832056137741922
  0.3494316800135246  0.7485099711932909  0.1826294916973042
  0.9765210780943180  0.7836441146942714  0.8019253618737098
  0.0159028047644020  0.2387935090303066  0.4082177602581689
  0.4984611869535751  0.5183661111295421  0.7802330577469311
  0.6598639913833997  0.0724038804170321  0.9154153809927416
  0.1946944146392911  0.9028800689940982  0.5343024664489442
  0.9308491216518000  0.7530047297740387  0.3139614079944842
  0.2191842396811261  0.0271641472365303  0.7743818938319763
  0.1632747452064196  0.7187706906614245  0.4293697003143782
  0.3839718446950738  0.0613676451200797  0.6381701679061809
  0.9132094082800652  0.2123997768795318  0.2226671249031139
  0.6956436753223600  0.5604110419541859  0.6944265442484221
  0.5310215285716005  0.5522948732430422  0.3070974798661362
  0.4401450141645902  0.8544154628532368  0.5348025275999034
  0.9861939521567662  0.6108506623088416  0.4795551594564418
  0.0463172823439841  0.8970168712600637  0.1469995047081478
  0.6362795520377549  0.0868890713130300  0.7529682689506946
  0.5013688619591173  0.8452811620320112  0.0241378699199177
  0.0021136452330883  0.1748763337925267  0.9894409766526118
  0.4336156549816733  0.2095594454254410  0.5290389271058157
  0.1683422420473485  0.5436439641513925  0.7342786069791033
  0.2800822123024562  0.0964361858481885  0.2961683658506306
  0.8674067976609658  0.4014370484920396  0.4298587729693095
  0.5040915325200824  0.6167323979291133  0.5306581209678543
  0.9268920154849750  0.0123121068072578  0.3313579481346260
  0.3532327433854855  0.6654305250257999  0.3863411224852475
  0.8770375548841959  0.4404877955192153  0.7845462682734214
  0.0788022468231337  0.3779660349466464  0.2796951696100017
  0.6568579681974817  0.5049397145991581  0.0918572762924553
  0.0702806507262614  0.9338021445858824  0.3937414367400480
  0.2438321850385044  0.5123855994387219  0.1351872972621571
  0.4843526094718348  0.2178415017056010  0.9070681262699918
  0.4291823491106584  0.0321814819673597  0.8379051522841544
  0.6070262181768948  0.7356706334923683  0.8235855500479566
  0.6402528255296536  0.1806018122290525  0.5768957058586293
  0.0591731280308953  0.1323442334591317  0.5245931364707128
  0.7831751613485460  0.9297460511480145  0.7882366363825717
  0.3155730619065925  0.2835316609862422  0.0675479675592165
  0.2639863160019172  0.8902334687326340  0.2693153796650584
  0.6673470827933446  0.3242179984832512  0.7256704115204572
  0.1333944247732611  0.2556748123073164  0.1872894896171614
  0.2727592586532797  0.7027979110970142  0.6076416163557028
  0.8986387696167929  0.2389037875792916  0.7394282579644219
  0.9014168101580122  0.6187411395642393  0.6263585618709908
  0.2981449459292021  0.5499800432968348  0.9310442757848558
  0.6434907868917924  0.7411310530226638  0.1619103810307724
  0.0598057668509053  0.9865914607896391  0.9372328015439246
  0.2806945333390458  0.3564091959053166  0.8594918043959473
  0.2021637235248470  0.7551986018398155  0.8644449513097370
  0.7338462758110789  0.1982292586843341  0.0919151604037363
  0.7130861887114293  0.9221542031076648  0.5496131816453723
 
  0.41478210E-03 -0.18964474E-02  0.20174284E-02
  0.58317637E-03  0.37710671E-03  0.83777223E-03
 -0.98259997E-03 -0.14730666E-03  0.79608230E-03
 -0.14015526E-02  0.15766349E-02  0.14523965E-02
 -0.12017404E-02 -0.15256615E-02 -0.12211597E-02
  0.28406110E-03  0.78956991E-03 -0.53539625E-04
 -0.17693433E-03 -0.11578470E-03 -0.91174274E-03
  0.17731262E-03  0.47907181E-03  0.51287492E-03
 -0.21578967E-03 -0.30524511E-02  0.25582103E-03
  0.12619435E-02 -0.62887742E-03 -0.27232296E-02
 -0.18929695E-02  0.99923861E-03 -0.15097925E-02
 -0.32202312E-02 -0.12095989E-02  0.19805368E-02
 -0.20081447E-03 -0.18473911E-02 -0.29318647E-03
 -0.12868702E-03  0.10498652E-02 -0.92973566E-03
 -0.59625584E-03 -0.15607741E-02  0.16434798E-02
 -0.57258542E-03  0.70565864E-04  0.26333037E-02
 -0.44051192E-03 -0.13787268E-02 -0.27038288E-02
  0.25066920E-02  0.11103031E-02  0.10190711E-02
 -0.20047223E-02 -0.26952165E-02 -0.54388205E-03
  0.70299237E-03  0.49372094E-03  0.18646809E-02
  0.23632266E-02  0.82433892E-03 -0.40326992E-02
  0.20080802E-02  0.19133524E-02 -0.10064821E-02
  0.32008767E-03 -0.32363954E-02 -0.85841361E-03
  0.17405801E-02  0.25549861E-02  0.42346962E-03
 -0.70737401E-04  0.15917023E-02  0.10972349E-02
  0.16163509E-02  0.86148452E-03 -0.10164020E-02
 -0.79665455E-03  0.29867964E-03  0.81221602E-03
 -0.18462122E-03 -0.27448773E-02 -0.12285479E-02
 -0.10510547E-02  0.23662433E-02  0.10616827E-02
  0.99029447E-03  0.61183658E-02 -0.19510488E-02
  0.13925030E-02  0.35037492E-03 -0.14178227E-02
 -0.12826998E-02 -0.25340104E-03  0.13298581E-02
  0.53106661E-03 -0.16406070E-02 -0.17382988E-02
  0.12644525E-02  0.13472749E-02  0.10780952E-02
 -0.16730040E-02  0.18440989E-02 -0.13018969E-02
 -0.11551567E-02 -0.34373810E-02 -0.47280657E-03
 -0.20061164E-02 -0.13365984E-02 -0.54524400E-03
  0.35941939E-03 -0.18566294E-02 -0.17330896E-02
 -0.10527685E-02  0.11075792E-03 -0.28527978E-02
  0.14905158E-02 -0.22167306E-02  0.10814794E-02
  0.96112560E-03  0.51889919E-05  0.88424137E-03
 -0.16495145E-03  0.12678477E-02 -0.35283242E-02
 -0.11947163E-02  0.17399244E-03  0.39259634E-03
  0.70190128E-04  0.39708607E-03 -0.24329992E-02
  0.17109332E-02  0.72102306E-03 -0.90156840E-03
 -0.24719646E-02  0.11962719E-02  0.65985652E-03
 -0.22222905E-02 -0.11708307E-02 -0.60537593E-04
 -0.20203500E-02  0.22459005E-02 -0.88455381E-03
 -0.51984735E-03 -0.10855010E-02 -0.50727611E-04
  0.10439620E-02  0.20293718E-02 -0.83700632E-04
  0.94810900E-03  0.85737254E-03 -0.84228840E-03
  0.15261071E-02 -0.37576505E-03  0.41715991E-03
 -0.14601294E-02  0.37132910E-03 -0.77430553E-03
  0.19497162E-02  0.31862496E-03  0.17624846E-02
 -0.50088187E-03  0.13259370E-02 -0.80265957E-03
  0.28895317E-02 -0.18186794E-02 -0.76300698E-03
 -0.15486055E-02  0.18054155E-02  0.10279374E-02
  0.65446492E-03 -0.21036057E-03 -0.63059056E-03
 -0.83235828E-03  0.54763056E-04  0.29308667E-03
 -0.19993985E-02 -0.87008373E-03  0.23436507E-02
  0.37950716E-03  0.15884403E-02 -0.23849375E-02
  0.12161924E-02  0.75287362E-03 -0.11012745E-02
  0.49505777E-03  0.20071841E-03  0.14528529E-03
 -0.12337774E-02  0.14205049E-02  0.26147132E-02
 -0.14226990E-02  0.37377928E-03  0.53148378E-03
 -0.34457898E-03  0.26885028E-03 -0.99640957E-03
 -0.20776144E-02  0.16420068E-02 -0.10186572E-02
 -0.84041704E-03  0.10108883E-02 -0.11097338E-02
  0.15947618E-03 -0.29223615E-02  0.83200223E-03
 -0.83474704E-03 -0.19768024E-03  0.11503687E-02
 -0.75013843E-03 -0.40644085E-03 -0.13107444E-02
  0.70871774E-03 -0.12646380E-02 -0.19614943E-02
  0.18899793E-02  0.13249474E-02 -0.36387230E-04
  0.92425818E-03  0.13386393E-02 -0.18051334E-03
  0.41999825E-03 -0.20626568E-02 -0.70082723E-03
  0.17623659E-02  0.17168085E-02 -0.73296339E-03
 -0.17025570E-02  0.10883026E-03  0.39254564E-04
 -0.60623859E-03 -0.16816365E-02  0.76987998E-03
  0.27045785E-03 -0.74667971E-03 -0.14882064E-03
  0.17269896E-02 -0.22713085E-02 -0.26172931E-02
  0.57053368E-03  0.13132840E-02  0.15844309E-02
 -0.20085381E-02  0.18887930E-02 -0.68054551E-03
 -0.54760434E-03 -0.67541450E-03  0.31819618E-03
  0.38787970E-04 -0.55195750E-04  0.50931288E-03
 -0.25183855E-03  0.72872721E-03  0.34641574E-02
  0.27356132E-02 -0.22432625E-02 -0.14648215E-02
 -0.71037245E-03 -0.10982732E-02  0.66055415E-03
  0.17515753E-02 -0.86180065E-03 -0.34452492E-03
 -0.11647281E-02  0.12297342E-02 -0.13499792E-02
  0.42515051E-04 -0.11449215E-02  0.31392803E-03
  0.15526298E-03 -0.23956188E-02 -0.13089750E-02
 -0.98490830E-03  0.18717773E-02 -0.96401974E-03
 -0.38050537E-03 -0.32214848E-02  0.26620029E-02
  0.43864360E-03 -0.22746517E-02 -0.13405354E-02
 -0.43211209E-03 -0.16791736E-03  0.38062518E-03
 -0.10501548E-02  0.37150840E-04  0.34465194E-03
 -0.32899168E-03 -0.14436826E-02 -0.59447125E-03
  0.31306040E-02  0.32462944E-03 -0.31115910E-02
  0.74204022E-03  0.13685673E-02 -0.70060017E-03
  0.27901460E-02 -0.15386678E-02  0.88032417E-03
  0.27901950E-02  0.16372666E-03 -0.62812711E-04
 -0.53420688E-04  0.30147356E-02 -0.10702911E-03
  0.39657962E-03 -0.23274724E-03  0.15272924E-02
 -0.25120381E-02 -0.98430784E-03  0.37983834E-03
 -0.54872652E-03  0.17662141E-03  0.58793180E-03
  0.52399722E-03  0.32135610E-03 -0.76398941E-03
  0.18690580E-03 -0.27499510E-02 -0.50506539E-03
  0.14765767E-02  0.17331039E-03  0.58568768E-03
 -0.22858394E-02 -0.65182833E-03 -0.94860863E-03
  0.36350724E-03 -0.72900904E-03  0.11010406E-02
 -0.12247788E-02  0.38358750E-03  0.10380296E-03
  0.15580696E-03  0.54120136E-03 -0.15693752E-02
 -0.12427311E-02 -0.72562988E-03  0.85887527E-03
 -0.83736876E-03 -0.12796028E-02 -0.29103539E-02
  0.61245065E-03 -0.15650257E-02  0.79028133E-05
 -0.54002525E-03  0.26504875E-03  0.20347440E-02
 -0.77507297E-03  0.18578402E-02 -0.72838891E-03
 -0.13078477E-02 -0.13599048E-02 -0.43671602E-03
  0.16330665E-02 -0.36906651E-02  0.21468766E-02
 -0.16900391E-02  0.43142922E-04  0.20358385E-02
  0.13329636E-02  0.23825716E-02  0.30444868E-02
  0.95850328E-04  0.16034861E-02 -0.17960030E-02
 -0.44795956E-03  0.10716940E-02 -0.13096233E-02
 -0.13112928E-02 -0.29361870E-03  0.13084392E-02
  0.15698330E-02  0.18178650E-02 -0.13632882E-02
  0.23645066E-04 -0.16810072E-02  0.51724852E-03
 -0.69431894E-03  0.10254802E-02  0.14815219E-02
 -0.59195927E-03 -0.67392692E-03  0.23272088E-02
  0.94966728E-03 -0.20446552E-02 -0.15142018E-02
  0.16529575E-02  0.45035013E-03  0.17230250E-02
  0.77633913E-03  0.35979454E-03 -0.80988607E-03
 -0.71490625E-03 -0.15573265E-02  0.29130516E-02
 -0.72214764E-03 -0.14259704E-02 -0.18655192E-02
  0.18919441E-02 -0.23174153E-02 -0.35473303E-03
  0.17286165E-02  0.19911525E-02  0.14530085E-02
  0.88563734E-03  0.54441866E-03  0.30667197E-02
  0.15232456E-02  0.18314290E-02 -0.30674885E-02
  0.10467381E-04  0.21897466E-02 -0.13859520E-02
  0.39558807E-03  0.33356850E-02 -0.96575473E-04
  0.67216598E-03  0.78824790E-03  0.92952045E-03
  0.11228290E-02 -0.31187507E-02 -0.11334928E-02
 -0.19712239E-02 -0.74039088E-03 -0.28571970E-03
  0.26011386E-02 -0.48624237E-03  0.14367342E-02
 -0.72784625E-03  0.11168232E-02  0.34170590E-04
 -0.19458878E-03 -0.22603968E-02  0.23901170E-02
  0.36838437E-02  0.30855820E-02  0.22504582E-02
 -0.14776990E-02 -0.89866230E-03  0.18366651E-02
 -0.40710508E-03  0.30741833E-02 -0.13207239E-02
 -0.14326286E-03 -0.19159585E-02 -0.32511833E-03
 -0.18620084E-02  0.21422452E-03 -0.14241401E-03
 -0.17687531E-02  0.18173752E-02  0.18875351E-03
 -0.15869805E-02  0.27225545E-02  0.13651772E-02
 
           1
   3.00000000000000     
  0.10000000E+01  0.00000000E+00  0.00000000E+00  0.00000000E+00
  0.81153699E+00  0.35613764E+00  0.67243171E+00
  0.58992343E-02  0.74311625E+00  0.18075301E+00
  0.79090056E+00  0.31831172E+00  0.83009870E+00
  0.28964264E+00  0.28124756E+00  0.58192841E+00
  0.49832205E+00  0.80027358E+00  0.16661045E+00
  0.25383069E+00  0.40389466E+00  0.72148478E+00
  0.74814335E+00  0.19274852E+00  0.70397674E+00
  0.30137281E+00  0.85013939E-02  0.17626807E+00
  0.15925409E-01  0.88927026E+00  0.56782080E+00
  0.57457691E+00  0.31800580E+00  0.54953784E+00
  0.12686981E+00  0.61540748E+00  0.57725554E+00
  0.52651531E+00  0.69941586E+00  0.38971996E+00
  0.19447622E+00  0.62578340E+00  0.22415086E+00
  0.35207771E+00  0.78961102E+00  0.30241666E-01
  0.59817198E+00  0.90802886E+00  0.22217904E+00
  0.69691162E+00  0.17960515E+00  0.38900473E+00
  0.45366203E+00  0.23957054E+00  0.11296160E+00
  0.50347675E+00  0.16159242E+00  0.76380364E+00
  0.89990507E+00  0.34827123E+00  0.91670276E+00
  0.33753682E+00  0.26253121E+00  0.22887644E+00
  0.72916261E+00  0.13334854E+00  0.24906215E+00
  0.17718815E+00  0.83359252E+00  0.74005164E+00
  0.80758739E+00  0.49114281E+00  0.61290537E+00
  0.75643404E+00  0.37803798E+00  0.12112086E+00
  0.21570989E-01  0.76907361E+00  0.45801001E+00
  0.34224362E+00  0.50981304E+00  0.78620964E+00
  0.43840680E+00  0.27629556E+00  0.38250108E+00
  0.11672308E+00  0.81777149E+00  0.29578134E+00
  0.15803094E+00  0.25328113E-01  0.62426272E+00
  0.32487741E+00  0.14180902E+00  0.89461110E-02
  0.65157134E+00  0.59645131E+00  0.22309955E+00
  0.87260227E+00  0.12846507E+00  0.10589963E+00
  0.69222921E+00  0.48446775E+00  0.85965322E+00
  0.71667269E-01  0.91315510E+00  0.79975695E+00
  0.32251807E+00  0.11554374E-01  0.50370941E+00
  0.69740601E+00  0.38746391E+00  0.56445350E+00
  0.34633263E+00  0.16685020E+00  0.85353010E+00
  0.55574452E+00  0.48193057E+00  0.44563647E+00
  0.17284194E-01  0.29359392E+00  0.93124513E-01
  0.41425015E+00  0.91484026E+00  0.20404400E+00
  0.44872866E-01  0.31015438E+00  0.89107118E+00
  0.50387532E+00  0.85364800E+00  0.67937084E+00
  0.80418898E+00  0.23044408E+00  0.54437352E+00
  0.22500179E+00  0.14216838E+00  0.52526947E+00
  0.84966562E+00  0.83146232E+00  0.57850576E+00
  0.66321101E+00  0.80596228E+00  0.65885369E+00
  0.74511422E+00  0.50505452E+00  0.46831545E+00
  0.58562865E+00  0.60959577E-01  0.21645420E+00
  0.51674945E+00  0.98354546E+00  0.56804250E+00
  0.14148152E+00  0.86286223E+00  0.17456294E-01
  0.38075260E+00  0.65420228E+00  0.71977471E+00
  0.81741228E+00  0.78132305E+00  0.73977464E+00
  0.84291303E-01  0.49323683E+00  0.15857540E+00
  0.36119045E+00  0.76896414E+00  0.84150447E+00
  0.55494529E+00  0.53611279E+00  0.93660228E+00
  0.42084177E+00  0.64450155E+00  0.95675547E+00
  0.32646089E+00  0.57277588E+00  0.51589972E+00
  0.44001870E-01  0.13781345E+00  0.28233167E+00
  0.73837571E+00  0.86223733E+00  0.28427463E+00
  0.81798988E+00  0.57048898E+00  0.82155380E-01
  0.80302388E+00  0.69182917E+00  0.49498909E+00
  0.41766922E+00  0.10310291E+00  0.40711743E+00
  0.65528753E+00  0.67038499E+00  0.58241950E+00
  0.81242872E+00  0.13181885E-01  0.19935583E+00
  0.65827573E+00  0.66768302E+00  0.97240110E+00
  0.15204664E+00  0.36410869E+00  0.56691484E+00
  0.95973266E-01  0.40738923E+00  0.71687589E+00
  0.32367561E+00  0.42048270E+00  0.26411328E+00
  0.76143810E+00  0.99585415E+00  0.37285089E+00
  0.33927741E+00  0.92473098E+00  0.73807687E+00
  0.58616812E-01  0.75471140E+00  0.65107913E+00
  0.64289640E+00  0.89287546E+00  0.86451511E+00
  0.68153113E+00  0.22126672E-01  0.76722783E-01
  0.58853516E+00  0.68467594E-01  0.38672547E+00
  0.77384536E+00  0.42162058E+00  0.27346324E+00
  0.50526974E+00  0.85760502E+00  0.32459861E+00
  0.25212711E+00  0.27084230E+00  0.42770311E+00
  0.18010668E+00  0.50161415E+00  0.48028013E+00
  0.59442674E+00  0.30624684E+00  0.38859768E+00
  0.43075073E+00  0.74123003E-01  0.11286858E+00
  0.12341206E+00  0.68999519E+00  0.97385975E-01
  0.94169958E+00  0.35121593E+00  0.57110801E+00
  0.38595501E-01  0.61560017E+00  0.27434137E+00
  0.42006636E+00  0.42593686E+00  0.42984120E+00
  0.46244337E+00  0.38059058E+00  0.19536809E+00
  0.71219905E+00  0.85815857E+00  0.94076312E-02
  0.90501859E+00  0.43070225E+00  0.58478988E-01
  0.12319859E+00  0.39244461E+00  0.99894747E+00
  0.79096393E+00  0.57420826E+00  0.26199959E+00
  0.22483918E+00  0.23588846E+00  0.70689038E+00
  0.19981856E+00  0.97097221E-01  0.96468759E-01
  0.29570083E+00  0.93036706E+00  0.28424141E-01
  0.46981563E+00  0.64042152E+00  0.12909329E+00
  0.68687622E+00  0.33618071E+00  0.94297600E+00
  0.67154456E+00  0.76965962E+00  0.41017710E+00
  0.78549080E+00  0.15647901E+00  0.85227371E+00
  0.91221646E+00  0.72688197E+00  0.71247429E-01
  0.79170407E+00  0.58949351E+00  0.91176387E+00
  0.37425936E+00  0.39715166E+00  0.62929921E+00
  0.82703852E+00  0.85082799E-01  0.61553201E+00
  0.17878919E-01  0.99635803E+00  0.68319495E+00
  0.34942261E+00  0.74902186E+00  0.18261132E+00
  0.97658842E+00  0.78360460E+00  0.80218469E+00
  0.15476273E-01  0.23862638E+00  0.40828225E+00
  0.49836802E+00  0.51839610E+00  0.78033289E+00
  0.65995296E+00  0.72458445E-01  0.91528566E+00
  0.19472615E+00  0.90241314E+00  0.53421671E+00
  0.93109984E+00  0.75303416E+00  0.31406085E+00
  0.21879612E+00  0.27053470E-01  0.77422082E+00
  0.16333647E+00  0.71864691E+00  0.42955665E+00
  0.38376388E+00  0.61432776E-01  0.63818779E+00
  0.91323586E+00  0.21249167E+00  0.22240065E+00
  0.69543267E+00  0.56028783E+00  0.69457238E+00
  0.53087935E+00  0.55207760E+00  0.30660332E+00
  0.44024901E+00  0.85414973E+00  0.53480387E+00
  0.98610226E+00  0.61089567E+00  0.47990065E+00
  0.46185679E-01  0.89733232E+00  0.14687583E+00
  0.63605749E+00  0.86658166E-01  0.75289412E+00
  0.50164615E+00  0.84465451E+00  0.24502399E-01
  0.18266850E-02  0.17488366E+00  0.98978665E+00
  0.43384199E+00  0.20996399E+00  0.52955587E+00
  0.16835852E+00  0.54391623E+00  0.73397365E+00
  0.28000615E+00  0.96618154E-01  0.29594600E+00
  0.86718415E+00  0.40138719E+00  0.43008094E+00
  0.50435808E+00  0.61704106E+00  0.53042664E+00
  0.92689603E+00  0.12026680E-01  0.33144577E+00
  0.35311485E+00  0.66560465E+00  0.38659268E+00
  0.87693704E+00  0.44037337E+00  0.78494142E+00
  0.78963496E-01  0.37761886E+00  0.27943807E+00
  0.65713863E+00  0.50501618E+00  0.92149837E-01
  0.70412469E-01  0.93386324E+00  0.39360392E+00
  0.24371080E+00  0.51212117E+00  0.13568192E+00
  0.48422999E+00  0.21759938E+00  0.90675137E+00
  0.42950359E+00  0.31787996E-01  0.83784492E+00
  0.60731973E+00  0.73600872E+00  0.82383226E+00
  0.64040320E+00  0.18069425E+00  0.57741642E+00
  0.59431768E-01  0.13265520E+00  0.52407229E+00
  0.78317694E+00  0.93011786E+00  0.78800131E+00
  0.31564023E+00  0.28409804E+00  0.67531570E-01
  0.26410045E+00  0.89036731E+00  0.26947321E+00
  0.66753773E+00  0.32368845E+00  0.72547795E+00
  0.13305972E+00  0.25554910E+00  0.18724098E+00
  0.27320092E+00  0.70271535E+00  0.60788557E+00
  0.89851518E+00  0.23909342E+00  0.73943406E+00
  0.90138377E+00  0.61835734E+00  0.62676439E+00
  0.29877044E+00  0.55050396E+00  0.93142639E+00
  0.64323988E+00  0.74097846E+00  0.16222224E+00
  0.59736642E-01  0.98711344E+00  0.93700855E+00
  0.28067021E+00  0.35608388E+00  0.85943660E+00
  0.20184756E+00  0.75523498E+00  0.86442077E+00
  0.73354595E+00  0.19853784E+00  0.91947210E-01
  0.71281673E+00  0.92261648E+00  0.54984498E+00
  0.60736718E-04 -0.31182787E-03  0.34927007E-03
  0.91108602E-04  0.55077198E-04  0.14019858E-03
 -0.15177502E-03 -0.13187327E-04  0.13860671E-03
 -0.23485881E-03  0.26578956E-03  0.24533492E-03
 -0.20100443E-03 -0.24721595E-03 -0.20249530E-03
  0.52403974E-04  0.13907228E-03 -0.17842445E-04
 -0.33149737E-04 -0.10336414E-04 -0.15081530E-03
  0.34598712E-04  0.69481086E-04  0.87629158E-04
 -0.35964111E-04 -0.49922635E-03  0.43647342E-04
  0.23339270E-03 -0.97540264E-04 -0.44194406E-03
 -0.32532762E-03  0.15962440E-03 -0.26132581E-03
 -0.52347158E-03 -0.17850907E-03  0.33345222E-03
 -0.31796654E-04 -0.33760833E-03 -0.56634043E-04
 -0.40431712E-04  0.18818982E-03 -0.15346908E-03
 -0.12089201E-03 -0.26263002E-03  0.29274375E-03
 -0.92459205E-04  0.35801966E-05  0.43045321E-03
 -0.77935228E-04 -0.24365447E-03 -0.45900468E-03
  0.44789867E-03  0.18811915E-03  0.17018490E-03
 -0.35629816E-03 -0.45351070E-03 -0.11610643E-03
  0.10680141E-03  0.82891873E-04  0.32256905E-03
  0.40754534E-03  0.14393914E-03 -0.66042981E-03
  0.33369023E-03  0.32388092E-03 -0.14358640E-03
  0.59441500E-04 -0.57674264E-03 -0.13639959E-03
  0.28851403E-03  0.43494125E-03  0.89260873E-04
 -0.65967158E-05  0.28078844E-03  0.19324234E-03
  0.26460959E-03  0.12299845E-03 -0.17798228E-03
 -0.13026259E-03  0.53603396E-04  0.13867645E-03
 -0.26980223E-04 -0.46805108E-03 -0.20470908E-03
 -0.18250455E-03  0.40066308E-03  0.16346253E-03
  0.16986187E-03  0.10417851E-02 -0.33461143E-03
  0.26209563E-03  0.50810576E-04 -0.21731391E-03
 -0.22528068E-03 -0.45209850E-04  0.24551373E-03
  0.97747388E-04 -0.25369693E-03 -0.28959042E-03
  0.22031066E-03  0.22537858E-03  0.17084049E-03
 -0.28002538E-03  0.32092707E-03 -0.21418653E-03
 -0.23515320E-03 -0.57616992E-03 -0.79972474E-04
 -0.33905441E-03 -0.22237943E-03 -0.10765207E-03
  0.35169632E-04 -0.32726482E-03 -0.29891833E-03
 -0.17336541E-03  0.17560642E-04 -0.47718446E-03
  0.24284066E-03 -0.37269114E-03  0.18638557E-03
  0.15983817E-03  0.46418223E-05  0.14861706E-03
 -0.25597638E-04  0.21068077E-03 -0.59971591E-03
 -0.19865882E-03  0.15662601E-04  0.63666403E-04
  0.12548593E-04  0.68030744E-04 -0.41088311E-03
  0.28410046E-03  0.11632873E-03 -0.15695646E-03
 -0.41295332E-03  0.18293937E-03  0.99899989E-04
 -0.38294817E-03 -0.19256010E-03 -0.16761418E-04
 -0.34364785E-03  0.37684390E-03 -0.15730927E-03
 -0.94413286E-04 -0.19421466E-03 -0.20814426E-04
  0.18217140E-03  0.33926213E-03 -0.87284713E-05
  0.15859955E-03  0.14581921E-03 -0.14827602E-03
  0.25431004E-03 -0.66262172E-04  0.71928250E-04
 -0.24346157E-03  0.65064403E-04 -0.13326775E-03
  0.33068461E-03  0.57924920E-04  0.30276474E-03
 -0.82743419E-04  0.22985901E-03 -0.12743124E-03
  0.48850176E-03 -0.31723871E-03 -0.12938960E-03
 -0.27294824E-03  0.29864320E-03  0.17672865E-03
  0.11461578E-03 -0.42533847E-04 -0.10933645E-03
 -0.13836955E-03  0.11568022E-04  0.54042288E-04
 -0.33580092E-03 -0.15237337E-03  0.40613891E-03
  0.69774955E-04  0.27230609E-03 -0.40666077E-03
  0.21015106E-03  0.13345635E-03 -0.18023037E-03
  0.79339552E-04  0.54426639E-04  0.42012559E-04
 -0.20820570E-03  0.25369032E-03  0.44043124E-03
 -0.23779454E-03  0.58366674E-04  0.10181815E-03
 -0.65697727E-04  0.43788691E-04 -0.16970172E-03
 -0.33667389E-03  0.28731254E-03 -0.17801105E-03
 -0.14497864E-03  0.17088667E-03 -0.18335526E-03
  0.28872126E-04 -0.50119907E-03  0.13318312E-03
 -0.14430278E-03 -0.41102110E-04  0.19411924E-03
 -0.12113939E-03 -0.82568080E-04 -0.24008914E-03
  0.11393496E-03 -0.21538809E-03 -0.33950593E-03
  0.30928425E-03  0.23346533E-03 -0.17004273E-05
  0.15338986E-03  0.23021975E-03 -0.28697058E-04
  0.71822250E-04 -0.34018257E-03 -0.11833206E-03
  0.31231289E-03  0.29035542E-03 -0.12986230E-03
 -0.28887733E-03  0.15354863E-04  0.14944600E-04
 -0.10097207E-03 -0.28187222E-03  0.13314163E-03
  0.39518600E-04 -0.12684622E-03 -0.31452522E-04
  0.30090127E-03 -0.39180568E-03 -0.43691304E-03
  0.87892617E-04  0.22967549E-03  0.26588390E-03
 -0.32233245E-03  0.32025810E-03 -0.11799307E-03
 -0.95366022E-04 -0.10739006E-03  0.58890571E-04
  0.25217851E-04 -0.11132170E-04  0.90100934E-04
 -0.38737368E-04  0.12486439E-03  0.58000596E-03
  0.47255776E-03 -0.38530169E-03 -0.24637136E-03
 -0.11342196E-03 -0.18261298E-03  0.11188595E-03
  0.30161191E-03 -0.14214929E-03 -0.63050529E-04
 -0.21392811E-03  0.20209488E-03 -0.23763425E-03
  0.96223736E-05 -0.20026384E-03  0.49839983E-04
  0.27665977E-04 -0.40162065E-03 -0.22120526E-03
 -0.15884547E-03  0.31222188E-03 -0.16738553E-03
 -0.59909746E-04 -0.55196478E-03  0.44884448E-03
  0.73397180E-04 -0.39830252E-03 -0.22384281E-03
 -0.80262592E-04 -0.26617539E-04  0.64620185E-04
 -0.19203514E-03  0.13528441E-08  0.55213712E-04
 -0.42290158E-04 -0.24079054E-03 -0.97213731E-04
  0.53216973E-03  0.48131085E-04 -0.53623789E-03
  0.10681925E-03  0.22958751E-03 -0.11189954E-03
  0.47887221E-03 -0.26287103E-03  0.14536259E-03
  0.47872449E-03  0.24150049E-04 -0.19089442E-04
 -0.10418904E-04  0.51373614E-03 -0.25729105E-04
  0.64212039E-04 -0.39349003E-04  0.27403195E-03
 -0.43211173E-03 -0.15623203E-03  0.64703746E-04
 -0.95740841E-04  0.31411433E-04  0.90622049E-04
  0.93405762E-04  0.52815700E-04 -0.12499435E-03
  0.40689746E-04 -0.46805205E-03 -0.87296087E-04
  0.25152177E-03  0.19425495E-04  0.92522217E-04
 -0.38383045E-03 -0.10767028E-03 -0.15104824E-03
  0.66637272E-04 -0.12850362E-03  0.18901881E-03