Sb                                      
   1.00000000000000     
    18.8173007964999996    0.0000000000000000    0.0000000000000000
     0.0000000000000000   18.8173007964999996    0.0000000000000000
     0.0000000000000000    0.0000000000000000   18.8173007964999996
   Sb
   216
Selective dynamics
Direct
  0.9707488754073873  0.1358820313351216  0.5127317828829241   T   T   T
  0.5830260978532168  0.8541550596376885  0.3135770211377153   T   T   T
  0.9250449382242885  0.9725009278062651  0.9923506433469904   T   T   T
  0.1931916403378915  0.3728731986586791  0.9435418029020596   T   T   T
  0.7638505907246621  0.9421759190108443  0.8360549825133391   T   T   T
  0.3095939751458691  0.9390847146497949  0.9292708518505955   T   T   T
  0.9066441497798172  0.2272791485767245  0.3808868289119690   T   T   T
  0.7027142326970648  0.3030787717871136  0.7621983185591856   T   T   T
  0.3637358488743389  0.7030851682341240  0.0366330035479946   T   T   T
  0.2756486154503652  0.1397974406295742  0.1977644075161145   T   T   T
  0.2666522562256786  0.8480706355249612  0.3983015022418699   T   T   T
  0.5668086514479388  0.2139770379874910  0.4599126540889931   T   T   T
  0.5532814129394172  0.0927215365706210  0.3613801476066244   T   T   T
  0.4249808787536193  0.8302757412074983  0.9435835223491872   T   T   T
  0.2138358246619619  0.2207428349513672  0.5639502860618594   T   T   T
  0.6028108356444399  0.3962406942778462  0.0511305551902607   T   T   T
  0.3676465209454600  0.2202084910203669  0.0958352029319062   T   T   T
  0.0791993600370351  0.0137869620448980  0.0458282390439857   T   T   T
  0.8186470392247119  0.1980621536411175  0.7998944453285713   T   T   T
  0.2448457569813672  0.0785422285972256  0.0558673233359011   T   T   T
  0.7220899500408660  0.7987217871602583  0.7861444167924727   T   T   T
  0.7378062378013670  0.9394690973071308  0.6277431171476185   T   T   T
  0.7525490074639041  0.2413859422948010  0.4340743327755868   T   T   T
  0.6228886429072865  0.9502642737786505  0.1902254457254144   T   T   T
  0.9458480911790369  0.4225343284366603  0.9728805286191982   T   T   T
  0.4473799157185769  0.5572730491021421  0.0986179732503629   T   T   T
  0.7399313856973915  0.4713864631532055  0.0020121257005538   T   T   T
  0.8173706470868898  0.9338022641855603  0.2729042774044299   T   T   T
  0.8775795945763909  0.2785749266190614  0.9130619173831824   T   T   T
  0.8208294011294870  0.8137785648593303  0.6635922123836028   T   T   T
  0.0254966282384180  0.5369531024614276  0.2257135672055433   T   T   T
  0.9937238452894581  0.3647756706190451  0.1976154714368631   T   T   T
  0.6932244588168714  0.7076690065756337  0.6541248152770567   T   T   T
  0.3180366689708337  0.4346846837440877  0.8877559486484119   T   T   T
  0.1624199845433597  0.2442291252260726  0.1443627426981452   T   T   T
  0.6646157425734599  0.5922572144922168  0.0594666052529385   T   T   T
  0.1604724161658310  0.1450144485458512  0.7124018263119396   T   T   T
  0.1245394161082667  0.6876588932226635  0.0739684123739298   T   T   T
  0.3070657844228908  0.5335902509002407  0.0047413974759573   T   T   T
  0.6246787926157195  0.9602743292785716  0.4405298776848170   T   T   T
  0.8462073250908636  0.4231719412391317  0.0992903764384053   T   T   T
  0.2230999191527943  0.2645839254237515  0.8026725985785854   T   T   T
  0.1192233492055864  0.8471413937789871  0.9117905090087607   T   T   T
  0.0866491804292020  0.3256625941551396  0.3886781109568055   T   T   T
  0.2110766050930477  0.4830035243278864  0.7796709593293588   T   T   T
  0.7700379558025990  0.5149912744358506  0.2788888587219532   T   T   T
  0.1080843719672746  0.8839090130848180  0.3128993047318194   T   T   T
  0.9118692640312744  0.9263547590225960  0.7171284747452258   T   T   T
  0.7173066400299849  0.8127189047738138  0.1735679701017443   T   T   T
  0.9643411655874693  0.6480188430659229  0.0372347510953564   T   T   T
  0.9577814288221083  0.7395610272042515  0.4600843437432080   T   T   T
  0.1885638637201114  0.6912902429750887  0.7521194444464480   T   T   T
  0.0895483789148124  0.7270105737866277  0.3259590133592136   T   T   T
  0.4027502636398867  0.0312863068025139  0.0726853133351630   T   T   T
  0.6985532580027132  0.6986663441789676  0.9545182785496907   T   T   T
  0.0006182519881933  0.8027507570052319  0.7655758503448770   T   T   T
  0.8277772212670055  0.0713248620937066  0.1152579392701809   T   T   T
  0.5222043324138023  0.6779043415543117  0.0482820748321773   T   T   T
  0.3131208719740671  0.6915129100274384  0.8863239668565155   T   T   T
  0.1212767770796876  0.8707493610521375  0.4616743044318237   T   T   T
  0.5239420947384115  0.7314585621076728  0.1948992493300634   T   T   T
  0.9972101854686038  0.7000536963411254  0.2045219690789575   T   T   T
  0.4305371297201491  0.8960222654181248  0.3151188956330610   T   T   T
  0.0748584513385776  0.5327224384089254  0.0760934019657377   T   T   T
  0.3205915858017229  0.1149821655108166  0.4180819547814090   T   T   T
  0.9802713004553602  0.8617294062345968  0.1782386633542736   T   T   T
  0.4231628849779194  0.1703936821258285  0.3081932834173181   T   T   T
  0.8250980498602852  0.7393036601976752  0.0284336604031037   T   T   T
  0.8210125485052645  0.3953240488764269  0.5757971832196190   T   T   T
  0.7587864741799397  0.2552863326911801  0.6168348479123419   T   T   T
  0.2813820496378791  0.9599847117279356  0.6088909044486733   T   T   T
  0.2758367336936307  0.9868282384796770  0.3368855383727847   T   T   T
  0.4135151011011939  0.3425082588417264  0.9711934955387020   T   T   T
  0.9907268839906386  0.8979571529406223  0.5871530482864610   T   T   T
  0.3327699963169826  0.1314530433408906  0.6488310709203606   T   T   T
  0.7583467291143429  0.5726957098582801  0.4248232386572774   T   T   T
  0.3414942383827794  0.1706165105487899  0.8854310119699050   T   T   T
  0.3024499502021725  0.8225731048967984  0.5516244225825774   T   T   T
  0.2926011388228755  0.0495554520238914  0.7920083176351697   T   T   T
  0.4446615286515733  0.0014124645872905  0.4580791079812568   T   T   T
  0.6340331363555799  0.8058408882346819  0.0409990477468098   T   T   T
  0.2940159912544759  0.9642892732873536  0.1737378389692822   T   T   T
  0.2415315781303793  0.2320149348433452  0.0116810717195866   T   T   T
  0.1201763265090973  0.5735834360245549  0.6632341368065688   T   T   T
  0.3647167921039777  0.5449843994245317  0.7031371630290774   T   T   T
  0.3663336118143506  0.3748694597150948  0.1397200706172115   T   T   T
  0.4176736659703088  0.9022749490938761  0.6806432332039954   T   T   T
  0.0478626646986047  0.3203048435898125  0.0429603961027312   T   T   T
  0.9450627544682395  0.8518862166846288  0.3358731398620404   T   T   T
  0.9611383757764602  0.0224984854927320  0.1913982131253966   T   T   T
  0.5480153974699508  0.0051660350070647  0.5849406103449896   T   T   T
  0.8948368833522179  0.0753025584216163  0.3119974241426702   T   T   T
  0.0918350314706244  0.1891705800561429  0.9132549165261798   T   T   T
  0.4396004680853982  0.1896329541656332  0.5349243505471831   T   T   T
  0.3048848433992957  0.3139711722177959  0.2710523846778690   T   T   T
  0.1533317969763555  0.8986362662698896  0.1358947557261309   T   T   T
  0.8852458618368984  0.5647678398923042  0.9180806553976206   T   T   T
  0.2657258944717299  0.3642249642805246  0.5852115811710359   T   T   T
  0.7084755251383171  0.7230053330175742  0.3582176214421702   T   T   T
  0.1480510167321251  0.3645005396953735  0.2508114143568525   T   T   T
  0.4825528832560287  0.0693416396407921  0.7069512454872552   T   T   T
  0.3084248767663174  0.6902691487153368  0.6617238309341956   T   T   T
  0.5550637333223736  0.6694013520044144  0.8644395771151882   T   T   T
  0.7608541599072047  0.4049498328565770  0.4224056497999926   T   T   T
  0.0536582615291823  0.7034824843701822  0.8752272179134759   T   T   T
  0.2425502943233832  0.5644433248523502  0.5623568745883827   T   T   T
  0.4474552826333661  0.8361943976703140  0.5205839776926581   T   T   T
  0.5621228811460642  0.2882684053815787  0.1854224202183253   T   T   T
  0.8175515245641789  0.7443523117781830  0.5060058188004400   T   T   T
  0.2231387816953520  0.4449221132253252  0.1066543974903240   T   T   T
  0.5295085948774634  0.2356556919942991  0.0166556194177648   T   T   T
  0.8607336794640359  0.2217309972158319  0.1454356058546393   T   T   T
  0.5712241923515503  0.9582854689020091  0.9613151985750332   T   T   T
  0.8426461422542761  0.8834447049932275  0.1005789204747937   T   T   T
  0.4850542461443639  0.8979755134713552  0.0792033261305555   T   T   T
  0.2332837331737876  0.7597321799438712  0.2391917883066085   T   T   T
  0.1088652580222708  0.1386506825634052  0.3773989667834168   T   T   T
  0.4767341682729618  0.1013626447248098  0.9489182576945487   T   T   T
  0.9738541362684322  0.0068467402011606  0.4356275502925231   T   T   T
  0.1939938234383112  0.5285355825889129  0.2516926569542186   T   T   T
  0.9015078171524278  0.6081083991057428  0.3725609687431550   T   T   T
  0.1086220303802521  0.8054638765257679  0.6502249268550649   T   T   T
  0.2456258473542082  0.8344627375574406  0.8239812655411980   T   T   T
  0.6200541958330444  0.0077124364452353  0.7934512600801774   T   T   T
  0.2270213311290844  0.8224516038141544  0.0253809747034887   T   T   T
  0.7217884574557217  0.9305050736131451  0.9815415870545162   T   T   T
  0.1639797779704595  0.0184490688556505  0.4965013852677160   T   T   T
  0.5011246592127342  0.4658128804067233  0.9559806633424893   T   T   T
  0.7343676612517240  0.0855175156712855  0.4641967844775489   T   T   T
  0.8476497578964278  0.9858040342832919  0.5090861151441476   T   T   T
  0.8531075826667158  0.7435467950470283  0.2759889843604961   T   T   T
  0.7663589378009316  0.8786659485068657  0.4152088178786388   T   T   T
  0.7633539722848047  0.6533284721836305  0.1602029907444197   T   T   T
  0.7458341813107915  0.0880541759507161  0.7141484312849006   T   T   T
  0.8447191179722812  0.3708269099756436  0.2907616640891238   T   T   T
  0.0099619107183532  0.9659942340489953  0.8455214604263840   T   T   T
  0.2308973584102684  0.2443507946635250  0.4002678442060979   T   T   T
  0.0637668510057585  0.0343223321139831  0.6228290633203859   T   T   T
  0.3387659503843515  0.2737464730987477  0.6979115105792001   T   T   T
  0.0574463324882620  0.1292225008364951  0.1343402723555034   T   T   T
  0.8185931545283134  0.4334081996892016  0.8438631720033802   T   T   T
  0.1648626886532895  0.9344484277980871  0.7185685113373170   T   T   T
  0.9636391280281954  0.4201848556265368  0.3907709247060208   T   T   T
  0.4396506583629481  0.9735474988401890  0.8209868754207805   T   T   T
  0.5787907545189341  0.2066115336630900  0.7140092418198285   T   T   T
  0.6050011329129877  0.1512281409763916  0.8749454940316651   T   T   T
  0.6685864197941528  0.1993137156502597  0.3153320630256822   T   T   T
  0.4861081987540407  0.0474386587475460  0.2119769075907885   T   T   T
  0.8204647113655913  0.6800533953146340  0.8276705318383537   T   T   T
  0.6566686009634718  0.4318605508218170  0.6824941517430536   T   T   T
  0.0369346934583210  0.1138246719666343  0.7936605099037539   T   T   T
  0.6253176243382582  0.3094641464915636  0.9085787853418289   T   T   T
  0.0550713689800077  0.4394034376229692  0.5893501153913837   T   T   T
  0.9523574675522427  0.3352879475602537  0.5145835527525788   T   T   T
  0.9945530636022434  0.2187481174579801  0.2462310650937178   T   T   T
  0.5928492372886367  0.1431364870898388  0.1437220458334434   T   T   T
  0.7160124295873925  0.3202623532890158  0.1951798802727186   T   T   T
  0.7161388469381981  0.0641175001561857  0.2298148908407744   T   T   T
  0.7421960429364132  0.5487932508757746  0.7612578029202567   T   T   T
  0.6443365018129088  0.4142795266107871  0.2981776453684180   T   T   T
  0.9945769974127655  0.5639857365853910  0.7955201058203138   T   T   T
  0.0995174167906220  0.4825053955634863  0.8890630079144404   T   T   T
  0.0036050978867669  0.8246018932538556  0.0250825610086529   T   T   T
  0.9687891405918693  0.5453731793546642  0.5175245439670400   T   T   T
  0.6244138556771923  0.6146884349819871  0.2515389459016504   T   T   T
  0.3952437979440792  0.7777142798001125  0.7675633111455403   T   T   T
  0.1081574338710961  0.5690091717316693  0.3912285928273850   T   T   T
  0.4889718999234887  0.3088662630495895  0.6252831066120127   T   T   T
  0.4517129429298804  0.2817303544960408  0.8221188780721901   T   T   T
  0.4119600920685498  0.6245384864273719  0.2374754912934543   T   T   T
  0.8522982435799510  0.5589942875772825  0.6217440577538705   T   T   T
  0.4062954459726955  0.5720361091359105  0.8525459937418841   T   T   T
  0.9510016875763383  0.1901255834932153  0.0147051755613985   T   T   T
  0.6509051460101150  0.1279686263817831  0.5908530834759037   T   T   T
  0.8879477008191563  0.5645740924933099  0.1398525294727409   T   T   T
  0.0212336533461393  0.3369194448998231  0.8135087272732396   T   T   T
  0.6304368469641179  0.5335337981084507  0.8682334169627457   T   T   T
  0.8959785045142734  0.8183207882304666  0.9134098200845963   T   T   T
  0.5726228373732333  0.4906202521147188  0.1716901905927954   T   T   T
  0.5497123303686027  0.7070027906319067  0.7156227496969734   T   T   T
  0.6429979274451844  0.8177712893447905  0.5463493953375655   T   T   T
  0.3075910008023552  0.6778110838478801  0.3537848505250060   T   T   T
  0.1577287741185943  0.4370613653886696  0.4826948679906388   T   T   T
  0.3681152385110173  0.8290955198968039  0.1824768835313107   T   T   T
  0.0422253917515800  0.6764444894723998  0.5669942943222244   T   T   T
  0.1397251308767247  0.0432807201291983  0.2727925728511526   T   T   T
  0.0658888983369997  0.2330701783241559  0.5930718072810304   T   T   T
  0.1510621683270773  0.0391301320638577  0.9092129585891616   T   T   T
  0.9191748010308446  0.6803693351533322  0.7076160794041524   T   T   T
  0.1332221337635123  0.3542560326810956  0.7061422372266347   T   T   T
  0.7491726654949358  0.2774299100049287  0.0081893799306955   T   T   T
  0.5645591060657592  0.8471422275104586  0.8691679890152737   T   T   T
  0.5423807272343883  0.4366753690211141  0.7788022380400675   T   T   T
  0.2538818139719512  0.6425808303399092  0.1436124455259858   T   T   T
  0.1762149158894593  0.6773107787028989  0.4784613294338334   T   T   T
  0.8317139364418837  0.0837359094539734  0.9046283913341342   T   T   T
  0.6200610880941001  0.3200825281660317  0.5597702939906329   T   T   T
  0.9271518800074756  0.4429884885852723  0.7297281676386097   T   T   T
  0.7150863871052642  0.1298417486385116  0.0054099686883848   T   T   T
  0.4394061122408596  0.7506635975094436  0.3782036100577338   T   T   T
  0.9483214836539137  0.2147148182037657  0.7150271800972829   T   T   T
  0.1768111468774432  0.6169816747645696  0.9468378339047544   T   T   T
  0.8888461406685663  0.0845480870310893  0.6472897885324814   T   T   T
  0.5852004212712215  0.8908887334774790  0.6865918583940082   T   T   T
  0.3821099999999973  0.3312500119999982  0.4725500050000022   F   F   F
  0.3148300049999975  0.4477800129999991  0.3506599959999974   F   F   F
  0.5166500209999967  0.3312599960000000  0.3506599959999974   F   F   F
  0.3821099999999973  0.5643000009999994  0.4725500050000022   F   F   F
  0.4493800099999987  0.4477800129999991  0.2697300020000029   F   F   F
  0.5166500209999967  0.5643100140000001  0.6753600239999997   F   F   F
  0.4493800099999987  0.4477800129999991  0.5534700159999986   F   F   F
  0.5166500209999967  0.5643100140000001  0.3506599959999974   F   F   F
  0.5839300159999965  0.6808199880000032  0.4725500050000022   F   F   F
  0.4493800099999987  0.6808300020000004  0.5534700159999986   F   F   F
  0.6511999960000026  0.5643000009999994  0.5534700159999986   F   F   F
  0.5839300159999965  0.4477699999999984  0.4725500050000022   F   F   F
 
 -0.38790936E-03  0.20259288E-02 -0.28401275E-02
 -0.12038823E-02 -0.40248250E-03 -0.71547628E-03
 -0.22770531E-02 -0.24265558E-02  0.17386107E-02
  0.27002724E-02  0.18563764E-02  0.11607520E-02
  0.12845539E-02  0.57004651E-03 -0.51644676E-03
 -0.11244809E-02 -0.50549844E-04  0.19465671E-02
  0.66814882E-03 -0.15817025E-02  0.45231673E-03
 -0.33088606E-02  0.86515663E-03  0.52959425E-03
 -0.14512910E-02 -0.17162771E-03  0.10765280E-03
 -0.32479607E-02 -0.14275471E-02 -0.27005553E-02
 -0.13936258E-03  0.25055498E-02  0.20230919E-02
  0.12963640E-02 -0.10884715E-02  0.16050288E-02
 -0.17872144E-02 -0.25834586E-02 -0.11536185E-02
  0.12912667E-02 -0.17767300E-03 -0.58983099E-03
 -0.28473290E-02  0.18563415E-02 -0.16778426E-02
 -0.30801120E-02 -0.11803285E-02 -0.19401239E-02
  0.51432986E-03  0.22229557E-02 -0.10497838E-02
  0.10356455E-02  0.11243895E-02 -0.19862986E-02
  0.17303784E-02  0.25098417E-02 -0.11720505E-05
 -0.25469816E-02  0.12101377E-02 -0.69930214E-03
  0.16954675E-02 -0.66926924E-03 -0.23347308E-02
 -0.90947493E-03 -0.92166321E-03  0.52501793E-03
 -0.39945323E-02 -0.79415494E-03 -0.93352823E-03
  0.23359801E-03 -0.67826385E-03  0.26840690E-02
 -0.26671924E-02 -0.21636643E-03 -0.15685289E-03
  0.69394626E-03 -0.48055092E-03 -0.12062802E-05
  0.36430614E-03 -0.31892807E-03 -0.17291428E-02
  0.97705269E-03  0.12756909E-03 -0.20707207E-03
 -0.46472512E-03  0.22840877E-02 -0.46877911E-03
  0.21163026E-02 -0.47283924E-02 -0.77163882E-04
  0.15738995E-02  0.12273028E-02  0.27226316E-02
  0.25852688E-03 -0.20611843E-02 -0.11273784E-02
 -0.12541236E-02  0.10481846E-02 -0.87795416E-03
  0.40333587E-02  0.17609710E-02 -0.77435546E-04
  0.25117796E-03 -0.11068102E-02 -0.88776555E-03
  0.40807600E-03 -0.77591147E-03 -0.18341290E-02
  0.19734568E-02  0.16888141E-02 -0.63190765E-03
 -0.19756000E-02  0.65758613E-03  0.15549691E-02
 -0.12895946E-02  0.46034310E-03  0.28588089E-02
  0.25184054E-02 -0.10194229E-02  0.29310203E-02
  0.80623077E-03 -0.19521536E-02 -0.35681176E-03
 -0.13445921E-02 -0.62255266E-03 -0.33604666E-04
  0.19154102E-02  0.78688649E-03 -0.66952526E-03
 -0.41615975E-03  0.24166126E-02 -0.18614396E-02
 -0.11601629E-02 -0.32542443E-02 -0.14252422E-02
  0.86573548E-03 -0.32380931E-03 -0.42148405E-03
  0.19317348E-03  0.18174676E-02 -0.50067129E-04
  0.15221953E-02 -0.42071812E-02  0.97958892E-03
 -0.31304751E-03  0.23726520E-02 -0.15505902E-02
 -0.20350872E-02  0.22370183E-02  0.92735255E-03
  0.25328824E-02 -0.15017527E-02  0.10334306E-02
 -0.69524615E-03 -0.50410869E-03  0.13422836E-02
  0.50401738E-03 -0.67576061E-03  0.20497370E-02
  0.11097424E-03 -0.21655924E-02  0.17061048E-02
 -0.99346648E-03  0.47550703E-02 -0.50652336E-03
  0.25674718E-02  0.10787622E-02 -0.43070646E-03
  0.22493066E-02 -0.14154096E-02 -0.13450288E-02
  0.29769027E-02  0.58555757E-03  0.24415103E-02
 -0.13657502E-02  0.11721441E-02  0.81195063E-04
  0.64002060E-03  0.12694516E-02  0.68739720E-03
  0.76664063E-03  0.32379885E-02 -0.21746062E-02
  0.84693111E-03 -0.19409038E-02 -0.81817979E-03
 -0.89326677E-03  0.82378124E-03  0.22223826E-02
  0.33685443E-02  0.11828061E-02 -0.15480242E-02
  0.29006714E-02  0.88021802E-03 -0.15841881E-02
 -0.14151331E-02  0.24237724E-02  0.93814341E-03
 -0.40937490E-03  0.16534272E-02 -0.13440653E-02
 -0.52615881E-02  0.21888560E-02 -0.15738999E-02
 -0.43720998E-02 -0.22989308E-02  0.64258040E-03
 -0.78111202E-03  0.90438414E-03 -0.14779654E-03
 -0.28155713E-02 -0.37628481E-03  0.11032773E-02
  0.63633309E-03 -0.19233568E-02  0.39193384E-03
 -0.10286815E-02 -0.15676029E-02 -0.68766718E-03
 -0.66739427E-03 -0.14845147E-02 -0.33534789E-03
  0.14633101E-02 -0.12566975E-02 -0.12127500E-02
 -0.18719374E-02  0.25131856E-02  0.56634421E-03
  0.53039029E-03 -0.15812988E-02 -0.21245741E-02
 -0.13435229E-02 -0.17571223E-03  0.22007918E-02
  0.26822436E-02  0.35165205E-02 -0.12080206E-02
 -0.69923164E-03  0.67417482E-03 -0.11625878E-02
 -0.12639177E-02  0.51257552E-03  0.95507256E-03
 -0.19011574E-03 -0.76684101E-03  0.10068128E-02
  0.72654189E-03 -0.14710060E-02  0.16813841E-02
 -0.83091910E-04 -0.12433760E-02 -0.17312096E-03
 -0.17018528E-02  0.76202026E-03 -0.16287779E-02
  0.90437079E-03 -0.17119883E-02 -0.22969882E-02
  0.27445366E-03 -0.16933333E-03  0.38804261E-02
  0.24223501E-02  0.39811039E-02 -0.13353351E-02
  0.29477491E-02 -0.98200194E-04 -0.11748789E-02
 -0.98587692E-03 -0.14746415E-02  0.14180103E-02
  0.11543333E-02 -0.43155971E-03  0.15107639E-02
 -0.23745418E-02 -0.64720306E-03 -0.65457418E-03
  0.24872743E-02  0.17553091E-02 -0.11331371E-02
  0.14746626E-02 -0.15081155E-02 -0.64555755E-03
  0.45660467E-03  0.70720268E-03 -0.54179240E-02
  0.14598045E-02 -0.21041655E-02 -0.13592579E-03
 -0.22151069E-02 -0.20028568E-03  0.10311234E-02
  0.17656354E-02 -0.18724569E-02  0.86379891E-04
  0.76928814E-03 -0.27671247E-02 -0.16462562E-02
  0.13582398E-02 -0.54927576E-03 -0.33987703E-03
 -0.84539972E-03  0.20316144E-03  0.49409636E-03
 -0.13007821E-03  0.21280048E-02 -0.18970644E-02
 -0.28254104E-02 -0.48777482E-02 -0.12269433E-02
 -0.26150583E-03 -0.15121960E-02 -0.13071893E-02
  0.10866484E-02 -0.14681366E-02 -0.11270509E-02
 -0.74787973E-03 -0.13367815E-02  0.46624519E-03
  0.41408728E-03 -0.54584888E-03 -0.24046089E-03
  0.51679360E-03  0.12282263E-02 -0.12754498E-02
  0.19918911E-03  0.10821596E-02  0.13815758E-03
 -0.19024117E-02  0.25895576E-02 -0.44946753E-03
  0.27142767E-03  0.52614692E-03 -0.43392169E-03
  0.24351887E-02 -0.18968454E-03  0.10323710E-02
  0.42988623E-03 -0.21016633E-02 -0.40361475E-03
  0.12135001E-02 -0.11122015E-02 -0.13135328E-02
  0.15362944E-02  0.20452215E-02 -0.11128664E-02
 -0.49451145E-03  0.61665080E-03  0.23240475E-03
  0.10382532E-02 -0.14770890E-02 -0.11016369E-02
  0.14732880E-04 -0.19958109E-02 -0.11259419E-02
 -0.21518474E-02  0.40039409E-03 -0.26182595E-02
  0.13668330E-02  0.22049559E-03  0.35695210E-03
  0.51416415E-03  0.46781222E-03 -0.22429966E-03
 -0.18469509E-02  0.15956243E-02  0.52148438E-03
 -0.91787471E-03  0.20001340E-03  0.12238156E-02
  0.97369905E-03 -0.16897025E-02  0.10576164E-02
 -0.32507266E-02 -0.10417740E-03  0.28379086E-02
  0.11482995E-03  0.47524896E-03 -0.86330547E-03
  0.53389148E-03 -0.22345187E-02 -0.69193045E-03
  0.70874138E-03  0.16655859E-02 -0.94820881E-03
  0.26480115E-02 -0.99988810E-03  0.19165571E-02
 -0.59086117E-03  0.18288879E-02 -0.33253159E-03
  0.75375786E-03  0.22282053E-02 -0.31520938E-02
  0.80344204E-03 -0.10493244E-03  0.20259483E-02
  0.23248783E-02  0.18986609E-02 -0.21066641E-02
  0.75516533E-03  0.30427820E-03 -0.13005044E-02
 -0.33133971E-02 -0.58897022E-03 -0.24950166E-02
  0.29461380E-02  0.25778534E-02  0.79782762E-03
 -0.75472923E-03  0.11446392E-02 -0.14438696E-02
  0.16565158E-02  0.19988523E-02  0.68543136E-04
 -0.40788983E-03 -0.75707149E-03  0.13451780E-02
 -0.23835169E-02  0.18067082E-03  0.13901034E-02
  0.22050698E-02  0.14403236E-02 -0.32557351E-03
 -0.57387111E-03 -0.12668520E-02  0.10541854E-02
 -0.11760452E-02  0.16755929E-02  0.83513098E-03
 -0.15043045E-02  0.50767975E-03  0.10225562E-02
  0.44660542E-03 -0.12763763E-02 -0.12656569E-02
  0.29528745E-02  0.11330441E-02  0.63999357E-03
 -0.20684672E-02 -0.10792084E-02 -0.35759318E-02
  0.28870845E-03  0.96274463E-03  0.56793216E-03
  0.12747244E-02 -0.19677147E-02  0.24327439E-02
 -0.19868540E-02 -0.92681097E-03 -0.80369600E-03
  0.24079219E-02 -0.71312994E-03  0.10303386E-03
 -0.79904957E-03  0.37171349E-03  0.15105470E-03
 -0.19947718E-03  0.22140286E-02 -0.20215075E-02
 -0.26313558E-02  0.90816291E-03  0.24659012E-03
  0.35816165E-02  0.25301451E-02 -0.18581717E-02
 -0.32479223E-02 -0.11070237E-02  0.26336701E-02
 -0.16496513E-02  0.18287707E-02 -0.17960981E-02
  0.35428897E-02 -0.17446392E-02 -0.21146801E-02
  0.14207905E-02  0.11280549E-03 -0.26115932E-02
  0.56742885E-03 -0.24507765E-02  0.91631911E-03
 -0.33178533E-03  0.21367860E-03 -0.21133634E-02
 -0.39437732E-02  0.63129050E-03  0.11445104E-02
  0.52068880E-03 -0.38374306E-03 -0.27975723E-02
 -0.95439254E-03 -0.27215058E-02 -0.44483348E-03
  0.16541420E-02  0.20176258E-02  0.19812427E-02
  0.17668559E-02  0.11103468E-02 -0.24716020E-02
  0.25017958E-02  0.73181868E-03  0.12121565E-02
  0.32935927E-02  0.13112933E-02  0.18828209E-03
 -0.43124694E-03 -0.27909615E-02 -0.23194274E-02
 -0.49461884E-03  0.18423637E-03  0.53547959E-03
  0.94565092E-04 -0.25403588E-03  0.28054857E-02
 -0.18211913E-03  0.15297154E-02  0.27889608E-02
  0.86091771E-03  0.15465297E-05 -0.28119885E-03
  0.13206079E-02 -0.15804192E-04 -0.30008591E-02
 -0.10393301E-02  0.10341544E-02  0.19021408E-02
 -0.24147822E-02 -0.92974678E-03  0.29710811E-03
 -0.41654615E-03  0.45474850E-03 -0.22746002E-02
  0.15750722E-02  0.96943301E-03 -0.88237571E-03
  0.25855056E-02  0.30918081E-03 -0.96265091E-03
  0.17562328E-02 -0.15418661E-02  0.15563827E-02
 -0.28407698E-02  0.93607059E-03 -0.18060906E-02
  0.26689489E-02 -0.20059012E-02  0.16611312E-03
 -0.17276368E-02  0.12449197E-02  0.14706526E-02
  0.57162061E-04 -0.19783909E-02 -0.19595480E-03
 -0.73350391E-04  0.22632038E-03  0.55331552E-03
 -0.13128288E-02 -0.91499037E-03  0.94547629E-03
 -0.25649433E-03 -0.18770086E-03 -0.19956939E-02
 -0.74830017E-04  0.41000506E-03  0.96000478E-03
 -0.14990965E-03 -0.82179759E-03 -0.12045408E-02
  0.25507222E-02 -0.16305007E-02 -0.10405422E-02
 -0.88879131E-03 -0.80583443E-03  0.86435540E-03
  0.18948507E-02  0.34099770E-02 -0.17120358E-02
  0.42314173E-02  0.16546637E-03 -0.47714806E-03
 -0.30040003E-02 -0.48302472E-03  0.59371601E-03
  0.58590791E-03 -0.92507497E-03 -0.19473885E-03
 -0.10517624E-02 -0.24698447E-02 -0.51633753E-03
  0.25671133E-02 -0.10091468E-02 -0.18434501E-02
  0.76663103E-03 -0.17051833E-02  0.30824246E-03
  0.29632767E-02  0.31047912E-02  0.18600246E-02
  0.15630657E-02 -0.73606280E-03 -0.16869925E-02
 -0.23818711E-02 -0.73964604E-04 -0.14896730E-02
  0.48598128E-03 -0.18721702E-02  0.19818176E-02
  0.16868960E-02 -0.10525805E-02 -0.20404706E-02
  0.66712782E-03  0.11418644E-02  0.11803571E-03
  0.00000000E+00  0.00000000E+00  0.00000000E+00
  0.00000000E+00  0.00000000E+00  0.00000000E+00
  0.00000000E+00  0.00000000E+00  0.00000000E+00
  0.00000000E+00  0.00000000E+00  0.00000000E+00
  0.00000000E+00  0.00000000E+00  0.00000000E+00
  0.00000000E+00  0.00000000E+00  0.00000000E+00
  0.00000000E+00  0.00000000E+00  0.00000000E+00
  0.00000000E+00  0.00000000E+00  0.00000000E+00
  0.00000000E+00  0.00000000E+00  0.00000000E+00
  0.00000000E+00  0.00000000E+00  0.00000000E+00
  0.00000000E+00  0.00000000E+00  0.00000000E+00
  0.00000000E+00  0.00000000E+00  0.00000000E+00
 
           1
   4.00000000000000     
  0.10000000E+01  0.00000000E+00  0.00000000E+00  0.00000000E+00
  0.97066642E+00  0.13631268E+00  0.51212806E+00
  0.58277019E+00  0.85406950E+00  0.31342493E+00
  0.92456090E+00  0.97198511E+00  0.99272022E+00
  0.19376564E+00  0.37326781E+00  0.94378854E+00
  0.76412365E+00  0.94229709E+00  0.83594520E+00
  0.30935494E+00  0.93907397E+00  0.92968463E+00
  0.90678618E+00  0.22694293E+00  0.38098298E+00
  0.70201087E+00  0.30326268E+00  0.76231089E+00
  0.36342735E+00  0.70304869E+00  0.36655887E-01
  0.27495820E+00  0.13949399E+00  0.19719035E+00
  0.26662263E+00  0.84860324E+00  0.39873155E+00
  0.56708422E+00  0.21374566E+00  0.46025384E+00
  0.55290150E+00  0.92172370E-01  0.36113492E+00
  0.42525536E+00  0.83023797E+00  0.94345814E+00
  0.21323057E+00  0.22113744E+00  0.56359363E+00
  0.60215610E+00  0.39598979E+00  0.50718142E-01
  0.36775585E+00  0.22068103E+00  0.95612050E-01
  0.79419508E-01  0.14025974E-01  0.45406011E-01
  0.81901487E+00  0.19859567E+00  0.79989420E+00
  0.24430434E+00  0.78799468E-01  0.55718672E-01
  0.72245036E+00  0.79857952E+00  0.78564812E+00
  0.73761291E+00  0.93927318E+00  0.62785472E+00
  0.75169989E+00  0.24121713E+00  0.43387589E+00
  0.62293830E+00  0.95012010E+00  0.19079600E+00
  0.94528113E+00  0.42248834E+00  0.97284719E+00
  0.44752743E+00  0.55717090E+00  0.98617717E-01
  0.74000883E+00  0.47131867E+00  0.16445612E-02
  0.81757834E+00  0.93382938E+00  0.27286026E+00
  0.87748081E+00  0.27906046E+00  0.91296227E+00
  0.82127926E+00  0.81277345E+00  0.66357581E+00
  0.25831193E-01  0.53721399E+00  0.22629232E+00
  0.99377880E+00  0.36433752E+00  0.19737582E+00
  0.69295787E+00  0.70789182E+00  0.65393819E+00
  0.31889404E+00  0.43505901E+00  0.88773949E+00
  0.16247338E+00  0.24399385E+00  0.14417403E+00
  0.66470249E+00  0.59209228E+00  0.59076724E-01
  0.16089191E+00  0.14537344E+00  0.71226750E+00
  0.12411946E+00  0.68779868E+00  0.74298953E-01
  0.30679165E+00  0.53368811E+00  0.53490955E-02
  0.62521413E+00  0.96005763E+00  0.44115293E+00
  0.84637871E+00  0.42275697E+00  0.99214529E-01
  0.22281410E+00  0.26445159E+00  0.80266546E+00
  0.11963051E+00  0.84730866E+00  0.91164819E+00
  0.86560717E-01  0.32617629E+00  0.38828242E+00
  0.21082999E+00  0.48231177E+00  0.77936800E+00
  0.77022199E+00  0.51492244E+00  0.27879926E+00
  0.10812543E+00  0.88429535E+00  0.31288866E+00
  0.91219284E+00  0.92546044E+00  0.71733671E+00
  0.71724010E+00  0.81322326E+00  0.17323836E+00
  0.96390857E+00  0.64849437E+00  0.37431879E-01
  0.95831984E+00  0.73924180E+00  0.46030402E+00
  0.18841608E+00  0.69118308E+00  0.75240477E+00
  0.89655518E-01  0.72686693E+00  0.32639473E+00
  0.40277385E+00  0.30825966E-01  0.73047981E-01
  0.69834208E+00  0.69967713E+00  0.95441061E+00
  0.11640203E-02  0.80298007E+00  0.76548429E+00
  0.82825536E+00  0.71023988E-01  0.11497203E+00
  0.52283713E+00  0.67802881E+00  0.48801068E-01
  0.31283055E+00  0.69176207E+00  0.88634123E+00
  0.12141283E+00  0.87101921E+00  0.46182042E+00
  0.52410506E+00  0.73214686E+00  0.19443699E+00
  0.99739022E+00  0.69964112E+00  0.20434805E+00
  0.43034725E+00  0.89619738E+00  0.31559131E+00
  0.75574504E-01  0.53297387E+00  0.75764338E-01
  0.32120818E+00  0.11516927E+00  0.41774520E+00