Amorphous Sb2Se3                        
  0.850000000000000     
    20.9867606951059784    0.0000000000000000    0.0000000000000000
     0.0000000000000000   20.9867606951059784    0.0000000000000000
     0.0000000000000000    0.0000000000000000   20.9867606951059784
   Sb   Se
   120   180
Direct
  0.2537654434682733  0.5740087058921985  0.1485919199986805
  0.1871387679606480  0.4997574283404599  0.4118174693366057
  0.5533838577748619  0.9505266523480758  0.1665663192988595
  0.6209587604019168  0.3409570132693085  0.0092046540819238
  0.4332077639944891  0.7868590174248870  0.6168133385734889
  0.7673572473619228  0.9547517206432491  0.3644659975720109
  0.6178227562010795  0.5143398246308341  0.3860770718763896
  0.0336891803990435  0.8089291806608692  0.2617006215696727
  0.9372403037519507  0.0207564689279982  0.5955344204408776
  0.4907089313524026  0.7248878077944019  0.0362304409063687
  0.9278379277424107  0.5486913812665974  0.2747991872177899
  0.5168298158871691  0.5809727458997771  0.5643354545545247
  0.7829948103962562  0.9149483135872314  0.8145726759202789
  0.6796079713030475  0.0546613537920073  0.2177205638737809
  0.5010634471756973  0.5018926390162906  0.2702123792747117
  0.2564169606541382  0.2940603950496129  0.9264644422363407
  0.9052110377093928  0.5442185347332803  0.4640190752562263
  0.9848046920196932  0.8674997793988505  0.7565149069839507
  0.5891613720609401  0.6343391671851423  0.2126315456157513
  0.4935733632069048  0.3524950456133811  0.1080419771755797
  0.6613573610351253  0.3020042096494899  0.8564122036606737
  0.7447190663637708  0.4545755446056019  0.9082221883554973
  0.3477734076117270  0.5544306654981924  0.8540531647771350
  0.9416707099822329  0.3289076591325619  0.1001905882555813
  0.8818577663107094  0.5437931825152169  0.8810108654773127
  0.6471704625803998  0.0819022636089621  0.6214032013007205
  0.6089901582296524  0.8231754049986545  0.4130547639442643
  0.4957974092815596  0.3137858074080300  0.8949197161468360
  0.3658781784177336  0.3509691305848802  0.4737234020014418
  0.7453299923922989  0.2235303851156062  0.0868696405159380
  0.9049007858082951  0.7465349670330371  0.0184636915059640
  0.7015567168985041  0.3841565871442220  0.1500547586855966
  0.7373789693353592  0.4462968299775925  0.5419629462824713
  0.3426428727498199  0.8327733324124581  0.2190205961948623
  0.0583275630000801  0.8775176424400367  0.5586592385423537
  0.4538886520290268  0.5663029340754742  0.0904852580477842
  0.7812615819818540  0.6312870015090135  0.3012859847698059
  0.0321645802277299  0.5076506315245111  0.1495498202043129
  0.6190789917440060  0.2960702528527812  0.6053678002526462
  0.5993642756124345  0.0456460182354568  0.4740966164621383
  0.6124951221569817  0.8806631752489714  0.9571902607220291
  0.4734283937334877  0.6685894804349755  0.3559418435837122
  0.6571192695736374  0.7456873524402825  0.7803756785844435
  0.0496363212830347  0.2700577555202746  0.6192085482910108
  0.8563395129736221  0.2625675411414575  0.9256299035732407
  0.0818553222321983  0.3747643031660878  0.3801281977322063
  0.8183011971420878  0.2019387559381506  0.6297957193928236
  0.3802770230608757  0.1114357419166066  0.2666185766744326
  0.0432457511501744  0.6785691257347927  0.4316940293646795
  0.0412533102704310  0.6572705864942002  0.7715840542228275
  0.2677183577521388  0.6524253583108277  0.6970550577723623
  0.2233025867585915  0.1911288151366174  0.7654552641792414
  0.9953102404121874  0.4932987183123010  0.6643201857226161
  0.5269024195437252  0.3865326863283805  0.4542417109482842
  0.0489669409068269  0.1745076769229390  0.0621829033823249
  0.8633410751003155  0.7499652525601578  0.7254977442925407
  0.0254465649560033  0.2612486422776174  0.9263006076298120
  0.8229191216266738  0.0330015587223194  0.0681431604530529
  0.0579312491061930  0.6952883148017373  0.9570524696861609
  0.5061180491671373  0.1730586362639057  0.6063834990010902
  0.9239175249089591  0.8258473548967623  0.4580093884944766
  0.6708162854608318  0.4377608781548028  0.7621237536798517
  0.0424044245496590  0.8610728446768171  0.9726305949549855
  0.2198420661761944  0.8963677336176706  0.6693429177509727
  0.5730609481040019  0.6046006857693192  0.8232812602021008
  0.1802293226667116  0.7901248142810015  0.1041721700509954
  0.3739665066151187  0.3660683374923903  0.7283799011793504
  0.5928161119092216  0.9625193152149288  0.3322919673847914
  0.3177936787537864  0.0697150208584716  0.5881576119116741
  0.4775389585364235  0.7482998206591164  0.8220665402377990
  0.7253361853998176  0.1751465991619073  0.9258364488299958
  0.4461226284406915  0.1234881558120533  0.4491652391369464
  0.3284865235594220  0.8305484401436717 -0.0009177307310298
  0.1689907580574729  0.4941837647143764  0.7812298149607111
  0.2166998875921644  0.0243758513897871  0.0047631931560555
  0.3165396860649237  0.4225916233891281  0.0361029574115343
  0.0546021101212838  0.0821071053598897  0.2433990486160430
  0.6357339520927067  0.9068696040647258  0.6436896482866122
  0.4201349502361604  0.1040442723282358  0.8925631967153799
  0.1379536013124722  0.9574969411795401  0.3712171351340626
  0.3422118430989456  0.6422227463575767  0.4669946237623785
  0.7861648070296944  0.3774169746028740  0.3406365141222132
  0.4500670240325482  0.1457137764268543  0.0441006803212946
  0.1616196640139988  0.5642525156948170  0.9731441182994205
  0.8074715701056310  0.5932943287232162  0.1388678221522130
  0.7517934790135978  0.6943639413392626  0.4565107634103281
  0.6029248743046138  0.2389420818874428  0.3230337914287620
  0.7989092918235738  0.2213276996424742  0.3864341250900751
  0.8707064719924489  0.1442053487225536  0.1999471579329472
  0.9662414829881614  0.3239296175493376  0.4867572483896113
  0.7090373436197208  0.7319827028866820  0.0447343224816522
  0.3681810573104424  0.2052340472945022  0.6916349656993065
  0.3774483633306399  0.9203971652824104  0.8075097700158861
  0.6412327806273105  0.7653447880396821  0.5661609950586146
  0.9763326311988472  0.1385451436268577  0.6917335698586687
  0.9944227514884364  0.3815041266952131  0.8098668949088197
  0.9486642210397636  0.9187473049340616  0.1763461391210632
  0.2470677324336255  0.2119395159121252  0.4208785062159918
  0.7891934288832928  0.0775256996864268  0.4913109688184333
  0.9381921805595934  0.9925401204561272  0.9082615715524720
  0.0836707231573989  0.0949015404580389  0.8038240287139756
  0.2322318707909633  0.8041585050841284  0.4170203231839286
  0.1095921684979390  0.0933729542274003  0.6058512782540758
  0.6413703528265204  0.5771354946047210  0.6759292834193333
  0.7098276891023743  0.8734200374104538  0.2106906604584073
  0.5286415574304992  0.0272602052123115  0.7285326303248751
  0.3466566198967254  0.3128922402316142  0.2363478373046237
  0.8072109677226752  0.1325760195505763  0.7924282090029039
  0.1421884083019093  0.7361935340058183  0.5602856871036629
  0.4991062243498497  0.4748502584410044  0.7118019538187896
  0.3913402345320797  0.0030711474209444  0.1041502415732367
  0.4726365055156039  0.0099645559874616  0.5725637604353667
  0.9911788145293383  0.1219153578088028  0.3916872661460607
  0.2262146419152965  0.4191642104920907  0.2273946225461231
  0.1357122240777887  0.2913778363617132  0.2009137925355390
  0.4430152590563340  0.8295527689142195  0.3526706623862875
  0.6755829128452778  0.2057149891020864  0.7298668000410213
  0.1982470167246698  0.4524302654878189  0.5946902348895070
  0.1921094095301990  0.6638552502270847  0.2648043433354604
  0.3018020676252309  0.1562443788120804  0.1208491736873054
  0.6578670021225692  0.5885936958370217  0.5177854103725553
  0.4712916844957017  0.5346080413842422  0.4325610407201227
 -0.0031966622626431  0.2193586576905611  0.2008165763384125
  0.4506352172733450  0.2262485240665299  0.1856286000492854
  0.8864016703790736  0.1784429211669286  0.0445641269792282
  0.5224317816330000  0.8756503518601889  0.5357435398359174
  0.0429397248798439  0.6652373885390886  0.2772423763513127
  0.9133662311678705  0.2467159894683158  0.7765865264904893
  0.7970814227630560  0.3540374917128559  0.0236742835227553
  0.9552102725204505  0.1354245890172983  0.8764922310453314
  0.0548844259576801  0.4577142500233967 -0.0133689676980918
  0.4377308260092461  0.8620208719783342  0.1008735757302852
  0.0633908424027250  0.4767441677979511  0.5261535754001363
  0.5329153895932820  0.3261344727728221  0.7396675247575765
  0.8164852950582907 -0.0153583451107893  0.2132606282762014
  0.9826844841920490  0.9747499976474647  0.3257112601632779
  0.2853740735861138  0.3366417178343901  0.6116421090480572
  0.7422756553494320  0.8089618657612392  0.3471588848822991
  0.9042132523132553  0.9103819960245393  0.0358817793298066
  0.2235562609076876  0.0492226028223577  0.6974551475099899
  0.7469557206267112  0.3440799658631753  0.6577687956105873
  0.3827208427951350  0.0594362287983843  0.7483730977152946
  0.7811360400298425  0.7513558392590546  0.8534730385126664
  0.0218232499194490  0.7525919812381847  0.6554788772280890
  0.1204262489039943  0.5823122983595215  0.6705347346997361
  0.7006211230630877  0.1901751486139243  0.5321685083652129
  0.9246839341356802  0.4197804232153972  0.3686781227127499
  0.3670856547871253  0.7972442265622318  0.4744287428892907
  0.6057893640135158  0.2600114332782882  0.1686238380760435
  0.3953802661624622  0.6110354758995405  0.2241255135316962
  0.6050400474229765  0.6271470135111987  0.0667296539863333
  0.2358568804805496  0.0501976148569071  0.8571628577186617
  0.1593751418128481  0.7616517731799709  0.7145495746489180
  0.1998996375666611  0.6272414159522118  0.8368653180038137
  0.5604473892370052  0.1728427428878170  0.8938107153237507
  0.3188344169229854  0.5756084239744380  0.0176093669542632
  0.3175056411494587  0.0729370046353150  0.3924254177524236
  0.5337883735323277  0.0063567432389688  0.0268780705479444
  0.7061959155660109  0.7184555785609755  0.1980889332390373
  0.3656580302789247  0.9248219162929455  0.6494657941929743
  0.3856185235909413  0.6332602573560088  0.6048774125358192
  0.6496278153345987  0.3849893729154394  0.2903520049696344
  0.3500790942870698  0.2072788298108959  0.5306348370029895
  0.8141415755114970  0.6348003586277919  0.9930423608160366
  0.9108296900582177  0.7161672629126682  0.5772317620260603
  0.9177513900287146  0.1582355898190276  0.5196479842274838
  0.8128916936149491  0.6125001559523561  0.5610721397622054
  0.8921382744215151  0.7301301449867779  0.2368079657558301
  0.6105968508455414  0.7346517377372433  0.9284112828946441
  0.0307604952727453  0.7915534809027103  0.1112188685368679
  0.3477547744012734  0.9470542463806139  0.4984301578654581
  0.5101026826976749  0.7112312736929550  0.4945773588476172
  0.6746342230027154  0.3381358944831394  0.4487147305764911
  0.1175732616513698  0.9461935460734491  0.2190090471274352
  0.2400498307944203  0.4581480575156165  0.9084411991535419
  0.9446634178679605  0.6525320304366042  0.1346345614197255
  0.5284089352266852  0.1737763514352833  0.7540966885386962
  0.1604505945205084  0.3335657680870442  0.5046820334428765
  0.3693713261537591  0.6937350103195069  0.9127234632219605
  0.9700488081820335  0.0549355831536099  0.1259666103156118
  0.9330394561097205  0.6905386762215372  0.8707233301117989
  0.3560737250968317  0.9745807943357283  0.9580315951557695
  0.3234768977769798  0.7196519207384225  0.3210803869337989
  0.2959480627120388  0.1512043748391223  0.9722224911717930
  0.6453335393774693  0.0293801131708697  0.9173049162655215
  0.0868768100412859  0.9620772063579928  0.0820923319253699
  0.6850774737534617  0.5932483140381705  0.9171145530961734
  0.4206411442035511  0.9693864286085390  0.2478315934603264
  0.2166355659704554  0.6094867203230339  0.5568768283634028
  0.3032069825136655  0.5479754198767025  0.3253178602462631
  0.9128166976626407  0.8454908096467013  0.8855304389682415
  0.3805709350089760  0.4044479300083039  0.8689877080752639
  0.2625424538527096  0.9262800553426107  0.1231279018954148
  0.5217467314144940  0.1103210549338642  0.3172169893810050
  0.4032105496885514  0.2810066131027493  0.0082195477006596
  0.7962957707579903  0.3417685639975516  0.8137801274796652
  0.8319012129893855  0.4515378505230849  0.2129418720071594
  0.8872030624012388  0.9721191182819081  0.4594602043511902
  0.5981320053870612  0.4837737104159425  0.9871344966700308
  0.1585656811539928  0.1181264127686984  0.1355397515002750
  0.1043656366513139  0.2387377238914470  0.3379387628267596
  0.5060080051371361  0.8700289803174803  0.7254234187684714
  0.0762822402704661  0.2448301217869515  0.7790974364645374
  0.2341004877189440  0.3364255673201634  0.7786423625224205
  0.6866627908562313  0.0863636115405125  0.0740208336481319
  0.2275572226961133  0.9183723245781193  0.8204916605559236
  0.3783879402955672  0.4364119125619985  0.3367139267762432
  0.7647054050702662  0.8491278769263116  0.9642473242697939
  0.4588909055371106  0.9675305746930315  0.3996602750205696
  0.1915185070346032  0.2156021623995804  0.6240166358262851
  0.5488554777695611  0.2301547027198611  0.4666484747838879
  0.3150160295138745  0.7198663342583044  0.1220399712694382
  0.4998422901441800  0.3527290355228270  0.3027085844356979
  0.6947535177162160  0.9349824745683862  0.5010251164737117
  0.2792131111943648  0.7751111919845043  0.5972399765598746
  0.4597892544584419  0.4495342439999034  0.9959415768870622
  0.8771356760993529  0.4501420280429406  0.7598537463313991
  0.5737662299536942  0.4715906019458704  0.1434006416748939
  0.6895411509476552  0.0398898778537499  0.7762897721246963
  0.9138232392088201  0.3244103744138784  0.6623140021276013
  0.1676401809283895  0.0938176892117557  0.3366176661985113
  0.3503685817343374  0.7766463970045688  0.7483746508710637
  0.7951885685044193  0.0297716107082970  0.9249149615484598
  0.3805725227634760  0.4532174489296375  0.1648977737508044
  0.7567839122282999  0.6027483367110424  0.8040418438542595
  0.0730361975417598  0.9519591508766191  0.8473595976962028
  0.0746979490803315  0.8247301770586315  0.4055773492575570
  0.2051772151989738  0.0821579207504703  0.4958550783783197
  0.9764288322487031  0.5768557689081401  0.0078923570540522
  0.4781137642769191  0.6029109184570778  0.9387626317098916
  0.5963143864751805  0.8156280736708872  0.0930915837744481
  0.4625147357165167  0.3233438932889897  0.5947599018288232
  0.5188642387732422  0.9924181152164092  0.8707142552444521
  0.2021385229928324  0.9199353394644585  0.5173917290338560
  0.0802030268099115  0.1922844845504931  0.4882156875426497
  0.0334568810543473  0.5244447984565942  0.8416183386544805
  0.7952663830835857  0.0438873600325805  0.6369538719895337
  0.7279971207370363  0.1909574727985497  0.2445555840742051
  0.7365310237435708  0.7008449491463598  0.6617040472835498
  0.1852149156654834  0.8094285953147350  0.2560198318761764
  0.1878070683132401  0.6502962123354016  0.4098996873531099
  0.0950715954954957  0.7893494045036417  0.8422372832391068
  0.6913774082994644  0.5339748634284363  0.2376562315115031
  0.4720550207029337  0.7295138277313253  0.2019172910437233
  0.6359751634973102  0.8864862994496066  0.8063277526075636
  0.0117444929667070  0.3831716557488292  0.2233304669181762
  0.8968220007059272  0.6905706839160235  0.3953734562431060
  0.1025274949559681  0.3885730478778515  0.6922979707888790
  0.8206116127539461  0.3099494461611813  0.5041409147603968
  0.1892434075528767  0.8845063500321450  0.9670501085927345
  0.2491879674867363  0.0206650345220254  0.2230812629028341
  0.9156467966415569  0.8776938195815979  0.6159735402528529
  0.5406422190218149  0.1005975268140076  0.1718008370589259
  0.5501111045058721  0.7069984734448204  0.6707485957309768
  0.5849770465546590  0.1966783792967559  0.0259622897551241
  0.8855584976282096  0.8595245650608597  0.3167291148700361
  0.2526168274115635  0.2036592841607036  0.2591730450504033
  0.8347552733108315  0.2987269044635732  0.2048745292624028
  0.1262973173068888  0.6444369252133780  0.1145940759252255
  0.8929676497534030  0.4422133946843760  0.5677862642672330
  0.2412270522370527  0.3646032511970057  0.3657840558391224
  0.1293002718388599  0.5174453292498251  0.2640858788856504
  0.2563436049241170  0.2927883040330578  0.0946278568681052
  0.1765683808845555  0.4542833965439423  0.0874023712109360
  0.0482136037248304  0.0089802714176972  0.4867421385223910
  0.8576991315774001  0.0892828714009501  0.3375676945814576
  0.0329914800411630  0.5387567191996214  0.3840419948931763
  0.2120781132884646  0.7154551163681075  0.9782029976591440
  0.1209012521214900  0.3702636111400844  0.8957470618134841
  0.9027815977143185  0.6078634519914645  0.7216035781033804
  0.5479190013157934  0.4617758726190321  0.8530486918169199
  0.9244169446633212  0.4049009728813680  0.9405222707216738
  0.5957426742904701  0.4436937052578132  0.5859949256951728
  0.9019385325440883  0.0000286871176590  0.7603336205440462
  0.0773285249222950  0.9573248777053764  0.6807895221653609
  0.1512494443975272  0.1857575729637976  0.9360286257958823
  0.7776663406298243  0.8782724053046141  0.6755703657414185
  0.3984842597053372  0.2461106790155597  0.3624485313176321
  0.5673038521247190  0.8234563127426421  0.2584952376738961
  0.4645895325663103  0.8443941409576898  0.9310626455889529
  0.4380040204790937  0.6087741942107522  0.7487073944329820
  0.3004339501054483  0.5015677240165404  0.7107498135300936
  0.3763802351500523  0.2336596124269401  0.8389617253424833
  0.7914342960265125  0.8177393833355007  0.5239886023848448
  0.2879776891822671  0.9198614693901319  0.3441177027465996
  0.7719346786540470  0.5123140564622531  0.6730397385795450
  0.0661720636912696  0.0511236006716745  0.9752069250027832
  0.8349709542942845  0.8064865573515437  0.1409907624052201
  0.7164038110429523  0.9290208025971624  0.0679481764217672
  0.6849327350790847  0.1078446285803901  0.3721354707063114
  0.4142894415242217  0.4631710139740220  0.5890298652192881
  0.9377005742577779  0.2592734687591478  0.3517455292971738
  0.6221163166014406  0.6689731953190051  0.3589009921736497
  0.7233892029185218  0.5046708677425865  0.0557560503880937
  0.0006532723969113  0.6087089785475693  0.5618042968492883
  0.8976825122648399  0.4774098385748666  0.0794121216753516
  0.7687935144681801  0.5145062384638833  0.3991836765790602
  0.0910397295437385  0.3194968420627363  0.0577774881725336
  0.3088939863297326  0.4924739216391710  0.4958049118823452
  0.2650795523963933  0.7723196973677237  0.8594165063561581
 
  0.00000000E+00  0.00000000E+00  0.00000000E+00
  0.00000000E+00  0.00000000E+00  0.00000000E+00
  0.00000000E+00  0.00000000E+00  0.00000000E+00
  0.00000000E+00  0.00000000E+00  0.00000000E+00
  0.00000000E+00  0.00000000E+00  0.00000000E+00
  0.00000000E+00  0.00000000E+00  0.00000000E+00
  0.00000000E+00  0.00000000E+00  0.00000000E+00
  0.00000000E+00  0.00000000E+00  0.00000000E+00
  0.00000000E+00  0.00000000E+00  0.00000000E+00
  0.00000000E+00  0.00000000E+00  0.00000000E+00
  0.00000000E+00  0.00000000E+00  0.00000000E+00
  0.00000000E+00  0.00000000E+00  0.00000000E+00
  0.00000000E+00  0.00000000E+00  0.00000000E+00
  0.00000000E+00  0.00000000E+00  0.00000000E+00
  0.00000000E+00  0.00000000E+00  0.00000000E+00
  0.00000000E+00  0.00000000E+00  0.00000000E+00
  0.00000000E+00  0.00000000E+00  0.00000000E+00
  0.00000000E+00  0.00000000E+00  0.00000000E+00
  0.00000000E+00  0.00000000E+00  0.00000000E+00
  0.00000000E+00  0.00000000E+00  0.00000000E+00
  0.00000000E+00  0.00000000E+00  0.00000000E+00
  0.00000000E+00  0.00000000E+00  0.00000000E+00
  0.00000000E+00  0.00000000E+00  0.00000000E+00
  0.00000000E+00  0.00000000E+00  0.00000000E+00
  0.00000000E+00  0.00000000E+00  0.00000000E+00
  0.00000000E+00  0.00000000E+00  0.00000000E+00
  0.00000000E+00  0.00000000E+00  0.00000000E+00
  0.00000000E+00  0.00000000E+00  0.00000000E+00
  0.00000000E+00  0.00000000E+00  0.00000000E+00
  0.00000000E+00  0.00000000E+00  0.00000000E+00
  0.00000000E+00  0.00000000E+00  0.00000000E+00
  0.00000000E+00  0.00000000E+00  0.00000000E+00
  0.00000000E+00  0.00000000E+00  0.00000000E+00
  0.00000000E+00  0.00000000E+00  0.00000000E+00
  0.00000000E+00  0.00000000E+00  0.00000000E+00
  0.00000000E+00  0.00000000E+00  0.00000000E+00
  0.00000000E+00  0.00000000E+00  0.00000000E+00
  0.00000000E+00  0.00000000E+00  0.00000000E+00
  0.00000000E+00  0.00000000E+00  0.00000000E+00
  0.00000000E+00  0.00000000E+00  0.00000000E+00
  0.00000000E+00  0.00000000E+00  0.00000000E+00
  0.00000000E+00  0.00000000E+00  0.00000000E+00
  0.00000000E+00  0.00000000E+00  0.00000000E+00
  0.00000000E+00  0.00000000E+00  0.00000000E+00
  0.00000000E+00  0.00000000E+00  0.00000000E+00
  0.00000000E+00  0.00000000E+00  0.00000000E+00
  0.00000000E+00  0.00000000E+00  0.00000000E+00
  0.00000000E+00  0.00000000E+00  0.00000000E+00
  0.00000000E+00  0.00000000E+00  0.00000000E+00
  0.00000000E+00  0.00000000E+00  0.00000000E+00
  0.00000000E+00  0.00000000E+00  0.00000000E+00
  0.00000000E+00  0.00000000E+00  0.00000000E+00
  0.00000000E+00  0.00000000E+00  0.00000000E+00
  0.00000000E+00  0.00000000E+00  0.00000000E+00
  0.00000000E+00  0.00000000E+00  0.00000000E+00
  0.00000000E+00  0.00000000E+00  0.00000000E+00
  0.00000000E+00  0.00000000E+00  0.00000000E+00
  0.00000000E+00  0.00000000E+00  0.00000000E+00
  0.00000000E+00  0.00000000E+00  0.00000000E+00
  0.00000000E+00  0.00000000E+00  0.00000000E+00
  0.00000000E+00  0.00000000E+00  0.00000000E+00
  0.00000000E+00  0.00000000E+00  0.00000000E+00
  0.00000000E+00  0.00000000E+00  0.00000000E+00
  0.00000000E+00  0.00000000E+00  0.00000000E+00
  0.00000000E+00  0.00000000E+00  0.00000000E+00
  0.00000000E+00  0.00000000E+00  0.00000000E+00
  0.00000000E+00  0.00000000E+00  0.00000000E+00
  0.00000000E+00  0.00000000E+00  0.00000000E+00
  0.00000000E+00  0.00000000E+00  0.00000000E+00
  0.00000000E+00  0.00000000E+00  0.00000000E+00
  0.00000000E+00  0.00000000E+00  0.00000000E+00
  0.00000000E+00  0.00000000E+00  0.00000000E+00
  0.00000000E+00  0.00000000E+00  0.00000000E+00
  0.00000000E+00  0.00000000E+00  0.00000000E+00
  0.00000000E+00  0.00000000E+00  0.00000000E+00
  0.00000000E+00  0.00000000E+00  0.00000000E+00
  0.00000000E+00  0.00000000E+00  0.00000000E+00
  0.00000000E+00  0.00000000E+00  0.00000000E+00
  0.00000000E+00  0.00000000E+00  0.00000000E+00
  0.00000000E+00  0.00000000E+00  0.00000000E+00
  0.00000000E+00  0.00000000E+00  0.00000000E+00
  0.00000000E+00  0.00000000E+00  0.00000000E+00
  0.00000000E+00  0.00000000E+00  0.00000000E+00
  0.00000000E+00  0.00000000E+00  0.00000000E+00
  0.00000000E+00  0.00000000E+00  0.00000000E+00
  0.00000000E+00  0.00000000E+00  0.00000000E+00
  0.00000000E+00  0.00000000E+00  0.00000000E+00
  0.00000000E+00  0.00000000E+00  0.00000000E+00
  0.00000000E+00  0.00000000E+00  0.00000000E+00
  0.00000000E+00  0.00000000E+00  0.00000000E+00
  0.00000000E+00  0.00000000E+00  0.00000000E+00
  0.00000000E+00  0.00000000E+00  0.00000000E+00
  0.00000000E+00  0.00000000E+00  0.00000000E+00
  0.00000000E+00  0.00000000E+00  0.00000000E+00
  0.00000000E+00  0.00000000E+00  0.00000000E+00
  0.00000000E+00  0.00000000E+00  0.00000000E+00
  0.00000000E+00  0.00000000E+00  0.00000000E+00
  0.00000000E+00  0.00000000E+00  0.00000000E+00
  0.00000000E+00  0.00000000E+00  0.00000000E+00
  0.00000000E+00  0.00000000E+00  0.00000000E+00
  0.00000000E+00  0.00000000E+00  0.00000000E+00
  0.00000000E+00  0.00000000E+00  0.00000000E+00
  0.00000000E+00  0.00000000E+00  0.00000000E+00
  0.00000000E+00  0.00000000E+00  0.00000000E+00
  0.00000000E+00  0.00000000E+00  0.00000000E+00
  0.00000000E+00  0.00000000E+00  0.00000000E+00
  0.00000000E+00  0.00000000E+00  0.00000000E+00
  0.00000000E+00  0.00000000E+00  0.00000000E+00
  0.00000000E+00  0.00000000E+00  0.00000000E+00
  0.00000000E+00  0.00000000E+00  0.00000000E+00
  0.00000000E+00  0.00000000E+00  0.00000000E+00
  0.00000000E+00  0.00000000E+00  0.00000000E+00
  0.00000000E+00  0.00000000E+00  0.00000000E+00
  0.00000000E+00  0.00000000E+00  0.00000000E+00
  0.00000000E+00  0.00000000E+00  0.00000000E+00
  0.00000000E+00  0.00000000E+00  0.00000000E+00
  0.00000000E+00  0.00000000E+00  0.00000000E+00
  0.00000000E+00  0.00000000E+00  0.00000000E+00
  0.00000000E+00  0.00000000E+00  0.00000000E+00
  0.00000000E+00  0.00000000E+00  0.00000000E+00
  0.00000000E+00  0.00000000E+00  0.00000000E+00
  0.00000000E+00  0.00000000E+00  0.00000000E+00
  0.00000000E+00  0.00000000E+00  0.00000000E+00
  0.00000000E+00  0.00000000E+00  0.00000000E+00
  0.00000000E+00  0.00000000E+00  0.00000000E+00
  0.00000000E+00  0.00000000E+00  0.00000000E+00
  0.00000000E+00  0.00000000E+00  0.00000000E+00
  0.00000000E+00  0.00000000E+00  0.00000000E+00
  0.00000000E+00  0.00000000E+00  0.00000000E+00
  0.00000000E+00  0.00000000E+00  0.00000000E+00
  0.00000000E+00  0.00000000E+00  0.00000000E+00
  0.00000000E+00  0.00000000E+00  0.00000000E+00
  0.00000000E+00  0.00000000E+00  0.00000000E+00
  0.00000000E+00  0.00000000E+00  0.00000000E+00
  0.00000000E+00  0.00000000E+00  0.00000000E+00
  0.00000000E+00  0.00000000E+00  0.00000000E+00
  0.00000000E+00  0.00000000E+00  0.00000000E+00
  0.00000000E+00  0.00000000E+00  0.00000000E+00
  0.00000000E+00  0.00000000E+00  0.00000000E+00
  0.00000000E+00  0.00000000E+00  0.00000000E+00
  0.00000000E+00  0.00000000E+00  0.00000000E+00
  0.00000000E+00  0.00000000E+00  0.00000000E+00
  0.00000000E+00  0.00000000E+00  0.00000000E+00
  0.00000000E+00  0.00000000E+00  0.00000000E+00
  0.00000000E+00  0.00000000E+00  0.00000000E+00
  0.00000000E+00  0.00000000E+00  0.00000000E+00
  0.00000000E+00  0.00000000E+00  0.00000000E+00
  0.00000000E+00  0.00000000E+00  0.00000000E+00
  0.00000000E+00  0.00000000E+00  0.00000000E+00
  0.00000000E+00  0.00000000E+00  0.00000000E+00
  0.00000000E+00  0.00000000E+00  0.00000000E+00
  0.00000000E+00  0.00000000E+00  0.00000000E+00
  0.00000000E+00  0.00000000E+00  0.00000000E+00
  0.00000000E+00  0.00000000E+00  0.00000000E+00
  0.00000000E+00  0.00000000E+00  0.00000000E+00
  0.00000000E+00  0.00000000E+00  0.00000000E+00
  0.00000000E+00  0.00000000E+00  0.00000000E+00
  0.00000000E+00  0.00000000E+00  0.00000000E+00
  0.00000000E+00  0.00000000E+00  0.00000000E+00
  0.00000000E+00  0.00000000E+00  0.00000000E+00
  0.00000000E+00  0.00000000E+00  0.00000000E+00
  0.00000000E+00  0.00000000E+00  0.00000000E+00
  0.00000000E+00  0.00000000E+00  0.00000000E+00
  0.00000000E+00  0.00000000E+00  0.00000000E+00
  0.00000000E+00  0.00000000E+00  0.00000000E+00
  0.00000000E+00  0.00000000E+00  0.00000000E+00
  0.00000000E+00  0.00000000E+00  0.00000000E+00
  0.00000000E+00  0.00000000E+00  0.00000000E+00
  0.00000000E+00  0.00000000E+00  0.00000000E+00
  0.00000000E+00  0.00000000E+00  0.00000000E+00
  0.00000000E+00  0.00000000E+00  0.00000000E+00
  0.00000000E+00  0.00000000E+00  0.00000000E+00
  0.00000000E+00  0.00000000E+00  0.00000000E+00
  0.00000000E+00  0.00000000E+00  0.00000000E+00
  0.00000000E+00  0.00000000E+00  0.00000000E+00
  0.00000000E+00  0.00000000E+00  0.00000000E+00
  0.00000000E+00  0.00000000E+00  0.00000000E+00
  0.00000000E+00  0.00000000E+00  0.00000000E+00
  0.00000000E+00  0.00000000E+00  0.00000000E+00
  0.00000000E+00  0.00000000E+00  0.00000000E+00
  0.00000000E+00  0.00000000E+00  0.00000000E+00
  0.00000000E+00  0.00000000E+00  0.00000000E+00
  0.00000000E+00  0.00000000E+00  0.00000000E+00
  0.00000000E+00  0.00000000E+00  0.00000000E+00
  0.00000000E+00  0.00000000E+00  0.00000000E+00
  0.00000000E+00  0.00000000E+00  0.00000000E+00
  0.00000000E+00  0.00000000E+00  0.00000000E+00
  0.00000000E+00  0.00000000E+00  0.00000000E+00
  0.00000000E+00  0.00000000E+00  0.00000000E+00
  0.00000000E+00  0.00000000E+00  0.00000000E+00
  0.00000000E+00  0.00000000E+00  0.00000000E+00
  0.00000000E+00  0.00000000E+00  0.00000000E+00
  0.00000000E+00  0.00000000E+00  0.00000000E+00
  0.00000000E+00  0.00000000E+00  0.00000000E+00
  0.00000000E+00  0.00000000E+00  0.00000000E+00
  0.00000000E+00  0.00000000E+00  0.00000000E+00
  0.00000000E+00  0.00000000E+00  0.00000000E+00
  0.00000000E+00  0.00000000E+00  0.00000000E+00
  0.00000000E+00  0.00000000E+00  0.00000000E+00
  0.00000000E+00  0.00000000E+00  0.00000000E+00
  0.00000000E+00  0.00000000E+00  0.00000000E+00
  0.00000000E+00  0.00000000E+00  0.00000000E+00
  0.00000000E+00  0.00000000E+00  0.00000000E+00
  0.00000000E+00  0.00000000E+00  0.00000000E+00
  0.00000000E+00  0.00000000E+00  0.00000000E+00
  0.00000000E+00  0.00000000E+00  0.00000000E+00
  0.00000000E+00  0.00000000E+00  0.00000000E+00
  0.00000000E+00  0.00000000E+00  0.00000000E+00
  0.00000000E+00  0.00000000E+00  0.00000000E+00
  0.00000000E+00  0.00000000E+00  0.00000000E+00
  0.00000000E+00  0.00000000E+00  0.00000000E+00
  0.00000000E+00  0.00000000E+00  0.00000000E+00
  0.00000000E+00  0.00000000E+00  0.00000000E+00
  0.00000000E+00  0.00000000E+00  0.00000000E+00
  0.00000000E+00  0.00000000E+00  0.00000000E+00
  0.00000000E+00  0.00000000E+00  0.00000000E+00
  0.00000000E+00  0.00000000E+00  0.00000000E+00
  0.00000000E+00  0.00000000E+00  0.00000000E+00
  0.00000000E+00  0.00000000E+00  0.00000000E+00
  0.00000000E+00  0.00000000E+00  0.00000000E+00
  0.00000000E+00  0.00000000E+00  0.00000000E+00
  0.00000000E+00  0.00000000E+00  0.00000000E+00
  0.00000000E+00  0.00000000E+00  0.00000000E+00
  0.00000000E+00  0.00000000E+00  0.00000000E+00
  0.00000000E+00  0.00000000E+00  0.00000000E+00
  0.00000000E+00  0.00000000E+00  0.00000000E+00
  0.00000000E+00  0.00000000E+00  0.00000000E+00
  0.00000000E+00  0.00000000E+00  0.00000000E+00
  0.00000000E+00  0.00000000E+00  0.00000000E+00
  0.00000000E+00  0.00000000E+00  0.00000000E+00
  0.00000000E+00  0.00000000E+00  0.00000000E+00
  0.00000000E+00  0.00000000E+00  0.00000000E+00