POSCAR                                  
   1.00000000000000     
    22.0035911595442357    0.0000000000000000    0.0000000000000000
     0.0000000000000000   22.0035911595442357    0.0000000000000000
     0.0000000000000000    0.0000000000000000   22.0035911595442357
   Ge   Sb   Te
    43    86   172
Direct
  0.9292493399999984  0.3129335300000022  0.9374966499999999
  0.7034050500000006  0.0372001470000001  0.3715926799999991
  0.9309673699999976  0.6170731300000014  0.1488464800000031
  0.0301526789999969  0.8041433100000006  0.9386677000000034
  0.2939547800000000  0.8069604699999999  0.6526190499999984
  0.1824007299999977  0.9434311400000013  0.8728936700000034
  0.0684576780000015  0.1637133199999994  0.4649104499999979
  0.9229355000000012  0.7745319499999965  0.3873347299999992
  0.0137829370000020  0.3924308300000021  0.2230069000000015
  0.1772678800000023  0.2374678500000016  0.3950395099999966
  0.6125200000000035  0.7049536800000027  0.0448169340000035
  0.9656545400000027  0.0292390420000004  0.0722951429999981
  0.9004760099999984  0.1220032800000013  0.0223112549999982
  0.8173330999999990  0.5329170400000010  0.6208852000000036
  0.8591164700000036  0.9823597600000014  0.3190814700000004
  0.7797939700000001  0.6106375199999974  0.2226201200000020
  0.1700462000000016  0.5727558299999984  0.8962176900000003
  0.7890961100000027  0.7393190100000027  0.1990157500000009
  0.4551081600000018  0.4294190600000007  0.1806831000000031
  0.7833076000000005  0.6497772000000026  0.4014146499999995
  0.8730841300000023  0.7431255699999966  0.9343174400000009
  0.0210334249999988  0.5948420400000032  0.6407227999999989
  0.7523771600000018  0.5983933699999966  0.0067652010000003
  0.6818344400000029  0.4817564499999989  0.2854373300000006
  0.2051421399999995  0.4129508500000014  0.0093716813000029
  0.2166552999999993  0.7546050899999983  0.8439428900000010
  0.6601548699999995  0.1072595300000003  0.6018007099999991
  0.3721049700000023  0.8470283600000030  0.0761998449999979
  0.5683896099999970  0.1847742499999967  0.6018900700000032
  0.8827129499999984  0.6088555600000021  0.6840993100000006
  0.4171758399999987  0.9997445099999993  0.1113695700000008
  0.1955368699999980  0.9989278262999974  0.0696410429999972
  0.7632295900000017  0.3363832499999972  0.5547400199999970
  0.5418191500000020  0.7440839400000030  0.4918869299999997
  0.2236614500000016  0.5816554000000025  0.4783786200000009
  0.4707130800000030  0.4616303299999984  0.3889441500000004
  0.9740512300000006  0.0166067079999976  0.4564384199999978
  0.1816327200000032  0.2893065600000000  0.6700210099999993
  0.0767844949999983  0.7617728600000007  0.2753033500000015
  0.0967840200000012  0.1567701399999990  0.1110917900000032
  0.4043687100000000  0.8172229799999968  0.5189121000000014
  0.6144610999999998  0.3358560799999992  0.0536110059999970
  0.0883861740000000  0.8143441499999966  0.6104531300000033
  0.8473890200000014  0.1416688300000004  0.6541956200000030
  0.0712753190000015  0.9007955499999980  0.1525298700000022
  0.4280722600000004  0.1572320599999983  0.6767882400000005
  0.3706652400000010  0.9277412100000006  0.4688400599999980
  0.1089703999999969  0.0751719699999995  0.5631332000000029
  0.6874018099999972  0.9492190300000019  0.1758794699999982
  0.9116477800000027  0.8681762699999993  0.2999100700000028
  0.9124771700000025  0.9189116599999991  0.9973260944000018
  0.8297125400000027  0.9308095299999977  0.1061044599999974
  0.1008591499999980  0.1107314500000030  0.2262619199999989
  0.3785908799999973  0.2344983899999988  0.1752608899999970
  0.8248395600000009  0.2225874000000019  0.2438283899999973
  0.6683698000000007  0.7952026099999969  0.8169168900000017
  0.4710972100000035  0.3084153300000025  0.5903333999999987
  0.6201003199999988  0.1537471099999976  0.8500984399999965
  0.5706952800000025  0.3781176199999976  0.5349640399999984
  0.4440443299999970  0.8172021299999983  0.7980846800000023
  0.5504132800000008  0.3441688999999997  0.6996000099999975
  0.7627901399999999  0.8255733900000024  0.0469950159999968
  0.9084103300000024  0.1729047500000007  0.1498691800000032
  0.2736935000000003  0.6189819200000031  0.7463554999999999
  0.0390956379999992  0.4664913499999983  0.0546698670000012
  0.9512071099999986  0.5790853399999989  0.7874169899999970
  0.9621306100000027  0.5717287599999992  0.4563147100000009
  0.7370053300000023  0.8607640999999973  0.4414779900000028
  0.4342283900000012  0.3392131000000020  0.9229606000000032
  0.7324588399999996  0.9099570099999994  0.6684896000000009
  0.1998688299999998  0.2846799000000004  0.2146893199999980
  0.6851781100000025  0.5244721999999982  0.1297998800000002
  0.1083643699999968  0.6191569599999980  0.5504928399999969
  0.4735304700000000  0.0178537600000013  0.8269680000000008
  0.5333370700000017  0.0164988350000002  0.3256512600000008
  0.6318121500000018  0.4442579600000016  0.6582083999999995
  0.7848326900000018  0.1726731899999976  0.0024017213999983
  0.3295848799999987  0.5170605400000028  0.0249049700000015
  0.3193857300000005  0.3075355699999989  0.7042025900000013
  0.6831012900000033  0.7419938000000030  0.5762115300000019
  0.6758018399999983  0.4361606900000012  0.4063737900000035
  0.5424132200000003  0.2228213300000021  0.4165962200000024
  0.3173146700000018  0.5607020899999995  0.2915978500000023
  0.2279072299999996  0.2593829600000035  0.8223346300000003
  0.6126490199999992  0.6730385700000028  0.8394596600000028
  0.5572991399999978  0.8626951399999996  0.0662394229999990
  0.7927124400000025  0.7482737300000011  0.8121265300000005
  0.2522895600000012  0.3900689600000007  0.8954547299999973
  0.5868111200000001  0.8499144399999992  0.3150344800000013
  0.1104629599999996  0.3684469100000030  0.5085020400000033
  0.9776178099999981  0.0099008365000017  0.7168665599999997
  0.6606807200000020  0.6382372799999985  0.6619646799999970
  0.6958412999999979  0.5455708200000018  0.5668629899999971
  0.1264914099999999  0.4728858100000011  0.3246443299999981
  0.8354087700000008  0.9519291000000010  0.4415304500000019
  0.0666728670000012  0.2063862899999975  0.7877197800000033
  0.5590776800000015  0.3725569500000034  0.4022720500000005
  0.3269782899999996  0.2868532999999971  0.9922602012999988
  0.2787827300000032  0.7340736000000021  0.5495231700000005
  0.4952956400000019  0.0649611179999994  0.9648643299999975
  0.9362880500000017  0.3344388499999980  0.6887138299999975
  0.3824070800000001  0.6334802100000019  0.1387463000000011
  0.7979859499999975  0.3825035099999994  0.1692807100000024
  0.9664049340000034  0.1734845499999977  0.3253852300000020
  0.5368419500000030  0.9565428499999982  0.6733634100000003
  0.2003970399999986  0.1185525300000023  0.9408694600000018
  0.4860431899999966  0.5778697499999979  0.5121522199999973
  0.5628367500000024  0.6574703300000024  0.3450222399999987
  0.7862991100000016  0.0214723679999977  0.9137989399999995
  0.3797115799999986  0.0777425610000009  0.3967609199999984
  0.3089517100000023  0.7028267600000007  0.3984436900000006
  0.8332595400000002  0.5315249699999995  0.8420760200000004
  0.9560223399999970  0.4009525999999966  0.3905154300000007
  0.4140724199999966  0.1277637199999972  0.5166359299999996
  0.0133023770000023  0.2498536000000016  0.1070882300000022
  0.1990974300000019  0.8947661600000032  0.6551222900000013
  0.5608232100000023  0.9390576899999985  0.2185857600000034
  0.3999316800000017  0.4080992100000032  0.6493305999999990
  0.4618694500000018  0.1398520799999972  0.2215020699999997
  0.0571602110000029  0.6912583499999982  0.4504601399999970
  0.5018577900000025  0.5525878999999989  0.7613835000000009
  0.5961572399999966  0.4548044599999983  0.8808362899999977
  0.8630200599999966  0.5593204700000030  0.3677887500000026
  0.0837386310000028  0.3255630100000033  0.3811647400000027
  0.0979552450000014  0.6399953800000020  0.1073132799999996
  0.8312640600000023  0.9546331299999977  0.8049450899999968
  0.4148224600000034  0.8940166200000021  0.2357315799999995
  0.6180541900000023  0.9815045499999968  0.0593777389999985
  0.0597820400000018  0.6428569400000015  0.8815169100000020
  0.1547862600000016  0.9901745800000015  0.2014971400000007
  0.1512026099999986  0.4375948100000002  0.6406749100000013
  0.3335308400000017  0.5487525699999978  0.4216892900000033
  0.9799415100000033  0.1114340499999997  0.5416519799999975
  0.2997723900000011  0.9286457999999982  0.1319421700000021
  0.1321525700000024  0.2351133800000014  0.9111745700000000
  0.1666061299999981  0.7148459699999989  0.6191479700000002
  0.3375016199999976  0.6343285800000018  0.6074119700000011
  0.0862498859999974  0.5212282500000001  0.1663786599999995
  0.1700418900000003  0.5303122400000007  0.0113751980000032
  0.1267659000000023  0.7318568099999965  0.9575008099999991
  0.6377982400000022  0.7347424299999972  0.4205938799999984
  0.7267782500000024  0.1271404399999980  0.7030580400000019
  0.6036492499999966  0.5766181400000008  0.0445257579999989
  0.2824767399999999  0.1230373100000008  0.1436158100000000
  0.0597641000000024  0.9253430799999975  0.9173359199999993
  0.1143531900000028  0.3512491199999985  0.0584685359999995
  0.5502468899999968  0.7389204500000019  0.9347553099999999
  0.2796509599999979  0.5511966999999984  0.1496704899999983
  0.8168004500000023  0.8669950099999966  0.9121025900000035
  0.8905482799999973  0.3292586999999969  0.5652233300000020
  0.6003039799999996  0.4214506200000017  0.1466184200000029
  0.6209041199999987  0.0466859539999973  0.9266998599999994
  0.2309099399999965  0.1657711100000014  0.2620719600000001
  0.4620534399999983  0.8636334400000010  0.3530879300000009
  0.6826542900000021  0.3599515000000011  0.2352053500000011
  0.4571039799999994  0.6918381999999994  0.4222459000000001
  0.0012488799999986  0.4613606699999977  0.7591202999999993
  0.1044175600000017  0.3290966400000030  0.7599985700000005
  0.2551414499999964  0.1091234900000018  0.4215577200000027
  0.4434050999999997  0.5982908200000026  0.2700954700000011
  0.7748978400000013  0.2456655100000020  0.1255741599999993
  0.7914514100000005  0.0981533819999996  0.2659062600000013
  0.8059826200000018  0.3060592699999987  0.9740079899999969
  0.7166985699999984  0.5040567400000029  0.9272644699999972
  0.3885387799999975  0.9674475799999982  0.6960090800000032
  0.4339495600000021  0.2603662699999987  0.7572361499999971
  0.0981106050000022  0.2458139800000012  0.5820004999999995
  0.3959383799999969  0.3681478999999968  0.3499790899999979
  0.1576898599999979  0.8632638699999973  0.7771555100000000
  0.7326902699999991  0.1124778100000015  0.5037112500000021
  0.5384707700000035  0.1085641600000002  0.4867148200000031
  0.0466479350000029  0.0777530479999982  0.3700598499999970
  0.4292057299999996  0.2357516900000007  0.0573737100000002
  0.4919770600000035  0.4114268800000005  0.7951957100000016
  0.3416299599999988  0.6994446699999983  0.2723874899999998
  0.9859363200000004  0.2035207699999972  0.9832333379999980
  0.7067943699999972  0.7073654100000013  0.9610324000000006
  0.3155605700000024  0.7446192199999970  0.7570872499999979
  0.5150791900000016  0.4014692000000011  0.0052892073000024
  0.7556878099999977  0.4409816599999985  0.0565824130000010
  0.2757226299999971  0.6636964400000025  0.0626708189999974
  0.2811894499999994  0.9979031449000004  0.9634684899999968
  0.5583933099999996  0.7412146200000009  0.2429545199999978
  0.2849696399999999  0.8353960499999999  0.3906448299999994
  0.6394843799999990  0.9850188099999997  0.5916644799999986
  0.4903322199999991  0.1730950399999998  0.8890009400000025
  0.3715299999999999  0.0473459689999984  0.2278964799999983
  0.2024997899999974  0.2096693700000003  0.0790789019999991
  0.2759326400000006  0.6341852500000016  0.8817052500000031
  0.5163449000000000  0.6914703699999976  0.7538812000000021
  0.0388979069999991  0.8830997199999970  0.2911709999999985
  0.2584024700000001  0.0598954279999973  0.5449407400000013
  0.4298072099999999  0.2659545100000003  0.4686646600000017
  0.7017079299999978  0.9647663000000009  0.7833474800000033
  0.9317338700000022  0.8692117399999972  0.4689860399999972
  0.0824406730000007  0.9668462699999978  0.4983940099999984
  0.4365583399999977  0.9995854738800034  0.5645845399999985
  0.4498249600000008  0.5477572699999982  0.0629380629999972
  0.0731266579999996  0.2639592499999992  0.2395917799999978
  0.5509290800000031  0.0730110650000029  0.7303964800000031
  0.8400823300000013  0.8320535599999985  0.7238555699999978
  0.8874443200000002  0.6537845599999983  0.2788767199999995
  0.4502205900000007  0.9094624700000011  0.0019300638000033
  0.8332919899999993  0.4439750399999980  0.7043368100000009
  0.7265413599999988  0.3143942100000032  0.8719041100000027
  0.5470166799999987  0.9029882499999999  0.8087224300000031
  0.1389619799999977  0.8929877899999994  0.0314128939999989
  0.9204663599999989  0.3354799700000015  0.2851615699999996
  0.7877460699999972  0.8202309400000019  0.5566468600000007
  0.3081432999999976  0.3954184500000011  0.0766237099999998
  0.6982260600000032  0.6104899700000033  0.3228446099999971
  0.1165513600000025  0.0234678090000031  0.6852670600000010
  0.9428200199999992  0.4005893599999979  0.1206877899999981
  0.9543575799999999  0.7928660700000023  0.0330068720000014
  0.2239449899999997  0.3384940199999988  0.3350569899999982
  0.3358675099999999  0.4363420099999971  0.5403308599999974
  0.8276237199999983  0.0319172459999990  0.5739709400000024
  0.9324402599999999  0.2318837299999998  0.8432938899999982
  0.5145036600000026  0.5552511400000029  0.8948733300000029
  0.0838859329999977  0.8122431299999988  0.4857054300000030
  0.9111031600000032  0.9418675399999969  0.6304015799999974
  0.1785964999999976  0.6954150700000028  0.3662171499999971
  0.7724217700000011  0.6340970400000003  0.7428219999999968
  0.7489364199999997  0.3307864699999996  0.3619711099999989
  0.1865511900000030  0.1747621800000019  0.7279855900000030
  0.5197083400000011  0.4862230399999987  0.2754602300000002
  0.3440222300000002  0.4265710499999997  0.2478937200000004
  0.2463051399999969  0.9373640000000023  0.5077394799999979
  0.8642770399999975  0.6107385999999977  0.9427135899999968
  0.5313112899999979  0.6731992899999995  0.5911187299999980
  0.6026357200000021  0.5559259400000016  0.4589674300000013
  0.2970474500000009  0.8326502000000033  0.9105869799999979
  0.8927115600000022  0.7241535300000024  0.6360853300000002
  0.3225166799999997  0.2128225599999993  0.6165906700000008
  0.7672563200000013  0.1441750199999987  0.8703917200000006
  0.6627415000000028  0.8808015199999986  0.9799020940000034
  0.9152326700000017  0.0446015360000018  0.9243878699999968
  0.9001575699999975  0.4872635700000032  0.5368702499999998
  0.9965412174000008  0.2143501700000030  0.6666963899999985
  0.8592329599999999  0.1304339900000002  0.3806004400000020
  0.3582322299999987  0.0798059660000021  0.0290707639999965
  0.9979058500000022  0.6077390800000018  0.0308113740000024
  0.6394789599999982  0.8164811400000005  0.6870577099999977
  0.9816265589999986  0.2494918499999983  0.4320626900000022
  0.6190966200000005  0.2645536799999988  0.9179175299999969
  0.7383601800000008  0.3494054199999965  0.6836792400000036
  0.5218660099999965  0.8585230500000023  0.5149452200000013
  0.5108642399999965  0.4993444600000032  0.6209747099999987
  0.8255251499999972  0.4145126000000019  0.4291086699999980
  0.1228857799999972  0.6825107200000033  0.7708427999999969
  0.0099721656999989  0.7140557500000000  0.1707138299999968
  0.8930699699999991  0.4399887599999985  0.9185360700000018
  0.8371075399999981  0.6865199300000029  0.0946709749999997
  0.7694875700000026  0.6474691900000025  0.5232568899999990
  0.6461979199999988  0.5156276700000006  0.7680302099999992
  0.4856316300000003  0.3109792099999993  0.2283044400000023
  0.1534675699999966  0.8069258399999981  0.1870084999999975
  0.8850483599999990  0.8222603199999980  0.1807792600000013
  0.1662891400000035  0.5956007200000002  0.2846283299999968
  0.6084476999999993  0.9644984099999974  0.4174401499999973
  0.3627114399999982  0.9253450000000001  0.8230136700000017
  0.3686068100000028  0.5316773799999979  0.7402627399999986
  0.2722589299999996  0.7890227700000025  0.0295671630000029
  0.9670518100000010  0.7509648699999971  0.8482743300000024
  0.7989660499999971  0.7699402599999985  0.3650924599999996
  0.9720413300000033  0.0642349150000001  0.1947002300000023
  0.3689829899999992  0.4528754899999967  0.9017659000000009
  0.0260925119999982  0.4633161599999980  0.6041542899999968
  0.8840141100000025  0.0845670329999990  0.7695265999999990
  0.9802369499999983  0.9120367200000032  0.8020476800000012
  0.6955980199999985  0.0844627959999968  0.1686430999999970
  0.0156057370000013  0.4617884800000027  0.8873040900000007
  0.6400013700000002  0.2444628900000012  0.7074714000000029
  0.8120841200000015  0.2222071099999994  0.5361272800000023
  0.6862854000000027  0.7981436199999976  0.1497286900000034
  0.1793940000000021  0.4725771600000002  0.8269645100000034
  0.8436355199999994  0.2737201500000026  0.7575293200000033
  0.6238830100000001  0.1062450399999975  0.3000994900000009
  0.0800256460000028  0.0663204049999990  0.0312232960000003
  0.4111350100000024  0.8382933299999991  0.6408023099999980
  0.7447214999999971  0.9312082200000020  0.3032777800000019
  0.3644574599999970  0.0829032620000021  0.7664108700000014
  0.2480671400000034  0.0122643890000020  0.6875442699999965
  0.4411652699999991  0.7859572300000011  0.1569952299999997
  0.1290388000000036  0.4977934599999969  0.4521033099999983
  0.4212123200000022  0.1880720600000032  0.3389140299999980
  0.4218175000000031  0.7552533499999967  0.9117155400000030
  0.5643206100000029  0.2574762500000034  0.1367759600000014
  0.7642615399999997  0.0458540699999972  0.0578920909999994
  0.0144951070000019  0.7285697599999992  0.6831496400000034
  0.2893268500000019  0.8710306899999978  0.2641745000000029
  0.2540902200000019  0.5219044500000010  0.5926040499999985
  0.5217810799999967  0.0817325470000014  0.0960288280000015
  0.8055585899999969  0.4872806799999978  0.2565430200000023
  0.9297904200000033  0.6899989699999978  0.4993802199999990
  0.1424599400000020  0.0572519010000008  0.8406575400000023
  0.9957351513999981  0.4992810600000013  0.3092214799999979
  0.2132618400000013  0.2865166899999991  0.5053108999999978
  0.6298999899999984  0.2586444499999985  0.5179283100000021
  0.1270147299999991  0.5636110499999987  0.7062039899999988
  0.3099205500000011  0.1769854100000003  0.8894852199999974
 
  0.00000000E+00  0.00000000E+00  0.00000000E+00
  0.00000000E+00  0.00000000E+00  0.00000000E+00
  0.00000000E+00  0.00000000E+00  0.00000000E+00
  0.00000000E+00  0.00000000E+00  0.00000000E+00
  0.00000000E+00  0.00000000E+00  0.00000000E+00
  0.00000000E+00  0.00000000E+00  0.00000000E+00
  0.00000000E+00  0.00000000E+00  0.00000000E+00
  0.00000000E+00  0.00000000E+00  0.00000000E+00
  0.00000000E+00  0.00000000E+00  0.00000000E+00
  0.00000000E+00  0.00000000E+00  0.00000000E+00
  0.00000000E+00  0.00000000E+00  0.00000000E+00
  0.00000000E+00  0.00000000E+00  0.00000000E+00
  0.00000000E+00  0.00000000E+00  0.00000000E+00
  0.00000000E+00  0.00000000E+00  0.00000000E+00
  0.00000000E+00  0.00000000E+00  0.00000000E+00
  0.00000000E+00  0.00000000E+00  0.00000000E+00
  0.00000000E+00  0.00000000E+00  0.00000000E+00
  0.00000000E+00  0.00000000E+00  0.00000000E+00
  0.00000000E+00  0.00000000E+00  0.00000000E+00
  0.00000000E+00  0.00000000E+00  0.00000000E+00
  0.00000000E+00  0.00000000E+00  0.00000000E+00
  0.00000000E+00  0.00000000E+00  0.00000000E+00
  0.00000000E+00  0.00000000E+00  0.00000000E+00
  0.00000000E+00  0.00000000E+00  0.00000000E+00
  0.00000000E+00  0.00000000E+00  0.00000000E+00
  0.00000000E+00  0.00000000E+00  0.00000000E+00
  0.00000000E+00  0.00000000E+00  0.00000000E+00
  0.00000000E+00  0.00000000E+00  0.00000000E+00
  0.00000000E+00  0.00000000E+00  0.00000000E+00
  0.00000000E+00  0.00000000E+00  0.00000000E+00
  0.00000000E+00  0.00000000E+00  0.00000000E+00
  0.00000000E+00  0.00000000E+00  0.00000000E+00
  0.00000000E+00  0.00000000E+00  0.00000000E+00
  0.00000000E+00  0.00000000E+00  0.00000000E+00
  0.00000000E+00  0.00000000E+00  0.00000000E+00
  0.00000000E+00  0.00000000E+00  0.00000000E+00
  0.00000000E+00  0.00000000E+00  0.00000000E+00
  0.00000000E+00  0.00000000E+00  0.00000000E+00
  0.00000000E+00  0.00000000E+00  0.00000000E+00
  0.00000000E+00  0.00000000E+00  0.00000000E+00
  0.00000000E+00  0.00000000E+00  0.00000000E+00
  0.00000000E+00  0.00000000E+00  0.00000000E+00
  0.00000000E+00  0.00000000E+00  0.00000000E+00
  0.00000000E+00  0.00000000E+00  0.00000000E+00
  0.00000000E+00  0.00000000E+00  0.00000000E+00
  0.00000000E+00  0.00000000E+00  0.00000000E+00
  0.00000000E+00  0.00000000E+00  0.00000000E+00
  0.00000000E+00  0.00000000E+00  0.00000000E+00
  0.00000000E+00  0.00000000E+00  0.00000000E+00
  0.00000000E+00  0.00000000E+00  0.00000000E+00
  0.00000000E+00  0.00000000E+00  0.00000000E+00
  0.00000000E+00  0.00000000E+00  0.00000000E+00
  0.00000000E+00  0.00000000E+00  0.00000000E+00
  0.00000000E+00  0.00000000E+00  0.00000000E+00
  0.00000000E+00  0.00000000E+00  0.00000000E+00
  0.00000000E+00  0.00000000E+00  0.00000000E+00
  0.00000000E+00  0.00000000E+00  0.00000000E+00
  0.00000000E+00  0.00000000E+00  0.00000000E+00
  0.00000000E+00  0.00000000E+00  0.00000000E+00
  0.00000000E+00  0.00000000E+00  0.00000000E+00
  0.00000000E+00  0.00000000E+00  0.00000000E+00
  0.00000000E+00  0.00000000E+00  0.00000000E+00
  0.00000000E+00  0.00000000E+00  0.00000000E+00
  0.00000000E+00  0.00000000E+00  0.00000000E+00
  0.00000000E+00  0.00000000E+00  0.00000000E+00
  0.00000000E+00  0.00000000E+00  0.00000000E+00
  0.00000000E+00  0.00000000E+00  0.00000000E+00
  0.00000000E+00  0.00000000E+00  0.00000000E+00
  0.00000000E+00  0.00000000E+00  0.00000000E+00
  0.00000000E+00  0.00000000E+00  0.00000000E+00
  0.00000000E+00  0.00000000E+00  0.00000000E+00
  0.00000000E+00  0.00000000E+00  0.00000000E+00
  0.00000000E+00  0.00000000E+00  0.00000000E+00
  0.00000000E+00  0.00000000E+00  0.00000000E+00
  0.00000000E+00  0.00000000E+00  0.00000000E+00
  0.00000000E+00  0.00000000E+00  0.00000000E+00
  0.00000000E+00  0.00000000E+00  0.00000000E+00
  0.00000000E+00  0.00000000E+00  0.00000000E+00
  0.00000000E+00  0.00000000E+00  0.00000000E+00
  0.00000000E+00  0.00000000E+00  0.00000000E+00
  0.00000000E+00  0.00000000E+00  0.00000000E+00
  0.00000000E+00  0.00000000E+00  0.00000000E+00
  0.00000000E+00  0.00000000E+00  0.00000000E+00
  0.00000000E+00  0.00000000E+00  0.00000000E+00
  0.00000000E+00  0.00000000E+00  0.00000000E+00
  0.00000000E+00  0.00000000E+00  0.00000000E+00
  0.00000000E+00  0.00000000E+00  0.00000000E+00
  0.00000000E+00  0.00000000E+00  0.00000000E+00
  0.00000000E+00  0.00000000E+00  0.00000000E+00
  0.00000000E+00  0.00000000E+00  0.00000000E+00
  0.00000000E+00  0.00000000E+00  0.00000000E+00
  0.00000000E+00  0.00000000E+00  0.00000000E+00
  0.00000000E+00  0.00000000E+00  0.00000000E+00
  0.00000000E+00  0.00000000E+00  0.00000000E+00
  0.00000000E+00  0.00000000E+00  0.00000000E+00
  0.00000000E+00  0.00000000E+00  0.00000000E+00
  0.00000000E+00  0.00000000E+00  0.00000000E+00
  0.00000000E+00  0.00000000E+00  0.00000000E+00
  0.00000000E+00  0.00000000E+00  0.00000000E+00
  0.00000000E+00  0.00000000E+00  0.00000000E+00
  0.00000000E+00  0.00000000E+00  0.00000000E+00
  0.00000000E+00  0.00000000E+00  0.00000000E+00
  0.00000000E+00  0.00000000E+00  0.00000000E+00
  0.00000000E+00  0.00000000E+00  0.00000000E+00
  0.00000000E+00  0.00000000E+00  0.00000000E+00
  0.00000000E+00  0.00000000E+00  0.00000000E+00
  0.00000000E+00  0.00000000E+00  0.00000000E+00
  0.00000000E+00  0.00000000E+00  0.00000000E+00
  0.00000000E+00  0.00000000E+00  0.00000000E+00
  0.00000000E+00  0.00000000E+00  0.00000000E+00
  0.00000000E+00  0.00000000E+00  0.00000000E+00
  0.00000000E+00  0.00000000E+00  0.00000000E+00
  0.00000000E+00  0.00000000E+00  0.00000000E+00
  0.00000000E+00  0.00000000E+00  0.00000000E+00
  0.00000000E+00  0.00000000E+00  0.00000000E+00
  0.00000000E+00  0.00000000E+00  0.00000000E+00
  0.00000000E+00  0.00000000E+00  0.00000000E+00
  0.00000000E+00  0.00000000E+00  0.00000000E+00
  0.00000000E+00  0.00000000E+00  0.00000000E+00
  0.00000000E+00  0.00000000E+00  0.00000000E+00
  0.00000000E+00  0.00000000E+00  0.00000000E+00
  0.00000000E+00  0.00000000E+00  0.00000000E+00
  0.00000000E+00  0.00000000E+00  0.00000000E+00
  0.00000000E+00  0.00000000E+00  0.00000000E+00
  0.00000000E+00  0.00000000E+00  0.00000000E+00
  0.00000000E+00  0.00000000E+00  0.00000000E+00
  0.00000000E+00  0.00000000E+00  0.00000000E+00
  0.00000000E+00  0.00000000E+00  0.00000000E+00
  0.00000000E+00  0.00000000E+00  0.00000000E+00
  0.00000000E+00  0.00000000E+00  0.00000000E+00
  0.00000000E+00  0.00000000E+00  0.00000000E+00
  0.00000000E+00  0.00000000E+00  0.00000000E+00
  0.00000000E+00  0.00000000E+00  0.00000000E+00
  0.00000000E+00  0.00000000E+00  0.00000000E+00
  0.00000000E+00  0.00000000E+00  0.00000000E+00
  0.00000000E+00  0.00000000E+00  0.00000000E+00
  0.00000000E+00  0.00000000E+00  0.00000000E+00
  0.00000000E+00  0.00000000E+00  0.00000000E+00
  0.00000000E+00  0.00000000E+00  0.00000000E+00
  0.00000000E+00  0.00000000E+00  0.00000000E+00
  0.00000000E+00  0.00000000E+00  0.00000000E+00
  0.00000000E+00  0.00000000E+00  0.00000000E+00
  0.00000000E+00  0.00000000E+00  0.00000000E+00
  0.00000000E+00  0.00000000E+00  0.00000000E+00
  0.00000000E+00  0.00000000E+00  0.00000000E+00
  0.00000000E+00  0.00000000E+00  0.00000000E+00
  0.00000000E+00  0.00000000E+00  0.00000000E+00
  0.00000000E+00  0.00000000E+00  0.00000000E+00
  0.00000000E+00  0.00000000E+00  0.00000000E+00
  0.00000000E+00  0.00000000E+00  0.00000000E+00
  0.00000000E+00  0.00000000E+00  0.00000000E+00
  0.00000000E+00  0.00000000E+00  0.00000000E+00
  0.00000000E+00  0.00000000E+00  0.00000000E+00
  0.00000000E+00  0.00000000E+00  0.00000000E+00
  0.00000000E+00  0.00000000E+00  0.00000000E+00
  0.00000000E+00  0.00000000E+00  0.00000000E+00
  0.00000000E+00  0.00000000E+00  0.00000000E+00
  0.00000000E+00  0.00000000E+00  0.00000000E+00
  0.00000000E+00  0.00000000E+00  0.00000000E+00
  0.00000000E+00  0.00000000E+00  0.00000000E+00
  0.00000000E+00  0.00000000E+00  0.00000000E+00
  0.00000000E+00  0.00000000E+00  0.00000000E+00
  0.00000000E+00  0.00000000E+00  0.00000000E+00
  0.00000000E+00  0.00000000E+00  0.00000000E+00
  0.00000000E+00  0.00000000E+00  0.00000000E+00
  0.00000000E+00  0.00000000E+00  0.00000000E+00
  0.00000000E+00  0.00000000E+00  0.00000000E+00
  0.00000000E+00  0.00000000E+00  0.00000000E+00
  0.00000000E+00  0.00000000E+00  0.00000000E+00
  0.00000000E+00  0.00000000E+00  0.00000000E+00
  0.00000000E+00  0.00000000E+00  0.00000000E+00
  0.00000000E+00  0.00000000E+00  0.00000000E+00
  0.00000000E+00  0.00000000E+00  0.00000000E+00
  0.00000000E+00  0.00000000E+00  0.00000000E+00
  0.00000000E+00  0.00000000E+00  0.00000000E+00
  0.00000000E+00  0.00000000E+00  0.00000000E+00
  0.00000000E+00  0.00000000E+00  0.00000000E+00
  0.00000000E+00  0.00000000E+00  0.00000000E+00
  0.00000000E+00  0.00000000E+00  0.00000000E+00
  0.00000000E+00  0.00000000E+00  0.00000000E+00
  0.00000000E+00  0.00000000E+00  0.00000000E+00
  0.00000000E+00  0.00000000E+00  0.00000000E+00
  0.00000000E+00  0.00000000E+00  0.00000000E+00
  0.00000000E+00  0.00000000E+00  0.00000000E+00
  0.00000000E+00  0.00000000E+00  0.00000000E+00
  0.00000000E+00  0.00000000E+00  0.00000000E+00
  0.00000000E+00  0.00000000E+00  0.00000000E+00
  0.00000000E+00  0.00000000E+00  0.00000000E+00
  0.00000000E+00  0.00000000E+00  0.00000000E+00
  0.00000000E+00  0.00000000E+00  0.00000000E+00
  0.00000000E+00  0.00000000E+00  0.00000000E+00
  0.00000000E+00  0.00000000E+00  0.00000000E+00
  0.00000000E+00  0.00000000E+00  0.00000000E+00
  0.00000000E+00  0.00000000E+00  0.00000000E+00
  0.00000000E+00  0.00000000E+00  0.00000000E+00
  0.00000000E+00  0.00000000E+00  0.00000000E+00
  0.00000000E+00  0.00000000E+00  0.00000000E+00
  0.00000000E+00  0.00000000E+00  0.00000000E+00
  0.00000000E+00  0.00000000E+00  0.00000000E+00
  0.00000000E+00  0.00000000E+00  0.00000000E+00
  0.00000000E+00  0.00000000E+00  0.00000000E+00
  0.00000000E+00  0.00000000E+00  0.00000000E+00
  0.00000000E+00  0.00000000E+00  0.00000000E+00
  0.00000000E+00  0.00000000E+00  0.00000000E+00
  0.00000000E+00  0.00000000E+00  0.00000000E+00
  0.00000000E+00  0.00000000E+00  0.00000000E+00
  0.00000000E+00  0.00000000E+00  0.00000000E+00
  0.00000000E+00  0.00000000E+00  0.00000000E+00
  0.00000000E+00  0.00000000E+00  0.00000000E+00
  0.00000000E+00  0.00000000E+00  0.00000000E+00
  0.00000000E+00  0.00000000E+00  0.00000000E+00
  0.00000000E+00  0.00000000E+00  0.00000000E+00
  0.00000000E+00  0.00000000E+00  0.00000000E+00
  0.00000000E+00  0.00000000E+00  0.00000000E+00
  0.00000000E+00  0.00000000E+00  0.00000000E+00
  0.00000000E+00  0.00000000E+00  0.00000000E+00
  0.00000000E+00  0.00000000E+00  0.00000000E+00
  0.00000000E+00  0.00000000E+00  0.00000000E+00
  0.00000000E+00  0.00000000E+00  0.00000000E+00
  0.00000000E+00  0.00000000E+00  0.00000000E+00
  0.00000000E+00  0.00000000E+00  0.00000000E+00
  0.00000000E+00  0.00000000E+00  0.00000000E+00
  0.00000000E+00  0.00000000E+00  0.00000000E+00
  0.00000000E+00  0.00000000E+00  0.00000000E+00
  0.00000000E+00  0.00000000E+00  0.00000000E+00
  0.00000000E+00  0.00000000E+00  0.00000000E+00
  0.00000000E+00  0.00000000E+00  0.00000000E+00
  0.00000000E+00  0.00000000E+00  0.00000000E+00
  0.00000000E+00  0.00000000E+00  0.00000000E+00
  0.00000000E+00  0.00000000E+00  0.00000000E+00
  0.00000000E+00  0.00000000E+00  0.00000000E+00