Amorphous Sb                            
   1.00000000000000     
    20.0413969107436429    0.0000000000000000    0.0000000000000000
     0.0000000000000000   20.0413969107436429    0.0000000000000000
     0.0000000000000000    0.0000000000000000   20.0413969107436429
   Ge   Se
   150   150
Direct
  0.1754067362579995  0.1290983339218763  0.9253845206086964
  0.4614330048741515  0.4472622674899903  0.0996673631997794
  0.8856771799235478  0.4923128027881010  0.4469460875424033
  0.1657593401015180  0.4274713101662149  0.2874772709555294
  0.6466384825831369  0.1895221278310855  0.3265658045278625
  0.2717482224048914  0.1261438274859869  0.2510161381317281
  0.9498110070243683  0.0333566192637119  0.1009431249677072
  0.2665506910909066  0.7098597288648917  0.1175532335363691
  0.4097581890562854  0.1297962960293143  0.3994382343694575
  0.1185390874501245  0.5705135741884648  0.0390216373214957
  0.8372019661163818  0.2653914193529759  0.3991674461576448
  0.6674608017861979  0.7524563867453965  0.8421904352105570
  0.7788274661769560  0.6099726200672922  0.8584719003452269
  0.2379472704856173  0.2514960548451418  0.4032418698540928
  0.2670437086299423  0.5791677496330188  0.3462659099162289
  0.9311792171366116  0.6969495307056244  0.4414779702406686
  0.1990707598561035  0.4238966716882045  0.9806369092635995
  0.5946291347223366  0.1784574448482102  0.7903578636925356
  0.5247236178736898  0.8607993427173253  0.6356154321672122
  0.3495401231323815  0.2114134199352658  0.5534560439335929
  0.0017795214499389  0.3359916588069305  0.6307911797320056
  0.0273230642348275  0.1872043233746719  0.4986235708136761
  0.7365553696664243  0.3300278046928689  0.5281839882081650
  0.6198793057225044  0.2320724863874286  0.5582393775529109
  0.0130620311110953  0.4292655838903374  0.3349322638709746
  0.3596576082484504  0.3314524642654015  0.6654313036446979
  0.8478439682145492  0.5908172765520672  0.0200737783592829
  0.8873713505397596  0.1783747080700362  0.8834275127331152
  0.1134336168478748  0.6562780295746112  0.8027686099299793
  0.9722534373051774  0.8800749209388247  0.8092289965055325
  0.3807814469215051  0.7589919609719432  0.1617117359380513
  0.6682380058706833  0.5252429554914793  0.5107325589406111
  0.2308840108432791  0.8418213410905310  0.8290010393073276
  0.6666486318826008  0.5912578156646211  0.2647465750475684
  0.5702554358640882  0.0590994906767584  0.3974123731360180
  0.0035353711067578  0.0153924012140143  0.4877211243406366
  0.7701985326687441  0.2971672946867194  0.7849267812407738
  0.7413910666719190  0.4327848686748385  0.8492377883590293
  0.5081191541259524  0.0513393222718766  0.9166107806055523
  0.4356450874741528  0.3721135463041828  0.2868694132630600
  0.2626269061536686  0.0022975106146402  0.6915031252944486
  0.4805783045101134  0.1069944058526709  0.5861935709406823
  0.8012129655118295  0.3128111483001549  0.9714010730546652
  0.1113172716297025  0.6642565552212366  0.1420153350547387
  0.8549114396508122  0.7277209392970624  0.1621002044859181
  0.1964535788132082  0.0773339161108736  0.5875799082545329
  0.3661688131192133  0.1356435723211034  0.0939473872874361
  0.4962786030871127  0.7715581735763100  0.8637931498289632
  0.0049774855167535  0.8448253410511460  0.0817543959398554
  0.2692141117970115  0.5286192944592102  0.1631942621204770
  0.2483734664568933  0.5837213728405105  0.6201635071958445
  0.9561892938218335  0.3749648294019227  0.1918483668889080
  0.1667022094679539  0.1675538844181274  0.3162446711412139
  0.6762980525672279  0.9678506181922102  0.6341057589609624
  0.0418953848029641  0.2148253249477359  0.6268505325032923
  0.1690720104126269  0.2033185103147655  0.6425090749956670
  0.0577483968037825  0.3090659874122606  0.2896556796836574
  0.9193724817397178  0.7292557977392299  0.9495357877230701
  0.8213551647704149  0.5117588889927116  0.2065419398203029
  0.0084832196131092  0.1096181822354127  0.3123624272133171
  0.1004293727216671  0.1923667379161694  0.1473891772276656
  0.7909726431693526  0.7874682556950446  0.8494725197738768
  0.5002191778118931  0.4370261195402511  0.5578646743928893
  0.0455501553128484  0.4522964356034874  0.6124411504040757
  0.6337099480481866  0.3107604896345695  0.1119014453620682
  0.5582137219548710  0.1216265732116895  0.1172904965238769
  0.3978875974857142  0.9786229193978800  0.8030647646793633
  0.8558453642924668  0.2081564691241476  0.6129690589505068
  0.4236161667683273  0.2993338579194196  0.4986678509381247
  0.4910888957923958  0.6107877852865006  0.9253702201363860
  0.8461967193630086  0.9285919341624961  0.9012775038842992
  0.9695638165035281  0.0481332072817394  0.6646574617171032
  0.4428590104837735  0.8151186597267467  0.3159838467797735
  0.4760287248587112  0.7952103514608962  0.0360551776177487
  0.3618058871495164  0.8583417320765044  0.6586200902984258
  0.1034085486618704  0.7576552402677282  0.7124166309882589
  0.9264733814131002  0.4895082584064978  0.6378888711283484
  0.7147185529609641  0.7415190414962214  0.2388230936459194
  0.7228100177748645  0.1465868671700694  0.1567417019833104
  0.0432537472398595  0.6451475710890673  0.6457408604275047
  0.2348128819322595  0.3100270936942032  0.9366860895063640
  0.5973093775723569  0.4335878014066306  0.9481948137134152
  0.5486196692828338  0.8752482983722462  0.4433600198941495
  0.3653035581296001  0.4208286947215126  0.9313689351985157
  0.4682005424283530  0.5586458389504421  0.2422359119055906
  0.0853191950113515  0.4294621438111867  0.0445772723511348
  0.3457709511120831  0.3073276564281285  0.1722299773121417
  0.2580570968109618  0.0333721699720607  0.1654454050213259
  0.2518616971261319  0.4740608575061235  0.7746167568093655
  0.6984025709575937  0.8844083686692419  0.4278604919432294
  0.4594761448986849  0.5775789881638517  0.3706641952496148
  0.5985682651179631  0.9478253242323675  0.2582580894644625
  0.7353396027747585  0.7478007382572834  0.4762622999100329
  0.2269447234485560  0.3213465245770546  0.6724709302665667
  0.7131883013259392  0.0457724666629399  0.9858896190922021
  0.2682023599321016  0.2755638385439834  0.8162818908874987
  0.7916699740829157  0.0112723585276403  0.7791004924299061
  0.9566380094038778  0.2542221990359594  0.0613496992929565
  0.6234569005894283  0.6235331685933077  0.9552405987804639
  0.7033049646292618  0.7622342926969224  0.6375711623366879
  0.4505127120370995  0.9605415438038138  0.0678871205069573
  0.8235177064672662  0.2209219562021206  0.1856140025840113
  0.1231370543577876  0.0297151384547224  0.7943296431838930
  0.2476425468959271  0.9300534354138502  0.5413774048760343
  0.2324754004524950  0.6342657975159606  0.0200563653025922
  0.1294486465669005  0.7586011528684049  0.5168512098974634
  0.7061238869975833  0.4729770550972411  0.0970345965344007
  0.2917260004205592  0.1210126576889834  0.7774658203996436
  0.2098699936206542  0.9004708928201294  0.1661956737534455
  0.9913729699605719  0.9952245119238646  0.8808507409620685
  0.3463964269361396  0.8420687046324487  0.5099432567823404
  0.6239897800688117  0.9011702402812278  0.0807989544041781
  0.6090613774037448  0.7118642694441153  0.3751391198022929
  0.1832421409953806  0.7349944104968484  0.9567673055324817
  0.4414441877711171  0.6003378005986392  0.5742284636089788
  0.3806609956979998  0.9046132263722888  0.9249309128419808
  0.8811484215934300  0.8813939644870877  0.5422637389002704
  0.9868791429696677  0.7984365807445190  0.2764059547219659
  0.3442493189438321  0.7107403336270401  0.5310629691305707
  0.4480607157135690  0.1989895623899129  0.8550889712395285
  0.2757362471366945  0.7863178708923282  0.3118455341719490
  0.1333241882870313  0.3023128212282084  0.0757598847048872
  0.6439490016127746  0.3600317764812842  0.6804103049114655
  0.1282002386466549  0.6985262914152339  0.3263550063625725
  0.5135034746417304  0.4734998816952001  0.7276414467702224
  0.3672999917253916  0.7021937872361961  0.7159014814436524
  0.8466756029121854  0.6356621928548206  0.3015802489701837
  0.0810896767250129  0.8930935262680161  0.6519359428918284
  0.5729736541298122  0.4216606205933127  0.3701253214608146
  0.3116958391865261  0.6066486548093069  0.9195486960967445
  0.2947023238632925  0.4112046255929737  0.5088022215181817
  0.2662090479257075  0.2929649571757362  0.0609728220129882
  0.6926734448870441  0.1127506645296133  0.6680393606360036
  0.4082704747053510  0.2463777499640533  0.0185902077455634
  0.0699078739992298  0.4682076945976786  0.7448706810937615
  0.4836621363466640  0.3247392121198407  0.8202886752430498
  0.9269538292681165  0.4553670532495348  0.9231134840251082
  0.9426693343029658  0.6879824389449487  0.7886123663813688
  0.7957750680200091  0.0669700590511897  0.3982459707327353
  0.6193057872179423  0.9233652319864670  0.7952559865157628
  0.7142563449695238  0.5552247106288588  0.6944832876910224
  0.8037606623062281  0.8782751745143696  0.0823094759456750
  0.0412681676253380  0.3111774256926903  0.8575973125435575
  0.1203455916560534  0.3526806275007712  0.5054809702465699
  0.3586550815039455  0.5915730933789298  0.7798603485675181
  0.1762598062024281  0.5893103559713612  0.4866789969937814
  0.1317856446316452  0.9907447202437690  0.3237999656118692
  0.0128607764569200  0.2109199973379554  0.7556692073522394
  0.8350034028083516  0.4072328054323556  0.6764300017386654
  0.0699328949312224  0.6092372952595528  0.9198937143007858
  0.2327409440058032  0.8834906749523416  0.6620859252106150
  0.3710767166579437  0.1895272155884386  0.2121518748519092
  0.4578718656970053  0.7090706173484619  0.6347086021701479
  0.3749399088406548  0.8103257559442336  0.7767357798915376
  0.7367646110815745  0.9217994513145498  0.9651933754758395
  0.7006327525231643  0.4728886531426753  0.2312242072297178
  0.3275530812594729  0.1807667882018373  0.8870119424086891
  0.8156494111533393  0.7716829669120865  0.5701378328389025
  0.5542244807947587  0.9698342879013699  0.6953339197788836
  0.7455057652448389  0.2346610306211584  0.6707002161651312
  0.1756051716611345  0.5679340556495357  0.7266397876296325
  0.8972167240153909  0.3949676125217654  0.2998548230671054
  0.1462437698312997  0.8808526916536282  0.4922163669339940
  0.7619417430272193  0.5160440622894312  0.4121468182500981
  0.9232356999883113  0.8528389945621575  0.9782897384245582
  0.1666243956914825  0.1528340487553050  0.7973170989892187
  0.2916507701155669  0.5348581293920613  0.4689327035880441
  0.7625200155649087  0.6404035353572771  0.3982800138940319
  0.0523846994804674  0.4296838604236995  0.9098356127379654
  0.5160642734953018  0.3570380401732486  0.6574141543608937
  0.7889285796359751  0.7039307190157962  0.9499600329647603
  0.1637959079893776  0.3759001005795896  0.7694198158187491
  0.6036866178999996  0.7501976445059141  0.9480261740034173
  0.3233568356673018  0.8597411964791228  0.2152581917264093
  0.0017198490319155  0.2235071008569865  0.2229662612073660
  0.6653643945844964  0.8414157990565015  0.3030051769145493
  0.8230387588328339  0.9100219857385501  0.4331099539494553
  0.9022818943800950  0.0303023406893020  0.9546705738976675
  0.4161858782315843  0.7057459408507323  0.9585477024099631
  0.5751802569630963  0.4955498581037721  0.0564103693474722
  0.2856947629528663  0.4693503128498893  0.2754184224437725
  0.9997116654286544  0.0818627710204711  0.7861035350144665
  0.0470018549771484  0.9583128785527968  0.1061071861955071
  0.7569288976571702  0.4847122664852271  0.5969177344852514
  0.6713595301592271  0.1237803807951450  0.5154525720489853
  0.2123964532056194  0.3747996484671754  0.4153728210867715
  0.6394638835302624  0.3008031388210688  0.7945654288995078
  0.3919397292513204  0.0281569160496612  0.9599266083172904
  0.1041557885222200  0.0182086996290634  0.6526351171032287
  0.5977578782369677  0.0232843472273213  0.0406757105016701
  0.7234743824630381  0.9473597931859659  0.1615254912607960
  0.2126848788595507  0.8508400838568957  0.9526362278899455
  0.0469147170812588  0.2791482354056196  0.4144148556111006
  0.6416934410467086  0.8593691823943554  0.5753276329936781
  0.5053092084607970  0.8807803989146543  0.9331690345145397
  0.3875851068557405  0.0278125542887598  0.1574491296995740
  0.0310278284184632  0.6788831622364370  0.2403516700303166
  0.8352811759136394  0.2124531424556375  0.0511415365092395
  0.2313791515483231  0.2401123668424258  0.5329966710710909
  0.8635582633412149  0.9987925134944590  0.3144340092591976
  0.4608165515310470  0.3008658244955782  0.1186441395518577
  0.1132155491116036  0.0713578977137051  0.2336706184138749
  0.7649004918155200  0.5883353343138658  0.1181173632937980
  0.3448101089054456  0.8663902897247133  0.3866992926258372
  0.0619944854704285  0.4631711044951859  0.4918648866464622
  0.5045216617383677  0.9557660397696085  0.3512420649519494
  0.8286838025668024  0.0535340567962732  0.6644114019334563
  0.5745340343743849  0.1742145168180951  0.6648440465256221
  0.1247094471741746  0.4801830512988132  0.1719581911796570
  0.6565585604866653  0.6287994352140917  0.8280714854823141
  0.7519591417654973  0.5134105112494629  0.9452599645477048
  0.9805491452377652  0.7528590257092650  0.6822888069652487
  0.3797724284556903  0.7063582479440851  0.2785344513276402
  0.4966369953284542  0.7583073062278957  0.4181373014920274
  0.8808216529182480  0.5712095219590142  0.5544462773134226
  0.3871737315173637  0.9832043842387946  0.6756502839008256
  0.6823470231493460  0.0847483615596418  0.7962614868896685
  0.6823807027186336  0.0028074151099004  0.3704677356631993
  0.0617957120900974  0.7329974228807425  0.9321453390304979
  0.1002465406418991  0.0254405796474836  0.9317751446303089
  0.5303831960270237  0.3030180581758224  0.3427115967631917
  0.3921704985973647  0.5695219593628376  0.1470487109486522
  0.4638299843264809  0.0938144945168946  0.7930372450738672
  0.7709413953872195  0.0417393295060286  0.1033396620432539
  0.2707730782510595  0.9951010947521796  0.8211366448341187
  0.7819319026746352  0.2099210423152592  0.5039990824495088
  0.4044974811234111  0.5343217018412807  0.9754631239375013
  0.1613583763285357  0.7775384211426243  0.1154247462978050
  0.9473300009054826  0.5831664587707351  0.9065670826188732
  0.9686613054375658  0.5745631062898340  0.7229226334382054
  0.3043854919348133  0.4167050829156082  0.0511883951647882
  0.6341001949619314  0.3009481358678208  0.2690811963780718
  0.7405303877352390  0.7712985099470369  0.1122751789943282
  0.6522259145107190  0.1906938334608034  0.0654775162544776
  0.5867604957844946  0.5810707636389669  0.3720712674389041
  0.0988238183675235  0.8667186319484564  0.7853508266724324
  0.3233115833718406  0.0506592179974287  0.3360886394538214
  0.6416632867104757  0.4675068568061191  0.7579839318403875
  0.8448652483849669  0.4145596371886466  0.1115321207960754
  0.2059063285593876  0.4220790886373927  0.5982763927953854
  0.1620158281623330  0.8826944375009719  0.2831348666884269
  0.5499424008566552  0.5387212423396088  0.6241010680182093
  0.4476506008740603  0.4506053875723970  0.3905731432346876
  0.3611433027246020  0.0964506716971072  0.5112529820436718
  0.7742269835873553  0.1783098522516421  0.3219012763987745
  0.4573046692748726  0.9070271230416084  0.5269585002278115
  0.8171863418085010  0.6989279191338299  0.7634700595656367
  0.9717175509924575  0.3765120086823721  0.7458325614322522
  0.0170248932628861  0.9817796253794785  0.3631109651835600
  0.1740835145462992  0.3004992696413936  0.2492516286385070
  0.3655630156605363  0.5396974222284184  0.6593808053339979
  0.7530337185141971  0.3588214962735383  0.4091933404231122
  0.5303961532360836  0.8877565944672955  0.1631327278143312
  0.7350231830778912  0.9077589119078476  0.7348018157080792
  0.9131256336946675  0.8418805394586691  0.1719210516452586
  0.9394768110112887  0.5851982284555856  0.3748732812227841
  0.9285682607217175  0.6800758093138632  0.0674453049981562
  0.6080074343862014  0.4077951500376436  0.4959031552245995
  0.2229346011368858  0.7073086122143500  0.8382503949401487
  0.5774475837954448  0.0386177215772221  0.5248780541183271
  0.3628751255694951  0.3587947152050981  0.7910948880299195
  0.9542150258804321  0.9243000175189905  0.6903939738853293
  0.5088639121139273  0.2014005138220119  0.4997113823689137
  0.9237174144354010  0.4882511025212570  0.0517173965845256
  0.8059259653326447  0.9821595865018325  0.5623290824531415
  0.9334414326472121  0.1193350177573995  0.4633171267076746
  0.5164035005356137  0.4453019198557558  0.2183422362666876
  0.2195222597566490  0.6410410193501679  0.2103698710251868
  0.0123000333316300  0.4893575007478881  0.2179887854876185
  0.0177714261982391  0.1418644346219839  0.0624919128546958
  0.8080963818810566  0.5108884948085863  0.7756171014898715
  0.2237420016711890  0.5122713232829279  0.8941898085464197
  0.4797523201684620  0.3601893733355182  0.9444463508195178
  0.0470309716630406  0.7483159971087220  0.4137262785633815
  0.2694829890000627  0.7118651866461594  0.6368691582961079
  0.1242517153276718  0.2520217919613303  0.9540789089520495
  0.2450540805070369  0.1168781483611488  0.0742023448207943
  0.3723434677356341  0.2056191894502901  0.6722035052444362
  0.2312516847463875  0.7062928403356422  0.4560197079538089
  0.5843634425986962  0.7301464807400984  0.2430090250372439
  0.5895578262705976  0.7997401355076502  0.7620505491945684
  0.6693758126962075  0.3403775620183782  0.9915956503931923
  0.4814216522874842  0.6072943956895026  0.8028223291812292
  0.9112334494567081  0.0785696925648423  0.2371087686781141
  0.6319363061742229  0.1014439261549638  0.2252459876994389
  0.8776025733191658  0.7560601941693620  0.3267133752309634
  0.8849185591549840  0.3333162078519412  0.5805356386657633
  0.5660433829717518  0.6195896724147216  0.1881430434144892
  0.9404114486184347  0.2870153904743938  0.9328369435022760
  0.1077690675032593  0.0918167295773453  0.4857059339213259
  0.7666435427605902  0.2213791762180824  0.8890008282331386
  0.6610876448071947  0.6814220206506363  0.5482069382068774
  0.3674224511697458  0.8628808027226140  0.0467136103289867
  0.1395195618732931  0.5720528482690107  0.3615638093354444
  0.9935519747276991  0.6156229049999319  0.5355713933745306
  0.5086603865268929  0.1752107353966238  0.9602532313027593
  0.8911675269138691  0.2127269677416988  0.7600006670597790
  0.3660131626265689  0.2544694587015403  0.3908536417175956
  0.2143457253120788  0.0584811258388569  0.3959272235558887
  0.7436725596240831  0.3181309001601281  0.1801891673941981
 
  0.00000000E+00  0.00000000E+00  0.00000000E+00
  0.00000000E+00  0.00000000E+00  0.00000000E+00
  0.00000000E+00  0.00000000E+00  0.00000000E+00
  0.00000000E+00  0.00000000E+00  0.00000000E+00
  0.00000000E+00  0.00000000E+00  0.00000000E+00
  0.00000000E+00  0.00000000E+00  0.00000000E+00
  0.00000000E+00  0.00000000E+00  0.00000000E+00
  0.00000000E+00  0.00000000E+00  0.00000000E+00
  0.00000000E+00  0.00000000E+00  0.00000000E+00
  0.00000000E+00  0.00000000E+00  0.00000000E+00
  0.00000000E+00  0.00000000E+00  0.00000000E+00
  0.00000000E+00  0.00000000E+00  0.00000000E+00
  0.00000000E+00  0.00000000E+00  0.00000000E+00
  0.00000000E+00  0.00000000E+00  0.00000000E+00
  0.00000000E+00  0.00000000E+00  0.00000000E+00
  0.00000000E+00  0.00000000E+00  0.00000000E+00
  0.00000000E+00  0.00000000E+00  0.00000000E+00
  0.00000000E+00  0.00000000E+00  0.00000000E+00
  0.00000000E+00  0.00000000E+00  0.00000000E+00
  0.00000000E+00  0.00000000E+00  0.00000000E+00
  0.00000000E+00  0.00000000E+00  0.00000000E+00
  0.00000000E+00  0.00000000E+00  0.00000000E+00
  0.00000000E+00  0.00000000E+00  0.00000000E+00
  0.00000000E+00  0.00000000E+00  0.00000000E+00
  0.00000000E+00  0.00000000E+00  0.00000000E+00
  0.00000000E+00  0.00000000E+00  0.00000000E+00
  0.00000000E+00  0.00000000E+00  0.00000000E+00
  0.00000000E+00  0.00000000E+00  0.00000000E+00
  0.00000000E+00  0.00000000E+00  0.00000000E+00
  0.00000000E+00  0.00000000E+00  0.00000000E+00
  0.00000000E+00  0.00000000E+00  0.00000000E+00
  0.00000000E+00  0.00000000E+00  0.00000000E+00
  0.00000000E+00  0.00000000E+00  0.00000000E+00
  0.00000000E+00  0.00000000E+00  0.00000000E+00
  0.00000000E+00  0.00000000E+00  0.00000000E+00
  0.00000000E+00  0.00000000E+00  0.00000000E+00
  0.00000000E+00  0.00000000E+00  0.00000000E+00
  0.00000000E+00  0.00000000E+00  0.00000000E+00
  0.00000000E+00  0.00000000E+00  0.00000000E+00
  0.00000000E+00  0.00000000E+00  0.00000000E+00
  0.00000000E+00  0.00000000E+00  0.00000000E+00
  0.00000000E+00  0.00000000E+00  0.00000000E+00
  0.00000000E+00  0.00000000E+00  0.00000000E+00
  0.00000000E+00  0.00000000E+00  0.00000000E+00
  0.00000000E+00  0.00000000E+00  0.00000000E+00
  0.00000000E+00  0.00000000E+00  0.00000000E+00
  0.00000000E+00  0.00000000E+00  0.00000000E+00
  0.00000000E+00  0.00000000E+00  0.00000000E+00
  0.00000000E+00  0.00000000E+00  0.00000000E+00
  0.00000000E+00  0.00000000E+00  0.00000000E+00
  0.00000000E+00  0.00000000E+00  0.00000000E+00
  0.00000000E+00  0.00000000E+00  0.00000000E+00
  0.00000000E+00  0.00000000E+00  0.00000000E+00
  0.00000000E+00  0.00000000E+00  0.00000000E+00
  0.00000000E+00  0.00000000E+00  0.00000000E+00
  0.00000000E+00  0.00000000E+00  0.00000000E+00
  0.00000000E+00  0.00000000E+00  0.00000000E+00
  0.00000000E+00  0.00000000E+00  0.00000000E+00
  0.00000000E+00  0.00000000E+00  0.00000000E+00
  0.00000000E+00  0.00000000E+00  0.00000000E+00
  0.00000000E+00  0.00000000E+00  0.00000000E+00
  0.00000000E+00  0.00000000E+00  0.00000000E+00
  0.00000000E+00  0.00000000E+00  0.00000000E+00
  0.00000000E+00  0.00000000E+00  0.00000000E+00
  0.00000000E+00  0.00000000E+00  0.00000000E+00
  0.00000000E+00  0.00000000E+00  0.00000000E+00
  0.00000000E+00  0.00000000E+00  0.00000000E+00
  0.00000000E+00  0.00000000E+00  0.00000000E+00
  0.00000000E+00  0.00000000E+00  0.00000000E+00
  0.00000000E+00  0.00000000E+00  0.00000000E+00
  0.00000000E+00  0.00000000E+00  0.00000000E+00
  0.00000000E+00  0.00000000E+00  0.00000000E+00
  0.00000000E+00  0.00000000E+00  0.00000000E+00
  0.00000000E+00  0.00000000E+00  0.00000000E+00
  0.00000000E+00  0.00000000E+00  0.00000000E+00
  0.00000000E+00  0.00000000E+00  0.00000000E+00
  0.00000000E+00  0.00000000E+00  0.00000000E+00
  0.00000000E+00  0.00000000E+00  0.00000000E+00
  0.00000000E+00  0.00000000E+00  0.00000000E+00
  0.00000000E+00  0.00000000E+00  0.00000000E+00
  0.00000000E+00  0.00000000E+00  0.00000000E+00
  0.00000000E+00  0.00000000E+00  0.00000000E+00
  0.00000000E+00  0.00000000E+00  0.00000000E+00
  0.00000000E+00  0.00000000E+00  0.00000000E+00
  0.00000000E+00  0.00000000E+00  0.00000000E+00
  0.00000000E+00  0.00000000E+00  0.00000000E+00
  0.00000000E+00  0.00000000E+00  0.00000000E+00
  0.00000000E+00  0.00000000E+00  0.00000000E+00
  0.00000000E+00  0.00000000E+00  0.00000000E+00
  0.00000000E+00  0.00000000E+00  0.00000000E+00
  0.00000000E+00  0.00000000E+00  0.00000000E+00
  0.00000000E+00  0.00000000E+00  0.00000000E+00
  0.00000000E+00  0.00000000E+00  0.00000000E+00
  0.00000000E+00  0.00000000E+00  0.00000000E+00
  0.00000000E+00  0.00000000E+00  0.00000000E+00
  0.00000000E+00  0.00000000E+00  0.00000000E+00
  0.00000000E+00  0.00000000E+00  0.00000000E+00
  0.00000000E+00  0.00000000E+00  0.00000000E+00
  0.00000000E+00  0.00000000E+00  0.00000000E+00
  0.00000000E+00  0.00000000E+00  0.00000000E+00
  0.00000000E+00  0.00000000E+00  0.00000000E+00
  0.00000000E+00  0.00000000E+00  0.00000000E+00
  0.00000000E+00  0.00000000E+00  0.00000000E+00
  0.00000000E+00  0.00000000E+00  0.00000000E+00
  0.00000000E+00  0.00000000E+00  0.00000000E+00
  0.00000000E+00  0.00000000E+00  0.00000000E+00
  0.00000000E+00  0.00000000E+00  0.00000000E+00
  0.00000000E+00  0.00000000E+00  0.00000000E+00
  0.00000000E+00  0.00000000E+00  0.00000000E+00
  0.00000000E+00  0.00000000E+00  0.00000000E+00
  0.00000000E+00  0.00000000E+00  0.00000000E+00
  0.00000000E+00  0.00000000E+00  0.00000000E+00
  0.00000000E+00  0.00000000E+00  0.00000000E+00
  0.00000000E+00  0.00000000E+00  0.00000000E+00
  0.00000000E+00  0.00000000E+00  0.00000000E+00
  0.00000000E+00  0.00000000E+00  0.00000000E+00
  0.00000000E+00  0.00000000E+00  0.00000000E+00
  0.00000000E+00  0.00000000E+00  0.00000000E+00
  0.00000000E+00  0.00000000E+00  0.00000000E+00
  0.00000000E+00  0.00000000E+00  0.00000000E+00
  0.00000000E+00  0.00000000E+00  0.00000000E+00
  0.00000000E+00  0.00000000E+00  0.00000000E+00
  0.00000000E+00  0.00000000E+00  0.00000000E+00
  0.00000000E+00  0.00000000E+00  0.00000000E+00
  0.00000000E+00  0.00000000E+00  0.00000000E+00
  0.00000000E+00  0.00000000E+00  0.00000000E+00
  0.00000000E+00  0.00000000E+00  0.00000000E+00
  0.00000000E+00  0.00000000E+00  0.00000000E+00
  0.00000000E+00  0.00000000E+00  0.00000000E+00
  0.00000000E+00  0.00000000E+00  0.00000000E+00
  0.00000000E+00  0.00000000E+00  0.00000000E+00
  0.00000000E+00  0.00000000E+00  0.00000000E+00
  0.00000000E+00  0.00000000E+00  0.00000000E+00
  0.00000000E+00  0.00000000E+00  0.00000000E+00
  0.00000000E+00  0.00000000E+00  0.00000000E+00
  0.00000000E+00  0.00000000E+00  0.00000000E+00
  0.00000000E+00  0.00000000E+00  0.00000000E+00
  0.00000000E+00  0.00000000E+00  0.00000000E+00
  0.00000000E+00  0.00000000E+00  0.00000000E+00
  0.00000000E+00  0.00000000E+00  0.00000000E+00
  0.00000000E+00  0.00000000E+00  0.00000000E+00
  0.00000000E+00  0.00000000E+00  0.00000000E+00
  0.00000000E+00  0.00000000E+00  0.00000000E+00
  0.00000000E+00  0.00000000E+00  0.00000000E+00
  0.00000000E+00  0.00000000E+00  0.00000000E+00
  0.00000000E+00  0.00000000E+00  0.00000000E+00
  0.00000000E+00  0.00000000E+00  0.00000000E+00
  0.00000000E+00  0.00000000E+00  0.00000000E+00
  0.00000000E+00  0.00000000E+00  0.00000000E+00
  0.00000000E+00  0.00000000E+00  0.00000000E+00
  0.00000000E+00  0.00000000E+00  0.00000000E+00
  0.00000000E+00  0.00000000E+00  0.00000000E+00
  0.00000000E+00  0.00000000E+00  0.00000000E+00
  0.00000000E+00  0.00000000E+00  0.00000000E+00
  0.00000000E+00  0.00000000E+00  0.00000000E+00
  0.00000000E+00  0.00000000E+00  0.00000000E+00
  0.00000000E+00  0.00000000E+00  0.00000000E+00
  0.00000000E+00  0.00000000E+00  0.00000000E+00
  0.00000000E+00  0.00000000E+00  0.00000000E+00
  0.00000000E+00  0.00000000E+00  0.00000000E+00
  0.00000000E+00  0.00000000E+00  0.00000000E+00
  0.00000000E+00  0.00000000E+00  0.00000000E+00
  0.00000000E+00  0.00000000E+00  0.00000000E+00
  0.00000000E+00  0.00000000E+00  0.00000000E+00
  0.00000000E+00  0.00000000E+00  0.00000000E+00
  0.00000000E+00  0.00000000E+00  0.00000000E+00
  0.00000000E+00  0.00000000E+00  0.00000000E+00
  0.00000000E+00  0.00000000E+00  0.00000000E+00
  0.00000000E+00  0.00000000E+00  0.00000000E+00
  0.00000000E+00  0.00000000E+00  0.00000000E+00
  0.00000000E+00  0.00000000E+00  0.00000000E+00
  0.00000000E+00  0.00000000E+00  0.00000000E+00
  0.00000000E+00  0.00000000E+00  0.00000000E+00
  0.00000000E+00  0.00000000E+00  0.00000000E+00
  0.00000000E+00  0.00000000E+00  0.00000000E+00
  0.00000000E+00  0.00000000E+00  0.00000000E+00
  0.00000000E+00  0.00000000E+00  0.00000000E+00
  0.00000000E+00  0.00000000E+00  0.00000000E+00
  0.00000000E+00  0.00000000E+00  0.00000000E+00
  0.00000000E+00  0.00000000E+00  0.00000000E+00
  0.00000000E+00  0.00000000E+00  0.00000000E+00
  0.00000000E+00  0.00000000E+00  0.00000000E+00
  0.00000000E+00  0.00000000E+00  0.00000000E+00
  0.00000000E+00  0.00000000E+00  0.00000000E+00
  0.00000000E+00  0.00000000E+00  0.00000000E+00
  0.00000000E+00  0.00000000E+00  0.00000000E+00
  0.00000000E+00  0.00000000E+00  0.00000000E+00
  0.00000000E+00  0.00000000E+00  0.00000000E+00
  0.00000000E+00  0.00000000E+00  0.00000000E+00
  0.00000000E+00  0.00000000E+00  0.00000000E+00
  0.00000000E+00  0.00000000E+00  0.00000000E+00
  0.00000000E+00  0.00000000E+00  0.00000000E+00
  0.00000000E+00  0.00000000E+00  0.00000000E+00
  0.00000000E+00  0.00000000E+00  0.00000000E+00
  0.00000000E+00  0.00000000E+00  0.00000000E+00
  0.00000000E+00  0.00000000E+00  0.00000000E+00
  0.00000000E+00  0.00000000E+00  0.00000000E+00
  0.00000000E+00  0.00000000E+00  0.00000000E+00
  0.00000000E+00  0.00000000E+00  0.00000000E+00
  0.00000000E+00  0.00000000E+00  0.00000000E+00
  0.00000000E+00  0.00000000E+00  0.00000000E+00
  0.00000000E+00  0.00000000E+00  0.00000000E+00
  0.00000000E+00  0.00000000E+00  0.00000000E+00
  0.00000000E+00  0.00000000E+00  0.00000000E+00
  0.00000000E+00  0.00000000E+00  0.00000000E+00
  0.00000000E+00  0.00000000E+00  0.00000000E+00
  0.00000000E+00  0.00000000E+00  0.00000000E+00
  0.00000000E+00  0.00000000E+00  0.00000000E+00
  0.00000000E+00  0.00000000E+00  0.00000000E+00
  0.00000000E+00  0.00000000E+00  0.00000000E+00
  0.00000000E+00  0.00000000E+00  0.00000000E+00
  0.00000000E+00  0.00000000E+00  0.00000000E+00
  0.00000000E+00  0.00000000E+00  0.00000000E+00
  0.00000000E+00  0.00000000E+00  0.00000000E+00
  0.00000000E+00  0.00000000E+00  0.00000000E+00
  0.00000000E+00  0.00000000E+00  0.00000000E+00
  0.00000000E+00  0.00000000E+00  0.00000000E+00
  0.00000000E+00  0.00000000E+00  0.00000000E+00
  0.00000000E+00  0.00000000E+00  0.00000000E+00
  0.00000000E+00  0.00000000E+00  0.00000000E+00
  0.00000000E+00  0.00000000E+00  0.00000000E+00
  0.00000000E+00  0.00000000E+00  0.00000000E+00
  0.00000000E+00  0.00000000E+00  0.00000000E+00
  0.00000000E+00  0.00000000E+00  0.00000000E+00
  0.00000000E+00  0.00000000E+00  0.00000000E+00
  0.00000000E+00  0.00000000E+00  0.00000000E+00
  0.00000000E+00  0.00000000E+00  0.00000000E+00
  0.00000000E+00  0.00000000E+00  0.00000000E+00
  0.00000000E+00  0.00000000E+00  0.00000000E+00
  0.00000000E+00  0.00000000E+00  0.00000000E+00
  0.00000000E+00  0.00000000E+00  0.00000000E+00
  0.00000000E+00  0.00000000E+00  0.00000000E+00