Amorphous Sb                            
   1.00000000000000     
    22.0705785892966375    0.0000000000000000    0.0000000000000000
     0.0000000000000000   22.0705785892966375    0.0000000000000000
     0.0000000000000000    0.0000000000000000   22.0705785892966375
   In   Te
   150   150
Direct
  0.2184152830538616  0.9916948777219958  0.8347480129244738
  0.1789688251771019  0.8482817354555771  0.3525471535788866
  0.6089762597310846  0.0080352045835402  0.5985664685583567
  0.2315954602962836  0.9729247618338279  0.1714102195735913
  0.4357458377230501  0.4786680901639767  0.5486408058824225
  0.6246674294534480  0.1928691757874616  0.9333944637449851
  0.4412594677841828  0.9103400529585540  0.1249265789812859
  0.4479429901529654  0.8348890103791814  0.6408659650543168
  0.7883469629001812  0.3289052463587321  0.2132206255718609
  0.5488082643630229  0.0434399894998977  0.2287973446204995
  0.6610363870382545  0.8848746438137154  0.8381347346162796
  0.5013566858977498  0.7528763424852508  0.2544534221880537
  0.4776922942375669  0.0419106659514483  0.8470951795738052
  0.2654703997563302  0.5339183539475377  0.4562843625142187
  0.1858538321883010  0.6821586714299648  0.7094731557978130
  0.0211244509948658  0.8221816059648673  0.2231983907182723
  0.6290779042039607  0.8215529700649712  0.5569548080298411
  0.5185370387856832  0.6581066231552473  0.4895193245439867
  0.8486330537265817  0.3741450015258628  0.9808624634315035
  0.1071909751977782  0.5677769580133406  0.6515950807120535
  0.1672309346322215  0.6790618767064236  0.2340801352379635
  0.8685065516798463  0.1368886790663856  0.7363963782351703
  0.9811808361623727  0.6288331052650257  0.3578790415355544
  0.2283532086716579  0.1691794785783681  0.0126414439836039
  0.9643716101414198  0.9333201145716442  0.0812129068635480
  0.2390537660107759  0.7842403079997883  0.5301564576838562
  0.3978566632476542  0.4706792303939347  0.4221675771188091
  0.1845560886754886  0.2147683727953024  0.2150449221383985
  0.8953596250852681  0.8350023247709529  0.5951834536219419
  0.6393467051190315  0.3138388755011631  0.6200292056498409
  0.3369214387977304  0.5424158059467080  0.9677576691560826
  0.3936545171756005  0.8575700115272743  0.4475882643136405
  0.1154859907755472  0.4993748645754144  0.9614136349128761
  0.3741757306910271  0.8929809307818251  0.7960152967753209
  0.4279747024622232  0.0058719938629218  0.5763640251856288
  0.4632216711990981  0.6616131287003127  0.9740068674258124
  0.8085724889081570  0.8316647233377760  0.1222129460487965
  0.4549441046958426  0.4576310711515962  0.2483385705825804
  0.9675110881595734  0.1432884795802784  0.2522362998448168
  0.9836947649669197  0.4839246352919928  0.7967795350928968
  0.6275644046970006  0.3616514931795412  0.4116143258385687
  0.6137672157728749  0.5616027609550271  0.2103665731983393
  0.7423848411840621  0.9151920094365924  0.9956477772828256
  0.9026539995421461  0.9889499251101154  0.8805889234913272
  0.5802341863196845  0.2968063450151129  0.8411307977310465
  0.1131156370235081  0.3837439110828955  0.7547145037332182
  0.0026977923058073  0.2550043793029837  0.3855581973077091
  0.0107885925959756  0.1437931549319596  0.0305048286767635
  0.9174855795995187  0.7417000133182859  0.1176345767626462
  0.2058545735341980  0.3546068661449915  0.2519908526813964
  0.2842272321398797  0.4708215156035976  0.7146018853596811
  0.5673500894653885  0.5977463695381656  0.8488808416899387
  0.3029552049737276  0.7680078056501122  0.9939739446706997
  0.1237209438911778  0.0292284234551474  0.4304125183891022
  0.9856105080179722  0.3622201161094866  0.5634589046457876
  0.7229998860481924  0.7834605473854388  0.7417940007302113
  0.3159661580413602  0.2231993419493613  0.3561039845738005
  0.7048397093839096  0.9535586684318954  0.2048115744253618
  0.3285732467872381  0.5885588422094841  0.2346535485072416
  0.0100732241500311  0.3021305078545528  0.9056402491774350
  0.1464127124898498  0.6435538588665279  0.4739468134952576
  0.4693442025796806  0.3260311427571143  0.5707431530834126
  0.3723264233064493  0.2817776016862475  0.7395393360773882
  0.5153915912668874  0.3305329629441265  0.2330079718430302
  0.3639714010308825  0.7147323789807590  0.0946717512207581
  0.7566912932586810  0.5804415416118923  0.7504838331140868
  0.7991698018725081  0.3061107623538765  0.6288627818017756
  0.5496618993883554  0.8283442744702738  0.7214254908138270
  0.2270654300763123  0.8208633924482572  0.6734956087715793
  0.0323732091027303  0.9986321997705506  0.2582603472813410
  0.6668832160715116  0.4824570177240432  0.8267927657170668
  0.1957609853832654  0.3665789825081683  0.8912492812738336
  0.3556913425040507  0.6340557587492991  0.8191281958590498
  0.6202769524044599  0.5172568906156589  0.0182447234823216
  0.1858749825560688  0.5336078936500761  0.3069365305481535
  0.5717386279827783  0.8845791789849039  0.0001946636697425
  0.0626208721401040  0.8235700293772590  0.4883588665888478
  0.0173865829797638  0.0267802388303059  0.5082325841418701
  0.9411318084516722  0.7065786451273365  0.5391474042104124
  0.9919177572599014  0.4732010997892302  0.3401636279592494
  0.9346516276718534  0.5177402299604007  0.4803581129750206
  0.3775072748459778  0.3793940461229709  0.8943202954536812
  0.6228552546309165  0.7991704787811371  0.1497969236250008
  0.0330768944549528  0.6011500994196700  0.1215119592107990
  0.3700826367710639  0.1566985639004427  0.5167112504990395
  0.5271001105748039  0.1481727461945483  0.6398533217781811
  0.5472304183007595  0.6715120610716624  0.1240464102411691
  0.4771138990104801  0.7785272788384447  0.8824437831167357
  0.1684091179734022  0.3451596387396067  0.4837485878776965
  0.9632885913444893  0.7417629661096060  0.6805213694873998
  0.5441330723631657  0.6192439762844107  0.3072100922285206
  0.1613892875852058  0.5236844359370371  0.1022288418021107
  0.5093821450547853  0.1994110884501465  0.0880874438175612
  0.7842170014084077  0.0970982546205154  0.3961599317995654
  0.5858001750617089  0.8200675552655230  0.4296925054305376
  0.7009919758230629  0.6281472520677265  0.4677939405266209
  0.5343398176559141  0.4645572681774385  0.7205416860775015
  0.0308690983764028  0.0205811260192677  0.7753912410211087
  0.5336890958135722  0.3606159238287008  0.0037941598562402
  0.6866553581294729  0.1938838834055673  0.3987345184127266
  0.6117016512247244  0.7723144873391878  0.9195630603936092
  0.8061945257874272  0.9520520412204614  0.5126633554576715
  0.8348612563561604  0.7515272770470128  0.9704521028024332
  0.6997473927120416  0.4549019637128408  0.6162809969899795
  0.1644379584485752  0.9087313231951453  0.0243751913973662
  0.3526393197277840  0.6548317435331744  0.4515034175723783
  0.8249797757871447  0.1025878821322541  0.0565750594483121
  0.7395112672250171  0.6316438686024960  0.0221750951950850
  0.4064733336655189  0.1765701145968072  0.8536740187500864
  0.6925060571047236  0.2289740241482850  0.0663465978865158
  0.6990353031364182  0.6561183094774261  0.5970241116531175
  0.0411943049294076  0.1671752919113856  0.5373972775279907
  0.1178951261834558  0.2900394752086362  0.0404676184721503
  0.7778045092704873  0.5356359584666018  0.1535145767235445
  0.3694049692939322  0.1544056867108070  0.2366714646357472
  0.8958955101649040  0.9017092312227006  0.7897744712244866
  0.1276741600684762  0.0804316021148270  0.0894771884639817
  0.8046234179617533  0.6862042041153681  0.2683189093018123
  0.6286103917463632  0.0275728628252666  0.3781804368102466
  0.8138041958318403  0.3726986112522272  0.4590854039811342
  0.9665687220793466  0.4876221131789300  0.1394860775409571
  0.9112579107387122  0.1975797809683331  0.4666829853489988
  0.8040751438639275  0.1554356787139769  0.5910325520242905
  0.2484304472928091  0.0482027030768115  0.5804667320428614
  0.6893264809383295  0.2257608694198566  0.7441709367465454
  0.4769559598340959  0.6281172144631894  0.6995632332485648
  0.4579264951820917  0.0829856125641760  0.0713926799401424
  0.4888969822873919  0.2748480092731108  0.4059449807126367
  0.8528545739735575  0.0276781193968411  0.2225389245775129
  0.9125751221149916  0.8759275696581290  0.3510137036033012
  0.8086343549610302  0.2136378292053058  0.9066656628755576
  0.2339731953757786  0.2880448678220178  0.6400716749172771
  0.3539393453801564  0.2827257102244750  0.0308309247470901
  0.3358227270819095  0.9930895797137024  0.9856484133623177
  0.6565772034158877  0.0251008496883798  0.7649728815912146
  0.7959218247896584  0.4928998231790637  0.3233243513286692
  0.9037961037712106  0.5420059735148530  0.6611063791339168
  0.8745646117789195  0.7026920075980602  0.8157924027830498
  0.4468612877882262  0.9233945171036498  0.3465908317341443
  0.7946671296168555  0.4991662767940662  0.8954715905486351
  0.7859936404483403  0.7945577936644476  0.4235450319237035
  0.9442201482770934  0.6322679935296600  0.9262300983146027
  0.5283614426754971  0.1102037703918417  0.3908442646223352
  0.9083604786601472  0.0523594123460742  0.6430266855151905
  0.0824709621293905  0.8922910213185753  0.7680483703017532
  0.1172521565139296  0.7111841042334864  0.0699613063261194
  0.6355215698903849  0.1801697069739964  0.2258218341894936
  0.0665011662038593  0.2041642720864779  0.7068690105387957
  0.1485381210084313  0.6564915817163482  0.8488859682754880
  0.9804149324503407  0.3135990008090073  0.1805933905448970
  0.1215568379385618  0.2256767079718545  0.9340615846153374
  0.3420896374189517  0.9136508856376213  0.6726401344696968
  0.2395421568281265  0.2991049454063596  0.0960266422028435
  0.1930523343871264  0.2770668324128719  0.7692498731925032
  0.3595189053561469  0.1251994755658201  0.9942731111675698
  0.0642974219664713  0.2202190389711209  0.1402960281959843
  0.7821699754772022  0.9740028485717482  0.1081909800236856
  0.6698657433545488  0.1452455544442719  0.6369672111607773
  0.9176290692034011  0.9016090895123458  0.2063712998450296
  0.0499347995822086  0.8940345499214318  0.3388838279853172
  0.7910481788831654  0.2022982017551011  0.1453785494850315
  0.4197481735480996  0.0295823164023668  0.1842822822286319
  0.2691542589236123  0.4107533540103656  0.5199687668809152
  0.0799398136525960  0.1766092098617092  0.3147535066637447
  0.0372445426276533  0.9199720934346779  0.9636216213568297
  0.3227417114514624  0.9486743126453958  0.5241719471307064
  0.0096517170110660  0.4639355924778233  0.6617446445770923
  0.2966930159471436  0.3991080503624470  0.3785500361932927
  0.5860477936359835  0.5625090855199042  0.4269790441456755
  0.7035043784988320  0.4601519646680042  0.2382110560860851
  0.2030542672350697  0.0006439319778104  0.6935472412845729
  0.9427419117027172  0.0885549080276315  0.1344745573082470
  0.4075546368752859  0.4058052779492264  0.0204483295022248
  0.1558337196565598  0.8059394696561606  0.2271082591676461
  0.0353150642103340  0.6085331195675493  0.5368330540300011
  0.6949702514878072  0.6430389103538443  0.1641857757009128
  0.4786996056356629  0.7436852265183479  0.3966875763047312
  0.2546148941132445  0.4860875578561709  0.1994739292470408
  0.2499058474126808  0.6370388931302599  0.5525357426351643
  0.4002168050893144  0.4263383671759668  0.6691926093423408
  0.2893993242314599  0.4571799223430427  0.8451840615190990
  0.5121581915309925  0.4029743081257465  0.3871451263735055
  0.5106666224969818  0.9085253403951516  0.8142574785279015
  0.4925701327666022  0.0408545931841203  0.6984850438325130
  0.6002152049514476  0.3073355354939507  0.1077933238759509
  0.0194354203432934  0.8080736465970428  0.0795928784433736
  0.6797263857261492  0.7346201588434846  0.3788599148430530
  0.8700177265620433  0.8987415195051965  0.9744696145028522
  0.3420782729722227  0.1182517418125923  0.6368440265718452
  0.0179474198365883  0.0417623785292069  0.9249828055392827
  0.1136271519750957  0.4994661545331422  0.8293042886058575
  0.8502955126937946  0.9323177254143912  0.6636442031413822
  0.2530821690562171  0.9593042703083634  0.3003323839212407
  0.1778866896249822  0.4302740648783028  0.6562410228079921
  0.7105102966680121  0.4447075280501185  0.4495374013564712
  0.7628596566855345  0.6313002154241441  0.8687962269887398
  0.7994642899913978  0.0809780021161055  0.9177873359666631
  0.1583064782772897  0.9075121741301229  0.4696720067067268
  0.4959991857487674  0.2600010958082908  0.6849548224301856
  0.1596385485171423  0.0496565993756277  0.3041029777463374
  0.6660605427756641  0.8831735865058780  0.6747121206865683
  0.3679345526060128  0.8466025932133128  0.9168240016065787
  0.7414721990978143  0.8333874049107877  0.2398995936594134
  0.7509451596220604  0.4902256617905061  0.0256224741558459
  0.5908890851167358  0.2466201039894679  0.4801495379827359
  0.7058615692974147  0.2907695851357034  0.9437110927301054
  0.5779088224718379  0.9156820466602518  0.3415427804502001
  0.4096701834354250  0.0445515398837268  0.3544316350428756
  0.7931424817339412  0.9190190496695574  0.3834794217920529
  0.0402192646290892  0.3949668357801186  0.0089928178452237
  0.3390876394927323  0.0295042471359686  0.8509315967685818
  0.1116165167959070  0.8933809793580587  0.6406542222008162
  0.9087738381003096  0.2595192737102461  0.2724231035878623
  0.2409334545009452  0.4715064057373355  0.0053108912357115
  0.9221278088960485  0.0553257213115865  0.3404974491023850
  0.6045628100686657  0.7281024742867895  0.7791119859001026
  0.0800677774810174  0.5780647293800519  0.2550596835212819
  0.5935464857930534  0.9436329586333938  0.1382110905075376
  0.5000938049577148  0.2355765707012235  0.9612859594560206
  0.7038692040310480  0.7968614049459291  0.0304057407066351
  0.2546298636275600  0.6415710598876035  0.3289612456986969
  0.0827159691203316  0.7711124688590241  0.6087881964832752
  0.9617105532717652  0.9030059502654312  0.5046176309031739
  0.5688440269253959  0.4522955215054010  0.9235177772906374
  0.4270067185475408  0.6051301245763108  0.5644300848526311
  0.0800179789237594  0.6245630099059108  0.9581588887791108
  0.4122732840677797  0.2646227781240646  0.1481460703900185
  0.5008824795187178  0.2041800268811039  0.3029857935626922
  0.1088772788725883  0.9452771931549901  0.1422079779569317
  0.6535701627288846  0.9766307918172340  0.9338785276497760
  0.5122134346359032  0.9098278116328151  0.5508716954885741
  0.4890050502346690  0.1069685437808816  0.5170298940550253
  0.5664418252882812  0.6996115110621506  0.5980385645268756
  0.6670868786959768  0.3633801214738204  0.7462372713778497
  0.9902395391920166  0.3430100358790644  0.7867328148448351
  0.6396462876169282  0.5730741854473421  0.6817935776238172
  0.2007930544223469  0.8639733239461047  0.8157111540782743
  0.1842034769210920  0.1252298400640169  0.5036909450490060
  0.4735233485596867  0.7856351022285820  0.0608368565998167
  0.9797107356870555  0.1393281833089213  0.8062000070420509
  0.3825844011748564  0.2757630475133989  0.4769943606736700
  0.8952328564794684  0.6303281263122430  0.0589042924907751
  0.8104762720093188  0.2446653449133278  0.7747936018539705
  0.8668065293093875  0.4082940739982611  0.5656563064276987
  0.0375051094287854  0.0553176373500739  0.6366851682542882
  0.1882266856993219  0.2779233120554229  0.3796396891301020
  0.8938046557057866  0.0701401058358202  0.5041250471294395
  0.2081424139736484  0.0158302172928837  0.9716508375713695
  0.8088338537285268  0.6031989429674860  0.3909581657059296
  0.7672184706039761  0.8103471505904711  0.5484830686922857
  0.4431086766410429  0.5540025486604990  0.8744028899467767
  0.9258563072189544  0.2444604280707398  0.5942400353118136
  0.4013341991590310  0.5961373665816496  0.0742973208078965
  0.4261626968601185  0.5624234424868132  0.3263075640108660
  0.8983511624232967  0.7467959876045461  0.3844549192628507
  0.3613039337750154  0.7103449413673775  0.2194579238744889
  0.1340110106572676  0.5233620294044374  0.4186352528641799
  0.7951685818468662  0.6948810824133311  0.6896791599551724
  0.5967904438953798  0.6499053522101987  0.9809964759863112
  0.8357779832342871  0.4740867411719691  0.7406723284955283
  0.1346567901016614  0.0949399077821083  0.8121313745258634
  0.3078747665515571  0.5964482176093044  0.7005213173648005
  0.7003425139686837  0.0346731521754879  0.4863983654964669
  0.3067304610975110  0.9034951478547734  0.0896769922208887
  0.4680104382333342  0.9813749924865515  0.9880379440303170
  0.9872198405844615  0.6271017689295074  0.7370579059466751
  0.0493440995525695  0.4096707949509015  0.2278320341573980
  0.4231999815013813  0.8566112523974958  0.2436657542527915
  0.7857479531219574  0.2468982591842050  0.4767022668979262
  0.7154557274772648  0.0619263532043857  0.2733760815603366
  0.4590515456633899  0.3549485377112644  0.8027914045695179
  0.2749095278252536  0.6509819508851661  0.9224379695979610
  0.1054609671573710  0.2816941735178743  0.5867547896100845
  0.9302381109710876  0.4903634468007905  0.9119478283751173
  0.9098810665618665  0.2451422586948550  0.9714109476143606
  0.5499043217455444  0.4976645101481818  0.1205340910961315
  0.8723744503791833  0.3922172045425190  0.3465873942608699
  0.8879833272448948  0.3814115318148044  0.1178683868997439
  0.3493471531112624  0.3408245738338170  0.2830569825078715
  0.6440568515472960  0.1156897666650483  0.0308168885413076
  0.4008356586393364  0.7393374885991102  0.7577123107001557
  0.3068152592119950  0.2661190240788210  0.9025933982840945
  0.2162258792165044  0.6483629403975559  0.1176992787403217
  0.0401600001636104  0.3705645273427084  0.4333846209957077
  0.5968874368681213  0.1532225068077589  0.8073263167496049
  0.2943551316956342  0.7910308792794515  0.3948166282224345
  0.3782008289176900  0.7662612981115788  0.5511154489499459
  0.6780697438936385  0.3066761601104756  0.3027368287543334
  0.3023768044876528  0.0875932791740133  0.4251936453563044
  0.0963975964189185  0.7352112318993433  0.4018668166962446
  0.8843043060330120  0.5527348452542185  0.2326043225165052
  0.1753585093032413  0.7928783891236909  0.9861153840160548
  0.2528084691060366  0.0993701330049459  0.1574708357510075
  0.5592526504015372  0.4336015728194442  0.5742728804151489
  0.7930301903719976  0.0448735578010195  0.7932051690326694
  0.9884606579186532  0.8055971596824807  0.7981368469979460
  0.9701010979581194  0.7056266836131639  0.2363783935304379
  0.7959190489404214  0.8293608771284537  0.8446044936075767
  0.2179360852091356  0.1284136370286595  0.7177445630583610
  0.8487540511408234  0.6044667904016225  0.5627851805253834
 
 -0.19348140E-02  0.11442958E-02 -0.16282566E-02
  0.22962935E-02 -0.11148599E-02 -0.79352561E-03
  0.80336223E-03 -0.14716947E-02  0.86172631E-03
  0.83543918E-03 -0.95731745E-03 -0.10899040E-02
 -0.18645422E-02  0.10107407E-02 -0.20350143E-02
 -0.45369635E-03  0.15697519E-02  0.29335678E-02
 -0.24018214E-03  0.12257905E-02  0.44204055E-02
 -0.47539721E-03  0.25457916E-02 -0.14697127E-02
  0.31303602E-02 -0.24089608E-02 -0.18886937E-02
  0.84276084E-03  0.52019842E-03 -0.11930837E-02
  0.38398336E-03 -0.25684206E-02 -0.50363371E-03
 -0.32114872E-03  0.13660823E-02  0.77474887E-03
 -0.15465700E-02  0.18936268E-02  0.21437366E-03
 -0.13991499E-02 -0.65892003E-03  0.39334070E-04
 -0.31303324E-03  0.10171838E-03 -0.11746550E-02
  0.28966209E-02  0.39842159E-03 -0.11670847E-02
 -0.20551937E-02  0.74122162E-03 -0.35242359E-02
  0.19593483E-02  0.10391060E-02 -0.62720591E-03
  0.47159824E-03  0.21416195E-02 -0.10199713E-02
 -0.39992114E-02 -0.25794875E-02 -0.38242599E-03
  0.17053493E-02  0.95128881E-03  0.17045748E-02
  0.31984865E-02 -0.28783500E-02 -0.27092796E-02
 -0.85183925E-03 -0.11519301E-02 -0.10298915E-02
  0.88377602E-03 -0.23894331E-02 -0.38663305E-03
 -0.16096573E-02  0.12777196E-02 -0.88456858E-03
  0.30819020E-02 -0.11577378E-02 -0.10740961E-02
 -0.26113701E-02  0.20397989E-02 -0.16705713E-02
 -0.17206105E-02 -0.92638139E-03  0.10057667E-02
 -0.10381928E-02 -0.13054334E-02  0.14134430E-02
  0.10062220E-02  0.65325564E-04  0.36000843E-03
 -0.34633256E-03 -0.90694986E-04  0.18679795E-02
  0.69659656E-03  0.72492498E-03  0.24000358E-02
 -0.10171392E-02  0.10313359E-02  0.84157141E-03
 -0.89866446E-03 -0.36915489E-04  0.59367453E-03
  0.34964589E-03 -0.42125773E-03  0.11394192E-03
 -0.12140995E-02 -0.68596599E-03 -0.45732654E-04
  0.32281649E-02 -0.26072147E-02 -0.13757019E-03
  0.19307437E-02  0.16047148E-03 -0.15087931E-02
  0.37984006E-03 -0.64390258E-03  0.55191057E-03
  0.11104529E-02 -0.44914517E-03  0.12601467E-02
 -0.15401078E-02  0.63137575E-03  0.26078919E-03
 -0.18826644E-02 -0.19025654E-02  0.41726214E-05
 -0.69789053E-04  0.24563284E-02 -0.15638324E-02
  0.24187944E-03  0.69257727E-03 -0.13195641E-02
 -0.20312937E-03  0.22145247E-03 -0.13897418E-02
 -0.27347193E-03  0.44451211E-03  0.50029532E-04
  0.32649853E-03 -0.23093452E-02 -0.12119812E-02
 -0.39794654E-03  0.26281226E-02 -0.23115461E-03
  0.68370249E-03  0.54866769E-03 -0.47282289E-03
 -0.91507241E-03 -0.10319818E-02  0.24754710E-02
  0.21748771E-02  0.22143114E-02 -0.21235765E-04
  0.98257839E-03  0.36952255E-03 -0.18487361E-02
 -0.88561540E-03 -0.18337758E-02  0.14691309E-02
  0.15596714E-02  0.22629404E-02 -0.61846026E-03
  0.13777329E-02 -0.35244210E-03  0.11476936E-02
  0.99088568E-03 -0.10410236E-02  0.11177292E-02
  0.52437495E-03  0.65174573E-03 -0.22571294E-04
 -0.12638521E-02  0.44692649E-04 -0.32859642E-03
  0.56257969E-03  0.13442851E-02  0.22820936E-03
 -0.42342693E-05  0.71091368E-03  0.12971217E-02
  0.18344743E-02 -0.11471412E-02  0.15983167E-02
 -0.10622032E-02  0.21992397E-02  0.10184582E-03
  0.96995647E-03 -0.23148029E-02  0.22300029E-02
  0.59477474E-04 -0.24057657E-02 -0.65569147E-03
 -0.21632416E-02  0.79308649E-03  0.21670408E-02
  0.34392539E-02 -0.48329427E-02 -0.32817069E-02
  0.42647124E-03 -0.21191580E-02  0.22639955E-03
 -0.13068986E-02 -0.53148296E-03  0.39175268E-02
  0.75668435E-03 -0.59434186E-03 -0.27236973E-02
 -0.15888420E-05  0.11184866E-02  0.10177808E-02
  0.10267181E-02  0.99132389E-03  0.18671826E-02
  0.16999820E-03  0.24354740E-02  0.10731100E-02
  0.14998584E-02  0.12684712E-02  0.47734111E-03
 -0.17845511E-02  0.14005197E-02 -0.54144407E-03
 -0.95444242E-03  0.63916503E-03  0.35354947E-02
  0.11638624E-02 -0.13864175E-02  0.19814698E-03
  0.12205824E-02  0.28086387E-02  0.60923076E-03
  0.39439638E-02  0.98258663E-03  0.34250741E-03
 -0.13182732E-02  0.13025386E-02 -0.10711718E-02
 -0.19390410E-02 -0.14623243E-02  0.23932357E-02
 -0.81616858E-03 -0.45771221E-03  0.97037785E-03
  0.19125190E-02 -0.87461617E-03  0.25834003E-03
  0.12198678E-02  0.10449256E-02 -0.16683890E-02
  0.16472946E-02  0.17119915E-02 -0.31431842E-03
 -0.25480627E-02  0.19667228E-02 -0.37163588E-02
 -0.17515358E-02  0.76479134E-03 -0.48084807E-03
 -0.41885025E-03  0.91750498E-04  0.49743637E-03
  0.18614029E-02 -0.24753986E-03  0.61428865E-03
 -0.21806453E-02  0.17456397E-02  0.12252307E-03
  0.11192019E-02  0.17866281E-03  0.28294181E-03
  0.78153929E-03 -0.83020839E-03  0.18738932E-02
 -0.26084119E-02 -0.10524529E-02 -0.27972289E-02
  0.31716540E-02 -0.37387829E-03 -0.19789265E-03
  0.28957043E-03  0.22497870E-02 -0.40485034E-03
  0.16958645E-02 -0.29593480E-02  0.11983442E-03
 -0.84526969E-03 -0.18426285E-02 -0.52548584E-03
  0.34850894E-02  0.13553767E-02 -0.24695335E-03
 -0.14595422E-02  0.10268531E-02  0.87897766E-03
 -0.23009120E-03 -0.14035301E-02  0.26658347E-03
 -0.73562705E-03  0.22549288E-02 -0.29665551E-04
  0.34381575E-02 -0.10267583E-02 -0.23167809E-02
  0.14149409E-02 -0.13779216E-03  0.30692382E-03
 -0.14368763E-02  0.15758442E-02  0.35129536E-03
  0.11348036E-02  0.10077052E-02 -0.13761645E-02
  0.61144695E-03  0.11568604E-02  0.10078549E-02
  0.19173513E-02  0.20765491E-02  0.24333942E-03
 -0.14165353E-02 -0.12954156E-02  0.16042615E-02
 -0.23211846E-02  0.53567169E-04 -0.18429431E-02
  0.30225919E-02 -0.94830930E-03 -0.15227836E-02
 -0.97536592E-03  0.45498149E-03  0.22563120E-02
 -0.38739462E-04  0.23235303E-02  0.21750125E-02
  0.16024572E-02  0.23567152E-02 -0.18117210E-02
 -0.48598511E-03  0.80990649E-03  0.17718533E-02
 -0.17502000E-02 -0.36933180E-03  0.34077259E-03
 -0.14698904E-02 -0.16964115E-02 -0.28693920E-03
 -0.62290415E-03  0.10413908E-02 -0.54343300E-04
 -0.47311207E-03  0.36210364E-02 -0.71378318E-03
 -0.36952588E-03 -0.34512794E-03 -0.11477939E-02
 -0.42391762E-03 -0.53232026E-03  0.98620682E-03
 -0.15913524E-02  0.16562451E-02  0.48894440E-03
 -0.23936886E-02 -0.78715961E-03  0.68461581E-03
  0.60286648E-03 -0.19784659E-03  0.98659475E-03
  0.25142953E-03  0.19066902E-02 -0.18522478E-02
  0.23936623E-02  0.56577579E-03 -0.26847895E-02
 -0.73127168E-03 -0.10092340E-02  0.21720237E-02
  0.19440930E-03  0.26491344E-02  0.12265122E-02
 -0.36097483E-02  0.27262018E-03 -0.93498348E-03
  0.20731722E-02 -0.17143765E-02 -0.17900076E-02
  0.12789932E-02  0.59273515E-03 -0.53895748E-03
  0.52318738E-03  0.74722911E-03 -0.79291489E-03
 -0.16594061E-02  0.22693288E-02 -0.73341373E-03
  0.11637438E-02 -0.12957367E-02 -0.43025074E-03
 -0.78151484E-03 -0.78126113E-03  0.14671923E-02
  0.51701744E-03 -0.17562012E-02 -0.10370642E-02
  0.73513349E-03 -0.55540395E-03 -0.11887379E-02
  0.35151571E-03 -0.10386038E-02  0.58900692E-03
  0.25130908E-02 -0.11301229E-02 -0.95788781E-04
 -0.98904720E-03 -0.95004589E-04 -0.77284835E-03
  0.10427371E-02  0.63113325E-03  0.45903674E-02
 -0.18128127E-02 -0.21081952E-02  0.13588679E-02
  0.75544150E-03 -0.10831821E-02 -0.28209944E-03
 -0.69967166E-03 -0.14256022E-02  0.13354144E-02
  0.18641851E-04  0.69467600E-03 -0.75680554E-03
  0.37755773E-04 -0.60634740E-03  0.17835121E-02
  0.16733906E-02 -0.11949763E-02 -0.80643395E-03
  0.18302920E-02  0.27717537E-03 -0.82534469E-03
  0.11847677E-03  0.12655096E-03  0.18027931E-02
  0.13644398E-02  0.29533773E-02 -0.57613718E-03
  0.64423496E-03  0.38062574E-04 -0.13740430E-02
  0.12577363E-04 -0.28188829E-03  0.20806524E-03
  0.10281442E-02  0.35632626E-03  0.60629022E-03
 -0.32196930E-03 -0.32617226E-03  0.15020268E-02
 -0.23804833E-02  0.16828017E-02  0.51432934E-03
  0.91032260E-03  0.16070225E-03  0.93260597E-03
 -0.24637094E-02  0.69034599E-04  0.28568727E-02
  0.12953123E-02 -0.10268819E-02  0.13207331E-02
  0.39950498E-03 -0.49753355E-03 -0.15256221E-02
  0.57272969E-03 -0.26062581E-02 -0.11820284E-02
 -0.43988327E-03 -0.17992512E-02 -0.89646649E-03
  0.54733194E-03 -0.19720299E-02 -0.75590960E-03
 -0.10250107E-02  0.17579051E-02  0.49143818E-03
 -0.72377709E-03  0.20296583E-02  0.44601238E-03
  0.90069305E-03  0.70218315E-03 -0.32970772E-02
  0.71990132E-03 -0.98291097E-03  0.24926030E-02
  0.25610893E-02  0.10378809E-02 -0.12819859E-02
 -0.83557310E-03  0.55078262E-03  0.74857605E-03
 -0.44066652E-03 -0.17020966E-03 -0.70593764E-03
 -0.49639460E-03 -0.42422095E-03  0.51088368E-03
  0.19029587E-02 -0.66149061E-03  0.32820572E-02
 -0.19105703E-02  0.11798769E-02 -0.12216745E-02
 -0.57850351E-03  0.23088671E-02 -0.17161666E-02
 -0.79926737E-03 -0.23071804E-02 -0.24194805E-03
  0.98907605E-03  0.83341591E-03  0.75606219E-04
 -0.38316920E-03  0.98792354E-03  0.59293713E-03
  0.96668404E-03  0.25167183E-03  0.34163426E-03
 -0.17994494E-02  0.73722732E-03 -0.19416774E-03
 -0.94269114E-03  0.61376996E-03  0.29200576E-02
  0.37895937E-03 -0.11263699E-02  0.28163074E-03
 -0.54749032E-03  0.17530987E-02 -0.51556029E-04
  0.15494164E-02 -0.36481236E-03  0.17029117E-02
 -0.32117018E-02  0.10086341E-02 -0.22501662E-02
 -0.11025683E-02  0.16384814E-02 -0.38796359E-03
 -0.66942326E-03 -0.73520816E-03 -0.26297712E-02
 -0.11173509E-02  0.45092579E-03 -0.11580751E-02
  0.51570378E-03  0.14416388E-02  0.94525072E-03
  0.15296353E-03 -0.16414486E-02 -0.71297204E-03
 -0.11786727E-02 -0.17573763E-02 -0.11249123E-03
 -0.31714230E-02 -0.79875094E-04 -0.78925301E-03
 -0.94679181E-03  0.18733639E-02 -0.22732764E-02
  0.16165211E-02 -0.20032850E-02 -0.50386623E-03
 -0.17726715E-02 -0.17130652E-02  0.18896302E-02
  0.45913931E-03  0.10755591E-02 -0.26331436E-02
 -0.28540989E-02 -0.61291709E-03  0.19287373E-03
  0.49805549E-04 -0.13925923E-02 -0.15258483E-02
  0.63351708E-03 -0.94386939E-03 -0.49682113E-03
  0.11648393E-02  0.14896825E-03  0.77137002E-03
  0.22211194E-02  0.77738017E-03  0.41616021E-03
 -0.15581771E-02  0.14308110E-02 -0.30484602E-03
 -0.41659940E-04  0.32756462E-02  0.17389468E-02
  0.20152237E-02  0.67280966E-03 -0.35651448E-03
 -0.13896535E-02 -0.39858466E-03 -0.18358790E-03
  0.72848315E-03 -0.23722527E-03 -0.14632352E-03
 -0.14947931E-02  0.20264966E-02 -0.13558616E-02
  0.19041345E-02  0.47663412E-03 -0.59496517E-03
  0.15766199E-02  0.25453775E-03 -0.29562866E-02
  0.62213551E-03 -0.19793061E-02  0.38248140E-04
  0.20027006E-02 -0.59654054E-03  0.10024488E-02
  0.58748512E-03  0.10315365E-03 -0.90736156E-03
  0.19011981E-03  0.17005895E-02 -0.11965372E-02
 -0.97537794E-03 -0.10599161E-02 -0.16696897E-03
  0.13196134E-03  0.17248030E-03 -0.35470672E-02
  0.18555363E-02  0.28458760E-03  0.12161243E-02
 -0.85517691E-03 -0.24042651E-02  0.15215949E-02
  0.28439260E-02  0.62670610E-03 -0.43470579E-03
  0.18301062E-03 -0.44914140E-03  0.25583245E-02
 -0.85372944E-03  0.29393432E-03  0.78963737E-04
 -0.46251956E-04 -0.97700915E-03  0.28021639E-03
 -0.22319666E-02 -0.22518456E-02 -0.14476617E-02
 -0.26995504E-03  0.28294086E-03 -0.88028772E-03
 -0.17111853E-04  0.57600772E-04  0.13405303E-02
 -0.25597794E-02 -0.98732204E-03  0.10705598E-02
 -0.43276343E-03  0.69914536E-03  0.18644038E-02
 -0.11744686E-02 -0.20805734E-03  0.17981999E-02
 -0.15734133E-02 -0.11862482E-02 -0.15764753E-02
 -0.17056078E-02 -0.95873714E-04  0.53534713E-03
  0.55462557E-04 -0.25610555E-02  0.37581682E-03
 -0.39471567E-03  0.57668118E-03  0.11103922E-02
 -0.18454007E-03 -0.17177856E-02 -0.19811216E-04
  0.14714965E-02 -0.11938039E-03 -0.15451828E-02
 -0.12170426E-02 -0.13125669E-02 -0.20658339E-02
 -0.12646552E-02 -0.97650333E-03  0.77058712E-03
  0.13367057E-02 -0.14214149E-03 -0.18636041E-03