3D\Atomistic                            
   1.00000000000000     
    18.8173099491580764    0.0000000000000000    0.0000000000000000
     0.0000000000000000   18.8173099491580764    0.0000000000000000
     0.0000000000000000    0.0000000000000000   18.8173099491580764
   Sb
   216
Direct
  0.0012194665733038  0.0085610563737567  0.5850905123124781
  0.5698947805002044  0.7838549898384731  0.3127754753510563
  0.9388902209361105  0.9222907952277045  0.9283357445658853
  0.2135212173705046  0.3591176104862204  0.0175243748461962
  0.8035967460594680  0.9578505086496457  0.8546283511205739
  0.3841677077161298  0.9557894541950163  0.9536409543943954
  0.9733489020008611  0.2027910376830547  0.4089427831891417
  0.7729622227240021  0.2217937073683368  0.7121462557083781
  0.4444259854642158  0.7192542710414987  0.1018421080699278
  0.3006773060112062  0.0899673767021302  0.2452589706395975
  0.3292185742265087  0.7607112554762799  0.3383075679405722
  0.5370428456443979  0.2141022589170217  0.4384344091097622
  0.5148421883371692  0.0371768730010588  0.3124861852621830
  0.4886044166136392  0.8435186696313561  0.9792614373831410
  0.1115128969792058  0.2851948916973501  0.4324943982021923
  0.7816624694429110  0.3306960203739519  0.1028845860416568
  0.5065465020086840  0.7132927182093588  0.6338803077996464
  0.4347131543619653  0.2206555908863069  0.2135567842132552
  0.1039260919355348  0.9083943224842725  0.0310199915786700
  0.8460656562308142  0.1190319201739814  0.8537758746157421
  0.3244256273750282  0.1227717628406586  0.0211833066804039
  0.7126695615709405  0.7572097677788761  0.8851068468209599
  0.7879050948847899  0.9734388443467648  0.6520281186781507
  0.8515404052812282  0.1425480352117518  0.5118632406191340
  0.6213680404590911  0.9266981481449325  0.2712075952861230
  0.9740938089171086  0.3985989596880106  0.0261757739443739
  0.4888150973133701  0.5419906686934068  0.1004336199339949
  0.7725079569977850  0.5210888494141718  0.9760247676583418
  0.8052507401440375  0.9670374060814299  0.3181250762024874
  0.0437677837109877  0.2680851840317019  0.8630555712331573
  0.7661701738862100  0.7211360771457023  0.6510665261586396
  0.9728980252291309  0.4732356783825619  0.2167019534382731
  0.0996528343064878  0.2892907976411152  0.1867785511119592
  0.7277718456321878  0.5756652455635699  0.6937460980957997
  0.3435333374903176  0.3720777238243408  0.8654892519172739
  0.1523053158796203  0.0618402062268172  0.1572441253042678
  0.6978470654363830  0.6108669913103034  0.0836178988027387
  0.2856705524518934  0.1324833248474514  0.6641099516180348
  0.1779562836899311  0.6733444305130609  0.0592035335581095
  0.3162794768156206  0.5099273777705297  0.9575029402040192
  0.6243562723350418  0.9399261067319646  0.4497767085338040
  0.9482686055751158  0.3152339632209027  0.1796626900715181
  0.1824834996544064  0.1882785639625968  0.8474978219020458
  0.1183974041264162  0.7863373378020305  0.8952582790467485
  0.1239050190497986  0.3923680627232773  0.3205523489889591
  0.2860167104122437  0.4970869815249749  0.7668895958752011
  0.7675343557521628  0.4293949691679370  0.2774378249642862
  0.0554165733972416  0.7817891277392938  0.2470587423613173
  0.8364965957590161  0.8540780482140113  0.7433641867086100
  0.7643017670536411  0.8498582697179905  0.1981621987688968
  0.9178559153201759  0.5900559045228380  0.0260839150446937
  0.9101634067273202  0.8251768085089376  0.5740825875823262
  0.4983671867603604  0.5780946655464038  0.5601297596987757
  0.1836290144346924  0.7179920223530043  0.7328948889030562
  0.1917195225843177  0.7235432306281122  0.2056672116957302
  0.5085531223326460  0.1653182485379415  0.8911370364641249
  0.8119214543669609  0.7085865082949584  0.0189389706742723
  0.0199542832511830  0.7400297401557411  0.7773655939273739
  0.8356431655772176  0.0364399971930208  0.0863703194229544
  0.5994390999256467  0.6903259525125115  0.9680894035055034
  0.3975504736212598  0.4491069769995996  0.4541028657898029
  0.3300911138547468  0.6622510399002707  0.9061487996092759
  0.0251661833451059  0.8061946717594117  0.4740893075563849
  0.5764151869810662  0.6860481155686189  0.1855022414460535
  0.9746729861652853  0.6254704639539033  0.2303856079360375
  0.4103298485137526  0.8947548922153765  0.3326102840615167
  0.0595364838888217  0.5096394899946446  0.0921918764815513
  0.4262365528909827  0.9620410358444653  0.4884844316762335
  0.9829157655773716  0.8213055013250857  0.1078228968410105
  0.3986732103641263  0.1500459912873038  0.3576396043849321
  0.8646299081970708  0.7334736566733688  0.1633496920954648
  0.8154815264757209  0.3869629759556851  0.5027323320366264
  0.9095965408195288  0.2090820148039321  0.6401483743727757
  0.3467064955490652  0.9464775760007220  0.6216342719176153
  0.2718417073037513  0.9688541026710917  0.3374174748460687
  0.4078835318443352  0.3085444947336672  0.0053976323443984
  0.9895974651817013  0.8744389005685775  0.7030827624610640
  0.3098547816781418  0.0599163811784421  0.4579233474848677
  0.8176539834131593  0.5063749580624169  0.4009894166188374
  0.3436482762162047  0.1931062923188700  0.8835142110704086
  0.2245369227250114  0.8095789334141872  0.4483689900688529
  0.2966380547419591  0.0602978688496768  0.8038536731433470
  0.5418723806193338  0.0658707969785828  0.5177420085462063
  0.6508279430673308  0.7979317641825914  0.0986506210967822
  0.3412751839236539  0.9737211278747594  0.1093889209203252
  0.3095740576468516  0.2409503108294649  0.1258159700803539
  0.2007009903424617  0.5828290094068023  0.6563343831052748
  0.4129719630105723  0.5844912500535605  0.7955740582558919
  0.3987242431903383  0.4147752559910299  0.1183564477576855
  0.4463640870560137  0.8802290542949633  0.7208292160697995
  0.0823945080001177  0.2801450750129318  0.0287919066754191
  0.9178306272811535  0.7901838502658368  0.3557297505989779
  0.9603241533002198  0.9565722113003761  0.2014645545505397
  0.5651655541280199  0.9566015771981758  0.6479703479765954
  0.9253231020212234  0.0621077071513748  0.3136731978853005
  0.1707819153249867  0.1341717953152667  0.0194851602001013
  0.4059825519430306  0.2426452081610151  0.5735045474616305
  0.3457623289827962  0.2932967171550757  0.4085109673924621
  0.2168811045551857  0.8840308926212603  0.1370946174091269
  0.3637057174467228  0.4545713813550248  0.3008797040385965
  0.9920142176989283  0.4270923956640066  0.8742826455522312
  0.2458787053397616  0.2696734649046655  0.5269042385589215
  0.6872639978231395  0.6262060956576194  0.4361950938570004
  0.2578919611572859  0.3135131933293899  0.2799267907135712
  0.4598547215298861  0.1067809632244636  0.6495952477809960
  0.3638618852315252  0.6662695375107363  0.6679986310617000
  0.4891024135610091  0.5248901059822164  0.9346299649077419
  0.7709503668657380  0.2528566620322116  0.4318776529536441
  0.9859990679824575  0.5848126486421480  0.8838662608690779
  0.2208975550473150  0.4238715913803061  0.5528893609282503
  0.3452590709362782  0.5931942730069988  0.4887418974408476
  0.2976919431362124  0.8012885778547802  0.5837441469967913
  0.6486709637409870  0.5470254063755282  0.5610874031415776
  0.5283822272690566  0.3406889554198622  0.1637843091083427
  0.8119107763437646  0.6861877416452402  0.5066823014915741
  0.1874852360071740  0.4385437307847473  0.1489500664089133
  0.5600241591460348  0.2601014122508661  0.0137795659312421
  0.8036788185139619  0.1717249451910250  0.2532343236100743
  0.5235088904394962  0.0487282002447842  0.9918307866405071
  0.8447272280562809  0.8857735716761183  0.0451225981389475
  0.5621591057810681  0.9236026745185143  0.1263492313246266
  0.3497939337916132  0.6555656204057478  0.2120484223678338
  0.1177488100884874  0.0517513456103659  0.4251543389486135
  0.5510503851713359  0.3157788282194355  0.7297494322243164
  0.0012593627400609  0.9520467543146025  0.3995211130171313
  0.1327912154139867  0.5880272235846994  0.2571277505610523
  0.9381478623088306  0.6358150813850828  0.3797720186099986
  0.5087888382047666  0.3485888334382941  0.3240927730189247
  0.1431556580545580  0.8401531735015645  0.6180580989228386
  0.2692110371860115  0.8562333483657579  0.9075494502723458
  0.5731722691332475  0.9429513100718744  0.8897540813471237
  0.2904580654525600  0.7796506157218626  0.0404387460749608
  0.7038853467433512  0.8903091793851732  0.9616430931444219
  0.1958798475048965  0.9636951072866226  0.5269538948067692
  0.6835946652432586  0.3906593947113663  0.0010194935778622
  0.7241954819168749  0.0561405702172533  0.4230957966853115
  0.5424294674686462  0.4825966047798815  0.3956561212898054
  0.8689885400284976  0.9639707692344057  0.5130440669718180
  0.6065514116193910  0.7696292656145860  0.4711917881037750
  0.7216381971924756  0.7460177975923009  0.3072689335616842
  0.7832756066338379  0.8218494498666390  0.4306218068927228
  0.7849252552769788  0.6066192737261528  0.2218358111908420
  0.6637660783139440 -0.0090584824120220  0.7626378983538640
  0.8879245116966069  0.3110587826911617  0.3198407663396133
  0.0878510861725375  0.9534753168323443  0.8254659292710030
  0.2030322566141174  0.1772346748991477  0.3400132121530490
  0.1553268700838224  0.0519737376494609  0.6483925641933157
  0.3928268526277344  0.2955199749850680  0.7232276801364330
  0.0218718422719528  0.0325062960054817  0.0804201724454610
  0.6453049556381417  0.4113620945927615  0.4894072301436273
  0.8430118171093584  0.2801459637916155  0.8405551581521151
  0.2101650518586451  0.9294428237020801  0.7326977138985467
  0.9652054446455034  0.4310574429539643  0.3889595117813259
  0.4481548834053710  0.0164955453112740  0.7984156185952396
  0.5947561895543897  0.1727648566218378  0.6883665088784497
  0.6483108054631085  0.1335178061263571  0.8256390440475888
  0.6274599662247671  0.1414612819609721  0.3326758861088442
  0.4845882139641550  0.0813844603934163  0.1657404784847411
  0.8428059077233012  0.6099084335320263  0.8225317020187530
  0.7501319819883326  0.3626968722759412  0.6538489376328191
  0.0590912661512305  0.0999361163589801  0.7787282422825156
  0.6939520188264510  0.2963783481138557  0.8756258172004544
  0.0732084377165845  0.4164700765798482  0.6128047064395565
  0.9731820887106050  0.3283937888734010  0.5071021229620822
  0.0764535269709053  0.1543822136599413  0.2565139367798410
  0.6146896620379140  0.1308965793637933  0.0928649443816488
  0.6814250079233716  0.2503432280668223  0.1933375171725524
  0.7306243685804920  0.0416275352078810  0.2018579837044255
  0.8306611558732474  0.4501316164395291  0.8259428114851476
  0.6653184989579385  0.3254390618913497  0.3318801894249153
  0.0741479693872438  0.5244355508173287  0.7264568602081988
  0.1611656307494657  0.4888786713668625  0.9471761972401681
  0.0177618797320480  0.7162566231768603  0.9958455024718808
  0.0082963365030387  0.5397078989981607  0.5194079192099145
  0.6506988214730024  0.5388194172092443  0.2747809521127080
  0.5008545328578741  0.4869694880292622  0.6838371647972243
  0.3289479668712378  0.7738449251857096  0.7781483840339442
  0.0888246523798120  0.6827217586618471  0.3719374201480687
  0.5209712790828972  0.3601593355856213  0.5830479290046880
  0.3610716394430686  0.4285621995411701  0.6505138970268604
  0.4652291616810991  0.5666194190630303  0.2595481424576297
  0.8707918851962210  0.5294659717689125  0.5934016876595004
  0.4964342555745636  0.3813022161146895  0.8854284541390477
  0.5939499375483642  0.6263956627653834  0.7542221542036295
  0.9190841975522679  0.1659019900444111  0.1467533938231552
  0.7043764374191679  0.1052560965684440  0.5790272035357852
  0.8414048474099670  0.4866404237497258  0.1320275443890496
  0.1434380672638609  0.4165144232299579  0.8116008088550176
  0.6324240437811678  0.5594613523463950  0.8892818334552933
  0.9112940528524037  0.7720799371072662  0.8947810350143079
  0.6233587529387102  0.4738192776357116  0.1358799156377578
  0.6786930857526793  0.8743351812463748  0.5792869186629076
  0.4569477856970224  0.7911211612629927  0.5106905723575419
  0.2686594196652539  0.5676538794804404  0.3493356896596271
  0.1566546593412929  0.4973224302175352  0.4315978630013780
  0.4295705035026292  0.8615647543111652  0.1752855113987767
  0.0585172703382503  0.6795433473941674  0.5782282231044433
  0.0954577646010362  0.9292234588060100  0.2745201401123628
  0.0626208085106861  0.1432994649086785  0.5361751464202419
  0.1920196302913942  0.9943238500628868  0.9357670173161859
  0.9050401825590634  0.6548766599003845  0.6868623486285240
  0.2187557503212706  0.2635407619163291  0.7180145056650272
  0.8656485969611264  0.2335097623786086  0.0135551930419461
  0.4877597186123142  0.7406472605555932  0.8609815060830834
  0.6805503523137827  0.4230468593930772  0.7837309931574791
  0.2777893329718064  0.5595669339328846  0.1005458223108638
  0.1865875755305247  0.6589198271603346  0.4928722874180916
  0.9894065287683468  0.1303783074404216  0.9168531868322163
  0.6563136603758919  0.2467160733151811  0.5368010869372744
  0.8957090983815907  0.4091355195427491  0.6897116304201518
  0.7583356625188282  0.1265376674655003  0.9840114170016925
  0.4432369428505639  0.6780923138326137  0.4045110257722319
  0.0620768700059291  0.2693765140632925  0.7010208840652754
  0.1795928569549728  0.6434575378718250  0.8701939242562289
  0.9201038556023480  0.0677277573363880  0.7035281196377767
  0.6103594609925612  0.7820611061638575  0.7696922356757682
 
  0.00000000E+00  0.00000000E+00  0.00000000E+00
  0.00000000E+00  0.00000000E+00  0.00000000E+00
  0.00000000E+00  0.00000000E+00  0.00000000E+00
  0.00000000E+00  0.00000000E+00  0.00000000E+00
  0.00000000E+00  0.00000000E+00  0.00000000E+00
  0.00000000E+00  0.00000000E+00  0.00000000E+00
  0.00000000E+00  0.00000000E+00  0.00000000E+00
  0.00000000E+00  0.00000000E+00  0.00000000E+00
  0.00000000E+00  0.00000000E+00  0.00000000E+00
  0.00000000E+00  0.00000000E+00  0.00000000E+00
  0.00000000E+00  0.00000000E+00  0.00000000E+00
  0.00000000E+00  0.00000000E+00  0.00000000E+00
  0.00000000E+00  0.00000000E+00  0.00000000E+00
  0.00000000E+00  0.00000000E+00  0.00000000E+00
  0.00000000E+00  0.00000000E+00  0.00000000E+00
  0.00000000E+00  0.00000000E+00  0.00000000E+00
  0.00000000E+00  0.00000000E+00  0.00000000E+00
  0.00000000E+00  0.00000000E+00  0.00000000E+00
  0.00000000E+00  0.00000000E+00  0.00000000E+00
  0.00000000E+00  0.00000000E+00  0.00000000E+00
  0.00000000E+00  0.00000000E+00  0.00000000E+00
  0.00000000E+00  0.00000000E+00  0.00000000E+00
  0.00000000E+00  0.00000000E+00  0.00000000E+00
  0.00000000E+00  0.00000000E+00  0.00000000E+00
  0.00000000E+00  0.00000000E+00  0.00000000E+00
  0.00000000E+00  0.00000000E+00  0.00000000E+00
  0.00000000E+00  0.00000000E+00  0.00000000E+00
  0.00000000E+00  0.00000000E+00  0.00000000E+00
  0.00000000E+00  0.00000000E+00  0.00000000E+00
  0.00000000E+00  0.00000000E+00  0.00000000E+00
  0.00000000E+00  0.00000000E+00  0.00000000E+00
  0.00000000E+00  0.00000000E+00  0.00000000E+00
  0.00000000E+00  0.00000000E+00  0.00000000E+00
  0.00000000E+00  0.00000000E+00  0.00000000E+00
  0.00000000E+00  0.00000000E+00  0.00000000E+00
  0.00000000E+00  0.00000000E+00  0.00000000E+00
  0.00000000E+00  0.00000000E+00  0.00000000E+00
  0.00000000E+00  0.00000000E+00  0.00000000E+00
  0.00000000E+00  0.00000000E+00  0.00000000E+00
  0.00000000E+00  0.00000000E+00  0.00000000E+00
  0.00000000E+00  0.00000000E+00  0.00000000E+00
  0.00000000E+00  0.00000000E+00  0.00000000E+00
  0.00000000E+00  0.00000000E+00  0.00000000E+00
  0.00000000E+00  0.00000000E+00  0.00000000E+00
  0.00000000E+00  0.00000000E+00  0.00000000E+00
  0.00000000E+00  0.00000000E+00  0.00000000E+00
  0.00000000E+00  0.00000000E+00  0.00000000E+00
  0.00000000E+00  0.00000000E+00  0.00000000E+00
  0.00000000E+00  0.00000000E+00  0.00000000E+00
  0.00000000E+00  0.00000000E+00  0.00000000E+00
  0.00000000E+00  0.00000000E+00  0.00000000E+00
  0.00000000E+00  0.00000000E+00  0.00000000E+00
  0.00000000E+00  0.00000000E+00  0.00000000E+00
  0.00000000E+00  0.00000000E+00  0.00000000E+00
  0.00000000E+00  0.00000000E+00  0.00000000E+00
  0.00000000E+00  0.00000000E+00  0.00000000E+00
  0.00000000E+00  0.00000000E+00  0.00000000E+00
  0.00000000E+00  0.00000000E+00  0.00000000E+00
  0.00000000E+00  0.00000000E+00  0.00000000E+00
  0.00000000E+00  0.00000000E+00  0.00000000E+00
  0.00000000E+00  0.00000000E+00  0.00000000E+00
  0.00000000E+00  0.00000000E+00  0.00000000E+00
  0.00000000E+00  0.00000000E+00  0.00000000E+00
  0.00000000E+00  0.00000000E+00  0.00000000E+00
  0.00000000E+00  0.00000000E+00  0.00000000E+00
  0.00000000E+00  0.00000000E+00  0.00000000E+00
  0.00000000E+00  0.00000000E+00  0.00000000E+00
  0.00000000E+00  0.00000000E+00  0.00000000E+00
  0.00000000E+00  0.00000000E+00  0.00000000E+00
  0.00000000E+00  0.00000000E+00  0.00000000E+00
  0.00000000E+00  0.00000000E+00  0.00000000E+00
  0.00000000E+00  0.00000000E+00  0.00000000E+00
  0.00000000E+00  0.00000000E+00  0.00000000E+00
  0.00000000E+00  0.00000000E+00  0.00000000E+00
  0.00000000E+00  0.00000000E+00  0.00000000E+00
  0.00000000E+00  0.00000000E+00  0.00000000E+00
  0.00000000E+00  0.00000000E+00  0.00000000E+00
  0.00000000E+00  0.00000000E+00  0.00000000E+00
  0.00000000E+00  0.00000000E+00  0.00000000E+00
  0.00000000E+00  0.00000000E+00  0.00000000E+00
  0.00000000E+00  0.00000000E+00  0.00000000E+00
  0.00000000E+00  0.00000000E+00  0.00000000E+00
  0.00000000E+00  0.00000000E+00  0.00000000E+00
  0.00000000E+00  0.00000000E+00  0.00000000E+00
  0.00000000E+00  0.00000000E+00  0.00000000E+00
  0.00000000E+00  0.00000000E+00  0.00000000E+00
  0.00000000E+00  0.00000000E+00  0.00000000E+00
  0.00000000E+00  0.00000000E+00  0.00000000E+00
  0.00000000E+00  0.00000000E+00  0.00000000E+00
  0.00000000E+00  0.00000000E+00  0.00000000E+00
  0.00000000E+00  0.00000000E+00  0.00000000E+00
  0.00000000E+00  0.00000000E+00  0.00000000E+00
  0.00000000E+00  0.00000000E+00  0.00000000E+00
  0.00000000E+00  0.00000000E+00  0.00000000E+00
  0.00000000E+00  0.00000000E+00  0.00000000E+00
  0.00000000E+00  0.00000000E+00  0.00000000E+00
  0.00000000E+00  0.00000000E+00  0.00000000E+00
  0.00000000E+00  0.00000000E+00  0.00000000E+00
  0.00000000E+00  0.00000000E+00  0.00000000E+00
  0.00000000E+00  0.00000000E+00  0.00000000E+00
  0.00000000E+00  0.00000000E+00  0.00000000E+00
  0.00000000E+00  0.00000000E+00  0.00000000E+00
  0.00000000E+00  0.00000000E+00  0.00000000E+00
  0.00000000E+00  0.00000000E+00  0.00000000E+00
  0.00000000E+00  0.00000000E+00  0.00000000E+00
  0.00000000E+00  0.00000000E+00  0.00000000E+00
  0.00000000E+00  0.00000000E+00  0.00000000E+00
  0.00000000E+00  0.00000000E+00  0.00000000E+00
  0.00000000E+00  0.00000000E+00  0.00000000E+00
  0.00000000E+00  0.00000000E+00  0.00000000E+00
  0.00000000E+00  0.00000000E+00  0.00000000E+00
  0.00000000E+00  0.00000000E+00  0.00000000E+00
  0.00000000E+00  0.00000000E+00  0.00000000E+00
  0.00000000E+00  0.00000000E+00  0.00000000E+00
  0.00000000E+00  0.00000000E+00  0.00000000E+00
  0.00000000E+00  0.00000000E+00  0.00000000E+00
  0.00000000E+00  0.00000000E+00  0.00000000E+00
  0.00000000E+00  0.00000000E+00  0.00000000E+00
  0.00000000E+00  0.00000000E+00  0.00000000E+00
  0.00000000E+00  0.00000000E+00  0.00000000E+00
  0.00000000E+00  0.00000000E+00  0.00000000E+00
  0.00000000E+00  0.00000000E+00  0.00000000E+00
  0.00000000E+00  0.00000000E+00  0.00000000E+00
  0.00000000E+00  0.00000000E+00  0.00000000E+00
  0.00000000E+00  0.00000000E+00  0.00000000E+00
  0.00000000E+00  0.00000000E+00  0.00000000E+00
  0.00000000E+00  0.00000000E+00  0.00000000E+00
  0.00000000E+00  0.00000000E+00  0.00000000E+00
  0.00000000E+00  0.00000000E+00  0.00000000E+00
  0.00000000E+00  0.00000000E+00  0.00000000E+00
  0.00000000E+00  0.00000000E+00  0.00000000E+00
  0.00000000E+00  0.00000000E+00  0.00000000E+00
  0.00000000E+00  0.00000000E+00  0.00000000E+00
  0.00000000E+00  0.00000000E+00  0.00000000E+00
  0.00000000E+00  0.00000000E+00  0.00000000E+00
  0.00000000E+00  0.00000000E+00  0.00000000E+00
  0.00000000E+00  0.00000000E+00  0.00000000E+00
  0.00000000E+00  0.00000000E+00  0.00000000E+00
  0.00000000E+00  0.00000000E+00  0.00000000E+00
  0.00000000E+00  0.00000000E+00  0.00000000E+00
  0.00000000E+00  0.00000000E+00  0.00000000E+00
  0.00000000E+00  0.00000000E+00  0.00000000E+00
  0.00000000E+00  0.00000000E+00  0.00000000E+00
  0.00000000E+00  0.00000000E+00  0.00000000E+00
  0.00000000E+00  0.00000000E+00  0.00000000E+00
  0.00000000E+00  0.00000000E+00  0.00000000E+00
  0.00000000E+00  0.00000000E+00  0.00000000E+00
  0.00000000E+00  0.00000000E+00  0.00000000E+00
  0.00000000E+00  0.00000000E+00  0.00000000E+00
  0.00000000E+00  0.00000000E+00  0.00000000E+00
  0.00000000E+00  0.00000000E+00  0.00000000E+00
  0.00000000E+00  0.00000000E+00  0.00000000E+00
  0.00000000E+00  0.00000000E+00  0.00000000E+00
  0.00000000E+00  0.00000000E+00  0.00000000E+00
  0.00000000E+00  0.00000000E+00  0.00000000E+00
  0.00000000E+00  0.00000000E+00  0.00000000E+00
  0.00000000E+00  0.00000000E+00  0.00000000E+00
  0.00000000E+00  0.00000000E+00  0.00000000E+00
  0.00000000E+00  0.00000000E+00  0.00000000E+00
  0.00000000E+00  0.00000000E+00  0.00000000E+00
  0.00000000E+00  0.00000000E+00  0.00000000E+00
  0.00000000E+00  0.00000000E+00  0.00000000E+00
  0.00000000E+00  0.00000000E+00  0.00000000E+00
  0.00000000E+00  0.00000000E+00  0.00000000E+00
  0.00000000E+00  0.00000000E+00  0.00000000E+00
  0.00000000E+00  0.00000000E+00  0.00000000E+00
  0.00000000E+00  0.00000000E+00  0.00000000E+00
  0.00000000E+00  0.00000000E+00  0.00000000E+00
  0.00000000E+00  0.00000000E+00  0.00000000E+00
  0.00000000E+00  0.00000000E+00  0.00000000E+00
  0.00000000E+00  0.00000000E+00  0.00000000E+00
  0.00000000E+00  0.00000000E+00  0.00000000E+00
  0.00000000E+00  0.00000000E+00  0.00000000E+00
  0.00000000E+00  0.00000000E+00  0.00000000E+00
  0.00000000E+00  0.00000000E+00  0.00000000E+00
  0.00000000E+00  0.00000000E+00  0.00000000E+00
  0.00000000E+00  0.00000000E+00  0.00000000E+00
  0.00000000E+00  0.00000000E+00  0.00000000E+00
  0.00000000E+00  0.00000000E+00  0.00000000E+00
  0.00000000E+00  0.00000000E+00  0.00000000E+00
  0.00000000E+00  0.00000000E+00  0.00000000E+00
  0.00000000E+00  0.00000000E+00  0.00000000E+00
  0.00000000E+00  0.00000000E+00  0.00000000E+00
  0.00000000E+00  0.00000000E+00  0.00000000E+00
  0.00000000E+00  0.00000000E+00  0.00000000E+00
  0.00000000E+00  0.00000000E+00  0.00000000E+00
  0.00000000E+00  0.00000000E+00  0.00000000E+00
  0.00000000E+00  0.00000000E+00  0.00000000E+00
  0.00000000E+00  0.00000000E+00  0.00000000E+00
  0.00000000E+00  0.00000000E+00  0.00000000E+00
  0.00000000E+00  0.00000000E+00  0.00000000E+00
  0.00000000E+00  0.00000000E+00  0.00000000E+00
  0.00000000E+00  0.00000000E+00  0.00000000E+00
  0.00000000E+00  0.00000000E+00  0.00000000E+00
  0.00000000E+00  0.00000000E+00  0.00000000E+00
  0.00000000E+00  0.00000000E+00  0.00000000E+00
  0.00000000E+00  0.00000000E+00  0.00000000E+00
  0.00000000E+00  0.00000000E+00  0.00000000E+00
  0.00000000E+00  0.00000000E+00  0.00000000E+00
  0.00000000E+00  0.00000000E+00  0.00000000E+00
  0.00000000E+00  0.00000000E+00  0.00000000E+00
  0.00000000E+00  0.00000000E+00  0.00000000E+00
  0.00000000E+00  0.00000000E+00  0.00000000E+00
  0.00000000E+00  0.00000000E+00  0.00000000E+00
  0.00000000E+00  0.00000000E+00  0.00000000E+00
  0.00000000E+00  0.00000000E+00  0.00000000E+00
  0.00000000E+00  0.00000000E+00  0.00000000E+00
  0.00000000E+00  0.00000000E+00  0.00000000E+00
  0.00000000E+00  0.00000000E+00  0.00000000E+00
  0.00000000E+00  0.00000000E+00  0.00000000E+00
  0.00000000E+00  0.00000000E+00  0.00000000E+00
  0.00000000E+00  0.00000000E+00  0.00000000E+00
  0.00000000E+00  0.00000000E+00  0.00000000E+00
  0.00000000E+00  0.00000000E+00  0.00000000E+00
  0.00000000E+00  0.00000000E+00  0.00000000E+00
  0.00000000E+00  0.00000000E+00  0.00000000E+00
