Amorphous GeTe6                         
   1.00000000000000     
    22.1728235405677245    0.0000000000000000    0.0000000000000000
     0.0000000000000000   22.1728235405677245    0.0000000000000000
     0.0000000000000000    0.0000000000000000   22.1728235405677245
   Ge   Te
    43   257
Direct
  0.0227326974868930  0.3669709436965414  0.8653561644253713
  0.0561847082608937  0.0359904622852499  0.4464811749741397
  0.7076968729681555  0.6954277903106855  0.3676449149063413
  0.6603841985482028  0.8146723970559446  0.8363682829863092
  0.9610911073203636  0.1823282626001071  0.7889812542058540
  0.2060151079234293  0.7002987570632415  0.8029261360984716
  0.1268224553846394  0.3219718135185718  0.2174385058724443
  0.6364653837598132  0.0554246489610462  0.3721461813994727
  0.3336244149269258  0.9711368277611120  0.5685672413430214
  0.5714500719156390  0.5971251838080714  0.8309407688353024
  0.2005645458526589  0.4062542176803325  0.8431823072017375
  0.4169925129084258  0.9970055740875765  0.4041095738384634
  0.9703151301459265  0.6252912165423328  0.4036224501164690
  0.1048832470596890  0.8268506361174127  0.7207877871712712
  0.1506260869607267  0.9635053185091887  0.6019932971966413
  0.3307018969817385  0.9900716971124315  0.8058034787063518
  0.1462777148175439  0.5709536668719827  0.9349698468588546
  0.3574211810242872  0.8908408009010974  0.2684482019218908
  0.1801658989461873  0.2846827484024181  0.9698467389641493
  0.3499225462906510  0.5265703725252547  0.4597597127556362
  0.9234001368936907  0.2251112723491820  0.0443049703433024
  0.2974036336223578  0.1337459273272962  0.5338593834061326
  0.1421832631309492  0.2534342146247246  0.7628952711354511
  0.8739630415125340  0.5443868362822111  0.7933223247489566
  0.9649997560058068  0.7785495147417889  0.3530355597223642
  0.5839102447486403  0.7049326431795320  0.7112476671215635
  0.5713326790156039  0.2680723969819006  0.2413470931599954
  0.2485759130058971  0.2415704092751283  0.0795356430326506
  0.7474779025128989  0.0716262616488491  0.2114450218529697
  0.1978961251255686  0.9994474013295892  0.3758113624554979
  0.6616335944108270  0.9207342530739588  0.0066983446928063
  0.6798205727018116  0.8872152297731313  0.6417831027643409
  0.6239784668882948  0.4074452814048639  0.0741323632646218
  0.6299283497645821  0.2743336864337179  0.4255253378934308
  0.6834218588922629  0.9791666149728318  0.1097509344564769
  0.0538812101357550  0.5084544769470195  0.0419170286613932
  0.3939816095923606  0.7878352678257551  0.5423058810265237
  0.8510517723113075  0.8746253860970649  0.5954171051367778
  0.4959410595401327  0.9465607113190666  0.0250508395618116
  0.9061393258547203  0.1557536966317755  0.3705914193373890
  0.8190005824946269  0.7663268426792101  0.8157535928994534
  0.4913482864554534  0.8514606234909862  0.8474185668299438
  0.2033448993304472  0.1572329111262901  0.2205311077786669
  0.9860792538697178  0.5337103893299810  0.8394410519913906
  0.3237151059435048  0.6524905022395637  0.9886903252455724
  0.6382803174608576  0.9658507474702070  0.4701496580688524
  0.6535627084496040  0.3688296089452586  0.7193001011643557
  0.9578997450159372  0.5271849216094869  0.1618347605215551
  0.4640058553717206  0.7021201904777813  0.4243654848538193
  0.0157663352444818  0.3057011953101092  0.4024207845998896
  0.4226004518202977  0.2219667630998916  0.8838025615202110
  0.2721053463840228  0.5355379918576190  0.6444928113338597
  0.4513162860681399  0.5658673643684154  0.8674222574342417
  0.4783357799843924  0.1359434363348314  0.0489206723715387
  0.7965023749248575  0.9726440032046723  0.1500809903749025
  0.7809558754969630  0.1120344744627634  0.0304591315676600
  0.6210704227526758  0.6084571287011803  0.3371479918751280
  0.1677372119494273  0.0445896453566873  0.4880993377076286
  0.6724866555706221  0.7736033731146177  0.2770304947048392
  0.3236385320736260  0.8617549746187871  0.6246415120563257
  0.9580531520526646  0.7685835636705400  0.9560409978331077
  0.2224416585849149  0.7036986455626005  0.2682370552210767
  0.0383612030493833  0.8256568071609598  0.6175440540931374
  0.4741923823332534  0.4521482420789014  0.9187467839648276
  0.4610037501264786  0.2142000808393904  0.5018121358845553
  0.1066703017222982  0.4484756449859514  0.9400580673147607
  0.9404464780303124  0.3057151081894807  0.7897830967144248
  0.1954273118550667  0.1609236057370833  0.6196703714691074
  0.4166340802517324  0.5487650225041895  0.3572660419006415
  0.2304260769267862  0.5066706309283360  0.4563579169724132
  0.2303863324931300  0.8920050659607063  0.2794481644064791
  0.5386473872272461  0.6722118076952230  0.6025617695734370
  0.8598806635067814  0.5237689278775468  0.4512138276860669
  0.2650955604359380  0.0150230971500727  0.1128254984021182
  0.7604287865362310  0.0520377521199274  0.8594116542597944
  0.8553362080937428  0.6526796829879750  0.7382064194936685
  0.2759628581886642  0.4463019421733053  0.7394068555165267
  0.6372426050841518  0.4060142701786502  0.5948728223566189
  0.3663682401810836  0.6153136411912321  0.5436152587464178
  0.8409774762474107  0.3339857520038085  0.2855849171736580
  0.7902413976228323  0.5499006469706715  0.8790655609147597
  0.0111279491855658  0.0568951930694758  0.0137227227019327
  0.2040008828997794  0.8540961557227776  0.5703980597416433
  0.1039631192322742  0.4180557128233707  0.3344467164300956
  0.0275110896292155  0.8772103761985417  0.3226704655438060
  0.3030931503240499  0.7349549022689377  0.0858913371601188
  0.5502621479449487  0.9621654453427738  0.3610830229346880
  0.0710510743228274  0.4303723293671119  0.1452282920029213
  0.0107149178140591  0.9250565493325302  0.8622957086311339
  0.2791387823597499  0.5397806936293535  0.8373142207962715
  0.6893725036767616  0.2919527353005072  0.8379500794757117
  0.4893172967268894  0.0028413297750420  0.6849529490345400
  0.4335382858185895  0.5188356958363269  0.7140765053576755
  0.4962535244319586  0.2534993659685240  0.7388292576572117
  0.6056565163676582  0.6973816987639794  0.4478963254698491
  0.8453298730566770  0.1634096354504966  0.2040079850730117
  0.2822731258850127  0.3375864310669055  0.1883874793152071
  0.0548690757311625  0.2722099581792309  0.9387367366210492
  0.8956005825232981  0.0332003768029301  0.7227113498224549
  0.2689076077840083  0.0092849011279825  0.9171847891989159
  0.8100370954895405  0.2466250690555359  0.1019186936884214
  0.4668408595180671  0.6019241282198562  0.2240251036616379
  0.1474245631382773  0.9616409174178265  0.8947250706641402
  0.6675924880153807  0.5135749554941351  0.4102174420462286
  0.7147051673773634  0.4757041339082542  0.7990527795431601
  0.0296154294656203  0.9951390725492961  0.7526662448454428
  0.0315463948606758  0.6182658298075802  0.9531828507279136
  0.8546890803291498  0.2071067900974831  0.6186825471706947
  0.3839106431992901  0.2464512020207633  0.2027516886607434
  0.4296910970537778  0.7982138246638921  0.0959184926066507
  0.1510309642764953  0.9371792331856540  0.7358191841130372
  0.2211086940952385  0.8030914278098947  0.1839768533649744
  0.1711725082647090  0.0334829917293741  0.1970062843275368
  0.7294085650891501  0.3194316855482456  0.5377558055859279
  0.2287596762222069  0.8999636295216609  0.0660731032715051
  0.7005415792593026  0.1883490113817944  0.3700035128749716
  0.3229768723052083  0.6730527740768329  0.8068747905806853
  0.1398684255583983  0.5524919372381508  0.1927394259704094
  0.0981724991919496  0.3863718492043011  0.7737975942675031
  0.1671848694724849  0.2842899899192657  0.6052818805353581
  0.8893886381611278  0.8747214776092546  0.9651929700124136
  0.0305895049706045  0.0818355877663502  0.6337193674882854
  0.2057432667304023  0.4719460939288564  0.2749571278053155
  0.0230941059613542  0.2000867972902426  0.6803379982662644
  0.7677880596664567  0.2902926368939650  0.6636897336652388
  0.7541070227906134  0.9400311875872682  0.3348155830842840
  0.4709039132262065  0.6548932977778842  0.9636444648935183
  0.8284339306402111  0.6125579858588381  0.6199776785700913
  0.4873095379209677  0.7928511806535258  0.2393582439305910
  0.1180104374202407  0.9448258155095898  0.0187611194754719
  0.3425893283966295  0.8011375903869252  0.8195762260286740
  0.3878122669080234  0.5603054026667644  0.0490233120534675
  0.3666785480129751  0.2831745017832596  0.6809756413707956
  0.9069981354512610  0.0477289180332829  0.3092197160384842
  0.3983206898359346  0.8728627564179443  0.4078696517270521
  0.5687285211494936  0.2302694103191574  0.6249648863986453
  0.0254994610237098  0.6393908656616281  0.6625653177966283
  0.2480088073356154  0.6183791078865056  0.1694324137773468
  0.3626776119535461  0.9009472700428788  0.1377741762023481
  0.7839923101159587  0.8338865938238298  0.2613476717784531
  0.2532086990511366  0.1350524566559667  0.8881049971727435
  0.3643852365404780  0.3066331174244066  0.9807520524544114
  0.6483236367574862  0.5622923619245606  0.1896375341144753
  0.5385672194767094  0.4758913160809379  0.1427479345295196
  0.3756695006124816  0.1470499834262757  0.9717718600859511
  0.1349808329081578  0.2264256782602694  0.1320664186208079
  0.1031361409016569  0.6586404357420553  0.0535059796097310
  0.2272420367814761  0.2759915348151926  0.2926937524650309
  0.3933641803126620  0.7080920160818388  0.2468343421065902
  0.8868430422809879  0.1640643077891252  0.9361238127382999
  0.2316100870586209  0.4395905932340769  0.0196411312263664
  0.1715962145342798  0.7823100245783244  0.8881488741544348
  0.3865310063475008  0.4327839017000477  0.5278630570757057
  0.4972931509869927  0.1707652334636051  0.2020092549370777
  0.6976821685307958  0.8525676080802189  0.4355101286757649
  0.2534141839598377  0.0230300048201637  0.6397266314226314
  0.9292269243260737  0.8984177089221562  0.2282994717363180
  0.1944035059880315  0.7517779018885451  0.6947282277993232
  0.3433247957149945  0.5359976902416042  0.2523980853596616
  0.2906821988620708  0.7939015832489497  0.9352950806757334
  0.9250766088112324  0.4340805222685738  0.9068961122064084
  0.0993382781421847  0.8745971622282175  0.4341575560497323
  0.9386521634964147  0.0383896976237770  0.9126731685889123
  0.4628766772473061  0.3782510558998965  0.7349225466427758
  0.7265756263749069  0.7177248874866139  0.5879523808235001
  0.0594692390132690  0.4879119771264607  0.4658976238437114
  0.9010646874642868  0.7895827976848493  0.5232352700205939
  0.7412757535673625  0.1260933138729711  0.7428068745413458
  0.5810243006669087  0.8181809712644657  0.9256217719746653
  0.6741927200104466  0.9751884871574334  0.7339238971704131
  0.8531673022162506  0.7992067824261430  0.4017762833090732
  0.9648763548967364  0.3342021810180804  0.6460969260356362
  0.7762264626777124  0.7152341375021257  0.0362472755608781
  0.8472609321036179  0.4565277342752306  0.7161199200666469
  0.3678917368932036  0.0128670826630920  0.2886423070588884
  0.7342281277466749  0.1907835609066094  0.9363884661069685
  0.4684871707902006  0.8704043594053875  0.6620737906569650
  0.1521490605266067  0.5636915275434363  0.6239787838283747
  0.3283096687485348  0.4230786993271234  0.9400375337337052
  0.6384969084376815  0.9717873817408876  0.2222841001835369
  0.9425655554478881  0.9223645099018170  0.6635863077613579
  0.8244745945234843  0.9582091497062585  0.8003862227775501
  0.4354773992810114  0.4013896093510190  0.1045683004009761
  0.7631197930804724  0.3899596439911643  0.8822722248967418
  0.5279757199110915  0.5148879723628119  0.4505929896334890
  0.3629731928999067  0.1797285480865774  0.4253808810192445
  0.2897026524992798  0.7107362467878616  0.4970085650017018
  0.8514201104765687  0.6044504913900515  0.1602969920887209
  0.7618984023458003  0.8564669086208856  0.8876946016005358
  0.9181886036166212  0.3855974769943407  0.3954785503584798
  0.0275708407466587  0.5243559970547216  0.3294831189801418
  0.8502700873214231  0.6543054314728072  0.4287932169944825
  0.4686095676648950  0.5143415436051951  0.5811299779716146
  0.8089891423528226  0.8412589816426759  0.0636542376931925
  0.0334242208436171  0.3225337457374574  0.5367166121840075
  0.5847195542967123  0.0145015520707816  0.9852614170501021
  0.0026557424636732  0.9447508929072093  0.4958208965500455
  0.5043085735571264  0.6972694212136752  0.7992689914934734
  0.9356039166643264  0.4718250350208047  0.0373844028280685
  0.9238259587716345  0.0884684812335383  0.5499042478218396
  0.6552415915576556  0.3744479992272900  0.3056951450221549
  0.6324935981147776  0.7954326511909289  0.5367093981106918
  0.0354820138403004  0.6539106803302944  0.7888636720797182
  0.0784141345389772  0.1537819584970848  0.3049702048268914
  0.8183902651507866  0.2244921846379495  0.7730693333091644
  0.0764530394985029  0.1870108459695904  0.8469246121022891
  0.4330405167945449  0.7364397012980184  0.6501105015087650
  0.3943075421131716  0.1668947484187176  0.6090054559757626
  0.7805471837209854  0.5064829877925977  0.3421883084462801
  0.7387521609436132  0.7352572105352183  0.1597877078342340
  0.1953320451571351  0.5838606493458343  0.3614294535616681
  0.4054040568756736  0.3859288038497140  0.2462960757393349
  0.7281882155346004  0.5354266948622576  0.6308114504017149
  0.9519635507245923  0.7429868552500368  0.6651354988321362
  0.8098810616130250  0.6327387032212900  0.3062302834111714
  0.5181523602630798  0.1185738022861208  0.3182948578458867
  0.0668791737228185  0.8217677330955598  0.1543988768867799
  0.5112974255692296  0.9992634340705931  0.2398132277444998
  0.5189941379741831  0.3954644495286238  0.4067835010961521
  0.6016406208680398  0.8262648030700941  0.7271574795321160
  0.2989623488327968  0.9532048852214048  0.4550412832559772
  0.2743445077992191  0.3554418702516324  0.6265874555924962
  0.0370251009240820  0.7969238784611700  0.8156949960600960
  0.0684120543000815  0.7140384118986529  0.2258773866117213
  0.5469009272927402  0.9696583244877423  0.8045325328197485
  0.6287518120586365  0.0312654705754564  0.6293492946998632
  0.3272024961611815  0.1101764583526460  0.7661687757017589
  0.3106024088183246  0.1526201861845894  0.1474011778054718
  0.9321902376746267  0.4546796362951709  0.2785592311520724
  0.7656380577484186  0.3708998584885596  0.3804050149702758
  0.1699478933133826  0.6845638013984483  0.4477944152858759
  0.5326860258088641  0.3311577492628832  0.5615050120242385
  0.0275709826192006  0.7265393840722364  0.4413353276318845
  0.7135678493371574  0.7052814192108711  0.8456764925399126
  0.0509466108489413  0.0819689049158484  0.1548547577362402
  0.6804259230150463  0.6357902394285226  0.7426352494792324
  0.9713441303196587  0.5699867499778036  0.5158721968767002
  0.0793857025338597  0.0237778497189575  0.3281250965645819
  0.1840067513362409  0.1612649495292365  0.9973447196765318
  0.9225128270719346  0.1132391845631090  0.1117149082843377
  0.5474305151996304  0.8631136948578052  0.0920278899560635
  0.8764199124113230  0.6876755684281700  0.8975145140175693
  0.9638103458014273  0.4612195038592007  0.6606881504649352
  0.2715969306249332  0.2455686555864114  0.4849982181438613
  0.5981789009676198  0.6671352973273545  0.9604098798332161
  0.8628221496603122  0.6187716362462702  0.0329876247187299
  0.7689698509945490  0.9890232231560935  0.9778036303075672
  0.9992752369100153  0.1432127039007439  0.4611799186258277
  0.6318501293706176  0.5460931773930157  0.9867959515086504
  0.4903564234111519  0.3033463799394329  0.0419980269501732
  0.4522335477888776  0.1220350028212198  0.7989975396135433
  0.5735638160426122  0.0908189289028052  0.4762149394595129
  0.2593472016402418  0.1041058451785398  0.3388543679461937
  0.4296924603959806  0.0250398265382337  0.0899997966532052
  0.4348788625778319  0.0372103353650462  0.5644129302079578
  0.1710292064537886  0.1887836636314989  0.3924391038202237
  0.7276491683942153  0.4361360503991116  0.1386433438231036
  0.8337374552520704  0.2385421880870855  0.4967625658009235
  0.5902102055229528  0.1016043258900409  0.8675378430290016
  0.5780806689502124  0.6726048135086995  0.2058692543735370
  0.6107364153952218  0.1862516287343409  0.9650231259487518
  0.3782262202448531  0.3809609718768755  0.3797182170146170
  0.4351004015134168  0.0157888048788550  0.8741548656365755
  0.7268592564541037  0.3239261043113826  0.2067479766487375
  0.6049740787972254  0.2914222615708313  0.1151015960907486
  0.1803036657144299  0.1306035232552667  0.7437908306479227
  0.9913969524687695  0.9720794602252812  0.1207173947919507
  0.5266779370835594  0.4341599391157541  0.2768153903105908
  0.7141534234917141  0.5743574548956789  0.0770387261539054
  0.1014123872764477  0.4522194568291643  0.5831392731514894
  0.5791982843043436  0.3153169981632766  0.9001199728471774
  0.7688966521224346  0.9435843206486628  0.5360156815087063
  0.6229170181185077  0.1762809644719874  0.7671616783692924
  0.8763313201870990  0.3038054957077808  0.9433005461654305
  0.5588806393499780  0.5372800538924456  0.7204701144237586
  0.1084381345857488  0.7838810369932757  0.0324462051051667
  0.9483494095482206  0.7026171530741945  0.2592338411682750
  0.8556346795553710  0.9777956570962129  0.4032042746621342
  0.2464867077915190  0.3818357172175937  0.3761845309701365
  0.3456474067657362  0.7111205610670220  0.3706054970934407
  0.7561732737913817  0.0511043726723407  0.6065443408720078
  0.4214486150449233  0.8935383939236129  0.9441740912279313
  0.9397332778724918  0.8256353149486653  0.1242283695483630
  0.5585764825291450  0.4198076978568892  0.8194666285486205
  0.6566566671908557  0.6077813071908802  0.5472783501082275
  0.2015288409392545  0.7958234822116180  0.3753575347015938
  0.5111527944543772  0.8088005541140741  0.3700266090624953
  0.6737447420344954  0.1928939872150092  0.2462700351080283
  0.7779432365577249  0.8130981561486620  0.6718187499131587
  0.0124116435513634  0.2769954505906091  0.2522199384742211
  0.5198735035481814  0.2429167118772870  0.3741859111431775
  0.8237089697259553  0.1108418963181288  0.4541501972192782
  0.4741364028822426  0.8807170409832537  0.5292640212354004
  0.3075142814677078  0.4867723769758069  0.1146190102625071
  0.6778522305077628  0.1034429975786622  0.1088010810569688
  0.1576138473521722  0.5864316972590454  0.8075869305343791
  0.6500776712529222  0.1866185343035629  0.5159143316293373
  0.2305383076635719  0.2800066777797859  0.8544007769304504
  0.9829296435829207  0.3342440025713428  0.1400847724585610
  0.7913471869913403  0.3569914254902525  0.0253742602736813
 
  0.00000000E+00  0.00000000E+00  0.00000000E+00
  0.00000000E+00  0.00000000E+00  0.00000000E+00
  0.00000000E+00  0.00000000E+00  0.00000000E+00
  0.00000000E+00  0.00000000E+00  0.00000000E+00
  0.00000000E+00  0.00000000E+00  0.00000000E+00
  0.00000000E+00  0.00000000E+00  0.00000000E+00
  0.00000000E+00  0.00000000E+00  0.00000000E+00
  0.00000000E+00  0.00000000E+00  0.00000000E+00
  0.00000000E+00  0.00000000E+00  0.00000000E+00
  0.00000000E+00  0.00000000E+00  0.00000000E+00
  0.00000000E+00  0.00000000E+00  0.00000000E+00
  0.00000000E+00  0.00000000E+00  0.00000000E+00
  0.00000000E+00  0.00000000E+00  0.00000000E+00
  0.00000000E+00  0.00000000E+00  0.00000000E+00
  0.00000000E+00  0.00000000E+00  0.00000000E+00
  0.00000000E+00  0.00000000E+00  0.00000000E+00
  0.00000000E+00  0.00000000E+00  0.00000000E+00
  0.00000000E+00  0.00000000E+00  0.00000000E+00
  0.00000000E+00  0.00000000E+00  0.00000000E+00
  0.00000000E+00  0.00000000E+00  0.00000000E+00
  0.00000000E+00  0.00000000E+00  0.00000000E+00
  0.00000000E+00  0.00000000E+00  0.00000000E+00
  0.00000000E+00  0.00000000E+00  0.00000000E+00
  0.00000000E+00  0.00000000E+00  0.00000000E+00
  0.00000000E+00  0.00000000E+00  0.00000000E+00
  0.00000000E+00  0.00000000E+00  0.00000000E+00
  0.00000000E+00  0.00000000E+00  0.00000000E+00
  0.00000000E+00  0.00000000E+00  0.00000000E+00
  0.00000000E+00  0.00000000E+00  0.00000000E+00
  0.00000000E+00  0.00000000E+00  0.00000000E+00
  0.00000000E+00  0.00000000E+00  0.00000000E+00
  0.00000000E+00  0.00000000E+00  0.00000000E+00
  0.00000000E+00  0.00000000E+00  0.00000000E+00
  0.00000000E+00  0.00000000E+00  0.00000000E+00
  0.00000000E+00  0.00000000E+00  0.00000000E+00
  0.00000000E+00  0.00000000E+00  0.00000000E+00
  0.00000000E+00  0.00000000E+00  0.00000000E+00
  0.00000000E+00  0.00000000E+00  0.00000000E+00
  0.00000000E+00  0.00000000E+00  0.00000000E+00
  0.00000000E+00  0.00000000E+00  0.00000000E+00
  0.00000000E+00  0.00000000E+00  0.00000000E+00
  0.00000000E+00  0.00000000E+00  0.00000000E+00
  0.00000000E+00  0.00000000E+00  0.00000000E+00
  0.00000000E+00  0.00000000E+00  0.00000000E+00
  0.00000000E+00  0.00000000E+00  0.00000000E+00
  0.00000000E+00  0.00000000E+00  0.00000000E+00
  0.00000000E+00  0.00000000E+00  0.00000000E+00
  0.00000000E+00  0.00000000E+00  0.00000000E+00
  0.00000000E+00  0.00000000E+00  0.00000000E+00
  0.00000000E+00  0.00000000E+00  0.00000000E+00
  0.00000000E+00  0.00000000E+00  0.00000000E+00
  0.00000000E+00  0.00000000E+00  0.00000000E+00
  0.00000000E+00  0.00000000E+00  0.00000000E+00
  0.00000000E+00  0.00000000E+00  0.00000000E+00
  0.00000000E+00  0.00000000E+00  0.00000000E+00
  0.00000000E+00  0.00000000E+00  0.00000000E+00
  0.00000000E+00  0.00000000E+00  0.00000000E+00
  0.00000000E+00  0.00000000E+00  0.00000000E+00
  0.00000000E+00  0.00000000E+00  0.00000000E+00
  0.00000000E+00  0.00000000E+00  0.00000000E+00
  0.00000000E+00  0.00000000E+00  0.00000000E+00
  0.00000000E+00  0.00000000E+00  0.00000000E+00
  0.00000000E+00  0.00000000E+00  0.00000000E+00
  0.00000000E+00  0.00000000E+00  0.00000000E+00
  0.00000000E+00  0.00000000E+00  0.00000000E+00
  0.00000000E+00  0.00000000E+00  0.00000000E+00
  0.00000000E+00  0.00000000E+00  0.00000000E+00
  0.00000000E+00  0.00000000E+00  0.00000000E+00
  0.00000000E+00  0.00000000E+00  0.00000000E+00
  0.00000000E+00  0.00000000E+00  0.00000000E+00
  0.00000000E+00  0.00000000E+00  0.00000000E+00
  0.00000000E+00  0.00000000E+00  0.00000000E+00
  0.00000000E+00  0.00000000E+00  0.00000000E+00
  0.00000000E+00  0.00000000E+00  0.00000000E+00
  0.00000000E+00  0.00000000E+00  0.00000000E+00
  0.00000000E+00  0.00000000E+00  0.00000000E+00
  0.00000000E+00  0.00000000E+00  0.00000000E+00
  0.00000000E+00  0.00000000E+00  0.00000000E+00
  0.00000000E+00  0.00000000E+00  0.00000000E+00
  0.00000000E+00  0.00000000E+00  0.00000000E+00
  0.00000000E+00  0.00000000E+00  0.00000000E+00
  0.00000000E+00  0.00000000E+00  0.00000000E+00
  0.00000000E+00  0.00000000E+00  0.00000000E+00
  0.00000000E+00  0.00000000E+00  0.00000000E+00
  0.00000000E+00  0.00000000E+00  0.00000000E+00
  0.00000000E+00  0.00000000E+00  0.00000000E+00
  0.00000000E+00  0.00000000E+00  0.00000000E+00
  0.00000000E+00  0.00000000E+00  0.00000000E+00
  0.00000000E+00  0.00000000E+00  0.00000000E+00
  0.00000000E+00  0.00000000E+00  0.00000000E+00
  0.00000000E+00  0.00000000E+00  0.00000000E+00
  0.00000000E+00  0.00000000E+00  0.00000000E+00
  0.00000000E+00  0.00000000E+00  0.00000000E+00
  0.00000000E+00  0.00000000E+00  0.00000000E+00
  0.00000000E+00  0.00000000E+00  0.00000000E+00
  0.00000000E+00  0.00000000E+00  0.00000000E+00
  0.00000000E+00  0.00000000E+00  0.00000000E+00
  0.00000000E+00  0.00000000E+00  0.00000000E+00
  0.00000000E+00  0.00000000E+00  0.00000000E+00
  0.00000000E+00  0.00000000E+00  0.00000000E+00
  0.00000000E+00  0.00000000E+00  0.00000000E+00
  0.00000000E+00  0.00000000E+00  0.00000000E+00
  0.00000000E+00  0.00000000E+00  0.00000000E+00
  0.00000000E+00  0.00000000E+00  0.00000000E+00
  0.00000000E+00  0.00000000E+00  0.00000000E+00
  0.00000000E+00  0.00000000E+00  0.00000000E+00
  0.00000000E+00  0.00000000E+00  0.00000000E+00
  0.00000000E+00  0.00000000E+00  0.00000000E+00
  0.00000000E+00  0.00000000E+00  0.00000000E+00
  0.00000000E+00  0.00000000E+00  0.00000000E+00
  0.00000000E+00  0.00000000E+00  0.00000000E+00
  0.00000000E+00  0.00000000E+00  0.00000000E+00
  0.00000000E+00  0.00000000E+00  0.00000000E+00
  0.00000000E+00  0.00000000E+00  0.00000000E+00
  0.00000000E+00  0.00000000E+00  0.00000000E+00
  0.00000000E+00  0.00000000E+00  0.00000000E+00
  0.00000000E+00  0.00000000E+00  0.00000000E+00
  0.00000000E+00  0.00000000E+00  0.00000000E+00
  0.00000000E+00  0.00000000E+00  0.00000000E+00
  0.00000000E+00  0.00000000E+00  0.00000000E+00
  0.00000000E+00  0.00000000E+00  0.00000000E+00
  0.00000000E+00  0.00000000E+00  0.00000000E+00
  0.00000000E+00  0.00000000E+00  0.00000000E+00
  0.00000000E+00  0.00000000E+00  0.00000000E+00
  0.00000000E+00  0.00000000E+00  0.00000000E+00
  0.00000000E+00  0.00000000E+00  0.00000000E+00
  0.00000000E+00  0.00000000E+00  0.00000000E+00
  0.00000000E+00  0.00000000E+00  0.00000000E+00
  0.00000000E+00  0.00000000E+00  0.00000000E+00
  0.00000000E+00  0.00000000E+00  0.00000000E+00
  0.00000000E+00  0.00000000E+00  0.00000000E+00
  0.00000000E+00  0.00000000E+00  0.00000000E+00
  0.00000000E+00  0.00000000E+00  0.00000000E+00
  0.00000000E+00  0.00000000E+00  0.00000000E+00
  0.00000000E+00  0.00000000E+00  0.00000000E+00
  0.00000000E+00  0.00000000E+00  0.00000000E+00
  0.00000000E+00  0.00000000E+00  0.00000000E+00
  0.00000000E+00  0.00000000E+00  0.00000000E+00
  0.00000000E+00  0.00000000E+00  0.00000000E+00
  0.00000000E+00  0.00000000E+00  0.00000000E+00
  0.00000000E+00  0.00000000E+00  0.00000000E+00
  0.00000000E+00  0.00000000E+00  0.00000000E+00
  0.00000000E+00  0.00000000E+00  0.00000000E+00
  0.00000000E+00  0.00000000E+00  0.00000000E+00
  0.00000000E+00  0.00000000E+00  0.00000000E+00
  0.00000000E+00  0.00000000E+00  0.00000000E+00
  0.00000000E+00  0.00000000E+00  0.00000000E+00
  0.00000000E+00  0.00000000E+00  0.00000000E+00
  0.00000000E+00  0.00000000E+00  0.00000000E+00
  0.00000000E+00  0.00000000E+00  0.00000000E+00
  0.00000000E+00  0.00000000E+00  0.00000000E+00
  0.00000000E+00  0.00000000E+00  0.00000000E+00
  0.00000000E+00  0.00000000E+00  0.00000000E+00
  0.00000000E+00  0.00000000E+00  0.00000000E+00
  0.00000000E+00  0.00000000E+00  0.00000000E+00
  0.00000000E+00  0.00000000E+00  0.00000000E+00
  0.00000000E+00  0.00000000E+00  0.00000000E+00
  0.00000000E+00  0.00000000E+00  0.00000000E+00
  0.00000000E+00  0.00000000E+00  0.00000000E+00
  0.00000000E+00  0.00000000E+00  0.00000000E+00
  0.00000000E+00  0.00000000E+00  0.00000000E+00
  0.00000000E+00  0.00000000E+00  0.00000000E+00
  0.00000000E+00  0.00000000E+00  0.00000000E+00
  0.00000000E+00  0.00000000E+00  0.00000000E+00
  0.00000000E+00  0.00000000E+00  0.00000000E+00
  0.00000000E+00  0.00000000E+00  0.00000000E+00
  0.00000000E+00  0.00000000E+00  0.00000000E+00
  0.00000000E+00  0.00000000E+00  0.00000000E+00
  0.00000000E+00  0.00000000E+00  0.00000000E+00
  0.00000000E+00  0.00000000E+00  0.00000000E+00
  0.00000000E+00  0.00000000E+00  0.00000000E+00
  0.00000000E+00  0.00000000E+00  0.00000000E+00
  0.00000000E+00  0.00000000E+00  0.00000000E+00
  0.00000000E+00  0.00000000E+00  0.00000000E+00
  0.00000000E+00  0.00000000E+00  0.00000000E+00
  0.00000000E+00  0.00000000E+00  0.00000000E+00
  0.00000000E+00  0.00000000E+00  0.00000000E+00
  0.00000000E+00  0.00000000E+00  0.00000000E+00
  0.00000000E+00  0.00000000E+00  0.00000000E+00
  0.00000000E+00  0.00000000E+00  0.00000000E+00
  0.00000000E+00  0.00000000E+00  0.00000000E+00
  0.00000000E+00  0.00000000E+00  0.00000000E+00
  0.00000000E+00  0.00000000E+00  0.00000000E+00
  0.00000000E+00  0.00000000E+00  0.00000000E+00
  0.00000000E+00  0.00000000E+00  0.00000000E+00
  0.00000000E+00  0.00000000E+00  0.00000000E+00
  0.00000000E+00  0.00000000E+00  0.00000000E+00
  0.00000000E+00  0.00000000E+00  0.00000000E+00
  0.00000000E+00  0.00000000E+00  0.00000000E+00
  0.00000000E+00  0.00000000E+00  0.00000000E+00
  0.00000000E+00  0.00000000E+00  0.00000000E+00
  0.00000000E+00  0.00000000E+00  0.00000000E+00
  0.00000000E+00  0.00000000E+00  0.00000000E+00
  0.00000000E+00  0.00000000E+00  0.00000000E+00
  0.00000000E+00  0.00000000E+00  0.00000000E+00
  0.00000000E+00  0.00000000E+00  0.00000000E+00
  0.00000000E+00  0.00000000E+00  0.00000000E+00
  0.00000000E+00  0.00000000E+00  0.00000000E+00
  0.00000000E+00  0.00000000E+00  0.00000000E+00
  0.00000000E+00  0.00000000E+00  0.00000000E+00
  0.00000000E+00  0.00000000E+00  0.00000000E+00
  0.00000000E+00  0.00000000E+00  0.00000000E+00
  0.00000000E+00  0.00000000E+00  0.00000000E+00
  0.00000000E+00  0.00000000E+00  0.00000000E+00
  0.00000000E+00  0.00000000E+00  0.00000000E+00
  0.00000000E+00  0.00000000E+00  0.00000000E+00
  0.00000000E+00  0.00000000E+00  0.00000000E+00
  0.00000000E+00  0.00000000E+00  0.00000000E+00
  0.00000000E+00  0.00000000E+00  0.00000000E+00
  0.00000000E+00  0.00000000E+00  0.00000000E+00
  0.00000000E+00  0.00000000E+00  0.00000000E+00
  0.00000000E+00  0.00000000E+00  0.00000000E+00
  0.00000000E+00  0.00000000E+00  0.00000000E+00
  0.00000000E+00  0.00000000E+00  0.00000000E+00
  0.00000000E+00  0.00000000E+00  0.00000000E+00
  0.00000000E+00  0.00000000E+00  0.00000000E+00
  0.00000000E+00  0.00000000E+00  0.00000000E+00
  0.00000000E+00  0.00000000E+00  0.00000000E+00
  0.00000000E+00  0.00000000E+00  0.00000000E+00
  0.00000000E+00  0.00000000E+00  0.00000000E+00
  0.00000000E+00  0.00000000E+00  0.00000000E+00
  0.00000000E+00  0.00000000E+00  0.00000000E+00
  0.00000000E+00  0.00000000E+00  0.00000000E+00
  0.00000000E+00  0.00000000E+00  0.00000000E+00
  0.00000000E+00  0.00000000E+00  0.00000000E+00
  0.00000000E+00  0.00000000E+00  0.00000000E+00
  0.00000000E+00  0.00000000E+00  0.00000000E+00
  0.00000000E+00  0.00000000E+00  0.00000000E+00
  0.00000000E+00  0.00000000E+00  0.00000000E+00
  0.00000000E+00  0.00000000E+00  0.00000000E+00
  0.00000000E+00  0.00000000E+00  0.00000000E+00
  0.00000000E+00  0.00000000E+00  0.00000000E+00