Sb                                      
   1.00000000000000     
    17.3173007964999961    0.0000000000000000    0.0000000000000000
     0.0000000000000000   17.3173007964999961    0.0000000000000000
     0.0000000000000000    0.0000000000000000   17.3173007964999961
   Al   Se
    80   120
Direct
  0.6867058723476591  0.7307011505161224  0.1090435067567420
  0.4524904646836680  0.6055394129599964  0.3139626933899109
  0.1133514320621860  0.6422527883734620  0.9679079604133032
  0.9570560911948787  0.6353320445630719  0.3783843707318070
  0.1864424577957734 -0.0115220807225700  0.9569768180279543
  0.3668197929610950  0.8839646368509212  0.8932041880159771
  0.5344569918833203  0.5810101036829626  0.1175653357246817
  0.9117473409280801  0.6680849266147179  0.0864926714186833
  0.7497231951135638  0.0679684756912192  0.6141085406438708
  0.8316313130323304  0.5566767083089172  0.5228942656203377
  0.3265815261637356  0.2621254769124289  0.2497046031894929
  0.0234772678838774  0.0726000976876422  0.9045897687298186
  0.5735125227266316  0.7434736116639290  0.5342190618356342
  0.2503069845891343  0.6918643108191600  0.9482273964834330
  0.4956000249077089  0.2189254584356792  0.3712281346576549
  0.8121125742278216  0.0598695237142372  0.7855409315962849
  0.6365976172386358  0.0049425805720517  0.7887455225319039
  0.7276948558252547  0.4300779282665610  0.8772880626132720
  0.7560709138587565  0.8915302028942974  0.4966395762906174
  0.1093397727758707  0.3051756247287807  0.9039419426141464
  0.6877868547088299  0.3197609038061175  0.4457202052390727
  0.8423571129815420  0.0738168096007738 -0.0062632174530772
  0.0205317550180716  0.3050453965253574  0.0890956814256505
  0.2793956095401608  0.7558672198418960  0.7536142408301632
  0.6166026698187127  0.5242207656159162  0.4858947262543197
  0.3174547561811668  0.2663309312398981  0.8189139760979298
  0.9525280946406230  0.4751114523816197  0.9375181014017376
  0.3610297838681930  0.8627776248588231  0.2869207179838758
  0.7984332234284615  0.8734879713128773  0.1251135494936587
  0.8978196974784145  0.3121217327659044  0.5324906550283925
  0.0886015255527895  0.6338336267597707  0.2189087218254903
  0.7701187678475871  0.7294967287442991  0.9341178341276113
  0.9581131474920530  0.8301641908052337  0.6138808847498189
  0.4486990101751801  0.0916769950961299  0.7389465683766917
  0.2130324059228896  0.0989266394754794  0.5735079978472509
  0.5996286129545437  0.5944286991366394  0.9087858968114660
  0.6365144596230544  0.1028673707652243  0.4359107780509666
  0.4774561416622960  0.2084321993886574  0.1431499298487369
  0.1736051167728776  0.0924409923084802  0.7611116301502869
  0.0344182890719984 -0.0117103592290573  0.0720854829497087
  0.1047014921423440  0.6119162229806290  0.7876585688315073
  0.6667756829184809  0.5162590478568261  0.3030292735749565
  0.2897644654620758  0.4881835460049753  0.4972537894876825
  0.3035101124443466  0.5817988317706890  0.6782364098682880
  0.8592847046463452  0.0756535164680581  0.4112033135497194
  0.4689230991334613  0.3204030853171154  0.9332132729493171
  0.8278794171420597  0.7495212145257792  0.2522882721725729
  0.4829383638267200  0.7178064941807267  0.0014417359050117
  0.6171505981767431  0.0987853786990280  0.0534271927028547
  0.4513782239704253  0.9840954437934695  0.0534100609096763
  0.7069598604589651  0.3864545874180212  0.6516148953308408
  0.3349887856812362  0.0708038406088010  0.2524416403911423
  0.1996359911184375  0.9553440286192272  0.3458599365119513
  0.0231465922314057  0.2639358360568956  0.6471316141584171
  0.2190516045447385  0.9344810080172016  0.1624557999687135
  0.5491813177873316  0.9881915837595812  0.2454208630118688
  0.1641301658234967  0.8953487227289583  0.6042319868324464
  0.2809967804576998  0.6144383929089511  0.3585695383964496
  0.8979684251393443  0.0779965825302715  0.1752312150413539
  0.0434204778586989  0.0097416082566011  0.4688241176736601
  0.1833939281473786  0.7027008309666912  0.5874564080509865
  0.8091919726506436  0.8705662396853526  0.7333296370279523
  0.8747267461267513  0.3253850771910873  0.7237373227920740
  0.3168357866602722  0.5865338072854073  0.1209661067799589
  0.5730498648461991  0.8808225282298984  0.4026607652485281
  0.0876098544718030  0.8033932916851767  0.4412024060876346
  0.5434709954761606  0.9366126941261451  0.6160105967724520
  0.4965480632415148  0.7285255104853904  0.7623997563422995
  0.9444937369870897  0.2547456854299854  0.2614167471252965
  0.8601966929397362  0.5429892665453406  0.7150831027379383
  0.9240198798204162  0.4381352437802495  0.2411283113832616
  0.1953400195029746  0.3923684078998518  0.1027968329847739
  0.6153064985265978  0.3021310146274043  0.0310585262099945
  0.7585852197278204  0.4979412447738172  0.1062232788415469
  0.3050874023100991  0.3948588236017501  0.9298425501582138
  0.4455604876431349  0.1900877391350347  0.5621718293347816
  0.5378894399750358  0.5931345567155750  0.6442976230029773
  0.9282696104240533  0.7193395950134762  0.8169772950707582
  0.1022415483535909  0.3448527143142985  0.2451353367899408
  0.3145897352154317  0.2772805407518282  0.4589152512837525
  0.7440237349812070  0.3260901149241079  0.7781357402196165
  0.6953111399430028  0.1231091800635851  0.7306532004363654
  0.4328412770132797  0.3252988105921540  0.7674213150405456
  0.4880559570486845  0.3449631673698899  0.0717716765470185
  0.5055130368982841  0.8579023810161657  0.2809580552323233
  0.9775745385099490  0.3365523343105313  0.9522720713735898
  0.0830543451281850  0.5187158696139241  0.9024003515239095
  0.0339703763162465  0.9484640765845059  0.5953454823048081
  0.2452422201542219  0.8178209369599602  0.8873691586929826
  0.7798185982293531  0.6167601179840223  0.6348180986715408
  0.5972379571896816  0.4698482654188261  0.6148727277948089
  0.8477288698013126  0.1533472204993362  0.2854684168798493
  0.3092993859372381  0.1354175093443157  0.7784318719334131
  0.0711713322798570  0.7269843967352715  0.8633184200917754
  0.3708899068333004  0.5072982618944442  0.3752711689885641
  0.2146173176021621  0.8223221371263058  0.4938721667936130
  0.6195990239963649  0.8882039183364967  0.7173022683777762
  0.1528312962069784  0.7932803799497748  0.6981461074218419
  0.9162744812358530  0.8029738816324610  0.1567746297665047
  0.2114212827342409  0.3683551855620026  0.8255487266302081
  0.2404281619011179  0.3747680074585423  0.2350178210501930
  0.4018794781072068  0.8331544178782874  0.7607924613729523
  0.4242125975019069  0.5349259614216312  0.1900991671231499
  0.8612708294590482  0.7321516147237626  0.3811563258164349
  0.0314169413058696  0.3326135355006106  0.5300157548556249
  0.0573581313273753  0.9149892090396431  0.3657679095050071
  0.7814740471825899  0.7323463607892159  0.7964116577289028
  0.5162979224208230  0.0397870148546546  0.8458285902235746
  0.7301007676218443  0.5806978652420977  0.4328474135667502
  0.3395355499012660  0.9710465559961805  0.3710249257645155
  0.7871358366429613  0.0105275685090315  0.1234702424114502
  0.4594908425624959  0.3023360010419751  0.2614273439277859
  0.7154347800438292  0.8305730322399310  0.0154406934283288
  0.5473900033849064  0.7200834420490817  0.1281760318985468
  0.0690596988353485  0.4354676332241588  0.1395027290108150
  0.4958007393653726  0.1051268284699995  0.4616325662176242
  0.3419729922362988  0.7083365758746664  0.0551130500916550
  0.6604459972888868  0.2845089766205944  0.5757314351155461
  0.4771320494506707  0.1044147426617592  0.2585202316684631
  0.3051152375767620  0.2033371348801294  0.5785881486513045
  0.6304072365816330  0.2095932991770610  0.1383793200771483
  0.1571566358312349  0.5756484951124399  0.6597838591765153
  0.1142604118289813  0.9836024718421068  0.8329334747810980
  0.2881030850925519  0.1862329850186562  0.3555535776766017
  0.5100471637380981  0.6193313784543600  0.5073369915306242
  0.4745868945165549  0.8650344855970267  0.9766865697606412
  0.8472152993288954  0.9385534587791068  0.4056628238693845
  0.5705944807215459  0.7301388217671919  0.8825620863867735
  0.6568276313080234 -0.0124912882412242  0.5431812232903377
  0.3549960934580998  0.4721904301968579  0.6158051578993941
  0.8592494305761997  0.0044505820699930  0.6663072738581477
  0.1429372447571514  0.8905469780129546  0.0536212645702909
  0.7350751074438956  0.3856804612913559  0.0116239201953117
  0.0567221283259225  0.6812768187106477  0.0916874332581223
 -0.0013381547956618  0.3653270976420053  0.3386908565994731
  0.8405281901077498  0.4296419006758559  0.6208336829051317
  0.3740735179281073  0.7186678456398151  0.3457580444716200
  0.2427868724574274  0.9950043935022166  0.6602049026909047
  0.8437509130894855  0.5106457766333700  0.8525552680778368
  0.1017764977089489  0.1426153051322791  0.6482861791105857
  0.3228283989922615  0.7059398316158735  0.6214992210436733
  0.4805685065131387  0.1184726114790519  0.0221029202195959
  0.2004556619795911  0.5960424163041735  0.4698137700962690
  0.4198560008989660  0.4384206776811709  0.8687494333654860
  0.9163434144052882  0.1650066548225759  0.0695566995032978
  0.1712328935718344  0.0596917830888506  0.4497838622898184
  0.5997232197315333  0.4230289535960661  0.3892486488239124
  0.1113901742961192  0.0916636424078536  0.0190777467168272
  0.9751608593209212  0.1253229925682786  0.4581211751589945
  0.2235709203222850  0.3772917371661292  0.4496312733171736
  0.0931648801043971  0.1845144196657715  0.8399626156773635
  0.6374019433953393  0.2212452345633185  0.3549347381456469
  0.0237390546388502  0.7297094539940768  0.5405741219208214
  0.9627130392344363  0.5754546606711002  0.2477551054717695
  0.9563204703988353  0.5384421342272486  0.4746516557908611
  0.2201667312420245  0.5881048073794658  0.2267841881428969
  0.8856581086985011  0.2162108986002519  0.6375919574103355
  0.7115271489331165  0.8225240845801777  0.2243577787923836
  0.9417769377852954  0.9671285332076727  0.9685074393666792
  0.4512706546955825  0.3067921803369308  0.4783864035750517
  0.4331928698740876  0.0140539292477652  0.6275220154153796
  0.2611418877571099  0.6242298512529606  0.8184275666000489
  0.6464393450152245  0.9906701648401465  0.3462409551104237
  0.6244600896644755  0.4969997376747168  0.8190958235848999
 -0.0015029370760234 -0.0079433883277031  0.2019478761179973
  0.5012486732439773  0.2096991694513809  0.6873783287906521
  0.2237718897417647  0.8334101440795006  0.2585864489211615
  0.7060078391755747  0.6172624724634038  0.9954642249865244
  0.8220854140818901  0.3428304644279944  0.4228065788028388
  0.7110691553815446  0.1036219338327559  0.9524305524246462
  0.2593823948322486  0.4902073145729200  0.0275316742934567
  0.7577180052041885  0.9452565399857867  0.8452695574408320
  0.8954229486534838  0.1361389563577849  0.8641859207456154
  0.9033614802452083  0.7315136710493392  0.9609006900306034
  0.4486689798655764  0.5986551903829046  0.7485963248599400
  0.8991127540434345  0.5234813663790824  0.0592640110900224
  0.6257080600950775  0.4886008838135265  0.1599884210821321
  0.0033406402253615  0.3563246596462923  0.7520021094120520
  0.5895074471778957  0.2660665288925498  0.9016924957023964
  0.6720467981464828  0.7876807280145162  0.4404127604927996
  0.1596922218956094  0.2778462692211173  0.0335331851430020
  0.3404331608017859  0.2619008655804449  0.9577510780958013
  0.9496390583187715  0.8471154820710942  0.7550704481042312
  0.8927561224293505  0.3311542519874907  0.1539962824081474
  0.1911268579276924  0.0484657727504062  0.2368829232170546
  0.0805203591183647  0.6968037021099901  0.3448876688559648
  0.3240954090153864  0.0071954462992665  0.9427395545833747
  0.8166421987610907  0.8148511538207018  0.5977853798620519
  0.7855340099041539  0.6434548219703855  0.1625129250962632
  0.4854637206249232  0.5713622184239361  0.9869510248828266
  0.5868557994801402  0.9702767886700987  0.1137848577807577
  0.3292928886256782  0.1753511733244367  0.1442903846272820
  0.6062968100082938  0.7134539217337653  0.6686601240675601
  0.3610210311162420  0.9500746186256515  0.1585309071646456
  0.4859620611153300  0.8528160927021488  0.5132700112963331
  0.0667218384893080  0.2174331234749841  0.2020431465871612
  0.5858753067017798  0.6328281072360525  0.3149672347052261
  0.7832429789422208  0.4515485535956397  0.2445643212268209
  0.7625333361064045  0.1405185358204205  0.4928370545249979
  0.9730019294075969  0.6218315273406533  0.7237818671083068
 
  0.00000000E+00  0.00000000E+00  0.00000000E+00
  0.00000000E+00  0.00000000E+00  0.00000000E+00
  0.00000000E+00  0.00000000E+00  0.00000000E+00
  0.00000000E+00  0.00000000E+00  0.00000000E+00
  0.00000000E+00  0.00000000E+00  0.00000000E+00
  0.00000000E+00  0.00000000E+00  0.00000000E+00
  0.00000000E+00  0.00000000E+00  0.00000000E+00
  0.00000000E+00  0.00000000E+00  0.00000000E+00
  0.00000000E+00  0.00000000E+00  0.00000000E+00
  0.00000000E+00  0.00000000E+00  0.00000000E+00
  0.00000000E+00  0.00000000E+00  0.00000000E+00
  0.00000000E+00  0.00000000E+00  0.00000000E+00
  0.00000000E+00  0.00000000E+00  0.00000000E+00
  0.00000000E+00  0.00000000E+00  0.00000000E+00
  0.00000000E+00  0.00000000E+00  0.00000000E+00
  0.00000000E+00  0.00000000E+00  0.00000000E+00
  0.00000000E+00  0.00000000E+00  0.00000000E+00
  0.00000000E+00  0.00000000E+00  0.00000000E+00
  0.00000000E+00  0.00000000E+00  0.00000000E+00
  0.00000000E+00  0.00000000E+00  0.00000000E+00
  0.00000000E+00  0.00000000E+00  0.00000000E+00
  0.00000000E+00  0.00000000E+00  0.00000000E+00
  0.00000000E+00  0.00000000E+00  0.00000000E+00
  0.00000000E+00  0.00000000E+00  0.00000000E+00
  0.00000000E+00  0.00000000E+00  0.00000000E+00
  0.00000000E+00  0.00000000E+00  0.00000000E+00
  0.00000000E+00  0.00000000E+00  0.00000000E+00
  0.00000000E+00  0.00000000E+00  0.00000000E+00
  0.00000000E+00  0.00000000E+00  0.00000000E+00
  0.00000000E+00  0.00000000E+00  0.00000000E+00
  0.00000000E+00  0.00000000E+00  0.00000000E+00
  0.00000000E+00  0.00000000E+00  0.00000000E+00
  0.00000000E+00  0.00000000E+00  0.00000000E+00
  0.00000000E+00  0.00000000E+00  0.00000000E+00
  0.00000000E+00  0.00000000E+00  0.00000000E+00
  0.00000000E+00  0.00000000E+00  0.00000000E+00
  0.00000000E+00  0.00000000E+00  0.00000000E+00
  0.00000000E+00  0.00000000E+00  0.00000000E+00
  0.00000000E+00  0.00000000E+00  0.00000000E+00
  0.00000000E+00  0.00000000E+00  0.00000000E+00
  0.00000000E+00  0.00000000E+00  0.00000000E+00
  0.00000000E+00  0.00000000E+00  0.00000000E+00
  0.00000000E+00  0.00000000E+00  0.00000000E+00
  0.00000000E+00  0.00000000E+00  0.00000000E+00
  0.00000000E+00  0.00000000E+00  0.00000000E+00
  0.00000000E+00  0.00000000E+00  0.00000000E+00
  0.00000000E+00  0.00000000E+00  0.00000000E+00
  0.00000000E+00  0.00000000E+00  0.00000000E+00
  0.00000000E+00  0.00000000E+00  0.00000000E+00
  0.00000000E+00  0.00000000E+00  0.00000000E+00
  0.00000000E+00  0.00000000E+00  0.00000000E+00
  0.00000000E+00  0.00000000E+00  0.00000000E+00
  0.00000000E+00  0.00000000E+00  0.00000000E+00
  0.00000000E+00  0.00000000E+00  0.00000000E+00
  0.00000000E+00  0.00000000E+00  0.00000000E+00
  0.00000000E+00  0.00000000E+00  0.00000000E+00
  0.00000000E+00  0.00000000E+00  0.00000000E+00
  0.00000000E+00  0.00000000E+00  0.00000000E+00
  0.00000000E+00  0.00000000E+00  0.00000000E+00
  0.00000000E+00  0.00000000E+00  0.00000000E+00
  0.00000000E+00  0.00000000E+00  0.00000000E+00
  0.00000000E+00  0.00000000E+00  0.00000000E+00
  0.00000000E+00  0.00000000E+00  0.00000000E+00
  0.00000000E+00  0.00000000E+00  0.00000000E+00
  0.00000000E+00  0.00000000E+00  0.00000000E+00
  0.00000000E+00  0.00000000E+00  0.00000000E+00
  0.00000000E+00  0.00000000E+00  0.00000000E+00
  0.00000000E+00  0.00000000E+00  0.00000000E+00
  0.00000000E+00  0.00000000E+00  0.00000000E+00
  0.00000000E+00  0.00000000E+00  0.00000000E+00
  0.00000000E+00  0.00000000E+00  0.00000000E+00
  0.00000000E+00  0.00000000E+00  0.00000000E+00
  0.00000000E+00  0.00000000E+00  0.00000000E+00
  0.00000000E+00  0.00000000E+00  0.00000000E+00
  0.00000000E+00  0.00000000E+00  0.00000000E+00
  0.00000000E+00  0.00000000E+00  0.00000000E+00
  0.00000000E+00  0.00000000E+00  0.00000000E+00
  0.00000000E+00  0.00000000E+00  0.00000000E+00
  0.00000000E+00  0.00000000E+00  0.00000000E+00
  0.00000000E+00  0.00000000E+00  0.00000000E+00
  0.00000000E+00  0.00000000E+00  0.00000000E+00
  0.00000000E+00  0.00000000E+00  0.00000000E+00
  0.00000000E+00  0.00000000E+00  0.00000000E+00
  0.00000000E+00  0.00000000E+00  0.00000000E+00
  0.00000000E+00  0.00000000E+00  0.00000000E+00
  0.00000000E+00  0.00000000E+00  0.00000000E+00
  0.00000000E+00  0.00000000E+00  0.00000000E+00
  0.00000000E+00  0.00000000E+00  0.00000000E+00
  0.00000000E+00  0.00000000E+00  0.00000000E+00
  0.00000000E+00  0.00000000E+00  0.00000000E+00
  0.00000000E+00  0.00000000E+00  0.00000000E+00
  0.00000000E+00  0.00000000E+00  0.00000000E+00
  0.00000000E+00  0.00000000E+00  0.00000000E+00
  0.00000000E+00  0.00000000E+00  0.00000000E+00
  0.00000000E+00  0.00000000E+00  0.00000000E+00
  0.00000000E+00  0.00000000E+00  0.00000000E+00
  0.00000000E+00  0.00000000E+00  0.00000000E+00
  0.00000000E+00  0.00000000E+00  0.00000000E+00
  0.00000000E+00  0.00000000E+00  0.00000000E+00
  0.00000000E+00  0.00000000E+00  0.00000000E+00
  0.00000000E+00  0.00000000E+00  0.00000000E+00
  0.00000000E+00  0.00000000E+00  0.00000000E+00
  0.00000000E+00  0.00000000E+00  0.00000000E+00
  0.00000000E+00  0.00000000E+00  0.00000000E+00
  0.00000000E+00  0.00000000E+00  0.00000000E+00
  0.00000000E+00  0.00000000E+00  0.00000000E+00
  0.00000000E+00  0.00000000E+00  0.00000000E+00
  0.00000000E+00  0.00000000E+00  0.00000000E+00
  0.00000000E+00  0.00000000E+00  0.00000000E+00
  0.00000000E+00  0.00000000E+00  0.00000000E+00
  0.00000000E+00  0.00000000E+00  0.00000000E+00
  0.00000000E+00  0.00000000E+00  0.00000000E+00
  0.00000000E+00  0.00000000E+00  0.00000000E+00
  0.00000000E+00  0.00000000E+00  0.00000000E+00
  0.00000000E+00  0.00000000E+00  0.00000000E+00
  0.00000000E+00  0.00000000E+00  0.00000000E+00
  0.00000000E+00  0.00000000E+00  0.00000000E+00
  0.00000000E+00  0.00000000E+00  0.00000000E+00
  0.00000000E+00  0.00000000E+00  0.00000000E+00
  0.00000000E+00  0.00000000E+00  0.00000000E+00
  0.00000000E+00  0.00000000E+00  0.00000000E+00
  0.00000000E+00  0.00000000E+00  0.00000000E+00
  0.00000000E+00  0.00000000E+00  0.00000000E+00
  0.00000000E+00  0.00000000E+00  0.00000000E+00
  0.00000000E+00  0.00000000E+00  0.00000000E+00
  0.00000000E+00  0.00000000E+00  0.00000000E+00
  0.00000000E+00  0.00000000E+00  0.00000000E+00
  0.00000000E+00  0.00000000E+00  0.00000000E+00
  0.00000000E+00  0.00000000E+00  0.00000000E+00
  0.00000000E+00  0.00000000E+00  0.00000000E+00
  0.00000000E+00  0.00000000E+00  0.00000000E+00
  0.00000000E+00  0.00000000E+00  0.00000000E+00
  0.00000000E+00  0.00000000E+00  0.00000000E+00
  0.00000000E+00  0.00000000E+00  0.00000000E+00
  0.00000000E+00  0.00000000E+00  0.00000000E+00
  0.00000000E+00  0.00000000E+00  0.00000000E+00
  0.00000000E+00  0.00000000E+00  0.00000000E+00
  0.00000000E+00  0.00000000E+00  0.00000000E+00
  0.00000000E+00  0.00000000E+00  0.00000000E+00
  0.00000000E+00  0.00000000E+00  0.00000000E+00
  0.00000000E+00  0.00000000E+00  0.00000000E+00
  0.00000000E+00  0.00000000E+00  0.00000000E+00
  0.00000000E+00  0.00000000E+00  0.00000000E+00
  0.00000000E+00  0.00000000E+00  0.00000000E+00
  0.00000000E+00  0.00000000E+00  0.00000000E+00
  0.00000000E+00  0.00000000E+00  0.00000000E+00
  0.00000000E+00  0.00000000E+00  0.00000000E+00
  0.00000000E+00  0.00000000E+00  0.00000000E+00
  0.00000000E+00  0.00000000E+00  0.00000000E+00
  0.00000000E+00  0.00000000E+00  0.00000000E+00
  0.00000000E+00  0.00000000E+00  0.00000000E+00
  0.00000000E+00  0.00000000E+00  0.00000000E+00
  0.00000000E+00  0.00000000E+00  0.00000000E+00
  0.00000000E+00  0.00000000E+00  0.00000000E+00
  0.00000000E+00  0.00000000E+00  0.00000000E+00
  0.00000000E+00  0.00000000E+00  0.00000000E+00
  0.00000000E+00  0.00000000E+00  0.00000000E+00
  0.00000000E+00  0.00000000E+00  0.00000000E+00
  0.00000000E+00  0.00000000E+00  0.00000000E+00
  0.00000000E+00  0.00000000E+00  0.00000000E+00
  0.00000000E+00  0.00000000E+00  0.00000000E+00
  0.00000000E+00  0.00000000E+00  0.00000000E+00
  0.00000000E+00  0.00000000E+00  0.00000000E+00
  0.00000000E+00  0.00000000E+00  0.00000000E+00
  0.00000000E+00  0.00000000E+00  0.00000000E+00
  0.00000000E+00  0.00000000E+00  0.00000000E+00
  0.00000000E+00  0.00000000E+00  0.00000000E+00
  0.00000000E+00  0.00000000E+00  0.00000000E+00
  0.00000000E+00  0.00000000E+00  0.00000000E+00
  0.00000000E+00  0.00000000E+00  0.00000000E+00
  0.00000000E+00  0.00000000E+00  0.00000000E+00
  0.00000000E+00  0.00000000E+00  0.00000000E+00
  0.00000000E+00  0.00000000E+00  0.00000000E+00
  0.00000000E+00  0.00000000E+00  0.00000000E+00
  0.00000000E+00  0.00000000E+00  0.00000000E+00
  0.00000000E+00  0.00000000E+00  0.00000000E+00
  0.00000000E+00  0.00000000E+00  0.00000000E+00
  0.00000000E+00  0.00000000E+00  0.00000000E+00
  0.00000000E+00  0.00000000E+00  0.00000000E+00
  0.00000000E+00  0.00000000E+00  0.00000000E+00
  0.00000000E+00  0.00000000E+00  0.00000000E+00
  0.00000000E+00  0.00000000E+00  0.00000000E+00
  0.00000000E+00  0.00000000E+00  0.00000000E+00
  0.00000000E+00  0.00000000E+00  0.00000000E+00
  0.00000000E+00  0.00000000E+00  0.00000000E+00
  0.00000000E+00  0.00000000E+00  0.00000000E+00
  0.00000000E+00  0.00000000E+00  0.00000000E+00
  0.00000000E+00  0.00000000E+00  0.00000000E+00
  0.00000000E+00  0.00000000E+00  0.00000000E+00
  0.00000000E+00  0.00000000E+00  0.00000000E+00
  0.00000000E+00  0.00000000E+00  0.00000000E+00
  0.00000000E+00  0.00000000E+00  0.00000000E+00
  0.00000000E+00  0.00000000E+00  0.00000000E+00
  0.00000000E+00  0.00000000E+00  0.00000000E+00
  0.00000000E+00  0.00000000E+00  0.00000000E+00
  0.00000000E+00  0.00000000E+00  0.00000000E+00
  0.00000000E+00  0.00000000E+00  0.00000000E+00
  0.00000000E+00  0.00000000E+00  0.00000000E+00
  0.00000000E+00  0.00000000E+00  0.00000000E+00
  0.00000000E+00  0.00000000E+00  0.00000000E+00
