Amorphous GeAsSeSi                      
   1.00000000000000     
    18.7211982475508840    0.0000000000000000    0.0000000000000000
     0.0000000000000000   18.7211982475508840    0.0000000000000000
     0.0000000000000000    0.0000000000000000   18.7211982475508840
   Ge   As   Te   Si   N 
    60    60    60    60    60
Direct
  0.3375697001290018  0.7470778788232806  0.6634503025384060
  0.6963225678284343  0.0542387850419541  0.6219573087833489
  0.1343442708587829  0.3510826700700936  0.5984165087502367
  0.4034611120831846  0.5383001421570460  0.0459347244794157
  0.0695369418937328  0.0216999572096262  0.1693292762462822
  0.3773890073569749  0.3957795556513788  0.3033827268901718
  0.0041996100159852  0.8706097192962243  0.6085585976843682
  0.0386628806244355  0.2308657999025915  0.8132398174782560
  0.3187062161432238  0.8656024427470805  0.1614520631342522
  0.7020722471264272  0.2291487183088633  0.4892868344679677
  0.5219517313630756  0.7920889250218406  0.1701717615128009
  0.9027158751365024  0.6941969624834124  0.3006314294094452
  0.3017383542011676  0.2724512421715780  0.9415109243668054
  0.5114700725278587  0.8828153019392508  0.3635057374841515
  0.0535737734504653  0.5015248581310611  0.7660350834325533
  0.8685387558127738  0.7478857851557345  0.0246530976835114
  0.6906673585578503  0.9025280670333669  0.8086566926322688
  0.9476955958421229  0.2548659618964185  0.4602978810629506
  0.0590550830568343  0.7622105325055200  0.2417538456334620
  0.4126215952852406  0.1948622714142491  0.3233647091244222
  0.2814273213560895  0.0810728939876332  0.1453808386126862
  0.6000531153913695  0.0155313889937775  0.7579997251827006
  0.7427765292321573  0.6920852874880785  0.6533078257430714
  0.2063899398099493  0.8585982159197875  0.8638845023666797
  0.3398520279911290  0.7635264803023271  0.2673279917304250
  0.5108430447861750  0.1725921977060054  0.8841515110316068
  0.4775529522888817  0.3621058332005904  0.9225975954277794
  0.9277711919470386  0.3725285628640272  0.8695073151161901
  0.2887622033088622  0.0508807223232205  0.7495527736581190
  0.9933317963122829  0.3654720552768776  0.3411008164987614
  0.5240651073452003  0.4576747781455280  0.2018197041187481
  0.8289209151116490  0.0221599711143839  0.7091387477834014
  0.4841631504875889  0.3061438137104152  0.2676319986130653
  0.6780106528032358  0.0648252019245848  0.1813612619553537
  0.1027732972119524  0.5957739712365111  0.5147079362342752
  0.7827453969623467  0.3279514568854970  0.3500525561341650
  0.2342299141102603  0.4316777009246789  0.0218758361223369
  0.0392485529201710  0.0088343560587077  0.9132960960617297
  0.6669526642193920  0.7922613203019669  0.6054919226426412
  0.3000914237305257  0.2710438193147811  0.7276751335132696
  0.5667215556000059  0.4530614798714870  0.5279364306528449
  0.8264293061890331  0.2320459413053147  0.6822525040014795
  0.5190210727427104  0.8614860183631428  0.6905613866541456
  0.4738905928639980  0.9800528053682256  0.8536232115455648
  0.6856291915746331  0.7715876930394464  0.8570202910321764
  0.6494364011672792  0.3666616705617352  0.3377616691885029
  0.0749895136405126  0.9025256937465054  0.7536856521658598
  0.7268395347645789  0.5463320421329839  0.3509521762667253
  0.2129716443444716  0.9147440553544161  0.7376928131654955
  0.8209335793559267  0.7815727121336914  0.3877498719752222
  0.9115201188020061  0.4852564829099655  0.2044643097034337
  0.9605628250341345  0.9734091398824966  0.2246772555602884
  0.8377470191377383  0.8407141897620328  0.6718417022219824
  0.0464621325710389  0.4117043619208483  0.5037290419978399
  0.6542494104090290  0.1153314985169068  0.3769130951318714
  0.4875284462761371  0.5000712467164964  0.7890566779371558
  0.4273007125610753  0.1114492419221090  0.1147711467281953
  0.7988007556346161  0.1121379342523195  0.0368297549013215
  0.2334679036453216  0.7247268364006055  0.8992821356494878
  0.4486954296551834  0.8454093443727503  0.0004531489337848
  0.8922665272339838  0.4293211547537720  0.4201434318574473
  0.7251735334581477  0.4058919052454534  0.7863792303032209
  0.9384094180110283  0.2954478428315239  0.6278266605004671
  0.6059786758166730  0.9705614714361390  0.1102464461267736
  0.6289238504838111  0.7616444450683063  0.0933762248529092
  0.7954916228454905  0.4461725114397964  0.2769504433341522
  0.7109432967582736  0.8958419415471431  0.6733400913527255
  0.7267879908018179  0.5798621421978534  0.5706734638732429
  0.4335563732457845  0.7384064328299438  0.0835038305637233
  0.0587601012573768  0.3553688619556720  0.1389849979746202
  0.4993596073958176  0.7572968163916421  0.3014605993962915
  0.0080433993131403  0.0250786286619975  0.7778407237512703
  0.9754547620539760  0.1800622876652261  0.5679752552928015
  0.8427977599988167  0.5866621459105316  0.1370472102398747
  0.1638123516424511  0.3252394551407007  0.0611232940722229
  0.5067395525158624  0.9244703738707896  0.1860301012769066
  0.4094217847967983  0.3312152593908236  0.7862691600819806
  0.6119047075399905  0.1366504243425135  0.5450225678545104
  0.5949978532602819  0.6030493731649591  0.9606710662709002
  0.1693833621743734  0.8478362378138953  0.3084879529935288
  0.4118152256047566  0.9398460956503287  0.0962736119245629
  0.5915192901493412  0.3616901267401499  0.8488663016146876
  0.5537926430649255  0.8721099628597410  0.8205946323909693
  0.2578206645739931  0.6613961814931453  0.5247769315864453
  0.9603855740161495  0.9600629076748073  0.0133835837138649
  0.3365531640857762  0.6668767010559985  0.4176901927846795
  0.6390847492977265  0.3195886193940442  0.2079487048438351
  0.5594136718788831  0.7633023370898608  0.9008810268246306
  0.6126293310009150  0.6891867022910370  0.3319784732915286
  0.3549724236959196  0.4087196228529072  0.0695344529886557
  0.0783968048201629  0.8772106960067647  0.8845460301479683
  0.5489527239837656  0.0600228676404220  0.4517838113502405
  0.5563480579213661  0.0556945489256570  0.9308313333019036
  0.3034243624354652  0.3760861912489393  0.1878103469699945
  0.2468382539279905  0.8411069614104983  0.0485074405881611
  0.4321166621624441  0.2449069279082057  0.9714735533424638
  0.3530653783295581  0.9377041562587689  0.8121201117584078
  0.5864118174763971  0.8499220711600850  0.0008865982652323
  0.8501483764252979  0.9160876251406365  0.9427658967493051
  0.6868918781362078  0.7951802194303745  0.3644786028433781
  0.9884292087548321  0.2752939743119633  0.0540582493913970
  0.3600685310542006  0.6013022806864592  0.5922183709839033
  0.8549352796517729  0.8810178427223664  0.3034546154966908
  0.9084943701898368  0.1502397675144898  0.1808796820307378
  0.9118527111914525  0.2534207741307563  0.3335567369238431
  0.2630435001824274  0.1734127316345092  0.8527816815771229
  0.7426559070136093  0.2449384394420434  0.2446420494525338
  0.5438789861831641  0.6598717303317360  0.0763677369277459
  0.6259377515293719  0.8832683439986222  0.2866791780828722
  0.9424234112791823  0.6756502302866064  0.1195063410102447
  0.7158961051160063  0.6321222057931882  0.0143072582025787
  0.5341219892079758  0.3197346192699769  0.7368356784121534
  0.4379644765774377  0.5801039404940073  0.3933917463469987
  0.4625703783756600  0.4609062829031401  0.4469057454224223
  0.1168834054882394  0.2739257886504653  0.4369706481150164
  0.3545903599725864  0.5293911915503559  0.3012816735582781
  0.4439885648265573  0.2524116372992878  0.1457379196386832
  0.1626208474793560  0.5272955838177922  0.0821785113475714
  0.2601189217116375  0.3727433580477276  0.3684320008696725
  0.2535551364510362  0.3959397774453158  0.8956754427189537
  0.0920408426686017  0.4055609688388564  0.9009723431930069
  0.2411831383122044  0.6792795808813077  0.1839861545083294
  0.5852723193430664  0.5201455935980890  0.6525311463781127
  0.5831404152784019  0.6719741201039722  0.4716925804128825
  0.8105615790690696  0.1449184970165748  0.5662562214558826
  0.3795074069948788  0.8864401257373116  0.6491683733812541
  0.0242265602853796  0.4733298918246178  0.0690959475966121
  0.7740199228169861  0.6550805202610206  0.2353457469905725
  0.1418621743869530  0.2562279392030730  0.2568588041877370
  0.9327000325715777  0.1233709191615570  0.9705722750088193
  0.8315405489144689  0.6090734313040195  0.4680895518544299
  0.1113235854556575  0.3534074696513240  0.7451029114082111
  0.8611079591999300  0.4065067741277866  0.7382334718756488
  0.8426030207457285  0.3299591906306892  0.5177953083942348
  0.8143496190360815  0.3066594230875901  0.9355190842927468
  0.2810149134077268  0.6106070588631619  0.9965725257306043
  0.4492675658193204  0.6427163557304606  0.8005901985935059
  0.1308547151864655  0.4942265926305660  0.4217482421748803
  0.2926366037970264  0.8369754122140178  0.3970469013051613
  0.3895518481154289  0.4734528758414164  0.9089087141450055
  0.8834853088935506  0.0508209959884022  0.3903338289998445
  0.1198125888613347  0.2083890755297852  0.5642475314581753
  0.8835777414505762  0.9188397902057870  0.8024564556793383
  0.6784732155468762  0.6439722109733845  0.7812893170004972
  0.1103447372342628  0.6974081698114090  0.9947806680077518
  0.1836636244721683  0.0156261514907817  0.5935216290362211
  0.3583758498297440  0.0980534477318785  0.9229575265014764
  0.8860547900061628  0.1372549362343533  0.7783035449553098
  0.1166142221026833  0.7029224027782213  0.4179965925763486
  0.9853819176169631  0.5844310670219566  0.9183912675610515
  0.7118613450320759  0.9928775971279806  0.3193334856668147
  0.6455308759172139  0.5278576313373240  0.1513439946781079
  0.3092386622445725  0.0167760630455641  0.3237552936000545
  0.8300817857848748  0.2790797450152931  0.1363831906735676
  0.4558857960236181  0.0720407916889447  0.2579831978353139
  0.7149316862917277  0.9815945814401704  0.4867148556466495
  0.1909915293250237  0.4675433135168784  0.2102389831556163
  0.9440266032545769 -0.0005041405271077  0.6127632330201114
  0.8438513780399615  0.0264197033793667  0.1546077604245261
  0.9681264316738127  0.5657260707860433  0.3109020632475137
  0.6994138509227780  0.4512538099072541  0.4772196468587818
  0.5849901594113814  0.4944911453072621  0.3301227334639580
  0.5638731732202061  0.2784603008357101  0.4165469963898211
  0.6728571127300819  0.1462176909308259  0.7570472600020929
  0.8271689461156526  0.8726634871539503  0.5051546505552523
  0.3669325895858032  0.7872715322313656  0.8090476903506455
  0.6372548085916916  0.2404918730189369  0.9115621738174439
  0.2906094668319630  0.9537979929904729  0.9370676074635846
  0.6776639077860742  0.3089233162614288  0.6223942475308307
  0.5408472788429336  0.3890547170665318  0.0495264514158183
  0.1149667059501140  0.1183749777709668  0.7543468531415158
  0.8115165026485679  0.8461857421639030  0.1086008854528740
  0.1069316084083578  0.6183032991329949  0.2408981308627972
  0.7465795206185841  0.0111047831909917  0.9508716825356591
  0.4388581989317897  0.5769418256816088  0.1978784896874470
  0.5850010085638911  0.1538901311976525  0.2533449065337566
  0.4135366224922595  0.7701360246283434  0.4731312063846238
  0.9400758622427866  0.7618518328517263  0.5281001251776066
  0.5450276466521426  0.7309472204859836  0.6490288309399199
  0.6479370398739585  0.1645110017107859  0.0658006936772818
  0.0189980322212746  0.8016374085038170  0.9692864506765583
  0.1518314390911696  0.1505844904068965  0.9203210298534801
  0.3620408651752682  0.5743881312034109  0.7215643236619238
  0.2014021070120452  0.6028377703012766  0.7754889012312709
  0.1944866259602130  0.9458250104708462  0.1033447404221669
  0.4332849393057224  0.9709865454952915  0.5545578386705173
  0.4556598745341786  0.0701257271689932  0.6949695884860628
  0.2167008590434345  0.8021681835151143  0.6711954970054747
  0.8835159073789667  0.4900071078986621  0.9142194567444728
  0.9244375414973984  0.7026972729745055  0.8773214157505257
  0.1933130337442742  0.7945885573148029  0.4947073101526692
  0.7217778248261664  0.4120366487374496  0.1760543282386598
  0.0194536135807860  0.7412782318566016  0.7310609353549996
  0.7034326847630157  0.4539908690907352  0.6746748116005775
  0.5080642111443701  0.1840893482270529  0.5993895312619116
  0.2250692622931784  0.4841289256713416  0.7338120241262771
  0.9460118096578515  0.1347555619391736  0.3061568061069319
  0.2558895430468083  0.2513102836422851  0.3328783275530269
  0.1448126284385731  0.0842067278093406  0.0380307899905498
  0.2031998362216617  0.9588391138394365  0.2590704892003514
  0.7642686787316517  0.5291397626364136  0.9610565941527607
  0.5478116772290887  0.9417449659706905  0.5096559266097505
  0.8487544930519123  0.5328129025993700  0.6834002293733554
  0.0928050068556026  0.0452032148906302  0.3302217513232590
  0.0005774380948794  0.1509674417737196  0.0867688929653571
  0.9674878210536887  0.9380531029790015  0.3531664369693324
  0.0981255088249073  0.1762547046069889  0.3543021408791489
  0.2847512245732824  0.0582963335867481  0.5103939148553095
  0.1271126073554471  0.8933955413640106  0.5634914510688019
  0.7791806103465000  0.4087905224770650  0.0169981110409278
  0.3574333471726195  0.1517858024161230  0.6158157173055395
  0.7741339316439115  0.7163396351403559  0.9372552690742403
  0.8046303682396839  0.6088632515625834  0.8232398430569867
  0.9085910772719262  0.8254403256086695  0.2023655626006317
  0.5627599355558021  0.3251536137614761  0.5473003639637480
  0.2375695037594531  0.1027634759278740  0.4017110951429283
  0.9333083207421523  0.5425530898999824  0.5292901120305399
  0.1471923585610236  0.7183221985482294  0.7372514128208973
  0.9879747527284699  0.7674399512188547  0.3956267958864000
  0.0833779723793499  0.2886304790258010  0.9671392292921559
  0.8943699731849500  0.6873697571279270  0.7232962827706920
  0.5447868087771097  0.0714703198764069  0.0594969704666025
  0.3771265361291254  0.4418119144947125  0.5357283860279302
  0.1654352794713420  0.7608184210649727  0.1035708600763560
  0.5430622060698489  0.1936670166214942  0.7582638938465632
  0.2943271523176677  0.3617285144051678  0.4906726827303176
  0.3220751307868773  0.2018074354228083  0.4737394341812933
  0.3245368652656970  0.2434537916955643  0.1854569973637066
  0.4294316244154308  0.1008865743361356  0.4805800086548261
  0.9894309395264265  0.6014385520413128  0.6329259221296278
  0.3992578091849796  0.2945423482359294  0.5869834561332891
  0.3760082472570674  0.4143842396912993  0.6964750342049161
  0.0461980065070126  0.8684414166205968  0.1186071947316442
  0.6240736644325531  0.4890267919589623  0.0195996004246160
  0.2546654430181554  0.4526948276441330  0.6068348916288920
  0.0933062490805523  0.8935594254535848  0.3956449171159722
  0.1365097203403562  0.5746512795448420  0.6398178946342240
  0.2381033709524595  0.2231225165378103  0.0493702814080992
  0.5659046334530697  0.9718494988012576  0.6314278563469200
  0.6268857827856340  0.8030984214167826  0.4790694040184340
  0.2827285141213062  0.4203778370828736  0.6943431520629381
  0.9471065019650706  0.7268754458173100  0.7921976558315484
  0.7666299072600584  0.5155891095415189  0.6427349482727909
  0.9387912901219765  0.7353048736555379  0.2048515407945858
  0.3579534402133889  0.2380313619498898  0.6476086617719246
  0.1157612885698585  0.0673171295015557  0.9493415536293637
  0.2953064279361037  0.1448510617834987  0.5460158881912388
  0.0073233382878282  0.8571769746704588  0.3861363745752801
  0.0226730160709628  0.8301750602874314  0.7010942404508245
  0.1031114777612119  0.9414758387358427  0.1168194097110329
  0.4956586907030388  0.0367193723131268  0.7709541377644912
  0.0902145923250951  0.7918163014430571  0.1455667935594893
  0.4998815434611641  0.1540919877338400  0.6867562099943030
  0.3982866714310922  0.3843998773118865  0.6095391026715468
  0.2524905493165717  0.1970518165230856  0.4098526542336833
  0.9386857767190355  0.7647386320149570  0.9443944208733969
  0.0356178772962001  0.1182486515052543  0.3163926306853964
  0.3882976545830034  0.1586704780281114  0.4218788040042619
  0.0044642927477412  0.6002871315552251  0.5402576413913734
  0.1493525352010886  0.1011898484848302  0.3789430923256457
  0.0542514264907965  0.5537887462379203  0.6743873623466932
  0.2440116299203801  0.9371718474956263  0.1807221487199145
  0.2105461557285627  0.0332592853322325  0.0766453074315635
  0.3464155041419711  0.2842952786165208  0.5072372171183660
  0.9565706281059108  0.4620269978383249  0.4927835361335899
  0.0762910435402389  0.0983486403417037  0.1013753423909949
  0.2808253108601042  0.5571599942568000  0.7615558204984717
  0.3631183702833159  0.0873761261635769  0.6833954490390355
  0.3210870518759049  0.5063880743341072  0.5693028825998709
  0.7705908740417450  0.3816754698529415  0.1041859158981940
  0.8260598550503169  0.7381641389259962  0.6887136578097133
  0.7049870056071766  0.4603831664528658  0.9844437586535016
  0.8339580238354893  0.6821061130129488  0.8724806776972464
  0.1818428360320214  0.8201914583316217  0.5852814235214422
  0.2728245557746191  0.1917432297149580  0.1276695450176109
  0.9810916160317273  0.8804676071552262  0.1837749979953305
  0.9722014965023520  0.6833242534327501  0.6709194865232302
  0.3743274478844125  0.0249876927112275  0.5045753392991567
  0.1864174400008011  0.6830854744821715  0.8174464660716317
  0.4811094454101200  0.0152514368226006  0.6236377311551325
  0.3192801356565366  0.2170519501503657  0.2755749942033490
  0.4927056861976749  0.2750408181901360  0.5835738333780663
  0.8571029597699656  0.6025376281043935  0.7462858409248296
  0.0268935314953410  0.3259317347942971  0.4415483131410002
  0.1361507138126522  0.8735135256234864  0.4740373590549480
  0.0050943668947249  0.8621070761860672  0.0357708204325695
  0.1571378561977009  0.5204468021962682  0.7888651088334900
  0.0552565336048330  0.9769326452971114  0.3774295097400455
  0.1826528264910201  0.1632180405017456  0.0092304042558409
  0.8377357966792244  0.4802421798477871  0.9964975086912311
  0.8063311411669672  0.5350851074472489  0.8774833690729822
  0.9113542368696472  0.5511352487762469  0.6207293516351858
  0.1726416786336702  0.6403555483171506  0.6921900008432001
  0.4344177231067689  0.1460988236364726  0.5612690041062129
  0.4120533134952964  0.4959870532739106  0.7171463863705582
  0.0971197628183771  0.2233603176739396  0.9032971641042921
  0.1886921598683693  0.5001600583517279  0.6462818877833079
  0.5609826190621994  0.8650208565352767  0.4619001386384614
  0.1343996260101405  0.0210121819590045  0.2504569553676164
  0.2270469173181279  0.3814170236383440  0.5541783209057460
 
  0.00000000E+00  0.00000000E+00  0.00000000E+00
  0.00000000E+00  0.00000000E+00  0.00000000E+00
  0.00000000E+00  0.00000000E+00  0.00000000E+00
  0.00000000E+00  0.00000000E+00  0.00000000E+00
  0.00000000E+00  0.00000000E+00  0.00000000E+00
  0.00000000E+00  0.00000000E+00  0.00000000E+00
  0.00000000E+00  0.00000000E+00  0.00000000E+00
  0.00000000E+00  0.00000000E+00  0.00000000E+00
  0.00000000E+00  0.00000000E+00  0.00000000E+00
  0.00000000E+00  0.00000000E+00  0.00000000E+00
  0.00000000E+00  0.00000000E+00  0.00000000E+00
  0.00000000E+00  0.00000000E+00  0.00000000E+00
  0.00000000E+00  0.00000000E+00  0.00000000E+00
  0.00000000E+00  0.00000000E+00  0.00000000E+00
  0.00000000E+00  0.00000000E+00  0.00000000E+00
  0.00000000E+00  0.00000000E+00  0.00000000E+00
  0.00000000E+00  0.00000000E+00  0.00000000E+00
  0.00000000E+00  0.00000000E+00  0.00000000E+00
  0.00000000E+00  0.00000000E+00  0.00000000E+00
  0.00000000E+00  0.00000000E+00  0.00000000E+00
  0.00000000E+00  0.00000000E+00  0.00000000E+00
  0.00000000E+00  0.00000000E+00  0.00000000E+00
  0.00000000E+00  0.00000000E+00  0.00000000E+00
  0.00000000E+00  0.00000000E+00  0.00000000E+00
  0.00000000E+00  0.00000000E+00  0.00000000E+00
  0.00000000E+00  0.00000000E+00  0.00000000E+00
  0.00000000E+00  0.00000000E+00  0.00000000E+00
  0.00000000E+00  0.00000000E+00  0.00000000E+00
  0.00000000E+00  0.00000000E+00  0.00000000E+00
  0.00000000E+00  0.00000000E+00  0.00000000E+00
  0.00000000E+00  0.00000000E+00  0.00000000E+00
  0.00000000E+00  0.00000000E+00  0.00000000E+00
  0.00000000E+00  0.00000000E+00  0.00000000E+00
  0.00000000E+00  0.00000000E+00  0.00000000E+00
  0.00000000E+00  0.00000000E+00  0.00000000E+00
  0.00000000E+00  0.00000000E+00  0.00000000E+00
  0.00000000E+00  0.00000000E+00  0.00000000E+00
  0.00000000E+00  0.00000000E+00  0.00000000E+00
  0.00000000E+00  0.00000000E+00  0.00000000E+00
  0.00000000E+00  0.00000000E+00  0.00000000E+00
  0.00000000E+00  0.00000000E+00  0.00000000E+00
  0.00000000E+00  0.00000000E+00  0.00000000E+00
  0.00000000E+00  0.00000000E+00  0.00000000E+00
  0.00000000E+00  0.00000000E+00  0.00000000E+00
  0.00000000E+00  0.00000000E+00  0.00000000E+00
  0.00000000E+00  0.00000000E+00  0.00000000E+00
  0.00000000E+00  0.00000000E+00  0.00000000E+00
  0.00000000E+00  0.00000000E+00  0.00000000E+00
  0.00000000E+00  0.00000000E+00  0.00000000E+00
  0.00000000E+00  0.00000000E+00  0.00000000E+00
  0.00000000E+00  0.00000000E+00  0.00000000E+00
  0.00000000E+00  0.00000000E+00  0.00000000E+00
  0.00000000E+00  0.00000000E+00  0.00000000E+00
  0.00000000E+00  0.00000000E+00  0.00000000E+00
  0.00000000E+00  0.00000000E+00  0.00000000E+00
  0.00000000E+00  0.00000000E+00  0.00000000E+00
  0.00000000E+00  0.00000000E+00  0.00000000E+00
  0.00000000E+00  0.00000000E+00  0.00000000E+00
  0.00000000E+00  0.00000000E+00  0.00000000E+00
  0.00000000E+00  0.00000000E+00  0.00000000E+00
  0.00000000E+00  0.00000000E+00  0.00000000E+00
  0.00000000E+00  0.00000000E+00  0.00000000E+00
  0.00000000E+00  0.00000000E+00  0.00000000E+00
  0.00000000E+00  0.00000000E+00  0.00000000E+00
  0.00000000E+00  0.00000000E+00  0.00000000E+00
  0.00000000E+00  0.00000000E+00  0.00000000E+00
  0.00000000E+00  0.00000000E+00  0.00000000E+00
  0.00000000E+00  0.00000000E+00  0.00000000E+00
  0.00000000E+00  0.00000000E+00  0.00000000E+00
  0.00000000E+00  0.00000000E+00  0.00000000E+00
  0.00000000E+00  0.00000000E+00  0.00000000E+00
  0.00000000E+00  0.00000000E+00  0.00000000E+00
  0.00000000E+00  0.00000000E+00  0.00000000E+00
  0.00000000E+00  0.00000000E+00  0.00000000E+00
  0.00000000E+00  0.00000000E+00  0.00000000E+00
  0.00000000E+00  0.00000000E+00  0.00000000E+00
  0.00000000E+00  0.00000000E+00  0.00000000E+00
  0.00000000E+00  0.00000000E+00  0.00000000E+00
  0.00000000E+00  0.00000000E+00  0.00000000E+00
  0.00000000E+00  0.00000000E+00  0.00000000E+00
  0.00000000E+00  0.00000000E+00  0.00000000E+00
  0.00000000E+00  0.00000000E+00  0.00000000E+00
  0.00000000E+00  0.00000000E+00  0.00000000E+00
  0.00000000E+00  0.00000000E+00  0.00000000E+00
  0.00000000E+00  0.00000000E+00  0.00000000E+00
  0.00000000E+00  0.00000000E+00  0.00000000E+00
  0.00000000E+00  0.00000000E+00  0.00000000E+00
  0.00000000E+00  0.00000000E+00  0.00000000E+00
  0.00000000E+00  0.00000000E+00  0.00000000E+00
  0.00000000E+00  0.00000000E+00  0.00000000E+00
  0.00000000E+00  0.00000000E+00  0.00000000E+00
  0.00000000E+00  0.00000000E+00  0.00000000E+00
  0.00000000E+00  0.00000000E+00  0.00000000E+00
  0.00000000E+00  0.00000000E+00  0.00000000E+00
  0.00000000E+00  0.00000000E+00  0.00000000E+00
  0.00000000E+00  0.00000000E+00  0.00000000E+00
  0.00000000E+00  0.00000000E+00  0.00000000E+00
  0.00000000E+00  0.00000000E+00  0.00000000E+00
  0.00000000E+00  0.00000000E+00  0.00000000E+00
  0.00000000E+00  0.00000000E+00  0.00000000E+00
  0.00000000E+00  0.00000000E+00  0.00000000E+00
  0.00000000E+00  0.00000000E+00  0.00000000E+00
  0.00000000E+00  0.00000000E+00  0.00000000E+00
  0.00000000E+00  0.00000000E+00  0.00000000E+00
  0.00000000E+00  0.00000000E+00  0.00000000E+00
  0.00000000E+00  0.00000000E+00  0.00000000E+00
  0.00000000E+00  0.00000000E+00  0.00000000E+00
  0.00000000E+00  0.00000000E+00  0.00000000E+00
  0.00000000E+00  0.00000000E+00  0.00000000E+00
  0.00000000E+00  0.00000000E+00  0.00000000E+00
  0.00000000E+00  0.00000000E+00  0.00000000E+00
  0.00000000E+00  0.00000000E+00  0.00000000E+00
  0.00000000E+00  0.00000000E+00  0.00000000E+00
  0.00000000E+00  0.00000000E+00  0.00000000E+00
  0.00000000E+00  0.00000000E+00  0.00000000E+00
  0.00000000E+00  0.00000000E+00  0.00000000E+00
  0.00000000E+00  0.00000000E+00  0.00000000E+00
  0.00000000E+00  0.00000000E+00  0.00000000E+00
  0.00000000E+00  0.00000000E+00  0.00000000E+00
  0.00000000E+00  0.00000000E+00  0.00000000E+00
  0.00000000E+00  0.00000000E+00  0.00000000E+00
  0.00000000E+00  0.00000000E+00  0.00000000E+00
  0.00000000E+00  0.00000000E+00  0.00000000E+00
  0.00000000E+00  0.00000000E+00  0.00000000E+00
  0.00000000E+00  0.00000000E+00  0.00000000E+00
  0.00000000E+00  0.00000000E+00  0.00000000E+00
  0.00000000E+00  0.00000000E+00  0.00000000E+00
  0.00000000E+00  0.00000000E+00  0.00000000E+00
  0.00000000E+00  0.00000000E+00  0.00000000E+00
  0.00000000E+00  0.00000000E+00  0.00000000E+00
  0.00000000E+00  0.00000000E+00  0.00000000E+00
  0.00000000E+00  0.00000000E+00  0.00000000E+00
  0.00000000E+00  0.00000000E+00  0.00000000E+00
  0.00000000E+00  0.00000000E+00  0.00000000E+00
  0.00000000E+00  0.00000000E+00  0.00000000E+00
  0.00000000E+00  0.00000000E+00  0.00000000E+00
  0.00000000E+00  0.00000000E+00  0.00000000E+00
  0.00000000E+00  0.00000000E+00  0.00000000E+00
  0.00000000E+00  0.00000000E+00  0.00000000E+00
  0.00000000E+00  0.00000000E+00  0.00000000E+00
  0.00000000E+00  0.00000000E+00  0.00000000E+00
  0.00000000E+00  0.00000000E+00  0.00000000E+00
  0.00000000E+00  0.00000000E+00  0.00000000E+00
  0.00000000E+00  0.00000000E+00  0.00000000E+00
  0.00000000E+00  0.00000000E+00  0.00000000E+00
  0.00000000E+00  0.00000000E+00  0.00000000E+00
  0.00000000E+00  0.00000000E+00  0.00000000E+00
  0.00000000E+00  0.00000000E+00  0.00000000E+00
  0.00000000E+00  0.00000000E+00  0.00000000E+00
  0.00000000E+00  0.00000000E+00  0.00000000E+00
  0.00000000E+00  0.00000000E+00  0.00000000E+00
  0.00000000E+00  0.00000000E+00  0.00000000E+00
  0.00000000E+00  0.00000000E+00  0.00000000E+00
  0.00000000E+00  0.00000000E+00  0.00000000E+00
  0.00000000E+00  0.00000000E+00  0.00000000E+00
  0.00000000E+00  0.00000000E+00  0.00000000E+00
  0.00000000E+00  0.00000000E+00  0.00000000E+00
  0.00000000E+00  0.00000000E+00  0.00000000E+00
  0.00000000E+00  0.00000000E+00  0.00000000E+00
  0.00000000E+00  0.00000000E+00  0.00000000E+00
  0.00000000E+00  0.00000000E+00  0.00000000E+00
  0.00000000E+00  0.00000000E+00  0.00000000E+00
  0.00000000E+00  0.00000000E+00  0.00000000E+00
  0.00000000E+00  0.00000000E+00  0.00000000E+00
  0.00000000E+00  0.00000000E+00  0.00000000E+00
  0.00000000E+00  0.00000000E+00  0.00000000E+00
  0.00000000E+00  0.00000000E+00  0.00000000E+00
  0.00000000E+00  0.00000000E+00  0.00000000E+00
  0.00000000E+00  0.00000000E+00  0.00000000E+00
  0.00000000E+00  0.00000000E+00  0.00000000E+00
  0.00000000E+00  0.00000000E+00  0.00000000E+00
  0.00000000E+00  0.00000000E+00  0.00000000E+00
  0.00000000E+00  0.00000000E+00  0.00000000E+00
  0.00000000E+00  0.00000000E+00  0.00000000E+00
  0.00000000E+00  0.00000000E+00  0.00000000E+00
  0.00000000E+00  0.00000000E+00  0.00000000E+00
  0.00000000E+00  0.00000000E+00  0.00000000E+00
  0.00000000E+00  0.00000000E+00  0.00000000E+00
  0.00000000E+00  0.00000000E+00  0.00000000E+00
  0.00000000E+00  0.00000000E+00  0.00000000E+00
  0.00000000E+00  0.00000000E+00  0.00000000E+00
  0.00000000E+00  0.00000000E+00  0.00000000E+00
  0.00000000E+00  0.00000000E+00  0.00000000E+00
  0.00000000E+00  0.00000000E+00  0.00000000E+00
  0.00000000E+00  0.00000000E+00  0.00000000E+00
  0.00000000E+00  0.00000000E+00  0.00000000E+00
  0.00000000E+00  0.00000000E+00  0.00000000E+00
  0.00000000E+00  0.00000000E+00  0.00000000E+00
  0.00000000E+00  0.00000000E+00  0.00000000E+00
  0.00000000E+00  0.00000000E+00  0.00000000E+00
  0.00000000E+00  0.00000000E+00  0.00000000E+00
  0.00000000E+00  0.00000000E+00  0.00000000E+00
  0.00000000E+00  0.00000000E+00  0.00000000E+00
  0.00000000E+00  0.00000000E+00  0.00000000E+00
  0.00000000E+00  0.00000000E+00  0.00000000E+00
  0.00000000E+00  0.00000000E+00  0.00000000E+00
  0.00000000E+00  0.00000000E+00  0.00000000E+00
  0.00000000E+00  0.00000000E+00  0.00000000E+00
  0.00000000E+00  0.00000000E+00  0.00000000E+00
  0.00000000E+00  0.00000000E+00  0.00000000E+00
  0.00000000E+00  0.00000000E+00  0.00000000E+00
  0.00000000E+00  0.00000000E+00  0.00000000E+00
  0.00000000E+00  0.00000000E+00  0.00000000E+00
  0.00000000E+00  0.00000000E+00  0.00000000E+00
  0.00000000E+00  0.00000000E+00  0.00000000E+00
  0.00000000E+00  0.00000000E+00  0.00000000E+00
  0.00000000E+00  0.00000000E+00  0.00000000E+00
  0.00000000E+00  0.00000000E+00  0.00000000E+00
  0.00000000E+00  0.00000000E+00  0.00000000E+00
  0.00000000E+00  0.00000000E+00  0.00000000E+00
  0.00000000E+00  0.00000000E+00  0.00000000E+00
  0.00000000E+00  0.00000000E+00  0.00000000E+00
  0.00000000E+00  0.00000000E+00  0.00000000E+00
  0.00000000E+00  0.00000000E+00  0.00000000E+00
  0.00000000E+00  0.00000000E+00  0.00000000E+00
  0.00000000E+00  0.00000000E+00  0.00000000E+00
  0.00000000E+00  0.00000000E+00  0.00000000E+00
  0.00000000E+00  0.00000000E+00  0.00000000E+00
  0.00000000E+00  0.00000000E+00  0.00000000E+00
  0.00000000E+00  0.00000000E+00  0.00000000E+00
  0.00000000E+00  0.00000000E+00  0.00000000E+00
  0.00000000E+00  0.00000000E+00  0.00000000E+00
  0.00000000E+00  0.00000000E+00  0.00000000E+00
  0.00000000E+00  0.00000000E+00  0.00000000E+00
  0.00000000E+00  0.00000000E+00  0.00000000E+00
  0.00000000E+00  0.00000000E+00  0.00000000E+00
  0.00000000E+00  0.00000000E+00  0.00000000E+00
  0.00000000E+00  0.00000000E+00  0.00000000E+00
  0.00000000E+00  0.00000000E+00  0.00000000E+00
  0.00000000E+00  0.00000000E+00  0.00000000E+00
  0.00000000E+00  0.00000000E+00  0.00000000E+00