Ge Sb Te                                
   1.00000000000000     
    17.1754231047012986    0.0000000000000000    0.0000000000000000
     0.0000000000000000   17.1754231047012986    0.0000000000000000
     0.0000000000000000    0.0000000000000000   17.1754231047012986
   Ge   Sb   Te
    34    34    84
Direct
  0.3339263679701088  0.7903140128035402  0.2600545952794339
  0.3745241323778280  0.7658943176635999  0.4530328942828432
  0.4952437669325677  0.7998743655032492  0.2563186888019572
  0.1455216094261914  0.6281121171246902  0.4986409627153169
  0.3692528211238730  0.8859679469320382  0.6570838427266141
  0.8550925658303022  0.1853635354155318  0.3058840338413426
  0.5440257813720839  0.9357374897788262  0.6421204969651807
  0.5171237206434551  0.9597102967581141  0.1447216965454708
  0.6366495354070033  0.2824257214432933  0.7721457815454839
  0.3342024249473640  0.6245227355396983  0.3570711866446534
  0.3033986976427574  0.3968746718114741  0.3417643534547791
  0.9911911645459414  0.8884254060459534  0.4100270130527564
  0.1983957786816073  0.6897216236668544  0.1828922457029614
  0.3193820880039583  0.7342651883744492  0.9458547141505911
  0.5301469666169608  0.0783757897283846  0.0465789168494926
  0.2447551686989456  0.9477234543313766  0.4652693379565332
  0.6669308981761668  0.8312418015216454  0.2582688273870469
  0.3428552012877173  0.2337151939777156  0.1515899471447469
  0.5365418034155839  0.9934420196938216  0.8309712085432566
  0.0270279634910450  0.9239297845018389  0.9370834851570280
  0.5339414398053423  0.2429510190748091  0.3992889436395861
  0.7113718478828794  0.0817751550213468  0.6056012074016748
  0.6004084753762114  0.7781618812249477  0.1156301397459490
  0.3409377780040029  0.7688081563923487  0.1014669841458396
  0.0871145028189685  0.0400374943849359  0.3605459195617590
  0.7015937497305278  0.6249882529379321  0.8030336298597940
  0.9070679310810514  0.5815393301217889  0.6002459091610187
  0.8436853290503092  0.5244702872824391  0.8747520293987924
  0.7935628389291487  0.5408789798651243  0.1352138889713463
  0.5811502186392363  0.4103933916459347  0.6096393306554510
  0.2434900853939199  0.4420168108304022  0.6363586584114560
  0.0195519132479609  0.2441001453054978  0.1253574886182020
  0.3918461622654275  0.4973823960175832  0.7882622493023426
  0.9497549807488803  0.2049852928385652  0.5058479525316516
  0.8110104490372085  0.3327589733495117  0.3566051367713384
  0.6171881551466500  0.0003688524386550  0.3776384649650487
  0.2461302436672991  0.8787408822785622  0.0312154796973964
  0.3899659769804550  0.6563802186046547  0.7898079669890322
  0.9547480372001192  0.5817540755797035  0.1015227004730312
  0.6703043827876787  0.1548722769483869  0.1685696406016683
  0.1906154680535778  0.3228084310045405  0.1481843058894622
  0.0521973623884339  0.2202825045822458  0.8826405069499722
  0.4509540279530040  0.3325717295057937  0.2541004903726021
  0.7814410525370101  0.7734909893937368  0.6319530419997716
  0.5171770683594885  0.6853859680635453  0.3868941099823091
  0.2136286987104053  0.0274695217184954  0.8695193467415504
  0.1661008376743920  0.1133622812622263  0.6130805032243957
  0.8488377762431952  0.7694517495161495  0.9885641024199227
  0.2481004550775451  0.4979953292740979  0.8642083344822014
  0.4801098589998301  0.3000024453612087  0.8261397838733379
  0.5609905992950217  0.5286306165479059  0.2324813986524335
  0.4567341364534498  0.9716379784823722  0.3216448436540193
  0.0203029070586048  0.5940504294344374  0.7137118281953287
  0.3046752451731535  0.0576699819870973  0.7222755855483504
  0.1451034858604905  0.3871636674344153  0.4070327389570365
  0.8474552226951692  0.8266225286861631  0.3330457052903050
  0.9091766712553895  0.0481718605238861  0.0503794678873026
  0.0133408421680058  0.1505827264385332  0.2743274288201517
  0.3297544557142147  0.5975370077388732  0.0471019354866433
  0.8923135865681320  0.7108489188502718  0.2265706356716147
  0.2427462989213972  0.1094553226587251  0.4450852477492255
  0.0607849373433659  0.5433259992829512  0.3260078074804560
  0.3627525394160669  0.2484973534319136  0.9899352034276614
  0.6554035217456939  0.3266322789884092  0.1576895910779852
  0.3915756037697502  0.1226184679542290  0.3646471933828026
  0.9487732864770412  0.6875537300488871  0.4905921332733936
  0.9266887180503858  0.4311643420870550  0.5593095509455694
  0.4487267455477623  0.4955200696119463  0.3632581250563947
  0.0915957010131719  0.0668255897961966  0.7729829390367410
  0.7551221162920172  0.4201504694108437  0.5669108451465471
  0.2671801981711913  0.9267376957916715  0.2710870951454152
  0.5556946899356786  0.5227077572027984  0.4857307962842939
  0.4721222375470057  0.1350857382081921  0.7890870358252219
  0.6244832964690277  0.8113102292479712  0.4305167099169683
  0.3573402548290090  0.8762981549225726  0.8159693478165329
  0.2255148532980012  0.6468722025059470  0.7439825092097728
  0.8259274746267191  0.3976239178930532  0.7929743092317609
  0.1926435600873580  0.2577922867469157  0.3078228937020593
  0.8968814670346834  0.5739965161217322  0.3594121217030436
  0.0612369160449526  0.3544130288674378  0.9855211829475747
  0.6730825907013969  0.7894308196249132  0.9818113669232493
  0.2264234318620818  0.1976288245536423  0.8941690946204564
  0.7239413710884712  0.3652591531677232  0.9923067811225960
  0.4048592675743981  0.9187335587330130  0.4734478533053994
  0.7495665552287768  0.2414189809286569  0.5748595801491176
  0.7343502795021064  0.5498984679147767  0.9872728273990425
  0.2306996377009274  0.7504555901718248  0.3862529869550447
  0.3109229248969494  0.7391477681480055  0.6004448768170116
  0.3813500179540851  0.1155755643053563  0.5356371866122559
  0.8869556097379404  0.6657396728916072  0.8364115389573610
  0.8909672153052635  0.8641813679037573  0.8564698475099193
  0.8975190266877879  0.8589847781341344  0.1310009496137076
  0.1374440105225543  0.8724470972008003  0.1753536957422085
  0.9663200367240135  0.3744554951154285  0.3966121366455020
  0.6704451357003570  0.1585990452794425  0.3462931267384218
  0.4791969624786346  0.1630452391902706  0.1994475969769457
  0.9879335212397384  0.8390732328707052  0.5677457356550843
  0.5436147491731255  0.6463540763543659  0.8693829615081239
  0.1606956121989421  0.7195012511655250  0.9318270943444115
  0.7182452273193944  0.6720977295980424  0.1991050797645043
  0.6731235466464859  0.5862845377422495  0.3484830777941710
  0.9826307972301929  0.5029976159367934  0.9492858855732301
  0.4934823423570321  0.6581422427290856  0.1549696075707394
  0.5159668419808199  0.8276877553069952  0.8029204828897710
  0.6314257607616940  0.0006703662184711  0.9508708158561299
  0.6731016497389306  0.9659823673482227  0.1713744158162410
  0.7864469283364133  0.7321791611463196  0.4493569998142061
  0.8990236150642631  0.1712501935785282  0.6559588939266969
  0.4109629019749582  0.3888757424048617  0.6796137137170521
  0.6171288899378067  0.7844982705012865  0.5983008431964404
  0.3156029577258517  0.4247824716753900  0.0079172745476392
  0.6118709281891965  0.3712434541092456  0.3324009781204830
  0.1609350496902017  0.5996765795157746  0.0578963522450428
  0.0518850887123081  0.8025897970447146  0.0532479348649586
  0.9904569974308376  0.4191211993868811  0.7528136213388995
  0.6496294241966056  0.4399922724021477  0.7889375468094804
  0.3855487615282805  0.3133648766555024  0.4517986138515384
  0.7083545944013181  0.7841142665958145  0.7790004982584859
  0.7447176359011625  0.5957719174060589  0.6362043984019037
  0.0645618113313231  0.2590588664343160  0.6082360369042290
  0.1068992805104516  0.7301158295846800  0.6276542807879717
  0.8051286877011431  0.3822417846121767  0.1958237798373377
  0.1727662093392494  0.3864673965509151  0.7699894993042157
  0.8727802427601802  0.2213208938151403  0.8843507162904687
  0.8667831921084000  0.0001844623887182  0.4210998694463177
  0.9360900303010211  0.0040238805718106  0.6847220854378384
  0.8155033722176648  0.9535842208013044  0.5738283283867971
  0.9669148991740080  0.9966241423876633  0.2463921263878943
  0.0640380022359073  0.7075043629654353  0.2660148128724489
  0.0591722313622938  0.1212584594798341  0.0209991577418947
  0.8492533355635271  0.1908012460136922  0.1302581790991204
  0.1397660941844004  0.8688516525885506  0.8331328470561302
  0.2395016472106406  0.5502816554676038  0.2560364111324280
  0.5779865266295401  0.2590578846000069  0.5613178616679643
  0.4809807289129347  0.4164487453804631  0.1140064957327575
  0.5766400873761972  0.0569774252279572  0.5252517105470527
  0.7051484961792492  0.2174604395770569  0.9167279866949020
  0.6722544081960549  0.9982081229181012  0.7352199660922923
  0.2117904307102901  0.3008712432321501  0.5461750779406923
  0.2180101848000402  0.9363119912864025  0.6404608499658399
  0.0253043890915732  0.4548697007488916  0.1846010092474206
  0.3904119112598094  0.0671968583862887  0.9641223225367953
  0.2100838213506893  0.1567955953035168  0.1291556355424182
  0.0223050954667978  0.0580153401614538  0.5045272904596089
  0.8622706625489798  0.0481828394402852  0.8847642472004283
  0.3299810630571768  0.0063021916254543  0.1067624823081583
  0.5093991511591034  0.4675955367763210  0.8804920365397300
  0.4716790390560453  0.8420280938520395  0.0375157576157427
  0.2952682867387484  0.5540030389146237  0.4929677096463501
  0.5437784220868591  0.2389573565407716  0.9956099092656223
  0.0937352311671853  0.4995143067832745  0.5772006890941147
  0.4573458348380996  0.6890995485984541  0.6356380193094255
 
  0.18505713E-02  0.23381811E-03  0.13049556E-02
  0.10270820E-02 -0.22985740E-03  0.48635263E-03
 -0.18150433E-02  0.11559444E-02  0.21285283E-02
  0.11464534E-02  0.24662905E-02 -0.24873856E-02
 -0.13592072E-03  0.76133567E-03  0.19784543E-02
  0.65344538E-03 -0.14326507E-02 -0.13410940E-02
 -0.98899258E-03  0.10498420E-02  0.38472164E-03
  0.32234558E-02 -0.13323635E-02  0.17597495E-02
  0.23341056E-02 -0.52307353E-02 -0.84617429E-05
  0.10573899E-02 -0.37067383E-03  0.16067447E-02
 -0.12744660E-02 -0.37329592E-02  0.22270504E-02
 -0.28395268E-03  0.33194195E-02  0.29880278E-02
  0.38709890E-02 -0.29541942E-02 -0.22920359E-02
 -0.45547949E-04  0.99695159E-03 -0.64344679E-03
  0.11215353E-02  0.41577577E-04 -0.29893781E-02
 -0.10356226E-02 -0.19750698E-03 -0.80327096E-03
 -0.32620532E-02  0.11438416E-03  0.51355281E-03
 -0.12186024E-02 -0.20489581E-02 -0.31819341E-02
  0.10510075E-02  0.23574798E-02  0.36121135E-02
  0.34332238E-03  0.13062262E-02  0.28162492E-03
 -0.28880388E-02  0.42092187E-02  0.25785347E-02
 -0.83315567E-04  0.59831105E-03  0.18716895E-02
 -0.20046781E-02 -0.28955493E-03  0.77684943E-03
  0.15435360E-02 -0.15150930E-02  0.12500196E-03
 -0.14006374E-02  0.37670695E-02 -0.58272530E-03
 -0.46458539E-03 -0.15125244E-02  0.11052862E-02
  0.13680987E-02 -0.80627929E-03 -0.15628017E-02
  0.63125552E-03 -0.40934380E-02 -0.15124344E-02
  0.41396737E-02 -0.19399953E-02  0.20959288E-04
  0.85178759E-03 -0.68832158E-03 -0.33201596E-02
 -0.86886820E-03  0.32541250E-02  0.33022332E-02
 -0.37866965E-03 -0.26751334E-02 -0.22758041E-02
 -0.16830927E-02  0.25172880E-03 -0.15249721E-02
 -0.50511344E-03 -0.71894922E-03 -0.20061454E-02
 -0.28448761E-02  0.72688123E-03  0.41359892E-03
 -0.48120113E-03  0.73989583E-03 -0.88590171E-03
 -0.21766888E-03  0.10274862E-02  0.99437768E-03
 -0.31218008E-02 -0.19783233E-02  0.12651878E-02
  0.14626600E-02 -0.71531435E-03 -0.23190665E-02
  0.38404631E-03  0.38005839E-03 -0.22307872E-02
  0.10005758E-02 -0.24038815E-02  0.17888128E-04
  0.10569296E-04 -0.41774024E-03 -0.83326565E-03
  0.23427652E-02 -0.33124652E-03  0.28684565E-02
 -0.36499213E-03  0.28061521E-02 -0.25261067E-02
  0.38760364E-02  0.26103003E-02 -0.89942782E-03
 -0.82972597E-03  0.29106443E-03  0.15510333E-02
  0.19037266E-02 -0.21511787E-02 -0.28344448E-03
  0.92810572E-03 -0.54812221E-03  0.17924308E-03
  0.92674442E-03 -0.22409910E-02 -0.15144173E-03
 -0.41128743E-04 -0.11786908E-02  0.28588644E-03
  0.44355151E-02  0.84725926E-03  0.13173109E-02
 -0.80983349E-03 -0.19652654E-03  0.63015728E-03
  0.10997580E-02  0.23066125E-02  0.21975880E-02
  0.15265991E-02  0.13469816E-02  0.42722124E-03
 -0.24566833E-03 -0.59586176E-04 -0.11010272E-02
 -0.16887836E-02 -0.13228490E-02 -0.15444084E-03
 -0.63852915E-05  0.10865463E-02  0.13921856E-02
 -0.15996160E-02  0.28448502E-02 -0.18063288E-02
  0.46946127E-03 -0.24527753E-02 -0.24300645E-02
 -0.19864778E-03 -0.11228146E-03 -0.27504610E-02
  0.11144149E-02 -0.24138940E-02 -0.12768247E-02
 -0.19507478E-03 -0.13647251E-02  0.11966625E-02
  0.58429221E-03  0.24857073E-03  0.24866149E-02
  0.19930224E-02  0.18717611E-02 -0.67576457E-03
 -0.13519772E-02  0.82249263E-03  0.14198852E-03
  0.12508733E-02  0.29005011E-03 -0.12996063E-02
 -0.94216809E-03 -0.47501527E-03  0.18879123E-02
 -0.19359564E-02  0.85041007E-03  0.29930092E-02
 -0.33042333E-02  0.25526558E-02 -0.98015413E-03
  0.83634351E-03  0.44815280E-03 -0.32418937E-03
 -0.89430564E-04 -0.64779030E-04  0.21829505E-03
 -0.43958243E-03 -0.27944424E-05 -0.18598546E-02
 -0.62885536E-03 -0.11176127E-03 -0.70574037E-03
 -0.21686130E-03  0.26336661E-02 -0.33963486E-04
 -0.40589030E-02 -0.51352720E-04 -0.12793905E-02
 -0.10321753E-02  0.44921130E-03 -0.50998361E-04
  0.62087606E-03 -0.54745142E-03 -0.12749772E-03
 -0.79321489E-03 -0.65258412E-03 -0.12591849E-02
 -0.15608089E-03 -0.48504957E-03  0.15519787E-03
  0.48875199E-03 -0.76185282E-03  0.19641572E-02
  0.10034972E-02  0.81885089E-03 -0.81392284E-03
 -0.47311725E-03  0.89973341E-03 -0.23720848E-02
 -0.11346935E-02  0.16181991E-02  0.14284818E-02
 -0.13769258E-03  0.39161049E-03  0.23491750E-02
  0.14906436E-02 -0.94088737E-03 -0.15361716E-03
 -0.13439215E-02  0.11492959E-02 -0.11164794E-02
  0.19542663E-02 -0.25809678E-02 -0.18824384E-03
  0.17384239E-02  0.13521975E-02  0.11008380E-02
  0.17499525E-02  0.13891707E-02 -0.48883152E-03
 -0.95837568E-03  0.24044936E-04 -0.20081971E-02
 -0.28833048E-03 -0.96340483E-03  0.59569659E-03
  0.20110554E-02  0.32629290E-02 -0.95098944E-03
 -0.10786936E-02 -0.38412497E-03  0.40735306E-03
 -0.15223494E-02  0.87508042E-03  0.52452217E-03
  0.16062605E-02 -0.48548131E-03 -0.19501511E-02
 -0.11451694E-02  0.12234645E-02 -0.71316129E-03
  0.74134775E-03  0.35648405E-03  0.11979408E-02
  0.98159805E-03  0.95917822E-03 -0.15866464E-02
  0.82700751E-04  0.15985436E-02  0.10263212E-02
 -0.44720003E-03  0.58905580E-03 -0.82042030E-03
  0.11689848E-02  0.69044854E-03 -0.79847538E-03
  0.62918629E-03  0.30426340E-03  0.40602085E-03
 -0.10546562E-02  0.93289967E-03 -0.17752263E-02
 -0.60528343E-04 -0.11837967E-02 -0.14260720E-02
 -0.66131519E-03  0.56875271E-03 -0.79793251E-04
  0.15781606E-02 -0.18417573E-02 -0.33796882E-03
  0.95600738E-03 -0.16903636E-03 -0.26633221E-03
 -0.50465357E-04 -0.32945006E-02 -0.10924354E-02
 -0.91743112E-03  0.19470069E-03  0.11292184E-02
 -0.15489305E-02 -0.11526082E-02 -0.17800941E-02
 -0.14970881E-03 -0.47865516E-03  0.24588756E-03
 -0.21412207E-02 -0.27086293E-02 -0.15880449E-04
  0.75795701E-03  0.15164305E-02 -0.18304687E-02
 -0.30130756E-03  0.12465121E-02  0.34195628E-03
  0.83218200E-03 -0.17682201E-02  0.15595673E-02
 -0.20050850E-02  0.46426096E-03  0.96465073E-03
  0.14570494E-02  0.17305625E-02 -0.59381376E-03
 -0.11816414E-02  0.10684369E-02 -0.23245203E-03
 -0.13831432E-02  0.45922116E-03  0.19822892E-02
 -0.78389402E-03 -0.95917646E-05  0.33477014E-04
  0.11950735E-03 -0.15678589E-02 -0.29172012E-03
 -0.24088535E-02 -0.28428256E-02  0.75778701E-03
 -0.15426094E-02 -0.14278366E-02 -0.10259284E-02
  0.40836915E-03 -0.17159790E-02 -0.12873506E-02
 -0.62581543E-03  0.21876809E-02 -0.38234352E-03
  0.21737635E-02 -0.13016653E-02  0.16228159E-02
  0.88103923E-03 -0.53423730E-03  0.22309805E-02
 -0.12345018E-02 -0.13807071E-02 -0.17681098E-02
  0.17208803E-02 -0.12232406E-02 -0.93830045E-03
  0.11760506E-02 -0.48480005E-03  0.91237555E-04
 -0.66958810E-03 -0.10870793E-02  0.15152661E-02
 -0.23046313E-02 -0.14685726E-02 -0.81752807E-03
 -0.14704214E-02  0.20554508E-02  0.54986944E-03
 -0.30907989E-02 -0.69337600E-03  0.13876366E-02
 -0.88168683E-03  0.14276949E-02 -0.85038679E-03
  0.45227698E-03  0.70489342E-03  0.95948723E-03
 -0.65117684E-03 -0.16770977E-02  0.21321558E-02
  0.14186804E-02  0.32411633E-03  0.20002217E-03
  0.19432032E-02  0.48767157E-04  0.10351760E-03
  0.11929391E-02 -0.71809415E-04  0.21083371E-03
  0.15171053E-02  0.39706666E-03  0.10799574E-02
  0.10169056E-02  0.55162870E-03 -0.14950966E-02
 -0.19790166E-03  0.10467430E-02  0.81114327E-04
 -0.13332775E-02  0.13087064E-02  0.16673753E-02
  0.34148389E-02 -0.61299619E-03 -0.75096648E-03
  0.16995489E-02 -0.12837666E-03  0.10250412E-02
 -0.18702696E-02  0.71974532E-03 -0.88037448E-03
 -0.92056424E-03 -0.61981708E-03 -0.46987573E-04
 -0.21233482E-02 -0.18348274E-03  0.33279417E-02
  0.43835713E-03 -0.14830497E-02  0.26935238E-02
 -0.45640445E-03  0.16072874E-02 -0.19210698E-02
 -0.37965323E-03 -0.35518094E-03  0.11732472E-02
 
           1
   3.00000000000000     
  0.10000000E+01  0.00000000E+00  0.00000000E+00  0.00000000E+00
  0.33424960E+00  0.79035485E+00  0.26028253E+00
  0.37470353E+00  0.76585417E+00  0.45311784E+00
  0.49492674E+00  0.80007627E+00  0.25669047E+00
  0.14572186E+00  0.62854290E+00  0.49820650E+00
  0.36922908E+00  0.88610093E+00  0.65742942E+00
  0.85520670E+00  0.18511330E+00  0.30564979E+00
  0.54385304E+00  0.93592086E+00  0.64218770E+00
  0.51768676E+00  0.95947758E+00  0.14502907E+00
  0.63705723E+00  0.28151208E+00  0.77214430E+00
  0.33438712E+00  0.62445799E+00  0.35735183E+00
  0.30317609E+00  0.39622264E+00  0.34215335E+00
  0.99114157E+00  0.88900520E+00  0.41054893E+00
  0.19907192E+00  0.68920562E+00  0.18249190E+00
  0.31937413E+00  0.73443932E+00  0.94574232E+00
  0.53034286E+00  0.78383052E-01  0.46056768E-01
  0.24457428E+00  0.94768896E+00  0.46512903E+00
  0.66636112E+00  0.83126178E+00  0.25835853E+00
  0.34264235E+00  0.23335731E+00  0.15103416E+00
  0.53672538E+00  0.99385380E+00  0.83160213E+00
  0.27087931E-01  0.92415794E+00  0.93713268E+00
  0.53343699E+00  0.24368624E+00  0.39973933E+00
  0.71135730E+00  0.81879661E-01  0.60592813E+00
  0.60005832E+00  0.77811131E+00  0.11576583E+00
  0.34120738E+00  0.76854352E+00  0.10148882E+00
  0.86869856E-01  0.40695482E-01  0.36044414E+00
  0.70151260E+00  0.62472406E+00  0.80322669E+00
  0.90730689E+00  0.58139850E+00  0.59997294E+00
  0.84379559E+00  0.52375529E+00  0.87448786E+00
  0.79428591E+00  0.54054012E+00  0.13521755E+00
  0.58129900E+00  0.41027316E+00  0.60905940E+00
  0.24333832E+00  0.44258520E+00  0.63693545E+00
  0.19485772E-01  0.24363288E+00  0.12495998E+00
  0.39155218E+00  0.49742637E+00  0.78799589E+00
  0.94966675E+00  0.20485972E+00  0.50549754E+00
  0.81051354E+00  0.33288594E+00  0.35667738E+00
  0.61710410E+00  0.49808870E-03  0.37748373E+00
  0.24609222E+00  0.87892035E+00  0.31389166E-01
  0.38942070E+00  0.65603467E+00  0.79002896E+00
  0.95500352E+00  0.58162913E+00  0.10111763E+00
  0.67037146E+00  0.15493866E+00  0.16817999E+00
  0.19079024E+00  0.32238855E+00  0.14818743E+00
  0.52199209E-01  0.22020954E+00  0.88249496E+00
  0.45136323E+00  0.33251387E+00  0.25460152E+00
  0.78137730E+00  0.77398113E+00  0.63151181E+00
  0.51785409E+00  0.68584190E+00  0.38673701E+00
  0.21348377E+00  0.27520361E-01  0.86979026E+00
  0.16643336E+00  0.11298654E+00  0.61303099E+00
  0.84899989E+00  0.76935601E+00  0.98859541E+00
  0.24826233E+00  0.49760390E+00  0.86418188E+00
  0.48010268E+00  0.29979657E+00  0.82618972E+00
  0.56176534E+00  0.52877861E+00  0.23271149E+00
  0.45659268E+00  0.97160365E+00  0.32175491E+00
  0.20495000E-01  0.59445332E+00  0.71409568E+00
  0.30494189E+00  0.57905257E-01  0.72235021E+00
  0.14506058E+00  0.38715326E+00  0.40684042E+00
  0.84716025E+00  0.82639147E+00  0.33301873E+00
  0.90917556E+00  0.48361646E-01  0.50622638E-01
  0.13061440E-01  0.15107963E+00  0.27401192E+00
  0.32983646E+00  0.59710859E+00  0.46677481E-01
  0.89227889E+00  0.71082931E+00  0.22609022E+00
  0.24294095E+00  0.10903369E+00  0.44486223E+00
  0.60750864E-01  0.54308763E+00  0.32621683E+00
  0.36285460E+00  0.24854077E+00  0.99036954E+00
  0.65575164E+00  0.32695922E+00  0.15757156E+00
  0.39133946E+00  0.12276213E+00  0.36467199E+00
  0.94899177E+00  0.68760439E+00  0.49036513E+00
  0.92652415E+00  0.43108137E+00  0.55963931E+00
  0.44838860E+00  0.49566861E+00  0.36378091E+00
  0.91018557E-01  0.67271458E-01  0.77281174E+00
  0.75526820E+00  0.42022875E+00  0.56685422E+00
  0.26716458E+00  0.92672638E+00  0.27112522E+00
  0.55561791E+00  0.52270727E+00  0.48540594E+00
  0.47201240E+00  0.13506622E+00  0.78896377E+00
  0.62444542E+00  0.81177025E+00  0.43051078E+00
  0.35663129E+00  0.87628919E+00  0.81574588E+00
  0.22533457E+00  0.64695067E+00  0.74397360E+00
  0.82603592E+00  0.39752830E+00  0.79295204E+00
  0.19250501E+00  0.25767830E+00  0.30760295E+00
  0.89685420E+00  0.57391179E+00  0.35943923E+00
  0.61322285E-01  0.35427996E+00  0.98586426E+00
  0.67325787E+00  0.78957385E+00  0.98166920E+00
  0.22634079E+00  0.19778598E+00  0.89375477E+00
  0.72374318E+00  0.36554180E+00  0.99255629E+00
  0.40483522E+00  0.91880196E+00  0.47385818E+00
  0.74982692E+00  0.24125464E+00  0.57483275E+00
  0.73411554E+00  0.55009921E+00  0.98707781E+00
  0.23104099E+00  0.75000478E+00  0.38622011E+00
  0.31122657E+00  0.73938395E+00  0.60063716E+00
  0.38165568E+00  0.11581821E+00  0.53555180E+00
  0.88678821E+00  0.66574387E+00  0.83606077E+00
  0.89091685E+00  0.86401309E+00  0.85657390E+00
  0.89787029E+00  0.85955471E+00  0.13083484E+00
  0.13725560E+00  0.87238000E+00  0.17542485E+00
  0.96605413E+00  0.37460834E+00  0.39670375E+00
  0.67072570E+00  0.15851425E+00  0.34595250E+00
  0.47899694E+00  0.16325894E+00  0.19932303E+00
  0.98806301E+00  0.83913550E+00  0.56795498E+00
  0.54378620E+00  0.64652161E+00  0.86910582E+00
  0.16071006E+00  0.71978047E+00  0.93200636E+00
  0.71816712E+00  0.67220062E+00  0.19896178E+00
  0.67332773E+00  0.58640514E+00  0.34834361E+00
  0.98274070E+00  0.50305076E+00  0.94935680E+00
  0.49329813E+00  0.65830519E+00  0.15465953E+00
  0.51595627E+00  0.82748098E+00  0.80267139E+00
  0.63131025E+00  0.76970922E-03  0.95085688E+00
  0.67337730E+00  0.96566067E+00  0.17131538E+00
  0.78661391E+00  0.73214964E+00  0.44931048E+00
  0.89901480E+00  0.17067475E+00  0.65576808E+00
  0.41080266E+00  0.38890975E+00  0.67981095E+00
  0.61685834E+00  0.78429695E+00  0.59798992E+00
  0.31557681E+00  0.42469887E+00  0.79602233E-02
  0.61149693E+00  0.37077034E+00  0.33239820E+00
  0.16106744E+00  0.59994145E+00  0.57576628E-01
  0.51832460E-01  0.80280752E+00  0.53307664E-01
  0.99060235E+00  0.41881235E+00  0.75308603E+00
  0.64927920E+00  0.44007336E+00  0.78910604E+00
  0.38580326E+00  0.31366715E+00  0.45169489E+00
  0.70814820E+00  0.78430089E+00  0.77895990E+00
  0.74447604E+00  0.59585213E+00  0.63655064E+00
  0.64424890E-01  0.25905719E+00  0.60824188E+00
  0.10692015E+00  0.72984197E+00  0.62760333E+00
  0.80470794E+00  0.38174523E+00  0.19595614E+00
  0.17249676E+00  0.38621800E+00  0.76981030E+00
  0.87285157E+00  0.22102117E+00  0.88412586E+00
  0.86667388E+00  0.56658065E-03  0.42103309E+00
  0.93646972E+00  0.37965210E-02  0.68500554E+00
  0.81565726E+00  0.95349091E+00  0.57421801E+00
  0.96669927E+00  0.99638298E+00  0.24608329E+00
  0.64338585E-01  0.70729070E+00  0.26585092E+00
  0.59377650E-01  0.12117378E+00  0.21015094E-01
  0.84913638E+00  0.19061137E+00  0.13052285E+00
  0.13936355E+00  0.86859514E+00  0.83299005E+00
  0.23924481E+00  0.55064068E+00  0.25613246E+00
  0.57744666E+00  0.25893677E+00  0.56156024E+00
  0.48082673E+00  0.41669812E+00  0.11385796E+00
  0.57671909E+00  0.57100548E-01  0.52541930E+00
  0.70503476E+00  0.21716750E+00  0.91710041E+00
  0.67250221E+00  0.99826474E+00  0.73525490E+00
  0.21212985E+00  0.30087976E+00  0.54619316E+00
  0.21821855E+00  0.93629945E+00  0.64049768E+00
  0.25569379E-01  0.45493906E+00  0.18478964E+00
  0.39058953E+00  0.67293210E-01  0.96386118E+00
  0.21004925E+00  0.15697843E+00  0.12916980E+00
  0.22072214E-01  0.58243930E-01  0.50481853E+00
  0.86286713E+00  0.48075769E-01  0.88463308E+00
  0.33027792E+00  0.62797683E-02  0.10694152E+00
  0.50907247E+00  0.46772125E+00  0.88033826E+00
  0.47151825E+00  0.84191983E+00  0.37507550E-01
  0.29489741E+00  0.55397099E+00  0.49354900E+00
  0.54385499E+00  0.23869831E+00  0.99608038E+00
  0.93655512E-01  0.49979505E+00  0.57686514E+00
  0.45727952E+00  0.68903751E+00  0.63584295E+00
  0.30777461E-03  0.59622143E-04  0.23247988E-03
  0.16784483E-03 -0.31628123E-04  0.89457256E-04
 -0.31691688E-03  0.21831436E-03  0.36008508E-03
  0.19589411E-03  0.42367934E-03 -0.41953780E-03
 -0.27890071E-04  0.13313546E-03  0.34837100E-03
  0.11462985E-03 -0.23262495E-03 -0.22410574E-03
 -0.19084418E-03  0.19436316E-03  0.56266970E-04
  0.58082521E-03 -0.23055389E-03  0.29230504E-03
  0.41032656E-03 -0.90363339E-03 -0.26295928E-05
  0.18721464E-03 -0.63321634E-04  0.27874380E-03
 -0.21804682E-03 -0.63805891E-03  0.38751823E-03
 -0.32248288E-04  0.56896577E-03  0.52831729E-03
  0.66430340E-03 -0.51418986E-03 -0.40907742E-03
 -0.19314409E-04  0.18194333E-03 -0.99432748E-04
  0.19167686E-03  0.72157171E-06 -0.50036013E-03
 -0.17399805E-03 -0.24434385E-04 -0.13627494E-03
 -0.56301888E-03  0.29211213E-04  0.93593461E-04
 -0.20105935E-03 -0.37543290E-03 -0.54604427E-03
  0.18015033E-03  0.41128176E-03  0.64248505E-03
  0.61317990E-04  0.23802243E-03  0.53306159E-04
 -0.50378780E-03  0.72455995E-03  0.44213421E-03
 -0.28258440E-04  0.11315458E-03  0.33099173E-03
 -0.34462736E-03 -0.48431552E-04  0.11713803E-03
  0.27065201E-03 -0.26469271E-03  0.17822053E-04
 -0.25873160E-03  0.66323531E-03 -0.99968921E-04
 -0.87751641E-04 -0.26922840E-03  0.18990519E-03
  0.25509253E-03 -0.14809117E-03 -0.28110136E-03
  0.11349914E-03 -0.71372040E-03 -0.28682059E-03
  0.70916809E-03 -0.33978099E-03  0.14718702E-04
  0.14663320E-03 -0.13364900E-03 -0.58111040E-03
 -0.14713160E-03  0.57242171E-03  0.58171735E-03
 -0.73070229E-04 -0.47448655E-03 -0.39697560E-03
 -0.27962455E-03  0.38499729E-04 -0.26307455E-03
 -0.92839450E-04 -0.11471457E-03 -0.34984991E-03
 -0.48337084E-03  0.12280335E-03  0.69705172E-04
 -0.95660775E-04  0.13652250E-03 -0.14375891E-03
 -0.33344336E-04  0.17093276E-03  0.16235377E-03
 -0.55006494E-03 -0.34977905E-03  0.22339880E-03
  0.26098689E-03 -0.11899912E-03 -0.40571299E-03
  0.68440621E-04  0.66314823E-04 -0.39802614E-03
  0.18137995E-03 -0.41672827E-03 -0.11394497E-05
  0.18977220E-05 -0.72020736E-04 -0.14177409E-03
  0.41614592E-03 -0.67764986E-04  0.50016048E-03
 -0.68139525E-04  0.49547489E-03 -0.43091589E-03
  0.68070334E-03  0.44363031E-03 -0.14939813E-03
 -0.16324678E-03  0.57622514E-04  0.26508157E-03
  0.33732649E-03 -0.37211584E-03 -0.53937315E-04
  0.17206642E-03 -0.92679054E-04  0.27694310E-04
  0.16032483E-03 -0.39047591E-03 -0.27633578E-04
 -0.87253851E-05 -0.19882862E-03  0.49084497E-04
  0.77018024E-03  0.15372495E-03  0.23193363E-03
 -0.14072659E-03 -0.32220329E-04  0.12016747E-03
  0.19343282E-03  0.40970310E-03  0.38461084E-03
  0.25784118E-03  0.23617832E-03  0.72018500E-04
 -0.55571943E-04 -0.72173160E-05 -0.19803608E-03
 -0.29353886E-03 -0.25041886E-03 -0.29751760E-04
 -0.65210029E-06  0.19506533E-03  0.24552483E-03
 -0.28324798E-03  0.48065282E-03 -0.31549923E-03
  0.83707617E-04 -0.43225286E-03 -0.42842731E-03
 -0.38055604E-04 -0.68643392E-07 -0.47913649E-03
  0.20570214E-03 -0.41744111E-03 -0.22384383E-03
 -0.35897724E-04 -0.24452281E-03  0.21553545E-03
  0.96801016E-04  0.45234135E-04  0.43465809E-03
  0.35722323E-03  0.31805489E-03 -0.11228411E-03
 -0.24499244E-03  0.13324898E-03  0.25271584E-04
  0.22132738E-03  0.58810715E-04 -0.21416452E-03
 -0.16211642E-03 -0.71212374E-04  0.32350972E-03
 -0.33983654E-03  0.15312912E-03  0.52925514E-03
 -0.55368016E-03  0.43935359E-03 -0.15989759E-03
  0.14784626E-03  0.81206842E-04 -0.57293389E-04
 -0.18720615E-04 -0.30467801E-04  0.31450120E-04
 -0.81523348E-04  0.59835176E-06 -0.32604620E-03
 -0.10546156E-03 -0.15980244E-04 -0.12175127E-03
 -0.28032113E-04  0.45271242E-03 -0.13398784E-05
 -0.70751217E-03 -0.62229275E-05 -0.22735679E-03
 -0.17152395E-03  0.84604091E-04 -0.72558116E-05
  0.10957406E-03 -0.92360661E-04 -0.23796373E-04
 -0.13630660E-03 -0.12247432E-03 -0.21754244E-03
 -0.26305386E-04 -0.89101489E-04  0.29529689E-04
  0.85460916E-04 -0.13796048E-03  0.33246672E-03
  0.15717184E-03  0.14526122E-03 -0.13226866E-03
 -0.81311340E-04  0.14102234E-03 -0.41307205E-03
 -0.19379488E-03  0.28326570E-03  0.24706562E-03
 -0.21478175E-04  0.64821188E-04  0.40190829E-03
  0.26550959E-03 -0.16696837E-03 -0.28953775E-04
 -0.23626918E-03  0.20158191E-03 -0.19781376E-03
  0.34466688E-03 -0.45226987E-03 -0.33497161E-04
  0.31159783E-03  0.23343834E-03  0.19983472E-03
  0.30040368E-03  0.24061305E-03 -0.92579416E-04
 -0.17355175E-03  0.16660626E-06 -0.34202061E-03
 -0.55931168E-04 -0.16881325E-03  0.95477423E-04
  0.35392997E-03  0.56966549E-03 -0.15750612E-03
 -0.19976166E-03 -0.75891563E-04  0.75524751E-04
 -0.26879970E-03  0.15123578E-03  0.89750292E-04
  0.27345231E-03 -0.82276362E-04 -0.32987443E-03
 -0.20698840E-03  0.21808409E-03 -0.12103486E-03
  0.13470856E-03  0.60355657E-04  0.20517989E-03
  0.17004689E-03  0.16798319E-03 -0.27353379E-03
  0.19332427E-04  0.26936166E-03  0.17998743E-03
 -0.80551220E-04  0.10313761E-03 -0.14697111E-03
  0.21086829E-03  0.11654823E-03 -0.14409764E-03
  0.10750124E-03  0.56043219E-04  0.72512711E-04
 -0.18121763E-03  0.15385875E-03 -0.30861802E-03
 -0.17926470E-04 -0.21410174E-03 -0.25362416E-03
 -0.11328394E-03  0.94148690E-04 -0.20360607E-04
  0.26756952E-03 -0.31693690E-03 -0.61289899E-04
  0.15855397E-03 -0.22645581E-04 -0.54789858E-04
 -0.62983203E-05 -0.57001291E-03 -0.19296761E-03
 -0.16375937E-03  0.33549241E-04  0.20132965E-03
 -0.27120917E-03 -0.21126675E-03 -0.31778246E-03