Amorphous Sb                            
   1.00000000000000     
    20.5572922372385527    0.0000000000000000    0.0000000000000000
     0.0000000000000000   20.5572922372385527    0.0000000000000000
     0.0000000000000000    0.0000000000000000   20.5572922372385527
   Zn   Te
   150   150
Direct
  0.0761274720854922  0.7955193989887023  0.1670882320257970
  0.5266373215608907  0.9231813964601188  0.0560059457578739
  0.5615411791207167  0.5559670158584147  0.7293383134421741
  0.5774716835609944  0.0548311583908739  0.3417296031122236
  0.1946296887148848  0.9173038926651919  0.5938122639618395
  0.0616277833932296  0.0020041563081151  0.3620954361818741
  0.0713053875652140  0.0996218740738359  0.1434936371079966
  0.6293144329278735  0.9693466905101644  0.8304335817212751
  0.7701465627127422  0.5089915102435786  0.2954086756971137
  0.0811152453333872  0.6483006998307440  0.8520289508261694
  0.4912380415285993  0.6552533122745734  0.6140771311344739
  0.7335245493087594  0.1331621426061881  0.3860777981511841
  0.8578792807307727  0.4730599873909235  0.8759209903337249
  0.2057826593223455  0.5793650371916070  0.3500669364148328
  0.3767095738991865  0.0904533294263992  0.4304928423069571
  0.4085511521551361  0.1905088374249480  0.2839184547928854
  0.6244796034543960  0.5819567104371058  0.2349071380258737
  0.9760547512431230  0.1592072907253504  0.6831952167924865
  0.8319425405744900  0.2867646615937328  0.6439410694762338
  0.5490373855642816  0.1414238579830235  0.8129615808983622
  0.1551790351937987  0.8145132625585967  0.7064424415043019
  0.6622504151903308  0.0817305289477028  0.2364370265926633
  0.9705524372972797  0.4339119154718132  0.5087292811603863
  0.1499185402569896  0.0010704905974647  0.9991716558721624
  0.0894846740690692  0.9922333025280781  0.7418077539721107
  0.4524080632061303  0.1552034225942528  0.9670756637916339
  0.1986896745610525  0.7575677205845950  0.5284968355811034
  0.0053621204742915  0.1055348555159225  0.9143362867995034
  0.2236043442107734  0.7794015847421049  0.9938037835740584
  0.3807274771861742  0.5077739338873282  0.7803496873650330
  0.7006120040876895  0.2290297746525409  0.0034213391414829
  0.5826633841724979  0.3673271187455736  0.6329155661910997
  0.5730384820983810  0.1140205334204952  0.5223730366864011
  0.5393557288382759  0.5623281194359206  0.0077033853429449
  0.4350316726919006  0.7413677992293698  0.9654722293422425
  0.6685058729648454  0.4475395842297324  0.4254025369009060
  0.2910887034022876  0.3055239937058827  0.1217157383844227
  0.2309793658223936  0.6156770166631607  0.5812907943229567
  0.0634519334757613  0.8592933014825684  0.3093962270608508
  0.2606487535143509  0.3460506559391358  0.7893319307526072
  0.5256751475943963  0.6736021013516525  0.2581244846177700
  0.4882987393703366  0.7087751900481537  0.4637286532287189
  0.9561837591152664  0.9642977412807923  0.0280029198629533
  0.7746055453470320  0.6209766918061452  0.1622902842841950
  0.7696882438200984  0.9899730230309666  0.0482028472595916
  0.3084293310020789  0.7345771093920764  0.5886683403654643
  0.7097075112677141  0.8162189611590549  0.7336072775908424
  0.8711203067872668  0.8748215963887286  0.6521534807134109
  0.2805835004614463  0.1291247130670074  0.7972493677568103
  0.1052229982474108  0.2749046036688287  0.8276040399941661
  0.6445562603240347  0.7186330855278522  0.0715165090041985
  0.3050843221465309  0.1872418773182865  0.9662076547633958
  0.9664151870651311  0.5315394873621265  0.2410172574594239
  0.1419041065544721  0.1556223035204974  0.6285522731241326
  0.9115369054028016  0.0812355785056050  0.2330847047133501
  0.6943305046878716  0.3970344690452588  0.7490563561139393
  0.6478192543350598  0.6460723234552169  0.4089390206621207
  0.8813218965629847  0.1596524697046891  0.0531164230859227
  0.8637132926415727  0.2539041220387689  0.8863090666087083
  0.8908633995871230  0.3946285435438256  0.0437204269333957
  0.4839254637561132  0.5874943516171662  0.4891097906191412
  0.5874733782653910  0.0231690447949455  0.6767917005758312
  0.5316879998799795  0.8689268356877808  0.3443779016176048
  0.0479061666671493  0.4494863482260832  0.7776454958618259
  0.7580094441947791  0.1153085436875907  0.6358335776859251
  0.3207416110539330  0.9950174116398328  0.9537102445564846
  0.5048046122043008  0.4023671622011180  0.4055517170223002
  0.4130637100432131  0.9691830100431803  0.2528470632497777
  0.4737539029052442  0.8222666818133318  0.5339337056022925
  0.0862333193864043  0.4892284682313190  0.4877810359112881
  0.7444627553379844  0.7625859865340486  0.2496839855340519
  0.0090545674437628  0.8311573467415349  0.7780871803462042
  0.4094184631459681  0.1049334281317364  0.6623358378686571
  0.9921869992244572  0.4464114990418682  0.1104437207495536
  0.2937422258913158  0.0641517372618201  0.5700857255921126
  0.9027490575474656  0.5197908174116359  0.0617065309484620
  0.9071526608226116  0.2940714502168054  0.2282348026687010
  0.1441982955219624  0.6903597566241313  0.7561144513986885
  0.2118409493534408  0.5730856201565682  0.6899907849953180
  0.5869326458423679  0.2525794536258687  0.6740063413148284
  0.7309463407755721  0.6038753222041777  0.7985368017671729
  0.3156906697280410  0.4472277279618478  0.2925179416392569
  0.0734542101563213  0.1849230247167513  0.2771879969666137
  0.8369138246996803  0.3332175103246668  0.3990403028157058
  0.6326045475630817  0.5279131419136750  0.5431314964127819
  0.2297257344987206  0.8318973156821352  0.2884392144342752
  0.9267151173149000  0.0237566128125393  0.7448348781985208
  0.3780182886810676  0.0645569014146094  0.0924493520008162
  0.4383868711242518  0.8670693699163939  0.9040192831668378
  0.3942518437357480  0.7650424489034048  0.2357805309475277
  0.6783242611305137  0.5581676965039538  0.9013079635500179
  0.6443681645014604  0.6735317900600111  0.8704137904276541
  0.5040604050982552  0.5511250443116843  0.2862660084227122
  0.3962626645971257  0.6543594812771006  0.0903681090145606
  0.6617985121574588  0.8571047579330099  0.9128624369437561
  0.5521208524507424  0.3707967995633671  0.2381242053430945
  0.3510445540840852  0.4031412194094836  0.0513597393680997
  0.2570339557487307  0.2683800442402536  0.3447037292901917
  0.2081663868682144  0.4966870810784944  0.9196674785775238
  0.8156893650386464  0.5815730952368059  0.4834417167447578
  0.9899959906400535  0.6807942993761212  0.5603896604767984
  0.2588615743584998  0.8918785506823246  0.1420578196259298
  0.6766442329494958  0.4026890564859731  0.1242876104801796
  0.9124712021769460  0.6540583599031248  0.8932021037244114
  0.6457632777988018  0.9246751464339854  0.5035834231021350
  0.4018107030147364  0.7734727053226821  0.7044717738883527
  0.7257449754886983  0.1552839042132595  0.8445610607498776
  0.4325141284573378  0.2811307745695982  0.7639076736598409
  0.8494018236187009  0.8298279923255792  0.1126224492900748
  0.6914094375497530  0.8843339706308557  0.1213520825820074
  0.7352901482349704  0.2214395425719644  0.2459482960043848
  0.8391897595607849  0.9605457607997717  0.3447041632709394
  0.1908302200710785  0.6741619128930781  0.4412693842325234
  0.1736136210904047  0.1808473763289389  0.9962660386450634
  0.8651686889839293  0.6997561766916913  0.6936607225788263
  0.0305681058134456  0.6924515910522627  0.3537040274218686
  0.3651254978923636  0.3396741487190514  0.4468184035401363
  0.0549248649149525  0.6186413119590897  0.0460623036773808
  0.2743254822568472  0.2597186283925002  0.6519442379149913
  0.5798369286724108  0.2096926162925330  0.1198510495272774
  0.5171154839245961  0.3377796943616928  0.0036454515006534
  0.1998878886558894  0.7129245687330179  0.6505911598615359
  0.5016704414099969  0.2896282603104242  0.5824185720107339
  0.0195532494181439  0.7622712798701560  0.0083877683510133
  0.1670944335761629  0.4682977365000266  0.1075230670506573
  0.0675261602469646  0.2972986285100910  0.4721863257461026
  0.3208780966051755  0.3127661709591410  0.8849083080429940
  0.0445055033158958  0.6193551796236277  0.7377098940450266
  0.3831790534564822  0.6480808026373910  0.4495805337227314
  0.5304835472280076  0.5989420611696128  0.1580649783699425
  0.0012213084979191  0.5297912066580491  0.5741479710275190
  0.0091442734696034  0.0001324803981380  0.5579232706972608
  0.3877023978503236  0.9556829547705985  0.7317119078183325
  0.8884445284263472  0.4980684437378637  0.6940075102145575
  0.5054764454432398  0.4653563687267020  0.8697064705933895
  0.6399104849620119  0.2947923181103781  0.4819768163473535
  0.1691160263091485  0.1272280615876665  0.4379936858291155
  0.0301014520120691  0.3380548416052873  0.6299749554618502
  0.4207792049243442  0.3350488128028266  0.1318565655205837
  0.3036162357780471  0.6651084214979415  0.8644362066586025
  0.2961323234299917  0.8100426282596489  0.8104679129333588
  0.0445270871254885  0.4295219828943299  0.9289491052596394
  0.2081987856163346  0.7956748830622492  0.4079251049781382
  0.2447509244881043  0.0934387205017623  0.2547847425978448
  0.9454424924996810  0.0807940674085404  0.3793019554575878
  0.8300798712161090  0.9390278233778312  0.5107930530431226
  0.2288142593527293  0.9188194411262122  0.3873166755481101
  0.1051576990775191  0.3505070753035616  0.2112666312772125
  0.0346397767701110  0.2693155616991230  0.0649935662174479
  0.4169888096259768  0.9390126184607507  0.5580170486785394
  0.4506809608527261  0.0708938851453992  0.3256570481089585
  0.6035557253461206  0.4675844049736299  0.9504141226485766
  0.7038806222488204  0.6311365918772234  0.5216743919186281
  0.7434329795412228  0.8762548345480483  0.3314520653314937
  0.7851023994325192  0.1024451260895428  0.2639213356469376
  0.0688154951832265  0.5502468458368730  0.1529328155419923
  0.4421469842073855  0.5374837381006689  0.0905956527919300
  0.2805224120935789  0.5764922698289336  0.4679276055417669
  0.6141397442382248  0.3486651339116688  0.3657593068184425
  0.2006686488596321  0.7449421324353072  0.8673786223856388
  0.6576559139787804  0.6322357936981977  0.6979459886178352
  0.9519008953634618  0.0691753382343051  0.1118221855283689
  0.8361716132730767  0.1857373974624027  0.5590031046085608
  0.4477633776357413  0.4356905894870994  0.2899525497499387
  0.7184894336496453  0.6382833093108109  0.3020899499038077
  0.1143097739087499  0.2336688799016319  0.1606925837563667
  0.8794014253436100  0.1318869898641707  0.9291703562839094
  0.2897889830327607  0.2142452951665081  0.2296354535625568
  0.2799624872137762  0.7724018358950391  0.1844785416936685
  0.6081476642444990  0.9493171527287444  0.2628843129483875
  0.6597509080230600  0.5948767945467337  0.1029186353284400
  0.4681112059730546  0.8777947837712561  0.6640194783936914
  0.2958747756581525  0.5692607262400077  0.2560793459496531
  0.3407526668595383  0.9246777214855731  0.8465706199097058
  0.2714154106695124  0.3898316947852574  0.6656523572314258
  0.9048562336911845  0.9020423216953756  0.7718909762576733
  0.6459973285730782  0.9367909671209363  0.0136629731118439
  0.1209102098838412  0.8884586912012200  0.8023231224304721
  0.7802487006787967  0.4852316099713224  0.7725665820559988
  0.5506523297142082  0.8678538586235157  0.8441334639478721
  0.8872007458061935  0.5940591223763390  0.5979122590089752
  0.6306747145647487  0.1344571448345541  0.6363069852226708
  0.8398402248719278  0.8141434040265654  0.9832034174703883
  0.9279002857741490  0.6443275891725806  0.0225337396751334
  0.1289646548342597  0.7263913698486597  0.0693281723530218
  0.2985685713811282  0.0434608380089347  0.6993762837888259
  0.4088209011688936  0.8611434966466814  0.3169263119718911
  0.7834676452285549  0.7813001889417037  0.6346709792512772
  0.7955223771231935  0.4681580814916212  0.4140958619949129
  0.0288261900395792  0.0953821522698355  0.7837164361440067
  0.7919881529699705  0.5282825393096739  0.9755959665277396
  0.4428975094859261  0.0638294688229275  0.5422671982249404
  0.9635728409971184  0.3503631079071328  0.4157299718562107
  0.6259468333679721  0.1801464371176855  0.3137751079168238
  0.2924469274469891  0.9446919589476923  0.5180631356856872
  0.2393023846485610  0.2975975017849912  0.9976337301027267
  0.7594874177827388  0.4053499913519263  0.0256890453040456
  0.5444088247959034  0.4052976363258460  0.1082268872515912
  0.4429651034941013  0.0269748770535380  0.9882850167869381
  0.4940727662868483  0.2553830234952369  0.2083095426112112
  0.6060676659635917  0.7425916900036581  0.7660000669558255
  0.5239723429578811  0.9174521741622206  0.4630737492660014
  0.3129206054812562  0.0048040848916727  0.1827554785188009
  0.4072701948635905  0.7401208787421812  0.8321484937207343
  0.0450158783584173  0.0823263801329182  0.4615177702128018
  0.5625458421146653  0.2216091557782691  0.9899359864582212
  0.7774551292630392  0.9834976656306077  0.6253624804969280
  0.9051287160100373  0.3926697461657596  0.6170527749949296
  0.5534287812104178  0.2647706557426474  0.7986348704226011
  0.2636076489139350  0.3893109825910542  0.3916055611045859
  0.1258119587749475  0.3812174506206767  0.5523477708817724
  0.0880271905118604  0.5159910253354444  0.6745971279039563
  0.9908499515531436  0.5679503986603430  0.3612730035174665
  0.0652527258746372  0.2162797675642688  0.9415849370976538
  0.0108639127142915  0.3270154407861015  0.7567897152625727
  0.8462197712347950  0.9507029578778522  0.9547827388072627
  0.2368613140920122  0.0856460721796292  0.9115381614359934
  0.2594709998049247  0.0508676464392983  0.3789549310087206
  0.4871607329668398  0.0484920214542520  0.7491813135047917
  0.9889935596956063  0.7716684469796352  0.2604341935476050
  0.9246182446955028  0.3717730026270380  0.9179103864891601
  0.1412942928395657  0.8974861569183125  0.2099220177204766
  0.3632165458841863  0.7767929241261029  0.4793024851134554
  0.1135088432042600  0.4919010311881625  0.3612370266927463
  0.5124721951077386  0.9881529339270146  0.1687179936087196
  0.2394263821914859  0.9071037599299761  0.0151345111482637
  0.8365376178982157  0.0477039873790985  0.4379698662490502
  0.9441152970771333  0.8901907626785572  0.5461474402736932
  0.9761420258768059  0.8526565055292024  0.0877463576918806
  0.1357050983653164  0.2362568787176068  0.3784651632453126
  0.1012199676610862  0.8953505970935196  0.4240611602449739
  0.4267526214115422  0.8511267708529793  0.0306749086738916
  0.6502476673333822  0.9218636022965943  0.6349266778607883
  0.5691416274578111  0.5388663117555332  0.4033190130275417
  0.7156132059503546  0.2869098086592350  0.6987266866932613
  0.5616981924694923  0.7384688094606334  0.3615191323014973
  0.2834820881907312  0.8379080669139317  0.6815801448042186
  0.4477407942922509  0.3957594838979331  0.5190618478236588
  0.6617420663877183  0.4591087945850748  0.2377107257644244
  0.8471099156013200  0.5177542657325980  0.1909229269718346
  0.8203317953818462  0.6923004000839172  0.8140805859126879
  0.1559904384505240  0.6997987186053671  0.3196947807295409
  0.2659737119898749  0.5533914053852538  0.8127792803454319
  0.9898926918165474  0.3958803790734031  0.2333631641411346
  0.9915023836880400  0.7266154447629070  0.6850546012946810
  0.3960554156135337  0.6438191221959909  0.3140774027990103
  0.3192183160852083  0.6877621037402739  0.9963927189512415
  0.7442288713807005  0.8471856687376663  0.4671615559764944
  0.9542046672867660  0.5378470092784078  0.8038246036931124
  0.6499347619142413  0.0454944183040283  0.4474031102024716
  0.4021683780324077  0.4034247600584859  0.7115321896177289
  0.0427074276521715  0.9864332084692100  0.9375911028923529
  0.3633226632216189  0.2186767323205451  0.4056122397766003
  0.9487221929242803  0.1869190771229512  0.2986785715372643
  0.2667419981344787  0.5000697542563821  0.0322681013714544
  0.8096873610594967  0.1144444771897566  0.7574388821679591
  0.6310355477174321  0.0813201882475597  0.8876417438941615
  0.6952264771165479  0.2727009447236921  0.1278906184938274
  0.0840361242635519  0.3869412855229327  0.0425772547434941
  0.7589881353659566  0.2436277802960853  0.4583503511358337
  0.8921341283980896  0.2315402301557961  0.7529182369874452
  0.6386014977371797  0.7882372150097781  0.1793525549506415
  0.3798499543122849  0.1892299563411466  0.0708841843049395
  0.2383844477532091  0.1749556893111646  0.5440682067111523
  0.9527554033130765  0.7418999851972241  0.4527511059013132
  0.5716289724384455  0.4298003776066196  0.7495506675417889
  0.8675197636410853  0.6554053025167500  0.3904429966579800
  0.8442000898296171  0.7243188961087680  0.1824106060407920
  0.7378234264752204  0.9067376882200754  0.8178353251860063
  0.7500359131827764  0.1166819578651253  0.0542098101323680
  0.3763139280269428  0.6549403882375505  0.6630663337805615
  0.1075964691053979  0.8255174450909358  0.5870167226227156
  0.6782119537578981  0.4056218251219698  0.5545550513125493
  0.0923351593098099  0.5564059547777660  0.9398151276691109
  0.1047031435034452  0.6211034033648789  0.5267221551759854
  0.3821685063590473  0.1941358220931695  0.8543481003691018
  0.2251211317780782  0.3962795049242611  0.1988506159128168
  0.1916177025773306  0.2083869569133988  0.7439983371642833
  0.0363829969260872  0.2157096335689130  0.5856144327094293
  0.1211545067093030  0.0214259766035826  0.6236518988443450
  0.1171941368570388  0.0650638104806916  0.2611465123041471
  0.5661331759869117  0.7404143820249246  0.5635771678127730
  0.5528688165793139  0.6857789180321242  0.9709292757093086
  0.9148830659591820  0.0627929624375460  0.6214255408364124
  0.4746001120591101  0.5793336996920088  0.8219537031800690
  0.7958825807640673  0.3290983421472770  0.2775493058139086
  0.9100703327535357  0.2752822784336171  0.0987169955532075
  0.4822354488844141  0.7297782292443223  0.1471479661011224
  0.7361384539156224  0.2735701297552234  0.8906434531322091
  0.9532026145900809  0.9699639466799704  0.2886868033554272
  0.7151970916712084  0.7510570313956305  0.9645480278414128
  0.1469569991682373  0.4010092085064673  0.8500760422910779
  0.4197345118961419  0.3864755596953545  0.9363129516739697
  0.4000056679326364  0.2304376939013818  0.6501581132234628
  0.5175168207823572  0.5305070892937556  0.6007159924343246
  0.6260604795911257  0.0861150672951373  0.1161616545670297
  0.7982476582055966  0.9364447220595642  0.1625622662421183
  0.0029859116435664  0.7470499500162006  0.8824237891799387
  0.5343164333857435  0.2239131797629371  0.4787319277467513
  0.1820700555854480  0.0895133093817509  0.0835129870190657
 
  0.00000000E+00  0.00000000E+00  0.00000000E+00
  0.00000000E+00  0.00000000E+00  0.00000000E+00
  0.00000000E+00  0.00000000E+00  0.00000000E+00
  0.00000000E+00  0.00000000E+00  0.00000000E+00
  0.00000000E+00  0.00000000E+00  0.00000000E+00
  0.00000000E+00  0.00000000E+00  0.00000000E+00
  0.00000000E+00  0.00000000E+00  0.00000000E+00
  0.00000000E+00  0.00000000E+00  0.00000000E+00
  0.00000000E+00  0.00000000E+00  0.00000000E+00
  0.00000000E+00  0.00000000E+00  0.00000000E+00
  0.00000000E+00  0.00000000E+00  0.00000000E+00
  0.00000000E+00  0.00000000E+00  0.00000000E+00
  0.00000000E+00  0.00000000E+00  0.00000000E+00
  0.00000000E+00  0.00000000E+00  0.00000000E+00
  0.00000000E+00  0.00000000E+00  0.00000000E+00
  0.00000000E+00  0.00000000E+00  0.00000000E+00
  0.00000000E+00  0.00000000E+00  0.00000000E+00
  0.00000000E+00  0.00000000E+00  0.00000000E+00
  0.00000000E+00  0.00000000E+00  0.00000000E+00
  0.00000000E+00  0.00000000E+00  0.00000000E+00
  0.00000000E+00  0.00000000E+00  0.00000000E+00
  0.00000000E+00  0.00000000E+00  0.00000000E+00
  0.00000000E+00  0.00000000E+00  0.00000000E+00
  0.00000000E+00  0.00000000E+00  0.00000000E+00
  0.00000000E+00  0.00000000E+00  0.00000000E+00
  0.00000000E+00  0.00000000E+00  0.00000000E+00
  0.00000000E+00  0.00000000E+00  0.00000000E+00
  0.00000000E+00  0.00000000E+00  0.00000000E+00
  0.00000000E+00  0.00000000E+00  0.00000000E+00
  0.00000000E+00  0.00000000E+00  0.00000000E+00
  0.00000000E+00  0.00000000E+00  0.00000000E+00
  0.00000000E+00  0.00000000E+00  0.00000000E+00
  0.00000000E+00  0.00000000E+00  0.00000000E+00
  0.00000000E+00  0.00000000E+00  0.00000000E+00
  0.00000000E+00  0.00000000E+00  0.00000000E+00
  0.00000000E+00  0.00000000E+00  0.00000000E+00
  0.00000000E+00  0.00000000E+00  0.00000000E+00
  0.00000000E+00  0.00000000E+00  0.00000000E+00
  0.00000000E+00  0.00000000E+00  0.00000000E+00
  0.00000000E+00  0.00000000E+00  0.00000000E+00
  0.00000000E+00  0.00000000E+00  0.00000000E+00
  0.00000000E+00  0.00000000E+00  0.00000000E+00
  0.00000000E+00  0.00000000E+00  0.00000000E+00
  0.00000000E+00  0.00000000E+00  0.00000000E+00
  0.00000000E+00  0.00000000E+00  0.00000000E+00
  0.00000000E+00  0.00000000E+00  0.00000000E+00
  0.00000000E+00  0.00000000E+00  0.00000000E+00
  0.00000000E+00  0.00000000E+00  0.00000000E+00
  0.00000000E+00  0.00000000E+00  0.00000000E+00
  0.00000000E+00  0.00000000E+00  0.00000000E+00
  0.00000000E+00  0.00000000E+00  0.00000000E+00
  0.00000000E+00  0.00000000E+00  0.00000000E+00
  0.00000000E+00  0.00000000E+00  0.00000000E+00
  0.00000000E+00  0.00000000E+00  0.00000000E+00
  0.00000000E+00  0.00000000E+00  0.00000000E+00
  0.00000000E+00  0.00000000E+00  0.00000000E+00
  0.00000000E+00  0.00000000E+00  0.00000000E+00
  0.00000000E+00  0.00000000E+00  0.00000000E+00
  0.00000000E+00  0.00000000E+00  0.00000000E+00
  0.00000000E+00  0.00000000E+00  0.00000000E+00
  0.00000000E+00  0.00000000E+00  0.00000000E+00
  0.00000000E+00  0.00000000E+00  0.00000000E+00
  0.00000000E+00  0.00000000E+00  0.00000000E+00
  0.00000000E+00  0.00000000E+00  0.00000000E+00
  0.00000000E+00  0.00000000E+00  0.00000000E+00
  0.00000000E+00  0.00000000E+00  0.00000000E+00
  0.00000000E+00  0.00000000E+00  0.00000000E+00
  0.00000000E+00  0.00000000E+00  0.00000000E+00
  0.00000000E+00  0.00000000E+00  0.00000000E+00
  0.00000000E+00  0.00000000E+00  0.00000000E+00
  0.00000000E+00  0.00000000E+00  0.00000000E+00
  0.00000000E+00  0.00000000E+00  0.00000000E+00
  0.00000000E+00  0.00000000E+00  0.00000000E+00
  0.00000000E+00  0.00000000E+00  0.00000000E+00
  0.00000000E+00  0.00000000E+00  0.00000000E+00
  0.00000000E+00  0.00000000E+00  0.00000000E+00
  0.00000000E+00  0.00000000E+00  0.00000000E+00
  0.00000000E+00  0.00000000E+00  0.00000000E+00
  0.00000000E+00  0.00000000E+00  0.00000000E+00
  0.00000000E+00  0.00000000E+00  0.00000000E+00
  0.00000000E+00  0.00000000E+00  0.00000000E+00
  0.00000000E+00  0.00000000E+00  0.00000000E+00
  0.00000000E+00  0.00000000E+00  0.00000000E+00
  0.00000000E+00  0.00000000E+00  0.00000000E+00
  0.00000000E+00  0.00000000E+00  0.00000000E+00
  0.00000000E+00  0.00000000E+00  0.00000000E+00
  0.00000000E+00  0.00000000E+00  0.00000000E+00
  0.00000000E+00  0.00000000E+00  0.00000000E+00
  0.00000000E+00  0.00000000E+00  0.00000000E+00
  0.00000000E+00  0.00000000E+00  0.00000000E+00
  0.00000000E+00  0.00000000E+00  0.00000000E+00
  0.00000000E+00  0.00000000E+00  0.00000000E+00
  0.00000000E+00  0.00000000E+00  0.00000000E+00
  0.00000000E+00  0.00000000E+00  0.00000000E+00
  0.00000000E+00  0.00000000E+00  0.00000000E+00
  0.00000000E+00  0.00000000E+00  0.00000000E+00
  0.00000000E+00  0.00000000E+00  0.00000000E+00
  0.00000000E+00  0.00000000E+00  0.00000000E+00
  0.00000000E+00  0.00000000E+00  0.00000000E+00
  0.00000000E+00  0.00000000E+00  0.00000000E+00
  0.00000000E+00  0.00000000E+00  0.00000000E+00
  0.00000000E+00  0.00000000E+00  0.00000000E+00
  0.00000000E+00  0.00000000E+00  0.00000000E+00
  0.00000000E+00  0.00000000E+00  0.00000000E+00
  0.00000000E+00  0.00000000E+00  0.00000000E+00
  0.00000000E+00  0.00000000E+00  0.00000000E+00
  0.00000000E+00  0.00000000E+00  0.00000000E+00
  0.00000000E+00  0.00000000E+00  0.00000000E+00
  0.00000000E+00  0.00000000E+00  0.00000000E+00
  0.00000000E+00  0.00000000E+00  0.00000000E+00
  0.00000000E+00  0.00000000E+00  0.00000000E+00
  0.00000000E+00  0.00000000E+00  0.00000000E+00
  0.00000000E+00  0.00000000E+00  0.00000000E+00
  0.00000000E+00  0.00000000E+00  0.00000000E+00
  0.00000000E+00  0.00000000E+00  0.00000000E+00
  0.00000000E+00  0.00000000E+00  0.00000000E+00
  0.00000000E+00  0.00000000E+00  0.00000000E+00
  0.00000000E+00  0.00000000E+00  0.00000000E+00
  0.00000000E+00  0.00000000E+00  0.00000000E+00
  0.00000000E+00  0.00000000E+00  0.00000000E+00
  0.00000000E+00  0.00000000E+00  0.00000000E+00
  0.00000000E+00  0.00000000E+00  0.00000000E+00
  0.00000000E+00  0.00000000E+00  0.00000000E+00
  0.00000000E+00  0.00000000E+00  0.00000000E+00
  0.00000000E+00  0.00000000E+00  0.00000000E+00
  0.00000000E+00  0.00000000E+00  0.00000000E+00
  0.00000000E+00  0.00000000E+00  0.00000000E+00
  0.00000000E+00  0.00000000E+00  0.00000000E+00
  0.00000000E+00  0.00000000E+00  0.00000000E+00
  0.00000000E+00  0.00000000E+00  0.00000000E+00
  0.00000000E+00  0.00000000E+00  0.00000000E+00
  0.00000000E+00  0.00000000E+00  0.00000000E+00
  0.00000000E+00  0.00000000E+00  0.00000000E+00
  0.00000000E+00  0.00000000E+00  0.00000000E+00
  0.00000000E+00  0.00000000E+00  0.00000000E+00
  0.00000000E+00  0.00000000E+00  0.00000000E+00
  0.00000000E+00  0.00000000E+00  0.00000000E+00
  0.00000000E+00  0.00000000E+00  0.00000000E+00
  0.00000000E+00  0.00000000E+00  0.00000000E+00
  0.00000000E+00  0.00000000E+00  0.00000000E+00
  0.00000000E+00  0.00000000E+00  0.00000000E+00
  0.00000000E+00  0.00000000E+00  0.00000000E+00
  0.00000000E+00  0.00000000E+00  0.00000000E+00
  0.00000000E+00  0.00000000E+00  0.00000000E+00
  0.00000000E+00  0.00000000E+00  0.00000000E+00
  0.00000000E+00  0.00000000E+00  0.00000000E+00
  0.00000000E+00  0.00000000E+00  0.00000000E+00
  0.00000000E+00  0.00000000E+00  0.00000000E+00
  0.00000000E+00  0.00000000E+00  0.00000000E+00
  0.00000000E+00  0.00000000E+00  0.00000000E+00
  0.00000000E+00  0.00000000E+00  0.00000000E+00
  0.00000000E+00  0.00000000E+00  0.00000000E+00
  0.00000000E+00  0.00000000E+00  0.00000000E+00
  0.00000000E+00  0.00000000E+00  0.00000000E+00
  0.00000000E+00  0.00000000E+00  0.00000000E+00
  0.00000000E+00  0.00000000E+00  0.00000000E+00
  0.00000000E+00  0.00000000E+00  0.00000000E+00
  0.00000000E+00  0.00000000E+00  0.00000000E+00
  0.00000000E+00  0.00000000E+00  0.00000000E+00
  0.00000000E+00  0.00000000E+00  0.00000000E+00
  0.00000000E+00  0.00000000E+00  0.00000000E+00
  0.00000000E+00  0.00000000E+00  0.00000000E+00
  0.00000000E+00  0.00000000E+00  0.00000000E+00
  0.00000000E+00  0.00000000E+00  0.00000000E+00
  0.00000000E+00  0.00000000E+00  0.00000000E+00
  0.00000000E+00  0.00000000E+00  0.00000000E+00
  0.00000000E+00  0.00000000E+00  0.00000000E+00
  0.00000000E+00  0.00000000E+00  0.00000000E+00
  0.00000000E+00  0.00000000E+00  0.00000000E+00
  0.00000000E+00  0.00000000E+00  0.00000000E+00
  0.00000000E+00  0.00000000E+00  0.00000000E+00
  0.00000000E+00  0.00000000E+00  0.00000000E+00
  0.00000000E+00  0.00000000E+00  0.00000000E+00
  0.00000000E+00  0.00000000E+00  0.00000000E+00
  0.00000000E+00  0.00000000E+00  0.00000000E+00
  0.00000000E+00  0.00000000E+00  0.00000000E+00
  0.00000000E+00  0.00000000E+00  0.00000000E+00
  0.00000000E+00  0.00000000E+00  0.00000000E+00
  0.00000000E+00  0.00000000E+00  0.00000000E+00
  0.00000000E+00  0.00000000E+00  0.00000000E+00
  0.00000000E+00  0.00000000E+00  0.00000000E+00
  0.00000000E+00  0.00000000E+00  0.00000000E+00
  0.00000000E+00  0.00000000E+00  0.00000000E+00
  0.00000000E+00  0.00000000E+00  0.00000000E+00
  0.00000000E+00  0.00000000E+00  0.00000000E+00
  0.00000000E+00  0.00000000E+00  0.00000000E+00
  0.00000000E+00  0.00000000E+00  0.00000000E+00
  0.00000000E+00  0.00000000E+00  0.00000000E+00
  0.00000000E+00  0.00000000E+00  0.00000000E+00
  0.00000000E+00  0.00000000E+00  0.00000000E+00
  0.00000000E+00  0.00000000E+00  0.00000000E+00
  0.00000000E+00  0.00000000E+00  0.00000000E+00
  0.00000000E+00  0.00000000E+00  0.00000000E+00
  0.00000000E+00  0.00000000E+00  0.00000000E+00
  0.00000000E+00  0.00000000E+00  0.00000000E+00
  0.00000000E+00  0.00000000E+00  0.00000000E+00
  0.00000000E+00  0.00000000E+00  0.00000000E+00
  0.00000000E+00  0.00000000E+00  0.00000000E+00
  0.00000000E+00  0.00000000E+00  0.00000000E+00
  0.00000000E+00  0.00000000E+00  0.00000000E+00
  0.00000000E+00  0.00000000E+00  0.00000000E+00
  0.00000000E+00  0.00000000E+00  0.00000000E+00
  0.00000000E+00  0.00000000E+00  0.00000000E+00
  0.00000000E+00  0.00000000E+00  0.00000000E+00
  0.00000000E+00  0.00000000E+00  0.00000000E+00
  0.00000000E+00  0.00000000E+00  0.00000000E+00
  0.00000000E+00  0.00000000E+00  0.00000000E+00
  0.00000000E+00  0.00000000E+00  0.00000000E+00
  0.00000000E+00  0.00000000E+00  0.00000000E+00
  0.00000000E+00  0.00000000E+00  0.00000000E+00
  0.00000000E+00  0.00000000E+00  0.00000000E+00
  0.00000000E+00  0.00000000E+00  0.00000000E+00
  0.00000000E+00  0.00000000E+00  0.00000000E+00
  0.00000000E+00  0.00000000E+00  0.00000000E+00
  0.00000000E+00  0.00000000E+00  0.00000000E+00
  0.00000000E+00  0.00000000E+00  0.00000000E+00
  0.00000000E+00  0.00000000E+00  0.00000000E+00
  0.00000000E+00  0.00000000E+00  0.00000000E+00
  0.00000000E+00  0.00000000E+00  0.00000000E+00
  0.00000000E+00  0.00000000E+00  0.00000000E+00
  0.00000000E+00  0.00000000E+00  0.00000000E+00
  0.00000000E+00  0.00000000E+00  0.00000000E+00
  0.00000000E+00  0.00000000E+00  0.00000000E+00
  0.00000000E+00  0.00000000E+00  0.00000000E+00
  0.00000000E+00  0.00000000E+00  0.00000000E+00
  0.00000000E+00  0.00000000E+00  0.00000000E+00
  0.00000000E+00  0.00000000E+00  0.00000000E+00
  0.00000000E+00  0.00000000E+00  0.00000000E+00
  0.00000000E+00  0.00000000E+00  0.00000000E+00
  0.00000000E+00  0.00000000E+00  0.00000000E+00
  0.00000000E+00  0.00000000E+00  0.00000000E+00
  0.00000000E+00  0.00000000E+00  0.00000000E+00