In2O3                                   
   1.00000000000000     
     8.0321537556291958   -0.0698583273099954   -0.0282035994287910
    -0.0684807766021160    8.1208259085443277    0.0051242239821842
    -0.0260460952551895    0.0072266850358389    8.1983330897783304
   In   O 
    16    24
Direct
  0.0099368747241895  0.9846770789417714  0.9664067854295306
  0.0371722207195613  0.9683670559173116  0.4630162484761313
  0.7397349449907609  0.2540275733926295  0.2683668560194652
  0.0321778584609201  0.4770949138606912  0.4695147233901020
  0.5145998338922517 -0.0010966214939555  0.9775119204230014
  0.5248483241718735  0.9683774733868811  0.4728414331214889
  0.5131159195975057  0.5135292699023811  0.9834082534444581
  0.2915955200652038  0.7230812921589820  0.7441009793970619
  0.2499017999300700  0.2521590696595589  0.2439800819709153
  0.2711128361758398  0.2241007992071254  0.7377976981936289
  0.2540491783409706  0.7499634999447304  0.2421439224690579
  0.0070579428734738  0.5080569348509137  0.9675642322536518
  0.5244225362544013  0.4821080841275162  0.4744443712467072
  0.7999938544616113  0.2044884189140612  0.7079174443708731
  0.7536357042396616  0.7524447806674238  0.2501153667564432
  0.7884580204054225  0.7221618013869826  0.7402616191473359
  0.9905716181372152  0.2167717126200958  0.3618272724372052
  0.4081934827531095  0.9851889950746533  0.7184982421704271
  0.7825050188417281  0.5103694730356576  0.3687136954119066
  0.4941924820023152  0.3730017711474782  0.2120903927922475
  0.8359544468513104  0.2717903848145223  0.0174550187481105
  0.4962822048728741  0.7201697527540420  0.3588966314375288
  0.6225648020543354  0.2224261394516740  0.5172493915683105
  0.1323762333632123  0.5026864473381825  0.2038580481794037
  0.0410153922340626  0.0915590357730299  0.7054531048304218
  0.9096505829002171  0.4562714746879039  0.7114711006105271
  0.7565558030903442  0.9689004972089333  0.8538942896229083
  0.2807011558376905  0.3593513430107467  0.5073718256278649
  0.7583318518249872  0.6317670599671050  0.0101528897163299
  0.1547700613581459  0.7198098279807150  0.5071807684813510
  0.7856592051768302  0.8639813544661041  0.5098659584210510
  0.0023817120378305  0.8646571614417027  0.2038483595788455
  0.5414415494167698  0.6059425298445010  0.7130137685580827
  0.0449531458837758  0.7498637732643542  0.8485869764293588
  0.6676504727794348  0.2765665141956361  0.9303773476310341
  0.2516813520018203  0.1258631742544435  0.0013454063671020
  0.2663289028251511  0.4611554129458661  0.8620017135704434
  0.3887562142589377  0.7593783663579865  0.0082202016688498
  0.6379564336950628  0.0066860747636430  0.2151253619001917
  0.2860229782415231  0.0085394795014779  0.3531008895477051
 
  0.00000000E+00  0.00000000E+00  0.00000000E+00
  0.00000000E+00  0.00000000E+00  0.00000000E+00
  0.00000000E+00  0.00000000E+00  0.00000000E+00
  0.00000000E+00  0.00000000E+00  0.00000000E+00
  0.00000000E+00  0.00000000E+00  0.00000000E+00
  0.00000000E+00  0.00000000E+00  0.00000000E+00
  0.00000000E+00  0.00000000E+00  0.00000000E+00
  0.00000000E+00  0.00000000E+00  0.00000000E+00
  0.00000000E+00  0.00000000E+00  0.00000000E+00
  0.00000000E+00  0.00000000E+00  0.00000000E+00
  0.00000000E+00  0.00000000E+00  0.00000000E+00
  0.00000000E+00  0.00000000E+00  0.00000000E+00
  0.00000000E+00  0.00000000E+00  0.00000000E+00
  0.00000000E+00  0.00000000E+00  0.00000000E+00
  0.00000000E+00  0.00000000E+00  0.00000000E+00
  0.00000000E+00  0.00000000E+00  0.00000000E+00
  0.00000000E+00  0.00000000E+00  0.00000000E+00
  0.00000000E+00  0.00000000E+00  0.00000000E+00
  0.00000000E+00  0.00000000E+00  0.00000000E+00
  0.00000000E+00  0.00000000E+00  0.00000000E+00
  0.00000000E+00  0.00000000E+00  0.00000000E+00
  0.00000000E+00  0.00000000E+00  0.00000000E+00
  0.00000000E+00  0.00000000E+00  0.00000000E+00
  0.00000000E+00  0.00000000E+00  0.00000000E+00
  0.00000000E+00  0.00000000E+00  0.00000000E+00
  0.00000000E+00  0.00000000E+00  0.00000000E+00
  0.00000000E+00  0.00000000E+00  0.00000000E+00
  0.00000000E+00  0.00000000E+00  0.00000000E+00
  0.00000000E+00  0.00000000E+00  0.00000000E+00
  0.00000000E+00  0.00000000E+00  0.00000000E+00
  0.00000000E+00  0.00000000E+00  0.00000000E+00
  0.00000000E+00  0.00000000E+00  0.00000000E+00
  0.00000000E+00  0.00000000E+00  0.00000000E+00
  0.00000000E+00  0.00000000E+00  0.00000000E+00
  0.00000000E+00  0.00000000E+00  0.00000000E+00
  0.00000000E+00  0.00000000E+00  0.00000000E+00
  0.00000000E+00  0.00000000E+00  0.00000000E+00
  0.00000000E+00  0.00000000E+00  0.00000000E+00
  0.00000000E+00  0.00000000E+00  0.00000000E+00
  0.00000000E+00  0.00000000E+00  0.00000000E+00
