In2O3 structure 45 - random placement wi
   1.00000000000000     
     8.0892033365049567   -0.0038809418413916    0.0011564771959754
    -0.0038270157901042    8.0137389501011729    0.0835358940330219
     0.0010799324172125    0.0831834960762281    8.0105269552322369
   In   O 
    16    24
Direct
  0.6513770708463045  0.3851139606912203  0.6623065277817897
  0.3786821530179127  0.6349657915326583  0.4124820636557935
  0.6511333819748450  0.8852634087046761  0.1622780199596386
  0.1510861832447512  0.8547946837056564  0.6327378383234553
  0.3786832766230895  0.1352480123288970  0.9123231412436276
  0.8786299262849153  0.1051569825882677  0.3823908297393158
  0.1510514050800889  0.8574092929720326  0.1304447053951231
  0.6511182852454456  0.3870133907688781  0.1599828399423754
  0.8786556612106514  0.1075627954060430  0.8800077828239257
  0.3782772223727624  0.6374818254644857  0.9103453196415960
  0.8786091568255294  0.6074757214396550  0.3800272904811299
  0.1511732468490130  0.3549518133288741  0.1327612322264384
  0.3784140708004333  0.1372529830649228  0.4103511783025536
  0.1509034314342477  0.3572990292333573  0.6302623515718843
  0.6512797051397841  0.8872026791765810  0.6598739002972656
  0.8784243838984332  0.6054145455088726  0.8827056816310638
  0.4155556078010161  0.2499087750811633  0.6644786492416127
  0.1147620307776350  0.1025675565940556  0.5170519757714994
  0.6145760345569521  0.0001285464522659  0.9141013858931850
  0.6147098584492249  0.1393748752005017  0.2758159518757843
  0.1147009215164368  0.2424614986328405  0.8784968127701397
  0.4149036892593390  0.3897322722914225  0.0249685059156599
  0.2655277532562737  0.1011973645479701  0.1663103796766729
  0.4150534623694466  0.8895953493910654  0.5252337541696260
  0.2655036405577880  0.6011303274472900  0.6664261506485926
  0.7654653580034262  0.8512596684202897  0.4163154137832594
  0.9151956554452599  0.3532683068099672  0.2679147412317843
  0.2647165206409220  0.3912861192731753  0.3767365458303243
  0.9152370800882912  0.9930466603104735  0.1279327212743042
  0.7658017390835804  0.1414724204352128  0.6263443957434374
  0.7649966505080756  0.6414823122922504  0.1265542491165068
  0.4154166498194623  0.7500832043787780  0.1646138986922016
  0.9151349123337330  0.8531750315618476  0.7678330712802269
  0.6146416380742109  0.6393992730466659  0.7758677302968876
  0.1146876202599263  0.7422730299967151  0.3785575765355751
  0.2646591410853102  0.8915172198712016  0.8766583861667442
  0.1145027706027121  0.6027047421571595  0.0174432910700281
  0.7654033142211524  0.3513157496488432  0.9163954854598678
  0.6144426883705206  0.4997016180891871  0.4140731775378312
  0.9153825899887058  0.4932977521088259  0.6281098719005804
 
  0.00000000E+00  0.00000000E+00  0.00000000E+00
  0.00000000E+00  0.00000000E+00  0.00000000E+00
  0.00000000E+00  0.00000000E+00  0.00000000E+00
  0.00000000E+00  0.00000000E+00  0.00000000E+00
  0.00000000E+00  0.00000000E+00  0.00000000E+00
  0.00000000E+00  0.00000000E+00  0.00000000E+00
  0.00000000E+00  0.00000000E+00  0.00000000E+00
  0.00000000E+00  0.00000000E+00  0.00000000E+00
  0.00000000E+00  0.00000000E+00  0.00000000E+00
  0.00000000E+00  0.00000000E+00  0.00000000E+00
  0.00000000E+00  0.00000000E+00  0.00000000E+00
  0.00000000E+00  0.00000000E+00  0.00000000E+00
  0.00000000E+00  0.00000000E+00  0.00000000E+00
  0.00000000E+00  0.00000000E+00  0.00000000E+00
  0.00000000E+00  0.00000000E+00  0.00000000E+00
  0.00000000E+00  0.00000000E+00  0.00000000E+00
  0.00000000E+00  0.00000000E+00  0.00000000E+00
  0.00000000E+00  0.00000000E+00  0.00000000E+00
  0.00000000E+00  0.00000000E+00  0.00000000E+00
  0.00000000E+00  0.00000000E+00  0.00000000E+00
  0.00000000E+00  0.00000000E+00  0.00000000E+00
  0.00000000E+00  0.00000000E+00  0.00000000E+00
  0.00000000E+00  0.00000000E+00  0.00000000E+00
  0.00000000E+00  0.00000000E+00  0.00000000E+00
  0.00000000E+00  0.00000000E+00  0.00000000E+00
  0.00000000E+00  0.00000000E+00  0.00000000E+00
  0.00000000E+00  0.00000000E+00  0.00000000E+00
  0.00000000E+00  0.00000000E+00  0.00000000E+00
  0.00000000E+00  0.00000000E+00  0.00000000E+00
  0.00000000E+00  0.00000000E+00  0.00000000E+00
  0.00000000E+00  0.00000000E+00  0.00000000E+00
  0.00000000E+00  0.00000000E+00  0.00000000E+00
  0.00000000E+00  0.00000000E+00  0.00000000E+00
  0.00000000E+00  0.00000000E+00  0.00000000E+00
  0.00000000E+00  0.00000000E+00  0.00000000E+00
  0.00000000E+00  0.00000000E+00  0.00000000E+00
  0.00000000E+00  0.00000000E+00  0.00000000E+00
  0.00000000E+00  0.00000000E+00  0.00000000E+00
  0.00000000E+00  0.00000000E+00  0.00000000E+00
  0.00000000E+00  0.00000000E+00  0.00000000E+00
