In2O3 structure 18 - random placement wi
   1.00000000000000     
     8.0104017810458270   -0.0008798708301734   -0.0864726285741317
    -0.0009241813055841    8.0900858216168707   -0.0016718462421211
    -0.0863700311438934   -0.0015390440163518    8.0098169292540522
   In   O 
    16    24
Direct
  0.5120153460327558  0.0664162822963264  0.1073218289203947
  0.9821567429487469  0.5662559336338830  0.1373146058796756
  0.2344360125261818  0.2937728164198469  0.8899156030835099
  0.2648171682275816  0.7936383028561879  0.3595590654978320
  0.2624821677503358  0.7937749476838122  0.8575223938431356
  0.4847064809764223  0.5659002773126183  0.1394617151769615
  0.0122946710010135  0.0660882597406056  0.6072829267530974
  0.7345414664035592  0.2935633918724901  0.3899678225701723
  0.7648275487221726  0.7938038933215102  0.8596290151360195
  0.5141653112287931  0.0660794708974010  0.6097217540214032
  0.2321682168229887  0.2940406311274839  0.3875727200872358
  0.9845290066036506  0.5663044832559363  0.6395251631427112
  0.4822513576581038  0.5661956750495621  0.6373280840135396
  0.0144989046718685  0.0660456303983587  0.1096941137523489
  0.7324971341211771  0.2936176790004439  0.8872215321101314
  0.7620866583771689  0.7938341615648189  0.3574350298890783
  0.7682522475595905  0.1794500818661769  0.6434425988148581
  0.7661866678976916  0.0300906408498985  0.9941102160134065
  0.2684934785129341  0.1804797263522097  0.1437104824317743
  0.7281087057766173  0.6806750775794801  0.1033082771845002
  0.4803633062519632  0.3302736048255103  0.5022282914139889
  0.6271957546256902  0.0296518884504283  0.3555056384913708
  0.2281257750245747  0.6806761368570338  0.6032992590101302
  0.0185444849948901  0.6804169021105491  0.8937414530583875
  0.2304732665088041  0.5297129371526338  0.2525582920960562
  0.9804470131838470  0.3304098748209222  0.0022359293387737
  0.2660229805539756  0.0300632671545585  0.4940266079582195
  0.3690760525256064  0.5300487614094338  0.8912152545586493
  0.5183976329323248  0.6797734831025065  0.3935204516963628
  0.9782641826393016  0.1807485969302056  0.3531804819324376
  0.6202555622953035  0.3301121041982598  0.1417096948817251
  0.8772252513839949  0.8302598510181266  0.6053782623306709
  0.3772419352627709  0.8304099735642954  0.1055874324675310
  0.1278128545275478  0.0296759370191202  0.8555520373340292
  0.4781451129713025  0.1806939035135769  0.8532081388543693
  0.5167968430650662  0.8302083497981505  0.7450471256499706
  0.0166375018171963  0.8302310117990928  0.2452079904096467
  0.1193679147972517  0.3301206578542796  0.6420446907704386
  0.8689759664787698  0.5299927078546152  0.3911995767117497
  0.7304871119244063  0.5296281641949824  0.7526600057030416
 
  0.00000000E+00  0.00000000E+00  0.00000000E+00
  0.00000000E+00  0.00000000E+00  0.00000000E+00
  0.00000000E+00  0.00000000E+00  0.00000000E+00
  0.00000000E+00  0.00000000E+00  0.00000000E+00
  0.00000000E+00  0.00000000E+00  0.00000000E+00
  0.00000000E+00  0.00000000E+00  0.00000000E+00
  0.00000000E+00  0.00000000E+00  0.00000000E+00
  0.00000000E+00  0.00000000E+00  0.00000000E+00
  0.00000000E+00  0.00000000E+00  0.00000000E+00
  0.00000000E+00  0.00000000E+00  0.00000000E+00
  0.00000000E+00  0.00000000E+00  0.00000000E+00
  0.00000000E+00  0.00000000E+00  0.00000000E+00
  0.00000000E+00  0.00000000E+00  0.00000000E+00
  0.00000000E+00  0.00000000E+00  0.00000000E+00
  0.00000000E+00  0.00000000E+00  0.00000000E+00
  0.00000000E+00  0.00000000E+00  0.00000000E+00
  0.00000000E+00  0.00000000E+00  0.00000000E+00
  0.00000000E+00  0.00000000E+00  0.00000000E+00
  0.00000000E+00  0.00000000E+00  0.00000000E+00
  0.00000000E+00  0.00000000E+00  0.00000000E+00
  0.00000000E+00  0.00000000E+00  0.00000000E+00
  0.00000000E+00  0.00000000E+00  0.00000000E+00
  0.00000000E+00  0.00000000E+00  0.00000000E+00
  0.00000000E+00  0.00000000E+00  0.00000000E+00
  0.00000000E+00  0.00000000E+00  0.00000000E+00
  0.00000000E+00  0.00000000E+00  0.00000000E+00
  0.00000000E+00  0.00000000E+00  0.00000000E+00
  0.00000000E+00  0.00000000E+00  0.00000000E+00
  0.00000000E+00  0.00000000E+00  0.00000000E+00
  0.00000000E+00  0.00000000E+00  0.00000000E+00
  0.00000000E+00  0.00000000E+00  0.00000000E+00
  0.00000000E+00  0.00000000E+00  0.00000000E+00
  0.00000000E+00  0.00000000E+00  0.00000000E+00
  0.00000000E+00  0.00000000E+00  0.00000000E+00
  0.00000000E+00  0.00000000E+00  0.00000000E+00
  0.00000000E+00  0.00000000E+00  0.00000000E+00
  0.00000000E+00  0.00000000E+00  0.00000000E+00
  0.00000000E+00  0.00000000E+00  0.00000000E+00
  0.00000000E+00  0.00000000E+00  0.00000000E+00
  0.00000000E+00  0.00000000E+00  0.00000000E+00
