Amorphous GeAsSeSi                      
   1.00000000000000     
    19.0036188657994742    0.0000000000000000    0.0000000000000000
     0.0000000000000000   19.0036188657994742    0.0000000000000000
     0.0000000000000000    0.0000000000000000   19.0036188657994742
   Ge   Si   Se
   108    24   108
Direct
  0.1791561246696586  0.0997848338904716  0.7410675456366430
  0.8009906380787173  0.7079149479105687  0.0764701115020710
  0.8734660623851246  0.5568745151852632  0.6240365441370015
  0.7080332552386388  0.0993333137825928  0.2826584708597669
  0.7044747998091599  0.9822379797975714  0.3494971922056452
  0.9542162709176156  0.1408252524755469  0.1631772717742270
  0.3042896211619038  0.9495334406595329  0.1618121105884451
  0.3376460057725358  0.2999135430418470  0.5843998356473916
  0.2328176796137759  0.3886711109123136  0.4300273937058592
  0.1935735944507824  0.6894851624622453  0.5224123978851356
  0.0475855635082553  0.9661313303109010  0.5016175143176148
  0.5858572355129098  0.1158176202606113  0.1206112122415577
  0.2264272125405716  0.3615119597150783  0.2162644648397395
  0.2172965015477775  0.7479538928673289  0.8216826046603115
  0.9385985296212337  0.8520292825171176  0.9454503055547183
  0.5125802922629801  0.9842672608958873  0.9607033493866411
  0.5538650470748917  0.8230423907182124  0.3565691611598470
  0.0255380840273102  0.5476605936659370  0.1657551686770370
  0.3556053632494600  0.9504470177385165  0.3719456078543095
  0.2356994960880843  0.7276571642310894  0.3210077633786385
  0.8590189568888698  0.6268448100550323  0.9237341437299170
  0.0021199127360914  0.3768144688275706  0.7540562263579879
  0.6479442116696739  0.8879381067922439  0.5407812183350676
  0.6682518063395561  0.8715005155109217  0.4083778053011365
  0.8800624981230111  0.1088947721347555  0.5176266277347814
  0.9832684489774953  0.9458494259032256  0.8379886857261127
  0.8426760606928402  0.5733644556108968  0.4220828504366618
  0.6463456627327061  0.8075677242295533  0.7484200304247574
  0.6473752713577272  0.2710719960910759  0.9762651548596758
  0.3759821739340038  0.0172961667350074  0.5559841632290666
  0.2181058739887191  0.5120622815795417  0.4747167093716638
  0.5396730040638507  0.5536125117228958  0.5055556968586338
  0.5617385814612441  0.9809574061668928  0.5929959581509957
  0.6409276746380752  0.4546555810456986  0.3554885174448346
  0.5496763163470454  0.5542379590048134  0.9198212503154766
  0.1225600294819458  0.4002538986538884  0.6174727826210793
  0.3787381385782995  0.0874379641298986  0.7798239707115651
  0.9847593435829941  0.8056970008679244  0.1910331110978265
  0.4845092894650246  0.6449518246716501  0.1893493118781323
  0.7132568883990665  0.4432253532482732  0.5775216936575953
  0.6701873069895510  0.1398193254120353  0.6985751241336732
  0.3032782435490889  0.7445529593672978  0.9281739128410663
  0.4219572869909281  0.4595693082111210  0.1630074765391439
  0.1182164547237950  0.8602560183542340  0.4432512250157123
  0.9079766695952936  0.5780376488551568  0.2232624881186465
  0.1808211580904228  0.8910222793454196  0.1271883734152866
  0.8095798231574299  0.4787992323534817  0.2153412693847023
  0.1908766044877192  0.5167563178422521  0.5992596411246637
  0.6270685722507428  0.4356647526102626  0.0256805465496743
  0.0603187794052113  0.3168490704390058  0.9797615167049950
  0.4051607375250184  0.5495829342597874  0.3092206765979091
  0.5830931003819630  0.7104844461677865  0.2746705001600376
  0.1889473718930990  0.8539017423159010  0.3198573600228575
  0.4654968287524069  0.0385512280734385  0.3962823113845357
  0.6179606681692653  0.2473997189202827  0.3849485172076727
  0.1061231040315554  0.5966925392517297  0.4542015126437463
  0.1086130805578926  0.2200921535393457  0.2756931339981704
  0.5936694053195023  0.7554289660692955  0.0398785679306478
  0.5827693074935923  0.0817648580271595  0.3472315277344347
  0.0973840510645501  0.8776710365806091  0.2322576179401619
  0.1268537431078950  0.6510114626770848  0.3333477862085293
  0.5709051167185394  0.1164543615128560  0.9848464022037129
  0.3338675093671780  0.2168297073672721  0.9345642813452799
  0.4346113489968854  0.1246765180097186  0.5032441444443690
  0.5783166184836041  0.7836797057509327  0.8971388750421410
  0.5493501477986587  0.3700155001761092  0.5056960136793425
  0.0732934163879482  0.0060550380481385  0.2904912648046213
  0.7599198771199180  0.6443921220208237  0.3300026511015933
  0.3663449794233048  0.5150344340703784  0.7938717055158553
  0.0686023080892853  0.7412385757392680  0.1118039595456113
  0.1245000422726925  0.4982344528651477  0.9391046192177671
  0.1615601337372413  0.5442432279379440  0.8077918988539263
  0.6741388317527394  0.9331458379652692  0.2244659464393290
  0.6816842769844316  0.7929347999238051  0.2162201606906911
  0.8090096369488573  0.5543447525651126  0.7542507655096197
  0.3395766401100146  0.8803893375156209  0.4863559257275938
  0.7878133049421807  0.7511037964061429  0.2695283459666080
  0.7311713543965217  0.1377745696171796  0.4909137259372625
  0.2620342544874263  0.5526449382085244  0.1003053602228573
  0.8013496313831369  0.3083601751577581  0.0694110307714400
  0.8612471812923705  0.3591452505491566  0.4978761130421026
  0.0613111684276355  0.4804141309249036  0.3617679334920039
  0.9568867390000897  0.1810915881176788  0.8256821271296771
  0.3363955367119091  0.1674847143408424  0.2048722040799022
  0.7656859252322139  0.2614847956421219  0.8200022710095346
  0.7952799653261502  0.4035634921672699  0.9766640808595152
  0.7968507017741927  0.3936072691029996  0.6919121899758597
  0.5513758343617442  0.3196448107081665  0.1961515560960848
  0.5907962080977154  0.5532723254695558  0.2725173204055079
  0.3280784663678520  0.5226331074729338  0.9902088451094297
  0.4944832306013098  0.4046347096378574  0.9530378860314439
  0.4768849980232823  0.9447247767738256  0.4910958215630638
  0.2594108117885537  0.6324128256930167  0.6274557359785198
  0.5074020025036582  0.0513720125298185  0.7997773059874135
  0.1972321200653898  0.4397900271955000  0.7211754150463490
  0.4650638489803872  0.7173967380945235  0.7727192107061670
  0.3249870060105095  0.6469495105452555  0.2631903466462269
  0.3403376948583305  0.3200412050717436  0.3833736221845997
  0.8842645510471214  0.4601858226339104  0.8718555342016883
  0.5697322683652959  0.9400832705858685  0.7684196589778095
  0.2533636500175159  0.0619185985935211  0.2221180987823647
  0.9701825304814664  0.0522228131000183  0.6497391018306156
  0.0279177186113118  0.7276720910920644  0.3027722691291050
  0.3908423383692671  0.6571183032047960  0.6108140612693634
  0.4510085714089266  0.9070540527534683  0.1612565702807622
  0.9468534724897471  0.4200269174937848  0.3149262472466066
  0.3328652175218674  0.5773006144883006  0.4303721468084840
  0.8857771244491233  0.7060253383296352  0.1892063126201341
  0.0009446323658751  0.3299691071770183  0.1450352934756272
  0.8030383388519430  0.7309212582342867  0.7447063072644108
  0.0600304711571693  0.6178690817550233  0.0640367886775851
  0.7805220187218826  0.8293330273235675  0.3761581268547267
  0.1352384406274890  0.2060284973891956  0.8083182941160386
  0.8363006455257798  0.0333187963976942  0.2610388830309506
  0.8136855012800689  0.8031708230303950  0.5708536435651969
  0.8112446316867786  0.0241779602791682  0.0826666701341333
  0.6004041475219239  0.1180642022303568  0.8538776024742730
  0.8008213114308149  0.2630716265921939  0.6419162057239397
  0.1824510913326746  0.9416242914667412  0.8718085483656639
  0.2340307184908125  0.0912654059607118  0.4515154706946887
  0.0431318501787334  0.0643086250988914  0.4153677244155909
  0.4060710465892477  0.0078859204218663  0.6846812844700578
  0.6352030191415676  0.9969249667630925  0.1128995155480778
  0.3826316809587450  0.3367959755612593  0.9840127304690729
  0.1355286379918098  0.8798343126314156  0.0055311099999830
  0.0739762080111804  0.5741409395553756  0.6313696242698259
  0.4054967114371325  0.0852280660103473  0.0501299650950531
  0.3005533288496212  0.2646528106057723  0.7568185831536823
  0.8491183419128182  0.9229963312792679  0.5897225234222232
  0.9147185581942158  0.0090763944566568  0.0224447035330222
  0.1822519896880193  0.6561586927833560  0.7320306417279452
  0.7330716905662052  0.6010143746775707  0.0245088284533744
  0.8837345172694484  0.9987868552678731  0.9079467050027334
  0.4513498341750860  0.1781899260338860  0.9938505847284236
  0.1974346983786240  0.7615195300423661  0.1373570209059432
  0.2401356451937492  0.2389487764896993  0.2705931041132052
  0.6156407329709649  0.6243906642618090  0.0627680931816733
  0.3386803885084523  0.4223821634820903  0.2784247059584853
  0.2117873062792867  0.2970055351552500  0.8390772601908912
  0.0070949166377142  0.4415702137601643  0.0888428648985139
  0.7278594202019376  0.6048627188294647  0.9029913153111672
  0.3242149344975754  0.8775752079693211  0.2685571867071402
  0.0197018896074890  0.0662815596741345  0.7782050148132842
  0.4023837547800811  0.2528470605879878  0.8176769055296992
  0.0462023945852419  0.5284317343005314  0.7422003183173393
  0.1313969775617394  0.0973088084962652  0.2085218828031178
  0.1365697098997759  0.3676531442647641  0.3416042657240754
  0.0634330787900602  0.1941278366238808  0.9158796786520117
  0.7652626777544410  0.4970456550770063  0.0649452392505843
  0.3460695056328934  0.7918401424538081  0.8087860834743594
  0.4835850908760717  0.6803854335148501  0.8988833665177146
  0.9231547017551809  0.9575631714759970  0.4975658356410854
  0.3897263205024531  0.9883415073221561  0.9822583379558206
  0.9573025723078548  0.0153660769941043  0.2201951375930719
  0.9708653537618299  0.3608229701815203  0.4353932777903308
  0.3186206418364839  0.3716667686467663  0.7003129312691654
  0.8809237804705816  0.7383981965165324  0.6493920986550505
  0.8232828414977568  0.1258694512692735  0.1490440001647758
  0.8881297273495042  0.6518687920572050  0.7942950049803170
  0.1761951537469224  0.6097473685987498  0.0138953632287453
  0.8097569242575238  0.4601194858994648  0.3496792449556628
  0.2867265533965233  0.4105890432570628  0.9511626109550904
  0.0868088306325860  0.9917132527542663  0.6199244363401238
  0.7651636574102714  0.5572529683587485  0.5403624268350427
  0.5315845685495209  0.9228312773648895  0.2745219950836468
  0.9802573438488915  0.5806032040854457  0.5519628848125225
  0.6901255162080572  0.3872258565058915  0.4568253265993566
  0.0869656361060312  0.9710504964981080  0.9363210840537580
  0.9889868341617000  0.1009458092192949  0.0396739253768242
  0.2436096054019532  0.0379880462150237  0.8470344020441453
  0.6977079831430740  0.0509145276842113  0.8223618363861989
  0.3243203420850939  0.6007898142888349  0.8899360901515574
  0.6008219928786170  0.1059096316364590  0.4798506358267616
  0.3170007059929507  0.1760921621614550  0.4556001702918710
  0.7682338229438942  0.8309293387706134  0.7965679744032907
  0.0750297748400121  0.7742727282346906  0.9810873248617779
  0.0186593381989456  0.5866507774756761  0.9495606378314598
  0.0225439754839986  0.7831717115806047  0.4263271601922800
  0.5573005879867186  0.9070925042498662  0.0613713895618565
  0.7737044129324124  0.2236280425483597  0.9655225398517233
  0.2726968487817951  0.1826769457662441  0.6773918439685582
  0.9010948025390377  0.4207447396695194  0.6204971907732727
  0.1206339462334465  0.5483738344376498  0.2530937339460917
  0.7391538080525842  0.9825736672953578  0.5695161091136213
  0.4467476417644828  0.5094877545486203  0.0197945217137377
  0.7103289477328782  0.0034527347342384  0.0170857160398924
  0.2507822400601386  0.8846296346385212  0.9587859209218136
  0.9439103655772476  0.2882316441348216  0.0440693720460111
  0.4333373633616521  0.6050963198836287  0.7189351900736686
  0.4756570016844993  0.8181906288558335  0.4652253110463062
  0.6635134819437102  0.3125198450878410  0.0969387708981731
  0.3994462709495055  0.3399762379900977  0.1054171378881167
  0.4860995919737953  0.4661696061144400  0.8338754539438373
  0.0099026549863547  0.4084645115726931  0.8968356986612509
  0.6935027524965008  0.7739737342387095  0.5947907677052252
  0.4837366745196374  0.9012331259871283  0.6748191334110999
  0.8362612888158535  0.7572217194034079  0.9600106606911234
  0.9089314990703496  0.9403232315247465  0.6916920156304571
  0.4323430904080612  0.7028557392331897  0.2956440878582667
  0.4705678608466539  0.0573929649974280  0.1465633860758946
  0.4909045102066067  0.8809274885604064  0.8728152156772961
  0.4799125874033577  0.1079647819564430  0.6842332858298847
  0.5099551537329275  0.7671548589861399  0.1314970925705220
  0.7179493074027515  0.6536792396425297  0.7233818681640254
  0.1144577773370843  0.2791862835150369  0.1550962099594280
  0.1841109167186425  0.8145181118912813  0.5399810215345282
  0.5563176938457186  0.4559454153276562  0.1768648873733691
  0.5273950325951190  0.1990648045813406  0.3065580404658624
  0.9210097394588553  0.3195152191568698  0.2338065292874972
  0.2943785545946129  0.1152807868075531  0.0777951167600501
  0.8086740029394455  0.1682009651951790  0.7198385539708446
  0.1508120901219402  0.8577179741300576  0.7912492908078661
  0.6492553861355416  0.3368847840589109  0.2906012196833948
  0.6998325181762750  0.2427517080032116  0.5756359402865611
  0.3407546017615186  0.6613302036453574  0.1334087747929846
  0.5180941528320048  0.4543751163840761  0.4048086064898639
  0.0386511691901062  0.2450093343949548  0.7367411642799526
  0.5866837763202829  0.4700442467448563  0.5971656448372390
  0.6784848402246068  0.3832830097178629  0.9114610993313508
  0.7433872548727000  0.1941913700501895  0.3691125247204656
  0.9558732114106889  0.9041498932288856  0.0608958092115433
  0.3983284563791418  0.3738462570764030  0.4910263886475925
  0.2416080006830000  0.0159999157246195  0.3524691037016502
  0.6371872311241839  0.6562923208811259  0.3832605722023313
  0.6234410370605791  0.2217235927982464  0.7921101998357044
  0.9434223088004269  0.1314776835383946  0.4042496313187763
  0.8339951339192686  0.9370321892019481  0.3563068259048623
  0.2081271212549611  0.3225277149629636  0.5461796785568036
  0.8006661914477630  0.9374445786954378  0.1727488202174461
  0.8760012302603207  0.3506892639186811  0.8028696876956278
  0.7184322560828350  0.7996349735548507  0.0954390236702734
  0.9020461827440968  0.2458305345373767  0.5701195716264090
  0.1294316769324102  0.1479470531423375  0.4477721933764392
  0.7126860997802592  0.5817420357013675  0.2221400070604017
  0.8447243290008255  0.7660612345091583  0.4538263043115134
  0.2525567516316830  0.0023874786673973  0.5314005645771566
  0.9626732197202389  0.6129625703797622  0.3354827245913631
  0.0837686803245404  0.6903410506752838  0.6598792632753592
  0.2996023862533106  0.7038066938081112  0.4377111574482238
  0.4017948286590229  0.5460358746389963  0.5403429190818819
 
  0.26467775E-02  0.24639557E-03  0.23748390E-02
 -0.60561283E-03  0.12319788E-02  0.25153824E-02
 -0.24779119E-02  0.39819173E-03  0.24719226E-02
  0.10947769E-02  0.14932375E-02  0.79974576E-03
 -0.15485621E-02  0.15674679E-02 -0.20161474E-02
  0.11631182E-03 -0.89611658E-03 -0.12575087E-02
  0.73698361E-03 -0.34220249E-02  0.11472787E-02
  0.14193525E-02  0.14337746E-02  0.19819707E-02
 -0.68393428E-03  0.41633442E-03 -0.27409297E-02
  0.21181450E-02 -0.15611525E-02 -0.68798931E-03
  0.32270279E-02  0.59498388E-03  0.55308197E-03
 -0.17133774E-02 -0.20030733E-04  0.76686205E-03
  0.17587869E-02  0.46916413E-02 -0.10718521E-02
  0.44265162E-02  0.12494327E-02 -0.34703321E-02
  0.20169754E-02 -0.35625818E-03  0.45304682E-03
 -0.26183780E-03  0.11050614E-02 -0.87600143E-05
 -0.15968900E-02 -0.21084182E-02 -0.18466213E-02
 -0.54064142E-02 -0.53079354E-04  0.22190800E-03
 -0.24885884E-02  0.13133717E-03 -0.31744853E-04
 -0.10827339E-03 -0.19484553E-02  0.17597891E-03
  0.90483286E-03  0.22392893E-03 -0.93840087E-03
  0.14438945E-02  0.93417133E-03  0.22231580E-04
  0.35020405E-02  0.31173023E-03 -0.17916987E-02
  0.10066987E-02 -0.22449825E-02 -0.59597485E-03
  0.66558287E-03  0.20142270E-02 -0.11841782E-02
  0.45890706E-02 -0.27915421E-02  0.37743780E-03
  0.31466391E-02 -0.31018349E-02  0.34998356E-03
 -0.16364241E-02 -0.13434920E-02 -0.12445642E-03
 -0.50212913E-03  0.43518778E-04  0.52639680E-03
 -0.62566276E-03  0.50045467E-03  0.10278751E-03
 -0.29956315E-03 -0.88091856E-03 -0.15198671E-02
  0.39012903E-02  0.22179080E-02 -0.96261122E-03
 -0.22112076E-02  0.16559772E-02  0.14987145E-03
  0.24333861E-02 -0.10465421E-02 -0.34349536E-02
 -0.30482225E-02  0.85473099E-04 -0.14629928E-02
  0.26794358E-03 -0.17743505E-02 -0.34297640E-02
  0.30327266E-02 -0.90445789E-03  0.27316513E-02
  0.23755933E-02  0.13016232E-02 -0.57843837E-04
 -0.60658553E-03 -0.32937602E-02 -0.17026147E-02
 -0.27991855E-02 -0.50324814E-03 -0.77665677E-03
 -0.50255280E-02 -0.34977828E-02 -0.18176398E-02
 -0.71953687E-04  0.97157685E-03 -0.13500050E-03
  0.10171347E-02  0.37390503E-02  0.53095081E-03
 -0.10774855E-03  0.45484059E-02 -0.18830492E-02
 -0.36079701E-02  0.85570878E-03 -0.20765849E-03
  0.59965625E-03  0.11761460E-02 -0.90741260E-03
 -0.21733838E-02  0.13053459E-04  0.58087781E-03
  0.10125742E-02 -0.14156117E-02  0.55614023E-03
 -0.41484400E-02 -0.82250576E-03  0.22926011E-02
 -0.19260069E-02  0.39601368E-03  0.43679712E-02
 -0.89069215E-03 -0.16599340E-02 -0.11558399E-02
  0.34912048E-03  0.16709592E-02 -0.78240120E-03
 -0.12875246E-02  0.15739583E-02  0.17265794E-02
 -0.23264644E-03  0.26164724E-02 -0.90781785E-03
 -0.40188540E-03 -0.14066815E-02 -0.16187825E-03
 -0.62024735E-03  0.18431755E-02  0.46678287E-05
  0.12432800E-02  0.48637701E-03  0.22982162E-02
 -0.10912720E-02  0.62249504E-03  0.77582006E-03
  0.28760661E-02  0.13924534E-03  0.10289732E-02
  0.41457240E-04 -0.19530142E-02  0.48740083E-02
  0.46393253E-03 -0.29046939E-03  0.72029901E-03
 -0.14561224E-02  0.30796314E-03  0.56685316E-03
  0.35466170E-02  0.27647474E-02  0.26004103E-02
  0.15722254E-02 -0.14178972E-02 -0.14317907E-02
 -0.81690691E-03 -0.13891950E-02 -0.35223211E-02
 -0.91484187E-03 -0.27931416E-02  0.12308289E-02
 -0.23506447E-02  0.13726311E-02  0.27098104E-02
  0.53082614E-02 -0.16390537E-02  0.49140196E-03
 -0.19080527E-02  0.25446063E-02  0.10800200E-03
 -0.59209014E-03 -0.16938927E-02 -0.91460667E-03
  0.27258305E-02  0.59880221E-03  0.15234014E-03
  0.28537919E-02  0.47497959E-03 -0.90618735E-05
 -0.29495886E-03 -0.42828304E-03 -0.98764409E-03
 -0.28070675E-03  0.20420706E-03  0.10503614E-02
  0.13676259E-02 -0.12413709E-02  0.49391554E-03
 -0.10040280E-02  0.20475536E-03  0.34641598E-02
  0.87331490E-03  0.16100151E-02  0.11506956E-02
 -0.14444744E-02 -0.15564533E-02 -0.99379437E-03
  0.18120326E-02  0.72501270E-03 -0.12653807E-02
  0.19914934E-03  0.22872429E-02 -0.63540476E-03
  0.15069599E-02  0.57151117E-03  0.21239686E-03
 -0.29370238E-02  0.38189543E-03  0.22049145E-02
  0.56343308E-04 -0.28139076E-02 -0.21437661E-04
 -0.11584681E-02  0.71861734E-03  0.35676202E-02
 -0.51845146E-03 -0.19539248E-02  0.98872800E-03
  0.18269670E-02  0.27404468E-02  0.82524093E-03
  0.33334206E-02  0.60017081E-03  0.26591704E-02
 -0.11917533E-02  0.12006113E-02 -0.46306562E-03
 -0.26547452E-02  0.84053514E-03 -0.30251304E-02
  0.18138113E-02 -0.18272995E-02 -0.96440883E-03
  0.10030710E-02 -0.37795307E-03 -0.27356329E-02
  0.11319740E-02  0.46227418E-02 -0.16544468E-02
  0.65515565E-03  0.25582280E-02  0.20860786E-02
  0.18973529E-02  0.19279220E-02  0.24562218E-02
  0.27882161E-03  0.14039704E-03 -0.23524214E-03
 -0.15481582E-02 -0.16252751E-02 -0.69152010E-03
 -0.16377047E-02 -0.32606695E-02 -0.19331444E-02
 -0.93965083E-03 -0.22008222E-02 -0.74905917E-03
  0.16150624E-02  0.37828971E-02  0.14734997E-02
 -0.26609858E-03  0.11437310E-03  0.61359392E-03
 -0.11877822E-02  0.17402653E-02 -0.20977079E-02
 -0.18113269E-02  0.18715956E-02 -0.17298914E-02
  0.15367781E-02  0.14492166E-02 -0.35505496E-02
 -0.13643065E-02 -0.54880163E-03 -0.14778528E-02
  0.29258062E-02 -0.71608978E-03 -0.27869823E-02
 -0.11256883E-02  0.50201818E-02  0.21472740E-02
  0.37365291E-03  0.11394580E-02  0.23492101E-02
  0.12741160E-02 -0.71341438E-03 -0.87178750E-03
  0.51697965E-02  0.66214532E-02 -0.13932816E-02
 -0.49575728E-02 -0.43741573E-03  0.49769688E-02
  0.10188787E-02 -0.10371419E-02 -0.20270771E-02
 -0.47547663E-02  0.18845003E-04 -0.17162916E-02
 -0.10653252E-02 -0.22642232E-02 -0.39603921E-02
 -0.94725186E-03 -0.20925577E-02 -0.27318275E-02
  0.50376302E-02  0.20785551E-02 -0.41084295E-02
 -0.21361898E-02 -0.10793823E-02 -0.48502563E-04
 -0.23635347E-02 -0.11028934E-02 -0.15259329E-02
  0.61230715E-03 -0.63528584E-02 -0.42732888E-02
  0.13347144E-02 -0.34025988E-02  0.13070235E-02
 -0.34061897E-02 -0.27581465E-02 -0.72322146E-04
 -0.13507286E-02  0.76468506E-03 -0.36764436E-03
  0.12605528E-02 -0.43606568E-02 -0.26705056E-02
  0.40912243E-03 -0.16050286E-02 -0.12551147E-02
 -0.43731746E-03  0.14838932E-02  0.17118882E-02
 -0.26731873E-02 -0.25259437E-02 -0.11655974E-02
 -0.13135611E-02  0.60837908E-02 -0.12576653E-02
 -0.73459266E-03 -0.19347820E-03  0.11072007E-02
  0.39324703E-03 -0.17795694E-02  0.57363457E-02
 -0.67864968E-03 -0.21541290E-02  0.24721833E-04
  0.22487702E-02 -0.15352585E-02 -0.17551891E-02
 -0.15992891E-02  0.14624468E-02  0.29846961E-02
 -0.38603247E-02  0.48738061E-02 -0.36878219E-03
  0.98990299E-04  0.63310013E-03 -0.30739417E-03
  0.42286056E-03  0.57472920E-03 -0.31525039E-03
 -0.95587014E-03  0.33252725E-03  0.67366782E-03
  0.17250085E-02  0.18371605E-03  0.18503021E-02
  0.21112938E-02 -0.29103551E-02 -0.86361447E-03
  0.24405292E-02  0.76582961E-03 -0.36101612E-02
 -0.63775558E-03  0.21943597E-02  0.73712468E-03
  0.37086965E-02  0.23193771E-03 -0.17455068E-02
 -0.90198958E-03 -0.96631732E-03 -0.30411191E-02
  0.64980312E-03 -0.18583975E-02  0.11952098E-02
  0.12168700E-02 -0.39583235E-02  0.24598010E-02
 -0.74789373E-03 -0.97933474E-03 -0.24641635E-02
  0.17749439E-02 -0.10877375E-02  0.75064705E-03
 -0.16155400E-02  0.15966659E-02  0.12389725E-02
  0.16311730E-04  0.18533141E-02 -0.19356581E-02
 -0.20945586E-03 -0.13808001E-02  0.20083326E-02
  0.27869443E-03  0.18157354E-02 -0.96311268E-03
  0.13444018E-02 -0.11117351E-02  0.23154777E-02
 -0.19781834E-02  0.12920981E-02 -0.95198873E-03
  0.10171245E-02  0.18933693E-02  0.19907479E-03
 -0.19311608E-02 -0.20845311E-02 -0.94645052E-03
  0.13336422E-02 -0.26749239E-03 -0.13036496E-02
  0.23376032E-02 -0.32609413E-02 -0.65053848E-03
 -0.51052217E-04  0.26838206E-03  0.34351284E-03
 -0.65665994E-03 -0.93194234E-03  0.26464697E-02
  0.98346670E-03 -0.36456301E-02  0.37282840E-03
  0.23555132E-02 -0.35505390E-03  0.33759969E-03
 -0.25243429E-02  0.12113487E-02 -0.97048805E-03
 -0.11332691E-02 -0.36593770E-02 -0.15028655E-02
  0.52306118E-03 -0.18057344E-02 -0.60944962E-03
 -0.54587461E-03  0.21298031E-02  0.39464670E-03
  0.25585456E-02 -0.18778731E-02  0.19289364E-02
  0.43333780E-03 -0.58926726E-03 -0.15479771E-02
  0.10282555E-02  0.97536962E-03  0.13950109E-03
  0.99127396E-03  0.33200863E-02  0.11273466E-02
 -0.26200623E-03  0.11625405E-02  0.42180698E-02
  0.51602645E-03 -0.78316233E-03  0.45674684E-03
  0.19462825E-02  0.16909455E-02  0.38360756E-02
 -0.16550637E-02  0.32968765E-02  0.16772132E-02
 -0.25846620E-02  0.12331231E-02 -0.10946831E-02
  0.30071161E-02 -0.16627640E-02  0.24368069E-03
 -0.10388029E-02 -0.70077604E-03  0.15612385E-02
  0.15101453E-02 -0.32433209E-02 -0.14272550E-02
 -0.14602604E-02 -0.66976132E-03 -0.25141710E-02
  0.38435036E-03 -0.98101201E-03 -0.24856826E-02
 -0.81776955E-03 -0.11027872E-02  0.19805670E-02
 -0.56396316E-03 -0.94563272E-03 -0.70846869E-05
 -0.20381663E-02 -0.54874068E-03  0.11050182E-02
 -0.41576436E-02  0.98930485E-03 -0.25627872E-03
  0.25259323E-03  0.49361170E-03 -0.29263161E-02
 -0.10630043E-02  0.17729613E-02  0.19914124E-02
  0.35010109E-02  0.33260523E-04  0.13681529E-02
 -0.50963143E-03  0.22988278E-02 -0.24134154E-03
  0.39482639E-02 -0.93256602E-03  0.30319147E-02
 -0.27010996E-02 -0.17000192E-02 -0.27868084E-02
  0.22112837E-02 -0.20434999E-02 -0.36228128E-02
  0.15876770E-02 -0.10644797E-03  0.94635567E-03
 -0.46443425E-02 -0.17238785E-03  0.37262911E-03
  0.23672002E-02  0.16766455E-02  0.88817813E-03
  0.11573669E-02  0.48796221E-03  0.19811379E-02
 -0.17167545E-02 -0.28409981E-02  0.19880703E-02
 -0.22226269E-02  0.42500066E-02  0.14504439E-02
  0.19704471E-02 -0.10801708E-02 -0.10237256E-02
 -0.22760952E-02 -0.20949642E-02 -0.50032444E-02
 -0.22845695E-02 -0.26691761E-03  0.18283746E-02
  0.20147487E-02 -0.14533199E-02  0.94121824E-03
  0.24389263E-02  0.36864732E-02  0.20148986E-02
 -0.28402578E-02  0.26180852E-02  0.17931277E-04
 -0.15132042E-03  0.16356632E-03  0.10411574E-03
 -0.14200623E-02 -0.32869182E-05 -0.81650975E-04
 -0.24672167E-02 -0.31483781E-04 -0.33598529E-03
  0.10513593E-02 -0.30774233E-02  0.28830340E-02
 -0.38197722E-02 -0.80100479E-03 -0.21125639E-02
 -0.29450003E-03  0.18646766E-02 -0.22196458E-02
  0.14822089E-02  0.12973514E-02  0.23187495E-02
  0.17630666E-02 -0.18546113E-02 -0.13173244E-02
 -0.54971131E-03 -0.18453939E-02 -0.89322807E-03
 -0.70769307E-04 -0.17301614E-02  0.19281311E-02
  0.10819268E-02 -0.19061315E-03  0.13858582E-02
 -0.10845953E-02 -0.15281233E-02  0.25639061E-02
  0.48692673E-04 -0.36327871E-03 -0.27615679E-02
  0.11949516E-02  0.69790443E-03  0.12020922E-02
 -0.34039920E-02 -0.11936738E-02 -0.92401387E-04
  0.14365855E-03 -0.56403347E-03  0.22928419E-02
 -0.23305315E-03 -0.97203556E-03  0.10367972E-02
 -0.16832322E-03  0.26169596E-02  0.19727761E-02
  0.10437502E-02 -0.17611130E-02 -0.19450534E-02
 -0.19905535E-03  0.41471267E-03  0.13861170E-02
  0.96807815E-03 -0.10703556E-02 -0.33673226E-03
  0.46972210E-03  0.21314723E-02 -0.46618499E-02
 -0.15990097E-02  0.18888771E-02 -0.45403351E-03
 -0.39208697E-02 -0.16071115E-02 -0.10807541E-02
 -0.40727870E-03 -0.19194312E-02 -0.46139957E-02
 -0.11941282E-02 -0.19820452E-02 -0.12052279E-02
  0.13151258E-02  0.25478385E-02  0.46422588E-02
 -0.11771339E-03  0.16363632E-02 -0.13104324E-02
  0.11559183E-03  0.90391549E-03 -0.11141936E-03
  0.13433967E-02 -0.27505896E-02 -0.60004017E-03
 -0.23139177E-02 -0.75674984E-03  0.32887150E-02
 -0.38893945E-03  0.56129720E-03 -0.80617781E-03
 -0.69404741E-03  0.60512666E-03  0.21599853E-02
 -0.35144245E-03 -0.29702890E-04 -0.66558699E-03
 -0.16645161E-02  0.39952899E-03 -0.90749923E-03
 -0.48528120E-03 -0.11240859E-02  0.79337610E-03
 -0.24698413E-02  0.28512431E-02 -0.99235332E-03
 -0.24788004E-03  0.24817700E-03 -0.29773956E-02
  0.37340335E-03 -0.41651993E-04 -0.31756787E-03
 -0.18549087E-02 -0.30938412E-03  0.59083995E-03
 
           1
   5.00000000000000     
  0.10000000E+01  0.00000000E+00  0.00000000E+00  0.00000000E+00
  0.17985251E+00  0.99849662E-01  0.74169238E+00
  0.80083130E+00  0.70823909E+00  0.77131928E-01
  0.87281410E+00  0.55697928E+00  0.62468693E+00
  0.70832130E+00  0.99726196E-01  0.28286889E+00
  0.70406736E+00  0.98265039E+00  0.34896673E+00
  0.95424687E+00  0.14058948E+00  0.16284641E+00
  0.30448353E+00  0.94863308E+00  0.16211397E+00
  0.33801945E+00  0.30029078E+00  0.58492131E+00
  0.23263773E+00  0.38878065E+00  0.42930623E+00
  0.19413089E+00  0.68907441E+00  0.52223138E+00
  0.48434620E-01  0.96628788E+00  0.50176303E+00
  0.58540643E+00  0.11581235E+00  0.12081298E+00
  0.22688996E+00  0.36274637E+00  0.21598245E+00
  0.21846115E+00  0.74828263E+00  0.82076953E+00
  0.93912921E+00  0.85193555E+00  0.94556951E+00
  0.51251140E+00  0.98455801E+00  0.96070104E+00
  0.55344489E+00  0.82248765E+00  0.35608330E+00
  0.24115614E-01  0.54764663E+00  0.16581355E+00
  0.35495060E+00  0.95048157E+00  0.37193726E+00
  0.23567101E+00  0.72714451E+00  0.32105406E+00
  0.85925703E+00  0.62690373E+00  0.92348724E+00
  0.24998126E-02  0.37706026E+00  0.75406208E+00
  0.64886563E+00  0.88802013E+00  0.54030981E+00
  0.66851668E+00  0.87090984E+00  0.40822100E+00
  0.88023762E+00  0.10942473E+00  0.51731506E+00
  0.98447587E+00  0.94511495E+00  0.83808799E+00
  0.84350397E+00  0.57254834E+00  0.42217493E+00
  0.64591511E+00  0.80721424E+00  0.74838728E+00
  0.64724316E+00  0.27108345E+00  0.97640365E+00
  0.37581756E+00  0.17427840E-01  0.55601121E+00
  0.21802706E+00  0.51183051E+00  0.47431682E+00
  0.54069946E+00  0.55419606E+00  0.50530243E+00
  0.56115680E+00  0.98139311E+00  0.59303539E+00
  0.64156792E+00  0.45438023E+00  0.35458475E+00
  0.54887431E+00  0.55426045E+00  0.91943633E+00
  0.12263053E+00  0.39978705E+00  0.61657039E+00
  0.37953607E+00  0.87199994E-01  0.78054269E+00
  0.98538438E+00  0.80603947E+00  0.19101789E+00
  0.48434969E+00  0.64408521E+00  0.18890134E+00
  0.71252040E+00  0.44309294E+00  0.57731735E+00
  0.66886505E+00  0.13889903E+00  0.69809689E+00
  0.30325931E+00  0.74480859E+00  0.92813839E+00
  0.42222490E+00  0.46055308E+00  0.16314717E+00
  0.11818811E+00  0.86145274E+00  0.44275578E+00
  0.90702738E+00  0.57826279E+00  0.22320785E+00
  0.18097893E+00  0.89133173E+00  0.12694963E+00
  0.80900799E+00  0.47880267E+00  0.21549410E+00
  0.19114302E+00  0.51638386E+00  0.59940597E+00
  0.62597709E+00  0.43544834E+00  0.26283748E-01
  0.59812032E-01  0.31695326E+00  0.98091076E+00
  0.40492639E+00  0.54914619E+00  0.30891657E+00
  0.58318496E+00  0.71092409E+00  0.27446464E+00
  0.18860861E+00  0.85431586E+00  0.32031164E+00
  0.46543562E+00  0.39239642E-01  0.39604346E+00
  0.61785493E+00  0.24702961E+00  0.38490593E+00
  0.10595991E+00  0.59717749E+00  0.45420274E+00
  0.10894020E+00  0.22022012E+00  0.27629781E+00
  0.59338228E+00  0.75559275E+00  0.40082692E-01
  0.58352602E+00  0.81801495E-01  0.34750226E+00
  0.97394959E-01  0.87715718E+00  0.23354001E+00
  0.12697581E+00  0.65093504E+00  0.33353730E+00
  0.57052200E+00  0.11653539E+00  0.98499555E+00
  0.33480065E+00  0.21755713E+00  0.93524847E+00
  0.43502501E+00  0.12430346E+00  0.50286743E+00