Ge4
1.0
   2.0252020000000002   -3.5077539999999998    0.0000000000000000
   2.0252020000000002    3.5077539999999998    0.0000000000000000
   0.0000000000000000    0.0000000000000000   10.9933589999999999
Ge
4
direct
   0.0000000000000000    0.0000000000000000    0.4774520000000000 Ge
   0.0000000000000000    0.0000000000000000    0.9774520000000000 Ge
   0.6666670000000000    0.3333330000000000    0.4148480000000000 Ge
   0.3333330000000000    0.6666670000000000    0.9148480000000000 Ge
