Sn4 Se4                                 
   1.00000000000000     
     4.2148266875290235   -0.0000000000000004    0.0000000000000000
    -0.0000000000000003    4.5457906804027823    0.0000000000000000
     0.0000000000000000    0.0000000000000000   11.8697031190798459
   Sn   Se
     4     4
Direct
  0.2500000000000000  0.6118278856482668  0.3773292038828235
  0.7500000000000000  0.1118278776482664  0.1226707961171762
  0.2500000000000000  0.8881721143517332  0.8773292038828239
  0.7500000000000000  0.3881721143517330  0.6226707961171761
  0.2500000000000000  0.5223301303113732  0.1455109628853713
  0.7500000000000000  0.0223301573113792  0.3544890371146286
  0.2500000000000000 -0.0223301303113733  0.6455109628853717
  0.7500000000000000  0.4776698406886208  0.8544890371146283
 
  0.00000000E+00  0.00000000E+00  0.00000000E+00
  0.00000000E+00  0.00000000E+00  0.00000000E+00
  0.00000000E+00  0.00000000E+00  0.00000000E+00
  0.00000000E+00  0.00000000E+00  0.00000000E+00
  0.00000000E+00  0.00000000E+00  0.00000000E+00
  0.00000000E+00  0.00000000E+00  0.00000000E+00
  0.00000000E+00  0.00000000E+00  0.00000000E+00
  0.00000000E+00  0.00000000E+00  0.00000000E+00
