Sb                                      
   1.00000000000000     
    18.8173007964999996    0.0000000000000000    0.0000000000000000
     0.0000000000000000   18.8173007964999996    0.0000000000000000
     0.0000000000000000    0.0000000000000000   18.8173007964999996
   Sb   Si
   195    21
Direct
  0.9605559203500087  0.0357759050381730  0.4860036333711956
  0.5832242028966672  0.7567831864178882  0.3270458691983636
  0.1297555498688281  0.3168762152975615  0.0381269538386918
  0.7130524888869314  0.0241727911722393  0.9405074844035942
  0.9195940780587794  0.2810390476228262  0.2341804034939286
  0.6142581687611794  0.2773983366662200  0.6971398397027151
  0.1904605846742524  0.6162392377781688  0.1442978514599808
  0.3467923170193274  0.0721541664816433  0.2981762902677581
  0.0777826621260597  0.9566872282749708  0.1997221930321422
  0.5476689256867142  0.8825269512160673  0.9639210273378588
  0.0519581355405473  0.1548131050432325  0.4595976980970543
  0.6849729012888348  0.3881538512255091  0.9870942118014556
  0.3667902893589219  0.7665856145909471  0.5565791855704646
  0.2352268754118824  0.2030033643018811  0.1551626442038772
  0.1693443188805405  0.7726797565156394  0.9932270424936764
  0.9880873310828516  0.0326179837904248  0.8097915485161525
  0.6245854333768425  0.1549916563751881  0.9928655412420209
  0.6992461181719276  0.7997772809031619  0.8778979836964386
  0.9139329210719387  0.7473016096927407  0.3972385282816547
  0.9485348877679346  0.2543943754276451  0.6569235666993688
  0.7178169479513876  0.0588902614932799  0.3055905783190854
  0.8782186080602510  0.3985183335276814  0.9292174234422445
  0.5730018002352001  0.4978469070724836  0.0168656441185764
  0.7182918820947223  0.6014592870504473  0.9964289298648699
  0.8990361488441888  0.0533339093497563  0.1520617476014483
  0.9758139922170754  0.4334013828928701  0.7333349093204424
  0.6053371955612032  0.7594270163266622  0.6421394928149972
  0.7697584012321550  0.4064531376361993  0.1112633959270124
  0.0362603180018507  0.3127636774499243  0.3632755732516619
  0.7504775730584702  0.4310482070988284  0.8544321148302245
  0.3331649819479405  0.4792109741322141  0.0382874624398721
  0.0762053520448841  0.1283985739256166  0.0317580580629443
  0.7109105450383483  0.5609053661836333  0.1546602110314871
  0.2872711050150560  0.0527570042785012  0.7703448546299075
  0.0504128852965105  0.6208111260452330  0.0521458735612696
  0.4311043199999843  0.5945503393587249  0.0240086179829615
  0.6547420535509487  0.9151971107370479  0.4666840886256777
  0.1125303536709266  0.2877046676968652  0.1885916365363876
  0.9657833662279748  0.2294911429161638  0.0091974337949390
  0.0790020636425323  0.8908668808310743  0.9328066066293150
  0.1166789626303917  0.4135761299320817  0.2772787158572523
  0.1201600702149002  0.4945612262750831  0.7318904268072163
  0.7679307610259622  0.5419987216386939  0.3362671414419892
  0.1767763361123701  0.7369657516625093  0.2396237005008980
  0.1304931372190944  0.0103772885718529  0.6251527158761949
  0.8791895092303170  0.5958250080391336  0.0189403329058796
  0.0281631878051483  0.8459380088111722  0.5388394405054706
  0.1637120284638707  0.7918813026116998  0.5810142935136673
  0.0542127381760060  0.5792281614415989  0.2801760189750720
  0.4374199530823439  0.1387156758478326  0.7803286805617661
  0.7892314788610386  0.8309987551130880  0.0497548174270071
  0.0272112300159343  0.8799920952593057  0.7863860135918329
  0.7459695017482106  0.2316020888276583  0.9325547418261060
  0.5537023689930086  0.7079655543182676  0.9930325436075248
  0.0801041144698849  0.9432258788664234  0.4253100916951824
  0.4769694003847108  0.6252592524430844  0.1712740360567955
  0.0099516817325969  0.7426060839653421  0.1337033902609465
  0.3119497832910590  0.9133750111267562  0.2039616995596744
  0.9727870258998405  0.7894172615476810  0.9779774027493137
  0.2526144131064833  0.1643538762199534  0.5851320968428035
  0.7393485902743478  0.8982757195714184  0.3288180703233062
  0.9077287873332511  0.4091894161812832  0.5346699422847422
  0.4553351495193325  0.9636505089868750  0.6324708100287063
  0.1956540002649867  0.9104084602358327  0.3175550426273290
  0.2599411463702955  0.3910927431236310  0.3334099970655490
  0.9754093765625954  0.9697828941062541  0.6229252301394775
  0.3753443304318671  0.1096917474726209  0.4469675612044216
  0.7503140443868364  0.5455436957372046  0.4891548806644380
  0.4107579049811872  0.1333423969272065  0.9535685125149748
  0.2934484405925957  0.8748806804901874  0.4756659787442749
  0.4943979742272197  0.9744193100756410  0.2618793968671559
  0.6654165847932951  0.7148914209788720  0.1623004391151717
  0.5048269651770863  0.8166417473064745  0.1385161458965006
  0.2134678280630687  0.0585547439904611  0.1681188118505270
  0.1294563539034032  0.7488310022248635  0.7373073525588066
  0.4275387080945712  0.6274251702210152  0.8371737676568253
  0.3828625478781554  0.4195373881799114  0.1854616566189359
  0.7885240184438237  0.9356953332994916  0.6264569871491726
  0.0174560939869033  0.1651130291437759  0.1884001415117423
  0.9801120197277046  0.8550346769709145  0.2855787177231716
  0.1798930824655012  0.8534537291883408  0.1412571532878188
  0.6342877937062200  0.9517497630446111  0.6221238846070750
  0.8580646463366368  0.2263547430315575  0.4643158677481650
  0.0164402705543733  0.9958030204450291  0.0557600192847794
  0.2946080228834557  0.2807259878872615  0.4958665414058634
  0.2201935155434029  0.3965337717718295  0.5717462948628044
  0.3597238261032525  0.0458742800845353  0.0930847192389438
  0.9989064348603207  0.6619033031342224  0.7355904525997510
  0.2767077069733207  0.3135121194803729  0.7155862834474180
  0.7715540471527708  0.5946596417071387  0.6703715072597298
  0.2194685077452440  0.2423205849746488  0.3685652740445767
  0.5835856380860113  0.0595264386476510  0.4555608006217444
  0.2427902377437557  0.6403513418341957  0.6962899280306621
  0.6133091302311611  0.5768024415981792  0.8255105256379849
  0.7302470209841132  0.3019398471432390  0.4538450320302618
  0.9375233436623012  0.5180683571816569  0.8593138344197139
  0.2213212688867030  0.4907704283987645  0.4397313776781269
  0.3317117425153172  0.7681084939184070  0.7110299368297406
  0.5811112394218263  0.1536465328788344  0.8435949661754436
  0.7968792406363210  0.7662165603315116  0.7423527776101113
  0.9843098741222513  0.4242773135438214  0.1312244175075265
  0.4526675983351249  0.3436887407365056  0.8730528024219332
  0.6917431221462607  0.2366226109786062  0.2020437138976012
  0.5532367079933758  0.0019534870067677  0.8659367049077293
  0.8480119725564903  0.8732301293186089  0.2046566468594170
  0.6116602378172390  0.8741706813214232  0.2384086938915736
  0.1052806251529948  0.3409720672054346  0.7080710120281045
  0.4394000886835686  0.2835108593452040  0.7126420652809616
  0.1120623288240560  0.1649815611372230  0.6545649790217640
  0.9142363209069362  0.5255291596549715  0.2276159132028365
  0.3357446870417862  0.2292401271000656  0.2740224763875247
  0.3360907497113327  0.8544563263899209  0.0379171709028685
  0.6655597756494956  0.9319906266354646  0.0552415120914347
  0.2965424020031241  0.6862187200470343  0.0458122696462920
  0.6325456197956387  0.9039443259040171  0.7737002553537234
  0.3026527077021081  0.9786907278480137  0.5896892952168633
  0.6346496616726569  0.3101511512072196  0.8386337030942005
  0.8355041557324280  0.1790518491468981  0.3162274534516998
  0.7636575692773662  0.8057103007826983  0.5285051955202225
  0.7346721708415925  0.7255873957728384  0.3671665791510655
  0.8723636231087396  0.8873161875853260  0.4419082292449940
  0.8716619756608089  0.6667954574829162  0.1554030021468535
  0.6375463017747256  0.0987425603784518  0.6822960202852409
  0.9124053167902186  0.0411116848543204  0.3109526045491729
  0.8988243427923447  0.0212298185321562  0.9481356814440139
  0.1828807213852216  0.9346231783611859  0.7632241788109033
  0.1123031841597145  0.0616746066197296  0.8867388132322865
  0.2852239713709923  0.3103209585163120  0.0395614417077419
  0.7755878276529896  0.2369452106791839  0.6504965701635196
  0.2532083115166214  0.7903554322153548  0.8632084571779206
  0.9252109352845955  0.4290900833125632  0.3755033815398844
  0.4177219029234152  0.9314999665256228  0.8249463670768302
  0.4285571252200153  0.2078279367848764  0.5869196060074302
  0.5421246444670509  0.2052587499166557  0.2920268245146726
  0.7071231994388374  0.0799228926708307  0.1523400686767169
  0.8991948204740192  0.7008056958251642  0.8486581238053761
  0.7603940038029889  0.4323443493885611  0.6834436399680479
  0.8849777304410439  0.1089960143910447  0.6696402939457113
  0.8762522961681972  0.2939877306731624  0.7866720576934857
  0.0690912018179428  0.3529878567401802  0.5230900723782664
  0.1802144600976401  0.0678507494235300  0.4735617618127755
  0.4693071135645216  0.1881002874012467  0.1511798101209579
  0.5439180598786605  0.0550524100790509  0.1340823126567957
  0.5887182525361975  0.2794865630382617  0.0942593948744213
  0.9909839246297213  0.2114773390425027  0.8522515861459335
  0.7894906935275240  0.3726596608429742  0.3226268865013054
  0.1053149754944805  0.5671303866413427  0.5914589059885582
  0.0813853849460361  0.4733275886045374  0.8998704903590556
  0.0995880686757909  0.6571883006028695  0.9163181959752609
  0.0018077469807420  0.5646150545130373  0.4207101371638943
  0.5418100197928569  0.3950466462041283  0.1987376825480416
  0.4012775525388338  0.7977061556874627  0.9081272386227044
  0.0561175197894047  0.7121917732092727  0.4364351051228574
  0.8592174148955211  0.6739494361930218  0.5453939693558859
  0.3683850956384737  0.4757949740962016  0.8564730195533602
  0.6636477067641333  0.1575278514567123  0.5505155564499395
  0.4644188221703938  0.3903966504063037  0.0257383642405615
  0.2708878113800970  0.1801792837791126  0.9573173072684115
  0.8672147476634230  0.8834403010168657  0.8040258423303702
  0.5189208314096795  0.7287184418314865  0.5276453877777439
  0.4350717832497419  0.9102762011366031  0.4084293500704891
  0.2531789734689960  0.6945839361714624  0.3772198130936515
  0.2500101668607326  0.5606923707524870  0.2889243517809802
  0.3719728381117187  0.7642311360111921  0.2035776345388406
  0.9302062045022751  0.7610025600761798  0.6453562289211470
  0.0534900129460645  0.0837945429741670  0.3207917470960910
  0.2869965887185742  0.3149581344465868  0.8814865774800279
  0.2493386778403804  0.9803833474924879  0.9986525605677935
  0.7647232951649655  0.9929183939326760  0.7753314632864674
  0.2896895694667775  0.4634314992636917  0.7300860985105708
  0.8329935909640260  0.1719158023758208  0.0552223470464114
  0.5049324573224182  0.7744435539512156  0.7708768336387580
  0.7672111138046376  0.5940282024719427  0.8260895793576651
  0.1203886790000089  0.4725211865013217  0.0549349510460415
  0.2804869463428122  0.6314961809452211  0.5174737209632562
  0.1090733034102412  0.3230465406797765  0.8717246104261505
  0.5529205251067275  0.2668834497502159  0.5292459731559499
  0.9474710979055845  0.5376535496100642  0.6165495746485496
  0.7827260385422939  0.1619440995473270  0.7899179854255495
  0.4030508411132777  0.7431540334473282  0.3511391643163416
  0.1843279435777666  0.1691627858363712  0.7923390259322510
  0.2316858846275020  0.5823778771116745  0.9373293159495391
  0.8188816488499969  0.0932904632148191  0.5296709517835337
  0.4380815626400730  0.3612615885211196  0.3724026832076030
  0.4438649798485005  0.5877944572546944  0.3468292779539310
  0.5935502280006082  0.3780689658844150  0.3494113876102712
  0.4217879221125579  0.5666216837972097  0.5013893762092287
  0.6045323615667596  0.5340359792038015  0.3282922253491352
  0.4388997470232852  0.4645670348047315  0.6801065528803595
  0.4311725132624425  0.4144440402275473  0.5254368739117927
  0.6052675377643215  0.5757763383660776  0.4810582056514778
  0.5995772092947488  0.6030021460898375  0.6740101567557585
  0.4309142133383005  0.6135184114593069  0.6804103347281519
  0.6031704249426999  0.4356572429040541  0.6832829040995221
  0.5921259123151134  0.4347570828315468  0.5236497386464598
  0.8757108983134253  0.8846995874076095  0.9435583810099468
  0.4604574322228054  0.9263570990635943  0.0671626062477691
  0.4700498986386524  0.2245729306558638  0.4178926951348042
  0.5810996088889127  0.0788093450873256  0.3106842136320696
  0.7760039888142559  0.7451921486171970  0.2363283614180104
  0.2914722432326509  0.6582927191487725  0.8310008707563515
  0.8796950087399681  0.4659935164603235  0.0520128662974789
  0.4637225966424440  0.0145511570483869  0.5002511734269228
  0.7613558632902444  0.4123477477903514  0.5371984955905224
  0.3405107695902883  0.0234988838098184  0.9020577625862017
  0.3769576510300824  0.5521862505254596  0.2364367783404022
  0.0448582194119452  0.7198665562607148  0.2747187806883041
  0.2471707395585285  0.8755465495424977  0.6576216335426150
  0.5500081187888318  0.8315498161583141  0.4404838104026217
  0.2071505433831429  0.0540338813274694  0.3085378633996393
  0.4893189982662317  0.0997474789871159  0.6588985539945615
  0.0909709885714243  0.4832547214921045  0.4843350792312689
  0.8145921890717780  0.2747298013407112  0.1450567047534387
  0.6872625045812331  0.7336380313863882  0.0225846688725189
  0.5738773825651637  0.5196335007730964  0.1501902404554334
  0.5928565221140012  0.7095099375677351  0.8616137363212821
 
 -0.76403648E-03 -0.22782874E-02  0.19232734E-05
 -0.17987143E-02 -0.84165280E-04 -0.86507864E-03
 -0.61042582E-03  0.17008703E-02  0.18005731E-03
  0.22544307E-02 -0.18873553E-02  0.12890974E-04
  0.12105219E-02  0.17386258E-02  0.16959369E-02
 -0.15880789E-02 -0.59317711E-03 -0.61279075E-03
  0.30961280E-03 -0.19413611E-02  0.10497488E-02
  0.23438242E-03 -0.80188581E-03 -0.24684812E-03
  0.14984058E-04  0.17818093E-03  0.20621816E-03
 -0.14057289E-03 -0.21150912E-03 -0.56297288E-03
 -0.24322034E-02  0.12107648E-02  0.16119192E-02
 -0.99844541E-03  0.17588058E-02 -0.33334594E-03
 -0.60995246E-04  0.82717274E-03  0.27315780E-03
 -0.18445206E-02  0.86876784E-03  0.21490678E-02
 -0.10578362E-02 -0.96349220E-03  0.22687521E-02
 -0.52508409E-03  0.10073703E-02  0.70616210E-03
  0.11213362E-02 -0.90326880E-04  0.28043819E-02
  0.32769643E-03  0.25147472E-02 -0.12183652E-02
 -0.17980629E-02 -0.21229643E-02  0.21388762E-02
  0.11622641E-02 -0.44687660E-03 -0.63607905E-03
  0.12852074E-02 -0.10310522E-02  0.81618887E-03
  0.14605392E-02 -0.28527097E-02 -0.11424147E-02
 -0.18158869E-02  0.85637573E-03  0.19606536E-02
  0.15526204E-02  0.22663589E-02 -0.22822011E-02
 -0.24626349E-02  0.11025721E-02 -0.10556408E-02
  0.19969182E-02 -0.20596463E-02 -0.10089109E-02
  0.36931502E-02 -0.38585988E-03 -0.10535987E-02
 -0.26072068E-02  0.81811585E-03 -0.18866729E-02
 -0.14761199E-02 -0.44496843E-03 -0.60623793E-03
  0.32392052E-03 -0.29860639E-04 -0.53112605E-03
 -0.10138124E-02 -0.94950636E-03 -0.10501509E-02
 -0.58997457E-03  0.79503530E-03  0.12020652E-02
 -0.16511488E-02  0.14407433E-03 -0.23073936E-03
  0.83529847E-03 -0.16848350E-02 -0.17993962E-02
  0.85418307E-03  0.18682132E-02  0.51682000E-03
  0.15282481E-04 -0.81519716E-03 -0.77386885E-03
 -0.23912117E-03 -0.52018611E-03  0.11755918E-03
  0.30606751E-02 -0.28067999E-02 -0.19506994E-03
  0.21107965E-03  0.23046027E-02  0.55553748E-03
  0.24314591E-02 -0.64075353E-03 -0.17077219E-02
  0.41593974E-03  0.31725369E-03 -0.63159663E-03
  0.22144628E-02  0.13584575E-02 -0.21631466E-03
 -0.56330930E-03 -0.24570425E-02 -0.88651262E-03
 -0.73110992E-03 -0.19659174E-02  0.81479086E-03
 -0.13107396E-02  0.21639326E-03  0.42174529E-03
  0.19078564E-02  0.17804761E-02  0.12647979E-02
 -0.94485466E-03  0.11743790E-02 -0.26581642E-03
 -0.55788122E-03  0.16227053E-02  0.12228763E-02
 -0.20231978E-03  0.27651060E-03 -0.14020150E-02
  0.29124775E-02  0.95392498E-03 -0.16166199E-03
 -0.48281164E-02  0.19811756E-02 -0.24066662E-02
  0.10140304E-02 -0.84159089E-03  0.20286157E-02
 -0.18130104E-03  0.13099211E-02 -0.10776739E-02
 -0.87006400E-03  0.13724223E-02 -0.24605716E-02
  0.13753393E-02 -0.17966246E-02 -0.17819284E-02
  0.93235941E-03  0.66780271E-03 -0.65894673E-03
  0.50305208E-03  0.13910434E-03  0.23749668E-02
  0.27736220E-03 -0.16760229E-02 -0.18030798E-02
 -0.19124519E-02 -0.60475016E-03 -0.68092791E-03
  0.23589207E-03  0.34282315E-02 -0.96412320E-03
 -0.79702642E-04  0.14119019E-02  0.16877951E-02
  0.61472919E-03 -0.21605581E-02 -0.16479247E-02
 -0.29066224E-02 -0.13894800E-02  0.74439711E-03
  0.13286254E-02 -0.20147960E-02 -0.19538010E-02
 -0.90366119E-03  0.38546602E-03 -0.75708397E-03
  0.61281223E-03 -0.31733096E-02 -0.92235465E-03
 -0.11740458E-02 -0.14879083E-02 -0.11062541E-03
  0.27205615E-02 -0.12950314E-02 -0.31387133E-02
 -0.11556501E-02  0.12493247E-02 -0.65173387E-03
  0.59996728E-05  0.67101699E-03  0.23895609E-02
  0.19651263E-02  0.16989496E-03 -0.25331105E-03
 -0.99360873E-03 -0.62125217E-03 -0.75394990E-03
 -0.69877065E-03  0.58539811E-03 -0.54560617E-04
 -0.26393442E-02 -0.22517515E-02  0.23388513E-02
  0.34243007E-02  0.78171403E-03 -0.17730953E-02
  0.30118741E-02 -0.10621728E-02 -0.24136554E-03
  0.11610274E-02 -0.14204282E-02  0.17759919E-03
  0.31931913E-03 -0.43913022E-03  0.14087258E-02
  0.10295455E-02 -0.10848711E-03 -0.46576669E-03
 -0.58714200E-03 -0.16188366E-02  0.18838517E-03
 -0.16091165E-02 -0.14005100E-02  0.22109440E-03
 -0.75965323E-03  0.16219345E-03 -0.14351652E-02
  0.18426701E-02  0.16691440E-02  0.83391757E-03
 -0.11306551E-02  0.46793399E-03 -0.21218485E-02
 -0.11282460E-02  0.10148808E-02  0.95758313E-03
 -0.35458520E-03  0.76739757E-03  0.70994273E-03
 -0.16815822E-02  0.76527551E-04 -0.93319729E-04
 -0.73939303E-04 -0.11732740E-02  0.30441607E-03
  0.65456110E-03  0.30067775E-02  0.20453638E-02
 -0.87430164E-03  0.13599219E-02  0.52648563E-03
 -0.76335423E-03  0.70957736E-03 -0.97948927E-03
 -0.22243861E-02  0.24670596E-03  0.71283964E-03
  0.17213446E-02 -0.34999377E-02 -0.22303942E-02
  0.93463011E-03  0.38282398E-03 -0.86579703E-03
 -0.99421904E-03  0.51086308E-03 -0.20614235E-02
  0.54675717E-03 -0.55754293E-03  0.16851089E-04
 -0.10032360E-02 -0.68041560E-03  0.88612615E-03
  0.18796346E-03  0.15691922E-02  0.60596430E-03
  0.11198181E-02  0.20674849E-02 -0.80542911E-03
  0.18745996E-02  0.26659671E-03  0.31868699E-03
  0.93732823E-03  0.73499799E-03 -0.20622827E-02
  0.28836433E-02  0.84381380E-03 -0.11156366E-02
 -0.57788731E-03  0.64432264E-03 -0.23883919E-03
 -0.15963112E-04  0.12449971E-02  0.10072043E-02
  0.21151109E-03 -0.72597804E-03 -0.11193469E-02
 -0.91726908E-03  0.15190264E-02 -0.44499300E-03
  0.62532509E-03 -0.25972713E-03 -0.68306954E-03
 -0.35794286E-02 -0.90658301E-03  0.19539284E-02
  0.19854354E-05  0.12047250E-03  0.55360349E-03
  0.90098066E-03  0.48875984E-02 -0.10156457E-02
  0.27024151E-03 -0.19590884E-02 -0.33021822E-03
 -0.17932038E-03 -0.31048934E-03 -0.11536831E-02
 -0.26066413E-02 -0.82411725E-03  0.22232732E-02
 -0.31075521E-02  0.90130817E-03  0.14990535E-02
  0.10717113E-02  0.19146030E-03  0.15814743E-02
  0.16991194E-02 -0.57619395E-04 -0.12093894E-02
  0.54534506E-03  0.45020832E-03 -0.68927583E-03
  0.10766226E-02  0.62720258E-03 -0.38541931E-03
  0.34967288E-03 -0.94752570E-04 -0.82120666E-03
 -0.20316713E-03  0.28104526E-03 -0.15467601E-02
  0.71156187E-03  0.78589571E-03  0.19168711E-02
 -0.14045205E-02  0.25777873E-02 -0.25822799E-02
  0.11047114E-02  0.10576112E-02  0.51063715E-03
 -0.13797672E-02 -0.63383388E-03  0.17173190E-02
 -0.10307861E-02  0.40452583E-03  0.45089405E-05
 -0.33207738E-03  0.21558759E-02  0.20638915E-02
  0.28433631E-02  0.46375160E-03  0.11575112E-02
  0.23066339E-02 -0.27065137E-03  0.22740316E-02
  0.28741149E-02 -0.17141855E-02  0.41110838E-03
 -0.14874574E-02 -0.68479878E-03  0.83836057E-04
  0.34658025E-03  0.16351023E-03 -0.40085022E-03
  0.11365689E-02 -0.14621851E-02  0.12176486E-02
 -0.15423878E-02 -0.12483788E-02 -0.12395660E-02
  0.10041966E-02 -0.19084054E-03 -0.47675740E-03
 -0.21151703E-02 -0.41535130E-02 -0.17249826E-02
 -0.15014299E-02  0.71468541E-03  0.11873323E-02
  0.15510592E-02 -0.18474242E-03 -0.14088296E-02
 -0.17402531E-02  0.15962704E-02  0.84890482E-03
  0.48661702E-03  0.37312025E-03  0.22512900E-02
  0.29245736E-03 -0.12953721E-02 -0.54004008E-03
  0.17043429E-02  0.19779543E-02  0.15312861E-02
 -0.15252235E-04 -0.23432307E-02  0.11007457E-02
 -0.14255566E-02 -0.49550021E-03  0.55161485E-04
  0.17147208E-02  0.24803805E-02 -0.33765858E-03
  0.36071761E-03  0.93413123E-03  0.20473229E-02
 -0.22034773E-02 -0.10760498E-02 -0.20879784E-05
 -0.21068940E-02 -0.84957942E-03  0.55092530E-04
 -0.23586666E-03 -0.21717454E-02  0.36756514E-02
 -0.23099307E-02  0.40019318E-04 -0.86561737E-03
  0.14204240E-02 -0.93597540E-03 -0.15055618E-02
 -0.58979553E-04 -0.31307856E-02  0.71144529E-03
 -0.48464661E-03 -0.78685740E-03  0.18378792E-02
  0.32340060E-03 -0.32476926E-03  0.15346421E-02
 -0.83770233E-03  0.84476550E-03 -0.94711363E-04
  0.22570678E-02  0.29234819E-02 -0.87807019E-03
 -0.24726403E-02 -0.24610249E-02  0.15870300E-02
 -0.86295075E-04 -0.71677188E-03  0.26363834E-02
 -0.11975297E-02  0.24133361E-03  0.54628276E-03
  0.58580356E-03  0.79504829E-03  0.13698950E-02
 -0.28562534E-03 -0.63534505E-03 -0.26041046E-02
 -0.14776909E-02 -0.29365984E-03  0.18604788E-02
  0.12101599E-03  0.10217228E-02 -0.39835938E-04
  0.18483197E-02  0.90640250E-03  0.58798596E-03
 -0.18765299E-02  0.15867308E-02  0.62145919E-03
  0.36868357E-03 -0.41515621E-03 -0.13502565E-02
  0.17820422E-03  0.22058536E-02  0.67249611E-03
  0.17927077E-02  0.14378465E-02 -0.91368648E-03
 -0.69656070E-04 -0.17181903E-02 -0.20855680E-02
  0.19160391E-02  0.15567783E-02  0.13873604E-02
  0.70604741E-04  0.37624171E-03 -0.20690880E-02
 -0.29594009E-02 -0.13270811E-03 -0.12695820E-02
  0.24598092E-02 -0.60134715E-03  0.35366412E-02
 -0.18560898E-02 -0.19767964E-02 -0.10653647E-03
 -0.47509333E-03  0.13206636E-03  0.24484964E-02
 -0.99832927E-03  0.80301994E-03  0.27639051E-02
 -0.16581325E-02 -0.15492013E-02 -0.41117950E-03
 -0.88244405E-03  0.91960875E-03 -0.45312544E-03
 -0.37720023E-03  0.65276628E-03  0.36239378E-03
 -0.74443735E-03  0.30649071E-03 -0.61012271E-04
  0.59693699E-03  0.14548248E-02  0.11205972E-02
 -0.14846293E-02 -0.21420083E-05  0.19269905E-02
 -0.25652537E-03 -0.16346012E-02 -0.19106125E-02
  0.60706709E-03  0.17320237E-02 -0.34404026E-03
  0.18032462E-03 -0.14313478E-02  0.10944841E-02
 -0.33087319E-03  0.18612911E-02 -0.31722359E-03
  0.11669552E-02  0.63090744E-03 -0.21115719E-02
  0.26279056E-02  0.12871240E-02 -0.11855068E-02
 -0.46589921E-03  0.50518830E-03 -0.33436703E-02
 -0.37072437E-03 -0.18665983E-02  0.13897590E-02
  0.18035510E-02 -0.19451542E-02 -0.96235763E-03
 -0.15280489E-02 -0.77936075E-03 -0.97527897E-03
 -0.60085187E-03 -0.74346903E-03  0.12741851E-02
 -0.37468990E-03  0.19216421E-02 -0.43808057E-04
  0.18483256E-02 -0.14444146E-02 -0.23840012E-02
  0.20438028E-02 -0.16532924E-02  0.10722642E-02
 -0.55778796E-03  0.20743523E-02  0.39818724E-02
  0.42372883E-02  0.44356389E-03  0.23109682E-02
  0.41139086E-02  0.30589238E-03  0.46027482E-03
  0.15767349E-02  0.91284509E-04 -0.34272571E-02
 -0.34527368E-02  0.10043988E-02  0.69608722E-04
  0.25841295E-02 -0.85487087E-02 -0.51125376E-02
 -0.16898295E-02 -0.13821808E-02 -0.41373513E-02
  0.36194215E-02  0.40236248E-02  0.14339643E-02
  0.90793282E-03 -0.20059634E-02 -0.44986791E-02
  0.24341332E-02  0.18648498E-02 -0.19895919E-02
  0.35340147E-03 -0.25096597E-02 -0.25349422E-02
 -0.35559377E-02 -0.11251996E-03  0.22671109E-02
 -0.25785313E-02 -0.58965165E-02  0.45015348E-02
 -0.21570666E-02 -0.43832348E-03 -0.35643619E-02
 -0.49863112E-02  0.18846337E-02  0.28589344E-03
  0.31312902E-02  0.13129818E-02 -0.24443386E-02
  0.54672162E-02  0.39459471E-02  0.27448286E-02
 -0.12754956E-02 -0.54172063E-03  0.17859069E-02
  0.37865685E-02  0.27884803E-02 -0.23143790E-02
 -0.20962728E-03 -0.86108538E-03 -0.36795876E-03
  0.16591562E-02  0.28349672E-02  0.88974566E-04
 
           1
   4.00000000000000     
  0.10000000E+01  0.00000000E+00  0.00000000E+00  0.00000000E+00
  0.96039351E+00  0.35291609E-01  0.48600404E+00
  0.58284185E+00  0.75676530E+00  0.32686198E+00
  0.12962579E+00  0.31723777E+00  0.38165229E-01
  0.71353171E+00  0.23771595E-01  0.94051022E+00
  0.91985140E+00  0.28140863E+00  0.23454091E+00
  0.61392059E+00  0.27727224E+00  0.69700958E+00
  0.19052640E+00  0.61582656E+00  0.14452100E+00
  0.34684214E+00  0.71983709E-01  0.29812382E+00
  0.77785847E-01  0.95672510E+00  0.19976603E+00
  0.54763904E+00  0.88248199E+00  0.96380136E+00
  0.51441121E-01  0.15507048E+00  0.45994034E+00
  0.68476066E+00  0.38852772E+00  0.98702335E+00
  0.36677732E+00  0.76676145E+00  0.55663725E+00
  0.23483479E+00  0.20318804E+00  0.15561947E+00
  0.16911945E+00  0.77247495E+00  0.99370931E+00
  0.98797571E+00  0.32832121E-01  0.80994166E+00
  0.62482380E+00  0.15497246E+00  0.99346167E+00
  0.69931578E+00  0.80031184E+00  0.87763900E+00
  0.91355071E+00  0.74685033E+00  0.39769319E+00
  0.94878195E+00  0.25429938E+00  0.65678836E+00
  0.71809014E+00  0.58671090E-01  0.30576408E+00
  0.87852908E+00  0.39791193E+00  0.92897458E+00
  0.57261580E+00  0.49802895E+00  0.17282421E-01
  0.71862192E+00  0.60194105E+00  0.99594380E+00
  0.89851267E+00  0.53568283E-01  0.15183735E+00
  0.97623848E+00  0.43296356E+00  0.73312044E+00
  0.60612225E+00  0.75934499E+00  0.64191553E+00
  0.76920419E+00  0.40662704E+00  0.11086235E+00
  0.35946539E-01  0.31266909E+00  0.36314671E+00
  0.75054643E+00  0.43104186E+00  0.85431921E+00
  0.33294948E+00  0.47900914E+00  0.38064232E-01
  0.76079941E-01  0.12856757E+00  0.32013581E-01
  0.71055956E+00  0.56093599E+00  0.15461116E+00
  0.28744866E+00  0.52398858E-01  0.76996236E+00
  0.50594459E-01  0.62120825E+00  0.52255734E-01
  0.43110757E+00  0.59437705E+00  0.23844116E-01
  0.65469122E+00  0.91508653E+00  0.46670908E+00
  0.11318096E+00  0.28710803E+00  0.18855017E+00
  0.96582824E+00  0.22998103E+00  0.93155246E-02
  0.79518920E-01  0.89073068E+00  0.93244360E+00
  0.11676738E+00  0.41364357E+00  0.27714446E+00
  0.12063080E+00  0.49484999E+00  0.73184444E+00
  0.76781102E+00  0.54147643E+00  0.33607870E+00
  0.17662092E+00  0.73654786E+00  0.23979690E+00
  0.13021451E+00  0.10423287E-01  0.62524237E+00
  0.87959506E+00  0.59620348E+00  0.19209191E-01
  0.27962340E-01  0.84618765E+00  0.53878294E+00
  0.16359344E+00  0.79222624E+00  0.58127424E+00
  0.54169731E-01  0.57928694E+00  0.27987799E+00
  0.43803906E+00  0.13891845E+00  0.78029432E+00
  0.78820516E+00  0.83141989E+00  0.49243232E-01
  0.27426783E-01  0.87981320E+00  0.78681724E+00
  0.74593096E+00  0.23188054E+00  0.93232566E+00
  0.55351742E+00  0.70825729E+00  0.99250950E+00
  0.80396471E-01  0.94284397E+00  0.42493131E+00
  0.47716759E+00  0.62540121E+00  0.17113396E+00
  0.10058616E-01  0.74263565E+00  0.13420824E+00
  0.31200874E+00  0.91301874E+00  0.20357842E+00
  0.97238050E+00  0.78928871E+00  0.97783266E+00
  0.25266456E+00  0.16508262E+00  0.58492715E+00
  0.73933165E+00  0.89857585E+00  0.32917685E+00
  0.90785946E+00  0.40873015E+00  0.53431964E+00
  0.45471729E+00  0.96335515E+00  0.63262905E+00
  0.19593643E+00  0.90998017E+00  0.31713972E+00
  0.25974905E+00  0.39117468E+00  0.33324906E+00
  0.97553964E+00  0.96910834E+00  0.62272916E+00
  0.37509476E+00  0.10937546E+00  0.44694405E+00
  0.75089236E+00  0.54526841E+00  0.48848768E+00
  0.41051225E+00  0.13360797E+00  0.95342997E+00
  0.29344972E+00  0.87502332E+00  0.47617393E+00
  0.49481570E+00  0.97445542E+00  0.26182555E+00
  0.66520537E+00  0.71475936E+00  0.16214017E+00
  0.50467843E+00  0.81676619E+00  0.13850455E+00
  0.21290678E+00  0.58076088E-01  0.16861598E+00
  0.13018426E+00  0.74899717E+00  0.73693045E+00
  0.42817894E+00  0.62719938E+00  0.83712246E+00
  0.38310935E+00  0.41923545E+00  0.18549941E+00
  0.78859190E+00  0.93560199E+00  0.62675644E+00
  0.17674945E-01  0.16508997E+00  0.18830113E+00
  0.97998721E+00  0.85469056E+00  0.28561876E+00
  0.17955103E+00  0.85315602E+00  0.14130415E+00
  0.63412631E+00  0.95178424E+00  0.62181881E+00
  0.85845634E+00  0.22670955E+00  0.46449313E+00
  0.16199927E-01  0.99590249E+00  0.55308977E-01
  0.29436819E+00  0.28094172E+00  0.49607010E+00
  0.22011814E+00  0.39669690E+00  0.57189721E+00
  0.35936637E+00  0.45890548E-01  0.93064882E-01
  0.99889072E+00  0.66165390E+00  0.73565516E+00
  0.27684685E+00  0.31415127E+00  0.71602107E+00
  0.77136820E+00  0.59494872E+00  0.67048342E+00
  0.21930624E+00  0.24247142E+00  0.36835706E+00
  0.58311280E+00  0.59578881E-01  0.45571233E+00
  0.24315614E+00  0.63960736E+00  0.69581581E+00
  0.61350780E+00  0.57688382E+00  0.82532648E+00
  0.73003568E+00  0.30204844E+00  0.45340683E+00
  0.93763957E+00  0.51794984E+00  0.85931742E+00
  0.22110801E+00  0.49062579E+00  0.43991974E+00
  0.33175170E+00  0.76844206E+00  0.71115875E+00
  0.58134928E+00  0.15408602E+00  0.84342376E+00
  0.79727772E+00  0.76627323E+00  0.74242052E+00
  0.98450912E+00  0.42443355E+00  0.13078604E+00
  0.45328058E+00  0.34386811E+00  0.87281565E+00
  0.69162028E+00  0.23675957E+00  0.20199294E+00
  0.55323331E+00  0.22181365E-02  0.86615081E+00
  0.84805693E+00  0.87307581E+00  0.20441871E+00
  0.61146525E+00  0.87449358E+00  0.23831410E+00
  0.10541355E+00  0.34091686E+00  0.70792581E+00
  0.43863921E+00  0.28331815E+00  0.71305741E+00
  0.11206275E+00  0.16500717E+00  0.65468266E+00
  0.91442784E+00  0.52656812E+00  0.22740002E+00
  0.33580213E+00  0.22882368E+00  0.27395228E+00
  0.33605263E+00  0.85439033E+00  0.37671932E-01
  0.66500568E+00  0.93181544E+00  0.55714114E-01
  0.29588183E+00  0.68641031E+00  0.46130924E-01
  0.63277343E+00  0.90398502E+00  0.77403643E+00
  0.30301389E+00  0.97867848E+00  0.58943221E+00
  0.63476559E+00  0.31024685E+00  0.83848718E+00
  0.83573301E+00  0.17918517E+00  0.31614552E+00
  0.76373190E+00  0.80569016E+00  0.52833063E+00