Sb6 Te6                                 
   1.00000000000000     
     2.1783365822986811   -3.7729896365272548    0.0000000000000001
     2.1783365822986811    3.7729896365272548   -0.0000000000000002
     0.0000000000000002    0.0000000000000000   24.2649047727012679
   Sb   Te
     6     6
Direct
  0.0000000000000000  0.0000000000000000  0.1299989287165117
  0.0000000000000000  0.0000000000000000  0.8700010712834885
  0.3333333333333357  0.6666666666666643  0.2928462742922713
  0.6666666666666643  0.3333333333333357  0.7071537257077289
  0.3333333333333357  0.6666666666666643  0.5320031293953176
  0.6666666666666643  0.3333333333333357  0.4679968706046825
  0.3333333333333357  0.6666666666666643  0.0602555755232905
  0.6666666666666643  0.3333333333333357  0.9397444244767095
  0.3333333333333357  0.6666666666666643  0.7881723989962444
  0.6666666666666643  0.3333333333333357  0.2118276010037559
  0.0000000000000000  0.0000000000000000  0.3633533353040533
  0.0000000000000000  0.0000000000000000  0.6366466646959467
 
  0.00000000E+00  0.00000000E+00  0.00000000E+00
  0.00000000E+00  0.00000000E+00  0.00000000E+00
  0.00000000E+00  0.00000000E+00  0.00000000E+00
  0.00000000E+00  0.00000000E+00  0.00000000E+00
  0.00000000E+00  0.00000000E+00  0.00000000E+00
  0.00000000E+00  0.00000000E+00  0.00000000E+00
  0.00000000E+00  0.00000000E+00  0.00000000E+00
  0.00000000E+00  0.00000000E+00  0.00000000E+00
  0.00000000E+00  0.00000000E+00  0.00000000E+00
  0.00000000E+00  0.00000000E+00  0.00000000E+00
  0.00000000E+00  0.00000000E+00  0.00000000E+00
  0.00000000E+00  0.00000000E+00  0.00000000E+00
