Sb_48                                   
   1.00000000000000     
     8.7122550665515739    0.0151861854477495    0.0160654232703600
    -4.3422904046183026    7.6194419193569543   -0.0728708943615201
     0.0511925998159189   -0.1975192279808731   22.3556100552971770
   Sb   Y 
    41     7
Direct
  0.0423326269237478  0.0343981963680671  0.1315470981372436
  0.3991595292489633  0.2098343937392181  0.2995577102565919
  0.1911925655368648  0.3394378476294062  0.9627766810226214
  0.0354139707087752  0.0276418683422038  0.3518222323098849
  0.3571146299992511  0.1522661552427091  0.0160786719278139
  0.5190321765700937  0.0079927646648010  0.1281761228259193
  0.8071679057742690  0.1487992518564758  0.3015434037319724
  0.7250680249177107  0.3781798862091321  0.9619309189822175
  0.4088535948145273 -0.0382625246161550  0.3818854874898340
  0.8518398703149448  0.1720482791471496  0.0271402946253635
  0.6950844278555894  0.3504432725466142  0.1928173499444913
  0.0432598592615460  0.5083044722505053  0.1353005274498030
  0.3937895233846212  0.6980703612545168  0.2956804436240449
  0.1313612124285287  0.7833307272537925  0.9601824288907032
  0.0353329241811531  0.5009568096305551  0.3501860910195355
  0.3564936904394338  0.6782568328022381  0.0264186655900091
  0.1899732776390534  0.8486709932368862  0.1991784133337306
  0.4915549755752862  0.4915886264016869  0.1319976289521339
  0.8335405704201121  0.6632796537598352  0.3039284657990217
  0.7017392924168999  0.8283401861795657  0.9659632295780832
  0.6967607286887036  0.8428151147515401  0.1910726932828579
  0.0084904477839983  0.0295325499276136  0.6398174193981410
  0.3629225877151347  0.1633009381066651  0.8018954265056820
  0.1580430466127167  0.3350116789746514  0.4694840855218081
  0.0056878431460372 -0.0091584712031104  0.8570891525228916
  0.2639326210791099  0.1003377968148278  0.5301786425637891
  0.1650367771076673  0.3680327505637922  0.7210499581025999
  0.5021045009285554  0.0106685446083514  0.6321835708177622
  0.7684532222016626  0.0817811360716220  0.7918984765148166
  0.6434330755154718  0.3436844887299925  0.4796132485080981
  0.8253533593968433  0.1838560441234645  0.5403225438255314
  0.6346991688329544  0.3545249535581640  0.6898498370435751
  0.0012218371845326  0.5081357811462099  0.6374837570560350
  0.3818942530225519  0.7131411215338926  0.7994549163299244
  0.2974585751835551  0.6870703810752210  0.5277911680554658
  0.1678535598523094  0.8508105460446401  0.7000065199045018
  0.8513236672973505  0.6466670529939775  0.7938406647951070
  0.6607473471121688  0.8564297391941582  0.4673482135344810
  0.5185211686689137  0.5094751442701896  0.8602926203263631
  0.7707572520206175  0.6729518936953514  0.5548574325448978
  0.6423436718294070  0.8102453625502130  0.6959252352878432
  0.1735229896095294  0.3351267481900608  0.2306104701609937
  0.5028941775807130  0.5158913232686294  0.3903220690012716
  0.8549046159209885  0.6722249525361486  0.0655527037020665
  0.5043147313791327  0.0023776470073397  0.9037720680552254
  0.0208267446748021  0.7557645926989803  0.4481844577004494
  0.0180620917722158  0.4378970240452978  0.8533454488657757
  0.3891312694709682  0.4378250908228934  0.6026454825810230
 
  0.00000000E+00  0.00000000E+00  0.00000000E+00
  0.00000000E+00  0.00000000E+00  0.00000000E+00
  0.00000000E+00  0.00000000E+00  0.00000000E+00
  0.00000000E+00  0.00000000E+00  0.00000000E+00
  0.00000000E+00  0.00000000E+00  0.00000000E+00
  0.00000000E+00  0.00000000E+00  0.00000000E+00
  0.00000000E+00  0.00000000E+00  0.00000000E+00
  0.00000000E+00  0.00000000E+00  0.00000000E+00
  0.00000000E+00  0.00000000E+00  0.00000000E+00
  0.00000000E+00  0.00000000E+00  0.00000000E+00
  0.00000000E+00  0.00000000E+00  0.00000000E+00
  0.00000000E+00  0.00000000E+00  0.00000000E+00
  0.00000000E+00  0.00000000E+00  0.00000000E+00
  0.00000000E+00  0.00000000E+00  0.00000000E+00
  0.00000000E+00  0.00000000E+00  0.00000000E+00
  0.00000000E+00  0.00000000E+00  0.00000000E+00
  0.00000000E+00  0.00000000E+00  0.00000000E+00
  0.00000000E+00  0.00000000E+00  0.00000000E+00
  0.00000000E+00  0.00000000E+00  0.00000000E+00
  0.00000000E+00  0.00000000E+00  0.00000000E+00
  0.00000000E+00  0.00000000E+00  0.00000000E+00
  0.00000000E+00  0.00000000E+00  0.00000000E+00
  0.00000000E+00  0.00000000E+00  0.00000000E+00
  0.00000000E+00  0.00000000E+00  0.00000000E+00
  0.00000000E+00  0.00000000E+00  0.00000000E+00
  0.00000000E+00  0.00000000E+00  0.00000000E+00
  0.00000000E+00  0.00000000E+00  0.00000000E+00
  0.00000000E+00  0.00000000E+00  0.00000000E+00
  0.00000000E+00  0.00000000E+00  0.00000000E+00
  0.00000000E+00  0.00000000E+00  0.00000000E+00
  0.00000000E+00  0.00000000E+00  0.00000000E+00
  0.00000000E+00  0.00000000E+00  0.00000000E+00
  0.00000000E+00  0.00000000E+00  0.00000000E+00
  0.00000000E+00  0.00000000E+00  0.00000000E+00
  0.00000000E+00  0.00000000E+00  0.00000000E+00
  0.00000000E+00  0.00000000E+00  0.00000000E+00
  0.00000000E+00  0.00000000E+00  0.00000000E+00
  0.00000000E+00  0.00000000E+00  0.00000000E+00
  0.00000000E+00  0.00000000E+00  0.00000000E+00
  0.00000000E+00  0.00000000E+00  0.00000000E+00
  0.00000000E+00  0.00000000E+00  0.00000000E+00
  0.00000000E+00  0.00000000E+00  0.00000000E+00
  0.00000000E+00  0.00000000E+00  0.00000000E+00
  0.00000000E+00  0.00000000E+00  0.00000000E+00
  0.00000000E+00  0.00000000E+00  0.00000000E+00
  0.00000000E+00  0.00000000E+00  0.00000000E+00
  0.00000000E+00  0.00000000E+00  0.00000000E+00
  0.00000000E+00  0.00000000E+00  0.00000000E+00
