In2O3                                   
   1.00000000000000     
     7.9661187189802494   -0.0875626667221547   -0.0184511022410922
    -0.0873937959215653    7.9672644591461115    0.0204122809971079
    -0.0179353223427307    0.0204473271816921    8.0506856848997739
   In   Ga   O 
    15     1    24
Direct
  0.0007229455412343  0.0100948220099966  0.0626455131693504
  0.0332551186233303  0.9814560862524289  0.5698225793193856
  0.0022807450076598  0.5177714681541872  0.0606475855638493
  0.7537244757336765  0.7612499113562450  0.3372053472963117
  0.2817001390320613  0.7337942264288131  0.8372981489212492
  0.5360045730288050  0.9771677667205836  0.5709045971874431
  0.5061366906940705  0.5153057179955312  0.0638903406705325
  0.5410944514792959  0.4875018764233872  0.5713070025152405
  0.2529168761313016  0.2631643306751172  0.3389469836550489
  0.2850290885988542  0.2359091753018419  0.8375260182686972
  0.2548310379547019  0.7646363271679064  0.3391039056939036
  0.0304416857769780  0.4834303723519966  0.5685331073830469
  0.7546837732297362  0.2636927142708814  0.3368918907974177
  0.7824121315086785  0.2340965041777565  0.8376461778523421
  0.5055799868628910  0.0126656547599779  0.0648767157522698
  0.7829113028193291  0.7398420082333175  0.8447036174019473
  0.5007083451736065  0.7280474922681179  0.4513564591771200
  0.2500684367652610  0.1268276642526445  0.1021680746184543
  0.0351339227260894  0.1243848174939259  0.8013773413663330
  0.8892206948700760  0.2657191784210156  0.0997104183500426
  0.7895798851665248  0.8549286474124145  0.6186022579054722
  0.2493071842577379  0.4814869894723799  0.9485579555101111
  0.7456120850689416  0.9673202857251653  0.9449004844373476
  0.5013994636576911  0.3799014962202918  0.3007796237825033
  0.6413141402789435  0.0145326523914520  0.3028491835328495
  0.2898638353470062  0.0187078937640521  0.4551175996498529
  0.3940943887130288  0.9822590064361734  0.8021322040364112
  0.7523707466956679  0.6364788867520019  0.0943237685457348
  0.5520076919059989  0.6338360031522541  0.8049041710788387
  0.8861964659242787  0.4917748751804396  0.8002868747295437
  0.0000630986862760  0.8781191994704685  0.3020008681599080
  0.7893595134303837  0.5167207218707830  0.4471132878641129
  0.1514939073109858  0.7290448176159785  0.5998958399288910
  0.3855100603495174  0.7663672150157979  0.1015289889603253
  0.1365099740204698  0.5167562719412615  0.2990990110780771
  0.5395272921282270  0.2693145433163338  0.9520050048460718
  0.9984164652537828  0.2276447181626082  0.4548661197069492
  0.2899614298200390  0.3742484591526960  0.6026439384451336
  0.0264017298906225  0.7706674980902406  0.9371203417577760
  0.6482791422947898  0.2284231290739172  0.6017942945228398
 
  0.00000000E+00  0.00000000E+00  0.00000000E+00
  0.00000000E+00  0.00000000E+00  0.00000000E+00
  0.00000000E+00  0.00000000E+00  0.00000000E+00
  0.00000000E+00  0.00000000E+00  0.00000000E+00
  0.00000000E+00  0.00000000E+00  0.00000000E+00
  0.00000000E+00  0.00000000E+00  0.00000000E+00
  0.00000000E+00  0.00000000E+00  0.00000000E+00
  0.00000000E+00  0.00000000E+00  0.00000000E+00
  0.00000000E+00  0.00000000E+00  0.00000000E+00
  0.00000000E+00  0.00000000E+00  0.00000000E+00
  0.00000000E+00  0.00000000E+00  0.00000000E+00
  0.00000000E+00  0.00000000E+00  0.00000000E+00
  0.00000000E+00  0.00000000E+00  0.00000000E+00
  0.00000000E+00  0.00000000E+00  0.00000000E+00
  0.00000000E+00  0.00000000E+00  0.00000000E+00
  0.00000000E+00  0.00000000E+00  0.00000000E+00
  0.00000000E+00  0.00000000E+00  0.00000000E+00
  0.00000000E+00  0.00000000E+00  0.00000000E+00
  0.00000000E+00  0.00000000E+00  0.00000000E+00
  0.00000000E+00  0.00000000E+00  0.00000000E+00
  0.00000000E+00  0.00000000E+00  0.00000000E+00
  0.00000000E+00  0.00000000E+00  0.00000000E+00
  0.00000000E+00  0.00000000E+00  0.00000000E+00
  0.00000000E+00  0.00000000E+00  0.00000000E+00
  0.00000000E+00  0.00000000E+00  0.00000000E+00
  0.00000000E+00  0.00000000E+00  0.00000000E+00
  0.00000000E+00  0.00000000E+00  0.00000000E+00
  0.00000000E+00  0.00000000E+00  0.00000000E+00
  0.00000000E+00  0.00000000E+00  0.00000000E+00
  0.00000000E+00  0.00000000E+00  0.00000000E+00
  0.00000000E+00  0.00000000E+00  0.00000000E+00
  0.00000000E+00  0.00000000E+00  0.00000000E+00
  0.00000000E+00  0.00000000E+00  0.00000000E+00
  0.00000000E+00  0.00000000E+00  0.00000000E+00
  0.00000000E+00  0.00000000E+00  0.00000000E+00
  0.00000000E+00  0.00000000E+00  0.00000000E+00
  0.00000000E+00  0.00000000E+00  0.00000000E+00
  0.00000000E+00  0.00000000E+00  0.00000000E+00
  0.00000000E+00  0.00000000E+00  0.00000000E+00
  0.00000000E+00  0.00000000E+00  0.00000000E+00
