Amorphous GeAsSeSi                      
   1.00000000000000     
    20.3930323354591110    0.0000000000000000    0.0000000000000000
     0.0000000000000000   20.3930323354591110    0.0000000000000000
     0.0000000000000000    0.0000000000000000   20.3930323354591110
   Ge   As   Te   Si
    75    75    75    75
Direct
  0.4612503128658747  0.8092086974579061  0.5392320140001479
  0.7157348732919874  0.8087655832028687  0.6555282061839310
  0.0840636681314492  0.4485792240409915  0.7806605635249645
  0.0670630994781326  0.8599654832033328  0.3060018599849078
  0.0552824898800317  0.1556802306416570  0.7692758345879863
  0.6039979280188974  0.2140775898427846  0.3725759785384503
  0.8508518523356003  0.8825562195211347  0.5833055725942339
  0.1330482008359757  0.6788862651380934  0.9268641706702118
  0.8162694462565341  0.0528489299566221  0.9860325468016833
  0.9152944768669267  0.1506797763178360  0.6553388994860838
  0.3864989823254003  0.1113373469549923  0.4645740929320639
  0.7941714987656475  0.4439404537489228  0.2405990770798510
  0.6977020375627767  0.8764462815431032  0.8191619233348554
  0.2199387971951215  0.7942780284294575  0.6518240683575717
  0.0225759420761972  0.4380739164366220  0.6745735344335176
  0.5710328818658730  0.8482658885721643  0.0413540805404304
  0.5800460713103821  0.4657166753161349  0.7991123568126987
  0.5333020775974110  0.2079033771421352  0.5867678396963699
  0.3887488436336975  0.7937548631428095  0.9436825188439016
  0.7191308032840263  0.1561743709070866  0.8333478445631602
  0.2928251640502428  0.2206686770745134  0.1341498017180378
  0.8082445722090220  0.5674640347801244  0.0227478169909774
  0.6313078282378584  0.8624830481429759  0.4997340924700546
  0.2475275697498663  0.6726943833251926  0.6518609575017736
  0.1324033422745569  0.8771668615866317  0.5394317052162622
  0.6370117737976834  0.1337763464504809  0.4610801986707401
  0.6620589137286498  0.5178481240842405  0.4704839630675243
  0.9474926582594470  0.9500046831283635  0.0252901587442083
  0.1818862384066061  0.1554273535628176  0.5390366277190588
  0.4271206738608306  0.3709051965333523  0.4084148628216602
  0.6494866124908493  0.2163990702998051  0.5503352538578716
  0.9734576825337268  0.0207775456073637  0.3474605468774246
  0.3522371614215549  0.9321156938907922  0.3868867608798755
  0.7083447928500225  0.1379044701774629  0.6288979406504208
  0.9908978901888447  0.7608174141548346  0.4645565723564888
  0.6184473365485484  0.7450135230178438  0.3020703501764651
  0.0102274606411467  0.9395318380673351  0.1985161468053354
  0.6981842250489774  0.7933849836904941  0.9447646609018637
  0.5442732405043252  0.6255748780695337  0.8822780568462805
  0.6607566116529751  0.3385780724698641  0.5227103806172220
  0.6384096221677529  0.9025018840818334  0.6235379985748077
  0.3654313927453471  0.5048551459103243  0.8292058074109731
  0.2426954331620115  0.6680522344696438  0.0574306299347397
  0.2728799674664740  0.1173673045233100  0.8993917437423433
  0.5211885640661451  0.0213581029018552  0.5879794537709968
  0.8956965088570150  0.9292331575789206  0.3836537563843350
  0.1570886279074696  0.2520534951898661  0.4097574181363514
  0.9423639818198378  0.3068466366549708  0.2769675411975657
  0.9985588712778983  0.7579820850075677  0.0338227056887610
  0.7750927895480572  0.3901500921521068  0.5611671516979660
  0.4943298657061551  0.7621146706004763  0.9983766505554114
  0.8047227305892961  0.9013623898923430  0.1143771357275564
  0.7205354979079699  0.7399468674989718  0.5551207469313515
  0.7991196109538927  0.9140178077391936  0.7476562410238854
  0.0010447285068705  0.1289789196082874  0.3982567476798460
  0.2490655230567043  0.3900746969126412  0.9056798961974031
  0.4596446984032403  0.0926198529395568  0.8604268473091355
  0.3362330008499675  0.9525311336700016  0.8513748550943353
  0.2286530621348143  0.2714051832294832  0.8472167763787514
  0.7035677673529952  0.4258891126621042  0.9422356074260156
  0.4780167334767447  0.2493513914340018  0.7511224611235898
  0.2366216951682451  0.4955851147177363  0.8339750562446591
  0.9847575230111008  0.6937994111032733  0.8170278303909326
  0.2387340533848255  0.0719436847853245  0.0117031991813118
  0.7774289651934942  0.9722923354648685  0.8971193107420973
  0.8602126480552542  0.2992671673026736  0.5529292526431316
  0.6551756156085889  0.1826838789811242  0.1714676880994454
  0.5801983555233219  0.4205019723119781  0.4623288587453134
  0.3664956225169318  0.6277201918402063  0.2391073366994954
  0.3719686228802822  0.1569548971455873  0.2576145371065526
  0.5289712971667898  0.6442023981092795  0.5948179767450280
  0.2061260667406073  0.7012826686287273  0.4450957642923610
  0.1092405662951433  0.2599519817358217  0.5313985769260126
  0.9657680344141090  0.4686793362173414  0.4967900469649482
  0.0661684472287506  0.6873196622718870  0.3904867938525723
  0.3500243836342525  0.8080435444510107  0.3747013755990694
  0.4702336745380400  0.8002088669838426  0.4006874565691256
  0.7398680231951426  0.0860024884397572  0.4163880737603724
  0.7667917100255397  0.7721777867903273  0.8442456194399707
  0.4738189353475764  0.3644492708652273  0.7021513411886846
  0.5028197891893799  0.6977607040077956  0.3378595570574646
  0.7388391836704291  0.4017306358286987  0.0608118013761657
  0.6479586240860346  0.8064112062758451  0.1293504683675797
  0.4512894913726170  0.9460247979040801  0.0057932782006335
  0.7521916059533101  0.9572027722278452  0.6008948036496423
  0.8361101095344405  0.8159875417651390  0.6843181586873134
  0.2179003487010324  0.8790456187276783  0.4524159576659348
  0.9003954147813111  0.1270044604079839  0.1902494206111232
  0.4991282070870862  0.6706753271149932  0.0772856429760696
  0.4726083729556316  0.4864385305286336  0.4011369274545819
  0.2879183568333429  0.4618994788900543  0.0042116630383989
  0.5338046052655402  0.8640742471721767  0.8502820013629994
  0.0477616291504675  0.6222620991144668  0.9956822394899790
  0.1528815388144846  0.3453034011412572  0.2219736167364396
  0.1459464405986739  0.7997784656748804  0.9354338467356057
  0.3037095288327974  0.2289224424259226  0.9411626873738771
  0.1886523399748422  0.8123712026679766  0.7805326344260186
  0.8643049204840492  0.0093372882555852  0.4794712418435962
  0.6255861226756989  0.5859323294222976  0.7961056074086148
  0.6696581539652241  0.5905761499200524  0.3704227802222764
  0.5128974018316425  0.5013899872386692  0.5385972626676607
  0.4852296553419224  0.5495178109837405  0.7964926861678444
  0.5546292599679253  0.9433740147652059  0.4393925416934563
  0.9957384318973477  0.2021258892102043  0.2226567913194482
  0.2512800449512228  0.3325931648097289  0.4071043424684999
  0.6884742447705196  0.0703079549603124  0.1322060377375602
  0.3507517156785050  0.3470772085475575  0.7083854391564717
  0.6159147004221266  0.9005514798416210  0.9365833142401702
  0.6938430201114983  0.7092421726033786  0.3953658398902697
  0.6021688685653179  0.6400382128363123  0.2322365092395237
  0.4055100109566056  0.7174989065425756  0.8503161228521108
  0.3441955490217032  0.0684866230462472  0.8092221576135893
  0.1609994507970623  0.8028941427322600  0.3772188440931206
  0.6180987049769171  0.7370497676363568  0.4884476188508020
  0.9111843766272629  0.3988555947212403  0.7149882768940597
  0.6816378314717494  0.4885632910395000  0.2298492331909583
  0.2786625546772530  0.1069493562872848  0.1914790754739539
  0.1074417638385196  0.6524279318315660  0.8100581999027612
  0.3117358789119701  0.4706551698322721  0.2810752914501260
  0.0960007521935263  0.2722809628798181  0.7477536779224437
  0.4455556156584319  0.4258788560687610  0.1232404684618638
  0.1855155763840117  0.1765455298271832  0.3149078157580475
  0.3433069181957247  0.7934507776030930  0.5811990286096559
  0.5188088600062407  0.4811775431069463  0.2823145986419442
  0.7288584338523817  0.8900961789400592  0.4291834294341095
  0.3516879558928294  0.1349008547251268  0.6287473684059017
  0.2208674804566470  0.5986165319314205  0.9565913973129645
  0.1725979618360905  0.9798471984766466  0.9564601221471801
  0.2397443930149758  0.9846328038749554  0.2561288710521962
  0.6439665275913342  0.4568020830941139  0.1175498293786064
  0.1165454809956185  0.5157334831986545  0.3049741247769365
  0.3695111653697751  0.6755285932515620  0.6152890817010517
  0.9274185988869648  0.2919438741589647  0.6580477524657841
  0.0455304391564685  0.3147004803094142  0.6447334785966135
  0.9796225015360782  0.3932858814041356  0.1891913427604859
  0.3213846166369014  0.2590963865114406  0.3110949144247978
  0.0750382890387627  0.0004705675709090  0.7726615887654205
  0.0853950842785993  0.5890412881324636  0.5400731268732187
  0.2676473593895387  0.0212920152138842  0.3708323599425281
  0.2851524388801960  0.9381975437795192  0.9622761232202049
  0.2066670346221095  0.3185885047040642  0.5924019171949485
  0.0872495976588247  0.4427882411256991  0.3971647317153095
  0.7462667828778242  0.6302283389831532  0.6035459586823191
  0.5703070862696219  0.3332052154449544  0.2544051024799185
  0.1205504003493366  0.5252932511893025  0.9647180608348978
  0.9015020330143766  0.0252003095584151  0.6646937134875232
  0.2395097190005000  0.9143644587844478  0.1235141280467459
  0.8185524583762747  0.1809325477765480  0.5782385628863349
  0.1361713159906994  0.7593885311494030  0.5629785669506341
  0.8610882286664466  0.0116248098418854  0.0922095697530534
  0.4529284756526528  0.2228284903153813  0.8757343092882552
  0.1501652087542245  0.7259050217201156  0.1296010151701644
  0.7977324677910393  0.2274461899980104  0.0576474483643660
  0.8448948638556147  0.1762047855974405  0.7743123115683801
  0.3850876691478686  0.7447011783701379  0.1736324576824120
  0.8044675431437687  0.8695772351713510  0.9774455965323855
  0.2169827952718884  0.6020800488431023  0.5431020267039667
  0.9680311853775445  0.5832598394633425  0.4056734567796250
  0.0164764839979907  0.7394223453161194  0.2781148370452827
  0.9620072385266095  0.5735800993228038  0.1892346203073556
  0.7953326775480636  0.3131492281408026  0.2406274425887665
  0.5372196436757443  0.3116217294293285  0.0598257385699904
  0.8227343705998277  0.9594545384160138  0.2732413602174923
  0.8965352936940143  0.9333632137971325  0.8387333039643561
  0.8699548964869307  0.7652775002212963  0.4049203395211412
  0.5155320054888223  0.8733229574100960  0.2948753161332180
  0.0801378753860078  0.3287580438863384  0.3300365482598137
  0.9108678311715297  0.3037617519893672  0.4309845307133955
  0.3669083033419864  0.3711548320880757  0.8408335596283182
  0.5768247365815105  0.4280116337145418  0.9285463684631359
  0.0113876401647102  0.8003415921056026  0.9026384884961381
  0.8070330585770227  0.6459894544990912  0.2430337884160912
  0.0169412221852562  0.8914781038593148  0.4717512321114646
  0.6336873539817269  0.1687072870310394  0.9667442242198928
  0.3091575848024160  0.5814346443993974  0.1261197477719357
  0.5450779060645990  0.9284100166328674  0.1462837873261035
  0.5432916050035490  0.0302934423640898  0.9669726300028545
  0.0093451046033597  0.8273337764252050  0.7048057660174951
  0.2789793269682612  0.9631413086545547  0.6789777072526585
  0.0450415084632412  0.2364471283625955  0.1074293950868873
  0.8665243681201298  0.6716834823262082  0.9705683917925895
  0.9284356545600777  0.1140844552480294  0.9525302047905904
  0.0455905950583569  0.3424552254507346  0.8439733405740611
  0.2038167983739052  0.4077863563733696  0.7369914599432169
  0.2057998475474608  0.2092094162913116  0.0322983428916727
  0.2785179469496617  0.7891410220294153  0.0129865485826456
  0.6768927550767618  0.2292795724537670  0.7255446741941604
  0.9945204180907126  0.1548518244632891  0.5350229488028710
  0.9102827148398971  0.3677233904089860  0.0157350243636889
  0.7865237411667698  0.3665527332989083  0.8589800656507260
  0.1773611429982359  0.1337077831626512  0.6699431624990612
  0.6013623969862378  0.6023180171412355  0.0158223072609900
  0.9388188699207660  0.7149641984038483  0.5743750307291622
  0.6586678995117886  0.0441423653326315  0.7919808136090086
  0.3835912811321882  0.7952167192049774  0.7449582721675393
  0.3839726235266178  0.6479086037846817  0.4842875003239966
  0.8235233323558541  0.1544179722748251  0.2941088382982395
  0.4834092470447492  0.2500966247397772  0.4113741983311888
  0.1571326824310021  0.5089245354396512  0.1411461983824518
  0.5412912288230687  0.0493423052533832  0.2900046758076965
  0.7477996728570330  0.7356440007400886  0.0761511260033050
  0.6649474076116921  0.7516891339282291  0.7641381927566352
  0.9445262504280463  0.4986240325046307  0.8799480477938366
  0.9319407400556862  0.8478888765795010  0.1189026251594994
  0.3249990889158464  0.3809643668277070  0.1042540155155136
  0.0541142745240405  0.0080447760885956  0.0922212509578445
  0.2477068993938131  0.6241753192756173  0.3416702705777491
  0.3602817671918326  0.9795894912907622  0.5095550047113263
  0.1382615594879872  0.0416884257294027  0.4874130459008171
  0.3646928546749573  0.9404953073099638  0.2201305219956343
  0.4947959820257481  0.9875404771210293  0.7094284694697049
  0.4051832985620719  0.1382046118144169  0.0356652138988579
  0.7437218051127469  0.5485478429998027  0.9097658488905039
  0.9641808374794597  0.5766700728871502  0.6923062531487089
  0.5402373321929794  0.7724716345268753  0.6393422703790765
  0.0946237305426438  0.0242863828965313  0.2837727442945507
  0.8349904994617839  0.4725358313811031  0.3669788656750410
  0.3475118713847452  0.5101386973141304  0.6551258426033096
  0.6005107336184156  0.4833826131492782  0.6414464942637942
  0.1439600877223943  0.1649422308747068  0.8739680470507113
  0.7856937925469349  0.5329073787102541  0.7296079424434910
  0.4717223862561946  0.5467360202620321  0.1820272198503117
  0.6940453902880183  0.3072180964264704  0.3969684256614358
  0.1964460173484655  0.8507922439811959  0.2531555932300805
  0.3999836196926373  0.5091834379661928  0.9579286310792232
  0.3710284089364849  0.5258664909982675  0.4550263626726821
  0.4548910159953106  0.1203014261342359  0.5656493436064766
  0.5019058629221452  0.1195985093878940  0.1139924371764487
  0.4302541294435975  0.8980386781646206  0.9014349305065142
  0.8390483111105045  0.4565438532482043  0.6425628449789399
  0.6141680914478513  0.0222590074746995  0.5071460483783647
  0.5500926087591146  0.5868777959863637  0.7033105401564931
  0.8951168558721190  0.1832077295399392  0.3944362833802043
  0.4900404486762044  0.7614880986983903  0.2379559631233013
  0.3703467962179688  0.3658928366087230  0.3017981157770094
  0.1631156843053221  0.9346075950619815  0.6413327724529747
  0.1776929597318043  0.4274843266718785  0.5559157956546029
  0.3580673130648743  0.0184893160930192  0.0230752577563831
  0.4768897938961466  0.9304261960820891  0.5270849022268457
  0.8344275856938947  0.1246212607812510  0.4742971421348282
  0.3021008940315662  0.1754220521212900  0.5270801608431900
  0.0776224436974604  0.6211677908191786  0.6541742518953411
  0.9645055851326793  0.6201915010851420  0.9111826296919172
  0.0485550835592683  0.7324121888622359  0.6333746189803841
  0.5419778418372143  0.0865834953976131  0.7674083021605170
  0.9569791346219113  0.0216067426651141  0.7701570426897684
  0.3659693565943817  0.0819632620146318  0.3490715775545010
  0.2903315321909849  0.7850517957650123  0.4749728622816989
  0.7955732599275480  0.8184750095877360  0.4970468747589298
  0.2288536161909639  0.2548128160829906  0.2359631212245294
  0.1128781090026282  0.8896983927613189  0.7347751046219186
  0.8574331666777464  0.6388629850528657  0.4320755758847015
  0.3892595186178380  0.2379234595478348  0.6735142479036963
  0.6404159531713401  0.5865443072124279  0.5680891216049722
  0.5796792012633117  0.1967206947177536  0.0792895412869742
  0.1068894922303673  0.8137815831375695  0.0476252365751821
  0.9260888257687571  0.0207940110217295  0.2380344811375735
  0.7322845217833319  0.9928341770722993  0.4909147436348805
  0.7860170443545944  0.5917315022636582  0.3539339797078742
  0.0730303093716058  0.1471208155421277  0.3005092476469166
  0.1992242323486876  0.4357810151095610  0.4401686270687540
  0.4874808094870109  0.1431605041494008  0.2264455166390585
  0.1984751543153264  0.4519783559896834  0.2471735910533056
  0.6201508780095635  0.3450545788786717  0.1475566031094441
  0.7756220345394095  0.4833772253964455  0.4845250745927708
  0.0524840174004409  0.4886127189615104  0.2085199764670353
  0.1246639468882251  0.5414765165999600  0.8462237234892663
  0.4577333162045604  0.2988814915298003  0.6036466185634159
  0.2758978663490256  0.5105013818521340  0.3882628728015108
  0.7032679579245263  0.5981998980504583  0.1928161820590213
  0.7842089007480453  0.0262008371420617  0.6939482727646326
  0.5683866416973883  0.7238073714297727  0.1585921904826930
  0.7107511472329177  0.6167457823826300  0.0792136436275005
  0.0381996301161956  0.0412852989993470  0.5659693734974048
  0.3052168947138778  0.0135432343613597  0.1237753975506489
  0.9415976374991039  0.9678506657424985  0.5609459121700293
  0.8230743144076129  0.5831117508648336  0.5283131322448503
  0.5198704176764842  0.7462366737019326  0.8812028645765557
  0.1787376954764468  0.5878616957230324  0.7073052619687457
  0.2872741796171936  0.8766571961415323  0.7707899184924593
  0.4312283600710183 -0.0085871334614575  0.3163367879961351
  0.5745382966148870  0.2143243108568649  0.2548746325593835
  0.8270436945126435  0.4820165006966416  0.8367192636387817
  0.2905130284841548  0.2944424178286317  0.5129927089000568
  0.1042209297354977  0.0327611448522060  0.6616307450966619
  0.8912629947892464  0.4717432087940370  0.1738822766236690
  0.0680863147273497  0.4728669364487926  0.5659770964062305
  0.5789456345174799  0.0363818827341682  0.0920662661911271
  0.7308695611865939  0.1247319069962891  0.0338310674195032
  0.0234745421678975  0.3603201476559686  0.0820372379702091
  0.8438381831881899  0.4580208801237350  0.0674933707419049
  0.9080306450413128  0.5310516930734125  0.5850430397787076
  0.2204432703740212  0.4960452173605643  0.6412474995044380
  0.5608345599112008  0.1816202136580876  0.7031092448118085
  0.3988562699081769  0.4642766839670351  0.5500382285270274
  0.9474304987832362  0.1251194235012537  0.8282527479052695
  0.3910768989839859  0.3520424617749162  0.5233710869621473
  0.7200207533375866  0.2770477869700783  0.1427160106504430
  0.1448466888770508  0.9259768433670806  0.0589285662848799
  0.4654644952865732  0.3858675086298390  0.2346277061688693
 
  0.00000000E+00  0.00000000E+00  0.00000000E+00
  0.00000000E+00  0.00000000E+00  0.00000000E+00
  0.00000000E+00  0.00000000E+00  0.00000000E+00
  0.00000000E+00  0.00000000E+00  0.00000000E+00
  0.00000000E+00  0.00000000E+00  0.00000000E+00
  0.00000000E+00  0.00000000E+00  0.00000000E+00
  0.00000000E+00  0.00000000E+00  0.00000000E+00
  0.00000000E+00  0.00000000E+00  0.00000000E+00
  0.00000000E+00  0.00000000E+00  0.00000000E+00
  0.00000000E+00  0.00000000E+00  0.00000000E+00
  0.00000000E+00  0.00000000E+00  0.00000000E+00
  0.00000000E+00  0.00000000E+00  0.00000000E+00
  0.00000000E+00  0.00000000E+00  0.00000000E+00
  0.00000000E+00  0.00000000E+00  0.00000000E+00
  0.00000000E+00  0.00000000E+00  0.00000000E+00
  0.00000000E+00  0.00000000E+00  0.00000000E+00
  0.00000000E+00  0.00000000E+00  0.00000000E+00
  0.00000000E+00  0.00000000E+00  0.00000000E+00
  0.00000000E+00  0.00000000E+00  0.00000000E+00
  0.00000000E+00  0.00000000E+00  0.00000000E+00
  0.00000000E+00  0.00000000E+00  0.00000000E+00
  0.00000000E+00  0.00000000E+00  0.00000000E+00
  0.00000000E+00  0.00000000E+00  0.00000000E+00
  0.00000000E+00  0.00000000E+00  0.00000000E+00
  0.00000000E+00  0.00000000E+00  0.00000000E+00
  0.00000000E+00  0.00000000E+00  0.00000000E+00
  0.00000000E+00  0.00000000E+00  0.00000000E+00
  0.00000000E+00  0.00000000E+00  0.00000000E+00
  0.00000000E+00  0.00000000E+00  0.00000000E+00
  0.00000000E+00  0.00000000E+00  0.00000000E+00
  0.00000000E+00  0.00000000E+00  0.00000000E+00
  0.00000000E+00  0.00000000E+00  0.00000000E+00
  0.00000000E+00  0.00000000E+00  0.00000000E+00
  0.00000000E+00  0.00000000E+00  0.00000000E+00
  0.00000000E+00  0.00000000E+00  0.00000000E+00
  0.00000000E+00  0.00000000E+00  0.00000000E+00
  0.00000000E+00  0.00000000E+00  0.00000000E+00
  0.00000000E+00  0.00000000E+00  0.00000000E+00
  0.00000000E+00  0.00000000E+00  0.00000000E+00
  0.00000000E+00  0.00000000E+00  0.00000000E+00
  0.00000000E+00  0.00000000E+00  0.00000000E+00
  0.00000000E+00  0.00000000E+00  0.00000000E+00
  0.00000000E+00  0.00000000E+00  0.00000000E+00
  0.00000000E+00  0.00000000E+00  0.00000000E+00
  0.00000000E+00  0.00000000E+00  0.00000000E+00
  0.00000000E+00  0.00000000E+00  0.00000000E+00
  0.00000000E+00  0.00000000E+00  0.00000000E+00
  0.00000000E+00  0.00000000E+00  0.00000000E+00
  0.00000000E+00  0.00000000E+00  0.00000000E+00
  0.00000000E+00  0.00000000E+00  0.00000000E+00
  0.00000000E+00  0.00000000E+00  0.00000000E+00
  0.00000000E+00  0.00000000E+00  0.00000000E+00
  0.00000000E+00  0.00000000E+00  0.00000000E+00
  0.00000000E+00  0.00000000E+00  0.00000000E+00
  0.00000000E+00  0.00000000E+00  0.00000000E+00
  0.00000000E+00  0.00000000E+00  0.00000000E+00
  0.00000000E+00  0.00000000E+00  0.00000000E+00
  0.00000000E+00  0.00000000E+00  0.00000000E+00
  0.00000000E+00  0.00000000E+00  0.00000000E+00
  0.00000000E+00  0.00000000E+00  0.00000000E+00
  0.00000000E+00  0.00000000E+00  0.00000000E+00
  0.00000000E+00  0.00000000E+00  0.00000000E+00
  0.00000000E+00  0.00000000E+00  0.00000000E+00
  0.00000000E+00  0.00000000E+00  0.00000000E+00
  0.00000000E+00  0.00000000E+00  0.00000000E+00
  0.00000000E+00  0.00000000E+00  0.00000000E+00
  0.00000000E+00  0.00000000E+00  0.00000000E+00
  0.00000000E+00  0.00000000E+00  0.00000000E+00
  0.00000000E+00  0.00000000E+00  0.00000000E+00
  0.00000000E+00  0.00000000E+00  0.00000000E+00
  0.00000000E+00  0.00000000E+00  0.00000000E+00
  0.00000000E+00  0.00000000E+00  0.00000000E+00
  0.00000000E+00  0.00000000E+00  0.00000000E+00
  0.00000000E+00  0.00000000E+00  0.00000000E+00
  0.00000000E+00  0.00000000E+00  0.00000000E+00
  0.00000000E+00  0.00000000E+00  0.00000000E+00
  0.00000000E+00  0.00000000E+00  0.00000000E+00
  0.00000000E+00  0.00000000E+00  0.00000000E+00
  0.00000000E+00  0.00000000E+00  0.00000000E+00
  0.00000000E+00  0.00000000E+00  0.00000000E+00
  0.00000000E+00  0.00000000E+00  0.00000000E+00
  0.00000000E+00  0.00000000E+00  0.00000000E+00
  0.00000000E+00  0.00000000E+00  0.00000000E+00
  0.00000000E+00  0.00000000E+00  0.00000000E+00
  0.00000000E+00  0.00000000E+00  0.00000000E+00
  0.00000000E+00  0.00000000E+00  0.00000000E+00
  0.00000000E+00  0.00000000E+00  0.00000000E+00
  0.00000000E+00  0.00000000E+00  0.00000000E+00
  0.00000000E+00  0.00000000E+00  0.00000000E+00
  0.00000000E+00  0.00000000E+00  0.00000000E+00
  0.00000000E+00  0.00000000E+00  0.00000000E+00
  0.00000000E+00  0.00000000E+00  0.00000000E+00
  0.00000000E+00  0.00000000E+00  0.00000000E+00
  0.00000000E+00  0.00000000E+00  0.00000000E+00
  0.00000000E+00  0.00000000E+00  0.00000000E+00
  0.00000000E+00  0.00000000E+00  0.00000000E+00
  0.00000000E+00  0.00000000E+00  0.00000000E+00
  0.00000000E+00  0.00000000E+00  0.00000000E+00
  0.00000000E+00  0.00000000E+00  0.00000000E+00
  0.00000000E+00  0.00000000E+00  0.00000000E+00
  0.00000000E+00  0.00000000E+00  0.00000000E+00
  0.00000000E+00  0.00000000E+00  0.00000000E+00
  0.00000000E+00  0.00000000E+00  0.00000000E+00
  0.00000000E+00  0.00000000E+00  0.00000000E+00
  0.00000000E+00  0.00000000E+00  0.00000000E+00
  0.00000000E+00  0.00000000E+00  0.00000000E+00
  0.00000000E+00  0.00000000E+00  0.00000000E+00
  0.00000000E+00  0.00000000E+00  0.00000000E+00
  0.00000000E+00  0.00000000E+00  0.00000000E+00
  0.00000000E+00  0.00000000E+00  0.00000000E+00
  0.00000000E+00  0.00000000E+00  0.00000000E+00
  0.00000000E+00  0.00000000E+00  0.00000000E+00
  0.00000000E+00  0.00000000E+00  0.00000000E+00
  0.00000000E+00  0.00000000E+00  0.00000000E+00
  0.00000000E+00  0.00000000E+00  0.00000000E+00
  0.00000000E+00  0.00000000E+00  0.00000000E+00
  0.00000000E+00  0.00000000E+00  0.00000000E+00
  0.00000000E+00  0.00000000E+00  0.00000000E+00
  0.00000000E+00  0.00000000E+00  0.00000000E+00
  0.00000000E+00  0.00000000E+00  0.00000000E+00
  0.00000000E+00  0.00000000E+00  0.00000000E+00
  0.00000000E+00  0.00000000E+00  0.00000000E+00
  0.00000000E+00  0.00000000E+00  0.00000000E+00
  0.00000000E+00  0.00000000E+00  0.00000000E+00
  0.00000000E+00  0.00000000E+00  0.00000000E+00
  0.00000000E+00  0.00000000E+00  0.00000000E+00
  0.00000000E+00  0.00000000E+00  0.00000000E+00
  0.00000000E+00  0.00000000E+00  0.00000000E+00
  0.00000000E+00  0.00000000E+00  0.00000000E+00
  0.00000000E+00  0.00000000E+00  0.00000000E+00
  0.00000000E+00  0.00000000E+00  0.00000000E+00
  0.00000000E+00  0.00000000E+00  0.00000000E+00
  0.00000000E+00  0.00000000E+00  0.00000000E+00
  0.00000000E+00  0.00000000E+00  0.00000000E+00
  0.00000000E+00  0.00000000E+00  0.00000000E+00
  0.00000000E+00  0.00000000E+00  0.00000000E+00
  0.00000000E+00  0.00000000E+00  0.00000000E+00
  0.00000000E+00  0.00000000E+00  0.00000000E+00
  0.00000000E+00  0.00000000E+00  0.00000000E+00
  0.00000000E+00  0.00000000E+00  0.00000000E+00
  0.00000000E+00  0.00000000E+00  0.00000000E+00
  0.00000000E+00  0.00000000E+00  0.00000000E+00
  0.00000000E+00  0.00000000E+00  0.00000000E+00
  0.00000000E+00  0.00000000E+00  0.00000000E+00
  0.00000000E+00  0.00000000E+00  0.00000000E+00
  0.00000000E+00  0.00000000E+00  0.00000000E+00
  0.00000000E+00  0.00000000E+00  0.00000000E+00
  0.00000000E+00  0.00000000E+00  0.00000000E+00
  0.00000000E+00  0.00000000E+00  0.00000000E+00
  0.00000000E+00  0.00000000E+00  0.00000000E+00
  0.00000000E+00  0.00000000E+00  0.00000000E+00
  0.00000000E+00  0.00000000E+00  0.00000000E+00
  0.00000000E+00  0.00000000E+00  0.00000000E+00
  0.00000000E+00  0.00000000E+00  0.00000000E+00
  0.00000000E+00  0.00000000E+00  0.00000000E+00
  0.00000000E+00  0.00000000E+00  0.00000000E+00
  0.00000000E+00  0.00000000E+00  0.00000000E+00
  0.00000000E+00  0.00000000E+00  0.00000000E+00
  0.00000000E+00  0.00000000E+00  0.00000000E+00
  0.00000000E+00  0.00000000E+00  0.00000000E+00
  0.00000000E+00  0.00000000E+00  0.00000000E+00
  0.00000000E+00  0.00000000E+00  0.00000000E+00
  0.00000000E+00  0.00000000E+00  0.00000000E+00
  0.00000000E+00  0.00000000E+00  0.00000000E+00
  0.00000000E+00  0.00000000E+00  0.00000000E+00
  0.00000000E+00  0.00000000E+00  0.00000000E+00
  0.00000000E+00  0.00000000E+00  0.00000000E+00
  0.00000000E+00  0.00000000E+00  0.00000000E+00
  0.00000000E+00  0.00000000E+00  0.00000000E+00
  0.00000000E+00  0.00000000E+00  0.00000000E+00
  0.00000000E+00  0.00000000E+00  0.00000000E+00
  0.00000000E+00  0.00000000E+00  0.00000000E+00
  0.00000000E+00  0.00000000E+00  0.00000000E+00
  0.00000000E+00  0.00000000E+00  0.00000000E+00
  0.00000000E+00  0.00000000E+00  0.00000000E+00
  0.00000000E+00  0.00000000E+00  0.00000000E+00
  0.00000000E+00  0.00000000E+00  0.00000000E+00
  0.00000000E+00  0.00000000E+00  0.00000000E+00
  0.00000000E+00  0.00000000E+00  0.00000000E+00
  0.00000000E+00  0.00000000E+00  0.00000000E+00
  0.00000000E+00  0.00000000E+00  0.00000000E+00
  0.00000000E+00  0.00000000E+00  0.00000000E+00
  0.00000000E+00  0.00000000E+00  0.00000000E+00
  0.00000000E+00  0.00000000E+00  0.00000000E+00
  0.00000000E+00  0.00000000E+00  0.00000000E+00
  0.00000000E+00  0.00000000E+00  0.00000000E+00
  0.00000000E+00  0.00000000E+00  0.00000000E+00
  0.00000000E+00  0.00000000E+00  0.00000000E+00
  0.00000000E+00  0.00000000E+00  0.00000000E+00
  0.00000000E+00  0.00000000E+00  0.00000000E+00
  0.00000000E+00  0.00000000E+00  0.00000000E+00
  0.00000000E+00  0.00000000E+00  0.00000000E+00
  0.00000000E+00  0.00000000E+00  0.00000000E+00
  0.00000000E+00  0.00000000E+00  0.00000000E+00
  0.00000000E+00  0.00000000E+00  0.00000000E+00
  0.00000000E+00  0.00000000E+00  0.00000000E+00
  0.00000000E+00  0.00000000E+00  0.00000000E+00
  0.00000000E+00  0.00000000E+00  0.00000000E+00
  0.00000000E+00  0.00000000E+00  0.00000000E+00
  0.00000000E+00  0.00000000E+00  0.00000000E+00
  0.00000000E+00  0.00000000E+00  0.00000000E+00
  0.00000000E+00  0.00000000E+00  0.00000000E+00
  0.00000000E+00  0.00000000E+00  0.00000000E+00
  0.00000000E+00  0.00000000E+00  0.00000000E+00
  0.00000000E+00  0.00000000E+00  0.00000000E+00
  0.00000000E+00  0.00000000E+00  0.00000000E+00
  0.00000000E+00  0.00000000E+00  0.00000000E+00
  0.00000000E+00  0.00000000E+00  0.00000000E+00
  0.00000000E+00  0.00000000E+00  0.00000000E+00
  0.00000000E+00  0.00000000E+00  0.00000000E+00
  0.00000000E+00  0.00000000E+00  0.00000000E+00
  0.00000000E+00  0.00000000E+00  0.00000000E+00
  0.00000000E+00  0.00000000E+00  0.00000000E+00
  0.00000000E+00  0.00000000E+00  0.00000000E+00
  0.00000000E+00  0.00000000E+00  0.00000000E+00
  0.00000000E+00  0.00000000E+00  0.00000000E+00
  0.00000000E+00  0.00000000E+00  0.00000000E+00
  0.00000000E+00  0.00000000E+00  0.00000000E+00
  0.00000000E+00  0.00000000E+00  0.00000000E+00
  0.00000000E+00  0.00000000E+00  0.00000000E+00
  0.00000000E+00  0.00000000E+00  0.00000000E+00
  0.00000000E+00  0.00000000E+00  0.00000000E+00
  0.00000000E+00  0.00000000E+00  0.00000000E+00
  0.00000000E+00  0.00000000E+00  0.00000000E+00
  0.00000000E+00  0.00000000E+00  0.00000000E+00
  0.00000000E+00  0.00000000E+00  0.00000000E+00
  0.00000000E+00  0.00000000E+00  0.00000000E+00
  0.00000000E+00  0.00000000E+00  0.00000000E+00
  0.00000000E+00  0.00000000E+00  0.00000000E+00
  0.00000000E+00  0.00000000E+00  0.00000000E+00
  0.00000000E+00  0.00000000E+00  0.00000000E+00
  0.00000000E+00  0.00000000E+00  0.00000000E+00