Amorphous GeTe6                         
   1.00000000000000     
    22.4044198496002380    0.0000000000000000    0.0000000000000000
     0.0000000000000000   22.4044198496002380    0.0000000000000000
     0.0000000000000000    0.0000000000000000   22.4044198496002380
   Si   Te
    30   270
Direct
  0.4804261779067421  0.2824585403839768  0.6971746432749121
  0.3146535769207853  0.4004603547857937  0.4274367802318285
  0.9197400059770858  0.9305871174987488  0.7539678930682416
  0.9529943952157724  0.7163206957870597  0.7166596330354683
  0.7299684512603473  0.5152697102829635  0.2454526407818398
  0.9663570897401871  0.5270989131484076  0.2632150472553684
  0.6516733307530787  0.0983064650930456  0.4542699831339998
  0.2366129333143022  0.9617130940537724  0.1246674610188920
  0.5752526174423415  0.8716191316469011  0.3523872317573323
  0.4531053628524320  0.4936129835696270  0.4048459067287717
  0.1528887296419432  0.9449823809301546  0.6670018363599833
  0.2076691071045236  0.8487520230507469  0.8161050584225267
  0.5867822184734296  0.8029282394255735  0.1790943361416247
  0.2467579781007119  0.1207127551676282  0.1983568156516116
  0.0476076512969051  0.1083885832096629  0.9453592829759515
  0.6044621304009645  0.1681896375745874  0.3884374093316842
  0.7410045523531037  0.8018509614599491  0.2729199645543913
  0.7147503955984792  0.6685987749264078  0.9387030403896658
  0.4826900092653879  0.0476775086201279  0.7171159519030267
  0.7098653139164244  0.5253253960934504  0.3856906637638541
  0.0791949741503805  0.4311544474692111  0.8663335071157252
  0.7802532186677541  0.2940732962832137  0.7814091755869655
  0.5166342103669163  0.5764433110627951  0.3859928455459410
  0.4783342841450563  0.9761998864521947  0.6401981927719310
  0.3649385468954856  0.3048723597210568  0.7771191762970224
  0.1752703995964263  0.0328801430385020  0.4228060056069738
  0.3835793688992711  0.5921126718532251  0.2126816550555884
  0.2449885799745152  0.2699010762132358  0.0907412009420290
  0.2803865064423987  0.8688074541098419  0.0988142323291893
  0.6958998661519600  0.1368246404378028  0.2734568784978275
  0.5684681717051711  0.9642046124331726  0.0710780737789842
  0.4575515263243672  0.3099717493551735  0.3602849984563876
  0.6079554821971724  0.6911935379150206  0.1352647449689185
  0.3980307645466390  0.6630582164625017  0.9276567113098624
  0.5346684488182368  0.6161621738793908  0.2825975655981951
  0.2887342734623355  0.5338611883567222  0.1976039119419569
  0.8960207525369327  0.5338280729323660  0.4289626978422341
  0.7595079126136205  0.0699212036847754  0.2060933059505755
  0.3797031583749276  0.3982528756867857  0.5202702352493902
  0.2739170970876033  0.5030481978177181  0.9186487459375684
  0.1693449070291045  0.8397457834124870  0.7074941124452759
  0.0133667435847676  0.9566741641711612  0.0112508697348055
  0.5199769163912660  0.1984399724661549  0.6317273383102092
  0.7163606668497173  0.7438598083937034  0.6896046357357246
  0.8793881850025990  0.0054178514534958  0.8308599519497828
  0.8186686779789727  0.1734101549817551  0.6723571664716519
  0.0875757323865049  0.4682432346717568  0.9767607704275418
  0.3431345062159021  0.6931470793311649  0.4877903633194233
  0.4210447296831890  0.4061725765178128  0.9553307240292603
  0.4807576943852089  0.5914432508419035  0.8526228353333019
  0.5404059806988502  0.8387268096913670  0.0741477240272390
  0.3101825861792404  0.9396450945271133  0.7480557253274628
  0.6119708730974887  0.3539437007987913  0.9177760450527260
  0.0009397830733804  0.0299040805542207  0.3461272251921691
  0.3407668548932609  0.4145071048473674  0.7925501322902960
  0.6437790892690204  0.7429388078277962  0.2667394291719642
  0.5917400714182858  0.7620785201525508  0.5920889674836686
  0.5828036685254966  0.1207866044542193  0.2868543210402662
  0.2377442201941401  0.1164466940388204  0.3747354054338803
  0.3711170918237364  0.2881507369749055  0.6640688707663667
  0.0374387803725568  0.6702362958767396  0.0465775475998552
  0.3363605940268941  0.0881094545069946  0.0431480727473145
  0.8910259426724220  0.8791035623741624  0.4766655506098180
  0.1119075728440559  0.4923862738787665  0.1577686880902414
  0.1137162801023459  0.0918491148104723  0.4961397280544068
  0.9381740376383098  0.1532174632968432  0.5987182895413512
  0.9721453056491818  0.2157424255129026  0.0618457916287701
  0.9055019098710541  0.4311225192167019  0.2835637220242390
  0.4792491186676963  0.3921608835881351  0.0719410897576740
  0.9453344978423714  0.2556628422220881  0.4351287030948657
  0.0657819788370897  0.0049865031544684  0.7195085877820110
  0.5311981749901212  0.4071387669443565  0.3991200674924905
  0.1109222746563549  0.3874771130385957  0.4625202338730137
  0.9898317378167130  0.3339526677523590  0.0261691604153168
  0.5395768142767043  0.9677743572961739  0.4022146573123428
  0.7170933023000845  0.3810343828776339  0.7456684039183685
  0.2140870861526120  0.1562096617949730  0.0907209830027437
  0.5140314524938475  0.1953813720568543  0.4528511224908527
  0.1579208475238265  0.8090308046606013  0.3619743170682117
  0.3242266938376792  0.4317611638505897  0.6664784854139750
  0.6583006945134556  0.2694377732277535  0.3778647781394325
  0.8009624155100085  0.3789216864377424  0.4948985857179061
  0.3885656915335396  0.9024474172716691  0.0783449253733715
  0.1439188711299725  0.1191968060627606  0.2481663061829697
  0.0053935117220774  0.6039564278150709  0.4927749481093088
  0.9900176995580028  0.7222631570847386  0.4150678152557831
  0.2325669101417503  0.6077865557149621  0.0700635674310807
  0.6287649292798015  0.8212176651423712  0.9418000423278490
  0.3908239669590279  0.1099809886381034  0.7382712034667754
  0.0217463107929906  0.2567431665145446  0.6068889339530236
  0.4105903464669504  0.0000398201187375  0.5518478148340431
  0.5798872741842821  0.1055919176237629  0.6950687181508420
  0.8356399417560308  0.2379704575057050  0.2597605092519483
  0.1376304923429268  0.3708130107941750  0.1897025171158518
  0.6592858658614636  0.4631319218649709  0.5899200433562312
  0.6856616827536164  0.9871440152063141  0.4771670796566655
  0.7453047055808739  0.0947087784306483  0.3655046095836468
  0.3330744418420687  0.1492567711876778  0.9325494572145627
  0.9857487532102203  0.5802739296477509  0.9568431214840361
  0.5319243631302860  0.3649292918524727  0.2019018807779443
  0.7637377501857117  0.1173304102490291  0.9183762094369720
  0.4776140842854087  0.8547182891727426  0.9261908796599275
  0.7346575570333875  0.4327234622573853  0.3238276868133016
  0.7771082830446042  0.9272622743262018  0.8349336827864287
  0.4565474141478169  0.8828033940372798  0.7037623920614607
  0.1224077925507655  0.1925340573741423  0.9363113552953221
  0.0102692904337181  0.8678017529501882  0.7871876882950736
  0.2668529595369603  0.2985173869765225  0.2003199779439379
  0.8722049578883756  0.6355885557222816  0.7079527577526479
  0.7220922740873282  0.9159148847159878  0.2829233569821452
  0.3329322725408573  0.8593884194949046  0.5529348585543400
  0.9241857748527814  0.5329823280020504  0.8503875154099971
  0.8414341598762795  0.9470493003586433  0.1420379845644593
  0.2005086073155074  0.4146262637394061  0.0021927245840207
  0.0095802107581231  0.8511044197185174  0.3972226265093599
  0.0843426194104794  0.8906488561833792  0.2194642941875899
  0.2346564781957726  0.9548802126238095  0.8486660297924374
  0.5903690000652086  0.9098932272061027  0.2459188119722423
  0.6170333311685363  0.5411791482959880  0.9628365123100128
  0.1052751151767468  0.7081492772843427  0.8020685181632402
  0.5009583318330946  0.9754103067608039  0.8016320455882440
  0.5153047765330699  0.0938257189514438  0.9479119139067140
  0.5973347919303305  0.1028700448842447  0.0617071591418602
  0.4113989624695665  0.0669334497956302  0.8686309657348854
  0.6465474417882249  0.3131710325789978  0.0927189141364995
  0.4260076005210928  0.9034983711403731  0.2070435546408669
  0.2296538028963805  0.4152291415657515  0.5020312398592474
  0.3593922137542843  0.8964861081318228  0.9408344838869260
  0.9746323256353220  0.6993771442135399  0.2279680320393007
  0.1329640644092692  0.2647884754526446  0.4454612530056180
  0.3802967601612337  0.6582288603840640  0.3045341648142091
  0.5951107580403416  0.7408291481028849  0.4679407757983744
  0.9564949798945728  0.1487262854319046  0.8870315849768171
  0.7246669607379946  0.1956215712405530  0.7563885135348283
  0.6101810520804145  0.7553718522901428  0.7544109559776550
  0.8298471865047223  0.8649706754169968  0.7296726850811009
  0.6317086934311081  0.9688089283724430  0.9591661187650584
  0.9767937369324267  0.8712147601113073  0.1538056078543410
  0.1249524916465250  0.9739743715196360  0.1332426789068633
  0.2390636974290818  0.0081872330376011  0.0208618066357040
  0.1245468674708182  0.9147415592890380  0.5621364871328707
  0.4995660331166649  0.7840753852227563  0.3521395006853412
  0.0855630257175412  0.1759888524783048  0.8151207610267854
  0.5806364094463212  0.2451611163136133  0.9940236553423260
  0.8504401375792073  0.2714063976046372  0.5397396594078588
  0.6650294411178755  0.8346201317797539  0.4131926383970670
  0.5717238362503855  0.6435187819468395  0.6633165873532059
  0.5430688098912619  0.3761244994906571  0.6725688210044111
  0.9753697125840193  0.4067382344422748  0.5519120987087823
  0.6172058539556177  0.2793141657726607  0.5174492055070833
  0.2379445088723363  0.8363210892379682  0.9981544096303395
  0.8677116846902725  0.2957448700902600  0.7094588766228529
  0.3025030727766378  0.7418733714585785  0.7164874968421586
  0.7631142127952579  0.7694722998329122  0.9616602419915652
  0.0803823108976406  0.5273593839519471  0.2840153216591008
  0.8775062150830237  0.1756193369647869  0.9845336971522003
  0.1829937227621242  0.6379792046117342  0.4261880013247378
  0.9664304542063197  0.0784701144350431  0.2392207377425925
  0.4840777677069320  0.1234208670174213  0.1105743061005478
  0.3513721575472933  0.1213956888174201  0.4265495096014127
  0.2371225406593765  0.3291093416183085  0.9025660862486238
  0.3815625282356435  0.6504393551329365  0.7802442909235582
  0.9365496705710068  0.8106853097971900  0.6535281387808145
  0.3203547143402615  0.2944084413444889  0.0128637656603458
  0.3302117610123204  0.1907150917317919  0.2311489810518348
  0.1333819942850716  0.8025431882888338  0.8883725212251663
  0.7319153318809078  0.3934553467886784  0.1542219218136800
  0.1926797205621158  0.2832275266054465  0.3332637638237597
  0.6914732794254372  0.3941967106497112  0.0059871882795900
  0.3993930878812092  0.7627304978794260  0.0958565166055063
  0.7008822441634458  0.2504494420363637  0.2569580826755862
  0.9934154950279117  0.3606958483293061  0.2272012571023517
  0.7332826537865540  0.0348999631271074  0.0167695504987115
  0.6080133330975068  0.5287596798585372  0.4410871754144546
  0.4065427316490571  0.0797927842226205  0.3224860390703018
  0.7139439471433874  0.3433287207524940  0.5819273565309672
  0.4451233144099330  0.8070484992081296  0.5981072871190930
  0.9172234512531925  0.6166984787387356  0.3158729419145969
  0.6030108503458660  0.6930435651638263  0.9215869622438091
  0.4321532420829562  0.5194922399462674  0.5137822173905671
  0.1569206270288513  0.0675602425630400  0.8110031151486792
  0.7425757404128449  0.2104313446514710  0.0871853785976303
  0.1425919859210210  0.3084259921206993  0.0592303758359607
  0.3879542982908322  0.1226110357722616  0.6015810667355801
  0.0857109243020423  0.0089042653766889  0.9011218976216704
  0.7939580539249981  0.7899085781073611  0.1707097869143175
  0.2845115308569582  0.7715786509145062  0.1568598195251160
  0.0224627797445598  0.0089679925034535  0.5161160802228314
  0.2674325730518948  0.1209119143863895  0.5545460922930229
  0.2863413920066348  0.2369626184987504  0.8211375054414414
  0.4717735676134359  0.2786143734411795  0.8094079962505534
  0.8774135559760856  0.4771422083644096  0.5946058690101871
  0.6513139489120509  0.4960926917165652  0.1673446835833922
  0.5792182767884375  0.9664138028007220  0.5874397734354340
  0.5414971597515960  0.3860186109054551  0.5412182408948195
  0.7038749308695607  0.1666768942575503  0.5293838785815893
  0.8162127773714618  0.7671092227555971  0.3483100061975950
  0.7507612439025874  0.5250169277696950  0.6602792725469043
  0.7414037959679513  0.0400549409706999  0.6748399863319140
  0.0172244194641883  0.3374782466902744  0.8655425325187850
  0.0371410063721576  0.2332191206764345  0.3475417603558161
  0.2206224106089798  0.6572947766992248  0.7887376712092604
  0.7263423737773943  0.6077486245648883  0.3100487993858486
  0.7936570734335893  0.6495934659895337  0.1667221293138848
  0.2769962434793467  0.7909299296007617  0.3251237131577771
  0.4042405161622298  0.8306313199261831  0.4337334374683452
  0.4011257791211040  0.9589714928249589  0.3661497169829625
  0.9698134192757489  0.2080591648472021  0.2398594476993851
  0.7874541463630560  0.7393793389046305  0.5413416676852844
  0.8632845868583504  0.5771349716046199  0.9980062369136870
  0.8812896492822145  0.7279267109346216  0.9840748445628030
  0.9612479496195535  0.5408777733562498  0.1491393470955087
  0.2460769610471765  0.0124506706899727  0.6711014506228093
  0.1177850134581982  0.6572835231727224  0.5346503840690621
  0.8551371159167135  0.4255948602983754  0.8785217635498712
  0.9074738297570500  0.8157093941948359  0.2639621553885091
  0.1824748958432232  0.4173357112417709  0.8207334546274885
  0.9106829141305283  0.7464073992532493  0.5445781337547038
  0.7488185528873671  0.6185448257981567  0.8419941890315522
  0.2569638391172759  0.7602183340253315  0.5551245626384793
  0.2787026926440720  0.5470129675194344  0.6679269143980643
  0.4604925493219548  0.5024956887667038  0.6900190800369549
  0.1217481050434858  0.8143243147969841  0.0496454000390091
  0.4802757415863737  0.6430009961773655  0.4702389351974596
  0.9278455869726497  0.0918344322868541  0.4879803802661246
  0.0474596467302602  0.6645222232196126  0.6830036507075355
  0.1102595355406145  0.2026843840096566  0.1566418259629557
  0.1558918363635765  0.5365695018259565  0.7007969822821694
  0.9584881834961761  0.7598629915255679  0.8233666634062379
  0.3022214652849184  0.0205767228341274  0.1976951142856515
  0.5658163480863829  0.5422961916609419  0.7474377750732548
  0.7812553480205979  0.8686880979262677  0.5463095207661125
  0.7174823687514501  0.5949292178651284  0.0245568343570527
  0.2755523244158078  0.9342521856071376  0.3440924432045961
  0.6341099370910348  0.9799735542383911  0.7245692617697298
  0.0699987455601703  0.1526399421433273  0.6619402231148751
  0.0662718777524076  0.7817366475218600  0.4942235724285044
  0.5879553513788276  0.1265070519563677  0.8524639614701917
  0.0147126754831793  0.3181709029829273  0.7382691460439353
  0.8685892334375340  0.8522948347312728  0.0561925326479125
  0.3193328318074860  0.3005880060815213  0.3716010154312679
  0.7123817744775076  0.9519374810581032  0.1280683708459097
  0.1249381970825782  0.3403973465925018  0.6754889323478490
  0.9329144165997194  0.4017241636101903  0.1164929399679592
  0.1761793888177328  0.5818999073302963  0.8908615256635168
  0.3778070493605396  0.4496253741095300  0.1404998224831772
  0.5213384984225315  0.2364897427988216  0.1802912115423972
  0.8261878048025478  0.2851995431384933  0.1435320251610827
  0.2804447694212263  0.5861917630296617  0.4841545569842690
  0.1220731101604777  0.9922132971557650  0.3308499602693608
  0.8507773801567696  0.4524893611115006  0.0147403809541428
  0.9385600329791742  0.3837055646538231  0.4331797784131213
  0.5485982499487824  0.0892096412415577  0.5170971647465864
  0.0344747363281716  0.5092251757597989  0.7945723983503830
  0.7921938883320483  0.7258638667748977  0.7892050320950920
  0.4147474080167093  0.6149977182110845  0.6618565894823591
  0.0182455925017834  0.0781650550307205  0.0509914797873722
  0.1132864504527967  0.7120688950905265  0.3013869511597666
  0.6848134188322768  0.2203816168717447  0.9037928703095143
  0.9147813331440534  0.6686066357822310  0.1152204055982388
  0.4721593610674631  0.5208685285632020  0.2180012671981051
  0.4994160604377803  0.8937428622503328  0.5054567836057174
  0.2022639374941516  0.6755815901086498  0.9701342940204056
  0.6853562972803677  0.8228145257405458  0.1094951228901311
  0.3152083390079218  0.8051952708985419  0.8276228353738020
  0.6739904806885119  0.6028049850761515  0.5986059236044765
  0.8176626326397909  0.5232401942132600  0.1687954181002505
  0.6428421001018146  0.8603755919506333  0.8213825055617443
  0.1329752698806282  0.7744893192196307  0.1669501060189870
  0.7757894044924272  0.5361140913772928  0.4773741744260872
  0.3409075685897646  0.5654157096029192  0.0062438698271921
  0.8027144082106366  0.1912082586231343  0.4536705227531481
  0.2520823348810202  0.6665946943551171  0.2977852284014308
  0.8514891564504123  0.4263715000911956  0.7482676930227409
  0.9038189103787210  0.9306736197968979  0.9599937048128574
  0.1142326188459195  0.6357820989788557  0.1376566999211877
  0.4607151075888870  0.7552129978148258  0.8526560087980604
  0.4652837132992456  0.7870167801581521  0.2221093394944969
  0.5375975561435153  0.6672377685204421  0.0329599693377607
  0.2243465372311182  0.2302059261486305  0.5890702930079665
  0.5124853131807033  0.4634930399340538  0.8926201691029155
  0.6846865148650657  0.0315257935095224  0.8322614575875192
  0.6782412173184962  0.4696911471792105  0.8793706883356018
  0.1794424094607135  0.2020662914917026  0.7029532673756060
  0.1065412493771906  0.4544668314724462  0.6217946175644948
  0.8627891635209162  0.9812685972931563  0.4096319012089734
  0.0476342449379441  0.5157406593521167  0.4156314508598875
  0.8008115730536826  0.2972012259816231  0.8918317357287991
  0.2223033318615483  0.9358525700822509  0.4628754747168380
  0.7787075814226951  0.0117722479087605  0.5572072098529310
  0.4160921791951633  0.3660436246048634  0.2496916466553883
  0.3522772704736457  0.4796662105731864  0.3535662074607154
  0.8236612615967400  0.1093071375815209  0.0951391698455876
  0.8533173687545298  0.9390885737708154  0.2839232569088402
  0.9558771575490788  0.9771153764663536  0.6569130069377863
  0.4671267972053000  0.2569864680624693  0.0691870778868343
  0.6335595837082807  0.2837410882398019  0.7102320634271647
  0.4178734642789336  0.6375932370731650  0.1110145605289040
  0.9605410616337898  0.5575462308590544  0.6538626912734545
  0.1441250460673930  0.4004199131642445  0.3162103307732257
 
  0.00000000E+00  0.00000000E+00  0.00000000E+00
  0.00000000E+00  0.00000000E+00  0.00000000E+00
  0.00000000E+00  0.00000000E+00  0.00000000E+00
  0.00000000E+00  0.00000000E+00  0.00000000E+00
  0.00000000E+00  0.00000000E+00  0.00000000E+00
  0.00000000E+00  0.00000000E+00  0.00000000E+00
  0.00000000E+00  0.00000000E+00  0.00000000E+00
  0.00000000E+00  0.00000000E+00  0.00000000E+00
  0.00000000E+00  0.00000000E+00  0.00000000E+00
  0.00000000E+00  0.00000000E+00  0.00000000E+00
  0.00000000E+00  0.00000000E+00  0.00000000E+00
  0.00000000E+00  0.00000000E+00  0.00000000E+00
  0.00000000E+00  0.00000000E+00  0.00000000E+00
  0.00000000E+00  0.00000000E+00  0.00000000E+00
  0.00000000E+00  0.00000000E+00  0.00000000E+00
  0.00000000E+00  0.00000000E+00  0.00000000E+00
  0.00000000E+00  0.00000000E+00  0.00000000E+00
  0.00000000E+00  0.00000000E+00  0.00000000E+00
  0.00000000E+00  0.00000000E+00  0.00000000E+00
  0.00000000E+00  0.00000000E+00  0.00000000E+00
  0.00000000E+00  0.00000000E+00  0.00000000E+00
  0.00000000E+00  0.00000000E+00  0.00000000E+00
  0.00000000E+00  0.00000000E+00  0.00000000E+00
  0.00000000E+00  0.00000000E+00  0.00000000E+00
  0.00000000E+00  0.00000000E+00  0.00000000E+00
  0.00000000E+00  0.00000000E+00  0.00000000E+00
  0.00000000E+00  0.00000000E+00  0.00000000E+00
  0.00000000E+00  0.00000000E+00  0.00000000E+00
  0.00000000E+00  0.00000000E+00  0.00000000E+00
  0.00000000E+00  0.00000000E+00  0.00000000E+00
  0.00000000E+00  0.00000000E+00  0.00000000E+00
  0.00000000E+00  0.00000000E+00  0.00000000E+00
  0.00000000E+00  0.00000000E+00  0.00000000E+00
  0.00000000E+00  0.00000000E+00  0.00000000E+00
  0.00000000E+00  0.00000000E+00  0.00000000E+00
  0.00000000E+00  0.00000000E+00  0.00000000E+00
  0.00000000E+00  0.00000000E+00  0.00000000E+00
  0.00000000E+00  0.00000000E+00  0.00000000E+00
  0.00000000E+00  0.00000000E+00  0.00000000E+00
  0.00000000E+00  0.00000000E+00  0.00000000E+00
  0.00000000E+00  0.00000000E+00  0.00000000E+00
  0.00000000E+00  0.00000000E+00  0.00000000E+00
  0.00000000E+00  0.00000000E+00  0.00000000E+00
  0.00000000E+00  0.00000000E+00  0.00000000E+00
  0.00000000E+00  0.00000000E+00  0.00000000E+00
  0.00000000E+00  0.00000000E+00  0.00000000E+00
  0.00000000E+00  0.00000000E+00  0.00000000E+00
  0.00000000E+00  0.00000000E+00  0.00000000E+00
  0.00000000E+00  0.00000000E+00  0.00000000E+00
  0.00000000E+00  0.00000000E+00  0.00000000E+00
  0.00000000E+00  0.00000000E+00  0.00000000E+00
  0.00000000E+00  0.00000000E+00  0.00000000E+00
  0.00000000E+00  0.00000000E+00  0.00000000E+00
  0.00000000E+00  0.00000000E+00  0.00000000E+00
  0.00000000E+00  0.00000000E+00  0.00000000E+00
  0.00000000E+00  0.00000000E+00  0.00000000E+00
  0.00000000E+00  0.00000000E+00  0.00000000E+00
  0.00000000E+00  0.00000000E+00  0.00000000E+00
  0.00000000E+00  0.00000000E+00  0.00000000E+00
  0.00000000E+00  0.00000000E+00  0.00000000E+00
  0.00000000E+00  0.00000000E+00  0.00000000E+00
  0.00000000E+00  0.00000000E+00  0.00000000E+00
  0.00000000E+00  0.00000000E+00  0.00000000E+00
  0.00000000E+00  0.00000000E+00  0.00000000E+00
  0.00000000E+00  0.00000000E+00  0.00000000E+00
  0.00000000E+00  0.00000000E+00  0.00000000E+00
  0.00000000E+00  0.00000000E+00  0.00000000E+00
  0.00000000E+00  0.00000000E+00  0.00000000E+00
  0.00000000E+00  0.00000000E+00  0.00000000E+00
  0.00000000E+00  0.00000000E+00  0.00000000E+00
  0.00000000E+00  0.00000000E+00  0.00000000E+00
  0.00000000E+00  0.00000000E+00  0.00000000E+00
  0.00000000E+00  0.00000000E+00  0.00000000E+00
  0.00000000E+00  0.00000000E+00  0.00000000E+00
  0.00000000E+00  0.00000000E+00  0.00000000E+00
  0.00000000E+00  0.00000000E+00  0.00000000E+00
  0.00000000E+00  0.00000000E+00  0.00000000E+00
  0.00000000E+00  0.00000000E+00  0.00000000E+00
  0.00000000E+00  0.00000000E+00  0.00000000E+00
  0.00000000E+00  0.00000000E+00  0.00000000E+00
  0.00000000E+00  0.00000000E+00  0.00000000E+00
  0.00000000E+00  0.00000000E+00  0.00000000E+00
  0.00000000E+00  0.00000000E+00  0.00000000E+00
  0.00000000E+00  0.00000000E+00  0.00000000E+00
  0.00000000E+00  0.00000000E+00  0.00000000E+00
  0.00000000E+00  0.00000000E+00  0.00000000E+00
  0.00000000E+00  0.00000000E+00  0.00000000E+00
  0.00000000E+00  0.00000000E+00  0.00000000E+00
  0.00000000E+00  0.00000000E+00  0.00000000E+00
  0.00000000E+00  0.00000000E+00  0.00000000E+00
  0.00000000E+00  0.00000000E+00  0.00000000E+00
  0.00000000E+00  0.00000000E+00  0.00000000E+00
  0.00000000E+00  0.00000000E+00  0.00000000E+00
  0.00000000E+00  0.00000000E+00  0.00000000E+00
  0.00000000E+00  0.00000000E+00  0.00000000E+00
  0.00000000E+00  0.00000000E+00  0.00000000E+00
  0.00000000E+00  0.00000000E+00  0.00000000E+00
  0.00000000E+00  0.00000000E+00  0.00000000E+00
  0.00000000E+00  0.00000000E+00  0.00000000E+00
  0.00000000E+00  0.00000000E+00  0.00000000E+00
  0.00000000E+00  0.00000000E+00  0.00000000E+00
  0.00000000E+00  0.00000000E+00  0.00000000E+00
  0.00000000E+00  0.00000000E+00  0.00000000E+00
  0.00000000E+00  0.00000000E+00  0.00000000E+00
  0.00000000E+00  0.00000000E+00  0.00000000E+00
  0.00000000E+00  0.00000000E+00  0.00000000E+00
  0.00000000E+00  0.00000000E+00  0.00000000E+00
  0.00000000E+00  0.00000000E+00  0.00000000E+00
  0.00000000E+00  0.00000000E+00  0.00000000E+00
  0.00000000E+00  0.00000000E+00  0.00000000E+00
  0.00000000E+00  0.00000000E+00  0.00000000E+00
  0.00000000E+00  0.00000000E+00  0.00000000E+00
  0.00000000E+00  0.00000000E+00  0.00000000E+00
  0.00000000E+00  0.00000000E+00  0.00000000E+00
  0.00000000E+00  0.00000000E+00  0.00000000E+00
  0.00000000E+00  0.00000000E+00  0.00000000E+00
  0.00000000E+00  0.00000000E+00  0.00000000E+00
  0.00000000E+00  0.00000000E+00  0.00000000E+00
  0.00000000E+00  0.00000000E+00  0.00000000E+00
  0.00000000E+00  0.00000000E+00  0.00000000E+00
  0.00000000E+00  0.00000000E+00  0.00000000E+00
  0.00000000E+00  0.00000000E+00  0.00000000E+00
  0.00000000E+00  0.00000000E+00  0.00000000E+00
  0.00000000E+00  0.00000000E+00  0.00000000E+00
  0.00000000E+00  0.00000000E+00  0.00000000E+00
  0.00000000E+00  0.00000000E+00  0.00000000E+00
  0.00000000E+00  0.00000000E+00  0.00000000E+00
  0.00000000E+00  0.00000000E+00  0.00000000E+00
  0.00000000E+00  0.00000000E+00  0.00000000E+00
  0.00000000E+00  0.00000000E+00  0.00000000E+00
  0.00000000E+00  0.00000000E+00  0.00000000E+00
  0.00000000E+00  0.00000000E+00  0.00000000E+00
  0.00000000E+00  0.00000000E+00  0.00000000E+00
  0.00000000E+00  0.00000000E+00  0.00000000E+00
  0.00000000E+00  0.00000000E+00  0.00000000E+00
  0.00000000E+00  0.00000000E+00  0.00000000E+00
  0.00000000E+00  0.00000000E+00  0.00000000E+00
  0.00000000E+00  0.00000000E+00  0.00000000E+00
  0.00000000E+00  0.00000000E+00  0.00000000E+00
  0.00000000E+00  0.00000000E+00  0.00000000E+00
  0.00000000E+00  0.00000000E+00  0.00000000E+00
  0.00000000E+00  0.00000000E+00  0.00000000E+00
  0.00000000E+00  0.00000000E+00  0.00000000E+00
  0.00000000E+00  0.00000000E+00  0.00000000E+00
  0.00000000E+00  0.00000000E+00  0.00000000E+00
  0.00000000E+00  0.00000000E+00  0.00000000E+00
  0.00000000E+00  0.00000000E+00  0.00000000E+00
  0.00000000E+00  0.00000000E+00  0.00000000E+00
  0.00000000E+00  0.00000000E+00  0.00000000E+00
  0.00000000E+00  0.00000000E+00  0.00000000E+00
  0.00000000E+00  0.00000000E+00  0.00000000E+00
  0.00000000E+00  0.00000000E+00  0.00000000E+00
  0.00000000E+00  0.00000000E+00  0.00000000E+00
  0.00000000E+00  0.00000000E+00  0.00000000E+00
  0.00000000E+00  0.00000000E+00  0.00000000E+00
  0.00000000E+00  0.00000000E+00  0.00000000E+00
  0.00000000E+00  0.00000000E+00  0.00000000E+00
  0.00000000E+00  0.00000000E+00  0.00000000E+00
  0.00000000E+00  0.00000000E+00  0.00000000E+00
  0.00000000E+00  0.00000000E+00  0.00000000E+00
  0.00000000E+00  0.00000000E+00  0.00000000E+00
  0.00000000E+00  0.00000000E+00  0.00000000E+00
  0.00000000E+00  0.00000000E+00  0.00000000E+00
  0.00000000E+00  0.00000000E+00  0.00000000E+00
  0.00000000E+00  0.00000000E+00  0.00000000E+00
  0.00000000E+00  0.00000000E+00  0.00000000E+00
  0.00000000E+00  0.00000000E+00  0.00000000E+00
  0.00000000E+00  0.00000000E+00  0.00000000E+00
  0.00000000E+00  0.00000000E+00  0.00000000E+00
  0.00000000E+00  0.00000000E+00  0.00000000E+00
  0.00000000E+00  0.00000000E+00  0.00000000E+00
  0.00000000E+00  0.00000000E+00  0.00000000E+00
  0.00000000E+00  0.00000000E+00  0.00000000E+00
  0.00000000E+00  0.00000000E+00  0.00000000E+00
  0.00000000E+00  0.00000000E+00  0.00000000E+00
  0.00000000E+00  0.00000000E+00  0.00000000E+00
  0.00000000E+00  0.00000000E+00  0.00000000E+00
  0.00000000E+00  0.00000000E+00  0.00000000E+00
  0.00000000E+00  0.00000000E+00  0.00000000E+00
  0.00000000E+00  0.00000000E+00  0.00000000E+00
  0.00000000E+00  0.00000000E+00  0.00000000E+00
  0.00000000E+00  0.00000000E+00  0.00000000E+00
  0.00000000E+00  0.00000000E+00  0.00000000E+00
  0.00000000E+00  0.00000000E+00  0.00000000E+00
  0.00000000E+00  0.00000000E+00  0.00000000E+00
  0.00000000E+00  0.00000000E+00  0.00000000E+00
  0.00000000E+00  0.00000000E+00  0.00000000E+00
  0.00000000E+00  0.00000000E+00  0.00000000E+00
  0.00000000E+00  0.00000000E+00  0.00000000E+00
  0.00000000E+00  0.00000000E+00  0.00000000E+00
  0.00000000E+00  0.00000000E+00  0.00000000E+00
  0.00000000E+00  0.00000000E+00  0.00000000E+00
  0.00000000E+00  0.00000000E+00  0.00000000E+00
  0.00000000E+00  0.00000000E+00  0.00000000E+00
  0.00000000E+00  0.00000000E+00  0.00000000E+00
  0.00000000E+00  0.00000000E+00  0.00000000E+00
  0.00000000E+00  0.00000000E+00  0.00000000E+00
  0.00000000E+00  0.00000000E+00  0.00000000E+00
  0.00000000E+00  0.00000000E+00  0.00000000E+00
  0.00000000E+00  0.00000000E+00  0.00000000E+00
  0.00000000E+00  0.00000000E+00  0.00000000E+00
  0.00000000E+00  0.00000000E+00  0.00000000E+00
  0.00000000E+00  0.00000000E+00  0.00000000E+00
  0.00000000E+00  0.00000000E+00  0.00000000E+00
  0.00000000E+00  0.00000000E+00  0.00000000E+00
  0.00000000E+00  0.00000000E+00  0.00000000E+00
  0.00000000E+00  0.00000000E+00  0.00000000E+00
  0.00000000E+00  0.00000000E+00  0.00000000E+00
  0.00000000E+00  0.00000000E+00  0.00000000E+00
  0.00000000E+00  0.00000000E+00  0.00000000E+00
  0.00000000E+00  0.00000000E+00  0.00000000E+00
  0.00000000E+00  0.00000000E+00  0.00000000E+00
  0.00000000E+00  0.00000000E+00  0.00000000E+00
  0.00000000E+00  0.00000000E+00  0.00000000E+00
  0.00000000E+00  0.00000000E+00  0.00000000E+00
  0.00000000E+00  0.00000000E+00  0.00000000E+00
  0.00000000E+00  0.00000000E+00  0.00000000E+00
  0.00000000E+00  0.00000000E+00  0.00000000E+00
  0.00000000E+00  0.00000000E+00  0.00000000E+00
  0.00000000E+00  0.00000000E+00  0.00000000E+00
  0.00000000E+00  0.00000000E+00  0.00000000E+00
  0.00000000E+00  0.00000000E+00  0.00000000E+00
  0.00000000E+00  0.00000000E+00  0.00000000E+00
  0.00000000E+00  0.00000000E+00  0.00000000E+00
  0.00000000E+00  0.00000000E+00  0.00000000E+00
  0.00000000E+00  0.00000000E+00  0.00000000E+00
  0.00000000E+00  0.00000000E+00  0.00000000E+00
  0.00000000E+00  0.00000000E+00  0.00000000E+00
  0.00000000E+00  0.00000000E+00  0.00000000E+00
  0.00000000E+00  0.00000000E+00  0.00000000E+00
  0.00000000E+00  0.00000000E+00  0.00000000E+00
  0.00000000E+00  0.00000000E+00  0.00000000E+00