GST                                     
   1.00000000000000     
    22.2049502903316061    0.0000000000000000    0.0000000000000000
     0.0000000000000000   22.2049502903316061    0.0000000000000000
     0.0000000000000000    0.0000000000000000   22.2049502903316061
   Ge   Sb   Te
    25   100   175
Direct
  0.5566394889010278  0.2017386249810885  0.9004430824341552
  0.6478481632641679  0.2448481448004139  0.0283764283138256
  0.4393004214875995  0.2358022471888362  0.7995370467368967
  0.2696387316390829  0.9790494601839891  0.7574918167734060
  0.5632947940436265  0.5195947157236542  0.6315778523040235
  0.8573591607330898  0.5886673476988210  0.0775545724648644
  0.1996029348864813  0.1053820672347158  0.8351936746317122
  0.6734760770752775  0.8445076145059807  0.4719213060970794
  0.4340123209225234  0.6565723940582685  0.5896370263294919
  0.2688822210457009  0.4766755384493868  0.4323626508380657
  0.4671781120582204  0.2730277088187525  0.9565427031862225
  0.2193495513871721  0.7541960129830381  0.7199146926478733
  0.2753749049876473  0.7388794275217918  0.9059146488458460
  0.8095545808749384  0.4808508291548274  0.1236971154550336
  0.8193341826558949  0.8416497429195253  0.7313959682177785
  0.9594074392038581  0.0228300010151207  0.5466243543631096
  0.4610829807624732  0.3344326841356645  0.3325093379799872
  0.4290822058405813  0.1617757332558113  0.4152728647982095
  0.6537358969242786  0.2862847723196824  0.7067120433327955
  0.8524835756874405  0.7309754201601062  0.7235751880985289
  0.7275776853438393  0.6512610017711481  0.1635181775595307
  0.0417396759619432  0.4624037690652044  0.7680125124910950
  0.3221625480234550  0.3096269073250374  0.2449442702322694
  0.8784492294297815  0.9874437354762202  0.6350064889302507
  0.2553559396068806  0.1644495371582999  0.0642486224214617
  0.0908398523352337  0.9660882767210334  0.1631197074863747
  0.4847306596426750  0.5986433563185020  0.0646486474840374
  0.0172284671487073  0.2693025805790436  0.0700444582898129
  0.9945721027735818  0.1514252729148016  0.8312921273239153
  0.7075586453914033  0.9001152150382474  0.7479772858838675
  0.5728024405801841  0.0154891686907428  0.3346919362190600
  0.9867047110345230  0.4805525169753107  0.9961296870547446
  0.3028422423598221  0.3418917217887867  0.6188032114729252
  0.4421170424568546  0.4236436371028853  0.7170841829377004
  0.2007394846061403  0.2228404257144571  0.7991039397013807
  0.6019384790621553  0.7086554827744164  0.8523502997995255
  0.8834987340231195  0.2415142318875828  0.6248193553195627
  0.7183144754377772  0.1429916005741875  0.8974408836252644
  0.2578901776731325  0.8569946120983882  0.6177627242891868
  0.0086109244938388  0.8926676879866974  0.0097368067075382
  0.8774903837718003  0.5148048729543937  0.8380622153459220
  0.0289973483485817  0.5833889841682600  0.0696601278354345
  0.2393499475351416  0.9878746469989008  0.3257386028403122
  0.8478324557182311  0.1075109896364935  0.3842939050220794
  0.9274311938291363  0.3421922857096903  0.5531346024762708
  0.7039090668074806  0.7372685437355018  0.9304632823616629
  0.3828100632911738  0.9994291851019339  0.1012249949418962
  0.7490226157397191  0.1338025419381504  0.2355379740319107
  0.7191822076603885  0.4294150081609349  0.5578843198242908
  0.8824448017882260  0.1381797078422406  0.0626912153381602
  0.3729924096885049  0.6437451030297350  0.4811319754413943
  0.5058987403701352  0.6328544963436915  0.3133454633958471
  0.1185162493794162  0.4399813364904277  0.0977001485810298
  0.9664741464772194  0.2053063427420815  0.1762764471672998
  0.0311204144300526  0.5577322548266214  0.4142339519379746
  0.9773164032757070  0.7470724722724903  0.3061655668156164
  0.9891524010784422  0.5974931556932438  0.1969214471139493
  0.5165342470163370  0.7710128481877825  0.3760840683285855
  0.6084358960445987  0.3599101557452393  0.5395952418023141
  0.5844820975153732  0.4509888154384286  0.0045581447538599
  0.6499746610262979  0.0095023840656544  0.5539378880332053
  0.1334168980109646  0.7968352646573112  0.1546816844728112
  0.6430979608382407  0.5805185896804281  0.2232353577731444
  0.7297772996592391  0.7280672977572639  0.3127162479144479
  0.1469352596797430  0.5791043789162472  0.3533755314288664
  0.1356464732136010  0.4798537264827324  0.9374707233554158
  0.5193618851958838  0.8200329438140905  0.7511012819023345
  0.1604168038919327  0.0709924993966580  0.9460248879666184
  0.3726914567720479  0.0087375748682182  0.6575407223735121
  0.5944771814218262  0.0666747126043865  0.9185310048099599
  0.2928907192626573  0.4896479910319366  0.6454205839611638
  0.8528414897967621  0.1446275334442265  0.7464366041727141
  0.8531225307996484  0.9346033653598218  0.8972795397950288
  0.9823089174224462  0.1476903248863964  0.5403330028238367
  0.2842003525910535  0.4560877805868832  0.1724629669457792
  0.3447556283402962  0.9520238701287346  0.9153802283314522
  0.4703340447357378  0.5119706552238251  0.2566089563992993
  0.2691970458520026  0.2912665959164630  0.4532734914885199
  0.3205119095891360  0.8778346510014979  0.3474547907153682
  0.9993155332594236  0.7145358882079964  0.6450131923963285
  0.3891556852997256  0.3601331013440532  0.9089234122410930
  0.0460063321579828  0.6492087032619361  0.5075220974536204
  0.4010579797132340  0.8274975212821557  0.5051407942126674
  0.5201591039140442  0.0071729062705844  0.5222322306338523
  0.4476576386732289  0.7046993442963351  0.7700354991556714
  0.1443607782896641  0.6336799918982035  0.8218005197806451
  0.5937462241520656  0.9779096555478712  0.0683322979174761
  0.4451465027481049  0.2226278545999799  0.5894998494070068
  0.1503033114093437  0.1432718216977278  0.2589664637633724
  0.8037976230383940  0.3395216444832406  0.9192584473354594
  0.3250615406434080  0.5768947880672668  0.9668077901017383
  0.8482283358347081  0.7137095457356514  0.5979410846230030
  0.3991691570320300  0.0278824930755300  0.2604882169753010
  0.8169826220814084  0.6479927756620852  0.8083626740705770
  0.2208047029592288  0.5246775398830114  0.0808302426324679
  0.3834080681715939  0.9429829823049033  0.4405818918185221
  0.6635283235573700  0.0669790710033152  0.6944319175702206
  0.2418350905351540  0.1617730390554541  0.6868847653422631
  0.7600886001353080  0.4566080998186473  0.8777259745318852
  0.6997107779023302  0.6236531907645128  0.8651091240291630
  0.9918714464202948  0.8388519708788842  0.5958014009246001
  0.6158052077288442  0.2197914138610090  0.3557336471538914
  0.6963285881825536  0.1715039799038604  0.7640565438974303
  0.7900830456442319  0.9157358935417756  0.3309790015308756
  0.8009319851028635  0.3975762746710962  0.7303963466227226
  0.9597510705851634  0.1628018462810032  0.3394398428126646
  0.4109260769818429  0.4813094027286932  0.4295839458509900
  0.2683237598921742  0.9120001344772904  0.1752794690999727
  0.9417287318386853  0.6770002179075580  0.0486435104259245
  0.8297379717875889  0.5563221106148475  0.2872886054463034
  0.6327026432437963  0.6996370621065893  0.0344204807973359
  0.6827485313339493  0.6270114160905677  0.5794883488959364
  0.5247726184576962  0.9418842783019040  0.6889103132418690
  0.4820050570420895  0.5115706096944332  0.8867196977324923
  0.4350062245710007  0.0897752542344548  0.0120263706941094
  0.5289021214571102  0.8459121596305991  0.4838199408591350
  0.0458315804104549  0.8053515392679740  0.4039899580562547
  0.7987878624066980  0.2879014293558873  0.7996361748527855
  0.5080105342222085  0.2747823075700292  0.1638790286524739
  0.9444878431360344  0.4254194977654469  0.6556999832110458
  0.1609717484230693  0.3393166821243851  0.0187281861538851
  0.9313149576165165  0.0254508558781091  0.0150962891839067
  0.7820071871239942  0.3799183206602845  0.4500610009727519
  0.4733679070852974  0.8301856286078083  0.1073929895035050
  0.6785074230937168  0.2942780336806329  0.2673221809786647
  0.7111363597131446  0.4266200783307401  0.0287007706269247
  0.1846278690400466  0.0621663800085489  0.5636161424976222
  0.2243447876631144  0.0424680763985662  0.2044207334284276
  0.9091070708194972  0.4875733516557372  0.2121680290295892
  0.2441467257183899  0.7302497724898684  0.1229570376358688
  0.3862017542113397  0.5766860184914593  0.1612521981941394
  0.9659991883556017  0.7401973178434407  0.7643593991142487
  0.7352370466777456  0.4828777625204660  0.2314152708241890
  0.4933066137675524  0.2755368789341548  0.4421847262165498
  0.3694089927259349  0.6655203125638105  0.2556036522609840
  0.1508084591887475  0.0184128597340755  0.7622957674913310
  0.4017132965880820  0.5352157777373441  0.5955473721689528
  0.1228068095824323  0.8474443941505723  0.6402457476317386
  0.6978727077449135  0.7646684774959600  0.1295168146646471
  0.3684276607325900  0.6916106560589422  0.0029505977081838
  0.9616451286372587  0.0822259546847727  0.7250218529927535
  0.2059097470838523  0.2546323009320438  0.6054167845527302
  0.4054593629790551  0.8863637529976441  0.6261693006464462
  0.8514562306868169  0.1256925331856921  0.8726189296036236
  0.7793016743046937  0.0154583691180196  0.7208427330508929
  0.9816837970794005  0.5437994979901869  0.6149636896780707
  0.5104986977644349  0.0902683136162307  0.2456521466583796
  0.3819806558312245  0.7409854676149233  0.3940091421807785
  0.9453663342015627  0.6273317335906189  0.3474343798781651
  0.8371211314924838  0.0415342549504188  0.2695019845836992
  0.1761891452030660  0.3929252256438791  0.2028194937147812
  0.3398042625446586  0.7759069604874003  0.1944504564362532
  0.1460581650463746  0.0700841697985131  0.3856139098855358
  0.3684622964684331  0.1458028950150789  0.5219567343961059
  0.6785958476308535  0.1076579711479061  0.3420742054394576
  0.1073064269346988  0.7201048222747547  0.0507008936363783
  0.6429129553145106  0.8965450533657059  0.6167035424967585
  0.9027882410944142  0.8278045960505581  0.9650673983978062
  0.6760037108838004  0.3859796084708708  0.3805423827025833
  0.2008914725439857  0.5840234371736746  0.6558810611615892
  0.8024926454049508  0.0277545612433848  0.5484013385712835
  0.4852218568195286  0.3550699006023851  0.8196260669323687
  0.3697455670572236  0.2427959441145598  0.6930210808146802
  0.3389599544571955  0.3688042754860920  0.0878830019332347
  0.4984555172882828  0.5315926598774148  0.7510874790818383
  0.7968395786498791  0.8461532900044615  0.4479255137417219
  0.7747161177829934  0.3139230000860779  0.6286376093611942
  0.4295707348495037  0.3856223424340896  0.1814817047495808
  0.2494701248036091  0.2751512354165184  0.1220655614320825
  0.4219748266573893  0.9690311492616324  0.7696599798041003
  0.3391987629344165  0.3609902406225768  0.3632468049440312
  0.6710014036575538  0.9639567187575436  0.4344098468702070
  0.1178560489474953  0.5440276422893547  0.5455987282364136
  0.1777838036149226  0.4547777366144204  0.3553680892449641
  0.0984142955216454  0.8114809488421330  0.9667137231280679
  0.8150294783610514  0.5553976948895228  0.7206833337644051
  0.5692904861119149  0.3611455027458506  0.2387756551534668
  0.4427376290942384  0.9402291077314763  0.0014483656236760
  0.6335434856275556  0.2060195794459610  0.1754421008394307
  0.0113821916671355  0.0638698004979701  0.2715707867230540
  0.4764686232579740  0.1119844379171104  0.8778321240247943
  0.8591048335568344  0.2748301566069613  0.1943833553344445
  0.3702587277550606  0.7236104310039222  0.6672120707681350
  0.0596741122665529  0.2712549840921746  0.2444120528653462
  0.8557631618640428  0.4840352051203744  0.4183733780250886
  0.4121901526271825  0.2157577879477405  0.0497443316040236
  0.0339845572824385  0.0594207319273724  0.0846248989333463
  0.6862989949181042  0.2853717148759788  0.9136891958267322
  0.3807043785205603  0.5793422725303130  0.8477795664309932
  0.7328908298863936  0.8987224961805089  0.8830201868170112
  0.1319286904458490  0.7104196704306019  0.6371713476652886
  0.3405481400220944  0.2470749854058955  0.8735352613295364
  0.4269706097008707  0.4943235863957046  0.0162193531400128
  0.0792275219284504  0.7042365144948571  0.2393898927999042
  0.5720294239212997  0.2064974631354363  0.7736048045202504
  0.6913857289203522  0.2605893414246969  0.4544313842961674
  0.6347494571497823  0.6119170571747202  0.3468507122094690
  0.2237003307153756  0.3957932883658101  0.5183369286887900
  0.1336014223318708  0.7227822647068924  0.4475257404421761
  0.5168459655817021  0.4419477770801876  0.3661786726666361
  0.1721020882082493  0.2875896593206657  0.3712911652260940
  0.9347620256018984  0.2248212495214678  0.9824787596733029
  0.9040522393780649  0.9082783213749710  0.7847021153478236
  0.0405102533052492  0.4164642882230030  0.4698779988749428
  0.0497061090699543  0.3093169374225990  0.5417829060036986
  0.8727382489818311  0.9809040249044616  0.1248867148762701
  0.3595804930685865  0.5275572397742085  0.3212518320752044
  0.0489069321562297  0.1669008160293444  0.4316996126608682
  0.0406700758483566  0.0528612965415527  0.8992505699889362
  0.3150984470238611  0.0805114134354474  0.8135987754034675
  0.1831725825568438  0.1955766588149098  0.9656880995633516
  0.5712125336111357  0.1019663235219579  0.0441417053128414
  0.9541370968896357  0.3671486134388530  0.3905375845940319
  0.1528359522799675  0.4856258823871045  0.8111845401573241
  0.6562606408311362  0.9372870129631312  0.2539307983722523
  0.3030286104592968  0.0437642733302096  0.9975899454242726
  0.5392079933553711  0.1067597046363422  0.4454122449570121
  0.1956270876934852  0.6146726281771197  0.9380425312459868
  0.9580434123040241  0.6866340818958616  0.9225745801297892
  0.4556154741002911  0.7799535220812656  0.9299855738842828
  0.0154869071764828  0.5767536478840749  0.8916400573590568
  0.5419260899939516  0.7995084431650494  0.2107765399866915
  0.8068978651042071  0.7943405456363187  0.0556029715187660
  0.0752472449050435  0.3598007843331463  0.9264750877631563
  0.1189419306227463  0.1409813620506465  0.6449748534431696
  0.7720175806242352  0.9157135115321824  0.0941278142480887
  0.7776314519918133  0.5789227079892523  0.4512940085295673
  0.9708737854552024  0.3891976782814922  0.1008202871953890
  0.6609181171546246  0.5709543730565511  0.6910109521037712
  0.7304025660037637  0.0215270943200142  0.9656240629297445
  0.9534915578814008  0.7757052875400799  0.4869943130436576
  0.7530907982314020  0.1293627646799164  0.0387390270920527
  0.2195721346538833  0.5843091064660854  0.4729695690269837
  0.9204542346106267  0.8886128460685246  0.3050421177841699
  0.9994780476573707  0.5723119077522625  0.7409484218793351
  0.1485477805347963  0.1802468900684046  0.1303135259090351
  0.8391568037565348  0.6611757848763188  0.2035879005820454
  0.4153003598440442  0.2251753365655936  0.2562239951831991
  0.2365493287588337  0.3682536159645491  0.7255904596342189
  0.5705819919316620  0.5118460876601767  0.1159240913413377
  0.2698971400921910  0.7495802773184955  0.5568968331005006
  0.1652554370867320  0.7652116191050901  0.8294334300098922
  0.8127779300505533  0.5832073371201314  0.5791714712444166
  0.0546848219151033  0.9604293900947987  0.5075339758187154
  0.7357185954568751  0.6005688172584127  0.0553341677182044
  0.0073322814127476  0.9685257302615830  0.3552202995814043
  0.9186469101046307  0.2661904459618384  0.7585662315848876
  0.8539991464760149  0.8608809074821469  0.6163029097501677
  0.8457672227961341  0.3546380189126244  0.0876748055900787
  0.1797802398638363  0.9138710453916802  0.0816308681625654
  0.9974433533718087  0.3771181733531359  0.2737195604681498
  0.1796116450433868  0.6039140941415985  0.1779867175805187
  0.6472565849358183  0.8205618434404057  0.3502930536464219
  0.2516811191148737  0.9377571239934236  0.5134020704475418
  0.5565474901597680  0.7200958982374197  0.4870186904751354
  0.0064639309817982  0.8676268051759708  0.1346745104427257
  0.4850060873643228  0.5869412391672544  0.4510407405145090
  0.8745036517599246  0.1962783630221477  0.4940020598577728
  0.2655690513250963  0.8566936252509713  0.9547446562293797
  0.8064817748540594  0.8155377025969449  0.2515228063450539
  0.0921429264978805  0.9764979217210135  0.6288671546455388
  0.6017813986326180  0.9979740645346669  0.7833265884546473
  0.5625166637693616  0.5966979084864825  0.9427922738587492
  0.8853630067580984  0.9978833148223466  0.4532847997138374
  0.2319267268037253  0.1264552690315864  0.4609244632110273
  0.5429834773035093  0.6746135885850123  0.1903925207395054
  0.2585248124103781  0.6401930944969233  0.7573043046579429
  0.2511291977945681  0.4210255765346654  0.9671487097600067
  0.7256627929959572  0.7466050210958965  0.6086392614041367
  0.2534388976636875  0.2124861625969022  0.3030107869368998
  0.5493600830771729  0.3280956503869512  0.0379026387117655
  0.2107187000749798  0.8678316745356632  0.4169864399298166
  0.1723942358538422  0.8830983349785930  0.2623189838755008
  0.7029616114428819  0.3239352462303912  0.1044655295037844
  0.6145434471345765  0.4938847731773846  0.5133190452959687
  0.3673303181893216  0.7868292446841640  0.8307772428495341
  0.5493560814258820  0.6473791128160703  0.6340803720002053
  0.8619085495853694  0.5049046336904076  0.9829736119476420
  0.7988039327249991  0.7213067541390505  0.4221906264935277
  0.6982627012610887  0.1667177093455047  0.5442220200012940
  0.3159258240085402  0.4596965066991079  0.7728363317645515
  0.5641375836659295  0.8131147026924244  0.0149929587655175
  0.0781942064412044  0.2260838222164429  0.7618348088496006
  0.5729475283363156  0.3838915449410186  0.6649933927919019
  0.2003285290737189  0.9334295797957493  0.8515671889546249
  0.6857871320065611  0.4258196762005998  0.7770483970948893
  0.5224444731174278  0.8750628772301654  0.8649408453395537
  0.3338827316162613  0.1368931519230098  0.2030754386888395
  0.4889945409849788  0.0661441935482891  0.6337953152168458
  0.8073824744566335  0.2223705933595987  0.3111780982551622
  0.4171751814622686  0.3345014896714647  0.5281889687074439
  0.0901871854050997  0.5241988663823751  0.2335468955793178
  0.0637958835354736  0.3902689624194720  0.6747592173838609
  0.6396389239609871  0.7749299527726233  0.7437628872971398
  0.3393156915020012  0.0705079758663498  0.3667715715590976
  0.9545057545636217  0.4099828421211372  0.8342715759607131
  0.4652187200298916  0.9263817739967742  0.3349211351451682
  0.5038045689316114  0.9487092781492569  0.1587667771138393
  0.6067996745544112  0.2270234355493441  0.6070158765591690
  0.6822272099108494  0.0161213959080495  0.1579413640865137
 
  0.00000000E+00  0.00000000E+00  0.00000000E+00
  0.00000000E+00  0.00000000E+00  0.00000000E+00
  0.00000000E+00  0.00000000E+00  0.00000000E+00
  0.00000000E+00  0.00000000E+00  0.00000000E+00
  0.00000000E+00  0.00000000E+00  0.00000000E+00
  0.00000000E+00  0.00000000E+00  0.00000000E+00
  0.00000000E+00  0.00000000E+00  0.00000000E+00
  0.00000000E+00  0.00000000E+00  0.00000000E+00
  0.00000000E+00  0.00000000E+00  0.00000000E+00
  0.00000000E+00  0.00000000E+00  0.00000000E+00
  0.00000000E+00  0.00000000E+00  0.00000000E+00
  0.00000000E+00  0.00000000E+00  0.00000000E+00
  0.00000000E+00  0.00000000E+00  0.00000000E+00
  0.00000000E+00  0.00000000E+00  0.00000000E+00
  0.00000000E+00  0.00000000E+00  0.00000000E+00
  0.00000000E+00  0.00000000E+00  0.00000000E+00
  0.00000000E+00  0.00000000E+00  0.00000000E+00
  0.00000000E+00  0.00000000E+00  0.00000000E+00
  0.00000000E+00  0.00000000E+00  0.00000000E+00
  0.00000000E+00  0.00000000E+00  0.00000000E+00
  0.00000000E+00  0.00000000E+00  0.00000000E+00
  0.00000000E+00  0.00000000E+00  0.00000000E+00
  0.00000000E+00  0.00000000E+00  0.00000000E+00
  0.00000000E+00  0.00000000E+00  0.00000000E+00
  0.00000000E+00  0.00000000E+00  0.00000000E+00
  0.00000000E+00  0.00000000E+00  0.00000000E+00
  0.00000000E+00  0.00000000E+00  0.00000000E+00
  0.00000000E+00  0.00000000E+00  0.00000000E+00
  0.00000000E+00  0.00000000E+00  0.00000000E+00
  0.00000000E+00  0.00000000E+00  0.00000000E+00
  0.00000000E+00  0.00000000E+00  0.00000000E+00
  0.00000000E+00  0.00000000E+00  0.00000000E+00
  0.00000000E+00  0.00000000E+00  0.00000000E+00
  0.00000000E+00  0.00000000E+00  0.00000000E+00
  0.00000000E+00  0.00000000E+00  0.00000000E+00
  0.00000000E+00  0.00000000E+00  0.00000000E+00
  0.00000000E+00  0.00000000E+00  0.00000000E+00
  0.00000000E+00  0.00000000E+00  0.00000000E+00
  0.00000000E+00  0.00000000E+00  0.00000000E+00
  0.00000000E+00  0.00000000E+00  0.00000000E+00
  0.00000000E+00  0.00000000E+00  0.00000000E+00
  0.00000000E+00  0.00000000E+00  0.00000000E+00
  0.00000000E+00  0.00000000E+00  0.00000000E+00
  0.00000000E+00  0.00000000E+00  0.00000000E+00
  0.00000000E+00  0.00000000E+00  0.00000000E+00
  0.00000000E+00  0.00000000E+00  0.00000000E+00
  0.00000000E+00  0.00000000E+00  0.00000000E+00
  0.00000000E+00  0.00000000E+00  0.00000000E+00
  0.00000000E+00  0.00000000E+00  0.00000000E+00
  0.00000000E+00  0.00000000E+00  0.00000000E+00
  0.00000000E+00  0.00000000E+00  0.00000000E+00
  0.00000000E+00  0.00000000E+00  0.00000000E+00
  0.00000000E+00  0.00000000E+00  0.00000000E+00
  0.00000000E+00  0.00000000E+00  0.00000000E+00
  0.00000000E+00  0.00000000E+00  0.00000000E+00
  0.00000000E+00  0.00000000E+00  0.00000000E+00
  0.00000000E+00  0.00000000E+00  0.00000000E+00
  0.00000000E+00  0.00000000E+00  0.00000000E+00
  0.00000000E+00  0.00000000E+00  0.00000000E+00
  0.00000000E+00  0.00000000E+00  0.00000000E+00
  0.00000000E+00  0.00000000E+00  0.00000000E+00
  0.00000000E+00  0.00000000E+00  0.00000000E+00
  0.00000000E+00  0.00000000E+00  0.00000000E+00
  0.00000000E+00  0.00000000E+00  0.00000000E+00
  0.00000000E+00  0.00000000E+00  0.00000000E+00
  0.00000000E+00  0.00000000E+00  0.00000000E+00
  0.00000000E+00  0.00000000E+00  0.00000000E+00
  0.00000000E+00  0.00000000E+00  0.00000000E+00
  0.00000000E+00  0.00000000E+00  0.00000000E+00
  0.00000000E+00  0.00000000E+00  0.00000000E+00
  0.00000000E+00  0.00000000E+00  0.00000000E+00
  0.00000000E+00  0.00000000E+00  0.00000000E+00
  0.00000000E+00  0.00000000E+00  0.00000000E+00
  0.00000000E+00  0.00000000E+00  0.00000000E+00
  0.00000000E+00  0.00000000E+00  0.00000000E+00
  0.00000000E+00  0.00000000E+00  0.00000000E+00
  0.00000000E+00  0.00000000E+00  0.00000000E+00
  0.00000000E+00  0.00000000E+00  0.00000000E+00
  0.00000000E+00  0.00000000E+00  0.00000000E+00
  0.00000000E+00  0.00000000E+00  0.00000000E+00
  0.00000000E+00  0.00000000E+00  0.00000000E+00
  0.00000000E+00  0.00000000E+00  0.00000000E+00
  0.00000000E+00  0.00000000E+00  0.00000000E+00
  0.00000000E+00  0.00000000E+00  0.00000000E+00
  0.00000000E+00  0.00000000E+00  0.00000000E+00
  0.00000000E+00  0.00000000E+00  0.00000000E+00
  0.00000000E+00  0.00000000E+00  0.00000000E+00
  0.00000000E+00  0.00000000E+00  0.00000000E+00
  0.00000000E+00  0.00000000E+00  0.00000000E+00
  0.00000000E+00  0.00000000E+00  0.00000000E+00
  0.00000000E+00  0.00000000E+00  0.00000000E+00
  0.00000000E+00  0.00000000E+00  0.00000000E+00
  0.00000000E+00  0.00000000E+00  0.00000000E+00
  0.00000000E+00  0.00000000E+00  0.00000000E+00
  0.00000000E+00  0.00000000E+00  0.00000000E+00
  0.00000000E+00  0.00000000E+00  0.00000000E+00
  0.00000000E+00  0.00000000E+00  0.00000000E+00
  0.00000000E+00  0.00000000E+00  0.00000000E+00
  0.00000000E+00  0.00000000E+00  0.00000000E+00
  0.00000000E+00  0.00000000E+00  0.00000000E+00
  0.00000000E+00  0.00000000E+00  0.00000000E+00
  0.00000000E+00  0.00000000E+00  0.00000000E+00
  0.00000000E+00  0.00000000E+00  0.00000000E+00
  0.00000000E+00  0.00000000E+00  0.00000000E+00
  0.00000000E+00  0.00000000E+00  0.00000000E+00
  0.00000000E+00  0.00000000E+00  0.00000000E+00
  0.00000000E+00  0.00000000E+00  0.00000000E+00
  0.00000000E+00  0.00000000E+00  0.00000000E+00
  0.00000000E+00  0.00000000E+00  0.00000000E+00
  0.00000000E+00  0.00000000E+00  0.00000000E+00
  0.00000000E+00  0.00000000E+00  0.00000000E+00
  0.00000000E+00  0.00000000E+00  0.00000000E+00
  0.00000000E+00  0.00000000E+00  0.00000000E+00
  0.00000000E+00  0.00000000E+00  0.00000000E+00
  0.00000000E+00  0.00000000E+00  0.00000000E+00
  0.00000000E+00  0.00000000E+00  0.00000000E+00
  0.00000000E+00  0.00000000E+00  0.00000000E+00
  0.00000000E+00  0.00000000E+00  0.00000000E+00
  0.00000000E+00  0.00000000E+00  0.00000000E+00
  0.00000000E+00  0.00000000E+00  0.00000000E+00
  0.00000000E+00  0.00000000E+00  0.00000000E+00
  0.00000000E+00  0.00000000E+00  0.00000000E+00
  0.00000000E+00  0.00000000E+00  0.00000000E+00
  0.00000000E+00  0.00000000E+00  0.00000000E+00
  0.00000000E+00  0.00000000E+00  0.00000000E+00
  0.00000000E+00  0.00000000E+00  0.00000000E+00
  0.00000000E+00  0.00000000E+00  0.00000000E+00
  0.00000000E+00  0.00000000E+00  0.00000000E+00
  0.00000000E+00  0.00000000E+00  0.00000000E+00
  0.00000000E+00  0.00000000E+00  0.00000000E+00
  0.00000000E+00  0.00000000E+00  0.00000000E+00
  0.00000000E+00  0.00000000E+00  0.00000000E+00
  0.00000000E+00  0.00000000E+00  0.00000000E+00
  0.00000000E+00  0.00000000E+00  0.00000000E+00
  0.00000000E+00  0.00000000E+00  0.00000000E+00
  0.00000000E+00  0.00000000E+00  0.00000000E+00
  0.00000000E+00  0.00000000E+00  0.00000000E+00
  0.00000000E+00  0.00000000E+00  0.00000000E+00
  0.00000000E+00  0.00000000E+00  0.00000000E+00
  0.00000000E+00  0.00000000E+00  0.00000000E+00
  0.00000000E+00  0.00000000E+00  0.00000000E+00
  0.00000000E+00  0.00000000E+00  0.00000000E+00
  0.00000000E+00  0.00000000E+00  0.00000000E+00
  0.00000000E+00  0.00000000E+00  0.00000000E+00
  0.00000000E+00  0.00000000E+00  0.00000000E+00
  0.00000000E+00  0.00000000E+00  0.00000000E+00
  0.00000000E+00  0.00000000E+00  0.00000000E+00
  0.00000000E+00  0.00000000E+00  0.00000000E+00
  0.00000000E+00  0.00000000E+00  0.00000000E+00
  0.00000000E+00  0.00000000E+00  0.00000000E+00
  0.00000000E+00  0.00000000E+00  0.00000000E+00
  0.00000000E+00  0.00000000E+00  0.00000000E+00
  0.00000000E+00  0.00000000E+00  0.00000000E+00
  0.00000000E+00  0.00000000E+00  0.00000000E+00
  0.00000000E+00  0.00000000E+00  0.00000000E+00
  0.00000000E+00  0.00000000E+00  0.00000000E+00
  0.00000000E+00  0.00000000E+00  0.00000000E+00
  0.00000000E+00  0.00000000E+00  0.00000000E+00
  0.00000000E+00  0.00000000E+00  0.00000000E+00
  0.00000000E+00  0.00000000E+00  0.00000000E+00
  0.00000000E+00  0.00000000E+00  0.00000000E+00
  0.00000000E+00  0.00000000E+00  0.00000000E+00
  0.00000000E+00  0.00000000E+00  0.00000000E+00
  0.00000000E+00  0.00000000E+00  0.00000000E+00
  0.00000000E+00  0.00000000E+00  0.00000000E+00
  0.00000000E+00  0.00000000E+00  0.00000000E+00
  0.00000000E+00  0.00000000E+00  0.00000000E+00
  0.00000000E+00  0.00000000E+00  0.00000000E+00
  0.00000000E+00  0.00000000E+00  0.00000000E+00
  0.00000000E+00  0.00000000E+00  0.00000000E+00
  0.00000000E+00  0.00000000E+00  0.00000000E+00
  0.00000000E+00  0.00000000E+00  0.00000000E+00
  0.00000000E+00  0.00000000E+00  0.00000000E+00
  0.00000000E+00  0.00000000E+00  0.00000000E+00
  0.00000000E+00  0.00000000E+00  0.00000000E+00
  0.00000000E+00  0.00000000E+00  0.00000000E+00
  0.00000000E+00  0.00000000E+00  0.00000000E+00
  0.00000000E+00  0.00000000E+00  0.00000000E+00
  0.00000000E+00  0.00000000E+00  0.00000000E+00
  0.00000000E+00  0.00000000E+00  0.00000000E+00
  0.00000000E+00  0.00000000E+00  0.00000000E+00
  0.00000000E+00  0.00000000E+00  0.00000000E+00
  0.00000000E+00  0.00000000E+00  0.00000000E+00
  0.00000000E+00  0.00000000E+00  0.00000000E+00
  0.00000000E+00  0.00000000E+00  0.00000000E+00
  0.00000000E+00  0.00000000E+00  0.00000000E+00
  0.00000000E+00  0.00000000E+00  0.00000000E+00
  0.00000000E+00  0.00000000E+00  0.00000000E+00
  0.00000000E+00  0.00000000E+00  0.00000000E+00
  0.00000000E+00  0.00000000E+00  0.00000000E+00
  0.00000000E+00  0.00000000E+00  0.00000000E+00
  0.00000000E+00  0.00000000E+00  0.00000000E+00
  0.00000000E+00  0.00000000E+00  0.00000000E+00
  0.00000000E+00  0.00000000E+00  0.00000000E+00
  0.00000000E+00  0.00000000E+00  0.00000000E+00
  0.00000000E+00  0.00000000E+00  0.00000000E+00
  0.00000000E+00  0.00000000E+00  0.00000000E+00
  0.00000000E+00  0.00000000E+00  0.00000000E+00
  0.00000000E+00  0.00000000E+00  0.00000000E+00
  0.00000000E+00  0.00000000E+00  0.00000000E+00
  0.00000000E+00  0.00000000E+00  0.00000000E+00
  0.00000000E+00  0.00000000E+00  0.00000000E+00
  0.00000000E+00  0.00000000E+00  0.00000000E+00
  0.00000000E+00  0.00000000E+00  0.00000000E+00
  0.00000000E+00  0.00000000E+00  0.00000000E+00
  0.00000000E+00  0.00000000E+00  0.00000000E+00
  0.00000000E+00  0.00000000E+00  0.00000000E+00
  0.00000000E+00  0.00000000E+00  0.00000000E+00
  0.00000000E+00  0.00000000E+00  0.00000000E+00
  0.00000000E+00  0.00000000E+00  0.00000000E+00
  0.00000000E+00  0.00000000E+00  0.00000000E+00
  0.00000000E+00  0.00000000E+00  0.00000000E+00
  0.00000000E+00  0.00000000E+00  0.00000000E+00
  0.00000000E+00  0.00000000E+00  0.00000000E+00
  0.00000000E+00  0.00000000E+00  0.00000000E+00
  0.00000000E+00  0.00000000E+00  0.00000000E+00
  0.00000000E+00  0.00000000E+00  0.00000000E+00
  0.00000000E+00  0.00000000E+00  0.00000000E+00
  0.00000000E+00  0.00000000E+00  0.00000000E+00
  0.00000000E+00  0.00000000E+00  0.00000000E+00
  0.00000000E+00  0.00000000E+00  0.00000000E+00
  0.00000000E+00  0.00000000E+00  0.00000000E+00
  0.00000000E+00  0.00000000E+00  0.00000000E+00
  0.00000000E+00  0.00000000E+00  0.00000000E+00
  0.00000000E+00  0.00000000E+00  0.00000000E+00
  0.00000000E+00  0.00000000E+00  0.00000000E+00
  0.00000000E+00  0.00000000E+00  0.00000000E+00
  0.00000000E+00  0.00000000E+00  0.00000000E+00
  0.00000000E+00  0.00000000E+00  0.00000000E+00
  0.00000000E+00  0.00000000E+00  0.00000000E+00
  0.00000000E+00  0.00000000E+00  0.00000000E+00
  0.00000000E+00  0.00000000E+00  0.00000000E+00