In2O3 structure 3 - random placement wit
   1.00000000000000     
     8.0808220895961558   -0.0433534418886428   -0.0790639065557604
    -0.0437172188433874    8.1663265559879399    0.0789731501722879
    -0.0788316730295377    0.0772626609316474    8.2380738075273872
   In   O 
    16    24
Direct
  0.0914422919091677  0.9994230131431863  0.4692722736167880
  0.8763586627263678  0.7300234024781247  0.6783346690154559
  0.0801669052487455  0.5069880965961104  0.4548535309181787
  0.8271569234142007  0.2206459764681199  0.2330873248745604
  0.9011722435207119  0.2290080619519728  0.6877050582804642
  0.3658083670365002  0.7446582622457711  0.6837180923951749
  0.0751305108085276  0.5150276685061428  0.9703205859992821
  0.3163703948839540  0.2841582531817792  0.7579606546110895
  0.5653924403180923  0.0210967663223656  0.4940431814319908
  0.5876936809170417  0.5077192720605339  0.4576161387706676
  0.3593443839334043  0.7592097622859981  0.2021147002319523
  0.5843404937887016  0.5324201039020977  0.9525882622756185
  0.0844387152550539  0.0078860104165770  0.9952744306318451
  0.5750396462554619  0.9928867362312559  0.9511132251039882
  0.3236685523795870  0.2697590129244318  0.2231249434480276
  0.8578222001031861  0.7305002907930671  0.1879944256794346
  0.9747126179553547  0.7594169147878205  0.4269890960966762
  0.3204475016833257  0.5195852499543108  0.3443606379527253
  0.3421175781408934  0.4113975059804815  0.0002946009001761
  0.8344698813788511  0.4648192365685588  0.5724098273944236
  0.4763063818733002  0.4885792609063841  0.6979787989342014
  0.8300195473677334  0.6457380155626780  0.9238949282098829
  0.1326239613167104  0.6098031379114985  0.7127180442723713
  0.8045830344593980  0.9816913019222540  0.0957193627022832
  0.9522947785008569  0.4639256992746397  0.2151771010963017
  0.0738263153059506  0.2606517227148544  0.8874156088988769
  0.1154934521406545  0.7573125565997572  0.0873670261772901
  0.6823318260011177  0.2193880317516701  0.8500525022694916
  0.0053440082218046  0.9646997091086362  0.7367456768187992
  0.5650255843159684  0.2539878999967513  0.3468316385794523
  0.1513392787769874  0.2574598307495108  0.5471794843594608
  0.3316899202809296  0.8812409453091519  0.4416196989721897
  0.4515426034769021  0.7595403584816225  0.9337148409971547
  0.6245979038179996  0.7709528295751937  0.5810806706469478
  0.0871296955303364  0.1323959519354574  0.2338021227858533
  0.6084031364412041  0.6380904779487722  0.2180215563197763
  0.7388968833313001  0.3191042897369201  0.9904693603717405
  0.8255696483661481  0.0918939053392691  0.4712872212077315
  0.4326398795002575  0.0474799507011880  0.7211155158564253
  0.3664983630353333  0.0304138163266430  0.1028431411779209
 
  0.00000000E+00  0.00000000E+00  0.00000000E+00
  0.00000000E+00  0.00000000E+00  0.00000000E+00
  0.00000000E+00  0.00000000E+00  0.00000000E+00
  0.00000000E+00  0.00000000E+00  0.00000000E+00
  0.00000000E+00  0.00000000E+00  0.00000000E+00
  0.00000000E+00  0.00000000E+00  0.00000000E+00
  0.00000000E+00  0.00000000E+00  0.00000000E+00
  0.00000000E+00  0.00000000E+00  0.00000000E+00
  0.00000000E+00  0.00000000E+00  0.00000000E+00
  0.00000000E+00  0.00000000E+00  0.00000000E+00
  0.00000000E+00  0.00000000E+00  0.00000000E+00
  0.00000000E+00  0.00000000E+00  0.00000000E+00
  0.00000000E+00  0.00000000E+00  0.00000000E+00
  0.00000000E+00  0.00000000E+00  0.00000000E+00
  0.00000000E+00  0.00000000E+00  0.00000000E+00
  0.00000000E+00  0.00000000E+00  0.00000000E+00
  0.00000000E+00  0.00000000E+00  0.00000000E+00
  0.00000000E+00  0.00000000E+00  0.00000000E+00
  0.00000000E+00  0.00000000E+00  0.00000000E+00
  0.00000000E+00  0.00000000E+00  0.00000000E+00
  0.00000000E+00  0.00000000E+00  0.00000000E+00
  0.00000000E+00  0.00000000E+00  0.00000000E+00
  0.00000000E+00  0.00000000E+00  0.00000000E+00
  0.00000000E+00  0.00000000E+00  0.00000000E+00
  0.00000000E+00  0.00000000E+00  0.00000000E+00
  0.00000000E+00  0.00000000E+00  0.00000000E+00
  0.00000000E+00  0.00000000E+00  0.00000000E+00
  0.00000000E+00  0.00000000E+00  0.00000000E+00
  0.00000000E+00  0.00000000E+00  0.00000000E+00
  0.00000000E+00  0.00000000E+00  0.00000000E+00
  0.00000000E+00  0.00000000E+00  0.00000000E+00
  0.00000000E+00  0.00000000E+00  0.00000000E+00
  0.00000000E+00  0.00000000E+00  0.00000000E+00
  0.00000000E+00  0.00000000E+00  0.00000000E+00
  0.00000000E+00  0.00000000E+00  0.00000000E+00
  0.00000000E+00  0.00000000E+00  0.00000000E+00
  0.00000000E+00  0.00000000E+00  0.00000000E+00
  0.00000000E+00  0.00000000E+00  0.00000000E+00
  0.00000000E+00  0.00000000E+00  0.00000000E+00
  0.00000000E+00  0.00000000E+00  0.00000000E+00
