Sb4 Te6
1.0
  -2.2763860000000000    3.1190199999999999   11.3409019999999998
   2.2763860000000000   -3.1190199999999999   11.3409019999999998
   2.2763860000000000    3.1190199999999999  -11.3409019999999998
Sb Te
4 6
direct
   0.5996400000000001    0.0996400000000000    0.5000000000000000 Sb
   0.4003600000000000    0.9003600000000000    0.5000000000000000 Sb
   0.7992490000000000    0.2992490000000000    0.5000000000000000 Sb
   0.2007509999999990    0.7007510000000000    0.5000000000000000 Sb
   0.8902500000000001    0.8902500000000001    0.0000000000000000 Te
   0.1097500000000000    0.1097500000000000    0.0000000000000000 Te
   0.3030359999999990    0.3030359999999990    0.0000000000000000 Te
   0.6969639999999990    0.6969639999999990    0.0000000000000000 Te
   0.5000000000000000    0.5000000000000000    0.0000000000000000 Te
   0.0000000000000000    0.5000000000000000    0.5000000000000000 Te
