Sb                                      
   1.00000000000000     
    18.7580876959016329    0.0000000000000000    0.0000000000000000
     0.0000000000000000   18.7580876959016329    0.0000000000000000
     0.0000000000000000    0.0000000000000000   18.7580876959016329
   Sb   Si
   195    21
Direct
  0.0747580920000000  0.0752939530000000  0.6844290400000000
  0.5804657600000001  0.7513811400000000  0.3464502600000000
  0.3948231300000000  0.2417911800000000  0.8541038900000000
  0.7425590900000000  0.0850720580000000  0.0503240840000000
  0.9118459400000000  0.9408162799999999  0.5194113700000000
  0.7655655600000000  0.4338077900000000  0.8261181800000000
  0.2447539700000000  0.9260847900000000  0.1790594400000000
  0.2874066100000000  0.0851889500000000  0.3523715800000000
  0.2719251600000000  0.7589660600000000  0.3414713300000000
  0.7334697999999999  0.7604555800000000  0.0236535920000000
  0.0874438520000000  0.4507837200000000  0.5072205400000001
  0.5981927000000000  0.2747260400000000  0.1821639900000000
  0.4093418000000000  0.7512712400000000  0.6692401100000001
  0.4461077900000000  0.0942651560000000  0.2125734400000000
  0.0848948740000000  0.0801081500000000  0.0321317160000000
  0.7529376000000000  0.1258118000000000  0.8707681000000000
  0.5945054100000000  0.1110570600000000  0.0183368430000000
  0.9058625600000000  0.7608793500000000  0.9897251700000000
  0.5750438700000000  0.2556618500000000  0.6929093300000000
  0.9302798300000000  0.2645681600000000  0.5057670200000000
  0.5834765700000000  0.9214687700000000  0.3328490500000000
  0.0818974440000000  0.4183321500000000  0.0052927516000000
  0.4333856900000000  0.5933560100000000  0.1727587300000000
  0.7780179800000000  0.5939322100000000  0.9959865600000000
  0.7526294600000000  0.2519430400000000  0.2077288800000000
  0.2615635400000000  0.2618670400000000  0.1761735900000000
  0.7693314400000000  0.6012492100000000  0.6742171800000000
  0.9167964300000000  0.2798054400000000  0.1884662300000000
  0.0947463020000000  0.4390325300000000  0.1766819000000000
  0.7375698200000000  0.5918808400000000  0.8356764700000000
  0.4256263400000000  0.4187212100000000  0.8473366000000000
  0.0829979760000000  0.1065764600000000  0.3622669800000000
  0.6031387600000000  0.6042227300000000  0.1624152400000000
  0.0835806540000000  0.2499191600000000  0.8513798200000000
  0.0802855500000000  0.7649054600000000  0.1622653000000000
  0.2399708200000000  0.7596700100000000  0.1782996500000000
  0.5679252100000000  0.7565048200000000  0.5044778100000000
  0.0884812860000000  0.2606612100000000  0.5053092900000000
  0.4059800500000000  0.0740114010000000  0.0523140490000000
  0.2769482600000000  0.7502121600000000  0.0144481360000000
  0.9064719500000000  0.6021963900000000  0.3391313700000000
  0.2500922100000000  0.4409837300000000  0.6617842200000000
  0.7367992700000000  0.4267983400000000  0.3518879300000000
  0.2556255000000000  0.0757667140000000  0.1911903800000000
  0.9098727700000000  0.0902238660000000  0.6946680900000000
  0.9331005500000000  0.6129262200000000  0.1653477000000000
  0.9185498300000000  0.7695319500000000  0.6707528600000000
  0.0937595190000000  0.5963562400000000  0.6639008800000000
  0.2506946900000000  0.0869288400000000  0.0119347960000000
  0.5847942000000000  0.9198482100000001  0.7028700600000000
  0.8971104100000000  0.7766055700000000  0.1783384900000000
  0.9075171800000000  0.7509040600000000  0.8355686000000000
  0.0892417890000000  0.2622244500000000  0.0073428523000000
  0.5715517000000000  0.7448679300000000  0.8561336300000000
  0.0707151870000000  0.7431104900000000  0.6537111400000000
  0.7574611400000000  0.9216033800000000  0.3283442900000000
  0.7514268100000000  0.6216067800000000  0.1793390900000000
  0.4190702700000000  0.9325921500000000  0.3636712300000000
  0.9280889600000000  0.1023378000000000  0.0191413260000000
  0.2529926600000000  0.0990237030000000  0.5292156000000000
  0.9222995300000000  0.7603473800000000  0.3316947100000000
  0.9068955600000000  0.0871545990000000  0.8562875599999999
  0.4301204600000000  0.9181837800000000  0.6694899600000001
  0.2498357400000000  0.9199773100000000  0.3451648000000000
  0.2630790200000000  0.5936172800000000  0.9998711500000000
  0.0695127960000000  0.9041306200000000  0.8373968899999999
  0.2431955900000000  0.9070526000000000  0.6773545900000000
  0.9183485200000000  0.4413336000000000  0.3476692100000000
  0.4187044000000000  0.2637220900000000  0.0075657778000000
  0.0925204900000000  0.9427656800000001  0.3437530000000000
  0.4187772400000000  0.0962905010000000  0.5399096200000000
  0.8953793200000000  0.9480310700000000  0.1906652300000000
  0.4258239700000000  0.9172877400000000  0.0156198150000000
  0.2421361900000000  0.4143091100000000  0.1775799000000000
  0.2555495800000000  0.5990166600000000  0.4878459900000000
  0.4079602600000000  0.5752014100000000  0.8333703200000000
  0.2574200900000000  0.6028849200000000  0.1671575600000000
  0.4114181800000000  0.7625445900000000  0.8412898300000000
  0.2404861000000000  0.2574178100000000  0.9980414100000000
  0.8913980000000000  0.7582840600000000  0.5078800900000000
  0.7370065800000000  0.7685613700000000  0.3720863600000000
  0.5919520200000000  0.0817951540000000  0.5343045600000000
  0.7570801200000000  0.2716045500000000  0.3629963100000000
  0.2558872000000000  0.2478128700000000  0.3622495300000000
  0.2328728200000000  0.2411379800000000  0.6918079400000000
  0.2444138500000000  0.4281312100000000  0.5089455200000000
  0.2599550900000000  0.9181150000000000  0.0070597050000000
  0.4176519600000000  0.4097102400000000  0.0051584039000000
  0.9331154600000000  0.1112274700000000  0.3545622900000000
  0.7518889700000000  0.7705751600000000  0.5557026000000000
  0.0985155830000000  0.2843481400000000  0.3399399300000000
  0.2445045600000000  0.0920373680000000  0.6842780200000000
  0.2541953500000000  0.7519185300000000  0.8226987900000000
  0.4318591400000000  0.5895324100000000  0.9925706000000000
  0.7639800400000000  0.2672353300000000  0.6795631900000000
  0.0749256750000000  0.7611810800000000  0.0040169838000000
  0.2540406500000000  0.4134350800000000  0.8328723600000000
  0.2653059500000000  0.9339410000000000  0.5061999900000000
  0.4371823100000000  0.4272676000000000  0.1736476200000000
  0.7416104000000000  0.5894360400000000  0.5030611699999999
  0.9074638600000000  0.4376742400000000  0.1907444900000000
  0.5613165000000000  0.0840098960000000  0.8589965500000000
  0.7540467500000000  0.0881375230000000  0.3716567900000000
  0.5626802500000000  0.9351276700000000  0.8583923400000000
  0.6163793700000000  0.9408634299999999  0.1692874400000000
  0.6080774100000000  0.0990151490000000  0.1998053900000000
  0.9101675299999999  0.0914251370000000  0.5205303400000000
  0.5917020300000000  0.4318408200000000  0.8541320300000000
  0.0737818690000000  0.7775908600000000  0.4959538700000000
  0.0887586610000000  0.5913964900000001  0.1862127600000000
  0.4274417500000000  0.2585119600000000  0.3545861800000000
  0.3961551500000000  0.9208249600000000  0.8290497500000000
  0.7301837100000000  0.9284147800000000  0.8726771000000000
  0.4349222900000000  0.7462405600000001  0.0146125070000000
  0.7380434299999999  0.9274281400000000  0.0428138820000000
  0.0785452550000000  0.7455785200000000  0.8368968800000000
  0.7621679700000000  0.4344752800000000  0.0295216580000000
  0.7548575900000000  0.0875457520000000  0.5250002600000000
  0.9126054400000000  0.9302351200000000  0.6844454000000000
  0.5864258300000000  0.7495024600000000  0.1769767400000000
  0.7382888200000000  0.9136960300000000  0.5105288400000000
  0.7567137400000000  0.6123600100000000  0.3386483300000000
  0.5879731600000000  0.0832425630000000  0.7048455200000000
  0.9227538500000000  0.2662207900000000  0.3501800900000000
  0.0689966640000000  0.9275768400000000  0.0176225080000000
  0.0918245140000000  0.9169840400000000  0.6690452400000000
  0.6070927400000000  0.2677423600000000  0.8523930400000000
  0.9132256600000001  0.9149475400000000  0.3572410200000000
  0.9233802100000000  0.4121601900000000  0.9980847800000000
  0.2374860500000000  0.0891627770000000  0.8621072500000000
  0.0820927570000000  0.4371493800000000  0.3464065000000000
  0.4047551800000000  0.0730379150000000  0.6974759000000000
  0.4180134700000000  0.2610210900000000  0.6795835000000000
  0.5982904000000000  0.0916266460000000  0.3645332900000000
  0.4018284500000000  0.9229398599999999  0.1703835100000000
  0.9298031500000000  0.5855435500000000  0.8345848400000000
  0.7441247500000000  0.4187968200000000  0.6619117600000000
  0.0820341410000000  0.0958955140000000  0.8387247900000000
  0.7532730000000000  0.2754664100000000  0.0021410764000000
  0.8940933700000000  0.4264359700000000  0.5097498900000000
  0.2572829100000000  0.2598599700000000  0.5213293400000000
  0.4256387200000000  0.2489126900000000  0.2042630900000000
  0.7351186300000000  0.2555804000000000  0.5283252700000000
  0.5811689300000000  0.2644640100000000  0.0245791240000000
  0.9144091600000001  0.4203438600000000  0.8446288400000000
  0.5817895900000000  0.2612378700000000  0.3636559300000000
  0.0725063570000000  0.4156314700000000  0.6804662900000000
  0.0910641310000000  0.6017195300000000  0.9936458600000000
  0.0607520130000000  0.9200475900000000  0.1811571800000000
  0.9322860100000000  0.6097091200000000  0.4916084800000000
  0.7457335400000000  0.4686751300000000  0.1778590400000000
  0.2350294500000000  0.9240021000000000  0.8480427600000000
  0.0744094610000000  0.7503422700000000  0.3394233600000000
  0.9259047700000000  0.5871735800000000  0.6623073100000000
  0.5993645900000000  0.4492193800000000  0.0113856680000000
  0.7458125100000000  0.0930516490000000  0.7153823100000000
  0.9212677300000000  0.5698709500000000  0.0207770810000000
  0.9251010400000000  0.2589982700000000  0.8303878900000000
  0.8960586100000000  0.9260044200000001  0.0402782430000000
  0.7537761100000000  0.9297271900000000  0.6817380400000000
  0.5680069300000000  0.9344596600000000  0.5136887400000000
  0.2598596200000000  0.4344190400000000  0.3367812800000000
  0.0923951200000000  0.6041287800000000  0.4898882500000000
  0.4295463800000000  0.7610591799999999  0.1835400400000000
  0.9029954700000000  0.9343267700000000  0.8608106500000000
  0.0678203150000000  0.9430885600000000  0.5036203200000000
  0.0821251370000000  0.2655656400000000  0.6593158000000000
  0.4122735200000000  0.0879020400000000  0.8774666000000000
  0.0969624400000000  0.4342730500000000  0.8437469800000000
  0.2554711100000000  0.5933317900000000  0.8242149100000000
  0.8994128800000000  0.1046179300000000  0.1925653100000000
  0.5997172600000000  0.7564962100000000  0.7046205100000000
  0.5875645000000000  0.5952698900000000  0.9938967200000000
  0.2341677300000000  0.5889562800000000  0.3351034400000000
  0.2451848400000000  0.7569151000000000  0.5060054400000000
  0.0943605390000000  0.0899120700000000  0.1849496700000000
  0.5805357300000000  0.2698894700000000  0.5212065400000000
  0.9136875800000001  0.4339521200000000  0.6619604000000000
  0.9157780200000000  0.2525890300000000  0.0263361120000000
  0.4190190700000000  0.7580962200000000  0.4839853500000000
  0.9100642700000000  0.2538517400000000  0.6741347900000000
  0.2439856000000000  0.5925238300000000  0.6636199400000000
  0.2694976100000000  0.4350200500000000  0.9969817399999999
  0.4098299700000000  0.4105500000000000  0.3493199900000000
  0.4210000000000000  0.5906100300000000  0.3288600100000000
  0.5893000400000000  0.4294100100000000  0.3294600000000000
  0.4098299700000000  0.5795900200000000  0.5097299800000000
  0.5778700100000000  0.5859400000000000  0.3337799900000000
  0.4100900300000000  0.4120700100000000  0.6862800100000001
  0.4212600000000000  0.4230700100000000  0.5054100200000000
  0.5893000400000000  0.5984500000000000  0.4898800000000000
  0.5781300100000000  0.5874400100000000  0.6707500199999999
  0.4212600000000000  0.5921099800000000  0.6658300200000000
  0.5895600300000000  0.4309099900000000  0.6664199800000000
  0.5781300100000000  0.4183900100000000  0.5103300200000001
  0.7471935600000000  0.9029036000000000  0.1915942600000000
  0.7590424500000000  0.1068090800000000  0.2132103200000000
  0.4096473200000000  0.2573032700000000  0.5326156100000000
  0.4257086000000000  0.0802336250000000  0.3869272700000000
  0.7529789600000000  0.7794041900000001  0.2012413600000000
  0.0684111990000000  0.5835033400000000  0.8318472500000000
  0.0970778770000000  0.6056175800000000  0.3333443200000000
  0.4127412800000000  0.9051062400000000  0.5148720200000000
  0.7602880700000000  0.4576748800000000  0.4997369500000000
  0.2429924300000000  0.2640633800000000  0.8372815400000000
  0.4172387200000000  0.7404869600000000  0.3333996700000000
  0.7419963500000000  0.7418868600000000  0.7011446000000000
  0.2673350800000000  0.7564510700000000  0.6644076000000000
  0.7718123500000000  0.7323556500000000  0.8298249300000000
  0.0554199650000000  0.3104145400000000  0.2086261300000000
  0.7479129300000000  0.2730197400000000  0.8588670800000000
  0.1109123900000000  0.1071749300000000  0.5015685100000000
  0.1274349600000000  0.2273478400000000  0.1571653300000000
  0.5947247400000000  0.5992041800000000  0.8322578300000000
  0.5878852200000000  0.4257083200000000  0.1856067300000000
  0.6997854100000001  0.7911829500000001  0.8993305400000000
 
  0.00000000E+00  0.00000000E+00  0.00000000E+00
  0.00000000E+00  0.00000000E+00  0.00000000E+00
  0.00000000E+00  0.00000000E+00  0.00000000E+00
  0.00000000E+00  0.00000000E+00  0.00000000E+00
  0.00000000E+00  0.00000000E+00  0.00000000E+00
  0.00000000E+00  0.00000000E+00  0.00000000E+00
  0.00000000E+00  0.00000000E+00  0.00000000E+00
  0.00000000E+00  0.00000000E+00  0.00000000E+00
  0.00000000E+00  0.00000000E+00  0.00000000E+00
  0.00000000E+00  0.00000000E+00  0.00000000E+00
  0.00000000E+00  0.00000000E+00  0.00000000E+00
  0.00000000E+00  0.00000000E+00  0.00000000E+00
  0.00000000E+00  0.00000000E+00  0.00000000E+00
  0.00000000E+00  0.00000000E+00  0.00000000E+00
  0.00000000E+00  0.00000000E+00  0.00000000E+00
  0.00000000E+00  0.00000000E+00  0.00000000E+00
  0.00000000E+00  0.00000000E+00  0.00000000E+00
  0.00000000E+00  0.00000000E+00  0.00000000E+00
  0.00000000E+00  0.00000000E+00  0.00000000E+00
  0.00000000E+00  0.00000000E+00  0.00000000E+00
  0.00000000E+00  0.00000000E+00  0.00000000E+00
  0.00000000E+00  0.00000000E+00  0.00000000E+00
  0.00000000E+00  0.00000000E+00  0.00000000E+00
  0.00000000E+00  0.00000000E+00  0.00000000E+00
  0.00000000E+00  0.00000000E+00  0.00000000E+00
  0.00000000E+00  0.00000000E+00  0.00000000E+00
  0.00000000E+00  0.00000000E+00  0.00000000E+00
  0.00000000E+00  0.00000000E+00  0.00000000E+00
  0.00000000E+00  0.00000000E+00  0.00000000E+00
  0.00000000E+00  0.00000000E+00  0.00000000E+00
  0.00000000E+00  0.00000000E+00  0.00000000E+00
  0.00000000E+00  0.00000000E+00  0.00000000E+00
  0.00000000E+00  0.00000000E+00  0.00000000E+00
  0.00000000E+00  0.00000000E+00  0.00000000E+00
  0.00000000E+00  0.00000000E+00  0.00000000E+00
  0.00000000E+00  0.00000000E+00  0.00000000E+00
  0.00000000E+00  0.00000000E+00  0.00000000E+00
  0.00000000E+00  0.00000000E+00  0.00000000E+00
  0.00000000E+00  0.00000000E+00  0.00000000E+00
  0.00000000E+00  0.00000000E+00  0.00000000E+00
  0.00000000E+00  0.00000000E+00  0.00000000E+00
  0.00000000E+00  0.00000000E+00  0.00000000E+00
  0.00000000E+00  0.00000000E+00  0.00000000E+00
  0.00000000E+00  0.00000000E+00  0.00000000E+00
  0.00000000E+00  0.00000000E+00  0.00000000E+00
  0.00000000E+00  0.00000000E+00  0.00000000E+00
  0.00000000E+00  0.00000000E+00  0.00000000E+00
  0.00000000E+00  0.00000000E+00  0.00000000E+00
  0.00000000E+00  0.00000000E+00  0.00000000E+00
  0.00000000E+00  0.00000000E+00  0.00000000E+00
  0.00000000E+00  0.00000000E+00  0.00000000E+00
  0.00000000E+00  0.00000000E+00  0.00000000E+00
  0.00000000E+00  0.00000000E+00  0.00000000E+00
  0.00000000E+00  0.00000000E+00  0.00000000E+00
  0.00000000E+00  0.00000000E+00  0.00000000E+00
  0.00000000E+00  0.00000000E+00  0.00000000E+00
  0.00000000E+00  0.00000000E+00  0.00000000E+00
  0.00000000E+00  0.00000000E+00  0.00000000E+00
  0.00000000E+00  0.00000000E+00  0.00000000E+00
  0.00000000E+00  0.00000000E+00  0.00000000E+00
  0.00000000E+00  0.00000000E+00  0.00000000E+00
  0.00000000E+00  0.00000000E+00  0.00000000E+00
  0.00000000E+00  0.00000000E+00  0.00000000E+00
  0.00000000E+00  0.00000000E+00  0.00000000E+00
  0.00000000E+00  0.00000000E+00  0.00000000E+00
  0.00000000E+00  0.00000000E+00  0.00000000E+00
  0.00000000E+00  0.00000000E+00  0.00000000E+00
  0.00000000E+00  0.00000000E+00  0.00000000E+00
  0.00000000E+00  0.00000000E+00  0.00000000E+00
  0.00000000E+00  0.00000000E+00  0.00000000E+00
  0.00000000E+00  0.00000000E+00  0.00000000E+00
  0.00000000E+00  0.00000000E+00  0.00000000E+00
  0.00000000E+00  0.00000000E+00  0.00000000E+00
  0.00000000E+00  0.00000000E+00  0.00000000E+00
  0.00000000E+00  0.00000000E+00  0.00000000E+00
  0.00000000E+00  0.00000000E+00  0.00000000E+00
  0.00000000E+00  0.00000000E+00  0.00000000E+00
  0.00000000E+00  0.00000000E+00  0.00000000E+00
  0.00000000E+00  0.00000000E+00  0.00000000E+00
  0.00000000E+00  0.00000000E+00  0.00000000E+00
  0.00000000E+00  0.00000000E+00  0.00000000E+00
  0.00000000E+00  0.00000000E+00  0.00000000E+00
  0.00000000E+00  0.00000000E+00  0.00000000E+00
  0.00000000E+00  0.00000000E+00  0.00000000E+00
  0.00000000E+00  0.00000000E+00  0.00000000E+00
  0.00000000E+00  0.00000000E+00  0.00000000E+00
  0.00000000E+00  0.00000000E+00  0.00000000E+00
  0.00000000E+00  0.00000000E+00  0.00000000E+00
  0.00000000E+00  0.00000000E+00  0.00000000E+00
  0.00000000E+00  0.00000000E+00  0.00000000E+00
  0.00000000E+00  0.00000000E+00  0.00000000E+00
  0.00000000E+00  0.00000000E+00  0.00000000E+00
  0.00000000E+00  0.00000000E+00  0.00000000E+00
  0.00000000E+00  0.00000000E+00  0.00000000E+00
  0.00000000E+00  0.00000000E+00  0.00000000E+00
  0.00000000E+00  0.00000000E+00  0.00000000E+00
  0.00000000E+00  0.00000000E+00  0.00000000E+00
  0.00000000E+00  0.00000000E+00  0.00000000E+00
  0.00000000E+00  0.00000000E+00  0.00000000E+00
  0.00000000E+00  0.00000000E+00  0.00000000E+00
  0.00000000E+00  0.00000000E+00  0.00000000E+00
  0.00000000E+00  0.00000000E+00  0.00000000E+00
  0.00000000E+00  0.00000000E+00  0.00000000E+00
  0.00000000E+00  0.00000000E+00  0.00000000E+00
  0.00000000E+00  0.00000000E+00  0.00000000E+00
  0.00000000E+00  0.00000000E+00  0.00000000E+00
  0.00000000E+00  0.00000000E+00  0.00000000E+00
  0.00000000E+00  0.00000000E+00  0.00000000E+00
  0.00000000E+00  0.00000000E+00  0.00000000E+00
  0.00000000E+00  0.00000000E+00  0.00000000E+00
  0.00000000E+00  0.00000000E+00  0.00000000E+00
  0.00000000E+00  0.00000000E+00  0.00000000E+00
  0.00000000E+00  0.00000000E+00  0.00000000E+00
  0.00000000E+00  0.00000000E+00  0.00000000E+00
  0.00000000E+00  0.00000000E+00  0.00000000E+00
  0.00000000E+00  0.00000000E+00  0.00000000E+00
  0.00000000E+00  0.00000000E+00  0.00000000E+00
  0.00000000E+00  0.00000000E+00  0.00000000E+00
  0.00000000E+00  0.00000000E+00  0.00000000E+00
  0.00000000E+00  0.00000000E+00  0.00000000E+00
  0.00000000E+00  0.00000000E+00  0.00000000E+00
  0.00000000E+00  0.00000000E+00  0.00000000E+00
  0.00000000E+00  0.00000000E+00  0.00000000E+00
  0.00000000E+00  0.00000000E+00  0.00000000E+00
  0.00000000E+00  0.00000000E+00  0.00000000E+00
  0.00000000E+00  0.00000000E+00  0.00000000E+00
  0.00000000E+00  0.00000000E+00  0.00000000E+00
  0.00000000E+00  0.00000000E+00  0.00000000E+00
  0.00000000E+00  0.00000000E+00  0.00000000E+00
  0.00000000E+00  0.00000000E+00  0.00000000E+00
  0.00000000E+00  0.00000000E+00  0.00000000E+00
  0.00000000E+00  0.00000000E+00  0.00000000E+00
  0.00000000E+00  0.00000000E+00  0.00000000E+00
  0.00000000E+00  0.00000000E+00  0.00000000E+00
  0.00000000E+00  0.00000000E+00  0.00000000E+00
  0.00000000E+00  0.00000000E+00  0.00000000E+00
  0.00000000E+00  0.00000000E+00  0.00000000E+00
  0.00000000E+00  0.00000000E+00  0.00000000E+00
  0.00000000E+00  0.00000000E+00  0.00000000E+00
  0.00000000E+00  0.00000000E+00  0.00000000E+00
  0.00000000E+00  0.00000000E+00  0.00000000E+00
  0.00000000E+00  0.00000000E+00  0.00000000E+00
  0.00000000E+00  0.00000000E+00  0.00000000E+00
  0.00000000E+00  0.00000000E+00  0.00000000E+00
  0.00000000E+00  0.00000000E+00  0.00000000E+00
  0.00000000E+00  0.00000000E+00  0.00000000E+00
  0.00000000E+00  0.00000000E+00  0.00000000E+00
  0.00000000E+00  0.00000000E+00  0.00000000E+00
  0.00000000E+00  0.00000000E+00  0.00000000E+00
  0.00000000E+00  0.00000000E+00  0.00000000E+00
  0.00000000E+00  0.00000000E+00  0.00000000E+00
  0.00000000E+00  0.00000000E+00  0.00000000E+00
  0.00000000E+00  0.00000000E+00  0.00000000E+00
  0.00000000E+00  0.00000000E+00  0.00000000E+00
  0.00000000E+00  0.00000000E+00  0.00000000E+00
  0.00000000E+00  0.00000000E+00  0.00000000E+00
  0.00000000E+00  0.00000000E+00  0.00000000E+00
  0.00000000E+00  0.00000000E+00  0.00000000E+00
  0.00000000E+00  0.00000000E+00  0.00000000E+00
  0.00000000E+00  0.00000000E+00  0.00000000E+00
  0.00000000E+00  0.00000000E+00  0.00000000E+00
  0.00000000E+00  0.00000000E+00  0.00000000E+00
  0.00000000E+00  0.00000000E+00  0.00000000E+00
  0.00000000E+00  0.00000000E+00  0.00000000E+00
  0.00000000E+00  0.00000000E+00  0.00000000E+00
  0.00000000E+00  0.00000000E+00  0.00000000E+00
  0.00000000E+00  0.00000000E+00  0.00000000E+00
  0.00000000E+00  0.00000000E+00  0.00000000E+00
  0.00000000E+00  0.00000000E+00  0.00000000E+00
  0.00000000E+00  0.00000000E+00  0.00000000E+00
  0.00000000E+00  0.00000000E+00  0.00000000E+00
  0.00000000E+00  0.00000000E+00  0.00000000E+00
  0.00000000E+00  0.00000000E+00  0.00000000E+00
  0.00000000E+00  0.00000000E+00  0.00000000E+00
  0.00000000E+00  0.00000000E+00  0.00000000E+00
  0.00000000E+00  0.00000000E+00  0.00000000E+00
  0.00000000E+00  0.00000000E+00  0.00000000E+00
  0.00000000E+00  0.00000000E+00  0.00000000E+00
  0.00000000E+00  0.00000000E+00  0.00000000E+00
  0.00000000E+00  0.00000000E+00  0.00000000E+00
  0.00000000E+00  0.00000000E+00  0.00000000E+00
  0.00000000E+00  0.00000000E+00  0.00000000E+00
  0.00000000E+00  0.00000000E+00  0.00000000E+00
  0.00000000E+00  0.00000000E+00  0.00000000E+00
  0.00000000E+00  0.00000000E+00  0.00000000E+00
  0.00000000E+00  0.00000000E+00  0.00000000E+00
  0.00000000E+00  0.00000000E+00  0.00000000E+00
  0.00000000E+00  0.00000000E+00  0.00000000E+00
  0.00000000E+00  0.00000000E+00  0.00000000E+00
  0.00000000E+00  0.00000000E+00  0.00000000E+00
  0.00000000E+00  0.00000000E+00  0.00000000E+00
  0.00000000E+00  0.00000000E+00  0.00000000E+00
  0.00000000E+00  0.00000000E+00  0.00000000E+00
  0.00000000E+00  0.00000000E+00  0.00000000E+00
  0.00000000E+00  0.00000000E+00  0.00000000E+00
  0.00000000E+00  0.00000000E+00  0.00000000E+00
  0.00000000E+00  0.00000000E+00  0.00000000E+00
  0.00000000E+00  0.00000000E+00  0.00000000E+00
  0.00000000E+00  0.00000000E+00  0.00000000E+00
  0.00000000E+00  0.00000000E+00  0.00000000E+00
  0.00000000E+00  0.00000000E+00  0.00000000E+00
  0.00000000E+00  0.00000000E+00  0.00000000E+00
  0.00000000E+00  0.00000000E+00  0.00000000E+00
  0.00000000E+00  0.00000000E+00  0.00000000E+00
  0.00000000E+00  0.00000000E+00  0.00000000E+00
  0.00000000E+00  0.00000000E+00  0.00000000E+00
  0.00000000E+00  0.00000000E+00  0.00000000E+00
  0.00000000E+00  0.00000000E+00  0.00000000E+00
  0.00000000E+00  0.00000000E+00  0.00000000E+00
  0.00000000E+00  0.00000000E+00  0.00000000E+00
  0.00000000E+00  0.00000000E+00  0.00000000E+00
  0.00000000E+00  0.00000000E+00  0.00000000E+00
  0.00000000E+00  0.00000000E+00  0.00000000E+00
  0.00000000E+00  0.00000000E+00  0.00000000E+00
  0.00000000E+00  0.00000000E+00  0.00000000E+00
  0.00000000E+00  0.00000000E+00  0.00000000E+00
 
           1
   4.00000000000000     
  0.10000000E+01  0.00000000E+00  0.00000000E+00  0.00000000E+00
  0.74758092E-01  0.75293953E-01  0.68442904E+00
  0.58046576E+00  0.75138114E+00  0.34645026E+00
  0.39482313E+00  0.24179118E+00  0.85410389E+00
  0.74255909E+00  0.85072058E-01  0.50324084E-01
  0.91184594E+00  0.94081628E+00  0.51941137E+00
  0.76556556E+00  0.43380779E+00  0.82611818E+00
  0.24475397E+00  0.92608479E+00  0.17905944E+00
  0.28740661E+00  0.85188950E-01  0.35237158E+00
  0.27192516E+00  0.75896606E+00  0.34147133E+00
  0.73346980E+00  0.76045558E+00  0.23653592E-01
  0.87443852E-01  0.45078372E+00  0.50722054E+00
  0.59819270E+00  0.27472604E+00  0.18216399E+00
  0.40934180E+00  0.75127124E+00  0.66924011E+00
  0.44610779E+00  0.94265156E-01  0.21257344E+00
  0.84894874E-01  0.80108150E-01  0.32131716E-01
  0.75293760E+00  0.12581180E+00  0.87076810E+00
  0.59450541E+00  0.11105706E+00  0.18336843E-01
  0.90586256E+00  0.76087935E+00  0.98972517E+00
  0.57504387E+00  0.25566185E+00  0.69290933E+00
  0.93027983E+00  0.26456816E+00  0.50576702E+00
  0.58347657E+00  0.92146877E+00  0.33284905E+00
  0.81897444E-01  0.41833215E+00  0.52927516E-02
  0.43338569E+00  0.59335601E+00  0.17275873E+00
  0.77801798E+00  0.59393221E+00  0.99598656E+00
  0.75262946E+00  0.25194304E+00  0.20772888E+00
  0.26156354E+00  0.26186704E+00  0.17617359E+00
  0.76933144E+00  0.60124921E+00  0.67421718E+00
  0.91679643E+00  0.27980544E+00  0.18846623E+00
  0.94746302E-01  0.43903253E+00  0.17668190E+00
  0.73756982E+00  0.59188084E+00  0.83567647E+00
  0.42562634E+00  0.41872121E+00  0.84733660E+00
  0.82997976E-01  0.10657646E+00  0.36226698E+00
  0.60313876E+00  0.60422273E+00  0.16241524E+00
  0.83580654E-01  0.24991916E+00  0.85137982E+00
  0.80285550E-01  0.76490546E+00  0.16226530E+00
  0.23997082E+00  0.75967001E+00  0.17829965E+00
  0.56792521E+00  0.75650482E+00  0.50447781E+00
  0.88481286E-01  0.26066121E+00  0.50530929E+00
  0.40598005E+00  0.74011401E-01  0.52314049E-01
  0.27694826E+00  0.75021216E+00  0.14448136E-01
  0.90647195E+00  0.60219639E+00  0.33913137E+00
  0.25009221E+00  0.44098373E+00  0.66178422E+00
  0.73679927E+00  0.42679834E+00  0.35188793E+00
  0.25562550E+00  0.75766714E-01  0.19119038E+00
  0.90987277E+00  0.90223866E-01  0.69466809E+00
  0.93310055E+00  0.61292622E+00  0.16534770E+00
  0.91854983E+00  0.76953195E+00  0.67075286E+00
  0.93759519E-01  0.59635624E+00  0.66390088E+00
  0.25069469E+00  0.86928840E-01  0.11934796E-01
  0.58479420E+00  0.91984821E+00  0.70287006E+00
  0.89711041E+00  0.77660557E+00  0.17833849E+00
  0.90751718E+00  0.75090406E+00  0.83556860E+00
  0.89241789E-01  0.26222445E+00  0.73428523E-02
  0.57155170E+00  0.74486793E+00  0.85613363E+00
  0.70715187E-01  0.74311049E+00  0.65371114E+00
  0.75746114E+00  0.92160338E+00  0.32834429E+00
  0.75142681E+00  0.62160678E+00  0.17933909E+00
  0.41907027E+00  0.93259215E+00  0.36367123E+00
  0.92808896E+00  0.10233780E+00  0.19141326E-01
  0.25299266E+00  0.99023703E-01  0.52921560E+00
  0.92229953E+00  0.76034738E+00  0.33169471E+00
  0.90689556E+00  0.87154599E-01  0.85628756E+00
  0.43012046E+00  0.91818378E+00  0.66948996E+00
  0.24983574E+00  0.91997731E+00  0.34516480E+00
  0.26307902E+00  0.59361728E+00  0.99987115E+00
  0.69512796E-01  0.90413062E+00  0.83739689E+00
  0.24319559E+00  0.90705260E+00  0.67735459E+00
  0.91834852E+00  0.44133360E+00  0.34766921E+00
  0.41870440E+00  0.26372209E+00  0.75657778E-02
  0.92520490E-01  0.94276568E+00  0.34375300E+00
  0.41877724E+00  0.96290501E-01  0.53990962E+00
  0.89537932E+00  0.94803107E+00  0.19066523E+00
  0.42582397E+00  0.91728774E+00  0.15619815E-01
  0.24213619E+00  0.41430911E+00  0.17757990E+00
  0.25554958E+00  0.59901666E+00  0.48784599E+00
  0.40796026E+00  0.57520141E+00  0.83337032E+00
  0.25742009E+00  0.60288492E+00  0.16715756E+00
  0.41141818E+00  0.76254459E+00  0.84128983E+00
  0.24048610E+00  0.25741781E+00  0.99804141E+00
  0.89139800E+00  0.75828406E+00  0.50788009E+00
  0.73700658E+00  0.76856137E+00  0.37208636E+00
  0.59195202E+00  0.81795154E-01  0.53430456E+00
  0.75708012E+00  0.27160455E+00  0.36299631E+00
  0.25588720E+00  0.24781287E+00  0.36224953E+00
  0.23287282E+00  0.24113798E+00  0.69180794E+00
  0.24441385E+00  0.42813121E+00  0.50894552E+00
  0.25995509E+00  0.91811500E+00  0.70597050E-02
  0.41765196E+00  0.40971024E+00  0.51584039E-02
  0.93311546E+00  0.11122747E+00  0.35456229E+00
  0.75188897E+00  0.77057516E+00  0.55570260E+00
  0.98515583E-01  0.28434814E+00  0.33993993E+00
  0.24450456E+00  0.92037368E-01  0.68427802E+00
  0.25419535E+00  0.75191853E+00  0.82269879E+00
  0.43185914E+00  0.58953241E+00  0.99257060E+00
  0.76398004E+00  0.26723533E+00  0.67956319E+00
  0.74925675E-01  0.76118108E+00  0.40169838E-02
  0.25404065E+00  0.41343508E+00  0.83287236E+00
  0.26530595E+00  0.93394100E+00  0.50619999E+00
  0.43718231E+00  0.42726760E+00  0.17364762E+00
  0.74161040E+00  0.58943604E+00  0.50306117E+00
  0.90746386E+00  0.43767424E+00  0.19074449E+00
  0.56131650E+00  0.84009896E-01  0.85899655E+00
  0.75404675E+00  0.88137523E-01  0.37165679E+00
  0.56268025E+00  0.93512767E+00  0.85839234E+00
  0.61637937E+00  0.94086343E+00  0.16928744E+00
  0.60807741E+00  0.99015149E-01  0.19980539E+00
  0.91016753E+00  0.91425137E-01  0.52053034E+00
  0.59170203E+00  0.43184082E+00  0.85413203E+00
  0.73781869E-01  0.77759086E+00  0.49595387E+00
  0.88758661E-01  0.59139649E+00  0.18621276E+00
  0.42744175E+00  0.25851196E+00  0.35458618E+00
  0.39615515E+00  0.92082496E+00  0.82904975E+00
  0.73018371E+00  0.92841478E+00  0.87267710E+00
  0.43492229E+00  0.74624056E+00  0.14612507E-01
  0.73804343E+00  0.92742814E+00  0.42813882E-01
  0.78545255E-01  0.74557852E+00  0.83689688E+00
  0.76216797E+00  0.43447528E+00  0.29521658E-01
  0.75485759E+00  0.87545752E-01  0.52500026E+00
  0.91260544E+00  0.93023512E+00  0.68444540E+00