Amorphous Sb                            
   1.00000000000000     
    22.7713554274211312    0.0000000000000000    0.0000000000000000
     0.0000000000000000   22.7713554274211312    0.0000000000000000
     0.0000000000000000    0.0000000000000000   22.7713554274211312
   Te
   300
Direct
  0.8145046435176113  0.4387502880625204  0.9262704142382938
  0.2127370818856757  0.2894326929670555  0.1002638723480360
  0.3076958581720199  0.0774668263495634  0.4592688480671210
  0.9955145335606846  0.3656528887705725  0.8561915875569808
  0.0448243229062791  0.3037425789776179  0.5354913554606610
  0.7241605205263750  0.8420298589249718  0.2686148676335665
  0.6343616844256174  0.4827706458691091  0.4813322224238454
  0.7244856258852622  0.5069347302315064  0.3289319785466061
  0.9929028880040354  0.1765626014336866  0.4833475093829050
  0.2019889399842851  0.1282738543356322  0.4956170217115800
  0.9617748760809961  0.5096409825866443  0.1349372733489282
  0.4968788007875075  0.8460765190244470  0.8992686733308181
  0.2689533651343546  0.4731559449492046  0.7231769566376065
  0.7014290757594565  0.4862723677669678  0.9407228621969452
  0.8305906078273790  0.6577303463095531  0.4154981726747499
  0.0402734645858143  0.0114772331912783  0.4738803179712274
  0.1792588131648226  0.5391218053102441  0.0373808449396966
  0.0052432326319641  0.9248523272289045  0.8158618465487508
  0.1528360103989242  0.4292098650786157  0.0843663254342312
  0.7685647090539804  0.2587370081346997  0.4557741256125300
  0.2594090957795588  0.8638445864605823  0.7411904273197761
  0.3119454090287635  0.7705557414980762  0.4294573170686790
  0.6914309600262597  0.1019834655057882  0.5773909749714983
  0.8002301461779486  0.1826559559528434  0.5490502663890007
  0.7131116063309889  0.6348562802912168  0.8182510218661264
  0.7525963701233284  0.3183478413892247  0.7433526639632533
  0.4962183107155035  0.6055920071931943  0.4380957933872103
  0.2624359406656838  0.7387840221150649  0.9119116529107341
  0.4940919562882375  0.9878300621548705  0.7719738758457577
  0.1869681595695334  0.1244151353389317  0.0115474451547573
  0.7676530732846127  0.8920193217969691  0.9196951139934723
  0.5062182693547197  0.3929934449850833  0.3878221210176619
  0.8132549980646886  0.8666668251443443  0.6435091846508043
  0.1673345538196280  0.9490077690745741  0.2621310187197298
  0.1518736910467132  0.3498836340165935  0.9415324785766899
  0.7153936724184220  0.7801983626788552  0.6501023921869422
  0.0530995446151013  0.6415427837376052  0.8064553691918264
  0.8646559869736156  0.8710120608017902  0.3491867177816123
  0.7233439390148316  0.0536188966748200  0.0945011241937785
  0.3595906307413423  0.8194067312584644  0.1006373773299369
  0.3794519811523670  0.6983957285702062  0.0486851877332780
  0.3126902184264113  0.3120897175346489  0.0356122353348011
  0.9495852104144270  0.0376257370472569  0.3289996013571952
  0.9663758548708865  0.0432091821343564  0.8180775508719503
  0.9523017126776658  0.5443845085527961  0.3120163291696370
  0.5698647684939105  0.9059058147051497  0.8235373065793757
  0.8627653138368241  0.3375954730318618  0.8031231018598836
  0.0236707943842540  0.4781946548164452  0.4271977942322924
  0.1748068059148460  0.5598922894639990  0.4773650119431013
  0.6072949272704746  0.9233792253884264  0.0951333619975741
  0.5948167944099034  0.0600772162065903  0.6558719935849611
  0.4974096192848678  0.0205143158206153  0.2276124570724696
  0.8340567468479719  0.2999888808210483  0.1100322275931747
  0.1971068461264703  0.2895521936697437  0.6866286622118757
  0.9555754035960371  0.6668015580142939  0.6688355502946359
  0.2553697460020603  0.0712852593486831  0.8696794194939899
  0.3209856176889423  0.9655004778292159  0.8780946243646822
  0.1931910227380622  0.1927167549337444  0.2813217340318768
  0.0997228536566786  0.2257302663584666  0.9527299784684591
  0.3505264268421920  0.9377424266635490  0.1651853651191801
  0.9016758488287504  0.8345948317039229  0.2119791552799145
  0.7372009522070391  0.7416557887913616  0.3853385373817573
  0.8734946050495250  0.0323369805201685  0.9659477449947943
  0.4360543067987835  0.2620096743684290  0.1270444559504134
  0.3449706713377702  0.6240152942342025  0.4786028538644438
  0.0457187762308255  0.5948858483982308  0.2532805177086338
  0.1633773187930667  0.7431959995700080  0.0352239411030706
  0.3885820134383827  0.9267163327974425  0.7588624342452996
  0.8594348828042000  0.3609119914450224  0.5035822664722878
  0.1156333286756104  0.9233365006893497  0.5149991803314944
  0.5631746009431231  0.2294548267645896  0.5729669644806701
  0.4560026747061795  0.0102476895732173  0.4374342998836849
  0.6275250640869813  0.1459974432718233  0.4823907859048119
  0.1319541592996611  0.4418693988603929  0.7744917134865950
  0.0886725368722030  0.9199030055184587  0.9391631336788112
  0.2332725452478059  0.0355925058960126  0.7291053179729334
  0.1270656013888283  0.3330711162277404  0.2824712610006793
  0.8530115392816832  0.2050389588495477  0.3747796691085788
  0.4973749988823403  0.2330362674689851  0.0247932482776077
  0.8425282098019569  0.0161661354127966  0.0834567582190297
  0.0272391670435992  0.4140844642863174  0.9661591421087551
  0.3124496999629132  0.6357260489432387  0.3188826252011460
  0.8948540490660897  0.1705355261420186  0.1050892846778419
  0.4727018736085005  0.1232272886841623  0.1628483290760394
  0.4000561491604306  0.8678075750767323  0.6453867129858091
  0.4791357402045255  0.0428387292727716  0.6085968650052545
  0.0920554988918400  0.1176472030034270  0.2690864505703776
  0.8719739373682807  0.4677929537294574  0.0488704699078874
  0.2557446386506171  0.8024909421923320  0.3019801840095603
  0.6247887690083048  0.3645698094131268  0.4087461415460960
  0.7849791465861161  0.0006787876862401  0.4717031959682357
  0.8699782166594228  0.9175623139048376  0.5113359170880575
  0.8398208496675588  0.8649244590004471  0.7630195343657885
  0.9465661014479119  0.0370235253750237  0.2030378013166389
  0.9073803380077112  0.1628015698537948  0.2298692942556470
  0.2665894020329877  0.0981032478003920  0.3189498878848528
  0.6009488176506588  0.6648265076868924  0.4671736190244450
  0.9509157918921166  0.7650961030391618  0.7425041693027052
  0.1514429639063180  0.8479062117001223  0.3793811353296169
  0.6308300482824410  0.6691856401087661  0.6520944906079813
  0.3059384729923665  0.1926079458380276  0.8000471947082740
  0.6414808186320270  0.1696330003740426  0.2895265408124421
  0.7842093691740776  0.3137333548764207  0.9261023055318790
  0.8060791245353676  0.3483169632501498  0.6221340921351590
  0.0136937501337655  0.3882049061735400  0.2813380331981548
  0.5593541980857144  0.1770020726077880  0.6875679238058067
  0.5695559789302030  0.1261105507850330  0.8231144046065598
  0.4385631616363613  0.5474580952564182  0.2774891339523383
  0.1424581478642948  0.4577142355611283  0.4100455843300436
  0.8611716222555685  0.7278563863615654  0.9117928176446749
  0.4080423590390382  0.5307292525897737  0.0099053321336136
  0.1562273283462879  0.5858930399526989  0.7533823498361000
  0.1036492892257466  0.8125298928093518  0.8451266130061369
  0.0805465486180888  0.6811806567292922  0.1059985975331404
  0.3170666598874474  0.5128664377452877  0.0863261613638633
  0.0690065915656556  0.5967127014754553  0.0143548638937588
  0.5729653921189605  0.7796329343827114  0.3752032549880144
  0.6335889137395692  0.7685549981318816  0.0091707939133179
  0.3809857340921441  0.7194903660550092  0.9061779979822605
  0.6580331026518057  0.3203609371188159  0.0717088254878665
  0.5516760284861969  0.4925165997733743  0.9619446485893135
  0.0028924499996807  0.9210584720619635  0.2024008891110963
  0.5314233298486576  0.3594778417083052  0.0019423548932074
  0.6383542393002272  0.6396466964199904  0.1360789272267544
  0.7754081198471443  0.9625255723443171  0.8118293110076970
  0.1244380406164223  0.7507376258427537  0.7201993456360113
  0.6229329799554090  0.8202113409497996  0.2012069283875992
  0.7138812310842235  0.6064919555732285  0.5804543351960526
  0.5264579561140362  0.4142725364429052  0.6623726239428301
  0.9854890750049310  0.9249370286981872  0.3427746102460186
  0.9791356449203631  0.9524562791189543  0.0807243049063735
  0.9102965140299306  0.6681518199808381  0.8133640883181174
  0.4955249469436412  0.9248504051510413  0.5725999052212056
  0.3145764328717777  0.6282456121913182  0.1423542380949354
  0.3072182730199298  0.2978495194650221  0.7365239154573308
  0.9918167659456194  0.2479480124964158  0.8868364540567598
  0.6975470301190397  0.5265414712494285  0.1248476565454244
  0.5354853946396771  0.7996617926069431  0.0759874294339274
  0.4987407847880209  0.6784373045344009  0.0809610633253005
  0.7408563694378660  0.1692674821716270  0.1338692400830601
  0.9447449133569307  0.7857614679816201  0.1042207114454769
  0.7799318762094966  0.1657028662206650  0.2541250753959444
  0.1089886984700012  0.7885634504128776  0.2020982452338348
  0.9914229994592401  0.7945422211733855  0.4375500749495872
  0.9334569669810405  0.3524292565395150  0.0326439882224243
  0.3673694682076184  0.7444428263239670  0.5450396728993643
  0.6214320302896507  0.9795044816599757  0.3484800310012962
  0.7725325643280507  0.7509379543113974  0.7983279530540871
  0.3018386820405735  0.4495115919592187  0.8866412761888395
  0.8718185825216909  0.5525676993852071  0.2138494097941145
  0.5314504243515293  0.7467252690609030  0.7089425231644886
  0.4607054073938188  0.9346095716550910  0.9817667937939331
  0.7609261878320510  0.1774709235903497  0.9244283830986236
  0.6019745897990165  0.9756530487544272  0.9821315263173354
  0.4602886093858604  0.1875169475705375  0.5208609163544133
  0.7985902967833942  0.5739557744669345  0.7499044335696252
  0.7854197893528225  0.4494464368512461  0.4335018687650237
  0.6611955472816292  0.3388082517847424  0.9459502732650645
  0.6680535202619805  0.2020082966953053  0.8134524325895837
  0.5933508562039839  0.0928621975491165  0.0119274251792611
  0.3900704678170266  0.4964975287184427  0.7125849498382086
  0.3397673484649880  0.5720898653485496  0.8833408860357554
  0.5456793966756424  0.8659988490620620  0.2892691428343354
  0.7948753658148706  0.5795824737183941  0.0704571327935941
  0.1568561943462293  0.4495707629023262  0.2070998553685686
  0.2283050510459218  0.4967196607988937  0.6013844210541134
  0.1773255609383670  0.4733676528903092  0.8947337520722104
  0.6190770558136088  0.8611714453089103  0.6401090909013826
  0.0843601276150292  0.9996587574404151  0.0375321420061966
  0.3316429208655905  0.0163991863015521  0.0696496293107914
  0.0041486359881196  0.9060106797198040  0.6933389866770857
  0.5098092993240907  0.0948058607881860  0.3644759617753717
  0.3294353327604145  0.3044702806917954  0.3960621952127933
  0.3481447165536412  0.7272980534588152  0.2349668063566306
  0.3038186689910287  0.9465401379675679  0.3210791562278067
  0.8844022929046180  0.1137937668918664  0.4691278380899221
  0.4835685741702289  0.9367948966966199  0.1371392309947545
  0.0031263387411733  0.3760306978834373  0.1511528388719730
  0.7105987635627858  0.2825016572306573  0.5759650505826377
  0.5439528006421898  0.7252525103591644  0.8299812112363947
  0.6995121942077559  0.4242477773376548  0.7803134065704868
  0.5543307322938982  0.4612708527944773  0.8331867230240261
  0.2752756631389264  0.3097228053399820  0.2849464699179781
  0.4246613300358150  0.4248035420581364  0.8338590375693070
  0.3681790378767329  0.1513171986234517  0.2742043696172756
  0.6369421733906603  0.4147325922619230  0.6105658417264753
  0.2851424375521743  0.5317429015808001  0.4111525988387378
  0.4651823111006032  0.7924389151901160  0.4860855740449223
  0.5119579902492948  0.3079699667985750  0.7226509683107992
  0.7524413122964784  0.3994233675780905  0.0927711914020540
  0.5124224989521797  0.5292308135420078  0.0843403789467234
  0.7539235537372864  0.5994624431275491  0.9415703160918640
  0.1445118033654482  0.0346875709736309  0.3651234409656758
  0.0460719203302285  0.2106723933288109  0.6620659023600440
  0.8594635657986026  0.1932514899928601  0.7387071495953689
  0.8998634709874210  0.5311690181411399  0.5977190125283194
  0.4684135030301268  0.7178926847629001  0.3550942658850497
  0.6375798526523301  0.0043969467369974  0.2278000844322117
  0.0724082382866046  0.7324304750375886  0.3690568881243216
  0.4903793943594877  0.6861940425383679  0.2351138175475290
  0.3861547320462544  0.6234411477602457  0.7459587572908049
  0.5816093309645844  0.2515349324053763  0.3586494188971983
  0.7972728592387490  0.9696238327446840  0.3438026898899448
  0.2764452153327632  0.4405936647857584  0.2593856658011786
  0.1971712863797077  0.7590603006967673  0.4735357775390007
  0.7535602716249835  0.9506202466681413  0.2122241388671513
  0.2315089720037613  0.6633057407300808  0.5539825527126498
  0.2245724656222298  0.6190759863779759  0.8954237649363455
  0.9552396659989517  0.4271852075540863  0.5586437289768417
  0.4340558709106851  0.3374942251103933  0.9242087942059067
  0.2487073629817515  0.2246894376272898  0.5522936156475823
  0.1216607173858350  0.3171008424073596  0.7779232975453830
  0.7580535357134436  0.0376564969987857  0.6993307872473568
  0.4239057125667977  0.1829366446375333  0.3795704128283982
  0.5168633522652614  0.4192750616519629  0.1487957384520431
  0.0926750355927793  0.2461268085986622  0.3684390652323541
  0.1808296638968718  0.7093117802742078  0.2682517267079854
  0.1296780537799225  0.3925023721981222  0.5625437512772691
  0.7768791704873564  0.6160168311497362  0.2956174223476161
  0.8002991816195325  0.3048937702658871  0.3015724065311129
  0.0069989724367326  0.3228273544762471  0.4166926411151586
  0.9221917521548954  0.6518164790940720  0.9956916500693495
  0.2941514682726051  0.9275343171082460  0.6009256012750064
  0.3464798206020403  0.1219087880442255  0.1335443343814850
  0.1221578740793160  0.8749396518983759  0.6808100131658372
  0.0262004820210751  0.5364963480968327  0.8763374951137399
  0.1383728998899837  0.0413972714530576  0.1824867787812857
  0.4687955029177529  0.3875724821448032  0.5049310746683453
  0.7152135601181276  0.7431290379575146  0.5161113774196332
  0.6146864554618900  0.2298520704812969  0.1757221973597297
  0.5482812770323084  0.5862328172761068  0.8166557236917850
  0.1051326211287991  0.7055957261724495  0.9170955158735582
  0.9797553487507986  0.7224521738804743  0.5416228984370302
  0.3932821173755316  0.2895368875722016  0.5266056180992219
  0.9511998687237019  0.9944238218686364  0.5607556488151618
  0.4296523249836462  0.1075219961750365  0.8997606749692119
  0.9282607523726578  0.2450328384550559  0.6472549862376079
  0.2367720451813562  0.3222771324672881  0.4787093707045014
  0.8532555809743444  0.7248933641284997  0.5267427433294005
  0.8128328048838471  0.7366058929538853  0.2147258184501633
  0.0989269174413290  0.5691799032555013  0.6436570851551646
  0.9033101882531986  0.5555213474776124  0.4642851279156275
  0.0222242315980967  0.5927132059896828  0.4791938428365072
  0.3898842867251686  0.5474997750063754  0.5744594884084369
  0.6127030688976627  0.6554031702861309  0.2543702421521963
  0.9998606902424998  0.7080862904113108  0.2660683685471549
  0.3465269822673052  0.8862649765520573  0.9945002181862852
  0.5521587571768400  0.7316894863276884  0.5617182728785761
  0.2146917843743363  0.8913896760489363  0.8548479970382321
  0.0432831170950407  0.0988593486759638  0.8920482163397379
  0.6166021312180692  0.5535401518262530  0.3748363871315190
  0.8799692450739527  0.1541721853937635  0.9600351764700998
  0.4966164899498298  0.2194712693449030  0.8710894464708776
  0.4699094434128081  0.0992214152153493  0.0186324928068017
  0.9115056177259862  0.5627481938694622  0.9106076048943746
  0.3405676230249268  0.0382132047205543  0.5766277084154195
  0.7628993425923127  0.1110184284446462  0.8148124463227431
  0.2468306923814720  0.5677281768960016  0.2367042299224454
  0.6895535008938170  0.0798494760983449  0.3907700963567750
  0.1332061755926837  0.1600394581371763  0.8263537885156459
  0.9017800382114604  0.3311444502001326  0.2150860591585994
  0.0123893429366149  0.2034138795924699  0.0640371468433765
  0.3795801305538428  0.4596613016799035  0.3435158104314407
  0.1673661832099069  0.9854219051620923  0.6091900338903626
  0.8565969375512301  0.0971568284717566  0.6582386226475968
  0.5402775432895899  0.4841599403325488  0.2516726421134498
  0.7763159251804618  0.8731673619065944  0.0882862762295722
  0.1191524911910244  0.7004905005743342  0.6040109646836288
  0.8222256930104710  0.6510928610531619  0.6356897969388473
  0.6923889240917970  0.8063893656828791  0.8773372076980273
  0.6835814525734852  0.9318819922718908  0.5563101974878710
  0.9061421786453799  0.6703146484662523  0.1598759352511877
  0.1280105178385530  0.1003697761186949  0.7192789009414917
  0.4114924339848892  0.9149647875663396  0.3759249633807257
  0.9248185635525060  0.3796742373300523  0.7021551241563315
  0.2217129598709385  0.9466864983365763  0.4219790441257394
  0.5835440546703663  0.9640906988457575  0.4858837127156119
  0.8632877977102632  0.8303839681606485  0.0125551462907600
  0.2751255782568685  0.7424868171254285  0.7428397864541660
  0.7186445474795409  0.7621870961392111  0.1013713177330539
  0.2037288763864913  0.8632335981458924  0.1698273147518868
  0.1361452328873223  0.8664514590952808  0.0473532905138050
  0.7303061515579504  0.8526249242436897  0.4603429646035674
  0.2693694891436019  0.3126007276877749  0.9177587989842217
  0.9253967178896289  0.5032920774370863  0.7225168833046990
  0.3243842530513292  0.4444373660115739  0.5445899242449050
  0.5171989914525101  0.2936067960862745  0.2182604407002966
  0.3131910406163231  0.1221362548868851  0.6972282695183634
  0.0634454183411906  0.2593832256327315  0.1598087799103430
  0.2054154124822883  0.1653627638738646  0.1255380530732445
  0.5199485505445772  0.5181702299935255  0.5289698868697010
  0.8547007440244045  0.4107667857047194  0.3399827066504887
  0.5843216330686583  0.3091462937729411  0.8251368785013123
  0.0509165604040735  0.1184822590343789  0.5752696363083396
  0.0645104867217326  0.4439029019518587  0.6564980094149898
  0.5332399481174701  0.6164829279894640  0.9341247643735253
  0.4503430440693910  0.6656267269587079  0.6460013016404726
  0.3083925743598723  0.1261725754179505  0.9679937989935139
  0.3911846026471579  0.7516454195387431  0.7821479938740692
  0.7098841061229161  0.5001317491531122  0.6822951302899918
 
  0.00000000E+00  0.00000000E+00  0.00000000E+00
  0.00000000E+00  0.00000000E+00  0.00000000E+00
  0.00000000E+00  0.00000000E+00  0.00000000E+00
  0.00000000E+00  0.00000000E+00  0.00000000E+00
  0.00000000E+00  0.00000000E+00  0.00000000E+00
  0.00000000E+00  0.00000000E+00  0.00000000E+00
  0.00000000E+00  0.00000000E+00  0.00000000E+00
  0.00000000E+00  0.00000000E+00  0.00000000E+00
  0.00000000E+00  0.00000000E+00  0.00000000E+00
  0.00000000E+00  0.00000000E+00  0.00000000E+00
  0.00000000E+00  0.00000000E+00  0.00000000E+00
  0.00000000E+00  0.00000000E+00  0.00000000E+00
  0.00000000E+00  0.00000000E+00  0.00000000E+00
  0.00000000E+00  0.00000000E+00  0.00000000E+00
  0.00000000E+00  0.00000000E+00  0.00000000E+00
  0.00000000E+00  0.00000000E+00  0.00000000E+00
  0.00000000E+00  0.00000000E+00  0.00000000E+00
  0.00000000E+00  0.00000000E+00  0.00000000E+00
  0.00000000E+00  0.00000000E+00  0.00000000E+00
  0.00000000E+00  0.00000000E+00  0.00000000E+00
  0.00000000E+00  0.00000000E+00  0.00000000E+00
  0.00000000E+00  0.00000000E+00  0.00000000E+00
  0.00000000E+00  0.00000000E+00  0.00000000E+00
  0.00000000E+00  0.00000000E+00  0.00000000E+00
  0.00000000E+00  0.00000000E+00  0.00000000E+00
  0.00000000E+00  0.00000000E+00  0.00000000E+00
  0.00000000E+00  0.00000000E+00  0.00000000E+00
  0.00000000E+00  0.00000000E+00  0.00000000E+00
  0.00000000E+00  0.00000000E+00  0.00000000E+00
  0.00000000E+00  0.00000000E+00  0.00000000E+00
  0.00000000E+00  0.00000000E+00  0.00000000E+00
  0.00000000E+00  0.00000000E+00  0.00000000E+00
  0.00000000E+00  0.00000000E+00  0.00000000E+00
  0.00000000E+00  0.00000000E+00  0.00000000E+00
  0.00000000E+00  0.00000000E+00  0.00000000E+00
  0.00000000E+00  0.00000000E+00  0.00000000E+00
  0.00000000E+00  0.00000000E+00  0.00000000E+00
  0.00000000E+00  0.00000000E+00  0.00000000E+00
  0.00000000E+00  0.00000000E+00  0.00000000E+00
  0.00000000E+00  0.00000000E+00  0.00000000E+00
  0.00000000E+00  0.00000000E+00  0.00000000E+00
  0.00000000E+00  0.00000000E+00  0.00000000E+00
  0.00000000E+00  0.00000000E+00  0.00000000E+00
  0.00000000E+00  0.00000000E+00  0.00000000E+00
  0.00000000E+00  0.00000000E+00  0.00000000E+00
  0.00000000E+00  0.00000000E+00  0.00000000E+00
  0.00000000E+00  0.00000000E+00  0.00000000E+00
  0.00000000E+00  0.00000000E+00  0.00000000E+00
  0.00000000E+00  0.00000000E+00  0.00000000E+00
  0.00000000E+00  0.00000000E+00  0.00000000E+00
  0.00000000E+00  0.00000000E+00  0.00000000E+00
  0.00000000E+00  0.00000000E+00  0.00000000E+00
  0.00000000E+00  0.00000000E+00  0.00000000E+00
  0.00000000E+00  0.00000000E+00  0.00000000E+00
  0.00000000E+00  0.00000000E+00  0.00000000E+00
  0.00000000E+00  0.00000000E+00  0.00000000E+00
  0.00000000E+00  0.00000000E+00  0.00000000E+00
  0.00000000E+00  0.00000000E+00  0.00000000E+00
  0.00000000E+00  0.00000000E+00  0.00000000E+00
  0.00000000E+00  0.00000000E+00  0.00000000E+00
  0.00000000E+00  0.00000000E+00  0.00000000E+00
  0.00000000E+00  0.00000000E+00  0.00000000E+00
  0.00000000E+00  0.00000000E+00  0.00000000E+00
  0.00000000E+00  0.00000000E+00  0.00000000E+00
  0.00000000E+00  0.00000000E+00  0.00000000E+00
  0.00000000E+00  0.00000000E+00  0.00000000E+00
  0.00000000E+00  0.00000000E+00  0.00000000E+00
  0.00000000E+00  0.00000000E+00  0.00000000E+00
  0.00000000E+00  0.00000000E+00  0.00000000E+00
  0.00000000E+00  0.00000000E+00  0.00000000E+00
  0.00000000E+00  0.00000000E+00  0.00000000E+00
  0.00000000E+00  0.00000000E+00  0.00000000E+00
  0.00000000E+00  0.00000000E+00  0.00000000E+00
  0.00000000E+00  0.00000000E+00  0.00000000E+00
  0.00000000E+00  0.00000000E+00  0.00000000E+00
  0.00000000E+00  0.00000000E+00  0.00000000E+00
  0.00000000E+00  0.00000000E+00  0.00000000E+00
  0.00000000E+00  0.00000000E+00  0.00000000E+00
  0.00000000E+00  0.00000000E+00  0.00000000E+00
  0.00000000E+00  0.00000000E+00  0.00000000E+00
  0.00000000E+00  0.00000000E+00  0.00000000E+00
  0.00000000E+00  0.00000000E+00  0.00000000E+00
  0.00000000E+00  0.00000000E+00  0.00000000E+00
  0.00000000E+00  0.00000000E+00  0.00000000E+00
  0.00000000E+00  0.00000000E+00  0.00000000E+00
  0.00000000E+00  0.00000000E+00  0.00000000E+00
  0.00000000E+00  0.00000000E+00  0.00000000E+00
  0.00000000E+00  0.00000000E+00  0.00000000E+00
  0.00000000E+00  0.00000000E+00  0.00000000E+00
  0.00000000E+00  0.00000000E+00  0.00000000E+00
  0.00000000E+00  0.00000000E+00  0.00000000E+00
  0.00000000E+00  0.00000000E+00  0.00000000E+00
  0.00000000E+00  0.00000000E+00  0.00000000E+00
  0.00000000E+00  0.00000000E+00  0.00000000E+00
  0.00000000E+00  0.00000000E+00  0.00000000E+00
  0.00000000E+00  0.00000000E+00  0.00000000E+00
  0.00000000E+00  0.00000000E+00  0.00000000E+00
  0.00000000E+00  0.00000000E+00  0.00000000E+00
  0.00000000E+00  0.00000000E+00  0.00000000E+00
  0.00000000E+00  0.00000000E+00  0.00000000E+00
  0.00000000E+00  0.00000000E+00  0.00000000E+00
  0.00000000E+00  0.00000000E+00  0.00000000E+00
  0.00000000E+00  0.00000000E+00  0.00000000E+00
  0.00000000E+00  0.00000000E+00  0.00000000E+00
  0.00000000E+00  0.00000000E+00  0.00000000E+00
  0.00000000E+00  0.00000000E+00  0.00000000E+00
  0.00000000E+00  0.00000000E+00  0.00000000E+00
  0.00000000E+00  0.00000000E+00  0.00000000E+00
  0.00000000E+00  0.00000000E+00  0.00000000E+00
  0.00000000E+00  0.00000000E+00  0.00000000E+00
  0.00000000E+00  0.00000000E+00  0.00000000E+00
  0.00000000E+00  0.00000000E+00  0.00000000E+00
  0.00000000E+00  0.00000000E+00  0.00000000E+00
  0.00000000E+00  0.00000000E+00  0.00000000E+00
  0.00000000E+00  0.00000000E+00  0.00000000E+00
  0.00000000E+00  0.00000000E+00  0.00000000E+00
  0.00000000E+00  0.00000000E+00  0.00000000E+00
  0.00000000E+00  0.00000000E+00  0.00000000E+00
  0.00000000E+00  0.00000000E+00  0.00000000E+00
  0.00000000E+00  0.00000000E+00  0.00000000E+00
  0.00000000E+00  0.00000000E+00  0.00000000E+00
  0.00000000E+00  0.00000000E+00  0.00000000E+00
  0.00000000E+00  0.00000000E+00  0.00000000E+00
  0.00000000E+00  0.00000000E+00  0.00000000E+00
  0.00000000E+00  0.00000000E+00  0.00000000E+00
  0.00000000E+00  0.00000000E+00  0.00000000E+00
  0.00000000E+00  0.00000000E+00  0.00000000E+00
  0.00000000E+00  0.00000000E+00  0.00000000E+00
  0.00000000E+00  0.00000000E+00  0.00000000E+00
  0.00000000E+00  0.00000000E+00  0.00000000E+00
  0.00000000E+00  0.00000000E+00  0.00000000E+00
  0.00000000E+00  0.00000000E+00  0.00000000E+00
  0.00000000E+00  0.00000000E+00  0.00000000E+00
  0.00000000E+00  0.00000000E+00  0.00000000E+00
  0.00000000E+00  0.00000000E+00  0.00000000E+00
  0.00000000E+00  0.00000000E+00  0.00000000E+00
  0.00000000E+00  0.00000000E+00  0.00000000E+00
  0.00000000E+00  0.00000000E+00  0.00000000E+00
  0.00000000E+00  0.00000000E+00  0.00000000E+00
  0.00000000E+00  0.00000000E+00  0.00000000E+00
  0.00000000E+00  0.00000000E+00  0.00000000E+00
  0.00000000E+00  0.00000000E+00  0.00000000E+00
  0.00000000E+00  0.00000000E+00  0.00000000E+00
  0.00000000E+00  0.00000000E+00  0.00000000E+00
  0.00000000E+00  0.00000000E+00  0.00000000E+00
  0.00000000E+00  0.00000000E+00  0.00000000E+00
  0.00000000E+00  0.00000000E+00  0.00000000E+00
  0.00000000E+00  0.00000000E+00  0.00000000E+00
  0.00000000E+00  0.00000000E+00  0.00000000E+00
  0.00000000E+00  0.00000000E+00  0.00000000E+00
  0.00000000E+00  0.00000000E+00  0.00000000E+00
  0.00000000E+00  0.00000000E+00  0.00000000E+00
  0.00000000E+00  0.00000000E+00  0.00000000E+00
  0.00000000E+00  0.00000000E+00  0.00000000E+00
  0.00000000E+00  0.00000000E+00  0.00000000E+00
  0.00000000E+00  0.00000000E+00  0.00000000E+00
  0.00000000E+00  0.00000000E+00  0.00000000E+00
  0.00000000E+00  0.00000000E+00  0.00000000E+00
  0.00000000E+00  0.00000000E+00  0.00000000E+00
  0.00000000E+00  0.00000000E+00  0.00000000E+00
  0.00000000E+00  0.00000000E+00  0.00000000E+00
  0.00000000E+00  0.00000000E+00  0.00000000E+00
  0.00000000E+00  0.00000000E+00  0.00000000E+00
  0.00000000E+00  0.00000000E+00  0.00000000E+00
  0.00000000E+00  0.00000000E+00  0.00000000E+00
  0.00000000E+00  0.00000000E+00  0.00000000E+00
  0.00000000E+00  0.00000000E+00  0.00000000E+00
  0.00000000E+00  0.00000000E+00  0.00000000E+00
  0.00000000E+00  0.00000000E+00  0.00000000E+00
  0.00000000E+00  0.00000000E+00  0.00000000E+00
  0.00000000E+00  0.00000000E+00  0.00000000E+00
  0.00000000E+00  0.00000000E+00  0.00000000E+00
  0.00000000E+00  0.00000000E+00  0.00000000E+00
  0.00000000E+00  0.00000000E+00  0.00000000E+00
  0.00000000E+00  0.00000000E+00  0.00000000E+00
  0.00000000E+00  0.00000000E+00  0.00000000E+00
  0.00000000E+00  0.00000000E+00  0.00000000E+00
  0.00000000E+00  0.00000000E+00  0.00000000E+00
  0.00000000E+00  0.00000000E+00  0.00000000E+00
  0.00000000E+00  0.00000000E+00  0.00000000E+00
  0.00000000E+00  0.00000000E+00  0.00000000E+00
  0.00000000E+00  0.00000000E+00  0.00000000E+00
  0.00000000E+00  0.00000000E+00  0.00000000E+00
  0.00000000E+00  0.00000000E+00  0.00000000E+00
  0.00000000E+00  0.00000000E+00  0.00000000E+00
  0.00000000E+00  0.00000000E+00  0.00000000E+00
  0.00000000E+00  0.00000000E+00  0.00000000E+00
  0.00000000E+00  0.00000000E+00  0.00000000E+00
  0.00000000E+00  0.00000000E+00  0.00000000E+00
  0.00000000E+00  0.00000000E+00  0.00000000E+00
  0.00000000E+00  0.00000000E+00  0.00000000E+00
  0.00000000E+00  0.00000000E+00  0.00000000E+00
  0.00000000E+00  0.00000000E+00  0.00000000E+00
  0.00000000E+00  0.00000000E+00  0.00000000E+00
  0.00000000E+00  0.00000000E+00  0.00000000E+00
  0.00000000E+00  0.00000000E+00  0.00000000E+00
  0.00000000E+00  0.00000000E+00  0.00000000E+00
  0.00000000E+00  0.00000000E+00  0.00000000E+00
  0.00000000E+00  0.00000000E+00  0.00000000E+00
  0.00000000E+00  0.00000000E+00  0.00000000E+00
  0.00000000E+00  0.00000000E+00  0.00000000E+00
  0.00000000E+00  0.00000000E+00  0.00000000E+00
  0.00000000E+00  0.00000000E+00  0.00000000E+00
  0.00000000E+00  0.00000000E+00  0.00000000E+00
  0.00000000E+00  0.00000000E+00  0.00000000E+00
  0.00000000E+00  0.00000000E+00  0.00000000E+00
  0.00000000E+00  0.00000000E+00  0.00000000E+00
  0.00000000E+00  0.00000000E+00  0.00000000E+00
  0.00000000E+00  0.00000000E+00  0.00000000E+00
  0.00000000E+00  0.00000000E+00  0.00000000E+00
  0.00000000E+00  0.00000000E+00  0.00000000E+00
  0.00000000E+00  0.00000000E+00  0.00000000E+00
  0.00000000E+00  0.00000000E+00  0.00000000E+00
  0.00000000E+00  0.00000000E+00  0.00000000E+00
  0.00000000E+00  0.00000000E+00  0.00000000E+00
  0.00000000E+00  0.00000000E+00  0.00000000E+00
  0.00000000E+00  0.00000000E+00  0.00000000E+00
  0.00000000E+00  0.00000000E+00  0.00000000E+00
  0.00000000E+00  0.00000000E+00  0.00000000E+00
  0.00000000E+00  0.00000000E+00  0.00000000E+00
  0.00000000E+00  0.00000000E+00  0.00000000E+00
  0.00000000E+00  0.00000000E+00  0.00000000E+00
  0.00000000E+00  0.00000000E+00  0.00000000E+00
  0.00000000E+00  0.00000000E+00  0.00000000E+00
  0.00000000E+00  0.00000000E+00  0.00000000E+00
  0.00000000E+00  0.00000000E+00  0.00000000E+00
  0.00000000E+00  0.00000000E+00  0.00000000E+00
  0.00000000E+00  0.00000000E+00  0.00000000E+00
  0.00000000E+00  0.00000000E+00  0.00000000E+00
  0.00000000E+00  0.00000000E+00  0.00000000E+00
  0.00000000E+00  0.00000000E+00  0.00000000E+00
  0.00000000E+00  0.00000000E+00  0.00000000E+00