Amorphous Sb                            
   1.00000000000000     
    20.2174470278815122    0.0000000000000000    0.0000000000000000
     0.0000000000000000   20.2174470278815122    0.0000000000000000
     0.0000000000000000    0.0000000000000000   20.2174470278815122
   Ge   Si   Se
   135    30   135
Direct
  0.4892842377446386  0.9294908111834724  0.5331407393714550
  0.1638433779423600  0.9030701070851888  0.5392325990263893
  0.6268251365704050  0.3633431150820436  0.9740510594636788
  0.6118587425707170  0.6252495690795391  0.0386000887004297
  0.6373320660282348  0.7697161229917474  0.7229953785719826
  0.7689692364310662  0.9236336500292559  0.8623135569552253
  0.7787207015375323  0.8786539624912169  0.2300811060513494
  0.2825036330759631  0.6308527002815787  0.5065983421877188
  0.3507076822182570  0.7056967627196713  0.0692203485371677
  0.0222740213714751  0.0416285136835955  0.5915555506251261
  0.1906867922193616  0.7255658108029382  0.0110149994486938
  0.9950486835599844  0.9162120388966384  0.4258172132937923
  0.0611681665579602  0.2959442029740292  0.2624932463106552
  0.8863891642956027  0.7590973953784889  0.4874318380666129
  0.7210108041768062  0.8398736088466120  0.3615035939510672
  0.4025468037022316  0.9963724687941716  0.8246913130163044
  0.6986755908910460  0.3029539513380419  0.4982887527122603
  0.5178534795031088  0.8689368122136913  0.7601862591817566
  0.4100825747795577  0.8337820393902274  0.4465931985866447
  0.4979551353054027  0.0942588465368853  0.2779045571122803
  0.3606848638515135  0.5622382967093867  0.7377068393455567
  0.6949708661601186  0.2983159041370915  0.6320474620134908
  0.0387960217745508  0.9718228187676949  0.9748456087979029
  0.3633735561965861  0.4049882505667157  0.6247327981051015
  0.1230746846210234  0.7148849934447197  0.7044789611456520
  0.1512428152723516  0.4333818518016352  0.1594700891392625
  0.5629286647495286  0.9116251254391586  0.4267219155921337
  0.7310306289081490  0.9635350189579998  0.0467871020902998
  0.2411505231973091  0.4514850319553059  0.9444481665750272
  0.0701605954512208  0.0528038004980078  0.3229782842890541
  0.8649628064878354  0.3009589329131779  0.2479929155992800
  0.5052320989300930  0.4046211882202915  0.9507798958651478
  0.2627343679628239  0.1409984886387496  0.3913787759839409
  0.4038326627158230  0.2832076271033656  0.0599994475060952
  0.0463450174895466  0.9891591595773275  0.7629364340497587
  0.8070026806393624  0.7156511893703550  0.7313700930450336
  0.2339469193206720  0.8345039444893042  0.1539641989201359
  0.8921170422530516  0.9936491374470060  0.2181138119853455
  0.4705654616136365  0.1104846031747310  0.6879110548859244
  0.0173120732147659  0.6358160862685588  0.4816748648488445
  0.3388733750643529  0.9748936536462904  0.1149981073171906
  0.2085819792823440  0.3323531082419039  0.9056784595058152
  0.7077998026953335  0.1717213660144170  0.5773931761086188
  0.6335765056704449  0.5550630954687392  0.2720006683820460
  0.3446947568342345  0.1628550959618750  0.1874617970568793
  0.9536660889621565  0.3260706006506929  0.5318430924758998
  0.1713149427194171  0.8788109863512209  0.9190782904782860
  0.6673200737433297  0.6565801227671472  0.4880325182560670
  0.7567531264620905  0.5605473471398180  0.6672413987755886
  0.7340414469808207  0.2275852146395035  0.8034304963169502
  0.5683325905651987  0.5882898006859743  0.6617370611727735
  0.5423409301418763  0.4490963520533753  0.0711143794905376
  0.1307561266938454  0.9306774360249914  0.4162989895315296
  0.8087130051225487  0.0320138633224469  0.7290591664466657
  0.9059717695776529  0.2952801884800352  0.3689901936104737
  0.3841516705293341  0.8593993341589008  0.7563136808039539
  0.7151022946210462  0.6111198378596705  0.8713967754419776
  0.8970945529815553  0.0853449759304553  0.3788767687897696
  0.0499902135401869  0.6029219084466201  0.1090727189066343
  0.2801205929749901  0.1322122151327532  0.8462787244881569
  0.9677700194537443  0.4503754528122162  0.4121623929830719
  0.2255997642550616  0.2026510880093365  0.1715461730898541
  0.6927946542951602  0.7187601363604521  0.2004834538079596
  0.8181730291889455  0.6695218032170681  0.1894510252874249
  0.7949671779159694  0.4348235248827831  0.3036845796156909
  0.6656144979693117  0.9698313594908933  0.3181603754348407
  0.1297936283456379  0.1189438374824051  0.9172494771012817
  0.8825789661372866  0.9149458883272609  0.3559584908970790
  0.5380884997187780  0.3975789541743276  0.7340960579341699
  0.8240509570532275  0.3719004693616159  0.0560813642807239
  0.8047868205562863  0.5879295250172751  0.0178673132221882
  0.3806721906498966  0.0244703660558517  0.4262136111454056
  0.4482193215058038  0.0213723210338464  0.1845257118603862
  0.1616911099321498  0.5470133666713479  0.2901190482420775
  0.6132506918905352  0.5492178343829575  0.9235735188161068
  0.8264702173185600  0.1480953507245669  0.6761889674687758
  0.5037828503581689  0.2804947399557224  0.4636803139527220
  0.0859960181117342  0.0694608053722957  0.0731421379782576
  0.2349235143399557  0.0613032062692251  0.0897758503228061
  0.8707866023952013  0.0377316937424045  0.9200137340422245
  0.1089244594975933  0.4046712295646570  0.8461684831356944
  0.3039321906097258  0.2442078958992417  0.9172312153140630
  0.5022105696012247  0.9407891499516500  0.0378156558509199
  0.9788617816024250  0.7174722096611094  0.3226788268032204
  0.1697377837132943  0.2376829848742268  0.2801339372632370
  0.9204384723390139  0.1952742342147274  0.7528820801386532
  0.6087728608113493  0.2165648319290643  0.3227605849536914
  0.8132968511891731  0.4505577601411600  0.1712579703777508
  0.3436061478795351  0.3520582405964600  0.2987403474008408
  0.1687529605980858  0.5685649671546058  0.1336338070918571
  0.5252296726253174  0.2045570483317652  0.2236467138922356
  0.5472864702125360  0.2816070697044940  0.7950109846209750
  0.4035889591013106  0.7644428157599350  0.6754408751820039
  0.0288978515683568  0.1884923725004571  0.1979598771560123
  0.2685894873890083  0.0527183820268034  0.5425008130545921
  0.9300796421268148  0.4209001687922912  0.7683788177058667
  0.6336812274781146  0.2290150970759779  0.7213135197310772
  0.6994033429252579  0.2784021965036231  0.9150283451305339
  0.2537543757466761  0.3821827555042244  0.4484682573710863
  0.6233913107274853  0.4210237979036641  0.4383152739357445
  0.5469555600273419  0.7302754949488562  0.9851282090784621
  0.3836819341794054  0.5797194374639384  0.5846453916180827
  0.4242527991988820  0.2251458805716383  0.5540558747826572
  0.1793834133086642  0.2617311499613493  0.0674162040693096
  0.4693503552386754  0.8071100738605111  0.5752030514668868
  0.1068221539359797  0.7619796217000219  0.1716323930613299
  0.1687048148676704  0.9939926431392648  0.2467389221334080
  0.6884364543827167  0.3704914600653971  0.2806198765406024
  0.9730536769934218  0.5207277419580277  0.2997559432644287
  0.3990240841488304  0.1198965187952339  0.9861853566782923
  0.5774446174843623  0.7396249799365189  0.5912686917398174
  0.1606987474648078  0.9078761380152539  0.0864240211813974
  0.1478843935916780  0.1039048096296678  0.1799393093564089
  0.8195116833171426  0.5711441620694234  0.5374314562745360
  0.7024965762696527  0.2518619248756877  0.2392518962932208
  0.3280370057220538  0.2316250663937819  0.7158788407436840
  0.1822159775592334  0.9872636183131820  0.7305220686224915
  0.0440574329487227  0.7643384640358453  0.9015860684728383
  0.0773052917268853  0.8005221359857932  0.2981944025279018
  0.4082856795323756  0.1376256388364998  0.3606773762502972
  0.5455732570210908  0.7892383950568757  0.2971377112447512
  0.8910599688661676  0.2158837771631496  0.9936123359430082
  0.9885782930284932  0.2284175365953678  0.8618934257096261
  0.5278324908055286  0.5974306450659335  0.2010441675189334
  0.6749955655964943  0.8299119013144540  0.8354873295889728
  0.2869371219669927  0.9177717418683493  0.6816394171482926
  0.7336852410853723  0.7337908003946965  0.8997861894515343
  0.4236253136651634  0.4592783558891777  0.4834132002160899
  0.6338264300752351  0.3674890488788431  0.8295164415415105
  0.6219024367951580  0.0700978833299098  0.8109194631415477
  0.1283900400119858  0.1849052167722332  0.7146749602910593
  0.7648681306576386  0.2884590099284687  0.1337891088620655
  0.7462456667550215  0.5468179441690250  0.3324377054324126
  0.7809570559119698  0.3089286580134984  0.7213066497100417
  0.5554463686794603  0.4625243519970819  0.8456540747051038
  0.2575932753486532  0.0316042679689469  0.9214826957147926
  0.4293825937302410  0.1147360874611282  0.1092175677062363
  0.8512322181131683  0.9518817348154901  0.0685833779674364
  0.9853692850856308  0.5061602733654937  0.0813875261240627
  0.6297665582743498  0.0280341675808039  0.0820176211689889
  0.1604120585680654  0.5309551171222718  0.0123121325050714
  0.2450337141627774  0.3821787945916267  0.7991322755072806
  0.8910782912401601  0.1961551574170775  0.4425704439119278
  0.8978203338821658  0.6348162304910061  0.8603686345685106
  0.1695706943094189  0.9964625408132823  0.0002646661486969
  0.4554975751356754  0.5230747134485266  0.3781259393145413
  0.6892152849787799  0.8477284324156069  0.0448336630424059
  0.0966007174659530  0.8522657316854090  0.6259244899211389
  0.6505518288861968  0.4044967688479384  0.6815004336217036
  0.0142442447238134  0.5004915848709390  0.7103151957261004
  0.1802158567752699  0.5493112623728399  0.4131868778420273
  0.9490204719589834  0.6176671048966502  0.9644776137540154
  0.4075446340308555  0.6296477548307696  0.3557318177646224
  0.3051202803727804  0.2352309632999281  0.5887589016512356
  0.4024554344186046  0.7386174889122165  0.9159717547230940
  0.8108547238277188  0.9935888205989232  0.6150227217043055
  0.3324883811612805  0.5208546437936824  0.2461885503146898
  0.9220948997430238  0.2396172056808061  0.1566865431181612
  0.6032500179650017  0.2004240503812779  0.0604552346109864
  0.4021166107523118  0.0155145528640521  0.5507259042122306
  0.9770728414650083  0.6323465649210943  0.7765918146322601
  0.0631590884899502  0.4536088810887356  0.5586433390192265
  0.3438370060606932  0.4513001226000656  0.0787942011076635
  0.7414795826627703  0.9327419315650270  0.5015441394073423
  0.4963779140441026  0.2110564299219748  0.1059213059513724
  0.7249955270201851  0.5457207362879756  0.4543493088551327
  0.1572097509158243  0.0154382324295664  0.5893842568167206
  0.9914566293001256  0.3548561418788475  0.8564326982888177
  0.6440321931787671  0.4522521153312072  0.2034628391519649
  0.3681077279397900  0.9983527128741395  0.9559767924483421
  0.2868207355261999  0.5186781029403016  0.4483329902812191
  0.5038626056548227  0.7137688630178000  0.8713750599553520
  0.0545619060988772  0.8892612438807804  0.8742166611058294
  0.0939566799893868  0.8070338661141365  0.0504593915784651
  0.6148110958207476  0.2127340511854363  0.4921654733644964
  0.5632435609563488  0.0390042044055895  0.9907345962068710
  0.8451071403967004  0.3959872344212471  0.4109383763788368
  0.2766802871107393  0.1514928833574439  0.0063433167727349
  0.4691913199655471  0.6884987055289485  0.2757456510541829
  0.5603845736536479  0.9634635567370627  0.1502897335965982
  0.4344555151835228  0.4743137158654512  0.2747533206601288
  0.0608525210441920  0.7482204784956147  0.6010695904193936
  0.7615196681726721  0.9871625898481348  0.4032493182321711
  0.5291766655847238  0.9786685075882964  0.8191723177346723
  0.9118368500008830  0.5079900304139171  0.9906618155893663
  0.3774379293157690  0.0073496159173747  0.6645320680001963
  0.5558077213418212  0.6220739067994099  0.5399741938987639
  0.6945291032415846  0.6493082679069451  0.7535660446205598
  0.0037596874094990  0.6924899457509960  0.1704002008237985
  0.8844253177264070  0.9762239366733798  0.8050421998070938
  0.8774248543124801  0.0808352204858860  0.5828707815356186
  0.1056720756910833  0.5192638925023902  0.6394707810574340
  0.7021715366064910  0.9826629870017640  0.7665029537384066
  0.2503393529224930  0.3885530439140809  0.0845263194161750
  0.4324914753742709  0.3920602021451346  0.1206552195832203
  0.8019426166338968  0.2053374842989574  0.2898787276753144
  0.4627486415319277  0.5189195408269959  0.6653546505445952
  0.1352549910834265  0.1543996172991117  0.3660250683452394
  0.6296243249569589  0.1835801865234573  0.9507394931572352
  0.0776956983661420  0.4548152499610120  0.2799975152614977
  0.7738758834041221  0.2023214940502391  0.4696310074572673
  0.3448272369414986  0.3561673573210429  0.7449253777749697
  0.0057737662321793  0.0457787457290911  0.4325375077628250
  0.3334313174385593  0.7976673298794170  0.8503072503948381
  0.2873068503254579  0.9270643034041350  0.2157130340225527
  0.2851125320588887  0.8118006932717176  0.0399539967202753
  0.2480570069129465  0.4942054886884090  0.8255445423132509
  0.7368265653287162  0.0204104734502084  0.9393191863964226
  0.6755468187354833  0.8390478301105125  0.1608739667719349
  0.8493932156242755  0.7398010144188495  0.8543357610392278
  0.4452025810108327  0.3003714799214416  0.9423704323228776
  0.0292558531324409  0.1026996483946984  0.7052458947526850
  0.7685387153684948  0.5673075383670239  0.1375214185433296
  0.4114753042269375  0.2424743518455461  0.2570613054179154
  0.3356048888967352  0.6561525995975351  0.9545372883427062
  0.8204697201829070  0.5523871033089910  0.8484783497734204
  0.9375996331604279  0.3138360971983686  0.0658549261128866
  0.0643962207578340  0.6258110050023468  0.9852147392797135
  0.9083058499936612  0.0423523141911578  0.1016835969807067
  0.0032064743346196  0.8990397004256228  0.2995876673733179
  0.9402334653286027  0.4533908920390572  0.1704239740870300
  0.7005729756372285  0.0057343037367613  0.5793069489307877
  0.0523711727786038  0.5523991534585806  0.8085303122891739
  0.0049926032839764  0.7600685054847575  0.4423582645834663
  0.2552464807381295  0.2789862882967865  0.3582500904454061
  0.0148781777504251  0.7400471690543866  0.7724912983752877
  0.3287228198190935  0.6702265161971592  0.6658289967422296
  0.2470043843618167  0.4491078875472207  0.2713301864371602
  0.8196590835497503  0.6380998948552855  0.3072167779142520
  0.6623026318611548  0.1268335202140743  0.1294406923693838
  0.2942346964824398  0.5096672596126496  0.6424327211304413
  0.1588429608255140  0.8354309189058612  0.7197511868468569
  0.6799199703168677  0.4721853454581998  0.9978095740123585
  0.8885860752728818  0.6359780268419266  0.4587290889923155
  0.9706996904622611  0.2021338870599012  0.5221801112762230
  0.5296285917204840  0.3913454344752852  0.5195434103841629
  0.8283654964563696  0.1837056705518190  0.1092366802396224
  0.8917824970498422  0.6785794279133258  0.0386384879505750
  0.9400484655480098  0.5878988269322016  0.6788796125710804
  0.7450855924255739  0.7515421775524438  0.0208722174163520
  0.1527305951892041  0.3596717266389835  0.7367695548358697
  0.3240421785714330  0.0847568412542202  0.2813543740517613
  0.2020825157818744  0.6841261587501010  0.1572842974072072
  0.5108859404951217  0.7054386956051809  0.6975562950790466
  0.1697938882018244  0.6533906247085143  0.4551169331783019
  0.6067472360463083  0.1145767701736263  0.6898604037650178
  0.0831021308211850  0.9448280585412725  0.1711221712996602
  0.3568888504207599  0.4838801398764330  0.9720375612082470
  0.9567863082363601  0.4863525992910640  0.5315505678504553
  0.2606298011155487  0.3418262523963865  0.5739945705743650
  0.0624781977998080  0.3455399707990803  0.5891731478403167
  0.7540507710989027  0.8274039958180384  0.7322992957909508
  0.7554277895162494  0.9990165788297005  0.2230574492634385
  0.3105174376270204  0.6205518631983057  0.2942487172564781
  0.2271472432808209  0.1055203139731772  0.7325109709472475
  0.1679813214016673  0.7550101092484891  0.8848341215689178
  0.9003389076631236  0.3164794641640919  0.6991416166239682
  0.2435151423511547  0.9483070837256183  0.8386594446712106
  0.6050811347966120  0.0790237072857564  0.3365724184698479
  0.9640399673306190  0.1074027588174263  0.2686621208562952
  0.6762333866451172  0.8421043397753483  0.4842722082618540
  0.7345537291229107  0.4182572147786031  0.7643475937715642
  0.4403670023569799  0.7844510587271614  0.0182079851857542
  0.8390617164305689  0.9015649546711255  0.5531884499298144
  0.6638743004248736  0.4943148374857437  0.6108197085969880
  0.6422353672346693  0.3061830912444965  0.0905255340147917
  0.4499765496660144  0.2380900329566047  0.6760699394716194
  0.5275305838842426  0.7894864060675416  0.4221109186484620
  0.5482694519802576  0.8886495355331586  0.6380641930163047
  0.0133886868022918  0.3360240634448522  0.4140448583334112
  0.1747242022503469  0.8307173663227246  0.3588376361635927
  0.0064423171843349  0.9237756068208897  0.6473727890604059
  0.6571663946576772  0.7304440619689888  0.3188067812308593
  0.5835014409688415  0.6973237333265566  0.1495943268626322
  0.5043687473399675  0.5687438841671768  0.0620470743064685
  0.5711348755015722  0.5344188910191703  0.3823772418420102
  0.8174486862197985  0.3070476932743416  0.9471562511527887
  0.0911314553312690  0.3194888896454521  0.1435520916231072
  0.8309899751667582  0.1668568487022619  0.8414404430164996
  0.1140700025647888  0.4602119856039655  0.4539571972948299
  0.8736237822714318  0.8716780961922135  0.1477784924927633
  0.0417990822551613  0.6125904767736560  0.3543083226564360
  0.5843334940035697  0.3496825001885893  0.3442139532831588
  0.4020436242791599  0.1197937664890161  0.8154623965710203
  0.1104631355885832  0.2162881870171555  0.8361779158865871
  0.0790840736688949  0.4480767989503507  0.0373756508194883
  0.7456745219130385  0.6625521012240289  0.5900010090512379
  0.0225227874359840  0.0627442580731331  0.8894273325645103
  0.4732161003249380  0.1089513165656150  0.5492255351806334
  0.2561228748968137  0.0110129373664939  0.4231844558675558
  0.5937076513858031  0.8495026588440845  0.9808252227116344
  0.8910393358695394  0.9179768211555249  0.9679103828245365
  0.3376550032267695  0.5503062823063627  0.1362907761470462
  0.8418333892660007  0.7968673347551258  0.3718240473647570
  0.0856143084834799  0.1828065795469173  0.0172933789693423
  0.2263314348416728  0.1727541843111860  0.5337351966764726
  0.4353341602391739  0.9301862041504836  0.3693481690787043
  0.3783094099234177  0.3584908489809692  0.4237273122493325
  0.3769508645659883  0.6946476196798156  0.4418644188528839
  0.2804182452998457  0.8774195091283057  0.5650821800967696
 
  0.00000000E+00  0.00000000E+00  0.00000000E+00
  0.00000000E+00  0.00000000E+00  0.00000000E+00
  0.00000000E+00  0.00000000E+00  0.00000000E+00
  0.00000000E+00  0.00000000E+00  0.00000000E+00
  0.00000000E+00  0.00000000E+00  0.00000000E+00
  0.00000000E+00  0.00000000E+00  0.00000000E+00
  0.00000000E+00  0.00000000E+00  0.00000000E+00
  0.00000000E+00  0.00000000E+00  0.00000000E+00
  0.00000000E+00  0.00000000E+00  0.00000000E+00
  0.00000000E+00  0.00000000E+00  0.00000000E+00
  0.00000000E+00  0.00000000E+00  0.00000000E+00
  0.00000000E+00  0.00000000E+00  0.00000000E+00
  0.00000000E+00  0.00000000E+00  0.00000000E+00
  0.00000000E+00  0.00000000E+00  0.00000000E+00
  0.00000000E+00  0.00000000E+00  0.00000000E+00
  0.00000000E+00  0.00000000E+00  0.00000000E+00
  0.00000000E+00  0.00000000E+00  0.00000000E+00
  0.00000000E+00  0.00000000E+00  0.00000000E+00
  0.00000000E+00  0.00000000E+00  0.00000000E+00
  0.00000000E+00  0.00000000E+00  0.00000000E+00
  0.00000000E+00  0.00000000E+00  0.00000000E+00
  0.00000000E+00  0.00000000E+00  0.00000000E+00
  0.00000000E+00  0.00000000E+00  0.00000000E+00
  0.00000000E+00  0.00000000E+00  0.00000000E+00
  0.00000000E+00  0.00000000E+00  0.00000000E+00
  0.00000000E+00  0.00000000E+00  0.00000000E+00
  0.00000000E+00  0.00000000E+00  0.00000000E+00
  0.00000000E+00  0.00000000E+00  0.00000000E+00
  0.00000000E+00  0.00000000E+00  0.00000000E+00
  0.00000000E+00  0.00000000E+00  0.00000000E+00
  0.00000000E+00  0.00000000E+00  0.00000000E+00
  0.00000000E+00  0.00000000E+00  0.00000000E+00
  0.00000000E+00  0.00000000E+00  0.00000000E+00
  0.00000000E+00  0.00000000E+00  0.00000000E+00
  0.00000000E+00  0.00000000E+00  0.00000000E+00
  0.00000000E+00  0.00000000E+00  0.00000000E+00
  0.00000000E+00  0.00000000E+00  0.00000000E+00
  0.00000000E+00  0.00000000E+00  0.00000000E+00
  0.00000000E+00  0.00000000E+00  0.00000000E+00
  0.00000000E+00  0.00000000E+00  0.00000000E+00
  0.00000000E+00  0.00000000E+00  0.00000000E+00
  0.00000000E+00  0.00000000E+00  0.00000000E+00
  0.00000000E+00  0.00000000E+00  0.00000000E+00
  0.00000000E+00  0.00000000E+00  0.00000000E+00
  0.00000000E+00  0.00000000E+00  0.00000000E+00
  0.00000000E+00  0.00000000E+00  0.00000000E+00
  0.00000000E+00  0.00000000E+00  0.00000000E+00
  0.00000000E+00  0.00000000E+00  0.00000000E+00
  0.00000000E+00  0.00000000E+00  0.00000000E+00
  0.00000000E+00  0.00000000E+00  0.00000000E+00
  0.00000000E+00  0.00000000E+00  0.00000000E+00
  0.00000000E+00  0.00000000E+00  0.00000000E+00
  0.00000000E+00  0.00000000E+00  0.00000000E+00
  0.00000000E+00  0.00000000E+00  0.00000000E+00
  0.00000000E+00  0.00000000E+00  0.00000000E+00
  0.00000000E+00  0.00000000E+00  0.00000000E+00
  0.00000000E+00  0.00000000E+00  0.00000000E+00
  0.00000000E+00  0.00000000E+00  0.00000000E+00
  0.00000000E+00  0.00000000E+00  0.00000000E+00
  0.00000000E+00  0.00000000E+00  0.00000000E+00
  0.00000000E+00  0.00000000E+00  0.00000000E+00
  0.00000000E+00  0.00000000E+00  0.00000000E+00
  0.00000000E+00  0.00000000E+00  0.00000000E+00
  0.00000000E+00  0.00000000E+00  0.00000000E+00
  0.00000000E+00  0.00000000E+00  0.00000000E+00
  0.00000000E+00  0.00000000E+00  0.00000000E+00
  0.00000000E+00  0.00000000E+00  0.00000000E+00
  0.00000000E+00  0.00000000E+00  0.00000000E+00
  0.00000000E+00  0.00000000E+00  0.00000000E+00
  0.00000000E+00  0.00000000E+00  0.00000000E+00
  0.00000000E+00  0.00000000E+00  0.00000000E+00
  0.00000000E+00  0.00000000E+00  0.00000000E+00
  0.00000000E+00  0.00000000E+00  0.00000000E+00
  0.00000000E+00  0.00000000E+00  0.00000000E+00
  0.00000000E+00  0.00000000E+00  0.00000000E+00
  0.00000000E+00  0.00000000E+00  0.00000000E+00
  0.00000000E+00  0.00000000E+00  0.00000000E+00
  0.00000000E+00  0.00000000E+00  0.00000000E+00
  0.00000000E+00  0.00000000E+00  0.00000000E+00
  0.00000000E+00  0.00000000E+00  0.00000000E+00
  0.00000000E+00  0.00000000E+00  0.00000000E+00
  0.00000000E+00  0.00000000E+00  0.00000000E+00
  0.00000000E+00  0.00000000E+00  0.00000000E+00
  0.00000000E+00  0.00000000E+00  0.00000000E+00
  0.00000000E+00  0.00000000E+00  0.00000000E+00
  0.00000000E+00  0.00000000E+00  0.00000000E+00
  0.00000000E+00  0.00000000E+00  0.00000000E+00
  0.00000000E+00  0.00000000E+00  0.00000000E+00
  0.00000000E+00  0.00000000E+00  0.00000000E+00
  0.00000000E+00  0.00000000E+00  0.00000000E+00
  0.00000000E+00  0.00000000E+00  0.00000000E+00
  0.00000000E+00  0.00000000E+00  0.00000000E+00
  0.00000000E+00  0.00000000E+00  0.00000000E+00
  0.00000000E+00  0.00000000E+00  0.00000000E+00
  0.00000000E+00  0.00000000E+00  0.00000000E+00
  0.00000000E+00  0.00000000E+00  0.00000000E+00
  0.00000000E+00  0.00000000E+00  0.00000000E+00
  0.00000000E+00  0.00000000E+00  0.00000000E+00
  0.00000000E+00  0.00000000E+00  0.00000000E+00
  0.00000000E+00  0.00000000E+00  0.00000000E+00
  0.00000000E+00  0.00000000E+00  0.00000000E+00
  0.00000000E+00  0.00000000E+00  0.00000000E+00
  0.00000000E+00  0.00000000E+00  0.00000000E+00
  0.00000000E+00  0.00000000E+00  0.00000000E+00
  0.00000000E+00  0.00000000E+00  0.00000000E+00
  0.00000000E+00  0.00000000E+00  0.00000000E+00
  0.00000000E+00  0.00000000E+00  0.00000000E+00
  0.00000000E+00  0.00000000E+00  0.00000000E+00
  0.00000000E+00  0.00000000E+00  0.00000000E+00
  0.00000000E+00  0.00000000E+00  0.00000000E+00
  0.00000000E+00  0.00000000E+00  0.00000000E+00
  0.00000000E+00  0.00000000E+00  0.00000000E+00
  0.00000000E+00  0.00000000E+00  0.00000000E+00
  0.00000000E+00  0.00000000E+00  0.00000000E+00
  0.00000000E+00  0.00000000E+00  0.00000000E+00
  0.00000000E+00  0.00000000E+00  0.00000000E+00
  0.00000000E+00  0.00000000E+00  0.00000000E+00
  0.00000000E+00  0.00000000E+00  0.00000000E+00
  0.00000000E+00  0.00000000E+00  0.00000000E+00
  0.00000000E+00  0.00000000E+00  0.00000000E+00
  0.00000000E+00  0.00000000E+00  0.00000000E+00
  0.00000000E+00  0.00000000E+00  0.00000000E+00
  0.00000000E+00  0.00000000E+00  0.00000000E+00
  0.00000000E+00  0.00000000E+00  0.00000000E+00
  0.00000000E+00  0.00000000E+00  0.00000000E+00
  0.00000000E+00  0.00000000E+00  0.00000000E+00
  0.00000000E+00  0.00000000E+00  0.00000000E+00
  0.00000000E+00  0.00000000E+00  0.00000000E+00
  0.00000000E+00  0.00000000E+00  0.00000000E+00
  0.00000000E+00  0.00000000E+00  0.00000000E+00
  0.00000000E+00  0.00000000E+00  0.00000000E+00
  0.00000000E+00  0.00000000E+00  0.00000000E+00
  0.00000000E+00  0.00000000E+00  0.00000000E+00
  0.00000000E+00  0.00000000E+00  0.00000000E+00
  0.00000000E+00  0.00000000E+00  0.00000000E+00
  0.00000000E+00  0.00000000E+00  0.00000000E+00
  0.00000000E+00  0.00000000E+00  0.00000000E+00
  0.00000000E+00  0.00000000E+00  0.00000000E+00
  0.00000000E+00  0.00000000E+00  0.00000000E+00
  0.00000000E+00  0.00000000E+00  0.00000000E+00
  0.00000000E+00  0.00000000E+00  0.00000000E+00
  0.00000000E+00  0.00000000E+00  0.00000000E+00
  0.00000000E+00  0.00000000E+00  0.00000000E+00
  0.00000000E+00  0.00000000E+00  0.00000000E+00
  0.00000000E+00  0.00000000E+00  0.00000000E+00
  0.00000000E+00  0.00000000E+00  0.00000000E+00
  0.00000000E+00  0.00000000E+00  0.00000000E+00
  0.00000000E+00  0.00000000E+00  0.00000000E+00
  0.00000000E+00  0.00000000E+00  0.00000000E+00
  0.00000000E+00  0.00000000E+00  0.00000000E+00
  0.00000000E+00  0.00000000E+00  0.00000000E+00
  0.00000000E+00  0.00000000E+00  0.00000000E+00
  0.00000000E+00  0.00000000E+00  0.00000000E+00
  0.00000000E+00  0.00000000E+00  0.00000000E+00
  0.00000000E+00  0.00000000E+00  0.00000000E+00
  0.00000000E+00  0.00000000E+00  0.00000000E+00
  0.00000000E+00  0.00000000E+00  0.00000000E+00
  0.00000000E+00  0.00000000E+00  0.00000000E+00
  0.00000000E+00  0.00000000E+00  0.00000000E+00
  0.00000000E+00  0.00000000E+00  0.00000000E+00
  0.00000000E+00  0.00000000E+00  0.00000000E+00
  0.00000000E+00  0.00000000E+00  0.00000000E+00
  0.00000000E+00  0.00000000E+00  0.00000000E+00
  0.00000000E+00  0.00000000E+00  0.00000000E+00
  0.00000000E+00  0.00000000E+00  0.00000000E+00
  0.00000000E+00  0.00000000E+00  0.00000000E+00
  0.00000000E+00  0.00000000E+00  0.00000000E+00
  0.00000000E+00  0.00000000E+00  0.00000000E+00
  0.00000000E+00  0.00000000E+00  0.00000000E+00
  0.00000000E+00  0.00000000E+00  0.00000000E+00
  0.00000000E+00  0.00000000E+00  0.00000000E+00
  0.00000000E+00  0.00000000E+00  0.00000000E+00
  0.00000000E+00  0.00000000E+00  0.00000000E+00
  0.00000000E+00  0.00000000E+00  0.00000000E+00
  0.00000000E+00  0.00000000E+00  0.00000000E+00
  0.00000000E+00  0.00000000E+00  0.00000000E+00
  0.00000000E+00  0.00000000E+00  0.00000000E+00
  0.00000000E+00  0.00000000E+00  0.00000000E+00
  0.00000000E+00  0.00000000E+00  0.00000000E+00
  0.00000000E+00  0.00000000E+00  0.00000000E+00
  0.00000000E+00  0.00000000E+00  0.00000000E+00
  0.00000000E+00  0.00000000E+00  0.00000000E+00
  0.00000000E+00  0.00000000E+00  0.00000000E+00
  0.00000000E+00  0.00000000E+00  0.00000000E+00
  0.00000000E+00  0.00000000E+00  0.00000000E+00
  0.00000000E+00  0.00000000E+00  0.00000000E+00
  0.00000000E+00  0.00000000E+00  0.00000000E+00
  0.00000000E+00  0.00000000E+00  0.00000000E+00
  0.00000000E+00  0.00000000E+00  0.00000000E+00
  0.00000000E+00  0.00000000E+00  0.00000000E+00
  0.00000000E+00  0.00000000E+00  0.00000000E+00
  0.00000000E+00  0.00000000E+00  0.00000000E+00
  0.00000000E+00  0.00000000E+00  0.00000000E+00
  0.00000000E+00  0.00000000E+00  0.00000000E+00
  0.00000000E+00  0.00000000E+00  0.00000000E+00
  0.00000000E+00  0.00000000E+00  0.00000000E+00
  0.00000000E+00  0.00000000E+00  0.00000000E+00
  0.00000000E+00  0.00000000E+00  0.00000000E+00
  0.00000000E+00  0.00000000E+00  0.00000000E+00
  0.00000000E+00  0.00000000E+00  0.00000000E+00
  0.00000000E+00  0.00000000E+00  0.00000000E+00
  0.00000000E+00  0.00000000E+00  0.00000000E+00
  0.00000000E+00  0.00000000E+00  0.00000000E+00
  0.00000000E+00  0.00000000E+00  0.00000000E+00
  0.00000000E+00  0.00000000E+00  0.00000000E+00
  0.00000000E+00  0.00000000E+00  0.00000000E+00
  0.00000000E+00  0.00000000E+00  0.00000000E+00
  0.00000000E+00  0.00000000E+00  0.00000000E+00
  0.00000000E+00  0.00000000E+00  0.00000000E+00
  0.00000000E+00  0.00000000E+00  0.00000000E+00
  0.00000000E+00  0.00000000E+00  0.00000000E+00
  0.00000000E+00  0.00000000E+00  0.00000000E+00
  0.00000000E+00  0.00000000E+00  0.00000000E+00
  0.00000000E+00  0.00000000E+00  0.00000000E+00
  0.00000000E+00  0.00000000E+00  0.00000000E+00
  0.00000000E+00  0.00000000E+00  0.00000000E+00
  0.00000000E+00  0.00000000E+00  0.00000000E+00
  0.00000000E+00  0.00000000E+00  0.00000000E+00
  0.00000000E+00  0.00000000E+00  0.00000000E+00
  0.00000000E+00  0.00000000E+00  0.00000000E+00
  0.00000000E+00  0.00000000E+00  0.00000000E+00
  0.00000000E+00  0.00000000E+00  0.00000000E+00
  0.00000000E+00  0.00000000E+00  0.00000000E+00
  0.00000000E+00  0.00000000E+00  0.00000000E+00
  0.00000000E+00  0.00000000E+00  0.00000000E+00
  0.00000000E+00  0.00000000E+00  0.00000000E+00
  0.00000000E+00  0.00000000E+00  0.00000000E+00
  0.00000000E+00  0.00000000E+00  0.00000000E+00
  0.00000000E+00  0.00000000E+00  0.00000000E+00
  0.00000000E+00  0.00000000E+00  0.00000000E+00
  0.00000000E+00  0.00000000E+00  0.00000000E+00
  0.00000000E+00  0.00000000E+00  0.00000000E+00