Amorphous Sb                            
   1.00000000000000     
    22.3217106933591651    0.0000000000000000    0.0000000000000000
     0.0000000000000000   22.3217106933591651    0.0000000000000000
     0.0000000000000000    0.0000000000000000   22.3217106933591651
   Pb   Te
   150   150
Direct
  0.1354667499999991  0.2176806000000013  0.1324104199999994
  0.3048759200000006  0.5783119900000031  0.0775927620000019
  0.6431824399999968  0.9765419800000004  0.5603471000000013
  0.3291505400000005  0.5140251699999965  0.8584332300000028
  0.8049639899999974  0.7492316299999970  0.2977139199999996
  0.5147663199999997  0.4800126299999974  0.4713588999999985
  0.4939261500000001  0.6806662400000008  0.0302739859999974
  0.1842818499999979  0.7895130899999998  0.2481336499999998
  0.4997078800000025  0.8767045299999978  0.0749290420000008
  0.6409640899999971  0.4357013799999976  0.0827546390000009
  0.6120513700000032  0.7904733700000008  0.2740930800000001
  0.4723864400000011  0.6421786200000028  0.8391547700000004
  0.9071495900000031  0.2585930999999988  0.8217837899999978
  0.5715973000000005  0.3661391300000005  0.6973043500000031
  0.4601303099999967  0.8755201099999965  0.6102368499999997
  0.8297051799999977  0.4744212900000022  0.7294308000000029
  0.4626302599999974  0.4793207999999964  0.7586063600000017
  0.5215760999999972  0.1447584599999985  0.8674782699999994
  0.6443334900000011  0.2016941700000032  0.1052216599999980
  0.4570372399999982  0.3190359999999970  0.5326916400000030
  0.8024746299999990  0.5714421300000012  0.2799750900000006
  0.2350881099999995  0.5101491400000029  0.5099151699999993
  0.1054594699999996  0.5892688699999979  0.7439750300000014
  0.7927299300000001  0.0947100810000023  0.5192786499999968
  0.9949670872999974  0.0898470690000011  0.0425992930000021
  0.9366138000000035  0.2025480799999997  0.4435426000000007
  0.4035720700000027  0.1696229200000019  0.2859469599999969
  0.1174984000000023  0.9330416970000002  0.9387303600000010
  0.9423090800000011  0.5273809400000005  0.9581599699999970
  0.1979939699999989  0.2542496700000001  0.5634359200000034
  0.4620356799999996  0.3632065400000002  0.8783677899999986
  0.0658114880000014  0.0279170149999999  0.7028663800000032
  0.3777659400000033  0.9416025399999981  0.2505765800000006
  0.8226773000000023  0.3282648499999965  0.5804728900000029
  0.5180390700000004  0.0938418770000027  0.1572524600000023
  0.1064580199999980  0.9734801800000028  0.2614146199999965
  0.9806951360000014  0.3786020399999970  0.1090683099999978
  0.0005291241299972  0.3971019499999997  0.7357388900000004
  0.2719769300000010  0.4895919300000031  0.6960983499999998
  0.6923421300000001  0.4390017300000011  0.4925698500000024
  0.9628575899999987  0.6657759799999994  0.1659063000000032
  0.6348122099999998  0.1116865400000009  0.4038645600000024
  0.2782748899999987  0.6374042200000005  0.2614111999999977
  0.8673017999999999  0.7996133199999989  0.5194911399999995
  0.7745378899999977  0.7618275199999971  0.6727751199999972
  0.4805945600000001  0.5756270999999984  0.6260836100000020
  0.2099666800000008  0.8086779400000026  0.4296601300000020
  0.2354981800000004  0.8540716099999983  0.1001955400000014
  0.6483804300000031  0.6292075699999984  0.4017428599999988
  0.4516081499999984  0.6077785100000028  0.4332508399999995
  0.2978560500000000  0.8736317700000029  0.7158448300000018
  0.2538713900000005  0.1013975600000023  0.9657735500000015
  0.2323501400000012  0.0370392140000035  0.1351149300000003
  0.8226323800000017  0.0999738679999993  0.6648083600000021
  0.1248312800000022  0.2488458699999967  0.7399543800000004
  0.9890404699999991  0.8449670099999977  0.7620389100000011
  0.8049465200000014  0.1689648700000035  0.1971665800000011
  0.8889042799999984  0.4419791199999992  0.4188168700000006
  0.6802455199999997  0.6060020399999999  0.1286666100000033
  0.1785249699999980  0.2175557699999970  0.3738715300000024
  0.9895337700000013  0.5154935799999976  0.2830503599999972
  0.8955167599999996  0.6473120300000019  0.7366302699999991
  0.5001348400000012  0.7000065599999985  0.5487914500000031
  0.1302100699999968  0.8109061700000026  0.6978222799999969
  0.4000691600000010  0.1469781200000000  0.0500237199999987
  0.0208260920000001  0.3462568400000023  0.2525735400000002
  0.6261176000000006  0.5678296800000027  0.9441300200000029
  0.1281646899999984  0.6809100099999981  0.1074134500000028
  0.9803467420000018  0.1389626599999971  0.2306557599999977
  0.4410994300000013  0.7635551699999965  0.2327093800000029
  0.8027507700000029  0.9199200999999988  0.7398884400000014
  0.2485530800000006  0.0425050739999975  0.3772372399999995
  0.3050998100000015  0.9105574299999972  0.5278668799999977
  0.6300006900000028  0.9809759899999975  0.8015958100000020
  0.1433124100000001  0.5029148899999996  0.9050676700000011
  0.0916480200000009  0.9014490699999982  0.5584871699999994
  0.0574941559999971  0.7093368100000035  0.3386467600000032
  0.8355186499999974  0.2544721800000005  0.0350822919999985
  0.8068838200000030  0.7985327800000022  0.1193834299999992
  0.1176924299999982  0.4546555900000016  0.6200717400000002
  0.0627046070000006  0.3561198800000014  0.4809640499999972
  0.4599993599999976  0.4737455400000030  0.1588766100000001
  0.8965177999999980  0.9640416000000016  0.5670390000000012
  0.6807337799999971  0.2874882600000035  0.3547783300000020
  0.9886277820000018  0.8011592699999994  0.0397230680000007
  0.8401297899999989  0.6392160199999992  0.0074903320999979
  0.2661066900000009  0.4056125700000024  0.3322153700000001
  0.4652060299999974  0.0194934969999991  0.4599509999999967
  0.3124967899999973  0.6655569600000035  0.6195399599999973
  0.6099027400000026  0.1200160599999975  0.6829673299999968
  0.3048082099999974  0.1202999300000016  0.6709144100000017
  0.7741776200000032  0.1172817599999973  0.9148448299999998
  0.6031203599999984  0.7685952699999987  0.4758071899999976
  0.5247303599999995  0.2402199899999999  0.3616061199999976
  0.6389702700000015  0.2692520599999995  0.9356708999999981
  0.4149192300000024  0.2608172899999985  0.7236303099999972
  0.0283839519999987  0.9782949700000003  0.4208831199999992
  0.1427559600000023  0.4927122200000014  0.1605288499999986
  0.5942685300000008  0.4652988899999997  0.8382564200000004
  0.6524502500000011  0.6891558299999971  0.7758678100000012
  0.4241959000000008  0.9764378300000018  0.7468612699999966
  0.7513695000000027  0.0173820879999980  0.1474915000000010
  0.2232540500000013  0.3443856600000004  0.8260264500000005
  0.6200843499999991  0.9745155299999979  0.2825056900000007
  0.4255741999999998  0.3469377899999984  0.2924180899999982
  0.5461429699999982  0.8444959200000000  0.8678656700000005
  0.7810066799999973  0.4305375400000031  0.9006297700000019
  0.3766876700000026  0.9420246800000029  0.9399640099999971
  0.9247484959999994  0.0671129349999973  0.8298232599999977
  0.1731123400000030  0.1203752799999975  0.8118074300000018
  0.4388665299999985  0.8243580700000024  0.4040248199999965
  0.9242313999999965  0.8936993700000002  0.9045517200000006
  0.6386008699999977  0.2413249700000009  0.5392157599999976
  0.1437206299999971  0.0854547539999970  0.5109239499999987
  0.3243337199999985  0.6698603000000034  0.4448441600000024
  0.3318213599999993  0.2675855900000030  0.4384377100000023
  0.7339068300000022  0.8625015200000021  0.4157603100000031
  0.8338428899999997  0.0198145199999971  0.3449683300000004
  0.4824980699999983  0.3024182199999998  0.0437885309999970
  0.7060195299999990  0.2514232400000012  0.7771192000000013
  0.2902341400000026  0.2981201400000018  0.0090299191000014
  0.5491770599999981  0.6286290299999990  0.2323589100000021
  0.8911242200000018  0.6402174600000023  0.4441540300000000
  0.6886877600000005  0.4498899800000018  0.3291155300000028
  0.8503696000000005  0.2994416700000002  0.2920138500000036
  0.6665938000000011  0.5024478500000029  0.6624642700000010
  0.7408898600000029  0.6214005799999995  0.5668845499999975
  0.6122201499999989  0.1862694300000030  0.2528760699999992
  0.4167265999999969  0.5189861899999997  0.3201880100000025
  0.8437501299999965  0.4999967600000019  0.1361626400000020
  0.3143927599999969  0.7111652399999997  0.8360145799999970
  0.3133117799999994  0.3694809100000001  0.1650574800000015
  0.0195522340000025  0.1773747599999993  0.6115117100000020
  0.6617729199999971  0.8668547700000033  0.0804406689999979
  0.0957212140000010  0.6401294799999988  0.5192853200000016
  0.9301096599999994  0.5303881800000028  0.5609157900000028
  0.0516987060000034  0.1989539899999997  0.9092771600000020
  0.4435293900000019  0.1445514400000008  0.5804053000000025
  0.6296894500000008  0.8579558799999987  0.6621614600000001
  0.1247374499999978  0.6736443699999981  0.9338635829999973
  0.9514858499999974  0.8355123700000036  0.3220001099999976
  0.3275606400000015  0.7611081100000021  0.0131860770000003
  0.3642491199999967  0.1204955899999973  0.8474943399999972
  0.1425352300000000  0.5411028500000015  0.3564333200000007
  0.9609706199999977  0.3501113599999996  0.9430799100000016
  0.0085706488000028  0.7261114499999977  0.6015735200000023
  0.9921411799999973  0.9485253799999995  0.1512083399999966
  0.1330620800000020  0.3353340800000026  0.9865395160000006
  0.7455416999999969  0.8740693000000022  0.9260192799999984
  0.9419632449999966  0.7062482299999999  0.8892827100000034
  0.1058076300000010  0.0742862709999983  0.3586075899999983
  0.4770092500000018  0.4308842299999966  0.6139915299999998
  0.1647663600000016  0.1360539000000003  0.6480548199999987
  0.7482555200000007  0.6116316000000026  0.7081122399999984
  0.8512880600000017  0.7794062199999985  0.9865311539999979
  0.9891793709999988  0.6592605900000024  0.0256247490000021
  0.2655339900000016  0.1677107300000031  0.0851662549999972
  0.6486094099999988  0.7296965999999969  0.6050131300000032
  0.7163160799999986  0.0023268667999972  0.4407369299999999
  0.9171640309999987  0.9962978204000024  0.7032273599999996
  0.7091123399999972  0.4900231000000019  0.1974903699999970
  0.9254776800000002  0.6410857400000012  0.3086218600000024
  0.8714804700000016  0.6788507400000015  0.5989817500000001
  0.2629689799999966  0.7042772200000016  0.1321750399999999
  0.9287779200000017  0.8137433999999999  0.1759691500000002
  0.2883009000000030  0.2089473200000000  0.7749162599999977
  0.5444433799999970  0.2732526400000026  0.8129932300000036
  0.5041854199999989  0.8832676399999997  0.2927978999999965
  0.4662884600000012  0.0059649115000013  0.0303279979999971
  0.8861215299999969  0.2021861999999999  0.5750901299999995
  0.5534156000000010  0.1789881699999967  0.0041665110000011
  0.1499871899999974  0.4536122900000024  0.7607649300000006
  0.8271743499999999  0.5856988900000033  0.8635143099999993
  0.4122545199999976  0.6155068099999994  0.2092396899999969
  0.7900903399999990  0.3510961599999973  0.4339478400000019
  0.5786424100000005  0.0972105029999994  0.5391981200000018
  0.5464254500000010  0.9744459200000009  0.6857106100000010
  0.0401998430000035  0.8015817599999977  0.9033103100000019
  0.3410564400000027  0.2478607400000001  0.6003285099999971
  0.3475590099999977  0.3960723400000035  0.7742937200000028
  0.6779653400000001  0.3623700999999997  0.6067692100000031
  0.8066278800000006  0.9862833919999971  0.8693132300000030
  0.2760441200000017  0.0284640839999994  0.7886565499999989
  0.6070019599999981  0.5637304999999984  0.5438146500000016
  0.6196246000000016  0.9210988000000029  0.9615750299999988
  0.2997675000000015  0.2650160499999998  0.3008186100000003
  0.8182267500000009  0.1620920299999966  0.7857916800000027
  0.6948553599999983  0.6693502999999978  0.2735877699999989
  0.0790995580000029  0.5015899899999994  0.4804894600000011
  0.8645017199999998  0.7980240099999989  0.7965554199999971
  0.3595716399999986  0.9432143599999989  0.4039096500000028
  0.0937397599999983  0.0632288509999981  0.1517084199999985
  0.1239697600000014  0.0734470350000009  0.9393560019999967
  0.3806987899999967  0.7732048900000024  0.5387180199999975
  0.9975433500000008  0.9521340630000026  0.0110572809999994
  0.0887835249999966  0.2315741299999985  0.2619872000000001
  0.3985726499999984  0.2480079099999983  0.9394810399999969
  0.0268129490000035  0.9700750009999979  0.8366160300000018
  0.1316440299999968  0.4237656800000025  0.2840387399999997
  0.7090589399999985  0.0163433459999993  0.6849971899999971
  0.5670196100000027  0.3653623499999981  0.2929217800000004
  0.4380462499999993  0.1653334499999985  0.4421506199999996
  0.8678663800000024  0.8969029300000031  0.4164618699999991
  0.5246373900000023  0.7071297800000025  0.3530215400000003
  0.1994170800000035  0.2285355699999982  0.9164595199999965
  0.3821223400000022  0.8476299699999998  0.1378072600000024
  0.0229887489999996  0.0341724809999988  0.5683125500000017
  0.6503946799999980  0.1245497700000016  0.8274730300000002
  0.4439087700000002  0.8204823000000019  0.9599961150000027
  0.1747560299999975  0.9399673400000026  0.6623017000000004
  0.8731799099999975  0.3416450499999968  0.7128627000000023
  0.7116096199999973  0.4095598800000033  0.7783811400000005
  0.3153574199999980  0.7632366599999969  0.3323496300000031
  0.5388105400000001  0.8902621200000027  0.4963642000000021
  0.3662202900000011  0.5580362500000007  0.5397476999999995
  0.1876858799999965  0.9522632600000023  0.4674047199999976
  0.7918714999999992  0.2884459899999996  0.9007621299999968
  0.7382488499999980  0.1935183599999988  0.4443864400000024
  0.9678909800000000  0.8537925600000023  0.6208592600000031
  0.2304251300000004  0.7904227100000014  0.9140464500000007
  0.9893954710000017  0.5236022699999978  0.1480106300000017
  0.5773510000000002  0.7049749500000004  0.9205999100000000
  0.2653567799999976  0.1465442800000005  0.4713638899999992
  0.7784573699999981  0.7232126199999982  0.4343485999999999
  0.0174774629999987  0.1613548600000030  0.7632150299999978
  0.7057032399999983  0.0911386220000026  0.2759537900000026
  0.4483650700000013  0.1208263500000015  0.7346006100000011
  0.3129258700000008  0.0755439349999989  0.2528495800000030
  0.5723555200000021  0.3874575999999976  0.9624488299999996
  0.0683254559999966  0.3140748799999997  0.6345401299999978
  0.1256143000000023  0.6205051000000026  0.2339812900000027
  0.8724045599999997  0.1594320800000020  0.3203221099999993
  0.2789311299999966  0.4992728100000008  0.1970100899999991
  0.5742768200000015  0.5259394300000011  0.3455342700000017
  0.5492609100000010  0.5572771699999990  0.0828728319999996
  0.1711287999999982  0.6743995900000002  0.4117945500000033
  0.8638523899999981  0.3962501299999985  0.0390566129999996
  0.3719376299999979  0.6404741500000029  0.9607208799999967
  0.9117703499999976  0.4437994000000032  0.8510700300000025
  0.2540656199999987  0.4178781399999991  0.9381690100000029
  0.1014835900000008  0.8238566599999970  0.1366330199999979
  0.9859233000000032  0.7400616799999966  0.4542932600000000
  0.5272653000000034  0.2480317999999997  0.6329627699999989
  0.3922998299999989  0.0053037170999986  0.5805439399999983
  0.7742628499999995  0.8783983900000010  0.5929180400000007
  0.2598127400000010  0.9027167799999987  0.8466942900000021
  0.1867195199999969  0.5917413499999995  0.6177520299999983
  0.7068750800000032  0.3099310799999984  0.0538495569999995
  0.9013190699999996  0.0548495529999968  0.1390858600000016
  0.4437892300000001  0.2195721900000009  0.1590709199999978
  0.7369675099999995  0.5299236800000031  0.0242300330000020
  0.2862031499999986  0.5453287599999967  0.3727988999999994
  0.2494713899999965  0.9642794399999985  0.0149817200000015
  0.0454183279999967  0.4451807399999979  0.0018104039999969
  0.9116941999999995  0.1532717400000010  0.9441420300000019
  0.7881964600000018  0.9223300800000018  0.0542582570000008
  0.5601244500000035  0.7476329699999980  0.1500256100000001
  0.5682046700000001  0.5791599100000013  0.7495311200000003
  0.3746991699999995  0.5996507199999996  0.7333423500000009
  0.2379032099999989  0.9162272000000016  0.2255857800000030
  0.7192650400000034  0.1995861700000034  0.6450606900000011
  0.0249934630000013  0.7095857300000006  0.7413938299999998
  0.5727166200000013  0.3435929400000006  0.4438270699999975
  0.7947879600000007  0.4878823800000021  0.5861785399999988
  0.0752406100000016  0.2084149900000014  0.4806991399999987
  0.9159953249999973  0.2561360099999987  0.1726690599999969
  0.3958077899999992  0.0306683439999986  0.1369970800000004
  0.3855482100000032  0.4158820399999996  0.0562503319999976
  0.8711636299999981  0.4433340000000001  0.2653028800000001
  0.5215737099999984  0.7657336999999984  0.6889885599999985
  0.2415337600000029  0.4004077600000002  0.5948925300000028
  0.6842297500000001  0.8386630600000018  0.7867978000000022
  0.5505623099999966  0.3637169699999987  0.1653170900000021
  0.1486703899999995  0.7711190599999966  0.5660953499999977
  0.0673503960000019  0.3291965900000022  0.8462486800000022
  0.1747419800000003  0.5689831600000019  0.0285255980000017
  0.5178398400000006  0.0769009449999984  0.2951704600000014
  0.9415320700000009  0.3958503100000001  0.5464869999999991
  0.1010149000000027  0.8475297600000005  0.3495481200000015
  0.7633545600000033  0.5442693700000021  0.4109935999999976
  0.4654296200000019  0.5172535700000012  0.8985631700000027
  0.4915098700000016  0.9880714170000005  0.8648925700000021
  0.7243514700000020  0.6566592799999995  0.8927651500000024
  0.9708596090000015  0.3358886999999982  0.3780332999999985
  0.7361731000000020  0.8723949600000012  0.2753374899999983
  0.2024965399999985  0.3391499900000028  0.4391354799999974
  0.7258230699999970  0.2830148600000015  0.2232483599999995
  0.4322445500000001  0.8187716199999997  0.7659908400000006
  0.7492783000000003  0.1275513900000007  0.0611772529999968
  0.9102607100000029  0.0629476430000011  0.4515840299999994
  0.0310429199999973  0.5893025000000023  0.8696778699999967
  0.2483428299999986  0.7483840800000010  0.7200628499999979
  0.2107906299999982  0.6136894699999971  0.8392499599999965
  0.1837401399999976  0.3500860199999991  0.1180462100000028
  0.0296700809999990  0.2524340499999980  0.0424394659999976
  0.6146969099999993  0.9782792099999966  0.1452532799999986
  0.9704646109999970  0.5340187299999997  0.6913844999999981
  0.3972797200000002  0.4019357399999990  0.4130834699999966
  0.8260530399999979  0.6492702700000024  0.1490194000000002
  0.9640280300000015  0.9713843099999977  0.2954321100000001
 
  0.00000000E+00  0.00000000E+00  0.00000000E+00
  0.00000000E+00  0.00000000E+00  0.00000000E+00
  0.00000000E+00  0.00000000E+00  0.00000000E+00
  0.00000000E+00  0.00000000E+00  0.00000000E+00
  0.00000000E+00  0.00000000E+00  0.00000000E+00
  0.00000000E+00  0.00000000E+00  0.00000000E+00
  0.00000000E+00  0.00000000E+00  0.00000000E+00
  0.00000000E+00  0.00000000E+00  0.00000000E+00
  0.00000000E+00  0.00000000E+00  0.00000000E+00
  0.00000000E+00  0.00000000E+00  0.00000000E+00
  0.00000000E+00  0.00000000E+00  0.00000000E+00
  0.00000000E+00  0.00000000E+00  0.00000000E+00
  0.00000000E+00  0.00000000E+00  0.00000000E+00
  0.00000000E+00  0.00000000E+00  0.00000000E+00
  0.00000000E+00  0.00000000E+00  0.00000000E+00
  0.00000000E+00  0.00000000E+00  0.00000000E+00
  0.00000000E+00  0.00000000E+00  0.00000000E+00
  0.00000000E+00  0.00000000E+00  0.00000000E+00
  0.00000000E+00  0.00000000E+00  0.00000000E+00
  0.00000000E+00  0.00000000E+00  0.00000000E+00
  0.00000000E+00  0.00000000E+00  0.00000000E+00
  0.00000000E+00  0.00000000E+00  0.00000000E+00
  0.00000000E+00  0.00000000E+00  0.00000000E+00
  0.00000000E+00  0.00000000E+00  0.00000000E+00
  0.00000000E+00  0.00000000E+00  0.00000000E+00
  0.00000000E+00  0.00000000E+00  0.00000000E+00
  0.00000000E+00  0.00000000E+00  0.00000000E+00
  0.00000000E+00  0.00000000E+00  0.00000000E+00
  0.00000000E+00  0.00000000E+00  0.00000000E+00
  0.00000000E+00  0.00000000E+00  0.00000000E+00
  0.00000000E+00  0.00000000E+00  0.00000000E+00
  0.00000000E+00  0.00000000E+00  0.00000000E+00
  0.00000000E+00  0.00000000E+00  0.00000000E+00
  0.00000000E+00  0.00000000E+00  0.00000000E+00
  0.00000000E+00  0.00000000E+00  0.00000000E+00
  0.00000000E+00  0.00000000E+00  0.00000000E+00
  0.00000000E+00  0.00000000E+00  0.00000000E+00
  0.00000000E+00  0.00000000E+00  0.00000000E+00
  0.00000000E+00  0.00000000E+00  0.00000000E+00
  0.00000000E+00  0.00000000E+00  0.00000000E+00
  0.00000000E+00  0.00000000E+00  0.00000000E+00
  0.00000000E+00  0.00000000E+00  0.00000000E+00
  0.00000000E+00  0.00000000E+00  0.00000000E+00
  0.00000000E+00  0.00000000E+00  0.00000000E+00
  0.00000000E+00  0.00000000E+00  0.00000000E+00
  0.00000000E+00  0.00000000E+00  0.00000000E+00
  0.00000000E+00  0.00000000E+00  0.00000000E+00
  0.00000000E+00  0.00000000E+00  0.00000000E+00
  0.00000000E+00  0.00000000E+00  0.00000000E+00
  0.00000000E+00  0.00000000E+00  0.00000000E+00
  0.00000000E+00  0.00000000E+00  0.00000000E+00
  0.00000000E+00  0.00000000E+00  0.00000000E+00
  0.00000000E+00  0.00000000E+00  0.00000000E+00
  0.00000000E+00  0.00000000E+00  0.00000000E+00
  0.00000000E+00  0.00000000E+00  0.00000000E+00
  0.00000000E+00  0.00000000E+00  0.00000000E+00
  0.00000000E+00  0.00000000E+00  0.00000000E+00
  0.00000000E+00  0.00000000E+00  0.00000000E+00
  0.00000000E+00  0.00000000E+00  0.00000000E+00
  0.00000000E+00  0.00000000E+00  0.00000000E+00
  0.00000000E+00  0.00000000E+00  0.00000000E+00
  0.00000000E+00  0.00000000E+00  0.00000000E+00
  0.00000000E+00  0.00000000E+00  0.00000000E+00
  0.00000000E+00  0.00000000E+00  0.00000000E+00
  0.00000000E+00  0.00000000E+00  0.00000000E+00
  0.00000000E+00  0.00000000E+00  0.00000000E+00
  0.00000000E+00  0.00000000E+00  0.00000000E+00
  0.00000000E+00  0.00000000E+00  0.00000000E+00
  0.00000000E+00  0.00000000E+00  0.00000000E+00
  0.00000000E+00  0.00000000E+00  0.00000000E+00
  0.00000000E+00  0.00000000E+00  0.00000000E+00
  0.00000000E+00  0.00000000E+00  0.00000000E+00
  0.00000000E+00  0.00000000E+00  0.00000000E+00
  0.00000000E+00  0.00000000E+00  0.00000000E+00
  0.00000000E+00  0.00000000E+00  0.00000000E+00
  0.00000000E+00  0.00000000E+00  0.00000000E+00
  0.00000000E+00  0.00000000E+00  0.00000000E+00
  0.00000000E+00  0.00000000E+00  0.00000000E+00
  0.00000000E+00  0.00000000E+00  0.00000000E+00
  0.00000000E+00  0.00000000E+00  0.00000000E+00
  0.00000000E+00  0.00000000E+00  0.00000000E+00
  0.00000000E+00  0.00000000E+00  0.00000000E+00
  0.00000000E+00  0.00000000E+00  0.00000000E+00
  0.00000000E+00  0.00000000E+00  0.00000000E+00
  0.00000000E+00  0.00000000E+00  0.00000000E+00
  0.00000000E+00  0.00000000E+00  0.00000000E+00
  0.00000000E+00  0.00000000E+00  0.00000000E+00
  0.00000000E+00  0.00000000E+00  0.00000000E+00
  0.00000000E+00  0.00000000E+00  0.00000000E+00
  0.00000000E+00  0.00000000E+00  0.00000000E+00
  0.00000000E+00  0.00000000E+00  0.00000000E+00
  0.00000000E+00  0.00000000E+00  0.00000000E+00
  0.00000000E+00  0.00000000E+00  0.00000000E+00
  0.00000000E+00  0.00000000E+00  0.00000000E+00
  0.00000000E+00  0.00000000E+00  0.00000000E+00
  0.00000000E+00  0.00000000E+00  0.00000000E+00
  0.00000000E+00  0.00000000E+00  0.00000000E+00
  0.00000000E+00  0.00000000E+00  0.00000000E+00
  0.00000000E+00  0.00000000E+00  0.00000000E+00
  0.00000000E+00  0.00000000E+00  0.00000000E+00
  0.00000000E+00  0.00000000E+00  0.00000000E+00
  0.00000000E+00  0.00000000E+00  0.00000000E+00
  0.00000000E+00  0.00000000E+00  0.00000000E+00
  0.00000000E+00  0.00000000E+00  0.00000000E+00
  0.00000000E+00  0.00000000E+00  0.00000000E+00
  0.00000000E+00  0.00000000E+00  0.00000000E+00
  0.00000000E+00  0.00000000E+00  0.00000000E+00
  0.00000000E+00  0.00000000E+00  0.00000000E+00
  0.00000000E+00  0.00000000E+00  0.00000000E+00
  0.00000000E+00  0.00000000E+00  0.00000000E+00
  0.00000000E+00  0.00000000E+00  0.00000000E+00
  0.00000000E+00  0.00000000E+00  0.00000000E+00
  0.00000000E+00  0.00000000E+00  0.00000000E+00
  0.00000000E+00  0.00000000E+00  0.00000000E+00
  0.00000000E+00  0.00000000E+00  0.00000000E+00
  0.00000000E+00  0.00000000E+00  0.00000000E+00
  0.00000000E+00  0.00000000E+00  0.00000000E+00
  0.00000000E+00  0.00000000E+00  0.00000000E+00
  0.00000000E+00  0.00000000E+00  0.00000000E+00
  0.00000000E+00  0.00000000E+00  0.00000000E+00
  0.00000000E+00  0.00000000E+00  0.00000000E+00
  0.00000000E+00  0.00000000E+00  0.00000000E+00
  0.00000000E+00  0.00000000E+00  0.00000000E+00
  0.00000000E+00  0.00000000E+00  0.00000000E+00
  0.00000000E+00  0.00000000E+00  0.00000000E+00
  0.00000000E+00  0.00000000E+00  0.00000000E+00
  0.00000000E+00  0.00000000E+00  0.00000000E+00
  0.00000000E+00  0.00000000E+00  0.00000000E+00
  0.00000000E+00  0.00000000E+00  0.00000000E+00
  0.00000000E+00  0.00000000E+00  0.00000000E+00
  0.00000000E+00  0.00000000E+00  0.00000000E+00
  0.00000000E+00  0.00000000E+00  0.00000000E+00
  0.00000000E+00  0.00000000E+00  0.00000000E+00
  0.00000000E+00  0.00000000E+00  0.00000000E+00
  0.00000000E+00  0.00000000E+00  0.00000000E+00
  0.00000000E+00  0.00000000E+00  0.00000000E+00
  0.00000000E+00  0.00000000E+00  0.00000000E+00
  0.00000000E+00  0.00000000E+00  0.00000000E+00
  0.00000000E+00  0.00000000E+00  0.00000000E+00
  0.00000000E+00  0.00000000E+00  0.00000000E+00
  0.00000000E+00  0.00000000E+00  0.00000000E+00
  0.00000000E+00  0.00000000E+00  0.00000000E+00
  0.00000000E+00  0.00000000E+00  0.00000000E+00
  0.00000000E+00  0.00000000E+00  0.00000000E+00
  0.00000000E+00  0.00000000E+00  0.00000000E+00
  0.00000000E+00  0.00000000E+00  0.00000000E+00
  0.00000000E+00  0.00000000E+00  0.00000000E+00
  0.00000000E+00  0.00000000E+00  0.00000000E+00
  0.00000000E+00  0.00000000E+00  0.00000000E+00
  0.00000000E+00  0.00000000E+00  0.00000000E+00
  0.00000000E+00  0.00000000E+00  0.00000000E+00
  0.00000000E+00  0.00000000E+00  0.00000000E+00
  0.00000000E+00  0.00000000E+00  0.00000000E+00
  0.00000000E+00  0.00000000E+00  0.00000000E+00
  0.00000000E+00  0.00000000E+00  0.00000000E+00
  0.00000000E+00  0.00000000E+00  0.00000000E+00
  0.00000000E+00  0.00000000E+00  0.00000000E+00
  0.00000000E+00  0.00000000E+00  0.00000000E+00
  0.00000000E+00  0.00000000E+00  0.00000000E+00
  0.00000000E+00  0.00000000E+00  0.00000000E+00
  0.00000000E+00  0.00000000E+00  0.00000000E+00
  0.00000000E+00  0.00000000E+00  0.00000000E+00
  0.00000000E+00  0.00000000E+00  0.00000000E+00
  0.00000000E+00  0.00000000E+00  0.00000000E+00
  0.00000000E+00  0.00000000E+00  0.00000000E+00
  0.00000000E+00  0.00000000E+00  0.00000000E+00
  0.00000000E+00  0.00000000E+00  0.00000000E+00
  0.00000000E+00  0.00000000E+00  0.00000000E+00
  0.00000000E+00  0.00000000E+00  0.00000000E+00
  0.00000000E+00  0.00000000E+00  0.00000000E+00
  0.00000000E+00  0.00000000E+00  0.00000000E+00
  0.00000000E+00  0.00000000E+00  0.00000000E+00
  0.00000000E+00  0.00000000E+00  0.00000000E+00
  0.00000000E+00  0.00000000E+00  0.00000000E+00
  0.00000000E+00  0.00000000E+00  0.00000000E+00
  0.00000000E+00  0.00000000E+00  0.00000000E+00
  0.00000000E+00  0.00000000E+00  0.00000000E+00
  0.00000000E+00  0.00000000E+00  0.00000000E+00
  0.00000000E+00  0.00000000E+00  0.00000000E+00
  0.00000000E+00  0.00000000E+00  0.00000000E+00
  0.00000000E+00  0.00000000E+00  0.00000000E+00
  0.00000000E+00  0.00000000E+00  0.00000000E+00
  0.00000000E+00  0.00000000E+00  0.00000000E+00
  0.00000000E+00  0.00000000E+00  0.00000000E+00
  0.00000000E+00  0.00000000E+00  0.00000000E+00
  0.00000000E+00  0.00000000E+00  0.00000000E+00
  0.00000000E+00  0.00000000E+00  0.00000000E+00
  0.00000000E+00  0.00000000E+00  0.00000000E+00
  0.00000000E+00  0.00000000E+00  0.00000000E+00
  0.00000000E+00  0.00000000E+00  0.00000000E+00
  0.00000000E+00  0.00000000E+00  0.00000000E+00
  0.00000000E+00  0.00000000E+00  0.00000000E+00
  0.00000000E+00  0.00000000E+00  0.00000000E+00
  0.00000000E+00  0.00000000E+00  0.00000000E+00
  0.00000000E+00  0.00000000E+00  0.00000000E+00
  0.00000000E+00  0.00000000E+00  0.00000000E+00
  0.00000000E+00  0.00000000E+00  0.00000000E+00
  0.00000000E+00  0.00000000E+00  0.00000000E+00
  0.00000000E+00  0.00000000E+00  0.00000000E+00
  0.00000000E+00  0.00000000E+00  0.00000000E+00
  0.00000000E+00  0.00000000E+00  0.00000000E+00
  0.00000000E+00  0.00000000E+00  0.00000000E+00
  0.00000000E+00  0.00000000E+00  0.00000000E+00
  0.00000000E+00  0.00000000E+00  0.00000000E+00
  0.00000000E+00  0.00000000E+00  0.00000000E+00
  0.00000000E+00  0.00000000E+00  0.00000000E+00
  0.00000000E+00  0.00000000E+00  0.00000000E+00
  0.00000000E+00  0.00000000E+00  0.00000000E+00
  0.00000000E+00  0.00000000E+00  0.00000000E+00
  0.00000000E+00  0.00000000E+00  0.00000000E+00
  0.00000000E+00  0.00000000E+00  0.00000000E+00
  0.00000000E+00  0.00000000E+00  0.00000000E+00
  0.00000000E+00  0.00000000E+00  0.00000000E+00
  0.00000000E+00  0.00000000E+00  0.00000000E+00
  0.00000000E+00  0.00000000E+00  0.00000000E+00
  0.00000000E+00  0.00000000E+00  0.00000000E+00
  0.00000000E+00  0.00000000E+00  0.00000000E+00
  0.00000000E+00  0.00000000E+00  0.00000000E+00
  0.00000000E+00  0.00000000E+00  0.00000000E+00
  0.00000000E+00  0.00000000E+00  0.00000000E+00
  0.00000000E+00  0.00000000E+00  0.00000000E+00
  0.00000000E+00  0.00000000E+00  0.00000000E+00
  0.00000000E+00  0.00000000E+00  0.00000000E+00
  0.00000000E+00  0.00000000E+00  0.00000000E+00
  0.00000000E+00  0.00000000E+00  0.00000000E+00
  0.00000000E+00  0.00000000E+00  0.00000000E+00
  0.00000000E+00  0.00000000E+00  0.00000000E+00
  0.00000000E+00  0.00000000E+00  0.00000000E+00
  0.00000000E+00  0.00000000E+00  0.00000000E+00
  0.00000000E+00  0.00000000E+00  0.00000000E+00
  0.00000000E+00  0.00000000E+00  0.00000000E+00
  0.00000000E+00  0.00000000E+00  0.00000000E+00