Amorphous GeTe6                         
   1.00000000000000     
    21.6894838840084745    0.0000000000000000    0.0000000000000000
     0.0000000000000000   21.6894838840084745    0.0000000000000000
     0.0000000000000000    0.0000000000000000   21.6894838840084745
   Ga   Te   Zr
   114   171    15
Direct
  0.7829974916878659  0.8763712106842680  0.8901006675257362
  0.9293367692274089  0.0039166640671975  0.1494955729364725
  0.8401708408914408  0.4522981044204597  0.8036074064816860
  0.9698484723048290  0.2446835608164131  0.9156771077265468
  0.5917979690728421  0.3056559601457243  0.7108954928357468
  0.8807221810419747  0.4102915141129545 -0.0350315645185630
  0.9656301688706226  0.0473687413596220  0.9078321662678555
  0.6859902992602220  0.7625991340825004  0.2274658905782132
  0.4330359327474786  0.0471182544811337  0.8283439456312731
  0.3717687741992390  0.8511897941018852  0.5095302477378939
  0.5262913570917245  0.8324058475337982  0.7790563857407233
  0.0939792619794052  0.6787822125183863  0.1138337626980620
  0.1202238577141667  0.3313872016631689  0.3756139256564162
  0.0980566283501978  0.0004257187867058  0.5153997475662591
  0.6217326332117087  0.1318024041992379  0.4785259057296143
  0.8470649732442151  0.7086438097304659  0.9072306530463847
  0.0960240593688721  0.7754418187747918  0.5299955184286097
  0.3318302083663069  0.3351605152147672  0.5235320439563749
  0.9199158191960342  0.2825680396918364  0.7214029070048726
  0.2855316599848280  0.3325885984868504  0.8512710919554797
  0.1723947030726249  0.0313344606666277  0.7612235542941702
  0.5209282784937803  0.7408188175596045  0.4213703628875753
  0.2638959656184996  0.2448245035868870  0.5267001539245111
  0.2666967510229986  0.4883044458260845  0.1612919250056159
  0.0635698181059940  0.0044498456898695  0.7260126047294198
  0.9933049916021424  0.8049533431026489  0.7531931338871070
  0.5503042377001854  0.6980508744949168  0.1375093282490886
  0.3402429169745368  0.8397519863711563  0.0014009882623420
  0.1476535109743633  0.4708744977481089  0.7354449598666166
  0.7083802994211317  0.3711710183261235  0.6346221120786990
  0.2380136060796908  0.1377012650413880  0.5616381499309188
  0.1853600307955244  0.0425753174157838  0.8785013395140955
  0.7607452812104906  0.4463881767259537  0.5642085757346492
  0.6060571515774438  0.0346955459426177  0.6459578698615117
  0.6814607964174806  0.6723334618305448  0.5127452576002353
  0.8248824852501498  0.0529071917138233  0.6424996066886357
  0.5686536199760255  0.3129913143564644  0.9047842945925075
  0.9881820910876530  0.8086272532152010  0.9248436136557830
  0.1868038088530466  0.2419243199368681  0.2379767664531704
  0.4445994598636701  0.7832287870173081  0.2411150644061714
  0.8092402725498787  0.5520112444531922  0.9935089448904494
  0.0197573148189929  0.6134966245006392  0.6401310359604214
  0.3041363210120443  0.6277783098963604  0.1585660260850373
  0.9181602332277660  0.8103266235360341  0.3397099502625548
  0.8530639525223047  0.0684657992603438  0.7551034825649880
  0.2486913409452964  0.4827260910791958  0.7920855052661274
  0.7680174974609129  0.4353719552902114  0.3982587918313011
  0.5331576016211050  0.6564091429139637  0.6889132587951281
  0.5492697507199825  0.5285792043687896  0.2149374806319313
  0.6871558171660602  0.2188782577375765  0.0550490119031749
  0.1046696359533849  0.8614549038062281  0.9499966697505692
  0.7972611910109132  0.1273410822057779  0.9039418171064778
  0.4732995490641114  0.2566984843391821  0.9465961121127435
  0.6882129283214876  0.5619309978670849  0.7189979116701309
  0.4018388761089468  0.1966708673329592  0.7699149862419675
  0.1859779860858816  0.8099392662086518  0.5913127582141374
  0.1040415629293113  0.8957553348087413  0.6862174507562498
  0.0614451179875152  0.1278721881344501  0.2035514532535497
  0.7629190452567602  0.3067038677106880  0.8602261864383547
  0.8103055305423313  0.6476684288654851  0.6688501023208001
  0.3628602369823260  0.7080512206655588  0.6419387574917546
  0.5813005205758220  0.6597114999798609  0.0333557003042349
  0.2730481605442209  0.5023523567131238  0.0130807909387602
  0.3623230504653538  0.6664439596009734  0.7505081296390803
  0.9727741683673182  0.4380954556967756  0.3474406969333237
  0.5899276573688070  0.0644946731903505  0.0174686184231137
  0.4855300775233970  0.4368593963763124  0.3263166114379655
  0.3202443586452514  0.5689356443144116  0.3788810088337461
  0.8347898909136624  0.3132668132115976  0.3446069180715714
  0.7177658000287064  0.1446717590447786  0.3952879795352708
  0.0460737048311565  0.9418852104953893  0.0080127183327087
  0.0062758982551488  0.2793531535878741  0.0187260921411500
  0.9938756967744384  0.8701785339828511  0.1688144977903450
  0.0613895219052033  0.4280462096500797  0.5949865240560176
  0.2095178225117616  0.5833259341512018  0.6025323424548285
  0.4513007206860180  0.9419417489449422  0.8749222883342507
  0.7055103398557577  0.0126261546205768  0.7767784618091607
  0.5427264968527665  0.3795902873093498  0.1903657383648154
  0.4313164129386211  0.5929172083824436  0.3456972514101148
  0.6760439424327830  0.9722034998031278  0.1781702294064955
  0.9419501426016186  0.9166107210909884  0.5210419197828955
  0.3686609222891256  0.3407645850316207  0.6795212541926006
  0.3915715195388047  0.0168462020226496  0.2359569053371066
  0.6994093561849810  0.8848007278731990  0.5907840871323625
  0.3697651282975598  0.3383186563880941  0.1227582434169682
  0.1539921164231542  0.1340079292553686  0.0296055634562102
  0.0785088430544546  0.8809679725328264  0.3579485735652845
  0.6849004990340058  0.2577342241653403  0.4002792604480229
  0.7995372178522178  0.7456550020027158  0.4494446010418181
  0.5409923908402160  0.3933452806532936  0.0283277504223499
  0.9805021166226215  0.4879155561847001  0.7992522528442990
  0.1376087380984858  0.7494708358066337  0.9475126839965703
  0.6919844797326649  0.6099788340358261  0.0097986807552589
  0.9381232161905169  0.7183498814593308  0.0877555092655548
  0.2528973689525716  0.8224025586656880  0.3070361050350975
  0.0048216744072586  0.6067931406688266  0.8650233830217944
  0.1458063697936513  0.6501973897217549  0.0144659730319974
  0.2240206982117638  0.6187167045853548  0.8640523971815128
  0.7521444575403927  0.2150273049662132  0.6998129934972459
  0.1235926570629124  0.2523353880790801  0.7230374253916972
  0.2178347249307860  0.4109509723794761  0.4150476890849881
  0.1475469984290431  0.2659266046259823  0.8986143254654700
  0.3803732405074621  0.8179102748130331  0.1074678175545383
  0.9440300871383071  0.3151022688704305  0.5004045610672524
  0.7233144443397717  0.7619662745958879  0.0915024026839610
  0.3699415808226645  0.7863055525941126  0.9012658202514839
  0.2107154648314807  0.9020105341990972  0.4364087784183924
  0.7892409381465665  0.6209145407972754  0.4312989394108690
  0.4961898213221404  0.8593148023465730  0.6030011775812736
  0.2217510156107445  0.3811963619956359  0.1609441143333958
  0.0225746918273741  0.4047077372392149  0.9422183239652772
  0.4085940679176467  0.6948795857796155  0.0091478196336471
  0.4115335451352343  0.0173333149890117  0.5059368712451623
  0.1904925387186030  0.1438077073073649  0.3685199200108258
  0.5792635411150475  0.8938225109205651  0.6823384341406542
  0.9336370426228398  0.3651030811027113  0.0701672948487636
  0.3170517053374874  0.2304876269738972  0.6684646330354326
  0.0905276022166371  0.1857711810157182  0.3117302415064090
  0.0509296487787098  0.9744200776595968  0.1286505352004531
  0.3678256718370869  0.4623324632921413  0.0859929105201692
  0.4626458852738987  0.1294045622042051  0.3858364091279579
  0.7939320559005476  0.5223305069046970  0.6651638081174639
  0.3339259363333044  0.0729903311763505  0.6045978553508256
  0.3056889326675841  0.5277987063492730  0.8962040998794871
  0.7626729156912587  0.7414946035742708  0.6054662993249010
  0.0795188389878341  0.3831486078057370  0.7896638640649092
  0.9569701565725868  0.2630036092748456  0.2195391409927108
  0.8134263903865654  0.1974968426775594  0.3070980658446196
  0.0694294959636877  0.6567751102288647  0.3613521198054002
  0.4060789655570212  0.1671906212166638  0.1123475655126973
  0.6711620524049203  0.1187797627551096  0.7259894000638295
  0.7082629892819787  0.8406303565282046  0.7995181667286750
  0.4228840216914982  0.7248427464847486  0.3461832684189739
  0.2464751911047759  0.6614007307397015  0.3339033725376793
  0.4079490872195857  0.9461410750308759  0.9911844947530351
  0.6589623872359130  0.2577812604728952  0.6183535245507581
  0.3920389607013513  0.9198137403756649  0.6082594617380034
  0.6021464269147624  0.4228455601729471  0.6764633358788454
  0.6447577070577406  0.3268131921933070  0.0031524936706649
  0.6312892861421520  0.2613221534447222  0.8160910178570051
  0.0127019515475682  0.9622973573842032  0.4293675648117787
  0.5108311354069585  0.6481822422728742  0.5002003484943586
  0.8282673106962184  0.5884863343596901  0.1326798193848278
  0.3484598757081476  0.2822482379419878  0.9443356154151678
  0.0464684360993282  0.0686019488834343  0.6103424567897657
  0.6899261027994562  0.1527984165898144  0.9512377971018788
  0.2278024533801498  0.8895224504772580  0.0182716937410915
  0.4525058203193986  0.1237359235901971  0.9313541842513168
  0.2536174404002771  0.6044306853090136  0.7448696445255908
  0.9742374953700720  0.0723134465346864  0.7856525610176268
  0.4789608550132324  0.1013112057578698  0.7250508332640125
  0.0249447982603090  0.8093415981772125  0.2721596396339340
  0.2338297276071764  0.9214312550308406  0.8912289972890667
  0.8378518402366935  0.7383755716174191  0.1497697209515358
  0.6890193734821966  0.9824939844364372  0.0588412642059043
  0.0823736927632978  0.0557045706417969  0.9585089622583105
  0.0532548821654101  0.9078150848487715  0.8277041760553805
  0.2331188150735611  0.2267870726920287  0.8160438036799380
  0.1875832150590933  0.7092399185859927  0.1865297224733745
  0.7770094824281013  0.0661495837264771  0.2076228106989654
  0.9183635225605820  0.3434511434151752  0.8636546342672513
  0.3479303424573772  0.3666909624039603  0.4051367002939377
  0.4955077261441364  0.8504372476863562  0.4763891498235007
  0.5109025370214781  0.4202914867151712  0.9145682301580023
  0.8014506555374923  0.0082581132555122  0.8569494981283325
  0.9479512381719489  0.6863380030329894  0.9710678225418217
  0.2959238632347461  0.7576913931867695  0.5495020458272524
  0.8778378005440490  0.8949939451994214  0.1523500658078033
  0.4739431087655793  0.3132648906613897  0.3044852416600802
  0.6408681775854201  0.5842855682087807  0.8935260307704145
  0.1796706178154876  0.4459382225506055  0.6201740391444627
  0.9717987356025962  0.4400402945335880  0.2243927618641786
  0.4740752745954350  0.2740483804315596  0.6891728982358742
  0.1925858225259242  0.0690319669301923  0.4669926479744790
  0.5381445962597725  0.5659634015638928  0.4029569300614250
  0.0589561247359544  0.2045692420184115  0.8421112157247160
  0.7221022941292643  0.8610116783054926  0.0013604929141536
  0.9373168475647938  0.2281918400347801  0.5899965171215232
  0.4149748320091374  0.7016159959169330  0.1496176102480539
  0.8180316595664290  0.1737228801028801  0.5995446915503264
  0.8436133469070957  0.0783917209893902  0.0936104012651602
  0.5984524109315704  0.0135181016982106  0.8332902658332431
  0.9962238640398067  0.8314639488004825  0.5900941571832788
  0.2230892770425844  0.9195601547356400  0.7371118216808836
  0.1827505216108924  0.3856051364486852  0.8955645736492420
  0.4799506161720657  0.7363599587456289  0.6120291044564627
  0.7059369304501645  0.5090539685289068  0.4703896657748998
  0.3260834027995182  0.0669901648900838  0.1238759515728101
  0.6103657339367021  0.1591868488149926  0.1291951142154969
  0.8709529585466357  0.6219860063930251  0.5294030224781836
  0.8328635782090131  0.1846276514733217  0.8008182873691608
  0.1390593261134622  0.7703992563141550  0.7007034897765420
  0.7369502130917370  0.7278478217304030  0.9560810531277246
  0.3282870639736152  0.8993969119348919  0.4081287875326289
  0.4793972203755394  0.5819354073428709  0.0065530842687263
  0.5756370115298621  0.2532471405569425  0.4537827384939859
  0.5678859497400738  0.8966074465600047  0.8808104963752420
  0.1453561456657617  0.7958334657280660  0.4170834242598976
  0.5329240674370361  0.7660971678309290  0.9695724767001883
  0.2445407770779406  0.7426815515873421  0.8768244054271175
  0.2640097516030892  0.2806346141178004  0.0950334339861119
  0.1215392987799367  0.5268466174005022  0.1323348423912263
  0.9283251356869283  0.9516677097397722  0.9715709658376862
  0.3611270763328163  0.8706436560791673  0.2183972941676056
  0.8903120748912315  0.4926995962188681  0.4238860303161389
  0.4291233084255752  0.5156912713428367  0.2434060083405502
  0.9828782200596244  0.5215649241735455  0.5685809307877375
  0.6809020418158098  0.8087314302853614  0.4491121358380839
  0.7820247661674326  0.2512229387213237  0.1284976211605290
  0.1698732436304992  0.4406449758161414  0.0453564158150144
  0.6564172304813838  0.2895677001511164  0.2822401710500922
  0.5721146009571142  0.7151956363879104  0.7896104906501277
  0.9861279155620506  0.1915445209762988  0.1163728895845050
  0.0782933073177971  0.6531572052413493  0.5364404124661770
  0.8442646350371651  0.6046560507110560  0.8397473491343496
  0.4499332180943608  0.1518530964997027  0.2565690670621312
  0.9208117093122634  0.0298744769261958  0.5628661665479754
  0.4799424365249395  0.2969699895709567  0.0813396555151030
  0.2940906101449057  0.1180629437635633  0.3068473523670991
  0.3961186843699874  0.2240785115544400  0.4978432092471400
  0.0817379036854661  0.5636224578174702  0.2711885598507783
  0.8813344670809763  0.8109455616851959  0.8456413057891862
  0.6794891034019757  0.9678699522268358  0.4278316106860502
  0.3649345522880486  0.5885220891800569  0.6041773605789473
  0.5909812396582251  0.4873131543107091  0.0982726854849084
  0.0781525584629767  0.5756233352581454  0.7417483367093445
  0.5657276215460567 -0.0053756941677767  0.2274319848355948
  0.1305442539568490  0.2555801624777080  0.0226489050035522
  0.2392392574690306  0.2531612010685472  0.3978193427923158
  0.6216570039820607  0.6023011033668502  0.6252072919173549
  0.9565399070686630  0.3129046972287910  0.3732035483312904
  0.1650386076344245  0.1194227232471901  0.6652826523645228
  0.7543921258687610  0.9208933400663993  0.7097928825257732
  0.1250866229182647  0.5708233936781109  0.9194374022820315
  0.4928972187613542 -0.0013351626225903  0.1254268835038057
  0.8037354924644577  0.7676090852840222  0.3240043035766353
  0.3148708502614628  0.0694995330164802  0.7975507223171634
  0.0641407759387707  0.4856749226093753  0.4208715599220192
  0.7306043448994575  0.8876131827880830  0.2452341845377698
  0.7836661736283198  0.0397638056713939  0.4087783512759232
  0.7734245258224947  0.3234407907239312  0.4545893198530976
  0.6350982200810373  0.1080815064170495  0.3074142712844502
  0.5962392427529877  0.6381719253063310  0.2335846146780503
  0.9271310631095034  0.6929369817742184  0.6725757645703390
  0.7704967826274002  0.4356867307037972  0.9187510552151262
  0.2547893535662291  0.0960301461648003  0.9662479310391910
  0.9056898177196152  0.1429992240296880  0.9628938770876693
  0.2719003741527302  0.6263563394353937  0.0337777631755034
  0.6279430642102978  0.7283644526510253  0.3595882133775810
  0.5226178294639094  0.0941725513546863  0.5549187758301890
  0.9575815742865597  0.0731701646821345  0.2494885902281319
  0.0375133146420729  0.7929876037354372  0.0835405385662554
  0.2563141709581270  0.4866520478228152  0.3048394742931688
  0.3760202770508013  0.4203200680622137  0.5918464520218943
  0.0659654932694230  0.7306482007999735  0.8396652655802463
  0.5545805178407077  0.8149861641167433  0.1895359930988078
  0.8911792466302930  0.5998124985973476  0.3458020570083408
  0.8294136346595742  0.8713200373050612  0.5034700901731124
  0.9613698902524715  0.7467071464392538  0.4384788550450319
  0.7926321799753803  0.4104647475019636  0.2843762645716437
  0.8921038898374926  0.9283374126453403  0.3391749128155835
  0.8826530293890801  0.4118827968718594  0.5451937870933307
  0.4389953114534963  0.5732897564110420  0.7085938731571489
  0.1259595590935289  0.3469566504595927  0.2293298725126869
  0.6681343717987630  0.3990864914812615  0.1501932859442908
  0.4022587346334460  0.8546707077354171  0.7997056441784176
  0.4440224959143604  0.4605568849231615  0.4350564847009739
  0.1726276499036361  0.9514865359616677  0.3285514291488554
  0.3284113176044804  0.2973331465055202  0.2417277181051796
  0.3520796596765285  0.4076348825121955  0.7822355347526838
  0.7908735441035863  0.3385060886859393  0.7249038924454158
  0.7254376269743110  0.0175766501332529  0.5799726781211261
  0.4952996936859018  0.8747435618460114  0.0765266501675110
  0.1963436788476326  0.9319976351650128  0.5585312817850613
  0.0623635853385825  0.3226015742966222  0.5334111536033912
  0.9868491046487365  0.6287916102803719  0.1565654104331682
  0.9489914260059822  0.5170482882672887 -0.0191298557665412
  0.1741195769654122  0.1040243650678818  0.1497634008637616
  0.6015663826974914  0.4537788572120535  0.2958976379432307
  0.9873489312327902  0.4006856719581331  0.6952035833008288
  0.6259149028800373  0.4892451309109783  0.7931338148221347
  0.8120590468247026  0.4625476404954937  0.1015379737744920
  0.2506842535590966  0.5283221583482276  0.4770331714811927
  0.4024832060546816  0.6694448141311224  0.8691818323792805
  0.7448839121257518  0.6582560476861257  0.7771204339315271
  0.5520946746376294  0.2132957834307780  0.3296360057679424
  0.9790148382365387  0.6000890408399521  0.4510978776658393
  0.8729946403584693  0.1661039372025544  0.1922191401683753
  0.1580531638131872  0.8317745410001665  0.8205398611337610
  0.9342311954350625  0.5073337541522026  0.1179769009858699
  0.8851924483919195  0.7527164799360042  0.5491890191897818
  0.3738852929009011  0.2293722484953781  0.3547005503442610
  0.1679598695514389  0.5639327599387258  0.3759794128704966
  0.7033915457447889  0.1849019812407400  0.2163908582601528
  0.2891069950693016  0.1793272588512503  0.1870444657132903
  0.2032816833143408  0.5827483925080743  0.2227685254197779
  0.4275318054726759  0.1624591655637231  0.6184944926881417
  0.5341672607708697  0.6536589451752065  0.9077979830699061
  0.3392469891522494  0.1619540356951657  0.8844183095573350
  0.7703123373147145  0.8941064251952247  0.3731971317871715
 
  0.00000000E+00  0.00000000E+00  0.00000000E+00
  0.00000000E+00  0.00000000E+00  0.00000000E+00
  0.00000000E+00  0.00000000E+00  0.00000000E+00
  0.00000000E+00  0.00000000E+00  0.00000000E+00
  0.00000000E+00  0.00000000E+00  0.00000000E+00
  0.00000000E+00  0.00000000E+00  0.00000000E+00
  0.00000000E+00  0.00000000E+00  0.00000000E+00
  0.00000000E+00  0.00000000E+00  0.00000000E+00
  0.00000000E+00  0.00000000E+00  0.00000000E+00
  0.00000000E+00  0.00000000E+00  0.00000000E+00
  0.00000000E+00  0.00000000E+00  0.00000000E+00
  0.00000000E+00  0.00000000E+00  0.00000000E+00
  0.00000000E+00  0.00000000E+00  0.00000000E+00
  0.00000000E+00  0.00000000E+00  0.00000000E+00
  0.00000000E+00  0.00000000E+00  0.00000000E+00
  0.00000000E+00  0.00000000E+00  0.00000000E+00
  0.00000000E+00  0.00000000E+00  0.00000000E+00
  0.00000000E+00  0.00000000E+00  0.00000000E+00
  0.00000000E+00  0.00000000E+00  0.00000000E+00
  0.00000000E+00  0.00000000E+00  0.00000000E+00
  0.00000000E+00  0.00000000E+00  0.00000000E+00
  0.00000000E+00  0.00000000E+00  0.00000000E+00
  0.00000000E+00  0.00000000E+00  0.00000000E+00
  0.00000000E+00  0.00000000E+00  0.00000000E+00
  0.00000000E+00  0.00000000E+00  0.00000000E+00
  0.00000000E+00  0.00000000E+00  0.00000000E+00
  0.00000000E+00  0.00000000E+00  0.00000000E+00
  0.00000000E+00  0.00000000E+00  0.00000000E+00
  0.00000000E+00  0.00000000E+00  0.00000000E+00
  0.00000000E+00  0.00000000E+00  0.00000000E+00
  0.00000000E+00  0.00000000E+00  0.00000000E+00
  0.00000000E+00  0.00000000E+00  0.00000000E+00
  0.00000000E+00  0.00000000E+00  0.00000000E+00
  0.00000000E+00  0.00000000E+00  0.00000000E+00
  0.00000000E+00  0.00000000E+00  0.00000000E+00
  0.00000000E+00  0.00000000E+00  0.00000000E+00
  0.00000000E+00  0.00000000E+00  0.00000000E+00
  0.00000000E+00  0.00000000E+00  0.00000000E+00
  0.00000000E+00  0.00000000E+00  0.00000000E+00
  0.00000000E+00  0.00000000E+00  0.00000000E+00
  0.00000000E+00  0.00000000E+00  0.00000000E+00
  0.00000000E+00  0.00000000E+00  0.00000000E+00
  0.00000000E+00  0.00000000E+00  0.00000000E+00
  0.00000000E+00  0.00000000E+00  0.00000000E+00
  0.00000000E+00  0.00000000E+00  0.00000000E+00
  0.00000000E+00  0.00000000E+00  0.00000000E+00
  0.00000000E+00  0.00000000E+00  0.00000000E+00
  0.00000000E+00  0.00000000E+00  0.00000000E+00
  0.00000000E+00  0.00000000E+00  0.00000000E+00
  0.00000000E+00  0.00000000E+00  0.00000000E+00
  0.00000000E+00  0.00000000E+00  0.00000000E+00
  0.00000000E+00  0.00000000E+00  0.00000000E+00
  0.00000000E+00  0.00000000E+00  0.00000000E+00
  0.00000000E+00  0.00000000E+00  0.00000000E+00
  0.00000000E+00  0.00000000E+00  0.00000000E+00
  0.00000000E+00  0.00000000E+00  0.00000000E+00
  0.00000000E+00  0.00000000E+00  0.00000000E+00
  0.00000000E+00  0.00000000E+00  0.00000000E+00
  0.00000000E+00  0.00000000E+00  0.00000000E+00
  0.00000000E+00  0.00000000E+00  0.00000000E+00
  0.00000000E+00  0.00000000E+00  0.00000000E+00
  0.00000000E+00  0.00000000E+00  0.00000000E+00
  0.00000000E+00  0.00000000E+00  0.00000000E+00
  0.00000000E+00  0.00000000E+00  0.00000000E+00
  0.00000000E+00  0.00000000E+00  0.00000000E+00
  0.00000000E+00  0.00000000E+00  0.00000000E+00
  0.00000000E+00  0.00000000E+00  0.00000000E+00
  0.00000000E+00  0.00000000E+00  0.00000000E+00
  0.00000000E+00  0.00000000E+00  0.00000000E+00
  0.00000000E+00  0.00000000E+00  0.00000000E+00
  0.00000000E+00  0.00000000E+00  0.00000000E+00
  0.00000000E+00  0.00000000E+00  0.00000000E+00
  0.00000000E+00  0.00000000E+00  0.00000000E+00
  0.00000000E+00  0.00000000E+00  0.00000000E+00
  0.00000000E+00  0.00000000E+00  0.00000000E+00
  0.00000000E+00  0.00000000E+00  0.00000000E+00
  0.00000000E+00  0.00000000E+00  0.00000000E+00
  0.00000000E+00  0.00000000E+00  0.00000000E+00
  0.00000000E+00  0.00000000E+00  0.00000000E+00
  0.00000000E+00  0.00000000E+00  0.00000000E+00
  0.00000000E+00  0.00000000E+00  0.00000000E+00
  0.00000000E+00  0.00000000E+00  0.00000000E+00
  0.00000000E+00  0.00000000E+00  0.00000000E+00
  0.00000000E+00  0.00000000E+00  0.00000000E+00
  0.00000000E+00  0.00000000E+00  0.00000000E+00
  0.00000000E+00  0.00000000E+00  0.00000000E+00
  0.00000000E+00  0.00000000E+00  0.00000000E+00
  0.00000000E+00  0.00000000E+00  0.00000000E+00
  0.00000000E+00  0.00000000E+00  0.00000000E+00
  0.00000000E+00  0.00000000E+00  0.00000000E+00
  0.00000000E+00  0.00000000E+00  0.00000000E+00
  0.00000000E+00  0.00000000E+00  0.00000000E+00
  0.00000000E+00  0.00000000E+00  0.00000000E+00
  0.00000000E+00  0.00000000E+00  0.00000000E+00
  0.00000000E+00  0.00000000E+00  0.00000000E+00
  0.00000000E+00  0.00000000E+00  0.00000000E+00
  0.00000000E+00  0.00000000E+00  0.00000000E+00
  0.00000000E+00  0.00000000E+00  0.00000000E+00
  0.00000000E+00  0.00000000E+00  0.00000000E+00
  0.00000000E+00  0.00000000E+00  0.00000000E+00
  0.00000000E+00  0.00000000E+00  0.00000000E+00
  0.00000000E+00  0.00000000E+00  0.00000000E+00
  0.00000000E+00  0.00000000E+00  0.00000000E+00
  0.00000000E+00  0.00000000E+00  0.00000000E+00
  0.00000000E+00  0.00000000E+00  0.00000000E+00
  0.00000000E+00  0.00000000E+00  0.00000000E+00
  0.00000000E+00  0.00000000E+00  0.00000000E+00
  0.00000000E+00  0.00000000E+00  0.00000000E+00
  0.00000000E+00  0.00000000E+00  0.00000000E+00
  0.00000000E+00  0.00000000E+00  0.00000000E+00
  0.00000000E+00  0.00000000E+00  0.00000000E+00
  0.00000000E+00  0.00000000E+00  0.00000000E+00
  0.00000000E+00  0.00000000E+00  0.00000000E+00
  0.00000000E+00  0.00000000E+00  0.00000000E+00
  0.00000000E+00  0.00000000E+00  0.00000000E+00
  0.00000000E+00  0.00000000E+00  0.00000000E+00
  0.00000000E+00  0.00000000E+00  0.00000000E+00
  0.00000000E+00  0.00000000E+00  0.00000000E+00
  0.00000000E+00  0.00000000E+00  0.00000000E+00
  0.00000000E+00  0.00000000E+00  0.00000000E+00
  0.00000000E+00  0.00000000E+00  0.00000000E+00
  0.00000000E+00  0.00000000E+00  0.00000000E+00
  0.00000000E+00  0.00000000E+00  0.00000000E+00
  0.00000000E+00  0.00000000E+00  0.00000000E+00
  0.00000000E+00  0.00000000E+00  0.00000000E+00
  0.00000000E+00  0.00000000E+00  0.00000000E+00
  0.00000000E+00  0.00000000E+00  0.00000000E+00
  0.00000000E+00  0.00000000E+00  0.00000000E+00
  0.00000000E+00  0.00000000E+00  0.00000000E+00
  0.00000000E+00  0.00000000E+00  0.00000000E+00
  0.00000000E+00  0.00000000E+00  0.00000000E+00
  0.00000000E+00  0.00000000E+00  0.00000000E+00
  0.00000000E+00  0.00000000E+00  0.00000000E+00
  0.00000000E+00  0.00000000E+00  0.00000000E+00
  0.00000000E+00  0.00000000E+00  0.00000000E+00
  0.00000000E+00  0.00000000E+00  0.00000000E+00
  0.00000000E+00  0.00000000E+00  0.00000000E+00
  0.00000000E+00  0.00000000E+00  0.00000000E+00
  0.00000000E+00  0.00000000E+00  0.00000000E+00
  0.00000000E+00  0.00000000E+00  0.00000000E+00
  0.00000000E+00  0.00000000E+00  0.00000000E+00
  0.00000000E+00  0.00000000E+00  0.00000000E+00
  0.00000000E+00  0.00000000E+00  0.00000000E+00
  0.00000000E+00  0.00000000E+00  0.00000000E+00
  0.00000000E+00  0.00000000E+00  0.00000000E+00
  0.00000000E+00  0.00000000E+00  0.00000000E+00
  0.00000000E+00  0.00000000E+00  0.00000000E+00
  0.00000000E+00  0.00000000E+00  0.00000000E+00
  0.00000000E+00  0.00000000E+00  0.00000000E+00
  0.00000000E+00  0.00000000E+00  0.00000000E+00
  0.00000000E+00  0.00000000E+00  0.00000000E+00
  0.00000000E+00  0.00000000E+00  0.00000000E+00
  0.00000000E+00  0.00000000E+00  0.00000000E+00
  0.00000000E+00  0.00000000E+00  0.00000000E+00
  0.00000000E+00  0.00000000E+00  0.00000000E+00
  0.00000000E+00  0.00000000E+00  0.00000000E+00
  0.00000000E+00  0.00000000E+00  0.00000000E+00
  0.00000000E+00  0.00000000E+00  0.00000000E+00
  0.00000000E+00  0.00000000E+00  0.00000000E+00
  0.00000000E+00  0.00000000E+00  0.00000000E+00
  0.00000000E+00  0.00000000E+00  0.00000000E+00
  0.00000000E+00  0.00000000E+00  0.00000000E+00
  0.00000000E+00  0.00000000E+00  0.00000000E+00
  0.00000000E+00  0.00000000E+00  0.00000000E+00
  0.00000000E+00  0.00000000E+00  0.00000000E+00
  0.00000000E+00  0.00000000E+00  0.00000000E+00
  0.00000000E+00  0.00000000E+00  0.00000000E+00
  0.00000000E+00  0.00000000E+00  0.00000000E+00
  0.00000000E+00  0.00000000E+00  0.00000000E+00
  0.00000000E+00  0.00000000E+00  0.00000000E+00
  0.00000000E+00  0.00000000E+00  0.00000000E+00
  0.00000000E+00  0.00000000E+00  0.00000000E+00
  0.00000000E+00  0.00000000E+00  0.00000000E+00
  0.00000000E+00  0.00000000E+00  0.00000000E+00
  0.00000000E+00  0.00000000E+00  0.00000000E+00
  0.00000000E+00  0.00000000E+00  0.00000000E+00
  0.00000000E+00  0.00000000E+00  0.00000000E+00
  0.00000000E+00  0.00000000E+00  0.00000000E+00
  0.00000000E+00  0.00000000E+00  0.00000000E+00
  0.00000000E+00  0.00000000E+00  0.00000000E+00
  0.00000000E+00  0.00000000E+00  0.00000000E+00
  0.00000000E+00  0.00000000E+00  0.00000000E+00
  0.00000000E+00  0.00000000E+00  0.00000000E+00
  0.00000000E+00  0.00000000E+00  0.00000000E+00
  0.00000000E+00  0.00000000E+00  0.00000000E+00
  0.00000000E+00  0.00000000E+00  0.00000000E+00
  0.00000000E+00  0.00000000E+00  0.00000000E+00
  0.00000000E+00  0.00000000E+00  0.00000000E+00
  0.00000000E+00  0.00000000E+00  0.00000000E+00
  0.00000000E+00  0.00000000E+00  0.00000000E+00
  0.00000000E+00  0.00000000E+00  0.00000000E+00
  0.00000000E+00  0.00000000E+00  0.00000000E+00
  0.00000000E+00  0.00000000E+00  0.00000000E+00
  0.00000000E+00  0.00000000E+00  0.00000000E+00
  0.00000000E+00  0.00000000E+00  0.00000000E+00
  0.00000000E+00  0.00000000E+00  0.00000000E+00
  0.00000000E+00  0.00000000E+00  0.00000000E+00
  0.00000000E+00  0.00000000E+00  0.00000000E+00
  0.00000000E+00  0.00000000E+00  0.00000000E+00
  0.00000000E+00  0.00000000E+00  0.00000000E+00
  0.00000000E+00  0.00000000E+00  0.00000000E+00
  0.00000000E+00  0.00000000E+00  0.00000000E+00
  0.00000000E+00  0.00000000E+00  0.00000000E+00
  0.00000000E+00  0.00000000E+00  0.00000000E+00
  0.00000000E+00  0.00000000E+00  0.00000000E+00
  0.00000000E+00  0.00000000E+00  0.00000000E+00
  0.00000000E+00  0.00000000E+00  0.00000000E+00
  0.00000000E+00  0.00000000E+00  0.00000000E+00
  0.00000000E+00  0.00000000E+00  0.00000000E+00
  0.00000000E+00  0.00000000E+00  0.00000000E+00
  0.00000000E+00  0.00000000E+00  0.00000000E+00
  0.00000000E+00  0.00000000E+00  0.00000000E+00
  0.00000000E+00  0.00000000E+00  0.00000000E+00
  0.00000000E+00  0.00000000E+00  0.00000000E+00
  0.00000000E+00  0.00000000E+00  0.00000000E+00
  0.00000000E+00  0.00000000E+00  0.00000000E+00
  0.00000000E+00  0.00000000E+00  0.00000000E+00
  0.00000000E+00  0.00000000E+00  0.00000000E+00
  0.00000000E+00  0.00000000E+00  0.00000000E+00
  0.00000000E+00  0.00000000E+00  0.00000000E+00
  0.00000000E+00  0.00000000E+00  0.00000000E+00
  0.00000000E+00  0.00000000E+00  0.00000000E+00
  0.00000000E+00  0.00000000E+00  0.00000000E+00
  0.00000000E+00  0.00000000E+00  0.00000000E+00
  0.00000000E+00  0.00000000E+00  0.00000000E+00
  0.00000000E+00  0.00000000E+00  0.00000000E+00
  0.00000000E+00  0.00000000E+00  0.00000000E+00
  0.00000000E+00  0.00000000E+00  0.00000000E+00
  0.00000000E+00  0.00000000E+00  0.00000000E+00
  0.00000000E+00  0.00000000E+00  0.00000000E+00
  0.00000000E+00  0.00000000E+00  0.00000000E+00
  0.00000000E+00  0.00000000E+00  0.00000000E+00