Ge5 Te4 Se1
1.0
  -2.1015380000000001    2.1015380000000001   15.1048120000000008
   2.1015380000000001   -2.1015380000000001   15.1048120000000008
   2.1015380000000001    2.1015380000000001  -15.1048120000000008
Ge Te Se
5 4 1
direct
   0.8000039999999990    0.8000039999999990    0.0000000000000000 Ge
   0.1999959999999990    0.1999959999999990    0.0000000000000000 Ge
   0.5988450000000000    0.5988450000000000    0.0000000000000000 Ge
   0.0000000000000000    0.0000000000000000    0.0000000000000000 Ge
   0.4011550000000000    0.4011550000000000    0.0000000000000000 Ge
   0.9001610000000000    0.9001610000000000    0.0000000000000000 Te
   0.3001459999999990    0.3001459999999990    0.0000000000000000 Te
   0.6998540000000000    0.6998540000000000    0.0000000000000000 Te
   0.0998390000000000    0.0998390000000000    0.0000000000000000 Te
   0.5000000000000000    0.5000000000000000    0.0000000000000000 Se
