Ge Se                                   
   1.00000000000000     
    20.2740058898925781    0.0000000000000000    0.0000000000000000
     0.0000000000000000   20.2740058898925781    0.0000000000000000
     0.0000000000000000    0.0000000000000000   20.2740058898925781
   Ge   Se
   150   150
Direct
  0.8933435969481269  0.0654588234567526  0.6888313838873498
  0.3356636565216577  0.0319711544103302  0.3557823453505523
  0.1601015202647544  0.5249971962459185  0.7413302260336706
  0.9210567013930958  0.1255320733578490  0.9332089641140332
  0.7557410302463903  0.1794363490092742  0.6741477369690285
  0.4297172556711072  0.0619983312781002  0.0518605879577520
  0.1152354065748081  0.4099810085542722  0.1133310589017527
  0.8640702007738593  0.8322360749140590  0.2011958994222315
  0.9159537648255414  0.2461307010506976  0.5098221636548752
  0.4650291716191865  0.7148442541751153  0.6145185639659286
  0.5297564049546076  0.1867006408656937  0.5334257042479613
 -0.0014460426294198  0.9159327466620485  0.4435541039521919
  0.7114485755187500  0.2849639148679621  0.7353340153916573
  0.2080908450892749  0.6009112894813596  0.1006840562333049
  0.7353166549149925  0.4619520249294069  0.3214810156385359
  0.0013297969501983  0.2452427574254911  0.0320446944707899
  0.6233859096017432  0.0681788233770546  0.0207409206476893
  0.7177302447635728  0.9873978420323927  0.3891851057262761
  0.2399775182412679  0.3924665089388376  0.3251929698542837
  0.7908518535812964  0.3270585565167349  0.8992049819655747
  0.6733578016264204  0.6405240763609953  0.1259505953302958
  0.7681789991412968  0.1062437415400675  0.2065101589405723
  0.5026250673667069  0.4617777568702345  0.3792743097648634
  0.7478128269543890  0.5848618577367137  0.7156794388325555
  0.3982681108378399  0.4733298594436826  0.2424109103366546
  0.7346686377519225  0.8677080401914873  0.6773860445575748
  0.6652361500657770  0.1140385910012605  0.1315377201932943
  0.9572233046766251  0.5011934052354706  0.4198098903419069
  0.5028331973009260  0.5158145649905163  0.8953772688244873
  0.3657668969537544  0.0173409756763021  0.5328880341382545
  0.9154607347587134  0.6727816914782164  0.7647693000597220
  0.1951762412720859  0.8182969753468655  0.7922485757251599
  0.3802369288566946  0.8497006851062694  0.5174739737724904
  0.5876490480985631  0.8254979203347814  0.8021311471546936
  0.1652569619507162  0.9720987996867521  0.3998144006138137
  0.5065042999756957  0.0189347010402488  0.7742060233792536
  0.7731705081300685  0.6358911691361964  0.9185774509161376
  0.3830392962257583  0.4941314398124546  0.0446357816667363
  0.3197747481391570  0.3720891658564477  0.2225720892671173
  0.5956940426695818  0.1986771040442026  0.9046295819549653
  0.4744477634805268  0.7691383175459912  0.3258307227961219
  0.2403237680704301  0.8573809108392529  0.3567832509796205
  0.9377536352650411  0.2508726149259760  0.7360275051230253
  0.2234269327802927  0.2311659992373631  0.0549309471551146
  0.7048134512688526  0.4334671871512320  0.0568380659304017
  0.8746382293448253  0.6242619786121971  0.1568211119883340
  0.2974796249297360  0.4170472108921493  0.1057230223506990
  0.2476450692606708  0.2835335286130587  0.5033668401864958
  0.7229661834384178  0.8089933764842654  0.9451410705903924
  0.2168331530895127  0.8222136644169887  0.2011205883446317
  0.3698471353640706  0.9100170619932313  0.6879247259472385
  0.7310047864813894  0.7538507258751876  0.0674522483882966
  0.1493954218297692  0.8123350078386878  0.0913410085303213
  0.1178422041492357  0.3032210654211079  0.6336000348211216
  0.7781513467630259  0.5812875783372914  0.4491194459287958
  0.3674343995463251  0.5781164786301389  0.7021802976663546
  0.5909037937414778  0.3199723745798932  0.6559399877431596
  0.6865306732360159  0.0245606655882343  0.9132085283708916
  0.7486934662867234  0.2906607506354483  0.1908592427032221
  0.0564330291593033  0.4242981812850625  0.3144380449185559
  0.3787821443553160 -0.0030255791510970  0.8671895846718202
  0.0457271048688354  0.5610083564154975  0.0506131142372171
  0.7176952303976419  0.2028471417094522  0.4800134922771594
  0.1279707793555502  0.5480013786024375  0.4549976239270623
  0.2070450053745287  0.3837311288432892  0.8264571821525399
  0.3297064261001328  0.5766850511404604  0.8245474500881176
  0.2393537160405721  0.0266793786662056  0.6956791546890321
  0.6018734219732862  0.5632047198267873  0.3858193093617416
  0.8899647743672937  0.4846309880816070  0.7086248434924649
  0.0429592005285193  0.0557507830403637  0.2039399875148481
  0.5216130036344411  0.2514617029994520  0.8197364127779075
  0.7864592843538013  0.8461985213804742  0.3239350788793450
  0.1895172527474946  0.7151632835442071  0.2579930439327860
  0.2532278086422403  0.5394907848899160  0.3538775288928199
  0.5527528822177709  0.7989644113345421  0.9856421643598364
  0.3742091394620281  0.2166568173679874  0.1583224637502571
  0.1625676808442980  0.8040965062012655  0.9194833001103948
  0.0963210424060379  0.6835272430668634  0.0637952667581336
  0.8529936503716679  0.0060518620506951  0.2147975048225209
  0.6797209005682500  0.4348007337720513  0.4997862833201007
  0.8280676871680107  0.2772343130544139  0.3417038967935153
  0.6260142814171152  0.9679899202314090  0.2966449450385998
  0.5183087177282711  0.6097871209281236  0.1076390195334526
  0.4413917648863182  0.7569970492903321  0.8754698818772936
  0.5129641605713147  0.0276142658353559  0.2723261115546460
  0.8534137673400102  0.8575226321320624  0.7353357193156267
  0.1290315469165284  0.9370618153439051  0.1064036760860322
  0.4218809915094963  0.3145886150302215  0.5910537007095140
  0.7909424061855888  0.0146442925589448  0.4999914863384762
  0.8881740383455523  0.8166878007941701  0.5126190845292629
  0.6349155965783454  0.6174618922558439  0.9756822025535690
  0.9563192513658163  0.6963147694523212  0.0789756733744984
  0.6973892821610069  0.2586573322050345  0.9499996503185305
  0.9336186681192997  0.5793031080543481  0.2807073426991163
  0.0177577820429542  0.9518220913679256  0.7534143647135420
  0.1501323731915301  0.1249096281087735  0.1710443761756344
  0.3870477048005238  0.2521492784218747  0.3685723534474105
  0.5731848523679315  0.9342261705917815  0.6696371232505851
  0.6011350637764864  0.3364835392853531  0.7779397207214589
  0.2395634938605731  0.4825571324777198  0.9395104097360978
  0.9613577040455740  0.0512462873879331  0.3811886120705159
  0.5861315752667284  0.0462726425643454  0.4299474651321371
  0.1019661370299444  0.1234205893577144  0.7058029504262683
  0.0195540473393931  0.7208193578549044  0.4140849850095296
  0.5108305193743143  0.6190888444307291  0.2742682223471161
  0.7935003378344492  0.1461311819461527  0.8282096287909095
  0.4053048099473688  0.6953300051081673  0.4213695028141430
  0.9702130349037446  0.5682116788761217  0.8918575801585955
  0.2287705713944555  0.4008168962682302  0.5983657915536473
  0.2327271713169485  0.1716060392421554  0.7658565295268174
  0.2433281532599569  0.1455519442985959  0.3097581502856394
  0.9020526082087719  0.4034955261962884 -0.0045673056510034
  0.9452448677612567  0.3610911608237903  0.2958100379485062
  0.0540376382590558  0.3873632973510290  0.9083178848438396
  0.6301652162361606  0.8460513732372804  0.4957935379124492
  0.6534805984629970  0.9232168840756511  0.0867154898569120
  0.2795025743650500  0.9421922682579663  0.9800910575940556
  0.3638223939157094  0.7321525717972986  0.1417724630178257
  0.1662162783721668  0.2149646151547538  0.9261911835261657
  0.0190653723119717  0.7440992340744348  0.8946818437638342
  0.9661440853412018  0.8809236460665567  0.3237124266814104
  0.3361574426171747  0.7395317038020711  0.7607363524614696
  0.5913256056423392  0.4655674734443920  0.7969625327963865
  0.8939379304827081  0.8603608523317848  0.0132971542100440
  0.0541005478579083  0.4160075098981214  0.5462016776268676
  0.2742374858809494  0.6881856808115445  0.5748054440016341
  0.1771991534622068  0.9408651094228638  0.2239937585377925
  0.1050723975056577  0.2767795091448109  0.3910967354662109
  0.2864429282210110  0.0658066862045660  0.1192749596337966
  0.4459728936282114  0.1762601448141843  0.7444056175889938
  0.9156796868115979  0.4413514233839207  0.1434342475058246
  0.6815348587992484  0.2341582042022403  0.1054259392063698
  0.5927426591805348  0.6636984941744114  0.5586237380282887
  0.3222984800689597  0.1114403902393510  0.8981181012389297
  0.3249710338762711  0.1494329676473494  0.0178384623294520
  0.9972854194545325  0.7217259375916829  0.2528217884966278
  0.3800097719015703  0.3873211299007396  0.7974098600340745
  0.8550547216843827  0.7914485970771339  0.8460909667561531
  0.0477700756789979  0.0817535780695201  0.0209051357282720
  0.2530967953330621  0.1726336191789384  0.5702584035963234
  0.0516184008050408  0.8490031984553708  0.6874389799912843
  0.6702623096867237  0.7601619198947844  0.6520962935712892
  0.5989123865008527  0.1928106203433946  0.2965090036475383
  0.8849718581517551  0.6232950726386497  0.6028038328917802
  0.4049802360019103  0.4618327057475713  0.4911131888513775
  0.2986462927882599  0.5270458923916314  0.4717743905123689
  0.4071867929657611  0.2173334169941248  0.5091197560529688
  0.5132044830737349  0.4939512794195048  0.6342816209907970
  0.2227248115775309  0.6656026683167516  0.3707390592063305
  0.7797772863972575  0.1679367403373773  0.3804040328308650
  0.7164141192872016  0.1263879511183338  0.5710606599206086
  0.6095578601558456  0.8007549407920899  0.0934181477322225
  0.0702419770852425  0.9928801776634293  0.8540608231897351
  0.5531227508628450  0.7000293823069259  0.9181217156376379
  0.5561454851605475  0.5274443651018532  0.0131217409745139
  0.1605736607277087  0.2661046868170946  0.8105855643803584
  0.9350914217389699  0.8093876751486282  0.6628675411285316
  0.8083598151817007  0.5218933688016455  0.6181634847940800
  0.2082464479491149  0.4884360496357464  0.1568685001076492
  0.7670723696992469  0.2003400923723457  0.0276899771624116
  0.9474187740111450  0.4440964433432244  0.8832661576967579
  0.3417024870600990  0.9130026159536052  0.3822551473879382
  0.1267573311388682  0.6864847090182530  0.9351393881303794
  0.4437958715346370  0.6708455082527686  0.7392211499969727
  0.8842548356537289  0.7377899688428134  0.9902344246154615
  0.0843498117761516  0.9752095107568143  0.2945737019890645
  0.6359134791222775  0.3249602154054264  0.0359180329886210
  0.4099798889315954  0.5570798484571308  0.1513496551068150
  0.7114122374995575  0.7286034250750980  0.2084288944394121
  0.0559387872133310  0.8429418122479694  0.9614804564156817
  0.7144520732006920  0.5912088577043914  0.3413455058386625
  0.0821232977107268  0.7674359329302544  0.7786018130670090
  0.9379198498033433  0.0920568057316090  0.2606159300981269
  0.5521660753718118  0.1652506393439930  0.0099259098697395
  0.4754988795092474  0.7748161690739728  0.4856847981342083
  0.8151864861591931  0.6900106690931535  0.6880065322980708
  0.8798861066705012  0.4664553044356404  0.2727698533343411
  0.2588351009196889  0.2310307986969486  0.1794920993370005
  0.6785655929035251  0.9296687528316933  0.5870069518959130
  0.3532808219833896  0.7774469143402133  0.6201505081621500
  0.8653354258334252  0.2138338732129698  0.6387317277146179
  0.2744095084576479  0.6495816427230944  0.1962929372885881
  0.6069139432263494  0.2440699257965580  0.4586825911937255
  0.5646547954429523  0.2024506527709180  0.6475099045804639
  0.3703615601448643  0.4855286322116146  0.8967883293728240
  0.9803889394274373  0.2439730242303645  0.3897224879991551
  0.1274760993754306  0.2515617389098722  0.5156865403837022
  0.5559785730505643  0.8048227905827303  0.6550196911348911
  0.9351172378484731  0.3794701266460606  0.5316443578161540
  0.2606279262552441  0.2707468881469894  0.3739145582094371
  0.0288712235826623  0.1413849971156377  0.4318378862217516
  0.4382367403953911  0.8195419093405661  0.9875980571119457
  0.7999150840269473  0.2946630465218922  0.4747153435840772
  0.3340328696296764  0.6845454437805546  0.8827068036456495
  0.5687041484033900  0.8689733757134622  0.3516442248262166
  0.4478005729478714  0.9352645261707198  0.5899707590772216
  0.0454872482402850  0.1883592893002116  0.9284889553630424
  0.2000323223535574  0.1051723487632644  0.8825982759216716
  0.2446977293687344  0.8211128982344685  0.0144438480784249
  0.2510035334437783  0.4394472802106705  0.7202386336388089
  0.8122716506576797  0.8883163635555433  0.9160818904854126
  0.7416248751094061  0.8733231502448457  0.4405636868468233
  0.1426955524575922  0.3626169783988806  0.2533106461648761
  0.9309084391808414  0.5640503616108047  0.0108117752744411
  0.6797064415942790  0.5648210332581333  0.8752425507121941
  0.5440842218732030  0.9885822227856513  0.0668806736588530
  0.6437397203914055  0.1132236490030497  0.8381008379291913
  0.5211015407432245  0.4016706891860641  0.9408704228400011
  0.5286112637728533  0.0673300832865715  0.5359707372233473
  0.1678423930041557  0.0900795452821978  0.6014758175061227
  0.2341190484102079  0.0721254743481689  0.4214220111535447
  0.1817215343177865  0.0054542696920747  0.0234650872459907
  0.0139831325088643  0.9738976748164461  0.1152834038780797
  0.4050049674578332  0.2892584246638784  0.7057024827238143
  0.7894397959878380  0.4565122751087784  0.4384934773254302
  0.3448811811347386  0.2060510722477435  0.8249865114292446
  0.2782481458417341  0.9530303345957664  0.6037627378522813
  0.5744780225448688  0.6989693221602982  0.3466372757758734
  0.7859648097755569  0.4355957088500200  0.9549643691297656
  0.4200396753157876  0.2967747963444226  0.2346767718652864
  0.8616428925778414  0.1048242517144941  0.4440830084477217
  0.7627260920310144  0.0730937605702654  0.7297492391365721
  0.8900934988550550  0.7960884893400916  0.3798187518598386
  0.3686922548388917  0.1331740499341321  0.5995450016164218
  0.2618718065268176  0.6519209149549842  0.6994028562193602
  0.8069788710670821  0.0579114500242428  0.9137586496686713
  0.3956219647499103  0.2442134004091312  0.0449205363133947
  0.7776417473213433  0.3976654956034238  0.1498981251604668
  0.6950233507067091  0.9350698936419436  0.2049853166415843
  0.0818371115852234  0.9934048441283893  0.4842619594753657
  0.4479543527910901  0.3218105070317101  0.8886985730061695
  0.1270254453380839  0.1642076126264135  0.2849981230150995
  0.6234600729677426  0.5526012543155402  0.5093428772034900
  0.0951717153140441  0.6595358674090703  0.2079855115668680
  0.2341055268883399  0.3503439907422359  0.0264166834842357
  0.2910387604919251  0.7544322514101872  0.4218040700955521
  0.2092802333976027  0.5679729827149798  0.8490907089946641
  0.2365971295325104  0.2566294555823033  0.6596165402709536
  0.8252310458425248  0.7107889349916621  0.2327710274328636
  0.4839095571666479  0.8943611767883179  0.7923482096842327
  0.3545794067358898  0.9652552503477125  0.0814667534041301
  0.0452290820904421  0.5492889265214469  0.3351457736950588
  0.0226089519403795  0.5381164657471514  0.5237199930428094
  0.2651096621501909  0.0204118123454313  0.2479965964949883
  0.7052694835503903  0.3340579176451732  0.6243082676040769
  0.4697281933799877  0.4644961796792744  0.7522465294895071
  0.2927717835793926  0.5781185432135953  0.0146981094967355
  0.8951274076577499  0.9651923637369729  0.7753277922092726
  0.1087587165725664  0.4014771954649784  0.4232409226387827
  0.5103032365277416  0.4379180822303054  0.2607037186068938
  0.3709784289167820  0.6171158123195957  0.5241503773091563
  0.6286618055615223  0.4920585354252384  0.6812489304083722
  0.8976447661940783  0.2898261037330976  0.9365564284445672
  0.7973233290026399  0.8604201428837289  0.0969871453254028
  0.0163155367243870  0.8082474774601099  0.5063455698102024
  0.8060084477370865  0.3433507561131638  0.7804729185122897
  0.0285430090709520  0.0327339938837266  0.6632259491447027
  0.1088126058518954  0.4736249496437742  0.9892268480005846
  0.9647486611985461  0.3330395721199783  0.1790950104839492
  0.3794833239128474  0.0275890518675398  0.7429182316313693
  0.3346932640345454  0.8286276190530182  0.2117038492559614
  0.3763010321744095  0.5506196396328489  0.3335277762583686
  0.4753251854944495  0.7238043173348753  0.2062793320612989
  0.1367675921152364  0.6760637040835193  0.4566956184268125
  0.6924643332708759  0.7399329043269975  0.5334439393446455
  0.6387510018482182  0.6449177407955693  0.6785562660143214
  0.8368532009227287  0.2099303836580565  0.2048627940399196
  0.1094786725614924  0.2264517153321139  0.1060629267769603
  0.6247212821705770  0.4222340539272152  0.3872944615692339
  0.9751285946235483  0.8011436120637891  0.1524730841275121
  0.7409131745125415  0.7391016406822694  0.8436711751954317
  0.2111479151803248  0.5251543756779234  0.5582881327878370
  0.8311922815354117  0.9650326327535130  0.3308051966608141
  0.5055098537346591  0.9513927563451157  0.4089102750183410
  0.6657766346585290  0.9190494117615255  0.7632177084493387
  0.5277840219371872  0.3791423350478147  0.5721472573141897
  0.0323764903135526  0.5020280585214510  0.1567135100095396
  0.4297446334571888  0.3554964520470836  0.4227275223136792
  0.6201281022823560  0.8777664123422378  0.9225833120872829
  0.8556086049265912  0.5838627147730733  0.8372081760789544
  0.9700958370945797  0.5836478951800147  0.6901755879185874
  0.0325368225287659  0.2125159309385102  0.6523707220135654
  0.8937114162843997  0.6084287299215794  0.3981274079239522
  0.0655346183963875  0.7993265990224991  0.3248878828527679
  0.9425540825026220  0.1384059808114969  0.0633980110377393
  0.5142383786099552  0.1210167314936573  0.3578137145291183
  0.7753982865121106  0.5740014854944037  0.1113932569696580
  0.9050651757658522  0.9417758408563619  0.5180115020537686
  0.6997449746788753  0.1082072083947879  0.3104064977095132
  0.9228550699240308  0.1348077174477929  0.7899188564042303
  0.3563399930066666  0.4171678146935957  0.5966683450725265
  0.1750590207863318  0.9405367939470564  0.7729659293309250
  0.9797043763251372  0.0117502296335599  0.9372044652786888
  0.5637171181784153  0.1226859978363043  0.1963794605883062
  0.5988529988554390  0.5646353154279301  0.1928466607781276
  0.4810892433671844  0.0630064803512485  0.8857897134491493
  0.7139618072655568  0.3108804671528673  0.3039654128786149
  0.4011808683972754  0.1004312514666604  0.1746079072322848
  0.9544505489962527  0.3906677951446186  0.6485560172656104
  0.0949545868408711  0.4249138045405514  0.7955224901386736
 
  0.00000000E+00  0.00000000E+00  0.00000000E+00
  0.00000000E+00  0.00000000E+00  0.00000000E+00
  0.00000000E+00  0.00000000E+00  0.00000000E+00
  0.00000000E+00  0.00000000E+00  0.00000000E+00
  0.00000000E+00  0.00000000E+00  0.00000000E+00
  0.00000000E+00  0.00000000E+00  0.00000000E+00
  0.00000000E+00  0.00000000E+00  0.00000000E+00
  0.00000000E+00  0.00000000E+00  0.00000000E+00
  0.00000000E+00  0.00000000E+00  0.00000000E+00
  0.00000000E+00  0.00000000E+00  0.00000000E+00
  0.00000000E+00  0.00000000E+00  0.00000000E+00
  0.00000000E+00  0.00000000E+00  0.00000000E+00
  0.00000000E+00  0.00000000E+00  0.00000000E+00
  0.00000000E+00  0.00000000E+00  0.00000000E+00
  0.00000000E+00  0.00000000E+00  0.00000000E+00
  0.00000000E+00  0.00000000E+00  0.00000000E+00
  0.00000000E+00  0.00000000E+00  0.00000000E+00
  0.00000000E+00  0.00000000E+00  0.00000000E+00
  0.00000000E+00  0.00000000E+00  0.00000000E+00
  0.00000000E+00  0.00000000E+00  0.00000000E+00
  0.00000000E+00  0.00000000E+00  0.00000000E+00
  0.00000000E+00  0.00000000E+00  0.00000000E+00
  0.00000000E+00  0.00000000E+00  0.00000000E+00
  0.00000000E+00  0.00000000E+00  0.00000000E+00
  0.00000000E+00  0.00000000E+00  0.00000000E+00
  0.00000000E+00  0.00000000E+00  0.00000000E+00
  0.00000000E+00  0.00000000E+00  0.00000000E+00
  0.00000000E+00  0.00000000E+00  0.00000000E+00
  0.00000000E+00  0.00000000E+00  0.00000000E+00
  0.00000000E+00  0.00000000E+00  0.00000000E+00
  0.00000000E+00  0.00000000E+00  0.00000000E+00
  0.00000000E+00  0.00000000E+00  0.00000000E+00
  0.00000000E+00  0.00000000E+00  0.00000000E+00
  0.00000000E+00  0.00000000E+00  0.00000000E+00
  0.00000000E+00  0.00000000E+00  0.00000000E+00
  0.00000000E+00  0.00000000E+00  0.00000000E+00
  0.00000000E+00  0.00000000E+00  0.00000000E+00
  0.00000000E+00  0.00000000E+00  0.00000000E+00
  0.00000000E+00  0.00000000E+00  0.00000000E+00
  0.00000000E+00  0.00000000E+00  0.00000000E+00
  0.00000000E+00  0.00000000E+00  0.00000000E+00
  0.00000000E+00  0.00000000E+00  0.00000000E+00
  0.00000000E+00  0.00000000E+00  0.00000000E+00
  0.00000000E+00  0.00000000E+00  0.00000000E+00
  0.00000000E+00  0.00000000E+00  0.00000000E+00
  0.00000000E+00  0.00000000E+00  0.00000000E+00
  0.00000000E+00  0.00000000E+00  0.00000000E+00
  0.00000000E+00  0.00000000E+00  0.00000000E+00
  0.00000000E+00  0.00000000E+00  0.00000000E+00
  0.00000000E+00  0.00000000E+00  0.00000000E+00
  0.00000000E+00  0.00000000E+00  0.00000000E+00
  0.00000000E+00  0.00000000E+00  0.00000000E+00
  0.00000000E+00  0.00000000E+00  0.00000000E+00
  0.00000000E+00  0.00000000E+00  0.00000000E+00
  0.00000000E+00  0.00000000E+00  0.00000000E+00
  0.00000000E+00  0.00000000E+00  0.00000000E+00
  0.00000000E+00  0.00000000E+00  0.00000000E+00
  0.00000000E+00  0.00000000E+00  0.00000000E+00
  0.00000000E+00  0.00000000E+00  0.00000000E+00
  0.00000000E+00  0.00000000E+00  0.00000000E+00
  0.00000000E+00  0.00000000E+00  0.00000000E+00
  0.00000000E+00  0.00000000E+00  0.00000000E+00
  0.00000000E+00  0.00000000E+00  0.00000000E+00
  0.00000000E+00  0.00000000E+00  0.00000000E+00
  0.00000000E+00  0.00000000E+00  0.00000000E+00
  0.00000000E+00  0.00000000E+00  0.00000000E+00
  0.00000000E+00  0.00000000E+00  0.00000000E+00
  0.00000000E+00  0.00000000E+00  0.00000000E+00
  0.00000000E+00  0.00000000E+00  0.00000000E+00
  0.00000000E+00  0.00000000E+00  0.00000000E+00
  0.00000000E+00  0.00000000E+00  0.00000000E+00
  0.00000000E+00  0.00000000E+00  0.00000000E+00
  0.00000000E+00  0.00000000E+00  0.00000000E+00
  0.00000000E+00  0.00000000E+00  0.00000000E+00
  0.00000000E+00  0.00000000E+00  0.00000000E+00
  0.00000000E+00  0.00000000E+00  0.00000000E+00
  0.00000000E+00  0.00000000E+00  0.00000000E+00
  0.00000000E+00  0.00000000E+00  0.00000000E+00
  0.00000000E+00  0.00000000E+00  0.00000000E+00
  0.00000000E+00  0.00000000E+00  0.00000000E+00
  0.00000000E+00  0.00000000E+00  0.00000000E+00
  0.00000000E+00  0.00000000E+00  0.00000000E+00
  0.00000000E+00  0.00000000E+00  0.00000000E+00
  0.00000000E+00  0.00000000E+00  0.00000000E+00
  0.00000000E+00  0.00000000E+00  0.00000000E+00
  0.00000000E+00  0.00000000E+00  0.00000000E+00
  0.00000000E+00  0.00000000E+00  0.00000000E+00
  0.00000000E+00  0.00000000E+00  0.00000000E+00
  0.00000000E+00  0.00000000E+00  0.00000000E+00
  0.00000000E+00  0.00000000E+00  0.00000000E+00
  0.00000000E+00  0.00000000E+00  0.00000000E+00
  0.00000000E+00  0.00000000E+00  0.00000000E+00
  0.00000000E+00  0.00000000E+00  0.00000000E+00
  0.00000000E+00  0.00000000E+00  0.00000000E+00
  0.00000000E+00  0.00000000E+00  0.00000000E+00
  0.00000000E+00  0.00000000E+00  0.00000000E+00
  0.00000000E+00  0.00000000E+00  0.00000000E+00
  0.00000000E+00  0.00000000E+00  0.00000000E+00
  0.00000000E+00  0.00000000E+00  0.00000000E+00
  0.00000000E+00  0.00000000E+00  0.00000000E+00
  0.00000000E+00  0.00000000E+00  0.00000000E+00
  0.00000000E+00  0.00000000E+00  0.00000000E+00
  0.00000000E+00  0.00000000E+00  0.00000000E+00
  0.00000000E+00  0.00000000E+00  0.00000000E+00
  0.00000000E+00  0.00000000E+00  0.00000000E+00
  0.00000000E+00  0.00000000E+00  0.00000000E+00
  0.00000000E+00  0.00000000E+00  0.00000000E+00
  0.00000000E+00  0.00000000E+00  0.00000000E+00
  0.00000000E+00  0.00000000E+00  0.00000000E+00
  0.00000000E+00  0.00000000E+00  0.00000000E+00
  0.00000000E+00  0.00000000E+00  0.00000000E+00
  0.00000000E+00  0.00000000E+00  0.00000000E+00
  0.00000000E+00  0.00000000E+00  0.00000000E+00
  0.00000000E+00  0.00000000E+00  0.00000000E+00
  0.00000000E+00  0.00000000E+00  0.00000000E+00
  0.00000000E+00  0.00000000E+00  0.00000000E+00
  0.00000000E+00  0.00000000E+00  0.00000000E+00
  0.00000000E+00  0.00000000E+00  0.00000000E+00
  0.00000000E+00  0.00000000E+00  0.00000000E+00
  0.00000000E+00  0.00000000E+00  0.00000000E+00
  0.00000000E+00  0.00000000E+00  0.00000000E+00
  0.00000000E+00  0.00000000E+00  0.00000000E+00
  0.00000000E+00  0.00000000E+00  0.00000000E+00
  0.00000000E+00  0.00000000E+00  0.00000000E+00
  0.00000000E+00  0.00000000E+00  0.00000000E+00
  0.00000000E+00  0.00000000E+00  0.00000000E+00
  0.00000000E+00  0.00000000E+00  0.00000000E+00
  0.00000000E+00  0.00000000E+00  0.00000000E+00
  0.00000000E+00  0.00000000E+00  0.00000000E+00
  0.00000000E+00  0.00000000E+00  0.00000000E+00
  0.00000000E+00  0.00000000E+00  0.00000000E+00
  0.00000000E+00  0.00000000E+00  0.00000000E+00
  0.00000000E+00  0.00000000E+00  0.00000000E+00
  0.00000000E+00  0.00000000E+00  0.00000000E+00
  0.00000000E+00  0.00000000E+00  0.00000000E+00
  0.00000000E+00  0.00000000E+00  0.00000000E+00
  0.00000000E+00  0.00000000E+00  0.00000000E+00
  0.00000000E+00  0.00000000E+00  0.00000000E+00
  0.00000000E+00  0.00000000E+00  0.00000000E+00
  0.00000000E+00  0.00000000E+00  0.00000000E+00
  0.00000000E+00  0.00000000E+00  0.00000000E+00
  0.00000000E+00  0.00000000E+00  0.00000000E+00
  0.00000000E+00  0.00000000E+00  0.00000000E+00
  0.00000000E+00  0.00000000E+00  0.00000000E+00
  0.00000000E+00  0.00000000E+00  0.00000000E+00
  0.00000000E+00  0.00000000E+00  0.00000000E+00
  0.00000000E+00  0.00000000E+00  0.00000000E+00
  0.00000000E+00  0.00000000E+00  0.00000000E+00
  0.00000000E+00  0.00000000E+00  0.00000000E+00
  0.00000000E+00  0.00000000E+00  0.00000000E+00
  0.00000000E+00  0.00000000E+00  0.00000000E+00
  0.00000000E+00  0.00000000E+00  0.00000000E+00
  0.00000000E+00  0.00000000E+00  0.00000000E+00
  0.00000000E+00  0.00000000E+00  0.00000000E+00
  0.00000000E+00  0.00000000E+00  0.00000000E+00
  0.00000000E+00  0.00000000E+00  0.00000000E+00
  0.00000000E+00  0.00000000E+00  0.00000000E+00
  0.00000000E+00  0.00000000E+00  0.00000000E+00
  0.00000000E+00  0.00000000E+00  0.00000000E+00
  0.00000000E+00  0.00000000E+00  0.00000000E+00
  0.00000000E+00  0.00000000E+00  0.00000000E+00
  0.00000000E+00  0.00000000E+00  0.00000000E+00
  0.00000000E+00  0.00000000E+00  0.00000000E+00
  0.00000000E+00  0.00000000E+00  0.00000000E+00
  0.00000000E+00  0.00000000E+00  0.00000000E+00
  0.00000000E+00  0.00000000E+00  0.00000000E+00
  0.00000000E+00  0.00000000E+00  0.00000000E+00
  0.00000000E+00  0.00000000E+00  0.00000000E+00
  0.00000000E+00  0.00000000E+00  0.00000000E+00
  0.00000000E+00  0.00000000E+00  0.00000000E+00
  0.00000000E+00  0.00000000E+00  0.00000000E+00
  0.00000000E+00  0.00000000E+00  0.00000000E+00
  0.00000000E+00  0.00000000E+00  0.00000000E+00
  0.00000000E+00  0.00000000E+00  0.00000000E+00
  0.00000000E+00  0.00000000E+00  0.00000000E+00
  0.00000000E+00  0.00000000E+00  0.00000000E+00
  0.00000000E+00  0.00000000E+00  0.00000000E+00
  0.00000000E+00  0.00000000E+00  0.00000000E+00
  0.00000000E+00  0.00000000E+00  0.00000000E+00
  0.00000000E+00  0.00000000E+00  0.00000000E+00
  0.00000000E+00  0.00000000E+00  0.00000000E+00
  0.00000000E+00  0.00000000E+00  0.00000000E+00
  0.00000000E+00  0.00000000E+00  0.00000000E+00
  0.00000000E+00  0.00000000E+00  0.00000000E+00
  0.00000000E+00  0.00000000E+00  0.00000000E+00
  0.00000000E+00  0.00000000E+00  0.00000000E+00
  0.00000000E+00  0.00000000E+00  0.00000000E+00
  0.00000000E+00  0.00000000E+00  0.00000000E+00
  0.00000000E+00  0.00000000E+00  0.00000000E+00
  0.00000000E+00  0.00000000E+00  0.00000000E+00
  0.00000000E+00  0.00000000E+00  0.00000000E+00
  0.00000000E+00  0.00000000E+00  0.00000000E+00
  0.00000000E+00  0.00000000E+00  0.00000000E+00
  0.00000000E+00  0.00000000E+00  0.00000000E+00
  0.00000000E+00  0.00000000E+00  0.00000000E+00
  0.00000000E+00  0.00000000E+00  0.00000000E+00
  0.00000000E+00  0.00000000E+00  0.00000000E+00
  0.00000000E+00  0.00000000E+00  0.00000000E+00
  0.00000000E+00  0.00000000E+00  0.00000000E+00
  0.00000000E+00  0.00000000E+00  0.00000000E+00
  0.00000000E+00  0.00000000E+00  0.00000000E+00
  0.00000000E+00  0.00000000E+00  0.00000000E+00
  0.00000000E+00  0.00000000E+00  0.00000000E+00
  0.00000000E+00  0.00000000E+00  0.00000000E+00
  0.00000000E+00  0.00000000E+00  0.00000000E+00
  0.00000000E+00  0.00000000E+00  0.00000000E+00
  0.00000000E+00  0.00000000E+00  0.00000000E+00
  0.00000000E+00  0.00000000E+00  0.00000000E+00
  0.00000000E+00  0.00000000E+00  0.00000000E+00
  0.00000000E+00  0.00000000E+00  0.00000000E+00
  0.00000000E+00  0.00000000E+00  0.00000000E+00
  0.00000000E+00  0.00000000E+00  0.00000000E+00
  0.00000000E+00  0.00000000E+00  0.00000000E+00
  0.00000000E+00  0.00000000E+00  0.00000000E+00
  0.00000000E+00  0.00000000E+00  0.00000000E+00
  0.00000000E+00  0.00000000E+00  0.00000000E+00
  0.00000000E+00  0.00000000E+00  0.00000000E+00
  0.00000000E+00  0.00000000E+00  0.00000000E+00
  0.00000000E+00  0.00000000E+00  0.00000000E+00
  0.00000000E+00  0.00000000E+00  0.00000000E+00
  0.00000000E+00  0.00000000E+00  0.00000000E+00
  0.00000000E+00  0.00000000E+00  0.00000000E+00
  0.00000000E+00  0.00000000E+00  0.00000000E+00
  0.00000000E+00  0.00000000E+00  0.00000000E+00
  0.00000000E+00  0.00000000E+00  0.00000000E+00
  0.00000000E+00  0.00000000E+00  0.00000000E+00
  0.00000000E+00  0.00000000E+00  0.00000000E+00
  0.00000000E+00  0.00000000E+00  0.00000000E+00
  0.00000000E+00  0.00000000E+00  0.00000000E+00
  0.00000000E+00  0.00000000E+00  0.00000000E+00
  0.00000000E+00  0.00000000E+00  0.00000000E+00
  0.00000000E+00  0.00000000E+00  0.00000000E+00