Amorphous Sb                            
   1.00000000000000     
    20.8191714401205630    0.0000000000000000    0.0000000000000000
     0.0000000000000000   20.8191714401205630    0.0000000000000000
     0.0000000000000000    0.0000000000000000   20.8191714401205630
   Si   Te
   150   150
Direct
  0.5309821961176054  0.5006844116584881  0.7895167209443605
  0.6949701453929936  0.4324889825912550  0.5499317571669561
  0.6316828036074282  0.6125218833001463  0.8780320818300421
  0.6324640052116050  0.1143184428530515  0.9446483978798249
  0.5665829504517410  0.0549163174311162  0.3738475002516541
  0.4697149691450975  0.4072772937121524  0.9850753399728348
  0.3017164916520263  0.4980418323048873  0.9666293356608487
  0.5583091724011315  0.0396195017826326  0.4875995803833081
  0.8684923410345948  0.5336499145097615  0.5981402668558304
  0.2192074523397418  0.9725951928339887  0.6447504907592396
  0.8175096308283780  0.3704480644713938  0.0662403936022409
  0.8506908155053650  0.3481741400900727  0.5465762759324717
  0.3135452388614181  0.0992248790529897  0.8265469917065890
  0.1654375871675049  0.0039765911642547  0.7415484463228882
  0.5510731957325967  0.2288065898807639  0.0422751740052193
  0.4283517360994900  0.2028094201763323  0.9412804022077484
  0.9519447707216202  0.7341105460196360  0.8151442821498260
  0.8040592969201963  0.6270803469420068  0.3047240904223479
  0.1166921726253436  0.5790842210392952  0.3800045529827617
  0.0441831387625305  0.5065233422704860  0.6681464066349129
  0.4020637551182754  0.2637013372963435  0.4060569411089647
  0.8575256498665585  0.8960590309247789  0.8460896761913909
  0.0064767471404950  0.6661350051885117  0.0132321037073295
  0.6587087988155995  0.4401013771167179  0.0258048985939788
  0.5274369949206764  0.1440844054437450  0.9018260609673252
  0.6109855518552453  0.5006087420739387  0.8728790833278445
  0.3960498539425216  0.0992785790233918  0.1340740910001303
  0.1825127119432121  0.1904344754352180  0.1429843775848209
  0.2670879014189167  0.8616101850154361  0.0333450394996429
  0.7963469968158544  0.3474463931918029  0.3480894512590291
  0.2169616590011601  0.8614637690486920  0.9286469652847621
  0.4953293526573961  0.3288438065289314  0.8394876305928686
  0.9319286578398425  0.5137340210012091  0.6917860888529229
  0.8785283333176876  0.8657440973598757  0.3096678034884196
  0.0055932271594757  0.9890495071423814  0.2595212000069002
  0.9776814811284446  0.6987152608145190  0.2746391631450773
  0.3359027095094166  0.5386503844924064  0.6189217514487032
  0.5440482691205872  0.9329949987536292  0.2795469927692520
  0.6434041295665229  0.7271117994369006  0.0236181940673790
  0.4493277187249121  0.0057331928304622  0.8039203770033662
  0.8986595670585250  0.0535246091362004  0.1003157694277130
  0.5964586929936224  0.3278834180502417  0.8865215190657542
  0.7261468387781420  0.7897034960024770  0.3675373941011303
  0.7607385785074834  0.0276572386630356  0.8333247493071090
  0.6385909715980893  0.9019692776775003  0.9198097138238531
  0.6500551545495622  0.0149415051668104  0.8833055489312660
  0.9898413101519749  0.3880011169795392  0.0774992383955721
  0.0003538091309828  0.5968398462239393  0.1065820388265278
  0.9897639622442796  0.3463969217902922  0.7429845299523136
  0.7960144877736686  0.7994770029223927  0.8433592776133749
  0.5501789697475070  0.5679709388515791  0.0561747423458569
  0.4898453863340189  0.7255539813800873  0.5055275734500376
  0.8898432704654773  0.6887605204146560  0.3530803772167601
  0.0025248291836672  0.2251119924383662  0.0866308801846077
  0.3068895959940657  0.1126261541294022  0.0048490742171387
  0.6390914623284965  0.8140318986666623  0.1918485997448790
  0.5607870133360681  0.1472535426605982  0.2201373620798666
  0.6270061786336751  0.9595841020623399  0.3505935233074941
  0.6155138852981118  0.1918882489583706  0.1267208206394489
  0.4887655133168909  0.5735199331517252  0.7111830361549398
  0.4530827291119045  0.1572409782393541  0.0446868295562509
  0.6334069476508269  0.4322232933615148  0.4486779474953160
  0.3514955489015149  0.0005767396054761  0.8667094595929243
  0.3723836201778222  0.5824834195268080  0.7181458013839119
  0.9097173218267731  0.3642292548878897  0.9986156264694618
  0.7121177020826865  0.0425797409675249  0.2236324399149455
  0.2893443447704365  0.4430372577341500  0.8658522126251943
  0.8595417609481201  0.7062162699066449  0.8766049370523071
  0.8421306319406759  0.7877907819522936  0.3830531621783423
  0.0032562396171473  0.6331585134489561  0.8201939802479118
  0.5598054664634556  0.5853655088625468  0.3551531066297287
  0.0510198162396227  0.5427449708619765  0.5585361318362345
  0.8069744300467313  0.4561599467416599  0.5392852048838237
  0.3945744947557238  0.4132373545502688  0.7115507009733649
  0.3376270941008992  0.6856276198914316  0.9865597214401536
  0.5621331650640645  0.4764963746530340  0.9761894562705783
  0.7217385960773233  0.9531812473167910  0.2876078900146739
  0.0756771072672974  0.0094827266461474  0.6694208432499620
  0.0281986734585661  0.7904270457835119  0.2264327618753684
  0.6402112860225878  0.2721834566222296  0.9767391148478479
  0.3717382299064566  0.0207225354737890  0.9765335364221380
  0.4240523796993136  0.2397127915354683  0.2283409907427531
  0.1657054148733910  0.3236676269793909  0.8327186946448479
  0.8714623057582400  0.0513422961501462  0.7023134795287594
  0.9877838165775781  0.1203183249701826  0.1240687132297522
  0.9504331483472376  0.8039844363634134  0.5687367660257756
  0.7197592334185797  0.8428050400758711  0.2663010928307133
  0.9929656703701122  0.8778368305825452  0.2910126684641127
  0.9105200467861740  0.6003590488046390  0.7614455075910354
  0.5709559475402527  0.6711079661016158  0.4387793343663193
  0.1061644345118666  0.9460798670967550  0.8174955707804163
  0.4422366892773257  0.8410786144222560  0.9924365789492353
  0.4988785634719528  0.3991586934220755  0.7506648440510415
  0.9527770891840954  0.6989665630993830  0.6134241128388044
  0.5846156102478717  0.8654029413065709  0.4588482519857430
  0.4457132953028246  0.9544325027760016  0.3330224814164069
  0.3298151322361125  0.3371420246109458  0.8576468582004764
  0.1101847914820095  0.2282080592323413  0.0562462470552954
  0.7046356851012040  0.3387047062496449  0.0491247477519132
  0.9619296272024980  0.3085727776559857  0.1501373507184013
  0.1220097990925835  0.1474127037637060  0.2361672905484541
  0.3499727852972922  0.4915744895035140  0.7823811237101096
  0.6542822228891626  0.3786207339551517  0.7196135922896681
  0.0676229639120052  0.2535156441243893  0.5118727859139365
  0.9043680913437873  0.7048691726022025  0.7167678598699068
  0.0621748621084306  0.3580167608796930  0.5630795585028637
  0.0452978371830443  0.6096606808411128  0.2938368484347976
  0.6057817011086402  0.1481653722889364  0.3250377702593185
  0.3959084704392610  0.4843165048731975  0.0320220124460901
  0.3892399613161202  0.1444804412191631  0.3970405175994379
  0.3668223747033095  0.9231366643690946  0.0363679745361254
  0.4491651210914284  0.1282265259735699  0.2338239163821774
  0.9589873283940072  0.4947152676435489  0.0627118571611162
  0.8348475981147634  0.9893854976161017  0.9151414357177516
  0.6389981923388179  0.7667541368655242  0.4383763330849145
  0.7642186433164168  0.5296199429183601  0.3522492533705952
  0.3182147438649680  0.1750465469119727  0.9108728103628640
  0.9497678264604250  0.6013138703976814  0.5496817177958844
  0.6741164117581494  0.8353718607210090  0.0058682312169192
  0.4568922248661763  0.0697526949468070  0.3373776477565626
  0.9990893033583979  0.2221202657592363  0.9039316184307564
  0.6599342627509124  0.4025802670449807  0.8324137555762932
  0.6559321652933967  0.5315026907788543  0.3933194984218661
  0.9368288752402022  0.6252043491301229  0.1968251417051068
  0.4093326357524049  0.4529693594375698  0.6029738798260060
  0.6894373037175038  0.9035726188700592  0.4307911219274883
  0.4336743895109241  0.3795701132564320  0.5158629188804842
  0.8501812457949121  0.2922538481260046  0.1420809554655031
  0.1069381173460091  0.0352050209727070  0.2243791978028042
  0.5138209035650696  0.5377139495180666  0.1639796050569410
  0.5178225885862222  0.4054667356644177  0.4375496376226073
  0.9311067832133215  0.0839241049892302  0.4984829470608797
  0.9831966354156525  0.0472306051127648  0.3569959460713460
  0.4812374686252113  0.8984681357429920  0.4266448622746685
  0.9893015364514445  0.0693658905887289  0.7161909082815699
  0.1265659066898094  0.1880893224228646  0.3459840477589310
  0.0487538251344396  0.8979979735956298  0.6657993536263955
  0.2993093364229786  0.1590077269648196  0.1099255711798774
  0.5458023625204159  0.6763779347539255  0.0126732401429131
  0.2507027909011693  0.2701904648492090  0.8997150779672087
  0.0717659282731791  0.3878847326776045  0.6743506740073957
  0.1014852397625244  0.4518541689875695  0.5093285718842010
  0.2858265603700570  0.6856300842783672  0.3288781483159101
  0.8202026385898299  0.9618524563790611  0.7582128659899815
  0.5032212241124715  0.3058279661849718  0.3767525557909820
  0.4221027440009457  0.3194400570198188  0.9226417886666798
  0.5486224882839863  0.0505528732411718  0.8384735975827733
  0.9409155862488539  0.2555460838341380  0.9960906457957981
  0.9504962927967084  0.2427395022597786  0.7223700256152061
  0.1459923921446730  0.3835586953030548  0.1462727626513312
  0.3821164468513868  0.7689254339979089  0.9101922634509682
  0.3996028584030753  0.9752636718446821  0.1451655658920465
  0.6919401447867153  0.2834618956908075  0.1590228909369859
  0.9737830230429012  0.6569588116491266  0.4388808878753042
  0.6074081426608098  0.4690641222626154  0.2064299393247748
  0.8822404395031697  0.2408662738506819  0.6177843841954841
  0.5978480796309201  0.0830059169608265  0.7305201483157880
  0.3305485691260014  0.3544626759611638  0.4539603269851326
  0.4375119760608631  0.5026112739409420  0.8701496799439197
  0.4616042398830528  0.9740138917162200  0.5211629248773388
  0.0947165530954458  0.6005073651488164  0.7384354215828056
  0.3440282486240416  0.6198130658009654  0.4173200245973736
  0.9255174648474490  0.0508828769156076  0.9765164627776166
  0.1059742854098841  0.8376275327142468  0.7568068218265909
  0.5106506049439008  0.5207498547450465  0.6024890864587207
  0.7437070692457862  0.2997928404054112  0.6963127113118504
  0.0788990332477683  0.7637109914717697  0.0186668036575117
  0.4627460733396573  0.2633748690232015  0.5379372677914815
  0.7167250840775969  0.1980739164482085  0.9118366360925727
  0.7970671381690956  0.8300969008711701  0.0074263965906970
  0.3381800060351617  0.2889248323440546  0.2961679287964443
  0.0698133437051534  0.4586853018570319  0.3922414900365032
  0.9759931575301642  0.7806631718700370  0.1158737927778087
  0.5230068938429450  0.3433782519809642  0.0812446108572244
  0.8797418162519581  0.3099251896288250  0.4307670128003898
  0.5254410129618471  0.3060709815847528  0.2537537381140865
  0.6591108974968838  0.9774064955294668  0.5293704701831604
  0.2770843536312898  0.7445540873950685  0.0748157372881629
  0.8251107981968182  0.8196697683373499  0.2097466336119060
  0.1845380207531832  0.2547540345508971  0.5397612208556759
  0.8133163080944102  0.5978899428390808  0.8354439036991160
  0.7140907070478518  0.3079231309630229  0.5626440738846374
  0.3447691065573646  0.7590431570915757  0.2540159667342581
  0.9388915252098490  0.9541667502817315  0.1610189694717825
  0.1573824722449507  0.9127114229869311  0.4168029680762385
  0.4966736909506880  0.0461724548858280  0.9937578147251063
  0.0407994353623986  0.3333705627155873  0.8594469380922078
  0.1688933101380527  0.3179710051508160  0.7090546482958288
  0.9652438149427384  0.8424470885680009  0.8729050027282941
  0.3042723341404708  0.5792938815681634  0.2717427825136160
  0.6868759767318448  0.3271961999452734  0.4033946387568857
  0.8398214477988529  0.2627285432049138  0.2672035762066325
  0.5295518253876363  0.8164602138946161  0.2466292125436373
  0.7250231856917209  0.1315478500677510  0.3081970403495636
  0.8059924689285300  0.1038133974165300  0.1674808377479693
  0.9431824142873021  0.4689416112136230  0.9411889820594642
  0.0915448795821640  0.0571916293062518  0.1015747701747460
  0.4160072318267969  0.1211369818703475  0.7592986155551004
  0.1056311805559970  0.3557922261980424  0.0300262310662657
  0.8162881421409003  0.7094683684424741  0.5484524157186113
  0.8252673652759608  0.9704027199644795  0.3501019042667720
  0.6817125762030433  0.4833105064081212  0.6619017288799708
  0.7021148520332924  0.1085048350154291  0.5618301324207410
  0.1528178616578426  0.7872596175745991  0.2248511842384870
  0.2482972785520993  0.4461193789643399  0.1422248955763551
  0.2541552256684942  0.8529382437617734  0.4830084772253485
  0.2815264906956426  0.6085722775811712  0.9102450235424411
  0.4114361279811100  0.4669341718561523  0.1557749384118573
  0.5646578418943591  0.1254843197982165  0.5712692102914629
  0.3252637038493091  0.0904573173492374  0.4860910394988014
  0.5472422280067084  0.6803963776733861  0.7159500117567628
  0.7808357781916300  0.1232327650935501  0.7535044489992830
  0.8609598052718556  0.8441826107111293  0.4926368417883860
  0.7872995185731630  0.4410767195856191  0.2710614679280303
  0.0783894405779731  0.7120560194796551  0.6406130691529227
  0.0536792236808967  0.5927399251514885  0.9232681535620197
  0.0609220763621757  0.4472342787204869  0.2063369830622455
  0.8475528295514756  0.4812046137242937  0.1154739500792225
  0.6132271366363328  0.9499031517894663  0.7142142828603110
  0.2139900491239957  0.9752590045971095  0.2209929303826044
  0.9040462305793041  0.1930317364544783  0.8281979281737252
  0.5164080517520573  0.8814423950324397  0.8999868598438276
  0.0725690076531139  0.8333170047637161  0.5605803060065420
  0.2221861154772923  0.4749735332442768  0.5041193520961640
  0.0454305607506511  0.8299118555887026  0.3925644392114143
  0.1240216862529265  0.6288120931453940  0.4978932917447267
  0.5678418228076121  0.2314567247389520  0.8108953916593348
  0.2076395427568420  0.1162103272895751  0.7678104348990551
  0.9279592592111636  0.8759950046788089  0.6666646265985859
  0.8839434465680821  0.6834094666820933  0.9965436647057113
  0.6333217999083812  0.8969231956098319  0.1031427695211623
  0.7530308418608985  0.4826522372684329  0.9560281186692901
  0.3380357815580647  0.8942670651777557  0.3072634335261999
  0.6693450187890564  0.6398039536875375  0.7649953968324595
  0.2200459911168303  0.0325135836573816  0.9823543097565264
  0.4210941879057672  0.7102251501096096  0.6125755774557076
  0.2054724432032071  0.5055219674562454  0.3360332426266745
  0.5095318261652438  0.6302155890105724  0.2484479523861771
  0.9568544746889005  0.4204360974544379  0.5562624083911860
  0.2134824047406090  0.5298026642954898  0.0442606713875034
  0.1698052596024844  0.7160571080098517  0.3514561185956882
  0.7484907462769740  0.9250386374873720  0.6682776465177902
  0.7697827345872413  0.3742349180650420  0.8809092991167335
  0.5661720905811276  0.2109609219633219  0.4226917397900624
  0.0008588411608399  0.0133640859228786  0.8253479101941523
  0.6495907516624121  0.5961908895756770  0.4978111321788616
  0.6665342149295953  0.7065259011012532  0.1426417511941379
  0.3758171956488983  0.2598822159127823  0.1122855198796398
  0.5482950167079205  0.8181524480411307  0.5691944736934886
  0.4123146503553571  0.6077891496364479  0.0539572099741969
  0.2635486743547827  0.0146974869673180  0.3471437654470363
  0.8173075145462093  0.6332689313635097  0.1834213734244226
  0.3017728201992778  0.1412935562915330  0.3036802775610014
  0.5247274191939939  0.6720104729681751  0.8923425724469699
  0.9727363428984944  0.9756196133521190  0.4590318206662789
  0.1809630918808418  0.2916175303904883  0.2157226390490928
  0.1766729662974653  0.7510247134581335  0.9016535234539542
  0.4749681776308016  0.4955660415629383  0.3647121795245075
  0.5866109587843175  0.0247734846502564  0.1919923967143293
  0.4709095886069781  0.9216182685185864  0.7216157002600478
  0.2842704757434750  0.9030481444385806  0.8317251861124598
  0.6940279137223246  0.6800809071138421  0.3106654889930341
  0.0465145484922066  0.2721130805370458  0.3920739987787435
  0.8362229801077141  0.2089555155387747  0.0469768762350310
  0.6729441810860968  0.8128263685186626  0.8391100007637922
  0.3170480198237257  0.6456119916968940  0.5533121390105724
  0.6844579764871107  0.7648053016700094  0.5548962144971094
  0.0978357695173713  0.0762102848419888  0.3893777960541082
  0.6664068749575858  0.0979893071625556  0.0629474906791008
  0.8937914761904349  0.4182906967449022  0.7582585416680198
  0.9958981237287593  0.1560902127470075  0.2416001808268169
  0.7985735285310056  0.7655843867227159  0.7217849267974989
  0.4195830505694249  0.7921014684271633  0.4277352417844599
  0.3397640061083483  0.9847064015087350  0.6402782556781494
  0.8423071944937841  0.0416675144396440  0.5787642266555099
  0.2251194591704345  0.4938764545539827  0.6396925399107329
  0.7767769583395592  0.6071800449534612  0.6289743562775815
  0.9012005504593907  0.1331142782687925  0.3896077899233536
  0.2264957063404594  0.2038984607701232  0.4166302666646240
  0.3525439699593261  0.3016621983390806  0.7408560604101579
  0.2252790566023262  0.8516584086118295  0.6174625550580575
  0.1702351124354399  0.8889656044083071  0.1045426967535990
  0.1051818697842982  0.1673771455425038  0.9463443164747921
  0.8490032549024982  0.5094471889248608  0.4376615052870985
  0.7139983700481483  0.6419835569372887  0.9682173062292529
  0.3747418264702768  0.1121170112302317  0.6154902133915977
  0.1030629101093299  0.6031737627747308  0.1771758199561501
  0.1118028264722941  0.9272138903066373  0.9378271753223041
  0.9475858842192161  0.5349409854731941  0.2823836007733253
  0.1680138394306552  0.4434456245670411  0.8590474555051427
  0.0215619060241988  0.1452594248822862  0.5546789814139322
  0.5546895035779456  0.3345604704787331  0.6636152936303248
  0.2638899564498840  0.3260521652038388  0.0058872975974656
  0.0527336434084793  0.1770125801470932  0.7202356139476112
  0.9868531679801162  0.3461719719638986  0.2610269214687551
  0.3251831744219468  0.6899114564552891  0.7335188931289605
  0.4838099788735672  0.7628132108680116  0.0783406342042907
  0.6726079815932439  0.5339027387716863  0.1067027644780086
  0.7703412047255541  0.9622031140561269  0.0161896487094915
  0.1458444905238107  0.0396312929298091  0.5731061574431431
 
  0.00000000E+00  0.00000000E+00  0.00000000E+00
  0.00000000E+00  0.00000000E+00  0.00000000E+00
  0.00000000E+00  0.00000000E+00  0.00000000E+00
  0.00000000E+00  0.00000000E+00  0.00000000E+00
  0.00000000E+00  0.00000000E+00  0.00000000E+00
  0.00000000E+00  0.00000000E+00  0.00000000E+00
  0.00000000E+00  0.00000000E+00  0.00000000E+00
  0.00000000E+00  0.00000000E+00  0.00000000E+00
  0.00000000E+00  0.00000000E+00  0.00000000E+00
  0.00000000E+00  0.00000000E+00  0.00000000E+00
  0.00000000E+00  0.00000000E+00  0.00000000E+00
  0.00000000E+00  0.00000000E+00  0.00000000E+00
  0.00000000E+00  0.00000000E+00  0.00000000E+00
  0.00000000E+00  0.00000000E+00  0.00000000E+00
  0.00000000E+00  0.00000000E+00  0.00000000E+00
  0.00000000E+00  0.00000000E+00  0.00000000E+00
  0.00000000E+00  0.00000000E+00  0.00000000E+00
  0.00000000E+00  0.00000000E+00  0.00000000E+00
  0.00000000E+00  0.00000000E+00  0.00000000E+00
  0.00000000E+00  0.00000000E+00  0.00000000E+00
  0.00000000E+00  0.00000000E+00  0.00000000E+00
  0.00000000E+00  0.00000000E+00  0.00000000E+00
  0.00000000E+00  0.00000000E+00  0.00000000E+00
  0.00000000E+00  0.00000000E+00  0.00000000E+00
  0.00000000E+00  0.00000000E+00  0.00000000E+00
  0.00000000E+00  0.00000000E+00  0.00000000E+00
  0.00000000E+00  0.00000000E+00  0.00000000E+00
  0.00000000E+00  0.00000000E+00  0.00000000E+00
  0.00000000E+00  0.00000000E+00  0.00000000E+00
  0.00000000E+00  0.00000000E+00  0.00000000E+00
  0.00000000E+00  0.00000000E+00  0.00000000E+00
  0.00000000E+00  0.00000000E+00  0.00000000E+00
  0.00000000E+00  0.00000000E+00  0.00000000E+00
  0.00000000E+00  0.00000000E+00  0.00000000E+00
  0.00000000E+00  0.00000000E+00  0.00000000E+00
  0.00000000E+00  0.00000000E+00  0.00000000E+00
  0.00000000E+00  0.00000000E+00  0.00000000E+00
  0.00000000E+00  0.00000000E+00  0.00000000E+00
  0.00000000E+00  0.00000000E+00  0.00000000E+00
  0.00000000E+00  0.00000000E+00  0.00000000E+00
  0.00000000E+00  0.00000000E+00  0.00000000E+00
  0.00000000E+00  0.00000000E+00  0.00000000E+00
  0.00000000E+00  0.00000000E+00  0.00000000E+00
  0.00000000E+00  0.00000000E+00  0.00000000E+00
  0.00000000E+00  0.00000000E+00  0.00000000E+00
  0.00000000E+00  0.00000000E+00  0.00000000E+00
  0.00000000E+00  0.00000000E+00  0.00000000E+00
  0.00000000E+00  0.00000000E+00  0.00000000E+00
  0.00000000E+00  0.00000000E+00  0.00000000E+00
  0.00000000E+00  0.00000000E+00  0.00000000E+00
  0.00000000E+00  0.00000000E+00  0.00000000E+00
  0.00000000E+00  0.00000000E+00  0.00000000E+00
  0.00000000E+00  0.00000000E+00  0.00000000E+00
  0.00000000E+00  0.00000000E+00  0.00000000E+00
  0.00000000E+00  0.00000000E+00  0.00000000E+00
  0.00000000E+00  0.00000000E+00  0.00000000E+00
  0.00000000E+00  0.00000000E+00  0.00000000E+00
  0.00000000E+00  0.00000000E+00  0.00000000E+00
  0.00000000E+00  0.00000000E+00  0.00000000E+00
  0.00000000E+00  0.00000000E+00  0.00000000E+00
  0.00000000E+00  0.00000000E+00  0.00000000E+00
  0.00000000E+00  0.00000000E+00  0.00000000E+00
  0.00000000E+00  0.00000000E+00  0.00000000E+00
  0.00000000E+00  0.00000000E+00  0.00000000E+00
  0.00000000E+00  0.00000000E+00  0.00000000E+00
  0.00000000E+00  0.00000000E+00  0.00000000E+00
  0.00000000E+00  0.00000000E+00  0.00000000E+00
  0.00000000E+00  0.00000000E+00  0.00000000E+00
  0.00000000E+00  0.00000000E+00  0.00000000E+00
  0.00000000E+00  0.00000000E+00  0.00000000E+00
  0.00000000E+00  0.00000000E+00  0.00000000E+00
  0.00000000E+00  0.00000000E+00  0.00000000E+00
  0.00000000E+00  0.00000000E+00  0.00000000E+00
  0.00000000E+00  0.00000000E+00  0.00000000E+00
  0.00000000E+00  0.00000000E+00  0.00000000E+00
  0.00000000E+00  0.00000000E+00  0.00000000E+00
  0.00000000E+00  0.00000000E+00  0.00000000E+00
  0.00000000E+00  0.00000000E+00  0.00000000E+00
  0.00000000E+00  0.00000000E+00  0.00000000E+00
  0.00000000E+00  0.00000000E+00  0.00000000E+00
  0.00000000E+00  0.00000000E+00  0.00000000E+00
  0.00000000E+00  0.00000000E+00  0.00000000E+00
  0.00000000E+00  0.00000000E+00  0.00000000E+00
  0.00000000E+00  0.00000000E+00  0.00000000E+00
  0.00000000E+00  0.00000000E+00  0.00000000E+00
  0.00000000E+00  0.00000000E+00  0.00000000E+00
  0.00000000E+00  0.00000000E+00  0.00000000E+00
  0.00000000E+00  0.00000000E+00  0.00000000E+00
  0.00000000E+00  0.00000000E+00  0.00000000E+00
  0.00000000E+00  0.00000000E+00  0.00000000E+00
  0.00000000E+00  0.00000000E+00  0.00000000E+00
  0.00000000E+00  0.00000000E+00  0.00000000E+00
  0.00000000E+00  0.00000000E+00  0.00000000E+00
  0.00000000E+00  0.00000000E+00  0.00000000E+00
  0.00000000E+00  0.00000000E+00  0.00000000E+00
  0.00000000E+00  0.00000000E+00  0.00000000E+00
  0.00000000E+00  0.00000000E+00  0.00000000E+00
  0.00000000E+00  0.00000000E+00  0.00000000E+00
  0.00000000E+00  0.00000000E+00  0.00000000E+00
  0.00000000E+00  0.00000000E+00  0.00000000E+00
  0.00000000E+00  0.00000000E+00  0.00000000E+00
  0.00000000E+00  0.00000000E+00  0.00000000E+00
  0.00000000E+00  0.00000000E+00  0.00000000E+00
  0.00000000E+00  0.00000000E+00  0.00000000E+00
  0.00000000E+00  0.00000000E+00  0.00000000E+00
  0.00000000E+00  0.00000000E+00  0.00000000E+00
  0.00000000E+00  0.00000000E+00  0.00000000E+00
  0.00000000E+00  0.00000000E+00  0.00000000E+00
  0.00000000E+00  0.00000000E+00  0.00000000E+00
  0.00000000E+00  0.00000000E+00  0.00000000E+00
  0.00000000E+00  0.00000000E+00  0.00000000E+00
  0.00000000E+00  0.00000000E+00  0.00000000E+00
  0.00000000E+00  0.00000000E+00  0.00000000E+00
  0.00000000E+00  0.00000000E+00  0.00000000E+00
  0.00000000E+00  0.00000000E+00  0.00000000E+00
  0.00000000E+00  0.00000000E+00  0.00000000E+00
  0.00000000E+00  0.00000000E+00  0.00000000E+00
  0.00000000E+00  0.00000000E+00  0.00000000E+00
  0.00000000E+00  0.00000000E+00  0.00000000E+00
  0.00000000E+00  0.00000000E+00  0.00000000E+00
  0.00000000E+00  0.00000000E+00  0.00000000E+00
  0.00000000E+00  0.00000000E+00  0.00000000E+00
  0.00000000E+00  0.00000000E+00  0.00000000E+00
  0.00000000E+00  0.00000000E+00  0.00000000E+00
  0.00000000E+00  0.00000000E+00  0.00000000E+00
  0.00000000E+00  0.00000000E+00  0.00000000E+00
  0.00000000E+00  0.00000000E+00  0.00000000E+00
  0.00000000E+00  0.00000000E+00  0.00000000E+00
  0.00000000E+00  0.00000000E+00  0.00000000E+00
  0.00000000E+00  0.00000000E+00  0.00000000E+00
  0.00000000E+00  0.00000000E+00  0.00000000E+00
  0.00000000E+00  0.00000000E+00  0.00000000E+00
  0.00000000E+00  0.00000000E+00  0.00000000E+00
  0.00000000E+00  0.00000000E+00  0.00000000E+00
  0.00000000E+00  0.00000000E+00  0.00000000E+00
  0.00000000E+00  0.00000000E+00  0.00000000E+00
  0.00000000E+00  0.00000000E+00  0.00000000E+00
  0.00000000E+00  0.00000000E+00  0.00000000E+00
  0.00000000E+00  0.00000000E+00  0.00000000E+00
  0.00000000E+00  0.00000000E+00  0.00000000E+00
  0.00000000E+00  0.00000000E+00  0.00000000E+00
  0.00000000E+00  0.00000000E+00  0.00000000E+00
  0.00000000E+00  0.00000000E+00  0.00000000E+00
  0.00000000E+00  0.00000000E+00  0.00000000E+00
  0.00000000E+00  0.00000000E+00  0.00000000E+00
  0.00000000E+00  0.00000000E+00  0.00000000E+00
  0.00000000E+00  0.00000000E+00  0.00000000E+00
  0.00000000E+00  0.00000000E+00  0.00000000E+00
  0.00000000E+00  0.00000000E+00  0.00000000E+00
  0.00000000E+00  0.00000000E+00  0.00000000E+00
  0.00000000E+00  0.00000000E+00  0.00000000E+00
  0.00000000E+00  0.00000000E+00  0.00000000E+00
  0.00000000E+00  0.00000000E+00  0.00000000E+00
  0.00000000E+00  0.00000000E+00  0.00000000E+00
  0.00000000E+00  0.00000000E+00  0.00000000E+00
  0.00000000E+00  0.00000000E+00  0.00000000E+00
  0.00000000E+00  0.00000000E+00  0.00000000E+00
  0.00000000E+00  0.00000000E+00  0.00000000E+00
  0.00000000E+00  0.00000000E+00  0.00000000E+00
  0.00000000E+00  0.00000000E+00  0.00000000E+00
  0.00000000E+00  0.00000000E+00  0.00000000E+00
  0.00000000E+00  0.00000000E+00  0.00000000E+00
  0.00000000E+00  0.00000000E+00  0.00000000E+00
  0.00000000E+00  0.00000000E+00  0.00000000E+00
  0.00000000E+00  0.00000000E+00  0.00000000E+00
  0.00000000E+00  0.00000000E+00  0.00000000E+00
  0.00000000E+00  0.00000000E+00  0.00000000E+00
  0.00000000E+00  0.00000000E+00  0.00000000E+00
  0.00000000E+00  0.00000000E+00  0.00000000E+00
  0.00000000E+00  0.00000000E+00  0.00000000E+00
  0.00000000E+00  0.00000000E+00  0.00000000E+00
  0.00000000E+00  0.00000000E+00  0.00000000E+00
  0.00000000E+00  0.00000000E+00  0.00000000E+00
  0.00000000E+00  0.00000000E+00  0.00000000E+00
  0.00000000E+00  0.00000000E+00  0.00000000E+00
  0.00000000E+00  0.00000000E+00  0.00000000E+00
  0.00000000E+00  0.00000000E+00  0.00000000E+00
  0.00000000E+00  0.00000000E+00  0.00000000E+00
  0.00000000E+00  0.00000000E+00  0.00000000E+00
  0.00000000E+00  0.00000000E+00  0.00000000E+00
  0.00000000E+00  0.00000000E+00  0.00000000E+00
  0.00000000E+00  0.00000000E+00  0.00000000E+00
  0.00000000E+00  0.00000000E+00  0.00000000E+00
  0.00000000E+00  0.00000000E+00  0.00000000E+00
  0.00000000E+00  0.00000000E+00  0.00000000E+00
  0.00000000E+00  0.00000000E+00  0.00000000E+00
  0.00000000E+00  0.00000000E+00  0.00000000E+00
  0.00000000E+00  0.00000000E+00  0.00000000E+00
  0.00000000E+00  0.00000000E+00  0.00000000E+00
  0.00000000E+00  0.00000000E+00  0.00000000E+00
  0.00000000E+00  0.00000000E+00  0.00000000E+00
  0.00000000E+00  0.00000000E+00  0.00000000E+00
  0.00000000E+00  0.00000000E+00  0.00000000E+00
  0.00000000E+00  0.00000000E+00  0.00000000E+00
  0.00000000E+00  0.00000000E+00  0.00000000E+00
  0.00000000E+00  0.00000000E+00  0.00000000E+00
  0.00000000E+00  0.00000000E+00  0.00000000E+00
  0.00000000E+00  0.00000000E+00  0.00000000E+00
  0.00000000E+00  0.00000000E+00  0.00000000E+00
  0.00000000E+00  0.00000000E+00  0.00000000E+00
  0.00000000E+00  0.00000000E+00  0.00000000E+00
  0.00000000E+00  0.00000000E+00  0.00000000E+00
  0.00000000E+00  0.00000000E+00  0.00000000E+00
  0.00000000E+00  0.00000000E+00  0.00000000E+00
  0.00000000E+00  0.00000000E+00  0.00000000E+00
  0.00000000E+00  0.00000000E+00  0.00000000E+00
  0.00000000E+00  0.00000000E+00  0.00000000E+00
  0.00000000E+00  0.00000000E+00  0.00000000E+00
  0.00000000E+00  0.00000000E+00  0.00000000E+00
  0.00000000E+00  0.00000000E+00  0.00000000E+00
  0.00000000E+00  0.00000000E+00  0.00000000E+00
  0.00000000E+00  0.00000000E+00  0.00000000E+00
  0.00000000E+00  0.00000000E+00  0.00000000E+00
  0.00000000E+00  0.00000000E+00  0.00000000E+00
  0.00000000E+00  0.00000000E+00  0.00000000E+00
  0.00000000E+00  0.00000000E+00  0.00000000E+00
  0.00000000E+00  0.00000000E+00  0.00000000E+00
  0.00000000E+00  0.00000000E+00  0.00000000E+00
  0.00000000E+00  0.00000000E+00  0.00000000E+00
  0.00000000E+00  0.00000000E+00  0.00000000E+00
  0.00000000E+00  0.00000000E+00  0.00000000E+00
  0.00000000E+00  0.00000000E+00  0.00000000E+00
  0.00000000E+00  0.00000000E+00  0.00000000E+00
  0.00000000E+00  0.00000000E+00  0.00000000E+00
  0.00000000E+00  0.00000000E+00  0.00000000E+00
  0.00000000E+00  0.00000000E+00  0.00000000E+00
  0.00000000E+00  0.00000000E+00  0.00000000E+00
  0.00000000E+00  0.00000000E+00  0.00000000E+00
  0.00000000E+00  0.00000000E+00  0.00000000E+00
  0.00000000E+00  0.00000000E+00  0.00000000E+00
  0.00000000E+00  0.00000000E+00  0.00000000E+00
  0.00000000E+00  0.00000000E+00  0.00000000E+00