Bi1 Sb3 Te6
1.0
  20.6162449999999993   -2.1821619999999999    0.0000000000000000
  20.6162449999999993    2.1821619999999999    0.0000000000000000
  20.3852699999999984    0.0000000000000000    3.7725510000000000
Bi Sb Te
1 3 6
direct
   0.1991959999999990    0.1991959999999990    0.1991959999999990 Bi
   0.6989839999999991    0.6989839999999991    0.6989839999999991 Sb
   0.3010730000000000    0.3010730000000000    0.3010730000000000 Sb
   0.8005600000000000    0.8005600000000000    0.8005600000000000 Sb
   0.6067870000000000    0.6067870000000000    0.6067870000000000 Te
   0.1064900000000000    0.1064900000000000    0.1064900000000000 Te
   0.8945379999999991    0.8945379999999991    0.8945379999999991 Te
   0.3933120000000000    0.3933120000000000    0.3933120000000000 Te
   0.0000610000000000    0.0000610000000000    0.0000610000000000 Te
   0.4990000000000000    0.4990000000000000    0.4990000000000000 Te
