In2O3                                   
   1.00000000000000     
     8.0886024198632924    0.0003934542802560   -0.0009694438863473
     0.0000604809639792    8.0100605584409550   -0.0818541756765799
    -0.0005058811146533   -0.0821151530387920    8.0154320124318481
   In   O 
    16    24
Direct
  0.0227406610384401  0.0143388661207653  0.9742275477633390
  0.0230039754419340  0.0169521910352513  0.4767800782099677
  0.7950924565540288  0.2367891067711664  0.2565600354223412
  0.0227846955078918  0.5141448166692175  0.4741116857730063
  0.5225931827776045  0.9867781022664449  0.0067954823493683
  0.5231227055889326 -0.0152140573729052  0.5047696969474664
  0.5231730080353310  0.4848498835357474  0.0046749467092731
  0.2949743602840224  0.7643701055161899  0.7241529729952231
  0.2952873328768312  0.2642780546534318  0.2242068392473426
  0.2954735584323096  0.2669114952236405  0.7269077903180154
  0.2955262023279555  0.7668300574569169  0.2268512066476867
  0.0230343965648369  0.5170117591172568  0.9767527417267431
  0.5226394281388939  0.4868971652376755  0.5068520075417325
  0.7955901691670739  0.2348144231101680  0.7546430572899612
  0.7955791144417981  0.7347158969146066  0.2546028773826322
  0.7951597208114919  0.7369256627302930  0.7564898969271956
  0.9092075659290932  0.2705571804390248  0.5106185681201354
  0.4093083635964113  0.2310589014168275  0.9704088103286941
  0.7591088568221751  0.4827533439501476  0.8693623758462480
  0.9092326148699430  0.7706722644807174  0.0105389151034249
  0.0589319735954173  0.1299314393550010  0.2220103226175550
  0.5594261259247348  0.7323015698671224  0.1203334735027524
  0.5587350799910741  0.3712185853498772  0.2593784073675471
  0.4092754302994924  0.5208128821595371  0.7606839277801865
  0.7591381261038905  0.9826861898285387  0.3693444944496342
  0.4093342865424245  0.0207502272333363  0.2607145431637627
  0.5587286366199156  0.8711303305177994  0.7592224904064087
  0.2589640527280755  0.3793939438876192  0.4722190486276375
  0.2589252825778647  0.0188716036323702  0.6118287186603996
  0.7587282241296707  0.6216255583113945  0.5086974831530381
  0.4092429150718443  0.7310649122908468  0.4704149867418955
  0.9086806354999010  0.4808206761621701  0.2202961224458571
  0.0594378938177919  0.7689385911564457  0.3616722845664644
  0.5593639255688251  0.2323296835727796  0.6203350601103320
  0.7585692963644682  0.1215327239623290  0.0087199137923264
  0.2590128200468086  0.5188022365253445  0.1116853807425267
  0.0592785413008042  0.2689882724160075  0.8618248932947222
  0.2589196224180413  0.8795143187440427  0.9723216384723952
  0.0587796144804015  0.6297753585358101  0.7219891212708893
  0.9089070382729787  0.9808991844453178  0.7204696498647002
 
  0.00000000E+00  0.00000000E+00  0.00000000E+00
  0.00000000E+00  0.00000000E+00  0.00000000E+00
  0.00000000E+00  0.00000000E+00  0.00000000E+00
  0.00000000E+00  0.00000000E+00  0.00000000E+00
  0.00000000E+00  0.00000000E+00  0.00000000E+00
  0.00000000E+00  0.00000000E+00  0.00000000E+00
  0.00000000E+00  0.00000000E+00  0.00000000E+00
  0.00000000E+00  0.00000000E+00  0.00000000E+00
  0.00000000E+00  0.00000000E+00  0.00000000E+00
  0.00000000E+00  0.00000000E+00  0.00000000E+00
  0.00000000E+00  0.00000000E+00  0.00000000E+00
  0.00000000E+00  0.00000000E+00  0.00000000E+00
  0.00000000E+00  0.00000000E+00  0.00000000E+00
  0.00000000E+00  0.00000000E+00  0.00000000E+00
  0.00000000E+00  0.00000000E+00  0.00000000E+00
  0.00000000E+00  0.00000000E+00  0.00000000E+00
  0.00000000E+00  0.00000000E+00  0.00000000E+00
  0.00000000E+00  0.00000000E+00  0.00000000E+00
  0.00000000E+00  0.00000000E+00  0.00000000E+00
  0.00000000E+00  0.00000000E+00  0.00000000E+00
  0.00000000E+00  0.00000000E+00  0.00000000E+00
  0.00000000E+00  0.00000000E+00  0.00000000E+00
  0.00000000E+00  0.00000000E+00  0.00000000E+00
  0.00000000E+00  0.00000000E+00  0.00000000E+00
  0.00000000E+00  0.00000000E+00  0.00000000E+00
  0.00000000E+00  0.00000000E+00  0.00000000E+00
  0.00000000E+00  0.00000000E+00  0.00000000E+00
  0.00000000E+00  0.00000000E+00  0.00000000E+00
  0.00000000E+00  0.00000000E+00  0.00000000E+00
  0.00000000E+00  0.00000000E+00  0.00000000E+00
  0.00000000E+00  0.00000000E+00  0.00000000E+00
  0.00000000E+00  0.00000000E+00  0.00000000E+00
  0.00000000E+00  0.00000000E+00  0.00000000E+00
  0.00000000E+00  0.00000000E+00  0.00000000E+00
  0.00000000E+00  0.00000000E+00  0.00000000E+00
  0.00000000E+00  0.00000000E+00  0.00000000E+00
  0.00000000E+00  0.00000000E+00  0.00000000E+00
  0.00000000E+00  0.00000000E+00  0.00000000E+00
  0.00000000E+00  0.00000000E+00  0.00000000E+00
  0.00000000E+00  0.00000000E+00  0.00000000E+00
