Rh Ge Sb Te                             
   1.00000000000000     
    17.5080675557685424    0.0000000000000000    0.0000000000000000
     0.0000000000000000   17.5080675557685424    0.0000000000000000
     0.0000000000000000    0.0000000000000000   17.5080675557685424
   Rh   Ge   Sb   Te
     8    32    32    80
Direct
  0.5865756593987042  0.2880680147846297  0.2880107689868127
  0.3711609665221045  0.2527175531377541  0.6670688172028992
  0.0631492696162883  0.1748645839668285  0.1320009432777826
  0.9595652558171339  0.4994936539277922  0.5324793945364087
  0.7277772789104165  0.2818820072396234  0.6466839244813947
  0.0840994300470943  0.3481702344833595  0.3234212774828992
  0.5854848316237352  0.1066122521589032  0.7753786185345652
  0.8589009969919575  0.7147701981441117  0.6426823025505588
  0.3809484410482262  0.4118830866915449  0.2025089811390611
  0.7691798551197510  0.3883726294380191  0.5611211979611382
  0.9467491757799018  0.4120183999304788  0.3066431380208887
  0.3508881183519780  0.4690616970632563  0.9903036864884038
  0.2448937867068651  0.1531398828847454  0.4449344614150942
  0.4800753972668549  0.1836855991420979  0.4692025545323146
  0.2117222298281567  0.3878910213585940  0.9525214574596685
  0.6276479086363406  0.9672245053720167  0.8135023522759430
  0.8270240652617874  0.5220643735461563  0.5626793256473006
  0.9366628945155828  0.7215744114401994  0.7616194742026169
  0.6229288577677048  0.2001847523909470  0.1788397621216087
  0.3015228910437120  0.1365675530853119  0.6127550954128346
  0.7821615900529790  0.0281625414287739  0.6725771968929870
  0.5625080207155931  0.9877379956053972  0.1845089364762489
  0.9488568040176368  0.7942853129240240  0.5635023252921337
  0.0187804226790350  0.9469494277458081  0.1465954629943039
  0.9324853894385957  0.8463881036379368  0.0936061468504531
  0.6784193174648790  0.8199458120909996  0.1763066853735790
  0.0892008854425943  0.6471849803510908  0.3754999444836380
  0.9720366801127683  0.1199169026102847  0.0141227982445330
  0.3572915709596750  0.5580240979229265  0.1258023587452987
  0.5840321077104872  0.3919142087165576  0.3871029675558574
  0.6448183298994860  0.2946251159357687  0.8900027681692486
  0.4874233700762029  0.3509777473290046  0.6352623907629561
  0.2684523448370718  0.6666159962648951  0.7720053510804781
  0.3656432387600833  0.8766457210422006  0.4372396657487240
  0.5808984616113483  0.5854399372823932  0.4670427940749730
  0.0602965676013422  0.4481513263379933  0.4344397311546708
  0.7177142206239008  0.7476838260717338  0.6631785091900045
  0.9678959359394114  0.6310938350321689  0.5890887326311777
  0.9332852328141720  0.4893316394683799  0.6834106874545004
  0.8108758590559922  0.4977850925572705  0.2809515440586033
  0.2300905538249650  0.9420860145514768  0.7668538492435487
  0.3607414091639417  0.3307902637580732  0.7978402422882471
  0.4230352564199641  0.7988182597961850  0.9666563412419394
  0.0351172266417396  0.4616938106252612  0.8356617860141803
  0.5015322973952769  0.1554813787677646  0.3063415051285306
  0.6981672955246496  0.4336568379518169  0.8353906998906212
  0.1703076130668539  0.1940633679195858  0.7860238921221370
  0.5815286818771714  0.5678134361578978  0.8463585774675937
  0.9825226998383157  0.3028652478690266  0.1269029970586222
  0.9539391135096225  0.9780817307045399  0.9038276504882798
  0.4899543918893540  0.1594514054139714  0.6762332949072984
  0.5670389907747544  0.9864444290639642  0.3372182061220517
  0.9877397961156824  0.2501511882430863  0.3920214676160863
  0.1496611814635659  0.8048225063805245  0.6995476997233826
  0.8048898924622070  0.6695123687874108  0.5082494310030120
  0.1948500356243179  0.5557076569479229  0.5806919461447818
  0.2192695068733741  0.8529350415571814  0.9092584581941744
  0.4340690221863607  0.3071718502601610  0.3280743982986645
  0.9399208080538480  0.1105272201701171  0.6464966826986535
  0.0640349236793498  0.7431418302055370  0.1998052846277644
  0.8805643210721518  0.2273432979952413  0.9431748229742585
  0.5168580832913203  0.2219210735878711  0.8574450304505473
  0.2145951460124963  0.3459510572397634  0.2397051012077520
  0.0993586001391863  0.1948843593886303  0.2722299772958935
  0.0822736987219505  0.9432127844291434  0.0008609316219521
  0.3521531276289457  0.8328842081089819  0.1945762574866244
  0.8857514967337170  0.5052085629136600  0.8966345627393765
  0.5688154330272674  0.0877988160652580  0.9301480497724822
  0.6910589839924064  0.2664263483195594  0.0583071161329517
  0.7872659292313904  0.6567986602151633  0.1321639023842119
  0.7007423674485562  0.2050200776451805  0.7827134269412049
  0.5067478930401875  0.5131877361698058  0.0550966162310790
  0.2013891271440568  0.6367163398808281  0.2202559632064927
  0.8490080406681716  0.7911862234375401  0.2058587117543660
  0.2860697300654148  0.8354174948121935  0.6169297011854414
  0.5938849439273689  0.2452776282109761  0.5725861030176763
  0.4908286246705155  0.4313897370894474  0.5046417259820278
  0.7102484508455748  0.4769330393359077  0.4385868793786476
  0.3254124650932193  0.1361484702659799  0.7677268471721375
  0.8357269333544980  0.3196220812765784  0.7395835959587747
  0.1290223105711501  0.1995968623542323  0.6238516756052723
  0.6495697832315919  0.7262371124253184  0.5007798423234889
  0.6999980853981841  0.9673777279523041  0.1291561313627351
  0.8136409796386789  0.0838408157324882  0.8052579404587314
  0.1975745464270907  0.2366207628931393  0.1170738523443345
  0.4837551263376920  0.4428801346041897  0.8951959749423923
  0.3535463042534038  0.7900934192228727  0.8153424596915287
  0.4904195268988114  0.6008971476801723  0.2055610696575043
  0.8471254478042419  0.8908805405816084  0.9789137530879382
  0.7102062052364094  0.7159073963267740  0.8329968566635997
  0.9481582153110152  0.0827980538638082  0.1671309596238547
  0.3709607621190650  0.5782304762067747  0.7009529284942825
  0.1962011999421387  0.5261227117889112  0.4170942968055789
  0.1223345264794245  0.8838054598835057  0.2529858898702029
  0.2861047559134862  0.1899307012212035  0.3033035988865473
  0.7166249448479165  0.6165248772734626  0.2607549214617353
  0.3565388428057539  0.2651918343493874  0.5049960788412473
  0.3135202733605441  0.6886269765743600  0.5400340810782873
  0.0275637878790341  0.5688742071215990  0.9705472016385214
  0.8478782069685795  0.9355697764772554  0.3828236380032263
  0.4049834799476986  0.7567788823278694  0.3304970544180001
  0.4919221612723489  0.1196965593637043  0.1306158641758460
  0.0692682565799971  0.3306487509371201  0.9310720316138232
  0.8999105719959324  0.3761016775955347  0.4660022003576753
  0.5162623523527289  0.6331356370925076  0.6785228210633585
  0.8510610233979625  0.6872194041628308  0.8928637328649929
  0.0384979187115762  0.6079031419167197  0.7326069717481483
  0.9866835161309727  0.2683367152906602  0.7129225799696436
  0.7219043251499564  0.0935520096967675  0.2590607842320576
  0.7712713009443862  0.1342949799290940  0.0206470272200374
  0.0184005797098784  0.8427902034906606  0.8203028471271537
  0.8288626993671214  0.8746005611888742  0.6228677787543434
  0.2350467537504694  0.3397050927157038  0.6797064094701594
  0.4006279080898130  0.9687495902104183  0.3088530969972687
  0.1614166682699270  0.2878407014108468  0.4477103546982036
  0.1230486893245956  0.1058424890190613  0.0062205462063118
  0.4508612933511473  0.0573221151538218  0.5556241715434245
  0.9054404581771047  0.5522205810908031  0.1579762765427921
  0.5013595271059303  0.8627463723510883  0.1229905203277410
  0.9526969445518224  0.5729538249358874  0.3940117121894615
  0.9355325498911325  0.8079014018284033  0.4116425080636031
  0.0474883850159672  0.7588816140670454  0.0429104212161772
  0.6273456704375838  0.0067501297377967  0.6619206709604476
  0.2303227036554784  0.9599649173475906  0.4191459193527691
  0.4788266628867690  0.5208018779339065  0.3439600665602867
  0.2932789428152956  0.2611234548245428  0.9239617015296905
  0.4773134539951493  0.0014698743073381  0.8197563005950074
  0.8761069899580993  0.2772392245854747  0.2577499180079024
  0.0796415276518342  0.4225291277710351  0.1918299107242659
  0.5609715269994577  0.6475366288112028  0.9914654608061427
  0.3284933878974876  0.9225817775146657  0.9991155251671929
  0.7094383912397335  0.3683360616469112  0.2186476848180428
  0.7999785842023521  0.1657648444643255  0.5879244624524544
  0.2556170805808636  0.5944090059282774  0.9162922883314382
  0.2737152920665391  0.6788886366901543  0.3709891772138031
  0.2436605726478050  0.4678723183240317  0.8068534538011902
  0.0801780555372277  0.4266775189397790  0.5974183992416918
  0.6452845015265276  0.4072224744124989  0.6792326779240393
  0.8035509942502164  0.5905085696942701  0.7100459520529990
  0.5348185640180650  0.3590007897226203  0.1684616023713840
  0.1043373461391807  0.0401855264750195  0.7926354444997429
  0.0434421403812930  0.9091766526585001  0.6027017822397270
  0.0926605350997245  0.8832693995638797  0.4499035803636662
  0.1112815610169491  0.6907789741618140  0.5331176208170334
  0.3800592236623885  0.3229407783660508  0.0856427718139162
  0.4824424577492681  0.7067469764133330  0.5252262513520787
  0.0299417160533904  0.1013715952338964  0.5058943781634151
  0.6495844045474736  0.8546819657311827  0.3275208777291096
  0.8445345336506710  0.3734353380050842  0.0072952312654333
  0.3286557821036374  0.7191966479481827  0.0679262494425537
  0.9402032761520729  0.0611674974536874  0.3648162186299747
  0.6790187409241678  0.2049026398273009  0.3744508533273784
 
  0.21242532E-02 -0.45926768E-03  0.64694766E-03
 -0.19115866E-03 -0.58941411E-03  0.26412000E-02
 -0.22661029E-02  0.18321152E-04 -0.10479715E-03
 -0.10619174E-02 -0.81965369E-03 -0.28325096E-03
  0.20025700E-03  0.18361294E-02  0.23295424E-02
  0.23847038E-02 -0.77633610E-03  0.74445251E-03
 -0.30848334E-03  0.37899455E-03  0.35988855E-03
  0.11990993E-02 -0.79034092E-03 -0.16189890E-02
 -0.13421758E-02  0.36849465E-04  0.15829127E-02
 -0.24832321E-02 -0.89762804E-04 -0.44840413E-02
  0.10677512E-02 -0.61993622E-03  0.24125155E-02
  0.12032815E-02  0.10219626E-02  0.16644137E-02
 -0.37562484E-03  0.40859362E-02 -0.10270257E-02
 -0.37868084E-02  0.12649602E-02 -0.62115542E-03
  0.12978536E-02 -0.17107256E-02  0.30562702E-03
  0.10457389E-02  0.83547422E-03  0.87576775E-03
 -0.19582444E-03 -0.13183085E-02  0.19775674E-02
 -0.21049582E-02 -0.62850273E-03 -0.13884273E-02
  0.50826577E-03  0.13085924E-02  0.63849427E-03
 -0.38764946E-02 -0.23172718E-02 -0.34781902E-02
  0.59951503E-03  0.17922028E-02  0.46622161E-03
  0.55460218E-03  0.64334688E-03 -0.23252833E-02
  0.25572304E-03 -0.23525855E-02  0.18431858E-02
 -0.10637116E-02  0.42244268E-04 -0.35042687E-02
  0.40292946E-02  0.12154376E-02  0.54988535E-04
  0.84693096E-03 -0.10465952E-02 -0.13218842E-02
 -0.16624107E-03  0.12475519E-02 -0.14327938E-02
  0.29793060E-03  0.12743719E-02 -0.13116213E-02
  0.79886649E-03 -0.20532903E-02 -0.41899669E-03
  0.16441827E-02  0.39376314E-02 -0.60706958E-02
 -0.13706833E-02 -0.26864666E-02  0.29345665E-03
  0.85631239E-03 -0.54513502E-03  0.83173866E-04
  0.10996060E-02  0.10208788E-02 -0.20947811E-02
  0.18576702E-02  0.40770818E-02 -0.13523056E-02
 -0.49509580E-02  0.29634108E-02 -0.92625295E-03
 -0.24316637E-02 -0.14074284E-02 -0.12545860E-02
 -0.25360041E-02  0.22676635E-02 -0.59396471E-03
 -0.34038904E-02 -0.19310940E-02  0.24977360E-02
  0.17626456E-02 -0.32181732E-02  0.71457175E-03
  0.18410594E-02 -0.72604583E-03 -0.28746601E-02
 -0.14755482E-02 -0.95532307E-03  0.16768608E-02
  0.61808690E-03 -0.34968864E-03 -0.18841244E-02
  0.13127467E-02 -0.76203187E-03 -0.31517240E-02
  0.47697186E-04 -0.20132280E-02  0.29282312E-03
 -0.98027227E-03 -0.70829237E-03  0.69609562E-03
  0.16451058E-02 -0.22192573E-02  0.81344080E-03
  0.20508888E-03  0.93311531E-03  0.31446341E-03
  0.10583078E-02  0.14510103E-02  0.66439982E-04
 -0.22195827E-03  0.40034420E-04  0.15979958E-02
 -0.86038098E-03 -0.59357123E-03 -0.27190949E-03
  0.17476191E-02 -0.29277179E-02 -0.85294530E-03
  0.72236270E-03  0.24670610E-03 -0.91257943E-03
  0.51956298E-04  0.18066657E-02  0.94780143E-03
 -0.11661351E-02 -0.24688830E-02 -0.34463891E-03
 -0.56586736E-03 -0.30134220E-03  0.36322356E-02
  0.14377607E-02  0.13837770E-02  0.11626681E-02
 -0.13535371E-02  0.18032455E-03 -0.48584820E-03
 -0.55662979E-03 -0.18634448E-02 -0.44387964E-03
 -0.10982661E-02  0.95187419E-03 -0.40825576E-03
 -0.11026805E-02 -0.33201085E-03  0.13183466E-02
 -0.19805170E-02 -0.47724496E-03  0.18370464E-03
  0.19643818E-02  0.14053964E-02 -0.87146493E-04
  0.39965627E-03  0.85213881E-03  0.13874577E-02
  0.13060278E-02 -0.40919435E-03 -0.16704154E-02
 -0.66685250E-03 -0.20228957E-02  0.70153649E-03
  0.20996510E-02 -0.11759822E-02  0.28290631E-02
  0.75567419E-03 -0.62328704E-04  0.31093424E-02
  0.21645753E-02  0.11699608E-02 -0.99700810E-03
  0.10714227E-02 -0.33567015E-02 -0.31191013E-02
 -0.37920809E-03 -0.82796803E-03 -0.72249469E-03
 -0.65810319E-03 -0.84900572E-03  0.21344955E-02
 -0.10748279E-02  0.47501048E-03  0.21834702E-02
  0.17328416E-02 -0.20328107E-03 -0.18002952E-02
  0.54032310E-03  0.20704353E-02  0.23954371E-03
 -0.76706152E-04 -0.15290476E-02  0.16329252E-02
  0.87229510E-03  0.36536661E-03  0.38429222E-03
 -0.16322759E-02 -0.33589342E-02  0.51782691E-03
 -0.13424338E-03 -0.16354987E-03  0.31690089E-03
 -0.13025755E-02  0.26932421E-03 -0.15443415E-02
  0.11535705E-02 -0.61662714E-03 -0.12364959E-03
 -0.11439217E-03  0.55565643E-04 -0.41818531E-03
  0.72019960E-03  0.74189272E-03 -0.61232689E-03
  0.98633880E-03 -0.11030152E-02  0.16794054E-03
  0.86682937E-03  0.80692749E-03 -0.19415977E-02
 -0.18002869E-02 -0.22522248E-02 -0.21671579E-03
 -0.36818339E-03  0.70981840E-03  0.11470663E-02
  0.41755137E-03  0.68924450E-04  0.16137652E-02
  0.23828024E-02  0.16313765E-02  0.16258255E-02
  0.89550510E-03  0.30337149E-02 -0.17595917E-03
 -0.28168678E-03 -0.94896390E-03  0.13234634E-02
 -0.37355614E-03  0.69036804E-04  0.10281746E-02
 -0.11323187E-02 -0.77129542E-03 -0.14188118E-02
  0.11274735E-02 -0.16672519E-02 -0.18825707E-02
 -0.20446541E-02 -0.83999626E-04  0.10361577E-02
  0.34036923E-02  0.19941121E-02 -0.66285405E-03
 -0.29821143E-02  0.10818537E-02 -0.18297707E-03
 -0.91689528E-03  0.25237971E-02  0.11834640E-02
  0.13848606E-02  0.46412109E-03 -0.79304684E-04
  0.12950765E-02  0.24385954E-02  0.17092614E-02
  0.72267536E-03 -0.42879836E-03 -0.23881686E-02
 -0.95438949E-03  0.20695439E-02 -0.25382242E-02
 -0.74688004E-03  0.29015547E-02 -0.15442496E-02
 -0.15096720E-03 -0.13228544E-02  0.11116986E-02
 -0.32656934E-04 -0.92051523E-03 -0.18062853E-03
 -0.57273961E-03 -0.28750103E-02 -0.14878419E-02
 -0.19550400E-02 -0.13046155E-02 -0.48937054E-03
  0.31345943E-03 -0.32799850E-02  0.26208962E-03
 -0.19772925E-02 -0.98148860E-03 -0.12867822E-02
  0.24862939E-03 -0.18655420E-02 -0.15941929E-02
  0.33436351E-03 -0.81975591E-03  0.65212090E-03
  0.99635535E-03  0.44860361E-03  0.44303938E-03
 -0.17288851E-02 -0.88037251E-03 -0.24452351E-03
 -0.66346752E-04 -0.84335727E-03 -0.12923864E-02
  0.35647847E-03  0.26542495E-02  0.37838562E-02
 -0.17696676E-02  0.59225704E-03  0.74809000E-03
 -0.90435414E-03  0.16362034E-02  0.89306245E-03
  0.31616373E-03 -0.24424414E-03  0.17115367E-02
  0.14753328E-02  0.83070538E-03  0.16582044E-02
  0.20927601E-02 -0.15641207E-02 -0.67011879E-03
  0.35653980E-03 -0.27304437E-02  0.56195550E-03
 -0.16086326E-03  0.14955761E-02 -0.29621818E-03
 -0.18485344E-02  0.16691022E-02  0.22718469E-02
 -0.15144691E-02  0.65529584E-03  0.10334306E-02
 -0.80975884E-03  0.34114266E-03 -0.14477731E-03
  0.56612280E-03  0.14978635E-02  0.13830706E-02
 -0.74277290E-03  0.79142547E-03  0.49850100E-03
 -0.23766409E-02  0.47232498E-03 -0.33568927E-03
  0.16474826E-02  0.92071951E-03 -0.16212412E-02
  0.15463184E-02  0.13265599E-02  0.64343825E-03
 -0.39735504E-03 -0.19712472E-02 -0.27902279E-03
 -0.95080105E-03  0.67649795E-03 -0.27323998E-02
 -0.16988799E-02 -0.78703523E-03 -0.93647284E-03
 -0.10946978E-02 -0.90189417E-03  0.81304228E-03
  0.82563835E-03 -0.17959178E-02 -0.19111446E-02
 -0.26428798E-04  0.37549133E-03 -0.10945679E-02
 -0.35057643E-03 -0.42995827E-03  0.15379659E-02
  0.40961467E-03 -0.12015397E-02 -0.70602197E-03
  0.18237359E-02  0.16340943E-02  0.41544753E-02
 -0.14131746E-02  0.22388631E-02 -0.86998162E-03
 -0.20297025E-03  0.97257866E-04  0.44935621E-03
  0.18752278E-02  0.77308554E-03 -0.35724875E-03
 -0.60014091E-03 -0.49583112E-03  0.13888983E-03
  0.32019693E-03 -0.11673212E-02  0.10495497E-02
  0.13723593E-03 -0.33017306E-03  0.18764422E-02
  0.24632029E-02  0.15973699E-02  0.32329449E-03
 -0.10915637E-02  0.21873627E-02 -0.41071489E-03
 -0.16420893E-02  0.43256240E-03 -0.28494404E-02
 -0.80690234E-03 -0.41937400E-03 -0.78898380E-03
  0.33831291E-03  0.11288690E-02 -0.46582355E-03
  0.21297527E-02  0.54620986E-04  0.87861100E-03
  0.13728390E-02  0.64312102E-03 -0.16509813E-02
  0.20825944E-03  0.22768299E-02 -0.16415952E-02
 
           1
   3.00000000000000     
  0.10000000E+01  0.00000000E+00  0.00000000E+00  0.00000000E+00
  0.58693758E+00  0.28798977E+00  0.28812099E+00
  0.37112840E+00  0.25261713E+00  0.66751882E+00
  0.62763179E-01  0.17486771E+00  0.13198309E+00
  0.95938433E+00  0.49935400E+00  0.53243114E+00
  0.72781140E+00  0.28219484E+00  0.64708082E+00
  0.84505727E-01  0.34803797E+00  0.32354811E+00
  0.58543227E+00  0.10667682E+00  0.77543994E+00
  0.85910530E+00  0.71463554E+00  0.64240646E+00
  0.38071977E+00  0.41188936E+00  0.20277867E+00
  0.76875677E+00  0.38835734E+00  0.56035722E+00
  0.94693110E+00  0.41191278E+00  0.30705417E+00
  0.35109313E+00  0.46923582E+00  0.99058726E+00
  0.24482979E+00  0.15383603E+00  0.44475948E+00
  0.47943021E+00  0.18390112E+00  0.46909672E+00
  0.21194335E+00  0.38759955E+00  0.95257353E+00
  0.62782608E+00  0.96736685E+00  0.81365156E+00
  0.82699070E+00  0.52183976E+00  0.56301626E+00
  0.93630426E+00  0.72146733E+00  0.76138292E+00
  0.62301545E+00  0.20040771E+00  0.17894855E+00
  0.30086243E+00  0.13617274E+00  0.61216249E+00
  0.78226373E+00  0.28467891E-01  0.67265663E+00
  0.56260251E+00  0.98784761E+00  0.18411276E+00
  0.94890037E+00  0.79388449E+00  0.56381636E+00
  0.18599191E-01  0.94695663E+00  0.14599842E+00
  0.93317189E+00  0.84659519E+00  0.93615516E-01
  0.67856361E+00  0.81976750E+00  0.17608147E+00
  0.89172562E-01  0.64739753E+00  0.37525583E+00
  0.97208744E+00  0.12013403E+00  0.13899329E-01
  0.35742768E+00  0.55767427E+00  0.12573097E+00
  0.58431224E+00  0.39258509E+00  0.38606866E+00
  0.64458480E+00  0.29416741E+00  0.89005277E+00
  0.48756927E+00  0.35088487E+00  0.63527656E+00
  0.26863969E+00  0.66678993E+00  0.77164845E+00
  0.36595974E+00  0.87734036E+00  0.43700926E+00
  0.58005493E+00  0.58594483E+00  0.46688498E+00
  0.59882269E-01  0.44791153E+00  0.43422598E+00
  0.71728215E+00  0.74807018E+00  0.66307731E+00
  0.96731599E+00  0.63076482E+00  0.58951429E+00
  0.93358555E+00  0.48878334E+00  0.68353243E+00
  0.81118953E+00  0.49766139E+00  0.28046177E+00
  0.22983916E+00  0.94192325E+00  0.76713955E+00
  0.36084672E+00  0.33073069E+00  0.79751923E+00
  0.42325892E+00  0.79868843E+00  0.96611936E+00
  0.35125353E-01  0.46135080E+00  0.83571168E+00
  0.50136528E+00  0.15536070E+00  0.30646010E+00
  0.69844758E+00  0.43327873E+00  0.83552929E+00
  0.17034256E+00  0.19422235E+00  0.78607747E+00
  0.58170899E+00  0.56806065E+00  0.84636990E+00
  0.98248488E+00  0.30287207E+00  0.12717526E+00
  0.95379252E+00  0.97798060E+00  0.90378132E+00
  0.49025215E+00  0.15895259E+00  0.67608797E+00
  0.56716206E+00  0.98648646E+00  0.33706272E+00
  0.98774865E+00  0.25045900E+00  0.39218295E+00
  0.14946250E+00  0.80440187E+00  0.69948898E+00
  0.80479348E+00  0.66946103E+00  0.50886828E+00
  0.19509500E+00  0.55594342E+00  0.58089004E+00
  0.21903890E+00  0.85296576E+00  0.90917568E+00
  0.43397419E+00  0.30685436E+00  0.32799877E+00
  0.93973369E+00  0.11068940E+00  0.64642713E+00
  0.63847053E-01  0.74308526E+00  0.20002990E+00
  0.88022689E+00  0.22726199E+00  0.94320612E+00
  0.51719277E+00  0.22216052E+00  0.85743018E+00
  0.21466324E+00  0.34609624E+00  0.23994149E+00
  0.99581117E-01  0.19481464E+00  0.27194538E+00
  0.82160083E-01  0.94286813E+00  0.98045692E-03
  0.35251086E+00  0.83268385E+00  0.19505826E+00
  0.88588025E+00  0.50519794E+00  0.89716432E+00
  0.56918423E+00  0.87998150E-01  0.92997818E+00
  0.69124153E+00  0.26585445E+00  0.57775695E-01
  0.78720132E+00  0.65665759E+00  0.13204081E+00
  0.70063024E+00  0.20487543E+00  0.78307709E+00
  0.50656477E+00  0.51326867E+00  0.55468628E-01
  0.20168436E+00  0.63668171E+00  0.21994924E+00
  0.84910010E+00  0.79153898E+00  0.20589952E+00
  0.28605666E+00  0.83515698E+00  0.61720791E+00
  0.59403356E+00  0.24533988E+00  0.57265158E+00
  0.49055052E+00  0.43081745E+00  0.50472995E+00
  0.71022558E+00  0.47690517E+00  0.43864087E+00
  0.32519054E+00  0.13619436E+00  0.76746373E+00
  0.83592347E+00  0.31951702E+00  0.73956253E+00
  0.12900282E+00  0.19960633E+00  0.62378043E+00
  0.64969249E+00  0.72636351E+00  0.50067552E+00
  0.70016613E+00  0.96718980E+00  0.12918474E+00
  0.81378867E+00  0.83978297E-01  0.80492714E+00
  0.19726782E+00  0.23623704E+00  0.11703693E+00
  0.48369240E+00  0.44300107E+00  0.89539141E+00
  0.35361745E+00  0.79010516E+00  0.81561741E+00
  0.49082550E+00  0.60117510E+00  0.20583807E+00
  0.84727802E+00  0.89139741E+00  0.97888377E+00
  0.71015821E+00  0.71574572E+00  0.83322234E+00
  0.94809457E+00  0.82809816E-01  0.16730614E+00
  0.37076784E+00  0.57809907E+00  0.70071120E+00
  0.19639329E+00  0.52583865E+00  0.41677355E+00
  0.12198617E+00  0.88379115E+00  0.25316243E+00
  0.28668466E+00  0.19027045E+00  0.30319066E+00
  0.71611686E+00  0.61670920E+00  0.26072375E+00
  0.35638263E+00  0.26562183E+00  0.50519771E+00
  0.31375622E+00  0.68870605E+00  0.54002057E+00
  0.27784438E-01  0.56928969E+00  0.97083842E+00
  0.84800133E+00  0.93549672E+00  0.38241675E+00
  0.40482087E+00  0.75713148E+00  0.33006460E+00
  0.49179491E+00  0.12019092E+00  0.13035276E+00
  0.69242535E-01  0.33042337E+00  0.93126144E+00
  0.89990501E+00  0.37594484E+00  0.46597143E+00
  0.51616477E+00  0.63264580E+00  0.67826933E+00
  0.85072793E+00  0.68699713E+00  0.89278036E+00
  0.38551325E-01  0.60734431E+00  0.73265163E+00
  0.98634663E+00  0.26816949E+00  0.71270334E+00
  0.72194669E+00  0.93234165E-01  0.25878917E+00
  0.77132827E+00  0.13415531E+00  0.20758133E-01
  0.18570335E-01  0.84286663E+00  0.82037833E+00
  0.82856814E+00  0.87445057E+00  0.62282612E+00
  0.23503545E+00  0.33956140E+00  0.67948622E+00
  0.40068864E+00  0.96920181E+00  0.30949778E+00
  0.16111516E+00  0.28794161E+00  0.44783781E+00
  0.12289461E+00  0.10612126E+00  0.63727030E-02
  0.45091516E+00  0.57280502E-01  0.55591578E+00
  0.90569182E+00  0.55236211E+00  0.15825880E+00
  0.50171608E+00  0.86247988E+00  0.12287635E+00
  0.95275769E+00  0.57248862E+00  0.39410746E+00
  0.93550514E+00  0.80815621E+00  0.41159204E+00
  0.47173438E-01  0.75916599E+00  0.43297490E-01
  0.62708764E+00  0.68617767E-02  0.66209674E+00
  0.23018474E+00  0.96002304E+00  0.41912125E+00
  0.47892312E+00  0.52105708E+00  0.34419571E+00
  0.29315239E+00  0.26125830E+00  0.92404663E+00
  0.47690853E+00  0.15503474E-02  0.81969911E+00
  0.87638768E+00  0.27739609E+00  0.25747370E+00
  0.79904984E-01  0.42275514E+00  0.19193954E+00
  0.56090383E+00  0.64720077E+00  0.99141792E+00
  0.32833139E+00  0.92269704E+00  0.99864999E+00
  0.70914894E+00  0.36820197E+00  0.21848813E+00
  0.79979207E+00  0.16561118E+00  0.58806299E+00
  0.25575775E+00  0.59410302E+00  0.91596667E+00
  0.27371079E+00  0.67895261E+00  0.37080269E+00
  0.24360084E+00  0.46779906E+00  0.80711549E+00
  0.80247844E-01  0.42647280E+00  0.59729811E+00
  0.64559522E+00  0.40750089E+00  0.67994050E+00
  0.80331022E+00  0.59089002E+00  0.70989773E+00
  0.53478398E+00  0.35901736E+00  0.16853816E+00
  0.10465684E+00  0.40317242E-01  0.79257458E+00
  0.43339891E-01  0.90909217E+00  0.60272545E+00
  0.92715089E-01  0.88307052E+00  0.45008240E+00
  0.11130494E+00  0.69072272E+00  0.53343732E+00
  0.38047890E+00  0.32321293E+00  0.85697854E-01
  0.48225648E+00  0.70711965E+00  0.52515628E+00
  0.29661943E-01  0.10144529E+00  0.50540890E+00
  0.64944693E+00  0.85461051E+00  0.32738645E+00
  0.84459217E+00  0.37362767E+00  0.72158659E-02
  0.32901864E+00  0.71920595E+00  0.68075944E-01
  0.94043718E+00  0.61277070E-01  0.36453493E+00
  0.67905422E+00  0.20529056E+00  0.37417116E+00
  0.35645480E-03 -0.76787259E-04  0.10758041E-03
 -0.29148677E-04 -0.10534707E-03  0.45526084E-03
 -0.38208804E-03 -0.35123298E-05 -0.12775825E-04
 -0.19741299E-03 -0.14335703E-03 -0.42885001E-04
  0.40300934E-04  0.31552266E-03  0.39483765E-03
  0.40141141E-03 -0.12787520E-03  0.10643740E-03
 -0.39025660E-04  0.64323700E-04  0.60470364E-04
  0.19965141E-03 -0.13769602E-03 -0.26304928E-03
 -0.22855565E-03 -0.97896780E-06  0.24383410E-03
 -0.41434412E-03 -0.77449314E-05 -0.76251092E-03
  0.17914807E-03 -0.99590702E-04  0.40829475E-03
  0.20276126E-03  0.17315203E-03  0.28694123E-03
 -0.63518574E-04  0.68876426E-03 -0.18122786E-03
 -0.65512704E-03  0.22715424E-03 -0.10221354E-03
  0.22842602E-03 -0.29877958E-03  0.52557648E-04
  0.16812666E-03  0.13786691E-03  0.15289461E-03
 -0.16677612E-04 -0.23338783E-03  0.31656786E-03
 -0.34385851E-03 -0.11528209E-03 -0.23728512E-03
  0.91028043E-04  0.24449925E-03  0.88915034E-04
 -0.65613293E-03 -0.39148507E-03 -0.57900265E-03
  0.10354930E-03  0.30699080E-03  0.10898856E-03
  0.10564202E-03  0.92369406E-04 -0.38393294E-03
  0.59018954E-04 -0.40233655E-03  0.30056318E-03
 -0.19624420E-03  0.28195782E-05 -0.59251158E-03
  0.69592251E-03  0.20305182E-03  0.11877266E-04
  0.14397429E-03 -0.18443947E-03 -0.23196656E-03
 -0.39233514E-04  0.20717043E-03 -0.24852572E-03
  0.56174976E-04  0.21754367E-03 -0.23103196E-03
  0.13059068E-03 -0.35793085E-03 -0.80287985E-04
  0.27953393E-03  0.65988567E-03 -0.10265637E-02
 -0.24905050E-03 -0.47539573E-03  0.11259613E-04
  0.13595141E-03 -0.72356691E-04  0.14952863E-04
  0.19597918E-03  0.16614478E-03 -0.37509781E-03
  0.31710985E-03  0.68207897E-03 -0.22217311E-03
 -0.83488649E-03  0.52040133E-03 -0.15992463E-03
 -0.41927095E-03 -0.24119871E-03 -0.20396904E-03
 -0.45486910E-03  0.38696855E-03 -0.10264040E-03
 -0.59351998E-03 -0.31464966E-03  0.42247547E-03
  0.29487746E-03 -0.53962911E-03  0.12673060E-03
  0.30682464E-03 -0.11881584E-03 -0.48095461E-03
 -0.24979379E-03 -0.16103683E-03  0.28146368E-03
  0.10089125E-03 -0.63714176E-04 -0.31699543E-03
  0.21082582E-03 -0.12582804E-03 -0.53285900E-03
  0.29525235E-05 -0.34126882E-03  0.35796184E-04
 -0.16561460E-03 -0.13257800E-03  0.11288517E-03
  0.28435651E-03 -0.37986290E-03  0.14178723E-03
  0.40139522E-04  0.15930653E-03  0.56199872E-04
  0.17585133E-03  0.24369236E-03  0.11828997E-04
 -0.45718770E-04  0.19512378E-04  0.27532804E-03
 -0.15169966E-03 -0.10714425E-03 -0.43480506E-04
  0.29020153E-03 -0.50637280E-03 -0.14054552E-03
  0.12443511E-03  0.32957574E-04 -0.15794716E-03
  0.74071455E-05  0.31132839E-03  0.16413990E-03
 -0.19604225E-03 -0.42915156E-03 -0.58243285E-04
 -0.95635685E-04 -0.53830507E-04  0.61865894E-03
  0.25410668E-03  0.24232238E-03  0.20015233E-03
 -0.22625342E-03  0.34865804E-04 -0.71344435E-04
 -0.92271621E-04 -0.31931507E-03 -0.71576548E-04
 -0.19395149E-03  0.14885446E-03 -0.78003552E-04
 -0.19644917E-03 -0.40780362E-04  0.20625145E-03
 -0.33929738E-03 -0.86722111E-04  0.37255643E-04
  0.34224595E-03  0.24234180E-03 -0.10237069E-04
  0.65263990E-04  0.15321907E-03  0.22845701E-03
  0.21778183E-03 -0.73496714E-04 -0.28673812E-03
 -0.12499946E-03 -0.34835147E-03  0.11342461E-03
  0.35081413E-03 -0.21171866E-03  0.48461618E-03
  0.12229621E-03 -0.14639101E-04  0.51741406E-03
  0.36906775E-03  0.20366475E-03 -0.16406814E-03
  0.17674757E-03 -0.58985239E-03 -0.51668845E-03
 -0.74974417E-04 -0.14390303E-03 -0.10739458E-03
 -0.10785862E-03 -0.13324871E-03  0.38283426E-03
 -0.18280504E-03  0.86152455E-04  0.36458972E-03
  0.29927388E-03 -0.41462596E-04 -0.30156260E-03
  0.95085058E-04  0.35630504E-03  0.41219932E-04
 -0.17601331E-04 -0.25336466E-03  0.28238894E-03
  0.15383451E-03  0.60157327E-04  0.64889248E-04
 -0.27447993E-03 -0.58080050E-03  0.91135610E-04
 -0.14635595E-04 -0.21646392E-04  0.61347152E-04
 -0.22276349E-03  0.45187225E-04 -0.25893886E-03
  0.19320048E-03 -0.11824799E-03 -0.29328945E-04
 -0.31220073E-04  0.12851563E-04 -0.67867149E-04
  0.11567953E-03  0.12863414E-03 -0.10199813E-03
  0.16845386E-03 -0.18571431E-03  0.35278024E-04
  0.14175420E-03  0.13192019E-03 -0.34080351E-03
 -0.30829576E-03 -0.38869104E-03 -0.33662385E-04
 -0.59069980E-04  0.12248858E-03  0.19169530E-03
  0.72109968E-04  0.12747620E-04  0.27509125E-03
  0.40943988E-03  0.27371441E-03  0.28525378E-03
  0.16124669E-03  0.52078200E-03 -0.39609399E-04
 -0.40715288E-04 -0.16357952E-03  0.22685117E-03
 -0.65743867E-04  0.16421762E-04  0.17322142E-03
 -0.20132518E-03 -0.12372079E-03 -0.24030606E-03
  0.19728709E-03 -0.28288810E-03 -0.32173616E-03
 -0.34309734E-03 -0.21154407E-04  0.18186732E-03
  0.57861821E-03  0.33987988E-03 -0.10317030E-03
 -0.49168945E-03  0.18390658E-03 -0.49452544E-04
 -0.15196732E-03  0.42780365E-03  0.18793371E-03
  0.23144106E-03  0.69705343E-04 -0.14480471E-04
  0.23377280E-03  0.42784168E-03  0.30828304E-03
  0.12722818E-03 -0.77192256E-04 -0.40717970E-03
 -0.17141629E-03  0.34664432E-03 -0.43102756E-03
 -0.13630173E-03  0.50154434E-03 -0.26821874E-03
 -0.22754102E-04 -0.22272210E-03  0.18859923E-03
 -0.18218290E-05 -0.15075039E-03 -0.30133957E-04
 -0.96215114E-04 -0.49339628E-03 -0.25489528E-03
 -0.34012957E-03 -0.21773195E-03 -0.84616662E-04
  0.53861371E-04 -0.56590454E-03  0.45456613E-04
 -0.33291555E-03 -0.15422240E-03 -0.21118023E-03
  0.51508684E-04 -0.32273398E-03 -0.27279990E-03
  0.55734697E-04 -0.13839244E-03  0.11262170E-03