Ge57-Sb43-Te108 3x3x3 cubic-NaCl gst225 
   1.00000000000000     
    19.3862270640989074   -0.0300683360116493   -0.1147034518809281
    -0.0223647820847917   18.3169644596160843    0.0086764892853373
    -0.1084370048489790    0.0088212953466982   18.0623820586606740
   Ge   Sb   Te
    57    43   108
Direct
  0.1778626711597912  0.1715562683933332 -0.0020909701219452
  0.0122958750160028 -0.0180982977145905  0.3346135878465573
  0.1536158383299875 -0.0004598491266702  0.4989893591842013
 -0.0082643583307493 -0.0098605900630644  0.6668026394491064
  0.1608230243853159  0.1731387494039744  0.6646781128562579
  0.1658731189919242  0.0018559313610352  0.8287965593837615
  0.0105888259816158  0.1522165384930402  0.8294324268520564
  0.1691682856170661  0.4971452297731085  0.0109462249173737
  0.0063015387414337  0.4923214494808508  0.1644034850385086
  0.1643209071701158  0.5000418167817370  0.6583351728692463
  0.1485194431089557  0.6514651371482135  0.1683457760740645
  0.0080777854410871  0.8362677425869607  0.1725408541655596
  0.1612249763587702  0.8266626109993394  0.3331301100177873
  0.1503794230643663  0.6747639401099592  0.4913554219952153
 -0.0075799564193431  0.6741726561778191  0.6566158075054576
  0.1501955687935644  0.8370031465694053  0.6617951467799305
  0.5096513658076526  0.1638794600849219  0.0038713228691794
  0.5032625145496675  0.1638878671994739  0.3338864583519882
  0.4918625204922845 -0.0093880294669799  0.5019548761547910
  0.3172345280464168  0.0034636054956951  0.6658416342816332
  0.3280808249427214  0.1711321561199533  0.8309465014567032
  0.4944109234786977  0.4931501998776349 -0.0008492651064023
  0.4957801938386122  0.3287561797119326  0.1671897245362713
  0.3253541085539261  0.3400412948940817  0.3351796227393173
  0.5003366690357768  0.3240095172471906  0.4998391542811921
  0.3204118925207934  0.5058775038447357  0.5043034414047919
  0.3230430373595135  0.3382239125909292  0.6630510069233067
  0.4935330055753236  0.3282924888836519  0.8352227890453424
  0.3193266753936487  0.4997990858535231  0.8305778091034910
  0.3228513085649099  0.6667447048224175  0.0040511437546398
  0.5032311502032326  0.8274671577455440 -0.0013634970918643
  0.5006564472003688  0.6649356155972159  0.1680364194720355
  0.3432739274057703  0.8278119596069748  0.1697189884784234
  0.3124230968103219  0.6679961771837607  0.3329556951014864
  0.4989354115064753  0.8257587388561010  0.3352102185693986
  0.4880027867624925  0.6617277821683021  0.4997075029070892
  0.3228021188422555  0.8315787661857303  0.4973185959280647
  0.3197583004382109  0.6680276439550824  0.6633354243747748
  0.4909836560506416  0.8253101944826901  0.6647607525304632
  0.4842844782903972  0.6582871239684001  0.8356662699581134
  0.8400297015029802  0.0076360971126506  0.1691971920966186
  0.6821097275798910  0.1656660035969631  0.1677879086698777
  0.8253388630792705  0.0049062002784799  0.5060418321548934
  0.6725869402409310  0.1694779859916774  0.4964791320204847
  0.6646619119431207 -0.0022211312458324  0.6666746570588175
  0.8451074463221583  0.0157458543543456  0.8319861945782229
  0.6596315745965580  0.3289066374964141  0.0023022093263118
  0.8393073813349420  0.5061705289450520 -0.0035760744631084
  0.8299536789276639  0.3318423355085065  0.1607033800078994
  0.6501439146748204  0.6650613164743404  0.0011891438078869
  0.6732216728041115  0.8333364239648666  0.1642222528899281
  0.6565428110010648  0.6708831327101518  0.3364834083171582
  0.8222839223054902  0.6745851731598198  0.5032386006543356
  0.6577951096867937  0.6711104204128754  0.6718398895352433
  0.8278632179832159  0.8441619241739126  0.6683262678888497
  0.8358889619298553  0.6685231933290472  0.8286232141524736
  0.6863165215185211  0.8295144524784032  0.8359580185921424
  0.0031365399227052 -0.0095487553122457  0.0049296756217878
  0.1676085777446678  0.0019516635688006  0.1689773845278004
  0.1679671949009410  0.1772299144976429  0.3286851273837889
  0.0017256420640209  0.1579195051883415  0.4854754953174545
 -0.0186787599636933  0.2984816274765814 -0.0062591645722448
 -0.0023296350518743  0.3385353510605622  0.3270333460763412
  0.1632392555900255  0.3428343409834348  0.4889550096135313
  0.0024163511233718  0.5177040659096046  0.4936348281435818
 -0.0054218352756395  0.3259268643868684  0.6654856421285158
  0.1602063104943091  0.3358843215035389  0.8386635060271604
 -0.0051724943823281  0.5132158579126517  0.8291299291525421
  0.0024076557623073  0.6596456992707392  0.0123361380403709
  0.1607805644568377  0.8330531025752799  0.0020713504762785
  0.1607809175284805  0.6669124153691172  0.8292170814895863
  0.3318880032805327 -0.0019255523867032 -0.0036881392725108
  0.4983699851331093 -0.0035974591585123  0.1670429387881340
  0.3380165205144322  0.1692148466041822  0.1646518318630746
  0.3366746127809267 -0.0003045871838484  0.3364758681195786
  0.3273789853057480  0.1722310992293469  0.5028257866356597
  0.5032767237825603  0.1619838243721742  0.6678808205648049
  0.5036141754163854 -0.0063489067005852  0.8346752847245543
  0.3284918593564881  0.3317241542730226 -0.0005803458454341
  0.3250316122452703  0.5039860534790686  0.1714152392135088
  0.4952264601523454  0.4950948492567404  0.3350757422204301
  0.4972170839216760  0.4949697987361381  0.6709480560112948
  0.3357083288733052  0.8297165187661411  0.8326818315248262
  0.6773358446940262 -0.0024538151907103  0.0010311333954026
  0.8568759028831521  0.1990296529562011 -0.0170775832923871
  0.6647206499311531  0.0021196144203516  0.3369692353173767
  0.8462895325074202  0.1677922416299123  0.3377902560852631
  0.6841617141295744  0.1672053841428954  0.8340802955551685
  0.6553750621476518  0.4996579550694941  0.1682515974184770
  0.6706444985004331  0.3288439190738398  0.3334330642202539
  0.8316588063030221  0.5050016872214560  0.3301598359220140
  0.8371942450202057  0.3297219495957059  0.5117429966658061
  0.6723750460562775  0.5021649363404819  0.5015444313145434
  0.6676955377206381  0.3278013135429634  0.6697777629427789
  0.8302344116390414  0.4959604540481809  0.6694345719831053
  0.6761165117291678  0.4968841043463335  0.8387174048693642
  0.8441470605123564  0.8424447460905653 -0.0042545324186516
  0.8280955071456427  0.6679660088208305  0.1639174442614645
  0.8465699855205695  0.8352010889637955  0.3347113964176579
  0.6680767218760191  0.8312923668598061  0.4980303052100618
  0.1745939918598363 -0.0006093193645421 -0.0042061953225911
  0.0353727001773380  0.1546986363768589 -0.0018924992101487
 -0.0035032434029956 -0.0048583306298476  0.1682614742044068
  0.1852088053779883  0.1684357552377516  0.1617146753395959
  0.1635135797033656 -0.0021283985816382  0.3339739343035205
  0.0105062252790531  0.1674971199997102  0.3254402918013474
  0.0086354761536962 -0.0045523760618461  0.4961872118433004
  0.1606396722835213  0.1667540101743716  0.4973195453148704
  0.1708507181166198 -0.0008339873222022  0.6630393713564176
  0.0138071780274593  0.1632928359757106  0.6671423411370851
  0.0092318964475831 -0.0019044722110652  0.8281852236203566
  0.1775174270830431  0.1624427471723152  0.8306488724078875
  0.1680351024904475  0.3308976335402480  0.0031222194535533
 -0.0110883034048744  0.4955543516080157  0.0014237155709933
 -0.0216287593311536  0.3353572109786039  0.1608611395864740
  0.1535930040625649  0.4966685469058851  0.1672821509713291
  0.1752364555437840  0.3373328651351808  0.3253161037618653
 -0.0119514981504621  0.5023945383306480  0.3250063151964256
  0.0018833954133413  0.3352694246514464  0.4955035933369334
  0.1744789758151369  0.5062433982434679  0.4958152115435043
  0.1679693349315175  0.3339310569203885  0.6619366442203256
  0.0087361959360027  0.5067787155265554  0.6607118570374521
  0.0051142676002813  0.3300797624695180  0.8322667788364755
  0.1679764630924069  0.5003065806427939  0.8306617459793590
  0.1753984403751591  0.6618980199587325  0.0030964009000043
  0.0033751809697529  0.8306219402819430 -0.0040826037446823
 -0.0010311765842273  0.6641180782572953  0.1706201586086538
  0.1555409377837188  0.8312400272377957  0.1689591438149958
  0.1691484505964212  0.6682442489209061  0.3309956705731265
  0.0131294436082925  0.8302080754671308  0.3345018590241712
  0.0050795253266878  0.6760984216972711  0.4947615342618169
  0.1751301979288136  0.8334519838138308  0.4967308794248939
  0.1726398839072478  0.6657578259971335  0.6590338144560510
  0.0077163052250967  0.8351255418311837  0.6626582392789730
  0.0041939248500848  0.6702129210652085  0.8287393157879821
  0.1772502230039239  0.8335264046849122  0.8282163692691628
  0.5065164223337781  0.0055541666590583  0.0031728074299854
  0.3465025466418712  0.1634478528835871 -0.0056965946915041
  0.3294107706498781 -0.0074981672176898  0.1667963722780099
  0.5089034472220672  0.1721604418071236  0.1687872730810491
  0.5040619323174318  0.0028407799565275  0.3381194358136108
  0.3498839407816401  0.1648367841906835  0.3347716229995335
  0.3425280049043927 -0.0089967661054011  0.5048112765906602
  0.5082377531998274  0.1672240653126284  0.4982841620355559
  0.5149002683998909 -0.0024984470234608  0.6657712941970010
  0.3340757564132321  0.1584716229933320  0.6685737470117674
  0.3323953628073229 -0.0025296799931831  0.8296496264904530
  0.5058160421530005  0.1692931051314067  0.8377815392267591
  0.4898964352748671  0.3391795048394862  0.0026653081153422
  0.3207071935616846  0.5004335619135091  0.0003936970792772
  0.3378605993700921  0.3325587050453492  0.1702344518122405
  0.4887049087429799  0.5045380400605707  0.1661239886019095
  0.4977764100562912  0.3326785314566917  0.3361628517874788
  0.3312198960822123  0.4953741327690017  0.3380494628893849
  0.3399651463728385  0.3313738049583182  0.5000733007390930
  0.5038646518691320  0.5025402382877676  0.5040660099691280
  0.4863720484489408  0.3337414409740528  0.6693079973326080
  0.3232223434411031  0.4935345655542482  0.6660410992576961
  0.3312851807669924  0.3288948739235140  0.8305459666875133
  0.4836414773885630  0.5023833761539056  0.8400492148544424
  0.5032909374859794  0.6715598575580161  0.0022957601986358
  0.3443116577243824  0.8259262145333616  0.0029378323680279
  0.3278244506140363  0.6672836838117244  0.1673173550683091
  0.4928270822088894  0.8333588797847921  0.1703561458679103
  0.5022559922963148  0.6697572968326605  0.3368388844167944
  0.3349528481973659  0.8273284165138899  0.3340714060735726
  0.3390497088478798  0.6608593848486997  0.5002893791449979
  0.5029764236455868  0.8347929994865012  0.5038036383810038
  0.5089708693544110  0.6697084695089766  0.6707951539825778
  0.3414653593109979  0.8254072692373873  0.6627613155138466
  0.3362221912062382  0.6583029095106130  0.8331107387041858
  0.5053222558871812  0.8317357012121894  0.8358231825857454
  0.8406939254679955  0.0048202575558248 -0.0005751087860966
  0.6634778963342992  0.1732930466899119  0.0050412686956373
  0.6794970860657047  0.0049967036884306  0.1696998963588802
  0.8286044761062138  0.1712242510124846  0.1660422162943320
  0.8405078246965486  0.0006715638711143  0.3361820998970178
  0.6703888151653105  0.1663447893116617  0.3361540233824180
  0.6772016222494377  0.0058943497691725  0.5053028378011032
  0.8255365057491300  0.1675035521354103  0.5053021616821193
  0.8445684068426071  0.0000895001578886  0.6683671475634266
  0.6679446728252112  0.1646977817878765  0.6684948565858760
  0.6842827403956846  0.0055859550534359  0.8321256162222672
  0.8637055523868397  0.1702450114654363  0.8252732892230844
  0.8032035182142488  0.3458514963087800 -0.0005774298881701
  0.6462123652710584  0.5057899620230051  0.0013684252683463
  0.6557846417868279  0.3357371356784155  0.1675780813037253
  0.8202825222087774  0.5009692717685776  0.1614961897083545
  0.8314386504034827  0.3328493166984722  0.3335970414886346
  0.6603372414985591  0.5057497382758485  0.3373289618347818
  0.6593012174247551  0.3288980599956999  0.5042214022174347
  0.8372230418408488  0.5035513631069679  0.5022150577724230
  0.8270060462781462  0.3329671993075368  0.6747030789448193
  0.6601969721161157  0.5038839508991887  0.6725691517759040
  0.6480053815249297  0.3370440591522313  0.8403605846585647
  0.8358752919954500  0.5027663213140413  0.8350475126646086
  0.8395111219492667  0.6660662856328685 -0.0014006486495334
  0.6616620121041470  0.8375141766145896  0.0030834229163945
  0.6549055692936517  0.6728845472945938  0.1692184123484012
  0.8245758458519401  0.8387792846390439  0.1673460358134828
  0.8203673909501498  0.6709544834145897  0.3367337061286368
  0.6575056243646876  0.8315344852215213  0.3327562904736487
  0.6718989461410717  0.6667674847055838  0.5044592076931814
  0.8276060348337969  0.8361349302628814  0.5039980276050177
  0.8447204831783022  0.6706122649417043  0.6663269330124661
  0.6750203021644342  0.8382184837832445  0.6721083698064815
  0.6815041596874373  0.6711139893597597  0.8362516474108584
  0.8311224400524989  0.8341578438654238  0.8309982796634663
 
  0.00000000E+00  0.00000000E+00  0.00000000E+00
  0.00000000E+00  0.00000000E+00  0.00000000E+00
  0.00000000E+00  0.00000000E+00  0.00000000E+00
  0.00000000E+00  0.00000000E+00  0.00000000E+00
  0.00000000E+00  0.00000000E+00  0.00000000E+00
  0.00000000E+00  0.00000000E+00  0.00000000E+00
  0.00000000E+00  0.00000000E+00  0.00000000E+00
  0.00000000E+00  0.00000000E+00  0.00000000E+00
  0.00000000E+00  0.00000000E+00  0.00000000E+00
  0.00000000E+00  0.00000000E+00  0.00000000E+00
  0.00000000E+00  0.00000000E+00  0.00000000E+00
  0.00000000E+00  0.00000000E+00  0.00000000E+00
  0.00000000E+00  0.00000000E+00  0.00000000E+00
  0.00000000E+00  0.00000000E+00  0.00000000E+00
  0.00000000E+00  0.00000000E+00  0.00000000E+00
  0.00000000E+00  0.00000000E+00  0.00000000E+00
  0.00000000E+00  0.00000000E+00  0.00000000E+00
  0.00000000E+00  0.00000000E+00  0.00000000E+00
  0.00000000E+00  0.00000000E+00  0.00000000E+00
  0.00000000E+00  0.00000000E+00  0.00000000E+00
  0.00000000E+00  0.00000000E+00  0.00000000E+00
  0.00000000E+00  0.00000000E+00  0.00000000E+00
  0.00000000E+00  0.00000000E+00  0.00000000E+00
  0.00000000E+00  0.00000000E+00  0.00000000E+00
  0.00000000E+00  0.00000000E+00  0.00000000E+00
  0.00000000E+00  0.00000000E+00  0.00000000E+00
  0.00000000E+00  0.00000000E+00  0.00000000E+00
  0.00000000E+00  0.00000000E+00  0.00000000E+00
  0.00000000E+00  0.00000000E+00  0.00000000E+00
  0.00000000E+00  0.00000000E+00  0.00000000E+00
  0.00000000E+00  0.00000000E+00  0.00000000E+00
  0.00000000E+00  0.00000000E+00  0.00000000E+00
  0.00000000E+00  0.00000000E+00  0.00000000E+00
  0.00000000E+00  0.00000000E+00  0.00000000E+00
  0.00000000E+00  0.00000000E+00  0.00000000E+00
  0.00000000E+00  0.00000000E+00  0.00000000E+00
  0.00000000E+00  0.00000000E+00  0.00000000E+00
  0.00000000E+00  0.00000000E+00  0.00000000E+00
  0.00000000E+00  0.00000000E+00  0.00000000E+00
  0.00000000E+00  0.00000000E+00  0.00000000E+00
  0.00000000E+00  0.00000000E+00  0.00000000E+00
  0.00000000E+00  0.00000000E+00  0.00000000E+00
  0.00000000E+00  0.00000000E+00  0.00000000E+00
  0.00000000E+00  0.00000000E+00  0.00000000E+00
  0.00000000E+00  0.00000000E+00  0.00000000E+00
  0.00000000E+00  0.00000000E+00  0.00000000E+00
  0.00000000E+00  0.00000000E+00  0.00000000E+00
  0.00000000E+00  0.00000000E+00  0.00000000E+00
  0.00000000E+00  0.00000000E+00  0.00000000E+00
  0.00000000E+00  0.00000000E+00  0.00000000E+00
  0.00000000E+00  0.00000000E+00  0.00000000E+00
  0.00000000E+00  0.00000000E+00  0.00000000E+00
  0.00000000E+00  0.00000000E+00  0.00000000E+00
  0.00000000E+00  0.00000000E+00  0.00000000E+00
  0.00000000E+00  0.00000000E+00  0.00000000E+00
  0.00000000E+00  0.00000000E+00  0.00000000E+00
  0.00000000E+00  0.00000000E+00  0.00000000E+00
  0.00000000E+00  0.00000000E+00  0.00000000E+00
  0.00000000E+00  0.00000000E+00  0.00000000E+00
  0.00000000E+00  0.00000000E+00  0.00000000E+00
  0.00000000E+00  0.00000000E+00  0.00000000E+00
  0.00000000E+00  0.00000000E+00  0.00000000E+00
  0.00000000E+00  0.00000000E+00  0.00000000E+00
  0.00000000E+00  0.00000000E+00  0.00000000E+00
  0.00000000E+00  0.00000000E+00  0.00000000E+00
  0.00000000E+00  0.00000000E+00  0.00000000E+00
  0.00000000E+00  0.00000000E+00  0.00000000E+00
  0.00000000E+00  0.00000000E+00  0.00000000E+00
  0.00000000E+00  0.00000000E+00  0.00000000E+00
  0.00000000E+00  0.00000000E+00  0.00000000E+00
  0.00000000E+00  0.00000000E+00  0.00000000E+00
  0.00000000E+00  0.00000000E+00  0.00000000E+00
  0.00000000E+00  0.00000000E+00  0.00000000E+00
  0.00000000E+00  0.00000000E+00  0.00000000E+00
  0.00000000E+00  0.00000000E+00  0.00000000E+00
  0.00000000E+00  0.00000000E+00  0.00000000E+00
  0.00000000E+00  0.00000000E+00  0.00000000E+00
  0.00000000E+00  0.00000000E+00  0.00000000E+00
  0.00000000E+00  0.00000000E+00  0.00000000E+00
  0.00000000E+00  0.00000000E+00  0.00000000E+00
  0.00000000E+00  0.00000000E+00  0.00000000E+00
  0.00000000E+00  0.00000000E+00  0.00000000E+00
  0.00000000E+00  0.00000000E+00  0.00000000E+00
  0.00000000E+00  0.00000000E+00  0.00000000E+00
  0.00000000E+00  0.00000000E+00  0.00000000E+00
  0.00000000E+00  0.00000000E+00  0.00000000E+00
  0.00000000E+00  0.00000000E+00  0.00000000E+00
  0.00000000E+00  0.00000000E+00  0.00000000E+00
  0.00000000E+00  0.00000000E+00  0.00000000E+00
  0.00000000E+00  0.00000000E+00  0.00000000E+00
  0.00000000E+00  0.00000000E+00  0.00000000E+00
  0.00000000E+00  0.00000000E+00  0.00000000E+00
  0.00000000E+00  0.00000000E+00  0.00000000E+00
  0.00000000E+00  0.00000000E+00  0.00000000E+00
  0.00000000E+00  0.00000000E+00  0.00000000E+00
  0.00000000E+00  0.00000000E+00  0.00000000E+00
  0.00000000E+00  0.00000000E+00  0.00000000E+00
  0.00000000E+00  0.00000000E+00  0.00000000E+00
  0.00000000E+00  0.00000000E+00  0.00000000E+00
  0.00000000E+00  0.00000000E+00  0.00000000E+00
  0.00000000E+00  0.00000000E+00  0.00000000E+00
  0.00000000E+00  0.00000000E+00  0.00000000E+00
  0.00000000E+00  0.00000000E+00  0.00000000E+00
  0.00000000E+00  0.00000000E+00  0.00000000E+00
  0.00000000E+00  0.00000000E+00  0.00000000E+00
  0.00000000E+00  0.00000000E+00  0.00000000E+00
  0.00000000E+00  0.00000000E+00  0.00000000E+00
  0.00000000E+00  0.00000000E+00  0.00000000E+00
  0.00000000E+00  0.00000000E+00  0.00000000E+00
  0.00000000E+00  0.00000000E+00  0.00000000E+00
  0.00000000E+00  0.00000000E+00  0.00000000E+00
  0.00000000E+00  0.00000000E+00  0.00000000E+00
  0.00000000E+00  0.00000000E+00  0.00000000E+00
  0.00000000E+00  0.00000000E+00  0.00000000E+00
  0.00000000E+00  0.00000000E+00  0.00000000E+00
  0.00000000E+00  0.00000000E+00  0.00000000E+00
  0.00000000E+00  0.00000000E+00  0.00000000E+00
  0.00000000E+00  0.00000000E+00  0.00000000E+00
  0.00000000E+00  0.00000000E+00  0.00000000E+00
  0.00000000E+00  0.00000000E+00  0.00000000E+00
  0.00000000E+00  0.00000000E+00  0.00000000E+00
  0.00000000E+00  0.00000000E+00  0.00000000E+00
  0.00000000E+00  0.00000000E+00  0.00000000E+00
  0.00000000E+00  0.00000000E+00  0.00000000E+00
  0.00000000E+00  0.00000000E+00  0.00000000E+00
  0.00000000E+00  0.00000000E+00  0.00000000E+00
  0.00000000E+00  0.00000000E+00  0.00000000E+00
  0.00000000E+00  0.00000000E+00  0.00000000E+00
  0.00000000E+00  0.00000000E+00  0.00000000E+00
  0.00000000E+00  0.00000000E+00  0.00000000E+00
  0.00000000E+00  0.00000000E+00  0.00000000E+00
  0.00000000E+00  0.00000000E+00  0.00000000E+00
  0.00000000E+00  0.00000000E+00  0.00000000E+00
  0.00000000E+00  0.00000000E+00  0.00000000E+00
  0.00000000E+00  0.00000000E+00  0.00000000E+00
  0.00000000E+00  0.00000000E+00  0.00000000E+00
  0.00000000E+00  0.00000000E+00  0.00000000E+00
  0.00000000E+00  0.00000000E+00  0.00000000E+00
  0.00000000E+00  0.00000000E+00  0.00000000E+00
  0.00000000E+00  0.00000000E+00  0.00000000E+00
  0.00000000E+00  0.00000000E+00  0.00000000E+00
  0.00000000E+00  0.00000000E+00  0.00000000E+00
  0.00000000E+00  0.00000000E+00  0.00000000E+00
  0.00000000E+00  0.00000000E+00  0.00000000E+00
  0.00000000E+00  0.00000000E+00  0.00000000E+00
  0.00000000E+00  0.00000000E+00  0.00000000E+00
  0.00000000E+00  0.00000000E+00  0.00000000E+00
  0.00000000E+00  0.00000000E+00  0.00000000E+00
  0.00000000E+00  0.00000000E+00  0.00000000E+00
  0.00000000E+00  0.00000000E+00  0.00000000E+00
  0.00000000E+00  0.00000000E+00  0.00000000E+00
  0.00000000E+00  0.00000000E+00  0.00000000E+00
  0.00000000E+00  0.00000000E+00  0.00000000E+00
  0.00000000E+00  0.00000000E+00  0.00000000E+00
  0.00000000E+00  0.00000000E+00  0.00000000E+00
  0.00000000E+00  0.00000000E+00  0.00000000E+00
  0.00000000E+00  0.00000000E+00  0.00000000E+00
  0.00000000E+00  0.00000000E+00  0.00000000E+00
  0.00000000E+00  0.00000000E+00  0.00000000E+00
  0.00000000E+00  0.00000000E+00  0.00000000E+00
  0.00000000E+00  0.00000000E+00  0.00000000E+00
  0.00000000E+00  0.00000000E+00  0.00000000E+00
  0.00000000E+00  0.00000000E+00  0.00000000E+00
  0.00000000E+00  0.00000000E+00  0.00000000E+00
  0.00000000E+00  0.00000000E+00  0.00000000E+00
  0.00000000E+00  0.00000000E+00  0.00000000E+00
  0.00000000E+00  0.00000000E+00  0.00000000E+00
  0.00000000E+00  0.00000000E+00  0.00000000E+00
  0.00000000E+00  0.00000000E+00  0.00000000E+00
  0.00000000E+00  0.00000000E+00  0.00000000E+00
  0.00000000E+00  0.00000000E+00  0.00000000E+00
  0.00000000E+00  0.00000000E+00  0.00000000E+00
  0.00000000E+00  0.00000000E+00  0.00000000E+00
  0.00000000E+00  0.00000000E+00  0.00000000E+00
  0.00000000E+00  0.00000000E+00  0.00000000E+00
  0.00000000E+00  0.00000000E+00  0.00000000E+00
  0.00000000E+00  0.00000000E+00  0.00000000E+00
  0.00000000E+00  0.00000000E+00  0.00000000E+00
  0.00000000E+00  0.00000000E+00  0.00000000E+00
  0.00000000E+00  0.00000000E+00  0.00000000E+00
  0.00000000E+00  0.00000000E+00  0.00000000E+00
  0.00000000E+00  0.00000000E+00  0.00000000E+00
  0.00000000E+00  0.00000000E+00  0.00000000E+00
  0.00000000E+00  0.00000000E+00  0.00000000E+00
  0.00000000E+00  0.00000000E+00  0.00000000E+00
  0.00000000E+00  0.00000000E+00  0.00000000E+00
  0.00000000E+00  0.00000000E+00  0.00000000E+00
  0.00000000E+00  0.00000000E+00  0.00000000E+00
  0.00000000E+00  0.00000000E+00  0.00000000E+00
  0.00000000E+00  0.00000000E+00  0.00000000E+00
  0.00000000E+00  0.00000000E+00  0.00000000E+00
  0.00000000E+00  0.00000000E+00  0.00000000E+00
  0.00000000E+00  0.00000000E+00  0.00000000E+00
  0.00000000E+00  0.00000000E+00  0.00000000E+00
  0.00000000E+00  0.00000000E+00  0.00000000E+00
  0.00000000E+00  0.00000000E+00  0.00000000E+00
  0.00000000E+00  0.00000000E+00  0.00000000E+00
  0.00000000E+00  0.00000000E+00  0.00000000E+00
  0.00000000E+00  0.00000000E+00  0.00000000E+00
  0.00000000E+00  0.00000000E+00  0.00000000E+00
  0.00000000E+00  0.00000000E+00  0.00000000E+00
  0.00000000E+00  0.00000000E+00  0.00000000E+00
  0.00000000E+00  0.00000000E+00  0.00000000E+00
  0.00000000E+00  0.00000000E+00  0.00000000E+00
  0.00000000E+00  0.00000000E+00  0.00000000E+00
  0.00000000E+00  0.00000000E+00  0.00000000E+00
  0.00000000E+00  0.00000000E+00  0.00000000E+00
  0.00000000E+00  0.00000000E+00  0.00000000E+00
