Amorphous Sb                            
   1.00000000000000     
    16.0678869700586908    0.0000000000000000    0.0000000000000000
     0.0000000000000000   16.0678869700586908    0.0000000000000000
     0.0000000000000000    0.0000000000000000   16.0678869700586908
   In   O 
   120   179
Direct
  0.0400015975348277  0.6647557585218625  0.2532455267364235
  0.5339768976441989  0.0100745827995823  0.2105554793686329
  0.0751656975085813  0.4316974443964474  0.3126017112342121
  0.3246730567051326  0.4115204741167948  0.8705298615585406
  0.6786288373570265  0.9797293466857018  0.8601606051377146
  0.9787589701296395  0.0907736918529514  0.1080180554109049
  0.3289852981292273  0.7064988278158298  0.3664179702214749
  0.6845373037117399  0.7259419325717508  0.1178670144197841
  0.6682046748590863  0.3266441321346077  0.1979026882044458
  0.6800441800859536  0.2954549959573760  0.4265356031138879
  0.0472769631988469  0.6356316588048314  0.6410895001877435
  0.4709932653527649  0.2942498340123423  0.7794186289787226
  0.3503378406179402  0.2403918882586016  0.9615109064197579
  0.8063633442812194  0.9220613752665713  0.6239516972482795
  0.8872350008825211  0.3700929825542792  0.4703268655751919
  0.8043814547600064  0.2779113559990542  0.6477603745207680
  0.8792065698363247  0.1457859330101659  0.9408245658753406
  0.3494127638657826  0.5348141402576436  0.0398631869683712
  0.4889402264582586  0.8053500349035254  0.2198655384029661
  0.6432271502528777  0.7234062287652450  0.9104757028577694
  0.8373375364773700  0.6860637490271843  0.7413517935201719
  0.8748451274511089  0.5045013651469172  0.6328582826890915
  0.7035813708654324  0.1913116979746803  0.8364069680359484
  0.1477537753754543  0.6068898238658276  0.9877956300740095
  0.0976418736924586  0.2787503647254919  0.1862289574855140
  0.6109781144510092  0.4146909767960777  0.5769234034188159
  0.2248930430670497  0.5860412346701169  0.7966926311583630
  0.6549573345872590  0.3536301958677798  0.7507911349730264
  0.6880861790472379  0.8329227186923529  0.4783761639012865
  0.1618392561050205  0.8395249516759449  0.2538564059041766
  0.0458806611191311  0.2231955872390917  0.4290542448116629
  0.5621237161599756  0.3193176415593953  0.9767444737638606
  0.6369271311911663  0.0466819845507647  0.4138309009318796
  0.5046887129617675  0.2185528623637923  0.1673236030175952
  0.8357602363486040  0.5815663189480833  0.9302821602052759
  0.2832295107597820  0.4300173365058528  0.6568985277858884
  0.7383048933500401  0.1144300558007891  0.2520198492708737
  0.9710632498365499  0.8491432911131469  0.7499538746200760
  0.8821920117982407  0.7199325817002870  0.0812411278502856
  0.1297584591965641  0.1621930806276707  0.0000876764958175
  0.0496897332646568  0.7639033405869720  0.4343696556001496
  0.1019211392233629  0.0766746026349620  0.8225886163899420
  0.9790867160980103  0.4797105745507826  0.1181795286809182
  0.3075349664265530  0.6245247143648865  0.5832227130346332
  0.9537197672845141  0.0797060173915278  0.6087286874230633
  0.4180482744409523  0.5832871610819933  0.2427452179265819
  0.5423675716476167  0.9499623413041269  0.6201516853027531
  0.1668298718929224  0.4081126774959419  0.0184493557670448
  0.3069300909263982  0.9439161133686732  0.2776218657045303
  0.4817377048488057  0.8845851422805580  0.8592389256222538
  0.3390112378192965  0.1144747978047165  0.1152517538569432
  0.4956004394838514  0.0805602786026733  0.7832046100073791
  0.3200497333163927  0.0354717821952564  0.9182489726142948
  0.0066883399349632  0.3078385670869438  0.9646343536126915
  0.7037429015514658  0.0844863457434248  0.6343568327660247
  0.6452300036860539  0.4858232318816694  0.3289906124025543
  0.8203171335270278  0.3946488438926326  0.8672192279639721
  0.7303739357349103  0.5634632091564248  0.4806241880225084
  0.3488282199073771  0.0590598859343133  0.5272160227145575
  0.9690938275481703  0.8791089889984715  0.2324875407400412
  0.6839264753339137  0.1646235028025741  0.0707986527248039
  0.0832825382439664  0.7808288271784634  0.0741491684283285
  0.9891934036815844  0.9371823387306414  0.9386571689566336
  0.4879690872529329  0.6972537161020684  0.0439101389721893
  0.1729975962342132  0.5721962366125474  0.4549918000702328
  0.2139436434399603  0.5278614471164266  0.2065388229270228
  0.1546809974586640  0.0960229543396987  0.6000635973104553
  0.8284800587727414  0.7081538948898323  0.3148122008416971
  0.2252963142666631  0.2827694334270213  0.5584325370103790
  0.3120698562583296  0.4452810204783622  0.3956381157129592
  0.5429308898511399  0.1891819919897632  0.5893067346202441
  0.4496019019220371  0.7135468147177414  0.7327396079104901
  0.8208427457932675  0.9616300584121018  0.0882904592624655
  0.3094472581443531  0.3490365603230867  0.1495754128496699
  0.1429922109269028  0.8570571379460542  0.8550204191634619
  0.0397796519706424  0.3948469275975027  0.6120974846655536
  0.4289672957100624  0.3227315143598778  0.5084296840130204
  0.8612058794739651  0.4948023768576275  0.3118281984986854
  0.5662199221116500  0.4929755007649214  0.1320022193475432
  0.5197662138705448  0.0775108950381725  0.9818711043882750
  0.4537634889165645  0.7592326207466171  0.5430108753801930
  0.0110079929253997  0.6828799296274967  0.8666321346381145
  0.6388449189791529  0.8187728152591510  0.7333592501793315
  0.6515951061921362  0.5198221721280344  0.9513290124412631
  0.8576166707370524  0.9374156436115830  0.3953048739708511
  0.7008245032423022  0.8791323005663749  0.2795041991800679
  0.5876677649312263  0.7081890261116599  0.3481412924399798
  0.6343669322343344  0.6874998535639165  0.5913308792987327
  0.4770934287341989  0.9174553832241518  0.3964699493323897
  0.9598434922737572  0.0920486977527767  0.3012182160208643
  0.2699261796317328  0.8851589565751896  0.4730440057640797
  0.6237670480326906  0.9126961320014289  0.0523426880008755
  0.8784225831537813  0.7462925358527158  0.5510485859141556
  0.3023107833763088  0.7508768692491242  0.9167648822139235
  0.6727720437245460  0.5570120842350719  0.7447191439079823
  0.1666308391570614  0.9697767863703410  0.0690438111135229
  0.8989800181938433  0.2957807256045503  0.2545436468801737
  0.8036852326057082  0.3335648802867124  0.0533118441874892
  0.3104990242337929  0.9595443806204224  0.7057926745210857
  0.4777793224526217  0.5396970240287967  0.4600723257975766
  0.1614191359021456  0.3097732778665004  0.7950972741765624
  0.1025506602413686  0.8801147562708398  0.5922436381461448
  0.4448735390405441  0.5962625915105714  0.8783527599330564
  0.4216803848898618  0.1347304717853432  0.3517176654989614
  0.2976814294111480  0.1725457401500614  0.7476804147476253
  0.8647381296122364  0.0277769192355078  0.7824702829569596
  0.1797713574004349  0.0946188563322790  0.2493497473934892
  0.2291418622421722  0.7711320776449965  0.7061521393735125
  0.8328670378008076  0.1518468471303591  0.4491264787914064
  0.3748218800406871  0.8943393388670315  0.0685956054365017
  0.0316342585800081  0.4652056211896400  0.8140768867707340
  0.1046823905489129  0.9981284585581357  0.4222073338276269
  0.2514839282244116  0.2622435180940110  0.3312447372516900
  0.8153391955917993  0.8284627532665013  0.9275715185976969
  0.4794085219383948  0.3692566241108070  0.2906711516989305
  0.4622892727934651  0.5015650310362860  0.6869460239010221
  0.7757386346598020  0.5458537270252135  0.1289732005114310
  0.2730813842567317  0.7188999020886279  0.1341055922506399
  0.9807249007271381  0.2216026725395546  0.7703240984058080
  0.9640884492414795  0.5857164238566339  0.4530246217885879
  0.7748209483252589  0.3004095723809624  0.7888012031635148
  0.7216786383944539  0.9396958613619733  0.4042702592355204
  0.4448484440669166  0.4140302169094048  0.4111581257438337
  0.1019729797671683  0.8286428356623701  0.7127235754881215
  0.4204280923526225  0.1296575207625408  0.9002627890241084
  0.1143025838935952  0.2852273046047085  0.0501131741170405
  0.6569808407786480  0.0087172641094292  0.2668725667699883
  0.9222232204307754  0.9972754214492685  0.1876918586952683
  0.8516247694285465  0.5035831527211545  0.4955737951965646
  0.0460328402309973  0.7972942906611041  0.3083451992947095
  0.7651737098266396  0.7275445664075361  0.0052805718766193
  0.7555346639639710  0.5704189203425156  0.3467767590047677
  0.0152482506009135  0.8113438311798158  0.8702647988359317
  0.7756734817410165  0.4611513404690656  0.9882221719755570
  0.4430069238486599  0.3173693562059240  0.9092941512404504
  0.3990133048839761  0.4050979239234893  0.7555909281574428
  0.1767347303924219  0.9695740708098809  0.3076673859434327
  0.4326209724437712  0.9200503228975802  0.2666511648996142
  0.2502999742636236  0.6820792196150149  0.4742884044081608
  0.3354183371272813  0.3575832867298833  0.2823489101853317
  0.7705614963696451  0.2167040688439047  0.9745168612849721
  0.3759906815204206  0.5667299029971802  0.3743295657121474
  0.3324858755510223  0.5492657566108732  0.6913012202444285
  0.0601311992322935  0.0023737556383474  0.5565700546172075
  0.1519737395531554  0.1893270923055279  0.5058475366564245
  0.9764034017089116  0.6962209514557048  0.7378038497658544
  0.4438483427191501  0.6271152801890727  0.5551518342797521
  0.7185948185843273  0.8688810232560868  0.1455958181607465
  0.5681236980425604  0.9322264939337628  0.7564683671172348
  0.0036439880046523  0.3712337927604872  0.2133536760755106
  0.7130902995041167  0.7628602402385818  0.3551399040906011
  0.0140971769597435  0.3345360741590311  0.4937976672866302
  0.8473151299912379  0.8491113808306122  0.2909679724729183
  0.4289150801615596  0.1670004943780879  0.4991585772372377
  0.8337543239944707  0.8653999222116838  0.5057186297861185
  0.4780400490737775  0.2391429199127327  0.3000932993878063
  0.6405217804864193  0.1216939281021067  0.5229453263457421
  0.6955169904234493  0.4522905166603589  0.8376146426249936
  0.4126936334568871  0.4849022067426584  0.9339334917586964
  0.7772483063729485  0.0833633089133006  0.8679267366986037
  0.7122491518190082  0.1694329552186931  0.3752688867283550
  0.6755299174162732  0.4353846740951744  0.4578074511451420
  0.5957626809228121  0.7778068803646743  0.0258787734120423
  0.2456617669487049  0.5333276684358466  0.9249679415876507
  0.5997026618623805  0.2804268109524057  0.8512661522699715
  0.1189339664594742  0.3015383400198459  0.3307479251684110
  0.0691640022906480  0.5524152248633579  0.5340735530060198
  0.6727153504139113  0.3122070969821065  0.0623497884372266
  0.5617906519687953  0.4457701906080550  0.0081222402847839
  0.4035673605473710  0.7659546435950660  0.1225376616100943
  0.4057288881608125  0.0247599381364131  0.0356577697117854
  0.4032919967201818  0.9832037161043771  0.8089110130724527
  0.3890049365126002  0.8155440110608763  0.4482464964398861
  0.2925116569897263  0.3683992286782502  0.0066630985377414
  0.2094251618031470  0.7368283707876577  0.0152265420190654
  0.3808231908706439  0.2432148323506347  0.1002917312350309
  0.0597909127637175  0.1183423577213054  0.6945062223811257
  0.9102129372690143  0.4906147822291013  0.8629145773355287
  0.7382306070271247  0.9359305767384131  0.9804005849717877
  0.2852110213271009  0.2755059076798233  0.8444619702049972
  0.5286375189505854  0.3529247693624112  0.1644305464031778
  0.2212196548491867  0.4380943876454741  0.7779837076121136
  0.9758555704479098  0.7542612147461685  0.1646060201282847
  0.9240580449762389  0.2168918382055076  0.3589104874637090
  0.5551998400056188  0.6269857165375710  0.9448280310313705
  0.3509384914917845  0.6720908582598024  0.8143888590229668
  0.5510770493623416  0.2969746849054907  0.6727368170712370
  0.2947817791529319  0.3183289374648926  0.4458529704598830
  0.8639543950898404  0.4651444731576546  0.1835006770317949
  0.5118051576061018  0.9041399748858157  0.1271542293895915
  0.5663387350951437  0.2961639536785237  0.5053390368027297
  0.5861279168084893  0.4607432509891924  0.7086162818522613
  0.2351864550220487  0.5885194259363000  0.0907364885928427
  0.8354426210422708  0.0622532834716325  0.3419435073380539
  0.5617490372367424  0.0764611361343227  0.6641365600454945
  0.7030847876337886  0.8327525555587959  0.8497694399762271
  0.9834930945951705  0.1849311121253102  0.0143773162434703
  0.1944408173006801  0.4911167073938077  0.3438766642148579
  0.5220830238588108  0.4988703507978394  0.2635132571711463
  0.8273053312719844  0.3688545971499650  0.3482666861924226
  0.4084865574513368  0.9612867420477619  0.6080084296949786
  0.0855612826338969  0.8956995388319358  0.1564094929659959
  0.2898086671233731  0.1358092096813207  0.3385303048244436
  0.7251388783856652  0.3850552137811288  0.6391151861108573
  0.0754762898414005  0.5000014008874999  0.0317950736450736
  0.8572387016558174  0.8037156522922873  0.6771639669512414
  0.5360922638612590  0.7735517506065409  0.6471282855733432
  0.6051352860175766  0.0464606458851628  0.0842216625842671
  0.0990618074897502  0.3823846300808772  0.8990775801592237
  0.9563611788894515  0.1049324797285657  0.8380263516329356
  0.4665574377523627  0.5845353149700344  0.1155125967172480
  0.3589400169288999  0.9816134246134641  0.4141348244496910
  0.2824084287361794  0.0793142909880283  0.6452159320033113
  0.1994994160795047  0.2334407510722720  0.6860716510973193
  0.0340068581327960  0.6801024088592570  0.0004130739373742
  0.0064560606971221  0.5061823100294153  0.6873979579425217
  0.5380864212965435  0.7688671959220471  0.8228311642109110
  0.9722444431417084  0.4676375085248833  0.3857456167409298
  0.4413416669131776  0.1042587290226466  0.2031244548710576
  0.8978140618793451  0.8522353919098887  0.0335251726913668
  0.0801290347721694  0.6426486555384190  0.3853844286297994
  0.8146487110983549  0.0517572605199529  0.5600748851002636
  0.0859895473099804  0.1138390358327119  0.3481978943962574
  0.7952622625377140  0.2776531999586855  0.1773264529886472
  0.9124892773514569  0.0268082515666218  0.0076463544535182
  0.6847617360229800  0.4643841609172870  0.1982526580888900
  0.9130578012624820  0.2834683038564696  0.8751258866024907
  0.2200633697764808  0.0169826610882347  0.4998470867922465
  0.7439179835548354  0.9914397092331735  0.7273879733700459
  0.8854355310461487  0.5874858240865637  0.0548340921866724
  0.6539271275995407  0.5581267979320704  0.5925473892284019
  0.3436002650869281  0.4811650228883495  0.1662624673774297
  0.8716365804321911  0.6992267869078884  0.8728398173044513
  0.1449948267973727  0.7219664401094317  0.1839658430350958
  0.9244129274407914  0.9646674238003740  0.6781008372197813
  0.9215002669980609  0.6153009302639985  0.2949916446722283
  0.2678222592696367  0.8674961924050393  0.7946568171728203
  0.1863208632289499  0.6451634049462150  0.6712867358962445
  0.2657640514202226  0.1413418418896804 -0.0000081349166943
  0.6211853176493848  0.3513748312010016  0.3205483042566854
  0.2777303574976422  0.5059928456135597  0.5176439522373261
  0.2640809716618184  0.8248455221763736  0.3425404915006111
  0.0982314998895936  0.2075745085165794  0.8635053007320475
  0.5139548270662202  0.6007921112127516  0.7602165626522168
  0.2395285003900259  0.8758158669131436  0.6108586494552959
  0.4276183572557119  0.1797565336186017  0.7251822991794730
  0.9601766878546482  0.1326001868003350  0.4896565760694950
  0.9007891043033104  0.3754823933219824  0.6132109251750583
  0.5494345902998313  0.1987324346905195  0.0356388979719495
  0.0240004897762978  0.7667128651814380  0.5648308732796816
  0.2413142849116396  0.0657745597476914  0.8107174559427720
  0.1017854467740688  0.8804345924719401  0.9874828950810203
  0.7836331198285398  0.0888747241409269  0.1283065777772025
  0.0739529758705570  0.5367404006540724  0.2170253438162157
  0.7015791825379742  0.1967303199074272  0.6968471890259755
  0.1124607504316647  0.0853584480311446  0.1244193783918157
  0.3766877859970559  0.6561931708247370  0.9829788224046390
  0.9272943051645192  0.3761401049673337  0.0433192214154469
  0.2167709091089043  0.2191652629202272  0.2027605210114083
  0.7929935332652719  0.6781268046872017  0.1816044630136888
  0.9843179532343146  0.9648698787851523  0.3571576965878757
  0.6037205203734753  0.0967691451280192  0.8622501375309918
  0.9847066836854766  0.1880024241432830  0.2029495125182658
  0.9198520111055463  0.6251225992613985  0.5867068201346166
  0.1837359888888763  0.3980047854808350  0.1605931113213077
  0.1920172155158228  0.7249307215506747  0.8385648908733070
  0.4800696234609867  0.4506735635420654  0.5643418323201241
  0.5636246142342409  0.9527846209039382  0.9363665663661950
  0.7933051187848895  0.2693981634319348  0.5054575893152581
  0.5703001165165701  0.9386333347083401  0.4908375515027025
  0.8899269055773353  0.1784230296443402  0.6818789058881207
  0.7486798733359444  0.7010185760997448  0.5214205589651161
  0.9171326072395083  0.7142731501121868  0.4270327286103032
  0.8845342686370147  0.9116341999875101  0.8476272003091607
  0.0405222560843280  0.3402536764981102  0.7390502915858077
  0.3446762957484186  0.3186689396294050  0.6104401939927981
  0.5936180150459036  0.5859511219234318  0.4085811547685368
  0.5897898454805880  0.7146038638535681  0.2085916034064829
  0.3528317397951746  0.7429613180834438  0.6439795493432342
  0.2686829268286022  0.9352426242133062  0.9892981043600035
  0.8051888872678395  0.5595091542858163  0.7261333944313826
  0.6942844823982500  0.6960348235705758  0.7146498364570899
  0.6617389787225261  0.5876818234984514  0.0759908371520294
  0.1054570583155864  0.0417150487469167  0.9576654436338182
  0.2936976999750382  0.6427547079865623  0.2465468562406164
  0.6774279149597918  0.8733999180468707  0.6118487821234809
  0.0569852807717824  0.9543955368927063  0.8171370004222345
  0.4525802653381282  0.7045032467540787  0.3079053041516691
  0.5183312226708356  0.0452109614982555  0.3532709248634800
  0.2711570091698165  0.8581669656036188  0.1630961211186284
  0.5715573463122541  0.8474144152923744  0.3235854128947395
  0.2654942355230764  0.0240488651394587  0.1718753749305212
  0.7129550430528946  0.6138319064583264  0.8726733514039687
  0.1690616282896912  0.3942184241458598  0.5975975985504968
  0.0942822115041913  0.5786224650392805  0.8498802835245047
  0.5778484653121564  0.7493882087792502  0.4824503094015121
  0.6386179436663579  0.1919648000980147  0.1966642941344806
  0.1330826138956715  0.8668186268309248  0.4611378742405003
  0.4069928382655578  0.8273150483056960  0.9524463832065857
 
  0.00000000E+00  0.00000000E+00  0.00000000E+00
  0.00000000E+00  0.00000000E+00  0.00000000E+00
  0.00000000E+00  0.00000000E+00  0.00000000E+00
  0.00000000E+00  0.00000000E+00  0.00000000E+00
  0.00000000E+00  0.00000000E+00  0.00000000E+00
  0.00000000E+00  0.00000000E+00  0.00000000E+00
  0.00000000E+00  0.00000000E+00  0.00000000E+00
  0.00000000E+00  0.00000000E+00  0.00000000E+00
  0.00000000E+00  0.00000000E+00  0.00000000E+00
  0.00000000E+00  0.00000000E+00  0.00000000E+00
  0.00000000E+00  0.00000000E+00  0.00000000E+00
  0.00000000E+00  0.00000000E+00  0.00000000E+00
  0.00000000E+00  0.00000000E+00  0.00000000E+00
  0.00000000E+00  0.00000000E+00  0.00000000E+00
  0.00000000E+00  0.00000000E+00  0.00000000E+00
  0.00000000E+00  0.00000000E+00  0.00000000E+00
  0.00000000E+00  0.00000000E+00  0.00000000E+00
  0.00000000E+00  0.00000000E+00  0.00000000E+00
  0.00000000E+00  0.00000000E+00  0.00000000E+00
  0.00000000E+00  0.00000000E+00  0.00000000E+00
  0.00000000E+00  0.00000000E+00  0.00000000E+00
  0.00000000E+00  0.00000000E+00  0.00000000E+00
  0.00000000E+00  0.00000000E+00  0.00000000E+00
  0.00000000E+00  0.00000000E+00  0.00000000E+00
  0.00000000E+00  0.00000000E+00  0.00000000E+00
  0.00000000E+00  0.00000000E+00  0.00000000E+00
  0.00000000E+00  0.00000000E+00  0.00000000E+00
  0.00000000E+00  0.00000000E+00  0.00000000E+00
  0.00000000E+00  0.00000000E+00  0.00000000E+00
  0.00000000E+00  0.00000000E+00  0.00000000E+00
  0.00000000E+00  0.00000000E+00  0.00000000E+00
  0.00000000E+00  0.00000000E+00  0.00000000E+00
  0.00000000E+00  0.00000000E+00  0.00000000E+00
  0.00000000E+00  0.00000000E+00  0.00000000E+00
  0.00000000E+00  0.00000000E+00  0.00000000E+00
  0.00000000E+00  0.00000000E+00  0.00000000E+00
  0.00000000E+00  0.00000000E+00  0.00000000E+00
  0.00000000E+00  0.00000000E+00  0.00000000E+00
  0.00000000E+00  0.00000000E+00  0.00000000E+00
  0.00000000E+00  0.00000000E+00  0.00000000E+00
  0.00000000E+00  0.00000000E+00  0.00000000E+00
  0.00000000E+00  0.00000000E+00  0.00000000E+00
  0.00000000E+00  0.00000000E+00  0.00000000E+00
  0.00000000E+00  0.00000000E+00  0.00000000E+00
  0.00000000E+00  0.00000000E+00  0.00000000E+00
  0.00000000E+00  0.00000000E+00  0.00000000E+00
  0.00000000E+00  0.00000000E+00  0.00000000E+00
  0.00000000E+00  0.00000000E+00  0.00000000E+00
  0.00000000E+00  0.00000000E+00  0.00000000E+00
  0.00000000E+00  0.00000000E+00  0.00000000E+00
  0.00000000E+00  0.00000000E+00  0.00000000E+00
  0.00000000E+00  0.00000000E+00  0.00000000E+00
  0.00000000E+00  0.00000000E+00  0.00000000E+00
  0.00000000E+00  0.00000000E+00  0.00000000E+00
  0.00000000E+00  0.00000000E+00  0.00000000E+00
  0.00000000E+00  0.00000000E+00  0.00000000E+00
  0.00000000E+00  0.00000000E+00  0.00000000E+00
  0.00000000E+00  0.00000000E+00  0.00000000E+00
  0.00000000E+00  0.00000000E+00  0.00000000E+00
  0.00000000E+00  0.00000000E+00  0.00000000E+00
  0.00000000E+00  0.00000000E+00  0.00000000E+00
  0.00000000E+00  0.00000000E+00  0.00000000E+00
  0.00000000E+00  0.00000000E+00  0.00000000E+00
  0.00000000E+00  0.00000000E+00  0.00000000E+00
  0.00000000E+00  0.00000000E+00  0.00000000E+00
  0.00000000E+00  0.00000000E+00  0.00000000E+00
  0.00000000E+00  0.00000000E+00  0.00000000E+00
  0.00000000E+00  0.00000000E+00  0.00000000E+00
  0.00000000E+00  0.00000000E+00  0.00000000E+00
  0.00000000E+00  0.00000000E+00  0.00000000E+00
  0.00000000E+00  0.00000000E+00  0.00000000E+00
  0.00000000E+00  0.00000000E+00  0.00000000E+00
  0.00000000E+00  0.00000000E+00  0.00000000E+00
  0.00000000E+00  0.00000000E+00  0.00000000E+00
  0.00000000E+00  0.00000000E+00  0.00000000E+00
  0.00000000E+00  0.00000000E+00  0.00000000E+00
  0.00000000E+00  0.00000000E+00  0.00000000E+00
  0.00000000E+00  0.00000000E+00  0.00000000E+00
  0.00000000E+00  0.00000000E+00  0.00000000E+00
  0.00000000E+00  0.00000000E+00  0.00000000E+00
  0.00000000E+00  0.00000000E+00  0.00000000E+00
  0.00000000E+00  0.00000000E+00  0.00000000E+00
  0.00000000E+00  0.00000000E+00  0.00000000E+00
  0.00000000E+00  0.00000000E+00  0.00000000E+00
  0.00000000E+00  0.00000000E+00  0.00000000E+00
  0.00000000E+00  0.00000000E+00  0.00000000E+00
  0.00000000E+00  0.00000000E+00  0.00000000E+00
  0.00000000E+00  0.00000000E+00  0.00000000E+00
  0.00000000E+00  0.00000000E+00  0.00000000E+00
  0.00000000E+00  0.00000000E+00  0.00000000E+00
  0.00000000E+00  0.00000000E+00  0.00000000E+00
  0.00000000E+00  0.00000000E+00  0.00000000E+00
  0.00000000E+00  0.00000000E+00  0.00000000E+00
  0.00000000E+00  0.00000000E+00  0.00000000E+00
  0.00000000E+00  0.00000000E+00  0.00000000E+00
  0.00000000E+00  0.00000000E+00  0.00000000E+00
  0.00000000E+00  0.00000000E+00  0.00000000E+00
  0.00000000E+00  0.00000000E+00  0.00000000E+00
  0.00000000E+00  0.00000000E+00  0.00000000E+00
  0.00000000E+00  0.00000000E+00  0.00000000E+00
  0.00000000E+00  0.00000000E+00  0.00000000E+00
  0.00000000E+00  0.00000000E+00  0.00000000E+00
  0.00000000E+00  0.00000000E+00  0.00000000E+00
  0.00000000E+00  0.00000000E+00  0.00000000E+00
  0.00000000E+00  0.00000000E+00  0.00000000E+00
  0.00000000E+00  0.00000000E+00  0.00000000E+00
  0.00000000E+00  0.00000000E+00  0.00000000E+00
  0.00000000E+00  0.00000000E+00  0.00000000E+00
  0.00000000E+00  0.00000000E+00  0.00000000E+00
  0.00000000E+00  0.00000000E+00  0.00000000E+00
  0.00000000E+00  0.00000000E+00  0.00000000E+00
  0.00000000E+00  0.00000000E+00  0.00000000E+00
  0.00000000E+00  0.00000000E+00  0.00000000E+00
  0.00000000E+00  0.00000000E+00  0.00000000E+00
  0.00000000E+00  0.00000000E+00  0.00000000E+00
  0.00000000E+00  0.00000000E+00  0.00000000E+00
  0.00000000E+00  0.00000000E+00  0.00000000E+00
  0.00000000E+00  0.00000000E+00  0.00000000E+00
  0.00000000E+00  0.00000000E+00  0.00000000E+00
  0.00000000E+00  0.00000000E+00  0.00000000E+00
  0.00000000E+00  0.00000000E+00  0.00000000E+00
  0.00000000E+00  0.00000000E+00  0.00000000E+00
  0.00000000E+00  0.00000000E+00  0.00000000E+00
  0.00000000E+00  0.00000000E+00  0.00000000E+00
  0.00000000E+00  0.00000000E+00  0.00000000E+00
  0.00000000E+00  0.00000000E+00  0.00000000E+00
  0.00000000E+00  0.00000000E+00  0.00000000E+00
  0.00000000E+00  0.00000000E+00  0.00000000E+00
  0.00000000E+00  0.00000000E+00  0.00000000E+00
  0.00000000E+00  0.00000000E+00  0.00000000E+00
  0.00000000E+00  0.00000000E+00  0.00000000E+00
  0.00000000E+00  0.00000000E+00  0.00000000E+00
  0.00000000E+00  0.00000000E+00  0.00000000E+00
  0.00000000E+00  0.00000000E+00  0.00000000E+00
  0.00000000E+00  0.00000000E+00  0.00000000E+00
  0.00000000E+00  0.00000000E+00  0.00000000E+00
  0.00000000E+00  0.00000000E+00  0.00000000E+00
  0.00000000E+00  0.00000000E+00  0.00000000E+00
  0.00000000E+00  0.00000000E+00  0.00000000E+00
  0.00000000E+00  0.00000000E+00  0.00000000E+00
  0.00000000E+00  0.00000000E+00  0.00000000E+00
  0.00000000E+00  0.00000000E+00  0.00000000E+00
  0.00000000E+00  0.00000000E+00  0.00000000E+00
  0.00000000E+00  0.00000000E+00  0.00000000E+00
  0.00000000E+00  0.00000000E+00  0.00000000E+00
  0.00000000E+00  0.00000000E+00  0.00000000E+00
  0.00000000E+00  0.00000000E+00  0.00000000E+00
  0.00000000E+00  0.00000000E+00  0.00000000E+00
  0.00000000E+00  0.00000000E+00  0.00000000E+00
  0.00000000E+00  0.00000000E+00  0.00000000E+00
  0.00000000E+00  0.00000000E+00  0.00000000E+00
  0.00000000E+00  0.00000000E+00  0.00000000E+00
  0.00000000E+00  0.00000000E+00  0.00000000E+00
  0.00000000E+00  0.00000000E+00  0.00000000E+00
  0.00000000E+00  0.00000000E+00  0.00000000E+00
  0.00000000E+00  0.00000000E+00  0.00000000E+00
  0.00000000E+00  0.00000000E+00  0.00000000E+00
  0.00000000E+00  0.00000000E+00  0.00000000E+00
  0.00000000E+00  0.00000000E+00  0.00000000E+00
  0.00000000E+00  0.00000000E+00  0.00000000E+00
  0.00000000E+00  0.00000000E+00  0.00000000E+00
  0.00000000E+00  0.00000000E+00  0.00000000E+00
  0.00000000E+00  0.00000000E+00  0.00000000E+00
  0.00000000E+00  0.00000000E+00  0.00000000E+00
  0.00000000E+00  0.00000000E+00  0.00000000E+00
  0.00000000E+00  0.00000000E+00  0.00000000E+00
  0.00000000E+00  0.00000000E+00  0.00000000E+00
  0.00000000E+00  0.00000000E+00  0.00000000E+00
  0.00000000E+00  0.00000000E+00  0.00000000E+00
  0.00000000E+00  0.00000000E+00  0.00000000E+00
  0.00000000E+00  0.00000000E+00  0.00000000E+00
  0.00000000E+00  0.00000000E+00  0.00000000E+00
  0.00000000E+00  0.00000000E+00  0.00000000E+00
  0.00000000E+00  0.00000000E+00  0.00000000E+00
  0.00000000E+00  0.00000000E+00  0.00000000E+00
  0.00000000E+00  0.00000000E+00  0.00000000E+00
  0.00000000E+00  0.00000000E+00  0.00000000E+00
  0.00000000E+00  0.00000000E+00  0.00000000E+00
  0.00000000E+00  0.00000000E+00  0.00000000E+00
  0.00000000E+00  0.00000000E+00  0.00000000E+00
  0.00000000E+00  0.00000000E+00  0.00000000E+00
  0.00000000E+00  0.00000000E+00  0.00000000E+00
  0.00000000E+00  0.00000000E+00  0.00000000E+00
  0.00000000E+00  0.00000000E+00  0.00000000E+00
  0.00000000E+00  0.00000000E+00  0.00000000E+00
  0.00000000E+00  0.00000000E+00  0.00000000E+00
  0.00000000E+00  0.00000000E+00  0.00000000E+00
  0.00000000E+00  0.00000000E+00  0.00000000E+00
  0.00000000E+00  0.00000000E+00  0.00000000E+00
  0.00000000E+00  0.00000000E+00  0.00000000E+00
  0.00000000E+00  0.00000000E+00  0.00000000E+00
  0.00000000E+00  0.00000000E+00  0.00000000E+00
  0.00000000E+00  0.00000000E+00  0.00000000E+00
  0.00000000E+00  0.00000000E+00  0.00000000E+00
  0.00000000E+00  0.00000000E+00  0.00000000E+00
  0.00000000E+00  0.00000000E+00  0.00000000E+00
  0.00000000E+00  0.00000000E+00  0.00000000E+00
  0.00000000E+00  0.00000000E+00  0.00000000E+00
  0.00000000E+00  0.00000000E+00  0.00000000E+00
  0.00000000E+00  0.00000000E+00  0.00000000E+00
  0.00000000E+00  0.00000000E+00  0.00000000E+00
  0.00000000E+00  0.00000000E+00  0.00000000E+00
  0.00000000E+00  0.00000000E+00  0.00000000E+00
  0.00000000E+00  0.00000000E+00  0.00000000E+00
  0.00000000E+00  0.00000000E+00  0.00000000E+00
  0.00000000E+00  0.00000000E+00  0.00000000E+00
  0.00000000E+00  0.00000000E+00  0.00000000E+00
  0.00000000E+00  0.00000000E+00  0.00000000E+00
  0.00000000E+00  0.00000000E+00  0.00000000E+00
  0.00000000E+00  0.00000000E+00  0.00000000E+00
  0.00000000E+00  0.00000000E+00  0.00000000E+00
  0.00000000E+00  0.00000000E+00  0.00000000E+00
  0.00000000E+00  0.00000000E+00  0.00000000E+00
  0.00000000E+00  0.00000000E+00  0.00000000E+00
  0.00000000E+00  0.00000000E+00  0.00000000E+00
  0.00000000E+00  0.00000000E+00  0.00000000E+00
  0.00000000E+00  0.00000000E+00  0.00000000E+00
  0.00000000E+00  0.00000000E+00  0.00000000E+00
  0.00000000E+00  0.00000000E+00  0.00000000E+00
  0.00000000E+00  0.00000000E+00  0.00000000E+00
  0.00000000E+00  0.00000000E+00  0.00000000E+00
  0.00000000E+00  0.00000000E+00  0.00000000E+00
  0.00000000E+00  0.00000000E+00  0.00000000E+00
  0.00000000E+00  0.00000000E+00  0.00000000E+00
  0.00000000E+00  0.00000000E+00  0.00000000E+00
  0.00000000E+00  0.00000000E+00  0.00000000E+00
  0.00000000E+00  0.00000000E+00  0.00000000E+00
  0.00000000E+00  0.00000000E+00  0.00000000E+00
  0.00000000E+00  0.00000000E+00  0.00000000E+00
  0.00000000E+00  0.00000000E+00  0.00000000E+00
  0.00000000E+00  0.00000000E+00  0.00000000E+00
  0.00000000E+00  0.00000000E+00  0.00000000E+00
  0.00000000E+00  0.00000000E+00  0.00000000E+00