Ge Se                                   
   1.00000000000000     
    19.7402305603027344    0.0000000000000000    0.0000000000000000
     0.0000000000000000   19.7402305603027344    0.0000000000000000
     0.0000000000000000    0.0000000000000000   19.7402305603027344
   Ge   Se
   150   150
Direct
  0.6526324111474345  0.8910585565973435  0.1439422791729385
  0.2945147225534971  0.6106455255515875  0.6282305481680451
  0.7899516993631380  0.2781816342273778  0.0009421596978130
  0.5722086794425859  0.6221008640785991  0.0296937058179774
  0.8284551950378958  0.3409661130629295  0.7440554242323192
  0.3468613040606647  0.4601023223368647  0.5381919792114962
  0.7086556132388876  0.0867846960355983  0.7769924614454657
  0.5873831924738310  0.4163831006248921  0.9838384336577737
  0.3983948850455441  0.5220516077713564  0.9195456169222003
  0.6576695094944681  0.7914031991678895  0.9556174620275173
  0.6464145693671498  0.3652554950754517  0.1620443687417914
  0.0797358065052862  0.7147684315469625  0.2341358741496525
  0.6367878252796152  0.2311577522782881  0.6580131848067234
  0.2358662933643614  0.9350850393188400  0.3029456351301491
  0.5300151942765903  0.2264922637413370  0.2034733980963420
  0.2598122258813794  0.9409847719727786  0.6337621145990664
  0.3589696959329187  0.0137599994540477  0.8391589014042627
  0.2656379198598273  0.4086900311199043  0.3287581846680756
  0.8366074519791756  0.5507493925782699  0.3341965906938737
  0.3229721641884720  0.0838700253883169  0.4316194536832937
  0.5523138069040820  0.3439341993777338  0.5074161444848747
  0.8787309368676208  0.2485488260740786  0.0954584822362622
  0.8183144978716204  0.3071830190254347  0.5118271865798584
  0.2649230978412578  0.5553194218015293  0.4812670779996555
  0.6824665076521940  0.3422401251466036  0.8790581850576493
  0.6688971040135079  0.3686507694721385  0.6617305801625123
  0.9084153229658641  0.1888602009948850  0.6171001056085761
  0.9535960246517748  0.5842971643788450  0.6429584010016027
  0.4551567590672501  0.8293980557089906  0.3428296027249632
  0.9703894377392350  0.4407946513450617  0.1769339826459063
  0.1939149204254396  0.3259145085592469  0.7969667942709227
  0.1465800393549966  0.8905761599365967  0.4482948937744625
  0.8019194919980162  0.6673786236462297  0.0317817026696490
  0.9660103148435197  0.7527977570568608  0.6390396571168117
  0.1849656429177643  0.5233364792004775  0.9620126960512512
  0.8165993923049983  0.4797526988424602  0.0569398317638495
  0.2372344836630239  0.1960699890731124  0.8354158492890597
  0.8569371417665530  0.1305673726460971  0.3974142611346381
  0.9331603671943978  0.0076338322530687 -0.0005917501674962
  0.1049721333728393  0.4449580594808868  0.4405987085049988
  0.5807497944023121  0.5524484900235654  0.5248991593056063
  0.7628978807703465  0.9400899424923517  0.4516180107554381
  0.4503910523418879  0.7959029373426835  0.1800122727623631
  0.9817649766564969  0.8534783875829817  0.9617154586708065
  0.3648415406942683  0.0715434176564320  0.1316459886885681
  0.1535100506908797  0.3078930102245815  0.9882692885202093
  0.0919027348965695  0.1242402781889794  0.5378394571121990
  0.2348778708749031  0.8484150922510818  0.9053499577088150
  0.5866859003482657  0.9130478042072805  0.4563620536091649
  0.0351274285379390  0.3159891383002533  0.1496422801004566
  0.5054024627577386  0.1980482114344649  0.6675113888190369
  0.1848259971517148  0.0397219191578445  0.7828337221262336
  0.6743212790009288  0.6596062028450008  0.6297773831684828
  0.3237250834176016  0.6137786687618354  0.2970925620079194
  0.7737635885827862  0.5690313851861722  0.1408840243198969
  0.5020771733090078  0.0366103036986209  0.8111757841301098
  0.4665915427561423  0.2441831717504514  0.4189031923195771
  0.2887409877853619  0.8173440486629427  0.6040230143647418
  0.3055637796562524  0.5698249932660312 -0.0000316053225519
  0.1873332243393745  0.3175404411635691  0.2791327010195435
  0.1399638544046214  0.6773527561275597  0.0520365101179282
  0.8001477523502908  0.8923601425271120  0.0040693175837551
  0.9331141698798190  0.4804107005598936  0.4774356448209778
  0.6330164421387825  0.0893399197409640  0.4160520452458102
  0.3275228556506656  0.8588967301258880  0.4853776934367543
  0.9053805966201257  0.8571996164401154  0.1702439503401702
  0.5369431950246747  0.7152404057389574  0.1138277471045620
  0.1743792265800621  0.5968194774845554  0.1475198205111837
  0.5862642829373891  0.9664970410104228  0.9567555592429173
  0.8329447711193716  0.1296393117511494  0.0514524146084527
  0.6818271735796185  0.4901291000400924  0.1923093369818789
  0.1407920868961463  0.6838063971676437  0.6413769028121781
  0.4676957846236598  0.5714190948687521  0.2564709062569490
  0.8894744750316115  0.9021647859408750  0.8757604998203101
  0.5540092036945016  0.5938450442009341  0.8133145392173189
  0.0594630736197402  0.8194721368690059  0.7809666951658792
  0.1028599697454195  0.7148506808700008  0.5047692454869389
  0.7499015700533262  0.8871903380605014  0.8204659311089614
  0.8280927824882265  0.1991441413370334  0.8246893411809074
  0.7488543305898897  0.8191894444578619  0.2848155256499153
  0.4649017231437339  0.1650576831231969  0.0172647449360832
  0.5651600270229590  0.9684118014278882  0.0844309503523080
  0.7112482604034461  0.2684039203395517  0.2329977743906964
  0.1647492505745545  0.5506883571160112  0.3998911823857703
  0.9626210561122437  0.9819575989255386  0.4603469024953329
  0.5196624878082038  0.1452954558149972  0.5322776966196104
  0.8953526099124398  0.2667270318502470  0.2588100394221345
  0.5011835428653368  0.7287122275637010  0.7494830738346142
  0.0213533659861811  0.8761371043853731  0.6127985011858759
  0.0073182992038555  0.0150473290000173  0.6522089581356436
  0.2396705995427997  0.9739685010302878  0.8787943607914177
  0.7439821212212901  0.6062650038343722  0.8489086270881496
  0.8666748822267675  0.7151968211840773  0.3981589453733104
  0.2288872104405476  0.7160977087737591  0.7350401465855760
  0.6423197154989700  0.5599302067560985  0.3514629554694228
  0.5288544576686269  0.2231571067042105  0.8823811005315582
  0.0926719358576291  0.0120442947491177  0.9471687632662346
  0.3853879437881598  0.2267795377685654  0.5892102376664587
  0.6403208547887814  0.1706449487641056  0.1089579569060260
  0.3685091769213950  0.4079344787443504  0.8216791065387111
  0.2862221525505648  0.2410967860117610  0.0768916245721191
  0.1695164559627836  0.0725873752213744  0.2056047936930519
  0.8480706394969731  0.4372818707535969  0.8367946511867971
  0.3716340421918485  0.4399843834240503  0.2315605081008692
  0.1863535987792287  0.3268694681633972  0.6014952431641860
  0.4375520061521951  0.9580071038746305  0.2529910179514482
  0.2241725863657587  0.7020887941300696  0.3354522545172452
  0.1102666256763396  0.0927751083200474  0.3282165226086028
  0.3635154197226374  0.3485402047909414  0.0093917630334224
  0.4734432794244593  0.3251070747839541  0.6974426201061509
  0.7292920590300507  0.9295195014385440  0.6378442304996919
  0.4788828645565305  0.9811043722085490  0.5013901009249337
  0.2986488102209679  0.8253261904093426  0.0681159083542807
  0.2926888695537902  0.0424026726080684  0.5578661531557819
  0.2230611035679830  0.7543939525400116  0.9947837123339816
  0.9340091142173174  0.7195054656864449  0.8652016518360773
  0.9544774534619266  0.5635226376398390  0.9503220666026346
  0.3140808257712187  0.5716622984156409  0.1322628566206911
  0.3021695863528794  0.1778226933433527  0.9552313798196610
  0.1475712748386699 -0.0034839705535596  0.6683016888570749
  0.3007093613449100  0.9396461985503191  0.1357539378925041
  0.1082263905319704  0.1554375002764984  0.0418072859950977
  0.6818467967087630  0.4829480387617506  0.7362725604655923
  0.1798058800282585  0.5196472661495019  0.5906504273113236
  0.2024231670624841  0.5434596530317208  0.7793532673286043
  0.9643215671874871  0.0051549373299918  0.3197598382993694
  0.8250854884543768  0.9433393469106716  0.1211712069885618
  0.3162848154806862  0.4975557551792024  0.7426233685470899
  0.4238725679193839  0.5662752937810371  0.7181798041159302
  0.3837910178925710  0.3107466751320557  0.2753854688154198
  0.7127594853117569  0.0968019697402483  0.9310030566971601
  0.9643998815475345  0.7921683185689783  0.0740763976694620
  0.7436278785381095  0.0567465011326010  0.5657294099243197
  0.6089526111196986  0.7482553770999238  0.2966137671461359
  0.9429815824427040  0.6681148587481963  0.1994435097554382
  0.5962528511855109  0.5805247464851763  0.2272907339130998
  0.6593765525688245  0.7554414694370211  0.7090958914005151
  0.6834976337126032  0.7068950420334322  0.4469243819855936
  0.9943953114675091  0.2715032115755946  0.4480793110270983
  0.4257314978554321  0.7484480767211873  0.9568069165121696
  0.4945582186797584  0.4442598032773131  0.8419436472005930
  0.1735918031418735  0.4424491789053937  0.1505224602603119
  0.8144275739938291  0.4147436959802253  0.3347571486219350
  0.8603350506587290  0.2577271001968439  0.3814971950414354
  0.3969233804992572  0.6802636450179168  0.4809239582372195
  0.6210737542491247  0.9086471707799658  0.7842797648033746
  0.5515365606868617  0.3888367377422761  0.3786526884821846
  0.7985708401765390  0.6470320315826426  0.5930725121333923
  0.4456084952536715  0.9545003734107648  0.6587865564882348
  0.1982634530116914  0.2360777906609285  0.4265735916354015
  0.1749747260982197  0.8184567712550848  0.3333239385337269
  0.9623235089391862  0.4568927458284832  0.7861730616346976
  0.5698112350130589  0.3273025016723716  0.0733611813045920
  0.2455218654813588  0.1217959925341710  0.1167360747918029
  0.6612470275861108  0.9686281109447793  0.3701736377889349
  0.3495974600419309  0.6967500602045809  0.7032614606965721
  0.5634289303147831  0.0808324444155224  0.9171163771934647
  0.1148350677129910  0.3101426991897451  0.7019060361542144
  0.8266415722059138  0.8496911747013787  0.3776393495035062
  0.4276063212520212  0.7839659750832744  0.8279542520293259
  0.3079172421762546  0.6798238809545846  0.9400349057727362
  0.2709613476624025  0.4349689877813550  0.6415725607791340
  0.9871359314468880  0.8993608816418091  0.2496099051823810
  0.9349258184366638  0.6715158207898522  0.0716480199218878
  0.2083909814065064  0.7067222957821367  0.2059749636482341
  0.4103605814484977  0.5625079639414787  0.5906982946545866
  0.4704651520776455  0.1627172065020730  0.7825915379785915
  0.2899403354693125  0.3928003720803455  0.9172650825169308
  0.2698794763832493  0.6781097272178755  0.5178718073955837
  0.4161859252397308  0.8492774392527356  0.5817802186333293
  0.0066442882284000  0.3956818694444592  0.3882410147043397
  0.8457338545342149  0.0917842534041367  0.9327347789081114
  0.1285124451973600  0.1375137952922825  0.8309567471284890
  0.6278214096482696  0.5151006218075200  0.0585501074240252
  0.0704971773379569  0.9602770025136277  0.8359625004358673
  0.3523362704148954  0.8639364025067610  0.9586881577009427
  0.7189428507994573  0.0769215586306443  0.0675113886825678
  0.6497989656855337  0.5155253159607227  0.8568416793588167
  0.5809265367446729  0.8593484342349046  0.2378269761699321
  0.1909557336821893  0.1014814913622848  0.4262703355932838
  0.4004740801970146  0.2095388328127305  0.1225693869749947
  0.6084072955478613  0.5663455680616540  0.6733418803288638
  0.8999934056232392  0.0436198390096143  0.1225174645610418
  0.3433689267322017  0.8684349672510177  0.2350531943273734
  0.2163506746529213  0.3884718314420355  0.4435194911563543
  0.1149045655181778  0.5414568483091722  0.6941120233384567
  0.8179350661681206  0.5583412444163971  0.9547721113137198
  0.5623292484671871  0.3309620498132271  0.8230915671661054
  0.5963335429576683  0.6993438762697610  0.5460089728835136
  0.1897709361581895  0.6518892533410162  0.8303502370362364
  0.7406267933972440  0.2910396473121155  0.3520130078710557
  0.8805754705167000  0.5539392520682260  0.2103030897199654
  0.3015457625154047  0.4401846865528900  0.1208164262062280
  0.3540218166423934  0.7700280069831407  0.3982339822922265
  0.2111723912744997  0.8288911723968363  0.7834295222395521
  0.7601624860337357  0.1422996252297977  0.4745257618777279
  0.6467433204596330  0.6818531556509698  0.1760610561987672
  0.0470824854814590  0.6999138400038929  0.7256571385895364
  0.0559835620946972  0.9284973214721408  0.0301405862672132
  0.1005587404119142  0.2972082391566498  0.8763914854153475
  0.9841610806427264  0.6709479896261952  0.5438892218273518
  0.3755128905740978  0.0794011273495850  0.9737183391382352
  0.5306568616820286  0.8952452224396261  0.8726351415931496
  0.8902672212110865  0.0172222718277559  0.5619236285619258
  0.4539254601270802  0.4405169684657773  0.0002963736341274
  0.6966400148135734  0.5756878608342314  0.4634722277431640
  0.4479045857897364  0.5676192082984624  0.1261385988177112
  0.0687024078468401  0.9825109978541406  0.5319768188401106
  0.0341340773689812  0.2694555421111939  0.0332400906188118
  0.9377601789527144  0.3071802537909815  0.5597986997767090
  0.1270626126240857  0.4351986057926191  0.0303555921210628
  0.7719034040224819  0.6595011561233490  0.3282035655874777
  0.1075499188602579  0.9616452652936001  0.3457323436177311
  0.2076440816140085  0.0355436829078154  0.9823601530386088
  0.3430356224723158  0.9328147392672619  0.7297394577621396
  0.4912691972974892  0.6153755906421888  0.9326595395160819
  0.3827475072368883  0.9466455386996432  0.4182390581583890
  0.8085107839232086  0.1982073035878047  0.1952564286014727
  0.6894183548483090  0.4482077670356336  0.3157238419665078
  0.7250394851732410  0.8136473401286592  0.0710334183768182
  0.7642551716738460  0.8159105426307697  0.7024302095221618
  0.9636405350203940  0.1197261340929916  0.4585130091118657
  0.0262113752448661  0.1450349359177043  0.6522747935684626
  0.5526439404364418  0.3464544949952033  0.2465326262869885
  0.4067546598208005  0.2547237108926400  0.9292520915279967
  0.7923178701542701  0.9928141860925586  0.7598771276720283
  0.1819877467196790  0.9448627356067494  0.1847777098489852
  0.1447188976290634  0.4706481012112219  0.8568500152270727
  0.9348623992067343  0.4439496277341496  0.0539950949413388
  0.5667738516897477  0.8376740729065829  0.6914925093301720
  0.6726000859410710  0.6653286846586526  0.9698146683187199
  0.8372821018695228  0.7517572350136456  0.9339204813134679
  0.5431819579440298  0.0857886881197382  0.1179123723519783
  0.3506807323054931  0.0521518430268085  0.2554993040568448
  0.9223641431299769  0.8141095193084841  0.7851177736390169
  0.1645993978056502  0.3070690975273302  0.1566080537799712
  0.3718397395313269  0.5731404665269492  0.4068618866566556
  0.8386926599863876  0.0353998104444287  0.3230924510644424
  0.9911423624151883  0.2119632843803504  0.2072827882816084
  0.8357253771056163  0.7632380346620148  0.2072158344527542
  0.5519957672469948  0.7978663174440421  0.4176537338276483
  0.1075776353668336  0.6542626749221836  0.3701241898401885
  0.8508298732172471  0.9069673738243672  0.5987268746864830
  0.7242326533864633  0.2724428328084197  0.7768637000410805
  0.4209565885943666  0.3642674815830555  0.3888091272048351
  0.5313971432040846  0.5166783055974496  0.3958871609528969
  0.4860832073445309  0.4571834947527330  0.1732426570240296
  0.9148841463753028  0.2505212111829482  0.7364769567207676
  0.4769294879474442  0.7086977323936723  0.2827032599012536
  0.0128097515333621  0.1044982589805939  0.9624782284140881
  0.7381725704113499  0.1469935737108818  0.6613890239077580
  0.8676659762944942  0.2908149542857391  0.9049098081070884
  0.1949853168787427  0.1042579646505559  0.6183675661347749
  0.1314832893405676  0.8131010809710835  0.5947814780634144
  0.9535805460997070  0.8464568453218760  0.5027965711940877
  0.0829695868348923  0.7754117035679290  0.1101317623006789
  0.7419964027004515  0.9446352171462480  0.2145373705210106
  0.0668321443362451  0.0862264237162563  0.1382071293874655
  0.8661775306565317  0.3650450577186112  0.1898417578117020
  0.7927886863319719  0.5346659864293403  0.7479155859105663
  0.7905696928962491  0.3761977052324143  0.6298311115783500
  0.4050606594246733  0.0686305235580991  0.6080677121082926
  0.9542440250767985 -0.0050880451911540  0.8138091858295797
  0.7368354385069151  0.3897458445093367  0.0294449290178718
  0.7969876061295971  0.7360793611130795  0.5093622250065847
  0.3510155765602677  0.2135865877520130  0.4678673932177291
  0.5015164161997083  0.4493249081952183  0.7134158547920101
  0.4454009850260816  0.2005157690675844  0.2986526180989172
  0.0775057634410719  0.4502615005646405  0.5581641089691378
  0.6198701968098013  0.7138531595781000  0.8197371598341042
  0.6416774469483744  0.1667505648634707  0.2455023621243831
  0.0928419770131623  0.6078664126876945  0.9625717861585843
  0.7103870700433307  0.9595205223946220  0.9365664797124097
  0.1063773424722594  0.2444673026509087  0.3347202773601662
  0.0599635469955324  0.5905493630988933  0.1972099259884551
  0.2984283131103417  0.1040437424664243  0.7695432678229542
  0.9721490990946748  0.4435045409452311  0.9073383973258607
  0.8715019008321281  0.6784648343660374  0.6886290875465120
  0.6133584432126528  0.0537686320339545  0.5410003253212119
  0.3668583246396933  0.3037668997954282  0.7569805268135680
  0.3698617129097285  0.7291817889248894  0.1032762760051324
  0.9439108109534705  0.6051966924269884  0.8261279791134429
  0.4947054737339826  0.0792088653312395  0.4174195188655600
  0.6824669817747449  0.8655900463060684  0.5225694987075051
  0.2828380515060505  0.2398873238749540  0.2906757484799721
  0.6056351202751411  0.0217285558954414  0.7293798231008157
  0.6811442140840502  0.2347810568750393  0.9542817422481512
  0.4385868035938439  0.3481345696249499  0.5751318705361352
  0.1049223834488433  0.2552103546782951  0.5198278796437120
  0.6208661037361550  0.2393846394088476  0.5301918302497293
  0.5512868591526001  0.8045274723068128  0.0249258738235166
  0.6345643361917351  0.4256738028393086  0.5519814851010070
  0.0502116827578765  0.7648692970492907  0.9038732410095370
  0.8141492726791708  0.4272774131067951  0.4604964434052840
  0.8520786179319271  0.5402993590744885  0.5747628612668246
  0.4539847976766890  0.9324363805767895  0.1176985352105992
  0.2737267339634190  0.2393265944189655  0.6381408491769224
  0.2215116867108331  0.5261743891633668  0.2917179661299696
  0.0437944236229151  0.8123181213047752  0.4275106091989088
  0.9377478070981403  0.5822895834419753  0.3963805986656582
 
  0.00000000E+00  0.00000000E+00  0.00000000E+00
  0.00000000E+00  0.00000000E+00  0.00000000E+00
  0.00000000E+00  0.00000000E+00  0.00000000E+00
  0.00000000E+00  0.00000000E+00  0.00000000E+00
  0.00000000E+00  0.00000000E+00  0.00000000E+00
  0.00000000E+00  0.00000000E+00  0.00000000E+00
  0.00000000E+00  0.00000000E+00  0.00000000E+00
  0.00000000E+00  0.00000000E+00  0.00000000E+00
  0.00000000E+00  0.00000000E+00  0.00000000E+00
  0.00000000E+00  0.00000000E+00  0.00000000E+00
  0.00000000E+00  0.00000000E+00  0.00000000E+00
  0.00000000E+00  0.00000000E+00  0.00000000E+00
  0.00000000E+00  0.00000000E+00  0.00000000E+00
  0.00000000E+00  0.00000000E+00  0.00000000E+00
  0.00000000E+00  0.00000000E+00  0.00000000E+00
  0.00000000E+00  0.00000000E+00  0.00000000E+00
  0.00000000E+00  0.00000000E+00  0.00000000E+00
  0.00000000E+00  0.00000000E+00  0.00000000E+00
  0.00000000E+00  0.00000000E+00  0.00000000E+00
  0.00000000E+00  0.00000000E+00  0.00000000E+00
  0.00000000E+00  0.00000000E+00  0.00000000E+00
  0.00000000E+00  0.00000000E+00  0.00000000E+00
  0.00000000E+00  0.00000000E+00  0.00000000E+00
  0.00000000E+00  0.00000000E+00  0.00000000E+00
  0.00000000E+00  0.00000000E+00  0.00000000E+00
  0.00000000E+00  0.00000000E+00  0.00000000E+00
  0.00000000E+00  0.00000000E+00  0.00000000E+00
  0.00000000E+00  0.00000000E+00  0.00000000E+00
  0.00000000E+00  0.00000000E+00  0.00000000E+00
  0.00000000E+00  0.00000000E+00  0.00000000E+00
  0.00000000E+00  0.00000000E+00  0.00000000E+00
  0.00000000E+00  0.00000000E+00  0.00000000E+00
  0.00000000E+00  0.00000000E+00  0.00000000E+00
  0.00000000E+00  0.00000000E+00  0.00000000E+00
  0.00000000E+00  0.00000000E+00  0.00000000E+00
  0.00000000E+00  0.00000000E+00  0.00000000E+00
  0.00000000E+00  0.00000000E+00  0.00000000E+00
  0.00000000E+00  0.00000000E+00  0.00000000E+00
  0.00000000E+00  0.00000000E+00  0.00000000E+00
  0.00000000E+00  0.00000000E+00  0.00000000E+00
  0.00000000E+00  0.00000000E+00  0.00000000E+00
  0.00000000E+00  0.00000000E+00  0.00000000E+00
  0.00000000E+00  0.00000000E+00  0.00000000E+00
  0.00000000E+00  0.00000000E+00  0.00000000E+00
  0.00000000E+00  0.00000000E+00  0.00000000E+00
  0.00000000E+00  0.00000000E+00  0.00000000E+00
  0.00000000E+00  0.00000000E+00  0.00000000E+00
  0.00000000E+00  0.00000000E+00  0.00000000E+00
  0.00000000E+00  0.00000000E+00  0.00000000E+00
  0.00000000E+00  0.00000000E+00  0.00000000E+00
  0.00000000E+00  0.00000000E+00  0.00000000E+00
  0.00000000E+00  0.00000000E+00  0.00000000E+00
  0.00000000E+00  0.00000000E+00  0.00000000E+00
  0.00000000E+00  0.00000000E+00  0.00000000E+00
  0.00000000E+00  0.00000000E+00  0.00000000E+00
  0.00000000E+00  0.00000000E+00  0.00000000E+00
  0.00000000E+00  0.00000000E+00  0.00000000E+00
  0.00000000E+00  0.00000000E+00  0.00000000E+00
  0.00000000E+00  0.00000000E+00  0.00000000E+00
  0.00000000E+00  0.00000000E+00  0.00000000E+00
  0.00000000E+00  0.00000000E+00  0.00000000E+00
  0.00000000E+00  0.00000000E+00  0.00000000E+00
  0.00000000E+00  0.00000000E+00  0.00000000E+00
  0.00000000E+00  0.00000000E+00  0.00000000E+00
  0.00000000E+00  0.00000000E+00  0.00000000E+00
  0.00000000E+00  0.00000000E+00  0.00000000E+00
  0.00000000E+00  0.00000000E+00  0.00000000E+00
  0.00000000E+00  0.00000000E+00  0.00000000E+00
  0.00000000E+00  0.00000000E+00  0.00000000E+00
  0.00000000E+00  0.00000000E+00  0.00000000E+00
  0.00000000E+00  0.00000000E+00  0.00000000E+00
  0.00000000E+00  0.00000000E+00  0.00000000E+00
  0.00000000E+00  0.00000000E+00  0.00000000E+00
  0.00000000E+00  0.00000000E+00  0.00000000E+00
  0.00000000E+00  0.00000000E+00  0.00000000E+00
  0.00000000E+00  0.00000000E+00  0.00000000E+00
  0.00000000E+00  0.00000000E+00  0.00000000E+00
  0.00000000E+00  0.00000000E+00  0.00000000E+00
  0.00000000E+00  0.00000000E+00  0.00000000E+00
  0.00000000E+00  0.00000000E+00  0.00000000E+00
  0.00000000E+00  0.00000000E+00  0.00000000E+00
  0.00000000E+00  0.00000000E+00  0.00000000E+00
  0.00000000E+00  0.00000000E+00  0.00000000E+00
  0.00000000E+00  0.00000000E+00  0.00000000E+00
  0.00000000E+00  0.00000000E+00  0.00000000E+00
  0.00000000E+00  0.00000000E+00  0.00000000E+00
  0.00000000E+00  0.00000000E+00  0.00000000E+00
  0.00000000E+00  0.00000000E+00  0.00000000E+00
  0.00000000E+00  0.00000000E+00  0.00000000E+00
  0.00000000E+00  0.00000000E+00  0.00000000E+00
  0.00000000E+00  0.00000000E+00  0.00000000E+00
  0.00000000E+00  0.00000000E+00  0.00000000E+00
  0.00000000E+00  0.00000000E+00  0.00000000E+00
  0.00000000E+00  0.00000000E+00  0.00000000E+00
  0.00000000E+00  0.00000000E+00  0.00000000E+00
  0.00000000E+00  0.00000000E+00  0.00000000E+00
  0.00000000E+00  0.00000000E+00  0.00000000E+00
  0.00000000E+00  0.00000000E+00  0.00000000E+00
  0.00000000E+00  0.00000000E+00  0.00000000E+00
  0.00000000E+00  0.00000000E+00  0.00000000E+00
  0.00000000E+00  0.00000000E+00  0.00000000E+00
  0.00000000E+00  0.00000000E+00  0.00000000E+00
  0.00000000E+00  0.00000000E+00  0.00000000E+00
  0.00000000E+00  0.00000000E+00  0.00000000E+00
  0.00000000E+00  0.00000000E+00  0.00000000E+00
  0.00000000E+00  0.00000000E+00  0.00000000E+00
  0.00000000E+00  0.00000000E+00  0.00000000E+00
  0.00000000E+00  0.00000000E+00  0.00000000E+00
  0.00000000E+00  0.00000000E+00  0.00000000E+00
  0.00000000E+00  0.00000000E+00  0.00000000E+00
  0.00000000E+00  0.00000000E+00  0.00000000E+00
  0.00000000E+00  0.00000000E+00  0.00000000E+00
  0.00000000E+00  0.00000000E+00  0.00000000E+00
  0.00000000E+00  0.00000000E+00  0.00000000E+00
  0.00000000E+00  0.00000000E+00  0.00000000E+00
  0.00000000E+00  0.00000000E+00  0.00000000E+00
  0.00000000E+00  0.00000000E+00  0.00000000E+00
  0.00000000E+00  0.00000000E+00  0.00000000E+00
  0.00000000E+00  0.00000000E+00  0.00000000E+00
  0.00000000E+00  0.00000000E+00  0.00000000E+00
  0.00000000E+00  0.00000000E+00  0.00000000E+00
  0.00000000E+00  0.00000000E+00  0.00000000E+00
  0.00000000E+00  0.00000000E+00  0.00000000E+00
  0.00000000E+00  0.00000000E+00  0.00000000E+00
  0.00000000E+00  0.00000000E+00  0.00000000E+00
  0.00000000E+00  0.00000000E+00  0.00000000E+00
  0.00000000E+00  0.00000000E+00  0.00000000E+00
  0.00000000E+00  0.00000000E+00  0.00000000E+00
  0.00000000E+00  0.00000000E+00  0.00000000E+00
  0.00000000E+00  0.00000000E+00  0.00000000E+00
  0.00000000E+00  0.00000000E+00  0.00000000E+00
  0.00000000E+00  0.00000000E+00  0.00000000E+00
  0.00000000E+00  0.00000000E+00  0.00000000E+00
  0.00000000E+00  0.00000000E+00  0.00000000E+00
  0.00000000E+00  0.00000000E+00  0.00000000E+00
  0.00000000E+00  0.00000000E+00  0.00000000E+00
  0.00000000E+00  0.00000000E+00  0.00000000E+00
  0.00000000E+00  0.00000000E+00  0.00000000E+00
  0.00000000E+00  0.00000000E+00  0.00000000E+00
  0.00000000E+00  0.00000000E+00  0.00000000E+00
  0.00000000E+00  0.00000000E+00  0.00000000E+00
  0.00000000E+00  0.00000000E+00  0.00000000E+00
  0.00000000E+00  0.00000000E+00  0.00000000E+00
  0.00000000E+00  0.00000000E+00  0.00000000E+00
  0.00000000E+00  0.00000000E+00  0.00000000E+00
  0.00000000E+00  0.00000000E+00  0.00000000E+00
  0.00000000E+00  0.00000000E+00  0.00000000E+00
  0.00000000E+00  0.00000000E+00  0.00000000E+00
  0.00000000E+00  0.00000000E+00  0.00000000E+00
  0.00000000E+00  0.00000000E+00  0.00000000E+00
  0.00000000E+00  0.00000000E+00  0.00000000E+00
  0.00000000E+00  0.00000000E+00  0.00000000E+00
  0.00000000E+00  0.00000000E+00  0.00000000E+00
  0.00000000E+00  0.00000000E+00  0.00000000E+00
  0.00000000E+00  0.00000000E+00  0.00000000E+00
  0.00000000E+00  0.00000000E+00  0.00000000E+00
  0.00000000E+00  0.00000000E+00  0.00000000E+00
  0.00000000E+00  0.00000000E+00  0.00000000E+00
  0.00000000E+00  0.00000000E+00  0.00000000E+00
  0.00000000E+00  0.00000000E+00  0.00000000E+00
  0.00000000E+00  0.00000000E+00  0.00000000E+00
  0.00000000E+00  0.00000000E+00  0.00000000E+00
  0.00000000E+00  0.00000000E+00  0.00000000E+00
  0.00000000E+00  0.00000000E+00  0.00000000E+00
  0.00000000E+00  0.00000000E+00  0.00000000E+00
  0.00000000E+00  0.00000000E+00  0.00000000E+00
  0.00000000E+00  0.00000000E+00  0.00000000E+00
  0.00000000E+00  0.00000000E+00  0.00000000E+00
  0.00000000E+00  0.00000000E+00  0.00000000E+00
  0.00000000E+00  0.00000000E+00  0.00000000E+00
  0.00000000E+00  0.00000000E+00  0.00000000E+00
  0.00000000E+00  0.00000000E+00  0.00000000E+00
  0.00000000E+00  0.00000000E+00  0.00000000E+00
  0.00000000E+00  0.00000000E+00  0.00000000E+00
  0.00000000E+00  0.00000000E+00  0.00000000E+00
  0.00000000E+00  0.00000000E+00  0.00000000E+00
  0.00000000E+00  0.00000000E+00  0.00000000E+00
  0.00000000E+00  0.00000000E+00  0.00000000E+00
  0.00000000E+00  0.00000000E+00  0.00000000E+00
  0.00000000E+00  0.00000000E+00  0.00000000E+00
  0.00000000E+00  0.00000000E+00  0.00000000E+00
  0.00000000E+00  0.00000000E+00  0.00000000E+00
  0.00000000E+00  0.00000000E+00  0.00000000E+00
  0.00000000E+00  0.00000000E+00  0.00000000E+00
  0.00000000E+00  0.00000000E+00  0.00000000E+00
  0.00000000E+00  0.00000000E+00  0.00000000E+00
  0.00000000E+00  0.00000000E+00  0.00000000E+00
  0.00000000E+00  0.00000000E+00  0.00000000E+00
  0.00000000E+00  0.00000000E+00  0.00000000E+00
  0.00000000E+00  0.00000000E+00  0.00000000E+00
  0.00000000E+00  0.00000000E+00  0.00000000E+00
  0.00000000E+00  0.00000000E+00  0.00000000E+00
  0.00000000E+00  0.00000000E+00  0.00000000E+00
  0.00000000E+00  0.00000000E+00  0.00000000E+00
  0.00000000E+00  0.00000000E+00  0.00000000E+00
  0.00000000E+00  0.00000000E+00  0.00000000E+00
  0.00000000E+00  0.00000000E+00  0.00000000E+00
  0.00000000E+00  0.00000000E+00  0.00000000E+00
  0.00000000E+00  0.00000000E+00  0.00000000E+00
  0.00000000E+00  0.00000000E+00  0.00000000E+00
  0.00000000E+00  0.00000000E+00  0.00000000E+00
  0.00000000E+00  0.00000000E+00  0.00000000E+00
  0.00000000E+00  0.00000000E+00  0.00000000E+00
  0.00000000E+00  0.00000000E+00  0.00000000E+00
  0.00000000E+00  0.00000000E+00  0.00000000E+00
  0.00000000E+00  0.00000000E+00  0.00000000E+00
  0.00000000E+00  0.00000000E+00  0.00000000E+00
  0.00000000E+00  0.00000000E+00  0.00000000E+00
  0.00000000E+00  0.00000000E+00  0.00000000E+00
  0.00000000E+00  0.00000000E+00  0.00000000E+00
  0.00000000E+00  0.00000000E+00  0.00000000E+00
  0.00000000E+00  0.00000000E+00  0.00000000E+00
  0.00000000E+00  0.00000000E+00  0.00000000E+00
  0.00000000E+00  0.00000000E+00  0.00000000E+00
  0.00000000E+00  0.00000000E+00  0.00000000E+00
  0.00000000E+00  0.00000000E+00  0.00000000E+00
  0.00000000E+00  0.00000000E+00  0.00000000E+00
  0.00000000E+00  0.00000000E+00  0.00000000E+00
  0.00000000E+00  0.00000000E+00  0.00000000E+00
  0.00000000E+00  0.00000000E+00  0.00000000E+00
  0.00000000E+00  0.00000000E+00  0.00000000E+00
  0.00000000E+00  0.00000000E+00  0.00000000E+00
  0.00000000E+00  0.00000000E+00  0.00000000E+00
  0.00000000E+00  0.00000000E+00  0.00000000E+00
  0.00000000E+00  0.00000000E+00  0.00000000E+00
  0.00000000E+00  0.00000000E+00  0.00000000E+00
  0.00000000E+00  0.00000000E+00  0.00000000E+00
  0.00000000E+00  0.00000000E+00  0.00000000E+00
  0.00000000E+00  0.00000000E+00  0.00000000E+00
  0.00000000E+00  0.00000000E+00  0.00000000E+00
  0.00000000E+00  0.00000000E+00  0.00000000E+00
  0.00000000E+00  0.00000000E+00  0.00000000E+00