Amorphous Sb                            
   1.00000000000000     
    20.1678869700586901    0.0000000000000000    0.0000000000000000
     0.0000000000000000   20.1678869700586901    0.0000000000000000
     0.0000000000000000    0.0000000000000000   20.1678869700586901
   Ge   Se
   100   200
Direct
  0.3695413929334802  0.1374165891608279  0.6100625100183155
  0.1332040502832191  0.3326319813837086  0.4345414373412402
  0.8409892444626186  0.6590957437850924  0.7738465677782386
  0.6305048645151051  0.0891684604095910  0.6618754381485312
  0.2466893979915549  0.3925486116684965  0.2060121157008646
  0.2924076857152433  0.5657301468875502  0.2118065363316866
  0.0578409131766836  0.9358481969223219  0.5277029818495694
  0.8548866444386012  0.4845684180800552  0.2852141600051528
  0.2444930778485735  0.6599594298821257  0.0405878478136834
  0.4357063860869503  0.0559597209472257  0.7676045897113905
  0.6511758044776144  0.9008463884652922  0.2448178765056535
  0.2019691832354104  0.3733279880546746  0.6046668452927348
  0.2168339221891017  0.4519992801740519  0.8871037069260671
  0.9513198188758587  0.2602098151284259  0.5283702880546891
  0.8036241681804078  0.8991574671441969  0.3240372109409832
  0.4001751426787272  0.3744073101034317  0.6290845702405713
  0.1154795474565148  0.5625012474779453  0.2991093694624303
  0.6528254345891503  0.2224760034485937  0.2676179695541963
  0.0176548268512693  0.8491771593412868  0.2729541700218832
  0.0857138508976776  0.9177104584360209  0.7895884501449366
  0.9342596358633715  0.0338348796427396  0.9773622936313081
  0.9923608210459760  0.8416744768432667  0.9385536603205186
  0.9181232879244289  0.0908177444741264  0.5660817036325365
  0.4127722685134478  0.2691162755108766  0.8771633446792619
  0.0301815983948215  0.7357234340607098  0.6634977066081073
  0.1433326002901889  0.1757274117491824  0.3258193284662727
  0.4639852040147329  0.9655573817937687  0.1868940945777768
  0.9512675682019182  0.0575163648596268  0.7100351194335085
  0.7824686897824347  0.5766681213247004  0.9386428470565433
  0.4557318877662385  0.6833801457397206  0.2593707133216356
  0.7587564075818063  0.1026708707180825  0.9177175460045419
  0.0020272672906282  0.0257681745173618  0.3729684391530220
  0.2463754456290050  0.7852862131431591  0.1749132601788756
  0.5758011436883539  0.0440925451388967  0.3681647110224862
  0.3747995724405831  0.6432257233253631  0.5692880912892447
  0.4085037977536995  0.3550176324429309  0.2553270749173492
  0.4802877620682244  0.3636314490564541  0.4472276175595780
  0.4195144724927088  0.2438182036190119  0.3395956611012678
  0.2244607607641612  0.9198942531191746  0.2828202469130254
  0.5361629157071631  0.1956422914753358  0.5414234820474825
  0.2573120656155817  0.1571524216639259  0.7461138724009063
  0.0037926122348172  0.2070691668075961  0.9281325361433966
  0.0846797522784931  0.3245132830038406  0.0991416427830564
  0.0942360135892188  0.5077206540054258  0.0468611117422467
  0.4215395154387080  0.7447523305078284  0.4102174022530397
  0.5081641507702968  0.7246020104837138  0.6466401931794927
  0.0048622963817324  0.4150135377529857  0.3668589255310143
  0.0606712914470115  0.7272397669378139  0.4392186960878889
  0.7521603297170824  0.2133579860738031  0.5649028916258524
  0.2634826882520655  0.0260175109692976  0.7779972997567468
  0.0378003478993013  0.5819823672316066  0.5280400043825875
  0.2938401628032048  0.6029859860226437  0.9008702354774819
  0.6752299101113949  0.8566706150580922  0.6972570208896471
  0.8770711539337707  0.0728574676867323  0.2299118528572606
  0.3004446185806696  0.2118270877129678  0.1782850859153643
  0.2215897976087199  0.8558320980645089  0.4233580310106138
  0.9673113060856303  0.5439653217033199  0.8600123344786482
  0.7635438064883722  0.5648914256404182  0.4799865633869963
  0.0037847824434533  0.5180486665929122  0.7364713652680079
  0.8117137590745469  0.3517632234538913  0.9732198765181693
  0.6695671882138438  0.4478166710901845  0.5962719122237928
  0.9943375127006694  0.3952637916652029  0.9582952943223655
  0.1185786353681374  0.7275598478296669  0.8579013258809455
  0.0092297773154681  0.7547090360725243  0.0570856347624579
  0.6244739094673852  0.0549770098815336  0.7873323571477375
  0.8519056874814442  0.8920719321197198  0.1479557399362518
  0.6624823899059681  0.6890431944698947  0.6137698258529900
  0.5066178853113541  0.6818053398970633  0.1117091939079974
  0.9146670019800185  0.7599347258409049  0.8532779992508969
  0.5451657711360078  0.3626596145203285  0.2906271101187983
  0.7163539588188051  0.6282781063156994  0.1365065484723765
  0.3176911917327911  0.8932892516284504  0.6805264095073498
  0.4684149554519251  0.4784227169010052  0.9117662327675123
  0.3393507712671466  0.4284716955587723  0.4451220338982904
  0.3317568828841617  0.9209520818519568  0.9306107771227689
  0.5113204309134024  0.9503288313930613  0.9760707047980733
  0.6191374247234639  0.5225571206592922  0.0141093362897138
  0.9076378442738661  0.3227406248904301  0.7555158698630280
  0.5706153655311167  0.7580953388098565  0.9026550718922451
  0.8965631843730183  0.6919957938182870  0.4031655399640598
  0.9994816230160147  0.2635375315715472  0.3509087685809326
  0.5228655236310178  0.5154450636034728  0.3192767551504969
  0.8436249210374721  0.4140165330913616  0.5027907170128114
  0.8402846439869018  0.7209121196563026  0.0144185056451460
  0.1094384971189638  0.9191363557131204  0.0910917221628355
  0.7455512273953635  0.7892433678626470  0.8614997959099342
  0.8050449877881566  0.6749568809547847  0.2259400615556319
  0.6798505505451498  0.2378586440313938  0.8428746878328121
  0.4172103825620829  0.0679249598607158  0.3065891077446350
  0.6352713959700275  0.7977474024305260  0.4112689523155886
  0.8231942431875777  0.7305348546354324  0.5858025368722588
  0.1802417502972994  0.0743218665331810  0.0759213678128778
  0.2008425514268495  0.6872232995359238  0.5429012738169651
  0.9038676641772984  0.8923939875706827  0.4737939253749338
  0.6096077152238896  0.3626810053413910  0.1292204747277636
  0.1778405778667370  0.1734064406407932  0.8999560108758278
  0.1007311989291281  0.1967286357237235  0.6263561582263748
  0.2851577409261621  0.0756810328160961  0.3588559597623172
  0.4622576419062227  0.1322977552859899  0.0001674562719365
  0.8453781224139477  0.5107293233007481  0.6855203795878017
  0.0676094975127577  0.2295426504881924  0.4866493526043399
  0.5482555541882558  0.6315457821399035  0.3387335678108583
  0.4793434605148933  0.9983268208727437  0.4209910569045268
  0.7118873583024498  0.6224615421997801  0.2942636805572290
  0.0563399398959161  0.0144740728045467  0.1584366877461049
  0.1585039823418850  0.8188452747155597  0.3152087270912275
  0.2138562087571318  0.1635612308099735  0.4188982742064265
  0.5577120526432895  0.4973996258870166  0.1976970589328809
  0.6004843634432153  0.5868438294469571  0.7078676088704512
  0.0859076313595131  0.2457291540488377  0.8519205874441627
  0.7148845172225196  0.2443440152607872  0.3783567077537874
  0.1229511143664680  0.6218409994006228  0.4329236631267243
  0.4279316548833981  0.4565095712610528  0.5363596109477936
  0.2755637962007425  0.5978349109937010  0.7400786974708509
  0.6533194163404964  0.1134833282205771  0.9831483555305901
  0.7260814278276795  0.2997672911050709  0.7331433600152026
  0.6810636872958010  0.3936853400097717  0.9575643607499230
  0.6616936206857168  0.9091180280703903  0.4669618954700989
  0.9513776616662469  0.5239615653794866  0.3545836721316651
  0.7840278995744472  0.0045377328484647  0.0728155235673929
  0.7838165734899321  0.9883280891157300  0.2229769471998354
  0.7857989528178164  0.9645168796734045  0.7820392165507009
  0.2744787606062224  0.5377733223878536  0.4386627752401986
  0.7704909684670964  0.6497666045417141  0.6672572478345902
  0.5030255798767830  0.3102806881408388  0.7914825627302100
  0.8862556903840464  0.8251076546582304  0.2608383040274552
  0.6621390985913199  0.3526278272281852  0.2431489733859730
  0.8652432274397112  0.5307140665543645  0.5385299301987441
  0.6458037649914692  0.8743802675626888  0.8644692888310865
  0.0927300823862020  0.4405834286526204  0.2413745349263598
  0.9399247177613088  0.2218779699562362  0.1640919183588762
  0.4597060344705544  0.6408094240158384  0.4789850779616777
  0.1851274671789280  0.6440989098994778  0.2265431415691552
  0.9780506295683953  0.9263636036590090  0.0204929730693300
  0.9520644632249573  0.2903862669340346  0.0094414136628198
  0.3077169534603076  0.0873722376512581  0.1007863708213838
  0.8211532558636215  0.2604541975327584  0.3030364769432517
  0.2701530498965435  0.8607640521311215  0.5713579618935383
  0.9023068266603267  0.1884152545289696  0.8654358626929772
  0.7531490193256577  0.8147571856725568  0.1238782282905848
  0.9647702045321727  0.0120512152000596  0.8369506700031180
  0.7540737293789685  0.5228863464699086  0.3513429938489013
  0.4154462474029753  0.1726314834779071  0.2372849366250088
  0.7750760894293797  0.1056729041857731  0.6384949457396895
  0.5198119158651787  0.9600473440757357  0.5980171784393777
  0.2534295837507853  0.8182746225166395  0.0495277477861769
  0.1111593099806220  0.3807763783489873  0.9855643165552209
  0.0295100558956240  0.0677018927337747  0.4955692885889426
  0.2441278758565502  0.8976100050288713  0.7777449197594605
  0.4269690192586317  0.8282248345864097  0.6992735177791398
  0.6123887259031068  0.7425260091278568  0.7189187646813031
  0.3535172146932369  0.6829802143773559  0.7974487091704946
  0.8215082994315760  0.8295086108786921  0.9477175841290180
  0.2676943009361973  0.5717146739517073  0.5531100569507952
  0.3438299310885469  0.0481395900748831  0.8667658419462227
  0.1780835859281456  0.0014534547708821  0.3507240924582655
  0.5249749611436394  0.6349558561488288  0.8952023611706457
  0.0157928283260533  0.7238815212609072  0.3273960525147399
  0.3907071645855824  0.8840576723729894  0.1249513481378468
  0.3751986084866948  0.3812395060187405  0.9265439620195591
  0.6713834225570208  0.9694699447209267  0.3581465659993264
  0.4125912049325281  0.2660316325014662  0.5691720596677983
  0.8111752624499492  0.3906587581413892  0.3863027217373595
  0.9595949518676210  0.8742236734074291  0.5788431245150440
  0.1152206240532178  0.4544230692069492  0.4331151698315706
  0.1877043344124245  0.1945127122973276  0.0167381271759389
  0.2992400039104396  0.5379409094930212  0.0197452941658888
  0.3038059821449015  0.7300754830874538  0.6266854906592465
  0.9760332015902987  0.9741913865362348  0.2336800710919084
  0.5506893499334814  0.2524025537472980  0.3547543276680303
  0.5802326756445434  0.1720076545273404  0.7982556595665822
  0.2083449259686911  0.3103606489483788  0.1139017596419472
  0.2366979180356155  0.3255225410794039  0.4969595426252189
  0.4139779741198841  0.7934960898945032  0.9903102110345910
  0.7884234418705699  0.3353463008956232  0.1001352786808103
  0.5884868505229599  0.3148802564921732  0.5013066315303489
  0.1185080998257466  0.5387581924922171  0.8760884587757785
  0.2157152399511195  0.1278087928783897  0.2313324087368532
  0.5072161042802069  0.0732202646502724  0.6279797688308234
  0.9734061812552561  0.4054883604114465  0.8415088909370162
  0.5355780888655104  0.8200240423941501  0.0118722122192376
  0.1045812338409541  0.1304215210880589  0.7472228817479324
  0.7997209082322573  0.3613660173650226  0.8098457679029669
  0.3167834256816120  0.0268666731497334  0.4765985187758290
  0.2208025589611454  0.4631893572766648  0.3099114589155371
  0.3507499502838825  0.6268695205233372  0.3201837969020832
  0.2230190155956037  0.9300692662537231  0.1583743946189465
  0.1605391113182900  0.0441676658924502  0.8715613378553529
  0.9173433606338522  0.3150371303979356  0.2401594579389282
  0.9615188680126138  0.8935811464077796  0.8176225221741393
  0.8843577980046298  0.0746013416640324  0.0921512585736733
  0.1438514728442108  0.0493008086594766  0.6641017960131866
  0.5818767754241467  0.4430079696386133  0.3984366997638129
  0.6526575253522455  0.9455166869899334  0.9576193680942185
  0.9951314285872304  0.6216522222880092  0.2165601848209606
  0.3360827707798352  0.0084778999337864  0.6671329066198536
  0.8035786349043438  0.9873065007194628  0.9555564162590005
  0.6826528205705407  0.5111788681747136  0.8998512652948027
  0.7601283398736176  0.6925464118770871  0.4804085778096535
  0.2559093421735771  0.2428593437898506  0.8388618177278957
  0.9664368625061821  0.6967075434625272  0.5158431222749319
  0.7255256509012271  0.8210362910742800  0.5900477556075581
  0.3354881561856836  0.6779014707362063  0.1406627371266733
  0.0226647726742671  0.1426991856010038  0.3025847069659520
  0.6112040226128896  0.6939764651448758  0.1791137143366373
  0.5738371942582307  0.7969514300431946  0.5527259822756838
  0.4139816899478270  0.5816576685844804  0.9698272642942296
  0.0154631026108199  0.6910771006240085  0.7907439114045453
  0.5315865421576076  0.4441166591708462  0.0246480459152822
  0.3171469816170860  0.5102055868247990  0.8152692331065027
  0.7532155030462230  0.0897799821440849  0.7895191214993864
  0.9397351928725900  0.4255915418175186  0.6770442150035464
  0.6153333306337720  0.1088987474065397  0.4595387157003278
  0.2940158792429726  0.7513486230910895  0.4393904710604399
  0.0556933471833047  0.2146280260924527  0.1601228460838757
  0.9603710502871489  0.2147966634402939  0.6380060592924328
  0.8378951948454328  0.1849397813440931  0.9678261073693276
  0.0435964631379073  0.6402201909371105  0.1116291471423325
  0.8312290943086614  0.8054241887151944  0.4294653525683345
  0.4571398527177993  0.5701174919134717  0.1743721655046982
  0.5118692027398425  0.2729777418073222  0.1521887165957269
  0.7259653045858017  0.1283546379588763  0.4187603452881838
  0.6989573667399468  0.7997854558643943  0.2923374502998818
  0.1036509993652990  0.6366779278056368  0.6242470070252358
  0.7901136938564803  0.1847008338715651  0.2142084783372319
  0.3643056817493702  0.8199141081095047  0.2389888867468211
  0.5039385773299231  0.2510396614314845  0.9751356627671036
  0.2898221553699684  0.2959622227465166  0.2770398232338779
  0.9402745620303451  0.5997790597522528  0.6659460184318583
  0.8490424984228988  0.0007223272761231  0.4784962327950711
  0.3900376422147243  0.1716177305010165  0.7317410778383562
  0.6887121855007966  0.2701788251437728  0.0647170421861515
  0.3397371825099452  0.9037681602829225  0.3237552194867609
  0.7341555503779568  0.1495159573756654  0.0668046043316767
  0.4481957474912447  0.7892219414751093  0.8723504703972456
  0.9499619107114480  0.4976131789002780  0.0028234579332472
  0.1236985004414858  0.8170049385232173  0.7026393434717312
  0.5317558545879981  0.8709661765319822  0.2446620437096172
  0.6312891470615581  0.2139807072811435  0.6286511804494322
  0.8004073168110554  0.8271573442818854  0.7566472410755317
  0.8774836014116298  0.0435028024698304  0.3745780339900299
  0.2526318705618642  0.7069518171124911  0.3258054242986173
  0.1362392816542852  0.6385775559189937  0.9470449545956909
  0.3594358297210702  0.4107404798175469  0.1589489291568544
  0.0343885405841148  0.1158884794568733  0.9983265842172812
  0.6064689754129278  0.3448618462044509  0.8703936590012956
  0.8256951423118837  0.2470220650528678  0.6685819418148224
  0.4680756724130228  0.6360560873474667  0.7815653512775748
  0.7309289572223396  0.6678759963155012  0.8413107607263653
  0.0690133761449973  0.8160824772179063  0.1554829508793333
  0.4316029355545998  0.1229568020954439  0.4254918677298021
  0.7226972896836260  0.6747763276610059  0.0179706901956796
  0.4558176164599625  0.9058312105540541  0.8620925766721989
  0.5519883190553598  0.0874873798798114  0.2624164688256394
  0.4002965972926822  0.4735942466576894  0.3285684520606427
  0.4503777460849752  0.4047440808142569  0.7399162498034795
  0.7054750906971600  0.0097834059373294  0.6023528947583756
  0.5829424312484482  0.6354799689526226  0.0136094302444413
  0.8756168268045185  0.1870505025730892  0.4756864265025686
  0.8419846438998895  0.5385184533334270  0.8169754873902534
  0.1188251460034978  0.8374047667149006  0.9112589374821728
  0.1293007432268704  0.3063332562887695  0.6784497633808794
  0.1235824912650431  0.2986119230919773  0.3095483375279687
  0.6727141272517240  0.8993813502211484  0.1193224119495803
  0.1200562183748471  0.4685375982703912  0.5843207172997662
  0.5836620286401479  0.3666732826252722  0.6049629296957741
  0.4382391017051521  0.3215308761098564  0.0601071070274119
  0.3405308333009776  0.1602667519167048  0.0081759590067819
  0.8275233470690954  0.4793330867607934  0.0264718417348611
  0.1988760310867694  0.4991047163046105  0.1142801652051071
  0.2869353594005380  0.7549118489889761  0.9518722513447762
  0.7013792628768120  0.5049030728913267  0.1087009056075120
  0.2261381603863425  0.9698917907293816  0.5342246876865110
  0.7679006147164595  0.3709542831902529  0.5876159636695046
  0.5613918227048514  0.0003162679382559  0.1000672194473177
  0.5137066465858974  0.8596334943368110  0.3807713038355587
  0.2074460559061951  0.9902729990391554  0.9735176161894712
  0.6482332441484716  0.5448799849808377  0.5268899910509610
  0.5264707237068488  0.5658347454020632  0.6192438685931851
  0.6571668138799853  0.4745840576636286  0.7160037409707526
  0.4020132239057229  0.9743773193666845  0.0264028405839108
  0.1322967306310124  0.5090022591697387  0.7055333174571878
  0.0438081669350015  0.9769471941803198  0.6741864711570967
  0.5237117317623693  0.1151302042029774  0.1033710708885070
  0.5133991863154893  0.9146958352308062  0.7102747520774464
  0.0098418900729667  0.8926709464729115  0.4079736106155430
  0.8979546719859537  0.7551310114544261  0.1178363650475929
  0.0221404308837001  0.4229040731782180  0.1403068788675459
  0.5148411194398910  0.0647071342454185  0.9098433557322594
  0.1276902889118669  0.8025902791059929  0.5050955300750516
  0.9291944492400237  0.6673037149696568  0.9536040234741097
  0.1453973138599061  0.4131998100737797  0.7861797168274103
  0.8730723640716804  0.5735015820279994  0.1863246204955913
  0.9635403924990525  0.3781555487731041  0.5119665880940101
  0.2937844641796913  0.4063801479720975  0.6773910306989933
  0.8694537713096175  0.9578320218748076  0.6809706060717379
  0.1906317655782461  0.7288383306725935  0.7572260306980284
  0.4646572333847773  0.8303065737876288  0.4939497343319783
  0.4125625999781465  0.5676101947847662  0.6679452694770660
  0.2357670427708901  0.1650839383815609  0.6300900578140700
 
 -0.57116199E-03 -0.27780177E-03  0.14159741E-02
 -0.20718861E-02 -0.13832001E-02 -0.19292319E-02
  0.20268172E-02  0.45710052E-02 -0.31589273E-03
 -0.12796722E-02  0.23178158E-02  0.76257600E-03
 -0.24052594E-02  0.17087976E-02 -0.19774247E-02
  0.12721982E-02  0.15384816E-02 -0.23232671E-02
  0.27750883E-02  0.18751726E-02 -0.23026521E-02
  0.16193771E-02  0.66767043E-04  0.16168148E-02
  0.31634580E-02 -0.16266622E-02  0.27970384E-02
 -0.69353614E-04  0.23201549E-02 -0.22574099E-02
 -0.80285382E-04  0.22894847E-02  0.22278143E-03
 -0.24703936E-02 -0.17143942E-02 -0.75379203E-03
  0.29083904E-03 -0.46300638E-03  0.32873014E-03
 -0.24760100E-02 -0.33563236E-03  0.18357290E-02
 -0.14895635E-02 -0.15636758E-02 -0.81820068E-03
 -0.39550406E-03 -0.10870829E-02 -0.36185468E-02
  0.15329248E-02  0.17349717E-02  0.70893093E-03
 -0.84109880E-03 -0.22252077E-02 -0.93360195E-04
 -0.65179807E-03 -0.14066101E-02 -0.21705602E-02
 -0.11954067E-02  0.14705296E-02  0.17766986E-02
 -0.52901003E-03  0.10931787E-02 -0.12912859E-02
  0.20996125E-02  0.22127934E-02 -0.22540185E-02
  0.34375272E-02 -0.12000281E-02  0.26233267E-02
 -0.42606249E-03  0.40488807E-02 -0.10205471E-03
  0.25428412E-02 -0.26277319E-03  0.15523545E-02
 -0.34383720E-03 -0.31093797E-02  0.24901741E-03
 -0.22473642E-03  0.10489796E-02 -0.19038489E-03
 -0.15924355E-02  0.11241429E-02 -0.69722617E-03
  0.57286085E-03  0.10959451E-03  0.85270119E-03
 -0.16378700E-02 -0.20582144E-02  0.42012226E-02
 -0.35076965E-02  0.83032875E-03 -0.10728056E-02
  0.15445799E-02  0.71891658E-03 -0.73448121E-03
  0.22463949E-03  0.16313070E-02 -0.19020812E-03
 -0.13843148E-02 -0.30188538E-02  0.43072492E-03
 -0.13934351E-02  0.44600285E-02  0.12421764E-02
 -0.19679951E-02 -0.43704700E-02  0.19468499E-02
  0.26204158E-02 -0.11172017E-02 -0.84088468E-03
 -0.31289573E-02  0.88475226E-04 -0.32755320E-02
  0.43378093E-02  0.17100774E-02  0.30413223E-02
  0.12827250E-02 -0.11399879E-02  0.54905341E-03
 -0.15235587E-02  0.11446542E-02  0.70082399E-03
 -0.10930110E-03  0.62281733E-03  0.20274449E-03
 -0.34468434E-03 -0.61083881E-03 -0.15948202E-02
 -0.64676974E-03  0.78803168E-03 -0.24908012E-02
  0.14353174E-02  0.28812069E-02 -0.79415222E-03
 -0.46586039E-02 -0.23026757E-02  0.17923000E-02
  0.19900103E-02 -0.29357811E-02  0.19257795E-02
 -0.17702552E-02 -0.10244559E-02 -0.13806180E-02
  0.21028835E-02  0.15411422E-02  0.47492182E-03
 -0.83358922E-03 -0.15794064E-02  0.17366305E-02
 -0.34772855E-02  0.21862352E-03  0.23409526E-02
  0.20171915E-02 -0.26476807E-03 -0.38175556E-03
  0.10859030E-02  0.17295364E-02  0.10975986E-02
  0.13418763E-02 -0.36459640E-02 -0.31296866E-02
 -0.31997599E-03 -0.98888154E-03  0.11517008E-02
 -0.54226872E-03 -0.42918550E-03  0.53839872E-02
 -0.10830713E-03 -0.55287249E-04 -0.20337741E-02
 -0.57107470E-03  0.44318918E-03  0.44771011E-02
  0.80219211E-03 -0.28988893E-02 -0.11643871E-02
  0.14017088E-02  0.22812084E-02 -0.24890261E-02
 -0.12365599E-02  0.28182413E-02 -0.82460319E-03
 -0.62741500E-03  0.27225551E-02 -0.88065710E-03
 -0.25278743E-03 -0.79246538E-03  0.11682920E-02
 -0.15812769E-02  0.21687721E-02  0.18356670E-02
 -0.10635729E-02 -0.10721583E-02 -0.71673426E-03
 -0.22697907E-02 -0.13230343E-02 -0.44671427E-02
  0.28818250E-02 -0.22673243E-02  0.19473312E-02
  0.16563924E-02  0.11396631E-02  0.29972596E-03
 -0.46802888E-03 -0.76952000E-03  0.19985621E-02
 -0.15570864E-04  0.11902383E-02 -0.38536123E-02
 -0.22849477E-03  0.87528813E-03  0.20303767E-04
  0.16508538E-02 -0.82523489E-03  0.16345747E-02
  0.26043954E-02  0.10161524E-02 -0.21318436E-02
 -0.28772505E-03  0.10754725E-02 -0.10792361E-02
  0.73606043E-03  0.38232041E-02 -0.38975647E-02
  0.30106603E-02 -0.26413173E-03 -0.55452277E-03
  0.23472084E-03  0.12067629E-02  0.16884194E-02
 -0.13194763E-02  0.72327322E-03  0.79099951E-03
  0.67333724E-03 -0.32760963E-04  0.36864872E-02
  0.35291303E-03 -0.18055520E-02  0.18062720E-02
 -0.38496782E-03  0.29297274E-02 -0.99850234E-03
  0.80487299E-03 -0.19568848E-02 -0.80120660E-03
  0.63980489E-03  0.20219862E-02 -0.93113333E-03
 -0.17691848E-02  0.20800714E-03  0.17510488E-02
  0.40053156E-03  0.11955111E-02  0.21033058E-02
 -0.25614841E-02 -0.28261698E-03  0.37598626E-03
  0.24099236E-02  0.30042763E-02  0.19538975E-02
 -0.97220105E-03  0.98277960E-03 -0.10691777E-02
  0.10946685E-02 -0.85019947E-03 -0.11443591E-02
  0.36888425E-03  0.18190078E-03 -0.10749108E-02
 -0.78457589E-03  0.16850281E-02  0.36166886E-02
  0.27255830E-02  0.16090702E-03 -0.49819498E-03
 -0.77414509E-03  0.18178090E-02  0.93369039E-03
  0.91127563E-03 -0.40007292E-02 -0.23520767E-03
  0.25429817E-02 -0.40881022E-02 -0.78487325E-03
 -0.19769884E-02 -0.47942780E-02  0.73233844E-03
 -0.63537633E-03  0.22338782E-02 -0.12613333E-02
 -0.15514379E-02 -0.15683145E-02 -0.17090142E-06
  0.25798411E-03  0.15900607E-02 -0.25344558E-02
  0.35931303E-04  0.48544082E-02  0.13478572E-02
 -0.21093095E-02 -0.13013619E-02 -0.51678982E-03
  0.27495540E-02 -0.14903534E-02  0.39293419E-02
  0.11661544E-02  0.16142508E-02  0.80512485E-03
 -0.15490049E-02  0.75984009E-03 -0.38861636E-03
  0.25362285E-02  0.25630695E-02 -0.12596172E-02
 -0.10868708E-02 -0.18706969E-03  0.24938446E-02
 -0.17728901E-03  0.21594365E-02  0.21656143E-02
  0.13110389E-02  0.12745761E-02 -0.25262884E-02
  0.98007196E-03 -0.29261299E-02 -0.10605368E-03
 -0.30335148E-02 -0.18560689E-02 -0.15951633E-02
  0.10838735E-02  0.42563538E-03  0.15338255E-02
 -0.18784438E-02  0.35704668E-02  0.36714082E-02
 -0.20943589E-02 -0.25835919E-02  0.17714976E-02
 -0.12829282E-02 -0.18627268E-02 -0.38220737E-03
 -0.16688775E-02 -0.11833260E-02 -0.16518840E-02
 -0.36460549E-03 -0.17234807E-02  0.17803278E-02
  0.53369609E-04  0.90829406E-03  0.17051588E-03
 -0.32960883E-04  0.18913200E-02  0.11795184E-02
  0.38073711E-02 -0.12896968E-03  0.22634222E-02
 -0.39867844E-03 -0.40036753E-03  0.23868159E-02
 -0.79924577E-03 -0.20926205E-03  0.96510074E-03
 -0.17020729E-02 -0.67126200E-03  0.35245689E-02
 -0.23381425E-02 -0.58778720E-03  0.36835652E-02
 -0.13284698E-03  0.81706618E-03 -0.74880370E-03
 -0.80570326E-03 -0.15832143E-02 -0.30030225E-03
 -0.23477546E-02  0.71175064E-03 -0.35422825E-03
  0.22982135E-03  0.25963591E-02 -0.11652239E-02
 -0.15123738E-02 -0.18466393E-02  0.76429591E-03
 -0.65901224E-04 -0.25604887E-02 -0.10156575E-02
  0.22997851E-02 -0.36511881E-02  0.55932615E-04
 -0.95216428E-03  0.54872935E-03  0.39399772E-03
 -0.31545314E-03  0.52793600E-02  0.22086790E-02
  0.12442432E-02  0.61111793E-03 -0.13579866E-02
  0.75469194E-03  0.20947910E-02  0.45526005E-03
 -0.26290311E-03 -0.21795678E-02 -0.29963005E-02
  0.23685422E-02 -0.17621885E-02 -0.32279900E-02
  0.63158190E-03  0.59925584E-04  0.36152824E-02
 -0.16628070E-02 -0.37693137E-02 -0.12799058E-02
 -0.31648767E-03 -0.10442420E-02  0.78644303E-03
 -0.35322076E-02 -0.30213511E-02 -0.19438754E-02
 -0.25672435E-03 -0.44856253E-02 -0.28840147E-02
  0.18562934E-03  0.54330431E-04  0.12346038E-02
 -0.34801914E-03  0.78341567E-03  0.12257968E-02
  0.32402321E-02 -0.12157435E-02 -0.11437817E-02
  0.10410152E-02  0.49983556E-03 -0.24093050E-02
 -0.35500401E-02 -0.15822355E-02  0.10095315E-02
 -0.18199476E-02 -0.91107873E-03 -0.81994439E-03
 -0.13642269E-02  0.16183341E-02  0.11728300E-02
  0.38356075E-02  0.42937586E-03 -0.16594637E-02
  0.22771887E-02  0.27892595E-03 -0.38268996E-04
  0.15352915E-02  0.61354877E-03 -0.25764545E-02
 -0.66545985E-03  0.30401323E-03  0.69772910E-04
 -0.34030260E-02  0.32338939E-03  0.76909897E-03
  0.11007163E-02  0.46712223E-03 -0.57985568E-03
  0.72056877E-03 -0.20101263E-02  0.24156179E-02
 -0.18745210E-02 -0.12460051E-02 -0.19667504E-02
 -0.74069318E-03  0.92193113E-03 -0.13430065E-02
  0.36550840E-02 -0.11395541E-02 -0.87012186E-03
  0.22577262E-03 -0.11133614E-03  0.26044334E-02
 -0.49119673E-03 -0.96569395E-03 -0.58819161E-03
 -0.37807341E-02 -0.13064387E-02  0.35554196E-03
  0.10602731E-03 -0.24212408E-02  0.19940179E-02
 -0.84987755E-03 -0.30554473E-02  0.94096543E-03
  0.49972306E-02 -0.91687887E-05  0.67033594E-03
 -0.18650088E-03  0.18424732E-02 -0.24807700E-03
  0.17032571E-02  0.31640887E-03  0.25563780E-02
  0.33362055E-02  0.81651256E-03 -0.38785380E-03
 -0.36981466E-02  0.50752943E-03 -0.15958687E-02
  0.28044346E-04 -0.60660159E-03 -0.20341514E-02
  0.25376538E-03  0.10216293E-02 -0.73652027E-04
  0.57992496E-03  0.21412593E-02 -0.12101342E-02
  0.68991444E-03 -0.18546919E-02  0.83776622E-03
 -0.13494667E-02 -0.20346326E-02 -0.36829877E-03
  0.76328131E-03 -0.55954314E-03 -0.87393439E-04
 -0.22653005E-02  0.17110525E-02 -0.11183252E-02
  0.12404704E-02 -0.29776178E-02 -0.11219242E-02
  0.90932918E-03  0.36410870E-03 -0.34784343E-03
 -0.15468786E-02  0.22834063E-02 -0.19243637E-02
 -0.44792026E-03 -0.43773701E-03  0.24678807E-02
  0.25141171E-02 -0.20524027E-02 -0.13626150E-02
  0.31377449E-03  0.57369452E-03  0.14332251E-02
 -0.23441346E-03  0.68630572E-03 -0.19462298E-02
  0.29477606E-03 -0.26063597E-02 -0.85886951E-03
  0.24899128E-03 -0.35238765E-02 -0.60378500E-03
 -0.18960996E-02  0.21536916E-02  0.67006609E-03
  0.15969602E-02  0.44051873E-03 -0.80161410E-03
  0.41962177E-02 -0.23240931E-02 -0.58473382E-03
  0.11586923E-02  0.22134351E-02  0.53726270E-03
 -0.12310392E-02 -0.94609091E-03 -0.12337744E-02
 -0.33764839E-03 -0.18185113E-03 -0.26296174E-03
  0.42396850E-02 -0.18564225E-02  0.16477788E-02
 -0.13037009E-02  0.57627936E-03  0.17325801E-02
 -0.30404685E-02  0.34724649E-02  0.20422250E-02
 -0.19931926E-02 -0.55238604E-03 -0.33032476E-04
  0.28281403E-02 -0.45935930E-03 -0.29408034E-02
 -0.49978144E-03 -0.86356769E-03  0.21475741E-02
 -0.13282397E-02 -0.19638080E-03 -0.14818887E-02
  0.91415779E-03  0.56092216E-03  0.20899296E-02
  0.12909653E-03  0.18192333E-02 -0.42676688E-02
  0.14301260E-05 -0.21011201E-03 -0.21591702E-02
 -0.77743862E-04  0.24702507E-02  0.21811826E-02
 -0.13427413E-02 -0.15334425E-02 -0.14703643E-02
 -0.14426820E-02  0.14018228E-02  0.20428438E-02
  0.18157451E-02 -0.42702275E-02 -0.17181575E-03
  0.60922199E-03 -0.24353657E-02  0.14458082E-02
 -0.27428117E-02  0.12074794E-02  0.53030911E-03
  0.17514125E-02  0.88198991E-03  0.10487346E-02
 -0.25535316E-02  0.27551947E-02  0.37602708E-02
  0.48699312E-03 -0.52957390E-04  0.12890174E-02
 -0.32986566E-02 -0.27961625E-02  0.12990344E-02
 -0.80272881E-03  0.81926683E-03  0.11267462E-02
 -0.42520064E-03  0.13395042E-02  0.17438937E-02
  0.94767115E-03  0.36931226E-03  0.13156857E-02
  0.54626570E-03 -0.27595350E-03  0.15930568E-02
 -0.12510168E-02  0.94495980E-03 -0.83710605E-03
  0.12002939E-02  0.19422254E-02 -0.15258402E-02
 -0.31879256E-03  0.30266129E-02 -0.18065194E-02
 -0.57733198E-03  0.27255660E-02 -0.23412758E-02
 -0.18906421E-02 -0.51445198E-03 -0.89282971E-03
 -0.26253101E-03  0.64353727E-03  0.29738069E-02
  0.28513643E-03 -0.36064328E-02  0.57363619E-04
  0.13814201E-02  0.15185484E-02 -0.31814741E-02
 -0.51740940E-03  0.25883705E-02  0.14879845E-02
 -0.19711389E-02 -0.11450457E-02 -0.18933869E-02
  0.35961140E-03  0.30234309E-02 -0.24074124E-02
  0.18511118E-03 -0.26058925E-02 -0.11697480E-02
 -0.11981577E-03  0.36913812E-02  0.13547921E-02
  0.32850191E-03  0.25092340E-03 -0.38803885E-03
 -0.11777031E-04 -0.15031587E-02 -0.13064632E-02
  0.24669491E-02 -0.85771200E-03  0.60860477E-04
 -0.73227363E-03 -0.31060054E-02  0.36021467E-02
  0.16619172E-03 -0.27798666E-02  0.99087002E-03