In2O3 structure 30 - random placement wi
   1.00000000000000     
     8.0482163151058934    0.0335743060123299    0.0757999723845775
     0.0338127617789779    7.9798811255235780    0.0446957437982762
     0.0758835555765419    0.0442651035605248    8.0718953403678739
   In   Ga   O 
    14     2    24
Direct
  0.8248786524272163  0.3503421146500330  0.4624510377000064
  0.0932753271028162  0.1090765387324595  0.2342977482817616
  0.8550777709058011  0.8401376147685511  0.4811240706847570
  0.5949689660656929  0.1260887762740239  0.7838772159666405
  0.8483646260889444  0.8297531432093237  0.9905500770158469
  0.3300647432508654  0.8408160072524140  0.4811236826140615
  0.8271804698628173  0.3483674658086500  0.9797838866731752
  0.0930598752095904  0.1218191504616470  0.7442290661253921
  0.5492721402267478  0.5855146464988294  0.7241122504429001
  0.5634300821586322  0.6071987766403737  0.2068918620063869
  0.5948753454727296  0.1044580282936565  0.2344844781246636
  0.0682672998523870  0.6133514154810413  0.7132508770951915
  0.2951265376863006  0.3455521355089033  0.4513328592600914
  0.3386540432978009  0.8335251406881667  0.9878416199858933
  0.0668468765271086  0.6178822809476330  0.2091223810628122
  0.3068523668290410  0.3348285726772176  0.9863241255122830
  0.5398688668167040  0.3734074566240864  0.8905647583298801
  0.7994962655759537  0.5908114817930112  0.6062814629852653
  0.8177934917881089  0.7124504462980141  0.2441777694965737
  0.5505218414431283  0.1524897872070241  0.5052897250249728
  0.3446687642007049  0.0841157987538494  0.8721814412462692
  0.1015577256547502  0.7089837591778547  0.4410263600170765
  0.9590936114146800  0.8804540513204344  0.7384611403336336
  0.8503729222699690  0.0820414053638672  0.3562752913820546
  0.6945395116224731  0.3682311053840479  0.2232232041899422
  0.3510483807112195  0.2270000631510953  0.2052630182794246
  0.0759199538882243  0.2360785557020151  0.9949065787313884
  0.0553767508896215  0.3918956476427695  0.3238533171519649
  0.5974912072450493  0.7315629126007295  0.9470324169711333
  0.5753204247194006  0.9671081736530667  0.5628678219580650
  0.9650218107035400  0.5783103697891718  0.9686757698545776
  0.4655929264688297  0.5562934993650970  0.4640943356894738
  0.0978685012136395  0.8640883335864231  0.1114649830130148
  0.8391606097402331  0.2460641948298061  0.7155674277632968
  0.1943639897506557  0.0810151803715300  0.4909859687636597
  0.3162800012906786  0.7352572963404853  0.7345739381180039
  0.2084133501419885  0.3787092722025278  0.7088684520549435
  0.2967036692288758  0.5633446301812484  0.0971871415779333
  0.4577026427005890  0.8667367237843138  0.2413695468644619
  0.7341755779974264  0.0769390014560329  0.0060042251192485
 
  0.00000000E+00  0.00000000E+00  0.00000000E+00
  0.00000000E+00  0.00000000E+00  0.00000000E+00
  0.00000000E+00  0.00000000E+00  0.00000000E+00
  0.00000000E+00  0.00000000E+00  0.00000000E+00
  0.00000000E+00  0.00000000E+00  0.00000000E+00
  0.00000000E+00  0.00000000E+00  0.00000000E+00
  0.00000000E+00  0.00000000E+00  0.00000000E+00
  0.00000000E+00  0.00000000E+00  0.00000000E+00
  0.00000000E+00  0.00000000E+00  0.00000000E+00
  0.00000000E+00  0.00000000E+00  0.00000000E+00
  0.00000000E+00  0.00000000E+00  0.00000000E+00
  0.00000000E+00  0.00000000E+00  0.00000000E+00
  0.00000000E+00  0.00000000E+00  0.00000000E+00
  0.00000000E+00  0.00000000E+00  0.00000000E+00
  0.00000000E+00  0.00000000E+00  0.00000000E+00
  0.00000000E+00  0.00000000E+00  0.00000000E+00
  0.00000000E+00  0.00000000E+00  0.00000000E+00
  0.00000000E+00  0.00000000E+00  0.00000000E+00
  0.00000000E+00  0.00000000E+00  0.00000000E+00
  0.00000000E+00  0.00000000E+00  0.00000000E+00
  0.00000000E+00  0.00000000E+00  0.00000000E+00
  0.00000000E+00  0.00000000E+00  0.00000000E+00
  0.00000000E+00  0.00000000E+00  0.00000000E+00
  0.00000000E+00  0.00000000E+00  0.00000000E+00
  0.00000000E+00  0.00000000E+00  0.00000000E+00
  0.00000000E+00  0.00000000E+00  0.00000000E+00
  0.00000000E+00  0.00000000E+00  0.00000000E+00
  0.00000000E+00  0.00000000E+00  0.00000000E+00
  0.00000000E+00  0.00000000E+00  0.00000000E+00
  0.00000000E+00  0.00000000E+00  0.00000000E+00
  0.00000000E+00  0.00000000E+00  0.00000000E+00
  0.00000000E+00  0.00000000E+00  0.00000000E+00
  0.00000000E+00  0.00000000E+00  0.00000000E+00
  0.00000000E+00  0.00000000E+00  0.00000000E+00
  0.00000000E+00  0.00000000E+00  0.00000000E+00
  0.00000000E+00  0.00000000E+00  0.00000000E+00
  0.00000000E+00  0.00000000E+00  0.00000000E+00
  0.00000000E+00  0.00000000E+00  0.00000000E+00
  0.00000000E+00  0.00000000E+00  0.00000000E+00
  0.00000000E+00  0.00000000E+00  0.00000000E+00
