Na4 Cl4                                 
   1.00000000000000     
    18.3330003934235108   -0.0045535622214677    0.0116525395751114
    -0.0048317308592670   18.3642429128226112    0.0906939154043658
     0.0114075831506023    0.0908962821527819   18.3759141951128271
   Ge   Sb   Te
    43    43   108
Direct
  0.3257472274717523  0.5032176149529706  0.5075220719283341
  0.4988934673399097  0.1592779699893553  0.6685391893004976
  0.6682893815005619  0.8505869168041051  0.7833677069800041
  0.5122122884589937  0.0023892014509550  0.1688745040587241
  0.3367713040241383  0.8319687785294273  0.5047697887031933
  0.4972542525804669  0.0078890352337444  0.8409956585974797
  0.6828342621414755  0.5041139941447184  0.1622665676683938
  0.8335066073846685  0.8326188688621866  0.0015960539849343
  0.8382825106632779  0.6759943175896950  0.1680933370902781
 -0.0013407068421150  0.0075228870391513  0.0180584046184784
  0.3498948598195516  0.0038443475987889  0.6729243472869642
  0.8410841356635789  0.0139335489686256  0.5036861415387909
  0.1587478623706083  0.5070872219650171  0.3158855793435630
  0.3483412415815974  0.3291765836624249  0.6735856999527635
  0.3408438166041494  0.8433212488877324  0.8305434511561879
  0.3456559745889199  0.8420591138990717  0.1657359200524244
  0.1509545871204196  0.8348337979488647  0.3398862721487328
  0.1617160525199094  0.6758914749410156  0.8392392293595956
  0.8197884890172792  0.3251941674203170  0.1671998663250260
  0.8473450738567420  0.6728265359520716  0.8458885328447833
  0.6674827288594514  0.3287764633915367  0.3477040254183506
  0.4963215122167378  0.8332055277855563  0.3387416453979738
  0.0049059136119882  0.5057787114449503  0.5009841387691534
  0.3295703721634008  0.1710740891289000  0.8460617077736262
  0.3288401555365406  0.3349057696889607  0.0085596513065123
 -0.0099014498311235  0.8444431523639172  0.5011214780585691
  0.1604164580488674  0.3393692817339927  0.5099555710869296
  0.3137685142115415  0.6697094104523590  0.3308112737994547
  0.3256835579244432  0.5038433512310719  0.8345658855900716
  0.4984367996490162  0.3330888002210832  0.8466328295902034
  0.1534963752746087  0.6719564857184048  0.1699709462123349
  0.1631500698623818  0.3384312213895951  0.1670078035436210
  0.8325266260804582  0.5203295064022866  0.6699170398101298
  0.1566371311564986  0.6731935722017726  0.5074685037825248
  0.1532343757597217  0.0011809759623719  0.1624504084818764
  0.5113701859408769  0.4995695553958942  0.6670899246405667
  0.1682792697669904  0.3356362967840253  0.8371272796634908
  0.1621604292433330  0.0028541681068716  0.5105242833719803
  0.8393489751282769  0.3318764356958473  0.5102524553938207
  0.0003376434499997  0.3616161980178276  0.0072835387609303
  0.1599732420061684  0.1697857362077190  0.6710634717970333
  0.8292974711431962  0.1662535241392258  0.3123613099164770
  0.0070051403381981  0.5087565960046460  0.8607911053189934
  0.1616306087614612  0.5001952028759897  0.6745054678651152
  0.3351470376425309  0.1630797126071050  0.5022010475794951
  0.3164962378915507 -0.0042604634696194  0.3344129665634068
  0.5006468564299605  0.4996704313545661  0.3279498332287323
  0.5078680078705081  0.6709698999818350  0.5043123214016230
 -0.0110812332934739  0.8197557894340430  0.1743426689520991
  0.3200930121641886  0.6674581819033604  0.0045757590806856
  0.6763668357567313 -0.0021894282648328  0.3578504416565196
 -0.0096686355398287 -0.0059385387331981  0.6635347978321049
 -0.0007570609669429  0.1704506428791251  0.1715748846158814
  0.3213505529141455  0.4916280809386444  0.1635065202276962
  0.6730262178850340  0.3290042435769779  0.0068861242338962
  0.1608815981898783  0.8415779314265561  0.6671396694197057
  0.3319198986492023  0.6704987597315893  0.6653670407959524
  0.3365358278811272  0.3311372906925164  0.3348902707873506
  0.8303557573108272  0.8423387665622908  0.3429337242923355
 -0.0033197532318091  0.8303327334799380  0.8345278293298239
  0.5012661627720706  0.1605709308233636  0.3196605842701253
 -0.0104935194655245  0.3464287813056941  0.6675377606009378
  0.6776741786667730  0.6727756421175590  0.3381579082064294
  0.5090708025933475  0.3272431817742338  0.5125313403308277
 -0.0006535086234332  0.1665406686126700  0.8288434412089086
  0.8423694468935053  0.5032199599442284  0.3117549171994142
  0.5041878918708429  0.6666338610262191  0.1633877374395739
  0.6603368612409002  0.1583475733383441  0.1613510337520436
  0.6774913447579117  0.4987540959602701  0.5015139707953600
  0.5012394400336204  0.4893526700425446 -0.0009966786757349
  0.6624882259384312  0.1639450490223372  0.8127978063936767
  0.8282842174622236  0.3394788937668537  0.8441121317646677
  0.8405061709990093 -0.0003257800470774  0.8438151998615915
  0.6743930735534853  0.5083581545238948  0.8291810540027716
  0.5068962924751828  0.8383655527062676 -0.0010645403317429
  0.1543519929461360  0.1754052917978367  0.0011482062698103
  0.1535020635930406  0.1628530316792565  0.3374772993704586
 -0.0027198967738251  0.3387938484355116  0.3324639550838043
  0.5146834420589549 -0.0007918199716406  0.5133666719362882
  0.6833515123204372  0.6707891385707843 -0.0058993807416711
  0.1582760920667254  0.8294977113526234  0.0075973772367256
  0.8280456072495941  0.1580507246297359  0.6563408975117417
  0.5089932122282244  0.6787275883313495  0.8323971086390644
  0.8480350046392217  0.6732493458578126  0.5166936804314951
  0.6740430390408282  0.0033584286037742  0.0038049472189426
  0.3233792142461281  0.0117739991379750  0.0080705619046329
  0.0003181459217328  0.0018520518050438  0.1696645614520139
 -0.0036251798834975 -0.0025809835809976  0.4988900489383550
  0.0033593161454512 -0.0004525280051319  0.8359349369400321
  0.0004736677234080  0.3366530891395905  0.1634803745035930
 -0.0003499130593048  0.3283287694669294  0.4994681357489624
  0.0025600418052531  0.3398783255723465  0.8367856749880555
 -0.0023951240592328  0.6634307514735068  0.1643642076435433
  0.0051926898599375  0.6600335146679712  0.4874523874641588
  0.0024194935995497  0.6637746058205364  0.8267778647379443
  0.3350189139672106 -0.0034586317809483  0.1664134490918723
  0.3287429131891954 -0.0082041872318343  0.5008624651870253
  0.3393995281460375 -0.0020356349371233  0.8287379101355352
  0.3278911621847554  0.3299739296943329  0.1627003198847762
  0.3313466879312132  0.3290135913927260  0.5008443445750786
  0.3343175212238428  0.3286935206431473  0.8318646811099523
  0.3289014426022367  0.6654025785828154  0.1663871731664615
  0.3291672072656840  0.6624332235364900  0.4932702407202566
  0.3301210577929495  0.6629908073639599  0.8298671897993952
  0.6676348593002893 -0.0034997953429272  0.1694328814529256
  0.6737284868737113 -0.0163898640529379  0.5186710289326698
  0.6679369514580392 -0.0031149878709815  0.8309518885886026
  0.6670285560322174  0.3298868797593140  0.1671942795210568
  0.6725895508612110  0.3283003391686718  0.4982787527798599
  0.6632192445086875  0.3318758332471308  0.8318166615423666
  0.6742680967909874  0.6607219392640306  0.1617202041769611
  0.6723480012158414  0.6668513424727411  0.4988065656245956
  0.6744571479061003  0.6727893562564263  0.8252427127261265
  0.1602808224977749  0.0005817281304602  0.0006914535597775
  0.1583960986937286 -0.0074228082210129  0.3300064362309786
  0.1695359700817560  0.0019526716333347  0.6633697560073080
  0.1650206226822268  0.3374368294044655 -0.0026106155276726
  0.1647028002754084  0.3321019373933982  0.3298539651492955
  0.1682345724647481  0.3291527849023194  0.6669144550825978
  0.1613769745384588  0.6631687289331795 -0.0035140420362308
  0.1631527597792006  0.6642317818500876  0.3270077479388718
  0.1636110515898327  0.6659446323282070  0.6639162392588801
  0.5022601700855664  0.0008086406332594 -0.0010665875568948
  0.5002461005269360 -0.0073107427063066  0.3284695685344043
  0.5041129361583196  0.0001223504047988  0.6722674801205140
  0.4953364926773378  0.3292213256498797 -0.0014021588339581
  0.5035501934266536  0.3286748397988906  0.3295851472460306
  0.5011471223336049  0.3265809407606455  0.6702621278708736
  0.5013090037959883  0.6645213328875137 -0.0046419622538867
  0.5002303302340076  0.6673959016247034  0.3301464279005140
  0.5031365937045708  0.6566846861368681  0.6644977756713580
  0.8393158952495406 -0.0060620727022227  0.0049587397793387
  0.8351079289068915  0.0041741110581390  0.3432054819139992
  0.8311502811830196 -0.0048981265662064  0.6668669587114651
  0.8364338236372676  0.3364738378959355  0.0020664798408440
  0.8283841248909346  0.3274473427966371  0.3277693919060624
  0.8310543931271613  0.3323977387196780  0.6628940469196188
  0.8406824415458695  0.6657658712843807 -0.0016280474900952
  0.8393640354799166  0.6692147288555731  0.3274277956086214
  0.8344993929232154  0.6692208898276096  0.6711689582868260
 -0.0043191246585457  0.1651000495448927  0.0014024630756375
 -0.0071468009019671  0.1629994750174615  0.3352222117115224
  0.0032947873060407  0.1655506200563421  0.6657653391690832
  0.0045902555787431  0.5080586463682908  0.0051346219171865
  0.0037487301829104  0.4999905802509324  0.3341070358288105
 -0.0056996490685493  0.5055407447487513  0.6623766131799715
 -0.0039289232286883  0.8322134241260539  0.0015687532572599
 -0.0011704477164994  0.8270286845201715  0.3392930843666773
 -0.0030348205524639  0.8294730348952757  0.6624863903043113
  0.3342233476158432  0.1718124993106662 -0.0034176867961484
  0.3323948273744214  0.1623908328054326  0.3299735213931100
  0.3384465713777964  0.1618520606719225  0.6661748694531859
  0.3292998619924485  0.4930086256054144 -0.0066417051754664
  0.3277222983185573  0.4986922068988406  0.3309793695750232
  0.3346544682735281  0.4935551972394512  0.6653007958706662
  0.3341465195445385  0.8341580841776916 -0.0050770610001199
  0.3333423205778047  0.8277133119984338  0.3273110341977697
  0.3373488676282602  0.8323942038513061  0.6612939353196605
  0.6638135403777086  0.1640055748321730 -0.0002235857656795
  0.6700205580769651  0.1646845795739990  0.3360707738446190
  0.6657327801671390  0.1633055506108095  0.6581314385752428
  0.6695289048440184  0.4974034482981365  0.0003227287582960
  0.6692038446179837  0.4942253904618602  0.3281933913711663
  0.6675727881304269  0.4919720757081662  0.6648632167925004
  0.6739535853394467  0.8331615915207677 -0.0033910084029019
  0.6653781874082787  0.8335552117303071  0.3246757239120287
  0.6714137331576647  0.8535546991708574  0.6420459236224857
  0.1671126781844934  0.1648882421749431  0.1661362133499541
  0.1667414134331018  0.1590363283345174  0.5034385734836095
  0.1703008445981679  0.1680606359142782  0.8310974567010593
  0.1601308648472538  0.4976311110970079  0.1628971241401914
  0.1645655858973959  0.4942432439277441  0.4968972106861356
  0.1663446153350123  0.4978804766851072  0.8361097375531978
  0.1677612366570968  0.8302607770090616  0.1679211408385131
  0.1650615155034700  0.8285225912992636  0.4950359311824777
  0.1723571105102646  0.8310516406460342  0.8307688790347205
  0.4989460572339662  0.1590718537007638  0.1622930128988839
  0.5044952910023014  0.1617342561189682  0.5006066987811751
  0.4956857073074539  0.1626013070393221  0.8283808381968886
  0.4984229429787750  0.4968706601409693  0.1636862699802961
  0.4971662340119288  0.4963637721609909  0.5016889635547379
  0.4964670546331995  0.4931099442523721  0.8298703594482789
  0.5012488278544257  0.8343462765777461  0.1620592296561468
  0.4955242694611570  0.8314917848330315  0.4928413967189908
  0.5047397863734360  0.8379740735727574  0.8249480335589747
  0.8312969549077698  0.1673041235841471  0.1646720788761382
  0.8266656474412989  0.1635536893815922  0.4978204432010178
  0.8317449011985310  0.1657830249037791  0.8362342890844401
  0.8352107467289309  0.4966154432588205  0.1573992341912305
  0.8394988945274857  0.4936052241887252  0.4998593233396219
  0.8369799093877990  0.5073152893525515  0.8292970231705425
  0.8309513329475451  0.8292539315701225  0.1646430909694308
  0.8340465845331160  0.8361177048909747  0.5034551858548761
  0.8326447434409254  0.8306947485225172  0.8346422109545240
 
  0.00000000E+00  0.00000000E+00  0.00000000E+00
  0.00000000E+00  0.00000000E+00  0.00000000E+00
  0.00000000E+00  0.00000000E+00  0.00000000E+00
  0.00000000E+00  0.00000000E+00  0.00000000E+00
  0.00000000E+00  0.00000000E+00  0.00000000E+00
  0.00000000E+00  0.00000000E+00  0.00000000E+00
  0.00000000E+00  0.00000000E+00  0.00000000E+00
  0.00000000E+00  0.00000000E+00  0.00000000E+00
  0.00000000E+00  0.00000000E+00  0.00000000E+00
  0.00000000E+00  0.00000000E+00  0.00000000E+00
  0.00000000E+00  0.00000000E+00  0.00000000E+00
  0.00000000E+00  0.00000000E+00  0.00000000E+00
  0.00000000E+00  0.00000000E+00  0.00000000E+00
  0.00000000E+00  0.00000000E+00  0.00000000E+00
  0.00000000E+00  0.00000000E+00  0.00000000E+00
  0.00000000E+00  0.00000000E+00  0.00000000E+00
  0.00000000E+00  0.00000000E+00  0.00000000E+00
  0.00000000E+00  0.00000000E+00  0.00000000E+00
  0.00000000E+00  0.00000000E+00  0.00000000E+00
  0.00000000E+00  0.00000000E+00  0.00000000E+00
  0.00000000E+00  0.00000000E+00  0.00000000E+00
  0.00000000E+00  0.00000000E+00  0.00000000E+00
  0.00000000E+00  0.00000000E+00  0.00000000E+00
  0.00000000E+00  0.00000000E+00  0.00000000E+00
  0.00000000E+00  0.00000000E+00  0.00000000E+00
  0.00000000E+00  0.00000000E+00  0.00000000E+00
  0.00000000E+00  0.00000000E+00  0.00000000E+00
  0.00000000E+00  0.00000000E+00  0.00000000E+00
  0.00000000E+00  0.00000000E+00  0.00000000E+00
  0.00000000E+00  0.00000000E+00  0.00000000E+00
  0.00000000E+00  0.00000000E+00  0.00000000E+00
  0.00000000E+00  0.00000000E+00  0.00000000E+00
  0.00000000E+00  0.00000000E+00  0.00000000E+00
  0.00000000E+00  0.00000000E+00  0.00000000E+00
  0.00000000E+00  0.00000000E+00  0.00000000E+00
  0.00000000E+00  0.00000000E+00  0.00000000E+00
  0.00000000E+00  0.00000000E+00  0.00000000E+00
  0.00000000E+00  0.00000000E+00  0.00000000E+00
  0.00000000E+00  0.00000000E+00  0.00000000E+00
  0.00000000E+00  0.00000000E+00  0.00000000E+00
  0.00000000E+00  0.00000000E+00  0.00000000E+00
  0.00000000E+00  0.00000000E+00  0.00000000E+00
  0.00000000E+00  0.00000000E+00  0.00000000E+00
  0.00000000E+00  0.00000000E+00  0.00000000E+00
  0.00000000E+00  0.00000000E+00  0.00000000E+00
  0.00000000E+00  0.00000000E+00  0.00000000E+00
  0.00000000E+00  0.00000000E+00  0.00000000E+00
  0.00000000E+00  0.00000000E+00  0.00000000E+00
  0.00000000E+00  0.00000000E+00  0.00000000E+00
  0.00000000E+00  0.00000000E+00  0.00000000E+00
  0.00000000E+00  0.00000000E+00  0.00000000E+00
  0.00000000E+00  0.00000000E+00  0.00000000E+00
  0.00000000E+00  0.00000000E+00  0.00000000E+00
  0.00000000E+00  0.00000000E+00  0.00000000E+00
  0.00000000E+00  0.00000000E+00  0.00000000E+00
  0.00000000E+00  0.00000000E+00  0.00000000E+00
  0.00000000E+00  0.00000000E+00  0.00000000E+00
  0.00000000E+00  0.00000000E+00  0.00000000E+00
  0.00000000E+00  0.00000000E+00  0.00000000E+00
  0.00000000E+00  0.00000000E+00  0.00000000E+00
  0.00000000E+00  0.00000000E+00  0.00000000E+00
  0.00000000E+00  0.00000000E+00  0.00000000E+00
  0.00000000E+00  0.00000000E+00  0.00000000E+00
  0.00000000E+00  0.00000000E+00  0.00000000E+00
  0.00000000E+00  0.00000000E+00  0.00000000E+00
  0.00000000E+00  0.00000000E+00  0.00000000E+00
  0.00000000E+00  0.00000000E+00  0.00000000E+00
  0.00000000E+00  0.00000000E+00  0.00000000E+00
  0.00000000E+00  0.00000000E+00  0.00000000E+00
  0.00000000E+00  0.00000000E+00  0.00000000E+00
  0.00000000E+00  0.00000000E+00  0.00000000E+00
  0.00000000E+00  0.00000000E+00  0.00000000E+00
  0.00000000E+00  0.00000000E+00  0.00000000E+00
  0.00000000E+00  0.00000000E+00  0.00000000E+00
  0.00000000E+00  0.00000000E+00  0.00000000E+00
  0.00000000E+00  0.00000000E+00  0.00000000E+00
  0.00000000E+00  0.00000000E+00  0.00000000E+00
  0.00000000E+00  0.00000000E+00  0.00000000E+00
  0.00000000E+00  0.00000000E+00  0.00000000E+00
  0.00000000E+00  0.00000000E+00  0.00000000E+00
  0.00000000E+00  0.00000000E+00  0.00000000E+00
  0.00000000E+00  0.00000000E+00  0.00000000E+00
  0.00000000E+00  0.00000000E+00  0.00000000E+00
  0.00000000E+00  0.00000000E+00  0.00000000E+00
  0.00000000E+00  0.00000000E+00  0.00000000E+00
  0.00000000E+00  0.00000000E+00  0.00000000E+00
  0.00000000E+00  0.00000000E+00  0.00000000E+00
  0.00000000E+00  0.00000000E+00  0.00000000E+00
  0.00000000E+00  0.00000000E+00  0.00000000E+00
  0.00000000E+00  0.00000000E+00  0.00000000E+00
  0.00000000E+00  0.00000000E+00  0.00000000E+00
  0.00000000E+00  0.00000000E+00  0.00000000E+00
  0.00000000E+00  0.00000000E+00  0.00000000E+00
  0.00000000E+00  0.00000000E+00  0.00000000E+00
  0.00000000E+00  0.00000000E+00  0.00000000E+00
  0.00000000E+00  0.00000000E+00  0.00000000E+00
  0.00000000E+00  0.00000000E+00  0.00000000E+00
  0.00000000E+00  0.00000000E+00  0.00000000E+00
  0.00000000E+00  0.00000000E+00  0.00000000E+00
  0.00000000E+00  0.00000000E+00  0.00000000E+00
  0.00000000E+00  0.00000000E+00  0.00000000E+00
  0.00000000E+00  0.00000000E+00  0.00000000E+00
  0.00000000E+00  0.00000000E+00  0.00000000E+00
  0.00000000E+00  0.00000000E+00  0.00000000E+00
  0.00000000E+00  0.00000000E+00  0.00000000E+00
  0.00000000E+00  0.00000000E+00  0.00000000E+00
  0.00000000E+00  0.00000000E+00  0.00000000E+00
  0.00000000E+00  0.00000000E+00  0.00000000E+00
  0.00000000E+00  0.00000000E+00  0.00000000E+00
  0.00000000E+00  0.00000000E+00  0.00000000E+00
  0.00000000E+00  0.00000000E+00  0.00000000E+00
  0.00000000E+00  0.00000000E+00  0.00000000E+00
  0.00000000E+00  0.00000000E+00  0.00000000E+00
  0.00000000E+00  0.00000000E+00  0.00000000E+00
  0.00000000E+00  0.00000000E+00  0.00000000E+00
  0.00000000E+00  0.00000000E+00  0.00000000E+00
  0.00000000E+00  0.00000000E+00  0.00000000E+00
  0.00000000E+00  0.00000000E+00  0.00000000E+00
  0.00000000E+00  0.00000000E+00  0.00000000E+00
  0.00000000E+00  0.00000000E+00  0.00000000E+00
  0.00000000E+00  0.00000000E+00  0.00000000E+00
  0.00000000E+00  0.00000000E+00  0.00000000E+00
  0.00000000E+00  0.00000000E+00  0.00000000E+00
  0.00000000E+00  0.00000000E+00  0.00000000E+00
  0.00000000E+00  0.00000000E+00  0.00000000E+00
  0.00000000E+00  0.00000000E+00  0.00000000E+00
  0.00000000E+00  0.00000000E+00  0.00000000E+00
  0.00000000E+00  0.00000000E+00  0.00000000E+00
  0.00000000E+00  0.00000000E+00  0.00000000E+00
  0.00000000E+00  0.00000000E+00  0.00000000E+00
  0.00000000E+00  0.00000000E+00  0.00000000E+00
  0.00000000E+00  0.00000000E+00  0.00000000E+00
  0.00000000E+00  0.00000000E+00  0.00000000E+00
  0.00000000E+00  0.00000000E+00  0.00000000E+00
  0.00000000E+00  0.00000000E+00  0.00000000E+00
  0.00000000E+00  0.00000000E+00  0.00000000E+00
  0.00000000E+00  0.00000000E+00  0.00000000E+00
  0.00000000E+00  0.00000000E+00  0.00000000E+00
  0.00000000E+00  0.00000000E+00  0.00000000E+00
  0.00000000E+00  0.00000000E+00  0.00000000E+00
  0.00000000E+00  0.00000000E+00  0.00000000E+00
  0.00000000E+00  0.00000000E+00  0.00000000E+00
  0.00000000E+00  0.00000000E+00  0.00000000E+00
  0.00000000E+00  0.00000000E+00  0.00000000E+00
  0.00000000E+00  0.00000000E+00  0.00000000E+00
  0.00000000E+00  0.00000000E+00  0.00000000E+00
  0.00000000E+00  0.00000000E+00  0.00000000E+00
  0.00000000E+00  0.00000000E+00  0.00000000E+00
  0.00000000E+00  0.00000000E+00  0.00000000E+00
  0.00000000E+00  0.00000000E+00  0.00000000E+00
  0.00000000E+00  0.00000000E+00  0.00000000E+00
  0.00000000E+00  0.00000000E+00  0.00000000E+00
  0.00000000E+00  0.00000000E+00  0.00000000E+00
  0.00000000E+00  0.00000000E+00  0.00000000E+00
  0.00000000E+00  0.00000000E+00  0.00000000E+00
  0.00000000E+00  0.00000000E+00  0.00000000E+00
  0.00000000E+00  0.00000000E+00  0.00000000E+00
  0.00000000E+00  0.00000000E+00  0.00000000E+00
  0.00000000E+00  0.00000000E+00  0.00000000E+00
  0.00000000E+00  0.00000000E+00  0.00000000E+00
  0.00000000E+00  0.00000000E+00  0.00000000E+00
  0.00000000E+00  0.00000000E+00  0.00000000E+00
  0.00000000E+00  0.00000000E+00  0.00000000E+00
  0.00000000E+00  0.00000000E+00  0.00000000E+00
  0.00000000E+00  0.00000000E+00  0.00000000E+00
  0.00000000E+00  0.00000000E+00  0.00000000E+00
  0.00000000E+00  0.00000000E+00  0.00000000E+00
  0.00000000E+00  0.00000000E+00  0.00000000E+00
  0.00000000E+00  0.00000000E+00  0.00000000E+00
  0.00000000E+00  0.00000000E+00  0.00000000E+00
  0.00000000E+00  0.00000000E+00  0.00000000E+00
  0.00000000E+00  0.00000000E+00  0.00000000E+00
  0.00000000E+00  0.00000000E+00  0.00000000E+00
  0.00000000E+00  0.00000000E+00  0.00000000E+00
  0.00000000E+00  0.00000000E+00  0.00000000E+00
  0.00000000E+00  0.00000000E+00  0.00000000E+00
  0.00000000E+00  0.00000000E+00  0.00000000E+00
  0.00000000E+00  0.00000000E+00  0.00000000E+00
  0.00000000E+00  0.00000000E+00  0.00000000E+00
  0.00000000E+00  0.00000000E+00  0.00000000E+00
  0.00000000E+00  0.00000000E+00  0.00000000E+00
  0.00000000E+00  0.00000000E+00  0.00000000E+00
  0.00000000E+00  0.00000000E+00  0.00000000E+00
  0.00000000E+00  0.00000000E+00  0.00000000E+00
  0.00000000E+00  0.00000000E+00  0.00000000E+00
  0.00000000E+00  0.00000000E+00  0.00000000E+00
  0.00000000E+00  0.00000000E+00  0.00000000E+00
  0.00000000E+00  0.00000000E+00  0.00000000E+00
  0.00000000E+00  0.00000000E+00  0.00000000E+00
  0.00000000E+00  0.00000000E+00  0.00000000E+00
  0.00000000E+00  0.00000000E+00  0.00000000E+00
  0.00000000E+00  0.00000000E+00  0.00000000E+00
  0.00000000E+00  0.00000000E+00  0.00000000E+00
  0.00000000E+00  0.00000000E+00  0.00000000E+00
