Pd Ge Sb Te                             
   1.00000000000000     
    17.6079121535512556    0.0000000000000000    0.0000000000000000
     0.0000000000000000   17.6079121535512556    0.0000000000000000
     0.0000000000000000    0.0000000000000000   17.6079121535512556
   Pd   Ge   Sb   Te
     8    32    32    80
Direct
  0.7058987053509669  0.4703904740290640  0.6333922538048338
  0.1633461343257441  0.7864327497213794  0.0297859978084228
  0.3611167721329345  0.5914155336736076  0.2317516076812479
  0.6845178643766761  0.0679895910306906  0.9726454355303925
  0.3927802223522455  0.1245954841617599  0.2213078468710416
  0.6924552679489121  0.4685143034878276  0.1982227690387015
  0.5150679912051986  0.6320366587578609  0.2311785929335236
  0.6542166237959414  0.5589736623797743  0.7611719602559635
  0.7861065236305844  0.5648099905799747  0.6991750016892662
  0.5768474507138156  0.2545560100805739  0.0504795311668613
  0.2338968779807895  0.2785498833922826  0.6855906402926566
  0.5836080759338514  0.5027316109580288  0.2997520124635910
  0.2676250643704137  0.9786379119821454  0.0647643983546992
  0.0943565422694030  0.5403473114766445  0.7492773094942398
  0.8854023396296531  0.2061755521218255  0.8279885453830612
  0.0067519709335574  0.7334310029107222  0.1593861244626971
  0.0912199348928685  0.6880409587648938  0.9536855617049655
  0.6212703404122463  0.8485857239099459  0.3518151707380585
  0.6067187226945535  0.4058635631086235  0.1021811896844393
  0.8053354269994094  0.8971840768091001  0.7504354005676065
  0.5142516835933716  0.7514635025555647  0.7539807247534209
  0.6344446418426880  0.6051320981692425  0.1596815498374448
  0.5602726437065171  0.3612577219318472  0.7986130185703504
  0.9459522173610136  0.4083045126846123  0.6900681776832832
  0.2653432573030721  0.5497892135888178  0.4688447134155764
  0.6982230824225130  0.5116417177732795  0.8848485487991119
  0.0779046925942347  0.4303485821098084  0.9786339356255203
  0.9385668671582573  0.5412504521454912  0.5175810285894501
  0.1289385581303815  0.1389497349414747  0.5410257584017386
  0.5594790515300503  0.0878789938771610  0.5737578255599743
  0.5621298749363779  0.0987330043660138  0.0508960728541324
  0.4717423674595582  0.4916318422345857  0.1366030759336588
  0.3806393722470318  0.2508465750617501  0.0761759886866663
  0.2731308283318373  0.0236238233593566  0.5032279315053039
  0.5747371186610325  0.2142003330403590  0.8485730230335150
  0.2908489889057610  0.8559645147238187  0.4007773957436268
  0.9392502116509390  0.0941526926155704  0.0050625524555410
  0.8264192821883465  0.7517806893109086  0.3123324530653873
  0.4190659449441003  0.0405271405319000  0.7345646097062893
  0.1832483061817135  0.9227467020485616  0.5784056718969177
  0.7530469537804392  0.3669517715615194  0.2862364903764101
  0.4974705023686012  0.9132387221616891  0.0812023955762882
  0.9770441557510801  0.1026307660394569  0.5942349023672371
  0.2387905015546231  0.6113696987308830  0.1144867183008255
  0.3168644671373446  0.1498132934047743  0.6508960109770704
  0.6921497081968377  0.1346791284433793  0.3809112394100772
  0.4285969187632447  0.6848702140254369  0.1133345198550428
  0.8887135793197024  0.3156969831197514  0.9497089113938409
  0.7061196320916238  0.5163925227188986  0.4895325360559085
  0.6438810807555825  0.9730757598572400  0.1082666384460515
  0.2862199490323741  0.4635044359231740  0.1945500667935454
  0.2511777959896158  0.0774142012594915  0.2132610186947688
  0.3331046747374954  0.2258771145462036  0.3138182344432191
  0.2057955818309922  0.6322573066074691  0.8468746858177504
  0.8162676909227240  0.8198502264847416  0.1685618794453912
  0.9775737991990545  0.3227153314567829  0.4573512102280338
  0.6747229633455747  0.7652285680160339  0.5768278424185423
  0.5569703733352620  0.8646936812690387  0.9206786998191230
  0.8702401069242042  0.9636368783894476  0.0680820409460500
  0.9350785389971107  0.5515706298790677  0.7696618453090651
  0.0687789781559654  0.1016720408577202  0.2006863562634592
  0.6282682683146419  0.6542000953141041  0.3335781149547431
  0.3448644198404914  0.8204931168957678  0.1420122175629024
  0.4267521301125201  0.0322977582367602  0.3486777857379092
  0.5601043620830113  0.7724872322188981  0.1988504246982434
  0.5275455594988375  0.5183937826311790  0.8298924752935976
  0.4051413658925768  0.6852087974096515  0.3362540287711676
  0.4811261708485075  0.4429038767560066  0.5547259100652077
  0.6664800696931328  0.7047781440177451  0.7712983934858142
  0.2293459604072390  0.2895390701659885  0.1545731632117890
  0.0258901537808443  0.9310299953684560  0.7190009560897478
  0.9989881336140768  0.7281329371207632  0.8227893946541137
  0.4340471842305261  0.6394367360881285  0.7047731478763491
  0.3683646372037376  0.1104388641699177  0.8642176855606759
  0.3396422286813715  0.3433038407823615  0.7764101148779872
  0.5393688660916376  0.7776476355922435  0.4812951112954929
  0.4172230691046173  0.5909800944496113  0.4829928674525239
  0.0473716962899518  0.8728594991638036  0.0803724525468421
  0.6802546965050167  0.7529687997471778  0.0947662754386168
  0.5966485108179889  0.4050022416241084  0.4218547228819457
  0.8738223808381871  0.6915407000353466  0.0981274470229263
  0.3892905850587824  0.3444534986424863  0.4644246805627391
  0.7615814169989560  0.8715144138925558  0.3974810031578315
  0.2738224197199459  0.9854425457293152  0.9106011995469240
  0.4055118146002307  0.8639849999527704  0.2885202395836012
  0.7906554398622743  0.1063931391744590  0.0748544296910884
  0.4070990550881577  0.9322958131312369  0.4925885003826759
  0.0019278548515488  0.8722659337065891  0.8914532205745556
  0.1138633432184398  0.4073610413799861  0.1286349238929373
  0.1316780056945273  0.2874303969045305  0.4814812271660018
  0.1669939459613096  0.8317268426811764  0.8913452243246855
  0.0212136846963553  0.1078690764958044  0.4329445587416433
  0.7785154516867694  0.8970533854689561  0.5939734429875458
  0.5871183421697657  0.0117403185887093  0.3334395447577379
  0.0000249402687313  0.3230038418772638  0.8142810642511461
  0.0947912997292760  0.0253478829849442  0.0500939278023267
  0.1991171605864415  0.7568769962816769  0.1737343475613993
  0.6983369362574462  0.2137201022238369  0.9406937657048592
  0.1644943051225819  0.2028451654314424  0.2922365245994532
  0.3550621396722084  0.4626539495829012  0.6810794608997631
  0.2227041530171475  0.1585094188648592  0.0535905913697989
  0.7188024432516295  0.9165927070568096  0.9650375781504290
  0.0628067415753129  0.7753399960633433  0.6826160888461257
  0.2130907317704164  0.5089440891013464  0.9517210932049565
  0.4738580869280553  0.2927374302492890  0.9423263249727516
  0.7987716563365992  0.0762675092581131  0.6359865331364934
  0.9578377232742901  0.2270017625286100  0.3237996555033886
  0.4143587255446803  0.0528712325995578  0.0939406385757811
  0.2658409213407250  0.3954457553455388  0.5479968842067959
  0.8365133794704493  0.6402442228478457  0.4553767728067348
  0.0379182865004504  0.9536719595444991  0.2760000148622942
  0.5468675421549340  0.0656681463624930  0.8990243333341538
  0.7562953644553683  0.6024904901730802  0.2677906123913676
  0.2185760266708100  0.9875211153585778  0.3565520351982766
  0.4251938974971254  0.8527577681203597  0.8239939871909046
  0.5723986960514017  0.5108432320861018  0.9890264597464531
  0.3623859336342143  0.1387592731816562  0.4551381713340146
  0.5898471950034538  0.5763417532692011  0.6176991874231141
  0.6263542437170054  0.2126023150927158  0.4972330465345207
  0.4830985783748548  0.1770996354584058  0.6826749278952894
  0.6515211942990057  0.8948175292572331  0.7676162490697174
  0.0079349380501696  0.2340055619900185  0.0266525832608449
  0.0940670474191706  0.5987807241900470  0.6093203263531080
  0.5862674299084533  0.3488555951607810  0.6486007982366592
  0.8325280128230489  0.7514360634346955  0.8022651132284602
  0.8789080504572683  0.5001529072421439  0.9135502591257146
  0.8876753287416870  0.3148924004044270  0.2148250418262514
  0.2523020806459105  0.6529562303325032  0.3403450193162021
  0.9108101589848714  0.0373415388682283  0.2090015514110257
  0.9208096575931732  0.0674359020598289  0.8536592061202485
  0.9637239788084538  0.4615221869978996  0.3882882992850059
  0.6433659954430785  0.0814141697196917  0.6969297235777193
  0.5857599810993833  0.7045490764140253  0.9249325756010170
  0.4281993049915886  0.4688297105327277  0.2893802384957508
  0.8435687763219821  0.6858563284615899  0.6185695101045806
  0.1766071989155004  0.9854303696186808  0.7122960723620644
  0.9849602201306840  0.5418294957693851  0.0381764996902779
  0.9782393876446080  0.7638907423676518  0.3117926192448452
  0.8279848528844399  0.4186791052886765  0.5566666088958883
  0.8419219327945904  0.2273452340747778  0.6769667632533508
  0.4774065667360911  0.2592840768757135  0.1945068787380961
  0.5461319439228097  0.8517908670796288  0.6263319646106513
  0.2521518378975902  0.6363723447048518  0.6006828945856512
  0.7540485507477570  0.3830000588765267  0.0837008890595849
  0.0740607730815040  0.5887703667958973  0.1723291017065080
  0.3569785833518658  0.4097301835269461  0.0591383134428228
  0.2258772879166117  0.1606339481998258  0.7858952570968465
  0.6678370709393605  0.2241811896376807  0.2519320212608758
  0.0247978662976102  0.9532599326948398  0.5427777384077944
  0.7111783129083877  0.3733820187909165  0.8234383334072813
  0.2909524285734912  0.7351330427735554  0.9623628211954559
  0.1016705366161262  0.3981117477508672  0.6869826455568142
 
  0.38538587E-02 -0.67242672E-03 -0.45935441E-03
 -0.31841872E-02  0.34646655E-02  0.21479379E-02
  0.15405224E-03 -0.36832798E-03 -0.23264146E-02
  0.17066060E-02 -0.14252930E-02 -0.41890010E-02
  0.57396656E-03 -0.11214852E-02  0.14418934E-02
  0.12696151E-02 -0.44180748E-02  0.28430722E-03
  0.19911233E-02  0.79540843E-03  0.17431878E-04
 -0.38974094E-04 -0.41050712E-03  0.78551577E-03
 -0.34477342E-02  0.84414546E-03  0.67208251E-04
  0.35661032E-03 -0.24826711E-02 -0.13892489E-02
 -0.22399400E-03  0.21078996E-02 -0.22035701E-02
  0.35730300E-02  0.28954594E-02 -0.51740646E-03
 -0.16729568E-02 -0.15544560E-02 -0.10298617E-02
 -0.15089351E-02 -0.20437366E-02 -0.96938132E-03
  0.58055913E-03  0.18753316E-02 -0.14387399E-02
  0.22780056E-02  0.28125487E-02 -0.15676834E-02
 -0.15917014E-02  0.11177286E-02 -0.71030566E-03
 -0.43819194E-03  0.21267214E-03 -0.67533107E-03
 -0.51280927E-03  0.10935821E-02  0.38864828E-02
  0.77523366E-03  0.24880888E-03 -0.91722258E-03
  0.62729030E-03  0.48000289E-03 -0.65744892E-03
 -0.11718883E-02 -0.17606687E-02 -0.13167324E-02
  0.25051993E-02 -0.12089722E-02  0.80037038E-03
  0.21587048E-02  0.34167087E-02  0.97783047E-03
  0.28519051E-02  0.33966334E-02 -0.16684101E-02
  0.14891750E-02  0.48585269E-03  0.12915034E-02
  0.45391117E-02 -0.21239881E-02  0.97383355E-03
 -0.14899051E-02 -0.33023025E-02 -0.80965595E-06
  0.56008482E-03 -0.66631098E-04 -0.11468612E-03
 -0.24194562E-02 -0.37046018E-03 -0.11775524E-02
 -0.37513014E-03 -0.75757133E-03  0.14284155E-03
 -0.31377251E-03 -0.24038718E-02  0.12139238E-02
 -0.44525526E-03 -0.16103017E-02 -0.27558966E-03
 -0.11456262E-02 -0.17962953E-03  0.11238099E-02
  0.17038929E-03  0.72372825E-03  0.16135448E-02
  0.67755987E-03 -0.20492516E-02 -0.93937597E-03
  0.29636785E-02  0.16397807E-02 -0.30137547E-02
  0.27328265E-02  0.78657973E-03  0.19133575E-02
 -0.21308023E-03  0.53126553E-02  0.32151170E-02
  0.73379634E-03  0.11272146E-02  0.23211693E-02
 -0.10800963E-02 -0.14990932E-02  0.14410394E-02
  0.55762271E-03  0.36891884E-03  0.54045007E-04
  0.32331685E-03  0.24412853E-03 -0.16216489E-02
 -0.48847532E-03  0.82245335E-04  0.69719382E-03
  0.10957170E-02 -0.11299393E-02  0.19915717E-02
 -0.15008151E-02  0.39998460E-04  0.14787685E-03
  0.32014812E-02  0.49915496E-03 -0.21362360E-02
 -0.31219667E-02  0.12660646E-02  0.97445673E-03
 -0.33030073E-03 -0.80253751E-03 -0.70028785E-03
 -0.16938348E-02  0.21237700E-02  0.74580920E-03
 -0.64128258E-03  0.57532664E-03 -0.17440868E-02
 -0.61280104E-04  0.56490230E-03 -0.26858650E-03
 -0.23797228E-03  0.85459599E-03  0.80799743E-03
 -0.26044416E-02 -0.14524262E-03 -0.22618331E-02
 -0.87096641E-03 -0.75230759E-04  0.13222356E-02
  0.44945393E-04  0.97737912E-03 -0.10129822E-02
  0.24910424E-02  0.14597200E-02  0.81328182E-04
  0.96682280E-04  0.19205948E-02 -0.21616264E-02
 -0.26044807E-02 -0.16811391E-02  0.69574053E-03
 -0.28784938E-02 -0.26440525E-02 -0.14996362E-02
  0.11096649E-02 -0.59645270E-03 -0.86538969E-03
 -0.28040072E-02  0.12031910E-02  0.27693089E-02
 -0.19107151E-03 -0.18537852E-03  0.96633051E-03
 -0.11951955E-02 -0.27246801E-03 -0.16071538E-02
 -0.94137100E-04 -0.41733157E-03 -0.26059264E-02
  0.65042213E-03  0.15822131E-02  0.63531263E-03
 -0.25666970E-02 -0.14255139E-02  0.86195035E-03
 -0.13469997E-02  0.53694315E-03 -0.25627914E-03
 -0.15310982E-02 -0.94947015E-03 -0.61239457E-04
 -0.20939871E-02 -0.40088185E-03  0.17936926E-02
  0.24863498E-02  0.98033229E-03 -0.93134057E-03
 -0.40711512E-03 -0.10358539E-02 -0.32847270E-02
 -0.12472293E-02 -0.27678744E-03  0.31121499E-03
 -0.11735160E-02 -0.23500424E-02 -0.21901341E-02
 -0.80294715E-04 -0.22867428E-03 -0.18170597E-02
  0.14463689E-03 -0.62827557E-03  0.18223671E-03
 -0.87284839E-04  0.13705413E-02 -0.10512256E-02
  0.14346394E-02 -0.16440488E-03  0.26153457E-02
 -0.62119580E-03 -0.11046472E-02  0.67466164E-03
 -0.48801884E-03 -0.12738964E-02 -0.18365885E-02
  0.20146567E-02  0.16386156E-03  0.50778806E-03
 -0.13613035E-02 -0.72203069E-04  0.27912201E-02
  0.17441643E-02 -0.20423521E-02 -0.15624490E-02
  0.11796545E-02  0.14273257E-02  0.11893034E-02
 -0.19148141E-02  0.29164541E-03  0.15861020E-02
 -0.21092371E-03 -0.14181044E-02 -0.13045026E-02
  0.11869990E-02 -0.99385493E-03 -0.20094872E-02
  0.14932788E-02  0.19824592E-03  0.91468170E-03
  0.49569871E-03 -0.14730506E-02 -0.10619012E-02
  0.21254297E-02 -0.57987799E-03 -0.32331755E-03
 -0.16337799E-02 -0.36210956E-02  0.15670019E-02
 -0.11665818E-02 -0.17001382E-02  0.74642996E-03
 -0.23476384E-03 -0.27604358E-03  0.62501775E-03
 -0.10269257E-02  0.16025453E-03 -0.73530919E-03
  0.33889965E-03 -0.29359311E-02 -0.23220979E-02
  0.12764540E-03 -0.10377541E-02 -0.49140084E-03
  0.37352210E-03 -0.25438183E-02 -0.53123953E-03
  0.67355203E-03  0.15591857E-02 -0.46543149E-03
  0.54859832E-03 -0.19539373E-02 -0.16095495E-02
  0.12460837E-02 -0.13763434E-03  0.20341669E-03
 -0.28211460E-02 -0.10992918E-03  0.10595022E-02
  0.13919936E-02  0.24560033E-02  0.20087022E-02
 -0.91238320E-03  0.15070617E-02 -0.36374174E-03
 -0.17319324E-02  0.12373527E-02  0.77285321E-03
  0.48839618E-03  0.59622615E-03 -0.12589183E-02
  0.11385634E-02 -0.84168411E-03  0.10979644E-02
  0.18326712E-02  0.82374964E-03  0.14178843E-02
 -0.23568095E-02 -0.86856206E-03  0.60335492E-03
  0.20030373E-02  0.21771350E-03  0.35066422E-03
  0.11433008E-03 -0.66353661E-03  0.53408350E-03
  0.13580543E-02  0.10515854E-02  0.68882892E-03
  0.13339066E-02 -0.64698391E-03  0.65060636E-03
 -0.41522987E-03  0.32881402E-03  0.12649550E-02
 -0.10007733E-02  0.10277641E-02  0.16541310E-02
 -0.63260604E-03 -0.88696796E-04  0.34826766E-03
 -0.15452073E-02 -0.44588132E-03  0.19439227E-03
 -0.11087141E-02 -0.20134847E-02  0.15085521E-02
  0.19310800E-02  0.56819043E-03 -0.12608219E-03
  0.11644580E-04  0.40438592E-03 -0.19113447E-02
 -0.14397106E-02  0.29615175E-02 -0.71292475E-03
 -0.14315205E-02 -0.12304049E-02 -0.22585347E-03
 -0.97799564E-03 -0.38128753E-03  0.12873663E-02
 -0.18767052E-02  0.37200913E-03 -0.55146802E-03
  0.16536601E-04  0.37489398E-03 -0.20223876E-02
 -0.62652360E-03 -0.93477748E-03  0.48919624E-03
 -0.17214054E-02  0.23891116E-02  0.85857948E-03
  0.32910408E-03  0.15711315E-02  0.17701865E-02
 -0.11621421E-03 -0.73736260E-03 -0.38069813E-03
  0.51228623E-03  0.24097855E-02 -0.19622213E-03
  0.34748759E-02  0.34513873E-02 -0.93884969E-03
  0.89170877E-03  0.14742588E-02 -0.97670855E-03
  0.12429587E-02  0.13534255E-03  0.22209620E-02
  0.12483528E-02 -0.37461107E-03  0.35537898E-02
 -0.10074785E-02 -0.16131302E-03 -0.11402918E-02
  0.28669892E-03 -0.59288525E-05  0.14669054E-03
 -0.42956567E-03 -0.22304674E-03  0.67276748E-03
  0.34879114E-03 -0.10023794E-02 -0.30564314E-03
  0.22558659E-02 -0.16650897E-02 -0.19155750E-03
  0.10024894E-02 -0.25170148E-03 -0.13501314E-03
 -0.19760952E-02 -0.19855651E-02  0.14332594E-02
  0.82307633E-03 -0.41864447E-03 -0.25644552E-02
  0.85523946E-04 -0.30929886E-03  0.19161830E-02
 -0.50741823E-03  0.20428150E-02 -0.52661698E-03
  0.54542606E-03  0.85619215E-03  0.21045811E-02
 -0.13606913E-02  0.13078683E-03 -0.15371289E-03
  0.76201708E-03  0.19738436E-02 -0.54064053E-03
  0.26956401E-02  0.11465070E-02  0.25521616E-02
 -0.25433000E-02  0.63552445E-03 -0.39665986E-03
  0.26776804E-02 -0.13917690E-02  0.62417938E-04
  0.25954300E-03  0.40307630E-03  0.13848363E-03
  0.19130636E-03  0.32874558E-02 -0.14993893E-02
 -0.15934216E-02 -0.83075276E-03 -0.16249573E-02
 
           1
   3.00000000000000     
  0.10000000E+01  0.00000000E+00  0.00000000E+00  0.00000000E+00
  0.70655161E+00  0.47027655E+00  0.63331443E+00
  0.16280668E+00  0.78701972E+00  0.30149892E-01
  0.36114287E+00  0.59135313E+00  0.23135748E+00
  0.68480699E+00  0.67748124E-01  0.97193575E+00
  0.39287746E+00  0.12440549E+00  0.22155213E+00
  0.69267036E+00  0.46776581E+00  0.19827094E+00
  0.51540532E+00  0.63217141E+00  0.23118155E+00
  0.65421002E+00  0.55890412E+00  0.76130504E+00
  0.78552242E+00  0.56495300E+00  0.69918639E+00
  0.57690787E+00  0.25413541E+00  0.50244170E-01
  0.23385893E+00  0.27890699E+00  0.68521732E+00
  0.58421340E+00  0.50322215E+00  0.29966436E+00
  0.26734164E+00  0.97837456E+00  0.64589924E-01
  0.94100905E-01  0.54000107E+00  0.74911308E+00
  0.88550070E+00  0.20649326E+00  0.82774480E+00
  0.71379011E-02  0.73390749E+00  0.15912053E+00
  0.90950276E-01  0.68823032E+00  0.95356522E+00
  0.62119610E+00  0.84862175E+00  0.35170076E+00
  0.60663184E+00  0.40604883E+00  0.10283962E+00
  0.80546676E+00  0.89722623E+00  0.75028001E+00
  0.51435796E+00  0.75154482E+00  0.75386934E+00
  0.63424611E+00  0.60483381E+00  0.15945847E+00
  0.56069706E+00  0.36105290E+00  0.79874861E+00
  0.94631794E+00  0.40888336E+00  0.69023384E+00
  0.26582642E+00  0.55036466E+00  0.46856206E+00
  0.69847537E+00  0.51172403E+00  0.88506735E+00
  0.78673690E-01  0.42998874E+00  0.97879892E+00
  0.93831445E+00  0.54069099E+00  0.51758089E+00
  0.12903345E+00  0.13893845E+00  0.54100633E+00
  0.55906916E+00  0.87816232E-01  0.57355833E+00
  0.56206632E+00  0.98604660E-01  0.50920272E-01
  0.47168921E+00  0.49122459E+00  0.13680873E+00
  0.38056394E+00  0.25057376E+00  0.76129299E-01
  0.27293674E+00  0.23593391E-01  0.50341832E+00
  0.57476599E+00  0.21432294E+00  0.84884638E+00
  0.29096378E+00  0.85561734E+00  0.40061825E+00
  0.93975231E+00  0.94430497E-01  0.45519748E-02
  0.82688227E+00  0.75191395E+00  0.31265661E+00
  0.41902985E+00  0.41427188E-01  0.73510930E+00
  0.18337262E+00  0.92293767E+00  0.57879891E+00
  0.75286397E+00  0.36669780E+00  0.28648063E+00
  0.49756497E+00  0.91330122E+00  0.81211552E-01
  0.97709893E+00  0.10267213E+00  0.59396017E+00
  0.23870775E+00  0.61138363E+00  0.11460483E+00
  0.31705010E+00  0.14962186E+00  0.65123341E+00
  0.69189545E+00  0.13468590E+00  0.38093629E+00
  0.42913930E+00  0.68495478E+00  0.11297261E+00
  0.88818467E+00  0.31591147E+00  0.94987400E+00
  0.70606367E+00  0.51625656E+00  0.48941390E+00
  0.64359412E+00  0.97343556E+00  0.10839299E+00
  0.28611131E+00  0.46360191E+00  0.19425459E+00
  0.25116741E+00  0.77509905E-01  0.21321552E+00
  0.33306436E+00  0.22602190E+00  0.31395512E+00
  0.20535435E+00  0.63223270E+00  0.84649150E+00
  0.81612014E+00  0.81983748E+00  0.16878589E+00
  0.97758141E+00  0.32288091E+00  0.45717960E+00
  0.67514499E+00  0.76547587E+00  0.57684162E+00
  0.55698675E+00  0.86501906E+00  0.92031249E+00
  0.86979887E+00  0.96335207E+00  0.68199910E-01
  0.93459088E+00  0.55112269E+00  0.76940778E+00
  0.68966973E-01  0.10157099E+00  0.20053975E+00
  0.62779323E+00  0.65440393E+00  0.33404728E+00
  0.34483205E+00  0.82046171E+00  0.14217593E+00
  0.42654965E+00  0.32251598E-01  0.34840551E+00
  0.56008841E+00  0.77241653E+00  0.19840894E+00
  0.52765575E+00  0.51866183E+00  0.83000011E+00
  0.40470653E+00  0.68496729E+00  0.33640006E+00
  0.48089797E+00  0.44299484E+00  0.55468249E+00
  0.66622068E+00  0.70461729E+00  0.77128802E+00
  0.22899121E+00  0.28947115E+00  0.15487704E+00
  0.26311381E-01  0.93119608E+00  0.71884317E+00
  0.99891916E+00  0.72795745E+00  0.82223291E+00
  0.43383588E+00  0.63938984E+00  0.70482587E+00
  0.36816583E+00  0.11004073E+00  0.86384664E+00
  0.33962863E+00  0.34326510E+00  0.77610228E+00
  0.53939337E+00  0.77754120E+00  0.48132599E+00
  0.41720828E+00  0.59121229E+00  0.48281477E+00
  0.47614747E-01  0.87283165E+00  0.80815533E-01
  0.68014946E+00  0.75278166E+00  0.94880574E-01
  0.59656583E+00  0.40478642E+00  0.42154358E+00
  0.87416370E+00  0.69156846E+00  0.98213474E-01
  0.38905996E+00  0.34444127E+00  0.46489756E+00
  0.76187691E+00  0.87116841E+00  0.39721630E+00
  0.27402227E+00  0.98568436E+00  0.91080269E+00
  0.40518741E+00  0.86403441E+00  0.28878895E+00
  0.79061971E+00  0.10615289E+00  0.74633426E-01
  0.40730015E+00  0.93212744E+00  0.49224806E+00
  0.21808399E-02  0.87229952E+00  0.89160818E+00
  0.11394732E+00  0.40711148E+00  0.12845502E+00
  0.13203809E+00  0.28733216E+00  0.48142645E+00
  0.16671716E+00  0.83111337E+00  0.89161070E+00
  0.21016047E-01  0.10758105E+00  0.43307102E+00
  0.77847568E+00  0.89700662E+00  0.59407933E+00
  0.58694436E+00  0.11767468E-01  0.33331497E+00
  0.82355221E-04  0.32250645E+00  0.81388766E+00
  0.94812925E-01  0.25172071E-01  0.50010677E-01
  0.19918044E+00  0.75644603E+00  0.17364435E+00
  0.69845105E+00  0.21398425E+00  0.94061491E+00
  0.16458725E+00  0.20251414E+00  0.29196384E+00
  0.35527325E+00  0.46263063E+00  0.68111392E+00
  0.22222621E+00  0.15849080E+00  0.53770088E-01
  0.71903827E+00  0.91700879E+00  0.96537788E+00
  0.62652169E-01  0.77559532E+00  0.68255447E+00
  0.21279732E+00  0.50915372E+00  0.95185203E+00
  0.47394083E+00  0.29283844E+00  0.94211304E+00
  0.79896455E+00  0.76124915E-01  0.63617255E+00
  0.95814821E+00  0.22714132E+00  0.32403987E+00
  0.41395944E+00  0.52724084E-01  0.94042856E-01
  0.26618027E+00  0.39548264E+00  0.54805629E+00
  0.83653275E+00  0.64013181E+00  0.45546725E+00
  0.38148362E-01  0.95385011E+00  0.27611671E+00
  0.54709353E+00  0.65558537E-01  0.89913456E+00
  0.75622502E+00  0.60254620E+00  0.26800492E+00
  0.21840648E+00  0.98769523E+00  0.35683227E+00
  0.42508672E+00  0.85274274E+00  0.82405299E+00
  0.57213691E+00  0.51076769E+00  0.98905939E+00
  0.36219810E+00  0.13841816E+00  0.45539374E+00
  0.59017435E+00  0.57643801E+00  0.61767783E+00
  0.62635622E+00  0.21267082E+00  0.49690923E+00
  0.48285467E+00  0.17760136E+00  0.68255415E+00
  0.65127867E+00  0.89460908E+00  0.76757799E+00
  0.77692501E-02  0.23394097E+00  0.26870683E-01
  0.93749104E-01  0.59884375E+00  0.60922690E+00
  0.58627023E+00  0.34891911E+00  0.64825817E+00
  0.83242187E+00  0.75127770E+00  0.80234799E+00
  0.87861642E+00  0.50055766E+00  0.91369572E+00
  0.88773108E+00  0.31515857E+00  0.21512494E+00
  0.25228239E+00  0.65283131E+00  0.34028052E+00
  0.91089695E+00  0.37749795E-01  0.20896831E+00
  0.92139836E+00  0.68020622E-01  0.85350015E+00
  0.96387505E+00  0.46177195E+00  0.38812283E+00
  0.64357657E+00  0.81437099E-01  0.69730599E+00
  0.58597147E+00  0.70448561E+00  0.92553464E+00
  0.42802862E+00  0.46880238E+00  0.28918706E+00
  0.84361735E+00  0.68585532E+00  0.61859436E+00
  0.17653442E+00  0.98539258E+00  0.71241005E+00
  0.98501931E+00  0.54165968E+00  0.38124719E-01
  0.97862157E+00  0.76360865E+00  0.31176017E+00
  0.82815469E+00  0.41863646E+00  0.55664374E+00
  0.84158715E+00  0.22700885E+00  0.67720958E+00
  0.47754601E+00  0.25921315E+00  0.19407242E+00
  0.54614643E+00  0.85173847E+00  0.62665660E+00
  0.25206587E+00  0.63671843E+00  0.60059368E+00
  0.75414095E+00  0.38314511E+00  0.84057438E-01
  0.73830250E-01  0.58879252E+00  0.17230306E+00
  0.35710768E+00  0.41006458E+00  0.59046720E-01
  0.22633397E+00  0.16082818E+00  0.78632763E+00
  0.66740620E+00  0.22428886E+00  0.25186482E+00
  0.25251508E-01  0.95302415E+00  0.54278831E+00
  0.71122228E+00  0.37345031E+00  0.82346179E+00
  0.29098484E+00  0.73568999E+00  0.96210880E+00
  0.10140059E+00  0.39797101E+00  0.68670735E+00
  0.65084664E-03 -0.11236050E-03 -0.79620738E-04
 -0.54210549E-03  0.58387200E-03  0.35302262E-03
  0.32080378E-04 -0.67830805E-04 -0.37699736E-03
  0.28729499E-03 -0.23904727E-03 -0.71241145E-03
  0.10185203E-03 -0.20011045E-03  0.23602557E-03
  0.22101828E-03 -0.75462473E-03  0.45173222E-04
  0.33821455E-03  0.13890735E-03  0.24765182E-05
 -0.10953287E-04 -0.60410914E-04  0.14524344E-03
 -0.58174886E-03  0.14298612E-03  0.19840240E-04
  0.59561910E-04 -0.42607082E-03 -0.24298917E-03
 -0.34614242E-04  0.34111349E-03 -0.37669290E-03
  0.58918968E-03  0.49586381E-03 -0.76816020E-04
 -0.27641357E-03 -0.27119418E-03 -0.17168556E-03
 -0.26042755E-03 -0.34549095E-03 -0.17152478E-03
  0.10213590E-03  0.28981304E-03 -0.22830673E-03
  0.37853008E-03  0.48025025E-03 -0.28081281E-03
 -0.28437385E-03  0.20093050E-03 -0.10756120E-03
 -0.68286686E-04  0.35812549E-04 -0.11562861E-03
 -0.77005813E-04  0.20207685E-03  0.66676274E-03
  0.13500102E-03  0.36376436E-04 -0.14406581E-03
  0.10671525E-03  0.74454607E-04 -0.10450992E-03
 -0.21410886E-03 -0.28556486E-03 -0.21502421E-03
  0.42708630E-03 -0.21541882E-03  0.13984239E-03
  0.37047639E-03  0.58181599E-03  0.15437155E-03
  0.46885320E-03  0.55786089E-03 -0.29389008E-03
  0.23952365E-03  0.73602928E-04  0.19908545E-03
  0.76784398E-03 -0.36130815E-03  0.16781380E-03
 -0.24226994E-03 -0.54384724E-03 -0.69505716E-05
  0.10256539E-03 -0.15799031E-04 -0.19792167E-04
 -0.40149099E-03 -0.72096265E-04 -0.17970231E-03
 -0.68088200E-04 -0.14318998E-03  0.27399157E-04
 -0.52842561E-04 -0.41007218E-03  0.19717901E-03
 -0.76330356E-04 -0.27423247E-03 -0.42193794E-04
 -0.19092718E-03 -0.17619707E-04  0.19335605E-03
  0.33137007E-04  0.12141908E-03  0.27361532E-03
  0.98629164E-04 -0.35328806E-03 -0.15912616E-03
  0.49143758E-03  0.27124861E-03 -0.50471804E-03
  0.46591769E-03  0.11875692E-03  0.31855497E-03
 -0.32171987E-04  0.89721321E-03  0.55044185E-03
  0.14679013E-03  0.19417877E-03  0.40285633E-03
 -0.18260260E-03 -0.24087321E-03  0.24315693E-03
  0.95824210E-04  0.77927595E-04  0.99091360E-05
  0.47698335E-04  0.42233803E-04 -0.26659636E-03
 -0.80936005E-04  0.14044080E-04  0.12467965E-03
  0.17876787E-03 -0.17558739E-03  0.34384987E-03
 -0.25965858E-03  0.12711193E-04  0.28473988E-04
  0.54154148E-03  0.92835974E-04 -0.35905177E-03
 -0.53578934E-03  0.21920727E-03  0.17391290E-03
 -0.54200145E-04 -0.13465718E-03 -0.11870196E-03
 -0.29468380E-03  0.35587645E-03  0.13277181E-03
 -0.96546602E-04  0.10640265E-03 -0.29578558E-03
 -0.14478744E-04  0.94069850E-04 -0.45539081E-04
 -0.43058843E-04  0.14526082E-03  0.13958928E-03
 -0.43166293E-03 -0.16958727E-04 -0.39415659E-03
 -0.14235415E-03 -0.13831057E-04  0.22169373E-03
  0.16699422E-04  0.16987927E-03 -0.17358837E-03
  0.41337388E-03  0.24680985E-03  0.65188703E-05
  0.16072797E-04  0.31724293E-03 -0.36181700E-03
 -0.43916242E-03 -0.27288972E-03  0.11929380E-03
 -0.48245227E-03 -0.44201293E-03 -0.25453734E-03
  0.19976395E-03 -0.84397344E-04 -0.13718294E-03
 -0.46014077E-03  0.19557087E-03  0.45092688E-03
 -0.28830874E-04 -0.41305725E-04  0.16669975E-03
 -0.19558306E-03 -0.45816403E-04 -0.26606169E-03
 -0.74047464E-05 -0.80746505E-04 -0.44459944E-03
  0.11660739E-03  0.26476220E-03  0.11391264E-03
 -0.44627834E-03 -0.24359062E-03  0.12971497E-03
 -0.23706112E-03  0.82762151E-04 -0.48971439E-04
 -0.24997803E-03 -0.17206162E-03 -0.21180104E-04
 -0.34957335E-03 -0.64123164E-04  0.30269012E-03
  0.42233853E-03  0.17399480E-03 -0.15629061E-03
 -0.63023421E-04 -0.17168601E-03 -0.55317401E-03
 -0.20742126E-03 -0.45930042E-04  0.49612727E-04
 -0.20183908E-03 -0.39982563E-03 -0.37561135E-03
 -0.11254612E-04 -0.30660104E-04 -0.31209370E-03
  0.24261638E-04 -0.10714891E-03  0.42280001E-04
 -0.87559224E-05  0.23139600E-03 -0.17654231E-03
  0.24526961E-03 -0.22851665E-04  0.43948354E-03
 -0.10627588E-03 -0.18347069E-03  0.11541529E-03
 -0.82834776E-04 -0.21856079E-03 -0.31493307E-03
  0.33697378E-03  0.26586537E-04  0.86984962E-04
 -0.22938729E-03 -0.75691007E-05  0.47688706E-03
  0.29130319E-03 -0.34025898E-03 -0.25847717E-03
  0.19946877E-03  0.24868582E-03  0.20069577E-03
 -0.32133444E-03  0.55038882E-04  0.26635106E-03
 -0.35757532E-04 -0.24255007E-03 -0.21790414E-03
  0.21642480E-03 -0.16889102E-03 -0.33345114E-03
  0.25408389E-03  0.22990949E-04  0.16342025E-03
  0.79346286E-04 -0.24509419E-03 -0.18185882E-03
  0.35083367E-03 -0.94903310E-04 -0.55507355E-04
 -0.27690990E-03 -0.61847835E-03  0.26944927E-03
 -0.19885138E-03 -0.28009127E-03  0.11716898E-03
 -0.44615242E-04 -0.41758582E-04  0.10191862E-03
 -0.17720803E-03  0.28374472E-04 -0.12493513E-03
  0.61436096E-04 -0.49529594E-03 -0.39983268E-03
  0.15390777E-04 -0.17727607E-03 -0.80096108E-04
  0.68614572E-04 -0.43726359E-03 -0.94473684E-04
  0.11436909E-03  0.26059797E-03 -0.79727207E-04
  0.79452270E-04 -0.33852022E-03 -0.28175085E-03
  0.21023607E-03 -0.31490103E-04  0.47064823E-04
 -0.47834512E-03 -0.16930296E-04  0.17608670E-03
  0.23443752E-03  0.40865486E-03  0.33202594E-03
 -0.15367306E-03  0.25080046E-03 -0.58556860E-04
 -0.29412268E-03  0.20691459E-03  0.13180202E-03
  0.82837255E-04  0.10572091E-03 -0.21803060E-03
  0.19772768E-03 -0.14555284E-03  0.18431037E-03
  0.31485005E-03  0.13412260E-03  0.23655554E-03
 -0.39983074E-03 -0.14597537E-03  0.10784371E-03
  0.34200109E-03  0.39880346E-04  0.47210114E-04
  0.18999554E-04 -0.11605939E-03  0.77718274E-04