Amorphous Sb                            
   1.00000000000000     
    19.2889685707823340    0.0000000000000000    0.0000000000000000
     0.0000000000000000   19.2889685707823340    0.0000000000000000
     0.0000000000000000    0.0000000000000000   19.2889685707823340
   Ga   As
   150   150
Direct
  0.3229388560122336  0.7362060248197497  0.2511202808375229
  0.8341063036684622  0.6910176560791462  0.1397029901695446
  0.0953132175466594  0.0223416125259278  0.2561862397931607
  0.0804961811562158  0.3804111876337777  0.7649931624812025
  0.6260347567550417  0.9617219245279549  0.2023985028324579
  0.3857454601254974  0.9678359595310185  0.8310926405443556
  0.2118239402703239  0.3141082940939630  0.5990667354014965
  0.5649265788663410  0.2169239034076700  0.9413020728828786
  0.6403645328953488  0.3789149299055741  0.4014785619159782
  0.0274071191556217  0.1171797111621801  0.4559175086944064
  0.4115260804868668  0.0600742662009218  0.5922952823223964
  0.1727524681816453  0.0940076857168624  0.8288045793108625
  0.8467822249083380  0.4128982615137520  0.0802346871722738
  0.3512653866164284  0.1852233947746956  0.4439323143381486
  0.3794586144901994  0.4450959983511432  0.5707394464957595
  0.4852737702297070  0.9637027955217290  0.6937906542285952
  0.7823531884463277  0.9979055400607586  0.8299282193833595
  0.8358700019699464  0.5616639823184724  0.4392813496417996
  0.2752855683870783  0.4995363297887685  0.6576185104144376
  0.2642404480155113  0.5872141697920868  0.7641574206687470
  0.3729188555372393  0.4351884786444244  0.7247326353850361
  0.1211751762422963  0.2241753911029708  0.6219414468419669
  0.8272558364586337  0.8984176063278694  0.2465418695880714
  0.3197952702205277  0.7142343832547240  0.9222505838716318
  0.3490942690960311  0.1905828966180669  0.7968199499359329
  0.2396381137645195  0.7211938485665034  0.7981592351789298
  0.2726898239680273  0.1102170511154499  0.7108551030798159
  0.9134132418394467  0.3941135584363927  0.5466172091770678
  0.6624018370563456  0.8458818621824852  0.7363153333759349
  0.3167081445116802  0.5222570513631979  0.0913763650214578
  0.2756710301208667  0.3233712908198828  0.9064893035891741
  0.8849820771992291  0.1808259002434270  0.6080681785004869
  0.8973997705261172  0.4336975723099694  0.2401692050578990
  0.4158741559987710  0.6759423400832765  0.6600072600770456
  0.7180188650610888  0.6137360946564546  0.3067399159129804
  0.4253903111951528  0.0766422042932336  0.9088388161832730
  0.5246915779082220  0.6610444611417919  0.1835872230446643
  0.9720634982007130  0.2863186886627508  0.8619624214318320
  0.5004507432504020  0.1366581600963923  0.3443258891098036
  0.2504007440324911  0.0709999220251940  0.2656999195632868
  0.0520536151888412  0.8559505720204330  0.8209438555094365
  0.1504945304116370  0.9063409045925810  0.4220493659266250
  0.6589553933933626  0.0085850639067049  0.3858809766734110
  0.1810875869910667  0.5338981117104153  0.8600470116876667
  0.2221595130505402  0.8074060544633991  0.4551649996979045
  0.5350067310480463  0.8973968260546591  0.1459315347941732
  0.0085588805831824  0.6115991894861296  0.5871151675874130
  0.0844186713560212  0.5559755684588956  0.7751086093279485
  0.4889296355936844  0.2994052586135786  0.7746517308408030
  0.9198252260858276  0.2607167904609338  0.7447659571085569
  0.8051398673497220  0.5016294442982561  0.9293351953691279
  0.8773642332399751  0.3604286626782047  0.4204776300399170
  0.0580411054278931  0.9363070432796112  0.0173266508395212
  0.2052034220383355  0.5512700377341267  0.5641005266597284
  0.3199287898923350  0.9716243210508430  0.2165297346718694
  0.3786112539186942  0.0130303628494018  0.3828947465086528
  0.6251855604567776  0.1168517412587278  0.6913199252761401
  0.1608760369849376  0.9938794934779146  0.9431259082360394
  0.1170332099545716  0.5032620510870588  0.4671304672053960
  0.6929139856216572  0.2789068306580867  0.8055422296898322
  0.0361686659311561  0.2990710347757818  0.0784618382438936
  0.0234316314564508  0.6946704569618386  0.0368053410017748
  0.0000046399876406  0.7874215998226530  0.9255223537498242
  0.9020579324334959  0.1448244222655125  0.9952096085562625
  0.1045686949892288  0.3387908988131108  0.8914980881739905
  0.0380685564452445  0.1092281026311233  0.7878710706406526
  0.2621616318783390  0.1035992316587032  0.9318966747031584
  0.1775930348691779  0.8835566360490331  0.1445948762262058
  0.1830090772111296  0.8483762482130940  0.8029300679342782
  0.1309228773293827  0.7188127742326863  0.8876993535122469
  0.3079335457667338  0.8844279842622267  0.6547696160540097
  0.6037592881905010  0.2228315171083327  0.4992150509460647
  0.6945825062813038  0.8804616469536097  0.4792815702609617
  0.6109264283074380  0.6976162060593065  0.0179741839952096
  0.5300456451831825  0.4034744253809850  0.9347244733503515
  0.7814485165313690  0.3495941848126616  0.7320808940475897
  0.8728997065815667  0.8102994702381567  0.8911563302345743
  0.2100491030972550  0.1310940756616455  0.1488558504375257
  0.8756991098540132  0.1822505690705882  0.2777453674986037
  0.9819143182899944  0.4897780635367533  0.4277142257035429
  0.5175904540260918  0.0996563874806008  0.1534890232467422
  0.7367225867092969  0.7851436366708212  0.4050281527308274
  0.8307912325493713  0.6650334398798732  0.2665076960933638
  0.7001670667344196  0.9464949139390904  0.6512959069912250
  0.1698429438464992  0.1113966006869687  0.4585953272181004
  0.0751041304894105  0.4549683867712975  0.6079176345901002
  0.8585273266875991  0.3143627950474680  0.6381295692771057
  0.8181199988849268  0.5669482573535218  0.6541375466605722
  0.2946209054084327  0.4611522702266915  0.8473615410625273
  0.2157641747623129  0.6667858115773655  0.4910755816438798
  0.4806350875840771  0.2636622813571585  0.5637176834743625
  0.8341926334300178  0.6475730863583966  0.7561729200055054
  0.0664830338535473  0.1652221564704357  0.1359315806138229
  0.4128167117048434  0.6413431124424066  0.4601184026755844
  0.4182400444077570  0.3225747083481755  0.9041640077510978
  0.6089904224656399  0.0096920664827265  0.8817390381072782
  0.2472518468483533  0.7176528691625159  0.0998632444624612
  0.0920988519212372  0.2339027821035443  0.9752618020356704
  0.4036615756777138  0.7615829942452197  0.0247534034093186
  0.3795494357404995  0.6353862600713528  0.8239166747775417
  0.5521613718873728  0.4762258880240380  0.6368385973128305
  0.1126103716623988  0.5508967785305883  0.0820176269389250
  0.7426605988456906  0.1829262823631540  0.8776385767958724
  0.5263346731383363  0.0327497677150779  0.5426229678392874
  0.1831786846123265  0.2312498459569243  0.8101798092534811
  0.6349884963669502  0.4894729007148473  0.1304644590587613
  0.4936627425695598  0.3481442771933699  0.3551669817784139
  0.1365329439824886  0.1455740790330771  0.2869369095811877
  0.5007551572839866  0.9469561420645598  0.3092655186511062
  0.4336612306535297  0.5529008457414163  0.0346285988722683
  0.7149206894591641  0.0455770488930441  0.4931521170283829
  0.9540030609745622  0.1164841759586361  0.1819833127175506
  0.7871551774293398  0.0887345232439269  0.2450316136807173
  0.1292162405608751  0.8293234192222499  0.9702099587485074
  0.2543701984231205  0.3435584097473054  0.7760640159589021
  0.8233689051664174  0.8075642643831110  0.0783728592020312
  0.9396106901797198  0.2666056712729752  0.1756996510532664
  0.6571269135812620  0.6461716920171858  0.7028919006302996
  0.6471211562815739  0.8868174125118800  0.8767488912448707
  0.2974846228585607  0.7975406380180020  0.3535075813024850
  0.5514383887461327  0.7830321719279748  0.3429636039988702
  0.5966310970063885  0.0574364693073603  0.0502123854125464
  0.9141065452869989  0.6762238197394232  0.8565150784234674
  0.4375777211128605  0.1768154009504855  0.6698082123197638
  0.8658662759608942  0.8541447315996250  0.6685910695710444
  0.7784452405371776  0.9444310479739739  0.9467634154224084
  0.2227111870960615  0.6437606656012660  0.2202869162554141
  0.9029606690916474  0.9538349407720267  0.9866584803987949
  0.0223392544598933  0.0092568420115712  0.9168146784047045
  0.5519765502040926  0.8149484928652236  0.5838191987849751
  0.5978760647258944  0.6910885506225445  0.5287238542187704
  0.9498261938345884  0.4376427605778734  0.8429355369456916
  0.3247045512208127  0.1604421897241307  0.5667190566664045
  0.1460678408101178  0.0073254674253936  0.6058174797636457
  0.2273673376657552  0.9898096851333220  0.7615602423273176
  0.7449513144835458  0.6470196235892894  0.4698049857439826
  0.6795525653358966  0.7797275038485314  0.1893536465495948
  0.3808860347762313  0.2726522434415337  0.1773948752683313
  0.4287127762975000  0.8366694955534868  0.8046116759319206
  0.5294950443449152  0.6426730739530591  0.8264002652261716
  0.2001791674352574  0.4478906406525451  0.0759754805842575
  0.6956028385217162  0.7636148978976558  0.8447992158057311
  0.0235763718732673  0.4293060448198696  0.0356017615761984
  0.3532982120357322  0.4077880097874443  0.0128758624635229
  0.7666171238602350  0.8113644501715550  0.5897494664647092
  0.3016303945251937  0.4568324819653790  0.4743973395342164
  0.1158797487452258  0.7640175234912548  0.5331988007619218
  0.9198687287383929  0.6093538578294957  0.0837594850053034
  0.2631364887748257  0.8332947715195446  0.9682492466769984
  0.0835429653110045  0.7583870672588100  0.2221439584258408
  0.4550439117870645  0.5567113765805251  0.6046416523115200
  0.9846269247193336  0.8038172250678507  0.5413430792591108
  0.6411168976417154  0.6906725024175181  0.3881065791606030
  0.9460808978107594  0.9041243724651781  0.1946922148401885
  0.5106838887842268  0.2901965796013538  0.1317201179215416
  0.5468682642902811  0.7897823562668354  0.2130332629362302
  0.3647196286457862  0.2998332824493175  0.7117319993656046
  0.6754934684624011  0.4850222274281263  0.5847766027601743
  0.4895605584487325  0.8735395812318977  0.0223496107760456
  0.8549678016557302  0.0645472887276210  0.6821970471464442
  0.4899052074616401  0.1689877421719745  0.8371443513705727
  0.3431140149589152  0.7717923437212140  0.7299236362510428
  0.6095754986248147  0.2522183129087963  0.7109166972760116
  0.3668777894997530  0.8976196876494091  0.3103865885551161
  0.0272620062390778  0.6737316016018431  0.3673895728112520
  0.6231491690984911  0.1144080507799763  0.5589202961185705
  0.4263841199229375  0.6627737431482555  0.2704535802369396
  0.5104005568866717  0.9966430509823911  0.9683263761027781
  0.8381199763785918  0.1002140128999372  0.8854326439141781
  0.6603713547131906  0.3948781577459852  0.2281882476856924
  0.5420953444645299  0.6967669889613998  0.7003701657577431
  0.0991486708850955  0.2022353429473799  0.3963059654102927
  0.3630531270551327  0.1260158252578577  0.3216875850539041
  0.7925556463069753  0.9907367895220387  0.3243019481226578
  0.3115702280882761  0.8763565576254669  0.5224406565823759
  0.4009154098839406  0.5417427087255002  0.2885327849456052
  0.7361518426770712  0.2596452973125386  0.0985957134614957
  0.2063044628372484  0.3598782568366189  0.4729473587825476
  0.0939794447202030  0.6343770402976306  0.1950769558150558
  0.7352329480547489  0.8890929622092559  0.1356868510516325
  0.1555249470801286  0.7280509033637225  0.6612092978061890
  0.7773869799447941  0.0919659323236190  0.1152745601140929
  0.8734794843939064  0.9036620241215986  0.7907640541416429
  0.3937560006294421  0.5309875782315400  0.9085452460815112
  0.4589206251515590  0.9907238715484744  0.1976310177295188
  0.6015862981173583  0.9337580079103442  0.5681321823284650
  0.8791612873485628  0.3442482449423523  0.9665200043853323
  0.1814702867747406  0.9027893111142858  0.6752054182979753
  0.1216052197595263  0.6007831521712786  0.6540430724324517
  0.5222371104206313  0.0303954106395807  0.4076265425435975
  0.2053750600963201  0.1202349658185747  0.5834196491105531
  0.9362634628634314  0.2714411071610301  0.3475910020740288
  0.3236212764413828  0.5657824911363372  0.3931324226403574
  0.5348539907763626  0.4249325135206767  0.2591499248642148
  0.7344711561848929  0.0599379950400072  0.7217001258444120
  0.2261256200587104  0.2216258283090810  0.9752936531138656
  0.0615305141881622  0.2471503976646775  0.7367622881045208
  0.7127513203464897  0.9879565533275071  0.0621546599341060
  0.2181625661549030  0.6234382758563806  0.3587263474983478
  0.1915687472525925  0.4084726484938578  0.6858400371517503
  0.5022023057467685  0.3913495146630799  0.5629230127600638
  0.5226477393616512  0.5879622122163127  0.4974669528153512
  0.6999914919933116  0.6106387960227683  0.5895922887113250
  0.5141472476687821  0.5116157854486033  0.8557397837280231
  0.2939473524731100  0.5288765939033769  0.2180932396574090
  0.8940218084134490  0.6710596979811517  0.3825329739825296
  0.6818270055200515  0.2583452196687566  0.3939248968329698
  0.9682175202474116  0.9990658202610941  0.5760663769856457
  0.4691574131274226  0.4125122427602298  0.1422291360376178
  0.4051319746471302  0.1523012181617289  0.0962327656389931
  0.7504556825652350  0.5925381032378231  0.8482630063216232
  0.9880527351275096  0.3463360194377771  0.2619262142724215
  0.5336566942343344  0.8237608536142775  0.7177819350353736
  0.0710368442639094  0.9957290051132683  0.4870260945175613
  0.6233130446690214  0.8894257323554227  0.3315690415875658
  0.7836788696296075  0.9509804858948120  0.5488378546066773
  0.0767015918389468  0.6322852096670992  0.4773701678479729
  0.3593642885930346  0.9966463189209019  0.6965422453236472
  0.3133802747230527  0.9994097741438009  0.4984920009633530
  0.0288395979045136  0.3401121014479283  0.5544595541796743
  0.6610772741960453  0.0781305658952528  0.2659467422439274
  0.2410585203125854  0.2416680272888591  0.2805288779880740
  0.7521570702556176  0.2458546019767827  0.5915969499312663
  0.7591649348029801  0.8150145669723133  0.9543759517179686
  0.8188068278528963  0.1385766273838158  0.4887617953243988
  0.0963448740609066  0.8999679126696301  0.3107659087898386
  0.3667194171556611  0.3860782722862205  0.3606019329017557
  0.3031063916045294  0.4001865637103841  0.2421439982059730
  0.4730009867987702  0.7481958818564747  0.8946648331453398
  0.8286220035127715  0.7410297906604908  0.4864952156806855
  0.6362633168984297  0.3254519247966680  0.9184050328104154
  0.9085766355326608  0.5797927193960655  0.9525553400095043
  0.1028155950105905  0.9963599054429768  0.1279954306023397
  0.5053802275300867  0.4392317029888575  0.7509066101005030
  0.2920231470083020  0.9064285526682549  0.0907940777887577
  0.8192556329966517  0.3249154926920978  0.1743278645873797
  0.0077197034303857  0.1526273345050075  0.9251671016618747
  0.2585737107626221  0.2500883553612818  0.1039378984802771
  0.9957699486372593  0.8880825110388111  0.6413915348097036
  0.9500753386346417  0.7195195951280923  0.6374582899962571
  0.0176849059871005  0.5084030388540244  0.9342813543882975
  0.2240568664891012  0.0138247158075480  0.3917048011365736
  0.2754351418383606  0.6249023653383132  0.0129389487415350
  0.7038655620858677  0.6784762852140601  0.1105681611659559
  0.8293149642170650  0.4649417745520759  0.3491184400055214
  0.9040471396491253  0.9915834736562925  0.3818722967522796
  0.0438294396015391  0.0716564510594932  0.6557320192602798
  0.0371192182097821  0.6752455083604741  0.8119156286877376
  0.1224996953696485  0.7696287606484085  0.0904985997111099
  0.9057575455289369  0.5304812928223793  0.5630808549393965
  0.0804453306318274  0.3734268936079481  0.4405521690601533
  0.7850962038938344  0.2618655692050046  0.4637687135007544
  0.2104171011435875  0.0403707184017788  0.0658867399503675
  0.6442349319417373  0.6554390999231582  0.8938728247686093
  0.4269419499412516  0.8047236389683198  0.5128142651683629
  0.2851295845347809  0.2877891504925654  0.3955016957127404
  0.9496848191960977  0.8374017480153434  0.0409284044030441
  0.1630351374991337  0.3308472886927015  0.1306222777335372
  0.4942260970559239  0.6649730430699268  0.0588510251019775
  0.3475116989615710  0.7161921879220677  0.5527745376863736
  0.5341297751039640  0.4731898822584101  0.0475927697210758
  0.9411113033215774  0.4916793064391211  0.1282209723582837
  0.9924350522966865  0.8238752310057643  0.2856764920371940
  0.8918803176846661  0.0590722667597957  0.0891864474189218
  0.1919480165506493  0.4276193428000600  0.9425433771840257
  0.6632168003278952  0.5306943734886764  0.7715840682923124
  0.1830783653552877  0.8254243460845486  0.2623402118973578
  0.5783640724367793  0.8099545979426532  0.9598068303063240
  0.9629326071238371  0.0149306241413511  0.2612368662852807
  0.0117201003078842  0.1677001705063301  0.5756691601020896
  0.9007168414399431  0.1371070588106673  0.7812098600189652
  0.0356610955836510  0.5674231102582851  0.2995348478287282
  0.1571191348413351  0.6163582017756721  0.9657342204141198
  0.6957626952493883  0.4765505737796856  0.3270131943737766
  0.9107692758740200  0.1191966694784466  0.3998620645513493
  0.7386305065582068  0.4689569128729610  0.6918033085402451
  0.1454666923470307  0.5192148475073782  0.3408290947664464
  0.3391779686680358  0.2909819901499038  0.5903357543250275
  0.6354433228963892  0.3144069155969373  0.5992172077833990
  0.6470865116146880  0.1196555149226841  0.9453310037815108
  0.7367211069039857  0.4810325617844726  0.0378821485311125
  0.5405240874319669  0.4379902077960516  0.4468877222344353
  0.8264655984844109  0.3919287936620662  0.8585928571062743
  0.5419233234335650  0.0596219184829894  0.7725537952444523
  0.9947698144107071  0.9659372373844346  0.7986251343162224
  0.6429177066489408  0.6009646798689700  0.1917108449328195
  0.4628666629529108  0.2443146161294938  0.0186150446811173
  0.7777463639218036  0.7868795104901125  0.2815095069842281
  0.7464417835225238  0.7403311199330497  0.7271519260984574
  0.1763671417947310  0.3587365741861068  0.2516853034494385
  0.6767729118943308  0.3589633522229966  0.0316112819655539
  0.2550603490784814  0.9264660198516019  0.8767231253575467
  0.4820514361814254  0.2347291767046363  0.4257789780220363
  0.8104863544357286  0.2434461961438857  0.9888751562199842
  0.0445456818670115  0.7587616977870665  0.7166058338632715
  0.3526379085099028  0.0596033306734538  0.0135701501794989
  0.9933646142840549  0.4797754540467454  0.7223551155031469
  0.4346488857580588  0.7465745764029754  0.3891145660354396
  0.3443419735207318  0.7940560418441920  0.1355666520713782
  0.5752205601942509  0.1773722621565905  0.2416802409630358
 
 -0.18723289E-02  0.17633573E-02 -0.10297241E-02
  0.17058590E-02 -0.20729543E-03  0.16302606E-02
 -0.18966374E-02 -0.32691655E-02  0.19435291E-02
 -0.15885395E-02  0.48683894E-03 -0.13735572E-02
  0.17747250E-03  0.20898890E-02 -0.11937868E-02
 -0.31235935E-03 -0.73753940E-03 -0.58346397E-02
 -0.12081675E-02 -0.11632751E-02 -0.79954585E-04
  0.40310464E-03  0.29837110E-02  0.23817460E-02
  0.58911125E-03  0.15927686E-02 -0.22332689E-02
 -0.31664410E-02  0.22446990E-02  0.26657533E-02
 -0.24919218E-02 -0.18016278E-02  0.21006947E-02
  0.30456237E-03 -0.39778020E-03 -0.17442917E-03
 -0.51620014E-04 -0.10040132E-02  0.11185254E-02
 -0.96544437E-03 -0.25913635E-02 -0.30607281E-02
  0.55983234E-03  0.42788932E-03  0.15404144E-02
 -0.31291868E-02 -0.14005824E-02  0.10371608E-02
  0.30087401E-02 -0.39505335E-02  0.53643021E-03
 -0.69536635E-03 -0.13619625E-02  0.32732637E-02
 -0.53233055E-03  0.22699371E-02 -0.39007481E-03
  0.34845310E-02  0.12498604E-02  0.26676545E-03
  0.11769770E-02  0.73513782E-03 -0.38783846E-03
 -0.14310138E-02 -0.14898728E-02 -0.15730198E-02
  0.95165034E-03 -0.14001033E-02  0.30138051E-02
  0.99937117E-04  0.67443184E-03  0.34622443E-02
  0.35568554E-02  0.11582287E-02 -0.29163360E-02
  0.10700097E-02  0.35667899E-03  0.12488662E-02
  0.12001810E-02 -0.84859056E-03 -0.17423980E-03
  0.51937848E-03  0.80643318E-03 -0.25941644E-03
 -0.48359945E-02 -0.11163024E-02  0.68532028E-03
  0.45312064E-03 -0.14686158E-03 -0.42368286E-04
 -0.29557105E-02  0.25868877E-02 -0.28857576E-02
  0.81268592E-03  0.15271476E-03 -0.33377016E-02
  0.13033511E-02  0.76239508E-03  0.17594585E-03
  0.17316042E-03 -0.13388601E-02  0.31216872E-03
  0.15430164E-03  0.56597835E-03 -0.21444496E-02
 -0.35398331E-03  0.24861887E-02 -0.24395458E-03
  0.31069932E-02 -0.16649501E-03  0.30931817E-03
 -0.66571649E-03 -0.81522012E-03 -0.17544571E-03
  0.47285434E-03 -0.28214589E-02  0.53749841E-02
  0.22408229E-02 -0.15203884E-02  0.69754260E-03
  0.31425751E-02  0.85396791E-03 -0.12170897E-02
 -0.12152543E-02  0.31828618E-02  0.28003729E-03
 -0.12712914E-02  0.83608989E-03  0.59474292E-03
 -0.29080280E-02 -0.25479821E-02  0.10242501E-02
 -0.10632550E-02 -0.18048839E-02  0.26024276E-02
 -0.88472584E-03 -0.26892922E-02  0.17769416E-03
  0.22001292E-03 -0.14927251E-02 -0.20715523E-02
 -0.71941457E-03  0.18587081E-02 -0.12624846E-02
  0.34018164E-02 -0.31699163E-03  0.83205448E-03
  0.58237856E-03  0.98507674E-03  0.94848463E-03
  0.28010966E-02  0.26286361E-02  0.37933754E-03
  0.18547996E-02 -0.37866183E-03 -0.99386942E-03
  0.54494062E-03 -0.82064512E-03 -0.18828397E-02
  0.21256305E-03  0.11218225E-02 -0.18282202E-02
  0.27727541E-03  0.37369737E-02 -0.43708986E-03
  0.62803054E-03 -0.11472534E-02 -0.33451124E-03
 -0.31448167E-03 -0.11624317E-02 -0.22662465E-02
  0.12124072E-02  0.18550643E-02 -0.80143221E-03
  0.11130708E-03  0.95795188E-03 -0.23618240E-02
 -0.27227341E-02  0.19002255E-02 -0.46028216E-04
 -0.65186211E-03 -0.63974273E-04 -0.26979398E-02
 -0.77935584E-03 -0.10764251E-02 -0.18668405E-02
 -0.11666901E-02  0.38425403E-02 -0.25759252E-02
 -0.10418660E-02 -0.29142770E-02 -0.77621829E-03
  0.30755841E-03  0.28856274E-02  0.40866999E-02
  0.29006601E-02 -0.32453839E-03 -0.27283164E-02
  0.26149056E-02 -0.18723314E-02 -0.99818163E-03
 -0.36341967E-02 -0.24752804E-02  0.11167712E-02
 -0.23865267E-02 -0.43540710E-03  0.52462322E-03
  0.21175154E-02 -0.14976268E-02 -0.19007983E-02
 -0.30003772E-02 -0.22700294E-02  0.44014231E-04
 -0.27665596E-02  0.67771142E-03 -0.12534761E-02
 -0.66418153E-03  0.18284312E-02  0.20859510E-02
  0.77316013E-03  0.41264734E-04  0.83215834E-03
  0.55199615E-03  0.21535156E-04 -0.12465701E-02
  0.31540214E-02 -0.16642199E-02  0.61129359E-03
 -0.90676849E-03  0.12751156E-02  0.19456068E-02
  0.35236275E-03 -0.41972005E-02 -0.43599594E-02
  0.71475339E-03 -0.44474738E-02  0.22140664E-02
  0.20897692E-02  0.43197192E-03 -0.14646254E-02
  0.25686747E-02 -0.15015929E-02 -0.23397601E-02
  0.20302602E-02  0.15116347E-02 -0.30716750E-03
  0.25365722E-02 -0.27216190E-02  0.18354810E-02
 -0.12270835E-02 -0.43485904E-02 -0.20654042E-02
 -0.36621218E-03 -0.64285868E-03 -0.21116525E-02
 -0.75232560E-03  0.14427505E-02  0.10430672E-02
  0.29174110E-02 -0.17959416E-03 -0.14001708E-02
 -0.38340024E-02 -0.45477456E-02 -0.16735677E-02
 -0.10307671E-02  0.40986312E-02  0.54782393E-03
 -0.30386764E-02  0.33227953E-02 -0.41200288E-02
  0.22044043E-02 -0.34343202E-03  0.16505382E-02
  0.12159671E-02  0.35345754E-05  0.12722585E-02
  0.39365342E-02 -0.15263036E-02 -0.69230262E-03
 -0.69299761E-04 -0.11165111E-02  0.98505177E-03
  0.29178840E-02 -0.27294023E-03  0.33108523E-02
 -0.29203366E-02 -0.11792874E-02  0.87943286E-03
 -0.92519147E-03 -0.34892362E-03  0.97012280E-04
 -0.14710242E-05  0.27280642E-02  0.19900463E-02
  0.17820274E-02 -0.31421448E-02 -0.37994197E-02
 -0.17273354E-03  0.30387236E-02  0.38030016E-02
 -0.10148857E-02 -0.31806833E-03  0.66074619E-03
 -0.25821633E-03  0.23798375E-04 -0.17954714E-03
 -0.12175687E-02  0.69790851E-03 -0.16072224E-03
 -0.92387206E-03 -0.26468302E-02 -0.25831438E-02
  0.33472866E-02  0.25638489E-02  0.79238937E-03
  0.26119689E-03  0.33229275E-03 -0.12504002E-02
 -0.11740505E-02 -0.16260406E-03 -0.13032463E-02
  0.73015906E-03 -0.59962236E-03 -0.63504416E-03
 -0.13333706E-03 -0.12616265E-02  0.83718264E-04
  0.20735902E-02 -0.53117304E-03  0.98403777E-03
  0.72287286E-03  0.21082761E-02  0.18183646E-02
  0.15309271E-03 -0.27365922E-02 -0.13641568E-02
  0.28158421E-02  0.23537015E-02  0.26943010E-03
  0.10338161E-02  0.61330333E-03  0.18489567E-02
 -0.32185733E-03  0.36221916E-02 -0.10319232E-02
 -0.13952022E-03 -0.16125634E-02  0.23048980E-02
  0.95051136E-03  0.32028289E-02  0.42637719E-02
 -0.30351659E-02  0.11588071E-02  0.69073630E-02
  0.57406597E-03  0.10705653E-02  0.24057163E-02
  0.36415933E-02 -0.31788028E-02 -0.16200422E-02
 -0.57228502E-03  0.14993254E-02  0.46111753E-02
  0.91296058E-03  0.25982610E-02 -0.68299959E-04
 -0.11414358E-02  0.53877731E-03 -0.15692317E-02
 -0.12025258E-03  0.40161751E-02  0.15154177E-02
 -0.69640253E-03 -0.14048563E-03  0.37790752E-04
 -0.38128660E-02  0.13827370E-02  0.14561600E-02
  0.14046802E-02  0.16219441E-02  0.17844140E-02
  0.15800494E-03  0.23103310E-02 -0.12841535E-02
 -0.19287113E-02  0.29325056E-02  0.17496638E-02
  0.16634716E-02  0.23915056E-02  0.44443223E-02
  0.19558395E-02 -0.17150504E-02 -0.35484750E-02
  0.21501830E-02 -0.65494424E-03 -0.32979160E-02
 -0.45938474E-02 -0.20160968E-02 -0.82994012E-03
 -0.12178448E-02  0.24142964E-02  0.12320226E-02
  0.39200836E-02  0.77444640E-04 -0.12667942E-02
  0.91078826E-03 -0.14433354E-02  0.30430867E-02
 -0.35969634E-02  0.41051621E-03 -0.13001406E-02
 -0.93961994E-04 -0.15906126E-02  0.13201397E-02
 -0.65768726E-03  0.27608181E-02 -0.20698324E-03
  0.12093393E-02 -0.19183490E-03 -0.89945795E-03
  0.25893156E-03 -0.32626321E-02  0.35752709E-02
 -0.63167834E-03 -0.15779366E-02  0.14611072E-02
 -0.30382859E-02 -0.13116105E-02  0.33979606E-03
 -0.28520919E-02 -0.13073975E-02 -0.36086405E-02
  0.19747460E-02 -0.12974824E-02 -0.23326102E-03
  0.10735024E-02  0.48476737E-04 -0.20882216E-02
 -0.12278167E-02 -0.30661320E-03  0.12282442E-02
 -0.11483458E-02 -0.27253172E-02 -0.26029165E-02
  0.28177431E-03  0.99830460E-03 -0.20789055E-02
 -0.35796805E-03  0.22757451E-02 -0.43007540E-03
 -0.32145695E-02  0.18370343E-02 -0.20616622E-03
  0.31077110E-02  0.18225045E-02  0.14346462E-02
  0.66629879E-02  0.66027185E-03  0.70144857E-03
  0.18210751E-02 -0.18972940E-02  0.28264941E-02
  0.15509601E-02  0.29905393E-03 -0.72312258E-03
  0.12625603E-02  0.13027441E-03 -0.32308045E-03
 -0.65528074E-03 -0.20352557E-03  0.25040964E-02
 -0.36489510E-02 -0.98113227E-03  0.43379949E-02
 -0.26279996E-02 -0.16794230E-02 -0.37863545E-02
 -0.23328485E-02  0.12412990E-02  0.11075350E-02
  0.18311250E-02 -0.17231375E-02 -0.61185629E-03
  0.20917973E-02 -0.15037290E-02  0.37143447E-02
 -0.32367987E-02  0.25283168E-02  0.27216223E-03
 -0.21429149E-03  0.71199488E-03  0.46959156E-03
 -0.14150549E-02 -0.66883515E-04  0.26497293E-02
 -0.30933313E-02 -0.56064809E-03  0.21551640E-03
 -0.87762266E-03 -0.95842075E-03  0.22957827E-03
 -0.23907536E-02 -0.12790724E-02 -0.34058822E-02
 -0.10118870E-02 -0.17511190E-03  0.24151023E-02
 -0.21445111E-02  0.32027174E-02 -0.16658286E-02
  0.39880747E-02 -0.20619021E-02  0.15426365E-02
  0.19429229E-02  0.86422322E-03 -0.14650948E-02
 -0.98111693E-03  0.19642058E-02  0.17609416E-02
  0.38569123E-03  0.24446958E-03 -0.62416901E-03
  0.11560323E-02  0.50728854E-04 -0.31229069E-04
  0.72463465E-03  0.13676013E-02  0.23758015E-02
  0.10610733E-02  0.26789177E-02 -0.16263527E-02
  0.11068529E-02  0.39138617E-02 -0.27692081E-02
 -0.39869843E-03 -0.28685569E-03  0.31539883E-03
 -0.29852930E-02  0.16580607E-02  0.14176887E-03
  0.21697902E-02  0.10044304E-02  0.16448331E-02
 -0.23537057E-02 -0.23213041E-02 -0.22901758E-02
 -0.79744292E-03  0.25419822E-03  0.16098876E-02
  0.29307056E-03 -0.32109406E-02 -0.12146508E-03
  0.68488653E-03  0.31247467E-02  0.11168501E-02
 -0.30814562E-02 -0.92555350E-03  0.12443344E-02
  0.36454343E-03 -0.24732551E-03 -0.23159418E-03
 -0.27782418E-02 -0.43972250E-03  0.27905918E-02
 -0.43175321E-02  0.12767325E-03 -0.33786345E-03
 -0.78902837E-03 -0.20730554E-03 -0.56434874E-03
  0.12403620E-02 -0.87689972E-03  0.23244698E-02
  0.20571071E-02 -0.14185167E-02  0.17183379E-02
 -0.19718341E-02  0.11539279E-02  0.34257551E-03
  0.12696674E-02 -0.13258978E-02 -0.15659269E-02
 -0.31695931E-04 -0.27588601E-03  0.21345224E-02
  0.71991571E-03  0.30385728E-03  0.17667885E-02
 -0.50052908E-04  0.32483397E-03 -0.62205321E-03
 -0.42016261E-02  0.23329432E-02  0.12127850E-02
 -0.23437422E-02 -0.32572752E-02  0.38552494E-02
 -0.19095476E-02 -0.16230509E-02 -0.77863891E-03
 -0.20175327E-02 -0.11635769E-02 -0.12271127E-02
  0.10062378E-02 -0.10388049E-02 -0.20887041E-04
  0.98039255E-03  0.85482676E-03  0.23275172E-03
  0.15789908E-02  0.13056033E-02  0.96633282E-03
 -0.53033301E-04  0.66264522E-03 -0.45740003E-02
  0.50883164E-02  0.16198892E-02  0.15493825E-02
 -0.19635863E-02 -0.48021260E-03  0.42570270E-04
  0.13797320E-03  0.23336721E-02 -0.15045319E-02
  0.12385757E-02  0.84557269E-03  0.40599674E-04
  0.10341466E-02  0.43216162E-03 -0.45551477E-04
  0.21617642E-03  0.16292427E-02  0.65579603E-03
 -0.13238715E-02 -0.12507792E-02 -0.51580230E-02
 -0.12463371E-02  0.68805422E-03  0.39693802E-02
  0.86830229E-03  0.89864914E-04  0.77344744E-03
  0.20665278E-02  0.52218564E-03 -0.35990843E-02
  0.41198111E-04 -0.14268834E-02  0.13227811E-02
  0.31933730E-02  0.11056473E-02 -0.43544665E-03
 -0.33810560E-02 -0.11389764E-02 -0.16625046E-02
 -0.16753399E-02  0.25796812E-03  0.47800245E-02
  0.13940745E-02 -0.35896508E-03  0.94531780E-03
 -0.29770463E-02 -0.11387230E-03  0.69250453E-03
 -0.13563721E-02 -0.20364396E-02  0.34129787E-02
  0.61024283E-03 -0.33500138E-03 -0.92199985E-03
 -0.17778632E-02 -0.17913932E-02 -0.10337003E-02
  0.11727878E-02 -0.92050276E-04  0.65700202E-04
  0.12841728E-02 -0.74799172E-03 -0.10723145E-02
 -0.14326231E-02 -0.49571681E-03  0.30462650E-02
 -0.24428699E-02  0.18808081E-03 -0.21012020E-02
 -0.25011762E-03 -0.19648647E-02 -0.27902472E-02
 -0.25801076E-02 -0.37176154E-03 -0.15203677E-02
  0.41516316E-03  0.70938085E-03 -0.11887866E-02
  0.34717480E-03  0.24585596E-02  0.10649790E-02