Amorphous Sb                            
   1.00000000000000     
    20.2978869700586912    0.0000000000000000    0.0000000000000000
     0.0000000000000000   20.2978869700586912    0.0000000000000000
     0.0000000000000000    0.0000000000000000   20.2978869700586912
   Ge   Se
   100   200
Direct
  0.0152940788190212  0.1707306067708369  0.6080905797794280
  0.4139699516506897  0.7178256976807876  0.5234216168529388
  0.3943233290321580  0.9474308427458543 -0.0015536717380300
  0.8343237192034635  0.7182949088812539  0.1247967366040181
  0.7977201444303813  0.7212861375682315  0.6981859661265480
  0.9450020947286818  0.2804505835759373  0.1931731485782176
  0.8804534917189696  0.0955183197097916  0.5883687631108537
  0.5160010799228505  0.5533198155577634  0.7704202719858030
  0.6582460577549440  0.2838828595096008  0.6045922177210549
  0.3419549655426109  0.1270324332805626  0.9223140887141972
  0.0597942436844502  0.8230345591833661  0.4270993808840922
  0.4927892233141455  0.3351968706878352  0.7713126850405181
  0.3076126799518298  0.9815373668977022  0.4259687940105141
  0.8057318726831372  0.1707473853477539  0.6689068342443140
  0.0038755466554247  0.3679011486260398  0.6301251717269450
  0.6713252962134063  0.7351923285700098  0.4994016972604138
  0.8609422322151685  0.2554082666892471  0.3731020806320305
  0.7631408119340287  0.3787201991831993  0.4606778703920402
  0.1718259784744169  0.8783549002363362  0.1246299299995329
  0.1387062895706730  0.8239461160509766  0.7867624432107401
  0.4669512155651139  0.7557437220994099  0.1970444831353309
  0.0726313899147739  0.6807299283027122  0.3088474100463426
  0.0378119914187382  0.2044308753967214  0.3750262948100084
  0.8424111837954839  0.4357742682390770  0.7005685113934084
  0.7066798685591424  0.9467106569121021  0.9407959620001511
  0.6423877481863774  0.0808486788957760  0.4706688993312914
  0.2615385148362427  0.7527056560481823  0.4001258726378786
  0.6917566248315822  0.4609846140343152  0.9089837430338886
  0.2457808253779049  0.9492798412294439  0.6750163114090546
  0.0082613376223284  0.6682951179749691  0.4806008065499703
  0.1279313074329370  0.4322700389544972  0.0611395169005474
  0.4125831973062238  0.0621800198797939  0.5921863271283034
  0.3101045629193508  0.7913350041866183  0.1152306059946790
  0.3939810185550810  0.1509285751033170  0.0339100409591762
  0.6559547618396488  0.4354991638305046  0.6941746452157220
  0.5778939635448976  0.5875507395885404  0.9406808766843588
  0.2661451692772501  0.6404522883277222  0.2032259790770568
  0.1483799810544175  0.2187506514572906  0.0047296670716322
  0.5857191192209527  0.9636919069533587  0.1739901295718696
  0.4753191184871166  0.3588451633269238  0.4842166463531536
  0.1265623102350227 -0.0020274811346031  0.3721238502700536
  0.7512078083829059  0.8426546789093533  0.0306370240458516
  0.0704771853889204  0.7814430374125598  0.6265259226237140
  0.8377238929763166  0.2001540921006142  0.8785135545537428
  0.7242291752911251  0.5806540014548043  0.1411477158038556
  0.5337081927986971  0.7094625717685448  0.6024062554913360
  0.5347900264819033  0.4855953641078727  0.1122091838413724
  0.4534227936498740  0.5952877462764317  0.3260751250946832
  0.9659250039168256  0.5405880780198210  0.3697062595317993
  0.6142479857450437  0.2971251559753482  0.1981281556426617
  0.2698487436762297  0.6804220055374697 -0.0077217018040790
  0.8810372581008505  0.8505318877250868  0.5398240986476484
  0.1224937592278780  0.2136323098314880  0.5627770285780134
  0.7218273062443993  0.2865487794134645 -0.0097500649894804
  0.6960612245546129  0.8445486233958953  0.3818054370794109
  0.9106654612190808  0.9458211762085280  0.3556146872268452
  0.9626106820449070  0.7151179042208742  0.8826030060947664
  0.4607714466109923  0.0596329270537347  0.4027508038311347
  0.0870872836173901  0.8417213464333032  0.8983465078774638
 -0.0028615233797072  0.0727152164516535  0.0607504484834077
  0.5516035621024162  0.7042155898051145  0.3744551558594063
  0.6520540316260525  0.7751903447114286  0.2151869150212035
  0.5612567528171802  0.8497347739202592  0.0835177972410354
  0.8726704247481311  0.9477321724977325  0.0827741437414524
  0.1242679142654662  0.0182677828548386  0.0651671315053610
  0.7398924851318510  0.5600890130074733  0.5514450299454435
  0.2234340711855548  0.0755827756531759  0.6211402876182818
  0.5651988267203208  0.1107255536337072  0.2662859339837979
  0.3882073007808082  0.3575737891991456  0.9173460153469982
  0.3094091998818678  0.1940448517678036  0.3248713843510259
  0.4378819335141750  0.7088791704918606  0.9999049315909992
  0.4705784206120134  0.2551155867769604  0.2335511278040763
  0.9048949482270660  0.4869713654617132  0.5079566543704099
  0.4722768947421818  0.2280703442916562  0.4071693729168804
  0.2053169477048631  0.3166172512717826  0.2237295501950693
  0.3626178876235501  0.0534794419420977  0.7394873523730889
  0.8495350739205485  0.0747465851081572  0.9651646708614663
  0.8978226516823946  0.9004518541906522  0.7269819692597963
  0.5034255923938274  0.4051312077949288  0.2897164769455863
  0.9154644316583661  0.4656508231512786  0.2186635330144714
  0.1389006121320749  0.6323261259950729  0.6923121314255892
  0.8655181741876457  0.3703004869765660  0.9174130686323473
  0.0472008732171221  0.1674046842614579  0.8695539428969006
  0.1897511389634205  0.3074063591674096  0.4229522331614711
  0.3769232292437860  0.2703832794440437  0.0852277306687546
  0.5598582352014971  0.8357814737732808  0.7330011475869143
  0.7436686473268371  0.8596443475785719  0.8262461658080189
  0.4225804711617404  0.5222276907668636  0.9328544909569751
  0.6498215375276118  0.6254843186821966  0.3290766390426156
  0.7051245653925907  0.0373527555803476  0.3212533140729831
  0.2786885082947347  0.4661988449886132  0.6918977519915478
  0.1293503381492351  0.3911962794096643  0.6673302777447339
  0.5243786507527310  0.0720862665636978  0.8931967391842447
  0.3048222995331051  0.5247270601613006  0.1209681902268611
  0.1225159720712684  0.2243057740731426  0.7289674379565588
  0.0660788657601375  0.4050750955367998  0.8593755076593341
  0.2854291096749657  0.0349073458665726  0.1332218154412181
  0.1511889272309534  0.1950979119781871  0.2385683818879666
  0.1046657691237163  0.5059986321301471  0.2219867391918735
  0.5470553180722193  0.9868942793492474  0.7376618767282447
  0.0956489732731014  0.7131555804853545  0.7708166537451726
  0.5583458016846197  0.2917159132403391  0.3206487135058054
  0.9228193807579551  0.9177917990755032  0.2316123294620424
  0.1335676987826966  0.7289783597375216  0.4107352764116950
  0.4925220842104650  0.0184135536724545  0.2314812522574463
  0.0952879616386509  0.7703137948212182  0.2256395880584393
  0.6146072323113201  0.8759202512632613  0.2618923054435311
  0.4025836281908039  0.0203714043721618  0.8951018992598399
  0.7714527730866789  0.8787787237263810  0.6149316524270650
  0.6124098753854096  0.4724859990278737  0.3962824551523939
  0.9474744537842128  0.9694740419957250  0.8106829922659027
  0.4978533480430710  0.4657789701751283  0.4203377401897137
  0.7149955376386385  0.2008579850558437  0.8458751196547809
  0.6954534976423710  0.1143014618400082  0.6656869246598531
  0.3617510993802293  0.3580796485792920  0.4249098769936852
  0.9729060830981793  0.8342675160012547  0.9146652739528213
  0.5221677241031627  0.8015473848245795  0.9707450588617377
  0.5241945632519972  0.1386545938160329  0.4793304586226786
  0.8111176339338698  0.6216110880556942  0.8372660334303997
  0.8499649398041097  0.0342166626913214  0.8173301558352378
  0.0606101064731230  0.9035385319187473  0.3374099268457151
  0.7732662163585190  0.7795630976992028  0.4639234886410804
  0.5220076757054459  0.9251278663040758  0.9900971147137229
  0.5122797868059615  0.5883927474165663  0.6282384532987545
  0.2644229674966235  0.6289072143555613  0.4146099857731589
  0.8336724079995740  0.9438233478584466  0.9573370613364319
  0.1850444140364131  0.0350523639666766  0.2759376841581787
  0.4992334786045943  0.9067206341424364  0.8091560849556261
  0.6551280474871697  0.6262292694792457  0.4550363963722893
  0.8089074668911733  0.9914950507503448  0.2884681352632897
  0.0251248249653763  0.1960040737872227  0.2449203161849161
  0.6540532329637921  0.7840465259235480  0.7810587488632578
  0.2413887748705646  0.1349253746508601  0.0700404287885357
  0.2371715187443479  0.1287170281364198  0.8645216638822932
  0.4358525866024738  0.9132193931526604  0.3279541000815913
  0.0791106021044945  0.8696731624512430  0.5313982603532468
  0.0908704027013607  0.9203593963256259  0.7317572478046750
  0.8649145221673764  0.7291454118838784  0.5890957648260767
  0.0593278039047857  0.9129528401180178  0.0788119508550931
  0.6880960000894815  0.3118424206591014  0.8789531582709215
  0.5619368288430149  0.0610542929836754  0.0119168976181999
  0.7017834009405832  0.9483727796907745  0.5522141665944539
  0.1418092029924647  0.1094096132894913  0.7085335479831898
  0.7573511188919717  0.2681087827890096  0.2073581318080438
  0.8830091380263352  0.7350072010850512  0.2308171258494421
  0.2862659633118654  0.6922237601911903  0.5138415645873171
  0.9314499977522824  0.1914625055446562  0.5277401693934487
  0.3489180978765865  0.0880240943621460  0.4610034414666924
  0.6151503375232463  0.9906744056558479  0.3849460998277416
  0.8685482526844236  0.7999171364357471  0.0452511786838656
  0.5397111011151050  0.4880075627146620  0.8896547485148337
  0.5915266645858993  0.5405364491820637  0.2123252663621709
  0.7109657279032773  0.1829387433696426  0.5690104258305754
  0.6590900149951356  0.4480742411233487  0.0418398406612126
  0.7095772479255361  0.5057507257341253  0.7757467892794931
  0.0826150516945808  0.2974771814316965  0.4877461092480699
  0.5157050262088175  0.5955106946602414  0.0411761865813788
  0.6421097173244976  0.4936088126204996  0.5949377017795985
  0.1953015154895457  0.4664500396120265  0.5974360959057399
  0.2083929475761053  0.6742418650250511  0.8870377131638959
  0.5687775916393373  0.7023323473759987  0.1692210298004638
  0.4323103944011846  0.1521725666550517  0.3113164834729717
  0.5513056778960687  0.1900971496863023  0.1650631412759934
  0.2971308070904292  0.7496467328754974  0.7355341893811685
  0.6343639164566499  0.5940981188404364  0.7652261612457085
  0.6552469100124109  0.7345322309979981  0.6154041481356834
  0.9661675437132891  0.8831642209276579  0.6339053602713994
  0.5359278060900365  0.4351071843011882  0.7151744262098740
  0.1350108890326029  0.7741500114965328  0.9847966666977573
  0.6818529743431330  0.0531781980937820  0.8718498704556013
  0.7147445626738157  0.7447357631267495  0.1155034097990805
  0.2332953814518258  0.5683261999478181  0.8380413048233056
  0.4845310923145076  0.0838387933859789  0.7120941142354354
  0.3906718445037295  0.6933035687902472  0.1302790125616281
  0.0674720997149708  0.5405225829478637  0.8305466452789174
  0.9713999950207072  0.6699519515299258  0.0050054279824854
  0.1971413158413825  0.9571409907917066  0.4602881060429144
  0.7537072475002738  0.9380301270004534  0.1225078248198321
  0.4739384247003424  0.6381474834150006  0.4440673388281394
  0.2885788056742932  0.2090749345380725  0.1538167488776381
  0.6637125888353169  0.0038785892786308  0.7668114297198628
  0.8746487366804282  0.3039957076490924  0.8213569286750536
  0.7736085868211456  0.5805010850319279  0.2632181162904279
  0.5418035596283051  0.2581272840570384  0.6209694755508445
  0.3191188175547951  0.4093167003664001  0.0693537556976780
  0.1962829149918793  0.4078380043034327  0.7660473188595065
  0.5362035415262134  0.6742892623995593  0.8637532379492729
  0.9005130848077041  0.6052285054932909  0.4471013391370954
  0.0348244109541571  0.3829601182397464  0.1185924664691882
  0.9362848066550207  0.4459975292982906  0.1023340209548889
  0.7566127779407560  0.4952708000064623  0.4434350447043583
  0.2153926732782690  0.7027999878210957  0.0987190849615740
  0.1645049277597059  0.9706155015631738  0.8112939975895582
  0.8081633872954881  0.1526930106208778  0.4205015438709360
  0.6332496213128963  0.3333686476699892  0.0568041156044634
  0.6928512778804380  0.0105842199729320  0.0489725242226600
  0.3680884420203652  0.9580606711580225  0.6510628721888618
  0.8040620248774064  0.9652021489713328  0.6948455187826741
  0.1863877141097895  0.8250184787520490  0.2706994129913625
  0.8321125267190187  0.7049146569121816  0.9240770286609894
  0.4368583468500907  0.4199364092243625  0.5846091417552248
  0.3284984429276427  0.1384740413809255  0.6477129350599806
  0.7022194154526615  0.1750403633546964  0.0299810662872182
  0.4286012497467669  0.4222180432458988  0.0183885306364023
  0.0817546993246731  0.5485940302979841  0.4013463346913156
  0.4090754161221041  0.8346936910197311  0.4140975936687958
  0.0610585252699494  0.5412793937398274  0.7119650669389804
  0.1509073112165510  0.5365648032381422  0.1092013340027730
  0.8822912265640688  0.1398933721995767  0.7750699429334512
  0.7607046867083774  0.3248333534033427  0.3554506236468149
  0.3430166932166412  0.2412243317424635  0.4419972147486761
  0.1320727990006461  0.2650305081946685  0.8366352765467685
  0.0164869534168520  0.4918153340337910  0.5621579699182916
  0.0372678202576803  0.0748915818979442  0.4135755774983715
  0.3250017302407451  0.5758233520810642  0.0049906990524237
  0.8781801644909726  0.9983168646760994  0.5110979559929902
  0.8126793417249113  0.4740375387805942  0.9145247532020907
  0.9651597911464033  0.3747518238494446  0.2758305199065634
 -0.0107832721085193  0.0596784340065686  0.6332674877807741
  0.0816030410503707  0.4527340565053854  0.4688600871330325
  0.5074233091855229  0.1645236493304828  0.9794171366470040
  0.8669291963923167  0.3527207522215720  0.5204920691410847
  0.5875098048577628  0.8042803693686591  0.4432467369724341
  0.1209610883025497  0.3801323502112390  0.3493612436529386
  0.1146098829907992 -0.0248781625320200  0.1855662166846975
  0.3805840801643163  0.9153243166335053  0.4945292061043650
  0.1334341742216467  0.6725037686959429  0.5835976760233909
  0.3230071298972848  0.7971615567387308  0.6299432225515742
  0.8528710378712800  0.2120967023246725  0.2517298846253415
  0.1086486417198283  0.9563632576001300  0.9156948950120333
  0.3272153493131214  0.9568071294300079  0.3105249461325682
  0.8358535756305134  0.8410255112733968  0.2493141529107009
  0.9505943390474862  0.5627715132003123  0.8547297700745802
  0.8757951170481031  0.6341308255064855  0.7412813304965072
  0.9748940899527702  0.4109879716924380  0.9504795089271599
  0.7993685836043116  0.4665302042836015  0.2567488073343936
  0.7800018127328343  0.1823789565802932  0.1158236118363707
  0.9234891899279953  0.4337686219718099  0.3975846864048183
  0.7736238079037151  0.9824182962005247  0.4624815011324945
  0.8752104099305702  0.0773802214165102  0.0935411815432617
  0.5735852660241556  0.9166684477924473  0.6448339389257530
  0.1550024565671011  0.4299462686675158  0.9465430666078941
  0.8361334660570053  0.3061681315257146  0.0142461113543824
  0.9585114356247804  0.5720891496517319  0.2553121803393725
  0.0378435368806722  0.1961765259014595  0.0667816898750436
  0.4980129049499626  0.3185652075932875  0.8878123764779886
  0.6664379256323312  0.0592122323918163  0.2092445241195054
  0.3841221859805435  0.3272894720282324  0.7185216452352178
  0.9622249856444405  0.4244629145905330  0.7291228068786512
  0.1672588763399112  0.6052993089716496  0.2724678933015624
  0.2578556713918668  0.8448795777752136  0.7898760710347097
  0.6928525352886770  0.5781509897929777  0.9575619759679757
  0.4853711729007228  0.7497323318799017  0.7079500209028358
  0.9572453169732137  0.0581090950226474  0.3301795183244428
  0.1891350801686424  0.2791628387368285  0.6440784199713251
  0.3248962906559047  0.3014191434318922  0.2599287549756278
  0.6992108974637105  0.1498489000303794  0.3769519324230809
  0.5478814075223343  0.2378393884545933  0.7350299236687403
  0.7141300829289459  0.7345048582328522  0.3092611966595848
  0.4406634354399627  0.7285518930681311  0.3107770374132081
  0.2850586707095302  0.7581435613288948  0.2501519490346484
  0.0065166363599540  0.2449211876158441  0.7035133853911362
  0.3379691887487488  0.5545225849013787  0.3299508012379261
  0.4234324720836476  0.6498818162200943  0.8795642028537336
  0.3535450037224199  0.4524885282963600  0.8553018387272125
  0.2231027465240984  0.8508065281519521  0.6009385381642534
  0.1648931159585495  0.1948948059742089  0.3638311484441422
  0.3291652209330480  0.2792596446763990  0.8094633301485632
  0.9695667541757695  0.5436067395482447  0.9676096160521237
  0.3534539394189006  0.4874831086907556  0.5398076565629757
  0.1986182080851446  0.3421136978194017  0.1013597746904587
  0.0810871452317030  0.6726318385685415  0.9557927152551412
  0.2545891528715439  0.5949709901788567  0.7249149772138122
  0.7421915371728950  0.4555846939115664  0.1369091521970348
  0.9549653690717443  0.7701332286465291  0.4228301988672861
  0.9733272731076369  0.0697758228587773  0.9425615649793688
  0.2021079826146689  0.4287291823153926  0.2776042472437597
  0.5080487392465038  0.3633846025750593  0.1657923123896429
  0.0249460582778239  0.2520242630836950  0.9634305531507927
  0.3893383938740688  0.1760256483322103  0.8213172994939466
  0.4050940098695518  0.0397934818805656  0.0841319971869661
  0.8156073025664700  0.3391656174919041  0.6254072324167659
  0.8545252387111025  0.8022126457386892  0.7797589953243598
  0.3706201315312622  0.4673316445871247  0.2452008096294193
  0.6968218350069593  0.3245090252615526  0.7133400219628552
  0.6552092192131388  0.3434599648500150  0.5032992229083568
  0.2732892518015761  0.4038643072885941  0.5100399790765497
  0.1441482887965656  0.1090380955135432  0.9359760755957784
  0.3348884934536961  0.7796435616516530  0.9787626606727581
  0.9783086347123434  0.6930855715150636  0.6038884381008065
  0.2402527284888436  0.9575602828075011  0.0468746448702456
  0.4006126744299817  0.6229293457646768  0.6071717081416248
  0.4232796145556713  0.5364553153401729  0.1653248174213998
  0.8411889706126836  0.6070837650900371  0.0923418087868356
  0.3177451538584142  0.2773874827449690  0.9725925010135488
  0.7319969919936016  0.7655254360177834  0.9101091047150475
  0.8515843910394157  0.5241000740129608  0.6119448927039065
  0.6249577299856314  0.4456935467551014  0.2745353323781177
  0.4563962605934196  0.8637784881901648  0.1509443320062019
  0.1916815106001843  0.1329251103855151  0.5160753807914439
 
  0.00000000E+00  0.00000000E+00  0.00000000E+00
  0.00000000E+00  0.00000000E+00  0.00000000E+00
  0.00000000E+00  0.00000000E+00  0.00000000E+00
  0.00000000E+00  0.00000000E+00  0.00000000E+00
  0.00000000E+00  0.00000000E+00  0.00000000E+00
  0.00000000E+00  0.00000000E+00  0.00000000E+00
  0.00000000E+00  0.00000000E+00  0.00000000E+00
  0.00000000E+00  0.00000000E+00  0.00000000E+00
  0.00000000E+00  0.00000000E+00  0.00000000E+00
  0.00000000E+00  0.00000000E+00  0.00000000E+00
  0.00000000E+00  0.00000000E+00  0.00000000E+00
  0.00000000E+00  0.00000000E+00  0.00000000E+00
  0.00000000E+00  0.00000000E+00  0.00000000E+00
  0.00000000E+00  0.00000000E+00  0.00000000E+00
  0.00000000E+00  0.00000000E+00  0.00000000E+00
  0.00000000E+00  0.00000000E+00  0.00000000E+00
  0.00000000E+00  0.00000000E+00  0.00000000E+00
  0.00000000E+00  0.00000000E+00  0.00000000E+00
  0.00000000E+00  0.00000000E+00  0.00000000E+00
  0.00000000E+00  0.00000000E+00  0.00000000E+00
  0.00000000E+00  0.00000000E+00  0.00000000E+00
  0.00000000E+00  0.00000000E+00  0.00000000E+00
  0.00000000E+00  0.00000000E+00  0.00000000E+00
  0.00000000E+00  0.00000000E+00  0.00000000E+00
  0.00000000E+00  0.00000000E+00  0.00000000E+00
  0.00000000E+00  0.00000000E+00  0.00000000E+00
  0.00000000E+00  0.00000000E+00  0.00000000E+00
  0.00000000E+00  0.00000000E+00  0.00000000E+00
  0.00000000E+00  0.00000000E+00  0.00000000E+00
  0.00000000E+00  0.00000000E+00  0.00000000E+00
  0.00000000E+00  0.00000000E+00  0.00000000E+00
  0.00000000E+00  0.00000000E+00  0.00000000E+00
  0.00000000E+00  0.00000000E+00  0.00000000E+00
  0.00000000E+00  0.00000000E+00  0.00000000E+00
  0.00000000E+00  0.00000000E+00  0.00000000E+00
  0.00000000E+00  0.00000000E+00  0.00000000E+00
  0.00000000E+00  0.00000000E+00  0.00000000E+00
  0.00000000E+00  0.00000000E+00  0.00000000E+00
  0.00000000E+00  0.00000000E+00  0.00000000E+00
  0.00000000E+00  0.00000000E+00  0.00000000E+00
  0.00000000E+00  0.00000000E+00  0.00000000E+00
  0.00000000E+00  0.00000000E+00  0.00000000E+00
  0.00000000E+00  0.00000000E+00  0.00000000E+00
  0.00000000E+00  0.00000000E+00  0.00000000E+00
  0.00000000E+00  0.00000000E+00  0.00000000E+00
  0.00000000E+00  0.00000000E+00  0.00000000E+00
  0.00000000E+00  0.00000000E+00  0.00000000E+00
  0.00000000E+00  0.00000000E+00  0.00000000E+00
  0.00000000E+00  0.00000000E+00  0.00000000E+00
  0.00000000E+00  0.00000000E+00  0.00000000E+00
  0.00000000E+00  0.00000000E+00  0.00000000E+00
  0.00000000E+00  0.00000000E+00  0.00000000E+00
  0.00000000E+00  0.00000000E+00  0.00000000E+00
  0.00000000E+00  0.00000000E+00  0.00000000E+00
  0.00000000E+00  0.00000000E+00  0.00000000E+00
  0.00000000E+00  0.00000000E+00  0.00000000E+00
  0.00000000E+00  0.00000000E+00  0.00000000E+00
  0.00000000E+00  0.00000000E+00  0.00000000E+00
  0.00000000E+00  0.00000000E+00  0.00000000E+00
  0.00000000E+00  0.00000000E+00  0.00000000E+00
  0.00000000E+00  0.00000000E+00  0.00000000E+00
  0.00000000E+00  0.00000000E+00  0.00000000E+00
  0.00000000E+00  0.00000000E+00  0.00000000E+00
  0.00000000E+00  0.00000000E+00  0.00000000E+00
  0.00000000E+00  0.00000000E+00  0.00000000E+00
  0.00000000E+00  0.00000000E+00  0.00000000E+00
  0.00000000E+00  0.00000000E+00  0.00000000E+00
  0.00000000E+00  0.00000000E+00  0.00000000E+00
  0.00000000E+00  0.00000000E+00  0.00000000E+00
  0.00000000E+00  0.00000000E+00  0.00000000E+00
  0.00000000E+00  0.00000000E+00  0.00000000E+00
  0.00000000E+00  0.00000000E+00  0.00000000E+00
  0.00000000E+00  0.00000000E+00  0.00000000E+00
  0.00000000E+00  0.00000000E+00  0.00000000E+00
  0.00000000E+00  0.00000000E+00  0.00000000E+00
  0.00000000E+00  0.00000000E+00  0.00000000E+00
  0.00000000E+00  0.00000000E+00  0.00000000E+00
  0.00000000E+00  0.00000000E+00  0.00000000E+00
  0.00000000E+00  0.00000000E+00  0.00000000E+00
  0.00000000E+00  0.00000000E+00  0.00000000E+00
  0.00000000E+00  0.00000000E+00  0.00000000E+00
  0.00000000E+00  0.00000000E+00  0.00000000E+00
  0.00000000E+00  0.00000000E+00  0.00000000E+00
  0.00000000E+00  0.00000000E+00  0.00000000E+00
  0.00000000E+00  0.00000000E+00  0.00000000E+00
  0.00000000E+00  0.00000000E+00  0.00000000E+00
  0.00000000E+00  0.00000000E+00  0.00000000E+00
  0.00000000E+00  0.00000000E+00  0.00000000E+00
  0.00000000E+00  0.00000000E+00  0.00000000E+00
  0.00000000E+00  0.00000000E+00  0.00000000E+00
  0.00000000E+00  0.00000000E+00  0.00000000E+00
  0.00000000E+00  0.00000000E+00  0.00000000E+00
  0.00000000E+00  0.00000000E+00  0.00000000E+00
  0.00000000E+00  0.00000000E+00  0.00000000E+00
  0.00000000E+00  0.00000000E+00  0.00000000E+00
  0.00000000E+00  0.00000000E+00  0.00000000E+00
  0.00000000E+00  0.00000000E+00  0.00000000E+00
  0.00000000E+00  0.00000000E+00  0.00000000E+00
  0.00000000E+00  0.00000000E+00  0.00000000E+00
  0.00000000E+00  0.00000000E+00  0.00000000E+00
  0.00000000E+00  0.00000000E+00  0.00000000E+00
  0.00000000E+00  0.00000000E+00  0.00000000E+00
  0.00000000E+00  0.00000000E+00  0.00000000E+00
  0.00000000E+00  0.00000000E+00  0.00000000E+00
  0.00000000E+00  0.00000000E+00  0.00000000E+00
  0.00000000E+00  0.00000000E+00  0.00000000E+00
  0.00000000E+00  0.00000000E+00  0.00000000E+00
  0.00000000E+00  0.00000000E+00  0.00000000E+00
  0.00000000E+00  0.00000000E+00  0.00000000E+00
  0.00000000E+00  0.00000000E+00  0.00000000E+00
  0.00000000E+00  0.00000000E+00  0.00000000E+00
  0.00000000E+00  0.00000000E+00  0.00000000E+00
  0.00000000E+00  0.00000000E+00  0.00000000E+00
  0.00000000E+00  0.00000000E+00  0.00000000E+00
  0.00000000E+00  0.00000000E+00  0.00000000E+00
  0.00000000E+00  0.00000000E+00  0.00000000E+00
  0.00000000E+00  0.00000000E+00  0.00000000E+00
  0.00000000E+00  0.00000000E+00  0.00000000E+00
  0.00000000E+00  0.00000000E+00  0.00000000E+00
  0.00000000E+00  0.00000000E+00  0.00000000E+00
  0.00000000E+00  0.00000000E+00  0.00000000E+00
  0.00000000E+00  0.00000000E+00  0.00000000E+00
  0.00000000E+00  0.00000000E+00  0.00000000E+00
  0.00000000E+00  0.00000000E+00  0.00000000E+00
  0.00000000E+00  0.00000000E+00  0.00000000E+00
  0.00000000E+00  0.00000000E+00  0.00000000E+00
  0.00000000E+00  0.00000000E+00  0.00000000E+00
  0.00000000E+00  0.00000000E+00  0.00000000E+00
  0.00000000E+00  0.00000000E+00  0.00000000E+00
  0.00000000E+00  0.00000000E+00  0.00000000E+00
  0.00000000E+00  0.00000000E+00  0.00000000E+00
  0.00000000E+00  0.00000000E+00  0.00000000E+00
  0.00000000E+00  0.00000000E+00  0.00000000E+00
  0.00000000E+00  0.00000000E+00  0.00000000E+00
  0.00000000E+00  0.00000000E+00  0.00000000E+00
  0.00000000E+00  0.00000000E+00  0.00000000E+00
  0.00000000E+00  0.00000000E+00  0.00000000E+00
  0.00000000E+00  0.00000000E+00  0.00000000E+00
  0.00000000E+00  0.00000000E+00  0.00000000E+00
  0.00000000E+00  0.00000000E+00  0.00000000E+00
  0.00000000E+00  0.00000000E+00  0.00000000E+00
  0.00000000E+00  0.00000000E+00  0.00000000E+00
  0.00000000E+00  0.00000000E+00  0.00000000E+00
  0.00000000E+00  0.00000000E+00  0.00000000E+00
  0.00000000E+00  0.00000000E+00  0.00000000E+00
  0.00000000E+00  0.00000000E+00  0.00000000E+00
  0.00000000E+00  0.00000000E+00  0.00000000E+00
  0.00000000E+00  0.00000000E+00  0.00000000E+00
  0.00000000E+00  0.00000000E+00  0.00000000E+00
  0.00000000E+00  0.00000000E+00  0.00000000E+00
  0.00000000E+00  0.00000000E+00  0.00000000E+00
  0.00000000E+00  0.00000000E+00  0.00000000E+00
  0.00000000E+00  0.00000000E+00  0.00000000E+00
  0.00000000E+00  0.00000000E+00  0.00000000E+00
  0.00000000E+00  0.00000000E+00  0.00000000E+00
  0.00000000E+00  0.00000000E+00  0.00000000E+00
  0.00000000E+00  0.00000000E+00  0.00000000E+00
  0.00000000E+00  0.00000000E+00  0.00000000E+00
  0.00000000E+00  0.00000000E+00  0.00000000E+00
  0.00000000E+00  0.00000000E+00  0.00000000E+00
  0.00000000E+00  0.00000000E+00  0.00000000E+00
  0.00000000E+00  0.00000000E+00  0.00000000E+00
  0.00000000E+00  0.00000000E+00  0.00000000E+00
  0.00000000E+00  0.00000000E+00  0.00000000E+00
  0.00000000E+00  0.00000000E+00  0.00000000E+00
  0.00000000E+00  0.00000000E+00  0.00000000E+00
  0.00000000E+00  0.00000000E+00  0.00000000E+00
  0.00000000E+00  0.00000000E+00  0.00000000E+00
  0.00000000E+00  0.00000000E+00  0.00000000E+00
  0.00000000E+00  0.00000000E+00  0.00000000E+00
  0.00000000E+00  0.00000000E+00  0.00000000E+00
  0.00000000E+00  0.00000000E+00  0.00000000E+00
  0.00000000E+00  0.00000000E+00  0.00000000E+00
  0.00000000E+00  0.00000000E+00  0.00000000E+00
  0.00000000E+00  0.00000000E+00  0.00000000E+00
  0.00000000E+00  0.00000000E+00  0.00000000E+00
  0.00000000E+00  0.00000000E+00  0.00000000E+00
  0.00000000E+00  0.00000000E+00  0.00000000E+00
  0.00000000E+00  0.00000000E+00  0.00000000E+00
  0.00000000E+00  0.00000000E+00  0.00000000E+00
  0.00000000E+00  0.00000000E+00  0.00000000E+00
  0.00000000E+00  0.00000000E+00  0.00000000E+00
  0.00000000E+00  0.00000000E+00  0.00000000E+00
  0.00000000E+00  0.00000000E+00  0.00000000E+00
  0.00000000E+00  0.00000000E+00  0.00000000E+00
  0.00000000E+00  0.00000000E+00  0.00000000E+00
  0.00000000E+00  0.00000000E+00  0.00000000E+00
  0.00000000E+00  0.00000000E+00  0.00000000E+00
  0.00000000E+00  0.00000000E+00  0.00000000E+00
  0.00000000E+00  0.00000000E+00  0.00000000E+00
  0.00000000E+00  0.00000000E+00  0.00000000E+00
  0.00000000E+00  0.00000000E+00  0.00000000E+00
  0.00000000E+00  0.00000000E+00  0.00000000E+00
  0.00000000E+00  0.00000000E+00  0.00000000E+00
  0.00000000E+00  0.00000000E+00  0.00000000E+00
  0.00000000E+00  0.00000000E+00  0.00000000E+00
  0.00000000E+00  0.00000000E+00  0.00000000E+00
  0.00000000E+00  0.00000000E+00  0.00000000E+00
  0.00000000E+00  0.00000000E+00  0.00000000E+00
  0.00000000E+00  0.00000000E+00  0.00000000E+00
  0.00000000E+00  0.00000000E+00  0.00000000E+00
  0.00000000E+00  0.00000000E+00  0.00000000E+00
  0.00000000E+00  0.00000000E+00  0.00000000E+00
  0.00000000E+00  0.00000000E+00  0.00000000E+00
  0.00000000E+00  0.00000000E+00  0.00000000E+00
  0.00000000E+00  0.00000000E+00  0.00000000E+00
  0.00000000E+00  0.00000000E+00  0.00000000E+00
  0.00000000E+00  0.00000000E+00  0.00000000E+00
  0.00000000E+00  0.00000000E+00  0.00000000E+00
  0.00000000E+00  0.00000000E+00  0.00000000E+00
  0.00000000E+00  0.00000000E+00  0.00000000E+00
  0.00000000E+00  0.00000000E+00  0.00000000E+00
  0.00000000E+00  0.00000000E+00  0.00000000E+00
  0.00000000E+00  0.00000000E+00  0.00000000E+00
  0.00000000E+00  0.00000000E+00  0.00000000E+00
  0.00000000E+00  0.00000000E+00  0.00000000E+00
  0.00000000E+00  0.00000000E+00  0.00000000E+00
  0.00000000E+00  0.00000000E+00  0.00000000E+00
  0.00000000E+00  0.00000000E+00  0.00000000E+00
  0.00000000E+00  0.00000000E+00  0.00000000E+00
  0.00000000E+00  0.00000000E+00  0.00000000E+00
  0.00000000E+00  0.00000000E+00  0.00000000E+00
  0.00000000E+00  0.00000000E+00  0.00000000E+00
  0.00000000E+00  0.00000000E+00  0.00000000E+00
  0.00000000E+00  0.00000000E+00  0.00000000E+00
  0.00000000E+00  0.00000000E+00  0.00000000E+00
  0.00000000E+00  0.00000000E+00  0.00000000E+00
  0.00000000E+00  0.00000000E+00  0.00000000E+00
  0.00000000E+00  0.00000000E+00  0.00000000E+00
  0.00000000E+00  0.00000000E+00  0.00000000E+00
  0.00000000E+00  0.00000000E+00  0.00000000E+00
  0.00000000E+00  0.00000000E+00  0.00000000E+00