Amorphous GeAsSeSi                      
   1.00000000000000     
    20.6144640308536040    0.0000000000000000    0.0000000000000000
     0.0000000000000000   20.6144640308536040    0.0000000000000000
     0.0000000000000000    0.0000000000000000   20.6144640308536040
   Si   As   Te
   100   100   100
Direct
  0.1660458020741160  0.3747386150321645  0.9600445416651908
  0.6804899038442684  0.5428156165708700  0.9374123171472846
  0.6092702009325421  0.8557868954322458  0.6077281226457600
  0.0095698313929660  0.4560667714323614  0.9201204637826379
  0.9029236082629879  0.8650278572179104  0.9086794405752414
  0.9434965027734279  0.7091188310365695  0.7415430513962278
  0.8614659179064574  0.8691444091358349  0.3376286795096917
  0.1148596220581837  0.4775131039272438  0.0833362261716317
  0.3773413312571918  0.2893147355151910  0.3808125606772776
  0.0641574968400107  0.4046745027652818  0.0091671209037258
  0.6715606163813348  0.4405752969322307  0.8846647302253459
  0.7101325465140604  0.1001136315371340  0.6239588923405890
  0.3139887608394432  0.1672971762735642  0.7438618519306885
  0.0359195580614156  0.9064289397738534  0.2370990374511379
  0.3615888390501425  0.0329117519886708  0.0565075814946638
  0.3067270709424363  0.5777422081469155  0.8555226714471758
  0.0707014917649502  0.6882226173321087  0.5960640257494134
  0.8530993558298903  0.5513547453737146  0.2788297718564650
  0.1118594442482248  0.0187720207195738  0.7198387349064959
  0.9305642963591794  0.1683910059128593  0.0964026031185767
  0.3812694280603566  0.2579257532138755  0.8796602089796224
  0.3391686808372043  0.7326310271756284  0.2066421235721592
  0.0790528155051646  0.5447801348723331  0.6908718896396735
  0.7799059549852672  0.4260877544871846  0.8592640841472630
  0.2755335111157535  0.8131970472473427  0.3712275481984975
  0.1088338222487906  0.1431691535315380  0.3821465603254310
  0.7601781326962396  0.5305489716665832  0.0221897032953748
  0.1637166627120408  0.1166854294644537  0.8291748001146004
  0.5068450027261875  0.7318016265637155  0.2107912131471537
  0.3896829557445329  0.8022235662743569  0.3826075690124355
  0.4589379560717859  0.2197574097461583  0.4297440518107791
  0.3751664200808023  0.2130990301639599  0.2939067494742602
  0.5834282866788882  0.4825773702676770  0.2402769303053844
  0.7425159183283014  0.3089846176510207  0.1218639919087465
  0.7058836602821259  0.0782462350308464  0.7394229254691496
  0.2499164449793057  0.7518323117663002  0.2761454130438565
  0.5950857207273543  0.0691589244966480  0.4012313035763597
  0.5141539210916832  0.4345979697391655  0.7374376182497215
  0.5569233915107077  0.9108872337761724  0.4285564976901028
  0.3428972687665777  0.8076787852848781  0.0484708524207633
  0.8244409874484759  0.3914927011814342  0.9590169556040848
  0.8179895508415527  0.9863682217145282  0.8663642713394282
  0.8706630519220866  0.7687956218727692  0.9701440914332338
  0.0289717966680882  0.8841134583835881  0.7558183767735329
  0.5998834157009938  0.4565453395386712  0.5916943383063398
  0.0859476121423057  0.0556700036766955  0.3063523700216138
  0.1027924912103799  0.7072072135772771  0.1784368968450067
  0.8108684210727048  0.6230985969942680  0.8301136080752016
  0.1999947293326727  0.2080434783015335  0.3521182040957598
  0.1863116459634213  0.6759265750442864  0.4625316371107715
  0.4786042657840568  0.1486980350887492  0.5191596924265909
  0.7458860944298209  0.4132204424873080  0.1707374954267280
  0.4794703082375023  0.8077535289690942  0.6616591790961053
  0.2564759680278428  0.1499887899669901  0.9400650603106016
  0.4126321857142656  0.5353775871960877  0.8699368087451305
  0.5894977678299043  0.5339699655405923  0.0132069742908456
  0.7586355030174730  0.4705241764153243  0.4131861736427282
  0.7064687488211447  0.9431313498597760  0.2566367860600565
  0.6460411664315444  0.3577465536148807  0.9607046852862169
  0.6116841881995185  0.3618113876396691  0.4283013277894128
  0.0922706232159740  0.8080398171001661  0.2294687478983093
  0.9948183678101685  0.4081564078886188  0.7585406719854149
  0.5768726352187983  0.7968179180866457  0.9978704418478515
  0.1263649812688072  0.1334819727723513  0.7230894354017678
  0.2304090588592373  0.5262054558980083  0.7185115033135219
  0.7766190059450579  0.2199562268172386  0.9613084100634666
  0.6636286980739001  0.5680238671259659  0.7541724684425901
  0.5388969110516086  0.8692581859016428  0.3217887076888459
  0.0085748105328065  0.6390026621525564  0.1748129852876943
  0.8457279483895519  0.5141656863020003  0.8295249679179904
  0.8239809171707577  0.1362451056573022  0.1284142597728888
  0.1336771491962594  0.4184791314659080  0.1813315150842882
  0.3764562820589816  0.3650293250136087  0.2327389470818559
  0.7825064785601370  0.0271706586390295  0.2814456429692314
  0.1667440980953145  0.6694675396792817  0.2695550230989312
  0.6019895343297463  0.3906228096917630  0.3114594117587544
  0.4125188973998277  0.1899974977809933  0.9973180111546540
  0.8881108475990089  0.3222385217254597  0.8915564987860591
  0.9764486917802842  0.1869267811803610  0.2010403861303871
  0.4737527233830008  0.5029203771989899  0.2652298189622826
  0.4855624639422444  0.8475169294574485  0.8981982736742751
  0.2769822978698500  0.1057146266046729  0.8337637630409844
  0.4494806041724004  0.2047546825322328  0.6159165577013894
  0.4265622312222561  0.6920428733272601  0.3850029069321437
  0.4236330175213396  0.8098518808552768  0.2077752092207916
  0.6871862624331229  0.4834513303293164  0.0998681005792221
  0.9809906049696622  0.0208800066126429  0.9399129298953923
  0.7465858234410376  0.3213532571103315  0.0065954775481316
  0.6845657685692643  0.5585030132877122  0.4096808549568820
  0.2747772723480040  0.3388948461539627  0.4049785006324171
  0.6335671616348648  0.8590773547377495  0.8621676075924469
  0.2630562137350836  0.3747480185746923  0.2382441585373911
  0.2008570969093100  0.4690796868178921  0.2638741462069873
  0.1844398681278676  0.9397632040966570  0.2905679728819948
  0.1795147330409463  0.4786378309929304  0.9150106209261892
  0.0136332665380365  0.8703542828803066  0.8726498594512790
  0.5630653865212807  0.2158377443346424  0.3178407571383985
  0.5995386726941163  0.9408670764185842  0.7862572528270704
  0.5921243218431869  0.1296016788533976  0.4995159016041981
  0.8896931663870973  0.6618935101271859  0.9080907755099190
  0.7503153531052504  0.3771931844757717  0.5655642414202831
  0.5828777799742539  0.2134250935288620  0.0138038117423278
  0.2027491581978680  0.5081949469241422  0.6038489672327074
  0.4256020893347028  0.8698946981033657  0.1068048142736799
  0.9105524374215079  0.2712321389557388  0.0431735695587889
  0.6195772411188045  0.1157227239541143  0.2945427879200793
  0.1412665208295749  0.1782113502878531  0.9274945659391562
  0.2111313969937143  0.3398160799525769  0.1377680462214457
  0.1495830823829962  0.9995279874645533  0.8301177698908688
  0.8536111544080640  0.4559812023213183  0.3466661774261155
  0.2806903064199560  0.9327557206829695  0.3554618787780157
  0.0215458940562883  0.6154467960974088  0.2913410898505191
  0.5345539724551642  0.3955642460776545  0.5117058976351174
  0.7726190587790072  0.8192912024641856  0.4684810250414202
  0.2578931398317224  0.4757811597763464  0.8258471720522351
  0.0009382956187665  0.9877839611356123  0.7030374942676403
  0.3115275208410679  0.2462385767867943  0.9746409684660691
  0.3840110453249821  0.8234953633038131  0.7263666813420926
  0.2491381343388355  0.9476093677215331  0.9600648462032737
  0.9452343060821420  0.7586402662610396  0.0604919304486415
  0.5079045586020854  0.5065395911554091  0.6451250911276247
  0.8795212004747199  0.9668771005130878  0.9655136642542175
  0.5364300449633461  0.9097150649183803  0.9888260909514912
  0.0969196036534470  0.4630218688849936  0.7699186936719116
  0.5059211877513476  0.9086513643690495  0.6116586008743994
  0.1650796143292155  0.4865572672768650  0.3778878333454045
  0.8423973754650831  0.8870319743231221  0.8090265154715937
  0.5242657286611774  0.4931853949307978  0.4342075916416448
  0.3574579479752060  0.6179086516101222  0.4405786364710664
  0.5566123006286929  0.0290754752884013  0.8510951110602250
  0.2335626609347727  0.8534745711518070  0.0358809862863225
  0.9996806729997942  0.3504155104544182  0.6550024287902545
  0.2416723339179043  0.4033102279287561  0.5584719200034201
  0.2011498080728842  0.7928877490199255  0.4588678854220518
  0.1347901012334134  0.1083479862282672  0.4940551314866752
  0.5039042824664577  0.9600679917458521  0.7259216639433745
  0.4236398357245008  0.8789097688947791  0.3003669755791947
  0.2510937435953906  0.6451470945791939  0.5559417770444171
  0.7309975508817317  0.3596622376371741  0.4464460187321677
  0.8601956218471756  0.4302243229204592  0.5709790112021480
  0.1116811841179342  0.2960421551114294  0.6553299297545863
  0.0781667365277272  0.9415059464539723  0.3425048579280840
  0.2151419284028862  0.5100334835867244  0.0270225035942673
  0.4928702702287424  0.0093850966337214  0.4063808020727180
  0.0690133612527077  0.2328315042945235  0.7478667914230286
  0.2566500903643316  0.3942301691419843  0.0351347738072789
  0.4968782575580235  0.6009824459937434  0.9849488121228944
  0.7088469067262935  0.9609153496570357  0.7469183693728709
  0.1798874212592168  0.6999694968556938  0.6399231637239993
  0.7721824461949396  0.6467675509922373  0.0443400072838003
  0.6518684171453302  0.6622587792033698  0.0394384277100599
  0.8669364685555223  0.4815269760606142  0.0218481365333432
  0.5543864612569607  0.3063723473574740  0.2425939823964853
  0.8925123833647106  0.8098485369290671  0.4361326956367364
  0.5669479141701217  0.7643076382701466  0.8833499200636155
  0.9864528362984046  0.6682908889457053  0.8408920252664487
  0.9314848853656201  0.5185323632890118  0.1985702635576345
  0.0849262180478760  0.5303017434915134  0.8704382138589182
  0.5917546193836642  0.2670510361048102  0.9026186316771074
  0.6167324943011465  0.4652690309575078  0.7837030516666061
  0.8091100389752057  0.8206738773480282  0.5859947436835782
  0.9979460717700306  0.3546750362255366  0.8619553137311939
  0.4375667934169414  0.1167636376228316  0.0849438980613684
  0.5636382855393975  0.3292296804361285  0.7373779749247262
  0.5757444425631917  0.2497067679882861  0.4279986759065366
  0.8915071072870475  0.2141170034731203  0.9360835848234998
  0.9279750119002159  0.5116577521691426  0.4254914980350577
  0.2745391716547232  0.9882791816095278  0.8156455760656272
  0.6937127985057217  0.6287978772615332  0.8538920650172699
  0.4419047591158289  0.0360123061801332  0.5152370775621691
  0.1738192438277650  0.9469410881777804  0.6483011638443372
  0.6582250505025087  0.9125716985740056  0.9620836010083380
  0.8057483912404066  0.6921576638806357  0.1557073204205182
  0.0804841880532621  0.2305745680529441  0.2301468229029027
  0.2709550755932852  0.4503852948006823  0.4439756376643942
  0.4301164085065636  0.9031826884722705  0.8071620658018972
  0.4801934286820284  0.2777402583907929  0.0342488098940024
  0.1960864814730101  0.3228122580630099  0.3206751691359102
  0.7550369283689093  0.7351857835379008  0.9514847039331258
  0.9488081210665555  0.8178677244286447  0.6966037953012361
  0.6606872537410737  0.4001748752092666  0.6867656475479862
  0.4655856891340378  0.1501984062582267  0.3328814310989046
  0.3156670085748274  0.7019098006574040  0.0965769334404527
  0.0509765318310400  0.9834661299243663  0.1479189731356954
  0.4225009764388261  0.4714623730335248  0.3682577948276702
  0.0732002661109803  0.9456316523291264  0.9449376541408512
  0.3172646409916311  0.5675025237036309  0.3369103157163451
  0.2035189119411953  0.6058804586367330  0.3660677675454238
  0.9106243141763315  0.6490135350421440  0.1083765136110131
  0.8529485587555925  0.9024519393296160  0.5053684047012439
  0.4505369724340227  0.3613776714003762  0.3236351007731741
  0.4557350458455858  0.5690317002718146  0.5006931811388213
  0.0211886079562831  0.0577149836403734  0.4999246683005012
  0.8375611191577050  0.0272177540872676  0.1753516712927521
  0.9154397634019347  0.5345709693701153  0.9233078209858760
  0.7806884421746716  0.2236098992642965  0.1964831912444964
  0.5961042778105821  0.4211299194443114  0.0497676448919790
  0.6133359413980486  0.5720232309517570  0.1237020103490423
  0.6851712916335231  0.7838205901538018  0.0438109521802872
  0.1593416639864884  0.6193898702073852  0.7298729438495926
  0.2291745261393032  0.2418351222510609  0.4703989056490840
  0.1446521787296220  0.1819836776124220  0.1330568292453975
  0.7178759774786911  0.9182450031291793  0.6111672598431070
  0.0310325533020617  0.3517250947930890  0.2067714659323912
  0.2472856805736114  0.0804479428708973  0.0451419843670493
  0.6071462704129118  0.0381236876402156  0.5879679711655612
  0.8903186182268001  0.2480305252322523  0.2643749212749640
  0.9016394355477075  0.6468821084720986  0.3410171084810827
  0.0900717519547243  0.7603345460416975  0.3425136967968001
  0.4305974697315875  0.8627058549880431  0.4801049786948397
  0.3252535717581182  0.0808008453219529  0.4825176013878263
  0.0679960994184086  0.6440549517402800  0.4802765460679979
  0.7500996008831891  0.6601785585052227  0.4107514980931981
  0.4415115915866323  0.1495586847114723  0.8824943135854610
  0.0301649913337911  0.9502903738201240  0.5697688540242396
  0.6984268026646419  0.1974030518100633  0.8677756726159487
  0.2247417185527922  0.1705141260169185  0.6555165019005216
  0.2190629219970148  0.8303943906611693  0.9106127978794092
  0.4448660485562783  0.7050196070406045  0.5997418614380834
  0.6136939856361607  0.8121247787623318  0.4916916635431434
  0.9824902608123978  0.6193807131029629  0.6556074298315764
  0.2443499111259584  0.6428507155965590  0.9388548043410267
  0.8114389986056949  0.3268118544406562  0.7937055076065747
  0.2302124224081297  0.5716065024037675  0.1996792939425447
  0.1796145478347029  0.6896779933149659  0.0814598738533547
  0.8306317546483868  0.0663437774858053  0.6077967676296510
  0.9019156235745811  0.4824877360166084  0.7249269666920881
  0.3795749390466554  0.9693186690971274  0.9531826528303569
  0.0472492054389093  0.5811441986948580  0.0681694582278141
  0.4010242219686617  0.4677828237605581  0.1689610313476706
  0.0158010771421289  0.0990708520035000  0.0345820881053953
  0.3562417370637192  0.4137926489209036  0.6161077470290977
  0.9434654608468307  0.3901465728903517  0.4801617618928162
  0.9750571694820493  0.0727013854879246  0.2530115209722510
  0.9456575930909423  0.2399005328738752  0.7078560530740674
  0.8842236912101313  0.2351750448692727  0.4853646816162467
  0.2924015842364938  0.9827693250121428  0.6877121900468879
  0.4576000610118029  0.3465688259322022  0.9247960189544457
  0.9920210282310151  0.0739316067266387  0.8292925857886146
  0.3586676875944264  0.2733522805522668  0.5715600059019081
  0.5888988663071402  0.1180693445792755  0.7662196354787483
  0.6715761263791151  0.9726892283595348  0.4113311244241373
  0.3942104676908755  0.7711513633534466  0.9397904683428848
  0.7496449640747045  0.5266302212528231  0.6807097182506610
  0.4202071956556210  0.6404691226530730  0.2601457717834705
  0.7406216934216800  0.8052602743787105  0.8255683488087229
  0.7543998044889832  0.5841579801703816  0.2150334298235705
  0.5082660792119214  0.7251005155757113  0.0820195586545438
  0.5419965007473309  0.0851999993733656  0.0170356238804743
  0.2100031326230436  0.8494120318999521  0.2036964674125841
  0.3054826605058025  0.7640998943197417  0.5372549594581386
  0.7427353076467256  0.1349555425160673  0.3293634476314793
  0.9245900583516686  0.8509773653224642  0.2323890321225264
  0.8412637499648667  0.8322644658734504  0.0849534836655366
  0.7496711302860675  0.1202069758402260  0.0308961085326516
  0.6951894857767584  0.0176161456999111  0.8882944364613863
  0.0739130996040984  0.2253492564717234  0.5412382448697102
  0.6328930165361513  0.2534024042488952  0.1478855142974638
  0.5843726927602972  0.9448424811133762  0.2342389007068206
  0.0374776048110164  0.2850033026950456  0.0247222671361342
  0.0711613951662784  0.7598219081021256  0.8850605895301342
  0.4101775237353280  0.5032771793347237  0.9891288530002953
  0.6891795755442374  0.1949520934230478  0.5434565664178592
  0.2816708861814163  0.1316434912451001  0.2994137303397366
  0.1695789851183207  0.0396747744415507  0.2100495659970250
  0.3393173484922514  0.5532649894281647  0.6669513234129951
  0.8279203841795919  0.0868871864331453  0.7898890399771261
  0.5238656783366480  0.6722591421798896  0.4595662751801086
  0.2820093292560557  0.6883499819495071  0.8062671882079258
  0.0016038546735260  0.7894947591220713  0.5818288192913741
  0.1765629181996928  0.2897682006359688  0.8714062565142626
  0.5672908115099631  0.6160413699892899  0.6884956097334225
  0.4045035613034003  0.6942472039901020  0.7361792127804421
  0.5953997697768614  0.7798850444507508  0.7065682531645123
  0.9882591701573631  0.1356606361081703  0.6004402279574066
  0.3898401535716332  0.2549348007840990  0.1772467591950360
  0.8240205067480773  0.6847821097675251  0.7226916487176140
  0.4062953525253619  0.4346367294258897  0.7965180476937732
  0.3391338890902205  0.2866584820529070  0.7671632667331352
  0.7490019128278149  0.8318566942440171  0.2968658882515243
  0.8230529875797359  0.5389817377322714  0.5060735676359727
  0.5172364973724228  0.5978698182306559  0.8550033175452043
  0.6001060035195920  0.5804152298799607  0.3195467987421452
  0.2362951145655288  0.9784516668604937  0.4694642099262580
  0.8696293620721605  0.4069574400227296  0.1659568767086554
  0.7336211199724758  0.9637337935592711  0.1333860941586735
  0.6456446708378607  0.5613225717632844  0.5324583573158819
  0.8633743749844172  0.9886475732939246  0.3681901821095295
  0.5878741032408712  0.7565399716263030  0.3008205705054934
  0.1464481641282376  0.8500179388855642  0.7323106764989120
  0.0494373317124825  0.8853721876662775  0.0633108241608653
  0.5582643161762206  0.2610997389599277  0.6303929163205453
  0.3525657094370658  0.9645135810599328  0.1593180331141255
  0.0157854623302498  0.4847154934906399  0.2943214884756742
  0.8349523007764432  0.1069808315433534  0.4790421318829630
  0.7260402746558228  0.3828706447297279  0.2910081326176055
  0.4182573390385258  0.1168151485543945  0.6989666357819644
  0.0747698282432481  0.4727050348041075  0.5892121665937680
  0.8180214824536378  0.2713453446275906  0.6000115218421556
  0.0106195953100396  0.2146225505539405  0.3843506640456198
 
  0.00000000E+00  0.00000000E+00  0.00000000E+00
  0.00000000E+00  0.00000000E+00  0.00000000E+00
  0.00000000E+00  0.00000000E+00  0.00000000E+00
  0.00000000E+00  0.00000000E+00  0.00000000E+00
  0.00000000E+00  0.00000000E+00  0.00000000E+00
  0.00000000E+00  0.00000000E+00  0.00000000E+00
  0.00000000E+00  0.00000000E+00  0.00000000E+00
  0.00000000E+00  0.00000000E+00  0.00000000E+00
  0.00000000E+00  0.00000000E+00  0.00000000E+00
  0.00000000E+00  0.00000000E+00  0.00000000E+00
  0.00000000E+00  0.00000000E+00  0.00000000E+00
  0.00000000E+00  0.00000000E+00  0.00000000E+00
  0.00000000E+00  0.00000000E+00  0.00000000E+00
  0.00000000E+00  0.00000000E+00  0.00000000E+00
  0.00000000E+00  0.00000000E+00  0.00000000E+00
  0.00000000E+00  0.00000000E+00  0.00000000E+00
  0.00000000E+00  0.00000000E+00  0.00000000E+00
  0.00000000E+00  0.00000000E+00  0.00000000E+00
  0.00000000E+00  0.00000000E+00  0.00000000E+00
  0.00000000E+00  0.00000000E+00  0.00000000E+00
  0.00000000E+00  0.00000000E+00  0.00000000E+00
  0.00000000E+00  0.00000000E+00  0.00000000E+00
  0.00000000E+00  0.00000000E+00  0.00000000E+00
  0.00000000E+00  0.00000000E+00  0.00000000E+00
  0.00000000E+00  0.00000000E+00  0.00000000E+00
  0.00000000E+00  0.00000000E+00  0.00000000E+00
  0.00000000E+00  0.00000000E+00  0.00000000E+00
  0.00000000E+00  0.00000000E+00  0.00000000E+00
  0.00000000E+00  0.00000000E+00  0.00000000E+00
  0.00000000E+00  0.00000000E+00  0.00000000E+00
  0.00000000E+00  0.00000000E+00  0.00000000E+00
  0.00000000E+00  0.00000000E+00  0.00000000E+00
  0.00000000E+00  0.00000000E+00  0.00000000E+00
  0.00000000E+00  0.00000000E+00  0.00000000E+00
  0.00000000E+00  0.00000000E+00  0.00000000E+00
  0.00000000E+00  0.00000000E+00  0.00000000E+00
  0.00000000E+00  0.00000000E+00  0.00000000E+00
  0.00000000E+00  0.00000000E+00  0.00000000E+00
  0.00000000E+00  0.00000000E+00  0.00000000E+00
  0.00000000E+00  0.00000000E+00  0.00000000E+00
  0.00000000E+00  0.00000000E+00  0.00000000E+00
  0.00000000E+00  0.00000000E+00  0.00000000E+00
  0.00000000E+00  0.00000000E+00  0.00000000E+00
  0.00000000E+00  0.00000000E+00  0.00000000E+00
  0.00000000E+00  0.00000000E+00  0.00000000E+00
  0.00000000E+00  0.00000000E+00  0.00000000E+00
  0.00000000E+00  0.00000000E+00  0.00000000E+00
  0.00000000E+00  0.00000000E+00  0.00000000E+00
  0.00000000E+00  0.00000000E+00  0.00000000E+00
  0.00000000E+00  0.00000000E+00  0.00000000E+00
  0.00000000E+00  0.00000000E+00  0.00000000E+00
  0.00000000E+00  0.00000000E+00  0.00000000E+00
  0.00000000E+00  0.00000000E+00  0.00000000E+00
  0.00000000E+00  0.00000000E+00  0.00000000E+00
  0.00000000E+00  0.00000000E+00  0.00000000E+00
  0.00000000E+00  0.00000000E+00  0.00000000E+00
  0.00000000E+00  0.00000000E+00  0.00000000E+00
  0.00000000E+00  0.00000000E+00  0.00000000E+00
  0.00000000E+00  0.00000000E+00  0.00000000E+00
  0.00000000E+00  0.00000000E+00  0.00000000E+00
  0.00000000E+00  0.00000000E+00  0.00000000E+00
  0.00000000E+00  0.00000000E+00  0.00000000E+00
  0.00000000E+00  0.00000000E+00  0.00000000E+00
  0.00000000E+00  0.00000000E+00  0.00000000E+00
  0.00000000E+00  0.00000000E+00  0.00000000E+00
  0.00000000E+00  0.00000000E+00  0.00000000E+00
  0.00000000E+00  0.00000000E+00  0.00000000E+00
  0.00000000E+00  0.00000000E+00  0.00000000E+00
  0.00000000E+00  0.00000000E+00  0.00000000E+00
  0.00000000E+00  0.00000000E+00  0.00000000E+00
  0.00000000E+00  0.00000000E+00  0.00000000E+00
  0.00000000E+00  0.00000000E+00  0.00000000E+00
  0.00000000E+00  0.00000000E+00  0.00000000E+00
  0.00000000E+00  0.00000000E+00  0.00000000E+00
  0.00000000E+00  0.00000000E+00  0.00000000E+00
  0.00000000E+00  0.00000000E+00  0.00000000E+00
  0.00000000E+00  0.00000000E+00  0.00000000E+00
  0.00000000E+00  0.00000000E+00  0.00000000E+00
  0.00000000E+00  0.00000000E+00  0.00000000E+00
  0.00000000E+00  0.00000000E+00  0.00000000E+00
  0.00000000E+00  0.00000000E+00  0.00000000E+00
  0.00000000E+00  0.00000000E+00  0.00000000E+00
  0.00000000E+00  0.00000000E+00  0.00000000E+00
  0.00000000E+00  0.00000000E+00  0.00000000E+00
  0.00000000E+00  0.00000000E+00  0.00000000E+00
  0.00000000E+00  0.00000000E+00  0.00000000E+00
  0.00000000E+00  0.00000000E+00  0.00000000E+00
  0.00000000E+00  0.00000000E+00  0.00000000E+00
  0.00000000E+00  0.00000000E+00  0.00000000E+00
  0.00000000E+00  0.00000000E+00  0.00000000E+00
  0.00000000E+00  0.00000000E+00  0.00000000E+00
  0.00000000E+00  0.00000000E+00  0.00000000E+00
  0.00000000E+00  0.00000000E+00  0.00000000E+00
  0.00000000E+00  0.00000000E+00  0.00000000E+00
  0.00000000E+00  0.00000000E+00  0.00000000E+00
  0.00000000E+00  0.00000000E+00  0.00000000E+00
  0.00000000E+00  0.00000000E+00  0.00000000E+00
  0.00000000E+00  0.00000000E+00  0.00000000E+00
  0.00000000E+00  0.00000000E+00  0.00000000E+00
  0.00000000E+00  0.00000000E+00  0.00000000E+00
  0.00000000E+00  0.00000000E+00  0.00000000E+00
  0.00000000E+00  0.00000000E+00  0.00000000E+00
  0.00000000E+00  0.00000000E+00  0.00000000E+00
  0.00000000E+00  0.00000000E+00  0.00000000E+00
  0.00000000E+00  0.00000000E+00  0.00000000E+00
  0.00000000E+00  0.00000000E+00  0.00000000E+00
  0.00000000E+00  0.00000000E+00  0.00000000E+00
  0.00000000E+00  0.00000000E+00  0.00000000E+00
  0.00000000E+00  0.00000000E+00  0.00000000E+00
  0.00000000E+00  0.00000000E+00  0.00000000E+00
  0.00000000E+00  0.00000000E+00  0.00000000E+00
  0.00000000E+00  0.00000000E+00  0.00000000E+00
  0.00000000E+00  0.00000000E+00  0.00000000E+00
  0.00000000E+00  0.00000000E+00  0.00000000E+00
  0.00000000E+00  0.00000000E+00  0.00000000E+00
  0.00000000E+00  0.00000000E+00  0.00000000E+00
  0.00000000E+00  0.00000000E+00  0.00000000E+00
  0.00000000E+00  0.00000000E+00  0.00000000E+00
  0.00000000E+00  0.00000000E+00  0.00000000E+00
  0.00000000E+00  0.00000000E+00  0.00000000E+00
  0.00000000E+00  0.00000000E+00  0.00000000E+00
  0.00000000E+00  0.00000000E+00  0.00000000E+00
  0.00000000E+00  0.00000000E+00  0.00000000E+00
  0.00000000E+00  0.00000000E+00  0.00000000E+00
  0.00000000E+00  0.00000000E+00  0.00000000E+00
  0.00000000E+00  0.00000000E+00  0.00000000E+00
  0.00000000E+00  0.00000000E+00  0.00000000E+00
  0.00000000E+00  0.00000000E+00  0.00000000E+00
  0.00000000E+00  0.00000000E+00  0.00000000E+00
  0.00000000E+00  0.00000000E+00  0.00000000E+00
  0.00000000E+00  0.00000000E+00  0.00000000E+00
  0.00000000E+00  0.00000000E+00  0.00000000E+00
  0.00000000E+00  0.00000000E+00  0.00000000E+00
  0.00000000E+00  0.00000000E+00  0.00000000E+00
  0.00000000E+00  0.00000000E+00  0.00000000E+00
  0.00000000E+00  0.00000000E+00  0.00000000E+00
  0.00000000E+00  0.00000000E+00  0.00000000E+00
  0.00000000E+00  0.00000000E+00  0.00000000E+00
  0.00000000E+00  0.00000000E+00  0.00000000E+00
  0.00000000E+00  0.00000000E+00  0.00000000E+00
  0.00000000E+00  0.00000000E+00  0.00000000E+00
  0.00000000E+00  0.00000000E+00  0.00000000E+00
  0.00000000E+00  0.00000000E+00  0.00000000E+00
  0.00000000E+00  0.00000000E+00  0.00000000E+00
  0.00000000E+00  0.00000000E+00  0.00000000E+00
  0.00000000E+00  0.00000000E+00  0.00000000E+00
  0.00000000E+00  0.00000000E+00  0.00000000E+00
  0.00000000E+00  0.00000000E+00  0.00000000E+00
  0.00000000E+00  0.00000000E+00  0.00000000E+00
  0.00000000E+00  0.00000000E+00  0.00000000E+00
  0.00000000E+00  0.00000000E+00  0.00000000E+00
  0.00000000E+00  0.00000000E+00  0.00000000E+00
  0.00000000E+00  0.00000000E+00  0.00000000E+00
  0.00000000E+00  0.00000000E+00  0.00000000E+00
  0.00000000E+00  0.00000000E+00  0.00000000E+00
  0.00000000E+00  0.00000000E+00  0.00000000E+00
  0.00000000E+00  0.00000000E+00  0.00000000E+00
  0.00000000E+00  0.00000000E+00  0.00000000E+00
  0.00000000E+00  0.00000000E+00  0.00000000E+00
  0.00000000E+00  0.00000000E+00  0.00000000E+00
  0.00000000E+00  0.00000000E+00  0.00000000E+00
  0.00000000E+00  0.00000000E+00  0.00000000E+00
  0.00000000E+00  0.00000000E+00  0.00000000E+00
  0.00000000E+00  0.00000000E+00  0.00000000E+00
  0.00000000E+00  0.00000000E+00  0.00000000E+00
  0.00000000E+00  0.00000000E+00  0.00000000E+00
  0.00000000E+00  0.00000000E+00  0.00000000E+00
  0.00000000E+00  0.00000000E+00  0.00000000E+00
  0.00000000E+00  0.00000000E+00  0.00000000E+00
  0.00000000E+00  0.00000000E+00  0.00000000E+00
  0.00000000E+00  0.00000000E+00  0.00000000E+00
  0.00000000E+00  0.00000000E+00  0.00000000E+00
  0.00000000E+00  0.00000000E+00  0.00000000E+00
  0.00000000E+00  0.00000000E+00  0.00000000E+00
  0.00000000E+00  0.00000000E+00  0.00000000E+00
  0.00000000E+00  0.00000000E+00  0.00000000E+00
  0.00000000E+00  0.00000000E+00  0.00000000E+00
  0.00000000E+00  0.00000000E+00  0.00000000E+00
  0.00000000E+00  0.00000000E+00  0.00000000E+00
  0.00000000E+00  0.00000000E+00  0.00000000E+00
  0.00000000E+00  0.00000000E+00  0.00000000E+00
  0.00000000E+00  0.00000000E+00  0.00000000E+00
  0.00000000E+00  0.00000000E+00  0.00000000E+00
  0.00000000E+00  0.00000000E+00  0.00000000E+00
  0.00000000E+00  0.00000000E+00  0.00000000E+00
  0.00000000E+00  0.00000000E+00  0.00000000E+00
  0.00000000E+00  0.00000000E+00  0.00000000E+00
  0.00000000E+00  0.00000000E+00  0.00000000E+00
  0.00000000E+00  0.00000000E+00  0.00000000E+00
  0.00000000E+00  0.00000000E+00  0.00000000E+00
  0.00000000E+00  0.00000000E+00  0.00000000E+00
  0.00000000E+00  0.00000000E+00  0.00000000E+00
  0.00000000E+00  0.00000000E+00  0.00000000E+00
  0.00000000E+00  0.00000000E+00  0.00000000E+00
  0.00000000E+00  0.00000000E+00  0.00000000E+00
  0.00000000E+00  0.00000000E+00  0.00000000E+00
  0.00000000E+00  0.00000000E+00  0.00000000E+00
  0.00000000E+00  0.00000000E+00  0.00000000E+00
  0.00000000E+00  0.00000000E+00  0.00000000E+00
  0.00000000E+00  0.00000000E+00  0.00000000E+00
  0.00000000E+00  0.00000000E+00  0.00000000E+00
  0.00000000E+00  0.00000000E+00  0.00000000E+00
  0.00000000E+00  0.00000000E+00  0.00000000E+00
  0.00000000E+00  0.00000000E+00  0.00000000E+00
  0.00000000E+00  0.00000000E+00  0.00000000E+00
  0.00000000E+00  0.00000000E+00  0.00000000E+00
  0.00000000E+00  0.00000000E+00  0.00000000E+00
  0.00000000E+00  0.00000000E+00  0.00000000E+00
  0.00000000E+00  0.00000000E+00  0.00000000E+00
  0.00000000E+00  0.00000000E+00  0.00000000E+00
  0.00000000E+00  0.00000000E+00  0.00000000E+00
  0.00000000E+00  0.00000000E+00  0.00000000E+00
  0.00000000E+00  0.00000000E+00  0.00000000E+00
  0.00000000E+00  0.00000000E+00  0.00000000E+00
  0.00000000E+00  0.00000000E+00  0.00000000E+00
  0.00000000E+00  0.00000000E+00  0.00000000E+00
  0.00000000E+00  0.00000000E+00  0.00000000E+00
  0.00000000E+00  0.00000000E+00  0.00000000E+00
  0.00000000E+00  0.00000000E+00  0.00000000E+00
  0.00000000E+00  0.00000000E+00  0.00000000E+00
  0.00000000E+00  0.00000000E+00  0.00000000E+00
  0.00000000E+00  0.00000000E+00  0.00000000E+00
  0.00000000E+00  0.00000000E+00  0.00000000E+00
  0.00000000E+00  0.00000000E+00  0.00000000E+00
  0.00000000E+00  0.00000000E+00  0.00000000E+00
  0.00000000E+00  0.00000000E+00  0.00000000E+00
  0.00000000E+00  0.00000000E+00  0.00000000E+00
  0.00000000E+00  0.00000000E+00  0.00000000E+00
  0.00000000E+00  0.00000000E+00  0.00000000E+00
  0.00000000E+00  0.00000000E+00  0.00000000E+00
  0.00000000E+00  0.00000000E+00  0.00000000E+00
  0.00000000E+00  0.00000000E+00  0.00000000E+00