Amorphous Sb                            
   1.00000000000000     
    19.9678869700586894    0.0000000000000000    0.0000000000000000
     0.0000000000000000   19.9678869700586894    0.0000000000000000
     0.0000000000000000    0.0000000000000000   19.9678869700586894
   Ge   Se
   150   150
Direct
  0.6070231700981310  0.7453185001629024  0.8731554656668834
  0.3318054473691419  0.6429943572793633  0.7937979879063590
  0.4018415098507688  0.2971867149595226  0.5083197513536746
  0.7849228980273537  0.9688954426407150  0.5763729736148306
  0.8958210867622824  0.3885118581380738  0.7239481276571169
  0.1244246564181637  0.8177935572607922  0.9708510437280324
  0.0413166857914291  0.0083369046444730  0.3892557391501441
  0.4792056306385390  0.6130570397862485  0.6990440524129085
  0.3952946423428827  0.7649194851913350  0.2148363018293011
  0.2909807572916847  0.1539293312590644  0.4494305662221691
  0.1197273805450365  0.8069249987366689  0.4589565514550458
  0.9756682363153857  0.2939578373931084  0.7715979393410919
  0.6907532717880542  0.2732524829523726  0.5843051169915370
  0.2229264559911073  0.0992633005802190  0.8474997806492084
  0.7697327710505562  0.0751230336088469  0.3553935954224272
  0.8707821526321311  0.6627106499141178  0.3196163097590983
  0.0594932435555364  0.6494303691726202  0.3111459995100390
  0.8784914643933490  0.3367879904512847  0.3153395297435324
  0.2782935572681353  0.5251851504788334  0.9445035163802515
  0.9469721393112138  0.8420523780940243  0.3862664282279482
  0.3115830266479023  0.7589646366026344  0.0293802295646586
  0.4565749706789362  0.6856374196217914  0.9453386882573298
  0.0632122219316855  0.1939434023688591  0.9864184797659803
  0.9657737183538586  0.1451049975197876  0.1353634880932262
  0.7218053102794002  0.2829770595680969  0.1439642320067875
  0.5463009824452669  0.2830450743607642  0.5104638157342833
  0.4438516902030614  0.6478741688808398  0.5593284388818844
  0.7295543147186052  0.8966301958754528  0.0029392916967765
  0.6307457884182170  0.6339028529421782  0.5921578348703989
  0.8770976894822837  0.6990620669336067  0.4529643337676106
  0.2890397851702105  0.2341238414743358  0.8442945385119103
  0.1896380530957060  0.0590365415167184  0.2797201566957952
  0.8474245877376205  0.5037311801859090  0.4342133849654317
  0.2395502169835098  0.4594664128685793  0.2799267243007364
  0.0244313017268496  0.5555668278013570  0.5731385074400208
  0.5653186353605193  0.7307180934286350  0.1191574885335172
  0.3997464154161676  0.1940183320460847  0.0074314994050511
  0.3251487312286443  0.1984098538837173  0.1764826894893474
  0.1908014912593003  0.1799132021388345  0.0171698568963947
  0.7247813825703631  0.5401990369871257  0.7254808024110559
  0.7911545963899869  0.8950098585589856  0.3058005932122683
  0.9124659403838606  0.0490873009796999  0.6384690123547898
  0.4441890349030260  0.0390745910342289  0.6574490249051905
  0.4267857087769258  0.1345091224781285  0.3189648055311238
  0.2445327936414188  0.7006847308050794  0.2384289248604290
  0.3670068146112300  0.5200859203845525  0.3134743263403266
  0.8842821148161235  0.6632411234021234  0.0861429458703071
  0.1290649466787812  0.1755228885807156  0.4471796088011075
  0.8411448937883392  0.7573825761870623  0.8037433172146322
  0.6091009940419596  0.1212603671602750  0.2161409409392334
  0.1044379933766990  0.6004117106264815  0.7332480326064754
  0.1539748692500709  0.2596164626700030  0.1581068314134413
  0.5822312399272676  0.9088125484984957  0.7203331017497305
  0.5630718863413477  0.4006733440535442  0.7948568239536939
  0.7221299805414532  0.5778187110501705  0.4310209952978994
  0.0914874938458397  0.9714688270003293  0.1690150184474675
  0.1153181988183931  0.6271144252164547  0.5097995025799946
  0.0003781581116016  0.3644622923610612  0.5718317177892871
  0.2775072604525306  0.1538298114694072  0.6535608544572113
  0.6010698710433005  0.5354567181769241  0.2034906882762471
  0.6969281938944007  0.9850885627990920  0.2026590634661858
  0.4500891838889203  0.5682323631660608  0.1185277309054200
  0.8068402842075599  0.6529611710546277  0.1964490702337685
  0.8033304922407325  0.1462123856685196  0.6809671622108837
  0.5096970833863423  0.0198363953398442  0.1452622612774022
  0.9934875109530878  0.4121944812601654  0.0551384313468688
  0.9032003968634328  0.8158496475825530  0.5370930844868624
  0.7850818226546394  0.7083139929858220  0.9367501098792061
  0.8037241061402796  0.1342582964018035  0.1018791160147643
  0.8676326133215113  0.2993975426768714  0.9627331491868745
  0.3507316860231668  0.3643405050888546  0.6980473018940572
  0.4022050511507800  0.3251139192998806  0.3316576026247162
  0.2638036296542126  0.5577110131946128  0.4026993377427246
  0.5636387852014479  0.9924127443404487  0.4017356736170612
  0.5341742515133774  0.3036238323362639  0.6741662205784209
  0.6261883084138660  0.0368903276992967  0.0521737373837396
  0.1822830029854998  0.3073598280802941  0.3565931792168797
  0.8879723660791186  0.7959121252297194  0.9411634717643338
  0.1103473564928308  0.8457795908960719  0.8274441670543595
  0.2864139590445873  0.3484631343736453  0.1424320050474606
  0.5499755830766304  0.8730294863022436  0.0146272916118448
  0.1223314606832275  0.5185206786709173  0.0082421093447564
  0.7646828427786474  0.4614486404816631  0.0852120862385846
  0.5854270090155111  0.5505388254536001  0.4339415506926585
  0.2558307530849788  0.9625577431653696  0.5853241250219696
  0.6505985226138264  0.1349789308277423  0.9740902406606509
  0.5788702127755769  0.7613720222576106  0.7178740451916781
  0.9153606180433513  0.2754637641094035  0.5954597183416652
  0.6293741958334564  0.6417828929460612  0.0506262672453914
  0.5877397342319099  0.3161182445938024  0.2857749466844979
  0.5522000973164722  0.2011161178314467  0.9294764370281925
  0.1143649015323476  0.0440839910147446  0.5920449170930695
  0.4730174063101416  0.5743732550722385  0.3710999608117262
  0.8709823604148710  0.2128036550099850  0.4981896003204014
  0.6551445652484631  0.8314194079097135  0.5625231977682574
  0.4823029608469369  0.8838135195038319  0.5193825515259221
  0.2746884446173041  0.9350853994648318  0.9469324368546523
  0.2746499880370052  0.5563159946968810  0.6375705312329885
  0.2226939473800016  0.7037317004931083  0.5201720503197151
  0.2883637132599404  0.2474714740365087  0.9733308757789843
  0.1032419906796420  0.3861341683797477  0.1982980275630837
  0.6572655012170756  0.3280238561975395  0.9567749643561214
  0.1056700576991645  0.5832948778042777  0.1381922668361923
  0.9167586189689274  0.9936358158478029  0.2176188572342070
  0.4040218909826976  0.8747906042035467  0.7350445898009568
  0.6272025868613298  0.8443245269841313  0.1147553508817154
  0.0737430696550661  0.3153951859250199  0.9345735980144170
  0.0368956764381920  0.7390122075896812  0.2305315443140898
  0.6728185181508763  0.1718107381721623  0.7866207990218115
  0.7779958514198313  0.9039473514959084  0.6973564110697552
  0.9531499672403996  0.8823626752702296  0.7098836764036349
  0.9732868053476622  0.8522143152555017  0.0535676834580059
  0.3173671565268634  0.8047182550955085  0.5274151967775254
  0.9348456743515854  0.1221506015432468  0.4311161392917384
  0.6746595282916843  0.7450332002319797  0.3080805401169471
  0.5897218189845290  0.7476482767072881  0.4913922261035850
  0.4339689324104725  0.4242949701639134  0.2535126988181347
  0.8069709688634248  0.6437519292354139  0.5998292285394697
  0.1900006902473450  0.2524245141870409  0.5944684787363101
  0.0043421329025506  0.0403218605432869  0.8519427216360214
  0.7002545818452859  0.4502552538918394  0.3648830205533997
  0.0036922540667632  0.1980590001756752  0.2752216009538699
  0.9880060639947246  0.5587143013813716  0.8938100493244434
  0.9754734425819578  0.0400379729958402  0.9867388390098313
  0.1969886712917344  0.4455405991809016  0.5249911000481475
  0.3232649523814786  0.7042066877341355  0.6794771469204122
  0.3482306163143249  0.7598194736715982  0.4086757132596688
  0.3481793226148753  0.9713154973618714  0.7996100794660066
  0.1821846548011834  0.2579630082926769  0.7744770974512889
  0.2265698070934761  0.9686274912032289  0.0627756746867547
  0.4860510937764246  0.6047140046154524  0.2447604668610168
  0.7611732571548870  0.6322799897210061  0.0391098888442514
  0.4114512756988660  0.2038618738373330  0.8028339566626812
  0.4698463444996577  0.3953173604057838  0.9681736758689468
  0.9853445490899162  0.7163936171493290  0.8049742882126125
  0.1654641927209681  0.7822185012961995  0.0946241036035644
  0.3194857348576576  0.3563410523096451  0.8682890293681922
  0.6670970923233241  0.1451518933241118  0.4120583774658257
  0.3382043501650855  0.9577941822173841  0.3303816854693906
  0.2244587346391995  0.8325757488579271  0.6478167221502318
  0.8717268797207467  0.3295662651112252  0.4389835301316154
  0.7396058670923793  0.4551118514612043  0.8484032579867247
  0.0405392285623520  0.9114031610905187  0.6176383012114073
  0.0944483287034714  0.1656627196968756  0.7266368531712857
  0.4917626704164633  0.0978617933887591  0.5289009068783059
  0.4085994785685543  0.4316762523373612  0.4932910611086854
  0.1337943085130391  0.6701207153559139  0.9192071610996422
  0.4396818326240819  0.8824332366861398  0.1708429020297118
  0.3850094540140603  0.5330057664864967  0.8225475599481555
  0.8925421657591386  0.5026963837227854  0.1890110010166808
  0.9026024325209647  0.1144861064698546  0.8373421608334937
  0.8933651516727963  0.9530503817213400  0.3428205954914603
  0.9671052624476104  0.5746530702769235  0.3167753512989293
  0.9994403792398430  0.4391852039259234  0.6669090516730378
  0.2463629167431236  0.8123086657517362  0.9290967142464410
  0.0662648682204292  0.8787024290790626  0.3667783027046951
  0.3930166987687542  0.4134151839366993  0.1380410944213963
  0.6572720230573097  0.0871187834681493  0.6969977871430544
  0.7293982976931872  0.2119220692262047  0.0306087700147160
  0.2631243199829001  0.9016378261691997  0.4744672511634747
  0.7899893036924084  0.7866321854491076  0.3552302705163726
  0.6824803666793997  0.9834320418131597  0.7542208480168568
  0.6943042809024504  0.7821410118638070  0.6694580280396849
  0.3011482000093721  0.6033950180066938  0.5198486267944205
  0.7392827666887953  0.5372214647461178  0.1796945079622887
  0.4485459567573642  0.1331323389231969  0.9081380363470828
  0.3981066411047109  0.1188179344646585  0.1008438643111589
  0.4496931524296244  0.9984161760337571  0.4612534410321061
  0.8773846946797903  0.9769363910456050  0.7417352982749463
  0.7341019878781054  0.1070531227348255  0.2377673109897600
  0.6214047416388908  0.9561240766626042  0.9520753788849206
  0.5777594326079196  0.2442106061049927  0.8177311385332047
  0.2049695755157614  0.1436327037264320  0.1321034194030730
  0.1285960005901003  0.3532292769223346  0.8323717633206300
  0.2853848363030878  0.3353729398592478  0.2753313672476025
  0.4715654345512448  0.4937223935237611  0.7487646526495624
  0.2267968709330432  0.6759146075966882  0.0797540836904602
  0.3006364132564627  0.1340951626082685  0.2869691241358083
  0.4477624339466573  0.6922940652995564  0.7954717856399967
  0.3922589793579405  0.9879895011777151  0.2103342150137379
  0.5813795711484957  0.2034998851409213  0.6084766153477901
  0.3110552851710509  0.3686732150320537  0.9908662341709444
  0.9262590184493220  0.7732460832026149  0.2744121537034232
  0.4500211373097329  0.9350219193652904  0.0561961016563401
  0.1238780965413468  0.4160518007106901  0.3198430648867188
  0.1163471051283409  0.5450649049883864  0.8817209587776418
  0.7665142194557149  0.3367178039520056  0.8883833541826220
  0.1855448120415772  0.0805531267812896  0.6962074014363111
  0.4430172477949270  0.2385583200537766  0.2505445966631044
  0.7075451558717560  0.3625325872753962  0.2698969539381437
  0.5741419375683705  0.5338696174201942  0.0796280968795315
  0.2795142160917763  0.4665802344922909  0.8241834248708173
  0.1996252243255867  0.7039642847246483  0.6469310980436589
  0.0643096358501865  0.1509505889443119  0.5531599802315768
  0.3891395480520785  0.9636105814408680  0.9121200685979716
  0.5019212648697007  0.9961341818898504  0.7590438454770734
  0.7285331146489469  0.5419713242658730  0.5978574904108882
  0.2284978210043036  0.9401083322968375  0.2799229333385753
  0.9584404067008663  0.4159832733019897  0.4664615839636284
  0.5632253670989371  0.8538280673655976  0.4262967260536570
  0.7428470706606518  0.2493702602001449  0.7272242470985262
  0.2441699488713596  0.7112427845015858  0.3679361107922787
  0.7205620578159397  0.1105931759300631  0.8783983665574766
  0.1581232131700929  0.0550868934648676  0.4086083273091532
  0.7145933618964762  0.7334320730573438  0.1875283036722877
  0.7049339441495590  0.6225235813008396  0.3179507245946027
  0.0519899806997017  0.6989189863979774  0.4237869674489403
  0.1173592427215553  0.9360145371946089  0.0069033651986885
  0.9633916756922645  0.3738791194655775  0.9142773216840467
  0.9079262440350320  0.9524290901439016  0.5479446673710981
  0.2698586839945847  0.8505885439091401  0.1128299121846652
  0.7611751331539338  0.6654805713628065  0.8241135126730512
  0.0292850460909548  0.7949228469352860  0.5546779492726230
  0.4113658334251937  0.2714802069373974  0.6327256672458361
  0.6776124431926718  0.4222407415518461  0.7383239579997749
  0.2742314839585944  0.2716338879586999  0.4991240722600381
  0.0510980851142264  0.0645546722538555  0.0850617446079056
  0.7496948993231243  0.0246665090730360  0.0672704850813020
  0.7797240054844181  0.5239140449917272  0.9842212871890226
  0.0358927977624006  0.0410710695750467  0.2664504571518194
  0.5856733468539872  0.4283343970753535  0.4119297370885562
  0.5514827735252368  0.4145637556751467  0.2079953681389597
  0.4505351397679576  0.6849908863411613  0.4252612204950097
  0.5231239123472236  0.7245843973828769  0.2385709983958009
  0.3967177904085233  0.8352810772953561  0.3241504197765366
  0.9854196831610977  0.8574479150069791  0.8274327134529642
  0.6837560880255751  0.7775751981232872  0.9703330024459547
  0.4531756342864668  0.6936146536445165  0.0781729816570760
  0.9854009634616432  0.6820996082087873  0.9272273041402030
  0.9045154687712511  0.1400269472824078  0.0195413630624088
  0.8173273872580324  0.9077088114824079  0.9059525380615625
  0.5582294871289974  0.9069894576585114  0.2022508517886976
  0.8006807587513265  0.9115560793405706  0.1878588158215848
  0.1206282410272692  0.7180919351136978  0.8007042526887815
  0.7717975149279326  0.4002614952644095  0.4631561302062011
  0.4401053394047167  0.3455327472791510  0.8542987239469042
  0.9896610664549499  0.8956741718118266  0.1763943107321992
  0.3574221586855515  0.6139048495728403  0.2260866199508200
  0.1338584747808369  0.2219437720874495  0.2761184337156948
  0.8516716078632740  0.4542130938930597  0.3008115309630952
  0.8713928603455230  0.1543909747004690  0.3260156481741845
  0.5119707113247927  0.7536830673471755  0.5959621272039684
  0.6901903673384524  0.9507232317370296  0.3318246254738852
  0.5039429439434784  0.8113991178778690  0.9184260145331180
  0.1417567870232688  0.7998995577495123  0.2186010680643093
  0.0141936939818521  0.2160701427419625  0.4030723205066451
  0.7550938250987187  0.8749775514590468  0.5068647268489741
  0.2239948959144797  0.3374637458660814  0.6843025629374040
  0.8431136927427474  0.4868112376005698  0.7752604171110491
  0.1245925847504523  0.3921442780312887  0.0190467757804740
  0.6023570010463786  0.6275541308007604  0.7183679106327929
  0.9908808124617465  0.5355410171374047  0.0191162372972897
  0.6045223017808183  0.2439145875673248  0.1776476127064726
  0.5035823252951701  0.2691094182443123  0.0183223895437976
  0.8599778209086324  0.7881270788807484  0.0730578415208853
  0.5709444749708084  0.1275908977915563  0.3348553612370324
  0.2735020525448846  0.6480326220104971  0.9040216130185712
  0.5790772581264534  0.3775395437064688  0.5838806128334468
  0.3597131973450018  0.0903023775788228  0.7429592212617706
  0.5358757971405410  0.5548256562973037  0.5518188146463316
  0.1306428436723976  0.8891471269787559  0.7071165866090894
  0.0967685106246776  0.1323740767058936  0.8534374673421752
  0.1401029313619730  0.5283200024451986  0.4384357097151934
  0.8978248978225736  0.9508007824658335  0.0237671088385980
  0.3452944894910885  0.4512849984004603  0.6045872439605731
  0.6574368018316292  0.2644543091105618  0.4487396142719362
  0.2933822922438978  0.8089379200741220  0.7495511336407503
  0.7548537237993571  0.6896328623566603  0.4907748482803029
  0.9677294028911163  0.3167449214691374  0.2408768412239581
  0.0234165561339950  0.4828557378011595  0.1718933968001934
  0.1121140196257642  0.3396490160973826  0.5267019039971785
  0.2570821156760346  0.0903075011836876  0.9677227196936755
  0.9323747417705235  0.2265482565489307  0.8727776695597740
  0.0362248102031657  0.2491968095182315  0.1013316090429086
  0.6188853539553918  0.0657483035588839  0.4959503068065345
  0.5760733574714294  0.6353464971579754  0.9358662098507793
  0.2242081253533001  0.9691078410438294  0.8365513634526422
  0.5919738608728622  0.4325352287030455  0.9155361232103658
  0.7708947407648523  0.1664890295926469  0.5557045421344924
  0.5853284549446229  0.9324285893919324  0.5942534289440999
  0.1598936290449942  0.5994250761212214  0.2593153330194653
  0.1572420251783058  0.5122787562653599  0.6288329391592811
  0.8720717859883678  0.7954327843080335  0.6722688460797812
  0.4095892145080384  0.5295496534451303  0.9417101572106645
  0.0218693516776582  0.6846202647196193  0.1244402647623630
  0.7518090524600893  0.8520476041347962  0.8134380147813047
  0.8294125204100453  0.3563471425712663  0.6258581679287971
  0.3801214626010960  0.9311761110802621  0.6249098848404415
  0.3064025517960403  0.4347926200141927  0.4234856641974787
  0.0155045585215774  0.6512857214289269  0.6562422525290614
  0.9284912722596488  0.2034430042496638  0.6907153577689442
  0.7789933765068184  0.2649150889859300  0.3010635764376843
  0.8610408911467005  0.3975775423764532  0.1187130650918604
  0.2079404923255908  0.4544041149182121  0.1567731140216608
  0.4198057233910717  0.1829560940087731  0.4417764074039425
  0.9016508021839797  0.5938672433265566  0.5244529292065536
  0.0269869268812286  0.0360637068203502  0.6874793447116900
  0.9792792790597531  0.5847042393192083  0.7585415160603048
  0.6701996007291271  0.3832777792601121  0.0758240270997845
  0.3112877313147351  0.0816041937944973  0.5574387014690814
 
  0.00000000E+00  0.00000000E+00  0.00000000E+00
  0.00000000E+00  0.00000000E+00  0.00000000E+00
  0.00000000E+00  0.00000000E+00  0.00000000E+00
  0.00000000E+00  0.00000000E+00  0.00000000E+00
  0.00000000E+00  0.00000000E+00  0.00000000E+00
  0.00000000E+00  0.00000000E+00  0.00000000E+00
  0.00000000E+00  0.00000000E+00  0.00000000E+00
  0.00000000E+00  0.00000000E+00  0.00000000E+00
  0.00000000E+00  0.00000000E+00  0.00000000E+00
  0.00000000E+00  0.00000000E+00  0.00000000E+00
  0.00000000E+00  0.00000000E+00  0.00000000E+00
  0.00000000E+00  0.00000000E+00  0.00000000E+00
  0.00000000E+00  0.00000000E+00  0.00000000E+00
  0.00000000E+00  0.00000000E+00  0.00000000E+00
  0.00000000E+00  0.00000000E+00  0.00000000E+00
  0.00000000E+00  0.00000000E+00  0.00000000E+00
  0.00000000E+00  0.00000000E+00  0.00000000E+00
  0.00000000E+00  0.00000000E+00  0.00000000E+00
  0.00000000E+00  0.00000000E+00  0.00000000E+00
  0.00000000E+00  0.00000000E+00  0.00000000E+00
  0.00000000E+00  0.00000000E+00  0.00000000E+00
  0.00000000E+00  0.00000000E+00  0.00000000E+00
  0.00000000E+00  0.00000000E+00  0.00000000E+00
  0.00000000E+00  0.00000000E+00  0.00000000E+00
  0.00000000E+00  0.00000000E+00  0.00000000E+00
  0.00000000E+00  0.00000000E+00  0.00000000E+00
  0.00000000E+00  0.00000000E+00  0.00000000E+00
  0.00000000E+00  0.00000000E+00  0.00000000E+00
  0.00000000E+00  0.00000000E+00  0.00000000E+00
  0.00000000E+00  0.00000000E+00  0.00000000E+00
  0.00000000E+00  0.00000000E+00  0.00000000E+00
  0.00000000E+00  0.00000000E+00  0.00000000E+00
  0.00000000E+00  0.00000000E+00  0.00000000E+00
  0.00000000E+00  0.00000000E+00  0.00000000E+00
  0.00000000E+00  0.00000000E+00  0.00000000E+00
  0.00000000E+00  0.00000000E+00  0.00000000E+00
  0.00000000E+00  0.00000000E+00  0.00000000E+00
  0.00000000E+00  0.00000000E+00  0.00000000E+00
  0.00000000E+00  0.00000000E+00  0.00000000E+00
  0.00000000E+00  0.00000000E+00  0.00000000E+00
  0.00000000E+00  0.00000000E+00  0.00000000E+00
  0.00000000E+00  0.00000000E+00  0.00000000E+00
  0.00000000E+00  0.00000000E+00  0.00000000E+00
  0.00000000E+00  0.00000000E+00  0.00000000E+00
  0.00000000E+00  0.00000000E+00  0.00000000E+00
  0.00000000E+00  0.00000000E+00  0.00000000E+00
  0.00000000E+00  0.00000000E+00  0.00000000E+00
  0.00000000E+00  0.00000000E+00  0.00000000E+00
  0.00000000E+00  0.00000000E+00  0.00000000E+00
  0.00000000E+00  0.00000000E+00  0.00000000E+00
  0.00000000E+00  0.00000000E+00  0.00000000E+00
  0.00000000E+00  0.00000000E+00  0.00000000E+00
  0.00000000E+00  0.00000000E+00  0.00000000E+00
  0.00000000E+00  0.00000000E+00  0.00000000E+00
  0.00000000E+00  0.00000000E+00  0.00000000E+00
  0.00000000E+00  0.00000000E+00  0.00000000E+00
  0.00000000E+00  0.00000000E+00  0.00000000E+00
  0.00000000E+00  0.00000000E+00  0.00000000E+00
  0.00000000E+00  0.00000000E+00  0.00000000E+00
  0.00000000E+00  0.00000000E+00  0.00000000E+00
  0.00000000E+00  0.00000000E+00  0.00000000E+00
  0.00000000E+00  0.00000000E+00  0.00000000E+00
  0.00000000E+00  0.00000000E+00  0.00000000E+00
  0.00000000E+00  0.00000000E+00  0.00000000E+00
  0.00000000E+00  0.00000000E+00  0.00000000E+00
  0.00000000E+00  0.00000000E+00  0.00000000E+00
  0.00000000E+00  0.00000000E+00  0.00000000E+00
  0.00000000E+00  0.00000000E+00  0.00000000E+00
  0.00000000E+00  0.00000000E+00  0.00000000E+00
  0.00000000E+00  0.00000000E+00  0.00000000E+00
  0.00000000E+00  0.00000000E+00  0.00000000E+00
  0.00000000E+00  0.00000000E+00  0.00000000E+00
  0.00000000E+00  0.00000000E+00  0.00000000E+00
  0.00000000E+00  0.00000000E+00  0.00000000E+00
  0.00000000E+00  0.00000000E+00  0.00000000E+00
  0.00000000E+00  0.00000000E+00  0.00000000E+00
  0.00000000E+00  0.00000000E+00  0.00000000E+00
  0.00000000E+00  0.00000000E+00  0.00000000E+00
  0.00000000E+00  0.00000000E+00  0.00000000E+00
  0.00000000E+00  0.00000000E+00  0.00000000E+00
  0.00000000E+00  0.00000000E+00  0.00000000E+00
  0.00000000E+00  0.00000000E+00  0.00000000E+00
  0.00000000E+00  0.00000000E+00  0.00000000E+00
  0.00000000E+00  0.00000000E+00  0.00000000E+00
  0.00000000E+00  0.00000000E+00  0.00000000E+00
  0.00000000E+00  0.00000000E+00  0.00000000E+00
  0.00000000E+00  0.00000000E+00  0.00000000E+00
  0.00000000E+00  0.00000000E+00  0.00000000E+00
  0.00000000E+00  0.00000000E+00  0.00000000E+00
  0.00000000E+00  0.00000000E+00  0.00000000E+00
  0.00000000E+00  0.00000000E+00  0.00000000E+00
  0.00000000E+00  0.00000000E+00  0.00000000E+00
  0.00000000E+00  0.00000000E+00  0.00000000E+00
  0.00000000E+00  0.00000000E+00  0.00000000E+00
  0.00000000E+00  0.00000000E+00  0.00000000E+00
  0.00000000E+00  0.00000000E+00  0.00000000E+00
  0.00000000E+00  0.00000000E+00  0.00000000E+00
  0.00000000E+00  0.00000000E+00  0.00000000E+00
  0.00000000E+00  0.00000000E+00  0.00000000E+00
  0.00000000E+00  0.00000000E+00  0.00000000E+00
  0.00000000E+00  0.00000000E+00  0.00000000E+00
  0.00000000E+00  0.00000000E+00  0.00000000E+00
  0.00000000E+00  0.00000000E+00  0.00000000E+00
  0.00000000E+00  0.00000000E+00  0.00000000E+00
  0.00000000E+00  0.00000000E+00  0.00000000E+00
  0.00000000E+00  0.00000000E+00  0.00000000E+00
  0.00000000E+00  0.00000000E+00  0.00000000E+00
  0.00000000E+00  0.00000000E+00  0.00000000E+00
  0.00000000E+00  0.00000000E+00  0.00000000E+00
  0.00000000E+00  0.00000000E+00  0.00000000E+00
  0.00000000E+00  0.00000000E+00  0.00000000E+00
  0.00000000E+00  0.00000000E+00  0.00000000E+00
  0.00000000E+00  0.00000000E+00  0.00000000E+00
  0.00000000E+00  0.00000000E+00  0.00000000E+00
  0.00000000E+00  0.00000000E+00  0.00000000E+00
  0.00000000E+00  0.00000000E+00  0.00000000E+00
  0.00000000E+00  0.00000000E+00  0.00000000E+00
  0.00000000E+00  0.00000000E+00  0.00000000E+00
  0.00000000E+00  0.00000000E+00  0.00000000E+00
  0.00000000E+00  0.00000000E+00  0.00000000E+00
  0.00000000E+00  0.00000000E+00  0.00000000E+00
  0.00000000E+00  0.00000000E+00  0.00000000E+00
  0.00000000E+00  0.00000000E+00  0.00000000E+00
  0.00000000E+00  0.00000000E+00  0.00000000E+00
  0.00000000E+00  0.00000000E+00  0.00000000E+00
  0.00000000E+00  0.00000000E+00  0.00000000E+00
  0.00000000E+00  0.00000000E+00  0.00000000E+00
  0.00000000E+00  0.00000000E+00  0.00000000E+00
  0.00000000E+00  0.00000000E+00  0.00000000E+00
  0.00000000E+00  0.00000000E+00  0.00000000E+00
  0.00000000E+00  0.00000000E+00  0.00000000E+00
  0.00000000E+00  0.00000000E+00  0.00000000E+00
  0.00000000E+00  0.00000000E+00  0.00000000E+00
  0.00000000E+00  0.00000000E+00  0.00000000E+00
  0.00000000E+00  0.00000000E+00  0.00000000E+00
  0.00000000E+00  0.00000000E+00  0.00000000E+00
  0.00000000E+00  0.00000000E+00  0.00000000E+00
  0.00000000E+00  0.00000000E+00  0.00000000E+00
  0.00000000E+00  0.00000000E+00  0.00000000E+00
  0.00000000E+00  0.00000000E+00  0.00000000E+00
  0.00000000E+00  0.00000000E+00  0.00000000E+00
  0.00000000E+00  0.00000000E+00  0.00000000E+00
  0.00000000E+00  0.00000000E+00  0.00000000E+00
  0.00000000E+00  0.00000000E+00  0.00000000E+00
  0.00000000E+00  0.00000000E+00  0.00000000E+00
  0.00000000E+00  0.00000000E+00  0.00000000E+00
  0.00000000E+00  0.00000000E+00  0.00000000E+00
  0.00000000E+00  0.00000000E+00  0.00000000E+00
  0.00000000E+00  0.00000000E+00  0.00000000E+00
  0.00000000E+00  0.00000000E+00  0.00000000E+00
  0.00000000E+00  0.00000000E+00  0.00000000E+00
  0.00000000E+00  0.00000000E+00  0.00000000E+00
  0.00000000E+00  0.00000000E+00  0.00000000E+00
  0.00000000E+00  0.00000000E+00  0.00000000E+00
  0.00000000E+00  0.00000000E+00  0.00000000E+00
  0.00000000E+00  0.00000000E+00  0.00000000E+00
  0.00000000E+00  0.00000000E+00  0.00000000E+00
  0.00000000E+00  0.00000000E+00  0.00000000E+00
  0.00000000E+00  0.00000000E+00  0.00000000E+00
  0.00000000E+00  0.00000000E+00  0.00000000E+00
  0.00000000E+00  0.00000000E+00  0.00000000E+00
  0.00000000E+00  0.00000000E+00  0.00000000E+00
  0.00000000E+00  0.00000000E+00  0.00000000E+00
  0.00000000E+00  0.00000000E+00  0.00000000E+00
  0.00000000E+00  0.00000000E+00  0.00000000E+00
  0.00000000E+00  0.00000000E+00  0.00000000E+00
  0.00000000E+00  0.00000000E+00  0.00000000E+00
  0.00000000E+00  0.00000000E+00  0.00000000E+00
  0.00000000E+00  0.00000000E+00  0.00000000E+00
  0.00000000E+00  0.00000000E+00  0.00000000E+00
  0.00000000E+00  0.00000000E+00  0.00000000E+00
  0.00000000E+00  0.00000000E+00  0.00000000E+00
  0.00000000E+00  0.00000000E+00  0.00000000E+00
  0.00000000E+00  0.00000000E+00  0.00000000E+00
  0.00000000E+00  0.00000000E+00  0.00000000E+00
  0.00000000E+00  0.00000000E+00  0.00000000E+00
  0.00000000E+00  0.00000000E+00  0.00000000E+00
  0.00000000E+00  0.00000000E+00  0.00000000E+00
  0.00000000E+00  0.00000000E+00  0.00000000E+00
  0.00000000E+00  0.00000000E+00  0.00000000E+00
  0.00000000E+00  0.00000000E+00  0.00000000E+00
  0.00000000E+00  0.00000000E+00  0.00000000E+00
  0.00000000E+00  0.00000000E+00  0.00000000E+00
  0.00000000E+00  0.00000000E+00  0.00000000E+00
  0.00000000E+00  0.00000000E+00  0.00000000E+00
  0.00000000E+00  0.00000000E+00  0.00000000E+00
  0.00000000E+00  0.00000000E+00  0.00000000E+00
  0.00000000E+00  0.00000000E+00  0.00000000E+00
  0.00000000E+00  0.00000000E+00  0.00000000E+00
  0.00000000E+00  0.00000000E+00  0.00000000E+00
  0.00000000E+00  0.00000000E+00  0.00000000E+00
  0.00000000E+00  0.00000000E+00  0.00000000E+00
  0.00000000E+00  0.00000000E+00  0.00000000E+00
  0.00000000E+00  0.00000000E+00  0.00000000E+00
  0.00000000E+00  0.00000000E+00  0.00000000E+00
  0.00000000E+00  0.00000000E+00  0.00000000E+00
  0.00000000E+00  0.00000000E+00  0.00000000E+00
  0.00000000E+00  0.00000000E+00  0.00000000E+00
  0.00000000E+00  0.00000000E+00  0.00000000E+00
  0.00000000E+00  0.00000000E+00  0.00000000E+00
  0.00000000E+00  0.00000000E+00  0.00000000E+00
  0.00000000E+00  0.00000000E+00  0.00000000E+00
  0.00000000E+00  0.00000000E+00  0.00000000E+00
  0.00000000E+00  0.00000000E+00  0.00000000E+00
  0.00000000E+00  0.00000000E+00  0.00000000E+00
  0.00000000E+00  0.00000000E+00  0.00000000E+00
  0.00000000E+00  0.00000000E+00  0.00000000E+00
  0.00000000E+00  0.00000000E+00  0.00000000E+00
  0.00000000E+00  0.00000000E+00  0.00000000E+00
  0.00000000E+00  0.00000000E+00  0.00000000E+00
  0.00000000E+00  0.00000000E+00  0.00000000E+00
  0.00000000E+00  0.00000000E+00  0.00000000E+00
  0.00000000E+00  0.00000000E+00  0.00000000E+00
  0.00000000E+00  0.00000000E+00  0.00000000E+00
  0.00000000E+00  0.00000000E+00  0.00000000E+00
  0.00000000E+00  0.00000000E+00  0.00000000E+00
  0.00000000E+00  0.00000000E+00  0.00000000E+00
  0.00000000E+00  0.00000000E+00  0.00000000E+00
  0.00000000E+00  0.00000000E+00  0.00000000E+00
  0.00000000E+00  0.00000000E+00  0.00000000E+00
  0.00000000E+00  0.00000000E+00  0.00000000E+00
  0.00000000E+00  0.00000000E+00  0.00000000E+00
  0.00000000E+00  0.00000000E+00  0.00000000E+00
  0.00000000E+00  0.00000000E+00  0.00000000E+00
  0.00000000E+00  0.00000000E+00  0.00000000E+00
  0.00000000E+00  0.00000000E+00  0.00000000E+00
  0.00000000E+00  0.00000000E+00  0.00000000E+00
  0.00000000E+00  0.00000000E+00  0.00000000E+00
  0.00000000E+00  0.00000000E+00  0.00000000E+00
  0.00000000E+00  0.00000000E+00  0.00000000E+00
  0.00000000E+00  0.00000000E+00  0.00000000E+00
  0.00000000E+00  0.00000000E+00  0.00000000E+00