In2O3                                   
   1.00000000000000     
     8.0816261861080374    0.0008468203956795    0.0006811358379211
     0.0008086495359755    8.0155191690351586    0.0834899568217870
     0.0007135496066710    0.0832850093788418    8.0157441563019560
   In   O 
    16    24
Direct
  0.0511248424558985  0.0011336621979012  0.0854973366652487
  0.0516892383167544  0.0035284913250848  0.5837460972278024
  0.0512512348990697  0.5031727481244559  0.0836377764124165
  0.7788812666977307  0.7510918436209408  0.3359401243504792
  0.2785804150838302  0.7206686326396010  0.8056353376630341
  0.5511973066764924  0.9708406215035410  0.5556341357307915
  0.5515060558254987  0.4712204037084078  0.0557639182510457
  0.5513971428567572  0.4731082507747502  0.5529921144206185
  0.2789100335352472  0.2206953997873100  0.3056302293432154
  0.2789975707781167  0.2234423541131321  0.8035602164107871
  0.2784572994482133  0.7233559915098198  0.3031403601678520
  0.0515787252144619  0.5010696805942416  0.5856437424616843
  0.7785948052300355  0.2530744659552653  0.3332568234430369
  0.7784480651881296  0.2511336936170778  0.8354496357512176
  0.5512870833978809  0.9731469807314070  0.0532565466666313
  0.7785697629351915  0.7533815402716613  0.8332837126590746
  0.5146583980286223  0.7188580460927909  0.9409107229627551
  0.3157512127940549  0.6088840121009014  0.5513615524351678
  0.5148232310926844  0.3591923583762693  0.8010993266973330
  0.8159448864896888  0.0053507525809096  0.4480877162170529
  0.6642752407627199  0.7172449579160869  0.5897075237938054
  0.1642968363346853  0.9671212965111664  0.3397005144044485
  0.3157071690061031  0.9687811184606474  0.6915803338861011
  0.1642064800341529  0.7571612548421314  0.0494714068681219
  0.5144331458932641  0.8588260740779674  0.3011453786615377
  0.3155913666030798  0.1087423689901996  0.0514523971874965
  0.0144011878165102  0.1158984777765255  0.8378472261710357
  0.1656906452943829  0.2575007762781141  0.5497938785206244
  0.6650718452054747  0.5074711996311052  0.2996189810235421
  0.6642085788961154  0.2173566090629677  0.0896820679920296
  0.8160168409703417  0.3654402262978564  0.5875156964069106
  0.5148077788500274  0.2186722723480656  0.4409834733350806
  0.0146158188758392  0.6154550813620148  0.3379749294008505
  0.6645263912613402  0.0074227615106821  0.7996291146380727
  0.3158946341509505  0.4688910941797744  0.1914628328837722
  0.8157587489092890  0.5054875675048152  0.9478898119788894
  0.8154463363604592  0.8656369215492461  0.0879486658211803
  0.1646000306278808  0.4671295067422108  0.8397890466381881
  0.0146186089115332  0.7555438013331823  0.6979135874907314
  0.0146748517975368  0.2553730620098307  0.1981981766742535
 
  0.00000000E+00  0.00000000E+00  0.00000000E+00
  0.00000000E+00  0.00000000E+00  0.00000000E+00
  0.00000000E+00  0.00000000E+00  0.00000000E+00
  0.00000000E+00  0.00000000E+00  0.00000000E+00
  0.00000000E+00  0.00000000E+00  0.00000000E+00
  0.00000000E+00  0.00000000E+00  0.00000000E+00
  0.00000000E+00  0.00000000E+00  0.00000000E+00
  0.00000000E+00  0.00000000E+00  0.00000000E+00
  0.00000000E+00  0.00000000E+00  0.00000000E+00
  0.00000000E+00  0.00000000E+00  0.00000000E+00
  0.00000000E+00  0.00000000E+00  0.00000000E+00
  0.00000000E+00  0.00000000E+00  0.00000000E+00
  0.00000000E+00  0.00000000E+00  0.00000000E+00
  0.00000000E+00  0.00000000E+00  0.00000000E+00
  0.00000000E+00  0.00000000E+00  0.00000000E+00
  0.00000000E+00  0.00000000E+00  0.00000000E+00
  0.00000000E+00  0.00000000E+00  0.00000000E+00
  0.00000000E+00  0.00000000E+00  0.00000000E+00
  0.00000000E+00  0.00000000E+00  0.00000000E+00
  0.00000000E+00  0.00000000E+00  0.00000000E+00
  0.00000000E+00  0.00000000E+00  0.00000000E+00
  0.00000000E+00  0.00000000E+00  0.00000000E+00
  0.00000000E+00  0.00000000E+00  0.00000000E+00
  0.00000000E+00  0.00000000E+00  0.00000000E+00
  0.00000000E+00  0.00000000E+00  0.00000000E+00
  0.00000000E+00  0.00000000E+00  0.00000000E+00
  0.00000000E+00  0.00000000E+00  0.00000000E+00
  0.00000000E+00  0.00000000E+00  0.00000000E+00
  0.00000000E+00  0.00000000E+00  0.00000000E+00
  0.00000000E+00  0.00000000E+00  0.00000000E+00
  0.00000000E+00  0.00000000E+00  0.00000000E+00
  0.00000000E+00  0.00000000E+00  0.00000000E+00
  0.00000000E+00  0.00000000E+00  0.00000000E+00
  0.00000000E+00  0.00000000E+00  0.00000000E+00
  0.00000000E+00  0.00000000E+00  0.00000000E+00
  0.00000000E+00  0.00000000E+00  0.00000000E+00
  0.00000000E+00  0.00000000E+00  0.00000000E+00
  0.00000000E+00  0.00000000E+00  0.00000000E+00
  0.00000000E+00  0.00000000E+00  0.00000000E+00
  0.00000000E+00  0.00000000E+00  0.00000000E+00
