Amorphous GeAsSeSi                      
   1.00000000000000     
    20.1891589523630657    0.0000000000000000    0.0000000000000000
     0.0000000000000000   20.1891589523630657    0.0000000000000000
     0.0000000000000000    0.0000000000000000   20.1891589523630657
   Ge   As   Se   Si
    75    75    75    75
Direct
  0.7501668920558467  0.0482497163316508  0.6692217975286735
  0.8840455668892638  0.6771475833076173  0.8079495365313042
  0.3322021563178699  0.0044751168985521  0.9364474097387001
  0.9005254882207152  0.2636464325305632  0.8554940558535321
  0.8153119109969645  0.8215516791060787  0.1143561064692725
  0.6480334985236477  0.6315404583483304  0.8040429881673444
  0.6762504349104628  0.9547080397276826  0.6239563969181674
  0.5836149577834202  0.8281630911941957  0.3840337038152421
  0.8422472192872168  0.2136087373670069  0.2076536748864458
  0.5314603916935213  0.0053443407349629  0.5391195753770296
  0.3622638115086701  0.1013208630455165  0.3776804135006998
  0.4712425711016724  0.3861014976024069  0.3158301936216006
  0.5142895292351491  0.0151526948974884  0.0512576379760364
  0.9879285506338857  0.9737579150900120  0.5661374131006781
  0.1064247238939527  0.4592558496716215  0.0949195994473349
  0.6705660279338596  0.5137330785147036  0.9257295965243166
  0.8288806414050536  0.4554176345188934  0.4658453768780112
  0.0873270314939181  0.5886120335306647  0.0710864137551509
  0.4049062402109165  0.1328277145009083  0.5911712945605037
  0.5708916720391251  0.7669838430320514  0.9391295266852409
  0.9194609553709443  0.1748175684075690  0.3475720220717115
  0.1540040040795252  0.7909985064218734  0.4652450429148149
  0.4732848972446791  0.8732930548695269  0.8038544438502263
  0.6948683873296646  0.3902921804641425  0.8312340372434137
  0.9089330443563407  0.4236879748359846  0.0927431983340823
  0.5729660096652804  0.5882000648063948  0.8952393697754648
  0.5471240447721991  0.8952923692046759  0.0791288551008578
  0.5688160882990710  0.7740786058879778  0.6072428411602585
  0.4648182409397719  0.0619609322238369  0.4472007647522934
  0.1870291013441473  0.4299790160729534  0.6416120450350384
  0.6198891639208401  0.0617168252556593  0.9038223783030125
  0.1008411636567413  0.4593575144383833  0.7830038185918025
  0.4187009119870493  0.4859562495633038  0.5844059519894392
  0.5773814855500331  0.3332553622697857  0.1437921427457312
  0.0541917373922035  0.7834014373697112  0.8247436559782593
  0.7536193723834916  0.4941228111136073  0.0195678195535902
  0.8366591735678354  0.7550457305485753  0.0097205167218415
  0.7657788388180978  0.3067339287011409  0.2518596301422432
  0.0757046865911887  0.0559304997769114  0.2293173268104809
  0.8161990623975993  0.6295858047025044  0.0241465305012531
  0.9211323161566081  0.4072964742766112  0.5365900112212751
  0.4158307938553245  0.0831828762870890  0.8838381441236765
  0.4462654308133294  0.9506478519649040  0.3413132000061857
  0.1553173619830319  0.5190806882916109  0.2054715018008758
  0.1739762713486046  0.3879446832703641  0.3025077715601747
  0.4278196074381719  0.3010737448507304  0.6327166381692146
  0.0103780060983913  0.2883416018074917  0.4309710973385823
  0.9081958699398146  0.8788095633715441  0.6029927057231819
  0.3087610386299367  0.4474410832557688  0.2294883136214345
  0.2264499357282803  0.0789697825460060  0.9327982971310983
  0.5915076375242415  0.5638862071746180  0.7095075682564588
  0.8902415158341633  0.1375024557620122  0.7689539505469285
  0.4886912905146075  0.1887827743928532  0.4814336505277840
  0.2682063419471194  0.5795325187279358  0.8481049612393914
  0.2035677374145235  0.4958961824463594  0.4945422932508735
  0.8047993227737473  0.6863598402401806  0.4836522873806104
  0.1357904785313260  0.5682100179787584  0.3916616568228203
  0.9671249477217335  0.3190634780123305  0.0416274362594473
  0.9533083175209183  0.2207858372785081  0.6965791617817169
  0.1975932945830071  0.8444048817931418  0.2120034684584953
  0.5318728116440694  0.5617775040039463  0.5895881123434820
  0.1021015097196640  0.5814855652832593  0.6510202085512494
  0.9697911473268671  0.2009194079924187  0.5521705038995637
  0.5483377212440189  0.2632383365509149  0.6548868333511845
  0.3005442994003624  0.4687194970782615  0.1088858255296987
  0.5398687542295869  0.2720606945694788  0.4059243832857643
  0.6723097807466540  0.3044053251103869  0.3503554960024262
  0.6046790040552352  0.8959174580297784  0.2663270224454364
  0.8333362191997791  0.4918286610785158  0.3481846699756206
  0.7033198565206904  0.4238009895025526  0.5856966727638213
  0.6396995364364961  0.6632990538771485  0.3141843338539511
  0.2299612485907639  0.9565682955161053  0.3055726908389889
  0.2935830511458695  0.8591682105435314  0.9724763561067554
  0.1809069519087412  0.5557707896819650  0.7528192327425175
  0.3074460682848099  0.6410204289078673  0.9913853715862743
  0.7053709880413407  0.3042258300844986  0.0239958745608720
  0.8579332824004027  0.4061773384420323  0.2596953467468218
  0.1243882889843916  0.5924061900385380  0.5291154414426185
  0.3517744129763414  0.3424623820888179  0.4421187891657490
  0.1917444956064339  0.6935510425255114  0.5519366334400889
  0.8780593150966156  0.3545261459708490  0.9439744690974533
  0.2499241888987362  0.3731923757237956  0.8753072519459357
  0.4966698099571643  0.8614196122592493  0.9663300569018727
  0.3036755688043822  0.5408578432006189  0.5622858784505357
  0.4774840278390772  0.2428727761623630  0.9480016154418169
  0.6716163188257388  0.5127719057309320  0.4438479064189990
  0.4022014014537651  0.0113631915708195  0.5610041338620806
  0.2281094152974346  0.4990112762650399  0.3120728604250684
  0.7167183596327000  0.8872301943127238  0.1487062673117760
  0.3173184550619422  0.9060323238388145  0.8564254365105802
  0.1291596377897754  0.8443824234554836  0.9076657130042308
  0.5206220792018753  0.6556019379129099  0.9866877306604894
  0.1575042336303909  0.0037608591512901  0.7858566791180354
  0.7616957154123709  0.1684347189266928  0.1185884278350428
  0.0243864203114671  0.6749185367297613  0.6841171661665141
  0.6150363393293971  0.7707618614428114  0.2368983727992769
  0.9848733448377605  0.7400121917177214  0.2818498617878483
  0.4720077886005977  0.6829817674764735  0.4642114635693680
  0.7700806742038300  0.5618659473125609  0.5070169823520022
  0.4351498363253645  0.4694511727567143  0.2315916171133537
  0.8142539948069274  0.1273342996554394  0.2981225326013534
  0.3656769337765519  0.8378067246852778  0.5441960091805940
  0.5601847109713874  0.8671525602169911  0.5065973552984182
  0.8084505983111713  0.2338457689236157  0.0242969787353813
  0.6035066439730591  0.4083518867108151  0.9154165604150621
  0.0997539865790341  0.6736923798350641  0.7818106156335926
  0.5780124138600374  0.3348753457109444  0.2695712535303693
  0.4128250946716047  0.6512503458124679  0.3602744534559443
  0.6089553782864098  0.7370213425272268  0.7443413932087795
  0.0830015128796558  0.9047446525738246  0.2102302743831957
  0.7586479069749774  0.3839254906045259  0.9472276336299980
  0.7093578808439921  0.8046264957463435  0.3841008026782374
  0.8149061763091104  0.6187296500155188  0.8959981669368472
  0.2650451694290649  0.7118195005803652  0.8407848441896356
  0.6897688150032301  0.1550385083834382  0.6469613417525526
  0.4476009468684127  0.6729694119679593  0.8296074525029189
  0.9049235983482024  0.9499192727434999  0.7110601462603381
  0.5321013268849095  0.1541188852828314  0.5898281313612892
  0.2434780798163318  0.0316520709417934  0.6981203988434295
  0.7182938268760446  0.3986655354461616  0.4609314005098426
  0.5740027936483467  0.1662290112308452  0.9612208233504601
  0.2601363156928385  0.3333763526045203  0.2299468378696169
  0.5375572787000822  0.7498265134557986  0.1384682390038181
  0.4566628725317731  0.7227465874095598  0.6561459765390885
  0.3941125604191789  0.7550286033936100  0.2947889867025582
  0.0308549104641905  0.9732599230117581  0.7568229816425487
  0.0231154245885337  0.2538688615630740  0.8879803637631390
  0.5336870013541177  0.4770594209849260  0.0434818583836631
  0.1629010634892269  0.2839823510965101  0.4897428109119398
  0.7351151170855079  0.0260023221075543  0.7913990194087108
  0.2147812272856310  0.4174078338946435  0.0393369718869741
  0.2992669201787710  0.8286316041334797  0.4388244817811719
  0.9498027720527227  0.7951184232673939  0.9799836319138212
  0.3505148249402467  0.3964204093984501  0.6403723052775300
  0.3830559471267197  0.1681747994397185  0.9718250277601670
  0.6164559172611636  0.6799744102062436  0.5299146283773307
  0.4013033404879318  0.8241494058666239  0.7109354126726040
  0.2150352026445321  0.7610254102588817  0.9431529918323933
  0.0835948487191607  0.3385607411105424  0.1320894233922235
  0.8122024945071462  0.4604798635851994  0.1572439294112117
  0.7943756103967293  0.0448792723917081  0.9758257631393789
  0.3699374540092865  0.3772129734279166  0.8467511876407452
  0.3738623283857734  0.5592789005388309  0.0598326139151016
  0.3759148097085483  0.3653016718772317  0.1209318380312754
  0.4172737216457659  0.2840468659007623  0.3533715468719891
  0.9451464427020143  0.5927287432365392  0.7366996777785134
  0.7171535906939471  0.7420662677845402  0.5664428012996194
  0.1360770340925985  0.3949041719207799  0.5344109585431562
  0.2898779597506264  0.6923960069650059  0.6816492194932749
  0.2497770647839216  0.9423158127308779  0.4330361709324491
  0.2339281568002200  0.0850900154966008  0.5253586498355604
  0.5583294517811273  0.9094608525553212  0.7155469049710732
  0.3479341622124602  0.0121880596217951  0.2909819833308095
  0.1078121837348930  0.8139086837067557  0.1354213768744292
  0.0283274378234952  0.4145382578251102  0.9798631718270534
  0.9031961870697790  0.5885490293702890  0.3318153535711005
  0.7486777785518294  0.9113718679757211  0.3382826189448804
  0.8386060716791466  0.4316004174599294  0.6316688733605240
  0.4944063215982091  0.4650018784445091  0.4051368166353777
  0.9201578556506267  0.9768856305755799  0.3127419131354205
  0.6663771807705458  0.0480379496668666  0.2093156226822862
  0.7084107674341947  0.5077731703260498  0.7049092453047817
  0.7756334372024356  0.2443888674043434  0.5139811339945476
  0.9282968230758354  0.8979287920277214  0.9218751491342577
  0.0025842332741491  0.1597928312187055  0.4391872136341962
  0.5673142361966015  0.4410408049302758  0.5753349057310083
  0.4162141888151786  0.4772780052360874  0.9055918441993567
  0.6485177713155402  0.4347085814348653  0.1800424766399131
  0.3079353250037556  0.1680397614880585  0.1465906793629167
  0.8412651761435855  0.2819002872126369  0.6955217859262954
  0.9010754043426966  0.6693186740846945  0.5637657660212906
  0.8159821069118559  0.7346112903607904  0.1994682082652233
  0.5861863705185826  0.0978346573673034  0.7614095925020279
  0.5052194487055683  0.0099391736072788  0.9264269819117160
  0.8056407608488718  0.7101632024054829  0.7223353781595466
  0.7196558009858453  0.5322834785761017  0.3342167606725889
  0.0558256199215132  0.9705358366648373  0.4634513829269959
  0.4895309763805462  0.1904473644617323  0.1349465758278609
  0.5781321305767447  0.2176617096911805  0.2976671199244529
  0.2005374484611565  0.1951136067192980  0.9876867234387081
  0.0255186175170394  0.8340080016360911  0.6252182931389133
  0.8939056381208391  0.8433620948509879  0.4276223837129197
  0.1342300625251472  0.1455682490351075  0.1547733272345457
  0.2295466803875706  0.8657601651274643  0.6373774215851343
  0.0459889046290791  0.4844415083420078  0.4149179360228026
  0.7744793791639315  0.7913475807243691  0.9071723383805106
  0.7404824846920675  0.8710364622118422  0.7086372381880995
  0.9184536895505822  0.8724044552828170  0.1504596840433117
  0.0755639458414097  0.5961430575976303  0.2721849095260361
  0.6536092230110596  0.6114409961719631  0.1185095015478913
  0.0219320595324639  0.1436652244496151  0.0041332801220386
  0.6397022307943526  0.9016991702248225  0.8701970010250337
  0.4042844702130835  0.0255996675323817  0.0996063384816710
  0.6739398505739881  0.3214014072305542  0.6523035767963201
  0.2453874048400491  0.2229388868306709  0.6393440210530696
  0.3557008318820723  0.6669430083686789  0.1071066577426596
  0.8860699560345447  0.2899880974062468  0.3879168286204293
  0.9416584353285485  0.6161425510251765  0.0315552547127557
  0.9186434412292268  0.0616773870518314  0.1413828355035745
  0.1569303968465817  0.0548934026572856  0.3195913249830699
  0.5280758547040928  0.4678679713869183  0.7510057773897307
  0.1625993782970424  0.0185723249317942  0.0172102312305907
  0.3544569427088747  0.2254732908016534  0.7941463681343686
  0.3463003576172006  0.3059879093769963  0.0190321112196006
  0.9925399804312440  0.3082588930632953  0.7799568549109361
  0.4806088990666689  0.8999841858112355  0.2284308750736373
  0.2968899134290252  0.6590531982322615  0.4047837693307884
  0.7426930660086655  0.9306538245947551  0.5222113068170096
  0.5380508658128033  0.6010196507360208  0.2720728695628256
  0.0627344317549127  0.4644423002134790  0.6618818773266714
  0.4018220665969379  0.7901318060531559  0.0007335207975374
  0.0392875709260615  0.7446102211907042  0.4709415602404085
  0.0060589503281270  0.1876044563360021  0.2601863228785756
  0.6419958535501975  0.2626235120730657  0.8237858182143872
  0.8486029467726431  0.4834684112906035  0.8062107217255741
  0.0983407912485898  0.5902554692067048  0.9423949980907094
  0.3609601756808984  0.5488120969442422  0.7560159835756157
  0.0843003002331475  0.1150855846691365  0.6355911062250227
  0.9094239360630541  0.0820318278075897  0.5683085645283570
  0.1628076146198362  0.7820371545328660  0.3303262091750419
  0.2454514145833055  0.2075492388771410  0.3600405355466594
  0.9742401410266232  0.5049794345324242  0.1555144614864318
  0.1723549859337513  0.1900293253201755  0.7857750876471371
  0.9395237184411276  0.0723983091290006  0.8620531366888528
  0.1970235165422047  0.6059630531687841  0.1282948713631529
  0.7635680932967052  0.9945457260438144  0.1724537053480203
  0.6449622172061580  0.5011413028837427  0.0833315278125981
  0.9765211516161479  0.4389726001068291  0.2475410664026711
  0.2033406492845242  0.3343134543812100  0.1239526469289684
  0.4824855456688469  0.4123969368870806  0.1332549554987731
  0.0307770497852917  0.1351215333759344  0.8881635478446129
  0.5253882946063857  0.7630505446151762  0.8244808871530939
  0.3295824222093205  0.4348118938928378  0.7500600208839099
  0.6739371149741235  0.8320823307615607  0.9562603681481882
  0.8585385317733598  0.6283339692330003  0.6600230284035550
  0.3623458068748244  0.7264917784873820  0.5843728628861041
  0.4108209897082016  0.1968309081068971  0.6964339720692142
  0.2033140362484429  0.9016181928836954  0.8320121499312989
  0.4545881416537570  0.1919741533294516  0.8417946876355640
  0.6824040824682048  0.1687795328734200  0.7642069279490292
  0.4591455912377164  0.8018099027640526  0.4752676699837930
  0.8694662701829071  0.0585406236150649  0.6755305214777244
  0.4044882332402941  0.8398831777865042  0.3780193337468587
  0.4958801053864855  0.7851220537550216  0.2428801196118425
  0.6657654261255200  0.0953617988379418  0.1046741236000776
  0.3205287861031286  0.0329438964081560  0.4696644846231780
  0.6879169926711040  0.8346011581642844  0.4975032731939344
  0.4780346683902413  0.4114108202539348  0.5049827786959755
  0.8839356135530062  0.2869138330282540  0.5069126710848338
  0.3993225079311927  0.1376395813743410  0.0849937657232309
  0.8087729061042468  0.9336780393190501  0.7848333144300621
  0.2176817468256853  0.4179875369816817  0.7739559366926854
  0.5489626000995055  0.6336138135381434  0.1641601309488396
  0.7647150611820984  0.1563459564138166  0.9364192831214695
  0.5602111416622163  0.1276392110771059  0.0718552326053260
  0.9023459899129113  0.5392078437432403  0.8946239251736370
  0.1624887183301711  0.2871148183128932  0.3705106334289355
  0.7406537555799458  0.3652639991864038  0.1476745704086695
  0.7798168973496481  0.1328854566284952  0.8206551604999960
  0.6711853377736104  0.2275815497373906  0.9337014809260624
  0.9913342291803272  0.8007915678831544  0.3859700418988937
  0.2647001870063885  0.2453219972088869  0.0749070597363509
  0.8139029288170847  0.0645941007980385  0.0924177846009384
  0.8960842417949348  0.8056162476852063  0.2410760922482359
  0.7910321188243417  0.5373622269298952  0.6245465458138355
  0.3625662465466491  0.7322657640864593  0.7715052740344629
  0.1862690017321799  0.1343521227915049  0.6860872002986453
  0.4902875971413522  0.5795952123273741  0.0779687751646777
  0.7593728719502284  0.2461935512403812  0.6262540868288039
  0.0627112731475513  0.8307873181499205  0.3015386198941045
  0.6814635350110334  0.0245236417665924  0.0105204225233472
  0.0584052536296323  0.2736968785879650  0.3172703509980360
  0.7458214754352364  0.5418729456231378  0.8272899701688686
  0.1263763034317772  0.1217318691058054  0.0466638539912189
  0.4373313105682897  0.2992148132114996  0.5124731393668196
  0.0594339978750158  0.8604149885517455  0.7308338486977735
  0.2986593988695109  0.1769250857784623  0.5471772901919841
  0.8586517831325365  0.8802373013538541  0.3250999528362842
  0.2753199046977813  0.5710360044130303  0.6772076392043300
  0.1786995759604842  0.9672488684215582  0.6143251378856093
  0.9890566415687445  0.6180433343751052  0.9251390768445420
  0.6635940462789904  0.9130505643427484  0.0434581183457234
  0.5190068041305083  0.1900156391542128  0.7468894905985591
  0.0716884575799550  0.9997547865702512  0.6481187249632305
  0.1523261388612778  0.9222308229045060  0.5049670355804614
  0.1755143070824256  0.8454481748652133  0.7343668234795062
  0.9650900705799136  0.7274514192464142  0.8836417907779636
  0.8117811157542260  0.9077723480140537  0.9037344542014616
  0.4133632824558706  0.6866501027106567  0.9434209721862127
  0.9209091843926805  0.4600416815984281  0.9793738514857748
  0.1960610909000630  0.7322304835328626  0.7474240178027479
  0.2751140027886640  0.2542478244639193  0.4608621307877400
  0.2981500228094551  0.6530225420664941  0.5180529827702732
  0.5807006665087794  0.7076842074342269  0.4177059408044457
  0.1401408447145498  0.1026575370021320  0.8517298582300222
  0.6397396948821611  0.8503054955121165  0.7654525713329227
  0.5232138676938464  0.4817694062235292  0.8642926210463198
  0.8567859564937911  0.0340116409704599  0.2358389625001713
  0.9978524835453693  0.5255466477080948  0.3208666875686443
  0.0681118570996843  0.3657430532111411  0.2463912067754140
 
  0.00000000E+00  0.00000000E+00  0.00000000E+00
  0.00000000E+00  0.00000000E+00  0.00000000E+00
  0.00000000E+00  0.00000000E+00  0.00000000E+00
  0.00000000E+00  0.00000000E+00  0.00000000E+00
  0.00000000E+00  0.00000000E+00  0.00000000E+00
  0.00000000E+00  0.00000000E+00  0.00000000E+00
  0.00000000E+00  0.00000000E+00  0.00000000E+00
  0.00000000E+00  0.00000000E+00  0.00000000E+00
  0.00000000E+00  0.00000000E+00  0.00000000E+00
  0.00000000E+00  0.00000000E+00  0.00000000E+00
  0.00000000E+00  0.00000000E+00  0.00000000E+00
  0.00000000E+00  0.00000000E+00  0.00000000E+00
  0.00000000E+00  0.00000000E+00  0.00000000E+00
  0.00000000E+00  0.00000000E+00  0.00000000E+00
  0.00000000E+00  0.00000000E+00  0.00000000E+00
  0.00000000E+00  0.00000000E+00  0.00000000E+00
  0.00000000E+00  0.00000000E+00  0.00000000E+00
  0.00000000E+00  0.00000000E+00  0.00000000E+00
  0.00000000E+00  0.00000000E+00  0.00000000E+00
  0.00000000E+00  0.00000000E+00  0.00000000E+00
  0.00000000E+00  0.00000000E+00  0.00000000E+00
  0.00000000E+00  0.00000000E+00  0.00000000E+00
  0.00000000E+00  0.00000000E+00  0.00000000E+00
  0.00000000E+00  0.00000000E+00  0.00000000E+00
  0.00000000E+00  0.00000000E+00  0.00000000E+00
  0.00000000E+00  0.00000000E+00  0.00000000E+00
  0.00000000E+00  0.00000000E+00  0.00000000E+00
  0.00000000E+00  0.00000000E+00  0.00000000E+00
  0.00000000E+00  0.00000000E+00  0.00000000E+00
  0.00000000E+00  0.00000000E+00  0.00000000E+00
  0.00000000E+00  0.00000000E+00  0.00000000E+00
  0.00000000E+00  0.00000000E+00  0.00000000E+00
  0.00000000E+00  0.00000000E+00  0.00000000E+00
  0.00000000E+00  0.00000000E+00  0.00000000E+00
  0.00000000E+00  0.00000000E+00  0.00000000E+00
  0.00000000E+00  0.00000000E+00  0.00000000E+00
  0.00000000E+00  0.00000000E+00  0.00000000E+00
  0.00000000E+00  0.00000000E+00  0.00000000E+00
  0.00000000E+00  0.00000000E+00  0.00000000E+00
  0.00000000E+00  0.00000000E+00  0.00000000E+00
  0.00000000E+00  0.00000000E+00  0.00000000E+00
  0.00000000E+00  0.00000000E+00  0.00000000E+00
  0.00000000E+00  0.00000000E+00  0.00000000E+00
  0.00000000E+00  0.00000000E+00  0.00000000E+00
  0.00000000E+00  0.00000000E+00  0.00000000E+00
  0.00000000E+00  0.00000000E+00  0.00000000E+00
  0.00000000E+00  0.00000000E+00  0.00000000E+00
  0.00000000E+00  0.00000000E+00  0.00000000E+00
  0.00000000E+00  0.00000000E+00  0.00000000E+00
  0.00000000E+00  0.00000000E+00  0.00000000E+00
  0.00000000E+00  0.00000000E+00  0.00000000E+00
  0.00000000E+00  0.00000000E+00  0.00000000E+00
  0.00000000E+00  0.00000000E+00  0.00000000E+00
  0.00000000E+00  0.00000000E+00  0.00000000E+00
  0.00000000E+00  0.00000000E+00  0.00000000E+00
  0.00000000E+00  0.00000000E+00  0.00000000E+00
  0.00000000E+00  0.00000000E+00  0.00000000E+00
  0.00000000E+00  0.00000000E+00  0.00000000E+00
  0.00000000E+00  0.00000000E+00  0.00000000E+00
  0.00000000E+00  0.00000000E+00  0.00000000E+00
  0.00000000E+00  0.00000000E+00  0.00000000E+00
  0.00000000E+00  0.00000000E+00  0.00000000E+00
  0.00000000E+00  0.00000000E+00  0.00000000E+00
  0.00000000E+00  0.00000000E+00  0.00000000E+00
  0.00000000E+00  0.00000000E+00  0.00000000E+00
  0.00000000E+00  0.00000000E+00  0.00000000E+00
  0.00000000E+00  0.00000000E+00  0.00000000E+00
  0.00000000E+00  0.00000000E+00  0.00000000E+00
  0.00000000E+00  0.00000000E+00  0.00000000E+00
  0.00000000E+00  0.00000000E+00  0.00000000E+00
  0.00000000E+00  0.00000000E+00  0.00000000E+00
  0.00000000E+00  0.00000000E+00  0.00000000E+00
  0.00000000E+00  0.00000000E+00  0.00000000E+00
  0.00000000E+00  0.00000000E+00  0.00000000E+00
  0.00000000E+00  0.00000000E+00  0.00000000E+00
  0.00000000E+00  0.00000000E+00  0.00000000E+00
  0.00000000E+00  0.00000000E+00  0.00000000E+00
  0.00000000E+00  0.00000000E+00  0.00000000E+00
  0.00000000E+00  0.00000000E+00  0.00000000E+00
  0.00000000E+00  0.00000000E+00  0.00000000E+00
  0.00000000E+00  0.00000000E+00  0.00000000E+00
  0.00000000E+00  0.00000000E+00  0.00000000E+00
  0.00000000E+00  0.00000000E+00  0.00000000E+00
  0.00000000E+00  0.00000000E+00  0.00000000E+00
  0.00000000E+00  0.00000000E+00  0.00000000E+00
  0.00000000E+00  0.00000000E+00  0.00000000E+00
  0.00000000E+00  0.00000000E+00  0.00000000E+00
  0.00000000E+00  0.00000000E+00  0.00000000E+00
  0.00000000E+00  0.00000000E+00  0.00000000E+00
  0.00000000E+00  0.00000000E+00  0.00000000E+00
  0.00000000E+00  0.00000000E+00  0.00000000E+00
  0.00000000E+00  0.00000000E+00  0.00000000E+00
  0.00000000E+00  0.00000000E+00  0.00000000E+00
  0.00000000E+00  0.00000000E+00  0.00000000E+00
  0.00000000E+00  0.00000000E+00  0.00000000E+00
  0.00000000E+00  0.00000000E+00  0.00000000E+00
  0.00000000E+00  0.00000000E+00  0.00000000E+00
  0.00000000E+00  0.00000000E+00  0.00000000E+00
  0.00000000E+00  0.00000000E+00  0.00000000E+00
  0.00000000E+00  0.00000000E+00  0.00000000E+00
  0.00000000E+00  0.00000000E+00  0.00000000E+00
  0.00000000E+00  0.00000000E+00  0.00000000E+00
  0.00000000E+00  0.00000000E+00  0.00000000E+00
  0.00000000E+00  0.00000000E+00  0.00000000E+00
  0.00000000E+00  0.00000000E+00  0.00000000E+00
  0.00000000E+00  0.00000000E+00  0.00000000E+00
  0.00000000E+00  0.00000000E+00  0.00000000E+00
  0.00000000E+00  0.00000000E+00  0.00000000E+00
  0.00000000E+00  0.00000000E+00  0.00000000E+00
  0.00000000E+00  0.00000000E+00  0.00000000E+00
  0.00000000E+00  0.00000000E+00  0.00000000E+00
  0.00000000E+00  0.00000000E+00  0.00000000E+00
  0.00000000E+00  0.00000000E+00  0.00000000E+00
  0.00000000E+00  0.00000000E+00  0.00000000E+00
  0.00000000E+00  0.00000000E+00  0.00000000E+00
  0.00000000E+00  0.00000000E+00  0.00000000E+00
  0.00000000E+00  0.00000000E+00  0.00000000E+00
  0.00000000E+00  0.00000000E+00  0.00000000E+00
  0.00000000E+00  0.00000000E+00  0.00000000E+00
  0.00000000E+00  0.00000000E+00  0.00000000E+00
  0.00000000E+00  0.00000000E+00  0.00000000E+00
  0.00000000E+00  0.00000000E+00  0.00000000E+00
  0.00000000E+00  0.00000000E+00  0.00000000E+00
  0.00000000E+00  0.00000000E+00  0.00000000E+00
  0.00000000E+00  0.00000000E+00  0.00000000E+00
  0.00000000E+00  0.00000000E+00  0.00000000E+00
  0.00000000E+00  0.00000000E+00  0.00000000E+00
  0.00000000E+00  0.00000000E+00  0.00000000E+00
  0.00000000E+00  0.00000000E+00  0.00000000E+00
  0.00000000E+00  0.00000000E+00  0.00000000E+00
  0.00000000E+00  0.00000000E+00  0.00000000E+00
  0.00000000E+00  0.00000000E+00  0.00000000E+00
  0.00000000E+00  0.00000000E+00  0.00000000E+00
  0.00000000E+00  0.00000000E+00  0.00000000E+00
  0.00000000E+00  0.00000000E+00  0.00000000E+00
  0.00000000E+00  0.00000000E+00  0.00000000E+00
  0.00000000E+00  0.00000000E+00  0.00000000E+00
  0.00000000E+00  0.00000000E+00  0.00000000E+00
  0.00000000E+00  0.00000000E+00  0.00000000E+00
  0.00000000E+00  0.00000000E+00  0.00000000E+00
  0.00000000E+00  0.00000000E+00  0.00000000E+00
  0.00000000E+00  0.00000000E+00  0.00000000E+00
  0.00000000E+00  0.00000000E+00  0.00000000E+00
  0.00000000E+00  0.00000000E+00  0.00000000E+00
  0.00000000E+00  0.00000000E+00  0.00000000E+00
  0.00000000E+00  0.00000000E+00  0.00000000E+00
  0.00000000E+00  0.00000000E+00  0.00000000E+00
  0.00000000E+00  0.00000000E+00  0.00000000E+00
  0.00000000E+00  0.00000000E+00  0.00000000E+00
  0.00000000E+00  0.00000000E+00  0.00000000E+00
  0.00000000E+00  0.00000000E+00  0.00000000E+00
  0.00000000E+00  0.00000000E+00  0.00000000E+00
  0.00000000E+00  0.00000000E+00  0.00000000E+00
  0.00000000E+00  0.00000000E+00  0.00000000E+00
  0.00000000E+00  0.00000000E+00  0.00000000E+00
  0.00000000E+00  0.00000000E+00  0.00000000E+00
  0.00000000E+00  0.00000000E+00  0.00000000E+00
  0.00000000E+00  0.00000000E+00  0.00000000E+00
  0.00000000E+00  0.00000000E+00  0.00000000E+00
  0.00000000E+00  0.00000000E+00  0.00000000E+00
  0.00000000E+00  0.00000000E+00  0.00000000E+00
  0.00000000E+00  0.00000000E+00  0.00000000E+00
  0.00000000E+00  0.00000000E+00  0.00000000E+00
  0.00000000E+00  0.00000000E+00  0.00000000E+00
  0.00000000E+00  0.00000000E+00  0.00000000E+00
  0.00000000E+00  0.00000000E+00  0.00000000E+00
  0.00000000E+00  0.00000000E+00  0.00000000E+00
  0.00000000E+00  0.00000000E+00  0.00000000E+00
  0.00000000E+00  0.00000000E+00  0.00000000E+00
  0.00000000E+00  0.00000000E+00  0.00000000E+00
  0.00000000E+00  0.00000000E+00  0.00000000E+00
  0.00000000E+00  0.00000000E+00  0.00000000E+00
  0.00000000E+00  0.00000000E+00  0.00000000E+00
  0.00000000E+00  0.00000000E+00  0.00000000E+00
  0.00000000E+00  0.00000000E+00  0.00000000E+00
  0.00000000E+00  0.00000000E+00  0.00000000E+00
  0.00000000E+00  0.00000000E+00  0.00000000E+00
  0.00000000E+00  0.00000000E+00  0.00000000E+00
  0.00000000E+00  0.00000000E+00  0.00000000E+00
  0.00000000E+00  0.00000000E+00  0.00000000E+00
  0.00000000E+00  0.00000000E+00  0.00000000E+00
  0.00000000E+00  0.00000000E+00  0.00000000E+00
  0.00000000E+00  0.00000000E+00  0.00000000E+00
  0.00000000E+00  0.00000000E+00  0.00000000E+00
  0.00000000E+00  0.00000000E+00  0.00000000E+00
  0.00000000E+00  0.00000000E+00  0.00000000E+00
  0.00000000E+00  0.00000000E+00  0.00000000E+00
  0.00000000E+00  0.00000000E+00  0.00000000E+00
  0.00000000E+00  0.00000000E+00  0.00000000E+00
  0.00000000E+00  0.00000000E+00  0.00000000E+00
  0.00000000E+00  0.00000000E+00  0.00000000E+00
  0.00000000E+00  0.00000000E+00  0.00000000E+00
  0.00000000E+00  0.00000000E+00  0.00000000E+00
  0.00000000E+00  0.00000000E+00  0.00000000E+00
  0.00000000E+00  0.00000000E+00  0.00000000E+00
  0.00000000E+00  0.00000000E+00  0.00000000E+00
  0.00000000E+00  0.00000000E+00  0.00000000E+00
  0.00000000E+00  0.00000000E+00  0.00000000E+00
  0.00000000E+00  0.00000000E+00  0.00000000E+00
  0.00000000E+00  0.00000000E+00  0.00000000E+00
  0.00000000E+00  0.00000000E+00  0.00000000E+00
  0.00000000E+00  0.00000000E+00  0.00000000E+00
  0.00000000E+00  0.00000000E+00  0.00000000E+00
  0.00000000E+00  0.00000000E+00  0.00000000E+00
  0.00000000E+00  0.00000000E+00  0.00000000E+00
  0.00000000E+00  0.00000000E+00  0.00000000E+00
  0.00000000E+00  0.00000000E+00  0.00000000E+00
  0.00000000E+00  0.00000000E+00  0.00000000E+00
  0.00000000E+00  0.00000000E+00  0.00000000E+00
  0.00000000E+00  0.00000000E+00  0.00000000E+00
  0.00000000E+00  0.00000000E+00  0.00000000E+00
  0.00000000E+00  0.00000000E+00  0.00000000E+00
  0.00000000E+00  0.00000000E+00  0.00000000E+00
  0.00000000E+00  0.00000000E+00  0.00000000E+00
  0.00000000E+00  0.00000000E+00  0.00000000E+00
  0.00000000E+00  0.00000000E+00  0.00000000E+00
  0.00000000E+00  0.00000000E+00  0.00000000E+00
  0.00000000E+00  0.00000000E+00  0.00000000E+00
  0.00000000E+00  0.00000000E+00  0.00000000E+00
  0.00000000E+00  0.00000000E+00  0.00000000E+00
  0.00000000E+00  0.00000000E+00  0.00000000E+00
  0.00000000E+00  0.00000000E+00  0.00000000E+00
  0.00000000E+00  0.00000000E+00  0.00000000E+00
  0.00000000E+00  0.00000000E+00  0.00000000E+00
  0.00000000E+00  0.00000000E+00  0.00000000E+00
  0.00000000E+00  0.00000000E+00  0.00000000E+00
  0.00000000E+00  0.00000000E+00  0.00000000E+00
  0.00000000E+00  0.00000000E+00  0.00000000E+00
  0.00000000E+00  0.00000000E+00  0.00000000E+00
  0.00000000E+00  0.00000000E+00  0.00000000E+00
  0.00000000E+00  0.00000000E+00  0.00000000E+00
  0.00000000E+00  0.00000000E+00  0.00000000E+00