Bi6 Te12 Pb3                            
   1.00000000000000     
     2.2477802749677251   -3.8932696404952347    0.0000000000000001
     2.2477802749677243    3.8932696404952347   -0.0000000000000001
     0.0000000000000008   -0.0000000000000026   43.4469500013466643
   Bi   Te   Pb
     6    12     3
Direct
  0.3333333333333357  0.6666666666666643  0.0921279374634820
  0.3333333333333357  0.6666666666666643  0.2412053958698466
  0.0000000000000000  0.0000000000000000  0.4254612707968179
  0.0000000000000000  0.0000000000000000  0.5745387292031825
  0.6666666666666643  0.3333333333333357  0.7587946041301532
  0.6666666666666643  0.3333333333333357  0.9078720625365182
  0.0000000000000000  0.0000000000000000  0.1309302008038909
  0.0000000000000000  0.0000000000000000  0.2879901599686022
  0.6666666666666643  0.3333333333333357  0.0453431733647334
  0.6666666666666643  0.3333333333333357  0.2024031325294448
  0.6666666666666643  0.3333333333333357  0.4642635341372267
  0.6666666666666643  0.3333333333333357  0.6213234933019384
  0.3333333333333357  0.6666666666666643  0.3786765066980621
  0.3333333333333357  0.6666666666666643  0.5357364658627732
  0.3333333333333357  0.6666666666666643  0.7975968674705554
  0.3333333333333357  0.6666666666666643  0.9546568266352670
  0.0000000000000000  0.0000000000000000  0.7120098400313973
  0.0000000000000000  0.0000000000000000  0.8690697991961089
  0.0000000000000000  0.0000000000000000  0.0000000000000000
  0.6666666666666643  0.3333333333333357  0.3333333333333357
  0.3333333333333357  0.6666666666666643  0.6666666666666643
 
  0.00000000E+00  0.00000000E+00  0.00000000E+00
  0.00000000E+00  0.00000000E+00  0.00000000E+00
  0.00000000E+00  0.00000000E+00  0.00000000E+00
  0.00000000E+00  0.00000000E+00  0.00000000E+00
  0.00000000E+00  0.00000000E+00  0.00000000E+00
  0.00000000E+00  0.00000000E+00  0.00000000E+00
  0.00000000E+00  0.00000000E+00  0.00000000E+00
  0.00000000E+00  0.00000000E+00  0.00000000E+00
  0.00000000E+00  0.00000000E+00  0.00000000E+00
  0.00000000E+00  0.00000000E+00  0.00000000E+00
  0.00000000E+00  0.00000000E+00  0.00000000E+00
  0.00000000E+00  0.00000000E+00  0.00000000E+00
  0.00000000E+00  0.00000000E+00  0.00000000E+00
  0.00000000E+00  0.00000000E+00  0.00000000E+00
  0.00000000E+00  0.00000000E+00  0.00000000E+00
  0.00000000E+00  0.00000000E+00  0.00000000E+00
  0.00000000E+00  0.00000000E+00  0.00000000E+00
  0.00000000E+00  0.00000000E+00  0.00000000E+00
  0.00000000E+00  0.00000000E+00  0.00000000E+00
  0.00000000E+00  0.00000000E+00  0.00000000E+00
  0.00000000E+00  0.00000000E+00  0.00000000E+00
