Amorphous Sb                            
   1.00000000000000     
    20.7576774052841522    0.0000000000000000    0.0000000000000000
     0.0000000000000000   20.7576774052841522    0.0000000000000000
     0.0000000000000000    0.0000000000000000   20.7576774052841522
   Sn   Se
   150   150
Direct
  0.1417584553856717  0.9040692288833985  0.8806110181931848
  0.8674575089850137  0.1714668513854742  0.5734405252007956
  0.8540913563361957  0.2480368863176383  0.2408182085168667
  0.7469007561065035  0.0136909405167045  0.2416516740408738
  0.1296358929078798  0.1807344896196652  0.7124198974923840
  0.8366864268599666  0.5398719519103171  0.9784887384226442
  0.8639855770359907  0.9223772693930711  0.8489521393913583
  0.9535451338630133  0.0082781128158670  0.5881737367503951
  0.8928784504725056  0.2086740317722919  0.8010599795434922
  0.3642906761213227  0.5901186924390613  0.1604015924767028
  0.6867229532866798  0.4473829022159426  0.6602222784487968
  0.7924910771980294  0.8345093239297369  0.2424084655635226
  0.7554995499928461  0.4541270258931930  0.1346090616480455
  0.0009433636732558  0.2572238583579461  0.2966454229820095
  0.4945619916016484  0.9519114961919972  0.4092283145778230
  0.2523391336487466  0.5021854042762122  0.2774784445351564
  0.6948098913944309  0.4436572000841349  0.2898106927329847
  0.1901457053102653  0.9126784592957746  0.6884214564026579
  0.1418665546180636  0.1307167407414752  0.1844985546140240
  0.2096348326060701  0.2270062517657412  0.0292546513657894
  0.7186276516247396  0.2730008076855867  0.9646324743019465
  0.4409744490528719  0.7809100326052841  0.5605214835244612
  0.6299863971782795  0.1127185827293231  0.5038750847066020
  0.5811844372411132  0.8720548350531229  0.7559659356765894
  0.8952006211132384  0.9592121333337053  0.2092271601910606
  0.1273965673276058  0.9314764841000417  0.1374569557525783
  0.1657081441894416  0.5830160788198285  0.4293216600783732
  0.9830827239301894  0.8308046089495564  0.7718622110100208
  0.5394880340056046  0.5056862207754689  0.1277233612760727
  0.0590613451265864  0.0198167595617871  0.7463664089185988
  0.8398513385626127  0.3754388889928506  0.8657314810736074
  0.1122828213061108  0.3959806079383573  0.3735793946597745
  0.5594470093114656  0.2903111898778810  0.0286906781655606
  0.0365808087547650  0.7952981935299042  0.0692499199890235
  0.5171314313613585  0.8984920339897076  0.0165677514355353
  0.4931247298413897  0.4938018613049086  0.9050050375915916
  0.5298169703025654  0.2194982502003849  0.3147790708368315
  0.0610346483969911  0.4942643685268809  0.1871063389534884
  0.2389215135228603  0.7484467141688436  0.8433256332410554
  0.5332603150011254  0.5778822669116107  0.7322493630861054
  0.5526840356455019  0.3110472383578022  0.7746912841946433
  0.3452881785358433  0.3644515042280671  0.9048052095306898
  0.6600757224292034  0.2263050731222573  0.1515894865754039
  0.9037616665404363  0.7341111633353763  0.6274470777396972
  0.4291970349740167  0.1797523350986530  0.5613187423375178
  0.8952562160260997  0.3995493832681007  0.2519338874189442
  0.5001234996685298  0.6952885809087053  0.1083248281967539
  0.0277777777777778  0.6525078319717024  0.0229281227526136
  0.1241389053481090  0.3967978048160439  0.5718522747170587
  0.3679035154358460  0.4762827030973529  0.7557679338783019
  0.0611072077084890  0.5299926835361672  0.9576463540137490
  0.0175846655239316  0.3984124435538227  0.7456919373837247
  0.2769986946533468  0.5955848591996412  0.9509599290016220
  0.8822805931306639  0.6036623755434670  0.3738858299814754
  0.4173409718247951  0.5877141879833984  0.6101716327805332
  0.7836352177471790  0.0556474728733835  0.7055429521637453
  0.7633703852425213  0.6447310082410966  0.6179796033115464
  0.6361249123488550  0.7566143383143403  0.4934680167847486
  0.7183730073026934  0.6537404303920423  0.7775183741833359
  0.4098244602853715  0.7455928278119748  0.9411002689103689
  0.6354294006361512  0.0466352041008728  0.0637422869408884
  0.5013402639096936  0.3899255688898094  0.2305686720760645
  0.5893007960338085  0.0642168412932509  0.3464617295060707
  0.5640249868090134  0.6961334856825765  0.8722859929463148
  0.8517369429381290 -0.0328001109800646  0.4408869602365655
  0.9734281252964917  0.1031228284109815  0.3271472357336459
  0.2675712518470407  0.9647913108881617  0.8602045353346005
  0.6317120821251624  0.6367503141825978 -0.0086119055195414
  0.0679972064085765  0.8397373199966406  0.5685505274502701
  0.2863284362288773  0.7242582231224136  0.5480881582410455
  0.4501225051572975  0.9855493863922513  0.6692888672124058
  0.8718432664708973  0.7462907192196385  0.9273298208707826
  0.9997479377492566  0.0313023483447577  0.1286304083034678
  0.5544415570427366  0.3211861358775234  0.6039780834089106
  0.7911811609096110  0.1435189277813338  0.3920234033952605
  0.9139449202489744  0.7304014740520424  0.1591670977381203
  0.2738933277843995  0.8877168224413220  0.4974285569565020
  0.9513365017300501  0.2985801375829552  0.6110717733355436
  0.2507988474341172  0.2908662278702688  0.5758872796072214
  0.3771494274682552  0.1682373262039613  0.2278439408509048
  0.4950669696213545  0.5828577430583167  0.3323614117690072
  0.6666717597260735  0.8726769103606272  0.8911856688738209
  0.6812380725111031  0.6362563538723487  0.3368685948118224
  0.1162238184743141  0.3472912333270183  0.9233291810694626
  0.6315778626447602  0.8462507889621682  0.3635348463266861
  0.4243456971613617  0.9478320164901660  0.8537845535844142
  0.1157719741389539  0.5192667777230221  0.8209119482243336
  0.4264147322719312  0.4338395715791793  0.0719321847535915
  0.1028939869887635 -0.0049166291890471  0.5410173941899306
  0.7973869627210249  0.7905489152825107  0.5058634525958139
  0.8167571666430118  0.1020272877846110  0.1180026388537592
  0.2370617676557553  0.9167708796835318  0.2862596752841880
  0.5225361210928322  0.5975890042168035  0.4729223878174895
  0.5267339962136709  0.0944070824961634  0.1494255227035079
  0.2086543604929598  0.0936062065847508  0.5879362106996607
  0.3222485611635146  0.0449870550842542  0.7221497146073633
  0.3787636443009410  0.0867094588910707  0.3992915810846488
  0.0883727771182937  0.6070176313671363  0.6646838716280634
 -0.0154952296182485  0.2476137474830084  0.0903158324110322
  0.6149490944234262  0.9484255234885731  0.5443585870052536
  0.3595157539146069  0.1847477992598675  0.0503585683300408
  0.1885310335378302  0.3881967792238367  0.7659819531849663
  0.1736421011326151  0.3216224500077201  0.2311593306343519
  0.5179784477676692  0.3500906840287813  0.4550768224856162
  0.3791097972498692 -0.0128920287124267  0.2147158313773313
  0.0468217016304470  0.8900729465245250  0.3062950010909739
  0.1526777115157339  0.1321872722774662  0.8847860963847746
  0.4472933703869280  0.0774289154477510  0.9233690710066180
  0.8214557414721158  0.9003687583833558  0.6631311555600437
  0.5284507593713959  0.7342105871520136  0.2477341478621163
  0.3216639537028571  0.2359079937638572  0.7719875889312409
  0.4599056493428464  0.1383148370531407  0.7380023121470332
  0.7583747040679574  0.3128240620872257  0.7101301693144935
  0.7025374275047243  0.6636710209822577  0.1618652081724621
  0.1606353294440468  0.7263184468769714  0.3593430989115995
  0.8481038169157299  0.8952893621495422  0.0698553605442277
  0.1751567174649169  0.0657215383232342  0.3814767038266604
  0.9207534828718111  0.6573968577294280  0.7636467036997535
  0.6089637448572617  0.1522765109668207  0.9128299902397597
  0.9505738513042463  0.5525734532352113  0.5858848132573020
  0.8493354780431984  0.4895584704552307  0.7621315130631006
  0.4030018693703411  0.7855604680616913  0.3708264427346963
  0.9370806494791475  0.7782579945657687  0.3638893688136645
  0.3980813787199176  0.3857612622220113  0.6006680924044968
  0.0827586315375306  0.1845411929950837  0.5424188406200575
  0.6576960197402819  0.4506529086126905  0.9596383982396679
  0.3995363995978769  0.7815676171932231  0.7660820931577845
  0.0267604187738678  0.6622992672567388  0.4729785026449141
  0.2314027125344920  0.7752841049015011  0.0259836003716615
  0.8833264282555069  0.5844783567453399  0.1815099360968174
  0.7291028700121690  0.3076921297100064  0.4499804811835287
  0.3612677047523042  0.4474506334193339  0.4220131327931840
  0.2850777393912875  0.0178300856889532  0.0139354365125760
 -0.0240096721454169  0.0926236339971192  0.9305464590937480
  0.9376548404020725  0.3833485936870549  0.0143114159105534
  0.5991636629699962  0.1206690696759317  0.7122201246667843
  0.6370615525314318  0.7347021762550019  0.6661819959535170
  0.6810583394978130  0.2181811591391167  0.3405702785515335
  0.1977753179594336  0.4247641046875325  0.1023996483306349
  0.2725660675072219  0.7846552704682176  0.1796664492679630
  0.8940497233060292  0.2820582262587342  0.4331133050093524
  0.2907372313360355  0.6251169050059416  0.7799663322600996
  0.6586639699213671  0.5310611835346338  0.5074307375526783
  0.7431648388912788  0.0355880894901423  0.9011944969476616
  0.3652080205730126  0.3401643610299062  0.2554226306903948
  0.2749822817184300  0.5327538361992256  0.6133253016629683
  0.1811447392417938  0.6502844934808979  0.1098119988946908
  0.5949264380983436  0.8826840983669078  0.1755057595942221
  0.2500907841164832  0.2370131556702934  0.3804190407129385
  0.7968644099885238  0.4709365630137635  0.4874764094307697
  0.0950631824520378  0.4807940509760584  0.4728749979448812
  0.6549951215309145  0.5764535794319620  0.6504390246333974
  0.0662053606954012  0.4187454646427019  0.0282328354834707
  0.1750882939414866  0.6905351318112817  0.9411914048672344
  0.9370111487956367  0.9728167967053105  0.3339565544193732
  0.2008051991298546  0.6234941896381626  0.5557273042375540
  0.6106180150719062  0.3338459297593283  0.9092163670126661
  0.3542430343953233  0.8430527801353398  0.2627373153399706
  0.0729416923634902  0.2945067909734930  0.6747494413982349
  0.3237831557534105  0.4510885342725084  0.1464852263284983
  0.1295601925911486  0.2545858421347666  0.1251328353489393
  0.0310962441757515  0.7483910698114608  0.6592695537855289
  0.8121279075329804  0.1854227503546660  0.6945921572915640
  0.6336472338110530  0.9558758644201877  0.2828624461766212
  0.1667457315619567  0.4858286136194358  0.6704155632607052
  0.9000279717720118  0.8556638509492558  0.5612927579815381
  0.8285350897533821  0.5283857658207488  0.6300334203484902
  0.9049687269101111  0.2058830531892267  0.9565704878374534
  0.8943832225068552  0.7038919458462154  0.4676133816542198
  0.6204266143200066  0.7368668182021380  0.0767963841790961
  0.0725833264100199  0.7819930237699660  0.4496082662105510
  0.5085865242510135  0.0236479357597103  0.5617321877655850
  0.4004527883434346  0.9519189672570949 -0.0131015317913726
  0.5282841385352247  0.8549092939133963  0.4920957370850592
  0.5729355601048022  0.3490614788212665  0.3336753274770197
  0.2520409535649452  0.6285094982020181  0.2177736654421757
  0.1230244676814495  0.5150367997431478  0.3038073210261482
  0.4601638095198232  0.4857100132868618  0.5198553921349357
  0.3319139969414253  0.6620128856539175  0.0491727913302854
  0.7279132572938876  0.4420724735235911  0.7853389041676659
  0.4026354276933351  0.2430147949478391  0.3403761810356824
  0.9424331466881229  0.4779845137536291  0.9188498667021898
  0.8523017418095256  0.1208187623315168  0.2699102740296410
  0.5331010499553903  0.2525021840371623  0.1852552162337342
  0.0432969156076541  0.1401653878925917  0.8049598835897473
  0.5389878614352887 -0.0039982897120967  0.7668649048181315
  0.3735076270647678  0.4812965761501166  0.9658753073718139
  0.3169287256898757  0.0799634634365686  0.1232715077832765
  0.7273976757697732  0.2928986977504535  0.2457766753805336
  0.9063698995122618  0.1247332458009750  0.4411384968040339
  0.7311089188279899  0.1215112882599377  0.0204031649207176
  0.5315334099265341  0.7152929639637092  0.7460852266753117
  0.0622640410631323  0.0849252477150765  0.4552149690359338
  0.2981659473167957  0.0872629254338006  0.2948082035558606
  0.6108877738904371  0.4066594616197899  0.0785467062359319
  0.6744902253440569  0.7827216071408311  0.2566277003276291
  0.9079825551470395  0.0476902408594080  0.0376776109340261
  0.9680960122083071  0.3708987197679005  0.3605775150618393
  0.2798737552491770 -0.0135843805297313  0.6101585056385502
  0.2596212881786357  0.1218542264762458  0.4718626115891526
  0.0046564383789854  0.3385921137205232  0.1936364824863349
  0.8474345837848163  0.2310721559076731  0.1138290501209938
  0.6890071415449328  0.7428378378590078  0.8742178027416313
  0.9821195576898525  0.7206818159133668  0.8579567669858543
  0.4478567192788623  0.3964996113170710  0.8217494446816263
  0.3433133568220946  0.6951677451464865  0.6778853216791461
  0.1950658742594815  0.2387873077145470  0.8141590306098205
  0.2660512629643638  0.4660299524471568  0.8414664350359051
  0.3026547783749310  0.8287733802784181  0.9247043497554253
  0.4703127326137210  0.8532250975754435  0.6781507776118209
  0.7400642036599628  0.9354425094625078  0.7987599701975768
  0.7369418286884979  0.1875141089521283  0.5155203995962088
  0.6375274301131340  0.2511876488055121  0.6769678968567890
  0.1366993276226234  0.8107273394015279  0.7946178726684241
  0.8962545686056319  0.3415975063383635  0.7402729179579778
  0.3037911815912109  0.3495946560892278  0.7082362942606416
  0.8280114555967540  0.0430267381753563  0.5758636572304084
  0.0550725171305751  0.6237673626401500  0.1512830891831252
  0.4933819153790602  0.8384433671926926  0.8807410849978935
  0.9522113991273814  0.2987946531979393  0.9060640166523706
  0.5082154792712965  0.8611744572503693  0.3109432916668843
  0.4152107475336492  0.6777042981723442  0.2873965885397451
  0.0021057573258943  0.5497014771369829  0.7571341449196258
  0.0024127009776273  0.6578044343241201  0.3454832148233297
  0.4239985744819357  0.4855267785569649  0.2941013920404851
  0.4724988510438388  0.0718905628110478  0.2871172076823392
  0.7827857720113029  0.9096462988926522  0.9577037996567238
  0.2314045480259664  0.3545635187607915 -0.0051195968606890
  0.4938797340979343  0.9657080720135559  0.1364345945680404
  0.5101723831342982  0.5894354506687748  0.0242774008587801
  0.7436534346915814  0.0254748770251205  0.3906471364584510
  0.3675203824392242  0.9533010683364873  0.4060579857044410
  0.4366225566156106  0.7978870111568310  0.0577174535179013
  0.4947229451216482  0.1880424544409355  0.8522980465852551
  0.7755123667136521  0.3918363560703910 -0.0064514190241681
  0.2588040766745293  0.9203423851428567  0.1508144467002243
  0.7993497858804617  0.8531528452232445  0.3934918170237018
  0.8233320227454407  0.3510711546239942  0.5350567754155382
  0.4020224889121570  0.6535034604499040  0.4965345727773675
  0.4863592715646563  0.1433430516591039  0.0271222562042715
  0.2877083872642566  0.2666443008958527  0.1857838986768894
  0.9735475681889219  0.8546644562270684  0.1956510608845992
 -0.0094171872654292  0.1310185509808665  0.6281688808062375
  0.2995609168235751  0.1631633854238183  0.6570942798122299
  0.3692019175775547  0.2881814754508230  0.5124550149087782
  0.8517591353207291  0.7924871241477366  0.7361506571243910
  0.0935366413123767  0.2254299956900387  0.9653123984947263
  0.1161990649285980  0.0478578904882542  0.0698733616363449
  0.1946944765074494  0.8166672169387754  0.5949604555957173
  0.9970185622121135  0.4287667968704044  0.6167687747156994
  0.2664161063884207  0.7724615122049613  0.4185026339660398
  0.6533726980258405  0.8664851868967581  0.6429957528887076
  0.1660446566815823  0.9405245025418396  0.4385728607255525
  0.1877264184049767  0.5395773594196692  0.0344052723024913
  0.6702325073477378  0.0582141924257556  0.6290450351406620
  0.3216863695012821  0.1229559002848283  0.9355303057460637
  0.5761428209609871  0.7051595561301530  0.3881371369776230
  0.7260505216436977  0.6457492063008223  0.4875734698282920
  0.7699546967130465  0.5478476615903759  0.2368247469767016
  0.6989207389398889  0.9469396789399938  0.1165010039394594
  0.6828208694171271  0.1303080459901242  0.8065841746279375
  0.4345008848846062  0.5816547981047313  0.8283585374632748
  0.0116144923866855  0.2840721027148816  0.4914612850870059
  0.6215146346511080  0.5792550188723986  0.8332504925078330
  0.5614448388760306  0.4226406930588833  0.6955404099243631
  0.7099064134827914  0.5636337925366641  0.0683391800718794
  0.0063914475780211  0.1487218614120935  0.1818434192602165
  0.1962880164525665  0.0428704201944222  0.7759911519788734
  0.4325966186713658  0.3189488353299807  0.0182917483232834
  0.9313339588181906  0.9648639539063448  0.7091482067874252
  0.6615972053080599  0.1201754614126844  0.2381867108178272
  0.0313480390549695  0.9585807121133536  0.8598269324601070
  0.8498724274077969  0.7226570564245766  0.2771290833958038
  0.3010491873235502  0.8892485088855649  0.7560008277587462
  0.5404522430470936  0.2146100532458567  0.4924943780002065
  0.8255992742520816  0.6033710333278736  0.8387973350577141
  0.9550499376812439  0.5171819286039747  0.2661456858327605
  0.6302263996381573  0.5180156744875284  0.3773395884538213
  0.8720979841175770  0.0570281347178691  0.8532471956881510
  0.4540217654102297  0.2542345644665659  0.6784816980532482
  0.2716318387810854  0.3716239170889564  0.3392358381798999
  0.1549887616251886  0.6368342570770630  0.7756276437987600
  0.7977813655323782  0.7789221392226096  0.1185062526817496
  0.1104534235097670  0.9963825971912323  0.2570858556590960
  0.6378937870956015  0.3807021730616539  0.5083588466685496
  0.5458236026830854  0.6983852854381433  0.5784772468061784
  0.8824179501743338  0.4862009581138880  0.0976301181893505
  0.7925137346043432  0.4128890418878712  0.3682002658299162
  0.1327464576745831  0.2202139874204590  0.3080127111488031
  0.8975422089094675  0.6532337096003097  0.0199340909265167
  0.5892931952731675  0.6116909202003754  0.2351539665346251
  0.1588827143684560  0.8102765219656375  0.2529241598222333
  0.1300478886104450  0.8640063608508857  0.0009235056582004
  0.9196615590842055  0.5092144094022618  0.4656643833781668
  0.7731085734531667  0.2642375932386772  0.8401757378542229
  0.1732745586813781  0.2927196525200635  0.4676965506833862
  0.5955746273067756  0.0189362139868665  0.9412114612269041
  0.2815975932393153  0.4270935017510297  0.5385484336230197
  0.9425899211795807  0.8414276376390567  0.9921817372144059
  0.2886522633923904  0.5572369316144301  0.3938159472914222
 
  0.00000000E+00  0.00000000E+00  0.00000000E+00
  0.00000000E+00  0.00000000E+00  0.00000000E+00
  0.00000000E+00  0.00000000E+00  0.00000000E+00
  0.00000000E+00  0.00000000E+00  0.00000000E+00
  0.00000000E+00  0.00000000E+00  0.00000000E+00
  0.00000000E+00  0.00000000E+00  0.00000000E+00
  0.00000000E+00  0.00000000E+00  0.00000000E+00
  0.00000000E+00  0.00000000E+00  0.00000000E+00
  0.00000000E+00  0.00000000E+00  0.00000000E+00
  0.00000000E+00  0.00000000E+00  0.00000000E+00
  0.00000000E+00  0.00000000E+00  0.00000000E+00
  0.00000000E+00  0.00000000E+00  0.00000000E+00
  0.00000000E+00  0.00000000E+00  0.00000000E+00
  0.00000000E+00  0.00000000E+00  0.00000000E+00
  0.00000000E+00  0.00000000E+00  0.00000000E+00
  0.00000000E+00  0.00000000E+00  0.00000000E+00
  0.00000000E+00  0.00000000E+00  0.00000000E+00
  0.00000000E+00  0.00000000E+00  0.00000000E+00
  0.00000000E+00  0.00000000E+00  0.00000000E+00
  0.00000000E+00  0.00000000E+00  0.00000000E+00
  0.00000000E+00  0.00000000E+00  0.00000000E+00
  0.00000000E+00  0.00000000E+00  0.00000000E+00
  0.00000000E+00  0.00000000E+00  0.00000000E+00
  0.00000000E+00  0.00000000E+00  0.00000000E+00
  0.00000000E+00  0.00000000E+00  0.00000000E+00
  0.00000000E+00  0.00000000E+00  0.00000000E+00
  0.00000000E+00  0.00000000E+00  0.00000000E+00
  0.00000000E+00  0.00000000E+00  0.00000000E+00
  0.00000000E+00  0.00000000E+00  0.00000000E+00
  0.00000000E+00  0.00000000E+00  0.00000000E+00
  0.00000000E+00  0.00000000E+00  0.00000000E+00
  0.00000000E+00  0.00000000E+00  0.00000000E+00
  0.00000000E+00  0.00000000E+00  0.00000000E+00
  0.00000000E+00  0.00000000E+00  0.00000000E+00
  0.00000000E+00  0.00000000E+00  0.00000000E+00
  0.00000000E+00  0.00000000E+00  0.00000000E+00
  0.00000000E+00  0.00000000E+00  0.00000000E+00
  0.00000000E+00  0.00000000E+00  0.00000000E+00
  0.00000000E+00  0.00000000E+00  0.00000000E+00
  0.00000000E+00  0.00000000E+00  0.00000000E+00
  0.00000000E+00  0.00000000E+00  0.00000000E+00
  0.00000000E+00  0.00000000E+00  0.00000000E+00
  0.00000000E+00  0.00000000E+00  0.00000000E+00
  0.00000000E+00  0.00000000E+00  0.00000000E+00
  0.00000000E+00  0.00000000E+00  0.00000000E+00
  0.00000000E+00  0.00000000E+00  0.00000000E+00
  0.00000000E+00  0.00000000E+00  0.00000000E+00
  0.00000000E+00  0.00000000E+00  0.00000000E+00
  0.00000000E+00  0.00000000E+00  0.00000000E+00
  0.00000000E+00  0.00000000E+00  0.00000000E+00
  0.00000000E+00  0.00000000E+00  0.00000000E+00
  0.00000000E+00  0.00000000E+00  0.00000000E+00
  0.00000000E+00  0.00000000E+00  0.00000000E+00
  0.00000000E+00  0.00000000E+00  0.00000000E+00
  0.00000000E+00  0.00000000E+00  0.00000000E+00
  0.00000000E+00  0.00000000E+00  0.00000000E+00
  0.00000000E+00  0.00000000E+00  0.00000000E+00
  0.00000000E+00  0.00000000E+00  0.00000000E+00
  0.00000000E+00  0.00000000E+00  0.00000000E+00
  0.00000000E+00  0.00000000E+00  0.00000000E+00
  0.00000000E+00  0.00000000E+00  0.00000000E+00
  0.00000000E+00  0.00000000E+00  0.00000000E+00
  0.00000000E+00  0.00000000E+00  0.00000000E+00
  0.00000000E+00  0.00000000E+00  0.00000000E+00
  0.00000000E+00  0.00000000E+00  0.00000000E+00
  0.00000000E+00  0.00000000E+00  0.00000000E+00
  0.00000000E+00  0.00000000E+00  0.00000000E+00
  0.00000000E+00  0.00000000E+00  0.00000000E+00
  0.00000000E+00  0.00000000E+00  0.00000000E+00
  0.00000000E+00  0.00000000E+00  0.00000000E+00
  0.00000000E+00  0.00000000E+00  0.00000000E+00
  0.00000000E+00  0.00000000E+00  0.00000000E+00
  0.00000000E+00  0.00000000E+00  0.00000000E+00
  0.00000000E+00  0.00000000E+00  0.00000000E+00
  0.00000000E+00  0.00000000E+00  0.00000000E+00
  0.00000000E+00  0.00000000E+00  0.00000000E+00
  0.00000000E+00  0.00000000E+00  0.00000000E+00
  0.00000000E+00  0.00000000E+00  0.00000000E+00
  0.00000000E+00  0.00000000E+00  0.00000000E+00
  0.00000000E+00  0.00000000E+00  0.00000000E+00
  0.00000000E+00  0.00000000E+00  0.00000000E+00
  0.00000000E+00  0.00000000E+00  0.00000000E+00
  0.00000000E+00  0.00000000E+00  0.00000000E+00
  0.00000000E+00  0.00000000E+00  0.00000000E+00
  0.00000000E+00  0.00000000E+00  0.00000000E+00
  0.00000000E+00  0.00000000E+00  0.00000000E+00
  0.00000000E+00  0.00000000E+00  0.00000000E+00
  0.00000000E+00  0.00000000E+00  0.00000000E+00
  0.00000000E+00  0.00000000E+00  0.00000000E+00
  0.00000000E+00  0.00000000E+00  0.00000000E+00
  0.00000000E+00  0.00000000E+00  0.00000000E+00
  0.00000000E+00  0.00000000E+00  0.00000000E+00
  0.00000000E+00  0.00000000E+00  0.00000000E+00
  0.00000000E+00  0.00000000E+00  0.00000000E+00
  0.00000000E+00  0.00000000E+00  0.00000000E+00
  0.00000000E+00  0.00000000E+00  0.00000000E+00
  0.00000000E+00  0.00000000E+00  0.00000000E+00
  0.00000000E+00  0.00000000E+00  0.00000000E+00
  0.00000000E+00  0.00000000E+00  0.00000000E+00
  0.00000000E+00  0.00000000E+00  0.00000000E+00
  0.00000000E+00  0.00000000E+00  0.00000000E+00
  0.00000000E+00  0.00000000E+00  0.00000000E+00
  0.00000000E+00  0.00000000E+00  0.00000000E+00
  0.00000000E+00  0.00000000E+00  0.00000000E+00
  0.00000000E+00  0.00000000E+00  0.00000000E+00
  0.00000000E+00  0.00000000E+00  0.00000000E+00
  0.00000000E+00  0.00000000E+00  0.00000000E+00
  0.00000000E+00  0.00000000E+00  0.00000000E+00
  0.00000000E+00  0.00000000E+00  0.00000000E+00
  0.00000000E+00  0.00000000E+00  0.00000000E+00
  0.00000000E+00  0.00000000E+00  0.00000000E+00
  0.00000000E+00  0.00000000E+00  0.00000000E+00
  0.00000000E+00  0.00000000E+00  0.00000000E+00
  0.00000000E+00  0.00000000E+00  0.00000000E+00
  0.00000000E+00  0.00000000E+00  0.00000000E+00
  0.00000000E+00  0.00000000E+00  0.00000000E+00
  0.00000000E+00  0.00000000E+00  0.00000000E+00
  0.00000000E+00  0.00000000E+00  0.00000000E+00
  0.00000000E+00  0.00000000E+00  0.00000000E+00
  0.00000000E+00  0.00000000E+00  0.00000000E+00
  0.00000000E+00  0.00000000E+00  0.00000000E+00
  0.00000000E+00  0.00000000E+00  0.00000000E+00
  0.00000000E+00  0.00000000E+00  0.00000000E+00
  0.00000000E+00  0.00000000E+00  0.00000000E+00
  0.00000000E+00  0.00000000E+00  0.00000000E+00
  0.00000000E+00  0.00000000E+00  0.00000000E+00
  0.00000000E+00  0.00000000E+00  0.00000000E+00
  0.00000000E+00  0.00000000E+00  0.00000000E+00
  0.00000000E+00  0.00000000E+00  0.00000000E+00
  0.00000000E+00  0.00000000E+00  0.00000000E+00
  0.00000000E+00  0.00000000E+00  0.00000000E+00
  0.00000000E+00  0.00000000E+00  0.00000000E+00
  0.00000000E+00  0.00000000E+00  0.00000000E+00
  0.00000000E+00  0.00000000E+00  0.00000000E+00
  0.00000000E+00  0.00000000E+00  0.00000000E+00
  0.00000000E+00  0.00000000E+00  0.00000000E+00
  0.00000000E+00  0.00000000E+00  0.00000000E+00
  0.00000000E+00  0.00000000E+00  0.00000000E+00
  0.00000000E+00  0.00000000E+00  0.00000000E+00
  0.00000000E+00  0.00000000E+00  0.00000000E+00
  0.00000000E+00  0.00000000E+00  0.00000000E+00
  0.00000000E+00  0.00000000E+00  0.00000000E+00
  0.00000000E+00  0.00000000E+00  0.00000000E+00
  0.00000000E+00  0.00000000E+00  0.00000000E+00
  0.00000000E+00  0.00000000E+00  0.00000000E+00
  0.00000000E+00  0.00000000E+00  0.00000000E+00
  0.00000000E+00  0.00000000E+00  0.00000000E+00
  0.00000000E+00  0.00000000E+00  0.00000000E+00
  0.00000000E+00  0.00000000E+00  0.00000000E+00
  0.00000000E+00  0.00000000E+00  0.00000000E+00
  0.00000000E+00  0.00000000E+00  0.00000000E+00
  0.00000000E+00  0.00000000E+00  0.00000000E+00
  0.00000000E+00  0.00000000E+00  0.00000000E+00
  0.00000000E+00  0.00000000E+00  0.00000000E+00
  0.00000000E+00  0.00000000E+00  0.00000000E+00
  0.00000000E+00  0.00000000E+00  0.00000000E+00
  0.00000000E+00  0.00000000E+00  0.00000000E+00
  0.00000000E+00  0.00000000E+00  0.00000000E+00
  0.00000000E+00  0.00000000E+00  0.00000000E+00
  0.00000000E+00  0.00000000E+00  0.00000000E+00
  0.00000000E+00  0.00000000E+00  0.00000000E+00
  0.00000000E+00  0.00000000E+00  0.00000000E+00
  0.00000000E+00  0.00000000E+00  0.00000000E+00
  0.00000000E+00  0.00000000E+00  0.00000000E+00
  0.00000000E+00  0.00000000E+00  0.00000000E+00
  0.00000000E+00  0.00000000E+00  0.00000000E+00
  0.00000000E+00  0.00000000E+00  0.00000000E+00
  0.00000000E+00  0.00000000E+00  0.00000000E+00
  0.00000000E+00  0.00000000E+00  0.00000000E+00
  0.00000000E+00  0.00000000E+00  0.00000000E+00
  0.00000000E+00  0.00000000E+00  0.00000000E+00
  0.00000000E+00  0.00000000E+00  0.00000000E+00
  0.00000000E+00  0.00000000E+00  0.00000000E+00
  0.00000000E+00  0.00000000E+00  0.00000000E+00
  0.00000000E+00  0.00000000E+00  0.00000000E+00
  0.00000000E+00  0.00000000E+00  0.00000000E+00
  0.00000000E+00  0.00000000E+00  0.00000000E+00
  0.00000000E+00  0.00000000E+00  0.00000000E+00
  0.00000000E+00  0.00000000E+00  0.00000000E+00
  0.00000000E+00  0.00000000E+00  0.00000000E+00
  0.00000000E+00  0.00000000E+00  0.00000000E+00
  0.00000000E+00  0.00000000E+00  0.00000000E+00
  0.00000000E+00  0.00000000E+00  0.00000000E+00
  0.00000000E+00  0.00000000E+00  0.00000000E+00
  0.00000000E+00  0.00000000E+00  0.00000000E+00
  0.00000000E+00  0.00000000E+00  0.00000000E+00
  0.00000000E+00  0.00000000E+00  0.00000000E+00
  0.00000000E+00  0.00000000E+00  0.00000000E+00
  0.00000000E+00  0.00000000E+00  0.00000000E+00
  0.00000000E+00  0.00000000E+00  0.00000000E+00
  0.00000000E+00  0.00000000E+00  0.00000000E+00
  0.00000000E+00  0.00000000E+00  0.00000000E+00
  0.00000000E+00  0.00000000E+00  0.00000000E+00
  0.00000000E+00  0.00000000E+00  0.00000000E+00
  0.00000000E+00  0.00000000E+00  0.00000000E+00
  0.00000000E+00  0.00000000E+00  0.00000000E+00
  0.00000000E+00  0.00000000E+00  0.00000000E+00
  0.00000000E+00  0.00000000E+00  0.00000000E+00
  0.00000000E+00  0.00000000E+00  0.00000000E+00
  0.00000000E+00  0.00000000E+00  0.00000000E+00
  0.00000000E+00  0.00000000E+00  0.00000000E+00
  0.00000000E+00  0.00000000E+00  0.00000000E+00
  0.00000000E+00  0.00000000E+00  0.00000000E+00
  0.00000000E+00  0.00000000E+00  0.00000000E+00
  0.00000000E+00  0.00000000E+00  0.00000000E+00
  0.00000000E+00  0.00000000E+00  0.00000000E+00
  0.00000000E+00  0.00000000E+00  0.00000000E+00
  0.00000000E+00  0.00000000E+00  0.00000000E+00
  0.00000000E+00  0.00000000E+00  0.00000000E+00
  0.00000000E+00  0.00000000E+00  0.00000000E+00
  0.00000000E+00  0.00000000E+00  0.00000000E+00
  0.00000000E+00  0.00000000E+00  0.00000000E+00
  0.00000000E+00  0.00000000E+00  0.00000000E+00
  0.00000000E+00  0.00000000E+00  0.00000000E+00
  0.00000000E+00  0.00000000E+00  0.00000000E+00
  0.00000000E+00  0.00000000E+00  0.00000000E+00
  0.00000000E+00  0.00000000E+00  0.00000000E+00
  0.00000000E+00  0.00000000E+00  0.00000000E+00
  0.00000000E+00  0.00000000E+00  0.00000000E+00
  0.00000000E+00  0.00000000E+00  0.00000000E+00
  0.00000000E+00  0.00000000E+00  0.00000000E+00
  0.00000000E+00  0.00000000E+00  0.00000000E+00
  0.00000000E+00  0.00000000E+00  0.00000000E+00
  0.00000000E+00  0.00000000E+00  0.00000000E+00
  0.00000000E+00  0.00000000E+00  0.00000000E+00
  0.00000000E+00  0.00000000E+00  0.00000000E+00
  0.00000000E+00  0.00000000E+00  0.00000000E+00
  0.00000000E+00  0.00000000E+00  0.00000000E+00
  0.00000000E+00  0.00000000E+00  0.00000000E+00
  0.00000000E+00  0.00000000E+00  0.00000000E+00
  0.00000000E+00  0.00000000E+00  0.00000000E+00
  0.00000000E+00  0.00000000E+00  0.00000000E+00