Amorphous AsTe                          
   1.00000000000000     
    21.1272922372385494    0.0000000000000000    0.0000000000000000
     0.0000000000000000   21.1272922372385494    0.0000000000000000
     0.0000000000000000    0.0000000000000000   21.1272922372385494
   As   Te
   150   150
Direct
  0.0564143292638014  0.1454746946592897  0.5263361901347230
  0.2535515365043097  0.7422604934327188  0.3591338744976773
  0.2932586114443240  0.7870974414681611  0.0833489518130448
  0.5155815092344064  0.3917343132149843  0.8879615670668330
  0.0456024386459092  0.6488794647109237  0.2370972878861870
  0.3489506016235083  0.9876745821763629  0.4468787732646031
  0.2734985309671061  0.3131359710731268  0.9341359163253918
  0.3122294828125360  0.8434964399965632  0.3304808871983943
  0.5356541340025431  0.0417805242275463  0.1622795385991611
  0.1656039766210238  0.1258609189815010  0.4661647527144008
  0.7391572632132476  0.6033638035427319  0.3963647310175873
  0.6990227278211874  0.8970366985587782  0.5041517502945233
  0.6338967859204154  0.3954229770425045  0.8922193926397588
  0.0519392402983731  0.2432116780411528  0.5956146235483325
  0.2418829121895684  0.1105869460475478  0.5600081696261725
  0.6302281603472999  0.4252969551220016  0.2407150176373904
  0.1254483981382514  0.2117298657491294  0.7093864391125022
  0.6748861934157498  0.7502535596634259  0.6074354395670766
  0.6330214394102318  0.0572742841065154  0.3105770720514937
  0.3907759168124172  0.1545241176964585  0.2503239497725920
  0.3720550134196939  0.1076898169352694  0.1409972461257372
  0.7928865755940128  0.7956401863444277  0.1687882059689679
  0.0856507492072120  0.2280769724153347  0.2029304116614577
  0.9027356623065722  0.5114559037010342  0.7838862328246210
  0.7301222000395183  0.1207693701073388  0.3445188089788437
  0.2109848870697509  0.4944768521597419  0.7604904727839551
  0.7970251754708223  0.8060125437637572  0.2900880117214066
  0.9239384374872062  0.4809029274953736  0.6172213766266306
  0.4702056209240260  0.0709860010403562  0.9858695680095313
  0.1124517857080045  0.0957774458250439  0.2150690080986415
  0.3013656554541931  0.8777835956827286  0.4455083486998194
  0.7456864005536399  0.6004611216718181  0.2778522962313255
  0.5290705523497268  0.7169365375904675  0.6862653090211684
  0.2181306690312633  0.6285344430496060  0.8874955927701308
  0.2624576250599613  0.9960589301754413  0.5290014159120461
  0.6497894707797013  0.2880487749968345  0.8463164701522817
  0.4459448139072230  0.8459365577974106  0.4294207072169230
  0.2120040498442141  0.7241103394183793  0.8195255927596888
  0.1977499085947496  0.4065403960409510  0.9351390561320267
  0.9347214995810075  0.1463532847218842  0.1264634354868814
  0.0213987107568091  0.4607216026534639  0.1238314999566551
  0.9000260123569180  0.9692040543717363  0.0858558146835714
  0.6861939109070506  0.1700642520084308  0.4984252927658118
  0.3349506594863665  0.3292108117258898  0.2769944441626161
  0.9947788904687497  0.6294588039618124  0.3428496844384273
  0.9607452078363258  0.8075586651608203  0.1991859593229781
  0.9708159023464628  0.3174916596170188  0.5357579432138087
  0.9779595844378990  0.8803992528096980  0.9815137683730664
  0.4255410418068672  0.6574387000729686  0.4129673005186779
  0.6096265680887785  0.6073409267113905  0.1882036055774165
  0.0079973494568749  0.8425604309356879  0.7909893154126022
  0.4994735120046883  0.4553827697863874  0.1882081924957185
  0.2675758168243402  0.8181300058774493  0.1951393126852193
  0.6931731264893195  0.4966135037946254  0.4123244616983154
  0.6466525252020049  0.0201032274341111  0.1991254408751770
  0.5676668635676163  0.8248719378559453  0.7196266557017330
  0.6541104441008389  0.4892049489041398  0.6967300729233357
  0.6107536608061279  0.9175571564369587  0.4286597169946066
  0.3345636436959723  0.9956370136514006  0.7813284317696109
  0.9082380453531429  0.5553561120484213  0.3088495615770830
  0.5028891760131821  0.6564979662173382  0.2040370870422140
  0.0287702635565976  0.2671461323636154  0.7552818812407734
  0.0508928969381512  0.0015906098829972  0.8459752418396672
  0.0247205488724677  0.1917100965082531  0.8483380811347091
  0.9731272371957977  0.2480134192257039  0.1740128842496370
  0.7584385289032433  0.6854131172367285  0.1358461712997626
  0.4136997553037630  0.6925354184989292  0.0278062347799287
  0.8723183146265763  0.9410786486846635  0.6944561410927772
  0.0114857825917971  0.0601861195535406  0.1553487001389409
  0.1380021172690193  0.0961298173956689  0.9759718658346075
  0.2297269067894415  0.4527863462824516  0.2462177528768842
  0.5191285918509739  0.3975374125773469  0.7463021331406431
  0.0420112195707265  0.7129533297163180  0.7002099454897935
  0.9932064917423354  0.5330427723004325  0.7015938804115153
  0.4119719735024651  0.7792576389569373  0.1074924241112144
  0.9005561285710625  0.3395235246067332  0.2793047735023493
  0.6482053650604791  0.8487539693978744  0.3425879112626459
  0.3567297994523342  0.4515485503216254  0.4008701509497645
  0.8453383410420887  0.6386994560345881  0.9704038870855940
  0.2420839456871627  0.3015407775827781  0.1293672624966854
  0.7682018471444912  0.9638724677079920  0.7533938672540142
  0.7411391965945098  0.0089089974031451  0.4999426637309553
  0.3971438097524499  0.2777346793568634  0.5617261073008196
  0.8054064711997445  0.3521001767034264  0.2041778396985029
  0.5736519166841595  0.2089968734560625  0.2114002255363979
  0.6431275017187515  0.6769902490572143  0.0976227913470210
  0.1729971858290031  0.6670060778345868  0.9948385898370568
  0.5621048213277928  0.4370460943980792  0.6400728274449892
  0.7338055935356399  0.1458153608960889  0.9113561574815833
  0.0680752227395798  0.4371550523956900  0.2352318786719465
  0.8495597466585151  0.4792181476358718  0.0294115369015493
  0.9522622312675175  0.5643971579640094  0.8767622017453001
  0.0635500250236965  0.8462120161430047  0.6161353451049238
  0.2146173397511578  0.3421917824674039  0.2887670629733570
  0.3796950504436776  0.0705596025608944  0.3349016298797242
  0.6097759804182113  0.2299561814804029  0.4285289920200236
  0.9788388383835555  0.3767068242215537  0.6390378263027715
  0.8624240699049991  0.8866415182135035  0.0114085231800676
  0.2963062716356065  0.4473481191817530  0.6851108329611794
  0.0977499848489829  0.9948979876644121  0.4828124699305365
  0.2517369901328979  0.5528221192889828  0.6585338974106693
  0.5056705585397487  0.0160262388652528  0.8820408198002382
  0.4053192078092576  0.3459312819052069  0.3719810380974720
  0.1152758848490093  0.3579051422593645  0.8632786058821049
  0.4391196011659217  0.4721998799833340  0.4819915067081079
  0.4886930610008734  0.9392278054247453  0.3620359974545848
  0.7966866099754474  0.1919778898726779  0.0715140595934790
  0.5686048920081488  0.1446449093425991  0.1098131784982470
  0.3498956807786598  0.4450774238143262  0.2528094883292201
  0.6820487639624672  0.1086777144045095  0.1253638750534104
  0.7144797931476796  0.7856423529450623  0.9612579395762821
  0.6679177042167280  0.4773801437799330  0.8148487256040438
  0.8856472798109161  0.7872000931852898  0.0737704782563734
  0.8132696935668432  0.6097383358350672  0.5610270647592951
  0.2631146916790381  0.3996963169654859  0.4490571361789649
  0.2210345493201347  0.2757621820283778  0.7433964210274884
  0.0289201660208622  0.4260313185013536  0.9106030995348883
  0.1302114262915473  0.3298282447802416  0.1575120272256224
  0.1627742518567709  0.0485807586545180  0.0815146387208971
  0.0117107082768764  0.0940868881910354  0.7145920699020972
  0.7581728444900822  0.3040382798014352  0.7946087246186091
  0.0548504892950755  0.0409310406964281  0.5827384339199138
  0.1129471842633120  0.5480203148494071  0.2484911523550004
  0.7928105365128255  0.7268326943418729  0.0303947094304070
  0.4296429095353138  0.0361873060219645  0.7203039263433978
  0.9558098602004637  0.6514038870899550  0.1580270379320778
  0.6956233082033435  0.2346765714908490  0.3452851496601038
  0.9705333229628128  0.1657667199548459  0.0139184083433856
  0.6849697731826766  0.0266287628399473  0.0403458434247660
  0.6589097086052635  0.6825369879252483  0.2664088262284014
  0.1569200757655715  0.7736612897803068  0.1842436417017208
  0.9020486746246346  0.8615869942498395  0.2908213233076045
  0.8582239713264239  0.1733067783133415  0.7674512114294554
  0.5606830654084793  0.8062996439528184  0.0084706821311584
  0.9708320023279883  0.8950065273157417  0.5603229281005625
  0.0420119214315953  0.9840182641419023  0.3174768175552476
  0.1917845732197155  0.4332091322762349  0.3600404131045325
  0.0752421451865049  0.5425447414028394  0.3657772251696932
  0.8031330625711341  0.8898181581730114  0.6094786103338951
  0.6384446667107794  0.0822841203320256  0.9477854690846309
  0.8594611970601023 -0.0108587249014064  0.5208797529114094
  0.9431216374523259  0.5376370182526160  0.1863261295245201
  0.9715907385154672  0.2008228979974563  0.6751152029584541
  0.9458122340697895  0.6416308910093904  0.6836928247941042
  0.9472598200073399  0.1089577534059965  0.8141595817456416
  0.9388498262599350  0.2276502329910485  0.2877997319768033
  0.5013701188776966  0.2157745040871588  0.6925473718413375
  0.4780267602384319  0.6577107306537125  0.7773647380779959
  0.1431887768541124  0.4039843818415415  0.5834324225063086
  0.1029384484914710  0.1236192274922698  0.7871555065826237
  0.7801000885174352  0.3748593294570170  0.0106376687937160
  0.2401252409117727  0.8556007025911641  0.6663025197279842
  0.4607128964550189  0.7052031096172776  0.5226741773334025
  0.1254459867146760  0.4013263273340285  0.7447024778546867
  0.7474779890812083  0.9214788926653719  0.3172444296664184
  0.1248153646447521  0.6597528168376063  0.4362231048484849
  0.9629952024395136  0.7540867546829999  0.9706892354791709
  0.0938234192809864  0.2007311078715220  0.0350730761357700
  0.1749552738744207  0.2540276484247208  0.4583637493881780
  0.4838730822891897  0.1111197571937484  0.5297050249741125
  0.4108031870781255  0.4006783404820455  0.5839939953893284
  0.1481125381970547  0.7906550505750773  0.4056159278589069
  0.7133531760542057  0.8826505742172859  0.1299612940726749
  0.2208656546216377  0.6885410283501225  0.2497821831927793
  0.0960187404122062  0.5626697282394495  0.6106755667680589
  0.2183914472259305  0.6911208581793207  0.5423274260085690
  0.3380923613474803  0.6156807421341365  0.7288026254580857
  0.6696801577692284  0.6411286855976824  0.6733333347063170
  0.0647844140901119  0.3876770943074820  0.4851407238148610
  0.8819926845500903  0.8062841163789936  0.5484034164264735
  0.8092348662243719  0.1401145877604011  0.2479697729290823
  0.4579753839132825  0.5533924836266316  0.2620662597666965
  0.0768145110676636  0.7235769453102727  0.5776749211338194
  0.2203792690677223  0.3000637584768606  0.5741286126307085
  0.2126410797106957  0.4893793319186541  0.5219881636164952
  0.3885557035533866  0.1391450177764895  0.6544988234127028
  0.4897405720315527  0.5162848726770628  0.9022091819512947
  0.9404850926860542  0.0284935992342112  0.2533521861002653
  0.6341040827618579  0.3418871488940584  0.1427582632191250
  0.2614617109186603  0.6641371673302283  0.0862638685014515
  0.1621834624383952  0.0659277735155166  0.6456585865616807
  0.5947094737148131  0.1254995414606645  0.6895718820444313
  0.4966672179118183  0.5454111170459414  0.6348818598766094
  0.3048311661466835  0.0672941300335867  0.8829169191730211
  0.4018197004827994  0.9655788999415679  0.2723277991166371
  0.1117082899274973  0.5428804939629548  0.0967386057485821
  0.4479234961150035  0.7516507087925436  0.8522560044762175
 -0.0097112061063307  0.4485561444189022  0.3392831886025754
  0.8428618814457316  0.2455198164269503  0.8689908554649595
  0.6702273186891258  0.4555809584682745  0.0833236510162006
  0.3578268648693555  0.0111914596076704  0.9905060506165166
  0.6037357469168313  0.3041693697138321  0.7276551635172969
  0.9011466855483962  0.8154259631826202  0.7326803485969977
  0.6798348041108471  0.2005954798446218  0.6210306155960537
  0.2452450677280138  0.1193805195563571  0.1511699272076518
  0.3009813381558313  0.7367786166831795  0.6503387137756881
  0.9465488118451899  0.9278925898154172  0.8616862217350985
  0.2094328090660558  0.2308489669088943  0.8615083835070404
  0.2870053654007976  0.9386107343687491  0.1589065280876789
  0.2521161608694002  0.0740744315664405  0.3471420278140873
  0.4524497663517533  0.9761719168189961  0.5205475342038939
  0.7372674957534118  0.3881834212445786  0.5432108035727865
  0.3748947260622586  0.4282760770649024 -0.0352657721359570
  0.2218878823048677  0.9437779058875057  0.0427836948881497
  0.1546176794481729  0.7897456497519166  0.9896537139032333
  0.3068157660466775  0.1790508111688960  0.7613023341099947
  0.3408152720327131  0.6131175971573937  0.8984247182517023
  0.5929964110342723  0.6548978704850059  0.3728857922951318
  0.8607892814252812  0.0666075025765005  0.6171759201991993
  0.4290218996861226  0.7585597712121877  0.3380193464612149
  0.6954367252336792  0.2292593484241796  0.0047907851467274
  0.6169486698719783  0.9263607632205021  0.5943735812844749
  0.4191056850713203  0.2150172101847932  0.0904257513252818
  0.3959284088578290  0.4907142030356819  0.7494423013502602
  0.6437588019635454  0.9751702689934668  0.8805398968131019
  0.5319985041658255  0.1318903715479693  0.3032670841181280
  0.8250028262842295  0.0949514211581108  0.9798402724264880
  0.5750634964375552  0.5873032254457442  0.8222202421697054
  0.7562624615969582  0.7170854256511807  0.5188784372991667
  0.1292495884173602  0.9654322526658233  0.2289881120521245
  0.1550650742638355  0.9058898682501879  0.5522801977622408
  0.6780863023739778  0.5217977003561171  0.5358149996508744
  0.4449789165536500  0.8572454815221235  0.0157079193024481
  0.8205059000208106  0.2769744883374088  0.5678834424788668
  0.8491131055263603  0.6719351635650723  0.2770548454606166
  0.7164499673810265  0.0182419414345126  0.6242490486763764
  0.7591859787794318  0.0905455703970456  0.7722101282114379
  0.7827546982377643  0.4238584845991785  0.8253979608058145
  0.0651228783330405  0.3482256860876538  0.0532573384746630
  0.2011628653003839  0.8897555148688450  0.8037557308142173
  0.8005534384180172  0.2388624092714896  0.4209074869476784
  0.7417351081917847  0.4015919139358836  0.3001368695633236
  0.6063186407006702  0.0759616733868389  0.4802123000491551
  0.9457936365131306  0.6762192399757565  0.8210139841885882
  0.8489162674441075  0.5468165355218341  0.4277319548373820
  0.0007991007278696  0.9017765388081359  0.1271973549344282
  0.2805423054572280  0.1977046429211986  0.2954028608738099
  0.7397389933619999  0.2423273166175090  0.1911253224470156
  0.5643555783048033  0.6090729037370941  0.5309108422099265
  0.8020273613437772  0.6312735640823758  0.6878466421493195
  0.4717195114125476  0.2822322525853704  0.1971495329663551
  0.3604835266813469  0.2548924750988711  0.4449679255711407
  0.8291239511766765  0.5007210961657405  0.1515478192677868
  0.0326814089817858  0.6456204997417860  0.0569335547230549
  0.5580999517951003  0.8217052466919329  0.8475330387504101
  0.8745968987768670  0.3211396350653611  0.6845529136816929
  0.9414494875143851  0.1687932826202503  0.4732700354089242
  0.5515719680190997  0.3674003811915176  0.3243487570629497
  0.2930035963404850  0.4373116576116762  0.8540358520513582
  0.5885950522728500  0.7856652461497970  0.1312398097708714
  0.0714012601766497  0.1065825033828075  0.3339271205225423
  0.9490655888276542  0.7851526358553720  0.3786878163804338
  0.4781152000638345  0.1116780054811563  0.8084369422457626
  0.2450631981698090  0.2271015541832215  0.0257673151182260
  0.4510477174838580  0.8148598647816245  0.6785567642424862
  0.8021544700117106  0.6660450174301548  0.8543974986409318
  0.2396648734661029  0.4203816618794279  0.0943236924418894
  0.3372773348267680  0.9390941049253015  0.6165321639214465
  0.4150173499819690  0.3331949922516961  0.7278187680042728
  0.5223030328497262  0.2495569741258436  0.5713785254914645
  0.0575925587368614  0.2745789855217342  0.3168538023403841
  0.4260842872009538  0.9276087350589733  0.8296486148559328
  0.8768210503462734  0.2919838431449419  0.0511316699602577
  0.6720984607274415  0.6810113805084714  0.9065590014539830
  0.5809711483075080  0.5224316142438979  0.3588140792905673
  0.0731971599729024  0.5338378612874952  0.8688654719194084
  0.4104119483871530  0.1748758911575342  0.9425076276934496
  0.7551546720564187  0.5518007476931869 -0.0146589889555133
  0.9368497473148915  0.6459601928525576  0.5490642718536104
  0.9440711497791756  0.3987709227448081  0.8175598822375189
  0.5398591440322394  0.5038802196126656  0.0786346866809366
  0.0207624345967476  0.0502867267763332  0.9886519952400099
  0.0092598781401739  0.8970067162767542  0.4408737455255711
  0.0681404728150957  0.8045532046997508  0.2766257547465672
  0.5535272215420314  0.8863156577148640  0.2678683611767274
  0.3026813198811206  0.6258153270550718  0.4439076768953880
  0.2131842339937139  0.9234608699931617  0.3644725649243092
  0.7953535936631412  0.8126121968036287  0.8673707145551809
  0.8158621428544841  0.9575946701498486  0.1777565253351465
  0.3722525681341630  0.5612398650624552  0.5411555238614898
  0.1270076931992320  0.6277099213005347  0.7309361733949760
  0.7796803781362225  0.9496920512687673  0.8844214521655995
  0.8590843978840472  0.3558107482645123  0.3970972730687469
  0.5563098353900882  0.8102647442935150  0.4755384217396095
  0.5354515161382309  0.6831929192435057 -0.0065687480070439
  0.9950522363098466  0.5193812728081600  0.5183063431866701
  0.5680632204702191  0.9729113418528863  0.0600309949906495
  0.0981650199397091  0.7389710337548732  0.8815397058036232
  0.5224991136397871  0.3443859540314145  0.0083201967062110
  0.0671398372481537  0.9389582453479343  0.7315420658995223
  0.4247725259379249  0.6047036075332483  0.1168575811965039
  0.7457572666443366  0.8128930719472341  0.6916405433880686
  0.3228184331427108  0.5434376384354284  0.0113918429138393
  0.3815680125059997  0.4271191678680030  0.1327599114049130
  0.1283045310244818  0.9345023250975829  0.9192523983928449
  0.2869504039753493  0.8128088781278240  0.8694369253687126
  0.7555938590810020  0.4167050115453528  0.6743965052299127
  0.9093915338046996  0.0552710278924955  0.4216841050309464
  0.5308164861862419  0.2365854163942934  0.9330099313224940
  0.6173271614506048  0.3561748138884592  0.4441153234026643
 
  0.00000000E+00  0.00000000E+00  0.00000000E+00
  0.00000000E+00  0.00000000E+00  0.00000000E+00
  0.00000000E+00  0.00000000E+00  0.00000000E+00
  0.00000000E+00  0.00000000E+00  0.00000000E+00
  0.00000000E+00  0.00000000E+00  0.00000000E+00
  0.00000000E+00  0.00000000E+00  0.00000000E+00
  0.00000000E+00  0.00000000E+00  0.00000000E+00
  0.00000000E+00  0.00000000E+00  0.00000000E+00
  0.00000000E+00  0.00000000E+00  0.00000000E+00
  0.00000000E+00  0.00000000E+00  0.00000000E+00
  0.00000000E+00  0.00000000E+00  0.00000000E+00
  0.00000000E+00  0.00000000E+00  0.00000000E+00
  0.00000000E+00  0.00000000E+00  0.00000000E+00
  0.00000000E+00  0.00000000E+00  0.00000000E+00
  0.00000000E+00  0.00000000E+00  0.00000000E+00
  0.00000000E+00  0.00000000E+00  0.00000000E+00
  0.00000000E+00  0.00000000E+00  0.00000000E+00
  0.00000000E+00  0.00000000E+00  0.00000000E+00
  0.00000000E+00  0.00000000E+00  0.00000000E+00
  0.00000000E+00  0.00000000E+00  0.00000000E+00
  0.00000000E+00  0.00000000E+00  0.00000000E+00
  0.00000000E+00  0.00000000E+00  0.00000000E+00
  0.00000000E+00  0.00000000E+00  0.00000000E+00
  0.00000000E+00  0.00000000E+00  0.00000000E+00
  0.00000000E+00  0.00000000E+00  0.00000000E+00
  0.00000000E+00  0.00000000E+00  0.00000000E+00
  0.00000000E+00  0.00000000E+00  0.00000000E+00
  0.00000000E+00  0.00000000E+00  0.00000000E+00
  0.00000000E+00  0.00000000E+00  0.00000000E+00
  0.00000000E+00  0.00000000E+00  0.00000000E+00
  0.00000000E+00  0.00000000E+00  0.00000000E+00
  0.00000000E+00  0.00000000E+00  0.00000000E+00
  0.00000000E+00  0.00000000E+00  0.00000000E+00
  0.00000000E+00  0.00000000E+00  0.00000000E+00
  0.00000000E+00  0.00000000E+00  0.00000000E+00
  0.00000000E+00  0.00000000E+00  0.00000000E+00
  0.00000000E+00  0.00000000E+00  0.00000000E+00
  0.00000000E+00  0.00000000E+00  0.00000000E+00
  0.00000000E+00  0.00000000E+00  0.00000000E+00
  0.00000000E+00  0.00000000E+00  0.00000000E+00
  0.00000000E+00  0.00000000E+00  0.00000000E+00
  0.00000000E+00  0.00000000E+00  0.00000000E+00
  0.00000000E+00  0.00000000E+00  0.00000000E+00
  0.00000000E+00  0.00000000E+00  0.00000000E+00
  0.00000000E+00  0.00000000E+00  0.00000000E+00
  0.00000000E+00  0.00000000E+00  0.00000000E+00
  0.00000000E+00  0.00000000E+00  0.00000000E+00
  0.00000000E+00  0.00000000E+00  0.00000000E+00
  0.00000000E+00  0.00000000E+00  0.00000000E+00
  0.00000000E+00  0.00000000E+00  0.00000000E+00
  0.00000000E+00  0.00000000E+00  0.00000000E+00
  0.00000000E+00  0.00000000E+00  0.00000000E+00
  0.00000000E+00  0.00000000E+00  0.00000000E+00
  0.00000000E+00  0.00000000E+00  0.00000000E+00
  0.00000000E+00  0.00000000E+00  0.00000000E+00
  0.00000000E+00  0.00000000E+00  0.00000000E+00
  0.00000000E+00  0.00000000E+00  0.00000000E+00
  0.00000000E+00  0.00000000E+00  0.00000000E+00
  0.00000000E+00  0.00000000E+00  0.00000000E+00
  0.00000000E+00  0.00000000E+00  0.00000000E+00
  0.00000000E+00  0.00000000E+00  0.00000000E+00
  0.00000000E+00  0.00000000E+00  0.00000000E+00
  0.00000000E+00  0.00000000E+00  0.00000000E+00
  0.00000000E+00  0.00000000E+00  0.00000000E+00
  0.00000000E+00  0.00000000E+00  0.00000000E+00
  0.00000000E+00  0.00000000E+00  0.00000000E+00
  0.00000000E+00  0.00000000E+00  0.00000000E+00
  0.00000000E+00  0.00000000E+00  0.00000000E+00
  0.00000000E+00  0.00000000E+00  0.00000000E+00
  0.00000000E+00  0.00000000E+00  0.00000000E+00
  0.00000000E+00  0.00000000E+00  0.00000000E+00
  0.00000000E+00  0.00000000E+00  0.00000000E+00
  0.00000000E+00  0.00000000E+00  0.00000000E+00
  0.00000000E+00  0.00000000E+00  0.00000000E+00
  0.00000000E+00  0.00000000E+00  0.00000000E+00
  0.00000000E+00  0.00000000E+00  0.00000000E+00
  0.00000000E+00  0.00000000E+00  0.00000000E+00
  0.00000000E+00  0.00000000E+00  0.00000000E+00
  0.00000000E+00  0.00000000E+00  0.00000000E+00
  0.00000000E+00  0.00000000E+00  0.00000000E+00
  0.00000000E+00  0.00000000E+00  0.00000000E+00
  0.00000000E+00  0.00000000E+00  0.00000000E+00
  0.00000000E+00  0.00000000E+00  0.00000000E+00
  0.00000000E+00  0.00000000E+00  0.00000000E+00
  0.00000000E+00  0.00000000E+00  0.00000000E+00
  0.00000000E+00  0.00000000E+00  0.00000000E+00
  0.00000000E+00  0.00000000E+00  0.00000000E+00
  0.00000000E+00  0.00000000E+00  0.00000000E+00
  0.00000000E+00  0.00000000E+00  0.00000000E+00
  0.00000000E+00  0.00000000E+00  0.00000000E+00
  0.00000000E+00  0.00000000E+00  0.00000000E+00
  0.00000000E+00  0.00000000E+00  0.00000000E+00
  0.00000000E+00  0.00000000E+00  0.00000000E+00
  0.00000000E+00  0.00000000E+00  0.00000000E+00
  0.00000000E+00  0.00000000E+00  0.00000000E+00
  0.00000000E+00  0.00000000E+00  0.00000000E+00
  0.00000000E+00  0.00000000E+00  0.00000000E+00
  0.00000000E+00  0.00000000E+00  0.00000000E+00
  0.00000000E+00  0.00000000E+00  0.00000000E+00
  0.00000000E+00  0.00000000E+00  0.00000000E+00
  0.00000000E+00  0.00000000E+00  0.00000000E+00
  0.00000000E+00  0.00000000E+00  0.00000000E+00
  0.00000000E+00  0.00000000E+00  0.00000000E+00
  0.00000000E+00  0.00000000E+00  0.00000000E+00
  0.00000000E+00  0.00000000E+00  0.00000000E+00
  0.00000000E+00  0.00000000E+00  0.00000000E+00
  0.00000000E+00  0.00000000E+00  0.00000000E+00
  0.00000000E+00  0.00000000E+00  0.00000000E+00
  0.00000000E+00  0.00000000E+00  0.00000000E+00
  0.00000000E+00  0.00000000E+00  0.00000000E+00
  0.00000000E+00  0.00000000E+00  0.00000000E+00
  0.00000000E+00  0.00000000E+00  0.00000000E+00
  0.00000000E+00  0.00000000E+00  0.00000000E+00
  0.00000000E+00  0.00000000E+00  0.00000000E+00
  0.00000000E+00  0.00000000E+00  0.00000000E+00
  0.00000000E+00  0.00000000E+00  0.00000000E+00
  0.00000000E+00  0.00000000E+00  0.00000000E+00
  0.00000000E+00  0.00000000E+00  0.00000000E+00
  0.00000000E+00  0.00000000E+00  0.00000000E+00
  0.00000000E+00  0.00000000E+00  0.00000000E+00
  0.00000000E+00  0.00000000E+00  0.00000000E+00
  0.00000000E+00  0.00000000E+00  0.00000000E+00
  0.00000000E+00  0.00000000E+00  0.00000000E+00
  0.00000000E+00  0.00000000E+00  0.00000000E+00
  0.00000000E+00  0.00000000E+00  0.00000000E+00
  0.00000000E+00  0.00000000E+00  0.00000000E+00
  0.00000000E+00  0.00000000E+00  0.00000000E+00
  0.00000000E+00  0.00000000E+00  0.00000000E+00
  0.00000000E+00  0.00000000E+00  0.00000000E+00
  0.00000000E+00  0.00000000E+00  0.00000000E+00
  0.00000000E+00  0.00000000E+00  0.00000000E+00
  0.00000000E+00  0.00000000E+00  0.00000000E+00
  0.00000000E+00  0.00000000E+00  0.00000000E+00
  0.00000000E+00  0.00000000E+00  0.00000000E+00
  0.00000000E+00  0.00000000E+00  0.00000000E+00
  0.00000000E+00  0.00000000E+00  0.00000000E+00
  0.00000000E+00  0.00000000E+00  0.00000000E+00
  0.00000000E+00  0.00000000E+00  0.00000000E+00
  0.00000000E+00  0.00000000E+00  0.00000000E+00
  0.00000000E+00  0.00000000E+00  0.00000000E+00
  0.00000000E+00  0.00000000E+00  0.00000000E+00
  0.00000000E+00  0.00000000E+00  0.00000000E+00
  0.00000000E+00  0.00000000E+00  0.00000000E+00
  0.00000000E+00  0.00000000E+00  0.00000000E+00
  0.00000000E+00  0.00000000E+00  0.00000000E+00
  0.00000000E+00  0.00000000E+00  0.00000000E+00
  0.00000000E+00  0.00000000E+00  0.00000000E+00
  0.00000000E+00  0.00000000E+00  0.00000000E+00
  0.00000000E+00  0.00000000E+00  0.00000000E+00
  0.00000000E+00  0.00000000E+00  0.00000000E+00
  0.00000000E+00  0.00000000E+00  0.00000000E+00
  0.00000000E+00  0.00000000E+00  0.00000000E+00
  0.00000000E+00  0.00000000E+00  0.00000000E+00
  0.00000000E+00  0.00000000E+00  0.00000000E+00
  0.00000000E+00  0.00000000E+00  0.00000000E+00
  0.00000000E+00  0.00000000E+00  0.00000000E+00
  0.00000000E+00  0.00000000E+00  0.00000000E+00
  0.00000000E+00  0.00000000E+00  0.00000000E+00
  0.00000000E+00  0.00000000E+00  0.00000000E+00
  0.00000000E+00  0.00000000E+00  0.00000000E+00
  0.00000000E+00  0.00000000E+00  0.00000000E+00
  0.00000000E+00  0.00000000E+00  0.00000000E+00
  0.00000000E+00  0.00000000E+00  0.00000000E+00
  0.00000000E+00  0.00000000E+00  0.00000000E+00
  0.00000000E+00  0.00000000E+00  0.00000000E+00
  0.00000000E+00  0.00000000E+00  0.00000000E+00
  0.00000000E+00  0.00000000E+00  0.00000000E+00
  0.00000000E+00  0.00000000E+00  0.00000000E+00
  0.00000000E+00  0.00000000E+00  0.00000000E+00
  0.00000000E+00  0.00000000E+00  0.00000000E+00
  0.00000000E+00  0.00000000E+00  0.00000000E+00
  0.00000000E+00  0.00000000E+00  0.00000000E+00
  0.00000000E+00  0.00000000E+00  0.00000000E+00
  0.00000000E+00  0.00000000E+00  0.00000000E+00
  0.00000000E+00  0.00000000E+00  0.00000000E+00
  0.00000000E+00  0.00000000E+00  0.00000000E+00
  0.00000000E+00  0.00000000E+00  0.00000000E+00
  0.00000000E+00  0.00000000E+00  0.00000000E+00
  0.00000000E+00  0.00000000E+00  0.00000000E+00
  0.00000000E+00  0.00000000E+00  0.00000000E+00
  0.00000000E+00  0.00000000E+00  0.00000000E+00
  0.00000000E+00  0.00000000E+00  0.00000000E+00
  0.00000000E+00  0.00000000E+00  0.00000000E+00
  0.00000000E+00  0.00000000E+00  0.00000000E+00
  0.00000000E+00  0.00000000E+00  0.00000000E+00
  0.00000000E+00  0.00000000E+00  0.00000000E+00
  0.00000000E+00  0.00000000E+00  0.00000000E+00
  0.00000000E+00  0.00000000E+00  0.00000000E+00
  0.00000000E+00  0.00000000E+00  0.00000000E+00
  0.00000000E+00  0.00000000E+00  0.00000000E+00
  0.00000000E+00  0.00000000E+00  0.00000000E+00
  0.00000000E+00  0.00000000E+00  0.00000000E+00
  0.00000000E+00  0.00000000E+00  0.00000000E+00
  0.00000000E+00  0.00000000E+00  0.00000000E+00
  0.00000000E+00  0.00000000E+00  0.00000000E+00
  0.00000000E+00  0.00000000E+00  0.00000000E+00
  0.00000000E+00  0.00000000E+00  0.00000000E+00
  0.00000000E+00  0.00000000E+00  0.00000000E+00
  0.00000000E+00  0.00000000E+00  0.00000000E+00
  0.00000000E+00  0.00000000E+00  0.00000000E+00
  0.00000000E+00  0.00000000E+00  0.00000000E+00
  0.00000000E+00  0.00000000E+00  0.00000000E+00
  0.00000000E+00  0.00000000E+00  0.00000000E+00
  0.00000000E+00  0.00000000E+00  0.00000000E+00
  0.00000000E+00  0.00000000E+00  0.00000000E+00
  0.00000000E+00  0.00000000E+00  0.00000000E+00
  0.00000000E+00  0.00000000E+00  0.00000000E+00
  0.00000000E+00  0.00000000E+00  0.00000000E+00
  0.00000000E+00  0.00000000E+00  0.00000000E+00
  0.00000000E+00  0.00000000E+00  0.00000000E+00
  0.00000000E+00  0.00000000E+00  0.00000000E+00
  0.00000000E+00  0.00000000E+00  0.00000000E+00
  0.00000000E+00  0.00000000E+00  0.00000000E+00
  0.00000000E+00  0.00000000E+00  0.00000000E+00
  0.00000000E+00  0.00000000E+00  0.00000000E+00
  0.00000000E+00  0.00000000E+00  0.00000000E+00
  0.00000000E+00  0.00000000E+00  0.00000000E+00
  0.00000000E+00  0.00000000E+00  0.00000000E+00
  0.00000000E+00  0.00000000E+00  0.00000000E+00
  0.00000000E+00  0.00000000E+00  0.00000000E+00
  0.00000000E+00  0.00000000E+00  0.00000000E+00
  0.00000000E+00  0.00000000E+00  0.00000000E+00
  0.00000000E+00  0.00000000E+00  0.00000000E+00
  0.00000000E+00  0.00000000E+00  0.00000000E+00
  0.00000000E+00  0.00000000E+00  0.00000000E+00
  0.00000000E+00  0.00000000E+00  0.00000000E+00
  0.00000000E+00  0.00000000E+00  0.00000000E+00
  0.00000000E+00  0.00000000E+00  0.00000000E+00
  0.00000000E+00  0.00000000E+00  0.00000000E+00
  0.00000000E+00  0.00000000E+00  0.00000000E+00
  0.00000000E+00  0.00000000E+00  0.00000000E+00
  0.00000000E+00  0.00000000E+00  0.00000000E+00