Amorphous Sb                            
   1.00000000000000     
    12.9298869700586909    0.0000000000000000    0.0000000000000000
     0.0000000000000000   12.9298869700586909    0.0000000000000000
     0.0000000000000000    0.0000000000000000   12.9298869700586909
   In   O 
    80   120
Direct
  0.2725513352061881  0.2057309995321503  0.9779377776757059
  0.6891922335429044  0.8574858805963714  0.7457647914473071
  0.5612852440096034  0.9257681102989821  0.3838569638206479
  0.7867636791764241  0.7303066769598843  0.9364143964732818
  0.2857742081734216  0.9544640330775209  0.3710988470861736
  0.6747014012364971  0.8945964743218795  0.0689479323280437
  0.4138704284436940  0.4211318303303173  0.9002818923330338
  0.0578156581822498  0.8379845679885207  0.4309252023820989
  0.6211440471077765  0.7410526462242828  0.1843087419016740
  0.6208932250728623  0.2899754302018422  0.4975867127357958
  0.6729065144709736  0.5533010216201717  0.3678733922728910
  0.6871467905488018  0.1119114578347862  0.8872654275567768
  0.8354478766883418  0.2844155039138911  0.6249102796778274
  0.4217228704434106  0.4791906272275739  0.4249629436609794
  0.2066630930827600  0.7661845319768403  0.6760882854351564
  0.7414611795657109  0.0775022775108312  0.3737817749823762
  0.7365320174486953  0.1177616094374230  0.1449338925073320
  0.0894830982755224  0.2192112085569420  0.6191030267954929
  0.2936128043947122  0.2406891626629744  0.7535387508759683
  0.2740728757351008  0.5525313039176822  0.2157641353092643
  0.3423621567567210  0.3378929933377322  0.1437164409771441
  0.4552387848037114  0.6439167243981814  0.9877268297709065
  0.2940887227842239  0.1317695070041367  0.2433641936199322
  0.4569810903849856  0.0802382575096345  0.9949034296071559
  0.8115988267952261  0.5995831043842799  0.1794355282481916
  0.7967330300032529  0.8435440323800592  0.2646087403473345
  0.4657663106270888  0.0603609840975707  0.7658582895418036
  0.6337120563990410  0.0547019949839509  0.6025110192246501
  0.1987642516964101  0.9778429647452214  0.0786934018709360
  0.4321688335114899  0.1098491031493722  0.4840269752364321
  0.8374938691731870  0.0300690559573411  0.7046909402905044
  0.1443598154633392  0.3965853521308560  0.0208661291025081
  0.9101868897631604  0.6473905742291421  0.4206265834576044
  0.2060202923121537  0.6244181701834961  0.9963632431350007
  0.6406960334119987  0.7430072475719953  0.5258578221533483
  0.2408640594261300  0.6493594101863849  0.4798159883711932
  0.4107179831121570  0.8729369363981476  0.6237196355727050
  0.9924233904653192  0.9879287139547088  0.2507142555387247
  0.2303777153818487  0.7831128648245382  0.2564605960652173
  0.8256103237350416  0.8804279026872166  0.5062538600583366
  0.2691195953138035  0.8240734813136470  0.8925629349123341
  0.9954896030886786  0.4522307464120985  0.1864993142795299
  0.5346427573359165  0.0762246393518495  0.2118406049138954
  0.9257227797957270  0.3900454331442589  0.4091568313268397
  0.8724047144158789  0.3236788347675557  0.9987122105985122
  0.2651382871091883  0.5395756905877533  0.7693840472961995
  0.3789782471948655  0.4015264994575958  0.6302964483283091
  0.6045854876491319  0.3149940138062348  0.7496206615540686
  0.9789393662448234  0.1634002990156915  0.8237261394965216
  0.4990682451055406  0.2867999750248487  0.2930545782459149
  0.0416119780248536  0.6810754350167230  0.2264832365130758
  0.1968109833526270  0.0339839158437627  0.8208118446330488
  0.1017818601309344  0.4579760399474608  0.5863917582383067
  0.0027975073961386  0.8272830489999663  0.0696967135904387
  0.0272279888958238  0.8133613539695048  0.8582065430841865
  0.9514131121267440  0.5787409911247394  0.9781286881163069
  0.0564846296021884  0.6090709960790264  0.7729705622148799
  0.1542186862278498  0.4242913627656080  0.3696704056155511
  0.9356677424508533  0.1060195324926738  0.4900748437015210
  0.4345649414228419  0.6648735434555064  0.7051956882147152
  0.4103827188563045  0.8564921376743087  0.1115652088150156
  0.5770459845939300  0.5214954846557234  0.5956106980932887
  0.8124383732217808  0.4863465817817882  0.5749718580432486
  0.7033658156043217  0.3489306603294224  0.2423283677129433
  0.3021636900266884  0.2932830687061099  0.4729494783677168
  0.6893006900487109  0.4911723929344163  0.0200763662440551
  0.5788623828394037  0.2961692652030123  0.9972159670494563
  0.4519211532913303  0.7213177098443637  0.3681812709237207
  0.6390358287575069  0.5837471076004803  0.8082831053566650
  0.8739845781179270  0.7044954084662649  0.6747897977304547
  0.9007099158188439  0.0149308446261713  0.9975416339724035
  0.5056785565174522  0.8505406627701930  0.8839912398424445
  0.0944820581346661  0.3671353229491956  0.8153300221526720
  0.8462545475088135  0.4546207725445512  0.7905277418248815
  0.5166161937735367  0.5029493043650106  0.1896522386291721
  0.2231165579158230  0.0318654850950253  0.5767733344190802
  0.0642118792797106  0.1639152979069110  0.0890107997507741
  0.9097005422287907  0.2453070572810176  0.2326617552531260
  0.0368301709270185  0.9135207352373200  0.6523290110974855
  0.1175485794117890  0.1912101138415068  0.3648686503594831
  0.8937342339244694  0.8551552829448710  0.9461291935347944
  0.1260864293160395  0.5237466287057586  0.2572473664744805
  0.1402401476372575  0.3148353120270215  0.4924049322037760
  0.1992017351084172  0.2679163097142094  0.1114352878620224
  0.4997747535132788  0.8216140207427358  0.4924516372503689
  0.9554160984260633  0.2676883967780128  0.5092081871598211
  0.5191855486405217  0.4994427336674860  0.0275311560895517
  0.1366578530498117  0.1031540596949014  0.2218525422455784
  0.1253631143381426  0.6985239045294023  0.3765524825113147
  0.2742006549066005  0.1895926777590304  0.6031500005797668
  0.8984674872051528  0.1041088138158059  0.1570144908308322
  0.1331507404188628  0.2115263746230767  0.7911029394400231
  0.0656859387314341  0.6992224421943121  0.9686972281192965
  0.5348407666868766  0.3662759820867763  0.6118495711971335
  0.1680776340735974  0.6011394074953245  0.6403704583590510
  0.3884987856056767  0.4297369945154799  0.2672000203879819
  0.2822704274116177  0.4709056508893781  0.0744725462128812
  0.7011147108134850  0.4692927657028321  0.7070471186826950
  0.3616285413321236  0.9712643264371437  0.5113340379133007
  0.4105628212109238  0.5525480586732101  0.5693056626255810
  0.7896825641730061  0.0468341216950421  0.5397013631173806
  0.7644118375369189  0.2448851017175429  0.7821712306044972
  0.1599299748035961  0.8826185160608446  0.7796175548404918
  0.1693121391284436  0.8709322515270230  0.5546022132861950
  0.5609986067821566  0.3478705796807517  0.1516296446745784
  0.2190809807722829  0.3949629618060513  0.6958436145912188
  0.4255291692938030  0.2003299693457734  0.1866961723439218
  0.1863354122722001  0.6768121141280545  0.1496539322296684
  0.1410794277721621  0.8715668932309484  0.9776895589493222
  0.5758617483296149  0.4337262355068745  0.8624368812082892
  0.2770493060254111  0.1265166995795042  0.4108378586830810
  0.3214514082212361  0.9917519423609278  0.7099263187030331
  0.0381504524930065  0.9970342050314471  0.0887590056219523
  0.6765366514694477  0.4404602821907133  0.4972888689185666
  0.7012256487741624  0.8416692723356292  0.4008051482437125
  0.1543772784013839  0.1006282087081729  0.9640355499734099
  0.0361623936870572  0.7548948918220759  0.6996615174143841
  0.5255263214364660  0.9679430477810342  0.0972462488165462
  0.8578834359443803  0.3996982495466881  0.2550675637778994
  0.1386896082750511  0.5119289858472484  0.8753300058706017
  0.5920518423203021  0.0714325443568455  0.4465206486737543
  0.9394866047053156  0.5739320943663628  0.2753629193151426
  0.2481865884509844  0.3451825306406846  0.8937764289461967
  0.9323807217154823  0.1539851759739150  0.6633385496072677
  0.9707741513104153  0.9525645036503150  0.5162697198797375
  0.9483776308697571  0.1810000531673239  0.9790985198962687
  0.4146970758929456  0.2892340732542777  0.0021484836157128
  0.7523340612042233  0.6846617397769705  0.3035742999570274
  0.3399951512835742  0.6017901486418822  0.3571920711078533
  0.4939949793828973  0.1379134509915403  0.6307199404011357
  0.4029487439183228  0.6233136880370012  0.1455220479130119
  0.0998162955608706  0.1080186481069489  0.5004546121815352
  0.7773699380982393  0.5572304307239477  0.8986991213963265
  0.0210775775988665  0.5146369999039919  0.4605414652965365
  0.5342269604451673  0.7771814268288182  0.0382055350564343
  0.8593066018687523  0.2917480978023264  0.8237430388035349
  0.5546379747897419  0.6309452438156740  0.2746129170183238
  0.2030898680483517  0.6862445653050102  0.8204363026176864
  0.7983164794309658  0.2850158921887243  0.3696050590032414
  0.6992095947091670  0.6540360633911817  0.0577965161935836
  0.1257129741516039  0.9630644112077036  0.3577356710326995
  0.6764897082783108  0.8496403111893116  0.9097580354665595
  0.6833039751179797  0.5015894098146916  0.1939496977415516
  0.3350700556412320  0.5626055441482833  0.9149676570231406
  0.3241185450033086  0.7420787462343270  0.0166565732040809
  0.5310298855166451  0.9069877835598632  0.7218560550922675
  0.8230433942541424  0.5147874990941901  0.4126288751273535
  0.8521273848761837  0.8690479690267452  0.6789520495573100
  0.9223272084173928  0.6727297605689913  0.8413588721357854
  0.6775662496144932  0.9942811020623381  0.2457729499480621
  0.5689355384747614  0.4210356121293302  0.3476878723049452
  0.2528257669151088  0.2945424914913346  0.3089212010039546
  0.3215309743274588  0.0861280171187744  0.0857663305873189
  0.8598296595171888  0.9681204234661180  0.3576154253240276
  0.8728456805140823  0.9089900909463609  0.1413871351474612
  0.3712628209036737  0.9332032531689265  0.9595505456615712
  0.7434143006817706  0.7095239836915042  0.7742782137534974
  0.7672600467941777  0.2182541340533959  0.4553372979552321
  0.9389276022428632  0.7817371510015434  0.3255083439743700
  0.4277671330251849  0.3176594437503866  0.7690449269497961
  0.2421650693124064  0.4866907359731556  0.4876565425981383
  0.4274245421495024  0.5110732397920401  0.7525563602752499
  0.9361818006641371  0.5454718395613938  0.6787260526808723
  0.0398858218766520  0.3272062245734304  0.3007184900838880
  0.3418811162940969  0.1198839521352397  0.8584583643508310
  0.3362799572312483  0.7297449588894054  0.5869079338037650
  0.9654425809205733  0.1331572077732162  0.3356112746473201
  0.7792553902590811  0.2690790272772645  0.1239784821504202
  0.5890556445873756  0.6693179618414220  0.6641996828992376
  0.0865917783775032  0.8443705113987150  0.2064943163809119
  0.0107429013504117  0.3567264997251982  0.6795185233636047
  0.5072309273443096  0.8413695020063727  0.2624335964345192
  0.8410223373922179  0.0807742280900641  0.8577506411503535
  0.9635613052367873  0.9535024335124973  0.7931877726878298
  0.4308405571082261  0.0355951938606438  0.3275196370273150
  0.8587986638937153  0.4793496243691280  0.0720794242448051
  0.1060741531014742  0.0592748630408551  0.6875970364500006
  0.7404892964212877  0.0280320617147254  0.0149377184031110
  0.9123061031266815  0.6933249936827792  0.0972674873133030
  0.7753908701365262  0.6508620541663674  0.5495927969566452
  0.3870474176407015  0.7174827230845864  0.2045275165044487
  0.5549655006354115  0.6175367679141885  0.4606688189877630
  0.0086348075848903  0.3192571757288647  0.0970613597689081
  0.9655755465294007  0.4274545050607514  0.9014825053774587
  0.5916570531123142  0.1506674580223333  0.0657161669984774
  0.2941221291027318  0.9278770225275323  0.2033818800500029
  0.0269613706140319  0.0097628660925650  0.8699931106053853
  0.6839415335711863  0.0245872515656842  0.7496364085881595
  0.6796556638754367  0.2156496570684610  0.6282961980121229
  0.5557658607785712  0.1999458918356112  0.8574287421720186
  0.6756414492297438  0.8900786345657465  0.5862534755193636
  0.0773969416334168  0.5321169602141254  0.0698673617843681
  0.5240197432223184  0.6876990927353290  0.8494537242974047
  0.3730770949282558  0.7983684247863536  0.7721007515823217
  0.6422992524797806  0.1922257021624603  0.2851999370694216
  0.7218824243136339  0.3480512196195846  0.9477858332828220
  0.9453385138209782  0.7576710589176159  0.5299826860763304
  0.3061734641155596  0.7959497891881995  0.3974991775858925
  0.4704588847750983  0.2593145628729729  0.4444667465916154
  0.5528618287099434  0.0068815267587325  0.8924210669726875
 
  0.00000000E+00  0.00000000E+00  0.00000000E+00
  0.00000000E+00  0.00000000E+00  0.00000000E+00
  0.00000000E+00  0.00000000E+00  0.00000000E+00
  0.00000000E+00  0.00000000E+00  0.00000000E+00
  0.00000000E+00  0.00000000E+00  0.00000000E+00
  0.00000000E+00  0.00000000E+00  0.00000000E+00
  0.00000000E+00  0.00000000E+00  0.00000000E+00
  0.00000000E+00  0.00000000E+00  0.00000000E+00
  0.00000000E+00  0.00000000E+00  0.00000000E+00
  0.00000000E+00  0.00000000E+00  0.00000000E+00
  0.00000000E+00  0.00000000E+00  0.00000000E+00
  0.00000000E+00  0.00000000E+00  0.00000000E+00
  0.00000000E+00  0.00000000E+00  0.00000000E+00
  0.00000000E+00  0.00000000E+00  0.00000000E+00
  0.00000000E+00  0.00000000E+00  0.00000000E+00
  0.00000000E+00  0.00000000E+00  0.00000000E+00
  0.00000000E+00  0.00000000E+00  0.00000000E+00
  0.00000000E+00  0.00000000E+00  0.00000000E+00
  0.00000000E+00  0.00000000E+00  0.00000000E+00
  0.00000000E+00  0.00000000E+00  0.00000000E+00
  0.00000000E+00  0.00000000E+00  0.00000000E+00
  0.00000000E+00  0.00000000E+00  0.00000000E+00
  0.00000000E+00  0.00000000E+00  0.00000000E+00
  0.00000000E+00  0.00000000E+00  0.00000000E+00
  0.00000000E+00  0.00000000E+00  0.00000000E+00
  0.00000000E+00  0.00000000E+00  0.00000000E+00
  0.00000000E+00  0.00000000E+00  0.00000000E+00
  0.00000000E+00  0.00000000E+00  0.00000000E+00
  0.00000000E+00  0.00000000E+00  0.00000000E+00
  0.00000000E+00  0.00000000E+00  0.00000000E+00
  0.00000000E+00  0.00000000E+00  0.00000000E+00
  0.00000000E+00  0.00000000E+00  0.00000000E+00
  0.00000000E+00  0.00000000E+00  0.00000000E+00
  0.00000000E+00  0.00000000E+00  0.00000000E+00
  0.00000000E+00  0.00000000E+00  0.00000000E+00
  0.00000000E+00  0.00000000E+00  0.00000000E+00
  0.00000000E+00  0.00000000E+00  0.00000000E+00
  0.00000000E+00  0.00000000E+00  0.00000000E+00
  0.00000000E+00  0.00000000E+00  0.00000000E+00
  0.00000000E+00  0.00000000E+00  0.00000000E+00
  0.00000000E+00  0.00000000E+00  0.00000000E+00
  0.00000000E+00  0.00000000E+00  0.00000000E+00
  0.00000000E+00  0.00000000E+00  0.00000000E+00
  0.00000000E+00  0.00000000E+00  0.00000000E+00
  0.00000000E+00  0.00000000E+00  0.00000000E+00
  0.00000000E+00  0.00000000E+00  0.00000000E+00
  0.00000000E+00  0.00000000E+00  0.00000000E+00
  0.00000000E+00  0.00000000E+00  0.00000000E+00
  0.00000000E+00  0.00000000E+00  0.00000000E+00
  0.00000000E+00  0.00000000E+00  0.00000000E+00
  0.00000000E+00  0.00000000E+00  0.00000000E+00
  0.00000000E+00  0.00000000E+00  0.00000000E+00
  0.00000000E+00  0.00000000E+00  0.00000000E+00
  0.00000000E+00  0.00000000E+00  0.00000000E+00
  0.00000000E+00  0.00000000E+00  0.00000000E+00
  0.00000000E+00  0.00000000E+00  0.00000000E+00
  0.00000000E+00  0.00000000E+00  0.00000000E+00
  0.00000000E+00  0.00000000E+00  0.00000000E+00
  0.00000000E+00  0.00000000E+00  0.00000000E+00
  0.00000000E+00  0.00000000E+00  0.00000000E+00
  0.00000000E+00  0.00000000E+00  0.00000000E+00
  0.00000000E+00  0.00000000E+00  0.00000000E+00
  0.00000000E+00  0.00000000E+00  0.00000000E+00
  0.00000000E+00  0.00000000E+00  0.00000000E+00
  0.00000000E+00  0.00000000E+00  0.00000000E+00
  0.00000000E+00  0.00000000E+00  0.00000000E+00
  0.00000000E+00  0.00000000E+00  0.00000000E+00
  0.00000000E+00  0.00000000E+00  0.00000000E+00
  0.00000000E+00  0.00000000E+00  0.00000000E+00
  0.00000000E+00  0.00000000E+00  0.00000000E+00
  0.00000000E+00  0.00000000E+00  0.00000000E+00
  0.00000000E+00  0.00000000E+00  0.00000000E+00
  0.00000000E+00  0.00000000E+00  0.00000000E+00
  0.00000000E+00  0.00000000E+00  0.00000000E+00
  0.00000000E+00  0.00000000E+00  0.00000000E+00
  0.00000000E+00  0.00000000E+00  0.00000000E+00
  0.00000000E+00  0.00000000E+00  0.00000000E+00
  0.00000000E+00  0.00000000E+00  0.00000000E+00
  0.00000000E+00  0.00000000E+00  0.00000000E+00
  0.00000000E+00  0.00000000E+00  0.00000000E+00
  0.00000000E+00  0.00000000E+00  0.00000000E+00
  0.00000000E+00  0.00000000E+00  0.00000000E+00
  0.00000000E+00  0.00000000E+00  0.00000000E+00
  0.00000000E+00  0.00000000E+00  0.00000000E+00
  0.00000000E+00  0.00000000E+00  0.00000000E+00
  0.00000000E+00  0.00000000E+00  0.00000000E+00
  0.00000000E+00  0.00000000E+00  0.00000000E+00
  0.00000000E+00  0.00000000E+00  0.00000000E+00
  0.00000000E+00  0.00000000E+00  0.00000000E+00
  0.00000000E+00  0.00000000E+00  0.00000000E+00
  0.00000000E+00  0.00000000E+00  0.00000000E+00
  0.00000000E+00  0.00000000E+00  0.00000000E+00
  0.00000000E+00  0.00000000E+00  0.00000000E+00
  0.00000000E+00  0.00000000E+00  0.00000000E+00
  0.00000000E+00  0.00000000E+00  0.00000000E+00
  0.00000000E+00  0.00000000E+00  0.00000000E+00
  0.00000000E+00  0.00000000E+00  0.00000000E+00
  0.00000000E+00  0.00000000E+00  0.00000000E+00
  0.00000000E+00  0.00000000E+00  0.00000000E+00
  0.00000000E+00  0.00000000E+00  0.00000000E+00
  0.00000000E+00  0.00000000E+00  0.00000000E+00
  0.00000000E+00  0.00000000E+00  0.00000000E+00
  0.00000000E+00  0.00000000E+00  0.00000000E+00
  0.00000000E+00  0.00000000E+00  0.00000000E+00
  0.00000000E+00  0.00000000E+00  0.00000000E+00
  0.00000000E+00  0.00000000E+00  0.00000000E+00
  0.00000000E+00  0.00000000E+00  0.00000000E+00
  0.00000000E+00  0.00000000E+00  0.00000000E+00
  0.00000000E+00  0.00000000E+00  0.00000000E+00
  0.00000000E+00  0.00000000E+00  0.00000000E+00
  0.00000000E+00  0.00000000E+00  0.00000000E+00
  0.00000000E+00  0.00000000E+00  0.00000000E+00
  0.00000000E+00  0.00000000E+00  0.00000000E+00
  0.00000000E+00  0.00000000E+00  0.00000000E+00
  0.00000000E+00  0.00000000E+00  0.00000000E+00
  0.00000000E+00  0.00000000E+00  0.00000000E+00
  0.00000000E+00  0.00000000E+00  0.00000000E+00
  0.00000000E+00  0.00000000E+00  0.00000000E+00
  0.00000000E+00  0.00000000E+00  0.00000000E+00
  0.00000000E+00  0.00000000E+00  0.00000000E+00
  0.00000000E+00  0.00000000E+00  0.00000000E+00
  0.00000000E+00  0.00000000E+00  0.00000000E+00
  0.00000000E+00  0.00000000E+00  0.00000000E+00
  0.00000000E+00  0.00000000E+00  0.00000000E+00
  0.00000000E+00  0.00000000E+00  0.00000000E+00
  0.00000000E+00  0.00000000E+00  0.00000000E+00
  0.00000000E+00  0.00000000E+00  0.00000000E+00
  0.00000000E+00  0.00000000E+00  0.00000000E+00
  0.00000000E+00  0.00000000E+00  0.00000000E+00
  0.00000000E+00  0.00000000E+00  0.00000000E+00
  0.00000000E+00  0.00000000E+00  0.00000000E+00
  0.00000000E+00  0.00000000E+00  0.00000000E+00
  0.00000000E+00  0.00000000E+00  0.00000000E+00
  0.00000000E+00  0.00000000E+00  0.00000000E+00
  0.00000000E+00  0.00000000E+00  0.00000000E+00
  0.00000000E+00  0.00000000E+00  0.00000000E+00
  0.00000000E+00  0.00000000E+00  0.00000000E+00
  0.00000000E+00  0.00000000E+00  0.00000000E+00
  0.00000000E+00  0.00000000E+00  0.00000000E+00
  0.00000000E+00  0.00000000E+00  0.00000000E+00
  0.00000000E+00  0.00000000E+00  0.00000000E+00
  0.00000000E+00  0.00000000E+00  0.00000000E+00
  0.00000000E+00  0.00000000E+00  0.00000000E+00
  0.00000000E+00  0.00000000E+00  0.00000000E+00
  0.00000000E+00  0.00000000E+00  0.00000000E+00
  0.00000000E+00  0.00000000E+00  0.00000000E+00
  0.00000000E+00  0.00000000E+00  0.00000000E+00
  0.00000000E+00  0.00000000E+00  0.00000000E+00
  0.00000000E+00  0.00000000E+00  0.00000000E+00
  0.00000000E+00  0.00000000E+00  0.00000000E+00
  0.00000000E+00  0.00000000E+00  0.00000000E+00
  0.00000000E+00  0.00000000E+00  0.00000000E+00
  0.00000000E+00  0.00000000E+00  0.00000000E+00
  0.00000000E+00  0.00000000E+00  0.00000000E+00
  0.00000000E+00  0.00000000E+00  0.00000000E+00
  0.00000000E+00  0.00000000E+00  0.00000000E+00
  0.00000000E+00  0.00000000E+00  0.00000000E+00
  0.00000000E+00  0.00000000E+00  0.00000000E+00
  0.00000000E+00  0.00000000E+00  0.00000000E+00
  0.00000000E+00  0.00000000E+00  0.00000000E+00
  0.00000000E+00  0.00000000E+00  0.00000000E+00
  0.00000000E+00  0.00000000E+00  0.00000000E+00
  0.00000000E+00  0.00000000E+00  0.00000000E+00
  0.00000000E+00  0.00000000E+00  0.00000000E+00
  0.00000000E+00  0.00000000E+00  0.00000000E+00
  0.00000000E+00  0.00000000E+00  0.00000000E+00
  0.00000000E+00  0.00000000E+00  0.00000000E+00
  0.00000000E+00  0.00000000E+00  0.00000000E+00
  0.00000000E+00  0.00000000E+00  0.00000000E+00
  0.00000000E+00  0.00000000E+00  0.00000000E+00
  0.00000000E+00  0.00000000E+00  0.00000000E+00
  0.00000000E+00  0.00000000E+00  0.00000000E+00
  0.00000000E+00  0.00000000E+00  0.00000000E+00
  0.00000000E+00  0.00000000E+00  0.00000000E+00
  0.00000000E+00  0.00000000E+00  0.00000000E+00
  0.00000000E+00  0.00000000E+00  0.00000000E+00
  0.00000000E+00  0.00000000E+00  0.00000000E+00
  0.00000000E+00  0.00000000E+00  0.00000000E+00
  0.00000000E+00  0.00000000E+00  0.00000000E+00
  0.00000000E+00  0.00000000E+00  0.00000000E+00
  0.00000000E+00  0.00000000E+00  0.00000000E+00
  0.00000000E+00  0.00000000E+00  0.00000000E+00
  0.00000000E+00  0.00000000E+00  0.00000000E+00
  0.00000000E+00  0.00000000E+00  0.00000000E+00
  0.00000000E+00  0.00000000E+00  0.00000000E+00
  0.00000000E+00  0.00000000E+00  0.00000000E+00
  0.00000000E+00  0.00000000E+00  0.00000000E+00
  0.00000000E+00  0.00000000E+00  0.00000000E+00
  0.00000000E+00  0.00000000E+00  0.00000000E+00
  0.00000000E+00  0.00000000E+00  0.00000000E+00
  0.00000000E+00  0.00000000E+00  0.00000000E+00
  0.00000000E+00  0.00000000E+00  0.00000000E+00
  0.00000000E+00  0.00000000E+00  0.00000000E+00
  0.00000000E+00  0.00000000E+00  0.00000000E+00
  0.00000000E+00  0.00000000E+00  0.00000000E+00
  0.00000000E+00  0.00000000E+00  0.00000000E+00
  0.00000000E+00  0.00000000E+00  0.00000000E+00
  0.00000000E+00  0.00000000E+00  0.00000000E+00
  0.00000000E+00  0.00000000E+00  0.00000000E+00
  0.00000000E+00  0.00000000E+00  0.00000000E+00
