In2O3 structure 32 - random placement wi
   1.00000000000000     
     8.0777011545342177   -0.0685481919568915    0.0424616837294810
    -0.0697097458372184    7.9041372919254345   -0.0140968094232298
     0.0428645469945572   -0.0129438026232077    8.1643909720758714
   In   Ga   O 
    14     2    24
Direct
  0.4265210336376626  0.1268341111948317  0.9400419151729977
  0.9647660984182593  0.0795772360844609  0.4738106404815738
  0.9317943479202384  0.1264638833054121  0.9390504906254975
  0.1907652553182686  0.8636074493361647  0.6867676093926747
  0.9498430716075816  0.5896839783484893  0.4666058305284935
  0.2050888515129898  0.3467346907630500  0.1798074286580018
  0.4601060154186243  0.0891498757434235  0.4546401544051051
  0.6639824326114834  0.8372248555410380  0.1609625495383398
  0.9143210768616683  0.6285834150610796  0.9304396798245591
  0.6932216606018784  0.3636256075586672  0.1719258295362280
  0.1852730103024740  0.3755636776585334  0.6823464570888618
  0.6704437910005439  0.3684391926475286  0.6813548159221696
  0.2165841065851026  0.8474362274412002  0.1752312359188863
  0.4537858181311947  0.5962244781201704  0.4541500680174622
  0.6773062483943448  0.8737348143023240  0.6820635863949249
  0.4277996227263756  0.6247657918978007  0.9373676849767705
  0.9513879126880198  0.3840153938896265  0.0779087320385798
  0.6788344603086003  0.2353054275886208  0.9209012658494728
  0.4725212571338346  0.2082494848350862  0.2109057088098041
  0.3277278133862538  0.5916191338686900  0.2133327255394164
  0.0673207569454135  0.3331398174961180  0.4150892405148099
  0.9223572888409564  0.4662811025199076  0.7179655703701187
  0.7171543658833954  0.1141865045571606  0.5708910489992434
  0.7073371600645686  0.4796830316450738  0.4138618643736649
  0.9007041874999544  0.9476952320751693  0.2326679412377359
  0.0828215693064465  0.1203452251844439  0.7195339897230895
  0.3281051473296586  0.3949826048927321  0.9150815750574068
  0.9549297334115252  0.7617819574859510  0.2220563190336264
  0.4415545104201044  0.9808015742596652  0.7096888594078195
  0.1737171526517542  0.0967474329330997  0.0592977493274560
  0.1700053775896819  0.7245157490767653  0.9183475303221513
  0.2138065304237315  0.9682258212656905  0.4195910304344608
  0.4436654207845407  0.8640896543682999  0.0305553438805006
  0.7917133223807937  0.8857860576176435  0.9058567909804367
  0.4256993431592022  0.3373291474452813  0.5663488504159346
  0.2069322076085314  0.6235994031146106  0.5620230386235576
  0.5581699554263082  0.6429244328656623  0.7206540553365741
  0.9076755270020698  0.8250513920301259  0.5952622856377516
  0.6546919588295950  0.5925444289652262  0.0425921342917377
  0.5739990783711235  0.8394651184712174  0.4088886361395865
 
  0.00000000E+00  0.00000000E+00  0.00000000E+00
  0.00000000E+00  0.00000000E+00  0.00000000E+00
  0.00000000E+00  0.00000000E+00  0.00000000E+00
  0.00000000E+00  0.00000000E+00  0.00000000E+00
  0.00000000E+00  0.00000000E+00  0.00000000E+00
  0.00000000E+00  0.00000000E+00  0.00000000E+00
  0.00000000E+00  0.00000000E+00  0.00000000E+00
  0.00000000E+00  0.00000000E+00  0.00000000E+00
  0.00000000E+00  0.00000000E+00  0.00000000E+00
  0.00000000E+00  0.00000000E+00  0.00000000E+00
  0.00000000E+00  0.00000000E+00  0.00000000E+00
  0.00000000E+00  0.00000000E+00  0.00000000E+00
  0.00000000E+00  0.00000000E+00  0.00000000E+00
  0.00000000E+00  0.00000000E+00  0.00000000E+00
  0.00000000E+00  0.00000000E+00  0.00000000E+00
  0.00000000E+00  0.00000000E+00  0.00000000E+00
  0.00000000E+00  0.00000000E+00  0.00000000E+00
  0.00000000E+00  0.00000000E+00  0.00000000E+00
  0.00000000E+00  0.00000000E+00  0.00000000E+00
  0.00000000E+00  0.00000000E+00  0.00000000E+00
  0.00000000E+00  0.00000000E+00  0.00000000E+00
  0.00000000E+00  0.00000000E+00  0.00000000E+00
  0.00000000E+00  0.00000000E+00  0.00000000E+00
  0.00000000E+00  0.00000000E+00  0.00000000E+00
  0.00000000E+00  0.00000000E+00  0.00000000E+00
  0.00000000E+00  0.00000000E+00  0.00000000E+00
  0.00000000E+00  0.00000000E+00  0.00000000E+00
  0.00000000E+00  0.00000000E+00  0.00000000E+00
  0.00000000E+00  0.00000000E+00  0.00000000E+00
  0.00000000E+00  0.00000000E+00  0.00000000E+00
  0.00000000E+00  0.00000000E+00  0.00000000E+00
  0.00000000E+00  0.00000000E+00  0.00000000E+00
  0.00000000E+00  0.00000000E+00  0.00000000E+00
  0.00000000E+00  0.00000000E+00  0.00000000E+00
  0.00000000E+00  0.00000000E+00  0.00000000E+00
  0.00000000E+00  0.00000000E+00  0.00000000E+00
  0.00000000E+00  0.00000000E+00  0.00000000E+00
  0.00000000E+00  0.00000000E+00  0.00000000E+00
  0.00000000E+00  0.00000000E+00  0.00000000E+00
  0.00000000E+00  0.00000000E+00  0.00000000E+00
