Amorphous Sb                            
   1.00000000000000     
    15.6378869700586876    0.0000000000000000    0.0000000000000000
     0.0000000000000000   15.6378869700586876    0.0000000000000000
     0.0000000000000000    0.0000000000000000   15.6378869700586876
   In   Ga   Zn   O 
    40    40    40   160
Direct
  0.2391114256602666  0.5968261725326547  0.2637167757605066
  0.4583985546658561  0.9096968450891290  0.0848871229063108
  0.3554204652289626  0.4126359112139348  0.3353928449434541
  0.4118116052842078  0.2929317194766365  0.6476925276918197
  0.9570169537394300  0.8409355535022662  0.8277416456046691
  0.8679806623132256  0.1802631770075334  0.6069999428667107
  0.3762384068517509  0.7015700821816840  0.0747940469977545
  0.4847175323407524  0.8867239608051695  0.8854028070002476
  0.5862376278545269  0.0928226257699339  0.9483488960647521
  0.8378425745553714  0.5685398876616240  0.3054476062503933
  0.5006326120877884  0.7191451202700430  0.5315254044553294
  0.2076993738094561  0.2078237597144630  0.9813005791405973
  0.9445590460783020  0.2744673313935972  0.1861023703432638
  0.7458068409105510  0.9337837067495721  0.4638390841040020
  0.8719217810854494  0.4310025934386575  0.4657745630051337
  0.5714028986439055  0.4419960384103709  0.7578135254809149
  0.7089987909668843  0.1028334531523785  0.7731111287432660
  0.4621603206720625  0.0577546857200830  0.7360582538513516
  0.5873614268654234  0.5445753616250691  0.0913032290694840
  0.7565687478144809  0.9179846903774598  0.8215846061756923
  0.7047137061426740  0.3143551957160663  0.8944988494976065
  0.8891569825432585  0.4398410498310222  0.6732207509520214
  0.1057735270934144  0.0040674696202496  0.9485135256529724
  0.1108078191378863  0.1060155529502015  0.3098261007121775
  0.7412417625385538  0.2838401032255619  0.2685437860331328
  0.5146968140365802  0.2027364317952101  0.2958312732497012
  0.5026169904741603  0.6373570530871282  0.8707775578698398
  0.6416630431516070  0.7373031524031165  0.3672862320296122
  0.8147802382871249  0.7692297750487330  0.6523559495391444
  0.0997276487801891  0.7649024206221018  0.3206074783190544
  0.9946678595903524  0.0822148620946556  0.1339902764180883
  0.4251520228933153  0.2672336583866107  0.8693571665210019
  0.8120287604490357  0.9219175727955967  0.1662887654470958
  0.3942040012226656  0.1633357273491736  0.0751774588929548
  0.8915478724492892  0.4615664910065594  0.9003478733753937
  0.3474667204881468  0.4507046045374940  0.7962283327649644
  0.7327928805599864  0.1933789284505700  0.4460845554140574
  0.1435077049072560  0.8527447875680895  0.6316067016735722
  0.8930420777062972  0.0886849250949508  0.3357641734478561
  0.9429787735097613  0.7465268862366645  0.1590458797137143
  0.0243939519252237  0.3107548403603778  0.6118620532941030
  0.2009409156562183  0.2656048095297399  0.6870300750179923
  0.1737711260187556  0.4837250174483180  0.4496522596300858
  0.1161396229066955  0.6727073247093188  0.5345982769340646
  0.0673062603580042  0.1735294923179681  0.8101554976131402
  0.5486805667507653  0.5410104464044737  0.3549174732095965
  0.4171610117833050  0.9326269255776802  0.5944140711688264
  0.6775328097150135  0.4221327408941568  0.4161027008167457
  0.5277176526592193  0.7056793232583205  0.1945606592285718
  0.2908668659163067  0.3735563830464839  0.9972511400441917
  0.2167436649856796  0.0567806769287945  0.1101640119084921
  0.5339366214696214  0.2875343903090302  0.4951303929611932
  0.6157022059600034  0.7892791736902773  0.0381095014047929
  0.0270071588256812  0.0814256118774879  0.6197484304012105
  0.7072471348263678  0.3380781195663453  0.6071186171473275
  0.8455179139080254  0.7720622089731802  0.3541844758557260
  0.6846515217941962  0.5539625615754548  0.8930353005287204
  0.5299467304754880  0.4818349728730998  0.5505818593126289
  0.0325939346952915  0.4234603122490340  0.3148225241960789
  0.0982833752927647  0.9805115488582337  0.4639331749676432
  0.7971552263764464  0.7806375277057068  0.0122187442031673
  0.9956782095525717  0.9227031460432970  0.3064256350442315
  0.7292893010251748  0.7258992487228136  0.1812404865724526
  0.3200826342644834  0.7328548710977204  0.8528708216989190
  0.9751465867219883  0.2578167848928616  0.4190477395026563
  0.5651647293956683  0.0740864011668835  0.1497980690576305
  0.3048531596780084  0.1884473362815229  0.3690371475682795
  0.0275735127968562  0.5767670056038642  0.1822216691553656
  0.0515137222272812  0.5126970358169909  0.5865747522411919
  0.5477198059122762  0.3841161563028480  0.2333742823176383
  0.1634846853536234  0.2958251713850500  0.3356663383128819
  0.1446129852051366  0.7947953227010416  0.8541540380280066
  0.6971940656898608  0.0450976567398562  0.3027886092209340
  0.9110900661326375  0.9382223918016712  0.9941785556050696
  0.2614316046815507  0.1296102527356540  0.8100406619408785
  0.4521580598636286  0.7916421806965177  0.7185015048378414
  0.5484181125189241  0.9262510358907677  0.4506117904812741
  0.2042089785075592  0.5632529650914149  0.0501487923443828
  0.7646385858961671  0.3920027109485160  0.0840846056398976
  0.2382358504462702  0.9302097281058488  0.3789959780947804
  0.2694201707422646  0.8685779149941887  0.0068155516256546
  0.9250039134994187  0.0469575062697748  0.7964093219098242
  0.2609164790970581  0.6593318260630419  0.6848997626375450
  0.4362751380963220  0.7470479448070744  0.3536418876012963
  0.6156922374292936  0.8611868743303722  0.6582361792772694
  0.8803082281780439  0.6370410173004908  0.5361316707117103
  0.6499401355379764  0.0435134195970392  0.5990348721864629
  0.5980587387369940  0.9097876218545257  0.2479565839220833
  0.3895590722615222  0.4999752246448413  0.1337169158451161
  0.8400515627596187  0.9682618087218634  0.6402542702047763
  0.2201595774641623  0.4536993115675977  0.6709683748991296
  0.3042480579903436  0.7866488975316882  0.5137091514598761
  0.4285543056535269  0.5863430341558328  0.6810691522342059
  0.2739539081852504  0.9263586978626556  0.7947724369709608
  0.6573910105392352  0.7461060716037993  0.8313658943527761
  0.7803371374303149  0.1120472040518164  0.0764719947858082
  0.8572899803251791  0.6268517332348986  0.8241687658599591
  0.9515950119457023  0.2796726014687195  0.9648389104796536
  0.0696995976914990  0.4018943268772568  0.0283126190199937
  0.1790206287040952  0.4333613395540905  0.1902509365251418
  0.0438867893060055  0.6634388045418090  0.9712590859674078
  0.4027664082362470  0.1065933217919724  0.5131031956877294
  0.8250868956600022  0.5605212908940994  0.0810121541523393
  0.0004747255119947  0.6197926013466420  0.3892080047506070
  0.5751261762165838  0.2246785829738664  0.7320011227392939
  0.2424345877847143  0.0436332279740001  0.6244103417249605
  0.0955961589392596  0.9152862166400532  0.1362157037780931
  0.3832903274197636  0.0230178585892240  0.2587888956875718
  0.8874320696148740  0.2497304825870909  0.7953629199372997
  0.3805184052291072  0.0376854527221512  0.9325180901814737
  0.0055418545867780  0.6920231941935391  0.7093460607262795
  0.1660855492231257  0.1842822750169648  0.5096019627553868
  0.3686473069035140  0.5790728767301843  0.4586894682785197
  0.7080258163361988  0.5935514828736680  0.5038032244730866
  0.5981185012354604  0.2467950389659261  0.0873274863465612
  0.6427666073994914  0.6350886458643377  0.6710136814487968
  0.3083068583069116  0.8094425828608303  0.2307386198949645
  0.1543375525254543  0.5791518643415078  0.8318624154623514
  0.1187885030136125  0.3803368309940501  0.8486677283803152
  0.9628802250637584  0.8249429144713341  0.5067767262856332
  0.1666466962749819  0.9177394291155445  0.8590067104817838
  0.7189838916631399  0.0676413474931722  0.5009490880238803
  0.8478229255928227  0.5058867490174093  0.7786902221470329
  0.0116430244848682  0.0240475519210129  0.3822076859816729
  0.2916632654327994  0.1639619036829865  0.4869805090142511
  0.0278692609940974  0.4223842894944825  0.6651813728966925
  0.4521111034369216  0.9847719022770711  0.4892693539434936
  0.9752530653247178  0.9737346495775510  0.8921730568346015
  0.9900129058453204  0.1584473136935139  0.2544408153852929
  0.4029532935998698  0.8125252645786415  0.5973102093148215
  0.4578435570636659  0.3636175805640212  0.7591370871709943
  0.4616361600123737  0.3319839072632465  0.3008440262127970
  0.1528195715461666  0.6017206994438561  0.9528194273279995
  0.8260029876176926  0.0002213132399354  0.0518912291325910
  0.4624131502818462  0.3798561152612595  0.5446811891485450
  0.7076787668745749  0.8153228629124700  0.7382277045991642
  0.0885005015853182  0.5704890439420049  0.4683550609482189
  0.9664215341513884  0.3429588329988894  0.5045287946966828
  0.2496588223084120  0.8927319796482669  0.4923040737974215
  0.4977405255679548  0.0246393318359801  0.8648580953434395
  0.8588086466401977  0.4470687938395668  0.0308216901366437
  0.3789308176280404  0.7040787618267472  0.4554624607925467
  0.2006440399861383  0.4640333260327056  0.7996065890962486
  0.4660695792953741  0.5325712628380379  0.7914235939727168
  0.8389179636234727  0.1388756771488108  0.7499792987760265
  0.6391400300018552  0.6230945926666221  0.8000076988812206
  0.5845447802015324  0.5734718648372072  0.9592369851377763
  0.3332888081424722  0.8279378794193374  0.1094322313941353
  0.5222224239480112  0.8107831204503159  0.4221701944414744
  0.1110433073573464  0.4960253225015617  0.1011536661390830
  0.4055204359479786  0.1277872758806369  0.3389196194145327
  0.7598943109314953  0.3326835768333028  0.3956589730257051
  0.6925367645683284  0.7495270422067419  0.9498700441909051
  0.5995733098651839  0.1043893803370754  0.2626787530806891
  0.8342600194716486  0.7972327715133497  0.2342971373831329
  0.2123642106729854  0.6946681625263533  0.7950553256079049
  0.9140541527889072  0.0509646539361163  0.5914756226225384
  0.0277416779329631  0.6611457005621788  0.0944535474678069
  0.0412255823192553  0.7771451562935554  0.9155834807991200
  0.7476071784792029  0.8088038729359113  0.4096616122824056
  0.6852763139668604  0.3177102571813305  0.0282835018506922
  0.7436469119171131  0.2262680536964825  0.5802291115629579
  0.1251381042028701  0.1201006537049151  0.0494520326197042
  0.8827175402865537  0.1818418674872422  0.4404636286031944
  0.5911410204310198  0.1046062820323464  0.6912972167318262
  0.6956274604927825  0.0240971737861156  0.8830128091933647
  0.5295366103146845  0.7708558199570943  0.8270008391044413
  0.9475879678658377  0.4984021837636061  0.3652092801713535
  0.5001496027405551  0.1884196167563112  0.1554369453448697
  0.1875961933423941  0.9479572520170643  0.0551024403605154
  0.4611276591510686  0.6055944888743219  0.1277699203971256
  0.0026840242822134  0.1942693672537043  0.5833537467277566
  0.6164629966297532  0.7891039070018550  0.2424309778694472
  0.2951747056796498  0.4811233045980686  0.0492695546413527
  0.6938718853116489  0.9834771235030831  0.1963656080458640
  0.7123763313917479  0.4962327551791470  0.1162154819259744
  0.0501644490716168  0.9075315579500582  0.5498345492169073
  0.7958172065393387  0.5804704811575672  0.9252255202109806
  0.0340005438322306  0.0819062931869241  0.7394703405689669
  0.2932170071445586  0.2292636766123197  0.8660460523283765
  0.3840179058296478  0.6906938698939692  0.7405675657712003
  0.3815206564369588  0.9185707049259083  0.9710612846766623
  0.2604751710428028  0.6367657263818847  0.1285961459290226
  0.5937562708987179  0.2288300812348238  0.4086201997797091
  0.3055919017451488  0.2722064283541560  0.0611153561298193
  0.2967764595449804  0.4728464448684289  0.2258107825790097
  0.4952895591658296  0.9716284405795518  0.2033898496177620
  0.2800564226009574  0.3129664879883947  0.3801362075584223
  0.1215529836943586  0.0306146795479900  0.1954484942910998
  0.2388859559259852  0.7761658308740110  0.9335131288081402
  0.5035366289231659  0.7750282330787678  0.0897057909848303
  0.9380843651856957  0.8459986025246437  0.3824773318646256
  0.2411195503420469  0.9294731180367686  0.6742348838619298
  0.7886728446250851  0.4208478297286671  0.5820317807819263
  0.8402980503389819  0.3224571785481247  0.8871544230670593
  0.4944937930190436  0.0480132179293781  0.0497480352001284
  0.4930853860412122  0.2062872884280041  0.9703305940763629
  0.2118098325427267  0.7296442360183566  0.5873446103120182
  0.6053921813308815  0.5166208626877024  0.4611407331354231
  0.1298114451031021  0.0638451507855539  0.5581718110628785
  0.5435355826869653  0.6499269031290663  0.3113826438459611
  0.0069838511621174  0.6729051773234394  0.2704643170790198
  0.0149986100599330  0.9733542724826252  0.0533633782964681
  0.8797695053860273  0.9294622961764217  0.7554354308096681
  0.8778801774446509  0.6634727415678524  0.4078133396274874
  0.7180121271096704  0.8244675823794966  0.1006326331839074
  0.7602118420670464  0.6464138060475998  0.6103178798434378
  0.8209623953129935  0.6854720500755511  0.0941904560719459
  0.9722841482657780  0.5944547683778615  0.8833524073358047
  0.0716076342807477  0.8039223583854614  0.7413930358505383
  0.3752568924066276  0.3888683713333426  0.9132480961360497
  0.5697194603499760  0.8925718961906873  0.9912852052680080
  0.2146633297084027  0.1927244995686493  0.2869667901058883
  0.1442101723229300  0.2849128990427606  0.5846576924920127
  0.8877402308884368  0.1668493737009719  0.1070851022494747
  0.0821387727173763  0.6193681576368902  0.6382386476321822
  0.4144726961659215  0.7382943068790476  0.2380922931646886
  0.9504799068443323  0.3275674230013754  0.3185603064629130
  0.0382826708709750  0.8410729941462509  0.2159259139214792
  0.8395846551250602  0.8544975802829604  0.9167267993715602
  0.2930502904366534  0.3447477988874562  0.6923782201374393
  0.8278067196515672  0.8722544228913376  0.5611068631146735
  0.9292259534397697  0.5241459046104607  0.5601908208042764
  0.7980872355504764  0.9928951043132400  0.3513048962809409
  0.6554435480726520  0.1269718985873042  0.0686446392771925
  0.1161738827831778  0.3941999682481156  0.3988511051252372
  0.7257904492117255  0.9889556112100001  0.6949763859959973
  0.1551822240492443  0.1177508741117345  0.8742138667817031
  0.3706092488711251  0.8409419993705139  0.8070927290560524
  0.9075686886681414  0.5464854322994720  0.1890345942600804
  0.9249172049642963  0.9893856069682494  0.2277950620048123
  0.2953047712538663  0.0974704987343477  0.9999416547175459
  0.6251523590124396  0.9209064391433193  0.5476369359841944
  0.1904306632966317  0.0394561398601603  0.4008526860804462
  0.5553093178427021  0.7392063453545156  0.6562272873392920
  0.6175106379918279  0.4508613770827399  0.3081317214506620
  0.4503469062263744  0.1964475127626460  0.7499371366359078
  0.2350742408429330  0.1506197030955505  0.6948033266308892
  0.4522271849829996  0.5805623796524915  0.5583400364467942
  0.8894559783578715  0.7299193055734049  0.7652459746238011
  0.6242910600079749  0.6825981645948247  0.4893147814409649
  0.5052006421020012  0.4408519458781541  0.1384711245456249
  0.3099173094786281  0.5402831646759051  0.6888855225212503
  0.6388806660091090  0.3277908427918924  0.7055876304831694
  0.3744688948421261  0.0417999908089670  0.6263401765449412
  0.1130191678752039  0.2779962851314167  0.7702625357310967
  0.9076713178723378  0.2995998422110885  0.6819478724513025
  0.4716380328689361  0.2062107608704228  0.5589446209287362
  0.2699346704134716  0.5295336939245673  0.3949984027747543
  0.1166975454111160  0.8944617280258615  0.3611230326913841
  0.0112405587978591  0.3945802216476317  0.9127413118932908
  0.1079887049473337  0.5291727155337392  0.2664828450953549
  0.6420586870465199  0.2012083446065571  0.8488691363066019
  0.6300062689206083  0.6716726515149470  0.1261225849706665
  0.6270461702777288  0.9572610785835952  0.3668260624795826
  0.0904723478388831  0.2158559927862910  0.4055414849869881
  0.5946749527809372  0.5168965062772636  0.6471307674610124
  0.4389332723323173  0.5055870206256636  0.3833410403408730
  0.9696890861595083  0.1920943421455294  0.8759656702234850
  0.3209154293638908  0.0796968576455322  0.1660537187011058
  0.7415109280035529  0.6627731290266047  0.2865211194033874
  0.0280289967667497  0.5947894856674976  0.8042770178130718
  0.8199426373831757  0.3369090073697248  0.1774684928674550
  0.7637342920462457  0.1560809738286913  0.3104034692109831
  0.1050076167541614  0.3478994928723231  0.2384811183933651
  0.9374568149130335  0.7325912091235306  0.5930126765044610
  0.7679218393600062  0.5111478668179400  0.4178318772060038
  0.2277666813061070  0.7278087901051965  0.2944671718999397
  0.6282891998518387  0.3638937213378970  0.5172571197730363
  0.3898178250852252  0.6761652564512570  0.9369025304903280
  0.3358290327109534  0.0369978478752467  0.8107092172771699
  0.6607176080956914  0.4383220979205561  0.8591716315144854
  0.0604466608813994  0.7356316290415653  0.4510756607669135
  0.8941861425235788  0.8405282764242770  0.0708384882364480
  0.1747748960465943  0.3452785161821995  0.9650112116562581
  0.0055666673121009  0.3055372713753557  0.0721903207484414
  0.6209503981704282  0.2919132294547122  0.2107150333877469
  0.4964867199101333  0.9169272177747859  0.6944974261650213
  0.1667151760713381  0.4694986744189403  0.5669503127022043
  0.3206309941733503  0.9171838111391282  0.2958740178574637
 
  0.00000000E+00  0.00000000E+00  0.00000000E+00
  0.00000000E+00  0.00000000E+00  0.00000000E+00
  0.00000000E+00  0.00000000E+00  0.00000000E+00
  0.00000000E+00  0.00000000E+00  0.00000000E+00
  0.00000000E+00  0.00000000E+00  0.00000000E+00
  0.00000000E+00  0.00000000E+00  0.00000000E+00
  0.00000000E+00  0.00000000E+00  0.00000000E+00
  0.00000000E+00  0.00000000E+00  0.00000000E+00
  0.00000000E+00  0.00000000E+00  0.00000000E+00
  0.00000000E+00  0.00000000E+00  0.00000000E+00
  0.00000000E+00  0.00000000E+00  0.00000000E+00
  0.00000000E+00  0.00000000E+00  0.00000000E+00
  0.00000000E+00  0.00000000E+00  0.00000000E+00
  0.00000000E+00  0.00000000E+00  0.00000000E+00
  0.00000000E+00  0.00000000E+00  0.00000000E+00
  0.00000000E+00  0.00000000E+00  0.00000000E+00
  0.00000000E+00  0.00000000E+00  0.00000000E+00
  0.00000000E+00  0.00000000E+00  0.00000000E+00
  0.00000000E+00  0.00000000E+00  0.00000000E+00
  0.00000000E+00  0.00000000E+00  0.00000000E+00
  0.00000000E+00  0.00000000E+00  0.00000000E+00
  0.00000000E+00  0.00000000E+00  0.00000000E+00
  0.00000000E+00  0.00000000E+00  0.00000000E+00
  0.00000000E+00  0.00000000E+00  0.00000000E+00
  0.00000000E+00  0.00000000E+00  0.00000000E+00
  0.00000000E+00  0.00000000E+00  0.00000000E+00
  0.00000000E+00  0.00000000E+00  0.00000000E+00
  0.00000000E+00  0.00000000E+00  0.00000000E+00
  0.00000000E+00  0.00000000E+00  0.00000000E+00
  0.00000000E+00  0.00000000E+00  0.00000000E+00
  0.00000000E+00  0.00000000E+00  0.00000000E+00
  0.00000000E+00  0.00000000E+00  0.00000000E+00
  0.00000000E+00  0.00000000E+00  0.00000000E+00
  0.00000000E+00  0.00000000E+00  0.00000000E+00
  0.00000000E+00  0.00000000E+00  0.00000000E+00
  0.00000000E+00  0.00000000E+00  0.00000000E+00
  0.00000000E+00  0.00000000E+00  0.00000000E+00
  0.00000000E+00  0.00000000E+00  0.00000000E+00
  0.00000000E+00  0.00000000E+00  0.00000000E+00
  0.00000000E+00  0.00000000E+00  0.00000000E+00
  0.00000000E+00  0.00000000E+00  0.00000000E+00
  0.00000000E+00  0.00000000E+00  0.00000000E+00
  0.00000000E+00  0.00000000E+00  0.00000000E+00
  0.00000000E+00  0.00000000E+00  0.00000000E+00
  0.00000000E+00  0.00000000E+00  0.00000000E+00
  0.00000000E+00  0.00000000E+00  0.00000000E+00
  0.00000000E+00  0.00000000E+00  0.00000000E+00
  0.00000000E+00  0.00000000E+00  0.00000000E+00
  0.00000000E+00  0.00000000E+00  0.00000000E+00
  0.00000000E+00  0.00000000E+00  0.00000000E+00
  0.00000000E+00  0.00000000E+00  0.00000000E+00
  0.00000000E+00  0.00000000E+00  0.00000000E+00
  0.00000000E+00  0.00000000E+00  0.00000000E+00
  0.00000000E+00  0.00000000E+00  0.00000000E+00
  0.00000000E+00  0.00000000E+00  0.00000000E+00
  0.00000000E+00  0.00000000E+00  0.00000000E+00
  0.00000000E+00  0.00000000E+00  0.00000000E+00
  0.00000000E+00  0.00000000E+00  0.00000000E+00
  0.00000000E+00  0.00000000E+00  0.00000000E+00
  0.00000000E+00  0.00000000E+00  0.00000000E+00
  0.00000000E+00  0.00000000E+00  0.00000000E+00
  0.00000000E+00  0.00000000E+00  0.00000000E+00
  0.00000000E+00  0.00000000E+00  0.00000000E+00
  0.00000000E+00  0.00000000E+00  0.00000000E+00
  0.00000000E+00  0.00000000E+00  0.00000000E+00
  0.00000000E+00  0.00000000E+00  0.00000000E+00
  0.00000000E+00  0.00000000E+00  0.00000000E+00
  0.00000000E+00  0.00000000E+00  0.00000000E+00
  0.00000000E+00  0.00000000E+00  0.00000000E+00
  0.00000000E+00  0.00000000E+00  0.00000000E+00
  0.00000000E+00  0.00000000E+00  0.00000000E+00
  0.00000000E+00  0.00000000E+00  0.00000000E+00
  0.00000000E+00  0.00000000E+00  0.00000000E+00
  0.00000000E+00  0.00000000E+00  0.00000000E+00
  0.00000000E+00  0.00000000E+00  0.00000000E+00
  0.00000000E+00  0.00000000E+00  0.00000000E+00
  0.00000000E+00  0.00000000E+00  0.00000000E+00
  0.00000000E+00  0.00000000E+00  0.00000000E+00
  0.00000000E+00  0.00000000E+00  0.00000000E+00
  0.00000000E+00  0.00000000E+00  0.00000000E+00
  0.00000000E+00  0.00000000E+00  0.00000000E+00
  0.00000000E+00  0.00000000E+00  0.00000000E+00
  0.00000000E+00  0.00000000E+00  0.00000000E+00
  0.00000000E+00  0.00000000E+00  0.00000000E+00
  0.00000000E+00  0.00000000E+00  0.00000000E+00
  0.00000000E+00  0.00000000E+00  0.00000000E+00
  0.00000000E+00  0.00000000E+00  0.00000000E+00
  0.00000000E+00  0.00000000E+00  0.00000000E+00
  0.00000000E+00  0.00000000E+00  0.00000000E+00
  0.00000000E+00  0.00000000E+00  0.00000000E+00
  0.00000000E+00  0.00000000E+00  0.00000000E+00
  0.00000000E+00  0.00000000E+00  0.00000000E+00
  0.00000000E+00  0.00000000E+00  0.00000000E+00
  0.00000000E+00  0.00000000E+00  0.00000000E+00
  0.00000000E+00  0.00000000E+00  0.00000000E+00
  0.00000000E+00  0.00000000E+00  0.00000000E+00
  0.00000000E+00  0.00000000E+00  0.00000000E+00
  0.00000000E+00  0.00000000E+00  0.00000000E+00
  0.00000000E+00  0.00000000E+00  0.00000000E+00
  0.00000000E+00  0.00000000E+00  0.00000000E+00
  0.00000000E+00  0.00000000E+00  0.00000000E+00
  0.00000000E+00  0.00000000E+00  0.00000000E+00
  0.00000000E+00  0.00000000E+00  0.00000000E+00
  0.00000000E+00  0.00000000E+00  0.00000000E+00
  0.00000000E+00  0.00000000E+00  0.00000000E+00
  0.00000000E+00  0.00000000E+00  0.00000000E+00
  0.00000000E+00  0.00000000E+00  0.00000000E+00
  0.00000000E+00  0.00000000E+00  0.00000000E+00
  0.00000000E+00  0.00000000E+00  0.00000000E+00
  0.00000000E+00  0.00000000E+00  0.00000000E+00
  0.00000000E+00  0.00000000E+00  0.00000000E+00
  0.00000000E+00  0.00000000E+00  0.00000000E+00
  0.00000000E+00  0.00000000E+00  0.00000000E+00
  0.00000000E+00  0.00000000E+00  0.00000000E+00
  0.00000000E+00  0.00000000E+00  0.00000000E+00
  0.00000000E+00  0.00000000E+00  0.00000000E+00
  0.00000000E+00  0.00000000E+00  0.00000000E+00
  0.00000000E+00  0.00000000E+00  0.00000000E+00
  0.00000000E+00  0.00000000E+00  0.00000000E+00
  0.00000000E+00  0.00000000E+00  0.00000000E+00
  0.00000000E+00  0.00000000E+00  0.00000000E+00
  0.00000000E+00  0.00000000E+00  0.00000000E+00
  0.00000000E+00  0.00000000E+00  0.00000000E+00
  0.00000000E+00  0.00000000E+00  0.00000000E+00
  0.00000000E+00  0.00000000E+00  0.00000000E+00
  0.00000000E+00  0.00000000E+00  0.00000000E+00
  0.00000000E+00  0.00000000E+00  0.00000000E+00
  0.00000000E+00  0.00000000E+00  0.00000000E+00
  0.00000000E+00  0.00000000E+00  0.00000000E+00
  0.00000000E+00  0.00000000E+00  0.00000000E+00
  0.00000000E+00  0.00000000E+00  0.00000000E+00
  0.00000000E+00  0.00000000E+00  0.00000000E+00
  0.00000000E+00  0.00000000E+00  0.00000000E+00
  0.00000000E+00  0.00000000E+00  0.00000000E+00
  0.00000000E+00  0.00000000E+00  0.00000000E+00
  0.00000000E+00  0.00000000E+00  0.00000000E+00
  0.00000000E+00  0.00000000E+00  0.00000000E+00
  0.00000000E+00  0.00000000E+00  0.00000000E+00
  0.00000000E+00  0.00000000E+00  0.00000000E+00
  0.00000000E+00  0.00000000E+00  0.00000000E+00
  0.00000000E+00  0.00000000E+00  0.00000000E+00
  0.00000000E+00  0.00000000E+00  0.00000000E+00
  0.00000000E+00  0.00000000E+00  0.00000000E+00
  0.00000000E+00  0.00000000E+00  0.00000000E+00
  0.00000000E+00  0.00000000E+00  0.00000000E+00
  0.00000000E+00  0.00000000E+00  0.00000000E+00
  0.00000000E+00  0.00000000E+00  0.00000000E+00
  0.00000000E+00  0.00000000E+00  0.00000000E+00
  0.00000000E+00  0.00000000E+00  0.00000000E+00
  0.00000000E+00  0.00000000E+00  0.00000000E+00
  0.00000000E+00  0.00000000E+00  0.00000000E+00
  0.00000000E+00  0.00000000E+00  0.00000000E+00
  0.00000000E+00  0.00000000E+00  0.00000000E+00
  0.00000000E+00  0.00000000E+00  0.00000000E+00
  0.00000000E+00  0.00000000E+00  0.00000000E+00
  0.00000000E+00  0.00000000E+00  0.00000000E+00
  0.00000000E+00  0.00000000E+00  0.00000000E+00
  0.00000000E+00  0.00000000E+00  0.00000000E+00
  0.00000000E+00  0.00000000E+00  0.00000000E+00
  0.00000000E+00  0.00000000E+00  0.00000000E+00
  0.00000000E+00  0.00000000E+00  0.00000000E+00
  0.00000000E+00  0.00000000E+00  0.00000000E+00
  0.00000000E+00  0.00000000E+00  0.00000000E+00
  0.00000000E+00  0.00000000E+00  0.00000000E+00
  0.00000000E+00  0.00000000E+00  0.00000000E+00
  0.00000000E+00  0.00000000E+00  0.00000000E+00
  0.00000000E+00  0.00000000E+00  0.00000000E+00
  0.00000000E+00  0.00000000E+00  0.00000000E+00
  0.00000000E+00  0.00000000E+00  0.00000000E+00
  0.00000000E+00  0.00000000E+00  0.00000000E+00
  0.00000000E+00  0.00000000E+00  0.00000000E+00
  0.00000000E+00  0.00000000E+00  0.00000000E+00
  0.00000000E+00  0.00000000E+00  0.00000000E+00
  0.00000000E+00  0.00000000E+00  0.00000000E+00
  0.00000000E+00  0.00000000E+00  0.00000000E+00
  0.00000000E+00  0.00000000E+00  0.00000000E+00
  0.00000000E+00  0.00000000E+00  0.00000000E+00
  0.00000000E+00  0.00000000E+00  0.00000000E+00
  0.00000000E+00  0.00000000E+00  0.00000000E+00
  0.00000000E+00  0.00000000E+00  0.00000000E+00
  0.00000000E+00  0.00000000E+00  0.00000000E+00
  0.00000000E+00  0.00000000E+00  0.00000000E+00
  0.00000000E+00  0.00000000E+00  0.00000000E+00
  0.00000000E+00  0.00000000E+00  0.00000000E+00
  0.00000000E+00  0.00000000E+00  0.00000000E+00
  0.00000000E+00  0.00000000E+00  0.00000000E+00
  0.00000000E+00  0.00000000E+00  0.00000000E+00
  0.00000000E+00  0.00000000E+00  0.00000000E+00
  0.00000000E+00  0.00000000E+00  0.00000000E+00
  0.00000000E+00  0.00000000E+00  0.00000000E+00
  0.00000000E+00  0.00000000E+00  0.00000000E+00
  0.00000000E+00  0.00000000E+00  0.00000000E+00
  0.00000000E+00  0.00000000E+00  0.00000000E+00
  0.00000000E+00  0.00000000E+00  0.00000000E+00
  0.00000000E+00  0.00000000E+00  0.00000000E+00
  0.00000000E+00  0.00000000E+00  0.00000000E+00
  0.00000000E+00  0.00000000E+00  0.00000000E+00
  0.00000000E+00  0.00000000E+00  0.00000000E+00
  0.00000000E+00  0.00000000E+00  0.00000000E+00
  0.00000000E+00  0.00000000E+00  0.00000000E+00
  0.00000000E+00  0.00000000E+00  0.00000000E+00
  0.00000000E+00  0.00000000E+00  0.00000000E+00
  0.00000000E+00  0.00000000E+00  0.00000000E+00
  0.00000000E+00  0.00000000E+00  0.00000000E+00
  0.00000000E+00  0.00000000E+00  0.00000000E+00
  0.00000000E+00  0.00000000E+00  0.00000000E+00
  0.00000000E+00  0.00000000E+00  0.00000000E+00
  0.00000000E+00  0.00000000E+00  0.00000000E+00
  0.00000000E+00  0.00000000E+00  0.00000000E+00
  0.00000000E+00  0.00000000E+00  0.00000000E+00
  0.00000000E+00  0.00000000E+00  0.00000000E+00
  0.00000000E+00  0.00000000E+00  0.00000000E+00
  0.00000000E+00  0.00000000E+00  0.00000000E+00
  0.00000000E+00  0.00000000E+00  0.00000000E+00
  0.00000000E+00  0.00000000E+00  0.00000000E+00
  0.00000000E+00  0.00000000E+00  0.00000000E+00
  0.00000000E+00  0.00000000E+00  0.00000000E+00
  0.00000000E+00  0.00000000E+00  0.00000000E+00
  0.00000000E+00  0.00000000E+00  0.00000000E+00
  0.00000000E+00  0.00000000E+00  0.00000000E+00
  0.00000000E+00  0.00000000E+00  0.00000000E+00
  0.00000000E+00  0.00000000E+00  0.00000000E+00
  0.00000000E+00  0.00000000E+00  0.00000000E+00
  0.00000000E+00  0.00000000E+00  0.00000000E+00
  0.00000000E+00  0.00000000E+00  0.00000000E+00
  0.00000000E+00  0.00000000E+00  0.00000000E+00
  0.00000000E+00  0.00000000E+00  0.00000000E+00
  0.00000000E+00  0.00000000E+00  0.00000000E+00
  0.00000000E+00  0.00000000E+00  0.00000000E+00
  0.00000000E+00  0.00000000E+00  0.00000000E+00
  0.00000000E+00  0.00000000E+00  0.00000000E+00
  0.00000000E+00  0.00000000E+00  0.00000000E+00
  0.00000000E+00  0.00000000E+00  0.00000000E+00
  0.00000000E+00  0.00000000E+00  0.00000000E+00
  0.00000000E+00  0.00000000E+00  0.00000000E+00
  0.00000000E+00  0.00000000E+00  0.00000000E+00
  0.00000000E+00  0.00000000E+00  0.00000000E+00
  0.00000000E+00  0.00000000E+00  0.00000000E+00
  0.00000000E+00  0.00000000E+00  0.00000000E+00
  0.00000000E+00  0.00000000E+00  0.00000000E+00
  0.00000000E+00  0.00000000E+00  0.00000000E+00
  0.00000000E+00  0.00000000E+00  0.00000000E+00
  0.00000000E+00  0.00000000E+00  0.00000000E+00
  0.00000000E+00  0.00000000E+00  0.00000000E+00
  0.00000000E+00  0.00000000E+00  0.00000000E+00
  0.00000000E+00  0.00000000E+00  0.00000000E+00
  0.00000000E+00  0.00000000E+00  0.00000000E+00
  0.00000000E+00  0.00000000E+00  0.00000000E+00
  0.00000000E+00  0.00000000E+00  0.00000000E+00
  0.00000000E+00  0.00000000E+00  0.00000000E+00
  0.00000000E+00  0.00000000E+00  0.00000000E+00
  0.00000000E+00  0.00000000E+00  0.00000000E+00
  0.00000000E+00  0.00000000E+00  0.00000000E+00
  0.00000000E+00  0.00000000E+00  0.00000000E+00
  0.00000000E+00  0.00000000E+00  0.00000000E+00
  0.00000000E+00  0.00000000E+00  0.00000000E+00
  0.00000000E+00  0.00000000E+00  0.00000000E+00