Amorphous Sb                            
   1.00000000000000     
    21.2291714401205631    0.0000000000000000    0.0000000000000000
     0.0000000000000000   21.2291714401205631    0.0000000000000000
     0.0000000000000000    0.0000000000000000   21.2291714401205631
   Sb
   300
Direct
  0.4815635436543034  0.1190447652681808  0.7032134768956556
  0.9032934904335406  0.0182800883243127  0.2044895771393087
  0.8829356569102187  0.5683957356758461  0.2594799774021678
  0.2431447796639791  0.7876015546582970  0.8292118074957798
  0.4445589532908001  0.7641375382498699  0.1776496054556317
  0.3358859191181538  0.5465177872089803  0.8946396162169643
  0.0776411969275446  0.0479065876278456  0.8583025913411639
  0.7732013354045167  0.4000508078724129  0.9962401390862653
  0.4411873229063406  0.1668114525777155  0.5764643933457978
  0.1441755906553536  0.3979929677766991  0.7706980764747405
  0.6438226108544461  0.6519777657255902  0.8799978188249847
  0.8330289350992263  0.4300838703240363  0.6680797513558451
  0.6053457328155585  0.1607507876621016  0.8474915735418198
  0.2253728776371005  0.2773662589730607  0.7677811535927254
  0.1305961961231219  0.9119683886795942  0.8259764703727425
  0.2879281569414393  0.0272174120174640  0.6132712294386179
  0.0403692349421878  0.3280833809648336  0.7062149653721940
  0.1534222553856671  0.8202440180770779  0.1164293961592698
  0.7261112755891889  0.4846975294990987  0.2786240285179966
  0.8532254890376201  0.3171467301119658  0.7498474332922764
  0.7307247702748900  0.1577907061625463  0.6073533939869662
  0.9591022468972429  0.4723658947765853  0.7508039778925413
  0.3614185578769564  0.3554081625931189  0.8055105711673668
  0.7764176434420210  0.5153711676152254  0.4751944414380374
  0.5379013320319660  0.7999052454148414  0.9116151114156550
  0.2901608431978472  0.4526504138495417  0.0267212811723845
  0.8360680612933884  0.1125046038667472  0.0439384390057444
  0.9961749632191390  0.1045329710771737  0.4653576399124857
  0.7017428164647384  0.6789818858282385  0.0030701085524601
  0.0592578617323787  0.5439599117201297  0.8988239756008151
  0.6659869975259864  0.8031440935200462  0.8665428276086321
  0.9061555827212829  0.6882005028204404  0.4400494278793942
  0.8410130933141257  0.8176238194532296  0.9481227061083379
  0.5206971839151946  0.5770037985320924  0.5827447006774528
  0.5568248177900293  0.9374279083751507  0.7680708166932918
  0.0314762899857800  0.4168522031507388  0.4974304294719532
  0.7793442345669522  0.0909927733837978  0.1711362214942592
  0.6844941465688112  0.3779899222314396  0.7736645058194743
  0.7341393192989278  0.7149956978956146  0.6987288796852825
  0.4021003672849655  0.1895982581097153  0.3051242392035040
  0.9331294537884359  0.8203073392415493  0.5445453365871975
  0.5638139478832018  0.7267561351997124  0.6196369972330935
  0.0003903045143546  0.0938687228939993  0.7472468226917300
  0.9856963819139526  0.8782056332116511  0.9698990741855011
  0.2773397841439303  0.8909321084972779  0.9488470875554639
  0.3441360139962513  0.2493045404540244  0.1569381187476810
  0.6129029212227919  0.4647925870167737  0.4418959407743474
  0.7547675375688482  0.5710450571468250  0.7015479788718965
  0.7043638909194437  0.1139177841616157  0.4658753927887808
  0.3202157967338402  0.4432822825448154  0.4809060673906598
  0.0756298329214754  0.7834505270608709  0.3626139769809510
  0.9385531177704856  0.1494384477482731  0.9324234253574732
  0.0009018605632478  0.5439115421207888  0.1899540620087183
  0.0229810477570464  0.2897844803777193  0.5552156820284412
  0.1392057331852272  0.1444498184060006  0.9683835338431379
  0.6674069881771946  0.1983077986660796  0.1937582246636775
  0.8862437177708632  0.3736959212188963  0.4919377935659536
  0.7401322307847960  0.6869455628089206  0.1485358216132803
  0.4166371456515723  0.3044783572626506  0.5843916583905581
  0.3469580101322203  0.6739050466147459  0.5136163486703915
  0.0795111527153457  0.3969548309436358  0.9210659463557168
  0.7037590787682001  0.9746192038822312  0.9431299315779945
  0.3624926839270243  0.7267082441837164  0.8703453036904107
  0.0467786020733697  0.0502578010508478  0.0229568383409002
  0.0209255114847270  0.4098165562387681  0.3491347087151837
  0.5904045844509858  0.3105227066583992  0.4381965970801971
  0.6574573437652911  0.6383006462012271  0.2528150155904277
  0.8522708599694825  0.2538956820852817  0.1562968047893448
  0.0472976038685214  0.3918036260688594  0.0576942744044236
  0.4672915532171885  0.7487179405687598  0.7769694082014982
  0.2202735598814708  0.3997133029901663  0.9125249811136349
  0.1150418335858884  0.1160632095423162  0.2973582853681295
  0.6089771983835839  0.6950963955013251  0.7397539965146243
  0.0808806756573290  0.5300698899186538  0.7660701412183938
  0.4171170521615585  0.9399408212041261  0.9210534857619106
  0.3052809237102300  0.8321197341032210  0.0864956195094419
  0.8570672086254771  0.2478508485429987  0.4400139555858328
  0.5226578627447199  0.0392306427272215  0.2728233649991488
  0.2867348236740774  0.5715710532379241  0.4409712839894068
  0.1474402620224906  0.4617969893419592  0.2115324445902148
  0.6291690596317775  0.3883743254220529  0.0000126122564903
  0.6934995287285399  0.0886233523213851  0.7544494985016491
  0.0930566588621469  0.6070660851468517  0.0377585498183701
  0.5833094516618303  0.2238962745296882  0.7053740381976588
  0.1507774686300511  0.4602490031887984  0.3480242392467924
  0.4265295652098500  0.4755365721498384  0.7556750488879618
  0.0869676961226992  0.8942038571971049  0.5318505947416441
  0.1594062583381381  0.8788888654735063  0.2345498162348116
  0.7496260523435471  0.3880109653413700  0.4693405629806235
  0.2323297163773575  0.9903813289840141  0.1906192113177704
  0.9216868370559851  0.9878747519727696  0.8997118645632088
  0.3222139181322794  0.6284491172055287  0.7792448922691787
  0.8060464115589879  0.0829453578227236  0.8246802112700008
  0.6193730543852685  0.5157966829695292  0.1515483389503258
  0.6949869413670180  0.9358006072216928  0.2388723188690750
  0.8461500038485427  0.9117879575465183  0.8116252028069268
  0.2952488329199993  0.1423667816268721  0.4423015069909202
  0.0357967942444027  0.6301154853379708  0.5781942188709213
  0.4832485562582448  0.2042071829656647  0.0092667879023285
  0.6353456687222807  0.2243386019458780  0.0328748067454322
  0.0397314467743546  0.3774702039017582  0.2099209862569091
  0.4380906050233072  0.8813930855770408  0.7856385373900415
  0.6022425588708158  0.4603417817103566  0.3070093553082813
  0.1966901362547530  0.0663304043929218  0.7916690617045921
  0.6415212182849193  0.7630032844298432  0.3130722075059638
  0.0662659898660321  0.7633382716524725  0.4971098360350438
  0.2348425873172305  0.0229284613946665  0.9460795823068747
  0.3328698924268657  0.1026813865711010  0.0152709368882366
  0.5144191698350963  0.0499970853343098  0.4204999915356994
  0.4638288635175813  0.3262580869548139  0.4459097167697669
  0.0039898584260375  0.1461079940311745  0.5947802218951834
  0.9388194888236853  0.5659506135708473  0.0756595014354508
  0.4194149823992813  0.8856275302210094  0.6386433882819090
  0.9974706463871993  0.2354978088534545  0.4276517282240865
  0.0077300947486158  0.2606291468420557  0.0663596176611518
  0.2914223016110399  0.4738564823099283  0.7875717826020296
  0.4361640592544132  0.1764976490941432  0.4347660621560454
  0.1699966204734614  0.2963890548635539  0.5193808487770909
  0.8737771540724252  0.6311404738282793  0.8515708087177154
  0.1490744813748812  0.1910661680653634  0.1089439720220212
  0.8037718845227780  0.5539122995741503  0.1290478593900765
  0.7044993560049756  0.8271839113446849  0.9912267200526422
  0.1857323047147920  0.5756370661553850  0.6354397974013711
  0.4660639416744590  0.6187514319038940  0.4651842722054038
  0.8628525500638817  0.3900612486266928  0.1714459891955242
  0.1807829618469642  0.4332029187836917  0.6402216188729267
  0.5418257703958347  0.3565480842680281  0.7281372015414497
  0.7515718695296572  0.5997347523062001  0.3633063597737411
  0.7223984379028651  0.2420765894020282  0.7355159509964031
  0.5046732444299576  0.8793451251272638  0.2038838006423863
  0.7328239565932698  0.8724074135392057  0.6728659730512085
  0.8725533494848865  0.2881868826757705  0.6137855906815920
  0.5017418538961692  0.4456151558503378  0.5726498555750236
  0.4818176898678211  0.5027111915550697  0.8874958534769642
  0.6236577374632574  0.5292706111508834  0.0168611178337200
  0.4883022131469855  0.3514688476601187  0.0156316567580171
  0.3868205080427720  0.8326911734905799  0.4978141870115166
  0.5789495056920206  0.0355780265567099  0.1230891845355438
  0.1458943251661614  0.3235815804580039  0.3645552988004545
  0.2785937883787662  0.7510497706820762  0.7028544659807514
  0.7218353901597281  0.6890507848837037  0.5598134396096230
  0.1777770559525414  0.0028809720621581  0.4923128805826165
  0.5319996938267783  0.6148464007073769  0.3055773881956262
  0.6749830187941456  0.9230076085708280  0.3806539467000584
  0.8141040366478430  0.9713447635740899  0.5242751313512644
  0.8932525833973292  0.6894304388113717  0.0012109425440409
  0.8142210851849735  0.9303710393889713  0.3810667945060142
  0.0542719122778096  0.9923099000984761  0.3451982769010454
  0.8415197484611930  0.9737079533094565  0.0087082953064268
  0.5097372897968628  0.7497419313992804  0.4870146516095233
  0.2146230211240338  0.6335683218446471  0.3040724073345818
  0.8214364242178118  0.8449397896299112  0.1055802977135093
  0.3424228125215134  0.8694857083828816  0.3631340097996379
  0.5238436663948863  0.9234816961453886  0.0701374192658503
  0.6451940407934557  0.8366583635841401  0.4918301556099139
  0.4057004931359984  0.9909955037655981  0.0611346441261070
  0.7355656869690854  0.4167688693311394  0.1355230393704832
  0.8366700655271558  0.7673064856110575  0.8158165665178018
  0.7250368986192398  0.9825616921200651  0.1141503204066559
  0.7795045651571370  0.2556650060887791  0.0374933152004069
  0.5083664742792662  0.0555365861372127  0.8266147160987173
  0.7331120471151563  0.0659236029455489  0.3258383735236133
  0.2698544739898865  0.1341896567213398  0.1469626375577633
  0.3384063514094409  0.4729827141166981  0.1854714151197167
  0.4454520312622427  0.0118367621381509  0.5788927777290280
  0.7195598900333964  0.2105093443958420  0.3305059213274686
  0.3408604015517679  0.3036184734759778  0.0319010483546912
  0.9209529879406959  0.8196767209788244  0.4091050271963496
  0.1907483508744111  0.2656621879918758  0.9098534335563495
  0.1610766438762395  0.0246969403520195  0.6558531024129823
  0.6175042219385898  0.4906517776005274  0.8402479274010827
  0.6334254752113802  0.5988531100383199  0.4348937602775548
  0.2178136726805351  0.6669249188312218  0.0138203073449171
  0.7558202893404189  0.5404977225818307  0.9924287354077526
  0.3463101592299787  0.9313192017946992  0.1636027014621894
  0.2750184713379869  0.0061603657650307  0.3179874951947332
  0.1031207216935669  0.1991644242935393  0.7333766284757782
  0.3180677732167585  0.2197317617726714  0.9280055008788569
  0.7272012603709019  0.2964286720014861  0.5874338335297031
  0.3503238363597529  0.5989013290827137  0.2991599842577051
  0.0465417424471782  0.9380567196168578  0.2184522460422695
  0.2395530731491091  0.3646038509485555  0.1853704363714748
  0.9192070823535243  0.4284105072263980  0.0242297174935625
  0.8804543867782085  0.7267752301794048  0.1341860958281217
  0.5697562730956923  0.0949148550051290  0.9935990588834825
  0.5618541189971595  0.9441906022998280  0.9303652431708342
  0.6343060757540434  0.2933018471372140  0.9073380740468315
  0.6268532769118833  0.8294094635141576  0.1857348438432403
  0.9216287784956876  0.6908348764960598  0.2989625978728847
  0.3079324329764965  0.2837821618499486  0.4721288206692178
  0.9396722097747661  0.9534546846221026  0.5780102156194213
  0.9656043717748015  0.3336343002943895  0.8225121503035397
  0.0453135866846203  0.6790762403439194  0.8548725455992586
  0.1738114716561999  0.9283973712880729  0.3753753504694872
  0.8978484459618956  0.5225094272938855  0.5485509479945181
  0.1076365934244987  0.8619551043033734  0.6726972014011109
  0.1370984840229438  0.2782354200283910  0.2335305836728009
  0.2907229115607319  0.1715978608615634  0.6164154332311641
  0.0581695571133484  0.6489140972484467  0.3260890620309754
  0.5746154944984903  0.2946429456449031  0.5776133756086613
  0.1849050325411048  0.6576343381131438  0.8111971376228654
  0.3223006668104380  0.0162385751747116  0.4766804045811094
  0.9857682320080181  0.8009550663054298  0.6888064189886436
  0.4117570237062242  0.2678594333431632  0.7181190017124972
  0.8714299994333617  0.0512200699252866  0.3369621688451950
  0.3654919783919089  0.6206677298257555  0.1485281579413915
  0.6465202520762741  0.9834566063785002  0.4992007855849805
  0.9436696724937376  0.9261487768841784  0.0859939296725583
  0.7043608530657824  0.4159050381770877  0.6451731192738377
  0.3623735339779023  0.4516011904297171  0.6161588673070511
  0.7797859444145246  0.8336945436391228  0.5475349191904609
  0.3116651538672914  0.1559529100384788  0.7453865731885048
  0.5004765182869035  0.9154080897232814  0.4930023425456376
  0.5810356794896608  0.1749725723151191  0.4006465360314936
  0.7445960838027161  0.3577771922394369  0.3306507366921227
  0.2543144550414352  0.1454348301546035  0.3023017853117244
  0.1646062115941397  0.5788492508352574  0.5044690464325476
  0.2251949679217785  0.5577539089164734  0.1048900663159929
  0.0278666751707112  0.7176268597219262  0.9849672810533976
  0.3644005581939476  0.7212925761807797  0.3556736876378084
  0.8053790628647675  0.4034435179538996  0.8605337862182123
  0.3318935892017036  0.5976946519670382  0.6317397509181699
  0.7879230003908112  0.7569428056720513  0.4116555135949485
  0.1973168956906487  0.3376406283176852  0.0556179444427949
  0.0097564175717728  0.2011731952864104  0.2801398707795916
  0.1476050144846486  0.1734049398348758  0.6148696020114875
  0.2618108316966919  0.9342829270072941  0.7981472296139123
  0.8448681240967372  0.1089309077101055  0.4951301167834099
  0.5095933919640572  0.6201890729793844  0.1691473260639356
  0.4922609310143344  0.4674362444340394  0.1567489667086592
  0.6347032998123856  0.3211657458350308  0.1348465145526826
  0.9783819008433380  0.8189534955276874  0.2483608652016766
  0.0843031544408295  0.6516318701461989  0.1779511894134860
  0.3957674310337395  0.0672512915240651  0.2468147327040900
  0.7370797114852138  0.0160373094187820  0.6432611183140717
  0.7462989769849004  0.5545219341149670  0.8389732864873490
  0.9710374579472194  0.8008751422710981  0.8227185569285284
  0.4900282095246305  0.3137223942534276  0.1521915377889995
  0.4270843902086207  0.7384973568370611  0.6402117256577549
  0.3231235387561615  0.7917382979210975  0.2363109200842802
  0.3690884606516033  0.0569892440402578  0.8833063229367658
  0.5845802538159064  0.3279967386310093  0.2973903615157746
  0.1544080076256546  0.7231290579035919  0.6606186370702631
  0.5882993503604038  0.1582223085305323  0.5557189965049495
  0.2314680502077771  0.6947949495567608  0.1839063799926577
  0.4304519409203463  0.7986335562002345  0.0420244617238232
  0.8432095578126430  0.8795423366986168  0.2388720125228863
  0.3630657388831487  0.0274591714168900  0.7298065325607606
  0.0496708136824024  0.2420345319455079  0.9328928340346466
  0.9048684057153548  0.1810649213036824  0.8021021543335800
  0.6686433853966176  0.5532699677191210  0.5644344582672080
  0.0381136504499583  0.4838812763848006  0.6167190851711691
  0.2822066945376460  0.8806502517544409  0.6466414879301403
  0.7794757840515889  0.2616012813796594  0.8790992822933401
  0.2651314913633246  0.3179724631955906  0.6340106011292033
  0.3738126987822794  0.6733406807026059  0.0177405573441014
  0.7377575559259605  0.1255759067567021  0.9348347623349128
  0.5417763701410936  0.1793506479338441  0.2444381199371061
  0.0247676766265989  0.6679651996858158  0.7130368288523788
  0.9625352986583058  0.1413498062788943  0.1621728337308514
  0.8758437291880392  0.3485437324726636  0.3022272344012265
  0.5990952311773153  0.8587755991988537  0.6272994292671696
  0.1747510733937628  0.4395608163956004  0.4988107534020745
  0.7872582670385676  0.7466999497047508  0.2719934075134915
  0.9957525004657903  0.5492362689177236  0.4545433511558285
  0.0819840357369244  0.0790196473100333  0.1540995863427584
  0.5007869947475141  0.7638268684266289  0.3397097324176662
  0.8987928527971168  0.5964300602367649  0.7081471120255887
  0.8640842112186096  0.6706044035008760  0.5772067527962217
  0.4497288692025883  0.1396285965657754  0.1412979377100632
  0.4416505057052275  0.4831750651640239  0.0318790134402066
  0.9077880448046993  0.2756625076616673  0.9581465031870977
  0.2286136008178166  0.8609774737714884  0.5169966032562558
  0.2225370136499980  0.7476923266758804  0.3821332879724035
  0.4798906087146576  0.9044172859127582  0.3470915719803590
  0.4461944484198189  0.3358758258325214  0.2970763663629161
  0.1248604232384263  0.8729708498888594  0.9572372351083248
  0.4387788201654742  0.4745845158022565  0.3016617729409974
  0.1370052277346888  0.1382234532933596  0.4390149971558815
  0.4633473638042008  0.4634766708513275  0.4437652172921668
  0.8629438004198009  0.2110261680739849  0.3022781980525035
  0.5081665179457167  0.6375035508870983  0.0100141218479979
  0.1566936806362755  0.9743656394675615  0.0423224400369008
  0.5648817471670327  0.0179453250714666  0.6510890779402085
  0.9167950400761776  0.4935894114806498  0.8952789207824259
  0.5780276079371721  0.7449050963125481  0.0322718560930240
  0.5066571688058124  0.6351935658226393  0.8750010553582327
  0.8670136479375542  0.9920170035134633  0.6955944797069240
  0.4522783283756156  0.6010234789941483  0.6975687681598205
  0.2990205233251831  0.4445972362652319  0.3300559725478816
  0.6110757869521787  0.5556371042943952  0.7209399850097329
  0.6975720833918667  0.9298713074307333  0.8117337747984245
  0.4888084306028507  0.3347053404829943  0.8588015843140619
  0.2059017467772853  0.5750609053113965  0.9200449318253499
  0.8897276111082981  0.4914727850445745  0.3777985379136816
  0.2863418028698912  0.3023659958111385  0.3362240733657255
  0.2043371901293628  0.7288123638588253  0.5162088496753853
  0.8634301520831502  0.1458286061496890  0.6283206680615097
  0.4584084798401057  0.2032505074241443  0.8666948700039536
  0.0205562560462793  0.7757309429339890  0.1322118225555386
 
 -0.45942142E-02 -0.12899651E-02 -0.36041499E-02
  0.44115221E-02 -0.25939019E-03 -0.28405145E-02
 -0.64122020E-03  0.16114340E-02 -0.13185046E-02
  0.11458439E-02 -0.49175011E-03 -0.33417210E-03
 -0.18358623E-03  0.90596960E-05 -0.20505016E-02
  0.15406865E-02  0.19062256E-02  0.45665176E-04
  0.31268655E-03 -0.71269395E-03  0.20757366E-02
  0.79046430E-03  0.85686342E-03 -0.29399985E-02
 -0.10659362E-02 -0.48649316E-03 -0.14816007E-02
  0.26761921E-02 -0.76199935E-03 -0.32502916E-04
  0.26084355E-02 -0.11968286E-02  0.52069639E-03
 -0.21370582E-03  0.22949598E-03 -0.16109298E-02
 -0.25468712E-02 -0.16839131E-02 -0.20148744E-02
  0.10409950E-03  0.28283102E-02 -0.54623257E-03
  0.29085447E-02 -0.38170893E-03 -0.15692531E-02
  0.51279365E-03  0.35091341E-02 -0.22174916E-02
 -0.18484802E-02  0.12285555E-02  0.23226839E-02
 -0.75019287E-03 -0.93570144E-03  0.70286525E-03
 -0.16613327E-02  0.17478072E-03  0.14483548E-02
  0.21744614E-02  0.15579276E-02  0.28564966E-02
 -0.24248564E-04  0.54624452E-03  0.43327847E-03
  0.18484353E-02 -0.12291801E-02  0.47856571E-03
  0.16636067E-02  0.22913246E-02 -0.80532748E-03
 -0.23061935E-03  0.21116187E-03 -0.27308198E-02
 -0.13834799E-02 -0.58060620E-03  0.14094345E-02
  0.13411393E-02 -0.74448456E-03 -0.14398348E-02
  0.29671289E-02 -0.86953841E-03  0.19166377E-02
  0.27496189E-02 -0.13684172E-02 -0.41435336E-02
  0.77821955E-03 -0.20181032E-02  0.25755035E-03
 -0.45197216E-03  0.82033810E-04  0.16373967E-02
 -0.17448890E-02  0.68909516E-03  0.60857518E-03
  0.13679399E-02  0.16318544E-02  0.14906928E-03
  0.16162575E-02 -0.15628476E-02  0.28733199E-02
 -0.23238982E-02  0.22994685E-03 -0.18153886E-02
  0.26627717E-04 -0.11873908E-02  0.13440926E-02
 -0.79877081E-03 -0.39469476E-03 -0.23656363E-02
 -0.26184026E-02  0.19737072E-02 -0.76906609E-03
  0.10744508E-02  0.57558494E-03 -0.15676166E-02
 -0.23621403E-02 -0.24379947E-02 -0.37790873E-02
  0.12350994E-02  0.20955536E-02  0.53198557E-03
 -0.29551494E-03  0.47253540E-03  0.18288804E-02
 -0.37723091E-03 -0.46298197E-04  0.22683714E-03
  0.17269711E-02 -0.80661940E-03  0.68871696E-03
  0.18359350E-02  0.21407753E-02 -0.20703076E-03
 -0.27568679E-02 -0.22562522E-02 -0.17931396E-02
 -0.20556490E-02 -0.12566076E-03 -0.15539263E-02
  0.99751918E-03  0.80215763E-03  0.53988088E-03
  0.19964025E-02  0.28064979E-03  0.18491396E-02
 -0.93553046E-03  0.13806237E-02  0.13812149E-02
  0.15902725E-02  0.18471676E-02 -0.52763944E-03
 -0.26122388E-02  0.46546025E-03 -0.64678201E-03
  0.19286011E-02  0.38663415E-02  0.25751334E-02
  0.57084323E-03 -0.12489033E-02  0.16357041E-03
  0.77554612E-03  0.70461341E-03  0.15158238E-02
  0.26211288E-02  0.24649178E-02 -0.18514198E-03
  0.93295200E-03 -0.10463162E-02 -0.12263861E-02
 -0.14555717E-02 -0.12971413E-03 -0.21837001E-02
  0.67920871E-03 -0.59393268E-04 -0.48545914E-03
  0.79440471E-03 -0.11258834E-02  0.30981492E-02
  0.26614148E-03 -0.75565356E-04  0.14171412E-02
  0.11728746E-02 -0.10229955E-02 -0.46946387E-02
  0.32086250E-02 -0.26664376E-02  0.88939521E-03
 -0.21502801E-02 -0.11079320E-02  0.23068989E-02
  0.75468527E-03 -0.10646557E-02  0.16825814E-02
  0.24308895E-05 -0.84221048E-03  0.10742574E-03
  0.21681134E-02 -0.17751369E-02 -0.21411350E-02
 -0.17434469E-02  0.45422767E-04  0.24848215E-02
 -0.82523619E-03 -0.21935516E-02  0.18343428E-03
 -0.31707710E-02 -0.54720057E-03 -0.14154743E-02
  0.11449086E-02  0.10270684E-02  0.30955392E-03
 -0.20401056E-02  0.79823742E-03 -0.10162247E-02
  0.17988356E-02  0.83430541E-03  0.21574053E-03
  0.14317363E-02 -0.85682458E-03  0.12843041E-02
  0.15470520E-02  0.19173065E-02 -0.10187410E-02
 -0.15409733E-02  0.24072646E-02 -0.10744663E-03
 -0.17067556E-02  0.21803580E-02 -0.15189307E-02
 -0.26540129E-03 -0.27226938E-02 -0.63815664E-03
 -0.38652627E-03 -0.17515813E-03  0.17975143E-03
  0.21815960E-03  0.33376889E-04  0.46330451E-03
 -0.25288395E-02  0.11985355E-02  0.26481926E-02
  0.12033521E-02  0.33681356E-03 -0.16248792E-02
 -0.23039068E-02 -0.14258214E-02 -0.11759324E-02
  0.17153679E-02 -0.69832304E-04 -0.86823814E-03
  0.21766385E-02  0.62730307E-03 -0.12705681E-02
  0.12979741E-02 -0.16647834E-02  0.22435251E-02
  0.60091286E-03 -0.76705438E-03 -0.26654649E-02
  0.99321341E-03  0.26533713E-02  0.96757611E-03
  0.12257063E-02 -0.29479301E-03 -0.20565168E-02
  0.20075935E-02 -0.86733297E-03 -0.12916925E-02
 -0.21710727E-02 -0.14977070E-02 -0.23609859E-03
 -0.20517449E-03 -0.41986771E-02  0.11441957E-02
  0.17912624E-03  0.21138296E-02  0.43538228E-02
  0.99756554E-03  0.13568826E-03 -0.14098552E-02
  0.29130992E-02 -0.15512544E-03  0.98995864E-03
  0.70837541E-03  0.67402071E-03  0.43383807E-03
  0.34654782E-02  0.36236585E-03 -0.11990260E-02
 -0.35445354E-02 -0.11671899E-02 -0.19461069E-02
  0.12939830E-02 -0.26408404E-02  0.86242667E-03
  0.68045591E-03  0.17150827E-03 -0.42590273E-02
  0.29742220E-02  0.70657287E-03 -0.31662261E-03
 -0.15960886E-02 -0.52221754E-04  0.17770283E-02
  0.39786933E-03  0.13722805E-02  0.21112494E-02
 -0.64528593E-03 -0.12602756E-02 -0.12000718E-03
  0.18162150E-02  0.10965588E-02 -0.25529648E-03
 -0.81914778E-03  0.69208288E-03 -0.41107891E-02
 -0.71323349E-03  0.28010004E-03 -0.19753434E-02
 -0.13810916E-02 -0.20712373E-02 -0.21660488E-02
 -0.13844603E-02  0.27597074E-02  0.12056702E-02
 -0.20309646E-02 -0.15375628E-02  0.28184926E-02
 -0.87397997E-03 -0.19723430E-02 -0.18847207E-03
  0.43992663E-03  0.10047349E-02  0.78067720E-04
 -0.12932609E-02  0.44493664E-03 -0.44955473E-03
 -0.13057931E-02 -0.53049072E-03 -0.62494121E-03
  0.26040969E-02  0.17061506E-02 -0.47724083E-03
 -0.34076426E-03 -0.47687042E-03 -0.14637162E-02
 -0.53970184E-03  0.11333109E-03 -0.51020292E-03
  0.29149401E-02  0.17862047E-02  0.60764117E-03
  0.29333212E-02 -0.81527885E-03  0.12206111E-02
  0.46184092E-03  0.20609704E-03  0.22078788E-02
  0.11779766E-02  0.25704800E-02 -0.31453451E-02
  0.17600931E-03 -0.17487645E-03 -0.19122806E-02
  0.51710144E-03 -0.32152396E-02 -0.89884268E-03
 -0.18687098E-02  0.63043842E-03  0.12368066E-02
 -0.83805329E-03  0.92301153E-04 -0.38919572E-03
  0.64989570E-05 -0.12582292E-02  0.36208205E-03
  0.84514725E-03 -0.11459891E-02 -0.13475439E-02
 -0.15957186E-03  0.13726035E-02  0.53581752E-03
 -0.17554152E-02 -0.25377617E-03  0.70703989E-04
 -0.40676440E-02  0.17702643E-02  0.36778171E-02
 -0.41761974E-02  0.58365014E-03 -0.16927225E-02
  0.19528318E-02 -0.25666648E-02 -0.16782631E-02
  0.12833764E-02  0.11655192E-02 -0.11473084E-02
 -0.74700840E-03 -0.20956672E-02  0.35973955E-02
  0.26081400E-02 -0.31587746E-02  0.16752122E-02
 -0.11074140E-02 -0.11959954E-03 -0.51342564E-03
  0.22516268E-02 -0.14886144E-03  0.14538953E-02
 -0.12700107E-02  0.18946325E-02  0.15249685E-02
 -0.33365295E-02 -0.14177990E-02 -0.15679475E-02
 -0.33786781E-03  0.33424153E-02 -0.18838960E-02
  0.28212225E-02 -0.24058053E-02  0.12733664E-02
 -0.27240809E-02  0.32717319E-06  0.24515172E-02
 -0.62664990E-03  0.21252190E-02  0.10492951E-02
  0.73326629E-03 -0.12962938E-02  0.31489264E-02
 -0.41882822E-02  0.20325502E-02 -0.43977320E-03
 -0.27462672E-02 -0.10394497E-02 -0.13245622E-02
 -0.36534062E-02 -0.11988821E-03  0.19969022E-02
 -0.87774175E-03 -0.18849023E-02  0.12634510E-02
 -0.13390090E-02  0.17978548E-02 -0.14983786E-02
  0.36251492E-03 -0.17621900E-02 -0.14728989E-02
  0.64752551E-04  0.70968291E-03  0.14833276E-02
 -0.39074691E-03 -0.15123912E-03 -0.79070705E-03
  0.12486100E-02 -0.18466301E-03 -0.92137426E-03
 -0.46067153E-03  0.15392553E-03 -0.18896722E-03
 -0.17003628E-02  0.17977396E-03  0.13130242E-02
 -0.10554937E-02 -0.20818145E-02 -0.34539676E-03
  0.36090351E-03 -0.17599735E-02  0.13570242E-02
 -0.10055532E-02  0.40879717E-02 -0.30183526E-03
 -0.24539154E-03 -0.16017225E-02  0.44871153E-03
 -0.11149102E-02 -0.85860823E-03  0.18928302E-02
 -0.26724129E-02  0.27596298E-04  0.19900566E-02
 -0.36394621E-03  0.30288957E-02  0.23187370E-02
  0.10240291E-02  0.83472275E-03  0.83484561E-03
  0.15394767E-02  0.11688849E-02  0.10774361E-02
 -0.14248394E-03  0.32113176E-02 -0.25283162E-02
  0.15836952E-02 -0.13974391E-03 -0.24257968E-03
 -0.12575306E-02  0.46336763E-03  0.32941878E-02
  0.22685243E-02 -0.30386380E-03 -0.51832542E-03
 -0.88243127E-03 -0.40842552E-03 -0.15786024E-02
 -0.25615387E-03 -0.11482180E-03  0.29734164E-02
  0.23569521E-02  0.33045045E-02 -0.51182286E-03
 -0.22594434E-02 -0.10542404E-02  0.64701561E-03
  0.21234912E-02 -0.12548540E-02  0.30187920E-02
  0.48188961E-03  0.74040750E-03 -0.42317206E-03
  0.30683891E-02 -0.44591157E-03 -0.33070204E-03
 -0.12302376E-02  0.41055431E-03  0.15444415E-02
 -0.13073933E-02  0.10219704E-02 -0.21832106E-02
  0.35193411E-03  0.90891168E-03  0.15889130E-02
  0.22127320E-02  0.24004529E-02  0.14396106E-02
 -0.17162119E-02  0.13856460E-02  0.67716095E-03
 -0.23761859E-02 -0.30843384E-02  0.16819267E-02
 -0.18808356E-02  0.29175705E-02 -0.56303000E-03
  0.69811891E-03  0.17748533E-02 -0.35348153E-02
 -0.24446041E-03  0.98808497E-03  0.10903275E-03
  0.81381323E-03  0.61828310E-03 -0.37155947E-05
 -0.81232345E-03  0.13518608E-02  0.52921911E-03
  0.19285950E-02  0.11604176E-02  0.10481446E-02
  0.72194960E-03  0.50523962E-03 -0.90442609E-03
  0.26109900E-02 -0.14440282E-03 -0.23746261E-02
  0.15017752E-02  0.33225047E-02  0.10619995E-02
 -0.19684715E-02 -0.99233887E-03 -0.20967429E-03
 -0.85864471E-03 -0.23163357E-02 -0.87409739E-03
  0.17223841E-02  0.33320072E-03 -0.17069563E-02
 -0.13340210E-02 -0.54352454E-03  0.25760566E-02
  0.83918610E-03 -0.28362773E-03 -0.57816660E-03
  0.88057528E-03  0.28848086E-03 -0.23372127E-03
  0.20984261E-02  0.32450645E-03  0.18291878E-03
  0.17865277E-02  0.32545443E-02  0.20951063E-02
  0.16921266E-02 -0.15561939E-02 -0.75415414E-04
  0.18164085E-03  0.48194872E-03  0.18213958E-02
  0.50717468E-03  0.23073560E-02  0.29145228E-02
  0.18528718E-03  0.21952773E-03  0.99327230E-03
  0.14710063E-02 -0.97275174E-04  0.23484444E-02
 -0.64187742E-03 -0.10264889E-02  0.17976249E-02
 -0.16518981E-05 -0.14501704E-02 -0.17261946E-02
 -0.86836546E-04 -0.22748734E-02  0.12817226E-02
  0.25613729E-03 -0.13844497E-02  0.24063861E-02
 -0.33154611E-02 -0.21124364E-02 -0.14365007E-02
 -0.58006099E-04  0.16519001E-02 -0.21708727E-03
 -0.19635772E-02 -0.12391672E-02  0.17690520E-02
 -0.21611257E-02  0.24284540E-02  0.69822033E-05
 -0.25990438E-02  0.11049121E-02 -0.10280518E-02
 -0.11651626E-02 -0.28349530E-03 -0.30642773E-04
  0.78490526E-03 -0.92908955E-03  0.17699290E-02
  0.44043346E-03 -0.14528601E-02 -0.45864900E-03
 -0.22405760E-02 -0.21686066E-02 -0.18543148E-02
 -0.12985381E-02  0.11603150E-02 -0.16457488E-04
  0.26483341E-02 -0.33132567E-04  0.10873398E-02
  0.17152331E-03  0.10350231E-02 -0.15831368E-02
 -0.31014039E-03 -0.13448749E-02 -0.38198830E-03
  0.13104796E-02 -0.24392690E-04  0.21359610E-02
 -0.88126040E-03 -0.81263467E-03 -0.37697541E-03
  0.24985932E-02  0.12436588E-02  0.10095038E-02
  0.19212137E-03  0.11199648E-02 -0.18242488E-02
 -0.82532257E-03 -0.12948334E-02  0.10368114E-02
  0.93691638E-04 -0.37434483E-02 -0.31837234E-02
  0.10533616E-02 -0.18524870E-02  0.80419439E-03
 -0.10107900E-04  0.10680532E-03  0.43655430E-03
  0.21799089E-02  0.87442153E-03 -0.75212300E-03
  0.34630034E-03 -0.29250833E-03 -0.60089659E-03
 -0.29833735E-02 -0.59886683E-03 -0.70953263E-03
 -0.31791414E-02 -0.31539292E-04 -0.28252491E-03
 -0.20446996E-03 -0.54041739E-03 -0.28946852E-02