Amorphous AsTe                          
   1.00000000000000     
    20.0272922372385516    0.0000000000000000    0.0000000000000000
     0.0000000000000000   20.0272922372385516    0.0000000000000000
     0.0000000000000000    0.0000000000000000   20.0272922372385516
   As   Se
   150   150
Direct
  0.1572998258099335  0.1986944034121922  0.2153029025719581
  0.6892432065311124  0.1540760340095087  0.8682422089795329
  0.9340433694045425  0.7174477993898178  0.2315531995044954
  0.9542827772374610  0.1067479204858262  0.8415859648699724
  0.6519740148311792  0.3864424843325939  0.3708647883472676
  0.3284106709252978  0.5917719921306621  0.3379463245293682
  0.4465482565690311  0.9327036406872492  0.8400041282487239
  0.5401018145490868  0.4940127359829958  0.8845284838543199
  0.3151190641576624  0.3522139068482376  0.9761927556611910
  0.5781466007402363  0.2939016469379144  0.1423885500339141
  0.4078766740968445  0.5856191844303666  0.1876276137034331
  0.2574203570675884  0.5318903906056068  0.7974010428197352
  0.0509051314206805  0.0275086014915855  0.8324526614654718
  0.0383235910600392  0.4663041850707361  0.4041840116016631
  0.6937609887820176  0.3570547548523479  0.6320263639374734
  0.8188461312843123  0.6519280726610338  0.0242327090127741
  0.9350279135461080  0.4774896112914050  0.5566355825701933
  0.7001950942686848  0.5412013548233559  0.1163925256439564
  0.4874618219605747  0.0278614097533373  0.0304846125078284
  0.6015703431043516  0.8079343963209290  0.4070025881715359
  0.4576777712317572  0.0843652503112441  0.9214214190543438
  0.9075501054607751  0.0308553297611135  0.0605358077272831
  0.8984370128308626  0.0606203720201089  0.3332117341710433
  0.7794083457802359  0.7481636115509669  0.8476100811439697
  0.0514549722560585  0.5100168312507622  0.5211522827629518
  0.3086770986162398  0.2264511943513660  0.2572446268676912
  0.7477054765431664  0.2973206792509954  0.2266258729065136
  0.3786007627729122  0.5543268533175247  0.0368743387522157
  0.4794055875752539  0.0476545754437464  0.5397831217859698
  0.4419789783441873  0.2090742894026428  0.7670544012976979
  0.1866614989181250  0.7579273456627410  0.8211283265251281
  0.3916389360233116  0.6056202586682676  0.8005208495254045
  0.6678561682403391  0.5466345939406979  0.3366123315937178
  0.1882149171744771  0.0696911273138471  0.1073298615639705
  0.6668839350501207  0.2485810042803712  0.9959192260388267
  0.9864767583876412  0.8655986949715950  0.7091351795738139
  0.5591587761135494  0.6714769746139985  0.5244504509835898
  0.0685349918193655  0.6020882284759078  0.2718730554480288
  0.9862879271034205  0.7195315763410874  0.0630633419289947
  0.1100121906211476  0.2418306042125273  0.0591514352714168
  0.3333009692888633  0.9033913709867063  0.5411307979657773
  0.0692496207204549  0.4817485313579087  0.2382003226181658
  0.6513052541252136  0.6437363121739103  0.4170659112689110
  0.1185985227333066  0.2410959619789452  0.5973303329375619
  0.2876285129919416  0.8469075030080915 -0.0112076439214907
  0.8381110839327510  0.5476259197588634  0.7170264958108851
  0.1008014773716438  0.6877207608689626  0.1111675150557180
  0.0904066698248616  0.6751140903588809  0.7964835472683779
  0.7653120748760223  0.3292775053217359  0.3474280685415457
  0.2280956327208954  0.4991022143416184  0.4814914771225681
  0.2546961010201524  0.7252535359605349  0.5661321125554373
  0.2176407498878828  0.5387385203024146  0.3042130306678777
  0.8582911032112636  0.6546433527941119  0.8827410121862976
  0.9006595333122355  0.1780430826605009  0.2856598798823997
  0.3706902356512836  0.2770525009076673  0.0597065813350216
  0.5140699202384447  0.1080171254565031  0.2254965380784656
  0.1078025546121990  0.8030438851281682  0.4540035368298641
  0.8403343548662524  0.7965673972333571  0.4784382153632735
  0.3014859215568754  0.2520760064986942  0.8976505282753822
  0.0078932943992106  0.2893678231395582  0.1164737943764243
  0.5346192333536336  0.7116547978915969  0.3502748074807792
  0.1510286062239984 -0.0065584690341744  0.5563837877561377
  0.5124434915912339  0.7579016923795245  0.1431934836827204
  0.2675853496509837  0.9690695677052026  0.2229709408137932
  0.7847238292794689  0.5177102807082778  0.2075898114340530
  0.6185800978654009  0.0866407634112328  0.1536502022232684
  0.4999978402654759  0.3721860819076406  0.2109010776707241
  0.8539948983748766  0.9546829827436043  0.6372496666306129
  0.9261276116267811  0.6057781927769240  0.0773226391383706
  0.5829649103839738  0.1180310379030023  0.5462388111974338
  0.9894753845424881  0.2780910549325595  0.4208333280167390
  0.4852698248063206  0.9570492459719783  0.1952815561813132
  0.5523398660819872  0.6180957106949700  0.9067991011866214
  0.4771196661463886  0.0779327988534844  0.4150899555654596
  0.8764093976777241  0.7268541816048237  0.7027471678185019
  0.3942318420192454  0.9319077963100599  0.0104753597483208
  0.6970952173967729  0.1779224084888971  0.6772043826780770
  0.5065701902290055  0.4339987199458279  0.4457158609892169
  0.0455750996258375  0.2279693492122672  0.9510404284235355
  0.5859011780970332  0.2138758832979653  0.9081470800613194
  0.5989687706453048  0.5079921481694045  0.4875671604806453
  0.2148017423841888  0.0405427342192997  0.3155664385611251
  0.3508821808609532  0.3421092609820645  0.1639141892657998
  0.9608639628496628  0.4709009324220487  0.1758986252531534
  0.3544930054288744  0.0588856474517599  0.3962154110592370
  0.6776945254906706  0.3693946772291095  0.8402787769318171
  0.8512596800846153  0.8328987184549895  0.1234199846106058
  0.4098123683409581  0.6459736296596266  0.6132131965980286
  0.0895713084947062  0.8154657379856610  0.2560986577300835
  0.7291620018865727  0.5926010194676260  0.5045619665024148
  0.6295591125738879  0.3690715529824828  0.9957360634139425
  0.5353930911863714  0.8887347943380890  0.2937935612310113
  0.8762373276275961  0.8854691707461925  0.3133426557421373
  0.3740112220481215  0.5139500111484175  0.9187080604004711
  0.1237735675850203  0.5162541125370790  0.1305615300632084
  0.1727690989259095  0.3509544442008511  0.0436738022055991
  0.5444217929180553  0.5294404005712390  0.3046274883934350
  0.6030202836444192  0.7674053152605337  0.7573376866729185
  0.7427851833647608  0.9259447973644376  0.0290133080791785
  0.1805351837572556  0.4456032115146911  0.7476154357397088
  0.8559579961325575  0.4206197804927894  0.7326249732843754
  0.3521772426256694  0.4453188132032173  0.7720279445807071
 -0.0264943534337456  0.3123323879898020  0.7874725326712240
  0.5817210479126621  0.9346869747252108  0.7082634596737024
  0.6026787951794583  0.7835467877353171  0.8812400287739808
  0.9823388734600312  0.1413469170395485  0.1952096829213590
  0.0057442549523991  0.9239009696027635  0.8862638410831296
  0.7742131646324898  0.9000494734016631  0.8847294272981852
  0.1141042554821907  0.0833864043227886  0.2517699690958441
  0.2244257779515423  0.3628393925834427  0.1601791347423294
  0.6512444051915994  0.5801966516173004  0.6672845934749385
  0.2077979186087506  0.3829034977919346  0.5308949163940955
  0.5074424942000312  0.3578803865712656  0.5457725552214531
  0.0988465765697456  0.9388538609684175  0.9706187274482783
  0.3938299746279331  0.0770090030645709  0.1002911350852736
  0.0657247966051977  0.9356034046820650  0.2916890124737697
  0.0682609633540124  0.5860149434164440  0.9700085357176955
  0.8438343699725503  0.2608945167982220  0.5600648717672749
  0.2936743189507373  0.8764137636045499  0.3682873689786826
  0.8936572260191926  0.0935591772621856  0.5107113694069169
  0.3457253248965847  0.0984376416118532  0.6542600314161612
  0.3279753566007920  0.1294616241316141  0.0051410799723442
  0.0733226302859090  0.1745517828940868  0.7782795295774386
  0.7086408282074050  0.2197547727582676  0.3825078649675757
  0.4011947292883713  0.3138413994523829  0.3951249019509117
  0.8704874619485619  0.5203981883964798  0.4543457688159638
  0.4131517898914453  0.5047976576320682  0.5003950861640232
  0.8960656261878458  0.5777199399953568  0.1970257364090431
  0.6479998774646165  0.8998649681711571  0.8831724630138088
  0.3023052894537636  0.2922939177250526  0.6983004877881439
  0.3318182829807739  0.8215907771974182  0.7097720906130842
  0.7780221777279038  0.0266765322699985  0.8836846727786700
  0.1409447358580875  0.2794725973413988  0.8841755909025893
  0.1496074940278021  0.8067068474719683  0.1052140833187438
  0.8773656642417746  0.5043989056179633  0.9008055658321759
  0.6414324555432290  0.0664712050405007  0.6448449383378558
  0.0147371089822295  0.2165975506654633  0.5279114772798232
  0.2998279531451076  0.9349076633228136  0.6585505702032989
  0.9857701313327080  0.7212053472655032  0.5663681396883643
  0.6269639083960491  0.9606360651674302  0.4301934869004208
  0.0959961108658977  0.2952145029008195  0.7684309549201702
  0.3545063899542272  0.7754803823670220  0.9031247364202785
  0.9554881316866430  0.3003575252735807  0.5978342768728278
  0.2058092437372916  0.2276256791191971  0.3283050744130380
  0.1800016337088963  0.0666991927362685  0.6533569625593553
  0.4648635352044189  0.2539771675904614  0.4858291588334039
  0.1839116828630469  0.8604220605598460  0.9149182035998407
  0.0968687466063381  0.8170577012323123 -0.0074720758435097
  0.6536000537029033  0.0624092052478524  0.9596595118227285
  0.0230567409917350  0.9901015306372553  0.0840809209743702
  0.7783872356510129  0.5644650879811833  0.8635108516475380
  0.2603098474623992  0.8513292561458498  0.2538350211055905
  0.6426487128066787  0.0822799817257918  0.4482718161768812
  0.5931285870952175  0.1436504995158712  0.7264180438110363
  0.5044322700249162  0.8416813770551663  0.7500287272410793
  0.2217713694976388  0.8441486526590704  0.5456269282980983
  0.6854930328304369  0.6975532264277811  0.9044803840705216
  0.3817726408393228  0.5020614548413607  0.2719718857296793
  0.2675263458734293  0.2129331462164067  0.0714069274392797
  0.7890628343950609  0.1025965451784810  0.5731191339746206
  0.4215293262553437  0.2440366832503247  0.8838129373430657
  0.7705273637809005  0.9648423107131768  0.7807049179156734
  0.9677749387746686  0.0345863300731307  0.7444052638683910
  0.7324249712067153  0.4875773867971393  0.0087303702647505
  0.8515662992361043  0.4734440422020487  0.0180732343865395
  0.3402749579982570  0.6676789913760898  0.7104322850232632
  0.1155269724458839  0.4086061410938818  0.9086949484443718
  0.5901840125921806  0.4507260278608554  0.2227367666207295
  0.9358726258784541  0.9866334226996980  0.5544909497433329
  0.1343238851300317  0.1379469848810361  0.4434333015447665
  0.0714836646055941  0.8638049114093959  0.7990175477758016
  0.1705430418283655  0.1528979494849931  0.8428665865362548
  0.7055882942587822  0.7463268109424541  0.3835214072776015
  0.5478048825405796  0.2043394559667752  0.2922123835939522
  0.3722865696310759  0.9639563522416513  0.3215204237530970
  0.4155322529494498  0.3997838369681197  0.9268903045240515
  0.3798316728918222  0.6751633384683159  0.0215894864296978
  0.3972359810145263 -0.0034816493807708  0.6967379201112284
  0.5325334674105560  0.0264189939484988  0.8458062447934795
  0.1630546652801411  0.6473238836531637  0.0161590622416696
  0.5989299693950567 -0.0314865319808012  0.1490040737304656
  0.0020640852297659  0.6853828402762050  0.9477226298705856
  0.1563823956085311  0.6345448956845674  0.7008289967136700
  0.6748472811842757  0.8529472772766113  0.7096975135646585
  0.3731135015378539  0.7554759447331642  0.5678493106297647
  0.8739989923890479  0.2385658470214307  0.4407401048996053
  0.7446801678097478  0.0511619796673908  0.0406758368921217
  0.8191957062386993 -0.0072965482256497  0.2720423308722922
  0.3278570954395202  0.1634018639049182  0.7594637431038195
  0.8383501959388658  0.4000779811433620  0.8527266521146705
  0.7197643045604420  0.6578539346577049  0.0916311063323819
  0.4710581364590185  0.8655839887944663  0.9421906587666624
  0.2124030400289313  0.7927959404942190  0.7042104499730898
  0.5704348839818988  0.5105406391019909  0.6056877365069435
  0.9444681920799570  0.0141299663608147  0.1803427322586613
  0.9616988502798062  0.5625132350779029  0.3864445454242147
  0.9387731913868862  0.2315220972062135  0.6962714636300003
  0.0496619632389159  0.7447420782913970  0.3541172576752082
  0.1287914385024949  0.5829670900601753  0.3777367378625981
  0.6903515326774797  0.6693274470710365  0.5905483356145959
  0.3583164732387103  0.2308956357475488  0.5410678624946992
  0.5939933942278813  0.8078555963913975  0.2221509243014379
  0.7431095173064933  0.5032614919837941  0.6479865705408693
  0.4457858895290865  0.5186790386382581  0.7363208618715651
 -0.0145192811141251  0.8277297378177479  0.1938202465895491
  0.8072027055607021  0.3744033455521641  0.5830722225401498
  0.2459141143146570  0.0407318594524915  0.0034755601067039
  0.5017934978178054  0.9602583478888060  0.4389781949529353
  0.8847752481753222  0.8288752012891866  0.7674261808303094
  0.0346234909825081  0.7596428124147985  0.6736755238570445
  0.2653186427780661  0.7719462660887022  0.0804756086231475
  0.0642161090825742  0.0662191228685032  0.5112857077284235
  0.6353677534079133  0.4812864790167615  0.8072458868542887
  0.8963689202763551  0.0272678067005352  0.9158514361604095
  0.4434071940346738  0.7802340296934273  0.2973125260204056
  0.3002980735448272  0.0128576641110472  0.4978979495640419
  0.0522994261738119  0.2616050902922735  0.2303990392583247
  0.2396282944251772  0.4803127723646474  0.1380527616305613
  0.7682065532974147  0.8250756366333202  0.5735502541765991
  0.5730559519660060  0.1230697634888514  0.0386993393099638
  0.9416875719154345  0.3897439338205967  0.4270877505452119
  0.1124761648273483  0.9661994520239671  0.6677791862029634
  0.3167082734124775  0.8677691974360005  0.8266786881087149
  0.1480668074571485  0.9471547352515729  0.3782243589026621
  0.0766420887792942  0.1384027992513160  0.6566871445725868
  0.4830821775358066  0.6831697551725850  0.8311636430505157
  0.1682206678318779  0.9543880075108163  0.1408793533826368
  0.7217000588978206  0.6138875852897422  0.2529401654958750
  0.9286028439542543  0.5702150899967009  0.6358254544443661
  0.6638677800708741  0.2485261976042171  0.5833235251925799
  0.2792682453447408  0.4206084523593157  0.6695117089613891
  0.9290535555691974  0.7452161268899218  0.3511782989140989
  0.9099278489504593  0.3952514481835006  0.2562003865345051
  0.2793669443625150  0.5652397269813061  0.5651835334873970
  0.9757055272776783  0.9246715510057095  0.3728817827716711
  0.8332475659055814  0.7717538674831177  0.0156821346701423
  0.0771171584119976  0.0958079228098640  0.0644417569680341
  0.6650410962411218  0.1759459105577978  0.2744960152891194
  0.8199471348028261  0.7413770128649051  0.2131755264245972
  0.8378379444670564  0.6361068349166135  0.4783488709594648
  0.8323744455378732  0.3650050607259277  0.1692572244489096
  0.9297889691944319  0.6499208539395021  0.7829064359993942
  0.6700381008892490  0.3725243642499730  0.1104207073383135
  0.1077253309914473  0.5701539026969309  0.8558806756608421
  0.5833046052903529  0.7402317472477270  0.0562517210808908
  0.8161214969590138  0.0674437211625131  0.4212690311269320
  0.2017661812986131  0.7602758124920976  0.3864449941354576
  0.5178908496592453  0.6882727875377194  0.6453665316753433
  0.3618489022296690  0.0061276863207841  0.9014971150538980
  0.8137269972744618  0.8974939522216178  0.4184811666882777
  0.5709045479536539  0.7918787194502029  0.5216388975007956
  0.2645320198231080  0.3307461792276123  0.8095036839885691
  0.5515707364280042  0.9372894258968592  0.5959081752090071
  0.5673779918154321  0.3161316308917219  0.8424391326367527
  0.6338504632878819  0.9697131703186365  0.3095036130353550
  0.4481660576648915  0.1530594411485723  0.6228669186398967
  0.4010727956357723  0.2078437820879647  0.3341072709679725
  0.2967319418572282  0.2909650221809905  0.4528132226389630
  0.0942558676248324  0.4073751837890570  0.5756341816486199
  0.8304050536869605  0.0681990587511028  0.6785148643031489
  0.0754107195511296  0.4134607408491328  0.0809524707313937
  0.2987626182802685  0.1121797091949090  0.2268636460598067
  0.9613969055399394  0.3134328194074327  0.9716479171057600
  0.4906944085866793  0.6067577676633007  0.0206874311779958
  0.1178069002941241  0.5253798327459839  0.6785425590536197
  0.6227888046998704  0.9122238471377730  0.0023552592465939
  0.9293106483897005  0.1917269649651943  0.0984696365247532
  0.7546816001493629  0.9437293891946076  0.5675704144606418
  0.2083790224927821  0.1814453036891900  0.5469253429825305
  0.3306429293540856  0.6655386290185078  0.2357291475261299
  0.0962697143187102  0.6995675853870518  0.5168184752257632
  0.6070436220301177  0.2802908926619930  0.4131018941922427
  0.4044098013498116  0.4125756335253324  0.5805997851214147
  0.4317207374584826  0.4277997686522127  0.1240668497990055
  0.2457090751605283  0.6702263534059442  0.4559353328000987
  0.7639707007834389  0.2331394741501794  0.9212042404718834
  0.7981262056354897  0.1840277774163461  0.2236295895080105
  0.2696247409095817  0.6891731372183280  0.8737197405569034
  0.7296105758434086  0.3153806792697830  0.7426243141175642
  0.4221247781487120  0.3157074432901629  0.7087465671624298
  0.9778322026714519  0.4177800496069130  0.7276679677041182
  0.3757606560704218  0.7892601881647157  0.3943269511523891
  0.1811221351149041  0.6251309732497531  0.2240917231535518
  0.5238280047502871  0.6171639073321661  0.2226249940453656
  0.4376435436045398  0.8701255396093872  0.1260943871128625
 -0.0014538467902559  0.4020673562145423  0.8977160846710683
  0.9559341498977972  0.8281162632586729  0.5195824477013501
  0.0502065611598760  0.1186163750584375  0.3469341682047376
  0.8937568038026780  0.9136632994325844  0.0274724583111606
  0.4669714297302072  0.6612673001607811  0.4371633424717330
  0.5279050894142906  0.3077915399935622  0.0326811620740229
  0.6899128440381674  0.4260835462027126  0.4803289678426629
  0.5816202999526805  0.5060134377423976  0.0003456720662431
  0.4529451073076147  0.1750320256912676  0.1428830371067973
  0.2542197465748054  0.5011110638421212  0.9160308426593385
  0.7597464135790116  0.7052754189795856  0.7357978583161687
  0.1343383702432748  0.3536210300630538  0.4341969040666471
  0.3303317112227265  0.4661595901060718  0.4179114839855627
  0.1890876203617990  0.3485446981838265  0.3273347563467051
  0.7438511830554991  0.8865810287556276  0.1438277634571730
 
  0.00000000E+00  0.00000000E+00  0.00000000E+00
  0.00000000E+00  0.00000000E+00  0.00000000E+00
  0.00000000E+00  0.00000000E+00  0.00000000E+00
  0.00000000E+00  0.00000000E+00  0.00000000E+00
  0.00000000E+00  0.00000000E+00  0.00000000E+00
  0.00000000E+00  0.00000000E+00  0.00000000E+00
  0.00000000E+00  0.00000000E+00  0.00000000E+00
  0.00000000E+00  0.00000000E+00  0.00000000E+00
  0.00000000E+00  0.00000000E+00  0.00000000E+00
  0.00000000E+00  0.00000000E+00  0.00000000E+00
  0.00000000E+00  0.00000000E+00  0.00000000E+00
  0.00000000E+00  0.00000000E+00  0.00000000E+00
  0.00000000E+00  0.00000000E+00  0.00000000E+00
  0.00000000E+00  0.00000000E+00  0.00000000E+00
  0.00000000E+00  0.00000000E+00  0.00000000E+00
  0.00000000E+00  0.00000000E+00  0.00000000E+00
  0.00000000E+00  0.00000000E+00  0.00000000E+00
  0.00000000E+00  0.00000000E+00  0.00000000E+00
  0.00000000E+00  0.00000000E+00  0.00000000E+00
  0.00000000E+00  0.00000000E+00  0.00000000E+00
  0.00000000E+00  0.00000000E+00  0.00000000E+00
  0.00000000E+00  0.00000000E+00  0.00000000E+00
  0.00000000E+00  0.00000000E+00  0.00000000E+00
  0.00000000E+00  0.00000000E+00  0.00000000E+00
  0.00000000E+00  0.00000000E+00  0.00000000E+00
  0.00000000E+00  0.00000000E+00  0.00000000E+00
  0.00000000E+00  0.00000000E+00  0.00000000E+00
  0.00000000E+00  0.00000000E+00  0.00000000E+00
  0.00000000E+00  0.00000000E+00  0.00000000E+00
  0.00000000E+00  0.00000000E+00  0.00000000E+00
  0.00000000E+00  0.00000000E+00  0.00000000E+00
  0.00000000E+00  0.00000000E+00  0.00000000E+00
  0.00000000E+00  0.00000000E+00  0.00000000E+00
  0.00000000E+00  0.00000000E+00  0.00000000E+00
  0.00000000E+00  0.00000000E+00  0.00000000E+00
  0.00000000E+00  0.00000000E+00  0.00000000E+00
  0.00000000E+00  0.00000000E+00  0.00000000E+00
  0.00000000E+00  0.00000000E+00  0.00000000E+00
  0.00000000E+00  0.00000000E+00  0.00000000E+00
  0.00000000E+00  0.00000000E+00  0.00000000E+00
  0.00000000E+00  0.00000000E+00  0.00000000E+00
  0.00000000E+00  0.00000000E+00  0.00000000E+00
  0.00000000E+00  0.00000000E+00  0.00000000E+00
  0.00000000E+00  0.00000000E+00  0.00000000E+00
  0.00000000E+00  0.00000000E+00  0.00000000E+00
  0.00000000E+00  0.00000000E+00  0.00000000E+00
  0.00000000E+00  0.00000000E+00  0.00000000E+00
  0.00000000E+00  0.00000000E+00  0.00000000E+00
  0.00000000E+00  0.00000000E+00  0.00000000E+00
  0.00000000E+00  0.00000000E+00  0.00000000E+00
  0.00000000E+00  0.00000000E+00  0.00000000E+00
  0.00000000E+00  0.00000000E+00  0.00000000E+00
  0.00000000E+00  0.00000000E+00  0.00000000E+00
  0.00000000E+00  0.00000000E+00  0.00000000E+00
  0.00000000E+00  0.00000000E+00  0.00000000E+00
  0.00000000E+00  0.00000000E+00  0.00000000E+00
  0.00000000E+00  0.00000000E+00  0.00000000E+00
  0.00000000E+00  0.00000000E+00  0.00000000E+00
  0.00000000E+00  0.00000000E+00  0.00000000E+00
  0.00000000E+00  0.00000000E+00  0.00000000E+00
  0.00000000E+00  0.00000000E+00  0.00000000E+00
  0.00000000E+00  0.00000000E+00  0.00000000E+00
  0.00000000E+00  0.00000000E+00  0.00000000E+00
  0.00000000E+00  0.00000000E+00  0.00000000E+00
  0.00000000E+00  0.00000000E+00  0.00000000E+00
  0.00000000E+00  0.00000000E+00  0.00000000E+00
  0.00000000E+00  0.00000000E+00  0.00000000E+00
  0.00000000E+00  0.00000000E+00  0.00000000E+00
  0.00000000E+00  0.00000000E+00  0.00000000E+00
  0.00000000E+00  0.00000000E+00  0.00000000E+00
  0.00000000E+00  0.00000000E+00  0.00000000E+00
  0.00000000E+00  0.00000000E+00  0.00000000E+00
  0.00000000E+00  0.00000000E+00  0.00000000E+00
  0.00000000E+00  0.00000000E+00  0.00000000E+00
  0.00000000E+00  0.00000000E+00  0.00000000E+00
  0.00000000E+00  0.00000000E+00  0.00000000E+00
  0.00000000E+00  0.00000000E+00  0.00000000E+00
  0.00000000E+00  0.00000000E+00  0.00000000E+00
  0.00000000E+00  0.00000000E+00  0.00000000E+00
  0.00000000E+00  0.00000000E+00  0.00000000E+00
  0.00000000E+00  0.00000000E+00  0.00000000E+00
  0.00000000E+00  0.00000000E+00  0.00000000E+00
  0.00000000E+00  0.00000000E+00  0.00000000E+00
  0.00000000E+00  0.00000000E+00  0.00000000E+00
  0.00000000E+00  0.00000000E+00  0.00000000E+00
  0.00000000E+00  0.00000000E+00  0.00000000E+00
  0.00000000E+00  0.00000000E+00  0.00000000E+00
  0.00000000E+00  0.00000000E+00  0.00000000E+00
  0.00000000E+00  0.00000000E+00  0.00000000E+00
  0.00000000E+00  0.00000000E+00  0.00000000E+00
  0.00000000E+00  0.00000000E+00  0.00000000E+00
  0.00000000E+00  0.00000000E+00  0.00000000E+00
  0.00000000E+00  0.00000000E+00  0.00000000E+00
  0.00000000E+00  0.00000000E+00  0.00000000E+00
  0.00000000E+00  0.00000000E+00  0.00000000E+00
  0.00000000E+00  0.00000000E+00  0.00000000E+00
  0.00000000E+00  0.00000000E+00  0.00000000E+00
  0.00000000E+00  0.00000000E+00  0.00000000E+00
  0.00000000E+00  0.00000000E+00  0.00000000E+00
  0.00000000E+00  0.00000000E+00  0.00000000E+00
  0.00000000E+00  0.00000000E+00  0.00000000E+00
  0.00000000E+00  0.00000000E+00  0.00000000E+00
  0.00000000E+00  0.00000000E+00  0.00000000E+00
  0.00000000E+00  0.00000000E+00  0.00000000E+00
  0.00000000E+00  0.00000000E+00  0.00000000E+00
  0.00000000E+00  0.00000000E+00  0.00000000E+00
  0.00000000E+00  0.00000000E+00  0.00000000E+00
  0.00000000E+00  0.00000000E+00  0.00000000E+00
  0.00000000E+00  0.00000000E+00  0.00000000E+00
  0.00000000E+00  0.00000000E+00  0.00000000E+00
  0.00000000E+00  0.00000000E+00  0.00000000E+00
  0.00000000E+00  0.00000000E+00  0.00000000E+00
  0.00000000E+00  0.00000000E+00  0.00000000E+00
  0.00000000E+00  0.00000000E+00  0.00000000E+00
  0.00000000E+00  0.00000000E+00  0.00000000E+00
  0.00000000E+00  0.00000000E+00  0.00000000E+00
  0.00000000E+00  0.00000000E+00  0.00000000E+00
  0.00000000E+00  0.00000000E+00  0.00000000E+00
  0.00000000E+00  0.00000000E+00  0.00000000E+00
  0.00000000E+00  0.00000000E+00  0.00000000E+00
  0.00000000E+00  0.00000000E+00  0.00000000E+00
  0.00000000E+00  0.00000000E+00  0.00000000E+00
  0.00000000E+00  0.00000000E+00  0.00000000E+00
  0.00000000E+00  0.00000000E+00  0.00000000E+00
  0.00000000E+00  0.00000000E+00  0.00000000E+00
  0.00000000E+00  0.00000000E+00  0.00000000E+00
  0.00000000E+00  0.00000000E+00  0.00000000E+00
  0.00000000E+00  0.00000000E+00  0.00000000E+00
  0.00000000E+00  0.00000000E+00  0.00000000E+00
  0.00000000E+00  0.00000000E+00  0.00000000E+00
  0.00000000E+00  0.00000000E+00  0.00000000E+00
  0.00000000E+00  0.00000000E+00  0.00000000E+00
  0.00000000E+00  0.00000000E+00  0.00000000E+00
  0.00000000E+00  0.00000000E+00  0.00000000E+00
  0.00000000E+00  0.00000000E+00  0.00000000E+00
  0.00000000E+00  0.00000000E+00  0.00000000E+00
  0.00000000E+00  0.00000000E+00  0.00000000E+00
  0.00000000E+00  0.00000000E+00  0.00000000E+00
  0.00000000E+00  0.00000000E+00  0.00000000E+00
  0.00000000E+00  0.00000000E+00  0.00000000E+00
  0.00000000E+00  0.00000000E+00  0.00000000E+00
  0.00000000E+00  0.00000000E+00  0.00000000E+00
  0.00000000E+00  0.00000000E+00  0.00000000E+00
  0.00000000E+00  0.00000000E+00  0.00000000E+00
  0.00000000E+00  0.00000000E+00  0.00000000E+00
  0.00000000E+00  0.00000000E+00  0.00000000E+00
  0.00000000E+00  0.00000000E+00  0.00000000E+00
  0.00000000E+00  0.00000000E+00  0.00000000E+00
  0.00000000E+00  0.00000000E+00  0.00000000E+00
  0.00000000E+00  0.00000000E+00  0.00000000E+00
  0.00000000E+00  0.00000000E+00  0.00000000E+00
  0.00000000E+00  0.00000000E+00  0.00000000E+00
  0.00000000E+00  0.00000000E+00  0.00000000E+00
  0.00000000E+00  0.00000000E+00  0.00000000E+00
  0.00000000E+00  0.00000000E+00  0.00000000E+00
  0.00000000E+00  0.00000000E+00  0.00000000E+00
  0.00000000E+00  0.00000000E+00  0.00000000E+00
  0.00000000E+00  0.00000000E+00  0.00000000E+00
  0.00000000E+00  0.00000000E+00  0.00000000E+00
  0.00000000E+00  0.00000000E+00  0.00000000E+00
  0.00000000E+00  0.00000000E+00  0.00000000E+00
  0.00000000E+00  0.00000000E+00  0.00000000E+00
  0.00000000E+00  0.00000000E+00  0.00000000E+00
  0.00000000E+00  0.00000000E+00  0.00000000E+00
  0.00000000E+00  0.00000000E+00  0.00000000E+00
  0.00000000E+00  0.00000000E+00  0.00000000E+00
  0.00000000E+00  0.00000000E+00  0.00000000E+00
  0.00000000E+00  0.00000000E+00  0.00000000E+00
  0.00000000E+00  0.00000000E+00  0.00000000E+00
  0.00000000E+00  0.00000000E+00  0.00000000E+00
  0.00000000E+00  0.00000000E+00  0.00000000E+00
  0.00000000E+00  0.00000000E+00  0.00000000E+00
  0.00000000E+00  0.00000000E+00  0.00000000E+00
  0.00000000E+00  0.00000000E+00  0.00000000E+00
  0.00000000E+00  0.00000000E+00  0.00000000E+00
  0.00000000E+00  0.00000000E+00  0.00000000E+00
  0.00000000E+00  0.00000000E+00  0.00000000E+00
  0.00000000E+00  0.00000000E+00  0.00000000E+00
  0.00000000E+00  0.00000000E+00  0.00000000E+00
  0.00000000E+00  0.00000000E+00  0.00000000E+00
  0.00000000E+00  0.00000000E+00  0.00000000E+00
  0.00000000E+00  0.00000000E+00  0.00000000E+00
  0.00000000E+00  0.00000000E+00  0.00000000E+00
  0.00000000E+00  0.00000000E+00  0.00000000E+00
  0.00000000E+00  0.00000000E+00  0.00000000E+00
  0.00000000E+00  0.00000000E+00  0.00000000E+00
  0.00000000E+00  0.00000000E+00  0.00000000E+00
  0.00000000E+00  0.00000000E+00  0.00000000E+00
  0.00000000E+00  0.00000000E+00  0.00000000E+00
  0.00000000E+00  0.00000000E+00  0.00000000E+00
  0.00000000E+00  0.00000000E+00  0.00000000E+00
  0.00000000E+00  0.00000000E+00  0.00000000E+00
  0.00000000E+00  0.00000000E+00  0.00000000E+00
  0.00000000E+00  0.00000000E+00  0.00000000E+00
  0.00000000E+00  0.00000000E+00  0.00000000E+00
  0.00000000E+00  0.00000000E+00  0.00000000E+00
  0.00000000E+00  0.00000000E+00  0.00000000E+00
  0.00000000E+00  0.00000000E+00  0.00000000E+00
  0.00000000E+00  0.00000000E+00  0.00000000E+00
  0.00000000E+00  0.00000000E+00  0.00000000E+00
  0.00000000E+00  0.00000000E+00  0.00000000E+00
  0.00000000E+00  0.00000000E+00  0.00000000E+00
  0.00000000E+00  0.00000000E+00  0.00000000E+00
  0.00000000E+00  0.00000000E+00  0.00000000E+00
  0.00000000E+00  0.00000000E+00  0.00000000E+00
  0.00000000E+00  0.00000000E+00  0.00000000E+00
  0.00000000E+00  0.00000000E+00  0.00000000E+00
  0.00000000E+00  0.00000000E+00  0.00000000E+00
  0.00000000E+00  0.00000000E+00  0.00000000E+00
  0.00000000E+00  0.00000000E+00  0.00000000E+00
  0.00000000E+00  0.00000000E+00  0.00000000E+00
  0.00000000E+00  0.00000000E+00  0.00000000E+00
  0.00000000E+00  0.00000000E+00  0.00000000E+00
  0.00000000E+00  0.00000000E+00  0.00000000E+00
  0.00000000E+00  0.00000000E+00  0.00000000E+00
  0.00000000E+00  0.00000000E+00  0.00000000E+00
  0.00000000E+00  0.00000000E+00  0.00000000E+00
  0.00000000E+00  0.00000000E+00  0.00000000E+00
  0.00000000E+00  0.00000000E+00  0.00000000E+00
  0.00000000E+00  0.00000000E+00  0.00000000E+00
  0.00000000E+00  0.00000000E+00  0.00000000E+00
  0.00000000E+00  0.00000000E+00  0.00000000E+00
  0.00000000E+00  0.00000000E+00  0.00000000E+00
  0.00000000E+00  0.00000000E+00  0.00000000E+00
  0.00000000E+00  0.00000000E+00  0.00000000E+00
  0.00000000E+00  0.00000000E+00  0.00000000E+00
  0.00000000E+00  0.00000000E+00  0.00000000E+00
  0.00000000E+00  0.00000000E+00  0.00000000E+00
  0.00000000E+00  0.00000000E+00  0.00000000E+00
  0.00000000E+00  0.00000000E+00  0.00000000E+00
  0.00000000E+00  0.00000000E+00  0.00000000E+00
  0.00000000E+00  0.00000000E+00  0.00000000E+00