GST-225                                 
   1.00000000000000     
    17.6370456833144722    0.2145053476361030   -0.1188879549289942
    -8.6365702001116897   14.9521530528652598    0.0004385613001773
    -0.1439443754006042   -0.0840268255667932   21.2269206244391775
   Ge   Sb   Te
    32    48    96
Direct
  0.1684264963505950  0.3341937250331260  0.1401339021744429
  0.1684294415976933  0.8341965576504107  0.1401316993191169
  0.6684267935469242  0.3341893621162563  0.1401329836229880
  0.6684237594283371  0.8341857047920892  0.1401366272169076
 -0.0018532344975840 -0.0008989090969378  0.7989041285543188
 -0.0018536962354885  0.4990963190537644  0.7989034589035501
  0.4981476850981950 -0.0008929660636429  0.7989041891256905
  0.4981500627983865  0.4991073534804500  0.7989084035791084
  0.1684298458563961  0.0841936120606878  0.1401335755214435
  0.1684304815686453  0.5842057902010849  0.1401279955427169
  0.6684263143374030  0.0841902763416432  0.1401346590205639
  0.6684256927508164  0.5841904555222032  0.1401323009569584
 -0.0018537810929910  0.2490988967223931  0.7989069342227851
 -0.0018526536064728  0.7491024629770615  0.7989022527815661
  0.4981533926706466  0.2491140098425729  0.7989016201895478
  0.4981494857642641  0.7491006175130903  0.7989062237675817
  0.4184232646457502  0.0841882286397280  0.1401338548012551
  0.4184208399985715  0.5841888011626930  0.1401354361486654
  0.9184295141543958  0.0841950853101708  0.1401298664103945
  0.9184320554143631  0.5841955571018823  0.1401288939843532
  0.2481469761709648  0.2491088251868487  0.7989015769701576
  0.2481498558631304  0.7491008450152111  0.7989008994489502
  0.7481472705515254  0.2491031146171830  0.7989033165726230
  0.7481460738012033  0.7491074223147096  0.7989040229597389
  0.4184274578300681  0.3341902390395467  0.1401365457487122
  0.4184218101433325  0.8341853522216199  0.1401365147894689
  0.9184338467522243  0.3341971796767701  0.1401296882966999
  0.9184303452858460  0.8341945397089707  0.1401322441633932
  0.2481482278986943 -0.0008970963601342  0.7989000707663668
  0.2481483136280418  0.4991009532347679  0.7989075139381259
  0.7481482406919996 -0.0008999929549612  0.7989059542763089
  0.7481509242926542  0.4991094938198132  0.7989048249222324
  0.3332676213398464  0.1666767774677356  0.9695005989898566
  0.3332639162246396  0.6666770158659902  0.9695020059261615
  0.8332673325039850  0.1666597590748314  0.9695005419618926
  0.8332736488745477  0.6666708146904414  0.9694932285431489
  0.0004053259887516  0.0001666339042365  0.3098440252269417
  0.0004067715023940  0.5001644509286014  0.3098311544310414
  0.5004101365724298  0.0001691349217690  0.3098451851759446
  0.5004089438373037  0.5001670340657284  0.3098462507772107
  0.1661766774427063  0.3331000275366183  0.6291386536460655
  0.1661770135115525  0.8331035611469009  0.6291329542332453
  0.6661712562748406  0.3330955374633378  0.6291154777781919
  0.6661749696618419  0.8331035688032651  0.6291340214021874
  0.3332562334016295  0.4166587895852212  0.9695034162494905
  0.3332984572088080  0.9167072652767013  0.9694789149435591
  0.8332771888945600  0.4166739091257783  0.9694927871109732
  0.8332572949045437  0.9166561292751547  0.9695015674768712
  0.0004005445888867  0.2501642189495006  0.3098360006020940
  0.0004059791423295  0.7501678340871677  0.3098383382964371
  0.5004179410384951  0.2501804106702795  0.3098455260672662
  0.5004081861511889  0.7501665599606704  0.3098451703494920
  0.1661773484350468  0.0831040357859815  0.6291331602121581
  0.1661768735153213  0.5831040609036656  0.6291334661905392
  0.6661761328917712  0.0831029955997105  0.6291333100791097
  0.6661705880064474  0.5830962306810291  0.6291156754981715
  0.0832740208653102  0.4166702263640371  0.9694932491485515
  0.0832759454453877  0.9166702508030365  0.9694914437539521
  0.5832661870961980  0.4166740185921289  0.9694993263741248
  0.5832635269876881  0.9166716074360068  0.9694977991911041
  0.2504059717916411  0.2501675772302897  0.3098449739459639
  0.2504108224662799  0.7501753813948738  0.3098492463755163
  0.7504070656701182  0.2501653664315112  0.3098377377135422
  0.7504029232714864  0.7501622572539129  0.3098358545656534
  0.4161709992205820  0.0831011538452531  0.6291193899770833
  0.4161685335291225  0.5830961553493657  0.6291149215670300
  0.9161719727763673  0.0831022456730254  0.6291191294445617
  0.9161779509938341  0.5831043655754188  0.6291334122348075
  0.0832656001197574  0.1666429232938457  0.9694912564263406
  0.0832816173569963  0.6666786722437442  0.9694942135568094
  0.5832782119249335  0.1666779796194071  0.9694952884806708
  0.5832555431112364  0.6666596786236382  0.9695033767100822
  0.2504158340908697  0.0001785149884393  0.3098482581372872
  0.2504072559176412  0.5001682879936828  0.3098473163455589
  0.7504011046019849  0.0001615107642318  0.3098355094336135
  0.7504159480481805  0.5001731763427043  0.3098402940905573
  0.4161749513492251  0.3331032575371211  0.6291327808635292
  0.4161763851819955  0.8331042123745849  0.6291326989800591
  0.9161770580997017  0.3331042465463615  0.6291333838186411
  0.9161708540897039  0.8330961006098339  0.6291152693812769
  0.2476096159228079 -0.0011909891730028  0.0543719522175898
  0.2476067641999647  0.4988067313771778  0.0543736143390253
  0.7475858051109884 -0.0012083688344426  0.0543791425997757
  0.7476079239404414  0.4988037014455063  0.0543722495730079
  0.0817586924091521  0.1658575909749932  0.2116902042507282
  0.0817614596390470  0.6658606584214868  0.2116896540056183
  0.5817439757183454  0.1658380179415812  0.2116916593723649
  0.5817429880948671  0.6658353365067794  0.2116919544877644
  0.4129295943307495  0.3314248497859419  0.3850451684357717
  0.4129328840066739  0.8314268807015965  0.3850466237767421
  0.9129267338953024  0.3314273006386627  0.3850399764926705
  0.9129260398192780  0.8314252258946427  0.3850411442660391
  0.2540640195332863  0.0020407787927747  0.5539225256852532
  0.2540627314289725  0.5020396079894649  0.5539226374634679
  0.7540645528803361  0.0020422821281211  0.5539227303427734
  0.7540689079375190  0.5020447191949629  0.5539213357509903
  0.0849501214354117  0.1674843095771337  0.7273678196980212
  0.0849509342432204  0.6674850035975107  0.7273681234731501
  0.5849504371596145  0.1674882791655604  0.7273683531387775
  0.5849489377783400  0.6674870052853276  0.7273697798450053
  0.4189603273285302  0.3345222265656810  0.8846162010280818
  0.4189613326047165  0.8345238470256335  0.8846143604477811
  0.9189667334134989  0.3345116268589140  0.8846157112121867
  0.9189665996117647  0.8345145687978243  0.8846150718843775
 -0.0023912949369823  0.2488036084318269  0.0543709751900622
 -0.0023899021029914  0.7488073491277406  0.0543709099876354
  0.4976001455295254  0.2488017543177731  0.0543753399750563
  0.4975930693975730  0.7488001786657930  0.0543783258822754
  0.3317589502280777  0.4158574950954287  0.2116924749006608
  0.3317594401248872  0.9158584961468329  0.2116924721046717
  0.8317604249241005  0.4158577862064248  0.2116882285098901
  0.8317604084638929  0.9158571713151243  0.2116895718116397
  0.1629300010980307  0.0814284643485652  0.3850452612413405
  0.1629222934071991  0.5814265458758937  0.3850433481441406
  0.6629347267881661  0.0814279824071675  0.3850433859122539
  0.6629409238268734  0.5814291717777443  0.3850439784116766
  0.0040691297577658  0.2520453964944988  0.5539242733977415
  0.0040682338439626  0.7520415858955528  0.5539228496381886
  0.5040647964175494  0.2520440261927505  0.5539200323352990
  0.5040687423203668  0.7520460306323986  0.5539232503416425
  0.3349512665312426  0.4174874247246999  0.7273689405329606
  0.3349504768012309  0.9174877346207958  0.7273680423576583
  0.8349493697582794  0.4174866621898441  0.7273691579328392
  0.8349498869643033  0.9174860823662202  0.7273686250769241
  0.1689654522670917  0.0845172861721747  0.8846130793206524
  0.1689643729989455  0.5845183344014597  0.8846139761268218
  0.6689613232867210  0.0845208178593344  0.8846157885344028
  0.6689587893021434  0.5845198164641355  0.8846166858139616
  0.2475853696926801  0.2487926298416221  0.0543798715045248
  0.2476115353110478  0.7488161091066128  0.0543730466880416
  0.7476080780959421  0.2488039840172481  0.0543728539432950
  0.7475861017567507  0.7487913752887998  0.0543774487417304
  0.0817611800468647  0.4158603236287156  0.2116899877770847
  0.0817589468778682  0.9158577308520884  0.2116907354759447
  0.5817555156433958  0.4158501940648228  0.2116915818371857
  0.5817430962223709  0.9158368005253977  0.2116921864348812
  0.4129353415957066  0.0814300588400488  0.3850460174778852
  0.4129325868491809  0.5814259217026068  0.3850466667928003
  0.9129232923966714  0.0814263217447308  0.3850408449454543
  0.9129343959052663  0.5814280676168497  0.3850416062483017
  0.2540673767974427  0.2520426003349037  0.5539252883786669
  0.2540678090022037  0.7520422052370827  0.5539250919662737
  0.7540665369718867  0.2520421199409076  0.5539234262449562
  0.7540641001576140  0.7520436021669032  0.5539199496194116
  0.0849506028132559  0.4174843478460852  0.7273690643626327
  0.0849508810617768  0.9174855040927248  0.7273680227456253
  0.5849487837807814  0.4174901783746007  0.7273707158968128
  0.5849493540536945  0.9174855076985624  0.7273701455959729
  0.4189658230787338  0.0845291352261707  0.8846140832158079
  0.4189382618376278  0.5845223709624217  0.8846341736701285
  0.9189623374335025  0.0845072508813952  0.8846151244617697
  0.9189685978237786  0.5845154708771173  0.8846141028065568
 -0.0024125161559717 -0.0012095938800652  0.0543767910828089
 -0.0023895856596750  0.4988070458455382  0.0543703409534987
  0.4975965590268743 -0.0011974549530745  0.0543782642323453
  0.4975853344272514  0.4987942025299014  0.0543795446977877
  0.3317578014033672  0.1658574395948912  0.2116929195586284
  0.3317433621652989  0.6658393698479709  0.2116937762223423
  0.8317587941648275  0.1658572653043963  0.2116889326539847
  0.8317587890382744  0.6658553267473182  0.2116884370309888
  0.1629211027458723  0.3314241401828778  0.3850433361795842
  0.1629231632480311  0.8314274855378306  0.3850433405088173
  0.6629421699369583  0.3314307348282237  0.3850435552036878
  0.6629340943293252  0.8314259757885631  0.3850427398671579
  0.0040687914970883  0.0020442559664285  0.5539219189290379
  0.0040665156895687  0.5020426169644188  0.5539255938676133
  0.5040686180595845  0.0020423408449344  0.5539239260899558
  0.5040648691171474  0.5020399718393950  0.5539196130946838
  0.3349514090922208  0.1674877367505013  0.7273682929886719
  0.3349508605423769  0.6674849361247792  0.7273689346458695
  0.8349501951354990  0.1674853871211227  0.7273694110794974
  0.8349492072302854  0.6674867765089094  0.7273689833421197
  0.1689626942025114  0.3345095998458182  0.8846148447846303
  0.1689716812658225  0.8345197673749666  0.8846135374744206
  0.6689613184544404  0.3345217334369186  0.8846165830381916
  0.6689559770175934  0.8345168860512732  0.8846174619935656
 
  0.00000000E+00  0.00000000E+00  0.00000000E+00
  0.00000000E+00  0.00000000E+00  0.00000000E+00
  0.00000000E+00  0.00000000E+00  0.00000000E+00
  0.00000000E+00  0.00000000E+00  0.00000000E+00
  0.00000000E+00  0.00000000E+00  0.00000000E+00
  0.00000000E+00  0.00000000E+00  0.00000000E+00
  0.00000000E+00  0.00000000E+00  0.00000000E+00
  0.00000000E+00  0.00000000E+00  0.00000000E+00
  0.00000000E+00  0.00000000E+00  0.00000000E+00
  0.00000000E+00  0.00000000E+00  0.00000000E+00
  0.00000000E+00  0.00000000E+00  0.00000000E+00
  0.00000000E+00  0.00000000E+00  0.00000000E+00
  0.00000000E+00  0.00000000E+00  0.00000000E+00
  0.00000000E+00  0.00000000E+00  0.00000000E+00
  0.00000000E+00  0.00000000E+00  0.00000000E+00
  0.00000000E+00  0.00000000E+00  0.00000000E+00
  0.00000000E+00  0.00000000E+00  0.00000000E+00
  0.00000000E+00  0.00000000E+00  0.00000000E+00
  0.00000000E+00  0.00000000E+00  0.00000000E+00
  0.00000000E+00  0.00000000E+00  0.00000000E+00
  0.00000000E+00  0.00000000E+00  0.00000000E+00
  0.00000000E+00  0.00000000E+00  0.00000000E+00
  0.00000000E+00  0.00000000E+00  0.00000000E+00
  0.00000000E+00  0.00000000E+00  0.00000000E+00
  0.00000000E+00  0.00000000E+00  0.00000000E+00
  0.00000000E+00  0.00000000E+00  0.00000000E+00
  0.00000000E+00  0.00000000E+00  0.00000000E+00
  0.00000000E+00  0.00000000E+00  0.00000000E+00
  0.00000000E+00  0.00000000E+00  0.00000000E+00
  0.00000000E+00  0.00000000E+00  0.00000000E+00
  0.00000000E+00  0.00000000E+00  0.00000000E+00
  0.00000000E+00  0.00000000E+00  0.00000000E+00
  0.00000000E+00  0.00000000E+00  0.00000000E+00
  0.00000000E+00  0.00000000E+00  0.00000000E+00
  0.00000000E+00  0.00000000E+00  0.00000000E+00
  0.00000000E+00  0.00000000E+00  0.00000000E+00
  0.00000000E+00  0.00000000E+00  0.00000000E+00
  0.00000000E+00  0.00000000E+00  0.00000000E+00
  0.00000000E+00  0.00000000E+00  0.00000000E+00
  0.00000000E+00  0.00000000E+00  0.00000000E+00
  0.00000000E+00  0.00000000E+00  0.00000000E+00
  0.00000000E+00  0.00000000E+00  0.00000000E+00
  0.00000000E+00  0.00000000E+00  0.00000000E+00
  0.00000000E+00  0.00000000E+00  0.00000000E+00
  0.00000000E+00  0.00000000E+00  0.00000000E+00
  0.00000000E+00  0.00000000E+00  0.00000000E+00
  0.00000000E+00  0.00000000E+00  0.00000000E+00
  0.00000000E+00  0.00000000E+00  0.00000000E+00
  0.00000000E+00  0.00000000E+00  0.00000000E+00
  0.00000000E+00  0.00000000E+00  0.00000000E+00
  0.00000000E+00  0.00000000E+00  0.00000000E+00
  0.00000000E+00  0.00000000E+00  0.00000000E+00
  0.00000000E+00  0.00000000E+00  0.00000000E+00
  0.00000000E+00  0.00000000E+00  0.00000000E+00
  0.00000000E+00  0.00000000E+00  0.00000000E+00
  0.00000000E+00  0.00000000E+00  0.00000000E+00
  0.00000000E+00  0.00000000E+00  0.00000000E+00
  0.00000000E+00  0.00000000E+00  0.00000000E+00
  0.00000000E+00  0.00000000E+00  0.00000000E+00
  0.00000000E+00  0.00000000E+00  0.00000000E+00
  0.00000000E+00  0.00000000E+00  0.00000000E+00
  0.00000000E+00  0.00000000E+00  0.00000000E+00
  0.00000000E+00  0.00000000E+00  0.00000000E+00
  0.00000000E+00  0.00000000E+00  0.00000000E+00
  0.00000000E+00  0.00000000E+00  0.00000000E+00
  0.00000000E+00  0.00000000E+00  0.00000000E+00
  0.00000000E+00  0.00000000E+00  0.00000000E+00
  0.00000000E+00  0.00000000E+00  0.00000000E+00
  0.00000000E+00  0.00000000E+00  0.00000000E+00
  0.00000000E+00  0.00000000E+00  0.00000000E+00
  0.00000000E+00  0.00000000E+00  0.00000000E+00
  0.00000000E+00  0.00000000E+00  0.00000000E+00
  0.00000000E+00  0.00000000E+00  0.00000000E+00
  0.00000000E+00  0.00000000E+00  0.00000000E+00
  0.00000000E+00  0.00000000E+00  0.00000000E+00
  0.00000000E+00  0.00000000E+00  0.00000000E+00
  0.00000000E+00  0.00000000E+00  0.00000000E+00
  0.00000000E+00  0.00000000E+00  0.00000000E+00
  0.00000000E+00  0.00000000E+00  0.00000000E+00
  0.00000000E+00  0.00000000E+00  0.00000000E+00
  0.00000000E+00  0.00000000E+00  0.00000000E+00
  0.00000000E+00  0.00000000E+00  0.00000000E+00
  0.00000000E+00  0.00000000E+00  0.00000000E+00
  0.00000000E+00  0.00000000E+00  0.00000000E+00
  0.00000000E+00  0.00000000E+00  0.00000000E+00
  0.00000000E+00  0.00000000E+00  0.00000000E+00
  0.00000000E+00  0.00000000E+00  0.00000000E+00
  0.00000000E+00  0.00000000E+00  0.00000000E+00
  0.00000000E+00  0.00000000E+00  0.00000000E+00
  0.00000000E+00  0.00000000E+00  0.00000000E+00
  0.00000000E+00  0.00000000E+00  0.00000000E+00
  0.00000000E+00  0.00000000E+00  0.00000000E+00
  0.00000000E+00  0.00000000E+00  0.00000000E+00
  0.00000000E+00  0.00000000E+00  0.00000000E+00
  0.00000000E+00  0.00000000E+00  0.00000000E+00
  0.00000000E+00  0.00000000E+00  0.00000000E+00
  0.00000000E+00  0.00000000E+00  0.00000000E+00
  0.00000000E+00  0.00000000E+00  0.00000000E+00
  0.00000000E+00  0.00000000E+00  0.00000000E+00
  0.00000000E+00  0.00000000E+00  0.00000000E+00
  0.00000000E+00  0.00000000E+00  0.00000000E+00
  0.00000000E+00  0.00000000E+00  0.00000000E+00
  0.00000000E+00  0.00000000E+00  0.00000000E+00
  0.00000000E+00  0.00000000E+00  0.00000000E+00
  0.00000000E+00  0.00000000E+00  0.00000000E+00
  0.00000000E+00  0.00000000E+00  0.00000000E+00
  0.00000000E+00  0.00000000E+00  0.00000000E+00
  0.00000000E+00  0.00000000E+00  0.00000000E+00
  0.00000000E+00  0.00000000E+00  0.00000000E+00
  0.00000000E+00  0.00000000E+00  0.00000000E+00
  0.00000000E+00  0.00000000E+00  0.00000000E+00
  0.00000000E+00  0.00000000E+00  0.00000000E+00
  0.00000000E+00  0.00000000E+00  0.00000000E+00
  0.00000000E+00  0.00000000E+00  0.00000000E+00
  0.00000000E+00  0.00000000E+00  0.00000000E+00
  0.00000000E+00  0.00000000E+00  0.00000000E+00
  0.00000000E+00  0.00000000E+00  0.00000000E+00
  0.00000000E+00  0.00000000E+00  0.00000000E+00
  0.00000000E+00  0.00000000E+00  0.00000000E+00
  0.00000000E+00  0.00000000E+00  0.00000000E+00
  0.00000000E+00  0.00000000E+00  0.00000000E+00
  0.00000000E+00  0.00000000E+00  0.00000000E+00
  0.00000000E+00  0.00000000E+00  0.00000000E+00
  0.00000000E+00  0.00000000E+00  0.00000000E+00
  0.00000000E+00  0.00000000E+00  0.00000000E+00
  0.00000000E+00  0.00000000E+00  0.00000000E+00
  0.00000000E+00  0.00000000E+00  0.00000000E+00
  0.00000000E+00  0.00000000E+00  0.00000000E+00
  0.00000000E+00  0.00000000E+00  0.00000000E+00
  0.00000000E+00  0.00000000E+00  0.00000000E+00
  0.00000000E+00  0.00000000E+00  0.00000000E+00
  0.00000000E+00  0.00000000E+00  0.00000000E+00
  0.00000000E+00  0.00000000E+00  0.00000000E+00
  0.00000000E+00  0.00000000E+00  0.00000000E+00
  0.00000000E+00  0.00000000E+00  0.00000000E+00
  0.00000000E+00  0.00000000E+00  0.00000000E+00
  0.00000000E+00  0.00000000E+00  0.00000000E+00
  0.00000000E+00  0.00000000E+00  0.00000000E+00
  0.00000000E+00  0.00000000E+00  0.00000000E+00
  0.00000000E+00  0.00000000E+00  0.00000000E+00
  0.00000000E+00  0.00000000E+00  0.00000000E+00
  0.00000000E+00  0.00000000E+00  0.00000000E+00
  0.00000000E+00  0.00000000E+00  0.00000000E+00
  0.00000000E+00  0.00000000E+00  0.00000000E+00
  0.00000000E+00  0.00000000E+00  0.00000000E+00
  0.00000000E+00  0.00000000E+00  0.00000000E+00
  0.00000000E+00  0.00000000E+00  0.00000000E+00
  0.00000000E+00  0.00000000E+00  0.00000000E+00
  0.00000000E+00  0.00000000E+00  0.00000000E+00
  0.00000000E+00  0.00000000E+00  0.00000000E+00
  0.00000000E+00  0.00000000E+00  0.00000000E+00
  0.00000000E+00  0.00000000E+00  0.00000000E+00
  0.00000000E+00  0.00000000E+00  0.00000000E+00
  0.00000000E+00  0.00000000E+00  0.00000000E+00
  0.00000000E+00  0.00000000E+00  0.00000000E+00
  0.00000000E+00  0.00000000E+00  0.00000000E+00
  0.00000000E+00  0.00000000E+00  0.00000000E+00
  0.00000000E+00  0.00000000E+00  0.00000000E+00
  0.00000000E+00  0.00000000E+00  0.00000000E+00
  0.00000000E+00  0.00000000E+00  0.00000000E+00
  0.00000000E+00  0.00000000E+00  0.00000000E+00
  0.00000000E+00  0.00000000E+00  0.00000000E+00
  0.00000000E+00  0.00000000E+00  0.00000000E+00
  0.00000000E+00  0.00000000E+00  0.00000000E+00
  0.00000000E+00  0.00000000E+00  0.00000000E+00
  0.00000000E+00  0.00000000E+00  0.00000000E+00
  0.00000000E+00  0.00000000E+00  0.00000000E+00
  0.00000000E+00  0.00000000E+00  0.00000000E+00
  0.00000000E+00  0.00000000E+00  0.00000000E+00
  0.00000000E+00  0.00000000E+00  0.00000000E+00
  0.00000000E+00  0.00000000E+00  0.00000000E+00
  0.00000000E+00  0.00000000E+00  0.00000000E+00
  0.00000000E+00  0.00000000E+00  0.00000000E+00
  0.00000000E+00  0.00000000E+00  0.00000000E+00
  0.00000000E+00  0.00000000E+00  0.00000000E+00
  0.00000000E+00  0.00000000E+00  0.00000000E+00
