Sb6 Te6 Se3                             
   1.00000000000000     
     2.1254320790681311   -3.6813563489827534    0.0000000000000000
     2.1254320790681311    3.6813563489827534   -0.0000000000000001
     0.0000000000000001    0.0000000000000026   30.8030298542251231
   Sb   Te   Se
     6     6     3
Direct
  0.3333333333333357  0.6666666666666643  0.0643130274056411
  0.3333333333333357  0.6666666666666643  0.2656844716687373
  0.0000000000000000  0.0000000000000000  0.3976463607389767
  0.0000000000000000  0.0000000000000000  0.5990178050020734
  0.6666666666666643  0.3333333333333357  0.7309796940723051
  0.6666666666666643  0.3333333333333357  0.9323511383354020
  0.6666666666666643  0.3333333333333357  0.1209028205110420
  0.6666666666666643  0.3333333333333357  0.3308433486574466
  0.3333333333333357  0.6666666666666643  0.4542361538443777
  0.3333333333333357  0.6666666666666643  0.6641766819907751
  0.0000000000000000  0.0000000000000000  0.7875694871777064
  0.0000000000000000  0.0000000000000000  0.9975100153241108
  0.0000000000000000  0.0000000000000000  0.2182553317571357
  0.6666666666666643  0.3333333333333357  0.5515886650904638
  0.3333333333333357  0.6666666666666643  0.8849219984237995
 
  0.00000000E+00  0.00000000E+00  0.00000000E+00
  0.00000000E+00  0.00000000E+00  0.00000000E+00
  0.00000000E+00  0.00000000E+00  0.00000000E+00
  0.00000000E+00  0.00000000E+00  0.00000000E+00
  0.00000000E+00  0.00000000E+00  0.00000000E+00
  0.00000000E+00  0.00000000E+00  0.00000000E+00
  0.00000000E+00  0.00000000E+00  0.00000000E+00
  0.00000000E+00  0.00000000E+00  0.00000000E+00
  0.00000000E+00  0.00000000E+00  0.00000000E+00
  0.00000000E+00  0.00000000E+00  0.00000000E+00
  0.00000000E+00  0.00000000E+00  0.00000000E+00
  0.00000000E+00  0.00000000E+00  0.00000000E+00
  0.00000000E+00  0.00000000E+00  0.00000000E+00
  0.00000000E+00  0.00000000E+00  0.00000000E+00
  0.00000000E+00  0.00000000E+00  0.00000000E+00
