Amorphous Sb2Se3                        
   1.00000000000000     
    21.5283632703415044    0.0000000000000000    0.0000000000000000
     0.0000000000000000   21.5283632703415044    0.0000000000000000
     0.0000000000000000    0.0000000000000000   21.5283632703415044
   Bi   Se
   120   180
Direct
  0.1468442633348289  0.7540131209787513  0.3397545835895853
  0.5279426581069370  0.1679648134979112  0.1971303929152965
  0.7574850987592886  0.8322164453408150  0.7896657806790308
  0.2840471818096510  0.6374769899612299  0.0713459608375909
  0.2893256892336482  0.2461354174865142  0.6165410455407581
  0.8496913792150566  0.6876717592721693  0.4937020210043207
  0.9890308556798958  0.2572544941466118  0.4404808969944631
  0.0973903697868417  0.6727138220070961  0.7554752684887373
  0.2895728141186264  0.3366031794450871 -0.0189047102005857
  0.6559463844103508  0.2863968531976098  0.1259231873327430
  0.7016504233223654 -0.0054002018994413  0.4067911792197743
  0.4663401721687119  0.0936677391191786  0.5550359366613317
  0.5623312680299838  0.9462295749986825  0.3792273092870470
  0.5912212737833159  0.9347002105573121  0.5999407306569091
  0.7691892882221274  0.5848579373635668  0.2894545363884529
  0.9223313290879950  0.1510339077257024  0.1964805330615468
  0.5053853042430060  0.6052764338348782  0.5788327553680199
  0.0978088945639450  0.9722655217816960  0.0296911387874204
  0.3936281746968717  0.8907493573240933  0.5418141089904548
  0.2597936384943198  0.1363751879959527  0.4458245991415013
  0.9331715126854936  0.3491601748073045  0.7820665277783758
  0.8656687757274106  0.0274422804159944  0.7353083364483372
  0.9518101338775881  0.7232123371241218  0.2726362505922058
  0.8016884883164439  0.4142290206229083  0.1544928444251595
  0.9700329160777496  0.4078295023056508  0.5162622541100824
  0.9107423124519382  0.5705994919495962  0.6218198256945352
  0.3363228964128029  0.3878257215538412  0.4179444043523212
  0.7634575859834358  0.5598745307463323  0.7333871740252987
  0.6421538548603469  0.5134480382983316  0.0082929371387967
  0.2166591895373922  0.9371144484685212  0.4855271989779691
  0.9116544484785989  0.1762810239621351  0.8579512565317189
  0.5836021260530132  0.9634788874999646  0.0935729721955325
  0.9598280617408245  0.2884880216074529  0.2019885160184273
  0.5010023013693142  0.5851408586146759  0.4039604995240911
  0.3806097141716330  0.1570373492191635  0.9033177129247127
  0.7202428472861001  0.3844694357466337  0.8467119672160724
  0.5816489488101614  0.1387972751646117  0.3783078877979406
  0.7883924305291863  0.7793370279933735  0.3303921622234185
  0.7117914978221523  0.1364928956573243  0.0628517604107789
  0.6264873135491907  0.2212035650955286  0.7006719943152490
  0.4022243639986043  0.4986869261171059  0.0190039200153941
  0.4603788197723286  0.5529750933847222  0.2145428506698661
  0.9227345104880206  0.9264229528713481  0.3601224742375481
  0.9139954778463828  0.3596352837783167  0.0408483910349341
  0.8322715635893946  0.7204299320680417  0.6737537377561567
  0.4773160121876292  0.1155787902068553  0.7407188549841700
  0.2477412277920476  0.1146113066430428  0.7774520202967334
  0.7565615614991041  0.0612054394983281  0.8844515394525796
  0.0177851104610745  0.2762265680574597  0.6207102816294739
  0.2172295996712964  0.5466737243943024  0.9240910085512161
  0.3348996285380760  0.4350487395660394  0.7916112593075336
  0.0752149384163638  0.3182090774990640  0.9686515935381943
  0.9075754227062128  0.8544987022175387  0.5356025987495225
  0.0854479612876274  0.0857990085874890  0.4019512962881115
  0.1493148806284017  0.5317640442399775  0.2259324788872668
  0.1395036009985410  0.1440672662385097  0.6227338757203374
  0.6514442650789273  0.7542133295772449  0.6085633897215480
  0.6580116430853846  0.6228016858231598  0.1042253020453184
  0.4866320225644545  0.6541597279159163  0.9667244687026126
  0.1033207356550793  0.4670224434948907  0.7464713088851922
  0.4456276848398887  0.7689746831355617  0.7692204848228531
  0.5115939353575819  0.7372222516464672  0.1396923005566612
  0.2620416451060777  0.8403680736680559  0.1873302212620067
  0.1678623092627531  0.9063865730494884  0.6214550676988423
  0.1622788734098535  0.1485197033388715  0.9445971716411612
  0.3569193616725796  0.9723880635671649  0.9437211202786009
  0.7487422055723173  0.3023880096917885  0.9672962643533202
  0.7610802785211712  0.9550251422205123  0.2441708299842766
  0.0337167766453677  0.7737851387070820  0.9615649409355214
  0.0901178077442172  0.7935430836030518  0.1592602287176944
  0.7701907769822335  0.1643567394096920  0.3344154992165982
  0.5922720908341784  0.2730160038178308  0.8925271082407290
  0.3860223580006846  0.9398865184771688  0.7373627405823969
  0.8358459709070041  0.1368046573654526  0.5456986156984783
  0.1224905656234380  0.9434085104169440  0.2892101440518817
  0.4139313232948293  0.0775826868354849  0.0237179130478884
  0.2192952818088389  0.6088422082427160  0.6598326359488637
  0.1114843100620345  0.2494809212334221  0.7934213190426063
  0.6060751628054249  0.7464417998904360  0.7910626549207975
  0.0954723553158280  0.9226694477468399  0.8296505792021998
  0.2205930755343402  0.2358134245799375  0.3293590276822735
  0.5947038490376335  0.4414289153219494  0.5516102361411865
  0.9882933812351461  0.0093235458229588  0.5773418962252225
  0.3132205319199226  0.4437548815749482  0.1730152553640407
  0.5193250467693673  0.3880096364678598  0.7124241084886509
  0.4854503597766739  0.5855109224793534  0.7600045730212299
  0.3072116539170773  0.9666783200773208  0.3327366657153832
  0.1113120331435698  0.3871928950365938  0.3287172585386676
  0.2697496446857628  0.8062309829386574  0.9716240248292225
  0.7644789360182246  0.5297925349162502  0.4629960678320555
  0.5609289033338625  0.9315822983848794  0.8401043383266459
  0.5405631933179010  0.0942658583684306  0.9530741887518591
  0.1412317543914437  0.1098841807983779  0.1780424652770577
 -0.0085458702929660  0.5500596366093072  0.0766928584634227
  0.0902217032883054  0.7412493631607556  0.5718030168446320
  0.6915728299198414  0.2725752634087810  0.4967738271802730
  0.9387160111676329  0.0044204835456979  0.9193760724812243
  0.3006858362000766  0.5618381173792066  0.3453192513330724
  0.8600301593426530  0.6327906223967225  0.1367008161247323
  0.1848904881873871  0.4862441719816790  0.4996601624314025
  0.6905145735463839  0.6202837522326189  0.9238613983180848
  0.3862716453532855  0.7671803412032101  0.3438204757420307
  0.4597955423973351  0.2797638976749302  0.5203238622284543
  0.0142735179860552  0.5354668730142664  0.4119298887561637
  0.7871339240638472  0.7852457579193896  0.1357319819347215
  0.2962409418682402  0.6953615884768901  0.5144246717283696
  0.5056322875784899  0.3900936036894505  0.3232017821735724
  0.7088211167773326  0.0805150951598223  0.5809047781566958
  0.4368773370197288  0.9001502026362213  0.2098644158973815
  0.1374904170478023  0.2533477629629731  0.1570499190219693
  0.6098091984235438  0.7996767609387957  0.2350944562279781
  0.7427461427064900  0.3787766591409467  0.6515393749628108
  0.9214541901831219  0.9371296961893258  0.1176483387326378
  0.4927965529014909  0.8193746585982112  0.9003525688173161
  0.8693573633870751  0.6463241833421562  0.9046103250979093
  0.4200550049018608  0.2757733095755103  0.0762461763488251
  0.7133201404541413  0.3440253695814481  0.3141863368837373
  0.3901920450755044  0.1719569662241658  0.3227481833968315
  0.8431798263277210  0.5516764405856629  0.0074991020459652
  0.8558880334622476  0.8251865463886535  0.9340601951654407
  0.4675274037398811  0.4083771357375559  0.4417345874589474
  0.8595082495668860  0.0194644852404582  0.3017312897349255
  0.1850037619456048  0.6092415535844898  0.5344740146523252
  0.5248675075912853  0.5307166569836705  0.9623749808933180
  0.0726235530478955  0.3276513779565964  0.5108372600709263
  0.0530673180181794  0.6580388479640312  0.3274383582145608
  0.5794114601535997  0.6375801074686686  0.8585255202684787
  0.5679964069070716  0.3123712016642990  0.5991076759156301
  0.1454519714175766  0.5171385607236947  0.3732948318381832
  0.6933171565038762  0.1721154168441102  0.9435405106339849
  0.3597782247286702  0.2706336743017935  0.7567676815850316
  0.9680426397448476  0.8618304601893512  0.8912874725325983
  0.3933576423315515  0.3519180423360531  0.6887592922048705
  0.4192978257358024  0.6238745641854387  0.0815817086840388
  0.8336950626085313  0.4580774924654116  0.6998115365300696
  0.4988145962794719  0.0510322984656787  0.3437022505057626
  0.5226421521933428  0.8530480988357465  0.0539076573297201
  0.0806468726248578  0.8612980287234776  0.5313925235222448
  0.0411814034963645  0.8263948882400646  0.2782876890821046
  0.5555109573251605  0.1760083598166895  0.4975600664479313
  0.9807786743173107  0.4025078809208531  0.3852748990620762
  0.6645961750080042  0.8463962529082538  0.6952276474077498
  0.9250116636227962  0.1067536006832266  0.6404639869147634
  0.0321965699590160  0.3897949516731591  0.8450514297760870
  0.5805318996410077  0.8260840789273797  0.5358898735335710
  0.3734667894791540  0.8394841933210688  0.8486878596067697
  0.8720078794463956  0.9588120432961404  0.4732720435344911
  0.5372442449779671  0.2910736869693787  0.1664484017223233
  0.2409865292668274  0.1871514306910954  0.1995936031124334
  0.5055024993376757  0.2264385605643862  0.3198626146965984
  0.1851892928210751  0.4424735169859136  0.6392914768610091
  0.3960861607510721  0.5797825273941486  0.6580835942029247
  0.4659658236182660  0.0336041195240588  0.8433725935749281
  0.3264980753990766  0.2132632429886157  0.0054250790084355
  0.7255068454772868  0.2889796383520610  0.7587187807755349
  0.4082231110187170  0.6303280350524693  0.3173015235004054
  0.1788749366014231  0.0728803822546380  0.0609956014158166
  0.2785821283682755  0.9232204842919521  0.0324098633619105
  0.0329408378401808  0.6655806840639309  0.4362628199474869
  0.8863497401588125  0.2170478861647863  0.2971219130286483
  0.9003394756519477  0.7818056544941245  0.4058819666290016
  0.5773398293403976  0.6849240959194027  0.3869755499146393
  0.8773414329221759  0.2958236691819235  0.8983212592743957
  0.9414762483230750  0.4378749161237753  0.1405822949772513
  0.2422929976460956  0.9873870267161763  0.7315359710654471
  0.0486691415344264  0.5118364970926169  0.5310422703865669
  0.9413619213011988  0.6965787771989691  0.5988542985635236
  0.4321873694233495  0.6639695162063447  0.4899608116136061
  0.1198126596210294  0.1231825334507640  0.7627856043393210
  0.8298421768455020  0.8938107146807514  0.0367457556136881
  0.1570771993868668  0.0512641203757903  0.5016834890973869
  0.5698081437710771  0.9226002135723603  0.2417990373710724
  0.7027581885981261  0.8745629069795178  0.3453634282200315
  0.8657300941999512  0.1062480578236121  0.9583600181987179
  0.7620339367815888  0.5446294964360093  0.1601760250358133
  0.0414987414415264  0.7757592837465321  0.6897275969465974
 -0.0030218030175961  0.3939275941967843  0.6618647075709992
  0.0347842579718723  0.0048961272154274  0.2121931125025366
  0.2212428420764299  0.9212868215986010  0.8176122111060593
  0.2602973470635306  0.1145733517441575  0.6406856935143639
  0.7848495188218696  0.4207838559145586  0.0270657925326749
  0.8586989868072123  0.8406260332129685  0.2374142784564812
  0.1762783449062638  0.4096559338671983  0.2129752770757797
  0.2817963886905841  0.4969516472039092  0.6571088761383332
  0.9708155964138396  0.0492966399896971  0.7999188614547886
  0.6472834568762378  0.4612685568784547  0.6705188290060388
  0.7496242506450088  0.6511972263052944  0.4108859082480622
  0.7943578513847384  0.7916832531818916  0.5534577359777325
  0.3166849291971387  0.8179759298519265  0.4705870040011386
  0.4635534328136727  0.4688969434978935  0.8081604868079402
  0.6673253251452115  0.0386333131452514  0.7833081327896672
  0.7316678338712784  0.7038891534563808  0.7805201287668445
  0.7080751631232500  0.9592246377661783  0.5455038281578009
  0.5884895748379927  0.1137461582996857  0.0813323701467756
  0.2424180729103124  0.8570258044748208  0.3179022246810129
  0.0093539051102196  0.2729470651589169  0.0762606036488519
  0.2883207023352045  0.6633372655486608  0.9484436129227723
  0.0139082506646776  0.1436554568796048  0.4951747747181691
  0.6897185338761781  0.0560344176915490  0.2875459783414547
  0.4117677466547625  0.8862716571116113  0.0561772110995876
  0.8102980217558141  0.0270382156568020  0.1375270472572595
  0.1989826852541792  0.3895434809855325  0.8054022947130709
  0.7319419563640420  0.7096558671703651  0.2249367383962902
  0.3129470768715236  0.5051790771043145  0.4688542384340288
  0.1729756490391104  0.5650777306942688  0.8017831351491764
  0.1342205279957843  0.8591841040288344  0.9328570897078582
  0.3721284480098090  0.4531526380174458  0.2945558296468408
  0.9813380740307320  0.0294139784282199  0.0552307077769884
  0.0743289886563271  0.0310373118530981  0.9153950209790124
  0.7637705612615504  0.6740890582381958  0.0377898917661887
  0.0411026514308671  0.9661156856065437  0.4026086378944049
  0.2095418566573085  0.7545486417403463  0.6096173564428883
  0.1754344784205988  0.2574145609307746  0.0223704062659974
  0.2652159350799935  0.5760991846201976  0.2131324371040454
  0.4169819311007367  0.2032307883059144  0.6162813801268420
  0.6792487393172404  0.2241053530336942  0.2690777501733095
  0.6056501370195787  0.5651209323366312  0.4972280324950202
  0.7625879515547671  0.5304818058357486  0.8616984923141626
  0.7586662843813876  0.2269845565499630  0.5997902613188928
  0.6095331551132824  0.9815563528501878  0.9645496072548575
  0.1433280684321876  0.6325800408525877  0.0775986924238520
  0.2769298444494338  0.0702375058543843  0.9044227082699301
  0.4217117487141161  0.8980608875726547  0.3425962645027690
  0.5979090060544140  0.4001082497467823  0.8611540549973105
  0.5508504001985735  0.6948886507344360  0.6661440936937176
  0.8420005573975625  0.2873627672786652  0.1254378556653947
  0.7850948628293528  0.2770030501855211  0.4081807007575619
  0.1234274651001206  0.5221343309692132  0.0963525627217226
  0.9097168787937068  0.7269778911665129 -0.0021901413310165
  0.4086182130110523  0.1719678040852785  0.1640516104851190
  0.6409646822349995  0.8269527292527973  0.8839091372387338
  0.7138786088055442  0.1262231548069521  0.4602102441967457
  0.5282754578115981  0.2568492716451004  0.7725965046571046
  0.2057663008347196  0.7627649773982116  0.0743752895629335
  0.0046062623749456  0.7022171981575738  0.8404124013091363
  0.0139713143125431  0.8553330487518443  0.0683925511840640
  0.7865287295971655  0.6062417966486516  0.5914927418098682
  0.5150821852134153  0.9753559451473937  0.5050209232185191
 -0.0047837363037555  0.6860942708728698  0.1600252435232811
  0.5610407124014998  0.6344727394957933  0.2036036712393610
  0.8933558433758543  0.5972022796204278  0.2638587170354516
  0.0648625289670730  0.6273653724820124  0.9863190573227741
  0.4405023194248935  0.4438466333785339  0.1318610203589019
  0.6878756454761228  0.8622895905147315  0.1460660204357579
  0.1929221310195895  0.7286596441849578  0.2270683474855700
  0.9073764840512381  0.2792300856878231  0.5336769800656997
  0.1993736005911937  0.3432570757725019  0.4091900171880476
  0.3324267687817965  0.6719444490503441  0.6591505372459054
  0.4821280266064438  0.4717043591042794  0.6162336017775384
  0.2729672656180988  0.5029240181936011  0.0534160260641270
  0.4098005057973525  0.6553420560468524  0.8301155907313091
  0.1937207955035453  0.0492337693174519  0.3130986340756448
  0.4158423687392781  0.3741893226734535  0.9741154771831413
  0.0743857917527014  0.2641813878969535  0.2782412586169333
  0.4705121354393023  0.0084780721804497  0.1291435458032640
  0.2596466726514840  0.6873477082078057  0.3858956789010852
  0.8750565394370671  0.8154138125611623  0.7471994821966373
  0.7829153838518492  0.4709200300146566  0.3491496073561814
 -0.0267238130937204  0.2343078839487722  0.7456759721795295
  0.3310512471176127  0.8640560327014892  0.6492627153455972
  0.3931970018270911  0.0485234596992031  0.6665773267579238
  0.5517394954830043  0.5054440324152700  0.2941605749320931
  0.1527915706893524  0.9119641392783898  0.1621393915089329
  0.1290743943203405  0.8235744437453819  0.7428068550939646
  0.2256478316731218  0.2278514226849997  0.8574639495881798
  0.5205701690160975  0.7731433218670959  0.3494594235121528
  0.1808170604416627  0.4124177963031965  0.9119803476952383
  0.5611031403350500  0.0932930676379569  0.6451853323458148
  0.9887232140183737  0.6006495838050854  0.8900790156731486
  0.1508350320598170  0.2716989004440505  0.6659729648124787
  0.3031927534838866  0.3234257374164390  0.1156511722770508
  0.8929919057440967  0.5386457370009451  0.4847033418259450
  0.2031298760156994  0.2218636379070030  0.5206501810091276
  0.3842287867705182  0.7791993701804724  0.0274730115023312
  0.0168721394381265  0.1012252426022704  0.2659923238924900
  0.8055700612917319  0.1349639712800795  0.7883313568834515
  0.0501912072221935  0.5810910883780880  0.6833698116297229
  0.3331957082260109 -0.0076198926874627  0.4922099967919957
  0.7374379666008477  0.0128993551597336  0.0517533316706260
  0.3845932979299584  0.7718816816038194  0.2139219844845485
  0.6725350300457431  0.3957546846157148  0.1853798006106071
  0.3726013181251865  0.3280957206075842  0.8600842339565137
  0.5871132971102058  0.7083457268593534  0.0315477633230953
  0.4917475999089513  0.2262137752987640 -0.0444709852704048
  0.8231753712343245  0.9522746844311143  0.8476599976343709
  0.8781775085034015  0.6148412241723493  0.7447826568978001
  0.3220313232976667  0.9666799751702905  0.2059799439802890
  0.9535868554176085  0.4890947816063888  0.9706616792278907
  0.6152033580878274  0.3620761161270893  0.3902856700968041
  0.0906083411977034  0.0062834568152840  0.6560945878030671
  0.9261895138542560  0.9222269409019660  0.6454917875857769
  0.0460704624725143  0.2080841953216466  0.9129912409932064
  0.7268098747413611  0.3979754649846787  0.5194961370561034
  0.3462141397844454  0.3461638785282525  0.5423192521811979
  0.3365275077197318  0.2838630348968092  0.3083433042457026
  0.5057112950056362  0.8938029732273997  0.7191680279637613
  0.3850971273100163  0.1758417153726275  0.4507478287701676
  0.6301860700779429  0.3375340285507296  0.0114137784301691
  0.3341567813371888  0.5208537493264515  0.8877413365354867
  0.6112605810117155  0.1330598885027110  0.7987292903880912
 
  0.00000000E+00  0.00000000E+00  0.00000000E+00
  0.00000000E+00  0.00000000E+00  0.00000000E+00
  0.00000000E+00  0.00000000E+00  0.00000000E+00
  0.00000000E+00  0.00000000E+00  0.00000000E+00
  0.00000000E+00  0.00000000E+00  0.00000000E+00
  0.00000000E+00  0.00000000E+00  0.00000000E+00
  0.00000000E+00  0.00000000E+00  0.00000000E+00
  0.00000000E+00  0.00000000E+00  0.00000000E+00
  0.00000000E+00  0.00000000E+00  0.00000000E+00
  0.00000000E+00  0.00000000E+00  0.00000000E+00
  0.00000000E+00  0.00000000E+00  0.00000000E+00
  0.00000000E+00  0.00000000E+00  0.00000000E+00
  0.00000000E+00  0.00000000E+00  0.00000000E+00
  0.00000000E+00  0.00000000E+00  0.00000000E+00
  0.00000000E+00  0.00000000E+00  0.00000000E+00
  0.00000000E+00  0.00000000E+00  0.00000000E+00
  0.00000000E+00  0.00000000E+00  0.00000000E+00
  0.00000000E+00  0.00000000E+00  0.00000000E+00
  0.00000000E+00  0.00000000E+00  0.00000000E+00
  0.00000000E+00  0.00000000E+00  0.00000000E+00
  0.00000000E+00  0.00000000E+00  0.00000000E+00
  0.00000000E+00  0.00000000E+00  0.00000000E+00
  0.00000000E+00  0.00000000E+00  0.00000000E+00
  0.00000000E+00  0.00000000E+00  0.00000000E+00
  0.00000000E+00  0.00000000E+00  0.00000000E+00
  0.00000000E+00  0.00000000E+00  0.00000000E+00
  0.00000000E+00  0.00000000E+00  0.00000000E+00
  0.00000000E+00  0.00000000E+00  0.00000000E+00
  0.00000000E+00  0.00000000E+00  0.00000000E+00
  0.00000000E+00  0.00000000E+00  0.00000000E+00
  0.00000000E+00  0.00000000E+00  0.00000000E+00
  0.00000000E+00  0.00000000E+00  0.00000000E+00
  0.00000000E+00  0.00000000E+00  0.00000000E+00
  0.00000000E+00  0.00000000E+00  0.00000000E+00
  0.00000000E+00  0.00000000E+00  0.00000000E+00
  0.00000000E+00  0.00000000E+00  0.00000000E+00
  0.00000000E+00  0.00000000E+00  0.00000000E+00
  0.00000000E+00  0.00000000E+00  0.00000000E+00
  0.00000000E+00  0.00000000E+00  0.00000000E+00
  0.00000000E+00  0.00000000E+00  0.00000000E+00
  0.00000000E+00  0.00000000E+00  0.00000000E+00
  0.00000000E+00  0.00000000E+00  0.00000000E+00
  0.00000000E+00  0.00000000E+00  0.00000000E+00
  0.00000000E+00  0.00000000E+00  0.00000000E+00
  0.00000000E+00  0.00000000E+00  0.00000000E+00
  0.00000000E+00  0.00000000E+00  0.00000000E+00
  0.00000000E+00  0.00000000E+00  0.00000000E+00
  0.00000000E+00  0.00000000E+00  0.00000000E+00
  0.00000000E+00  0.00000000E+00  0.00000000E+00
  0.00000000E+00  0.00000000E+00  0.00000000E+00
  0.00000000E+00  0.00000000E+00  0.00000000E+00
  0.00000000E+00  0.00000000E+00  0.00000000E+00
  0.00000000E+00  0.00000000E+00  0.00000000E+00
  0.00000000E+00  0.00000000E+00  0.00000000E+00
  0.00000000E+00  0.00000000E+00  0.00000000E+00
  0.00000000E+00  0.00000000E+00  0.00000000E+00
  0.00000000E+00  0.00000000E+00  0.00000000E+00
  0.00000000E+00  0.00000000E+00  0.00000000E+00
  0.00000000E+00  0.00000000E+00  0.00000000E+00
  0.00000000E+00  0.00000000E+00  0.00000000E+00
  0.00000000E+00  0.00000000E+00  0.00000000E+00
  0.00000000E+00  0.00000000E+00  0.00000000E+00
  0.00000000E+00  0.00000000E+00  0.00000000E+00
  0.00000000E+00  0.00000000E+00  0.00000000E+00
  0.00000000E+00  0.00000000E+00  0.00000000E+00
  0.00000000E+00  0.00000000E+00  0.00000000E+00
  0.00000000E+00  0.00000000E+00  0.00000000E+00
  0.00000000E+00  0.00000000E+00  0.00000000E+00
  0.00000000E+00  0.00000000E+00  0.00000000E+00
  0.00000000E+00  0.00000000E+00  0.00000000E+00
  0.00000000E+00  0.00000000E+00  0.00000000E+00
  0.00000000E+00  0.00000000E+00  0.00000000E+00
  0.00000000E+00  0.00000000E+00  0.00000000E+00
  0.00000000E+00  0.00000000E+00  0.00000000E+00
  0.00000000E+00  0.00000000E+00  0.00000000E+00
  0.00000000E+00  0.00000000E+00  0.00000000E+00
  0.00000000E+00  0.00000000E+00  0.00000000E+00
  0.00000000E+00  0.00000000E+00  0.00000000E+00
  0.00000000E+00  0.00000000E+00  0.00000000E+00
  0.00000000E+00  0.00000000E+00  0.00000000E+00
  0.00000000E+00  0.00000000E+00  0.00000000E+00
  0.00000000E+00  0.00000000E+00  0.00000000E+00
  0.00000000E+00  0.00000000E+00  0.00000000E+00
  0.00000000E+00  0.00000000E+00  0.00000000E+00
  0.00000000E+00  0.00000000E+00  0.00000000E+00
  0.00000000E+00  0.00000000E+00  0.00000000E+00
  0.00000000E+00  0.00000000E+00  0.00000000E+00
  0.00000000E+00  0.00000000E+00  0.00000000E+00
  0.00000000E+00  0.00000000E+00  0.00000000E+00
  0.00000000E+00  0.00000000E+00  0.00000000E+00
  0.00000000E+00  0.00000000E+00  0.00000000E+00
  0.00000000E+00  0.00000000E+00  0.00000000E+00
  0.00000000E+00  0.00000000E+00  0.00000000E+00
  0.00000000E+00  0.00000000E+00  0.00000000E+00
  0.00000000E+00  0.00000000E+00  0.00000000E+00
  0.00000000E+00  0.00000000E+00  0.00000000E+00
  0.00000000E+00  0.00000000E+00  0.00000000E+00
  0.00000000E+00  0.00000000E+00  0.00000000E+00
  0.00000000E+00  0.00000000E+00  0.00000000E+00
  0.00000000E+00  0.00000000E+00  0.00000000E+00
  0.00000000E+00  0.00000000E+00  0.00000000E+00
  0.00000000E+00  0.00000000E+00  0.00000000E+00
  0.00000000E+00  0.00000000E+00  0.00000000E+00
  0.00000000E+00  0.00000000E+00  0.00000000E+00
  0.00000000E+00  0.00000000E+00  0.00000000E+00
  0.00000000E+00  0.00000000E+00  0.00000000E+00
  0.00000000E+00  0.00000000E+00  0.00000000E+00
  0.00000000E+00  0.00000000E+00  0.00000000E+00
  0.00000000E+00  0.00000000E+00  0.00000000E+00
  0.00000000E+00  0.00000000E+00  0.00000000E+00
  0.00000000E+00  0.00000000E+00  0.00000000E+00
  0.00000000E+00  0.00000000E+00  0.00000000E+00
  0.00000000E+00  0.00000000E+00  0.00000000E+00
  0.00000000E+00  0.00000000E+00  0.00000000E+00
  0.00000000E+00  0.00000000E+00  0.00000000E+00
  0.00000000E+00  0.00000000E+00  0.00000000E+00
  0.00000000E+00  0.00000000E+00  0.00000000E+00
  0.00000000E+00  0.00000000E+00  0.00000000E+00
  0.00000000E+00  0.00000000E+00  0.00000000E+00
  0.00000000E+00  0.00000000E+00  0.00000000E+00
  0.00000000E+00  0.00000000E+00  0.00000000E+00
  0.00000000E+00  0.00000000E+00  0.00000000E+00
  0.00000000E+00  0.00000000E+00  0.00000000E+00
  0.00000000E+00  0.00000000E+00  0.00000000E+00
  0.00000000E+00  0.00000000E+00  0.00000000E+00
  0.00000000E+00  0.00000000E+00  0.00000000E+00
  0.00000000E+00  0.00000000E+00  0.00000000E+00
  0.00000000E+00  0.00000000E+00  0.00000000E+00
  0.00000000E+00  0.00000000E+00  0.00000000E+00
  0.00000000E+00  0.00000000E+00  0.00000000E+00
  0.00000000E+00  0.00000000E+00  0.00000000E+00
  0.00000000E+00  0.00000000E+00  0.00000000E+00
  0.00000000E+00  0.00000000E+00  0.00000000E+00
  0.00000000E+00  0.00000000E+00  0.00000000E+00
  0.00000000E+00  0.00000000E+00  0.00000000E+00
  0.00000000E+00  0.00000000E+00  0.00000000E+00
  0.00000000E+00  0.00000000E+00  0.00000000E+00
  0.00000000E+00  0.00000000E+00  0.00000000E+00
  0.00000000E+00  0.00000000E+00  0.00000000E+00
  0.00000000E+00  0.00000000E+00  0.00000000E+00
  0.00000000E+00  0.00000000E+00  0.00000000E+00
  0.00000000E+00  0.00000000E+00  0.00000000E+00
  0.00000000E+00  0.00000000E+00  0.00000000E+00
  0.00000000E+00  0.00000000E+00  0.00000000E+00
  0.00000000E+00  0.00000000E+00  0.00000000E+00
  0.00000000E+00  0.00000000E+00  0.00000000E+00
  0.00000000E+00  0.00000000E+00  0.00000000E+00
  0.00000000E+00  0.00000000E+00  0.00000000E+00
  0.00000000E+00  0.00000000E+00  0.00000000E+00
  0.00000000E+00  0.00000000E+00  0.00000000E+00
  0.00000000E+00  0.00000000E+00  0.00000000E+00
  0.00000000E+00  0.00000000E+00  0.00000000E+00
  0.00000000E+00  0.00000000E+00  0.00000000E+00
  0.00000000E+00  0.00000000E+00  0.00000000E+00
  0.00000000E+00  0.00000000E+00  0.00000000E+00
  0.00000000E+00  0.00000000E+00  0.00000000E+00
  0.00000000E+00  0.00000000E+00  0.00000000E+00
  0.00000000E+00  0.00000000E+00  0.00000000E+00
  0.00000000E+00  0.00000000E+00  0.00000000E+00
  0.00000000E+00  0.00000000E+00  0.00000000E+00
  0.00000000E+00  0.00000000E+00  0.00000000E+00
  0.00000000E+00  0.00000000E+00  0.00000000E+00
  0.00000000E+00  0.00000000E+00  0.00000000E+00
  0.00000000E+00  0.00000000E+00  0.00000000E+00
  0.00000000E+00  0.00000000E+00  0.00000000E+00
  0.00000000E+00  0.00000000E+00  0.00000000E+00
  0.00000000E+00  0.00000000E+00  0.00000000E+00
  0.00000000E+00  0.00000000E+00  0.00000000E+00
  0.00000000E+00  0.00000000E+00  0.00000000E+00
  0.00000000E+00  0.00000000E+00  0.00000000E+00
  0.00000000E+00  0.00000000E+00  0.00000000E+00
  0.00000000E+00  0.00000000E+00  0.00000000E+00
  0.00000000E+00  0.00000000E+00  0.00000000E+00
  0.00000000E+00  0.00000000E+00  0.00000000E+00
  0.00000000E+00  0.00000000E+00  0.00000000E+00
  0.00000000E+00  0.00000000E+00  0.00000000E+00
  0.00000000E+00  0.00000000E+00  0.00000000E+00
  0.00000000E+00  0.00000000E+00  0.00000000E+00
  0.00000000E+00  0.00000000E+00  0.00000000E+00
  0.00000000E+00  0.00000000E+00  0.00000000E+00
  0.00000000E+00  0.00000000E+00  0.00000000E+00
  0.00000000E+00  0.00000000E+00  0.00000000E+00
  0.00000000E+00  0.00000000E+00  0.00000000E+00
  0.00000000E+00  0.00000000E+00  0.00000000E+00
  0.00000000E+00  0.00000000E+00  0.00000000E+00
  0.00000000E+00  0.00000000E+00  0.00000000E+00
  0.00000000E+00  0.00000000E+00  0.00000000E+00
  0.00000000E+00  0.00000000E+00  0.00000000E+00
  0.00000000E+00  0.00000000E+00  0.00000000E+00
  0.00000000E+00  0.00000000E+00  0.00000000E+00
  0.00000000E+00  0.00000000E+00  0.00000000E+00
  0.00000000E+00  0.00000000E+00  0.00000000E+00
  0.00000000E+00  0.00000000E+00  0.00000000E+00
  0.00000000E+00  0.00000000E+00  0.00000000E+00
  0.00000000E+00  0.00000000E+00  0.00000000E+00
  0.00000000E+00  0.00000000E+00  0.00000000E+00
  0.00000000E+00  0.00000000E+00  0.00000000E+00
  0.00000000E+00  0.00000000E+00  0.00000000E+00
  0.00000000E+00  0.00000000E+00  0.00000000E+00
  0.00000000E+00  0.00000000E+00  0.00000000E+00
  0.00000000E+00  0.00000000E+00  0.00000000E+00
  0.00000000E+00  0.00000000E+00  0.00000000E+00
  0.00000000E+00  0.00000000E+00  0.00000000E+00
  0.00000000E+00  0.00000000E+00  0.00000000E+00
  0.00000000E+00  0.00000000E+00  0.00000000E+00
  0.00000000E+00  0.00000000E+00  0.00000000E+00
  0.00000000E+00  0.00000000E+00  0.00000000E+00
  0.00000000E+00  0.00000000E+00  0.00000000E+00
  0.00000000E+00  0.00000000E+00  0.00000000E+00
  0.00000000E+00  0.00000000E+00  0.00000000E+00
  0.00000000E+00  0.00000000E+00  0.00000000E+00
  0.00000000E+00  0.00000000E+00  0.00000000E+00
  0.00000000E+00  0.00000000E+00  0.00000000E+00
  0.00000000E+00  0.00000000E+00  0.00000000E+00
  0.00000000E+00  0.00000000E+00  0.00000000E+00
  0.00000000E+00  0.00000000E+00  0.00000000E+00
  0.00000000E+00  0.00000000E+00  0.00000000E+00
  0.00000000E+00  0.00000000E+00  0.00000000E+00
  0.00000000E+00  0.00000000E+00  0.00000000E+00
  0.00000000E+00  0.00000000E+00  0.00000000E+00
  0.00000000E+00  0.00000000E+00  0.00000000E+00
  0.00000000E+00  0.00000000E+00  0.00000000E+00
  0.00000000E+00  0.00000000E+00  0.00000000E+00
  0.00000000E+00  0.00000000E+00  0.00000000E+00
  0.00000000E+00  0.00000000E+00  0.00000000E+00
  0.00000000E+00  0.00000000E+00  0.00000000E+00
  0.00000000E+00  0.00000000E+00  0.00000000E+00
  0.00000000E+00  0.00000000E+00  0.00000000E+00
  0.00000000E+00  0.00000000E+00  0.00000000E+00
  0.00000000E+00  0.00000000E+00  0.00000000E+00
  0.00000000E+00  0.00000000E+00  0.00000000E+00
  0.00000000E+00  0.00000000E+00  0.00000000E+00