In2O3 structure 12 - random placement wi
   1.00000000000000     
     8.0181668075241372    0.0004707800427089    0.0821772625410905
     0.0004141430787155    8.0883537008671862   -0.0011733512533838
     0.0820726338080193   -0.0012266139950920    8.0057304634779065
   In   O 
    16    24
Direct
  0.0167408576320990  0.2659981253787487  0.1693461716908128
  0.2647539405035615  0.9939812121793230  0.4220254753758209
  0.5445913390274176  0.7662558447264656  0.7020361282625969
  0.5168474751422828  0.2662330442480022  0.6694093231861956
  0.7669245686308535  0.9934953579975290  0.4197605052586261
  0.5468724707132018  0.7663863735108961  0.1996301163998001
  0.2965840818797147  0.4938292458366041  0.4496688350770468
  0.2944343852364323  0.4937108559684988  0.9519743190418604
  0.0470532710653436  0.7664935563482926  0.6997603377313882
  0.5144959811138818  0.2662589984910356  0.1718045569162022
  0.7647284345755426  0.9936400781187952  0.9219325151039679
  0.7968325822593589  0.4940181609554393  0.9498204927852788
  0.0447478732200364  0.7662503755234793  0.2021584344653012
  0.0141880374082241  0.2663173349526424  0.6717727897100889
  0.2669601164794467 -0.0063185259146583  0.9197367665507511
  0.7943551211316405  0.4939226168495798  0.4519261931804542
  0.6523480164897336  0.0306095465236900  0.6678522181454137
  0.9097026967347256  0.5304023697973735  0.2042475472710658
  0.1523582909196206  0.0305657761926665  0.1679256595762122
  0.0108767777698096  0.8806870349451502  0.4560393716274880
  0.7605208935282809  0.3804484622357742  0.7055582215796553
  0.2604513631437836  0.3800199096672269  0.2055219443342604
  0.2988434646253603  0.7296061611169191  0.3146942978368065
  0.6596494404004679  0.7301137640769175  0.4541449866935549
  0.0487551424762961  0.5304679043238131  0.5648105297991129
  0.5488652302952244  0.5302540856619220  0.0648975201425511
  0.5125748079040642  0.0302820945193479  0.3071050778393671
  0.7988787860987642  0.7297140142422686  0.8146183190663533
  0.4010158855408066  0.2297957898057425  0.9170723753248649
  0.2620389152943337  0.2303307160203215  0.5564180657767016
  0.9006482426825890  0.2298630016324052  0.4169760161903451
  0.7623163998733717  0.2300133491189825  0.0559513938642404
  0.8010657180328167  0.8800363986441655  0.1656664742436665
  0.5506210996661894  0.3806826275314464  0.4154083077705329
  0.5107915266154569  0.8804592119700215  0.9558344555998635
  0.0506587829913067  0.3806885019222013  0.9153985177217747
  0.3012277135080935  0.8804302532417764  0.6655983437139030
  0.1599570505083190  0.7300759847528842  0.9542665494589916
  0.4096173519653268  0.5304660081091593  0.7041530458677748
  0.0126967313920569  0.0303054688690488  0.8071201354365323
 
  0.00000000E+00  0.00000000E+00  0.00000000E+00
  0.00000000E+00  0.00000000E+00  0.00000000E+00
  0.00000000E+00  0.00000000E+00  0.00000000E+00
  0.00000000E+00  0.00000000E+00  0.00000000E+00
  0.00000000E+00  0.00000000E+00  0.00000000E+00
  0.00000000E+00  0.00000000E+00  0.00000000E+00
  0.00000000E+00  0.00000000E+00  0.00000000E+00
  0.00000000E+00  0.00000000E+00  0.00000000E+00
  0.00000000E+00  0.00000000E+00  0.00000000E+00
  0.00000000E+00  0.00000000E+00  0.00000000E+00
  0.00000000E+00  0.00000000E+00  0.00000000E+00
  0.00000000E+00  0.00000000E+00  0.00000000E+00
  0.00000000E+00  0.00000000E+00  0.00000000E+00
  0.00000000E+00  0.00000000E+00  0.00000000E+00
  0.00000000E+00  0.00000000E+00  0.00000000E+00
  0.00000000E+00  0.00000000E+00  0.00000000E+00
  0.00000000E+00  0.00000000E+00  0.00000000E+00
  0.00000000E+00  0.00000000E+00  0.00000000E+00
  0.00000000E+00  0.00000000E+00  0.00000000E+00
  0.00000000E+00  0.00000000E+00  0.00000000E+00
  0.00000000E+00  0.00000000E+00  0.00000000E+00
  0.00000000E+00  0.00000000E+00  0.00000000E+00
  0.00000000E+00  0.00000000E+00  0.00000000E+00
  0.00000000E+00  0.00000000E+00  0.00000000E+00
  0.00000000E+00  0.00000000E+00  0.00000000E+00
  0.00000000E+00  0.00000000E+00  0.00000000E+00
  0.00000000E+00  0.00000000E+00  0.00000000E+00
  0.00000000E+00  0.00000000E+00  0.00000000E+00
  0.00000000E+00  0.00000000E+00  0.00000000E+00
  0.00000000E+00  0.00000000E+00  0.00000000E+00
  0.00000000E+00  0.00000000E+00  0.00000000E+00
  0.00000000E+00  0.00000000E+00  0.00000000E+00
  0.00000000E+00  0.00000000E+00  0.00000000E+00
  0.00000000E+00  0.00000000E+00  0.00000000E+00
  0.00000000E+00  0.00000000E+00  0.00000000E+00
  0.00000000E+00  0.00000000E+00  0.00000000E+00
  0.00000000E+00  0.00000000E+00  0.00000000E+00
  0.00000000E+00  0.00000000E+00  0.00000000E+00
  0.00000000E+00  0.00000000E+00  0.00000000E+00
  0.00000000E+00  0.00000000E+00  0.00000000E+00
