Ge4 Se4                                 
   1.00000000000000     
    22.2844429015999985    0.0000000000000000    0.0000000000000000
     0.0000000000000000   15.5118141174000002    0.0000000000000000
     0.0000000000000000    0.0000000000000000   18.1994743346999996
   Ge   Se
   128   129
Direct
  0.0619282005059738  0.0626223979222797  0.0288350448120725
  0.5641597248647845  0.0603111244890053  0.0296533749677508
  0.0614743128393855  0.0622137576395101  0.2791830594884844
  0.5635087610381149  0.0613123769358017  0.2812114044175763
  0.0623486096036302  0.0625884489369981  0.5289467373575981
  0.5647861052325014  0.0658666216176326  0.5328149383455275
  0.0625654963414753  0.0627006768851367  0.7788920973335774
  0.5641025301731537  0.0625299555178640  0.7812744899330759
  0.0615153835376147  0.3118986011132666  0.0284389809408947
  0.5644869844603656  0.3106256730930827  0.0300913968415850
  0.0609764884163005  0.3123642528071857  0.2789298791724023
  0.5703155033441296  0.3091636016266529  0.2700425794436250
  0.0602350823849466  0.3124522322133353  0.5295234001329144
  0.5644302923186341  0.3250246796739843  0.5360539791250610
  0.0622202670112143  0.3123254877293695  0.7793127409950248
  0.5686071758395218  0.3117266794990888  0.7812157457490428
  0.0612944854886086  0.5628096214028452  0.0283457675511350
  0.5646069379812942  0.5622736347783126  0.0303667378285362
  0.0593959877052620  0.5629090370805048  0.2794325345141598
  0.5674042556616512  0.5589069013493672  0.2749228898375442
  0.0594452498309233  0.5630936203519741  0.5297607665223710
  0.5899707584783190  0.5620960060059890  0.5523384871650410
  0.0617681394100006  0.5626917930664841  0.7796222037432819
  0.5674577197869638  0.5616733634681478  0.7818020170190653
  0.0614750905191924  0.8135869306926479  0.0284891898253751
  0.5639837240881845  0.8118557390969066  0.0301125056759527
  0.0609461664821334  0.8130181911063119  0.2790375982146063
  0.5628670499809294  0.8090858784232987  0.2829952104229095
  0.0624066005226599  0.8126446751407969  0.5290226516007256
  0.5661162079937836  0.8112466088402279  0.5323616505170603
  0.0616545424202310  0.8131864785903092  0.7794142188363650
  0.5655326560407171  0.8125074931674686  0.7825117188709565
  0.4344673439592829  0.1874925068325313  0.2174882811290437
  0.9383454495797682  0.1868135214096903  0.2205857811636348
  0.4338837920062163  0.1887533911597717  0.4676383494829395
  0.9375933914773397  0.1873553248592039  0.4709773483992748
  0.4371329500190705  0.1909141215767018  0.7170047895770908
  0.9390538255178662  0.1869818088936884  0.7209624017853936
  0.4360162759118156  0.1881442609030935  0.9698874993240513
  0.9385249014808066  0.1864130693073515  0.9715108151746289
  0.4325422802130367  0.4383266365318524  0.2181979829809347
  0.9382318525899987  0.4373082069335160  0.2203777962567182
  0.4100292415216808  0.4379039939940115  0.4476615128349584
  0.9405547421690758  0.4369063796480257  0.4702392334776287
  0.4325957443383489  0.4410930986506328  0.7250771101624556
  0.9406040042947369  0.4370909629194951  0.7205674654858404
  0.4353930620187059  0.4377263652216872  0.9696332671714678
  0.9387055065113907  0.4371903785971551  0.9716542374488695
  0.4313928241604784  0.6882733205009114  0.2187842542509569
  0.9377797249887853  0.6876745122706306  0.2206872590049755
  0.4355697076813660  0.6749753203260161  0.4639460208749392
  0.9397649096150530  0.6875477677866640  0.4704765998670853
  0.4296844966558704  0.6908363983733472  0.7299574205563756
  0.9390235035836990  0.6876357471928142  0.7210701208275975
  0.4355130155396343  0.6893743269069167  0.9699086081584190
  0.9384846084623849  0.6881013988867337  0.9715610240591098
  0.4358974698268467  0.9374700444821359  0.2187255100669241
  0.9374344956585242  0.9372993231148630  0.2211079026664226
  0.4352138947674987  0.9341333783823677  0.4671850616544725
  0.9376513823963687  0.9374115510630024  0.4710532626424022
  0.4364912389618849  0.9386876230641983  0.7187885955824236
  0.9385256791606142  0.9377862423604901  0.7208169405115150
  0.4358402751352151  0.9396888755109952  0.9703466300322530
  0.9380717914940254  0.9373776020777203  0.9711649601879311
  0.1858038343519248  0.1869140763370767  0.1534427428963697
  0.6885166857955687  0.1815156695843656  0.1509824858866524
  0.1854865077193207  0.1880438710385691  0.4039319974459240
  0.6863642174203188  0.1879558508217352  0.4045996260399387
  0.1864599515131336  0.1878394739806207  0.6539939328850888
  0.6884688465152616  0.1865863349376839  0.6579036121514830
  0.1866870001723790  0.1875194973293453  0.9040249957314763
  0.6882456718391138  0.1852853775415496  0.9070692722386859
  0.1848171699613348  0.4373744924951020  0.1513075291788433
  0.6883177915711043  0.4367522594525798  0.1507999637748196
  0.1849410399590617  0.4380440047594957  0.4046433543555815
  0.6936562562540388  0.4317956137014424  0.3998313421233219
  0.1857235370612579  0.4380460366189212  0.6539939555881427
  0.7033595342696970  0.4342044206232162  0.6700446259048952
  0.1863202949927315  0.4376166025610304  0.9043857246786192
  0.6878673391167305  0.4366658969161154  0.9070077185092636
  0.1845775336090875  0.6887524721756531  0.1519997094623167
  0.6877019052206591  0.6892622264746996  0.1535881567601143
  0.1861180634766874  0.6869350323803369  0.4044640868111198
  0.6872039818473482  0.6901897149386176  0.4011641726961565
  0.1863600647639202  0.6875108832355821  0.6547341846148966
  0.6959073399054178  0.6900933519015130  0.6657840224447085
  0.1860489821187053  0.6880053226873414  0.9042968414272842
  0.6877789774302810  0.6879486981909942  0.9067577323012246
  0.1858960934644379  0.9377184002745440  0.1540710161685036
  0.6861746584221315  0.9359167441977053  0.1562209412418456
  0.1862634787159054  0.9373146287907417  0.4037245614087419
  0.6865954496157716  0.9382440416606705  0.4054608995376593
  0.1868069181343877  0.9375571369781461  0.6541766878996523
  0.6885120417196384  0.9379107200288371  0.6569451953560511
  0.1865388374855031  0.9378894207330996  0.9041196259561629
  0.6880845273723831  0.9368597214562205  0.9067355522277227
  0.3119154726276168  0.0631402785437797  0.0932644407722734
  0.8134611625144962  0.0621105792669010  0.0958803670438335
  0.3114879582803612  0.0620892799711631  0.3430548046439487
  0.8131930818656126  0.0624428630218535  0.3458233121003481
  0.3134045503842281  0.0617559583393296  0.5945391004623412
  0.8137365212840946  0.0626853712092578  0.5962754385912584
  0.3138253415778681  0.0640832558022946  0.8437790587581541
  0.8141039065355621  0.0622815997254562  0.8459289838314961
  0.3122210225697192  0.3120513018090061  0.0932422606987715
  0.8139510178812946  0.3119946773126586  0.0957031515727117
  0.3040926600945823  0.3099066480984868  0.3342159775552914
  0.8136399352360794  0.3124891167644174  0.3452658153851036
  0.3127960181526517  0.3098102850613825  0.5988358273038433
  0.8138819365233126  0.3130649676196626  0.5955359131888804
  0.3122980947793409  0.3107377735253002  0.8464118432398857
  0.8154224663909121  0.3112475278243468  0.8480002905376832
  0.3121326608832699  0.5633341030838845  0.0929922744907322
  0.8136797050072685  0.5623833974389699  0.0956142683213769
  0.2966404657303021  0.5657955793767833  0.3299553740951048
  0.8142764629387416  0.5619539633810786  0.3460060444118581
  0.3063437437459615  0.5682043862985577  0.6001686578766783
  0.8150589600409383  0.5619559952405045  0.5953566456444187
  0.3116822084288951  0.5632477405474201  0.8492000362251808
  0.8151828300386650  0.5626255075048977  0.8486924708211571
  0.3117543281608864  0.8147146224584509  0.0929307207613099
  0.8133129998276212  0.8124805026706547  0.0959749972685193
  0.3115311534847383  0.8134136650623156  0.3420963878485171
  0.8135400484868667  0.8121605260193796  0.3460060671149113
  0.3136357825796813  0.8120441491782646  0.5954003739600615
  0.8145134922806790  0.8119561289614310  0.5960680025540767
  0.3114833142044312  0.8184843304156341  0.8490175141133476
  0.8141961656480755  0.8130859236629234  0.8465572571036305
  0.0723278197670369  0.1873602817255390  0.1237207890041677
  0.5741862542041128  0.1853710612964474  0.1245502187755759
  0.0722310493743598  0.1875353062857283  0.3736942859302181
  0.5736002511946489  0.1890843620302875  0.3725345402128469
  0.0729176067790755  0.1873270537215832  0.6240788648394631
  0.5752862994882104  0.1901649186721797  0.6285331706160908
  0.0732110556433629  0.1873384794650861  0.8738706141028991
  0.5747192601938225  0.1864544435852376  0.8769493885510280
  0.0713439830992064  0.4372266627876400  0.1229207561184952
  0.5740213198324668  0.4363042350071262  0.1252989695916258
  0.0713053863582814  0.4377271756198122  0.3733179047533825
  0.5820897664796724  0.4311454703007136  0.3625534284849844
  0.0722981244737454  0.4376907283552824  0.6241536812247338
  0.5905076926644783  0.4362905174565290  0.6404407097472886
  0.0729763705099007  0.4374471805401574  0.8741922825948896
  0.5746433498326685  0.4365993058786843  0.8770009882786269
  0.0711414825527765  0.6883066111420318  0.1229498034354934
  0.5737490165532393  0.6871069053325178  0.1253048722221934
  0.0725609223500695  0.6876467429184909  0.3734449346418311
  0.5736371408453010  0.6817280985624959  0.3756619111626357
  0.0728622274663864  0.6879791235826169  0.6242299761207535
  0.5809716465943588  0.6916208054975962  0.6349633845056912
  0.0727450524403079  0.6879898309213707  0.8742070559540732
  0.5742618438355255  0.6875689637636860  0.8773264908101616
  0.0724861835735883  0.9379617024936977  0.1237340886766347
  0.5728293103013546  0.9362654828556659  0.1255039210434242
  0.0726496649579105  0.9375159296797932  0.3742655379119565
  0.5730923217518722  0.9360237197586765  0.3771994144157125
  0.0733474178793312  0.9377026120533493  0.6236336559394189
  0.5749270446262607  0.9374743229759198  0.6257323978217749
  0.0730722114721226  0.9381132699631997  0.8740212850598091
  0.5742669779225712  0.9379288317280744  0.8769635211516164
  0.4257330220774285  0.0620711682719258  0.1230365088483863
  0.9269278035278756  0.0618867300367999  0.1259787449401934
  0.4250729553737395  0.0625256770240801  0.3742676321782272
  0.9266525971206664  0.0622973879466509  0.3763663740605830
  0.4269076782481284  0.0639762802413236  0.6228006155842827
  0.9273503500420874  0.0624840703202072  0.6257344920880392
  0.4271706896986459  0.0637345171443335  0.8744961169565716
  0.9275138314264096  0.0620382975063023  0.8762659493233611
  0.4257381561644746  0.3124310362363132  0.1226735391898407
  0.9272549625596896  0.3120101690786297  0.1257929740459289
  0.4190283534056420  0.3083791945024033  0.3650366454943112
  0.9271377875336109  0.3120208764173835  0.3757700538792486
  0.4263628591546990  0.3182719014375042  0.6243381188373592
  0.9274390926499283  0.3123532570815096  0.6265550953581643
  0.4262509834467605  0.3128930946674824  0.8746951657778030
  0.9288585324472206  0.3116933888579684  0.8770502345645033
  0.4253566501673316  0.5634006941213155  0.1229990417213759
  0.9270236444900971  0.5625528194598434  0.1258077474051131
  0.4094923073355210  0.5637094825434715  0.3595593202527139
  0.9277018905262524  0.5623092716447177  0.3758463487752687
  0.4179102335203273  0.5688545296992867  0.6374466015150110
  0.9286946286417167  0.5622728243801878  0.6266821252466135
  0.4259786801675333  0.5636957649928740  0.8747010684083703
  0.9286560319007914  0.5627733372123599  0.8770792818815010
  0.4252807398061777  0.8135455564147620  0.1230506414489749
  0.9267889593566351  0.8126615205349140  0.1261294158971032
  0.4247137005117897  0.8098350813278198  0.3714668593839117
  0.9270824082209221  0.8126729462784167  0.3759211651605393
  0.4263997488053513  0.8109156379697124  0.6274654897871488
  0.9277689656256380  0.8124646937142720  0.6263057440697769
  0.4258137457958876  0.8146289387035526  0.8754498192244200
  0.9276721952329611  0.8126397182744610  0.8762792489958284
  0.1749513589628903  0.0625630415418546  0.2490227098114060
  0.6770405206884395  0.0608784850555562  0.2504161386138704
  0.1758583910843848  0.0627068459351702  0.4984482248451199
  0.6775490283463722  0.0636621582518220  0.5007545541594051
  0.1761131822331576  0.0628134626902498  0.7487809897345944
  0.6781381118745939  0.0614851173326862  0.7519681537774786
  0.1756214603217980  0.0627679827269060  0.9989943220563761
  0.6779948741914322  0.0605236153811524  0.0022018044584117
  0.1746054308012756  0.3127907531062682  0.2473736117214099
  0.6828104534585334  0.3080852196709624  0.2437089206770179
  0.1735168111143469  0.3125848598287356  0.4987468910704991
  0.6781006896771917  0.3140389230218149  0.4982831206634103
  0.1756435715200353  0.3126902935096121  0.7487879508717036
  0.6836196434488671  0.3069422673101380  0.7594822044490579
  0.1752642282543719  0.3124686562848867  0.9988827914180520
  0.6781888346428925  0.3108849279624208  0.0019055540591000
  0.1727915648495414  0.5627059635410426  0.2455443183192795
  0.6798465631952201  0.5627965988873377  0.2463828142174142
  0.1729065552552497  0.5627300793332690  0.4991372020172399
  0.6917515563659912  0.5612537539470798  0.4954862203335271
  0.1751225421888363  0.5624870909027038  0.7492611481918174
  0.6830216576481429  0.5638545529602698  0.7601706355679723
  0.1750704133276595  0.5628702785298421  0.9990616905254187
  0.6782256462957119  0.5623197762245182  0.0016367416444502
  0.1741925663170981  0.8127055056055490  0.2482909590675109
  0.6765384049530933  0.8112837450328286  0.2514562137930972
  0.1759327166404991  0.8122520731789713  0.4987587270910509
  0.6784990130085662  0.8116557221762709  0.4995419238154697
  0.1750890658608035  0.8130386916245247  0.7491098715127985
  0.6801705532125355  0.8161982118329394  0.7563155322953942
  0.1752450326664085  0.8130200073038558  0.9989555057356593
  0.6777727197522074  0.8126110734410849  0.0019016584933929
  0.3222272802477928  0.1873889265589153 -0.0019016964933893
  0.8247549523335941  0.1869799926961442  0.0010444562643446
  0.3198294467874648  0.1838017881670603  0.2436844377046107
  0.8249109191391987  0.1869613083754756  0.2508900984872058
  0.3215009869914338  0.1883442778237285  0.5004580461845275
  0.8240672683595029  0.1877479268210283  0.5012412429089463
  0.3234615950469065  0.1887162549671714  0.7485437562069004
  0.8258074186829044  0.1872944943944512  0.7517090109324867
  0.3217743537042885  0.4376802237754819 -0.0016367796444464
  0.8249295716723426  0.4371297214701577  0.0009382714745849
  0.3169783423518577  0.4361454470397302  0.2398293344320325
  0.8248774428111658  0.4375129090972968  0.2507388218081875
  0.3082484436340094  0.4387462460529209  0.5045137496664700
  0.8270934297447530  0.4372699206667310  0.5008627679827578
  0.3201534368047796  0.4372034011126621  0.7536171557825835
  0.8272084201504609  0.4372940364589571  0.7544556516807176
  0.3218111653571069  0.6891150720375788 -0.0019055920590959
  0.8247357567456300  0.6875313437151136  0.0011171705819521
  0.3163803565511329  0.6930577326898625  0.2405177655509467
  0.8243564134799669  0.6873097064903881  0.2512120191283009
  0.3218993103228083  0.6859610769781850  0.5017168493365874
  0.8264831738856557  0.6874151401712637  0.5012530789294984
  0.3171895465414665  0.6919147803290372  0.7562910493229800
  0.8253945541987266  0.6872092468937314  0.7526263582785873
  0.3220051258085678  0.9394763846188479 -0.0022018424584078
  0.8243785246782038  0.9372320172730938  0.0010056399436282
  0.3218618881254062  0.9385148826673138  0.2480318162225260
  0.8238868027668448  0.9371865373097502  0.2512189802654102
  0.3224509716536277  0.9363378417481781  0.4992454158405928
  0.8241415939156177  0.9372931540648297  0.5015517451548775
  0.3229594793115604  0.9391215149444434  0.7495838313861268
  0.8250486260371123  0.9374369584581448  0.7509772601885915
  0.5000000000000000  0.5000000000000000  0.5000000000000000
 
  0.00000000E+00  0.00000000E+00  0.00000000E+00
  0.00000000E+00  0.00000000E+00  0.00000000E+00
  0.00000000E+00  0.00000000E+00  0.00000000E+00
  0.00000000E+00  0.00000000E+00  0.00000000E+00
  0.00000000E+00  0.00000000E+00  0.00000000E+00
  0.00000000E+00  0.00000000E+00  0.00000000E+00
  0.00000000E+00  0.00000000E+00  0.00000000E+00
  0.00000000E+00  0.00000000E+00  0.00000000E+00
  0.00000000E+00  0.00000000E+00  0.00000000E+00
  0.00000000E+00  0.00000000E+00  0.00000000E+00
  0.00000000E+00  0.00000000E+00  0.00000000E+00
  0.00000000E+00  0.00000000E+00  0.00000000E+00
  0.00000000E+00  0.00000000E+00  0.00000000E+00
  0.00000000E+00  0.00000000E+00  0.00000000E+00
  0.00000000E+00  0.00000000E+00  0.00000000E+00
  0.00000000E+00  0.00000000E+00  0.00000000E+00
  0.00000000E+00  0.00000000E+00  0.00000000E+00
  0.00000000E+00  0.00000000E+00  0.00000000E+00
  0.00000000E+00  0.00000000E+00  0.00000000E+00
  0.00000000E+00  0.00000000E+00  0.00000000E+00
  0.00000000E+00  0.00000000E+00  0.00000000E+00
  0.00000000E+00  0.00000000E+00  0.00000000E+00
  0.00000000E+00  0.00000000E+00  0.00000000E+00
  0.00000000E+00  0.00000000E+00  0.00000000E+00
  0.00000000E+00  0.00000000E+00  0.00000000E+00
  0.00000000E+00  0.00000000E+00  0.00000000E+00
  0.00000000E+00  0.00000000E+00  0.00000000E+00
  0.00000000E+00  0.00000000E+00  0.00000000E+00
  0.00000000E+00  0.00000000E+00  0.00000000E+00
  0.00000000E+00  0.00000000E+00  0.00000000E+00
  0.00000000E+00  0.00000000E+00  0.00000000E+00
  0.00000000E+00  0.00000000E+00  0.00000000E+00
  0.00000000E+00  0.00000000E+00  0.00000000E+00
  0.00000000E+00  0.00000000E+00  0.00000000E+00
  0.00000000E+00  0.00000000E+00  0.00000000E+00
  0.00000000E+00  0.00000000E+00  0.00000000E+00
  0.00000000E+00  0.00000000E+00  0.00000000E+00
  0.00000000E+00  0.00000000E+00  0.00000000E+00
  0.00000000E+00  0.00000000E+00  0.00000000E+00
  0.00000000E+00  0.00000000E+00  0.00000000E+00
  0.00000000E+00  0.00000000E+00  0.00000000E+00
  0.00000000E+00  0.00000000E+00  0.00000000E+00
  0.00000000E+00  0.00000000E+00  0.00000000E+00
  0.00000000E+00  0.00000000E+00  0.00000000E+00
  0.00000000E+00  0.00000000E+00  0.00000000E+00
  0.00000000E+00  0.00000000E+00  0.00000000E+00
  0.00000000E+00  0.00000000E+00  0.00000000E+00
  0.00000000E+00  0.00000000E+00  0.00000000E+00
  0.00000000E+00  0.00000000E+00  0.00000000E+00
  0.00000000E+00  0.00000000E+00  0.00000000E+00
  0.00000000E+00  0.00000000E+00  0.00000000E+00
  0.00000000E+00  0.00000000E+00  0.00000000E+00
  0.00000000E+00  0.00000000E+00  0.00000000E+00
  0.00000000E+00  0.00000000E+00  0.00000000E+00
  0.00000000E+00  0.00000000E+00  0.00000000E+00
  0.00000000E+00  0.00000000E+00  0.00000000E+00
  0.00000000E+00  0.00000000E+00  0.00000000E+00
  0.00000000E+00  0.00000000E+00  0.00000000E+00
  0.00000000E+00  0.00000000E+00  0.00000000E+00
  0.00000000E+00  0.00000000E+00  0.00000000E+00
  0.00000000E+00  0.00000000E+00  0.00000000E+00
  0.00000000E+00  0.00000000E+00  0.00000000E+00
  0.00000000E+00  0.00000000E+00  0.00000000E+00
  0.00000000E+00  0.00000000E+00  0.00000000E+00
  0.00000000E+00  0.00000000E+00  0.00000000E+00
  0.00000000E+00  0.00000000E+00  0.00000000E+00
  0.00000000E+00  0.00000000E+00  0.00000000E+00
  0.00000000E+00  0.00000000E+00  0.00000000E+00
  0.00000000E+00  0.00000000E+00  0.00000000E+00
  0.00000000E+00  0.00000000E+00  0.00000000E+00
  0.00000000E+00  0.00000000E+00  0.00000000E+00
  0.00000000E+00  0.00000000E+00  0.00000000E+00
  0.00000000E+00  0.00000000E+00  0.00000000E+00
  0.00000000E+00  0.00000000E+00  0.00000000E+00
  0.00000000E+00  0.00000000E+00  0.00000000E+00
  0.00000000E+00  0.00000000E+00  0.00000000E+00
  0.00000000E+00  0.00000000E+00  0.00000000E+00
  0.00000000E+00  0.00000000E+00  0.00000000E+00
  0.00000000E+00  0.00000000E+00  0.00000000E+00
  0.00000000E+00  0.00000000E+00  0.00000000E+00
  0.00000000E+00  0.00000000E+00  0.00000000E+00
  0.00000000E+00  0.00000000E+00  0.00000000E+00
  0.00000000E+00  0.00000000E+00  0.00000000E+00
  0.00000000E+00  0.00000000E+00  0.00000000E+00
  0.00000000E+00  0.00000000E+00  0.00000000E+00
  0.00000000E+00  0.00000000E+00  0.00000000E+00
  0.00000000E+00  0.00000000E+00  0.00000000E+00
  0.00000000E+00  0.00000000E+00  0.00000000E+00
  0.00000000E+00  0.00000000E+00  0.00000000E+00
  0.00000000E+00  0.00000000E+00  0.00000000E+00
  0.00000000E+00  0.00000000E+00  0.00000000E+00
  0.00000000E+00  0.00000000E+00  0.00000000E+00
  0.00000000E+00  0.00000000E+00  0.00000000E+00
  0.00000000E+00  0.00000000E+00  0.00000000E+00
  0.00000000E+00  0.00000000E+00  0.00000000E+00
  0.00000000E+00  0.00000000E+00  0.00000000E+00
  0.00000000E+00  0.00000000E+00  0.00000000E+00
  0.00000000E+00  0.00000000E+00  0.00000000E+00
  0.00000000E+00  0.00000000E+00  0.00000000E+00
  0.00000000E+00  0.00000000E+00  0.00000000E+00
  0.00000000E+00  0.00000000E+00  0.00000000E+00
  0.00000000E+00  0.00000000E+00  0.00000000E+00
  0.00000000E+00  0.00000000E+00  0.00000000E+00
  0.00000000E+00  0.00000000E+00  0.00000000E+00
  0.00000000E+00  0.00000000E+00  0.00000000E+00
  0.00000000E+00  0.00000000E+00  0.00000000E+00
  0.00000000E+00  0.00000000E+00  0.00000000E+00
  0.00000000E+00  0.00000000E+00  0.00000000E+00
  0.00000000E+00  0.00000000E+00  0.00000000E+00
  0.00000000E+00  0.00000000E+00  0.00000000E+00
  0.00000000E+00  0.00000000E+00  0.00000000E+00
  0.00000000E+00  0.00000000E+00  0.00000000E+00
  0.00000000E+00  0.00000000E+00  0.00000000E+00
  0.00000000E+00  0.00000000E+00  0.00000000E+00
  0.00000000E+00  0.00000000E+00  0.00000000E+00
  0.00000000E+00  0.00000000E+00  0.00000000E+00
  0.00000000E+00  0.00000000E+00  0.00000000E+00
  0.00000000E+00  0.00000000E+00  0.00000000E+00
  0.00000000E+00  0.00000000E+00  0.00000000E+00
  0.00000000E+00  0.00000000E+00  0.00000000E+00
  0.00000000E+00  0.00000000E+00  0.00000000E+00
  0.00000000E+00  0.00000000E+00  0.00000000E+00
  0.00000000E+00  0.00000000E+00  0.00000000E+00
  0.00000000E+00  0.00000000E+00  0.00000000E+00
  0.00000000E+00  0.00000000E+00  0.00000000E+00
  0.00000000E+00  0.00000000E+00  0.00000000E+00
  0.00000000E+00  0.00000000E+00  0.00000000E+00
  0.00000000E+00  0.00000000E+00  0.00000000E+00
  0.00000000E+00  0.00000000E+00  0.00000000E+00
  0.00000000E+00  0.00000000E+00  0.00000000E+00
  0.00000000E+00  0.00000000E+00  0.00000000E+00
  0.00000000E+00  0.00000000E+00  0.00000000E+00
  0.00000000E+00  0.00000000E+00  0.00000000E+00
  0.00000000E+00  0.00000000E+00  0.00000000E+00
  0.00000000E+00  0.00000000E+00  0.00000000E+00
  0.00000000E+00  0.00000000E+00  0.00000000E+00
  0.00000000E+00  0.00000000E+00  0.00000000E+00
  0.00000000E+00  0.00000000E+00  0.00000000E+00
  0.00000000E+00  0.00000000E+00  0.00000000E+00
  0.00000000E+00  0.00000000E+00  0.00000000E+00
  0.00000000E+00  0.00000000E+00  0.00000000E+00
  0.00000000E+00  0.00000000E+00  0.00000000E+00
  0.00000000E+00  0.00000000E+00  0.00000000E+00
  0.00000000E+00  0.00000000E+00  0.00000000E+00
  0.00000000E+00  0.00000000E+00  0.00000000E+00
  0.00000000E+00  0.00000000E+00  0.00000000E+00
  0.00000000E+00  0.00000000E+00  0.00000000E+00
  0.00000000E+00  0.00000000E+00  0.00000000E+00
  0.00000000E+00  0.00000000E+00  0.00000000E+00
  0.00000000E+00  0.00000000E+00  0.00000000E+00
  0.00000000E+00  0.00000000E+00  0.00000000E+00
  0.00000000E+00  0.00000000E+00  0.00000000E+00
  0.00000000E+00  0.00000000E+00  0.00000000E+00
  0.00000000E+00  0.00000000E+00  0.00000000E+00
  0.00000000E+00  0.00000000E+00  0.00000000E+00
  0.00000000E+00  0.00000000E+00  0.00000000E+00
  0.00000000E+00  0.00000000E+00  0.00000000E+00
  0.00000000E+00  0.00000000E+00  0.00000000E+00
  0.00000000E+00  0.00000000E+00  0.00000000E+00
  0.00000000E+00  0.00000000E+00  0.00000000E+00
  0.00000000E+00  0.00000000E+00  0.00000000E+00
  0.00000000E+00  0.00000000E+00  0.00000000E+00
  0.00000000E+00  0.00000000E+00  0.00000000E+00
  0.00000000E+00  0.00000000E+00  0.00000000E+00
  0.00000000E+00  0.00000000E+00  0.00000000E+00
  0.00000000E+00  0.00000000E+00  0.00000000E+00
  0.00000000E+00  0.00000000E+00  0.00000000E+00
  0.00000000E+00  0.00000000E+00  0.00000000E+00
  0.00000000E+00  0.00000000E+00  0.00000000E+00
  0.00000000E+00  0.00000000E+00  0.00000000E+00
  0.00000000E+00  0.00000000E+00  0.00000000E+00
  0.00000000E+00  0.00000000E+00  0.00000000E+00
  0.00000000E+00  0.00000000E+00  0.00000000E+00
  0.00000000E+00  0.00000000E+00  0.00000000E+00
  0.00000000E+00  0.00000000E+00  0.00000000E+00
  0.00000000E+00  0.00000000E+00  0.00000000E+00
  0.00000000E+00  0.00000000E+00  0.00000000E+00
  0.00000000E+00  0.00000000E+00  0.00000000E+00
  0.00000000E+00  0.00000000E+00  0.00000000E+00
  0.00000000E+00  0.00000000E+00  0.00000000E+00
  0.00000000E+00  0.00000000E+00  0.00000000E+00
  0.00000000E+00  0.00000000E+00  0.00000000E+00
  0.00000000E+00  0.00000000E+00  0.00000000E+00
  0.00000000E+00  0.00000000E+00  0.00000000E+00
  0.00000000E+00  0.00000000E+00  0.00000000E+00
  0.00000000E+00  0.00000000E+00  0.00000000E+00
  0.00000000E+00  0.00000000E+00  0.00000000E+00
  0.00000000E+00  0.00000000E+00  0.00000000E+00
  0.00000000E+00  0.00000000E+00  0.00000000E+00
  0.00000000E+00  0.00000000E+00  0.00000000E+00
  0.00000000E+00  0.00000000E+00  0.00000000E+00
  0.00000000E+00  0.00000000E+00  0.00000000E+00
  0.00000000E+00  0.00000000E+00  0.00000000E+00
  0.00000000E+00  0.00000000E+00  0.00000000E+00
  0.00000000E+00  0.00000000E+00  0.00000000E+00
  0.00000000E+00  0.00000000E+00  0.00000000E+00
  0.00000000E+00  0.00000000E+00  0.00000000E+00
  0.00000000E+00  0.00000000E+00  0.00000000E+00
  0.00000000E+00  0.00000000E+00  0.00000000E+00
  0.00000000E+00  0.00000000E+00  0.00000000E+00
  0.00000000E+00  0.00000000E+00  0.00000000E+00
  0.00000000E+00  0.00000000E+00  0.00000000E+00
  0.00000000E+00  0.00000000E+00  0.00000000E+00
  0.00000000E+00  0.00000000E+00  0.00000000E+00
  0.00000000E+00  0.00000000E+00  0.00000000E+00
  0.00000000E+00  0.00000000E+00  0.00000000E+00
  0.00000000E+00  0.00000000E+00  0.00000000E+00
  0.00000000E+00  0.00000000E+00  0.00000000E+00
  0.00000000E+00  0.00000000E+00  0.00000000E+00
  0.00000000E+00  0.00000000E+00  0.00000000E+00
  0.00000000E+00  0.00000000E+00  0.00000000E+00
  0.00000000E+00  0.00000000E+00  0.00000000E+00
  0.00000000E+00  0.00000000E+00  0.00000000E+00
  0.00000000E+00  0.00000000E+00  0.00000000E+00
  0.00000000E+00  0.00000000E+00  0.00000000E+00
  0.00000000E+00  0.00000000E+00  0.00000000E+00
  0.00000000E+00  0.00000000E+00  0.00000000E+00
  0.00000000E+00  0.00000000E+00  0.00000000E+00
  0.00000000E+00  0.00000000E+00  0.00000000E+00
  0.00000000E+00  0.00000000E+00  0.00000000E+00
  0.00000000E+00  0.00000000E+00  0.00000000E+00
  0.00000000E+00  0.00000000E+00  0.00000000E+00
  0.00000000E+00  0.00000000E+00  0.00000000E+00
  0.00000000E+00  0.00000000E+00  0.00000000E+00
  0.00000000E+00  0.00000000E+00  0.00000000E+00
  0.00000000E+00  0.00000000E+00  0.00000000E+00
  0.00000000E+00  0.00000000E+00  0.00000000E+00
  0.00000000E+00  0.00000000E+00  0.00000000E+00
  0.00000000E+00  0.00000000E+00  0.00000000E+00
  0.00000000E+00  0.00000000E+00  0.00000000E+00
  0.00000000E+00  0.00000000E+00  0.00000000E+00
  0.00000000E+00  0.00000000E+00  0.00000000E+00
  0.00000000E+00  0.00000000E+00  0.00000000E+00
  0.00000000E+00  0.00000000E+00  0.00000000E+00
  0.00000000E+00  0.00000000E+00  0.00000000E+00
  0.00000000E+00  0.00000000E+00  0.00000000E+00
  0.00000000E+00  0.00000000E+00  0.00000000E+00
  0.00000000E+00  0.00000000E+00  0.00000000E+00
  0.00000000E+00  0.00000000E+00  0.00000000E+00
  0.00000000E+00  0.00000000E+00  0.00000000E+00
  0.00000000E+00  0.00000000E+00  0.00000000E+00
  0.00000000E+00  0.00000000E+00  0.00000000E+00
  0.00000000E+00  0.00000000E+00  0.00000000E+00
  0.00000000E+00  0.00000000E+00  0.00000000E+00
  0.00000000E+00  0.00000000E+00  0.00000000E+00
  0.00000000E+00  0.00000000E+00  0.00000000E+00
  0.00000000E+00  0.00000000E+00  0.00000000E+00
  0.00000000E+00  0.00000000E+00  0.00000000E+00
  0.00000000E+00  0.00000000E+00  0.00000000E+00
  0.00000000E+00  0.00000000E+00  0.00000000E+00
  0.00000000E+00  0.00000000E+00  0.00000000E+00
  0.00000000E+00  0.00000000E+00  0.00000000E+00
  0.00000000E+00  0.00000000E+00  0.00000000E+00
  0.00000000E+00  0.00000000E+00  0.00000000E+00
  0.00000000E+00  0.00000000E+00  0.00000000E+00
  0.00000000E+00  0.00000000E+00  0.00000000E+00
  0.00000000E+00  0.00000000E+00  0.00000000E+00
