Amorphous GeAsSeSi                      
   1.00000000000000     
    21.5930323354591138    0.0000000000000000    0.0000000000000000
     0.0000000000000000   21.5930323354591138    0.0000000000000000
     0.0000000000000000    0.0000000000000000   21.5930323354591138
   Ge   As   Te   Si
    30    90   165    15
Direct
  0.5330789203172641  0.3914853709421695  0.3464567883892435
  0.1433038256986490  0.9357999841162294  0.7015798331162298
  0.3924174533932087  0.1949403841082313  0.8222697211297932
  0.1707132255421652  0.3381817050845744  0.9852880063712063
  0.7143607769623742  0.4358870358221321  0.5554602434884183
  0.4454272065215688  0.2195875833147838  0.4301256961577005
  0.8572845995336402  0.1349153955540433  0.9216885733444854
  0.1344382376836926  0.8072868839004311  0.8617297440961454
  0.6745624755993309  0.0611657287397446  0.9785841915679999
  0.2995173129634836  0.8779648993184745  0.5797769839369415
  0.5294734279501881  0.2678357365766115  0.1910795405157800
  0.7097185828144663  0.5599790760896244  0.8581341985810568
  0.7183152976118364  0.2012673252489875  0.1283683812025861
  0.5048349246471637  0.0145068167015097  0.0744239586775678
  0.9163477209826312  0.2761600182376127  0.4253403700069258
  0.4711362395036864  0.8097815736395498  0.2758303811570123
  0.7751127917925654  0.0735166391584888  0.4045869322577322
  0.7123913777983731  0.9557148098956716  0.8245036090085857
  0.6481445359009010  0.9356659707634182  0.6562646357217831
  0.0429309830878687  0.8507216090414804  0.6128245250895584
  0.2562464208885468  0.0301690808389700  0.0824857750511390
  0.5253109487946797  0.8786431209859584  0.1417977713434812
  0.4531305383089875  0.7095537737998967  0.0451601762081305
  0.2431858770154557  0.0284247296876158  0.9018743825894192
  0.8088416235583167  0.2004150157604917  0.7519987131324962
  0.4076592090730924  0.5925841120365319  0.3973176679835463
  0.5073905595484578  0.9813524084305033  0.2702313616071106
  0.3173968808922710  0.5849000063539990  0.2516324044228485
  0.5455840528387239  0.1564153213000480  0.4391090192602822
  0.5283594441035819  0.5133636899798574  0.8680228210857251
  0.3760141832501710 -0.0104733643016563  0.4792587672445187
  0.1174747023815929  0.7354762805622411  0.1217339099968544
  0.9477394588817730  0.9366810431119484  0.0136015740897085
  0.8501489091698452  0.6341143582552152  0.7305381826594587
  0.3631964067013662  0.5117502022144563  0.6480922145979431
  0.3349455476163249  0.7442864323342251  0.8376832672231632
  0.3272144796684188  0.8105279746169255  0.3842318860565302
  0.6572099827222649  0.3904531164302469  0.0946181001999999
  0.0502546240065684  0.0064457388091200  0.8619422562415322
  0.3821064263165820  0.7413560581978025  0.3083594763215407
  0.7685026198024604  0.7794887633584425  0.2900377550418118
  0.6468060772983479  0.1590250835414471  0.7721901902594487
  0.4562025464291704  0.7742717949464509  0.7216879743149083
  0.6453549452527756  0.2946423763329284  0.1627739321781021
  0.7790544750786900  0.8077807070878443  0.5607013285667301
  0.8990524426814103  0.9961764441705798  0.2892868416411579
  0.2964862015896655  0.1614454397103885  0.3103678942794564
  0.1781475170667798  0.5037682963614576  0.1933522462574762
  0.0696994118896451  0.0238912703259829  0.4044848711371195
  0.7222161470386742  0.7546363810545577  0.7330895662240253
  0.9039138103448996  0.5141864232443548  0.1209611803629818
  0.5975428403822568  0.0798443798275450  0.3696734031746172
  0.5436469028999326  0.8202759225164593  0.5395008228407507
  0.5184311653299325 -0.0076161480801859  0.3858954255099004
  0.9254560986216933  0.3356789689316244  0.7750186319869640
  0.2084823255380265  0.4917666257201255  0.0812082350206204
  0.7635497431146284  0.8980310529183846  0.0436867545598467
  0.5693751288869479  0.7483513312208339  0.7153746360934617
  0.0892109556557444  0.2764542822962299  0.1078499259285234
  0.2667744868238898  0.8814254133620305  0.3102188924199417
  0.6069525413716556  0.8251070029742363  0.6360430834994378
  0.3251906870008439  0.4845367879604746  0.0714711155127053
  0.2176234549052365  0.3775081472474247  0.0933798110014631
  0.6634957011094877  0.6630177097299028  0.5908578549689529
  0.6806109879025096  0.1269174260289784  0.5384794965370377
  0.9086449895508651  0.1779186186168423  0.2829355313347210
  0.6667638479715029  0.9035069803216831  0.9813380245042447
  0.4565900353003257  0.6980580775884526  0.3886774564343090
  0.9586429883004488  0.8582261710254917  0.2864974235235313
  0.4282892072149070  0.4298798870214111  0.3874974160825181
  0.8715331426919154  0.7906357902676936  0.6275647062179079
  0.2967582849849387  0.6351060177018789  0.8451159188115590
  0.2701020294709353  0.2075166974249763  0.6389077564842801
  0.0089003719180121  0.0412303661065643  0.3035293943035831
  0.4266440279812432  0.9921822552188172  0.8942420150119961
  0.3876445056150375  0.5765336596922459  0.7950535580062085
  0.4478420327889526  0.7215852903552560  0.8255429047501905
 -0.0072412384399043  0.8617646803159067  0.3982107107027865
  0.8289179026307111  0.9485344784548476  0.8675806800669732
  0.1174467713449904  0.1349341218523761  0.6808518362624840
  0.4274785419928846  0.0630721279415859  0.4047435968366335
  0.6239811233912381  0.1331801544683953  0.1649230103880412
  0.1799571395416718  0.7586985488250521  0.6535851154056653
 -0.0165431603629738  0.2652202096633684  0.1597575830221504
  0.9074018494910232  0.8939200692323862  0.7969884958511577
  0.9845075522879385  0.7454101809154520  0.7856248300880752
  0.0497970898255637  0.6643645896669672  0.4232039209500140
  0.5147466617468389  0.0334332798790704  0.6910095871750873
  0.8545938326653236  0.0882165849857468  0.2333447205673874
  0.2788515354998113  0.4736043102240785  0.2420659657487017
  0.2131675053492788  0.9201119827330636  0.8594277056117876
  0.6889364324024742  0.7465441622648796  0.1070170286292719
  0.3158936579866933  0.7746938021973000  0.9494405473198015
  0.8640829660861760  0.5493219183591205  0.2251662010818851
  0.0105639307117493  0.3221297650810322  0.2562089165567631
  0.1289018752672340  0.1739448978117481  0.0129371089000687
  0.3539248282692933  0.3663588957651183  0.7213233371409514
  0.9644465457449288  0.6358460350528249  0.7501321397112235
  0.5019856161000781  0.7129636178990859  0.5477376034612281
  0.6657104406538329  0.2990280385014756  0.8694224653242777
  0.5314548237270122  0.9934958556578332  0.5821640214254724
  0.5962902130077093  0.2630561826590395  0.7814632896964396
  0.5578547984261371  0.6632757666082331  0.6375053451542056
  0.0431688385180045  0.5618233939458327  0.4752812865334555
  0.3246781354552052  0.3908821932921311  0.1432284244950342
  0.2005779333622406  0.8792713036291545  0.1376964329629868
  0.1403784902206877  0.3559491394966467  0.1785539963932535
  0.6764713192805875  0.9368214739604551  0.3616817428208638
  0.7774320074346228  0.8868118907592577  0.3342214168861626
  0.2187304723104443  0.2781514380851385  0.2153387746237805
  0.1841953474452041  0.2275569614869738  0.7156394739495798
  0.5402784716628968  0.1447919949392697  0.9214827957908146
  0.1056585543000470  0.8275620351199046  0.7124181595509840
  0.3615253986619808  0.2801900324597524  0.6439463905195159
  0.8795226177760340  0.7806704870673211  0.8186446216544090
  0.5732700537658515  0.1990886640922059  0.0852675509489149
  0.4034545404122412  0.2122398652016395  0.3176795567506626
  0.0385322880904975  0.4679530251123024  0.7711232341915636
  0.2499554582805333  0.6397824055115084  0.7383275595744857
  0.5978996526413779  0.9192489056911780  0.2326307859452887
  0.9304206451411234  0.2166094310788332  0.8051725999978916
  0.1985924015375227  0.9875227996689975  0.1919148918483138
  0.3490975827566232  0.0637451033608204  0.9609452094743363
  0.3965466974483886  0.6311351729224856  0.6345363373393830
 -0.0007710908146694  0.5993623803025149  0.0414518584672265
  0.0807887822648183  0.3270165690789261  0.8827006307637899
  0.0427314514423496  0.3861003847896134  0.6097149851068365
  0.0270118769926764  0.4341886423731502  0.9360797148648761
  0.1692559471159535  0.8471845061750622  0.3821848432791476
  0.5599366754460472  0.6564382264351163  0.9437037997378526
  0.9414412861798492  0.6638615844482938  0.3672969639295979
  0.2332711894850452  0.6944780105329980  0.3805092637826659
  0.9266220717396666  0.9493747978410790  0.4624776466959656
  0.5439385924832031  0.2727965100663665  0.3168802942556446
  0.9774660368439141  0.1028519005263900  0.0934393985681662
  0.5560274131459537  0.3871574235489160  0.0201765141687922
  0.2616573813885905  0.4143185639069356  0.9424952080314439
  0.1055171187451311  0.4510452957857232  0.3170985937303114
  0.0722642464753808  0.6922611356454345  0.6135588024561092
  0.3247154573406276  0.9293133249053923  0.7557755789232280
  0.9489084423695677  0.8167459744492435  0.0499176128621425
  0.8119541487061243  0.5249283892072388  0.0346468124850286
  0.9009675279388091  0.4368866994007464  0.6170291779944097
  0.8813860091706756  0.3926934910478918  0.1350529198720596
  0.1587380667429890  0.0506237975011365  0.9949064616371264
  0.7465393569034247  0.5079693509837215  0.2199084924882809
  0.7034467965286291  0.6209925762351752  0.7054933409295927
  0.7262804791170218  0.6078252787888256  0.3354865268257167
  0.8808641876738812  0.5746059179037798  0.4490497591671104
  0.3230877264227889  0.1777998286590071  0.1856803763046316
  0.4826563416485693  0.0818441405585429  0.8321405729947868
  0.0725669454718107  0.8472848357023287  0.0907271014782264
  0.9210416692016110  0.6393383771242276  0.9438397398503690
  0.6990275288024329  0.4701533198284991  0.4377825759817099
  0.6109446143031878  0.6210752738853590  0.8022564036394424
  0.2647090864035850  0.0240077464375955  0.4240439050786916
  0.4838041390243614  0.5186462559414589  0.4631269779038272
  0.0288201200884626  0.7554527668363604  0.5098823821766866
  0.3087778843746796  0.8027888643052440  0.6820865728930341
  0.8595138062235391  0.8500628627296336  0.1651573411500093
  0.6901313793389670  0.6292111318913562  0.2101595506473918
  0.5314796908967144  0.5427896655353998  0.0066693808505613
  0.8009108511814867  0.6508169015198479  0.8449324801812306
  0.7471090163603389  0.1042004744773998  0.2904975175578254
  0.3746838354140369  0.5743723746588693  0.1395059096951016
  0.5995802802834285  0.4324722016422960  0.5988084540258074
  0.2703781441020607  0.1801390618131892  0.4531963755724240
  0.4884068229030585  0.0907189814179153  0.2161489039010724
  0.2937957462588350  0.5986703808188204  0.4483287087089501
  0.7973428041776063  0.4475959135477560  0.8670794723291317
  0.2048560711272784  0.7207651553640150  0.9184181914146712
  0.7386217511532345  0.7255437862989572  0.3948278044703177
  0.6272168654217991  0.4406195008629051  0.7278536752907167
  0.9696687531203760  0.0840086802439497  0.9629484673004302
  0.0066604268213464  0.8913833982153986  0.8736657846558853
  0.1144248521001393  0.6654684118622450  0.0209504552124950
  0.5816023474430090  0.8545323537496446  0.3376238169448655
  0.6031649895953181  0.7330384407197319  0.4767657992449991
  0.0575689744012981  0.4165811441432858  0.4352962166211676
  0.0054078204702587  0.4411868996956727  0.2261934017047504
  0.8055248738360388  0.2786293968383179  0.2796519775875462
  0.0185249897969019  0.1652526689785365  0.2261866794610029
  0.6718545663093637  0.9429457549090919  0.4858809127530966
  0.3800227719054043  0.1592965623017454  0.5205448337141098
  0.4753697265044764  0.3584986256333036  0.7284892372635802
  0.3633644625485208  0.3291744320250707  0.9405421891782774
  0.5793445602999056  0.9545946295684816  0.7584231767359120
  0.9483136188803891  0.1334992732994129  0.3919642137486770
  0.9018167189236941  0.4396441964027981  0.3353172904241507
  0.6072178595286962  0.4128912928978528  0.8999223494209262
  0.3443405668930254  0.0460548740320630  0.3121674881116536
  0.5324352413686917  0.9746874230981973  0.9564122069060167
  0.2289183841277707  0.4498598983060197  0.7650106597832401
  0.8028383494396188  0.0597267688310582  0.0120336282478307
  0.8396223291268775  0.7007792877041397  0.5494666100706928
  0.5794588324131242  0.4500304556289754  0.2489737607751766
  0.4769705720953568  0.8406314289100101  0.8219003051447655
  0.4406731538100259  0.2103591125225627  0.7051007902358556
  0.0474731094861640  0.3411034281628031  0.7397600812788565
  0.5404115064006504  0.1150764998904065  0.5575105865046024
  0.9219645352464330  0.9850449209295040  0.1263092101192052
  0.1892491354710022  0.4508682906032483  0.5147017083384460
  0.0599697915974686  0.9811088365345342  0.6195458478777177
  0.9640355190631177  0.5586732018880034  0.8456632842214689
  0.4447308749882385  0.8220266028610062  0.9854328892488640
  0.0535098351625562  0.9317640685728789  0.2454090983689942
  0.1317497695012675  0.6159718724164455  0.7628192574351997
  0.5904648428892545  0.3815492344224352  0.4573547375006579
  0.8669870517347151  0.6695404962954077  0.2051251800774780
  0.7640204956913826  0.9277352522086086  0.2205013791739276
  0.4045387562298369  0.5066916636080327  0.8943744006582762
  0.2287574400205282  0.2292311942376215  0.9683690904484374
  0.7347268490993447  0.7166390945242479  0.9667230964185212
  0.1390035971195327  0.5068051572698922  0.9288931156530648
  0.6013563771366441  0.5719679432887894  0.3950177776620720
  0.1520671206818868  0.1421527567789140  0.5609810533775648
  0.1410166561186946  0.6378160859260787  0.3115614649961550
  0.3130860146143803  0.2981094354407693  0.8157787217994887
  0.1612457039750874  0.1878320050268080  0.1546384268258404
  0.7473259835847229  0.3533850840942362  0.7933646851323553
  0.6039170141770130  0.8215770544988427  0.0514001168011682
  0.4748450427031379  0.1355228176223716  0.0290633512609620
  0.0354712111435167  0.2008763218636399  0.9306670403652284
  0.1356912364217813  0.8938392636544963  0.9574883451078673
  0.3646258995428599  0.3278750756545489  0.2984487140091650
  0.7511329174157254  0.8904763046481631  0.7215963481599189
  0.0375273926972246  0.7298703733448282  0.8943957655485046
  0.3973985932599858  0.3144159582528627  0.0759197553529190
  0.6786200823275335  0.8451569708159186  0.8758775420962953
  0.0293552231398193  0.7551873867561887  0.2790047742974835
  0.5035079915398036  0.7554770460667261  0.1648792962971553
  0.4226900427418585  0.9728503738223208  0.6383496434995373
  0.1703162482079893  0.0149040087121479  0.5298187879712456
  0.4090525303701020  0.9129005233503094  0.2387482983050253
  0.5378635784191353  0.6569337399928753  0.3090460984565997
  0.3164114457588725  0.4749230230566481  0.5396555083105116
  0.8704593110539870  0.3188223198569068  0.6659232322338959
  0.2720940976765537  0.9114057562110046  0.0344293684192171
  0.5067964483637900  0.4887928133133542  0.7363149852444497
  0.1549986385500938  0.0806196446965810  0.3389977269267250
  0.2472955885327026  0.4572635169101611  0.3626477527844160
  0.1475111994327709  0.5786865023952399  0.5369477888115500
  0.3320543247941175  0.6822559513202338  0.0306023727256408
  0.2000756946519190  0.0904675504325225  0.8029766756803574
  0.8105808290943399  0.0720427907488168  0.7367260569607454
  0.0068498435606568  0.1906722745025209  0.6637395243981536
  0.0401415607646692  0.2902504516486733  0.4504530019364705
  0.4190253380220383  0.8855864851277195  0.4248528826897153
  0.1956967736462083  0.6261488074885626  0.1924283855124898
  0.6578016264599930  0.5455395200591812  0.0511642429110594
  0.4649467588451786  0.3288090139644207  0.4842684517918495
  0.3759426934367097  0.0658438851354347  0.1480536996457493
  0.9962381548850973  0.1296553705755719  0.5472937448999936
  0.6813478337346220  0.2390167788085865  0.6864771164301474
  0.6361266847237824  0.0301576875535265  0.0982711598557014
  0.7587647295219540  0.2977416964400430  0.4220337696211724
  0.9497175771851816  0.9185224997540976  0.6627286480269463
  0.4259727223935820  0.5233304503043639  0.2964757282539200
  0.8779292192011786  0.0733317806493262  0.5584367389198454
  0.8879041267577880  0.3719891815423104 -0.0651701540573435
  0.0049835850660975  0.6915710695800512  0.1638197019493393
  0.4906529543461611  0.3838359404979161  0.1582955025859855
  0.1841040634415013  0.2907448003428726  0.6111482423324429
  0.8269836010519014  0.6869517042179675  0.0692316389145481
  0.9517499368175005  0.5759670896954655  0.5582642994239498
  0.6973256407977553  0.3587979095478960  0.2557849049895772
  0.7549901387518271  0.3175594623203195  0.5550535777726747
  0.2527459428844612  0.9759429515981678  0.6554100997328280
  0.2612142993751657  0.8036197459722977  0.2155540679162312
  0.6598501887804927  0.7709307435223681  0.2289527312804253
  0.8041882969464487  0.1619784452276801  0.4924816071294251
  0.1798495026996039  0.2668732893189779  0.3315559604016567
  0.3986862639118834  0.8918119096885163  0.0860408736628866
  0.2812059994306444  0.3129445583829878  0.4775939800196703
  0.7361622943460032  0.3402402813839299  0.0161046391003642
  0.9678391181758277  0.0489349503276470  0.7801400359828210
  0.7856431336988776  0.4994714614316689  0.6309623632484193
  0.0770559660755327  0.5046215094899159  0.6595446493776762
  0.4939284096331201  0.2521919502093332  0.8811781009471099
  0.6698733129050212  0.1885022600578628  0.0058072125729282
  0.3066832395569824  0.7099478002383718  0.5803253571852723
  0.6357570666658109  0.2289261681265738  0.4844855820009860
  0.1941528937046108  0.8157081322336923  0.5449639207415987
  0.8550783949732789  0.3882875617043093  0.4475718646755877
  0.7367283347271794  0.1789210297571238  0.8568701474500745
  0.6736160916499067  0.6154598645495800  0.9550222229273395
  0.9135451869415115  0.3232096400399126  0.3169801512609586
  0.6725020207713269  0.0550757855446660  0.4508726299736895
  0.8293539904072021  0.4085050270825856  0.0312134498508896
  0.0806161090611923  0.9214419940918900  0.3625639401474020
  0.1363333287551716  0.5070647860441500  0.8100680847239717
  0.7848115601486598  0.7978888025409406  0.0866169368028780
  0.1431230383732084  0.9868546235065491  0.8015625714206606
  0.8646035768246041  0.0521155229216458  0.8400807033868524
  0.2983434536414905  0.5391376476443542  0.7337753726165142
  0.8324262961364883  0.7445048341869143  0.7224042457932288
  0.8395889699171589  0.9492517348860861  0.9793836388207979
  0.6988366342618788  0.7632002355935070  0.6244675476203237
  0.2659965950522153  0.3393249334071010  0.3647247375405734
  0.8820408503603847  0.0319916350903187  0.3917370435781981
 
  0.00000000E+00  0.00000000E+00  0.00000000E+00
  0.00000000E+00  0.00000000E+00  0.00000000E+00
  0.00000000E+00  0.00000000E+00  0.00000000E+00
  0.00000000E+00  0.00000000E+00  0.00000000E+00
  0.00000000E+00  0.00000000E+00  0.00000000E+00
  0.00000000E+00  0.00000000E+00  0.00000000E+00
  0.00000000E+00  0.00000000E+00  0.00000000E+00
  0.00000000E+00  0.00000000E+00  0.00000000E+00
  0.00000000E+00  0.00000000E+00  0.00000000E+00
  0.00000000E+00  0.00000000E+00  0.00000000E+00
  0.00000000E+00  0.00000000E+00  0.00000000E+00
  0.00000000E+00  0.00000000E+00  0.00000000E+00
  0.00000000E+00  0.00000000E+00  0.00000000E+00
  0.00000000E+00  0.00000000E+00  0.00000000E+00
  0.00000000E+00  0.00000000E+00  0.00000000E+00
  0.00000000E+00  0.00000000E+00  0.00000000E+00
  0.00000000E+00  0.00000000E+00  0.00000000E+00
  0.00000000E+00  0.00000000E+00  0.00000000E+00
  0.00000000E+00  0.00000000E+00  0.00000000E+00
  0.00000000E+00  0.00000000E+00  0.00000000E+00
  0.00000000E+00  0.00000000E+00  0.00000000E+00
  0.00000000E+00  0.00000000E+00  0.00000000E+00
  0.00000000E+00  0.00000000E+00  0.00000000E+00
  0.00000000E+00  0.00000000E+00  0.00000000E+00
  0.00000000E+00  0.00000000E+00  0.00000000E+00
  0.00000000E+00  0.00000000E+00  0.00000000E+00
  0.00000000E+00  0.00000000E+00  0.00000000E+00
  0.00000000E+00  0.00000000E+00  0.00000000E+00
  0.00000000E+00  0.00000000E+00  0.00000000E+00
  0.00000000E+00  0.00000000E+00  0.00000000E+00
  0.00000000E+00  0.00000000E+00  0.00000000E+00
  0.00000000E+00  0.00000000E+00  0.00000000E+00
  0.00000000E+00  0.00000000E+00  0.00000000E+00
  0.00000000E+00  0.00000000E+00  0.00000000E+00
  0.00000000E+00  0.00000000E+00  0.00000000E+00
  0.00000000E+00  0.00000000E+00  0.00000000E+00
  0.00000000E+00  0.00000000E+00  0.00000000E+00
  0.00000000E+00  0.00000000E+00  0.00000000E+00
  0.00000000E+00  0.00000000E+00  0.00000000E+00
  0.00000000E+00  0.00000000E+00  0.00000000E+00
  0.00000000E+00  0.00000000E+00  0.00000000E+00
  0.00000000E+00  0.00000000E+00  0.00000000E+00
  0.00000000E+00  0.00000000E+00  0.00000000E+00
  0.00000000E+00  0.00000000E+00  0.00000000E+00
  0.00000000E+00  0.00000000E+00  0.00000000E+00
  0.00000000E+00  0.00000000E+00  0.00000000E+00
  0.00000000E+00  0.00000000E+00  0.00000000E+00
  0.00000000E+00  0.00000000E+00  0.00000000E+00
  0.00000000E+00  0.00000000E+00  0.00000000E+00
  0.00000000E+00  0.00000000E+00  0.00000000E+00
  0.00000000E+00  0.00000000E+00  0.00000000E+00
  0.00000000E+00  0.00000000E+00  0.00000000E+00
  0.00000000E+00  0.00000000E+00  0.00000000E+00
  0.00000000E+00  0.00000000E+00  0.00000000E+00
  0.00000000E+00  0.00000000E+00  0.00000000E+00
  0.00000000E+00  0.00000000E+00  0.00000000E+00
  0.00000000E+00  0.00000000E+00  0.00000000E+00
  0.00000000E+00  0.00000000E+00  0.00000000E+00
  0.00000000E+00  0.00000000E+00  0.00000000E+00
  0.00000000E+00  0.00000000E+00  0.00000000E+00
  0.00000000E+00  0.00000000E+00  0.00000000E+00
  0.00000000E+00  0.00000000E+00  0.00000000E+00
  0.00000000E+00  0.00000000E+00  0.00000000E+00
  0.00000000E+00  0.00000000E+00  0.00000000E+00
  0.00000000E+00  0.00000000E+00  0.00000000E+00
  0.00000000E+00  0.00000000E+00  0.00000000E+00
  0.00000000E+00  0.00000000E+00  0.00000000E+00
  0.00000000E+00  0.00000000E+00  0.00000000E+00
  0.00000000E+00  0.00000000E+00  0.00000000E+00
  0.00000000E+00  0.00000000E+00  0.00000000E+00
  0.00000000E+00  0.00000000E+00  0.00000000E+00
  0.00000000E+00  0.00000000E+00  0.00000000E+00
  0.00000000E+00  0.00000000E+00  0.00000000E+00
  0.00000000E+00  0.00000000E+00  0.00000000E+00
  0.00000000E+00  0.00000000E+00  0.00000000E+00
  0.00000000E+00  0.00000000E+00  0.00000000E+00
  0.00000000E+00  0.00000000E+00  0.00000000E+00
  0.00000000E+00  0.00000000E+00  0.00000000E+00
  0.00000000E+00  0.00000000E+00  0.00000000E+00
  0.00000000E+00  0.00000000E+00  0.00000000E+00
  0.00000000E+00  0.00000000E+00  0.00000000E+00
  0.00000000E+00  0.00000000E+00  0.00000000E+00
  0.00000000E+00  0.00000000E+00  0.00000000E+00
  0.00000000E+00  0.00000000E+00  0.00000000E+00
  0.00000000E+00  0.00000000E+00  0.00000000E+00
  0.00000000E+00  0.00000000E+00  0.00000000E+00
  0.00000000E+00  0.00000000E+00  0.00000000E+00
  0.00000000E+00  0.00000000E+00  0.00000000E+00
  0.00000000E+00  0.00000000E+00  0.00000000E+00
  0.00000000E+00  0.00000000E+00  0.00000000E+00
  0.00000000E+00  0.00000000E+00  0.00000000E+00
  0.00000000E+00  0.00000000E+00  0.00000000E+00
  0.00000000E+00  0.00000000E+00  0.00000000E+00
  0.00000000E+00  0.00000000E+00  0.00000000E+00
  0.00000000E+00  0.00000000E+00  0.00000000E+00
  0.00000000E+00  0.00000000E+00  0.00000000E+00
  0.00000000E+00  0.00000000E+00  0.00000000E+00
  0.00000000E+00  0.00000000E+00  0.00000000E+00
  0.00000000E+00  0.00000000E+00  0.00000000E+00
  0.00000000E+00  0.00000000E+00  0.00000000E+00
  0.00000000E+00  0.00000000E+00  0.00000000E+00
  0.00000000E+00  0.00000000E+00  0.00000000E+00
  0.00000000E+00  0.00000000E+00  0.00000000E+00
  0.00000000E+00  0.00000000E+00  0.00000000E+00
  0.00000000E+00  0.00000000E+00  0.00000000E+00
  0.00000000E+00  0.00000000E+00  0.00000000E+00
  0.00000000E+00  0.00000000E+00  0.00000000E+00
  0.00000000E+00  0.00000000E+00  0.00000000E+00
  0.00000000E+00  0.00000000E+00  0.00000000E+00
  0.00000000E+00  0.00000000E+00  0.00000000E+00
  0.00000000E+00  0.00000000E+00  0.00000000E+00
  0.00000000E+00  0.00000000E+00  0.00000000E+00
  0.00000000E+00  0.00000000E+00  0.00000000E+00
  0.00000000E+00  0.00000000E+00  0.00000000E+00
  0.00000000E+00  0.00000000E+00  0.00000000E+00
  0.00000000E+00  0.00000000E+00  0.00000000E+00
  0.00000000E+00  0.00000000E+00  0.00000000E+00
  0.00000000E+00  0.00000000E+00  0.00000000E+00
  0.00000000E+00  0.00000000E+00  0.00000000E+00
  0.00000000E+00  0.00000000E+00  0.00000000E+00
  0.00000000E+00  0.00000000E+00  0.00000000E+00
  0.00000000E+00  0.00000000E+00  0.00000000E+00
  0.00000000E+00  0.00000000E+00  0.00000000E+00
  0.00000000E+00  0.00000000E+00  0.00000000E+00
  0.00000000E+00  0.00000000E+00  0.00000000E+00
  0.00000000E+00  0.00000000E+00  0.00000000E+00
  0.00000000E+00  0.00000000E+00  0.00000000E+00
  0.00000000E+00  0.00000000E+00  0.00000000E+00
  0.00000000E+00  0.00000000E+00  0.00000000E+00
  0.00000000E+00  0.00000000E+00  0.00000000E+00
  0.00000000E+00  0.00000000E+00  0.00000000E+00
  0.00000000E+00  0.00000000E+00  0.00000000E+00
  0.00000000E+00  0.00000000E+00  0.00000000E+00
  0.00000000E+00  0.00000000E+00  0.00000000E+00
  0.00000000E+00  0.00000000E+00  0.00000000E+00
  0.00000000E+00  0.00000000E+00  0.00000000E+00
  0.00000000E+00  0.00000000E+00  0.00000000E+00
  0.00000000E+00  0.00000000E+00  0.00000000E+00
  0.00000000E+00  0.00000000E+00  0.00000000E+00
  0.00000000E+00  0.00000000E+00  0.00000000E+00
  0.00000000E+00  0.00000000E+00  0.00000000E+00
  0.00000000E+00  0.00000000E+00  0.00000000E+00
  0.00000000E+00  0.00000000E+00  0.00000000E+00
  0.00000000E+00  0.00000000E+00  0.00000000E+00
  0.00000000E+00  0.00000000E+00  0.00000000E+00
  0.00000000E+00  0.00000000E+00  0.00000000E+00
  0.00000000E+00  0.00000000E+00  0.00000000E+00
  0.00000000E+00  0.00000000E+00  0.00000000E+00
  0.00000000E+00  0.00000000E+00  0.00000000E+00
  0.00000000E+00  0.00000000E+00  0.00000000E+00
  0.00000000E+00  0.00000000E+00  0.00000000E+00
  0.00000000E+00  0.00000000E+00  0.00000000E+00
  0.00000000E+00  0.00000000E+00  0.00000000E+00
  0.00000000E+00  0.00000000E+00  0.00000000E+00
  0.00000000E+00  0.00000000E+00  0.00000000E+00
  0.00000000E+00  0.00000000E+00  0.00000000E+00
  0.00000000E+00  0.00000000E+00  0.00000000E+00
  0.00000000E+00  0.00000000E+00  0.00000000E+00
  0.00000000E+00  0.00000000E+00  0.00000000E+00
  0.00000000E+00  0.00000000E+00  0.00000000E+00
  0.00000000E+00  0.00000000E+00  0.00000000E+00
  0.00000000E+00  0.00000000E+00  0.00000000E+00
  0.00000000E+00  0.00000000E+00  0.00000000E+00
  0.00000000E+00  0.00000000E+00  0.00000000E+00
  0.00000000E+00  0.00000000E+00  0.00000000E+00
  0.00000000E+00  0.00000000E+00  0.00000000E+00
  0.00000000E+00  0.00000000E+00  0.00000000E+00
  0.00000000E+00  0.00000000E+00  0.00000000E+00
  0.00000000E+00  0.00000000E+00  0.00000000E+00
  0.00000000E+00  0.00000000E+00  0.00000000E+00
  0.00000000E+00  0.00000000E+00  0.00000000E+00
  0.00000000E+00  0.00000000E+00  0.00000000E+00
  0.00000000E+00  0.00000000E+00  0.00000000E+00
  0.00000000E+00  0.00000000E+00  0.00000000E+00
  0.00000000E+00  0.00000000E+00  0.00000000E+00
  0.00000000E+00  0.00000000E+00  0.00000000E+00
  0.00000000E+00  0.00000000E+00  0.00000000E+00
  0.00000000E+00  0.00000000E+00  0.00000000E+00
  0.00000000E+00  0.00000000E+00  0.00000000E+00
  0.00000000E+00  0.00000000E+00  0.00000000E+00
  0.00000000E+00  0.00000000E+00  0.00000000E+00
  0.00000000E+00  0.00000000E+00  0.00000000E+00
  0.00000000E+00  0.00000000E+00  0.00000000E+00
  0.00000000E+00  0.00000000E+00  0.00000000E+00
  0.00000000E+00  0.00000000E+00  0.00000000E+00
  0.00000000E+00  0.00000000E+00  0.00000000E+00
  0.00000000E+00  0.00000000E+00  0.00000000E+00
  0.00000000E+00  0.00000000E+00  0.00000000E+00
  0.00000000E+00  0.00000000E+00  0.00000000E+00
  0.00000000E+00  0.00000000E+00  0.00000000E+00
  0.00000000E+00  0.00000000E+00  0.00000000E+00
  0.00000000E+00  0.00000000E+00  0.00000000E+00
  0.00000000E+00  0.00000000E+00  0.00000000E+00
  0.00000000E+00  0.00000000E+00  0.00000000E+00
  0.00000000E+00  0.00000000E+00  0.00000000E+00
  0.00000000E+00  0.00000000E+00  0.00000000E+00
  0.00000000E+00  0.00000000E+00  0.00000000E+00
  0.00000000E+00  0.00000000E+00  0.00000000E+00
  0.00000000E+00  0.00000000E+00  0.00000000E+00
  0.00000000E+00  0.00000000E+00  0.00000000E+00
  0.00000000E+00  0.00000000E+00  0.00000000E+00
  0.00000000E+00  0.00000000E+00  0.00000000E+00
  0.00000000E+00  0.00000000E+00  0.00000000E+00
  0.00000000E+00  0.00000000E+00  0.00000000E+00
  0.00000000E+00  0.00000000E+00  0.00000000E+00
  0.00000000E+00  0.00000000E+00  0.00000000E+00
  0.00000000E+00  0.00000000E+00  0.00000000E+00
  0.00000000E+00  0.00000000E+00  0.00000000E+00
  0.00000000E+00  0.00000000E+00  0.00000000E+00
  0.00000000E+00  0.00000000E+00  0.00000000E+00
  0.00000000E+00  0.00000000E+00  0.00000000E+00
  0.00000000E+00  0.00000000E+00  0.00000000E+00
  0.00000000E+00  0.00000000E+00  0.00000000E+00
  0.00000000E+00  0.00000000E+00  0.00000000E+00
  0.00000000E+00  0.00000000E+00  0.00000000E+00
  0.00000000E+00  0.00000000E+00  0.00000000E+00
  0.00000000E+00  0.00000000E+00  0.00000000E+00
  0.00000000E+00  0.00000000E+00  0.00000000E+00
  0.00000000E+00  0.00000000E+00  0.00000000E+00
  0.00000000E+00  0.00000000E+00  0.00000000E+00
  0.00000000E+00  0.00000000E+00  0.00000000E+00
  0.00000000E+00  0.00000000E+00  0.00000000E+00
  0.00000000E+00  0.00000000E+00  0.00000000E+00
  0.00000000E+00  0.00000000E+00  0.00000000E+00
  0.00000000E+00  0.00000000E+00  0.00000000E+00
  0.00000000E+00  0.00000000E+00  0.00000000E+00
  0.00000000E+00  0.00000000E+00  0.00000000E+00
  0.00000000E+00  0.00000000E+00  0.00000000E+00
  0.00000000E+00  0.00000000E+00  0.00000000E+00
  0.00000000E+00  0.00000000E+00  0.00000000E+00
  0.00000000E+00  0.00000000E+00  0.00000000E+00
  0.00000000E+00  0.00000000E+00  0.00000000E+00