Sn1 Te4 Pb3
1.0
   4.5918235000000003    0.0000000000000000   -0.0000000000000000
   0.0000000000000000    4.5918235000000003    0.0000000000000000
  -0.0000000000000000    0.0000000000000000   13.0126425799999996
Sn Te Pb
1 4 3
direct
   0.0000000000000000    0.0000000000000000    0.0000000000000000 Sn
   0.0000000000000000    0.0000000000000000    0.2470706500000000 Te
   0.5000000000000000    0.5000000000000000    0.0000000000000000 Te
  -0.0000000000000000    0.0000000000000000    0.7529293500000001 Te
   0.5000000000000000    0.5000000000000000    0.5000000000000000 Te
   0.5000000000000000    0.5000000000000000    0.7503884700000000 Pb
   0.0000000000000000    0.0000000000000000    0.5000000000000000 Pb
   0.5000000000000000    0.5000000000000000    0.2496115300000000 Pb
