Amorphous Sb                            
   1.00000000000000     
    20.8043376076287743    0.0000000000000000    0.0000000000000000
     0.0000000000000000   20.8043376076287743    0.0000000000000000
     0.0000000000000000    0.0000000000000000   20.8043376076287743
   Pb   S 
   150   150
Direct
  0.3096925177861806  0.1823488304652894  0.4220692631433029
  0.3137084494412556  0.9148444423585028  0.9003008714249864
  0.5351117731399604  0.4800597380419152  0.9041908338055449
  0.6849506582445315  0.8052545986629149  0.0479826552655203
  0.0949935203584988  0.3524331738375460  0.7241824558740569
  0.1820022478730577  0.6356425238176001  0.1909742389491862
  0.7452053633803822  0.6495949439051398  0.1745132790564143
  0.1888051429311653  0.6892572127324160  0.3580887227176342
  0.7379954596801225  0.4109602698081036  0.5065572332360742
  0.4907443692541628  0.8239598862894107  0.6820437135847827
  0.1960355746849296  0.4513037049445543  0.3261463133366687
  0.9772030066549052  0.1685850107459254  0.6866612024599084
  0.5471571718475449  0.7779520892247513  0.4938371679270531
  0.1261778035668137  0.3790409900700646  0.0366620723239846
  0.2054899508020558  0.5392931478573296  0.0630580118337948
  0.2179233113255341  0.7886058561317983  0.8256846811531210
  0.6620645500563297  0.9382926927704313  0.3694646009373529
  0.1873038300297047  0.0437574052594778  0.9097859127245851
  0.8636655168483764  0.7228442427119822  0.0013006292794240
  0.2037115702957148  0.5717394615141006  0.5766365078745727
  0.3005707189604924  0.0548227518057003  0.1708267606411424
  0.9725242917016158  0.1984257177416104  0.1484719567919971
  0.9503573888891370  0.7255864630237525  0.5420697828964939
  0.5128520657742911  0.1703335962795436  0.3298967318310191
  0.3496849310182177  0.7290844488040574  0.5002553966377373
  0.0572348701422575  0.1133405754631504  0.3361338495564742
  0.8841851924581666  0.5588189812230522  0.7344158637841826
  0.1197756392910491  0.7562214973722231  0.5115814385914786
  0.4980788877886448  0.6607100940574310  0.7771217885852281
  0.6810206595743654  0.6252032833169505  0.9527882871797385
  0.7160925451550412  0.9752589656744999  0.9602438216159613
  0.1596051146921628  0.3060810713518117  0.8759431700060708
  0.8356249909105852  0.5686082990313922  0.5085269198759748
  0.3951887086796087  0.9747555459260622  0.7179732043651387
  0.9003604436673192  0.5614569082048092  0.1069308118987872
  0.4585268019170038  0.9407152123115452  0.0378429197410844
  0.6984566488069635  0.1478011857960495  0.8896903579188340
  0.1811938409996868  0.0052995092551555  0.6789950745722447
  0.5636951455768041  0.2985510500692917  0.0610469757183534
  0.1439844709745562  0.1824258122670057  0.7069632770792794
  0.9598972269285405  0.6393763191401703  0.2960641839022664
  0.4798932404526529  0.3190090364507381  0.4793327453030704
  0.8413221961853101  0.8342586191747032  0.8282892917299779
  0.7881113430009878  0.7097917290964201  0.3973330654261070
  0.3118925969149796  0.2927147611433499  0.6530780545467773
  0.8702422999273489  0.1741610164124947  0.3669946715632669
  0.4948280435995354  0.6463398642921224  0.0204347466641350
  0.6639013497586864  0.9150756810247190  0.7859792844963894
  0.0182099891040804  0.5083343843354974  0.6227670776032859
  0.9457263465605530  0.0441704268346713  0.5256394683255614
  0.8146765309260176  0.2400390206717964  0.5759514325106624
  0.9693220581609289  0.8058863157712453  0.1831736016449891
  0.0903247580959651  0.9418823259007504  0.4730324589532641
  0.3255578358814609  0.0427656089138431  0.5442391963888159
  0.2872636583431900  0.8355893455785224  0.6677098073748106
  0.3160183534732063  0.6737715972309738  0.7554510566902902
  0.7978784091928925  0.8311013939312409  0.2359288331605488
  0.4377459135490004  0.1645037867298328  0.6108456003559510
  0.5919280497609871  0.3312032456325904  0.2260277168026400
  0.6640407781128423  0.9393987551668019  0.1639046460210977
  0.8436903488704205  0.8879409761147200  0.4672591472743625
  0.0396356225248296  0.6592474159919882  0.0808863948034234
  0.4058082318254836  0.6059331242475922  0.3521791312779086
  0.3986949015599255  0.3751440771966840  0.9861196245416256
  0.1506278191016870  0.1321248276903352  0.1017208256041974
  0.9495500384536710  0.3686456898630587  0.0558481887645171
  0.9069271749031398  0.9382326399742745  0.9869124000495527
  0.2302707381205120  0.4467430148665167  0.9341593177683915
  0.5901055639994158  0.4008273491509813  0.6292828220561492
  0.1488433358721021  0.1678477465160424  0.5347160799673306
  0.0365888786556619  0.0297679099287574  0.7876563742395678
  0.2238609222288439  0.1878715368400928  0.2685580458063400
  0.2379467191990638  0.4959536727108018  0.7441746297411882
  0.3880648414690803  0.5083686040265514  0.5317561403709672
  0.6810040472875275  0.7139799814233445  0.7919548010478522
  0.6270857027070595  0.7591665347697355  0.3270950151997862
  0.1698027125310898  0.7956828498704057  0.0666063517837604
  0.7357608116700169  0.8601620337122750  0.6027066464997015
  0.6959507972781966  0.2479680377650167  0.3761392467776484
  0.6378783442355784  0.0984773284836047  0.7187073831193023
  0.0682223804815284  0.5628384388729167  0.4358094910015230
  0.9976127555111801  0.8910573188728915  0.6498381789136867
  0.3754756934150408  0.5500111998656469  0.8897442801512878
  0.9334618152628191  0.4567139140276043  0.2393454350449564
  0.3782400739087267  0.4979168625392714  0.1423915779397521
  0.5558417564870918  0.4863834675560929  0.1193378919014642
  0.7501555859302672  0.5098830937234453  0.2980356413447859
  0.3131030029281510  0.6863202199202284  0.9798890016591498
  0.0845448995302762  0.3543727706973896  0.2092675726541419
  0.3154643054120930  0.3620755333825988  0.4593027732668644
  0.8514080180905507  0.4026059237110393  0.6996466740236620
  0.8275955139892112  0.7168203490844092  0.6657822582500929
  0.7319407100395231  0.4572742545277904  0.0755642896157864
  0.5900812807258429  0.9538757624452041  0.5860912080986601
  0.0722733079983417  0.5181898918321826  0.1474476532367770
  0.7673812859011787  0.0438788205414880  0.5566002363782094
  0.0175588357919472  0.8151114533001752  0.3646559689557667
  0.6454190769391670  0.3498340682503824  0.8635853392381605
  0.4191415246392014  0.4383005798393119  0.7225256286792749
  0.4962811974730441  0.0011116966449687  0.8567828982757040
  0.1369885221005059  0.2795752127838704  0.3963892678108625
  0.5763658423233231  0.5867681789679999  0.2574040965713578
  0.2468891932937640  0.8294611648751433  0.2830835264351214
  0.6857094011545138  0.5916102825850447  0.5797673575579478
  0.4547808973509486  0.9709151384999741  0.2623955361488929
  0.7607465353289499  0.2435762407459942  0.7487902294940709
  0.0456653976951017  0.2080547191570850  0.9774238142044182
  0.8268810527946030  0.0149465244273531  0.1328435227365251
  0.0837169272421750  0.6869404631395868  0.7026789250222796
  0.3319524932666157  0.8791892165314666  0.1248736046254762
  0.5089875485950687  0.2873533989654952  0.7515762228212433
  0.0415238324758451  0.8701343626484479  0.8655032732729389
  0.7457410574946135  0.1881213514475787  0.0720431998895463
  0.9440555493322169  0.3021367694604991  0.8230036235645998
  0.9557082336204753  0.6999003656395815  0.8335289005588951
  0.4292247409069346  0.7985276803682746  0.3463622595279074
  0.9035435702237453  0.9819315410014348  0.3295438872153387
  0.4999119796445564  0.1974944081952302  0.9307627489656847
  0.5059680578623732  0.0620838827799527  0.4678667976879296
  0.7889667305538522  0.3279292543297925  0.2206100765049188
  0.5576571225305522  0.1106789658285508  0.1046208873954057
  0.3813798733438967  0.7005381352179901  0.1781918483147852
  0.4068216304704868  0.2126297543884256  0.1866061515460770
  0.0823288721596231  0.9611875071416728  0.0455295820013712
  0.2336368824982901  0.0074613953219417  0.3314755276492302
  0.1607290542924315  0.3827671953121006  0.5511153452142383
  0.8883451514995345  0.1625223056960711  0.9339849598603920
  0.2625036367349238  0.2632534475070926  0.0151933012804597
  0.1303592409184885  0.6190370083430039  0.9049165674839766
  0.3617834871723168  0.1014066423844551  0.0040558402457437
  0.3161624568071269  0.1740964924147086  0.8164608161267671
  0.9791858401067832  0.3135059088398561  0.5433404212213415
  0.9318884025791596  0.4343027415974283  0.4244587281145994
  0.8454433534796491  0.0189534151695370  0.7427622388708220
  0.5325027883511237  0.7839669686842613  0.1447862539188724
  0.2798092991131474  0.3573803751608838  0.1927925384675913
  0.7912586855191407  0.3736385182944252  0.9274313800036377
  0.6035797653865037  0.2033370148906908  0.5360745084762200
  0.8456151059724547  0.5555706945979996  0.9164436124786713
  0.5295342775262942  0.6185082355933712  0.6084104674803579
  0.4667882537512597  0.8178151959816353  0.8748785554064168
  0.4181712933346703  0.3869516991184035  0.3016255082831229
  0.5857790104631840  0.5926478706155965  0.4507606922414368
  0.0338221567465937  0.0049578891459198  0.2000225745085423
  0.5881484578984759  0.4235641420581701  0.3864680569845617
  0.0197292493119920  0.4800789660355864  0.8711835661027679
  0.9726286948209714  0.2982281877103327  0.3304831611022697
  0.6787817494763579  0.0948223317381113  0.2629747310433692
  0.2733424075608451  0.8786603887566053  0.4716988571796216
  0.6703655218404243  0.5230356078744844  0.7966089660880951
  0.8036669364699609  0.2483182725220096  0.8820683299585139
  0.5612933796166506  0.7862340070113923  0.7886106023495191
  0.9517544992925059  0.7641349391268502  0.6695200326208662
  0.4074624501534164  0.3403809453891043  0.1725275289124469
  0.7075822595861460  0.0777582510385334  0.1333093289344733
  0.8452534811329913  0.4094506266798879  0.3189206559671842
  0.2274993581008243  0.6778131026333201  0.4851666817190303
  0.7944737728494191  0.0943829926632216  0.9890143630602317
  0.2544492545717725  0.7961182816189121  0.9513473371979829
  0.5753608694955726  0.6047926716392377  0.8623546523441145
  0.6197210696591470  0.0326683662619054  0.8454941168200708
  0.0567208402451759  0.2357216061027155  0.7978416329950339
  0.7441147498731987  0.8111843306219827  0.7320743023327051
  0.2444002629306754  0.9358831615670190  0.2053368622173390
  0.7837851718410251  0.9113770915087077  0.0562622333046684
  0.0803121136749002  0.2399245852472308  0.2793759864247329
  0.6980778137356799  0.5151067587050384  0.4346976615544376
  0.8531540328479746  0.4360163480836781  0.1271432025723083
  0.3295438420660218  0.7095307864080013  0.3208568957435041
  0.1434431966754089  0.4676984850941067  0.6530464058738373
  0.5828174943552759  0.9877165735362197  0.2555067247192363
  0.9897764816814653  0.8499476171631838  0.4870266227955225
  0.3303155420423498  0.9026999811458613  0.3570280269783555
  0.3229647891732591  0.1005316208222257  0.3024203909731369
  0.7581531634697850  0.1149559502778056  0.7737817640867491
  0.7047747105218314  0.1822477144045140  0.6158499718473629
  0.4928471738604264  0.4926208762618066  0.6156210627634835
  0.0585736487386163  0.6929786903310947  0.4006072655025331
  0.7139214995794022  0.9375793464162024  0.4934465204465255
  0.9673408021336034  0.9148087174988623  0.1039644074508502
  0.0044239155271222  0.5902258040230189  0.7744727743697953
  0.7041726745779467  0.6486430277686199  0.2989433798715039
  0.1668114794671602  0.6698307464694759  0.0219008055021829
  0.2024855375367866  0.9161702213153369  0.8315864784215942
  0.9005046426532737  0.7492568091933935  0.3259476870465638
  0.3816270942993793  0.2788447896046585  0.7621103906847946
  0.0315920685575967  0.9850394423763722  0.9309799064945760
  0.5883524952086334  0.1837996109075637  0.2217243956172277
  0.2167432925610261  0.2846302103791633  0.7418840596649114
  0.6061338409712641  0.3532350396309678  0.5003366991654287
  0.4306105052494920  0.6270313241041580  0.4820692155392638
  0.3127131626192138  0.4669145665302948  0.2625612273397974
  0.4169851407572099  0.7004657125190945  0.8787039499111550
  0.2281252660122643  0.9988437118510640  0.4743464539468700
  0.6245774116940476  0.1932132319050812  0.0136956590024991
  0.7824109384160574  0.9620971497702765  0.2455190766043078
  0.9072833303594835  0.7107782052540034  0.1226024039670552
  0.4438588933994275  0.4450064000482634  0.4327070372857443
  0.4369692162099001  0.1051828168647956  0.7928550488259742
  0.3179838228104304  0.0483103804566316  0.8915564852534686
  0.1749069627339200  0.1498286843782731  0.3993891086383616
  0.0782286062581957  0.5009713388926379  0.0150671384149832
  0.2383986416200229  0.2613131835400448  0.5144155947554578
  0.1570264306385961  0.8416668063847667  0.4136945789118420
  0.6950666584379606  0.9833152066789157  0.6616997892776203
  0.6599161700812228  0.4885731930853826  0.9448520182449490
  0.5824822749716219  0.4289155283727831  0.7791858898431415
  0.9007673524501053  0.2436045810069379  0.0449820900494271
  0.2446674991797564  0.9272475518803047  0.0199068919428797
  0.6819183681939459  0.5310687424773932  0.1744324187278012
  0.4668538270398431  0.2018676882790983  0.0718540564022493
  0.1457122697253546  0.4386114529256789  0.8310814554484047
  0.3155484633476439  0.4256059894861178  0.6450234143104173
  0.5196269742829630  0.1624577506528010  0.7930107255363578
  0.0779659251534414  0.6110758528958311  0.5649597279915402
  0.9354201943412639  0.5660076293864263  0.4103615844897847
  0.5278061148956710  0.4561961656638057  0.2477811861573238
  0.2445138880803702  0.1082214936350628  0.6202357165271639
  0.4299189925919407  0.0189657250123062  0.1412260778114351
  0.8640176267742594  0.4482990549040992  0.5415432020394224
  0.7729235491781720  0.1994592809229322  0.2794375562842767
  0.9389601014674545  0.0788917852979204  0.2491879969815276
  0.0313180879035233  0.0775223547211323  0.0839959860003629
  0.5107734309265765  0.2695742365032335  0.6192072744160629
  0.4315633890330700  0.7553781182731291  0.0597396160543383
  0.2845748188166232  0.1993249058446264  0.1368391874656124
  0.0863695882322401  0.7449894440818080  0.1707868332951590
  0.1201232331153730  0.8294549608671200  0.6809520644499027
  0.8805060907891475  0.1282696877515144  0.5988124211806540
  0.5226071998277926  0.9493722190587935  0.7050598354136519
  0.9695058850669198  0.4184457766669395  0.7620537185032669
  0.6482802711569899  0.7067981641805768  0.4534726563843905
  0.5048647627258900  0.6845150533960395  0.3187751936085873
  0.4418107107207504  0.1764322948512508  0.4777358157001548
  0.0550220774431944  0.0385184417012743  0.6522288528470602
  0.9297746897511474  0.1061412092196186  0.7933390106865333
  0.4538787535213293  0.4888330454737083  0.0204750853026345
  0.9009309284105663  0.6102446099383397  0.6142744592290645
  0.8260638215775490  0.6608609286868852  0.7928097633406063
  0.0408977566399949  0.9756268228492675  0.3553708819237868
  0.9570740734050585  0.3280727116190112  0.1948665012979700
  0.3907393598570412  0.5617202625708827  0.7587682647709488
  0.3577156992511059  0.7323888693703403  0.6285445032363405
  0.6185668844302833  0.6820111062347367  0.0497785970844854
  0.7691502381970741  0.4061754677648637  0.8037226310770014
  0.8677301804901025  0.9546529713193581  0.5826951159953128
  0.0843993255279057  0.2485830769863658  0.0979238768698652
  0.6888899919879066  0.3395905553076001  0.1257480922553378
  0.8520744038111325  0.5822240446608751  0.2297580631824087
  0.2587277348748383  0.6149306079728015  0.8718428662885268
  0.0240736117935296  0.2359077934495026  0.4479480412378427
  0.5564842680642789  0.8678340274905664  0.4007385701695446
  0.6373821402370009  0.2356501295975701  0.8018963508839846
  0.1487720044897019  0.5712468849377820  0.3083699623713730
  0.4370877761178736  0.8452942599928518  0.2221718833766371
  0.9476222503854685  0.6324158658278235  0.9478930782727146
  0.1761469316237645  0.1799454632988328  0.9591794857646966
  0.2070140902678809  0.6233685077947376  0.6996074740146454
  0.0410124846657897  0.4309757605868337  0.5132894250613950
  0.4961891339104330  0.5984353497662944  0.1493673247711874
  0.3080399133367389  0.2936432743350714  0.3472019584692421
  0.4903124559803561  0.0542248286853622  0.9775866885036021
  0.6072545557826331  0.8201740481589116  0.6016778936669414
  0.8241322291456997  0.7684667270521838  0.5241214960090621
  0.5241921227885731  0.3332673217773345  0.9356504005267244
  0.1670423425003738  0.8577663678016273  0.5966269080632031
  0.5454556879254912  0.0924915267789046  0.5892804404593709
  0.6882895605969500  0.3666538481117616  0.3075004219783249
  0.0996583830649461  0.7290771769524906  0.8334548814445282
  0.2808496590564429  0.4205580659932210  0.0771802982549790
  0.3065397137856748  0.6067751218547098  0.1256716423265421
  0.2318469842948363  0.4614875803732744  0.4516948200954899
  0.5718015978374759  0.8871030860336246  0.0721318303148883
  0.2318172982018118  0.0225158357703588  0.0496056679509848
  0.7020648138734960  0.4678897542348708  0.6208364353175603
  0.2672828790390732  0.7704391849192550  0.1530927985485070
  0.7873877310400722  0.9518476341431478  0.8486172913455957
  0.5252273414127520  0.2990778200473593  0.3536154923334134
  0.6307579021787957  0.6198493154585707  0.6949715976184738
  0.9386724746369620  0.8207584084000833  0.9385515759289211
  0.9036440153986348  0.4381198798056225  0.9439323371734184
  0.6069354780095469  0.1175736461186734  0.4063519284793448
  0.8082386842161452  0.2594143557647980  0.4447638290817228
  0.6629995884316143  0.8502745420500966  0.9177186055941318
  0.7467933881707594  0.8277872090742814  0.3565862833650138
  0.3839064242178781  0.8538848610838986  0.7748211734161633
  0.8531136288762837  0.0558718313100856  0.4273449080888742
  0.1813981448171542  0.0856769743514998  0.7842757617635264
  0.9569836880547523  0.9175987327633787  0.7728261126152381
  0.7941700541126787  0.5940359344058259  0.0311423655598851
  0.1452270446484949  0.0831966165371055  0.2353831354542424
  0.6776958132173336  0.8026860571056113  0.1875485436050285
  0.3612643729209728  0.2182828728143522  0.9344161986584419
  0.8947042365752452  0.2773153307475157  0.7001359987274199
  0.0454095243917877  0.3354784452965510  0.9404629760502873
  0.3462880137640091  0.4227648568753795  0.8721872701384291
  0.3584936166656538  0.9253059912512888  0.5996036722172463
  0.0830555635619003  0.2783573570908315  0.6083165190292966
  0.0439382137502873  0.4082776232577786  0.3289680798426382
  0.7351026190832132  0.7814362215152417  0.9077743237423194
 
  0.00000000E+00  0.00000000E+00  0.00000000E+00
  0.00000000E+00  0.00000000E+00  0.00000000E+00
  0.00000000E+00  0.00000000E+00  0.00000000E+00
  0.00000000E+00  0.00000000E+00  0.00000000E+00
  0.00000000E+00  0.00000000E+00  0.00000000E+00
  0.00000000E+00  0.00000000E+00  0.00000000E+00
  0.00000000E+00  0.00000000E+00  0.00000000E+00
  0.00000000E+00  0.00000000E+00  0.00000000E+00
  0.00000000E+00  0.00000000E+00  0.00000000E+00
  0.00000000E+00  0.00000000E+00  0.00000000E+00
  0.00000000E+00  0.00000000E+00  0.00000000E+00
  0.00000000E+00  0.00000000E+00  0.00000000E+00
  0.00000000E+00  0.00000000E+00  0.00000000E+00
  0.00000000E+00  0.00000000E+00  0.00000000E+00
  0.00000000E+00  0.00000000E+00  0.00000000E+00
  0.00000000E+00  0.00000000E+00  0.00000000E+00
  0.00000000E+00  0.00000000E+00  0.00000000E+00
  0.00000000E+00  0.00000000E+00  0.00000000E+00
  0.00000000E+00  0.00000000E+00  0.00000000E+00
  0.00000000E+00  0.00000000E+00  0.00000000E+00
  0.00000000E+00  0.00000000E+00  0.00000000E+00
  0.00000000E+00  0.00000000E+00  0.00000000E+00
  0.00000000E+00  0.00000000E+00  0.00000000E+00
  0.00000000E+00  0.00000000E+00  0.00000000E+00
  0.00000000E+00  0.00000000E+00  0.00000000E+00
  0.00000000E+00  0.00000000E+00  0.00000000E+00
  0.00000000E+00  0.00000000E+00  0.00000000E+00
  0.00000000E+00  0.00000000E+00  0.00000000E+00
  0.00000000E+00  0.00000000E+00  0.00000000E+00
  0.00000000E+00  0.00000000E+00  0.00000000E+00
  0.00000000E+00  0.00000000E+00  0.00000000E+00
  0.00000000E+00  0.00000000E+00  0.00000000E+00
  0.00000000E+00  0.00000000E+00  0.00000000E+00
  0.00000000E+00  0.00000000E+00  0.00000000E+00
  0.00000000E+00  0.00000000E+00  0.00000000E+00
  0.00000000E+00  0.00000000E+00  0.00000000E+00
  0.00000000E+00  0.00000000E+00  0.00000000E+00
  0.00000000E+00  0.00000000E+00  0.00000000E+00
  0.00000000E+00  0.00000000E+00  0.00000000E+00
  0.00000000E+00  0.00000000E+00  0.00000000E+00
  0.00000000E+00  0.00000000E+00  0.00000000E+00
  0.00000000E+00  0.00000000E+00  0.00000000E+00
  0.00000000E+00  0.00000000E+00  0.00000000E+00
  0.00000000E+00  0.00000000E+00  0.00000000E+00
  0.00000000E+00  0.00000000E+00  0.00000000E+00
  0.00000000E+00  0.00000000E+00  0.00000000E+00
  0.00000000E+00  0.00000000E+00  0.00000000E+00
  0.00000000E+00  0.00000000E+00  0.00000000E+00
  0.00000000E+00  0.00000000E+00  0.00000000E+00
  0.00000000E+00  0.00000000E+00  0.00000000E+00
  0.00000000E+00  0.00000000E+00  0.00000000E+00
  0.00000000E+00  0.00000000E+00  0.00000000E+00
  0.00000000E+00  0.00000000E+00  0.00000000E+00
  0.00000000E+00  0.00000000E+00  0.00000000E+00
  0.00000000E+00  0.00000000E+00  0.00000000E+00
  0.00000000E+00  0.00000000E+00  0.00000000E+00
  0.00000000E+00  0.00000000E+00  0.00000000E+00
  0.00000000E+00  0.00000000E+00  0.00000000E+00
  0.00000000E+00  0.00000000E+00  0.00000000E+00
  0.00000000E+00  0.00000000E+00  0.00000000E+00
  0.00000000E+00  0.00000000E+00  0.00000000E+00
  0.00000000E+00  0.00000000E+00  0.00000000E+00
  0.00000000E+00  0.00000000E+00  0.00000000E+00
  0.00000000E+00  0.00000000E+00  0.00000000E+00
  0.00000000E+00  0.00000000E+00  0.00000000E+00
  0.00000000E+00  0.00000000E+00  0.00000000E+00
  0.00000000E+00  0.00000000E+00  0.00000000E+00
  0.00000000E+00  0.00000000E+00  0.00000000E+00
  0.00000000E+00  0.00000000E+00  0.00000000E+00
  0.00000000E+00  0.00000000E+00  0.00000000E+00
  0.00000000E+00  0.00000000E+00  0.00000000E+00
  0.00000000E+00  0.00000000E+00  0.00000000E+00
  0.00000000E+00  0.00000000E+00  0.00000000E+00
  0.00000000E+00  0.00000000E+00  0.00000000E+00
  0.00000000E+00  0.00000000E+00  0.00000000E+00
  0.00000000E+00  0.00000000E+00  0.00000000E+00
  0.00000000E+00  0.00000000E+00  0.00000000E+00
  0.00000000E+00  0.00000000E+00  0.00000000E+00
  0.00000000E+00  0.00000000E+00  0.00000000E+00
  0.00000000E+00  0.00000000E+00  0.00000000E+00
  0.00000000E+00  0.00000000E+00  0.00000000E+00
  0.00000000E+00  0.00000000E+00  0.00000000E+00
  0.00000000E+00  0.00000000E+00  0.00000000E+00
  0.00000000E+00  0.00000000E+00  0.00000000E+00
  0.00000000E+00  0.00000000E+00  0.00000000E+00
  0.00000000E+00  0.00000000E+00  0.00000000E+00
  0.00000000E+00  0.00000000E+00  0.00000000E+00
  0.00000000E+00  0.00000000E+00  0.00000000E+00
  0.00000000E+00  0.00000000E+00  0.00000000E+00
  0.00000000E+00  0.00000000E+00  0.00000000E+00
  0.00000000E+00  0.00000000E+00  0.00000000E+00
  0.00000000E+00  0.00000000E+00  0.00000000E+00
  0.00000000E+00  0.00000000E+00  0.00000000E+00
  0.00000000E+00  0.00000000E+00  0.00000000E+00
  0.00000000E+00  0.00000000E+00  0.00000000E+00
  0.00000000E+00  0.00000000E+00  0.00000000E+00
  0.00000000E+00  0.00000000E+00  0.00000000E+00
  0.00000000E+00  0.00000000E+00  0.00000000E+00
  0.00000000E+00  0.00000000E+00  0.00000000E+00
  0.00000000E+00  0.00000000E+00  0.00000000E+00
  0.00000000E+00  0.00000000E+00  0.00000000E+00
  0.00000000E+00  0.00000000E+00  0.00000000E+00
  0.00000000E+00  0.00000000E+00  0.00000000E+00
  0.00000000E+00  0.00000000E+00  0.00000000E+00
  0.00000000E+00  0.00000000E+00  0.00000000E+00
  0.00000000E+00  0.00000000E+00  0.00000000E+00
  0.00000000E+00  0.00000000E+00  0.00000000E+00
  0.00000000E+00  0.00000000E+00  0.00000000E+00
  0.00000000E+00  0.00000000E+00  0.00000000E+00
  0.00000000E+00  0.00000000E+00  0.00000000E+00
  0.00000000E+00  0.00000000E+00  0.00000000E+00
  0.00000000E+00  0.00000000E+00  0.00000000E+00
  0.00000000E+00  0.00000000E+00  0.00000000E+00
  0.00000000E+00  0.00000000E+00  0.00000000E+00
  0.00000000E+00  0.00000000E+00  0.00000000E+00
  0.00000000E+00  0.00000000E+00  0.00000000E+00
  0.00000000E+00  0.00000000E+00  0.00000000E+00
  0.00000000E+00  0.00000000E+00  0.00000000E+00
  0.00000000E+00  0.00000000E+00  0.00000000E+00
  0.00000000E+00  0.00000000E+00  0.00000000E+00
  0.00000000E+00  0.00000000E+00  0.00000000E+00
  0.00000000E+00  0.00000000E+00  0.00000000E+00
  0.00000000E+00  0.00000000E+00  0.00000000E+00
  0.00000000E+00  0.00000000E+00  0.00000000E+00
  0.00000000E+00  0.00000000E+00  0.00000000E+00
  0.00000000E+00  0.00000000E+00  0.00000000E+00
  0.00000000E+00  0.00000000E+00  0.00000000E+00
  0.00000000E+00  0.00000000E+00  0.00000000E+00
  0.00000000E+00  0.00000000E+00  0.00000000E+00
  0.00000000E+00  0.00000000E+00  0.00000000E+00
  0.00000000E+00  0.00000000E+00  0.00000000E+00
  0.00000000E+00  0.00000000E+00  0.00000000E+00
  0.00000000E+00  0.00000000E+00  0.00000000E+00
  0.00000000E+00  0.00000000E+00  0.00000000E+00
  0.00000000E+00  0.00000000E+00  0.00000000E+00
  0.00000000E+00  0.00000000E+00  0.00000000E+00
  0.00000000E+00  0.00000000E+00  0.00000000E+00
  0.00000000E+00  0.00000000E+00  0.00000000E+00
  0.00000000E+00  0.00000000E+00  0.00000000E+00
  0.00000000E+00  0.00000000E+00  0.00000000E+00
  0.00000000E+00  0.00000000E+00  0.00000000E+00
  0.00000000E+00  0.00000000E+00  0.00000000E+00
  0.00000000E+00  0.00000000E+00  0.00000000E+00
  0.00000000E+00  0.00000000E+00  0.00000000E+00
  0.00000000E+00  0.00000000E+00  0.00000000E+00
  0.00000000E+00  0.00000000E+00  0.00000000E+00
  0.00000000E+00  0.00000000E+00  0.00000000E+00
  0.00000000E+00  0.00000000E+00  0.00000000E+00
  0.00000000E+00  0.00000000E+00  0.00000000E+00
  0.00000000E+00  0.00000000E+00  0.00000000E+00
  0.00000000E+00  0.00000000E+00  0.00000000E+00
  0.00000000E+00  0.00000000E+00  0.00000000E+00
  0.00000000E+00  0.00000000E+00  0.00000000E+00
  0.00000000E+00  0.00000000E+00  0.00000000E+00
  0.00000000E+00  0.00000000E+00  0.00000000E+00
  0.00000000E+00  0.00000000E+00  0.00000000E+00
  0.00000000E+00  0.00000000E+00  0.00000000E+00
  0.00000000E+00  0.00000000E+00  0.00000000E+00
  0.00000000E+00  0.00000000E+00  0.00000000E+00
  0.00000000E+00  0.00000000E+00  0.00000000E+00
  0.00000000E+00  0.00000000E+00  0.00000000E+00
  0.00000000E+00  0.00000000E+00  0.00000000E+00
  0.00000000E+00  0.00000000E+00  0.00000000E+00
  0.00000000E+00  0.00000000E+00  0.00000000E+00
  0.00000000E+00  0.00000000E+00  0.00000000E+00
  0.00000000E+00  0.00000000E+00  0.00000000E+00
  0.00000000E+00  0.00000000E+00  0.00000000E+00
  0.00000000E+00  0.00000000E+00  0.00000000E+00
  0.00000000E+00  0.00000000E+00  0.00000000E+00
  0.00000000E+00  0.00000000E+00  0.00000000E+00
  0.00000000E+00  0.00000000E+00  0.00000000E+00
  0.00000000E+00  0.00000000E+00  0.00000000E+00
  0.00000000E+00  0.00000000E+00  0.00000000E+00
  0.00000000E+00  0.00000000E+00  0.00000000E+00
  0.00000000E+00  0.00000000E+00  0.00000000E+00
  0.00000000E+00  0.00000000E+00  0.00000000E+00
  0.00000000E+00  0.00000000E+00  0.00000000E+00
  0.00000000E+00  0.00000000E+00  0.00000000E+00
  0.00000000E+00  0.00000000E+00  0.00000000E+00
  0.00000000E+00  0.00000000E+00  0.00000000E+00
  0.00000000E+00  0.00000000E+00  0.00000000E+00
  0.00000000E+00  0.00000000E+00  0.00000000E+00
  0.00000000E+00  0.00000000E+00  0.00000000E+00
  0.00000000E+00  0.00000000E+00  0.00000000E+00
  0.00000000E+00  0.00000000E+00  0.00000000E+00
  0.00000000E+00  0.00000000E+00  0.00000000E+00
  0.00000000E+00  0.00000000E+00  0.00000000E+00
  0.00000000E+00  0.00000000E+00  0.00000000E+00
  0.00000000E+00  0.00000000E+00  0.00000000E+00
  0.00000000E+00  0.00000000E+00  0.00000000E+00
  0.00000000E+00  0.00000000E+00  0.00000000E+00
  0.00000000E+00  0.00000000E+00  0.00000000E+00
  0.00000000E+00  0.00000000E+00  0.00000000E+00
  0.00000000E+00  0.00000000E+00  0.00000000E+00
  0.00000000E+00  0.00000000E+00  0.00000000E+00
  0.00000000E+00  0.00000000E+00  0.00000000E+00
  0.00000000E+00  0.00000000E+00  0.00000000E+00
  0.00000000E+00  0.00000000E+00  0.00000000E+00
  0.00000000E+00  0.00000000E+00  0.00000000E+00
  0.00000000E+00  0.00000000E+00  0.00000000E+00
  0.00000000E+00  0.00000000E+00  0.00000000E+00
  0.00000000E+00  0.00000000E+00  0.00000000E+00
  0.00000000E+00  0.00000000E+00  0.00000000E+00
  0.00000000E+00  0.00000000E+00  0.00000000E+00
  0.00000000E+00  0.00000000E+00  0.00000000E+00
  0.00000000E+00  0.00000000E+00  0.00000000E+00
  0.00000000E+00  0.00000000E+00  0.00000000E+00
  0.00000000E+00  0.00000000E+00  0.00000000E+00
  0.00000000E+00  0.00000000E+00  0.00000000E+00
  0.00000000E+00  0.00000000E+00  0.00000000E+00
  0.00000000E+00  0.00000000E+00  0.00000000E+00
  0.00000000E+00  0.00000000E+00  0.00000000E+00
  0.00000000E+00  0.00000000E+00  0.00000000E+00
  0.00000000E+00  0.00000000E+00  0.00000000E+00
  0.00000000E+00  0.00000000E+00  0.00000000E+00
  0.00000000E+00  0.00000000E+00  0.00000000E+00
  0.00000000E+00  0.00000000E+00  0.00000000E+00
  0.00000000E+00  0.00000000E+00  0.00000000E+00
  0.00000000E+00  0.00000000E+00  0.00000000E+00
  0.00000000E+00  0.00000000E+00  0.00000000E+00
  0.00000000E+00  0.00000000E+00  0.00000000E+00
  0.00000000E+00  0.00000000E+00  0.00000000E+00
  0.00000000E+00  0.00000000E+00  0.00000000E+00
  0.00000000E+00  0.00000000E+00  0.00000000E+00
  0.00000000E+00  0.00000000E+00  0.00000000E+00
  0.00000000E+00  0.00000000E+00  0.00000000E+00
  0.00000000E+00  0.00000000E+00  0.00000000E+00
  0.00000000E+00  0.00000000E+00  0.00000000E+00
  0.00000000E+00  0.00000000E+00  0.00000000E+00
  0.00000000E+00  0.00000000E+00  0.00000000E+00
  0.00000000E+00  0.00000000E+00  0.00000000E+00
  0.00000000E+00  0.00000000E+00  0.00000000E+00