Amorphous GeSe                          
   1.00000000000000     
    19.9678878783999991    0.0000000000000000    0.0000000000000000
     0.0000000000000000   19.9678878783999991    0.0000000000000000
     0.0000000000000000    0.0000000000000000   19.9678878783999991
   Ge   Se
   149   151
Direct
  0.6153254733799881  0.7500808058641193  0.8643194067982761
  0.3358801575023686  0.6397539667134599  0.7829333901126835
  0.3743930570536824  0.2794424033197843  0.5123119722838726
  0.7901953959775528  0.9648454352599241  0.5791694656239694
  0.8985565271392534  0.3885022270669364  0.7263190505835044
  0.1464280299270218  0.8232518024389693  0.9581497652989676
  0.0315813863006917  0.0132287575525506  0.3892487084520791
  0.4922368314211580  0.6086650912333260  0.6920145417034732
  0.4514846711700005  0.7592416608237526  0.2753398095636875
  0.2922112245435133  0.1325407712976149  0.4484693376826960
  0.1245926358667065  0.8099016069599412  0.4691490596876301
  0.9759251791798800  0.2934070534545686  0.7770504081071639
  0.7030162997929116  0.2844125101295163  0.6105582689352994
  0.2242670739021632  0.0989506325737187  0.8437867417026428
  0.7613902283897751  0.0734362590018373  0.3640622724844115
  0.9024702041550527  0.6581679977772530  0.3389673057405036
  0.0871262761352219  0.6365031649132283  0.3270311509876420
  0.8726493727758715  0.3314408794187000  0.3186280936824390
  0.2983689315433167  0.5284576455730997  0.9454227449276330
  0.9549892669185748  0.8434757368596857  0.3979698553723419
  0.3203230248303174  0.7886511136347467  0.0528730236407252
  0.4671192776196790  0.6783586411933582  0.9273662115550636
  0.0584852138467393  0.1875422727700618  0.9838580650876735
  0.9641992149100660  0.1339883643825604  0.1384489807247761
  0.7165334409377231  0.2804108959673423  0.1464381334048405
  0.5517210630841803  0.2475560585181268  0.5050598635125979
  0.4610249770806002  0.6355226520072802  0.5651569774075085
  0.7312005894353123  0.8959557471875325  0.0045222405506984
  0.6462225970855637  0.6400317124787560  0.5934673924493157
  0.8976843305503717  0.6952674037414845  0.4648962653884067
  0.2872685476064119  0.2406811388643305  0.8554473605645100
  0.1848425222814039  0.0709096847771703  0.3067670546646578
  0.8493235683051155  0.5202948055774156  0.4244493553054744
  0.2357418751632990  0.4633959080723541  0.2739467825637123
  0.0349440943921605  0.5495035719874114  0.5794735725688477
  0.5519409505680042  0.7345014069899271  0.1025136598106559
  0.3999359330358611  0.2028359286027650  0.0068139199608882
  0.3006785849273886  0.1943104127792492  0.1690659435395036
  0.1864405080985527  0.1781304520081627  0.0193949199176966
  0.7273579544541119  0.5399066355054783  0.7246355474925676
  0.7985255233502092  0.8854025564125682  0.3005298135160246
  0.9094065475080210  0.0457136939911660  0.6507948707739846
  0.4432012232849497  0.0417184842876367  0.6583002346249565
  0.4414562447689825  0.1357645333797851  0.2231942805604259
  0.2486862177142531  0.7221005301103665  0.2468862506676583
  0.4794469611924755  0.5273645236809796  0.3128434971617186
  0.8561373567413240  0.6621112717663655  0.1207467595868785
  0.1169566343663529  0.1820932483630916  0.4537913920688010
  0.8480919257933617  0.7596986682103695  0.8087466900852812
  0.5996889001762612  0.1046606539490175  0.2202628487051682
  0.1028580762535333  0.5878576630010477  0.7403759606507782
  0.1467726836587588  0.2589511050398015  0.1606818781884301
  0.5843723888921878  0.9099023629179677  0.7090795228450067
  0.5655071209651787  0.3944242210433820  0.7867009387896086
  0.7321584761925195  0.5851457045307207  0.4326986830821544
  0.0962670010686278  0.9630922907736786  0.1698146922058024
  0.1094010070894461  0.6358341510560339  0.5090663958663399
  0.0000143885189745  0.3605797515324493  0.5735911264649388
  0.2764527824996108  0.1497728036596702  0.6584728510131663
  0.5937649134327304  0.5258325181448138  0.1878058014426389
  0.7116782628792746  0.9818675165332109  0.1933743303669887
  0.4526831197063477  0.5534487729937492  0.0838652905877293
  0.8094675238723049  0.6735544211129837  0.2529039007354136
  0.8073717544722009  0.1458838367297819  0.6848962612092877
  0.4879084778931834  0.0085601540761647  0.1429191234699459
  0.9848999218786247  0.3895213580148498  0.0549306682051538
  0.9159216060654045  0.8167285339142970  0.5307178294847291
  0.7866988548815556  0.7028930688301965  0.9406059258913517
  0.7971239687429603  0.1414338951129199  0.1008184932886871
  0.8659357246382809  0.2954175395918154  0.9613169299981763
  0.3497841267951907  0.3540037497677677  0.6959874155534167
  0.3895880804897005  0.3127007474917154  0.3265273534649301
  0.2628989445677479  0.5482133948863288  0.3998045299206405
  0.5691393098765252  0.0159351610987773  0.3998163765888264
  0.5123816439575098  0.3266376934240097  0.6500711784674302
  0.6200562105525285  0.0319148208178067  0.0458397065698195
  0.1687956882092892  0.3193907445618694  0.3663055431082190
  0.8881492451221971  0.7874570123083464  0.9498735147636603
  0.1173426910838267  0.8316488876206382  0.8266315104360596
  0.2871084329375456  0.3656769512379303  0.1510072618025757
  0.5617408977313791  0.8540908333099038  0.0147673744084166
  0.0936429346483063  0.5078361170526242  0.0550770428579752
  0.7461409395906139  0.4495722251224885  0.0833506509719783
  0.6000768139761957  0.6031934424476302  0.4237195306866101
  0.2583123717387340  0.9580578691842476  0.5934538835921919
  0.6519954403888684  0.1316081501299988  0.9665587496079933
  0.5833977048331817  0.7643028839655340  0.7157785865180781
  0.9133680513708008  0.2750894055945894  0.5962974599647111
  0.6236802432486158  0.6491424105191076  0.0366397472394298
  0.5573845271110248  0.2952199230645122  0.2619301504482577
  0.5556848882711097  0.2060332753212095  0.9265532192003784
  0.1049515308002053  0.0484545253178045  0.5956228058595352
  0.8617118788204543  0.2206213346736466  0.4981370703415124
  0.6591962285877326  0.8330093904139844  0.5544148129043170
  0.4800819739028967  0.8887080542415787  0.5178675574670277
  0.2852599863607017  0.9459891037620799  0.9518711668882678
  0.2831682883485888  0.5444691878366129  0.6292853583384028
  0.2199316042476606  0.7045395382962507  0.5216999079553292
  0.2843428190886577  0.2551085247544874  0.9837673471133066
  0.0797932354140072  0.3683876735254098  0.2144796319441600
  0.6547017234961641  0.3218085093088455  0.9491737739922954
  0.1304086308508262  0.6231226606459174  0.1228963202321953
  0.9214261687947156  0.9922073952469590  0.2253270839998099
  0.4094449896925554  0.8759016955148530  0.7406112741420655
  0.6253305444601549  0.9021315889873883  0.1321384273700295
  0.0693335554814681  0.3092945302059302  0.9327669045815277
  0.0547603821318839  0.7288851226313696  0.2485180596543330
  0.6658855396558676  0.1691086499543116  0.7774531270970384
  0.7840527250899508  0.8954939939118379  0.6989823528230042
  0.9585587300626796  0.8772914554752520  0.7199028889959503
  0.9701749034726642  0.8430452138901832  0.0617199586102653
  0.3157739476963533  0.8008551095175684  0.5295977536032463
  0.9254012466448879  0.1216676539809932  0.4431366185572875
  0.6475452799450487  0.8056738377426499  0.2899227143743465
  0.5912689424700648  0.7438611249177411  0.4902571871945517
  0.4343813795595164  0.4204695274776608  0.2657895932756262
  0.8168693915927773  0.6460834879526329  0.5996874105284346
  0.1836116645110934  0.2417330311427059  0.6053511341060940
  0.0020224707146504  0.0345725671275349  0.8513934251734130
  0.7300321826876810  0.4678747926944727  0.3057581589761790
  0.0031078640931369  0.1902746243340330  0.2794014926397816
  0.0194341828773896  0.5729243619416914  0.9206511206083444
  0.9716143737099718  0.0327096359337308  0.9882843216477398
  0.1537852300961776  0.4509362083921740  0.5068448834043577
  0.3255648792925447  0.7059523975727999  0.6707396575315070
  0.3441926351720485  0.7637241950978667  0.4085702536624523
  0.3542904009645066  0.9735932198453192  0.8042577625648846
  0.1831555797605553  0.2572692970212352  0.7807143036612630
  0.2175125816809007  0.9808020768934891  0.0582397391256868
  0.4717914361593104  0.5971617121879379  0.2073242279924014
  0.7525341179654139  0.6306718474627264  0.0411407573323508
  0.4075530063963390  0.2128576104986259  0.8085333427636879
  0.4776588148657646  0.4004447866359069  0.9653442200711377
  0.9949921628311548  0.7031123444818631  0.8168739370808357
  0.1518956462867428  0.7981605132107400  0.1025199253764014
  0.3200406699519894  0.3611705697681029  0.8766441346091831
  0.6668429698771973  0.1590621140018812  0.4075881364089792
  0.3426589775882374  0.9896143933061348  0.3095558075452845
  0.2256945274348779  0.8293897850865516  0.6520887063226266
  0.8659611785566043  0.3404480482281617  0.4446484213846085
  0.7396453623448771  0.4541906768690495  0.8446713965525001
  0.0431270174852036  0.9132573245780503  0.6282158249400891
  0.0923692770638878  0.1648442400401610  0.7325331014190342
  0.4854455598032711  0.1104517218310765  0.5288873548594726
  0.4006998028250261  0.4040865463734291  0.4866986784740618
  0.1665115944214082  0.6764204486762706  0.9316329922887191
  0.4355937974868716  0.8623020357610174  0.1718797451262279
  0.3928788356204558  0.5311737525287982  0.8120613281874464
  0.8827640863354651  0.4881952844060710  0.1684758067763363
  0.4151046140780185  0.5768256588874308  0.4032569254760909
  0.8989307037157377  0.1076773849057230  0.8377412581749145
  0.8918376629314115  0.9469964019535922  0.3530056012536330
  0.9835520864681997  0.5732546601633453  0.3079552840656043
  0.0044498178270445  0.4346448871705941  0.6695930637251652
  0.2726776327094047  0.8213731828282452  0.9356310275060401
  0.0685030589273365  0.8882178285685249  0.3814676864712665
  0.3494581978566185  0.4707634714941046  0.1923865692862055
  0.6552666060272373  0.0844155132387214  0.6869556196206179
  0.7290117486889145  0.2106397031196015  0.0202141540995758
  0.2619643585916726  0.9009406589506146  0.4814497979188209
  0.7727020038284032  0.7700086396324380  0.3286003192285630
  0.6838647866153568  0.9827699063457602  0.7454796100578273
  0.6974630272408099  0.7858258904978060  0.6622235955783518
  0.2967832557836516  0.6035871954321214  0.5168691684473131
  0.7246175162956379  0.5235049964844556  0.1778894585722196
  0.4470564267379509  0.1408193631568176  0.9090002846575147
  0.3862110811666341  0.1214597095891872  0.0995006273876316
  0.4552298415690159  0.0063707432552258  0.4570943477894582
  0.8801436816992044  0.9692624281122107  0.7511723847201409
  0.7294813234087832  0.0967297638335674  0.2429784560394784
  0.6274555175457195  0.9511642359396796  0.9492240343508043
  0.5714899314875888  0.2416063223927866  0.8078276066559109
  0.1921352756256423  0.1337501316088601  0.1339957755154667
  0.1287315261850542  0.3531579685379382  0.8363653444009698
  0.2716445365315627  0.3328635427181386  0.2806027962068922
  0.4777073950042442  0.4905665095945137  0.7362033612830735
  0.2292853119083801  0.6963373027136645  0.0788029569445598
  0.3273575251247923  0.1264756239476677  0.2765494408266405
  0.4523748352495342  0.6890136905229027  0.7783686428874911
  0.3711545906318282  0.9727283509329350  0.1843627434441723
  0.5864617540029027  0.2237750860305438  0.6279511505299389
  0.3123366244454113  0.3771639173561661  0.9987558560756076
  0.9437082738251042  0.7705574308688127  0.2908810078554576
  0.4544652542107572  0.9118200142450875  0.0547753205712276
  0.1052097084687736  0.4190227011522666  0.3238498448527583
  0.1386526061727548  0.5482685054596989  0.9309616305833793
  0.7660008157393736  0.3365035474697542  0.8874511482949918
  0.1818877668744961  0.0777421182178945  0.6979882202669073
  0.4328466896545152  0.2614459649500324  0.2178088115457886
  0.6932616944394118  0.3488366383467683  0.2594021470307636
  0.5775536981872773  0.5341364901964545  0.0612865911088484
  0.2846209204399175  0.4691836540771446  0.8263784420710444
  0.1997438340811347  0.7019508272828875  0.6485992363153515
  0.0626200369733492  0.1640433448329731  0.5674718774878024
  0.3988832076138700  0.9744917615914487  0.9158605488230604
  0.5057303590918362  0.9944257165471476  0.7555543789543763
  0.7383336383633150  0.5450175056966985  0.5977922837682743
  0.2244084930121827  0.9557390233373413  0.2926345204764750
  0.9637167268791668  0.4119061473592835  0.4689992061319820
  0.5368951542690392  0.8309286427244975  0.4178567437872576
  0.7447157898418632  0.2503594736209263  0.7322560274204417
  0.2460312769137616  0.6981509315108567  0.3734361065187363
  0.7175290162556106  0.1088010852611775  0.8665180139181123
  0.1413049232389773  0.0561064411661522  0.4331278055172997
  0.6837150487899678  0.8018208163694368  0.1676336803526463
  0.7145216845915703  0.6194055303650683  0.3098104955118066
  0.0472769552932969  0.7101559887841838  0.4296193865959089
  0.1210483370333582  0.9408432203159656  0.9866973191925940
  0.9602558576113862  0.3659913269881259  0.9039776066894083
  0.9145264208357475  0.9554495482311993  0.5565967246762619
  0.2538142363239146  0.8715089464879638  0.1214102772684318
  0.7718262722710284  0.6628853657605547  0.8259152745649663
  0.0374210528514352  0.7998899065735960  0.5658010019561345
  0.4011356012619439  0.2546422358157976  0.6319828743385461
  0.6787232004443067  0.4203005067086566  0.7312830764430462
  0.2555689171859001  0.2488749691420043  0.4935431891049580
  0.0489238609155627  0.0548169090557473  0.0852716834491482
  0.7449398420416911  0.0281662079134436  0.0711451679046362
  0.7715757599357705  0.5198324628899742  0.9895855866669673
  0.0594659307596670  0.0419076962856811  0.2660597925655086
  0.5856127957449020  0.4925891627470457  0.3594980618750347
  0.5293104719125908  0.3975507235067013  0.1876706867853277
  0.4542932072300348  0.6942707937002188  0.4020014957792783
  0.5721978506380069  0.6690437269105799  0.2088245666817818
  0.3517187080611399  0.8357164241972762  0.3110379577841432
  0.9953151655367685  0.8483484646415501  0.8354879337506931
  0.6883397362618340  0.7771235622072198  0.9677809882270210
  0.4471642446947960  0.6773733732182209  0.0569665985409653
  0.0004592521348598  0.6908423163838312  0.9450610042170109
  0.9018589904506508  0.1344667403270455  0.0242704159150589
  0.8235340471090941  0.9026852737160501  0.9126947745191022
  0.5407218159222553  0.9188282854359986  0.2247316683702720
  0.8192497877367140  0.9164752290746039  0.1853039051526943
  0.1283765608067451  0.7046993898786204  0.8054597221954994
  0.7741082992175087  0.4205257608871834  0.4500750612577596
  0.4394637547634204  0.3484666341094814  0.8546457980163816
  0.9904316874447315  0.8941686398771148  0.1849777752951589
  0.3780375127027015  0.6738689088661198  0.2216180489598495
  0.1274199331217498  0.2244605414136477  0.2808548350052413
  0.8597353756919900  0.4509964845343239  0.2891901373599123
  0.8626326750223267  0.1419217352088061  0.3355854849347644
  0.5153236240637327  0.7495740463625770  0.5953707487829216
  0.6890650559162632  0.9272787831656817  0.3249514559297742
  0.5081216936388835  0.8049743794232511  0.9096685754155575
  0.1438231432410882  0.8089302315304335  0.2342927243077481
  0.0021413517054661  0.2150875031617065  0.4069955520883405
  0.7620634497860760  0.8753373628981874  0.5022979367315856
  0.2228084197647689  0.3353288300641680  0.6881582340630211
  0.8446698564601256  0.4870358628908439  0.7749818638451018
  0.1116369482149356  0.3795420124559152  0.0253562626177347
  0.6108470126416650  0.6284903274929173  0.7188382264341122
  0.9691958417141677  0.5201852919147439  0.0175719635426284
  0.5992792911793409  0.2206574571734792  0.1657388159911350
  0.5050052691085489  0.2707893742814301  0.0195443876558510
  0.8540803767040347  0.7838385984295888  0.0800099130993300
  0.5621747005359841  0.1365414243193194  0.3375028976567602
  0.2954436576846235  0.6516859038343179  0.9020459760022100
  0.5264730010234396  0.3714768758344139  0.5325361260478033
  0.3607196836923109  0.0908196033692162  0.7477141355279536
  0.5617630829401965  0.5601598754812424  0.5414501419926506
  0.1356939508831188  0.8890919660381229  0.7160091827504539
  0.0961377657487882  0.1263209397081287  0.8573632597370020
  0.1305965471322807  0.5530496248580645  0.4175766487847227
  0.8952033539157942  0.9433797968115178  0.0289870530600031
  0.3646180194904917  0.4426293077528785  0.6021378688593311
  0.6592496164736136  0.2737282476692864  0.4482690132371885
  0.2993374151885540  0.8041228219328191  0.7500054463863098
  0.7690144075301869  0.6926971710190390  0.4881330282838549
  0.9551383821287510  0.3023243690399743  0.2368167375253563
  0.0098114713169117  0.4628036630418582  0.1628880489200358
  0.1117217718832306  0.3298134950713255  0.5330015693052229
  0.2629504496935448  0.0998750085379374  0.9649421516874075
  0.9287684000173523  0.2193254782633977  0.8725700454048603
  0.0314170318168329  0.2399167298542728  0.1033787148774397
  0.6170080404818089  0.0862124831044560  0.4969849613241880
  0.5896025391043227  0.6336440139881730  0.9161760924632940
  0.2316763431233550  0.9692970926840321  0.8406473969761674
  0.5949705199014098  0.4293819925938100  0.9075305322275143
  0.7649276045595598  0.1774087151937849  0.5649608852862146
  0.5902645207075744  0.9351326086138299  0.5819004883981256
  0.1787209745079644  0.6082110683683764  0.2382948050706242
  0.1664588272603720  0.4999427636966673  0.6231965135974743
  0.8782029010743324  0.7899130809879890  0.6830763409797213
  0.4280830590196197  0.5278938399036155  0.9288931364547585
  0.0272811309416689  0.6938223605173068  0.1361844966459939
  0.7543727485442282  0.8504847857824007  0.8160501614485243
  0.8327525120696594  0.3618219783107834  0.6262194046558708
  0.3825559676503836  0.9303644999238366  0.6295207926475744
  0.2589067834282036  0.4236419965795609  0.4470254163457232
  0.0175297505512526  0.6364359363933841  0.6655116672540122
  0.9268774789626412  0.2032603962308204  0.6909129116495879
  0.7704599907816584  0.2634397022881635  0.2993437866343753
  0.8402644669574504  0.3808875615781652  0.1123395529670036
  0.1870920430326424  0.4433154934428502  0.1589074275671209
  0.4109061166080419  0.1839101623276953  0.4412037679471579
  0.9071128446255075  0.5857131455553330  0.5269964850114910
  0.0250212965537772  0.0403021306901114  0.6977449825750162
  0.9924809230354775  0.5653993760789411  0.8040604047864367
  0.6542024963210277  0.3711007076790276  0.0705132600117644
  0.3129885233377924  0.0764493743656851  0.5629692301138203
 
  0.00000000E+00  0.00000000E+00  0.00000000E+00
  0.00000000E+00  0.00000000E+00  0.00000000E+00
  0.00000000E+00  0.00000000E+00  0.00000000E+00
  0.00000000E+00  0.00000000E+00  0.00000000E+00
  0.00000000E+00  0.00000000E+00  0.00000000E+00
  0.00000000E+00  0.00000000E+00  0.00000000E+00
  0.00000000E+00  0.00000000E+00  0.00000000E+00
  0.00000000E+00  0.00000000E+00  0.00000000E+00
  0.00000000E+00  0.00000000E+00  0.00000000E+00
  0.00000000E+00  0.00000000E+00  0.00000000E+00
  0.00000000E+00  0.00000000E+00  0.00000000E+00
  0.00000000E+00  0.00000000E+00  0.00000000E+00
  0.00000000E+00  0.00000000E+00  0.00000000E+00
  0.00000000E+00  0.00000000E+00  0.00000000E+00
  0.00000000E+00  0.00000000E+00  0.00000000E+00
  0.00000000E+00  0.00000000E+00  0.00000000E+00
  0.00000000E+00  0.00000000E+00  0.00000000E+00
  0.00000000E+00  0.00000000E+00  0.00000000E+00
  0.00000000E+00  0.00000000E+00  0.00000000E+00
  0.00000000E+00  0.00000000E+00  0.00000000E+00
  0.00000000E+00  0.00000000E+00  0.00000000E+00
  0.00000000E+00  0.00000000E+00  0.00000000E+00
  0.00000000E+00  0.00000000E+00  0.00000000E+00
  0.00000000E+00  0.00000000E+00  0.00000000E+00
  0.00000000E+00  0.00000000E+00  0.00000000E+00
  0.00000000E+00  0.00000000E+00  0.00000000E+00
  0.00000000E+00  0.00000000E+00  0.00000000E+00
  0.00000000E+00  0.00000000E+00  0.00000000E+00
  0.00000000E+00  0.00000000E+00  0.00000000E+00
  0.00000000E+00  0.00000000E+00  0.00000000E+00
  0.00000000E+00  0.00000000E+00  0.00000000E+00
  0.00000000E+00  0.00000000E+00  0.00000000E+00
  0.00000000E+00  0.00000000E+00  0.00000000E+00
  0.00000000E+00  0.00000000E+00  0.00000000E+00
  0.00000000E+00  0.00000000E+00  0.00000000E+00
  0.00000000E+00  0.00000000E+00  0.00000000E+00
  0.00000000E+00  0.00000000E+00  0.00000000E+00
  0.00000000E+00  0.00000000E+00  0.00000000E+00
  0.00000000E+00  0.00000000E+00  0.00000000E+00
  0.00000000E+00  0.00000000E+00  0.00000000E+00
  0.00000000E+00  0.00000000E+00  0.00000000E+00
  0.00000000E+00  0.00000000E+00  0.00000000E+00
  0.00000000E+00  0.00000000E+00  0.00000000E+00
  0.00000000E+00  0.00000000E+00  0.00000000E+00
  0.00000000E+00  0.00000000E+00  0.00000000E+00
  0.00000000E+00  0.00000000E+00  0.00000000E+00
  0.00000000E+00  0.00000000E+00  0.00000000E+00
  0.00000000E+00  0.00000000E+00  0.00000000E+00
  0.00000000E+00  0.00000000E+00  0.00000000E+00
  0.00000000E+00  0.00000000E+00  0.00000000E+00
  0.00000000E+00  0.00000000E+00  0.00000000E+00
  0.00000000E+00  0.00000000E+00  0.00000000E+00
  0.00000000E+00  0.00000000E+00  0.00000000E+00
  0.00000000E+00  0.00000000E+00  0.00000000E+00
  0.00000000E+00  0.00000000E+00  0.00000000E+00
  0.00000000E+00  0.00000000E+00  0.00000000E+00
  0.00000000E+00  0.00000000E+00  0.00000000E+00
  0.00000000E+00  0.00000000E+00  0.00000000E+00
  0.00000000E+00  0.00000000E+00  0.00000000E+00
  0.00000000E+00  0.00000000E+00  0.00000000E+00
  0.00000000E+00  0.00000000E+00  0.00000000E+00
  0.00000000E+00  0.00000000E+00  0.00000000E+00
  0.00000000E+00  0.00000000E+00  0.00000000E+00
  0.00000000E+00  0.00000000E+00  0.00000000E+00
  0.00000000E+00  0.00000000E+00  0.00000000E+00
  0.00000000E+00  0.00000000E+00  0.00000000E+00
  0.00000000E+00  0.00000000E+00  0.00000000E+00
  0.00000000E+00  0.00000000E+00  0.00000000E+00
  0.00000000E+00  0.00000000E+00  0.00000000E+00
  0.00000000E+00  0.00000000E+00  0.00000000E+00
  0.00000000E+00  0.00000000E+00  0.00000000E+00
  0.00000000E+00  0.00000000E+00  0.00000000E+00
  0.00000000E+00  0.00000000E+00  0.00000000E+00
  0.00000000E+00  0.00000000E+00  0.00000000E+00
  0.00000000E+00  0.00000000E+00  0.00000000E+00
  0.00000000E+00  0.00000000E+00  0.00000000E+00
  0.00000000E+00  0.00000000E+00  0.00000000E+00
  0.00000000E+00  0.00000000E+00  0.00000000E+00
  0.00000000E+00  0.00000000E+00  0.00000000E+00
  0.00000000E+00  0.00000000E+00  0.00000000E+00
  0.00000000E+00  0.00000000E+00  0.00000000E+00
  0.00000000E+00  0.00000000E+00  0.00000000E+00
  0.00000000E+00  0.00000000E+00  0.00000000E+00
  0.00000000E+00  0.00000000E+00  0.00000000E+00
  0.00000000E+00  0.00000000E+00  0.00000000E+00
  0.00000000E+00  0.00000000E+00  0.00000000E+00
  0.00000000E+00  0.00000000E+00  0.00000000E+00
  0.00000000E+00  0.00000000E+00  0.00000000E+00
  0.00000000E+00  0.00000000E+00  0.00000000E+00
  0.00000000E+00  0.00000000E+00  0.00000000E+00
  0.00000000E+00  0.00000000E+00  0.00000000E+00
  0.00000000E+00  0.00000000E+00  0.00000000E+00
  0.00000000E+00  0.00000000E+00  0.00000000E+00
  0.00000000E+00  0.00000000E+00  0.00000000E+00
  0.00000000E+00  0.00000000E+00  0.00000000E+00
  0.00000000E+00  0.00000000E+00  0.00000000E+00
  0.00000000E+00  0.00000000E+00  0.00000000E+00
  0.00000000E+00  0.00000000E+00  0.00000000E+00
  0.00000000E+00  0.00000000E+00  0.00000000E+00
  0.00000000E+00  0.00000000E+00  0.00000000E+00
  0.00000000E+00  0.00000000E+00  0.00000000E+00
  0.00000000E+00  0.00000000E+00  0.00000000E+00
  0.00000000E+00  0.00000000E+00  0.00000000E+00
  0.00000000E+00  0.00000000E+00  0.00000000E+00
  0.00000000E+00  0.00000000E+00  0.00000000E+00
  0.00000000E+00  0.00000000E+00  0.00000000E+00
  0.00000000E+00  0.00000000E+00  0.00000000E+00
  0.00000000E+00  0.00000000E+00  0.00000000E+00
  0.00000000E+00  0.00000000E+00  0.00000000E+00
  0.00000000E+00  0.00000000E+00  0.00000000E+00
  0.00000000E+00  0.00000000E+00  0.00000000E+00
  0.00000000E+00  0.00000000E+00  0.00000000E+00
  0.00000000E+00  0.00000000E+00  0.00000000E+00
  0.00000000E+00  0.00000000E+00  0.00000000E+00
  0.00000000E+00  0.00000000E+00  0.00000000E+00
  0.00000000E+00  0.00000000E+00  0.00000000E+00
  0.00000000E+00  0.00000000E+00  0.00000000E+00
  0.00000000E+00  0.00000000E+00  0.00000000E+00
  0.00000000E+00  0.00000000E+00  0.00000000E+00
  0.00000000E+00  0.00000000E+00  0.00000000E+00
  0.00000000E+00  0.00000000E+00  0.00000000E+00
  0.00000000E+00  0.00000000E+00  0.00000000E+00
  0.00000000E+00  0.00000000E+00  0.00000000E+00
  0.00000000E+00  0.00000000E+00  0.00000000E+00
  0.00000000E+00  0.00000000E+00  0.00000000E+00
  0.00000000E+00  0.00000000E+00  0.00000000E+00
  0.00000000E+00  0.00000000E+00  0.00000000E+00
  0.00000000E+00  0.00000000E+00  0.00000000E+00
  0.00000000E+00  0.00000000E+00  0.00000000E+00
  0.00000000E+00  0.00000000E+00  0.00000000E+00
  0.00000000E+00  0.00000000E+00  0.00000000E+00
  0.00000000E+00  0.00000000E+00  0.00000000E+00
  0.00000000E+00  0.00000000E+00  0.00000000E+00
  0.00000000E+00  0.00000000E+00  0.00000000E+00
  0.00000000E+00  0.00000000E+00  0.00000000E+00
  0.00000000E+00  0.00000000E+00  0.00000000E+00
  0.00000000E+00  0.00000000E+00  0.00000000E+00
  0.00000000E+00  0.00000000E+00  0.00000000E+00
  0.00000000E+00  0.00000000E+00  0.00000000E+00
  0.00000000E+00  0.00000000E+00  0.00000000E+00
  0.00000000E+00  0.00000000E+00  0.00000000E+00
  0.00000000E+00  0.00000000E+00  0.00000000E+00
  0.00000000E+00  0.00000000E+00  0.00000000E+00
  0.00000000E+00  0.00000000E+00  0.00000000E+00
  0.00000000E+00  0.00000000E+00  0.00000000E+00
  0.00000000E+00  0.00000000E+00  0.00000000E+00
  0.00000000E+00  0.00000000E+00  0.00000000E+00
  0.00000000E+00  0.00000000E+00  0.00000000E+00
  0.00000000E+00  0.00000000E+00  0.00000000E+00
  0.00000000E+00  0.00000000E+00  0.00000000E+00
  0.00000000E+00  0.00000000E+00  0.00000000E+00
  0.00000000E+00  0.00000000E+00  0.00000000E+00
  0.00000000E+00  0.00000000E+00  0.00000000E+00
  0.00000000E+00  0.00000000E+00  0.00000000E+00
  0.00000000E+00  0.00000000E+00  0.00000000E+00
  0.00000000E+00  0.00000000E+00  0.00000000E+00
  0.00000000E+00  0.00000000E+00  0.00000000E+00
  0.00000000E+00  0.00000000E+00  0.00000000E+00
  0.00000000E+00  0.00000000E+00  0.00000000E+00
  0.00000000E+00  0.00000000E+00  0.00000000E+00
  0.00000000E+00  0.00000000E+00  0.00000000E+00
  0.00000000E+00  0.00000000E+00  0.00000000E+00
  0.00000000E+00  0.00000000E+00  0.00000000E+00
  0.00000000E+00  0.00000000E+00  0.00000000E+00
  0.00000000E+00  0.00000000E+00  0.00000000E+00
  0.00000000E+00  0.00000000E+00  0.00000000E+00
  0.00000000E+00  0.00000000E+00  0.00000000E+00
  0.00000000E+00  0.00000000E+00  0.00000000E+00
  0.00000000E+00  0.00000000E+00  0.00000000E+00
  0.00000000E+00  0.00000000E+00  0.00000000E+00
  0.00000000E+00  0.00000000E+00  0.00000000E+00
  0.00000000E+00  0.00000000E+00  0.00000000E+00
  0.00000000E+00  0.00000000E+00  0.00000000E+00
  0.00000000E+00  0.00000000E+00  0.00000000E+00
  0.00000000E+00  0.00000000E+00  0.00000000E+00
  0.00000000E+00  0.00000000E+00  0.00000000E+00
  0.00000000E+00  0.00000000E+00  0.00000000E+00
  0.00000000E+00  0.00000000E+00  0.00000000E+00
  0.00000000E+00  0.00000000E+00  0.00000000E+00
  0.00000000E+00  0.00000000E+00  0.00000000E+00
  0.00000000E+00  0.00000000E+00  0.00000000E+00
  0.00000000E+00  0.00000000E+00  0.00000000E+00
  0.00000000E+00  0.00000000E+00  0.00000000E+00
  0.00000000E+00  0.00000000E+00  0.00000000E+00
  0.00000000E+00  0.00000000E+00  0.00000000E+00
  0.00000000E+00  0.00000000E+00  0.00000000E+00
  0.00000000E+00  0.00000000E+00  0.00000000E+00
  0.00000000E+00  0.00000000E+00  0.00000000E+00
  0.00000000E+00  0.00000000E+00  0.00000000E+00
  0.00000000E+00  0.00000000E+00  0.00000000E+00
  0.00000000E+00  0.00000000E+00  0.00000000E+00
  0.00000000E+00  0.00000000E+00  0.00000000E+00
  0.00000000E+00  0.00000000E+00  0.00000000E+00
  0.00000000E+00  0.00000000E+00  0.00000000E+00
  0.00000000E+00  0.00000000E+00  0.00000000E+00
  0.00000000E+00  0.00000000E+00  0.00000000E+00
  0.00000000E+00  0.00000000E+00  0.00000000E+00
  0.00000000E+00  0.00000000E+00  0.00000000E+00
  0.00000000E+00  0.00000000E+00  0.00000000E+00
  0.00000000E+00  0.00000000E+00  0.00000000E+00
  0.00000000E+00  0.00000000E+00  0.00000000E+00
  0.00000000E+00  0.00000000E+00  0.00000000E+00
  0.00000000E+00  0.00000000E+00  0.00000000E+00
  0.00000000E+00  0.00000000E+00  0.00000000E+00
  0.00000000E+00  0.00000000E+00  0.00000000E+00
  0.00000000E+00  0.00000000E+00  0.00000000E+00
  0.00000000E+00  0.00000000E+00  0.00000000E+00
  0.00000000E+00  0.00000000E+00  0.00000000E+00
  0.00000000E+00  0.00000000E+00  0.00000000E+00
  0.00000000E+00  0.00000000E+00  0.00000000E+00
  0.00000000E+00  0.00000000E+00  0.00000000E+00
  0.00000000E+00  0.00000000E+00  0.00000000E+00
  0.00000000E+00  0.00000000E+00  0.00000000E+00
  0.00000000E+00  0.00000000E+00  0.00000000E+00
  0.00000000E+00  0.00000000E+00  0.00000000E+00
  0.00000000E+00  0.00000000E+00  0.00000000E+00
  0.00000000E+00  0.00000000E+00  0.00000000E+00
  0.00000000E+00  0.00000000E+00  0.00000000E+00
  0.00000000E+00  0.00000000E+00  0.00000000E+00
  0.00000000E+00  0.00000000E+00  0.00000000E+00
  0.00000000E+00  0.00000000E+00  0.00000000E+00
  0.00000000E+00  0.00000000E+00  0.00000000E+00
  0.00000000E+00  0.00000000E+00  0.00000000E+00
  0.00000000E+00  0.00000000E+00  0.00000000E+00
  0.00000000E+00  0.00000000E+00  0.00000000E+00
  0.00000000E+00  0.00000000E+00  0.00000000E+00
  0.00000000E+00  0.00000000E+00  0.00000000E+00
  0.00000000E+00  0.00000000E+00  0.00000000E+00
  0.00000000E+00  0.00000000E+00  0.00000000E+00
  0.00000000E+00  0.00000000E+00  0.00000000E+00
  0.00000000E+00  0.00000000E+00  0.00000000E+00
  0.00000000E+00  0.00000000E+00  0.00000000E+00