Amorphous Sb                            
   1.00000000000000     
    21.8834391267152029    0.0000000000000000    0.0000000000000000
     0.0000000000000000   21.8834391267152029    0.0000000000000000
     0.0000000000000000    0.0000000000000000   21.8834391267152029
   In   Te
   180   120
Direct
  0.6701387652429195  0.4436827257881301  0.8020381401568197
  0.7180284974756589  0.0656747916622057  0.5889794719044377
  0.0990173968535927  0.9320202936386148  0.8950615994347951
  0.4773485911095644  0.4129325413679996  0.3623932686102104
  0.5381548017692500  0.2531573364292767  0.3377750227638237
  0.6042570111518765  0.1691472839099024  0.9168878378408917
  0.5911190248678441  0.9940936794649522  0.1497879729791180
  0.5173894757564859  0.7153185036921665  0.7694722496654577
  0.0863488324365959  0.8442577303921144  0.6961432171777282
  0.6975537025619566  0.8797364940292971  0.0398780941029644
  0.4361800786859569  0.0393891425640156  0.2033648257933821
  0.9559901447375120  0.7387503754302200  0.7349386696384973
  0.5513708897188189  0.0856630206095632  0.6909980087051159
  0.6993787723552078  0.4018250155232022  0.3444374216092082
  0.6436030143057274  0.9203420278332314  0.2584732026420435
  0.3728131700705187  0.8209222087614725  0.7177373173947387
  0.4591740092218987  0.2895525728541792  0.6461128965215319
  0.0709073211032623  0.0939175150318052  0.0574772147867069
  0.3392771795086513  0.3018732984079963  0.5918903054005842
  0.2315328714022857  0.2942474031036597  0.2342513933326422
  0.8613206209308369  0.4400627732403610  0.3067813410486979
  0.9110200990554670  0.1673971001507952  0.4818032862780969
  0.5668425038475405  0.7410277356583104  0.2518064355147974
  0.6234681192271456  0.8372385551978985  0.9181645278153554
  0.2127915601637068  0.6059513448607916  0.7573782039596786
  0.7973946327602894  0.8950852475603192  0.2035681375279614
  0.0277687636074825  0.1729425498352905  0.5882921632111380
  0.9404400056523761  0.0005781761898642  0.7563123418622839
  0.9765587741199808  0.9881132972088036  0.0300052744520783
  0.2805134287778540  0.2621388191959403  0.1154912113600884
  0.9538328200028472  0.3012555407027254  0.4822832249952277
  0.3616261334375898  0.0166569153633187  0.3917502625551993
  0.2682091411989770  0.9786357412142226  0.6027250716959341
  0.8341611487110201  0.5174251945403496  0.7642149184884365
  0.5801028295385430  0.9687431172255032  0.4480332467492800
  0.8351032778369848  0.0700356109644290  0.1876670878116726
  0.1006809083437651  0.3243065375627633  0.3935308816768882
  0.5931969020847491  0.9093703358373354  0.6829125227169077
  0.8123503764418312  0.6115974511956360  0.9852436328632169
  0.0559950788565639  0.8035304415001358  0.2670085702011338
  0.0683158836470184  0.2965889340812457  0.0786069746465186
  0.0007932269093065  0.9686068635024481  0.1737630525969394
  0.4480107648959153  0.0496889671568306  0.9233001985344649
  0.8088842981643258  0.7355212115596170  0.4751601951391761
  0.9849474429397925  0.8736979678889280  0.6190214131421726
  0.5460966708299364  0.5487058325201165  0.8830446125616841
  0.2490794887547096  0.6415247360129865  0.2278659186344884
  0.6166926411819352  0.5236033299832261  0.0628500407544428
  0.8756105437495488  0.0283705063978530  0.3208863939784978
  0.9923964357112115  0.5816098603491282  0.3472026976647843
  0.2025641512883102  0.3361596339201839  0.0268968847425224
  0.3332079353164842  0.2238066450844153  0.4024225749785328
  0.7293308311329356  0.0418329150301548  0.4316985721249753
  0.1183272790316139  0.4494342607017171  0.6944763828727241
  0.3886044978545915  0.9151239821044066  0.9233640762613763
  0.1897867334251957  0.4171785436002136  0.5560603560351143
  0.7160541952098209  0.5643993990360296  0.6093915140949553
  0.5177814973358459  0.0995874540681854  0.4402640179668090
  0.9719350224451034  0.3911383779429469  0.1989119486108330
  0.5693449297853633  0.6069030235355725  0.6857265606186144
  0.8671722071957879  0.6768700553221668  0.6442881191562579
  0.5629042185372526  0.5555858295476934  0.2371901162062113
  0.2812685436220289  0.2439111427260615  0.7707522070715473
  0.8211802632337699  0.4727049852482111  0.9604236221908524
  0.3523433472776333  0.8038045842134202  0.5620965624718912
  0.4073728310947870  0.2906328640952275  0.9737240536880629
  0.2000737875326103  0.7979714970365389  0.7366395178896131
  0.4450626582080415  0.8261613678800708  0.2824808759527044
  0.4826305822204480  0.2365890026037526  0.1327628353450279
  0.8358422202056213  0.3277910836444465  0.6142269299309002
  0.1169276017590382  0.6023016425985814  0.5908401537133298
  0.7493347709666811  0.8912803767173636  0.8039009462034392
  0.1491147824000878  0.0342557268351201  0.6259418529641204
  0.4299830817554104  0.1425767744009465  0.5428264685540567
  0.9773805777384462  0.2590519360593598  0.2958526067582539
  0.7269206322784736  0.2220939759107959  0.4556456027497568
  0.2614643944062579  0.5613988573596974  0.4911708739064769
  0.7039368603851001  0.1168106954070550  0.2524825658296277
  0.4384064421911796  0.6694472238428414  0.6231123353436226
  0.8282257168193771  0.2678185068118870  0.2999949112580477
  0.8141593658254418  0.6700219003475980  0.3500559465430002
  0.9604812525907708  0.4981459632007569  0.8976852067065625
  0.0802397889519556  0.6574874356812664  0.8507704634739903
  0.3477014403497463  0.5123029001861528  0.9086772246796151
  0.9468933777634081  0.2327781591139602  0.1599102424185356
  0.8427462193501462  0.5514257616010075  0.1097436711592511
  0.4080663832240251  0.2056922055394658  0.8273631469333570
  0.4355989514920866  0.6412700279485009  0.2465023652306013
  0.6698560358246420  0.6600195666961496  0.2113973464470264
  0.9744328671453339  0.5411951679764367  0.0472933242684212
  0.8045100866349236  0.3882843408309314  0.8428173838486684
  0.8733521560755565  0.1246365714217444  0.6236713449104799
  0.9126196326704019  0.1348906394881270  0.9147349269286812
  0.6114521754108241  0.2404341871145018  0.5351366679832943
  0.0108712883078953  0.5522449018537710  0.7219672121701013
  0.7862864383395155  0.9160377332123717  0.4956355359966551
  0.2356439964609965  0.8470762181984052  0.2483624422991454
  0.6058414019725692  0.7374031082205278  0.6025639453624682
  0.2494992573939002  0.8901555758625247  0.4345684454116235
  0.2119209724501068  0.6323728501954076  0.9916202291456788
  0.3349959727605365  0.7450738846514044  0.8963994114560143
  0.5902080009684284  0.5579445718873643  0.4626474360968013
  0.7996383842633443  0.9653785517932599  0.9224761119235290
  0.6324364889784623  0.2117530365653155  0.7516999566957885
  0.2164157053462923  0.4106321598719995  0.8448908253839438
  0.1659283863283024  0.2385464570359274  0.8454747642043612
  0.1226899344697834  0.8984715296948075  0.0913191601027379
  0.7470264322080353  0.8245693652391385  0.6441933458863148
  0.6133396809079724  0.7512110428843760  0.0242932272464308
  0.8726521550224922  0.7998140471185261  0.9486368068146546
  0.1140243793524851  0.2938911847762743  0.7016178631469510
  0.3324154839051344  0.1174627874623414  0.0542546809957197
  0.0915755285679105  0.9141496939779562  0.5045144766728973
  0.7113783715991349  0.6357266921375234  0.9032238349605106
  0.8432089960515674  0.2358099453622456  0.7526966508976920
  0.8920382883563858  0.4330691249446963  0.5016142888246179
  0.1450487169579459  0.1707524437282681  0.4674021621747386
  0.5507159631094376  0.0348706539144141  0.3079108762801737
  0.2856489845549810  0.4632374651149007  0.1234141018662825
  0.1227715364149781  0.4975644808558101  0.2103329706948125
  0.2374035335129022  0.7100844357881229  0.3787012684879313
  0.7043387491899964  0.0958719948221567  0.8337539028445806
  0.5075782359831248  0.8190993252855622  0.4926547858035639
  0.6862040719977659  0.8073069724214857  0.4203257984046161
  0.4983984790838287  0.6022576886878859  0.0402440771223414
  0.9458839177407138  0.8567347985757303  0.8559059946697634
  0.6914316591077412  0.3502056522473469  0.9776581953436221
  0.0021199166975871  0.7306240530088958  0.4749711762388818
  0.3158006559596955  0.6589921324256791  0.0806262767595414
  0.9327479483475466  0.6580239328009595  0.1578468590758624
  0.6999729400809563  0.3924727520237793  0.5272760052750490
  0.0261912416605625  0.2990302546256423  0.8074014450514025
  0.2612685838537895  0.0726806826575283  0.2780738793393204
  0.4221819200558533  0.5492531268551379  0.5226157965933779
  0.1129488652401054  0.1704747784731364  0.2431165934814998
  0.9414963953607087  0.0034939562398727  0.5995612665935183
  0.3710575246704015  0.3444356044614729  0.3899905800046106
  0.5164941328737369  0.9918601780001259  0.0266906828181346
  0.4807844375313413  0.7077065616489238  0.3741477470739462
  0.2525729087523415  0.9457011933863841  0.8711446038612684
  0.4897856001364119  0.8688834745199564  0.1323033156702371
  0.2885102322705547  0.9117507826814507  0.1160443466520272
  0.7975607257211027  0.3623211801752902  0.1972499868345899
  0.3944624999880558  0.6344135762797269  0.7867643281703828
  0.7977358906604787  0.7261010222267235  0.1503846118672419
  0.2530481244116420  0.1470763974406788  0.9585548254868398
  0.0873274013300812  0.4847954805500124  0.9578764083164210
  0.3686268874918462  0.7880545374209063  0.0951087834212110
  0.9643910776596905  0.8784649566204701  0.4612978431925654
  0.8276216203581468  0.2609888172158727  0.0020677700414416
  0.9594867503994072  0.3818297251092642  0.9816577055704896
  0.4772591936218630  0.3349786390765457  0.8820312044208375
  0.4034040839729208  0.0131157107099275  0.5766686255693830
  0.1517706367986942  0.0224105998587504  0.3323804796683338
  0.6223435667550828  0.3494665728047478  0.1834943443450220
  0.6372583268336700  0.0626814286947502  0.0026080201061577
  0.9155694168276247  0.6153774606569392  0.5259816363987802
  0.6846523199965285  0.5030978044982145  0.2604375871101748
  0.7722316700267067  0.7212963297249163  0.7472194083217466
  0.0810640630681814  0.5687865040518427  0.4339525023999920
  0.2130345174390465  0.4989899999453859  0.3078298087669137
  0.4978840901446325  0.4495153113774034  0.0818721423391942
  0.4840647029375549  0.3698071602554023  0.5318226737231251
  0.9438986431292009  0.8141989221029894  0.1205110033816438
  0.5179056140113665  0.9523213365642954  0.8302835894546734
  0.0191534031753737  0.0597570694849735  0.3295662696494489
  0.6715574090841032  0.1764193047411577  0.0877427741383407
  0.6463264172555280  0.4464077865392150  0.6648520252952980
  0.8560505805886600  0.8323072884167223  0.3722695395302446
  0.9949446444120040  0.1451883920625008  0.7869946283494733
  0.1403730826374440  0.7789101850062273  0.9695361923537603
  0.1838620617901872  0.0694439041871364  0.8053722353184875
  0.3688217748566399  0.8182989912867391  0.4077519498937789
  0.9756288804734728  0.4237420793488486  0.6470912287719743
  0.8840590822424507  0.0848526200991871  0.0625978924546197
  0.0766459855170004  0.6932652195975698  0.1421210457802193
  0.2162544577440280  0.0518772364225369  0.1472257870785267
  0.4152350414209022  0.3075113508689756  0.2357471083789690
  0.4117712231132520  0.4733975350043413  0.6828584194584079
  0.6844306449759344  0.6299279278221906  0.3557976692663206
  0.6951282825337525  0.6499701494475207  0.0765315436127989
  0.3270270611675474  0.0855896929907497  0.8667966523903881
  0.9366649352162034  0.6123180680691374  0.8238554375048522
  0.4940424755210291  0.8605491635226412  0.9879369635171612
  0.7624429861433412  0.7655521336353456  0.8790963027038110
  0.7936544140376631  0.5736847503002143  0.2430448265730555
  0.7568791068122109  0.9524342066340225  0.3355565057330888
  0.5992440228193077  0.6847365298544379  0.4507446015584377
  0.4536340051070344  0.1677216162205299  0.0120660817950682
  0.2886136276587752  0.9209119512070171  0.7260654294722100
  0.5897900707829901  0.3138821267064810  0.6415153839961552
  0.1273665304625912  0.1312810218713954  0.9231232164136796
  0.8804302747031316  0.5460634479341185  0.4068058888807827
  0.6413306739161015  0.8207549746756545  0.1567263336828422
  0.4186056611782257  0.3501185145551378  0.7613727910290351
  0.2819068273778365  0.8374423420500755  0.9762974314198095
  0.4795160331741362  0.7995766651839289  0.6434982672090680
  0.4580886466632015  0.4586739289548001  0.9340508977668565
  0.9049742388668507  0.6953454632366923  0.0107359752351029
  0.8978431234952745  0.9933296441109087  0.4625522513223177
  0.2813049463650586  0.2731954225098051  0.9373499240723878
  0.0885501474228157  0.9762285350508046  0.7339213325716606
  0.4909810662095542  0.2370220178503349  0.4773050171916954
  0.2173175383626756  0.5380434288259472  0.6351240806732934
  0.9741687430459646  0.3819322407619415  0.3729953364629745
  0.3053241341778906  0.3996779273945638  0.2720859954042518
  0.7082082338884942  0.5106680500681940  0.4556103689568258
  0.0674670836191773  0.0373292850932808  0.5287140782750033
  0.1652033718242993  0.1798299717797373  0.1111971032428521
  0.1306375255361148  0.6798555252897315  0.2942136011030108
  0.6649935222718366  0.5023323058605506  0.9442332942080117
  0.5004185495937860  0.7251362364112135  0.1088652124602064
  0.1563677182400917  0.6655570854899973  0.4808210939837266
  0.1131619498882087  0.5187587591682286  0.8184019599946206
  0.9343564817253879  0.4138415953946054  0.7930877485469682
  0.3318927336207230  0.7396551701719593  0.2304500130861537
  0.5679833430089055  0.8446280324362547  0.3624641110040275
  0.5748849639981540  0.1183421721203080  0.1859264643344996
  0.7856687343357338  0.1212623896957477  0.9567048332849443
  0.9645478747511006  0.2015025232417587  0.0245102703223989
  0.7508381021517182  0.7729572695679151  0.2825207636407318
  0.0583434857833972  0.8066987645668694  0.8322109173835235
  0.4441054066611728  0.1668935874552967  0.6740515968665364
  0.2435787949343456  0.0339754391256495  0.4547770092655156
  0.8951452929623009  0.8822043308397866  0.7313787007641080
  0.8419032969057971  0.1091042350802889  0.7811859180228132
  0.8791308128955130  0.8015392667199570  0.5654325885159288
  0.1313986257988540  0.9511694348965557  0.2108402659107713
  0.0179683029740934  0.5294021265830250  0.5435226801993175
  0.7345628744224020  0.6997790060357650  0.5830936217243802
  0.4081387421250263  0.1327647121509354  0.3514205666752380
  0.1017972128295853  0.3204186620977483  0.2338635097670187
  0.3450078106510607  0.4052325286556168  0.5044850211178782
  0.6076252828584209  0.3115254073436201  0.8579901623862698
  0.3867234099967331  0.6858564646580479  0.4956312014503347
  0.3897426586620332  0.9964637457302165  0.0717247200545691
  0.6640620077509499  0.0247128767145977  0.7146607636336154
  0.9452493634884164  0.7135238496776940  0.3441219789747508
  0.5158916231445672  0.1131678342291056  0.8292574408114298
  0.5954378570018848  0.3671955274124839  0.4250112969596774
  0.3582269196116639  0.9455314526398163  0.2865366359964818
  0.2051662416655373  0.8599034175735536  0.5651397984401642
  0.5817229281969032  0.6770097411953224  0.9019333854038549
  0.7558546813621905  0.3325533848038532  0.7333347873227103
  0.9977327394538682  0.5463920178141753  0.2249246206010586
  0.7110294698049796  0.4422397412479015  0.1353787351197311
  0.4280729886417000  0.8077087316107043  0.8359604385413782
  0.8907243586229736  0.2760588474701057  0.8785810554792738
  0.0762724048391208  0.6758625496074955  0.6856678699783675
  0.1598646744873171  0.4667649109329912  0.4237309858395468
  0.4037350411979878  0.5552055105575425  0.1327122606945758
  0.0120805158891376  0.1859886124947516  0.4015083952814388
  0.7646661072175286  0.1949359946412092  0.5815637729084575
  0.0895343634331067  0.3048811362094451  0.5537102281402617
  0.9241157270509887  0.8962208161354827  0.2685824695502508
  0.2997494773629952  0.1954806019734837  0.5288932322584529
  0.6398855782091649  0.1384579117471323  0.3792765534040137
  0.7921771420443375  0.3424006303184832  0.4278681333025479
  0.0739300532056126  0.4427541110905261  0.0934311334593067
  0.5303818190331328  0.4975365141037209  0.7541148566615539
  0.9436706520359585  0.2498640738602812  0.6737717546227623
  0.6217013663190643  0.8860884135682742  0.5555887534706926
  0.1858652182759912  0.7800827997157528  0.1208400786668548
  0.7989990858132162  0.9773312807825379  0.6313386089521728
  0.4048490491186666  0.6346673148731309  0.9382521577976551
  0.1962393686667069  0.9850319352167408  0.0198165787292232
  0.5949905221083647  0.3049607171604604  0.0670792738011106
  0.3897472412956285  0.3536055073387162  0.0896025884151685
  0.2442429732317146  0.3415149961148174  0.6775504260719892
  0.6835157548270119  0.2811265712291048  0.2665045822593587
  0.5176389259346036  0.4185921551669230  0.2241676773814334
  0.9601469651368132  0.9860782851294462  0.8931778242455259
  0.4326830909697667  0.9396428856077054  0.4687986973220049
  0.2959378349176287  0.7154408055480791  0.6898569181314763
  0.7122561745449181  0.9945104664738830  0.1050502618563511
  0.0295031456903842  0.8588062512790761  0.0111208874853569
  0.8616674723192713  0.5185977628501502  0.6328155116341175
  0.7144473363883718  0.5962762074621993  0.7663026076296646
  0.2333782195714980  0.4775514722910607  0.9713981578848679
  0.8097990706722836  0.2140648136670813  0.1574673263370037
  0.4733418588785592  0.9761167196615629  0.6869072560381818
  0.5940542128614763  0.0986607305486061  0.5674203547859012
  0.6500417574165738  0.9843005363311453  0.8921747241026914
  0.6348069517557560  0.8074047312103234  0.7586841300207755
  0.2215464699416094  0.2053007670975533  0.3366283199761955
  0.1020840112319627  0.3382397434038560  0.9184451202197540
  0.9884795789078362  0.1054209823570345  0.1933711668197169
  0.2122707277090589  0.7039255292094878  0.8528122336097165
  0.3474510304686745  0.1454998840400062  0.1750887613706526
  0.3153058020591603  0.5110370703757371  0.7832643187943364
  0.3081533250985927  0.5855047415591261  0.3357626950070776
  0.1189306553684784  0.1578397692280525  0.6929745507204226
  0.8408294666284067  0.8791196150931149  0.0549091091622431
  0.1889313183845528  0.5846373119037486  0.1281397177063924
  0.8068164057214149  0.1532691550258047  0.3784325289006887
  0.4870303179328471  0.5497161492004585  0.3746867339940563
  0.5434092693457669  0.5038155134588108  0.5753373749635254
  0.1184826609901569  0.8914039950632064  0.3681186440430392
  0.8753352490797540  0.4093211782388289  0.0875521667312065
  0.0654284700227371  0.6336152177556976  0.9921124596145799
 
 -0.98159980E-03 -0.15682373E-02  0.35283638E-03
  0.41667313E-03 -0.22628417E-04 -0.21118363E-02
  0.13026384E-02  0.66342389E-03 -0.11511129E-02
 -0.29144343E-02  0.57304914E-03 -0.10671871E-02
 -0.24424228E-02  0.67178318E-03  0.30738097E-02
 -0.12380205E-02  0.60718047E-03  0.40951638E-02
 -0.62731727E-05 -0.52093246E-03 -0.16084285E-02
  0.80211341E-03  0.20040580E-02  0.35260020E-03
 -0.48667348E-03 -0.63592935E-04  0.30924797E-03
 -0.53489067E-03  0.12584731E-02  0.39105127E-03
  0.24070648E-03 -0.11605818E-02 -0.84861812E-03
 -0.57093393E-03 -0.33914882E-02  0.31691775E-03
  0.11536488E-02 -0.60970705E-03  0.63290157E-03
  0.56064081E-03  0.76614461E-03  0.88566351E-03
  0.25230650E-03  0.16752486E-03  0.32731116E-02
 -0.83702636E-03 -0.26322119E-02 -0.18347561E-02
  0.59129491E-03  0.68472393E-03  0.15380281E-02
 -0.15869620E-02 -0.98150136E-03  0.14951796E-02
 -0.10326691E-02 -0.81872439E-03  0.29149636E-02
  0.86760404E-04  0.11425662E-02  0.24278446E-02
 -0.22783111E-02 -0.40293908E-03  0.52357276E-03
 -0.35488119E-03 -0.84791590E-03 -0.12757812E-02
 -0.23558954E-02  0.72350986E-04  0.84260526E-03
  0.33206009E-03 -0.95088835E-03 -0.42533159E-03
 -0.14060478E-02 -0.55132974E-03  0.18932797E-02
 -0.20838911E-02  0.84403989E-03 -0.25580228E-02
  0.15100008E-02  0.20452745E-02 -0.16974816E-02
 -0.17685515E-03 -0.73257294E-03  0.16868803E-03
 -0.34689503E-03  0.98335877E-03 -0.13102782E-02
  0.15244248E-02 -0.27545174E-02  0.10349179E-02
 -0.63864692E-03  0.19223367E-03 -0.27440061E-03
  0.24551027E-02  0.17472569E-02  0.41001827E-03
  0.13789475E-02 -0.21018374E-02  0.19032070E-02
  0.83926412E-03  0.23321806E-02  0.25537545E-02
 -0.16965491E-02 -0.27875304E-03 -0.16779155E-02
 -0.94337958E-03  0.90426605E-03  0.12879693E-02
 -0.47715163E-03 -0.23934689E-02 -0.28071690E-02
  0.12652641E-02  0.66087702E-03  0.48340691E-03
  0.17956183E-02  0.22747651E-03 -0.11894520E-02
 -0.14073409E-02  0.13081636E-02  0.26951468E-03
 -0.72862416E-03 -0.12888695E-02  0.21608619E-02
  0.17128761E-02 -0.26320659E-02  0.59143060E-03
  0.22338273E-03 -0.86673083E-03 -0.83052024E-04
  0.12088151E-02 -0.22443785E-04 -0.32381174E-03
  0.37638208E-03  0.29400387E-02  0.63318378E-03
 -0.97024891E-03  0.10837196E-02  0.73422312E-03
 -0.14933041E-02 -0.38248452E-03 -0.53081899E-04
  0.14200156E-02  0.11456101E-02 -0.28808270E-02
 -0.83135283E-03 -0.20415590E-02  0.29321870E-02
  0.18556601E-02  0.11665783E-02  0.21799334E-02
 -0.12749326E-02 -0.14994222E-04 -0.67754843E-03
 -0.17375568E-02 -0.15712379E-02  0.21488928E-02
  0.19206888E-02  0.93631613E-03  0.37118886E-02
  0.17239668E-02  0.14718800E-03  0.11859642E-02
 -0.60132245E-03 -0.22547580E-03  0.15529495E-02
  0.75944643E-03 -0.10016642E-03 -0.31037566E-03
 -0.72743657E-03  0.50199280E-03  0.17329813E-03
 -0.44048513E-03  0.77670733E-03  0.13251002E-02
  0.14134680E-03 -0.19017870E-02  0.24205019E-02
 -0.21676060E-02  0.30962256E-03 -0.21681545E-02
 -0.14500444E-02  0.14838448E-02  0.10514548E-02
  0.43252100E-03 -0.12735440E-02  0.77692752E-04
 -0.97032474E-04 -0.12991811E-02  0.79758359E-03
 -0.15116814E-02  0.73546853E-03 -0.14512992E-02
  0.15488090E-02 -0.17748935E-02 -0.17899811E-02
 -0.30234243E-02 -0.46011143E-03 -0.97719929E-03
 -0.17533642E-03 -0.10139580E-03  0.33367449E-03
  0.12265319E-02 -0.23143813E-02 -0.11392631E-03
  0.69566461E-03 -0.15396159E-02  0.21631206E-04
  0.15408257E-02 -0.18829712E-02  0.12475798E-02
 -0.66289681E-03 -0.76893137E-03 -0.26482522E-02
  0.11137624E-02 -0.38020848E-03  0.60473623E-03
 -0.17714833E-03  0.66627116E-04 -0.23022077E-02
 -0.11304171E-02  0.88959397E-03 -0.50928526E-03
 -0.20987644E-02  0.85817672E-03 -0.59697903E-03
  0.13663131E-02  0.13389609E-02 -0.12210453E-02
  0.92713144E-03  0.12549711E-02  0.65579551E-03
  0.12240182E-02 -0.42575817E-03  0.18742871E-03
  0.84988790E-03 -0.58353618E-03  0.36579742E-02
  0.32816793E-02  0.17742648E-02 -0.80475327E-03
  0.57548064E-03  0.23286525E-02 -0.77375585E-03
 -0.45454881E-03  0.29956248E-02  0.32691274E-03
  0.20538050E-02  0.89090852E-03  0.14308319E-02
 -0.93698527E-03  0.69504738E-03  0.91314643E-03
 -0.21572051E-02  0.18385101E-02 -0.22831764E-02
 -0.72366179E-03  0.91311534E-03  0.22398000E-03
  0.62058253E-03 -0.13775297E-02 -0.90129586E-03
 -0.41716099E-03  0.64788236E-03  0.78690443E-03
 -0.18296098E-02  0.16569072E-02  0.52282310E-03
  0.12748374E-02 -0.54027578E-03  0.11215208E-02
  0.16763675E-03  0.23819318E-03 -0.15050518E-02
  0.20169641E-02  0.91715356E-03 -0.13402473E-02
  0.13614265E-02  0.11493634E-02 -0.30173000E-02
 -0.17998577E-02 -0.62276669E-03  0.41956158E-03
 -0.10331538E-04  0.41857789E-03  0.57087180E-03
 -0.67433164E-03  0.10645551E-02 -0.11061468E-02
  0.12547137E-02 -0.24094680E-03  0.64157666E-03
 -0.28576338E-03  0.24632864E-03 -0.22027373E-02
  0.22476868E-02  0.17592570E-02  0.77111793E-03
 -0.23523993E-03 -0.20305094E-02  0.16791157E-02
 -0.18440100E-02  0.16836660E-02  0.20459321E-02
 -0.82110145E-04  0.99360398E-04  0.12814348E-02
  0.11045142E-02  0.15718562E-02  0.33650550E-02
 -0.19627949E-03 -0.98750179E-03  0.22263900E-02
  0.18636131E-02  0.70888329E-03  0.62605748E-03
 -0.22260535E-02  0.18603808E-02 -0.69724365E-03
  0.77444585E-04 -0.94474675E-03  0.25704971E-02
 -0.51896046E-03  0.19657929E-03 -0.29325762E-02
 -0.42009767E-03  0.19613746E-02  0.19119426E-02
 -0.16591761E-04 -0.89569877E-03 -0.25451412E-02
  0.33090491E-03 -0.16803871E-03 -0.46908661E-03
 -0.13769849E-02 -0.90432417E-03 -0.34834990E-02
 -0.21200922E-02  0.71198209E-03  0.60341226E-03
 -0.47871007E-03 -0.62443624E-03 -0.15752959E-02
  0.27197006E-02  0.16914424E-02 -0.13938772E-02
 -0.70925955E-03 -0.23153542E-02  0.14209625E-02
  0.13545063E-02  0.14787927E-02  0.49318713E-03
 -0.22322378E-02 -0.47959049E-04 -0.63762203E-03
 -0.13600070E-02  0.34325256E-02 -0.14581518E-02
  0.21391687E-02 -0.16068934E-02  0.14197074E-03
  0.15269268E-04 -0.18965248E-02  0.17435188E-02
  0.50322402E-04  0.13824243E-02  0.12020443E-02
  0.17761521E-02  0.54902749E-03  0.11981355E-02
 -0.48906904E-03 -0.20519763E-02  0.84566243E-04
 -0.28697747E-03  0.16587520E-02  0.57365250E-03
  0.51540109E-03 -0.41572202E-03 -0.80327997E-03
 -0.27743249E-04 -0.96802260E-03 -0.17523192E-02
 -0.29657274E-02 -0.15712931E-02  0.56308896E-04
  0.34478661E-03  0.43342505E-02 -0.58910667E-03
  0.47454930E-03 -0.14511725E-02  0.42116316E-03
 -0.15775030E-02 -0.64491268E-03 -0.59399455E-05
  0.19717374E-02 -0.29686695E-03 -0.16991959E-02
  0.15026044E-02 -0.65866957E-03 -0.94988732E-03
  0.31037276E-02 -0.54443767E-03 -0.64364840E-04
  0.85217666E-03  0.19404464E-02 -0.16356570E-02
  0.13359796E-02  0.73811395E-03  0.91241912E-03
 -0.17070466E-02  0.14402034E-02 -0.19000835E-02
 -0.13456041E-02  0.14031031E-03 -0.21441371E-03
 -0.30267476E-03 -0.30820989E-03  0.52967596E-03
  0.34498113E-03  0.14141295E-02  0.13638827E-02
  0.74210403E-03  0.89404877E-03 -0.10246097E-02
 -0.31312700E-02 -0.19408192E-02  0.21388684E-02
 -0.20829258E-02  0.55903083E-03  0.80457625E-04
  0.12439802E-02 -0.31359863E-02  0.69887222E-03
  0.12138081E-02  0.23639904E-02 -0.12696163E-02
 -0.26984337E-02  0.48483379E-03 -0.21993600E-02
 -0.12222068E-02  0.72974936E-03  0.11880307E-02
  0.18837428E-02  0.48936172E-03  0.34528229E-03
 -0.93655906E-03 -0.25919670E-02  0.14794344E-02
 -0.11449025E-02 -0.10072309E-02  0.19594381E-02
  0.38049275E-02 -0.44489763E-02 -0.56149628E-03
 -0.36333553E-03  0.27558768E-02 -0.92721750E-03
  0.51754922E-03  0.17974064E-02  0.10271407E-03
 -0.84457517E-03  0.19806694E-02 -0.26210284E-02
  0.10800943E-02  0.12481476E-02  0.21156542E-02
  0.10385003E-02  0.18605523E-02  0.31927357E-03
 -0.19702552E-02  0.17353977E-02  0.20275417E-02
  0.17720073E-03 -0.94911640E-03  0.13321396E-02
 -0.16506787E-02  0.13925181E-02 -0.52572087E-03
 -0.22336710E-02 -0.15928468E-02 -0.18296561E-02
  0.78399993E-03 -0.25863616E-02 -0.12913590E-03
  0.10986168E-02 -0.97107749E-03 -0.11906422E-02
  0.10075303E-02  0.19017944E-02 -0.82547906E-03
  0.84092728E-03  0.79100703E-03  0.39472358E-03
  0.17291798E-02  0.11699792E-02  0.13497603E-02
 -0.42297410E-03  0.22385284E-03 -0.14179889E-02
  0.25629076E-02 -0.39872840E-03 -0.56151082E-03
  0.30837195E-02  0.22299860E-02 -0.18673259E-02
 -0.60840617E-03 -0.69567954E-03 -0.97897322E-03
 -0.55993502E-04 -0.84453845E-03 -0.24919055E-02
  0.10800898E-02  0.39370184E-03 -0.75904903E-03
 -0.29103280E-02 -0.28054871E-02  0.11618503E-02
 -0.64373825E-03 -0.17467373E-02  0.11727270E-03
  0.12728132E-02  0.81237875E-04  0.45728678E-02
 -0.53893048E-03  0.37466409E-03 -0.23011066E-02
  0.71524007E-03  0.40456289E-03 -0.13513647E-02
 -0.52092204E-03 -0.10871001E-03  0.18183359E-03
 -0.11964837E-02 -0.17485096E-02 -0.49638229E-03
  0.19540545E-02 -0.23277313E-02  0.39493555E-03
 -0.25436525E-02 -0.28089414E-02  0.59950940E-03
  0.17950042E-03 -0.13092240E-02 -0.16169564E-02
 -0.56708551E-03 -0.69178978E-03 -0.92051767E-03
  0.57837644E-03  0.30011596E-02 -0.14965792E-02
 -0.38366816E-03 -0.96785468E-03 -0.24832389E-03
 -0.29866407E-02 -0.15888179E-02  0.91250485E-03
  0.10652106E-02  0.27843962E-02 -0.88600774E-03
  0.13080631E-02  0.14601704E-02  0.17029032E-02
 -0.19347622E-02  0.21107067E-03 -0.50158302E-03
  0.27256916E-02  0.50889133E-03 -0.19555464E-02
  0.15676507E-02  0.13062656E-03 -0.11787042E-02
 -0.13082765E-02 -0.10134147E-02 -0.98549895E-03
  0.77879927E-03  0.54233685E-03 -0.72650252E-03
 -0.13064190E-02 -0.16566027E-02 -0.41133609E-03
 -0.11628302E-02  0.12322744E-03 -0.53029855E-03
 -0.40504017E-03 -0.21597780E-02 -0.16521271E-02
  0.21649936E-02  0.17414130E-03 -0.48957103E-03
 -0.13086798E-02 -0.19083430E-02 -0.50538677E-03
 -0.15954732E-02 -0.61028646E-03  0.21616910E-02
 -0.15626518E-02  0.17025483E-02 -0.16677193E-02
  0.98388929E-03  0.30992981E-03  0.17499266E-02
  0.18571706E-02  0.94999269E-03  0.12670749E-03
 -0.11366789E-02 -0.22916149E-03 -0.44071188E-03
  0.23412511E-02 -0.37056738E-04 -0.11935696E-02
  0.10570626E-02  0.96957063E-03  0.86892157E-03
 -0.75502108E-03 -0.73261727E-03 -0.29413028E-02
 -0.26195529E-03 -0.14061166E-03 -0.12203935E-02
  0.12800791E-02 -0.18123849E-02 -0.33025530E-04
 -0.17270090E-03  0.11774501E-02 -0.69261208E-03
 -0.60871743E-03 -0.12382009E-02  0.25327510E-03
  0.21559810E-02  0.27437751E-03  0.13001305E-02
  0.19087196E-02  0.18195052E-02  0.16316126E-02
  0.92375653E-03 -0.13214044E-02 -0.53035311E-03
 -0.97846868E-03 -0.16043921E-02  0.63015102E-03
  0.58992740E-03 -0.17063300E-02 -0.59440556E-03
 -0.13194223E-02  0.10622675E-02 -0.11810973E-03
 -0.11479638E-03 -0.18066144E-03  0.33092449E-03
  0.47896968E-03  0.10860775E-02  0.31710673E-03
 -0.29874304E-04  0.49735735E-04  0.12877728E-02
 -0.23251323E-02  0.57515149E-03 -0.10567950E-02
  0.32600497E-02  0.27711524E-02 -0.98946847E-03
 -0.15715734E-03 -0.22192702E-02  0.37309100E-03
 -0.12348771E-03 -0.75605870E-03 -0.14326081E-02
 -0.74625191E-03  0.92938957E-03 -0.28780381E-02
  0.18902317E-02  0.13022896E-02 -0.87983188E-03
  0.44654442E-03 -0.55847374E-04  0.11914916E-02
  0.10312560E-02  0.19182666E-02 -0.69020662E-03
 -0.31226280E-02 -0.88976043E-03 -0.10246404E-02
  0.13379837E-02  0.13521743E-02  0.14249284E-02
  0.26228097E-03  0.86512149E-03 -0.27309109E-02
  0.94384995E-03  0.11959485E-02 -0.17403300E-02
 -0.20649613E-03  0.22117237E-02  0.67221805E-03
  0.44073530E-03 -0.16072765E-02 -0.89432603E-03