Amorphous Sb                            
   1.00000000000000     
    20.4674779418576271    0.0000000000000000    0.0000000000000000
     0.0000000000000000   20.4674779418576271    0.0000000000000000
     0.0000000000000000    0.0000000000000000   20.4674779418576271
   Ge   Te   Se
   150    45   105
Direct
  0.0985065716131649  0.8917316442869413  0.7540951823123848
  0.4887932654656854  0.6198875761080860  0.1383475307028808
  0.0034879702644388  0.4338115671810637  0.1869613517693658
  0.1866478014835618  0.5435160960682223  0.2646683212425233
  0.9490810389734049  0.7136742488768171  0.5831998756269161
  0.1406862118832518  0.2235718263566625  0.4453286529163528
  0.9042383565397338  0.0889831964300024  0.2494134229306282
  0.6362474712886095  0.7658265624882380  0.5032277391000760
  0.7879098148998828  0.0841276583720414  0.3006743348705306
  0.0107858099515941  0.0485572197693270  0.9006221032875080
  0.0758485955744937  0.2101597601633978  0.0096735946992710
  0.6444644884370022  0.0926642286734671  0.4877024697367641
  0.3453150670414150  0.8305848662716870  0.4310866200175886
  0.2735555432160531  0.5377980600227458  0.5923428799775617
  0.3830417193046289  0.3651298455923624  0.6495238942924599
  0.0889745571246152  0.7434049989277206  0.3182498002792672
  0.0036164573829119  0.6160787561185499  0.2324245974156713
  0.7949585978909509  0.9293914464552070  0.1232542066332734
  0.5002698921841147  0.8314352164164720  0.5481887847515650
  0.3271198418250761  0.8456873960058467  0.6383183222440318
  0.9523126174425480  0.3260098693728005  0.6781695749211663
  0.4318943880864459  0.9287782280519843  0.9497702367470624
  0.4228995977765818  0.9980323025372286  0.7249702647963748
  0.6140193674924721  0.5944086766702731  0.2325209382593992
  0.6940152716731264  0.2551739316842306  0.2201968260031201
  0.3115150759933699  0.5521789473100505  0.9581467232835549
  0.3455262152681724  0.6971663007846260  0.0718610586605552
  0.9600052947597448  0.4131671177650292  0.9710812807140856
  0.1028046994367586  0.2076402325595385  0.6487348665430527
  0.7365674492004638  0.5066042012871410  0.5409195722134462
  0.1996524725811085  0.9819648391379486  0.0161572044471481
  0.4007553749657454  0.7085535978687539  0.3285082084290881
  0.6650582995888350  0.8676966514797594  0.2310476412758155
  0.1904160361377351  0.4378477700335662  0.8325974570144441
  0.7164831284556052  0.9650616484586794  0.4193895542073750
  0.3406654870799929  0.1125212563428041  0.0043710727455768
  0.5351712360580736  0.2778065132206590  0.9163659426201449
  0.6539935370708404  0.6727956166952282  0.0438380085264449
  0.5120448676508164  0.7525000433853164  0.6597979122537148
  0.2172066280020115  0.2458064522073944  0.3276802963039874
  0.6300936447770737  0.5926480549162267  0.7294457975228256
  0.6173925766265481  0.9973954936238216  0.1152464423395429
  0.8035045032640608  0.4270787202295628  0.8395047972426910
  0.8838889971106294  0.6379830017730073  0.5034954184080218
 -0.0011656605764501  0.8786012999369976  0.1789070706715415
  0.5134555185787697  0.1334077173815648  0.9064796232491206
  0.6539242979001048  0.1114299458611182  0.6883114445328541
  0.5539467406246795  0.4305365859396770  0.1535683708261748
  0.7204942054268647  0.2491190513592125  0.4768186344188949
  0.2988210153590658  0.5543617945979481  0.7144424235663389
  0.1485923986482130  0.5397672588524139  0.6603526793853324
  0.7274105458487349  0.4329477536640249  0.3174485280433848
  0.2183334415969947  0.1317435477173997  0.2019225770202149
  0.5199326272952071  0.8112106471241995  0.7724135053754463
  0.0519853898053728  0.1568714696031042  0.1331208926481136
  0.2885802277977406  0.1904962236625093  0.5013232796394168
  0.8835327247658670  0.0770486138360851  0.0626646693704419
  0.0613897825694265  0.5693251081774918  0.0848914629741069
  0.6967180367594986  0.8004453594887015  0.6345131400451774
  0.7280466709920209  0.5381647464248098  0.0512317791889512
  0.1714036780993534  0.5155916108720936  0.5146564217902067
  0.7646390478163173  0.9016080762638297  0.7687866697165033
  0.8348758166607819  0.1366247400570840  0.4053857933166294
  0.1602425011907798  0.0715667020487435  0.3799272575952738
  0.5373543064495317  0.0105406631211073  0.3522225543458268
  0.4770425435320928  0.2819798865990660  0.7127103202069569
  0.3266460821385470  0.7711269434224084  0.9689473475747366
  0.5372240987061699  0.8446510503295820  0.4105192861754134
  0.4086350699693932  0.0369137063760720  0.4913030328081482
  0.0690249365757598  0.3355949783921970  0.0722228441150740
  0.5919635987772809  0.0125095097874251  0.9732036146270842
  0.8963353574706707  0.1645324965312460  0.8134721370790731
  0.4379039315420387  0.2057843484216434  0.3632263475793812
  0.6111484970323068  0.6740026890240509  0.4132759266148987
  0.7909246942267403  0.6742691032206567  0.4174885969052713
  0.7953129242166097  0.9858370484505639  0.5184916291687842
  0.0179607090068191  0.3840217737763003  0.8355791830657194
  0.8867030238254111  0.5362288923580100  0.3534802534865241
  0.0571600732484773  0.1768469027924778  0.2875790288202031
  0.1687117747495638  0.7016957795110510  0.7646284653352691
  0.5614289586158729  0.2143202920918733  0.3910415759812296
  0.3501191950258276  0.5071120552093253  0.1736372724962698
  0.0978413747474797  0.8744686072841803  0.3924575275115099
  0.6110610670377541  0.2701640869582387  0.0438883843720161
  0.2438601883175432  0.2560219570815372  0.0282306796830919
  0.2222663907273999  0.1913090484461983  0.8738462733895258
  0.9499848355127201  0.2268929984310042  0.4980661664297685
  0.0843279507072344  0.7082998919573646  0.1959080395853691
  0.3079626810576462  0.2100447629398234  0.7142070410788883
  0.1017787610633892  0.7230230676840826  0.6272069815635584
  0.4209627502310840  0.3067257201965503  0.0944697604709495
  0.6673016398547323  0.9087146951480394  0.9603651833275544
  0.0464520715254544  0.3720650486898838  0.4697956862087103
  0.3408655508693984  0.7157650742332173  0.5701104007204659
  0.2127441617238915  0.8671441329675025  0.8750689662883011
  0.1659021101320342  0.9850259774149608  0.5591187217937968
  0.2817972428644587  0.0253020450831879  0.6322639115624958
  0.1033859770199334  0.9925934865669256  0.6740831580722975
  0.8134519205899791  0.7361260609743684  0.9569654521702872
  0.5757997941553888  0.5587241736737653  0.9032041308334656
  0.6762711900890237  0.7674958396136387  0.8575608525568673
  0.6523054663612371  0.1366875840812029  0.0862364023793959
  0.9929753617669116  0.6885098685212571  0.0513430672734933
  0.2609698510247621  0.9081451355470013  0.3577416605556353
  0.4071858232392857  0.5919296707046303  0.0401778136396524
  0.5338141510051988  0.4192746781472402  0.3549103833301402
  0.0756410287653485  0.5200483481763245  0.4181859303615375
  0.2723748490274046  0.7238607710088805  0.1789172906810242
  0.1467672831076167  0.4630127049280404  0.9937506289067290
  0.8055850456826569  0.4331259056980352  0.2168301752629963
  0.4337905918071956  0.8744676384553702  0.2514548148736489
  0.5031755321243484  0.6331494765276791  0.4692606029425704
  0.5340167669450079  0.7685038093819541  0.0601478822151253
  0.8275024061191505  0.0299586070953892  0.8862990065412502
  0.4307445203016578  0.4510791731892597  0.4951743113037362
  0.1286963677896624  0.6334192957227158  0.9207845948944510
  0.2795741985555002  0.8697754063490669  0.1325525701404752
  0.2252242988005800  0.4227952639556516  0.2457574074568154
  0.4807812213603612  0.5895290327617544  0.6774164188974436
  0.1323245200536400  0.1092892963629867  0.7160328540618751
  0.8542437333430960  0.5502058217965319  0.8695072429810713
  0.1676270277636463  0.3178080381083821  0.6684168065810701
  0.7785639254059518  0.0689887929125105  0.6906097424042630
  0.3116267728005687  0.0415660152229598  0.1845363602489516
  0.7456420948466801  0.2296013367432557  0.8252393655324497
  0.2847518119266272  0.5992866941234617  0.8470826540401156
  0.1545971354800879  0.7689084069206237  0.0914859182320989
  0.9279177479642924  0.9503046062475757  0.4012694147365425
  0.6895727922662199  0.3666959799350095  0.4215286108315459
  0.3239499855682666  0.5212036237316614  0.4068752228081242
  0.4287018739226722  0.0855990678983468  0.2047385020114450
  0.8814085904230834  0.7566298216464086  0.7757303287682440
  0.5754361241442549  0.9500307941038421  0.5998594481925493
  0.7056274838306561  0.7049436655508959  0.1759115458963276
  0.2232652495236475  0.4006743373680400  0.4368954426919149
  0.6160306731189906  0.4238023393390050  0.8247775497715891
  0.7618383499548546  0.6574745413719606  0.6427278158506124
  0.6311155709675167  0.9013290433934501  0.3479200660083132
  0.4051665892623307  0.3322171229819154  0.2955477335328505
  0.5974762144216944  0.8672594003026627  0.1196870609538008
  0.7162496404586837  0.4579303208928914  0.6739636494865224
  0.8041842622575427  0.2839679542360088  0.1144542415060957
  0.0087116516754992  0.8934589439108902  0.5559165066717894
  0.4807917529278367  0.1816181238117620  0.1374287813604801
  0.9835914959164872  0.8468012215166902  0.9819059371655599
  0.2466869987165251  0.3446666137220467  0.1393666826486520
  0.9086296474556969  0.8929468853695758  0.6754102117741424
  0.0101196101111247  0.2258379969822208  0.8200349596285547
  0.4327119573716754  0.4962974663773764  0.8415135506040406
  0.9715797403964597  0.6448225560880277  0.7693698420020545
  0.1955175896725463  0.8580895118920693  0.5896411172933393
  0.6411953516537381  0.1166973038548071  0.3536099649177172
  0.0137913146207315  0.8078891277508682  0.6963317820784040
  0.9219784964706568  0.7952012308622793  0.0952669632215368
  0.7572296183949757  0.0263563148420057  0.0342390605269443
  0.9261476499901250  0.6709248162469650  0.9337361098366863
  0.5540809609358550  0.8335039793718946  0.9451852611000154
  0.2203648792026489  0.7853413118866398  0.3050426494548528
  0.3445728952868594  0.2335111146313713  0.9439865067511223
  0.0438267535930751  0.9525616924030418  0.0415968120674420
  0.2092919312822203  0.8073569771895994  0.4585625023172162
  0.9491298149756360  0.5263669045563862  0.4668108319531377
  0.1862623151326839  0.1300037092054718  0.0308161005845886
  0.7769523487915926  0.8005997670947457  0.2324986161301567
  0.7626528691218765  0.5395748285153456  0.4010650508743595
  0.9611659605483366  0.5093964365171971  0.8014843193986991
  0.6103314072929444  0.2386750347410170  0.6796368615971563
  0.7153321458930653  0.9384006020953698  0.6196086142533075
  0.3163464420679956  0.4368221683427034  0.8946828455130075
  0.3497027734609541  0.0342436721976880  0.8937005484977668
  0.4877592595959140  0.3583901007274106  0.5697175628911335
  0.7329951946904604  0.3251785303536903  0.5863123887947916
  0.5342468187857066  0.7440379730745920  0.3214665880383381
  0.6062921418383901  0.4617952818349230  0.4601259054854938
  0.4399400572371628  0.5834517016727461  0.3654896257096053
  0.1379313080013403  0.8899478389324198  0.1445131177109151
  0.7194479988008780  0.8269654460443280  0.4170366882616229
  0.7104548514813056  0.8357753559871889  0.0605857717599783
  0.3707040946056052  0.8393451644536666  0.8671562594574415
  0.1567019329679344  0.2932461855749844  0.9313946283928490
  0.6821280402825064  0.3500644973793189  0.1206232255783552
  0.8941864160646115  0.3291347369189837  0.8337115912292240
  0.1112641772687170  0.2689771639761657  0.1818364408890062
  0.5044572531224452  0.9785859736739380  0.1989514797774504
  0.0977994544603732  0.1398176770854133  0.5388124647630567
  0.3163297680678346  0.2607060963269698  0.2203774216699993
  0.5825994615936008  0.4744043893945090  0.6979734234823807
  0.4219652563908157  0.1743292807112090  0.4918495334474692
  0.4738418773757087  0.0907076864332383  0.0325975399513147
  0.2524319575564709  0.0260660382339033  0.4663187687578737
  0.5157933825321466  0.9942529724594441  0.8639267658722363
  0.7557085708894810  0.4025834941291865  0.9606828095873533
  0.1312035353149290  0.6406132551108658  0.4573882209468235
  0.3093269690460222  0.2970340726097445  0.4157409902788403
  0.4885397120602071  0.6527134944782380  0.9594692588618938
  0.7306957567973340  0.6126740780330137  0.2504994326367617
  0.3971216944882525  0.0641160643514709  0.6163686499836036
  0.1985697199498450  0.8254988090578200  0.7486613131489416
  0.7747743248719938  0.6586261191792571  0.0774372238812839
  0.0015088906266025  0.8270304896564887  0.2909970975675096
  0.8595939236474588  0.2514720367681174  0.4121186335323429
  0.9885326915346772  0.2064731240704785  0.6858345897525123
  0.8248758158231398  0.7708122895335141  0.6626588130257660
  0.4701108201158109  0.5142955523613699  0.2002257965944216
  0.8400263173406238  0.5718657206842130  0.5959430814891518
  0.5333374960077126  0.0146993694941376  0.4839609567769956
  0.0706886261354303  0.9672293424279088  0.4760887079853285
  0.8150340433822831  0.1568450347543865  0.9053437557548970
  0.5130379479759588  0.3486743811577098  0.8164927450919341
  0.4103018485241559  0.8024542733069654  0.0723047289873591
  0.4334091198669320  0.0878884755382638  0.3277249691140011
  0.9970597618604268  0.0636992106928925  0.3295948683617191
  0.6581123939568354  0.2994960735741598  0.9309118901529621
  0.9891895700696263  0.9933569015011796  0.6383949742444927
  0.0186108325593124  0.6312712407199629  0.6505305790921387
  0.7848116369252264  0.7041190181944865  0.8368562918485541
  0.1572177789104346  0.9580746123871575  0.3189442483468558
  0.7794287700728488  0.1193611353903722  0.5113828564963380
  0.8938269374069140  0.8848039519597901  0.7986019477745243
  0.7583304154045654  0.1713097440455777  0.1485854325218589
  0.7081034204127088  0.9784911475799803  0.2010094093123404
  0.3797893281651399  0.8934632092403398  0.5345604420340544
  0.6437588566533725  0.8294811945427462  0.7508613305188974
  0.8128642943446982  0.1859926559536717  0.7249347947722731
  0.0985298029445192  0.1337674967453679  0.8267323197622040
  0.0291071653757564  0.2616571906345872  0.4040501931610693
  0.3082817552358456  0.9421752782802895  0.7172959234145129
  0.4825566824359959  0.5510443964105477  0.5554351538029630
  0.1599330798840681  0.5559742382095655  0.8255359051377245
  0.9579991761993156  0.3418964420756921  0.5494746664320811
  0.2383071306579826  0.2793883940260430  0.7786129052692209
  0.1196989704248786  0.4500874637061159  0.1196292244940190
  0.9547907750556525  0.5436641509779224  0.1464107769908417
  0.7559925182596647  0.8643082114206366  0.8906012350035586
  0.5876757531095599  0.1595009566863961  0.1898347935457119
  0.2304237439769169  0.7059475146734591  0.8783525654788206
  0.9185159389768526  0.0078256054823664  0.1636944977948476
  0.5169794588378733  0.3527817567990385  0.0191749560109226
  0.0356017887636785  0.5193656642282050  0.9739340502014577
  0.3218616036410554  0.4300304963805410  0.5552551383375798
  0.1798556537776163  0.6291348637388804  0.1792694325963243
  0.5986312117188934  0.6635674244267246  0.6361043009404459
  0.2286172105527087  0.4499783703099253  0.7103492133170256
  0.2272479057757679 -0.0036230138839510  0.8918240364409057
  0.4890835097982218  0.3319512320990647  0.1969480186854877
  0.1046667706099555  0.0764432781486240  0.2155779690244333
  0.9407644348179866  0.0765054594342676  0.4341855532165882
  0.7422010249043204  0.5590421910809638  0.7468807091432716
  0.2584360363074105  0.1217309121990672  0.3223740711651581
  0.1537031469727374  0.3262672927798663  0.5162784365649105
  0.7181383284952908  0.3709774832501043  0.7674763971717873
  0.9044541557446029  0.4365704050369866  0.2945311735926893
  0.6311389118076935  0.1700440280417138  0.7962900300310346
  0.9257506319970734  0.9883288962110207  0.9842860194812137
  0.3227661646933747  0.9355438299354634  0.2448827781573063
  0.6163020943448284  0.4657956629767439  0.2675720440568775
  0.9127310382608423  0.6422877411065330  0.3050839348917171
  0.4136190160906069  0.1890541091121541  0.7634797713466228
  0.8595065193376753  0.4873486278691038  0.9806938498179483
  0.4046744934641822  0.6893401501735048  0.6749694393335079
  0.2555597205919054  0.1015468045079676  0.7316709979011464
  0.0633863612860572  0.7053940079227761  0.8269563989013309
  0.9244028412258761  0.0464967778238933  0.8042755830380736
  0.0669482991545984  0.5286543353769004  0.2905463411997500
  0.7212898315532147  0.6742687291658098  0.5188989524990109
  0.8931612653270774  0.8928062560561812  0.5041874532763272
  0.6025661289679218  0.3138091378015468  0.3346894487538972
  0.2092338140987205  0.5673956089291725  0.0179977511915863
  0.2335435467944831  0.5968976413084235  0.3605900994947491
  0.9561353802910556  0.1918403032635203  0.2113799780775104
  0.7937237661375288  0.4052365181812323  0.5058045623635378
  0.6120255605809514  0.5660905870462958  0.1046792201250546
  0.4442319339573879  0.9139572212308910  0.3690721655512048
  0.0811639248258220  0.4774131981752987  0.5816351705152120
  0.4088437677580783  0.6186477670231982  0.8443207636214555
  0.8136044926683457  0.9681558529788323  0.3415523866812763
  0.4340593059753403  0.7351249579431511  0.4902320385422328
  0.1551894471604727  0.3805117333974390  0.3337163082085725
  0.3096859113311459  0.6137437312023269  0.5076961900171967
  0.2335292433210470  0.8417439347611539  0.0090411631857910
  0.5579209690536316  0.0455396692413986  0.6726951283268617
  0.8152151931342861  0.3103159308711509  0.2357470561788800
  0.4024592022964181  0.4904918653354124  0.7188465343326517
  0.0885298082491814  0.9106845516657347  0.8703796990774754
  0.0495688087918396  0.7358115110045617  0.5144419874447910
  0.4748300962775280  0.8912848575675800  0.6848623372280925
  0.3447676677228331  0.4116761905965277  0.0934951444611672
  0.3368765492522898  0.4478380666924568  0.2898107810170532
  0.0779011403580032  0.7597894347713250  0.9963806634045906
  0.3164888685439474  0.9786328674488537  0.0786569827583244
  0.6874630936628756  0.5946278164394230  0.9473969193172824
  0.7371342698202791  0.0210542345517581  0.7968195661102384
  0.3776771759469382  0.6644127926604219  0.2138925680407396
  0.5986447206103643  0.2131759011139283  0.5067440847969824
  0.5823935267608434  0.6496527914641036  0.8189011196013745
  0.0604092150302019  0.3739613616823278  0.7161306449144772
  0.9838851430748662  0.1667128240837725  0.9461237227407922
  0.2996876491899068  0.2636260474235020  0.6092041188249632
  0.6346107410349006  0.1181201824478038  0.9286895302910736
  0.9501711179603721  0.3683646827062705  0.0908697545962335
 
  0.00000000E+00  0.00000000E+00  0.00000000E+00
  0.00000000E+00  0.00000000E+00  0.00000000E+00
  0.00000000E+00  0.00000000E+00  0.00000000E+00
  0.00000000E+00  0.00000000E+00  0.00000000E+00
  0.00000000E+00  0.00000000E+00  0.00000000E+00
  0.00000000E+00  0.00000000E+00  0.00000000E+00
  0.00000000E+00  0.00000000E+00  0.00000000E+00
  0.00000000E+00  0.00000000E+00  0.00000000E+00
  0.00000000E+00  0.00000000E+00  0.00000000E+00
  0.00000000E+00  0.00000000E+00  0.00000000E+00
  0.00000000E+00  0.00000000E+00  0.00000000E+00
  0.00000000E+00  0.00000000E+00  0.00000000E+00
  0.00000000E+00  0.00000000E+00  0.00000000E+00
  0.00000000E+00  0.00000000E+00  0.00000000E+00
  0.00000000E+00  0.00000000E+00  0.00000000E+00
  0.00000000E+00  0.00000000E+00  0.00000000E+00
  0.00000000E+00  0.00000000E+00  0.00000000E+00
  0.00000000E+00  0.00000000E+00  0.00000000E+00
  0.00000000E+00  0.00000000E+00  0.00000000E+00
  0.00000000E+00  0.00000000E+00  0.00000000E+00
  0.00000000E+00  0.00000000E+00  0.00000000E+00
  0.00000000E+00  0.00000000E+00  0.00000000E+00
  0.00000000E+00  0.00000000E+00  0.00000000E+00
  0.00000000E+00  0.00000000E+00  0.00000000E+00
  0.00000000E+00  0.00000000E+00  0.00000000E+00
  0.00000000E+00  0.00000000E+00  0.00000000E+00
  0.00000000E+00  0.00000000E+00  0.00000000E+00
  0.00000000E+00  0.00000000E+00  0.00000000E+00
  0.00000000E+00  0.00000000E+00  0.00000000E+00
  0.00000000E+00  0.00000000E+00  0.00000000E+00
  0.00000000E+00  0.00000000E+00  0.00000000E+00
  0.00000000E+00  0.00000000E+00  0.00000000E+00
  0.00000000E+00  0.00000000E+00  0.00000000E+00
  0.00000000E+00  0.00000000E+00  0.00000000E+00
  0.00000000E+00  0.00000000E+00  0.00000000E+00
  0.00000000E+00  0.00000000E+00  0.00000000E+00
  0.00000000E+00  0.00000000E+00  0.00000000E+00
  0.00000000E+00  0.00000000E+00  0.00000000E+00
  0.00000000E+00  0.00000000E+00  0.00000000E+00
  0.00000000E+00  0.00000000E+00  0.00000000E+00
  0.00000000E+00  0.00000000E+00  0.00000000E+00
  0.00000000E+00  0.00000000E+00  0.00000000E+00
  0.00000000E+00  0.00000000E+00  0.00000000E+00
  0.00000000E+00  0.00000000E+00  0.00000000E+00
  0.00000000E+00  0.00000000E+00  0.00000000E+00
  0.00000000E+00  0.00000000E+00  0.00000000E+00
  0.00000000E+00  0.00000000E+00  0.00000000E+00
  0.00000000E+00  0.00000000E+00  0.00000000E+00
  0.00000000E+00  0.00000000E+00  0.00000000E+00
  0.00000000E+00  0.00000000E+00  0.00000000E+00
  0.00000000E+00  0.00000000E+00  0.00000000E+00
  0.00000000E+00  0.00000000E+00  0.00000000E+00
  0.00000000E+00  0.00000000E+00  0.00000000E+00
  0.00000000E+00  0.00000000E+00  0.00000000E+00
  0.00000000E+00  0.00000000E+00  0.00000000E+00
  0.00000000E+00  0.00000000E+00  0.00000000E+00
  0.00000000E+00  0.00000000E+00  0.00000000E+00
  0.00000000E+00  0.00000000E+00  0.00000000E+00
  0.00000000E+00  0.00000000E+00  0.00000000E+00
  0.00000000E+00  0.00000000E+00  0.00000000E+00
  0.00000000E+00  0.00000000E+00  0.00000000E+00
  0.00000000E+00  0.00000000E+00  0.00000000E+00
  0.00000000E+00  0.00000000E+00  0.00000000E+00
  0.00000000E+00  0.00000000E+00  0.00000000E+00
  0.00000000E+00  0.00000000E+00  0.00000000E+00
  0.00000000E+00  0.00000000E+00  0.00000000E+00
  0.00000000E+00  0.00000000E+00  0.00000000E+00
  0.00000000E+00  0.00000000E+00  0.00000000E+00
  0.00000000E+00  0.00000000E+00  0.00000000E+00
  0.00000000E+00  0.00000000E+00  0.00000000E+00
  0.00000000E+00  0.00000000E+00  0.00000000E+00
  0.00000000E+00  0.00000000E+00  0.00000000E+00
  0.00000000E+00  0.00000000E+00  0.00000000E+00
  0.00000000E+00  0.00000000E+00  0.00000000E+00
  0.00000000E+00  0.00000000E+00  0.00000000E+00
  0.00000000E+00  0.00000000E+00  0.00000000E+00
  0.00000000E+00  0.00000000E+00  0.00000000E+00
  0.00000000E+00  0.00000000E+00  0.00000000E+00
  0.00000000E+00  0.00000000E+00  0.00000000E+00
  0.00000000E+00  0.00000000E+00  0.00000000E+00
  0.00000000E+00  0.00000000E+00  0.00000000E+00
  0.00000000E+00  0.00000000E+00  0.00000000E+00
  0.00000000E+00  0.00000000E+00  0.00000000E+00
  0.00000000E+00  0.00000000E+00  0.00000000E+00
  0.00000000E+00  0.00000000E+00  0.00000000E+00
  0.00000000E+00  0.00000000E+00  0.00000000E+00
  0.00000000E+00  0.00000000E+00  0.00000000E+00
  0.00000000E+00  0.00000000E+00  0.00000000E+00
  0.00000000E+00  0.00000000E+00  0.00000000E+00
  0.00000000E+00  0.00000000E+00  0.00000000E+00
  0.00000000E+00  0.00000000E+00  0.00000000E+00
  0.00000000E+00  0.00000000E+00  0.00000000E+00
  0.00000000E+00  0.00000000E+00  0.00000000E+00
  0.00000000E+00  0.00000000E+00  0.00000000E+00
  0.00000000E+00  0.00000000E+00  0.00000000E+00
  0.00000000E+00  0.00000000E+00  0.00000000E+00
  0.00000000E+00  0.00000000E+00  0.00000000E+00
  0.00000000E+00  0.00000000E+00  0.00000000E+00
  0.00000000E+00  0.00000000E+00  0.00000000E+00
  0.00000000E+00  0.00000000E+00  0.00000000E+00
  0.00000000E+00  0.00000000E+00  0.00000000E+00
  0.00000000E+00  0.00000000E+00  0.00000000E+00
  0.00000000E+00  0.00000000E+00  0.00000000E+00
  0.00000000E+00  0.00000000E+00  0.00000000E+00
  0.00000000E+00  0.00000000E+00  0.00000000E+00
  0.00000000E+00  0.00000000E+00  0.00000000E+00
  0.00000000E+00  0.00000000E+00  0.00000000E+00
  0.00000000E+00  0.00000000E+00  0.00000000E+00
  0.00000000E+00  0.00000000E+00  0.00000000E+00
  0.00000000E+00  0.00000000E+00  0.00000000E+00
  0.00000000E+00  0.00000000E+00  0.00000000E+00
  0.00000000E+00  0.00000000E+00  0.00000000E+00
  0.00000000E+00  0.00000000E+00  0.00000000E+00
  0.00000000E+00  0.00000000E+00  0.00000000E+00
  0.00000000E+00  0.00000000E+00  0.00000000E+00
  0.00000000E+00  0.00000000E+00  0.00000000E+00
  0.00000000E+00  0.00000000E+00  0.00000000E+00
  0.00000000E+00  0.00000000E+00  0.00000000E+00
  0.00000000E+00  0.00000000E+00  0.00000000E+00
  0.00000000E+00  0.00000000E+00  0.00000000E+00
  0.00000000E+00  0.00000000E+00  0.00000000E+00
  0.00000000E+00  0.00000000E+00  0.00000000E+00
  0.00000000E+00  0.00000000E+00  0.00000000E+00
  0.00000000E+00  0.00000000E+00  0.00000000E+00
  0.00000000E+00  0.00000000E+00  0.00000000E+00
  0.00000000E+00  0.00000000E+00  0.00000000E+00
  0.00000000E+00  0.00000000E+00  0.00000000E+00
  0.00000000E+00  0.00000000E+00  0.00000000E+00
  0.00000000E+00  0.00000000E+00  0.00000000E+00
  0.00000000E+00  0.00000000E+00  0.00000000E+00
  0.00000000E+00  0.00000000E+00  0.00000000E+00
  0.00000000E+00  0.00000000E+00  0.00000000E+00
  0.00000000E+00  0.00000000E+00  0.00000000E+00
  0.00000000E+00  0.00000000E+00  0.00000000E+00
  0.00000000E+00  0.00000000E+00  0.00000000E+00
  0.00000000E+00  0.00000000E+00  0.00000000E+00
  0.00000000E+00  0.00000000E+00  0.00000000E+00
  0.00000000E+00  0.00000000E+00  0.00000000E+00
  0.00000000E+00  0.00000000E+00  0.00000000E+00
  0.00000000E+00  0.00000000E+00  0.00000000E+00
  0.00000000E+00  0.00000000E+00  0.00000000E+00
  0.00000000E+00  0.00000000E+00  0.00000000E+00
  0.00000000E+00  0.00000000E+00  0.00000000E+00
  0.00000000E+00  0.00000000E+00  0.00000000E+00
  0.00000000E+00  0.00000000E+00  0.00000000E+00
  0.00000000E+00  0.00000000E+00  0.00000000E+00
  0.00000000E+00  0.00000000E+00  0.00000000E+00
  0.00000000E+00  0.00000000E+00  0.00000000E+00
  0.00000000E+00  0.00000000E+00  0.00000000E+00
  0.00000000E+00  0.00000000E+00  0.00000000E+00
  0.00000000E+00  0.00000000E+00  0.00000000E+00
  0.00000000E+00  0.00000000E+00  0.00000000E+00
  0.00000000E+00  0.00000000E+00  0.00000000E+00
  0.00000000E+00  0.00000000E+00  0.00000000E+00
  0.00000000E+00  0.00000000E+00  0.00000000E+00
  0.00000000E+00  0.00000000E+00  0.00000000E+00
  0.00000000E+00  0.00000000E+00  0.00000000E+00
  0.00000000E+00  0.00000000E+00  0.00000000E+00
  0.00000000E+00  0.00000000E+00  0.00000000E+00
  0.00000000E+00  0.00000000E+00  0.00000000E+00
  0.00000000E+00  0.00000000E+00  0.00000000E+00
  0.00000000E+00  0.00000000E+00  0.00000000E+00
  0.00000000E+00  0.00000000E+00  0.00000000E+00
  0.00000000E+00  0.00000000E+00  0.00000000E+00
  0.00000000E+00  0.00000000E+00  0.00000000E+00
  0.00000000E+00  0.00000000E+00  0.00000000E+00
  0.00000000E+00  0.00000000E+00  0.00000000E+00
  0.00000000E+00  0.00000000E+00  0.00000000E+00
  0.00000000E+00  0.00000000E+00  0.00000000E+00
  0.00000000E+00  0.00000000E+00  0.00000000E+00
  0.00000000E+00  0.00000000E+00  0.00000000E+00
  0.00000000E+00  0.00000000E+00  0.00000000E+00
  0.00000000E+00  0.00000000E+00  0.00000000E+00
  0.00000000E+00  0.00000000E+00  0.00000000E+00
  0.00000000E+00  0.00000000E+00  0.00000000E+00
  0.00000000E+00  0.00000000E+00  0.00000000E+00
  0.00000000E+00  0.00000000E+00  0.00000000E+00
  0.00000000E+00  0.00000000E+00  0.00000000E+00
  0.00000000E+00  0.00000000E+00  0.00000000E+00
  0.00000000E+00  0.00000000E+00  0.00000000E+00
  0.00000000E+00  0.00000000E+00  0.00000000E+00
  0.00000000E+00  0.00000000E+00  0.00000000E+00
  0.00000000E+00  0.00000000E+00  0.00000000E+00
  0.00000000E+00  0.00000000E+00  0.00000000E+00
  0.00000000E+00  0.00000000E+00  0.00000000E+00
  0.00000000E+00  0.00000000E+00  0.00000000E+00
  0.00000000E+00  0.00000000E+00  0.00000000E+00
  0.00000000E+00  0.00000000E+00  0.00000000E+00
  0.00000000E+00  0.00000000E+00  0.00000000E+00
  0.00000000E+00  0.00000000E+00  0.00000000E+00
  0.00000000E+00  0.00000000E+00  0.00000000E+00
  0.00000000E+00  0.00000000E+00  0.00000000E+00
  0.00000000E+00  0.00000000E+00  0.00000000E+00
  0.00000000E+00  0.00000000E+00  0.00000000E+00
  0.00000000E+00  0.00000000E+00  0.00000000E+00
  0.00000000E+00  0.00000000E+00  0.00000000E+00
  0.00000000E+00  0.00000000E+00  0.00000000E+00
  0.00000000E+00  0.00000000E+00  0.00000000E+00
  0.00000000E+00  0.00000000E+00  0.00000000E+00
  0.00000000E+00  0.00000000E+00  0.00000000E+00
  0.00000000E+00  0.00000000E+00  0.00000000E+00
  0.00000000E+00  0.00000000E+00  0.00000000E+00
  0.00000000E+00  0.00000000E+00  0.00000000E+00
  0.00000000E+00  0.00000000E+00  0.00000000E+00
  0.00000000E+00  0.00000000E+00  0.00000000E+00
  0.00000000E+00  0.00000000E+00  0.00000000E+00
  0.00000000E+00  0.00000000E+00  0.00000000E+00
  0.00000000E+00  0.00000000E+00  0.00000000E+00
  0.00000000E+00  0.00000000E+00  0.00000000E+00
  0.00000000E+00  0.00000000E+00  0.00000000E+00
  0.00000000E+00  0.00000000E+00  0.00000000E+00
  0.00000000E+00  0.00000000E+00  0.00000000E+00
  0.00000000E+00  0.00000000E+00  0.00000000E+00
  0.00000000E+00  0.00000000E+00  0.00000000E+00
  0.00000000E+00  0.00000000E+00  0.00000000E+00
  0.00000000E+00  0.00000000E+00  0.00000000E+00
  0.00000000E+00  0.00000000E+00  0.00000000E+00
  0.00000000E+00  0.00000000E+00  0.00000000E+00
  0.00000000E+00  0.00000000E+00  0.00000000E+00
  0.00000000E+00  0.00000000E+00  0.00000000E+00
  0.00000000E+00  0.00000000E+00  0.00000000E+00
  0.00000000E+00  0.00000000E+00  0.00000000E+00
  0.00000000E+00  0.00000000E+00  0.00000000E+00
  0.00000000E+00  0.00000000E+00  0.00000000E+00
  0.00000000E+00  0.00000000E+00  0.00000000E+00
  0.00000000E+00  0.00000000E+00  0.00000000E+00
  0.00000000E+00  0.00000000E+00  0.00000000E+00
  0.00000000E+00  0.00000000E+00  0.00000000E+00
  0.00000000E+00  0.00000000E+00  0.00000000E+00
  0.00000000E+00  0.00000000E+00  0.00000000E+00
  0.00000000E+00  0.00000000E+00  0.00000000E+00
  0.00000000E+00  0.00000000E+00  0.00000000E+00