GeSe                                    
   1.00000000000000     
    20.1278870000000012    0.0000000000000000    0.0000000000000000
     0.0000000000000000   20.1278870000000012    0.0000000000000000
     0.0000000000000000    0.0000000000000000   20.1278870000000012
   Ge   Se
   150   150
Direct
  0.1232891185638667  0.7292432265926275  0.1001061026966541
  0.8763281936157749  0.8299875259472502  0.5735223905186306
  0.6625410258034082  0.0369097347143973  0.5201357608030510
  0.8116593669654750  0.9606064459281533  0.4295457544591149
  0.1243561883783143  0.9143162252764360  0.1905702982060502
  0.4429136002753575  0.9369602161949393  0.6995318343445638
  0.8239762920854049  0.0955596672561025  0.7214301846834773
  0.7040400717629735  0.0300930258313069  0.3005855083971722
  0.4919814579212001  0.6512072301672336  0.6573616380381437
  0.4607168075186994  0.4043465357790014 -0.0197094400963171
  0.1897356798841042  0.6794585657317489  0.6979768632379268
  0.5890838847831599  0.8171101606541016  0.2674579079329227
  0.4438285491082125  0.0173588868429560  0.9459666667717487
  0.6098059290151087  0.7078679031697945  0.9418434765597643
  0.2174018309550199  0.3088217427596873  0.9927159932100856
  0.3029577134649605  0.7661456304717514  0.3101781034378676
  0.7803930260899867  0.3143885462931964  0.7366249829211324
  0.1960135544674063  0.5861084182307539  0.2278563304363822
  0.1612593696776348  0.1037746982587848  0.6668701136388352
  0.2751894781090157  0.5917991849370008  0.4429346131608999
  0.0938812685397502  0.5542505634819972  0.3455772309479064
  0.5313490123674455  0.1431921670172510  0.6072055782977744
  0.2702287250284836  0.0476779621740599  0.6229647588610460
  0.7453343768399616  0.3685722076620615  0.6066794024428945
  0.9368047703219959  0.1612313775567761  0.7323778676920423
  0.7534630394395924  0.9858170520560028  0.1873797082395273
  0.4653832028457983  0.8125429379555172  0.0793216836258179
  0.8087854923239972  0.2896302449021657  0.9209469702302522
  0.7565450615070050  0.1907666084716530  0.4241362700471851
  0.7340849567083124  0.1652397543808108  0.2122663187862662
  0.9494234024250116  0.6859518941036661  0.2057945359224124
  0.3399969186366336  0.8742300046808759  0.4339368536665102
  0.3043286882250777  0.9401598569934287  0.2696148906542338
  0.8941651300002249  0.6930314490184689  0.9133399074734346
  0.7106487363519433  0.8335976436376293  0.8359264324924865
  0.6405359134356284  0.1950168790992290  0.8179104327374681
  0.0650881024165828  0.3982301202162968  0.8961870374956177
  0.0134040861078426  0.9761221109911856  0.8627753019978326
  0.3382433070372787  0.2031796191309130  0.5986240569032576
  0.4378746876572289  0.6967639619494419  0.4025618745922847
  0.1611839031503974  0.5420993711487216  0.7145590669079122
  0.8984031664360943  0.7282060615539908  0.3848287484651287
  0.0654537809401702  0.3080021226955473  0.3771694354375627
  0.3880758840087862  0.5207551638546613  0.5884708476737951
  0.1980257495269065  0.2538946384271410  0.4955078762148830
  0.1430625312034131  0.3163206485879381  0.1118173944886370
  0.6343275247719393  0.2917501741586429  0.4355827199631483
  0.9765644497685870  0.4162285247422731  0.4639156013060201
  0.4578894355751361  0.8747635039946610  0.9577182855502950
  0.1771955364283385  0.1262490981921837  0.0938692631983499
  0.7251231772090379  0.5198134735914519  0.9659238871763075
  0.0490191451456268  0.7957076813204385  0.6635765099479447
  0.5864407015527415  0.0018749969210072  0.4145473446869676
  0.5485748912405333  0.5980196376092074  0.4831378918109612
  0.7683910666011720  0.7185106347038768  0.7246283883629305
  0.1247762935184072  0.5241257869971594  0.9155501613721241
  0.9648567035442386  0.1927012457142281  0.4361073232627624
  0.6782967746381704  0.8549824263124598  0.6369728155800577
  0.0009940306884781  0.4883968117530434  0.7757335955520843
  0.5355360279744571  0.9604411557857446  0.1002188839373867
  0.9518855594631560  0.6388631042387766  0.4695575078998570
  0.6919495908761030  0.0578692306219642  0.0963643790964144
  0.6809934479543164  0.7400496945170020  0.4012867427864468
  0.8469767462354184  0.5478933970482388  0.8016956994254849
  0.3943363886930794  0.0310783088461370  0.5266980912136628
  0.4688630505594090  0.9771400098493747  0.3416170026493036
  0.5491927988699955  0.3364564967099222  0.7404136064650998
  0.1194545785863164  0.7639144284437336  0.2799815517473201
  0.8205664668644314  0.6641461883423455  0.0907285264441433
  0.7839008662585804  0.7782282792580750  0.0135850601390433
  0.4383975111683086  0.4291091537178728  0.1624943684940180
  0.5555675627762648  0.0491008002745864  0.7469524215699680
  0.1209240646675868 -0.0103671575553701  0.3135267627707987
  0.6380806372621841  0.2444449333347770  0.0744541091278862
  0.4495248040078152  0.5369180964594935  0.7702709207331940
  0.6254863660402589  0.5583367328554832  0.6917605090346161
  0.2116625757665493  0.8396720819606012  0.7073426778636446
  0.2956741668424608  0.1122751281818028  0.0358118426430130
  0.8402293205874788  0.9418761002180320  0.9637078860348124
  0.6528722744175836  0.4509054849150816  0.1943195746518376
  0.0247759028228326  0.3522773232943147  0.0127325026030102
  0.5249927932041690  0.2562562967517862  0.9134779947850524
  0.0282616376134589  0.4888485957888935  0.6024141103352729
  0.9887939754820866  0.3853619566132975  0.1349742187572634
  0.9798430597484715  0.9297736268466278  0.5423426100395821
  0.6030453898788346  0.9068656719877753  0.8642635331743923
  0.3268631248454815  0.1575121999225826  0.9211822167459665
  0.0287086395786282  0.8212712539490540  0.4005508866578219
  0.4960842740984501  0.2171686510989233  0.4430192666123141
  0.4052192120104721  0.3788656297260125  0.5408953833178904
  0.2757303736002536  0.4111306097075277  0.8595049388339651
  0.3885788588397147  0.2665751258447179  0.2741765994800097
  0.5943974550263428  0.0588396065080557  0.9527576245207454
  0.0583155356594641  0.1558478305801033  0.2644084084575027
  0.8828774115916559  0.4988855679916957  0.4017302794401185
  0.4639421972537979  0.5475771801459137  0.3191972797089038
  0.9686964796607437  0.4775277233178943  0.2318009490449418
  0.2423399483257241  0.0339502499049290  0.4970459244053184
  0.3677526559171811  0.6819454781737238  0.9835258741931934
  0.9936421640977564  0.2823726487333064  0.5603281128395233
  0.3030106826343870  0.8769294442153974  0.8556723297972283
  0.5417077692811298  0.5588342456070864  0.0369957313070676
  0.3364078843180642  0.4003689255835753  0.4037409151871859
  0.1003900715727149  0.1634706928503727  0.4679472670626094
  0.1115677449865214  0.6914629506792652  0.9117991451399761
  0.9829012612619293  0.6688904903662384  0.6906189296877248
  0.8201912400679807  0.5388493576504239  0.2842968059430044
  0.8612191852616006  0.0851946097454426  0.5673808871221176
  0.1606888912073481  0.6603136660103865  0.5174173370075568
  0.3260893550646128  0.5664862112248091  0.2123389448960651
  0.5206858334253361  0.4178490529838114  0.3380316459023083
  0.7957366830594819  0.1124610881846929  0.9032957752332591
  0.7421211684173820 -0.0046117111843211  0.7462169044751403
  0.7023254780985518  0.4361280363288609  0.7710754322518782
  0.0626875312223618  0.1891379946274552  0.7656439959667847
  0.0368088450044996  0.2246555691366706  0.0170072535390436
  0.6236832085342890  0.5680282786961894  0.3079333593149068
  0.1537193648371187  0.3563822962862158  0.2729612976834052
  0.7817612376972678  0.6716424604132523  0.5971791911999240
  0.8915911761391891  0.7786223819098392  0.2667508902572245
  0.8383069021963615  0.5602818778879844  0.0025889890983453
  0.1868215579970916  0.4652818291066488  0.5055218527404111
  0.9519499968686708  0.8430703318209087  0.0935178024567617
  0.5357377797414791  0.7805658378086058  0.7430515812346082
  0.6623989671639859  0.7331291857316740  0.1288290303810178
  0.6105719630489126  0.2307413518200929  0.5504718618637375
  0.9164641662032731  0.0378004016307099  0.2988993769586048
  0.2301176776240548  0.8846202380002067  0.0421827342124655
  0.6537604095631817  0.4426461002489775  0.0413267121106838
  0.1826750265058218  0.2235564909493231  0.6224122272677357
  0.1625443954494187  0.8499967551102438  0.5151582592291424
  0.7821593808893589  0.7255549566394324  0.2255067051148871
  0.3338511937603363  0.2288246287775166  0.7481925971799972
  0.5216542689305909  0.0453043416802810  0.2407337562970857
  0.1720702925106164  0.5458651842246808  0.0533845505996635
  0.3398209272195933  0.2474730973508135  0.1586206793748738
  0.9494439156462016  0.3562692457382270  0.7591520054854057
  0.9699241136079718  0.1492374719145680  0.9432480731308082
  0.8977179794765657  0.3456295159600200 -0.0001751122439608
  0.6013683113282887  0.7602372035066952  0.5244925379327806
  0.6427031990707438  0.4589794193288243  0.4419316986149587
  0.0506207336633342  0.9544681526356419  0.7347059217729096
  0.9538375662216794  0.0460685722564318  0.1029037862077160
  0.3069350686858712  0.1365527300701017  0.3551642217491082
  0.0627765069653047  0.8496907740630676  0.9883628188515318
  0.3608256897048415  0.8577083589795663  0.5878895095445701
  0.7935490601976221  0.3829266315185841  0.1445955718053133
  0.4620812356091271  0.6341685789061378  0.1375165248241523
  0.3539806825196620  0.3173591828253476  0.8410803432540819
  0.2603337049295081  0.4105829813221413  0.6585560438144238
  0.3527397421160815  0.0150670285661472  0.3685857027064345
  0.2819698062441283  0.3554736419883501  0.5146698636934299
  0.0938146603041052  0.5583855637560756  0.4701493813736575
  0.3741163219091002  0.5388589475314254  0.1029914025690393
  0.6294749636337681  0.3169141701286611  0.8367846644912941
  0.3768298758527254  0.7249402125008005  0.1020735577023690
  0.4250570490374965  0.9896006333667361  0.1587651324324297
  0.5386780655944235  0.5415887706555368  0.5981984779291597
  0.5147793184876120  0.3021720391313966  0.0276574099419570
  0.3949171993207480  0.8731581982542403  0.1592909062311039
  0.9649911238229362  0.5777080648713447  0.3470589022552131
  0.6855262148925205  0.7163311971227087  0.8177633963713157
  0.5416576878950130  0.3776961093875472  0.4593912712748613
  0.3395016606594617  0.3590373359915215  0.1172144365235514
  0.5534514253822044  0.5288098263905637  0.2090902094703643
  0.6611982820069782  0.6078186578770377  0.0258662822322419
  0.8757189511199307  0.4557806435517414  0.0565833970672532
  0.0166917673050026  0.2871304987362077  0.8375694582032005
  0.2928061629108005  0.3029713467284846  0.3350492464312822
  0.5326209138053081  0.8038657811321140  0.8858632301012446
  0.8815119543840801  0.0981233405535457  0.0062449605196402
  0.7561085067636597  0.2855730166186016  0.2374524308139925
  0.7320438991089184  0.4863763008272784  0.6565660679195714
  0.9082031907732177  0.7067730807600605  0.5906112647199107
  0.6096888660545984  0.0989109810878866  0.3400216840919862
  0.2619462097602703  0.1575948276466718  0.8208885664574499
  0.6353996796045360  0.1802837270487429  0.9415609970470135
  0.8891164078669087  0.1970886280364462  0.8669815507918839
  0.3860258802300990  0.0948864734333439  0.6390164542639335
  0.3515977838262828  0.8105647214620745  0.9556573564492773
  0.7154531546036783  0.5592155569818344  0.2168010235033630
  0.7574051387191783  0.1947709647165406  0.7789306197195914
  0.3252918240411805  0.7459448792499905  0.4357359488373468
  0.5462631691632557  0.1787343880649192  0.7436085341083563
  0.9391827780092272  0.1631392615111797  0.3162629913917244
  0.0877252479218567  0.3497851121132321  0.4948229866410486
  0.1192502476960773  0.7608991782099691  0.7634243388444980
  0.0653671588277927  0.6621893701862045  0.2243852211077133
  0.4897490169119241  0.3253558737053598  0.2525275664846385
  0.8186101992402803  0.8258546866542307  0.9006484445496519
  0.0838574016848368  0.5839634251269727  0.8108449699503926
  0.8923869079188910  0.2669609584320577  0.6850205675346435
  0.0582203942380392  0.3029916140791127  0.2055529070385432
  0.4930274605865502  0.6544501256401171  0.9661948987496466
  0.0213189359513669  0.1563283019602641  0.1159182554171455
  0.9388486469653826  0.7139336449902686  0.0848238281950946
  0.5704194912517334  0.0838851933068400  0.0845476544381899
  0.9643857324038129  0.8676243415066591  0.7246835016581714
  0.3765731830686470  0.4675662533724445  0.2706204974666894
  0.3336113883402929 -0.0008291541394253  0.0113036311079768
  0.3777771930601578  0.6018047216533650  0.6835329372131824
  0.8876662900364733  0.5816657256022791  0.1829459685112771
  0.1972269080715144  0.4212748021742265  0.1661638482927128
  0.5679997052688701  0.4672115994948625  0.9492357416990460
  0.0888623142829103  0.4342230255593936  0.7013306249403574
  0.9587559755320394  0.0003009985068363  0.6608273795337890
  0.8431431042784433  0.3762307865134873  0.8328444970447569
  0.4414082847871634  0.1344981238402435  0.8965724205116919
  0.4155376645634142  0.8129632373427417  0.6968003501811983
  0.1369427981702642  0.1122617174939761  0.3633063595474504
  0.2371664242107447  0.8705389488999685  0.3539444956096741
  0.8541322707646521  0.0708311962720931  0.1907123112473069
  0.6445499035951936  0.4063270818499843  0.3233890151565051
  0.2883135844381003  0.1537456376808997  0.4828565104944940
  0.2274741996604305  0.9560822971432179  0.9317990662422615
  0.4427999519338780  0.2570378077399449  0.5548554710317836
  0.7925587871386615  0.0787826777364347  0.3744103511652634
  0.3009834607739317  0.4816914339800102  0.9538293698231067
  0.4863019618267895  0.7041681675327994  0.5218055995961884
  0.0567365434584429  0.0915318455995520  0.8837746533624792
  0.1921008957622945  0.8062029071984270  0.1810919729802822
  0.7029558690803541  0.0043809669842883 -0.0108562895021634
  0.6603928861565536  0.8039175429079846  0.0210837916644641
  0.4397722833304852  0.8624393829691817  0.3515234145893800
  0.1816790601867465  0.7731609973021506  0.9921290898957770
  0.2371102409508805  0.4795937555197002  0.3868256333252643
  0.9337716534758973  0.3927548253789398  0.5796077144590880
  0.1759894604472279  0.3390112217934353  0.8767447542612544
  0.2618171930855512  0.5510781707118140  0.5668836297070119
  0.2682144858915718  0.4847054432628726  0.7679779447448636
  0.8282453210286891  0.8776512302065169  0.0792128373615646
  0.9675680246121310  0.9440723574604264  0.9740091741561576
  0.7595683846952435  0.9690699236848931  0.5447284925316420
  0.4631155700781638  0.9329068917673390  0.5647635246868620
  0.0752519004264621  0.7597734145206521  0.5015427585652863
  0.6654780279642577  0.6523071667673059  0.4942508747959073
  0.4991050693218501  0.0999216959172406  0.4863813423490886
  0.6796314214411131  0.9293322636389970  0.3680283671466073
  0.7722209744170559  0.8460558446064362  0.7268536844377024
  0.7087964563050357  0.1522665229350502  0.5365215970886381
  0.1262835089898048  0.0672524358148330  0.5479286303698078
  0.2108981658107393  0.0123478527482705  0.2235641188106157
  0.9006037857667036  0.8371051358847185  0.4480949713046559
  0.5292975997510259  0.6287494916809817  0.7798049283281907
  0.0301735435929532  0.0344831689887423  0.2312676253565506
  0.1248902178621221  0.8998769885085917  0.6314850037994352
  0.8712254326363064  0.6770023656918658  0.7849287319484136
  0.8591156890739131  0.4207961722966840  0.2592586329196997
  0.4072572815935146  0.6498819173374915  0.2558205589468243
  0.4586629168365495  0.3747160769634292  0.8528220037504085
  0.9402544185351160  0.5477181889831575  0.6745465822032006
  0.7144192897449709  0.3344922323888092  0.0295223180123685
  0.3388600305026356  0.2761889301413095  0.9560736885088239
  0.3071218002388864  0.9411694717378715  0.6734307636339589
  0.3871882587414784  0.4072901951310870  0.6634605936493199
  0.6225519329286846  0.7404491065196892  0.6489617041785534
  0.5757166647743744  0.4634260441222047  0.7599691103151808
  0.5418257427148672  0.7548271512282309  0.1632410596639722
  0.0716783506653877  0.2698247731034523  0.6593483295502641
  0.1001868828396339  0.4909039237399944  0.1500829527045058
  0.9417762685903673  0.3128927294654512  0.3951650719542531
  0.4011590545279113  0.5751674903931067  0.4334975956743410
  0.2191087128010358  0.2230195635571201  0.1692295609906125
  0.2387552922396158  0.7578365531923172  0.6126777105406938
  0.6584606798680204  0.0540649032297803  0.8189337841276683
  0.3908857548717796  0.1578399508873062  0.0977781531710866
  0.7852450661133059  0.6831917926423066  0.3470210767370949
  0.2180543314249922  0.6463940525839542  0.1169806823038194
  0.5835410461855314  0.9015039364234987  0.7395805796905851
  0.1224757948268436  0.9464704033869272  0.0704006731813958
  0.0949232543912553  0.6294348088265176  0.6243695788896083
  0.0035530467268360  0.7531247535517946  0.8991010851995850
  0.8585526559387497  0.1964976597026425  0.5002048049385944
  0.6428256566668793  0.2655154848310975  0.2071419281500978
  0.0739979876660749  0.9266725610179439  0.4507418463664378
  0.4285083700712870  0.1709489233628823  0.3380094598822769
  0.5959896492451331  0.0354670335052876  0.6240843609450075
  0.9253510732393425  0.0230073985721454  0.4771877259830439
  0.8483191454034892  0.5745012341380678  0.4902128092504462
  0.9678760755544983  0.8580802816256976  0.2180406858873617
  0.7066101376616254  0.8237205775377980  0.2124906206998947
  0.7275655186025460  0.3711009204145149  0.4777223253385020
  0.0620771760420916  0.4295348300269241  0.3232625146287770
  0.8413453066552373  0.0195851659329285  0.8250438954641025
  0.7460129096767797  0.1682445963493515  0.0869054023551196
  0.2400896115787618  0.5787890313188808  0.9203458233237285
  0.2309832080547023  0.2951599460493479  0.7132930271295965
  0.4033110642937842  0.9526839707464994  0.8448301543495530
  0.9167648176092136  0.5613854903760894  0.9084473904494896
  0.9761687107585270  0.1168597836424919  0.6191788855184789
  0.1547544134864160  0.1950216435341940  0.9854158464433408
  0.0696828725583410  0.6025140049288331 -0.0008123299251500
  0.5974461928849235  0.9517302848725505  0.2098430334184141
  0.2075528083804312  0.6801546689077493  0.3173947290144059
  0.6427656877316785  0.3059131096631403  0.6428727212184718
  0.5961032597470730  0.6941450120791186  0.3208030207009757
  0.8877602471220173  0.3013761448058469  0.1161652676342089
  0.7242680570030591  0.5460078769608077  0.8427634156352939
  0.7592276037213724  0.7866104866295950  0.5512286397795786
  0.1182462855247772  0.9041850797583421  0.8816693999566804
 
  0.00000000E+00  0.00000000E+00  0.00000000E+00
  0.00000000E+00  0.00000000E+00  0.00000000E+00
  0.00000000E+00  0.00000000E+00  0.00000000E+00
  0.00000000E+00  0.00000000E+00  0.00000000E+00
  0.00000000E+00  0.00000000E+00  0.00000000E+00
  0.00000000E+00  0.00000000E+00  0.00000000E+00
  0.00000000E+00  0.00000000E+00  0.00000000E+00
  0.00000000E+00  0.00000000E+00  0.00000000E+00
  0.00000000E+00  0.00000000E+00  0.00000000E+00
  0.00000000E+00  0.00000000E+00  0.00000000E+00
  0.00000000E+00  0.00000000E+00  0.00000000E+00
  0.00000000E+00  0.00000000E+00  0.00000000E+00
  0.00000000E+00  0.00000000E+00  0.00000000E+00
  0.00000000E+00  0.00000000E+00  0.00000000E+00
  0.00000000E+00  0.00000000E+00  0.00000000E+00
  0.00000000E+00  0.00000000E+00  0.00000000E+00
  0.00000000E+00  0.00000000E+00  0.00000000E+00
  0.00000000E+00  0.00000000E+00  0.00000000E+00
  0.00000000E+00  0.00000000E+00  0.00000000E+00
  0.00000000E+00  0.00000000E+00  0.00000000E+00
  0.00000000E+00  0.00000000E+00  0.00000000E+00
  0.00000000E+00  0.00000000E+00  0.00000000E+00
  0.00000000E+00  0.00000000E+00  0.00000000E+00
  0.00000000E+00  0.00000000E+00  0.00000000E+00
  0.00000000E+00  0.00000000E+00  0.00000000E+00
  0.00000000E+00  0.00000000E+00  0.00000000E+00
  0.00000000E+00  0.00000000E+00  0.00000000E+00
  0.00000000E+00  0.00000000E+00  0.00000000E+00
  0.00000000E+00  0.00000000E+00  0.00000000E+00
  0.00000000E+00  0.00000000E+00  0.00000000E+00
  0.00000000E+00  0.00000000E+00  0.00000000E+00
  0.00000000E+00  0.00000000E+00  0.00000000E+00
  0.00000000E+00  0.00000000E+00  0.00000000E+00
  0.00000000E+00  0.00000000E+00  0.00000000E+00
  0.00000000E+00  0.00000000E+00  0.00000000E+00
  0.00000000E+00  0.00000000E+00  0.00000000E+00
  0.00000000E+00  0.00000000E+00  0.00000000E+00
  0.00000000E+00  0.00000000E+00  0.00000000E+00
  0.00000000E+00  0.00000000E+00  0.00000000E+00
  0.00000000E+00  0.00000000E+00  0.00000000E+00
  0.00000000E+00  0.00000000E+00  0.00000000E+00
  0.00000000E+00  0.00000000E+00  0.00000000E+00
  0.00000000E+00  0.00000000E+00  0.00000000E+00
  0.00000000E+00  0.00000000E+00  0.00000000E+00
  0.00000000E+00  0.00000000E+00  0.00000000E+00
  0.00000000E+00  0.00000000E+00  0.00000000E+00
  0.00000000E+00  0.00000000E+00  0.00000000E+00
  0.00000000E+00  0.00000000E+00  0.00000000E+00
  0.00000000E+00  0.00000000E+00  0.00000000E+00
  0.00000000E+00  0.00000000E+00  0.00000000E+00
  0.00000000E+00  0.00000000E+00  0.00000000E+00
  0.00000000E+00  0.00000000E+00  0.00000000E+00
  0.00000000E+00  0.00000000E+00  0.00000000E+00
  0.00000000E+00  0.00000000E+00  0.00000000E+00
  0.00000000E+00  0.00000000E+00  0.00000000E+00
  0.00000000E+00  0.00000000E+00  0.00000000E+00
  0.00000000E+00  0.00000000E+00  0.00000000E+00
  0.00000000E+00  0.00000000E+00  0.00000000E+00
  0.00000000E+00  0.00000000E+00  0.00000000E+00
  0.00000000E+00  0.00000000E+00  0.00000000E+00
  0.00000000E+00  0.00000000E+00  0.00000000E+00
  0.00000000E+00  0.00000000E+00  0.00000000E+00
  0.00000000E+00  0.00000000E+00  0.00000000E+00
  0.00000000E+00  0.00000000E+00  0.00000000E+00
  0.00000000E+00  0.00000000E+00  0.00000000E+00
  0.00000000E+00  0.00000000E+00  0.00000000E+00
  0.00000000E+00  0.00000000E+00  0.00000000E+00
  0.00000000E+00  0.00000000E+00  0.00000000E+00
  0.00000000E+00  0.00000000E+00  0.00000000E+00
  0.00000000E+00  0.00000000E+00  0.00000000E+00
  0.00000000E+00  0.00000000E+00  0.00000000E+00
  0.00000000E+00  0.00000000E+00  0.00000000E+00
  0.00000000E+00  0.00000000E+00  0.00000000E+00
  0.00000000E+00  0.00000000E+00  0.00000000E+00
  0.00000000E+00  0.00000000E+00  0.00000000E+00
  0.00000000E+00  0.00000000E+00  0.00000000E+00
  0.00000000E+00  0.00000000E+00  0.00000000E+00
  0.00000000E+00  0.00000000E+00  0.00000000E+00
  0.00000000E+00  0.00000000E+00  0.00000000E+00
  0.00000000E+00  0.00000000E+00  0.00000000E+00
  0.00000000E+00  0.00000000E+00  0.00000000E+00
  0.00000000E+00  0.00000000E+00  0.00000000E+00
  0.00000000E+00  0.00000000E+00  0.00000000E+00
  0.00000000E+00  0.00000000E+00  0.00000000E+00
  0.00000000E+00  0.00000000E+00  0.00000000E+00
  0.00000000E+00  0.00000000E+00  0.00000000E+00
  0.00000000E+00  0.00000000E+00  0.00000000E+00
  0.00000000E+00  0.00000000E+00  0.00000000E+00
  0.00000000E+00  0.00000000E+00  0.00000000E+00
  0.00000000E+00  0.00000000E+00  0.00000000E+00
  0.00000000E+00  0.00000000E+00  0.00000000E+00
  0.00000000E+00  0.00000000E+00  0.00000000E+00
  0.00000000E+00  0.00000000E+00  0.00000000E+00
  0.00000000E+00  0.00000000E+00  0.00000000E+00
  0.00000000E+00  0.00000000E+00  0.00000000E+00
  0.00000000E+00  0.00000000E+00  0.00000000E+00
  0.00000000E+00  0.00000000E+00  0.00000000E+00
  0.00000000E+00  0.00000000E+00  0.00000000E+00
  0.00000000E+00  0.00000000E+00  0.00000000E+00
  0.00000000E+00  0.00000000E+00  0.00000000E+00
  0.00000000E+00  0.00000000E+00  0.00000000E+00
  0.00000000E+00  0.00000000E+00  0.00000000E+00
  0.00000000E+00  0.00000000E+00  0.00000000E+00
  0.00000000E+00  0.00000000E+00  0.00000000E+00
  0.00000000E+00  0.00000000E+00  0.00000000E+00
  0.00000000E+00  0.00000000E+00  0.00000000E+00
  0.00000000E+00  0.00000000E+00  0.00000000E+00
  0.00000000E+00  0.00000000E+00  0.00000000E+00
  0.00000000E+00  0.00000000E+00  0.00000000E+00
  0.00000000E+00  0.00000000E+00  0.00000000E+00
  0.00000000E+00  0.00000000E+00  0.00000000E+00
  0.00000000E+00  0.00000000E+00  0.00000000E+00
  0.00000000E+00  0.00000000E+00  0.00000000E+00
  0.00000000E+00  0.00000000E+00  0.00000000E+00
  0.00000000E+00  0.00000000E+00  0.00000000E+00
  0.00000000E+00  0.00000000E+00  0.00000000E+00
  0.00000000E+00  0.00000000E+00  0.00000000E+00
  0.00000000E+00  0.00000000E+00  0.00000000E+00
  0.00000000E+00  0.00000000E+00  0.00000000E+00
  0.00000000E+00  0.00000000E+00  0.00000000E+00
  0.00000000E+00  0.00000000E+00  0.00000000E+00
  0.00000000E+00  0.00000000E+00  0.00000000E+00
  0.00000000E+00  0.00000000E+00  0.00000000E+00
  0.00000000E+00  0.00000000E+00  0.00000000E+00
  0.00000000E+00  0.00000000E+00  0.00000000E+00
  0.00000000E+00  0.00000000E+00  0.00000000E+00
  0.00000000E+00  0.00000000E+00  0.00000000E+00
  0.00000000E+00  0.00000000E+00  0.00000000E+00
  0.00000000E+00  0.00000000E+00  0.00000000E+00
  0.00000000E+00  0.00000000E+00  0.00000000E+00
  0.00000000E+00  0.00000000E+00  0.00000000E+00
  0.00000000E+00  0.00000000E+00  0.00000000E+00
  0.00000000E+00  0.00000000E+00  0.00000000E+00
  0.00000000E+00  0.00000000E+00  0.00000000E+00
  0.00000000E+00  0.00000000E+00  0.00000000E+00
  0.00000000E+00  0.00000000E+00  0.00000000E+00
  0.00000000E+00  0.00000000E+00  0.00000000E+00
  0.00000000E+00  0.00000000E+00  0.00000000E+00
  0.00000000E+00  0.00000000E+00  0.00000000E+00
  0.00000000E+00  0.00000000E+00  0.00000000E+00
  0.00000000E+00  0.00000000E+00  0.00000000E+00
  0.00000000E+00  0.00000000E+00  0.00000000E+00
  0.00000000E+00  0.00000000E+00  0.00000000E+00
  0.00000000E+00  0.00000000E+00  0.00000000E+00
  0.00000000E+00  0.00000000E+00  0.00000000E+00
  0.00000000E+00  0.00000000E+00  0.00000000E+00
  0.00000000E+00  0.00000000E+00  0.00000000E+00
  0.00000000E+00  0.00000000E+00  0.00000000E+00
  0.00000000E+00  0.00000000E+00  0.00000000E+00
  0.00000000E+00  0.00000000E+00  0.00000000E+00
  0.00000000E+00  0.00000000E+00  0.00000000E+00
  0.00000000E+00  0.00000000E+00  0.00000000E+00
  0.00000000E+00  0.00000000E+00  0.00000000E+00
  0.00000000E+00  0.00000000E+00  0.00000000E+00
  0.00000000E+00  0.00000000E+00  0.00000000E+00
  0.00000000E+00  0.00000000E+00  0.00000000E+00
  0.00000000E+00  0.00000000E+00  0.00000000E+00
  0.00000000E+00  0.00000000E+00  0.00000000E+00
  0.00000000E+00  0.00000000E+00  0.00000000E+00
  0.00000000E+00  0.00000000E+00  0.00000000E+00
  0.00000000E+00  0.00000000E+00  0.00000000E+00
  0.00000000E+00  0.00000000E+00  0.00000000E+00
  0.00000000E+00  0.00000000E+00  0.00000000E+00
  0.00000000E+00  0.00000000E+00  0.00000000E+00
  0.00000000E+00  0.00000000E+00  0.00000000E+00
  0.00000000E+00  0.00000000E+00  0.00000000E+00
  0.00000000E+00  0.00000000E+00  0.00000000E+00
  0.00000000E+00  0.00000000E+00  0.00000000E+00
  0.00000000E+00  0.00000000E+00  0.00000000E+00
  0.00000000E+00  0.00000000E+00  0.00000000E+00
  0.00000000E+00  0.00000000E+00  0.00000000E+00
  0.00000000E+00  0.00000000E+00  0.00000000E+00
  0.00000000E+00  0.00000000E+00  0.00000000E+00
  0.00000000E+00  0.00000000E+00  0.00000000E+00
  0.00000000E+00  0.00000000E+00  0.00000000E+00
  0.00000000E+00  0.00000000E+00  0.00000000E+00
  0.00000000E+00  0.00000000E+00  0.00000000E+00
  0.00000000E+00  0.00000000E+00  0.00000000E+00
  0.00000000E+00  0.00000000E+00  0.00000000E+00
  0.00000000E+00  0.00000000E+00  0.00000000E+00
  0.00000000E+00  0.00000000E+00  0.00000000E+00
  0.00000000E+00  0.00000000E+00  0.00000000E+00
  0.00000000E+00  0.00000000E+00  0.00000000E+00
  0.00000000E+00  0.00000000E+00  0.00000000E+00
  0.00000000E+00  0.00000000E+00  0.00000000E+00
  0.00000000E+00  0.00000000E+00  0.00000000E+00
  0.00000000E+00  0.00000000E+00  0.00000000E+00
  0.00000000E+00  0.00000000E+00  0.00000000E+00
  0.00000000E+00  0.00000000E+00  0.00000000E+00
  0.00000000E+00  0.00000000E+00  0.00000000E+00
  0.00000000E+00  0.00000000E+00  0.00000000E+00
  0.00000000E+00  0.00000000E+00  0.00000000E+00
  0.00000000E+00  0.00000000E+00  0.00000000E+00
  0.00000000E+00  0.00000000E+00  0.00000000E+00
  0.00000000E+00  0.00000000E+00  0.00000000E+00
  0.00000000E+00  0.00000000E+00  0.00000000E+00
  0.00000000E+00  0.00000000E+00  0.00000000E+00
  0.00000000E+00  0.00000000E+00  0.00000000E+00
  0.00000000E+00  0.00000000E+00  0.00000000E+00
  0.00000000E+00  0.00000000E+00  0.00000000E+00
  0.00000000E+00  0.00000000E+00  0.00000000E+00
  0.00000000E+00  0.00000000E+00  0.00000000E+00
  0.00000000E+00  0.00000000E+00  0.00000000E+00
  0.00000000E+00  0.00000000E+00  0.00000000E+00
  0.00000000E+00  0.00000000E+00  0.00000000E+00
  0.00000000E+00  0.00000000E+00  0.00000000E+00
  0.00000000E+00  0.00000000E+00  0.00000000E+00
  0.00000000E+00  0.00000000E+00  0.00000000E+00
  0.00000000E+00  0.00000000E+00  0.00000000E+00
  0.00000000E+00  0.00000000E+00  0.00000000E+00
  0.00000000E+00  0.00000000E+00  0.00000000E+00
  0.00000000E+00  0.00000000E+00  0.00000000E+00
  0.00000000E+00  0.00000000E+00  0.00000000E+00
  0.00000000E+00  0.00000000E+00  0.00000000E+00
  0.00000000E+00  0.00000000E+00  0.00000000E+00
  0.00000000E+00  0.00000000E+00  0.00000000E+00
  0.00000000E+00  0.00000000E+00  0.00000000E+00
  0.00000000E+00  0.00000000E+00  0.00000000E+00
  0.00000000E+00  0.00000000E+00  0.00000000E+00
  0.00000000E+00  0.00000000E+00  0.00000000E+00
  0.00000000E+00  0.00000000E+00  0.00000000E+00
  0.00000000E+00  0.00000000E+00  0.00000000E+00
  0.00000000E+00  0.00000000E+00  0.00000000E+00
  0.00000000E+00  0.00000000E+00  0.00000000E+00
  0.00000000E+00  0.00000000E+00  0.00000000E+00
  0.00000000E+00  0.00000000E+00  0.00000000E+00
  0.00000000E+00  0.00000000E+00  0.00000000E+00
  0.00000000E+00  0.00000000E+00  0.00000000E+00
  0.00000000E+00  0.00000000E+00  0.00000000E+00
  0.00000000E+00  0.00000000E+00  0.00000000E+00
  0.00000000E+00  0.00000000E+00  0.00000000E+00
  0.00000000E+00  0.00000000E+00  0.00000000E+00