Amorphous Sb                            
   1.00000000000000     
    21.1576653202042877    0.0000000000000000    0.0000000000000000
     0.0000000000000000   21.1576653202042877    0.0000000000000000
     0.0000000000000000    0.0000000000000000   21.1576653202042877
   Si   Te
   150   150
Direct
  0.6151888514314290  0.5940237103364774  0.5573952515924864
  0.5753567532060808  0.5504106977225666  0.4612405010149350
  0.9149542510176870  0.7685876268108530  0.8147068845230662
  0.5434009216376644  0.1086678340956865  0.7380620627982151
  0.4947645161262648  0.9728335958928044  0.3002195406752600
  0.5016048508236037  0.3099532982434474  0.8943909741523782
  0.1552108115985050  0.4234910007027802  0.9520044278126233
  0.2817684784765709  0.3581833326535955  0.0326248417515035
  0.7639072943187282  0.6920372825114572  0.7284582887178569
  0.1447625665426769  0.6852707202260171  0.9565016174668285
  0.7275711992585775  0.2382513262566912  0.0154717717388187
  0.6217860531473198  0.2985376758219658  0.5858356108176257
  0.2513726241898553  0.0490319362006654  0.6845753373933368
  0.0587361791348246  0.6981317130623640  0.8212673406835617
  0.7076474491435814  0.1455887685107235  0.1477411954891516
  0.5499777950299928  0.1651943896410222  0.9185937361863953
  0.8653596051072200  0.6741073737364623  0.7763056552645694
  0.8063557461352716  0.7907540762897053  0.5544446448953161
  0.0088643438486354  0.3563807766295450  0.1344013277526088
  0.9139771262377797  0.6807942422837376  0.6723225274488270
  0.3321564168571939  0.4454617289901637  0.5302468299037848
  0.0063611982439438  0.1543868480300404  0.7835445251919654
  0.0583830646383088  0.6666898089234682  0.3542965623021728
  0.5836556778721113  0.4473897106862069  0.9519209501490592
  0.5622920574687764  0.1954643882543377  0.8103597736610972
  0.5108694709001382  0.5218477809113479  0.7161571451493214
  0.2530719116069442  0.9260451896923090  0.0155095760260162
  0.3857273645829692  0.1849981835177620  0.0437400803544403
  0.1784330621160054  0.8019699666330063  0.2523492848056692
  0.6758360719285933  0.3735184872486214  0.2431991610705810
  0.1569430099920093  0.7140810045648265  0.1870825567603489
  0.5145811936155104  0.3558066739208574  0.7719614143542941
  0.0173664837531067  0.7150864367315976  0.6536209062318239
  0.8024626242033648  0.6707883758529287  0.2350297280614827
  0.9068868353343135  0.0400037687231187  0.0902645827272818
  0.3007693333213785  0.5514437593151941  0.3692703551389245
  0.3743134206853210  0.4963896474261339  0.4375852957990773
  0.4185938106143389  0.9053069521894000  0.1853142151272860
  0.6238561580407617  0.5916423736177624  0.8566456434759119
  0.4533072662077356  0.0271190682632973  0.8426055729988936
  0.9138509698946996  0.1063956692593491  0.1798888576860017
  0.6269188494528956  0.1905520590648046  0.0002784077073225
  0.6574300208916273  0.7695394496937361  0.3163928119808470
  0.9970791887690929  0.9583305169221943  0.7629104241417787
  0.8353439107466344  0.8630138738886632  0.1069924964648718
  0.7471245367264178  0.0952516800848020  0.7416759184387078
  0.1114891125981473  0.3031895813673132  0.1361361026871708
  0.9188917646739398  0.6796459351560720  0.4217041386749048
  0.0992783688198326  0.5969521209838288  0.4892650665598450
  0.8334007423957817  0.2328327810766448  0.6871024343938837
  0.5248330970470468  0.6209682398749984  0.0159551211662897
  0.2901101756300738  0.1553673941308688  0.1871260322594264
  0.7120127638208887  0.5495419088366038  0.3306225360490601
  0.1172262985900683  0.1892892556606816  0.1177337026649530
  0.3434610060153941  0.8495653332984254  0.1234993470994521
  0.5120789562346600  0.9156263904368360  0.3960059508930310
  0.5935834314470202  0.2854859988010264  0.1374205925924459
  0.6753390138330969  0.8156070046367528  0.1574729452499397
  0.6369581137517146  0.2099851968766996  0.2053809807544990
  0.4164819235750904  0.5527601451126860  0.7704063328760185
  0.3879922077033895  0.2723061389092302  0.1188198283755513
  0.5372618528058132  0.6226268190804358  0.2980153615262162
  0.2525375903980444  0.9547168506390840  0.8300114506749510
  0.3413458500408787  0.4996192435137218  0.2789513637970679
  0.7913063542350997  0.1695617701420665  0.0781945451885518
  0.8842400941911326  0.2614763693106844  0.5155568257382430
  0.2935491740251881  0.2876760059453071  0.9456593994925114
  0.0347773916003340  0.5885100755280904  0.8210121222034863
  0.8367837287354263  0.8280426854500690  0.2139693235824703
  0.8367839983333351  0.4515198906886635  0.8718530558363617
  0.6186005938092575  0.5971355505768084  0.3697114850832234
  0.1901215107831037  0.5492087083713558  0.3734544302996538
  0.7431135536781202  0.7197080192924029  0.6213319833969516
  0.5280706837736433  0.5514252620088455  0.6109577060415248
  0.1926735437294020  0.7529502574288669  0.0870268264021153
  0.5019220333947793  0.5116458922371528  0.9949110957703843
  0.7370745197964027  0.0747444307355361  0.2286454520933043
  0.0921226447837246  0.0209095463335953  0.7445603824359445
  0.6493239270307489  0.0592216036504784  0.2974287363952438
  0.6864883791569156  0.3182241289007344  0.0847458772782154
  0.5907206325038658  0.8829886187254423  0.1987835810010465
  0.1570369190566273  0.1764074056371560  0.3160758004275876
  0.2233945393601772  0.3108223621282410  0.1157349476423713
  0.1934783474091107  0.9702481948688034  0.7365675605652359
  0.0729118025703354  0.1241023998803781  0.0365496306614157
  0.0230834365529870  0.7799042848021656  0.5605878188312484
  0.7344124536717498  0.9046061379534565  0.1203586197010443
  0.9495170311077286  0.5558779919857092  0.2872445985895420
  0.9225686370846241  0.5856910264919885  0.8201871303088368
  0.3773901901243170  0.4237886150718317  0.3516713803394149
  0.1013243842760611  0.5908206223780228  0.9117510193348888
  0.4490634091612604  0.9201429062011484  0.8106001519087394
  0.5871963318546337  0.5041202443555146  0.7953120221353308
  0.9711031318596347  0.7733138202229933  0.4577387799002290
  0.7427869671206422  0.7687230249610961  0.2387109506381517
  0.6467238981832406  0.9497929178787797  0.2697383503384949
  0.4050016868569823  0.3129962586719386  0.9479771439740959
  0.2813799627548720  0.1890579145918805  0.0012976256470802
  0.7092005304510207  0.2849248045649763  0.8313710392775864
  0.8816342514336373  0.2058257222365318  0.1369725797581011
  0.0863402731894743  0.1714048897624467  0.2257505818056490
  0.4586605344288832  0.4234727149585478  0.7017891378406951
  0.5245041613258781  0.4327847655460154  0.8571432469479912
  0.9594827729845767  0.5102756176924418  0.3917753625835355
  0.9735876221193368  0.1279332880314295  0.6328658210333112
  0.0010121390080740  0.6052574177145091  0.4336750885643073
  0.2298550103223792  0.7328497475779243  0.4096170324301895
  0.4021584289324882  0.1351491962893161  0.1908368432077694
  0.3937966000026629  0.3592892242658871  0.0489498829122517
  0.2658710752314463  0.1583233824904330  0.2978971247942308
  0.2337612258166579  0.8563113778363208  0.1015723305927449
  0.4711916023121385  0.2239661994617165  0.9802785814118332
  0.1457260700253381  0.5448216326534888  0.2708270375078667
  0.8547494088455442  0.0771800175947523  0.7575551848278393
  0.4444094478384498  0.0725712478209315  0.2766834175720612
  0.8786353226618102  0.6397119482471254  0.3184861060151004
  0.3392694242508958  0.8857211060884103  0.8024412202952773
  0.7848928827673142  0.6312622584771643  0.5675474069447854
  0.6720175140227169  0.6565134292133156  0.7788286143418777
  0.5576544967819661  0.2713102545250331  0.0339489068296826
  0.9143986395329718  0.1650174766031292  0.7205127688072634
  0.6250799597596857  0.3538956694347874 -0.0039797321376906
  0.8048090627895901  0.5844484734138521  0.3825130981343741
  0.0495245289202425  0.6029583602364712  0.2637034728060214
  0.6344481020145055  0.6955719745426285  0.6051675455771126
  0.4958359903192480  0.8682476189364680  0.2536514461164218
  0.5296446053269868  0.4482374974048409  0.5674754172607517
  0.7154981195764800  0.3174905491116624  0.9386020901221983
  0.1561023720502238  0.8065909231224457  0.3627595098725359
  0.5181923374782745  0.5455963562376208  0.2166199542205110
  0.4628365216676146  0.5645137016063606  0.4601874053782079
  0.7437869230770519  0.9642432361899589  0.2150199405144752
  0.8339242034881801  0.1196344986239889  0.2583296198287491
  0.2287809326109188  0.2002424728173266  0.1008549902153735
  0.9801500858026668  0.0520236560931694  0.8218258365161636
  0.2480008353308566  0.0674113339049503  0.3628812337167225
  0.2725395095807608  0.0597473510684546  0.8636556714682316
  0.2169350218644146  0.0293350566785778  0.0402246338345195
  0.6677764730972258  0.5106901533601277  0.9169596345067471
  0.2233907447562394  0.1052466170437033  0.9539630968704409
  0.0689940192991711  0.4864469851726039  0.7859979889371063
  0.1558885561783559  0.6480107310101606  0.4085332797161340
  0.0473367408659917  0.7776095244209166  0.3742919536690091
  0.0678412461260615  0.1202560847588818  0.6967295229818243
  0.1531194932407412  0.6497521734060933  0.5689556577573878
  0.6080967166398098  0.2926286658837005  0.7807629060345279
  0.5843986256912710  0.0101501878540114  0.7171124150395181
  0.1157400883571588  0.1360913004671550  0.9331922620620881
  0.9811659578135956  0.4168363759967103  0.7944199159465251
  0.0766777452827967  0.2810343047745208  0.2443016775370153
  0.5068608578304240  0.8520624333493013  0.8867225477866950
  0.4332080203061277  0.0837005252861203  0.0880774445057614
  0.7615576241907552  0.3773300175521027  0.1570536620759274
  0.1423380517073913  0.7643937171472140  0.5330066598678752
  0.5211330618005080  0.4852301223334403  0.3248583192368371
  0.8552862020632135  0.3240841663919594  0.6130866799537387
  0.8916464030651839  0.9759536116250056  0.6922218991675494
  0.0986335999778593  0.4820236452705948  0.6698618614833312
  0.4281970105396270  0.5001535341162948  0.8935282012787511
  0.4356242252277283  0.1276064446428289  0.3814227466464788
  0.1123933038071879  0.6437066355435901  0.6815474657451224
  0.4584801062311271  0.6611712477432508  0.3880313479492485
  0.9564163091984055  0.1152166540011842  0.0099915040791614
  0.1757076616646986  0.4352336880525663  0.8294468199937157
  0.4362503554377713  0.6165030768141557  0.5683368368642613
  0.8170076933868592  0.3057128973706086  0.7846811082982511
  0.0078462174651355  0.8617484857020701  0.2987152897482370
  0.2664294232081967  0.3524029858710193  0.6473540212008100
  0.8721835254636030  0.0553993847204302  0.8740137433823315
  0.9765809812827905  0.7202041988111397  0.9088106810580686
  0.2723248499700691  0.3440700256421538  0.5091032302803854
  0.1404689414062215  0.4850004219025834  0.4630090878984550
  0.8926841917273016  0.4931687762026401  0.2009550047154398
  0.5739545723703026  0.3961741572424148  0.1808934931030764
  0.5236459231964951  0.2360467539844297  0.5665552204206028
  0.4666582139872781  0.2373478569389074  0.2027286429474042
  0.6992137662918823  0.3157072977813130  0.4927965619015998
  0.2983545201980936  0.8055174249853657  0.2546094348508582
  0.9405661482281287  0.7669707929803754  0.2198305734805948
  0.9846800563050592  0.1953816674044039  0.5317431440866736
  0.7865106338846256  0.6668845400348452  0.8885609936107346
  0.6639909659782450  0.2452720753925846  0.6838657807763167
  0.3705516602480333  0.7303615369909733  0.1357937783725237
  0.9380307430589412  0.9245558560019437  0.0853484956763389
  0.3327659691638719  0.0329376940636002  0.4431102122508520
  0.5539473778895244  0.0431463765395458  0.9074426204219536
  0.9352164712263614  0.3842813706097428  0.9008750403570522
  0.1285696117888708  0.3525011434028833  0.6799268188043357
  0.7783145717475499  0.8761203871552494  0.9392822901842279
  0.1556348428067029  0.4404860149666160  0.2117298476105337
  0.5796719058528825  0.4259878019015362  0.4613125048766659
  0.7807282020797051  0.2106915470149913  0.4732578083096354
  0.5162812445365711  0.9381704264225794  0.1167724238917842
  0.6611982128504136  0.2702096189796260  0.3056616790112744
  0.8475044089828561  0.9332609240827002  0.2702925520358663
  0.9332324552488949  0.2894171229644025  0.0658845409475325
  0.3067780089892500  0.2996674248216404  0.2059027430206777
  0.4303381276863010  0.7978756526845754  0.5198139933541773
  0.9876624942715657  0.4757786505299479  0.1119262150217903
  0.7995983092331714  0.6854711777114499  0.4543928665704536
  0.6395012374336470  0.8839359847167916  0.3728796701543176
  0.6118366575478068  0.4053724043814008  0.6439314107103261
  0.4904960974999505  0.2973370592037097  0.4502702385840949
  0.2023030196873522  0.9850358936858050  0.2850806320123783
  0.4393267030445682  0.4647460971668837  0.0877988527644664
  0.4614991127734653  0.8161729284613150  0.3563318616567470
  0.3548810238437264  0.6486240234785061  0.7514007186737098
  0.2551716415784592  0.4694603759185118 -0.0006079354180551
  0.3538276890145904  0.0104960140167143  0.6348080858017620
  0.2941818377302611  0.7906910936704611  0.4999135949236513
  0.3192210908117565  0.8307922978573702  0.6968856359517484
  0.7668949665052774  0.1431758120618739  0.6314237057789786
  0.8913108665493622  0.8615972962361852  0.4572706356656469
  0.7184994335463355  0.4295840400115637  0.3416245352842742
  0.1747531589614130  0.7250816932712023  0.8445556692192236
  0.0618709397550218  0.4955429435997352  0.9726005371757893
  0.1233396250090076  0.3170058446349542  0.9924803279472031
  0.8274267208835197  0.2387131632038891  0.2406582222427143
  0.6545162647393776  0.0842267457234931  0.4144405639693293
  0.1660189198877061  0.9208741693461628  0.4013890043978680
  0.6964487751193630  0.1587379038253491  0.8369521162588170
  0.5091395098034051  0.9168207728892369  0.7037517705732026
  0.0229070006410454  0.7925685568487449  0.7502099252386988
  0.0129547613414300  0.4060451032506970  0.4260428169419220
  0.0339338860056978  0.8982687850835873  0.5830842285168573
  0.8981428208276147  0.5976750336128072  0.5860753576384665
  0.5812731681019322  0.0873669332654600  0.6244619395618475
  0.2501165734572430  0.1354984617433674  0.7704458377899254
  0.1901561420295295  0.0839344588472336  0.5869216783195558
  0.7058233043221640  0.4578660035663753  0.8126233662261902
  0.8222320998563315  0.7792065502650436  0.0224705349796880
  0.7942866592864992  0.4013747026087666  0.9843723654830814
  0.3694443001818355  0.9689101350348709  0.2831376949548542
  0.5746159891488736  0.6829002760124089  0.7099051631277374
  0.3706977378676589  0.9044932690377486  0.0171452578011515
  0.3279877530970201  0.7939344505990005  0.8797365180973993
  0.2730821850938075  0.3644967751260914  0.3607045585820990
  0.5769354836985436  0.7209528513286581  0.2395310953896761
  0.8959118246203507  0.4909347153209784  0.7467274123144219
  0.2502266279564238  0.2985102221121000  0.8382901450258046
  0.1922763234456781  0.8683590465519443  0.6726699763044695
  0.7648618693028437  0.0114400841188219  0.3974422208386107
  0.0646209093671369  0.2244538405323563  0.8635317551543332
  0.4707616863511598  0.3595754951464323  0.3163579724020537
  0.8793514111362410  0.8788770274017642  0.8397862404329732
  0.6412840280841986  0.7063486374387610  0.4181625923467706
  0.7235549640838291  0.5171961214974913  0.0219306220682335
  0.2801432903788835  0.4726309831423141  0.1783738714305272
  0.5855973489261886  0.7939741400371655  0.5535209105562627
  0.4260585758326089  0.6904674261698402  0.0160797881594719
  0.3422695355375375  0.2290655834165906  0.3620437017625070
  0.0534190134612494  0.6597221675378291  0.1575392555441115
  0.2686053021468441  0.0342219936724106  0.1525901274161868
  0.5545555433997248  0.6725218413121677  0.9108245223349126
  0.2655167104265506  0.9635119306424555  0.5422752012597444
  0.1232239860118976  0.2841851858056304  0.3547565900975407
  0.2019404275958032  0.5720990090625201  0.8468576024883263
  0.4001024357745215  0.5838710848477580  0.2157591112690368
  0.6278209428091014  0.0933919205149047  0.0703769489144864
  0.6973839451329930  0.9858853100344634  0.7547805363929443
  0.2444447476003130  0.6668163627217696  0.0202118410076164
  0.8673698273397281  0.6789357738346736  0.1353313112270260
  0.8513984148847801  0.4931709171057033  0.4431324692509187
  0.7968121862875408  0.0520735131126011  0.0432432621330594
  0.7150463658004965  0.7653336978323757  0.8170520398038893
  0.2686258061404803  0.6253538316394310  0.5529043827442459
  0.7548598306617343  0.9008320456110859  0.5577413112214213
  0.8650262633757074  0.0917529941453977  0.3726621272116797
  0.5646641847700677  0.1150171146372814  0.2333106472471801
  0.8727933740455230  0.5602507043450820  0.9274143226538036
  0.0994680674617021  0.0087543051643087  0.0581222627904537
  0.6529480958811709  0.8748930394673107  0.6359499921444398
  0.3167561229392525  0.6717775042225705  0.3368143702649836
  0.4757736664726733  0.9232215070700609  0.5101493706248248
  0.0209782068515397  0.9195634296958151  0.4519121262604076
  0.2646210446418077  0.5010964812150203  0.6117363960775022
  0.8871175403324942  0.7969916304496252  0.6463433254039210
  0.9039366806622861  0.3229395718167474  0.4149441620274166
  0.1470387960699562  0.1085759882736686  0.4151797271094268
  0.4461157329527399  0.2562761596858053  0.7950533237941868
  0.1977056559154776  0.8865724618929602  0.9147933373995986
  0.1378850297283346  0.8841625527301017  0.1722665818127277
  0.1455545646583287  0.1976072545268119  0.6511583471586297
  0.7188385773423106  0.5319249949847794  0.5685847737799794
  0.6342910637206884  0.7658537193006779  0.0545879117795440
  0.4236472913325137  0.0975049261390735  0.7475327729187046
  0.2278864406521715  0.6224154169383145  0.2221766783105619
  0.0906979697618242  0.7701377036918425  0.0230233520411597
  0.9783356997666269  0.3478431935010630  0.2494398621518663
  0.3545213306809853  0.4489284382527202  0.7579673949973184
  0.9197120431529066  0.0374461243409060  0.5779359265673872
  0.4291408079132074  0.3798607340595165  0.5848509120304619
  0.3755375028224072  0.0616172248217093  0.9252727068353883
 -0.0011090092305459  0.3166035825397413  0.7352748934956933
  0.0075613721617382  0.0852354835223227  0.2526748501507199
  0.4355837133618706  0.7547017396303448  0.8120553573980693
  0.6166276413383887  0.6318835147123433  0.0920519077071654
  0.7319983740978874  0.5745252660731452  0.2153864888106481
  0.6647566413831899  0.9119736321274540  0.0230055158421560
  0.0857229119638881  0.0278750702472165  0.8774899694063344
 
  0.00000000E+00  0.00000000E+00  0.00000000E+00
  0.00000000E+00  0.00000000E+00  0.00000000E+00
  0.00000000E+00  0.00000000E+00  0.00000000E+00
  0.00000000E+00  0.00000000E+00  0.00000000E+00
  0.00000000E+00  0.00000000E+00  0.00000000E+00
  0.00000000E+00  0.00000000E+00  0.00000000E+00
  0.00000000E+00  0.00000000E+00  0.00000000E+00
  0.00000000E+00  0.00000000E+00  0.00000000E+00
  0.00000000E+00  0.00000000E+00  0.00000000E+00
  0.00000000E+00  0.00000000E+00  0.00000000E+00
  0.00000000E+00  0.00000000E+00  0.00000000E+00
  0.00000000E+00  0.00000000E+00  0.00000000E+00
  0.00000000E+00  0.00000000E+00  0.00000000E+00
  0.00000000E+00  0.00000000E+00  0.00000000E+00
  0.00000000E+00  0.00000000E+00  0.00000000E+00
  0.00000000E+00  0.00000000E+00  0.00000000E+00
  0.00000000E+00  0.00000000E+00  0.00000000E+00
  0.00000000E+00  0.00000000E+00  0.00000000E+00
  0.00000000E+00  0.00000000E+00  0.00000000E+00
  0.00000000E+00  0.00000000E+00  0.00000000E+00
  0.00000000E+00  0.00000000E+00  0.00000000E+00
  0.00000000E+00  0.00000000E+00  0.00000000E+00
  0.00000000E+00  0.00000000E+00  0.00000000E+00
  0.00000000E+00  0.00000000E+00  0.00000000E+00
  0.00000000E+00  0.00000000E+00  0.00000000E+00
  0.00000000E+00  0.00000000E+00  0.00000000E+00
  0.00000000E+00  0.00000000E+00  0.00000000E+00
  0.00000000E+00  0.00000000E+00  0.00000000E+00
  0.00000000E+00  0.00000000E+00  0.00000000E+00
  0.00000000E+00  0.00000000E+00  0.00000000E+00
  0.00000000E+00  0.00000000E+00  0.00000000E+00
  0.00000000E+00  0.00000000E+00  0.00000000E+00
  0.00000000E+00  0.00000000E+00  0.00000000E+00
  0.00000000E+00  0.00000000E+00  0.00000000E+00
  0.00000000E+00  0.00000000E+00  0.00000000E+00
  0.00000000E+00  0.00000000E+00  0.00000000E+00
  0.00000000E+00  0.00000000E+00  0.00000000E+00
  0.00000000E+00  0.00000000E+00  0.00000000E+00
  0.00000000E+00  0.00000000E+00  0.00000000E+00
  0.00000000E+00  0.00000000E+00  0.00000000E+00
  0.00000000E+00  0.00000000E+00  0.00000000E+00
  0.00000000E+00  0.00000000E+00  0.00000000E+00
  0.00000000E+00  0.00000000E+00  0.00000000E+00
  0.00000000E+00  0.00000000E+00  0.00000000E+00
  0.00000000E+00  0.00000000E+00  0.00000000E+00
  0.00000000E+00  0.00000000E+00  0.00000000E+00
  0.00000000E+00  0.00000000E+00  0.00000000E+00
  0.00000000E+00  0.00000000E+00  0.00000000E+00
  0.00000000E+00  0.00000000E+00  0.00000000E+00
  0.00000000E+00  0.00000000E+00  0.00000000E+00
  0.00000000E+00  0.00000000E+00  0.00000000E+00
  0.00000000E+00  0.00000000E+00  0.00000000E+00
  0.00000000E+00  0.00000000E+00  0.00000000E+00
  0.00000000E+00  0.00000000E+00  0.00000000E+00
  0.00000000E+00  0.00000000E+00  0.00000000E+00
  0.00000000E+00  0.00000000E+00  0.00000000E+00
  0.00000000E+00  0.00000000E+00  0.00000000E+00
  0.00000000E+00  0.00000000E+00  0.00000000E+00
  0.00000000E+00  0.00000000E+00  0.00000000E+00
  0.00000000E+00  0.00000000E+00  0.00000000E+00
  0.00000000E+00  0.00000000E+00  0.00000000E+00
  0.00000000E+00  0.00000000E+00  0.00000000E+00
  0.00000000E+00  0.00000000E+00  0.00000000E+00
  0.00000000E+00  0.00000000E+00  0.00000000E+00
  0.00000000E+00  0.00000000E+00  0.00000000E+00
  0.00000000E+00  0.00000000E+00  0.00000000E+00
  0.00000000E+00  0.00000000E+00  0.00000000E+00
  0.00000000E+00  0.00000000E+00  0.00000000E+00
  0.00000000E+00  0.00000000E+00  0.00000000E+00
  0.00000000E+00  0.00000000E+00  0.00000000E+00
  0.00000000E+00  0.00000000E+00  0.00000000E+00
  0.00000000E+00  0.00000000E+00  0.00000000E+00
  0.00000000E+00  0.00000000E+00  0.00000000E+00
  0.00000000E+00  0.00000000E+00  0.00000000E+00
  0.00000000E+00  0.00000000E+00  0.00000000E+00
  0.00000000E+00  0.00000000E+00  0.00000000E+00
  0.00000000E+00  0.00000000E+00  0.00000000E+00
  0.00000000E+00  0.00000000E+00  0.00000000E+00
  0.00000000E+00  0.00000000E+00  0.00000000E+00
  0.00000000E+00  0.00000000E+00  0.00000000E+00
  0.00000000E+00  0.00000000E+00  0.00000000E+00
  0.00000000E+00  0.00000000E+00  0.00000000E+00
  0.00000000E+00  0.00000000E+00  0.00000000E+00
  0.00000000E+00  0.00000000E+00  0.00000000E+00
  0.00000000E+00  0.00000000E+00  0.00000000E+00
  0.00000000E+00  0.00000000E+00  0.00000000E+00
  0.00000000E+00  0.00000000E+00  0.00000000E+00
  0.00000000E+00  0.00000000E+00  0.00000000E+00
  0.00000000E+00  0.00000000E+00  0.00000000E+00
  0.00000000E+00  0.00000000E+00  0.00000000E+00
  0.00000000E+00  0.00000000E+00  0.00000000E+00
  0.00000000E+00  0.00000000E+00  0.00000000E+00
  0.00000000E+00  0.00000000E+00  0.00000000E+00
  0.00000000E+00  0.00000000E+00  0.00000000E+00
  0.00000000E+00  0.00000000E+00  0.00000000E+00
  0.00000000E+00  0.00000000E+00  0.00000000E+00
  0.00000000E+00  0.00000000E+00  0.00000000E+00
  0.00000000E+00  0.00000000E+00  0.00000000E+00
  0.00000000E+00  0.00000000E+00  0.00000000E+00
  0.00000000E+00  0.00000000E+00  0.00000000E+00
  0.00000000E+00  0.00000000E+00  0.00000000E+00
  0.00000000E+00  0.00000000E+00  0.00000000E+00
  0.00000000E+00  0.00000000E+00  0.00000000E+00
  0.00000000E+00  0.00000000E+00  0.00000000E+00
  0.00000000E+00  0.00000000E+00  0.00000000E+00
  0.00000000E+00  0.00000000E+00  0.00000000E+00
  0.00000000E+00  0.00000000E+00  0.00000000E+00
  0.00000000E+00  0.00000000E+00  0.00000000E+00
  0.00000000E+00  0.00000000E+00  0.00000000E+00
  0.00000000E+00  0.00000000E+00  0.00000000E+00
  0.00000000E+00  0.00000000E+00  0.00000000E+00
  0.00000000E+00  0.00000000E+00  0.00000000E+00
  0.00000000E+00  0.00000000E+00  0.00000000E+00
  0.00000000E+00  0.00000000E+00  0.00000000E+00
  0.00000000E+00  0.00000000E+00  0.00000000E+00
  0.00000000E+00  0.00000000E+00  0.00000000E+00
  0.00000000E+00  0.00000000E+00  0.00000000E+00
  0.00000000E+00  0.00000000E+00  0.00000000E+00
  0.00000000E+00  0.00000000E+00  0.00000000E+00
  0.00000000E+00  0.00000000E+00  0.00000000E+00
  0.00000000E+00  0.00000000E+00  0.00000000E+00
  0.00000000E+00  0.00000000E+00  0.00000000E+00
  0.00000000E+00  0.00000000E+00  0.00000000E+00
  0.00000000E+00  0.00000000E+00  0.00000000E+00
  0.00000000E+00  0.00000000E+00  0.00000000E+00
  0.00000000E+00  0.00000000E+00  0.00000000E+00
  0.00000000E+00  0.00000000E+00  0.00000000E+00
  0.00000000E+00  0.00000000E+00  0.00000000E+00
  0.00000000E+00  0.00000000E+00  0.00000000E+00
  0.00000000E+00  0.00000000E+00  0.00000000E+00
  0.00000000E+00  0.00000000E+00  0.00000000E+00
  0.00000000E+00  0.00000000E+00  0.00000000E+00
  0.00000000E+00  0.00000000E+00  0.00000000E+00
  0.00000000E+00  0.00000000E+00  0.00000000E+00
  0.00000000E+00  0.00000000E+00  0.00000000E+00
  0.00000000E+00  0.00000000E+00  0.00000000E+00
  0.00000000E+00  0.00000000E+00  0.00000000E+00
  0.00000000E+00  0.00000000E+00  0.00000000E+00
  0.00000000E+00  0.00000000E+00  0.00000000E+00
  0.00000000E+00  0.00000000E+00  0.00000000E+00
  0.00000000E+00  0.00000000E+00  0.00000000E+00
  0.00000000E+00  0.00000000E+00  0.00000000E+00
  0.00000000E+00  0.00000000E+00  0.00000000E+00
  0.00000000E+00  0.00000000E+00  0.00000000E+00
  0.00000000E+00  0.00000000E+00  0.00000000E+00
  0.00000000E+00  0.00000000E+00  0.00000000E+00
  0.00000000E+00  0.00000000E+00  0.00000000E+00
  0.00000000E+00  0.00000000E+00  0.00000000E+00
  0.00000000E+00  0.00000000E+00  0.00000000E+00
  0.00000000E+00  0.00000000E+00  0.00000000E+00
  0.00000000E+00  0.00000000E+00  0.00000000E+00
  0.00000000E+00  0.00000000E+00  0.00000000E+00
  0.00000000E+00  0.00000000E+00  0.00000000E+00
  0.00000000E+00  0.00000000E+00  0.00000000E+00
  0.00000000E+00  0.00000000E+00  0.00000000E+00
  0.00000000E+00  0.00000000E+00  0.00000000E+00
  0.00000000E+00  0.00000000E+00  0.00000000E+00
  0.00000000E+00  0.00000000E+00  0.00000000E+00
  0.00000000E+00  0.00000000E+00  0.00000000E+00
  0.00000000E+00  0.00000000E+00  0.00000000E+00
  0.00000000E+00  0.00000000E+00  0.00000000E+00
  0.00000000E+00  0.00000000E+00  0.00000000E+00
  0.00000000E+00  0.00000000E+00  0.00000000E+00
  0.00000000E+00  0.00000000E+00  0.00000000E+00
  0.00000000E+00  0.00000000E+00  0.00000000E+00
  0.00000000E+00  0.00000000E+00  0.00000000E+00
  0.00000000E+00  0.00000000E+00  0.00000000E+00
  0.00000000E+00  0.00000000E+00  0.00000000E+00
  0.00000000E+00  0.00000000E+00  0.00000000E+00
  0.00000000E+00  0.00000000E+00  0.00000000E+00
  0.00000000E+00  0.00000000E+00  0.00000000E+00
  0.00000000E+00  0.00000000E+00  0.00000000E+00
  0.00000000E+00  0.00000000E+00  0.00000000E+00
  0.00000000E+00  0.00000000E+00  0.00000000E+00
  0.00000000E+00  0.00000000E+00  0.00000000E+00
  0.00000000E+00  0.00000000E+00  0.00000000E+00
  0.00000000E+00  0.00000000E+00  0.00000000E+00
  0.00000000E+00  0.00000000E+00  0.00000000E+00
  0.00000000E+00  0.00000000E+00  0.00000000E+00
  0.00000000E+00  0.00000000E+00  0.00000000E+00
  0.00000000E+00  0.00000000E+00  0.00000000E+00
  0.00000000E+00  0.00000000E+00  0.00000000E+00
  0.00000000E+00  0.00000000E+00  0.00000000E+00
  0.00000000E+00  0.00000000E+00  0.00000000E+00
  0.00000000E+00  0.00000000E+00  0.00000000E+00
  0.00000000E+00  0.00000000E+00  0.00000000E+00
  0.00000000E+00  0.00000000E+00  0.00000000E+00
  0.00000000E+00  0.00000000E+00  0.00000000E+00
  0.00000000E+00  0.00000000E+00  0.00000000E+00
  0.00000000E+00  0.00000000E+00  0.00000000E+00
  0.00000000E+00  0.00000000E+00  0.00000000E+00
  0.00000000E+00  0.00000000E+00  0.00000000E+00
  0.00000000E+00  0.00000000E+00  0.00000000E+00
  0.00000000E+00  0.00000000E+00  0.00000000E+00
  0.00000000E+00  0.00000000E+00  0.00000000E+00
  0.00000000E+00  0.00000000E+00  0.00000000E+00
  0.00000000E+00  0.00000000E+00  0.00000000E+00
  0.00000000E+00  0.00000000E+00  0.00000000E+00
  0.00000000E+00  0.00000000E+00  0.00000000E+00
  0.00000000E+00  0.00000000E+00  0.00000000E+00
  0.00000000E+00  0.00000000E+00  0.00000000E+00
  0.00000000E+00  0.00000000E+00  0.00000000E+00
  0.00000000E+00  0.00000000E+00  0.00000000E+00
  0.00000000E+00  0.00000000E+00  0.00000000E+00
  0.00000000E+00  0.00000000E+00  0.00000000E+00
  0.00000000E+00  0.00000000E+00  0.00000000E+00
  0.00000000E+00  0.00000000E+00  0.00000000E+00
  0.00000000E+00  0.00000000E+00  0.00000000E+00
  0.00000000E+00  0.00000000E+00  0.00000000E+00
  0.00000000E+00  0.00000000E+00  0.00000000E+00
  0.00000000E+00  0.00000000E+00  0.00000000E+00
  0.00000000E+00  0.00000000E+00  0.00000000E+00
  0.00000000E+00  0.00000000E+00  0.00000000E+00
  0.00000000E+00  0.00000000E+00  0.00000000E+00
  0.00000000E+00  0.00000000E+00  0.00000000E+00
  0.00000000E+00  0.00000000E+00  0.00000000E+00
  0.00000000E+00  0.00000000E+00  0.00000000E+00
  0.00000000E+00  0.00000000E+00  0.00000000E+00
  0.00000000E+00  0.00000000E+00  0.00000000E+00
  0.00000000E+00  0.00000000E+00  0.00000000E+00
  0.00000000E+00  0.00000000E+00  0.00000000E+00
  0.00000000E+00  0.00000000E+00  0.00000000E+00
  0.00000000E+00  0.00000000E+00  0.00000000E+00
  0.00000000E+00  0.00000000E+00  0.00000000E+00
  0.00000000E+00  0.00000000E+00  0.00000000E+00
  0.00000000E+00  0.00000000E+00  0.00000000E+00
  0.00000000E+00  0.00000000E+00  0.00000000E+00
  0.00000000E+00  0.00000000E+00  0.00000000E+00
  0.00000000E+00  0.00000000E+00  0.00000000E+00
  0.00000000E+00  0.00000000E+00  0.00000000E+00
  0.00000000E+00  0.00000000E+00  0.00000000E+00
  0.00000000E+00  0.00000000E+00  0.00000000E+00