Amorphous Sb                            
   1.00000000000000     
    19.6507677405284152    0.0000000000000000    0.0000000000000000
     0.0000000000000000   19.6507677405284152    0.0000000000000000
     0.0000000000000000    0.0000000000000000   19.6507677405284152
   Sn   S 
   100   200
Direct
  0.3300334585891372  0.7075695840664181  0.5930250231195132
  0.0039422839158537  0.1245068650199773  0.5892534917307480
  0.1013165077385242  0.9105508428885656  0.1141510689208879
  0.9170821583845917  0.8488764159675793  0.6404484673936439
  0.5371740919302627  0.8958739964177306  0.0518977846414465
  0.7978812368166617  0.7059082336559280  0.0753726514306415
  0.9354303953275431  0.1235164884528833  0.9271656672104087
  0.9936186514191280  0.2975358947137087  0.1547172783786611
  0.3281634634447254  0.0947661685162722  0.9780872851250610
  0.2194477474686489  0.8831520407910345  0.5204591517020422
  0.5054864355448653  0.0775736793535242  0.9955129380605556
  0.0902596497708302  0.4808668358679803  0.1724418274359117
  0.8227183152819059  0.2148687166988619  0.0512240449379144
  0.3520998699108116  0.1020224060247886  0.7929167032435755
  0.3265052983006140  0.8801889196042378  0.0185220586191877
  0.6390888701295586  0.2649786040833580  0.0803396526853469
  0.8942680294634623  0.4569030777503043  0.0195731627702322
  0.7016189454304738  0.8369237542102382  0.7060421183235671
  0.9593462575136158  0.8962906764324639  0.4292374335120418
  0.3432649600333016  0.3827008952430174  0.9271503075240396
  0.5519964358471596  0.8321429787628206  0.6118839251569854
  0.0677432000988877  0.9677234723994305  0.8158093739526615
  0.8145425144259444  0.3990065172151029  0.5712400897823582
  0.2163771878372288  0.8504259096421288  0.2975345477775548
  0.7263270424863042  0.9032086416833701  0.9677109763049179
  0.5569700549953690  0.6684958001242259  0.9966519726100116
  0.3761675431879170  0.0270726436251015  0.6073071580370214
  0.5689857849902291  0.0675105629950050  0.7180662858298703
  0.8850229815914149  0.0390681826650118  0.7062654928760740
  0.4072411945606567  0.7685879814792984  0.1330944950731886
  0.2842683724674306  0.2601557562733586  0.6818345779981606
  0.2053183244440230  0.0711074649819665  0.2144294404448796
  0.3369976320455519  0.2395950374743201  0.3448259009627392
  0.7283143631836201  0.6466273567903884  0.2860295418009462
  0.4229647504086334  0.5430571331429803  0.5927120358427710
  0.5324768694439199  0.5082169818654524  0.8239806860150934
  0.3325077928803942  0.5194045902614030  0.7881242511725510
  0.7644905678108433  0.2302326849282955  0.7035897755832148
  0.9023080755582679  0.6802219186439883  0.5107658910858952
  0.2723625844247021  0.4498296065894645  0.6163581476279397
  0.1902244358776173  0.2365767757686921  0.0647671780111490
  0.5289466431180465  0.2445268118982296  0.8788267232521836
  0.6360804359041102  0.4558090102267467  0.3045716308134088
  0.6582141747809258  0.6455137806294552  0.6311502109811347
  0.6613738513770785  0.3601110576716525  0.7975165719695074
  0.2012033493506189  0.0661392651394546  0.7110727115363673
  0.6462776885647258  0.8143596909576830  0.1915557638835796
  0.0088982137302582  0.5871624765334283  0.9239095199508343
  0.8317281492374720  0.8105976281084450  0.2997291409171937
  0.4798980662063728  0.1984602943461017  0.4861762291181265
  0.5696512408427014  0.9974452830423212  0.5162401842595868
  0.6777412618604849  0.4539196109570829  0.0992160267355779
  0.9123322901039292  0.0839553707073461  0.3204734753830867
  0.4831284927339906  0.9350295884607559  0.3092521410298386
  0.7932154746795177  0.7282335976383049  0.8589304641721750
  0.1647306086034837  0.3315732689921836  0.8265344914360454
  0.2022195038224033  0.4741909644003839  0.3444101116913299
  0.6911988465060077  0.1692673400190937  0.9142197836912328
  0.9981845655109653  0.7300549111328187  0.1412743356163953
  0.7475260521021928  0.5365472348431265  0.9377925924551516
  0.4565564566007722  0.7005469525794815  0.7261389718895039
  0.1791900770924976  0.7120946279200028  0.4657699588866647
  0.5336797800380034  0.6708932119378218  0.4404224584956572
  0.4529965170939003  0.4815361812044696  0.0366620241482100
  0.2022921916935270  0.4730039706302497  0.0087192245304873
  0.1406422290132655  0.1104775512601822  0.9152011454528499
  0.9614346760870451  0.2619106049423398  0.4195082382887899
  0.1740228349827567  0.7144915743976610  0.9513988878464068
  0.1992311193367313  0.8645650189398529  0.7483622238527549
  0.7327443702675163  0.8074690609958631  0.4909274431843118
  0.7664367325828938  0.9991093701765157  0.1985850233579733
  0.0152374953984736  0.4615846113429390  0.5548358244049706
  0.7892365450958916  0.9649880144834687  0.5596106118752618
  0.7460301781340358  0.5306015015966097  0.4337473182014902
  0.1327672092923614  0.2550181765459984  0.2963713994984963
  0.4711926043833191  0.3565532759897966  0.6598504143240030
  0.3389290283596422  0.6340581561150858  0.9387398278633351
  0.9032779792935510  0.9746349014493501  0.9973684805519181
  0.2732944551931309  0.0453126637779521  0.3855717743100757
  0.4719705147565663  0.5389227909004715  0.3289127322151461
  0.2339599705685189  0.1663030482843749  0.5142065577577600
  0.1512500148233721  0.5719817386081697  0.6913220930955524
  0.4290853032164268  0.2591432445661537  0.0725734487742415
  0.3289629969126674  0.4392790021510177  0.1726395500664481
  0.0937621798610586  0.0814701355611900  0.4021650677995895
  0.3811363213186232  0.7606711284665604  0.3488942835995630
  0.5683486818953631  0.1095329493274632  0.3343003903221523
  0.5092353941053550  0.6433227397501369  0.1624322459433948
  0.5708752848036234  0.7706067864023144  0.8383886567813101
  0.5377977632689757  0.3263270780994781  0.2466309832351314
  0.9367653390398898  0.6036293628229562  0.3450669798799004
  0.3903832008057790  0.8841286252973810  0.7546605044208705
  0.7946275691659576  0.1714045034173920  0.3586234480175783
  0.8864095449377793  0.5354916387744862  0.1866085989804699
  0.1455499377869418  0.2941399942124414  0.5692319291400758
  0.1229148332784690  0.6722138511948487  0.2735079458497945
  0.3609791582514443  0.4508178286185869  0.4788843813148930
  0.9456543791700357  0.2878203718252875  0.7588345243116378
  0.2873163835295460  0.6274604102185743  0.1558124448025958
  0.5978090548228681  0.4650581887333730  0.5264130583360775
  0.7256642316562407  0.5531809004207179  0.7859286308083410
  0.3936485002761693  0.6283349329723851  0.4138499726082874
  0.0397703779122117  0.5798486835935796  0.2506328449954944
  0.8664687774180442  0.5622172534023533  0.8812435120650105
  0.8668919801888534  0.4685952176338686  0.8220289616724861
  0.1331207524110297  0.1794387110209889  0.6411260147105520
  0.7959759912434986  0.0089904527211856  0.3379243404246776
  0.9272529485485539  0.0753472031410231  0.4592592016551887
  0.0956636270103794  0.6601760845223519  0.0392675907544888
  0.6555596395392423  0.1276191968692667  0.4338637502360833
  0.5853479460466782  0.9236109669506186  0.7192652341129150
  0.0527719489631832  0.6709105717749082  0.4475694838766145
  0.2740440471712144  0.0058347427059829  0.8883321526480675
  0.0496862932682208  0.0865376696803535  0.0069512514394763
  0.7888081879296727  0.6551512516773543  0.4351509089965965
  0.6241015889469691  0.5895815623253191  0.3573621672021230
  0.0915913850236544  0.3743602074293048  0.6679449200874849
  0.1641546616778218  0.2117124210331674  0.7409108135888322
  0.8766972406300804  0.3807192487185307  0.8800097544466122
  0.8101443186824958  0.8087085051270525  0.9718537322658873
  0.7269203732471535  0.6668669511767913  0.9629484489601691
  0.0624830802296254  0.0927015180323643  0.1775583229837402
  0.9427650082363714  0.2929784121913874  0.0301674766082959
  0.0475374856537036  0.9812056602373195  0.9975524193864193
  0.0832749201526473  0.4131581612131435  0.9992719508174560
  0.6435553759280397  0.2885085453917270  0.9469072765780394
  0.3359239492005550  0.9450408040588568  0.4298859168329187
  0.5247392242982566  0.1743280686329680  0.0731899880219540
  0.3158936790861727  0.7921280326418159  0.8120949041974127
  0.9963338725617510  0.4215655456885860  0.3512385634790503
  0.2050462376741738  0.7657169485796903  0.6494375855009710
  0.7687123450218628  0.7113771196911669  0.6821503785743276
  0.9544740900158641  0.8400672446280844  0.2642845682353392
  0.2159372715625353  0.3869905800359147  0.4711796279665473
  0.8161677458310098  0.7552905359995840  0.5957213469858380
  0.3098894732507986  0.7046319999735594  0.7501918060311457
  0.9159328885654977  0.8712022532609707  0.0877486146107820
  0.9637022740924147  0.0667125340150670  0.1388058860461887
  0.9370155206664796  0.3421862864769805  0.5557683087314241
  0.4730451482464227  0.8533088178575359  0.9535442786875149
  0.5408674211544094  0.4630844438287974  0.6391897500995423
  0.1951441302003647  0.1520247094838137  0.3492778004177287
  0.9760581377056345  0.2729038722846446  0.6296137380370054
  0.4227517718347344  0.8187545475525124  0.6437530295295614
  0.7405851863473304  0.3446617592049085  0.2659504344720012
  0.1862996310143440  0.8937519253027199  0.0053056222344208
  0.7770125936338270  0.8573205298824116  0.1931960466581056
  0.1658122957884293  0.2367863381896016  0.9354641825779249
  0.9265164325827528  0.5839283473391083  0.6825096175319628
  0.4530473252597964  0.5583472673222259  0.7321346422370357
  0.1440620614828684  0.8389160651378287  0.9305171064103743
  0.6494493285042571  0.9092681920674464  0.5764656212052999
  0.0312873018474810  0.0852129116219551  0.7529828017031853
  0.3348179326831370  0.8889635864195434  0.3384686098293085
  0.6317215096927122  0.7316616373616358  0.5271130620234963
  0.5852007976403165  0.5248706667764891  0.9998959043400772
  0.1218835720211823  0.3375248043325681  0.1246387359823374
  0.0027509591931522  0.2293054341761461  0.9701135351207359
  0.1286469422127332  0.5538215610634621  0.8556096962114761
  0.1453010000783007  0.5139941178137045  0.5503708008609226
  0.9985407921777691  0.9898851470168346  0.3054007594230087
  0.6402515763337782  0.8296052946947827  0.0410645689475187
  0.2555107122167682  0.2874443390264347  0.2328597963536688
  0.4201054818594219  0.3155619037832935  0.1816267493978756
  0.2102516669421587  0.0947868925638905  0.0340131782120229
  0.8921063983593295  0.5185154676278396  0.5433379427516091
  0.3931323815655546  0.0254385551318283  0.0545460662005898
  0.9172466284804500  0.6650622073354733  0.0178349153196242
  0.6392383146361348  0.5048540909082261  0.7416390630182379
  0.2438149631041640  0.9677034584151888  0.1272104983113513
  0.4885867314834931  0.0374002523607747  0.4179722304748147
  0.7423789117046804  0.1565186031150969  0.5942987519878983
  0.4007092951142753  0.5567456353610969  0.2071559099362955
  0.9865014591085559  0.6781129883277459  0.6709775345628221
  0.6786385324430991  0.0273243449375541  0.4580985221947203
  0.8609727338243004  0.1620023114166496  0.7606740178952860
  0.3443529195526974  0.1354393763301623  0.4484669102805200
  0.3916573620591208  0.1186043867502103  0.2326713369047476
  0.3427109575153227  0.4963947476803161  0.3522411432492123
  0.1985286034524101  0.0399814264091722  0.4938603777615295
  0.0211012668069701  0.4443171320584262  0.9180627484194643
  0.8297332104939568  0.3353035485056397  0.7121152439222179
  0.4151560807811394  0.4847452124213082  0.8972574511547209
  0.8371253232252420  0.3607020523958607  0.3045948203630786
  0.7607401928024849  0.0629745938926725  0.8693787748988812
  0.0926662373553550  0.1851846725778187  0.1443233195025694
  0.7789704860443707  0.9875909786334481  0.0513359078208395
  0.7492409428802880  0.0652672149399730  0.6472116576493776
  0.7010761011795428  0.1542750658726000  0.0482291189151141
  0.6444695985914047  0.8347479004714627  0.3287412785709577
  0.6659430765631948  0.2168290603227499  0.7849998986734338
  0.3211074009741516  0.4017199793022687  0.3067914486679210
  0.6271479644912392  0.9886891380795372  0.1931689480258131
  0.2729598207812205  0.2157801717612347  0.1572390063732889
  0.2857259582876945  0.7363545484934245  0.0005567390506870
  0.8870784505462337  0.1102489908166717  0.1918498110906976
  0.8847105443243836  0.7916965275522643  0.4287513839008694
  0.1786336588548227  0.4185593827455394  0.7058222512789084
  0.0698901554924101  0.3856753790226147  0.2858391798636705
  0.4700877195105854  0.1738715426702575  0.7508671280094069
  0.1307973080601102  0.6194197555896029  0.5605995020255194
  0.5959621889117153  0.0025622708303255  0.0350061708801169
  0.5905568188177324  0.5303515540331289  0.1825867183102012
  0.6658742171870317  0.6847499757713444  0.1822791990710296
  0.5015734162197152  0.5338244966030099  0.4724541403667202
  0.3025354985984444  0.2487212024010701  0.8133484100309164
  0.3008602096196132  0.5484964101048500  0.0322790619337436
  0.5302393336152086  0.6984596107519164  0.3011460669679067
  0.5318499561937609  0.9023432148370994  0.8060839271229804
  0.5066323564904948  0.2239466193759374  0.3545413609244075
  0.2106274278980844  0.2968933074553349  0.4135550704281152
  0.2167258697024075  0.5160821545253440  0.2048172051949255
  0.6921387512360687  0.8137810050120302  0.8327937573334127
  0.2823930743434577  0.9480470262399806  0.6985900990435248
  0.5293525635624735  0.0953681826055289  0.5863199839862582
  0.7081280027905827  0.5281506416781179  0.5569956176166795
  0.5798408349582139  0.1123378869420985  0.8891709823055857
  0.2974662550645163  0.7701866301837548  0.4795550652155598
  0.1941343905697725  0.6341237045347430  0.8595024627438453
  0.5798067471297652  0.3093579972093654  0.5120084536645653
  0.6936510683838948  0.6513087229570441  0.7790271170803421
  0.0158183501397449  0.1554906490914542  0.8278106076779564
  0.5030370039741320  0.4118392162244459  0.3393761766366646
  0.1815512661784875  0.9810503651179658  0.3153627175901988
  0.5249826030599029  0.3568390069322771  0.7880127838682000
  0.8253214050714370  0.2023650988666581  0.9219780695607944
  0.0676651738594825  0.9202494444419880  0.6865388196107612
  0.4866439604445839  0.0844858636540701  0.2244624221592025
  0.0032106938130230  0.1793149892619946  0.3323376640160934
  0.3357037115845244  0.6035606281932505  0.4956678699591757
  0.9821731839768885  0.7463074277603817  0.7477983919854609
  0.5865659477904548  0.2829198009260631  0.6160765812415043
  0.4315259657859335  0.2307371098829116  0.6704927376843696
  0.9567610081207547  0.5784291870385768  0.0694713726696960
  0.2858285410480260  0.5746941361032198  0.6598034137497804
  0.8062674704323990  0.9150436782409876  0.6922097365303069
  0.0295549831747304  0.7170789677376498  0.3557737562325903
  0.4783049722404723  0.8901455672395233  0.5035009609769270
  0.9242238714922003  0.9441191039510286  0.5550192375701181
  0.9983208900699390  0.5102447159281418  0.6816512681931998
  0.4624851520132925  0.8915600693758722  0.1453609580785231
  0.1501931616877027  0.8296066524515067  0.4037597971682462
  0.0305842886050347  0.7259083179891834  0.9041335537234225
  0.2755797398339798  0.8771816316068712  0.1738208317565160
  0.6688805766390659  0.3349650889640920  0.6548810644187137
  0.6105874446506058  0.9829249831276847  0.2992951416080024
  0.3260782669597039  0.0359113089370182  0.2657240845240826
  0.7749407429644792  0.5226019521785347  0.2986331474658953
  0.3624181288178056  0.4064554530452884  0.7135859742375104
  0.4363856012241108  0.0175717948190172  0.7243540512570775
  0.1144851028529854  0.9957171918913439  0.6264872662190564
  0.7072280009089306  0.9762775981350005  0.8589563405216543
  0.6125397057767149  0.4647266573045803  0.9213126591216771
  0.4522855683492657  0.7537578662990008  0.9997185846469075
  0.7542185584264930  0.3478081611036437  0.1577726031110579
  0.6684538988904278  0.4182095324015957  0.4290586643267371
  0.8238330547280571  0.9213435007516108  0.3848834149350813
  0.5879614051582198  0.7456365457354380  0.7093746206372017
  0.1511491001393953  0.6004234244742711  0.1068522602963846
  0.0714701008665416  0.1894327664425720  0.4960738881322896
  0.7447542914391999  0.1384244208924928  0.2328332465711528
  0.2336322848724404  0.4345777571771298  0.8731058040231350
  0.6404921580863536  0.1595759047411765  0.2294604006709119
  0.8664405509133586  0.4692462454277173  0.4518665413379889
  0.3504171674955502  0.9335774662094001  0.8983126872781008
  0.8851621121969607  0.9016397892208629  0.8884765710846748
  0.4047066875098637  0.3172155238602956  0.4629512853981997
  0.1282341125506768  0.7841158774887569  0.2038292146803708
  0.3859740331233681  0.2991862492214373  0.8405939886895797
  0.7873130504172186  0.3438486447247285  0.0214929191835968
  0.5261295214116437  0.4446631645553422  0.1602683646017830
  0.8800499340388480  0.2650271242779562  0.2933744515305097
  0.4654857875111819  0.3374852287340609  0.9864558699504192
  0.1317448877131073  0.7919034331718005  0.5785127273316808
  0.2805974545249143  0.3690651336251082  0.0398198785377340
  0.5105908686090580  0.8513225248552121  0.4081509908765418
  0.9578267124754913  0.9341206868545605  0.2169664367355178
  0.7919274007109479  0.5378613248885168  0.0902162391189731
  0.3010795586393450  0.1332130857450339  0.6351692255073058
  0.3749717763528893  0.3271933650005397  0.5663398077766751
  0.8513599235075342  0.6881224137328812  0.2631070468983244
  0.4264331989640633  0.1223680361916812  0.8961861334098166
  0.2099147468541323  0.6388490118244594  0.3605285864795627
  0.3343655277452072  0.2202883915583433  0.0046264758003721
  0.7777702880971693  0.3607669858050538  0.9177182268477362
  0.7367387235228178  0.2667408872404159  0.4150376323115483
  0.4314562834213725  0.6172442749492419  0.0384451525173874
  0.7131385644517690  0.7640027984782995  0.3577984084009419
  0.9539684086102137  0.4260550278622566  0.1352830025736132
  0.8752315504293151  0.1669133059350827  0.4820904797272991
  0.0418392297564409  0.4193701722148952  0.8209153282590254
  0.2992299389656752  0.7471744309734243  0.2544555482267015
  0.8144447743296753  0.2986117498878028  0.4704833223764741
  0.5258233412916778  0.6303601553761772  0.8700823080490537
  0.4672052286575559  0.6644082240148758  0.5985679298669963
  0.0037189602325107  0.8284585321953088  0.0437641183894068
  0.0354695318811139  0.4878073604868668  0.4201847100074141
  0.4998256155338248  0.7896406642366244  0.2532833924293785
  0.9352783227731829  0.9730759048395364  0.8243522919799989
  0.0730475941797757  0.7296956469869038  0.8098321684522967
 
  0.74085624E-04 -0.99142838E-03  0.26832388E-02
  0.11548823E-02  0.18779036E-02 -0.13464082E-02
  0.35817508E-03  0.45617090E-02  0.21374734E-03
  0.10242962E-02 -0.93459325E-03  0.20249610E-02
 -0.47526029E-03 -0.52739929E-03 -0.24615126E-04
  0.98905838E-03 -0.75872021E-03 -0.26327433E-02
  0.16508379E-02  0.15902940E-02  0.83011051E-03
 -0.16325760E-02  0.16783433E-04 -0.11900459E-02
 -0.69200993E-03  0.10222561E-02 -0.85437252E-03
 -0.26766682E-03  0.86739819E-04  0.29077239E-02
 -0.27911418E-02 -0.42220978E-03 -0.14152779E-02
  0.20131955E-02 -0.78478286E-03 -0.31819901E-02
 -0.40387483E-03 -0.22621866E-04  0.72304223E-03
  0.19440301E-03  0.10730210E-02 -0.69431008E-03
  0.87951060E-03 -0.12873143E-02 -0.89399379E-04
 -0.44482536E-03  0.29374709E-03  0.10040027E-03
 -0.18678717E-02  0.23124552E-02 -0.24957882E-02
 -0.32837089E-03 -0.17797742E-02 -0.50987691E-03
  0.19068469E-03 -0.42982190E-04 -0.24584825E-02
 -0.24464207E-02 -0.33551408E-02  0.11458458E-02
 -0.10426939E-02  0.14392026E-02  0.37473527E-02
 -0.58541195E-03 -0.15895275E-02 -0.74280261E-04
  0.11710735E-02  0.88452388E-03 -0.10223487E-02
 -0.83273532E-03 -0.21392369E-02  0.20805231E-02
 -0.10844928E-02 -0.12241858E-02 -0.20531854E-02
  0.11498726E-02 -0.18605622E-02 -0.71930649E-03
  0.23946854E-02  0.16844018E-02 -0.54788044E-03
 -0.28742988E-02 -0.77212544E-03 -0.19151768E-03
  0.47317448E-03  0.23738609E-03  0.46580426E-03
  0.28160610E-04 -0.11153755E-02  0.14882402E-02
 -0.40033110E-02 -0.10726776E-02 -0.80056194E-03
  0.13720433E-02  0.16202216E-02 -0.73043556E-03
 -0.30105741E-02 -0.14948675E-02  0.12857475E-02
  0.50349766E-03 -0.12957492E-02  0.26338798E-02
 -0.91424172E-03 -0.21415637E-02  0.22523600E-02
 -0.30390343E-02 -0.24822275E-02  0.45718615E-03
 -0.13559293E-03 -0.35249656E-03 -0.19330754E-02
  0.60354126E-04 -0.15632096E-02  0.15171701E-02
  0.12411685E-02  0.18366625E-03  0.15833840E-02
  0.27252411E-02 -0.72802251E-03 -0.10554719E-02
  0.15665889E-02 -0.15791924E-02  0.30186890E-02
 -0.50212587E-03  0.13738691E-03  0.16808462E-02
  0.13040610E-02  0.19311056E-02 -0.18510615E-02
  0.22295545E-02 -0.32917745E-03 -0.53000827E-03
  0.74978885E-03  0.65324768E-03 -0.59020602E-04
 -0.15724355E-02  0.91826996E-03 -0.26451867E-03
  0.16905881E-02 -0.18987602E-03  0.12701590E-03
  0.31655204E-02  0.16284402E-02  0.14624467E-02
  0.12558196E-02  0.18100780E-02  0.38533260E-03
 -0.10996177E-02  0.16521703E-02 -0.29999436E-02
 -0.17466448E-02  0.45773177E-03 -0.60180108E-03
 -0.18011828E-02  0.37731351E-03  0.74177374E-03
  0.16339850E-02 -0.55549842E-03 -0.10040653E-02
 -0.19221741E-02 -0.14324819E-02  0.75962144E-03
  0.14163475E-02 -0.18264359E-03  0.28887606E-02
 -0.28981497E-02  0.56275822E-03  0.11716352E-02
 -0.27883732E-02  0.14894825E-02 -0.19480802E-02
 -0.22325142E-03 -0.42808791E-03  0.39456548E-03
  0.59995454E-03  0.86057942E-03 -0.10334636E-02
 -0.18135196E-02  0.98881608E-03 -0.25157659E-02
 -0.26338194E-03  0.24889518E-03  0.30946855E-03
  0.13698418E-02 -0.29475319E-03  0.94982845E-04
  0.11920901E-02 -0.17792279E-03  0.37154147E-04
 -0.14713454E-02 -0.34896678E-03  0.31694395E-02
  0.13097977E-03  0.20972930E-02  0.70102003E-03
  0.42703651E-02  0.54244844E-03  0.96480198E-03
 -0.15603912E-03 -0.27043469E-02  0.64757074E-04
 -0.88471759E-03  0.58318758E-03 -0.11858223E-02
  0.13298995E-02  0.91250385E-03 -0.73091574E-03
 -0.12214844E-02  0.31364910E-02  0.16919025E-03
 -0.66762658E-03 -0.40401227E-03  0.34491237E-03
  0.15316135E-02  0.62951242E-03 -0.24240024E-03
 -0.29307567E-03 -0.19305075E-02 -0.15520564E-02
  0.14800381E-02 -0.19707882E-02 -0.48099336E-03
  0.11928242E-02 -0.14971155E-02 -0.19490278E-02
  0.58176487E-04 -0.13659291E-03  0.79063047E-03
 -0.19501959E-02  0.81116726E-03  0.24198409E-02
  0.13563417E-02 -0.28316485E-03 -0.28858051E-03
  0.66245572E-03 -0.99929957E-03  0.12149308E-02
 -0.34162940E-02 -0.18950384E-02 -0.29552014E-02
  0.16333297E-02 -0.24883497E-02  0.10958436E-02
  0.30011064E-03  0.97079299E-03 -0.10072954E-02
  0.29962435E-02 -0.10836541E-02  0.35014090E-02
 -0.10049168E-02 -0.11659540E-02 -0.43854680E-03
  0.98512172E-03 -0.17134704E-03 -0.14815249E-02
 -0.93485972E-03  0.96179970E-03 -0.22055361E-03
 -0.26697263E-02 -0.15938467E-02 -0.68053260E-04
  0.33949987E-03  0.14095661E-02  0.12287029E-02
  0.97020215E-03 -0.17536466E-02  0.57934410E-04
 -0.66335447E-03  0.12958825E-02  0.41094421E-03
  0.20191895E-02 -0.14145440E-02  0.62394835E-03
  0.38555153E-04  0.97850287E-03  0.10362482E-02
 -0.22219336E-02  0.21638404E-03  0.10084500E-02
 -0.21400952E-02 -0.14781739E-03  0.55995051E-03
 -0.17075829E-02  0.30735703E-03 -0.46570365E-05
 -0.85414752E-04 -0.15133566E-02  0.30086573E-02
  0.13394517E-02  0.35909096E-02  0.12449856E-03
 -0.63944147E-03 -0.28022065E-03  0.37128873E-03
  0.16744513E-02 -0.14513500E-02 -0.16623180E-03
  0.57866530E-03 -0.51780165E-02 -0.50518129E-04
 -0.24232283E-02 -0.82059317E-03  0.21443366E-02
 -0.36479284E-02  0.28121751E-02  0.16904922E-02
  0.38237944E-02 -0.27784033E-02 -0.10315587E-02
 -0.23815925E-02 -0.64048841E-03  0.16110843E-02
 -0.23414970E-02  0.33765406E-02 -0.66987153E-03
  0.90943121E-04 -0.59485104E-04 -0.59811480E-02
  0.22652264E-02  0.27533434E-02 -0.10502222E-02
  0.23378964E-02 -0.43854053E-02  0.57752376E-03
 -0.50382090E-02  0.21468785E-02  0.30035808E-04
  0.11071008E-03  0.18689156E-02  0.20785704E-02
 -0.26784299E-02 -0.46553203E-03  0.90081974E-03
  0.48883258E-02  0.31812697E-02 -0.10705936E-02
 -0.23731765E-04  0.67430558E-02 -0.39626618E-02
  0.14217138E-02  0.63236565E-02  0.83328104E-03
 -0.49049089E-03 -0.31276279E-02  0.28710363E-02
  0.76554516E-03  0.90660899E-03  0.56635073E-02
 -0.22762941E-02  0.46032811E-02 -0.71563471E-03
 -0.60565543E-03 -0.35718818E-03 -0.26144245E-02
  0.22716343E-02  0.26565585E-02 -0.96791563E-03
  0.34982654E-02  0.50040939E-02 -0.74569408E-03
 -0.71400760E-03  0.15550437E-02 -0.31347931E-02
 -0.19020456E-02  0.27754228E-02  0.30465941E-02
  0.13867991E-02  0.25858605E-02 -0.16462275E-02
 -0.25837241E-02 -0.26336942E-02  0.22455841E-02
 -0.11594763E-04 -0.49871220E-02 -0.28513048E-02
 -0.21091387E-02  0.39789558E-03 -0.22230152E-02
 -0.87262706E-03  0.15549660E-02  0.40465777E-02
  0.26478988E-02  0.78459480E-03  0.49101003E-02
  0.47832420E-02 -0.42735946E-03 -0.28929609E-02
 -0.24962944E-02 -0.46579559E-02  0.98378384E-03
 -0.12109856E-02 -0.38860513E-02 -0.58966808E-02
 -0.51071306E-02 -0.22055059E-02 -0.75895150E-03
  0.39199229E-03  0.78070814E-03  0.14820199E-02
 -0.20295747E-02 -0.44584750E-04 -0.31475644E-02
  0.42562726E-02 -0.34035145E-02 -0.72185844E-03
 -0.58043512E-02  0.57987814E-03 -0.13575746E-02
 -0.76089595E-03  0.13548056E-02 -0.18508948E-03
 -0.39527976E-02 -0.87633154E-03  0.15033383E-02
  0.13460085E-02 -0.52151197E-03  0.33633219E-02
 -0.85738910E-03  0.37335891E-03 -0.45388302E-02
 -0.13127618E-02  0.90959365E-04 -0.15083742E-02
  0.24812500E-02 -0.22950679E-02  0.12810043E-02
 -0.66192820E-05  0.17826082E-02  0.63306244E-03
 -0.19644728E-02  0.27133802E-02  0.53642434E-02
 -0.11157666E-02 -0.33069992E-03  0.12610126E-02
  0.25603490E-02  0.15250430E-02  0.37830500E-02
 -0.24633610E-02 -0.90246303E-04 -0.26595913E-02
  0.34633042E-02  0.44299399E-03  0.87355326E-03
 -0.19653243E-02  0.44625006E-02 -0.12204121E-02
  0.12017072E-02 -0.93500746E-03 -0.32162522E-02
 -0.31122583E-03  0.57113362E-03 -0.32773288E-02
  0.10487739E-03  0.44462442E-02 -0.21762762E-02
  0.26297687E-02 -0.21157578E-02  0.53137916E-02
 -0.17852512E-02  0.38908452E-02  0.25237853E-02
 -0.85230371E-03 -0.14741756E-02  0.41729998E-02
 -0.12112622E-02 -0.37303663E-02 -0.21330025E-02
 -0.60461415E-02 -0.95355611E-03 -0.15487376E-02
 -0.90618145E-02  0.20709499E-02  0.42726673E-02
  0.22982455E-02 -0.48665455E-02  0.26055101E-02
  0.62202445E-03 -0.81528802E-03 -0.64781736E-02
  0.11749080E-02  0.76357686E-02 -0.80810253E-02
  0.18789959E-02 -0.37145608E-03 -0.30901180E-02
  0.20621012E-02 -0.19665853E-02 -0.33096861E-02
  0.58974835E-03  0.23270343E-02  0.30928367E-02
  0.12255882E-02 -0.25790293E-02  0.49084610E-02
  0.20401644E-02  0.35665698E-02 -0.92477874E-03
  0.41704940E-03  0.76910397E-03 -0.24806946E-02
 -0.31224297E-03 -0.21184196E-02  0.23056088E-02
 -0.30547515E-02 -0.68517726E-03  0.28169215E-02
  0.40439112E-02  0.10710492E-02 -0.65369657E-02
  0.27158114E-02  0.81226650E-03 -0.35145653E-02
  0.12524084E-02  0.37056639E-04 -0.13699096E-02
 -0.54310464E-03 -0.17751139E-02  0.14347118E-02
 -0.13656189E-02 -0.86180885E-03  0.33056989E-02
  0.26082505E-02  0.32195492E-02 -0.38442499E-02
 -0.39514810E-02 -0.14911347E-02 -0.26705846E-02
  0.45739369E-03 -0.71422094E-03 -0.66745461E-04
 -0.53692536E-03  0.27863074E-02 -0.32796621E-04
 -0.22813123E-02 -0.27610023E-02 -0.33821583E-02
  0.18167184E-02  0.28718946E-03 -0.14363226E-02
  0.57474601E-02  0.32649873E-02 -0.21688038E-03
  0.26140547E-02 -0.13225877E-02  0.73878670E-03
  0.36242520E-02  0.40391702E-03 -0.73375439E-03
  0.39838160E-02 -0.12033803E-02 -0.54598779E-02
  0.11022769E-02  0.55237577E-02  0.14613417E-02
 -0.33343171E-02  0.43247422E-02  0.51078399E-05
 -0.48511670E-03 -0.27426709E-02  0.44272841E-02
  0.69357894E-02  0.94993510E-03 -0.19347493E-02
 -0.32268394E-02 -0.15774372E-04 -0.42001973E-02
  0.16244195E-02  0.26192064E-02 -0.11749011E-02
 -0.12245201E-02 -0.12551803E-02 -0.25662122E-02
 -0.23935448E-02 -0.41572085E-02 -0.43031540E-03
 -0.65958762E-03 -0.15488529E-03 -0.92435152E-03
 -0.90493327E-03 -0.61872118E-03 -0.11267356E-02
  0.18426592E-02 -0.15885613E-02 -0.35839220E-03
 -0.10992463E-02 -0.93825119E-03 -0.37793456E-03
  0.38058036E-03  0.57015289E-02  0.27160814E-02
  0.19075624E-02  0.75148998E-03  0.34506374E-02
  0.30059305E-02 -0.93919665E-03 -0.63752698E-03
 -0.18859475E-02 -0.29458179E-04 -0.22595093E-02
 -0.79688154E-03 -0.10655973E-02 -0.18390293E-03
 -0.26227120E-02 -0.61657940E-02  0.14558759E-02
  0.27522867E-02 -0.17883821E-03 -0.26286071E-02
  0.37643118E-03  0.16109342E-02  0.29607571E-02
  0.13464366E-02  0.54039815E-02 -0.32445779E-03
  0.15888595E-03  0.33328474E-02 -0.82042595E-03
 -0.26900759E-02  0.13604356E-02  0.30111725E-02
  0.26060890E-03  0.24645902E-02  0.51809555E-02
  0.56584669E-02 -0.30587745E-02  0.23184928E-02
  0.64124772E-03  0.40950455E-02 -0.21870115E-03
 -0.10171140E-02  0.34402707E-02 -0.38723293E-03
 -0.17083929E-02  0.19081415E-02 -0.74108395E-03
  0.48549561E-02  0.11465372E-02 -0.82047836E-02
  0.48273009E-02 -0.25341872E-02 -0.43557304E-02
  0.75245872E-03 -0.42725787E-02  0.23252490E-03
 -0.31815937E-02 -0.27868939E-02 -0.20188044E-02
  0.31711588E-02  0.23722307E-02  0.11585500E-02
  0.37332459E-02 -0.39590282E-02  0.33901982E-02
 -0.23996465E-02  0.28661854E-02  0.36163385E-02
 -0.98870127E-03  0.58390305E-02  0.11152453E-03
 -0.77125003E-03  0.20710090E-02 -0.46437543E-02
  0.35411998E-02  0.44511017E-02 -0.38641603E-03
 -0.21920021E-02  0.18714755E-02 -0.10581515E-02
  0.43264434E-03  0.37717748E-03 -0.29509147E-02
 -0.36445273E-02 -0.40081803E-02  0.22384771E-02
  0.11454241E-02  0.19617894E-03 -0.29793442E-02
  0.28501146E-02 -0.21348478E-04  0.11339676E-02
 -0.16603511E-02  0.14667577E-02 -0.25871814E-03
  0.14869651E-03 -0.20057920E-03 -0.14412980E-02
 -0.24517034E-02 -0.10680536E-02 -0.99587857E-03
 -0.20932865E-02 -0.16582100E-02  0.56986999E-02
 -0.40833510E-02  0.16146270E-02 -0.85594356E-03