Sn4 Se4                                 
   1.00000000000000     
     4.3037922953923831    0.0000000000000000    0.0000000000000000
     0.0000000000000000    4.2900611325140963    0.0000000000000000
     0.0000000000000000    0.0000000000000000   12.1270472336575086
   Sn   Se
     4     4
Direct
  0.2500000000000000  0.5000000000000000  0.3692614170129644
  0.7500000000000000  0.0000000000000000  0.1307385829870356
  0.2500000000000000  0.0000000000000000  0.8692614170129644
  0.7500000000000000  0.5000000000000000  0.6307385829870356
  0.2500000000000000  0.5000000000000000  0.1432456098810988
  0.7500000000000000  0.0000000000000000  0.3567543901189012
  0.2500000000000000  0.0000000000000000  0.6432456098810988
  0.7500000000000000  0.5000000000000000  0.8567543901189012
 
  0.00000000E+00  0.00000000E+00  0.00000000E+00
  0.00000000E+00  0.00000000E+00  0.00000000E+00
  0.00000000E+00  0.00000000E+00  0.00000000E+00
  0.00000000E+00  0.00000000E+00  0.00000000E+00
  0.00000000E+00  0.00000000E+00  0.00000000E+00
  0.00000000E+00  0.00000000E+00  0.00000000E+00
  0.00000000E+00  0.00000000E+00  0.00000000E+00
  0.00000000E+00  0.00000000E+00  0.00000000E+00
