Amorphous GeTe6                         
   1.00000000000000     
    21.9028235405677236    0.0000000000000000    0.0000000000000000
     0.0000000000000000   21.9028235405677236    0.0000000000000000
     0.0000000000000000    0.0000000000000000   21.9028235405677236
   Ge   Te
    43   257
Direct
  0.9376895122942061  0.5121063183623400  0.8119967185099604
  0.7759508044744573  0.4933157738934962  0.1493451825281572
  0.4139032615783524  0.8516465633370075  0.7440896168629354
  0.7593043160326909  0.4718912578153565  0.8020076718778603
  0.0161560643119501  0.0785564256721470  0.0308118424019998
  0.8711215748922777  0.2982598003884547  0.3837231039481576
  0.9418180422438379  0.4811987049582622  0.1141022994749762
  0.6192899620165956  0.8688198142835747  0.1091595781575793
  0.0132094515668604  0.2628829016701266  0.4800522082267228
  0.8388056622175325  0.0127009489014161  0.3961732130990866
  0.6012625815343952  0.0189855514510846  0.5082358038401885
  0.6771259952917191  0.6879002081939464  0.4108805566012349
  0.7811302500703303  0.1818115765361895  0.8821104094847880
  0.2055095306584973  0.4528658760806406  0.1924943248629699
  0.0708975609175382  0.2538638586750242  0.7487361285074994
  0.2006242017037327  0.7136754875512205  0.2910752642065881
  0.6034399770980565  0.3673265953667136  0.7952243877493995
  0.3738350325939054  0.1120079507788044  0.0290432942972499
  0.2671644097451878  0.9376788705149179  0.6040579463689159
  0.4855147503796682  0.9575788921826980  0.2856742664862792
  0.4300760890469590  0.2195242752523061  0.0177728114818402
  0.7017707233983995  0.5549671595989923  0.5897180227457116
  0.3114171680128603  0.8419076701629378  0.1938501649973493
  0.5384396257420321  0.1534719651244644  0.2016770520599822
  0.8715320695348386  0.2545296286473024  0.8044801989301538
  0.8719290996911921  0.7634255452196882  0.0648917069657826
  0.4652535112531654  0.3414262595437154  0.1392961357332487
  0.6246140803707092  0.2746514155917342  0.8990479963031549
  0.6614299365586552  0.8822684516696927  0.6645295766411151
  0.1944097418323796  0.8365647154431020  0.3444426163365343
  0.2452860871311429  0.3924278047281557  0.3362270075330998
  0.0297683180216802  0.1044721615988232  0.6434360824591295
  0.4816844758665939  0.3996119976356670  0.4604131880613813
  0.6187218214104699  0.7027679481267900  0.9129755062211442
  0.1359962665579412  0.6607500319868655  0.8233819949660305
  0.3977401916984827  0.5306197055261008  0.1341364032805685
  0.1674113514789989  0.9754177163957801  0.5449725964516258
  0.5041994545702169  0.1136939173644240  0.9241254358377621
  0.9990910283379568  0.8797797858335057  0.1209825254766239
  0.9060784457425038  0.9226851885984630  0.9831140919516033
  0.7479076322570808  0.7817279984306357  0.3064716764270253
  0.4025945620641437  0.9515976475305021  0.0249973210564172
  0.3923187894986354  0.3901219206417924  0.6075210163952368
  0.7514506492190210  0.8284747273038336  0.8088706917883953
  0.4644874146428977  0.7741833329181124  0.5906051206024111
  0.1873986877191319  0.8585348450037740  0.1756678053147256
  0.2519692175287475  0.9597159799671888  0.7881940710748617
  0.6764564132973749  0.1744012239114479  0.9603886383618798
  0.4478231142746070  0.0853211849637696  0.4047173053064935
  0.4341314671897945  0.1368636315009855  0.8189404808728303
  0.1502685327729421  0.0853573315096304  0.6038788880474174
  0.0834764696018443  0.1295055142153230  0.7571229705948995
  0.0744998142060540  0.5581350491818248  0.8401428438690558
  0.7967088970053922  0.3754674738175656  0.8682247914236131
  0.4786508195455985  0.4496862091251255  0.8466613099631316
  0.2420758089925197  0.3258157982901885  0.0440348571068522
  0.9308266851655629  0.7086415035579500  0.5205623832875544
  0.9011673104198368  0.1481847613429820  0.5294777033587802
  0.7223047760594710  0.3830042498310645  0.2986133029921249
  0.7402173263188506  0.5618371667904016  0.8815584380283011
  0.3023288416769575  0.7698570549965135  0.8658028910060763
  0.4769429566436819  0.1203844518814787  0.6855935778293796
  0.8663176012807787  0.7617836614312946  0.8108496001728628
  0.7269561292418520  0.8379719696541859  0.1533918945296578
  0.5295502683791026  0.0025180727460146  0.7402857849293265
  0.1270397213168770  0.4072470595025834  0.2875255363615283
  0.7037205758444995  0.8362267157878032  0.5531150211276569
  0.1794781322412434  0.1803689955540135  0.9337801864783788
  0.5159189053200894  0.9085850190226861  0.5081263043983824
  0.4111506969054117  0.2486039572542873  0.3007956617867164
  0.5000175839257885  0.0982924358162632  0.5474256223332248
  0.9320637310949076  0.3683303039739368  0.7987996294885954
  0.0277535453904449  0.3911204026577454  0.6195832499380595
  0.8443092128120897  0.5133077142733484  0.7266376337251012
  0.3218484702621503  0.8729189975732576  0.5150153665835906
  0.5068062797326905  0.2372827875232852  0.8635914884700331
  0.0492229290083069  0.2794043537082040  0.9215303856350493
  0.9858310287519967  0.8282864621744745  0.4242454254825012
  0.6075566671307120  0.4027177755793656  0.5027413126242546
  0.2466997191365925  0.6153449892130192  0.1138280217172692
  0.6315370655540204  0.0610637208537561  0.3561075830446863
  0.3101907436071878  0.0924072694543877  0.5306906626029696
  0.8233247817864391  0.0643693959340570  0.8993896791072707
  0.7038843870044468  0.2318032215430010  0.2919644843192538
  0.8439449967455237  0.4827759347251319  0.4102387153803778
  0.7732063804080584  0.0975889762668753  0.1777260631140962
  0.1289936293605581  0.7292345236014585  0.9209925752133522
  0.5596437112855338  0.8180116426479623  0.2032515891340210
  0.5408520932562595  0.1557681589885279  0.3484741419692715
  0.4565101859092875  0.7090657907357636  0.1319096292880406
  0.5404683683083420  0.3176400364974365  0.6972485519808078
  0.3442206874277386  0.0343737594685022  0.6483895342657214
  0.0126073132157503  0.5116341702424045  0.5581246819590157
  0.8417505341288095  0.3145986239558226  0.1757396765897216
  0.6104133901250994  0.9506844334922137  0.9333611065768529
  0.7639523413076403  0.0800658422140141  0.7816706364049114
  0.8317979545484858  0.7033045178945532  0.2288463419211776
  0.3785375429180052  0.3658827552674923  0.3718183098868573
  0.1991310156382711  0.5169983359311346  0.5787678317635975
  0.9792037459548207  0.3046287936703375  0.1891141752194990
  0.3707761395582579  0.5934202992039990  0.3781915078046408
  0.9718992107859903  0.0544771559967646  0.8116833999478974
  0.0521628495104894  0.7010928940475731  0.5570073444573863
  0.2280505059821528  0.9801428915928642  0.2465790450837851
  0.9373068737534846  0.0178759471338542  0.3167375394560909
  0.8477754296008160  0.8611789858137537  0.2970114883720654
  0.4649901378629781  0.5172434715293428  0.7317400269155057
  0.1376362854890986  0.8647437224003923  0.6587350905507333
  0.9458011620622845  0.1932771431059610  0.8889360144836312
  0.8554181046753787  0.1689552821912976  0.4094607584067168
  0.7576231675187519  0.8042580535144357  0.0171383296872463
  0.5934539878887869  0.7784148454138935  0.4192080348187982
  0.8276905008407913  0.2126964488588207  0.2715916649418404
  0.7478831271330736  0.0089641801586998  0.0752534151232129
  0.0596777172692650  0.9156368199358841  0.9466601831118874
  0.0949021886437396  0.3612341743827630  0.4823061604091812
  0.2857236326037620  0.8531380415516849  0.6972664334274031
  0.6660192588313720  0.4554506209761758  0.7265685359603247
  0.3809514622801846  0.6328677558070400  0.0578648570462700
  0.6401331314837349  0.0046925714058074  0.6339056840780192
  0.7767615706165203  0.6537512777363410  0.6097947353826421
  0.4736515244270840  0.9823064091911528  0.9260051380392837
  0.2823328095260694  0.6849970840837462  0.4170184584929546
  0.6673542681549594  0.4590047970661124  0.0920800765234962
  0.2961144520904572  0.1953489205310212  0.3701593424803212
  0.3147235538310703  0.5827024615262003  0.6023091215650977
  0.4723870058415597  0.6388717484581155  0.4396066694203892
  0.0705098477676864  0.0367834129833834  0.9083994005190144
  0.8791060781162069  0.8800389778520178  0.1115397450521348
  0.3452868833027491  0.2871607162908029  0.9469564326882844
  0.7587784711105954  0.0253927626224452  0.5734080035531290
  0.3349400953994201  0.2962572631668692  0.4763263897572847
  0.1330268635146210  0.5674915065425974  0.1651365967825149
  0.1396527485640572  0.3843616439416305  0.1053338114472034
  0.5875636379886674  0.8231289877533607 -0.0015775707447538
  0.3906874009063417  0.2777853323281435  0.7118658482216457
  0.5892151820820209  0.0072005000204455  0.2474281232771742
  0.4146844183338678  0.9980071196866690  0.5252528533974118
  0.8473412749468917  0.4139371703256156  0.0756381440302746
  0.9069503970529803  0.3660156497627371  0.6647048396924969
  0.6822973517819946  0.7362443463144386  0.7277444979046430
  0.3920809825421285  0.4208426165141003  0.2361302538993292
  0.1625013590051325  0.5827210912175201  0.2947177508435689
  0.6994583831698292  0.1152207669283895  0.4938993743729824
  0.8741189816368954  0.5075270747091899  0.9236673003368503
  0.3472868347115222  0.0323832158385478  0.9399463156063798
  0.4300911478170248  0.7217955015758127  0.9220861192520402
  0.2259295499233444  0.6626374046539399  0.6626443279415374
  0.3747185895176299  0.2548006935233345  0.1242227194668639
  0.7872429644725226  0.7312554326235166  0.4167991184818327
  0.1515317805099802  0.1625580436788383  0.4957932675547969
  0.4531213898607359  0.2999457595038050  0.5331301399038451
  0.3187483233589933  0.8847797025702161  0.9212174175922976
  0.2455700670041780  0.1477479300269866  0.2589767287935401
  0.4197696128754712  0.7086477196652258  0.6976151205545565
  0.5403809941717173  0.1609841276113611  0.0728297094516302
  0.9916783722927734  0.1312842210250575  0.1578277276565025
  0.0193858810712162  0.8744096530089768  0.8305225568995364
  0.7491799969062150  0.3190232350571651  0.4201078445228545
  0.3699009163217215  0.7678078991493442  0.3433497916060953
  0.0026263070891817  0.6570077777593368  0.6899814284580473
  0.2526131657746198  0.6353143523291273  0.7979077823970324
  0.0276200071970973  0.4989078809962562  0.0259563548280769
  0.5441317912527622  0.5349943529513871  0.9316687153437048
  0.0274853528472487  0.7409162870699226  0.2452211189897592
  0.3075317620635826  0.8837543875383943  0.3241795143209170
  0.4928725786589506  0.4790614690829266  0.0639655621293843
  0.5261099337187195  0.2795065714229457  0.2332357155378886
  0.0095212572953859  0.2870708787581809  0.0511953886067241
  0.5955252496874255  0.2149992653011653  0.4712391154054072
  0.6616716923472376  0.1615054302115004  0.6353345381284997
  0.2148639952963572  0.4111863538092788  0.6525596004404376
  0.2019916022720583  0.2820774303253631  0.3925802914835725
  0.7452933240147619  0.3841064216622420  0.6311086191419126
  0.4247793394805113  0.6272523469191102  0.8254537819376300
  0.0057268825142951  0.2816872026117181  0.3557404644417930
  0.6477949469672513  0.5925497690633031  0.4811650985851124
  0.1877105904374443  0.4882043743111840  0.8182795268571031
  0.2847632540408594  0.4936126662284671  0.0858662979416944
  0.6198299114128145  0.0818691406510957  0.8794271190018065
  0.2731970260872904  0.1024029292651846  0.7401990010535531
  0.3164077974445563  0.7859959076475882  0.0736467229581570
  0.5736078945557190  0.4700007984716062  0.3567460755070560
  0.4495443652915393  0.8885306299546041  0.1906947575618191
  0.6628197471825117  0.1849971518050225  0.1759336447563181
  0.1373739792226364  0.9795125226020787  0.7201080400422670
  0.0951062243465100  0.7257854919728781  0.4327109203880987
  0.9414708250155750  0.7830043794210075  0.9606182512795048
  0.7685826309505741  0.6303950398809357  0.7384130974400425
  0.0434835071904750  0.2471313697345053  0.6244791477552691
  0.7352596982026932  0.2855632899238511  0.0315868133119052
  0.1758993054680499  0.5988731540326401  0.4386956303334785
  0.7161584825832586  0.9385028613375058  0.4753623329794449
  0.9099765730291869  0.3373085380773149  0.4995860749145927
  0.6038130354983371  0.6399936016762090  0.6665008581703851
  0.6898108460197578  0.2695137567186936  0.7915030169021058
  0.9697413951806482  0.1546136806388486  0.3451578884808185
  0.7397701731038567  0.6920872918812894  0.1180458569768930
  0.1909865022396632  0.2964868093652268  0.7470478039649259
  0.7810076054830187  0.9136653312693928  0.7056123757262945
  0.8500542769592758  0.4064963943658276  0.2748005624459566
  0.3925722450955619  0.0367942506204932  0.2967016126951590
  0.8570578695345876  0.2562174815789798  0.9666799575643611
  0.0369128750065933  0.7869264914492072  0.0504405045286757
  0.3645945645263182  0.5338597204573541  0.8933349186429166
  0.9604863687235889  0.6425108914104393  0.8264562527197064
  0.0206331693633391  0.8865143669026900  0.5998745749870477
  0.3449733325744880  0.3686796053835071  0.7881288745201399
  0.9763284883687100  0.3855226172138783  0.9303617961799088
  0.9009871601248004  0.5884280366420310  0.1546579686981193
  0.4436674885223232  0.8132312180665370  0.0341241704869747
  0.1193728216866407  0.1670659586335723  0.2899913157078563
  0.3929367012466327  0.1488572771758256  0.2104814867293240
  0.7878025317350313  0.5834134831724197  0.0609439978455173
  0.1222404184664849  0.2972411536661727  0.2037065733201379
  0.2821068905447309  0.3521651947394106  0.2222726566918434
  0.1606913172665900  0.2661562582319808  0.5699018088535607
  0.8994680241305774  0.5870890722533419  0.3571350026561058
  0.1557979578207757  0.7308000010475324  0.1711928337180314
  0.6185132329912038  0.5920259022495986  0.8396897161749989
  0.2781032390008457  0.5268246651873071  0.2784546101002657
  0.2938901701847266  0.1862015177698863  0.8799917209908954
  0.2445984142682268  0.8802294551429904  0.0274333179249198
  0.5413412974806828  0.4480596975867046  0.2353370248285467
  0.6040860417048001  0.9048449124254119  0.8070891584332714
  0.9187260263549220  0.7424586189188440  0.3244406259966344
  0.5031831564305917  0.8816739102369624  0.6565113494857306
  0.9957742066501458  0.9855789221865029  0.6883922582686962
  0.0679567360662108  0.9770746520878253  0.0883086210947232
  0.5733263361780070  0.5586917096764833  0.1742807170008388
  0.9866357565977886  0.4337848556736501  0.2189362621810292
  0.2685976776375625  0.1204056203092599  0.0921498780215709
  0.8730894910128209  0.0918406967252666  0.7130214455546675
  0.4523997192828079  0.0476801019926199  0.0976369216730611
  0.7624521077248692  0.9670561254559876  0.3040881232282694
  0.7457232541964206  0.7262212091117469  0.9058097072595178
  0.9102136987252086  0.9407237358501488  0.8472028887744656
  0.6209796212041488  0.9908365790979340  0.0824785776420180
  0.2922953829914515  0.7634369556662629  0.5988269442265216
  0.6522355683281039  0.6543800008902493  0.2964408039155341
  0.3148349122688948  0.7141230083945138  0.2381791875995016
  0.1002658393615196  0.7376405487089680  0.7360693269672125
  0.9346417773615804  0.8101912190705982  0.7126968160335546
  0.2297144394271031  0.0184326890630854  0.4484721531858384
  0.5932509034254039  0.1914305967737675  0.7423985137506040
  0.0934584332947763  0.0658772033850442  0.2044565562601569
  0.7797301479805524  0.9209876527737706  0.9589882048723373
  0.5314766432857541  0.2979778245959584  0.0321157091552682
  0.5678478837111068  0.6933002446517395  0.5559938049955003
  0.6863842668296776  0.3812426798647146  0.9411609841883324
  0.2036883032659945  0.8029840674838006  0.4643473611759844
  0.4706710758031915  0.6167522884451652  0.2317027657731915
  0.1393805140790617  0.9489706822004897  0.3579182650357036
  0.0395279018958287  0.5316021329356715  0.6862220338418745
  0.3311058695688555  0.9728923576967866  0.1647769444380934
  0.6003776749632945  0.6909874217424030  0.1071663515240128
  0.1793457042162974  0.3437850347877140  0.9305176192826934
  0.8880240329326383  0.5927154837077909  0.5705252336185124
  0.1919636262403918  0.0725398821088032  0.0035778774041718
  0.0223106024481538  0.5669230763328015  0.4145017433219549
  0.3308104536965346  0.4677601347635544  0.7064768649320096
  0.6661196505605399  0.3405480611166347  0.1364840495507734
  0.9108934392249309  0.6351224112328404  0.9512207331060187
  0.8319077852918096  0.8248333140760049  0.6269059201611520
  0.2628965988801715  0.6064246559525157  0.9323067018378517
  0.0936370683640273  0.2034194252771480  0.0989216254833605
  0.8240696836176052  0.1855553119394455  0.0829598382080590
  0.4455890474085712  0.3937723069097752  0.9770522151133246
  0.3942403233840076  0.9754034096166153  0.7698979572973637
  0.5012227825594542  0.8119086110976794  0.8533569708394866
  0.8983631393615528  0.9496683640485863  0.5545203540557202
  0.7742033979148336  0.5963851806663524  0.2835084886143802
  0.1112093373028869  0.3850036339520186  0.8086106883582505
  0.6298240674378696  0.6172639570872508  0.0054319514306890
  0.7985382434050384  0.4763053220085403  0.5560799751105824
  0.5283865167023571  0.7124509370202338  0.3194884017592075
  0.0320467548105065  0.8668449922044299  0.2371964040020952
  0.7853612488888675  0.2819541397956067  0.5428431467698041
  0.3834696353467991  0.4829292037077991  0.5159932164410966
  0.4788561488579181  0.8852756652472390  0.3842114629238969
  0.8933165798596877  0.0443150176189339  0.0240219292633771
  0.5092125848611969  0.4335989890745687  0.6396645142839186
  0.0187557315494031  0.6233717260505333  0.0257762143860403
  0.1776735054984314  0.8138893725688270  0.8391238901226687
  0.9965390624419986  0.4381567056570271  0.4307574711261718
  0.6721572230524079  0.8777119192431441  0.3597318635576612
  0.2258649218562045  0.4799074278371760  0.4587666456024350
  0.9892889549998378  0.5776371918191230  0.2518962638752440
  0.2817963209224302  0.2129437267441133  0.6734497996761047
  0.0712952992096966  0.9195725412142812  0.4757824142694744
  0.8680783636382127  0.8910056211203645  0.4326634143172826
  0.7139730014903694  0.4933527226718522  0.3696443021167418
  0.5837231753352046  0.3334752639111513  0.3983115778500753
  0.6474448411996460  0.2767915188106942  0.5752439516629887
  0.9704433599554283  0.0443238269447233  0.5005184929217276
  0.2205775534602345  0.4741064999706708  0.9461183041138785
  0.5331591783168270  0.7237901528283783  0.7573083333218243
  0.8991079047421845  0.0326146087885695  0.1943223142484570
  0.4636229532847365  0.5749897701829263  0.5564411753231132
  0.9009769860495018  0.2262295945056646  0.6855614326275500
 
  0.00000000E+00  0.00000000E+00  0.00000000E+00
  0.00000000E+00  0.00000000E+00  0.00000000E+00
  0.00000000E+00  0.00000000E+00  0.00000000E+00
  0.00000000E+00  0.00000000E+00  0.00000000E+00
  0.00000000E+00  0.00000000E+00  0.00000000E+00
  0.00000000E+00  0.00000000E+00  0.00000000E+00
  0.00000000E+00  0.00000000E+00  0.00000000E+00
  0.00000000E+00  0.00000000E+00  0.00000000E+00
  0.00000000E+00  0.00000000E+00  0.00000000E+00
  0.00000000E+00  0.00000000E+00  0.00000000E+00
  0.00000000E+00  0.00000000E+00  0.00000000E+00
  0.00000000E+00  0.00000000E+00  0.00000000E+00
  0.00000000E+00  0.00000000E+00  0.00000000E+00
  0.00000000E+00  0.00000000E+00  0.00000000E+00
  0.00000000E+00  0.00000000E+00  0.00000000E+00
  0.00000000E+00  0.00000000E+00  0.00000000E+00
  0.00000000E+00  0.00000000E+00  0.00000000E+00
  0.00000000E+00  0.00000000E+00  0.00000000E+00
  0.00000000E+00  0.00000000E+00  0.00000000E+00
  0.00000000E+00  0.00000000E+00  0.00000000E+00
  0.00000000E+00  0.00000000E+00  0.00000000E+00
  0.00000000E+00  0.00000000E+00  0.00000000E+00
  0.00000000E+00  0.00000000E+00  0.00000000E+00
  0.00000000E+00  0.00000000E+00  0.00000000E+00
  0.00000000E+00  0.00000000E+00  0.00000000E+00
  0.00000000E+00  0.00000000E+00  0.00000000E+00
  0.00000000E+00  0.00000000E+00  0.00000000E+00
  0.00000000E+00  0.00000000E+00  0.00000000E+00
  0.00000000E+00  0.00000000E+00  0.00000000E+00
  0.00000000E+00  0.00000000E+00  0.00000000E+00
  0.00000000E+00  0.00000000E+00  0.00000000E+00
  0.00000000E+00  0.00000000E+00  0.00000000E+00
  0.00000000E+00  0.00000000E+00  0.00000000E+00
  0.00000000E+00  0.00000000E+00  0.00000000E+00
  0.00000000E+00  0.00000000E+00  0.00000000E+00
  0.00000000E+00  0.00000000E+00  0.00000000E+00
  0.00000000E+00  0.00000000E+00  0.00000000E+00
  0.00000000E+00  0.00000000E+00  0.00000000E+00
  0.00000000E+00  0.00000000E+00  0.00000000E+00
  0.00000000E+00  0.00000000E+00  0.00000000E+00
  0.00000000E+00  0.00000000E+00  0.00000000E+00
  0.00000000E+00  0.00000000E+00  0.00000000E+00
  0.00000000E+00  0.00000000E+00  0.00000000E+00
  0.00000000E+00  0.00000000E+00  0.00000000E+00
  0.00000000E+00  0.00000000E+00  0.00000000E+00
  0.00000000E+00  0.00000000E+00  0.00000000E+00
  0.00000000E+00  0.00000000E+00  0.00000000E+00
  0.00000000E+00  0.00000000E+00  0.00000000E+00
  0.00000000E+00  0.00000000E+00  0.00000000E+00
  0.00000000E+00  0.00000000E+00  0.00000000E+00
  0.00000000E+00  0.00000000E+00  0.00000000E+00
  0.00000000E+00  0.00000000E+00  0.00000000E+00
  0.00000000E+00  0.00000000E+00  0.00000000E+00
  0.00000000E+00  0.00000000E+00  0.00000000E+00
  0.00000000E+00  0.00000000E+00  0.00000000E+00
  0.00000000E+00  0.00000000E+00  0.00000000E+00
  0.00000000E+00  0.00000000E+00  0.00000000E+00
  0.00000000E+00  0.00000000E+00  0.00000000E+00
  0.00000000E+00  0.00000000E+00  0.00000000E+00
  0.00000000E+00  0.00000000E+00  0.00000000E+00
  0.00000000E+00  0.00000000E+00  0.00000000E+00
  0.00000000E+00  0.00000000E+00  0.00000000E+00
  0.00000000E+00  0.00000000E+00  0.00000000E+00
  0.00000000E+00  0.00000000E+00  0.00000000E+00
  0.00000000E+00  0.00000000E+00  0.00000000E+00
  0.00000000E+00  0.00000000E+00  0.00000000E+00
  0.00000000E+00  0.00000000E+00  0.00000000E+00
  0.00000000E+00  0.00000000E+00  0.00000000E+00
  0.00000000E+00  0.00000000E+00  0.00000000E+00
  0.00000000E+00  0.00000000E+00  0.00000000E+00
  0.00000000E+00  0.00000000E+00  0.00000000E+00
  0.00000000E+00  0.00000000E+00  0.00000000E+00
  0.00000000E+00  0.00000000E+00  0.00000000E+00
  0.00000000E+00  0.00000000E+00  0.00000000E+00
  0.00000000E+00  0.00000000E+00  0.00000000E+00
  0.00000000E+00  0.00000000E+00  0.00000000E+00
  0.00000000E+00  0.00000000E+00  0.00000000E+00
  0.00000000E+00  0.00000000E+00  0.00000000E+00
  0.00000000E+00  0.00000000E+00  0.00000000E+00
  0.00000000E+00  0.00000000E+00  0.00000000E+00
  0.00000000E+00  0.00000000E+00  0.00000000E+00
  0.00000000E+00  0.00000000E+00  0.00000000E+00
  0.00000000E+00  0.00000000E+00  0.00000000E+00
  0.00000000E+00  0.00000000E+00  0.00000000E+00
  0.00000000E+00  0.00000000E+00  0.00000000E+00
  0.00000000E+00  0.00000000E+00  0.00000000E+00
  0.00000000E+00  0.00000000E+00  0.00000000E+00
  0.00000000E+00  0.00000000E+00  0.00000000E+00
  0.00000000E+00  0.00000000E+00  0.00000000E+00
  0.00000000E+00  0.00000000E+00  0.00000000E+00
  0.00000000E+00  0.00000000E+00  0.00000000E+00
  0.00000000E+00  0.00000000E+00  0.00000000E+00
  0.00000000E+00  0.00000000E+00  0.00000000E+00
  0.00000000E+00  0.00000000E+00  0.00000000E+00
  0.00000000E+00  0.00000000E+00  0.00000000E+00
  0.00000000E+00  0.00000000E+00  0.00000000E+00
  0.00000000E+00  0.00000000E+00  0.00000000E+00
  0.00000000E+00  0.00000000E+00  0.00000000E+00
  0.00000000E+00  0.00000000E+00  0.00000000E+00
  0.00000000E+00  0.00000000E+00  0.00000000E+00
  0.00000000E+00  0.00000000E+00  0.00000000E+00
  0.00000000E+00  0.00000000E+00  0.00000000E+00
  0.00000000E+00  0.00000000E+00  0.00000000E+00
  0.00000000E+00  0.00000000E+00  0.00000000E+00
  0.00000000E+00  0.00000000E+00  0.00000000E+00
  0.00000000E+00  0.00000000E+00  0.00000000E+00
  0.00000000E+00  0.00000000E+00  0.00000000E+00
  0.00000000E+00  0.00000000E+00  0.00000000E+00
  0.00000000E+00  0.00000000E+00  0.00000000E+00
  0.00000000E+00  0.00000000E+00  0.00000000E+00
  0.00000000E+00  0.00000000E+00  0.00000000E+00
  0.00000000E+00  0.00000000E+00  0.00000000E+00
  0.00000000E+00  0.00000000E+00  0.00000000E+00
  0.00000000E+00  0.00000000E+00  0.00000000E+00
  0.00000000E+00  0.00000000E+00  0.00000000E+00
  0.00000000E+00  0.00000000E+00  0.00000000E+00
  0.00000000E+00  0.00000000E+00  0.00000000E+00
  0.00000000E+00  0.00000000E+00  0.00000000E+00
  0.00000000E+00  0.00000000E+00  0.00000000E+00
  0.00000000E+00  0.00000000E+00  0.00000000E+00
  0.00000000E+00  0.00000000E+00  0.00000000E+00
  0.00000000E+00  0.00000000E+00  0.00000000E+00
  0.00000000E+00  0.00000000E+00  0.00000000E+00
  0.00000000E+00  0.00000000E+00  0.00000000E+00
  0.00000000E+00  0.00000000E+00  0.00000000E+00
  0.00000000E+00  0.00000000E+00  0.00000000E+00
  0.00000000E+00  0.00000000E+00  0.00000000E+00
  0.00000000E+00  0.00000000E+00  0.00000000E+00
  0.00000000E+00  0.00000000E+00  0.00000000E+00
  0.00000000E+00  0.00000000E+00  0.00000000E+00
  0.00000000E+00  0.00000000E+00  0.00000000E+00
  0.00000000E+00  0.00000000E+00  0.00000000E+00
  0.00000000E+00  0.00000000E+00  0.00000000E+00
  0.00000000E+00  0.00000000E+00  0.00000000E+00
  0.00000000E+00  0.00000000E+00  0.00000000E+00
  0.00000000E+00  0.00000000E+00  0.00000000E+00
  0.00000000E+00  0.00000000E+00  0.00000000E+00
  0.00000000E+00  0.00000000E+00  0.00000000E+00
  0.00000000E+00  0.00000000E+00  0.00000000E+00
  0.00000000E+00  0.00000000E+00  0.00000000E+00
  0.00000000E+00  0.00000000E+00  0.00000000E+00
  0.00000000E+00  0.00000000E+00  0.00000000E+00
  0.00000000E+00  0.00000000E+00  0.00000000E+00
  0.00000000E+00  0.00000000E+00  0.00000000E+00
  0.00000000E+00  0.00000000E+00  0.00000000E+00
  0.00000000E+00  0.00000000E+00  0.00000000E+00
  0.00000000E+00  0.00000000E+00  0.00000000E+00
  0.00000000E+00  0.00000000E+00  0.00000000E+00
  0.00000000E+00  0.00000000E+00  0.00000000E+00
  0.00000000E+00  0.00000000E+00  0.00000000E+00
  0.00000000E+00  0.00000000E+00  0.00000000E+00
  0.00000000E+00  0.00000000E+00  0.00000000E+00
  0.00000000E+00  0.00000000E+00  0.00000000E+00
  0.00000000E+00  0.00000000E+00  0.00000000E+00
  0.00000000E+00  0.00000000E+00  0.00000000E+00
  0.00000000E+00  0.00000000E+00  0.00000000E+00
  0.00000000E+00  0.00000000E+00  0.00000000E+00
  0.00000000E+00  0.00000000E+00  0.00000000E+00
  0.00000000E+00  0.00000000E+00  0.00000000E+00
  0.00000000E+00  0.00000000E+00  0.00000000E+00
  0.00000000E+00  0.00000000E+00  0.00000000E+00
  0.00000000E+00  0.00000000E+00  0.00000000E+00
  0.00000000E+00  0.00000000E+00  0.00000000E+00
  0.00000000E+00  0.00000000E+00  0.00000000E+00
  0.00000000E+00  0.00000000E+00  0.00000000E+00
  0.00000000E+00  0.00000000E+00  0.00000000E+00
  0.00000000E+00  0.00000000E+00  0.00000000E+00
  0.00000000E+00  0.00000000E+00  0.00000000E+00
  0.00000000E+00  0.00000000E+00  0.00000000E+00
  0.00000000E+00  0.00000000E+00  0.00000000E+00
  0.00000000E+00  0.00000000E+00  0.00000000E+00
  0.00000000E+00  0.00000000E+00  0.00000000E+00
  0.00000000E+00  0.00000000E+00  0.00000000E+00
  0.00000000E+00  0.00000000E+00  0.00000000E+00
  0.00000000E+00  0.00000000E+00  0.00000000E+00
  0.00000000E+00  0.00000000E+00  0.00000000E+00
  0.00000000E+00  0.00000000E+00  0.00000000E+00
  0.00000000E+00  0.00000000E+00  0.00000000E+00
  0.00000000E+00  0.00000000E+00  0.00000000E+00
  0.00000000E+00  0.00000000E+00  0.00000000E+00
  0.00000000E+00  0.00000000E+00  0.00000000E+00
  0.00000000E+00  0.00000000E+00  0.00000000E+00
  0.00000000E+00  0.00000000E+00  0.00000000E+00
  0.00000000E+00  0.00000000E+00  0.00000000E+00
  0.00000000E+00  0.00000000E+00  0.00000000E+00
  0.00000000E+00  0.00000000E+00  0.00000000E+00
  0.00000000E+00  0.00000000E+00  0.00000000E+00
  0.00000000E+00  0.00000000E+00  0.00000000E+00
  0.00000000E+00  0.00000000E+00  0.00000000E+00
  0.00000000E+00  0.00000000E+00  0.00000000E+00
  0.00000000E+00  0.00000000E+00  0.00000000E+00
  0.00000000E+00  0.00000000E+00  0.00000000E+00
  0.00000000E+00  0.00000000E+00  0.00000000E+00
  0.00000000E+00  0.00000000E+00  0.00000000E+00
  0.00000000E+00  0.00000000E+00  0.00000000E+00
  0.00000000E+00  0.00000000E+00  0.00000000E+00
  0.00000000E+00  0.00000000E+00  0.00000000E+00
  0.00000000E+00  0.00000000E+00  0.00000000E+00
  0.00000000E+00  0.00000000E+00  0.00000000E+00
  0.00000000E+00  0.00000000E+00  0.00000000E+00
  0.00000000E+00  0.00000000E+00  0.00000000E+00
  0.00000000E+00  0.00000000E+00  0.00000000E+00
  0.00000000E+00  0.00000000E+00  0.00000000E+00
  0.00000000E+00  0.00000000E+00  0.00000000E+00
  0.00000000E+00  0.00000000E+00  0.00000000E+00
  0.00000000E+00  0.00000000E+00  0.00000000E+00
  0.00000000E+00  0.00000000E+00  0.00000000E+00
  0.00000000E+00  0.00000000E+00  0.00000000E+00
  0.00000000E+00  0.00000000E+00  0.00000000E+00
  0.00000000E+00  0.00000000E+00  0.00000000E+00
  0.00000000E+00  0.00000000E+00  0.00000000E+00
  0.00000000E+00  0.00000000E+00  0.00000000E+00
  0.00000000E+00  0.00000000E+00  0.00000000E+00
  0.00000000E+00  0.00000000E+00  0.00000000E+00
  0.00000000E+00  0.00000000E+00  0.00000000E+00
  0.00000000E+00  0.00000000E+00  0.00000000E+00
  0.00000000E+00  0.00000000E+00  0.00000000E+00
  0.00000000E+00  0.00000000E+00  0.00000000E+00
  0.00000000E+00  0.00000000E+00  0.00000000E+00
  0.00000000E+00  0.00000000E+00  0.00000000E+00
  0.00000000E+00  0.00000000E+00  0.00000000E+00
  0.00000000E+00  0.00000000E+00  0.00000000E+00
  0.00000000E+00  0.00000000E+00  0.00000000E+00
  0.00000000E+00  0.00000000E+00  0.00000000E+00
  0.00000000E+00  0.00000000E+00  0.00000000E+00
  0.00000000E+00  0.00000000E+00  0.00000000E+00
  0.00000000E+00  0.00000000E+00  0.00000000E+00
  0.00000000E+00  0.00000000E+00  0.00000000E+00
  0.00000000E+00  0.00000000E+00  0.00000000E+00
  0.00000000E+00  0.00000000E+00  0.00000000E+00
  0.00000000E+00  0.00000000E+00  0.00000000E+00
  0.00000000E+00  0.00000000E+00  0.00000000E+00