Sn4 Se4                                 
   1.00000000000000     
     4.2823843956000003    0.0000000000000000    0.0000000000000000
     0.0000000000000000    4.3548035621999999    0.0000000000000000
     0.0000000000000000    0.0000000000000000   12.0699119568000004
   Sn   Se
     4     4
Direct
  0.2500000000000000  0.5449631210000021  0.3717117010000024
  0.7500000000000000  0.0449631070000009  0.1282882839999999
  0.2500000000000000  0.9550368789999979  0.8717117309999978
  0.7500000000000000  0.4550368789999979  0.6282882690000022
  0.2500000000000000  0.5083572269999976  0.1443670990000001
  0.7500000000000000  0.0083572449999991  0.3556329009999999
  0.2500000000000000  0.9916427730000024  0.6443670990000001
  0.7500000000000000  0.4916427429999999  0.8556329009999999
 
  0.00000000E+00  0.00000000E+00  0.00000000E+00
  0.00000000E+00  0.00000000E+00  0.00000000E+00
  0.00000000E+00  0.00000000E+00  0.00000000E+00
  0.00000000E+00  0.00000000E+00  0.00000000E+00
  0.00000000E+00  0.00000000E+00  0.00000000E+00
  0.00000000E+00  0.00000000E+00  0.00000000E+00
  0.00000000E+00  0.00000000E+00  0.00000000E+00
  0.00000000E+00  0.00000000E+00  0.00000000E+00
