Amorphous GeAsSeSi                      
   1.00000000000000     
    20.5524039944662391    0.0000000000000000    0.0000000000000000
     0.0000000000000000   20.5524039944662391    0.0000000000000000
     0.0000000000000000    0.0000000000000000   20.5524039944662391
   Ge   Ga   Sb
    45    75   180
Direct
  0.8184012651294879  0.9219832681394635  0.2738053222452521
  0.3463370217496902  0.4859006974854267  0.0452168876138117
  0.6611300390202004  0.7669821776545760  0.8384074943367423
  0.7070337914758369  0.2003595648066181  0.5147264401279514
  0.7104620262551506  0.4286971236092825  0.2457372930173634
  0.6458100979535217  0.9372153417726494  0.3400700494311124
  0.7997065390154532  0.2299214090507888  0.8879010935580780
  0.2213581554179029  0.8905073775261556  0.9870417837004553
  0.0885134641164100  0.3072162181004217  0.9107665943765468
  0.5846041923186149  0.1731401084849225  0.5200386906890344
  0.0127213685049341  0.2962534312910776  0.8131588096841114
  0.5561766027419566  0.3705677179238691  0.3330380972615359
  0.6245935652659753  0.1323493611498989  0.7475688224346939
  0.5498894143365760  0.2620903158637162  0.2714031721055932
  0.4330453588539882  0.4014300213228097  0.5878832588639114
  0.3425214734071957  0.8939286548009733  0.0197796159418289
  0.5667180618834280  0.6554586765445478  0.3828886904818063
  0.2185261968322294  0.3543526630086191  0.5740567928725966
  0.6366598707810525  0.9811569172834993  0.2237741024803839
  0.4438083579847429  0.8074654994072148  0.5019021955795608
  0.6414866445415015  0.9514891520702662  0.7543016288141544
  0.8645273385642511  0.0381824794553651  0.2720045710580976
  0.2426927287407139  0.9660969592626927  0.4413865057754762
  0.5814286600084344  0.2377023830113529  0.6872136511889124
  0.2387296316484537  0.1315184556772024  0.3345046815373109
  0.0086880886309970  0.5560702358328555  0.0533040616350533
  0.9613573825612249  0.4829094366723439  0.4662068882412100
  0.6562678469896071  0.1700849157885358  0.9802196903658711
  0.7866660930840865  0.7707728779034682  0.4381579110815750
  0.5725013140708128  0.5643992688491863  0.1602103567741011
  0.1200923604919168  0.4866370525493409  0.0526762021629708
  0.2497165065167621  0.0534479331916557  0.9239081269846139
  0.4354346039095773  0.4911280736841306  0.2527127805359086
  0.7537568729770925  0.9589958710535385  0.7033649320445789
  0.0949519786646036  0.5155624936636940  0.7222290164965415
  0.2813458177174155  0.6478637740815500  0.1919372060398672
  0.4802042515141878  0.4343364727385719  0.4123528985763230
  0.6844242073634490  0.3617143500279596  0.1438900334498712
  0.8087718779812434  0.5561418325730259  0.3382386937066357
  0.0356491009361974  0.7527207541415777  0.8025146026665340
  0.0669074187897962  0.8807205194400609  0.0978329368146476
  0.0501913023240164  0.0565485169962017  0.0126358693655249
  0.0440093249203102  0.3197439430972722  0.6956991481681740
  0.8223683450777273  0.5418578282558428  0.6200768359763771
  0.5376809619169762  0.2972385054685631  0.7864109538807682
  0.3626725420772416  0.2531804592338318  0.7311418659759497
  0.2890692620278159  0.5962184848225576  0.0758094677752439
  0.5368723394286334  0.8858690292138718  0.8787845039891948
  0.6137338297815518  0.4843055232369764  0.7515435579524734
  0.9876375449356445  0.4284579033674518  0.9941890596112444
  0.8683016800651089  0.3103030510231193  0.6936434789123496
  0.1939167662737731  0.9016449479569104  0.1068323912000579
  0.4895129181826476  0.8681635026944647  0.0175110519727681
  0.6414923684518001  0.9817017425259991  0.8766417126752941
  0.0103862981611869  0.7286370629432426  0.3360970922038788
  0.1567669408077634  0.2390750482769448  0.5919740672357747
  0.0074538234443793  0.4572807630698321  0.3497932226605087
  0.9698467015023127  0.0197912820189003  0.8252746680146856
  0.2609948809718858  0.2026351366341927  0.1674809503114929
  0.1695880452584149  0.8423683336158803  0.7093757581471323
  0.4974287857697419  0.6328291617378454  0.9868377381285356
  0.7235413206980041  0.2737547018169408  0.9735123000218877
  0.5232207683143315  0.1488644590045496  0.6249968523203577
  0.7801908543175387  0.7154587072579588  0.9726090371593443
  0.7747728015971020  0.9389793712302890  0.5814488642877151
  0.6548082926589700  0.5432523789709052  0.2516934753270590
  0.5059317279480027  0.0877778703900276  0.0978759155948765
  0.3568612931511268  0.0666505943021320  0.5474711914546972
  0.1122799091227904  0.9802109435687427  0.1824739057381848
  0.5715501640703096  0.4307136802048319  0.2268534934464483
  0.3766856295575494  0.0041533658109500  0.0682969299356699
  0.0638107480954631  0.4753199355796554  0.6035159572733022
  0.5872242658126581  0.6811100007625086  0.5031077527247945
  0.0361639827329512  0.2046372463695434  0.6397649493358060
  0.4022948912579949  0.3412146177059512  0.9145259901227476
  0.7248846409633174  0.5383654134895934  0.4298658385105085
  0.4444094739284665  0.9886909995333326  0.1749647127302438
  0.5251278142364768  0.6466235436999455  0.7194418127049289
  0.8953350412220971  0.7749862842250224  0.5056718444107418
  0.1755219780817114  0.3708794998930500  0.0735553040448380
  0.8016095499668339  0.0268116519271402  0.8765143342916062
  0.5484516397294144  0.1164488068323095  0.4202422588017001
  0.7026218110315412  0.2325928861898348  0.6454228767387136
  0.0381927705968508  0.8900497465976471  0.5971541862575904
  0.7313381407296760  0.2246153436078941  0.7807544228746863
  0.2440568815269941  0.7629687133950540  0.8612449970037304
  0.3339142063401468  0.2061101979245095  0.3722289846108353
  0.5884411211162472  0.0974900868750908  0.2039191563332139
  0.3125628509122294  0.3983710513892689  0.8056460948122819
  0.5320701738224614  0.4538893837134879  0.5235092773591106
  0.4230280162403375  0.9621203432131011  0.4199051121181441
  0.2220054164447092  0.9420558728710589  0.8744231246831546
  0.0635864598249896  0.6292159281112291  0.9658374893492123
  0.0278060078217379  0.6203556344417507  0.6867357086375350
  0.1781634668830634  0.0080727558549185  0.3342106281111299
  0.6962015369764103  0.7613265229343682  0.0569528792553058
  0.6606539648830889  0.4699374689712528  0.5218756281529551
  0.2362848221184279  0.4911971508492030  0.8936799180194797
  0.9718177545968345  0.3550075977004497  0.5206226012747663
  0.1154123488576815  0.1763349329414510  0.7495462951770264
  0.1376176721566438  0.8840920186180767  0.4339433168630791
  0.2066742286476071  0.5137711950548223  0.7736810962494758
  0.8274670763461245  0.4982418425063457  0.4977903797099685
  0.1408263478942757  0.0415503327519815  0.7035496482692736
  0.8115999279540489  0.0773695303743622  0.0601853943548321
  0.0670445799115953  0.6131382556536522  0.1476222017036122
  0.3183568874668907  0.0351325660637443  0.3649744823707763
  0.2725449706240255  0.1263063968985847  0.8094859998322050
  0.8503772456403951  0.0111422990910555  0.7612749113680763
  0.9491009219828470  0.9699931645568753  0.6907859662071445
  0.9941559403189544  0.1437140741095959  0.9406691639940234
  0.2097468854986317  0.5018671965890462  0.5001139465796953
  0.9302206008392346  0.7294672599173211  0.1354830286125051
  0.3990436045613208  0.5889069329307759  0.5269196032575536
  0.6845023272716517  0.6942101167050083  0.3572654233100323
  0.7807021859916361  0.7920588979196808  0.3095511308945476
  0.7430693766327252  0.9180555009596816  0.9209837296097163
  0.4093657093480090  0.6449849947582109  0.8050915147921671
  0.4679146088645254  0.6516605817641192  0.3077994984182766
  0.4472284996493485  0.9430563568554007  0.6879576640877687
  0.7105705135523479  0.7894195731544329  0.1887986314240209
  0.8918507361976395  0.6444982437568925  0.0375678565937747
  0.3821956501325943  0.6873878185699809  0.0273140627564175
  0.8673473715146827  0.1208898137478371  0.4639760548036094
  0.9246554334269064  0.7153707326422136  0.7169959804142465
  0.8564063887308748  0.3710456998881853  0.4526713766121802
  0.3925132238583018  0.1407670475662641  0.6565295910662527
  0.1997649021701875  0.2260492760727999  0.0503620112698755
  0.3987727709422728  0.8750137152245827  0.9010206813092623
  0.5564962811600438  0.0199575720124372  0.6713734719851843
  0.9331421718293882  0.9950061761010787  0.4520432603090896
  0.8991543417939383  0.6037123533536715  0.4234381449822777
  0.7284676371293344  0.2447464290266481  0.3802351923429725
  0.1614712975269939  0.5932874457217281  0.5863426881894824
  0.4985719922602101  0.3103171192539733  0.0050017203876607
  0.5515628108272637  0.9931419186607187  0.9803059445367737
  0.0172340367895032  0.6055788893904221  0.8406847505243462
  0.6007729601271450  0.5287827607300528  0.3737445102979464
  0.1055646468580704  0.4810180590043984  0.2086450313531572
  0.3756852718563195  0.7484446353260878  0.3074970292118451
  0.8147304776321604  0.4484122392089773  0.8301341846950407
  0.4108014428095927  0.1131417653082494  0.4348269565832155
  0.1005943440079520  0.4363409646055274  0.9211970259371398
  0.9237837596260974  0.7806101322190386  0.9395074051224341
  0.3250092305376242  0.5153689506522596  0.7076748990151529
  0.4962567181388877  0.5197311921614300  0.6962763634103837
  0.4691910924856160  0.4360103784544194  0.8430868810518106
  0.8507728110321864  0.8062040776594657  0.0585187671275023
  0.2128388847458709  0.2573443831141589  0.9019211943808330
  0.1910456308154735  0.5793716336240919  0.9854678368619787
  0.5964744731581533  0.2585818668262689  0.1448768247095273
  0.1175696684605754  0.4052518535665399  0.4982743291999014
  0.9151592849168608  0.2817814709520263  0.1430115389515620
  0.1053854475382607  0.7552702381505156  0.2446203816774428
  0.0066124720759859  0.0583258543550116  0.1421446828042079
  0.0696551622292247  0.7603598422607121  0.9396214778720520
  0.8813338998706186  0.3215423644725490  0.8268742674710410
  0.8960868637969455  0.7325063549828101  0.2639300309802550
  0.6153912977575544  0.9592512234819139  0.5548157478379068
  0.1769259196159965  0.7274835664914718  0.5388074483151044
  0.6003738552992317  0.6552025829828025  0.0683988469140218
  0.8466879229955708  0.8407761197129702  0.7211928433527177
  0.0710610424999985  0.3381431734113391  0.1672904060912401
  0.6143907701262066  0.8253668539505910  0.7264653884550185
  0.0333538850807003  0.1463286378293986  0.3043651011902497
  0.9036909043538657  0.3693711202499301  0.3191431270004372
  0.0123445429721443  0.4640391038621772  0.8111730081009512
  0.7319327039939409  0.0930266971441398  0.6700166806320382
  0.8609978676856045  0.1242232048568610  0.9468741784589909
  0.0624421425540689  0.9984210646920175  0.5138513739752000
  0.3690519498916700  0.5328912321802690  0.8649453573050039
  0.5864777320925327  0.3486317107038630  0.5950828979158658
  0.8445981483833549  0.2470296656032360  0.2696294837591751
  0.5338315300055712  0.6703438742183252  0.8591465105945559
  0.3658774980478228  0.0985862070416559  0.9720385267657363
  0.0361414435376233  0.7560382482948995  0.5578038874820095
  0.9547364833659415  0.4024410433784240  0.6433058076136930
  0.0255130458574158  0.5969519197030735  0.5492402134592140
  0.7484090091968341  0.6387827854371153  0.2537277674741603
  0.2770589386716082  0.8649042973468397  0.7838361051175653
  0.4438818939777320  0.0319479077542937  0.8736341587747418
  0.3268121991395248  0.4828606880993576  0.5703384404549752
  0.6832693415477706  0.3807408257018778  0.3678428383834103
  0.8522384464410706  0.6729430754163559  0.5970371375937873
  0.1825563902476546  0.8703818173971669  0.5783556683921205
  0.1593465258060576  0.3863895443692087  0.6912742607535520
  0.0305345707062656  0.0654140469972688  0.6362961596321526
  0.1772430795690383  0.7530937991012294  0.3990015281288066
  0.4058555902063929  0.9353783326583667  0.5591688772292400
  0.4559107359099457  0.7352893268399185  0.6511435705312252
  0.3450152017314920  0.7115340368620267  0.5310442160659719
  0.2989269494061944  0.6792779105268067  0.4009084332728179
  0.0455144737185407  0.8842594942048123  0.7467002402857972
  0.7788713588708660  0.0875193730543984  0.3595359591374887
  0.7854920623266182  0.8043451743473184  0.8688926698237154
  0.2132974467536428  0.6528413098302366  0.7964401377215324
  0.9381787667897825  0.9211287294064405  0.9190496027938977
  0.8369562390229390  0.9499736687455567  0.0131819896889738
  0.3723406491858299  0.2190749133672085  0.8585921039657975
  0.4319346828582553  0.1984049052503849  0.2726238440284732
  0.7065307964140430  0.5976250240841452  0.9975770469016325
  0.1149054370928511  0.8955260433989878  0.2876977418219866
  0.8394883698847195  0.4703346012732084  0.2432371156865329
  0.2914846082166065  0.4953863546612283  0.3826391216831624
  0.6946298623523219  0.5150594375701871  0.6462557420794113
  0.7103420795325377  0.8344759226467104  0.5277962312106936
  0.6578595640836014  0.8982779591025079  0.0252527747659528
  0.2046317237436526  0.7615012207056679  0.9846347858869109
  0.9881885228292049  0.1625335688060545  0.8068540145874721
  0.6039755244555280  0.8106292172637595  0.3517065018887564
  0.5584367003222965  0.9866357616680617  0.4259299896614337
  0.5725540368113187  0.7818681936818521  0.2177287297667618
  0.2642966341152544  0.0098222318258152  0.1518650012591465
  0.8925072129019185  0.5072759795209265  0.9350669619454663
  0.7172550306883636  0.3433284373222563  0.5340764240902089
  0.3889134230277094  0.1683657533702316  0.1439399562478130
  0.3095396970225153  0.3034545170332166  0.4583428690570130
  0.0580378016030920  0.7478041241619522  0.1093558763886691
  0.7163055117804760  0.1821911486969654  0.1711727597757999
  0.6880941631472055  0.1078353211198575  0.8667286257812705
  0.1807613988668422  0.0793311359149840  0.0363594366350029
  0.6655594681543135  0.4494780875951747  0.0429870321377877
  0.2468063372028197  0.7893363786300895  0.1592763184013108
  0.9993856522479732  0.2635944283501033  0.9972716700004511
  0.5021200817954181  0.1628528928057023  0.8397419944338580
  0.3848688094483563  0.8036286643384898  0.1085412392781464
  0.9421686490794414  0.8710119679229464  0.2716222965898112
  0.4748990221303799  0.8311611486028099  0.7551710501423585
  0.9407992580682745  0.4214854911279602  0.1213046287393666
  0.0223331133251250  0.2335350037828263  0.5042237680841950
  0.2479419321380973  0.4052798961198647  0.1848057441590214
  0.7655734026681884  0.9491495279953952  0.3954671204197879
  0.2549515516726899  0.2904430311311827  0.2679641991249326
  0.2461696650596039  0.9822204119542235  0.6504340408395848
  0.7217158603331413  0.6614647691780036  0.4869451160805056
  0.7121725397458860  0.6469306898186176  0.8015454304775034
  0.2283780275944451  0.2765985867704828  0.7536054969292110
  0.4603357632702298  0.8391480809562921  0.3738437756227810
  0.8756128397917067  0.6357949363470254  0.8243783324218725
  0.5954138885296345  0.7860278529541205  0.9568451975792698
  0.9828058908454054  0.5516541553866645  0.2507914431085609
  0.7496971036248539  0.7611193900091990  0.6452638562832931
  0.6531797925193672  0.6503073345134993  0.6730542047829431
  0.1076565287667393  0.9912321989980342  0.8220337139026839
  0.2296437204746979  0.1493287039481146  0.6730241945169695
  0.1600528460068773  0.6182483475157383  0.2425820996294945
  0.0356239398423952  0.6038613217447875  0.3733705518658184
  0.2846149757552396  0.3918927771183434  0.9705115900315633
  0.4604174794704505  0.5041667315001774  0.9786368503002905
  0.3007028239050200  0.8629177320097128  0.4979135405665573
  0.1808432389287944  0.1066685004677126  0.2175353628850161
  0.7939456449017044  0.5698597056543306  0.1079268071915749
  0.1157363527779722  0.2932841230114747  0.2969327919836005
  0.0704744082844542  0.2093809600547445  0.1055366577726886
  0.2538357757543750  0.8467918864236736  0.2882888784053605
  0.7419828374697062  0.9262608116759523  0.1645481426887301
  0.3034560876034149  0.5238522341108336  0.2452630273282637
  0.3719965057280561  0.2862296199410395  0.0688360778854218
  0.1420581305433686  0.1343948774989769  0.8787952465913662
  0.0673567053666630  0.9289031212768819  0.9740203946834853
  0.1491056660062995  0.2556035139769364  0.4503622068760222
  0.3209971774223277  0.6575759909091730  0.7037862616094372
  0.5332417706096422  0.2869539795431990  0.4794571916183159
  0.4516845341927151  0.6056210736485284  0.1855025973543505
  0.6238972723479534  0.1668284970996652  0.3223943213193721
  0.3423234506945647  0.9565618978771724  0.2605336930706912
  0.4119672324287862  0.2745365000652953  0.5497747314722545
  0.5233385940731807  0.1731468034438350  0.9792623410048478
  0.6292319554577546  0.3587505004197808  0.9408693317753034
  0.4202591923595449  0.5553489764539563  0.3957551897932632
  0.3624320823295690  0.0311243475905698  0.7460038760572942
  0.6581104973042926  0.3638745012037390  0.7973924048259065
  0.4788866815491062  0.0640417937600901  0.2825049848786279
  0.8765005213879675  0.1195324516189800  0.1678571115994885
  0.9009994213623216  0.2024948112452947  0.6269817149248951
  0.5240745341994852  0.5778308881484193  0.5686136184380715
  0.9362541882655080  0.2145122456482156  0.3823842348691215
  0.3847101027696951  0.4067323172348694  0.1448954982492694
  0.7483188625624351  0.3608539714847296  0.6728372030128540
  0.0054275884555182  0.8224194834912097  0.4345422009344375
  0.9855674380413788  0.0142071496764444  0.3223206573801178
  0.8925512730415619  0.5224355949068595  0.7356210877393465
  0.8224962224027692  0.4464985237221839  0.0416850083012719
  0.8519913917451305  0.1462081182450987  0.7446410422075473
  0.3692898007678806  0.3786451536478808  0.3575901505358274
  0.7219037418911114  0.0534722426106882  0.5321568462900288
  0.8967325095995946  0.8859756181182448  0.5928878491076972
  0.5351027024297963  0.4505048310410444  0.0997094231899993
  0.4348731738580867  0.3645703678129593  0.7181564723972755
  0.5583112896766238  0.7921736862771240  0.5688916081194080
  0.1353075108223081  0.4268634444473705  0.3393338316701886
  0.5491778854227931  0.9074270089893943  0.1569753165271308
  0.3686412782596307  0.7375112819014689  0.8979001894261600
  0.6794103113207441  0.0818234944165894  0.0741858008032352
  0.9509677700646932  0.9239097124604783  0.1387665829544034
  0.6215361417912817  0.5592482729799357  0.8631728756753247
  0.2237588450083834  0.0598559645517867  0.5336515711934240
  0.1255578542209363  0.7152126852364233  0.7103628857842210
  0.1250104669132810  0.1197130406063138  0.4101560357747971
  0.7789866684652438  0.2837121108046361  0.0930297195849263
 
  0.00000000E+00  0.00000000E+00  0.00000000E+00
  0.00000000E+00  0.00000000E+00  0.00000000E+00
  0.00000000E+00  0.00000000E+00  0.00000000E+00
  0.00000000E+00  0.00000000E+00  0.00000000E+00
  0.00000000E+00  0.00000000E+00  0.00000000E+00
  0.00000000E+00  0.00000000E+00  0.00000000E+00
  0.00000000E+00  0.00000000E+00  0.00000000E+00
  0.00000000E+00  0.00000000E+00  0.00000000E+00
  0.00000000E+00  0.00000000E+00  0.00000000E+00
  0.00000000E+00  0.00000000E+00  0.00000000E+00
  0.00000000E+00  0.00000000E+00  0.00000000E+00
  0.00000000E+00  0.00000000E+00  0.00000000E+00
  0.00000000E+00  0.00000000E+00  0.00000000E+00
  0.00000000E+00  0.00000000E+00  0.00000000E+00
  0.00000000E+00  0.00000000E+00  0.00000000E+00
  0.00000000E+00  0.00000000E+00  0.00000000E+00
  0.00000000E+00  0.00000000E+00  0.00000000E+00
  0.00000000E+00  0.00000000E+00  0.00000000E+00
  0.00000000E+00  0.00000000E+00  0.00000000E+00
  0.00000000E+00  0.00000000E+00  0.00000000E+00
  0.00000000E+00  0.00000000E+00  0.00000000E+00
  0.00000000E+00  0.00000000E+00  0.00000000E+00
  0.00000000E+00  0.00000000E+00  0.00000000E+00
  0.00000000E+00  0.00000000E+00  0.00000000E+00
  0.00000000E+00  0.00000000E+00  0.00000000E+00
  0.00000000E+00  0.00000000E+00  0.00000000E+00
  0.00000000E+00  0.00000000E+00  0.00000000E+00
  0.00000000E+00  0.00000000E+00  0.00000000E+00
  0.00000000E+00  0.00000000E+00  0.00000000E+00
  0.00000000E+00  0.00000000E+00  0.00000000E+00
  0.00000000E+00  0.00000000E+00  0.00000000E+00
  0.00000000E+00  0.00000000E+00  0.00000000E+00
  0.00000000E+00  0.00000000E+00  0.00000000E+00
  0.00000000E+00  0.00000000E+00  0.00000000E+00
  0.00000000E+00  0.00000000E+00  0.00000000E+00
  0.00000000E+00  0.00000000E+00  0.00000000E+00
  0.00000000E+00  0.00000000E+00  0.00000000E+00
  0.00000000E+00  0.00000000E+00  0.00000000E+00
  0.00000000E+00  0.00000000E+00  0.00000000E+00
  0.00000000E+00  0.00000000E+00  0.00000000E+00
  0.00000000E+00  0.00000000E+00  0.00000000E+00
  0.00000000E+00  0.00000000E+00  0.00000000E+00
  0.00000000E+00  0.00000000E+00  0.00000000E+00
  0.00000000E+00  0.00000000E+00  0.00000000E+00
  0.00000000E+00  0.00000000E+00  0.00000000E+00
  0.00000000E+00  0.00000000E+00  0.00000000E+00
  0.00000000E+00  0.00000000E+00  0.00000000E+00
  0.00000000E+00  0.00000000E+00  0.00000000E+00
  0.00000000E+00  0.00000000E+00  0.00000000E+00
  0.00000000E+00  0.00000000E+00  0.00000000E+00
  0.00000000E+00  0.00000000E+00  0.00000000E+00
  0.00000000E+00  0.00000000E+00  0.00000000E+00
  0.00000000E+00  0.00000000E+00  0.00000000E+00
  0.00000000E+00  0.00000000E+00  0.00000000E+00
  0.00000000E+00  0.00000000E+00  0.00000000E+00
  0.00000000E+00  0.00000000E+00  0.00000000E+00
  0.00000000E+00  0.00000000E+00  0.00000000E+00
  0.00000000E+00  0.00000000E+00  0.00000000E+00
  0.00000000E+00  0.00000000E+00  0.00000000E+00
  0.00000000E+00  0.00000000E+00  0.00000000E+00
  0.00000000E+00  0.00000000E+00  0.00000000E+00
  0.00000000E+00  0.00000000E+00  0.00000000E+00
  0.00000000E+00  0.00000000E+00  0.00000000E+00
  0.00000000E+00  0.00000000E+00  0.00000000E+00
  0.00000000E+00  0.00000000E+00  0.00000000E+00
  0.00000000E+00  0.00000000E+00  0.00000000E+00
  0.00000000E+00  0.00000000E+00  0.00000000E+00
  0.00000000E+00  0.00000000E+00  0.00000000E+00
  0.00000000E+00  0.00000000E+00  0.00000000E+00
  0.00000000E+00  0.00000000E+00  0.00000000E+00
  0.00000000E+00  0.00000000E+00  0.00000000E+00
  0.00000000E+00  0.00000000E+00  0.00000000E+00
  0.00000000E+00  0.00000000E+00  0.00000000E+00
  0.00000000E+00  0.00000000E+00  0.00000000E+00
  0.00000000E+00  0.00000000E+00  0.00000000E+00
  0.00000000E+00  0.00000000E+00  0.00000000E+00
  0.00000000E+00  0.00000000E+00  0.00000000E+00
  0.00000000E+00  0.00000000E+00  0.00000000E+00
  0.00000000E+00  0.00000000E+00  0.00000000E+00
  0.00000000E+00  0.00000000E+00  0.00000000E+00
  0.00000000E+00  0.00000000E+00  0.00000000E+00
  0.00000000E+00  0.00000000E+00  0.00000000E+00
  0.00000000E+00  0.00000000E+00  0.00000000E+00
  0.00000000E+00  0.00000000E+00  0.00000000E+00
  0.00000000E+00  0.00000000E+00  0.00000000E+00
  0.00000000E+00  0.00000000E+00  0.00000000E+00
  0.00000000E+00  0.00000000E+00  0.00000000E+00
  0.00000000E+00  0.00000000E+00  0.00000000E+00
  0.00000000E+00  0.00000000E+00  0.00000000E+00
  0.00000000E+00  0.00000000E+00  0.00000000E+00
  0.00000000E+00  0.00000000E+00  0.00000000E+00
  0.00000000E+00  0.00000000E+00  0.00000000E+00
  0.00000000E+00  0.00000000E+00  0.00000000E+00
  0.00000000E+00  0.00000000E+00  0.00000000E+00
  0.00000000E+00  0.00000000E+00  0.00000000E+00
  0.00000000E+00  0.00000000E+00  0.00000000E+00
  0.00000000E+00  0.00000000E+00  0.00000000E+00
  0.00000000E+00  0.00000000E+00  0.00000000E+00
  0.00000000E+00  0.00000000E+00  0.00000000E+00
  0.00000000E+00  0.00000000E+00  0.00000000E+00
  0.00000000E+00  0.00000000E+00  0.00000000E+00
  0.00000000E+00  0.00000000E+00  0.00000000E+00
  0.00000000E+00  0.00000000E+00  0.00000000E+00
  0.00000000E+00  0.00000000E+00  0.00000000E+00
  0.00000000E+00  0.00000000E+00  0.00000000E+00
  0.00000000E+00  0.00000000E+00  0.00000000E+00
  0.00000000E+00  0.00000000E+00  0.00000000E+00
  0.00000000E+00  0.00000000E+00  0.00000000E+00
  0.00000000E+00  0.00000000E+00  0.00000000E+00
  0.00000000E+00  0.00000000E+00  0.00000000E+00
  0.00000000E+00  0.00000000E+00  0.00000000E+00
  0.00000000E+00  0.00000000E+00  0.00000000E+00
  0.00000000E+00  0.00000000E+00  0.00000000E+00
  0.00000000E+00  0.00000000E+00  0.00000000E+00
  0.00000000E+00  0.00000000E+00  0.00000000E+00
  0.00000000E+00  0.00000000E+00  0.00000000E+00
  0.00000000E+00  0.00000000E+00  0.00000000E+00
  0.00000000E+00  0.00000000E+00  0.00000000E+00
  0.00000000E+00  0.00000000E+00  0.00000000E+00
  0.00000000E+00  0.00000000E+00  0.00000000E+00
  0.00000000E+00  0.00000000E+00  0.00000000E+00
  0.00000000E+00  0.00000000E+00  0.00000000E+00
  0.00000000E+00  0.00000000E+00  0.00000000E+00
  0.00000000E+00  0.00000000E+00  0.00000000E+00
  0.00000000E+00  0.00000000E+00  0.00000000E+00
  0.00000000E+00  0.00000000E+00  0.00000000E+00
  0.00000000E+00  0.00000000E+00  0.00000000E+00
  0.00000000E+00  0.00000000E+00  0.00000000E+00
  0.00000000E+00  0.00000000E+00  0.00000000E+00
  0.00000000E+00  0.00000000E+00  0.00000000E+00
  0.00000000E+00  0.00000000E+00  0.00000000E+00
  0.00000000E+00  0.00000000E+00  0.00000000E+00
  0.00000000E+00  0.00000000E+00  0.00000000E+00
  0.00000000E+00  0.00000000E+00  0.00000000E+00
  0.00000000E+00  0.00000000E+00  0.00000000E+00
  0.00000000E+00  0.00000000E+00  0.00000000E+00
  0.00000000E+00  0.00000000E+00  0.00000000E+00
  0.00000000E+00  0.00000000E+00  0.00000000E+00
  0.00000000E+00  0.00000000E+00  0.00000000E+00
  0.00000000E+00  0.00000000E+00  0.00000000E+00
  0.00000000E+00  0.00000000E+00  0.00000000E+00
  0.00000000E+00  0.00000000E+00  0.00000000E+00
  0.00000000E+00  0.00000000E+00  0.00000000E+00
  0.00000000E+00  0.00000000E+00  0.00000000E+00
  0.00000000E+00  0.00000000E+00  0.00000000E+00
  0.00000000E+00  0.00000000E+00  0.00000000E+00
  0.00000000E+00  0.00000000E+00  0.00000000E+00
  0.00000000E+00  0.00000000E+00  0.00000000E+00
  0.00000000E+00  0.00000000E+00  0.00000000E+00
  0.00000000E+00  0.00000000E+00  0.00000000E+00
  0.00000000E+00  0.00000000E+00  0.00000000E+00
  0.00000000E+00  0.00000000E+00  0.00000000E+00
  0.00000000E+00  0.00000000E+00  0.00000000E+00
  0.00000000E+00  0.00000000E+00  0.00000000E+00
  0.00000000E+00  0.00000000E+00  0.00000000E+00
  0.00000000E+00  0.00000000E+00  0.00000000E+00
  0.00000000E+00  0.00000000E+00  0.00000000E+00
  0.00000000E+00  0.00000000E+00  0.00000000E+00
  0.00000000E+00  0.00000000E+00  0.00000000E+00
  0.00000000E+00  0.00000000E+00  0.00000000E+00
  0.00000000E+00  0.00000000E+00  0.00000000E+00
  0.00000000E+00  0.00000000E+00  0.00000000E+00
  0.00000000E+00  0.00000000E+00  0.00000000E+00
  0.00000000E+00  0.00000000E+00  0.00000000E+00
  0.00000000E+00  0.00000000E+00  0.00000000E+00
  0.00000000E+00  0.00000000E+00  0.00000000E+00
  0.00000000E+00  0.00000000E+00  0.00000000E+00
  0.00000000E+00  0.00000000E+00  0.00000000E+00
  0.00000000E+00  0.00000000E+00  0.00000000E+00
  0.00000000E+00  0.00000000E+00  0.00000000E+00
  0.00000000E+00  0.00000000E+00  0.00000000E+00
  0.00000000E+00  0.00000000E+00  0.00000000E+00
  0.00000000E+00  0.00000000E+00  0.00000000E+00
  0.00000000E+00  0.00000000E+00  0.00000000E+00
  0.00000000E+00  0.00000000E+00  0.00000000E+00
  0.00000000E+00  0.00000000E+00  0.00000000E+00
  0.00000000E+00  0.00000000E+00  0.00000000E+00
  0.00000000E+00  0.00000000E+00  0.00000000E+00
  0.00000000E+00  0.00000000E+00  0.00000000E+00
  0.00000000E+00  0.00000000E+00  0.00000000E+00
  0.00000000E+00  0.00000000E+00  0.00000000E+00
  0.00000000E+00  0.00000000E+00  0.00000000E+00
  0.00000000E+00  0.00000000E+00  0.00000000E+00
  0.00000000E+00  0.00000000E+00  0.00000000E+00
  0.00000000E+00  0.00000000E+00  0.00000000E+00
  0.00000000E+00  0.00000000E+00  0.00000000E+00
  0.00000000E+00  0.00000000E+00  0.00000000E+00
  0.00000000E+00  0.00000000E+00  0.00000000E+00
  0.00000000E+00  0.00000000E+00  0.00000000E+00
  0.00000000E+00  0.00000000E+00  0.00000000E+00
  0.00000000E+00  0.00000000E+00  0.00000000E+00
  0.00000000E+00  0.00000000E+00  0.00000000E+00
  0.00000000E+00  0.00000000E+00  0.00000000E+00
  0.00000000E+00  0.00000000E+00  0.00000000E+00
  0.00000000E+00  0.00000000E+00  0.00000000E+00
  0.00000000E+00  0.00000000E+00  0.00000000E+00
  0.00000000E+00  0.00000000E+00  0.00000000E+00
  0.00000000E+00  0.00000000E+00  0.00000000E+00
  0.00000000E+00  0.00000000E+00  0.00000000E+00
  0.00000000E+00  0.00000000E+00  0.00000000E+00
  0.00000000E+00  0.00000000E+00  0.00000000E+00
  0.00000000E+00  0.00000000E+00  0.00000000E+00
  0.00000000E+00  0.00000000E+00  0.00000000E+00
  0.00000000E+00  0.00000000E+00  0.00000000E+00
  0.00000000E+00  0.00000000E+00  0.00000000E+00
  0.00000000E+00  0.00000000E+00  0.00000000E+00
  0.00000000E+00  0.00000000E+00  0.00000000E+00
  0.00000000E+00  0.00000000E+00  0.00000000E+00
  0.00000000E+00  0.00000000E+00  0.00000000E+00
  0.00000000E+00  0.00000000E+00  0.00000000E+00
  0.00000000E+00  0.00000000E+00  0.00000000E+00
  0.00000000E+00  0.00000000E+00  0.00000000E+00
  0.00000000E+00  0.00000000E+00  0.00000000E+00
  0.00000000E+00  0.00000000E+00  0.00000000E+00
  0.00000000E+00  0.00000000E+00  0.00000000E+00
  0.00000000E+00  0.00000000E+00  0.00000000E+00
  0.00000000E+00  0.00000000E+00  0.00000000E+00
  0.00000000E+00  0.00000000E+00  0.00000000E+00
  0.00000000E+00  0.00000000E+00  0.00000000E+00
  0.00000000E+00  0.00000000E+00  0.00000000E+00
  0.00000000E+00  0.00000000E+00  0.00000000E+00
  0.00000000E+00  0.00000000E+00  0.00000000E+00
  0.00000000E+00  0.00000000E+00  0.00000000E+00
  0.00000000E+00  0.00000000E+00  0.00000000E+00
  0.00000000E+00  0.00000000E+00  0.00000000E+00
  0.00000000E+00  0.00000000E+00  0.00000000E+00
  0.00000000E+00  0.00000000E+00  0.00000000E+00
  0.00000000E+00  0.00000000E+00  0.00000000E+00
  0.00000000E+00  0.00000000E+00  0.00000000E+00
  0.00000000E+00  0.00000000E+00  0.00000000E+00
  0.00000000E+00  0.00000000E+00  0.00000000E+00
  0.00000000E+00  0.00000000E+00  0.00000000E+00