Amorphous Sb                            
   1.00000000000000     
    21.2458902478061482    0.0000000000000000    0.0000000000000000
     0.0000000000000000   21.2458902478061482    0.0000000000000000
     0.0000000000000000    0.0000000000000000   21.2458902478061482
   Ge   Te
   150   150
Direct
  0.0319348364527467  0.2958955652310420  0.7195180531922847
  0.1538016475738112  0.1637878827691896  0.5156022401389060
  0.8478564317859603  0.1327996802129942  0.5429996311010792
  0.2377237433779497  0.5671780559541265  0.1548950002094266
  0.3199456612162782  0.7228013200205770  0.6713219751514030
  0.1995918816921793  0.3609142087379529  0.6009987590251135
  0.0586516607417609  0.4983060221153777  0.8958325908574146
  0.4969615724991302  0.8147498790352959  0.4459902737381964
  0.9048345168615347  0.6779444715867173  0.7379523587335453
  0.4336108244524368  0.4198842715056854  0.6097462763728304
  0.0372908209961567  0.3486979432736543  0.5325679909355645
  0.8704104307586766  0.2715587498161655  0.6818991168876990
  0.1549549591249510  0.0959411582879925  0.6421280772236074
  0.6566532213016398  0.3264242196512551  0.7028950918455675
  0.4524668660736340  0.7464074389315358  0.2950579256015876
  0.4019379393325717  0.8120200455448510  0.6435820076957981
  0.6084480025709588  0.6999098164097506  0.1809014411994152
  0.2943611817232257  0.3153203254368429  0.6689085700191677
  0.1482805169955190  0.4827687594515741  0.7335054880801259
  0.6823599470462365  0.3670158438624564  0.5275209688720862
  0.7927455584726393  0.4254702378414542  0.9406662395394568
  0.1930663182377289  0.1782793791406957  0.9183321627343747
  0.1217763434267423  0.3679793130309654  0.7557035364871998
  0.6967770488747840  0.0317109056695694  0.7132489757588039
  0.6096560865812154  0.2385300578799056  0.9125634852858802
  0.7403233285365275  0.6119051626638953  0.8214960920629130
  0.5307925460604439  0.6348140713864954  0.3736586575804906
  0.7850676032357888  0.2026814479262742  0.1886536778816298
  0.2535649256135371  0.0701324380473986  0.0861424915774831
  0.3186140054003661  0.0814328696151304  0.1860672746860841
  0.2093861155939317  0.7318520996421432  0.1450617512220267
  0.2299380093242228  0.3565274186189452  0.8842824591462451
  0.2574082127305855  0.2961105927222218  0.9872480949905134
  0.6618298170697536  0.5679813051642378  0.0803805865928025
  0.8839310537766371  0.1002067792527877  0.1719278633525771
  0.2851112034493980  0.8973665715507309  0.5855661075561792
  0.8549820875617613  0.6439166151218040  0.0416480194563389
  0.0156938890781804  0.5060146674768454  0.2084392785000148
  0.8746810518456126  0.1977109140538933  0.3025383991294337
  0.3645073793128711  0.1423831386044301  0.8195632171285065
  0.4607568719104803  0.1350631189051227  0.6553100023032151
  0.2946491880849402  0.4599311871171757  0.0492355897663410
  0.6269435856801834  0.0271046360502329  0.3710779531634923
  0.5476491902403378  0.4255750415146289  0.9913823918431787
  0.6320486580544793  0.5812176966513948  0.1991745793514255
  0.3910154358022640  0.2260802535722728  0.6025560287102670
  0.8914771359662967  0.1100009388618328  0.7376163547035647
  0.4763569196716450  0.1401497308246072  0.7755794190639224
  0.8658732809860152  0.8239265444892395  0.3892311853258526
  0.5903571131278944  0.1953001224596345  0.5098408769620952
 -0.0090539721363234  0.1741440051948326  0.7060700532974741
  0.9614059303115025  0.2495964827923641  0.5034277804075001
  0.4482561110446543  0.6232935993279325  0.2821111532941170
  0.4210393973539441  0.9864580165539117  0.8814748010597279
  0.9493943706809059  0.8104458908864645  0.0636370235291975
  0.9614597737594124  0.5236706011649246  0.6300845403219018
  0.4815689793905163  0.3284575705149041  0.4684186955691584
  0.0911907417868600  0.1338151647542834  0.1616954997998672
  0.7152208372931381  0.4713055696653234  0.1259904917452963
  0.5337105903772595  0.4509093659395458  0.3287793917216874
  0.2188061855928161  0.0808092266001955  0.3617343267945073
  0.7220047191523572  0.5110466002540945  0.2451783627985684
  0.4372364596666400  0.9807803389836058  0.3319551904831000
  0.0403745963945162  0.5435083241992392  0.4593231339134741
  0.0842795080608783  0.8890770584823208  0.9699144593641512
  0.0721849824733477  0.2302180462299671  0.3806788517355926
  0.3811742852025707  0.2374365058079831  0.2367520556360197
  0.1203367566398407  0.0268929238630762  0.2123073829228754
  0.4152531702508284  0.4543928378617338  0.4913936396465126
  0.4426439287197169  0.6479593717899171  0.6223404929211661
  0.2598823680180521  0.6928939044924921  0.9171242787639297
  0.2594533257877439  0.6520768610975745  0.3493989240081373
  0.1750285564728762  0.5408484906097500  0.8851120973884310
  0.2287478820242244  0.7647956159437990  0.3188949804086364
  0.0702355958252526  0.6330844954521085  0.1046539654814106
  0.0057366449354845  0.0193773513088227  0.0237196039839978
  0.5213993748520929  0.7925177839141120  0.2039825590872872
  0.9024567965432628  0.5634839854330053  0.1991462713936172
  0.7960156582045298  0.6998124424638862  0.6251728269717740
  0.8052904079590322  0.9340749468689079  0.2802510295188428
  0.4948044915897837  0.8889249524393620  0.9043078265099370
  0.7784308707955149  0.3120189244861636  0.4146654917777547
  0.0036222040277092  0.9140274313023818  0.2934898227094740
  0.2508861336597703  0.9241774334954287  0.4542219610597291
  0.8726419505569578  0.5872525310537166  0.3848888482058297
  0.3143039688107237  0.1658607002118636  0.9256423929533908
  0.5679758366833342  0.0775854049047272  0.9556630955291882
  0.4086983615503441  0.8492555894796560  0.3412038948434968
  0.7777868383165156  0.6007930740829750  0.4590154674891185
  0.2276329254875046  0.7365784120204920  0.5212952502044426
  0.3561944531806107  0.9166455078259498  0.0460159290764991
  0.3397739305741346  0.9005201298870762  0.7016958983629349
  0.9351290967084841  0.5470762994851979  0.0049173995388100
  0.7916348666940110  0.6130962035005711  0.2164474558271093
  0.6401650299294680  0.6962543960282526  0.4979176817527788
  0.3519580635336753 -0.0177661875307526  0.2429683437087053
  0.5725348004026437  0.1317975217959762  0.3957214917575221
  0.8462999890598996  0.0337284881477714  0.3381161675688131
  0.6143125330087854  0.8594585085859419  0.9265471503002456
  0.3861038553792852  0.1993924311571798  0.3719709052326675
  0.3852117558842148  0.7378044717434376  0.1248305666353518
  0.3093177535310311  0.0148200875991991  0.6058117403568550
  0.2151542767752450  0.3618703716648626  0.4813904433514741
  0.6824043424796595  0.8149739759726443  0.2071489427426832
  0.0180949212215930  0.8771707359057147  0.5522478014362585
  0.5239136435641000  0.4740465302589882  0.6674220243407695
  0.8764105297405802  0.4822545312418569  0.3185285931442038
  0.9298328543671813  0.6561551022426301  0.5330620075138555
  0.2441103162447445  0.9383801103812672  0.2167806435005490
  0.3555785726930806  0.6356405637648591  0.4461215533877683
  0.3341352875786456  0.7874571233196690  0.8542391726840917
  0.7188878234225240  0.0626839611764543  0.0252270693148213
  0.7125951273170864  0.7331413819648114  0.9698713435223969
  0.0896793462778533  0.7077471620612704  0.9593309649656647
  0.2265613466119369  0.3153885205748269  0.7705694996494992
  0.2930948131469628  0.1581582788615656  0.7233026736656712
  0.2106584505140496  0.8628481585918213 -0.0107353434496846
 -0.0113577757406527  0.6523377800936850  0.9171423020297941
  0.6043637037611088  0.4354385385535105  0.1625886462018968
  0.7537470200972218  0.1900957991668390  0.3660191052998090
  0.1002849665195069  0.3819925150494979  0.3379192447076125
  0.6449157425026072  0.4259651634332781  0.8042713625755946
  0.9585488090143214  0.3930896438883043  0.0490000457005803
  0.4589104430937007  0.3184084144658418  0.7594403706135757
  0.0900263831384892  0.6422715905477188  0.7388045856685650
  0.8884678295490315  0.9445045354447502  0.4120422859559962
  0.8518293059187665  0.5899049106054903  0.6467824898359780
  0.6967586062047060  0.5841895390467029  0.3642605054774586
  0.6987602046291604  0.8453406283255773  0.6084382710458647
  0.2148935557321369  0.5605467391850795  0.5335553166947836
  0.2214101770357628  0.9536631388002876  0.0930552762543257
  0.5377630207613318  0.7704140031430144  0.0392342907185002
  0.7260931630847981  0.9416960673605870  0.9942662848782200
  0.6420205783487835  0.0163960564725232  0.5507856668855261
  0.1624598355302971  0.9023958824510853  0.6128911124652063
  0.6771714772723459  0.6892952160023981  0.0787823463498949
  0.7688057348168105  0.3613821441843128  0.1170345269633414
  0.2517989281502749  0.8212181148045631  0.2173535226676346
  0.8399207576594153  0.3973296906068580  0.2152992855109350
  0.2706438174415255  0.3916321771720160  0.2520946536946411
  0.4980365695022714  0.7062818481237956  0.7731220056144955
  0.7422710019008070  0.0157151334096150  0.4015938293036581
  0.3721570344637860  0.8140798500268650  0.2217895734364971
  0.3178712577199858  0.1072146025551012  0.4258539485421529
  0.1552006637691783  0.3055450653505294  0.1432037462841410
  0.0039735727689578 -0.0040010083012347  0.6362207771972919
  0.7100568379378304  0.7308881520649430  0.8034531043195382
  0.3510705710189150  0.1158323911198627  0.0294137012146994
  0.8059477346936822  0.4313180498953205  0.5293865838718056
  0.9626144077404858  0.2407721226970227  0.2172952070144712
  0.0618413818938707  0.0693324652597721  0.7306988266272465
  0.9787997149526995  0.1708067298998300  0.1088511634252975
  0.6441971727365484  0.3782659552362318  0.9278636643882743
  0.5014594817302949  0.1901415293934558  0.9643571458782817
  0.3292444971523918  0.4807237343433918  0.1789088692017737
  0.0366816003767931  0.6227940641199228  0.5941337400338764
  0.8991696255284454  0.8497385470852032  0.2632076723825984
  0.4146964602470348  0.1511710577068017  0.1407822072306161
  0.5304807180472925  0.3559742365199713  0.0956077732084910
  0.0997623064649116  0.3735203567519101  0.8796680310175859
  0.9825128110074723  0.1467850588140713  0.5799688030315111
  0.3658228549209996  0.9922748618960011  0.4396070579387311
  0.1939820853689955  0.9593646767865519  0.3354558468225100
  0.0767241932087185  0.7738703869594296  0.0664396600052181
  0.5014555606623481  0.6710502729734406  0.1094264217276604
  0.4556861957454604  0.1992840795771187  0.4892842759388079
  0.0774530958679649  0.0072117371816781  0.9085866542531291
  0.1869409728808687  0.4547387615749445  0.4041591057301316
  0.0090749341645294  0.7195447374935139  0.8076320596110493
  0.7743429800933496  0.4466997857945342  0.4055481184920725
  0.5542571082601155  0.9792296080813356  0.4611060285954943
  0.4884319423957229  0.3080175107434205  0.2494562204134326
  0.9272726269279368  0.7888545815064865  0.5312749382668045
  0.1997900058408115  0.2501105316201878  0.4237352406113324
  0.8395214235115719  0.2730577920750090  0.5308167616676523
  0.6162638152737739  0.8518397424745432  0.0927079677216156
  0.7522366768560697  0.6102840473406823  0.9515864383144516
  0.3830312325023026  0.6459572259175008  0.7483372019146095
  0.9951387759706362  0.0328771719487361  0.2538121011391547
  0.0879844849394343  0.2320938769492654  0.2476392508087158
  0.0638253506217908  0.3034078226476379  0.0437859656381470
  0.7549881420686058  0.5449727305836247  0.5712734831101646
  0.9024888384311381  0.9834890361990354  0.7339488313678835
  0.1654779717382518  0.6553662374348673  0.4420204300630223
  0.9537727872960732  0.9102741696504126  0.9722281450328688
  0.5310681978681534  0.0403021277637002  0.8283142015738622
  0.0430385966054380  0.5026574702925346  0.0601264942490187
  0.8772017945726474  0.1241138856838724  0.8624096820722632
  0.3594904362153007  0.5698324968653602  0.0444821795797012
  0.2983708018586772  0.9027829186630089  0.9047172852064660
  0.6846549850835916  0.2587520491617297  0.5919251702877300
  0.4306218096451725  0.0164870372740555  0.6320136035564040
  0.8751471485346846  0.3225687002957807  0.3314907713559999
  0.6168613284056875  0.0854483374530884  0.0948973624897217
  0.8150884171199178  0.6798336469344791  0.3214372457632477
  0.6360148036917359  0.2181393868040276  0.3188707971515425
  0.5536224917099243  0.5465843719224335  0.0202053322616233
  0.5618541193932570  0.2337347954986938  0.7855457671206054
  0.3496647830982497  0.5515503230645886  0.5498831229180088
  0.5153490865599718  0.4335759969251480  0.7887005008083645
  0.1766017324277715  0.3895447655082991  0.0402556548960012
  0.7295305294559866  0.9407250905317995  0.1740332015613826
  0.5815639794309346  0.1188969907644571  0.6173513904100323
  0.4293647073415715  0.8202120860687581  0.9921444114839809
  0.1746471146014203  0.1692079214026932  0.0739058972017703
  0.4330574572268259  0.0193518818070758  0.0082658764809568
  0.0515434563734953  0.8824436324156318  0.6827644565715212
  0.5198007837510228  0.5209546752833062  0.2133116514083236
  0.4780660300283903  0.6870831210143242  0.4782752322611522
  0.7453824356026842  0.8428821284591836  0.3422791076032140
  0.6802807164544113 -0.0142784792006204  0.8439560785954028
  0.5144088870013052  0.7575129950195342  0.6551598647099107
  0.8251863115583068  0.3215491027886361  0.0102977538665461
  0.6883711799329105  0.1223565323235126  0.9155678185379443
  0.4161820031907853  0.8665420500638168  0.5348394049917359
  0.9604625697517603  0.3647175908022129  0.1842118164337483
  0.4270271079161435  0.9155774300381001  0.1649241686979258
  0.4387951550260307  0.4166928991818935  0.9288322439923523
 -0.0219219748122629  0.2048377197177621  0.8626789004067146
  0.0918007446657343  0.9575006766039362  0.1053442420256803
  0.1309435029730804  0.4695767250292229  0.6051535252352718
  0.3507417088179304  0.4227243112855744  0.7043625271937966
  0.6384865587844931  0.7036025778432455  0.3659069370637059
  0.3716717152077795  0.3565452204554179  0.0295922839193002
  0.9231228542492521  0.4539018694000783  0.9197482920000450
  0.6035406821608248  0.3305669675831120  0.4269320158843576
  0.8379372235184714  0.5490263630732000  0.7703808898634515
  0.6186946669790573  0.8228920568789324  0.5059153413510338
  0.2775837709830755  0.7653514568559435  0.0391189616084703
  0.7857344964443354  0.9463075559289981  0.6824888853456615
  0.8008934631584815  0.9577249314838483  0.8924994824112696
  0.8565247051218861  0.4941546543871646  0.1012522316086606
  0.0988670895916724  0.1047472028630833  0.3958547496300204
  0.4700396191090799  0.1163332351186809  0.3174730817708504
  0.2994449267232526  0.3028298906811878  0.1615143643163079
  0.2395881569292361  0.1485784273282157  0.2572058982120024
  0.3049086836774533  0.8128615053049816  0.4107685301109490
  0.2062781069113562  0.6289243896925955  0.8018954573148823
  0.9341568986982323  0.3131077722042531  0.8026176159478047
  0.8194487271831079  0.9054233430493812  0.0770405682969068
  0.2594520765729417  0.8068333697943495  0.7468199312696531
  0.5853353131320587  0.8571853025577636  0.2959278791612422
  0.7826338806400185  0.3213435010172233  0.8619129301575257
  0.7137775185930300  0.1177275463799889  0.2601623732640551
  0.8778914580905498  0.7925253627504376  0.6606052020898836
  0.7855600152261268  0.7195684111678909  0.1373214108313030
  0.5518952571792396  0.5940914053520104  0.6596250610190730
  0.1849542036056967  0.5703225922426731  0.2796347312906550
  0.1328780145475252  0.8284487575934312  0.5125550786666535
  0.2834277237364490  0.1314449234085794  0.5484931474177605
  0.5972183461070287  0.9832742653301499  0.2563176026224070
  0.4927474010478003  0.3089857770414519  0.6306463985509145
  0.9512889988535149  0.6689530344992084  0.1439003283596667
  0.3108467439672005  0.6635844797559811  0.1997597410206440
  0.0335092786307567  0.5283434353854923  0.7695927159955844
  0.1794504770732910  0.6187150511326699 -0.0097617619696323
  0.6317639798734220  0.5515631431925585  0.8160508377928440
  0.5914965233242494  0.2158288796962268  0.0730155779431514
  0.6481825852127758  0.8574648665619952  0.8039870861516546
  0.9402432056485271  0.1606039338390087  0.4123114577575800
  0.1246726055155134  0.0071603548803174  0.5529757148895232
  0.1149116600117130  0.2669281220535521  0.6017952803472506
  0.4146258258434264  0.3421686494344451  0.3558701695513852
 -0.0205027546018666  0.6490638755054642  0.4132412763002392
  0.8318089292029130  0.7661235762580073  0.7985797121347744
  0.3916453438998964  0.5441868665182684  0.3649384863112202
  0.7713367666960540  0.7233005562506999  0.5006612621351022
  0.2478360281445710  0.0361167571500308  0.7147596708947064
  0.8073719144035743  0.1431184765866074  0.0740001977293344
  0.7939588254868278  0.1468872566883204  0.6695741478366181
  0.7248246639467497  0.1208430715722295  0.4721149304110837
  0.2814470021710545  0.4715312996054059  0.8937429237917807
  0.4483884247888807  0.8277685681907995  0.8028152744927732
  0.1870928470349431  0.1961163092813413  0.7846634171268733
  0.2025176472834492  0.0511157704887837  0.9147341090532132
  0.0881147831910574  0.8454034703063813  0.2331604513071656
  0.1419185945580821  0.7978905449708141  0.8877097561699204
  0.9376018988840831  0.4783043896240836  0.5106418156726629
  0.7483914004323764  0.9276615704788448  0.4952518243414446
  0.9655522611335752  0.3664522564096178  0.6389026554130026
  0.6404966489662576  0.4372141497016283  0.6344686321785205
  0.0093876171735938  0.4789743586763602  0.3426527982350100
  0.0149746446205990  0.9296874654003671  0.4155671584966554
  0.5865224604410647  0.5314345766767286  0.4199062385495534
  0.0684606377154415  0.6251912540466010  0.2344934067370077
  0.2144466330466104  0.6587873134550406  0.6260010656130651
  0.9036226221321175  0.7382412986299601  0.9653920114038075
  0.6857841024838068  0.2777868917703278  0.1638860743391083
  0.5868559629055243  0.7306771479349726  0.9288670225429851
  0.3625704269253423  0.6144971302472042  0.9214513416048040
  0.9182222249641906  0.9800070652306486  0.1457416627735849
  0.6824013262146345  0.7261377499276067  0.6738937184313867
  0.1433100343547475  0.4160140742261948  0.2183910630592681
  0.6183160595990467  0.9387735669437420  0.6543893382087321
  0.6441443373267017  0.4023387318548232  0.2793372938016576
  0.7833136233249801  0.3591934982492492  0.7292428394212321
  0.8655787626486220  0.9796482720192654  0.5328879658988138
  0.1062566991899270  0.7715175857280752  0.3421437140390454
  0.3680443337749260  0.2636453102358339  0.8628847159888119
  0.3396327577398597  0.3485101802898117  0.4938911861046475
 
  0.00000000E+00  0.00000000E+00  0.00000000E+00
  0.00000000E+00  0.00000000E+00  0.00000000E+00
  0.00000000E+00  0.00000000E+00  0.00000000E+00
  0.00000000E+00  0.00000000E+00  0.00000000E+00
  0.00000000E+00  0.00000000E+00  0.00000000E+00
  0.00000000E+00  0.00000000E+00  0.00000000E+00
  0.00000000E+00  0.00000000E+00  0.00000000E+00
  0.00000000E+00  0.00000000E+00  0.00000000E+00
  0.00000000E+00  0.00000000E+00  0.00000000E+00
  0.00000000E+00  0.00000000E+00  0.00000000E+00
  0.00000000E+00  0.00000000E+00  0.00000000E+00
  0.00000000E+00  0.00000000E+00  0.00000000E+00
  0.00000000E+00  0.00000000E+00  0.00000000E+00
  0.00000000E+00  0.00000000E+00  0.00000000E+00
  0.00000000E+00  0.00000000E+00  0.00000000E+00
  0.00000000E+00  0.00000000E+00  0.00000000E+00
  0.00000000E+00  0.00000000E+00  0.00000000E+00
  0.00000000E+00  0.00000000E+00  0.00000000E+00
  0.00000000E+00  0.00000000E+00  0.00000000E+00
  0.00000000E+00  0.00000000E+00  0.00000000E+00
  0.00000000E+00  0.00000000E+00  0.00000000E+00
  0.00000000E+00  0.00000000E+00  0.00000000E+00
  0.00000000E+00  0.00000000E+00  0.00000000E+00
  0.00000000E+00  0.00000000E+00  0.00000000E+00
  0.00000000E+00  0.00000000E+00  0.00000000E+00
  0.00000000E+00  0.00000000E+00  0.00000000E+00
  0.00000000E+00  0.00000000E+00  0.00000000E+00
  0.00000000E+00  0.00000000E+00  0.00000000E+00
  0.00000000E+00  0.00000000E+00  0.00000000E+00
  0.00000000E+00  0.00000000E+00  0.00000000E+00
  0.00000000E+00  0.00000000E+00  0.00000000E+00
  0.00000000E+00  0.00000000E+00  0.00000000E+00
  0.00000000E+00  0.00000000E+00  0.00000000E+00
  0.00000000E+00  0.00000000E+00  0.00000000E+00
  0.00000000E+00  0.00000000E+00  0.00000000E+00
  0.00000000E+00  0.00000000E+00  0.00000000E+00
  0.00000000E+00  0.00000000E+00  0.00000000E+00
  0.00000000E+00  0.00000000E+00  0.00000000E+00
  0.00000000E+00  0.00000000E+00  0.00000000E+00
  0.00000000E+00  0.00000000E+00  0.00000000E+00
  0.00000000E+00  0.00000000E+00  0.00000000E+00
  0.00000000E+00  0.00000000E+00  0.00000000E+00
  0.00000000E+00  0.00000000E+00  0.00000000E+00
  0.00000000E+00  0.00000000E+00  0.00000000E+00
  0.00000000E+00  0.00000000E+00  0.00000000E+00
  0.00000000E+00  0.00000000E+00  0.00000000E+00
  0.00000000E+00  0.00000000E+00  0.00000000E+00
  0.00000000E+00  0.00000000E+00  0.00000000E+00
  0.00000000E+00  0.00000000E+00  0.00000000E+00
  0.00000000E+00  0.00000000E+00  0.00000000E+00
  0.00000000E+00  0.00000000E+00  0.00000000E+00
  0.00000000E+00  0.00000000E+00  0.00000000E+00
  0.00000000E+00  0.00000000E+00  0.00000000E+00
  0.00000000E+00  0.00000000E+00  0.00000000E+00
  0.00000000E+00  0.00000000E+00  0.00000000E+00
  0.00000000E+00  0.00000000E+00  0.00000000E+00
  0.00000000E+00  0.00000000E+00  0.00000000E+00
  0.00000000E+00  0.00000000E+00  0.00000000E+00
  0.00000000E+00  0.00000000E+00  0.00000000E+00
  0.00000000E+00  0.00000000E+00  0.00000000E+00
  0.00000000E+00  0.00000000E+00  0.00000000E+00
  0.00000000E+00  0.00000000E+00  0.00000000E+00
  0.00000000E+00  0.00000000E+00  0.00000000E+00
  0.00000000E+00  0.00000000E+00  0.00000000E+00
  0.00000000E+00  0.00000000E+00  0.00000000E+00
  0.00000000E+00  0.00000000E+00  0.00000000E+00
  0.00000000E+00  0.00000000E+00  0.00000000E+00
  0.00000000E+00  0.00000000E+00  0.00000000E+00
  0.00000000E+00  0.00000000E+00  0.00000000E+00
  0.00000000E+00  0.00000000E+00  0.00000000E+00
  0.00000000E+00  0.00000000E+00  0.00000000E+00
  0.00000000E+00  0.00000000E+00  0.00000000E+00
  0.00000000E+00  0.00000000E+00  0.00000000E+00
  0.00000000E+00  0.00000000E+00  0.00000000E+00
  0.00000000E+00  0.00000000E+00  0.00000000E+00
  0.00000000E+00  0.00000000E+00  0.00000000E+00
  0.00000000E+00  0.00000000E+00  0.00000000E+00
  0.00000000E+00  0.00000000E+00  0.00000000E+00
  0.00000000E+00  0.00000000E+00  0.00000000E+00
  0.00000000E+00  0.00000000E+00  0.00000000E+00
  0.00000000E+00  0.00000000E+00  0.00000000E+00
  0.00000000E+00  0.00000000E+00  0.00000000E+00
  0.00000000E+00  0.00000000E+00  0.00000000E+00
  0.00000000E+00  0.00000000E+00  0.00000000E+00
  0.00000000E+00  0.00000000E+00  0.00000000E+00
  0.00000000E+00  0.00000000E+00  0.00000000E+00
  0.00000000E+00  0.00000000E+00  0.00000000E+00
  0.00000000E+00  0.00000000E+00  0.00000000E+00
  0.00000000E+00  0.00000000E+00  0.00000000E+00
  0.00000000E+00  0.00000000E+00  0.00000000E+00
  0.00000000E+00  0.00000000E+00  0.00000000E+00
  0.00000000E+00  0.00000000E+00  0.00000000E+00
  0.00000000E+00  0.00000000E+00  0.00000000E+00
  0.00000000E+00  0.00000000E+00  0.00000000E+00
  0.00000000E+00  0.00000000E+00  0.00000000E+00
  0.00000000E+00  0.00000000E+00  0.00000000E+00
  0.00000000E+00  0.00000000E+00  0.00000000E+00
  0.00000000E+00  0.00000000E+00  0.00000000E+00
  0.00000000E+00  0.00000000E+00  0.00000000E+00
  0.00000000E+00  0.00000000E+00  0.00000000E+00
  0.00000000E+00  0.00000000E+00  0.00000000E+00
  0.00000000E+00  0.00000000E+00  0.00000000E+00
  0.00000000E+00  0.00000000E+00  0.00000000E+00
  0.00000000E+00  0.00000000E+00  0.00000000E+00
  0.00000000E+00  0.00000000E+00  0.00000000E+00
  0.00000000E+00  0.00000000E+00  0.00000000E+00
  0.00000000E+00  0.00000000E+00  0.00000000E+00
  0.00000000E+00  0.00000000E+00  0.00000000E+00
  0.00000000E+00  0.00000000E+00  0.00000000E+00
  0.00000000E+00  0.00000000E+00  0.00000000E+00
  0.00000000E+00  0.00000000E+00  0.00000000E+00
  0.00000000E+00  0.00000000E+00  0.00000000E+00
  0.00000000E+00  0.00000000E+00  0.00000000E+00
  0.00000000E+00  0.00000000E+00  0.00000000E+00
  0.00000000E+00  0.00000000E+00  0.00000000E+00
  0.00000000E+00  0.00000000E+00  0.00000000E+00
  0.00000000E+00  0.00000000E+00  0.00000000E+00
  0.00000000E+00  0.00000000E+00  0.00000000E+00
  0.00000000E+00  0.00000000E+00  0.00000000E+00
  0.00000000E+00  0.00000000E+00  0.00000000E+00
  0.00000000E+00  0.00000000E+00  0.00000000E+00
  0.00000000E+00  0.00000000E+00  0.00000000E+00
  0.00000000E+00  0.00000000E+00  0.00000000E+00
  0.00000000E+00  0.00000000E+00  0.00000000E+00
  0.00000000E+00  0.00000000E+00  0.00000000E+00
  0.00000000E+00  0.00000000E+00  0.00000000E+00
  0.00000000E+00  0.00000000E+00  0.00000000E+00
  0.00000000E+00  0.00000000E+00  0.00000000E+00
  0.00000000E+00  0.00000000E+00  0.00000000E+00
  0.00000000E+00  0.00000000E+00  0.00000000E+00
  0.00000000E+00  0.00000000E+00  0.00000000E+00
  0.00000000E+00  0.00000000E+00  0.00000000E+00
  0.00000000E+00  0.00000000E+00  0.00000000E+00
  0.00000000E+00  0.00000000E+00  0.00000000E+00
  0.00000000E+00  0.00000000E+00  0.00000000E+00
  0.00000000E+00  0.00000000E+00  0.00000000E+00
  0.00000000E+00  0.00000000E+00  0.00000000E+00
  0.00000000E+00  0.00000000E+00  0.00000000E+00
  0.00000000E+00  0.00000000E+00  0.00000000E+00
  0.00000000E+00  0.00000000E+00  0.00000000E+00
  0.00000000E+00  0.00000000E+00  0.00000000E+00
  0.00000000E+00  0.00000000E+00  0.00000000E+00
  0.00000000E+00  0.00000000E+00  0.00000000E+00
  0.00000000E+00  0.00000000E+00  0.00000000E+00
  0.00000000E+00  0.00000000E+00  0.00000000E+00
  0.00000000E+00  0.00000000E+00  0.00000000E+00
  0.00000000E+00  0.00000000E+00  0.00000000E+00
  0.00000000E+00  0.00000000E+00  0.00000000E+00
  0.00000000E+00  0.00000000E+00  0.00000000E+00
  0.00000000E+00  0.00000000E+00  0.00000000E+00
  0.00000000E+00  0.00000000E+00  0.00000000E+00
  0.00000000E+00  0.00000000E+00  0.00000000E+00
  0.00000000E+00  0.00000000E+00  0.00000000E+00
  0.00000000E+00  0.00000000E+00  0.00000000E+00
  0.00000000E+00  0.00000000E+00  0.00000000E+00
  0.00000000E+00  0.00000000E+00  0.00000000E+00
  0.00000000E+00  0.00000000E+00  0.00000000E+00
  0.00000000E+00  0.00000000E+00  0.00000000E+00
  0.00000000E+00  0.00000000E+00  0.00000000E+00
  0.00000000E+00  0.00000000E+00  0.00000000E+00
  0.00000000E+00  0.00000000E+00  0.00000000E+00
  0.00000000E+00  0.00000000E+00  0.00000000E+00
  0.00000000E+00  0.00000000E+00  0.00000000E+00
  0.00000000E+00  0.00000000E+00  0.00000000E+00
  0.00000000E+00  0.00000000E+00  0.00000000E+00
  0.00000000E+00  0.00000000E+00  0.00000000E+00
  0.00000000E+00  0.00000000E+00  0.00000000E+00
  0.00000000E+00  0.00000000E+00  0.00000000E+00
  0.00000000E+00  0.00000000E+00  0.00000000E+00
  0.00000000E+00  0.00000000E+00  0.00000000E+00
  0.00000000E+00  0.00000000E+00  0.00000000E+00
  0.00000000E+00  0.00000000E+00  0.00000000E+00
  0.00000000E+00  0.00000000E+00  0.00000000E+00
  0.00000000E+00  0.00000000E+00  0.00000000E+00
  0.00000000E+00  0.00000000E+00  0.00000000E+00
  0.00000000E+00  0.00000000E+00  0.00000000E+00
  0.00000000E+00  0.00000000E+00  0.00000000E+00
  0.00000000E+00  0.00000000E+00  0.00000000E+00
  0.00000000E+00  0.00000000E+00  0.00000000E+00
  0.00000000E+00  0.00000000E+00  0.00000000E+00
  0.00000000E+00  0.00000000E+00  0.00000000E+00
  0.00000000E+00  0.00000000E+00  0.00000000E+00
  0.00000000E+00  0.00000000E+00  0.00000000E+00
  0.00000000E+00  0.00000000E+00  0.00000000E+00
  0.00000000E+00  0.00000000E+00  0.00000000E+00
  0.00000000E+00  0.00000000E+00  0.00000000E+00
  0.00000000E+00  0.00000000E+00  0.00000000E+00
  0.00000000E+00  0.00000000E+00  0.00000000E+00
  0.00000000E+00  0.00000000E+00  0.00000000E+00
  0.00000000E+00  0.00000000E+00  0.00000000E+00
  0.00000000E+00  0.00000000E+00  0.00000000E+00
  0.00000000E+00  0.00000000E+00  0.00000000E+00
  0.00000000E+00  0.00000000E+00  0.00000000E+00
  0.00000000E+00  0.00000000E+00  0.00000000E+00
  0.00000000E+00  0.00000000E+00  0.00000000E+00
  0.00000000E+00  0.00000000E+00  0.00000000E+00
  0.00000000E+00  0.00000000E+00  0.00000000E+00
  0.00000000E+00  0.00000000E+00  0.00000000E+00
  0.00000000E+00  0.00000000E+00  0.00000000E+00
  0.00000000E+00  0.00000000E+00  0.00000000E+00
  0.00000000E+00  0.00000000E+00  0.00000000E+00
  0.00000000E+00  0.00000000E+00  0.00000000E+00
  0.00000000E+00  0.00000000E+00  0.00000000E+00
  0.00000000E+00  0.00000000E+00  0.00000000E+00
  0.00000000E+00  0.00000000E+00  0.00000000E+00
  0.00000000E+00  0.00000000E+00  0.00000000E+00
  0.00000000E+00  0.00000000E+00  0.00000000E+00
  0.00000000E+00  0.00000000E+00  0.00000000E+00
  0.00000000E+00  0.00000000E+00  0.00000000E+00
  0.00000000E+00  0.00000000E+00  0.00000000E+00
  0.00000000E+00  0.00000000E+00  0.00000000E+00
  0.00000000E+00  0.00000000E+00  0.00000000E+00
  0.00000000E+00  0.00000000E+00  0.00000000E+00
  0.00000000E+00  0.00000000E+00  0.00000000E+00
  0.00000000E+00  0.00000000E+00  0.00000000E+00
  0.00000000E+00  0.00000000E+00  0.00000000E+00
  0.00000000E+00  0.00000000E+00  0.00000000E+00
  0.00000000E+00  0.00000000E+00  0.00000000E+00
  0.00000000E+00  0.00000000E+00  0.00000000E+00
  0.00000000E+00  0.00000000E+00  0.00000000E+00
  0.00000000E+00  0.00000000E+00  0.00000000E+00
  0.00000000E+00  0.00000000E+00  0.00000000E+00
  0.00000000E+00  0.00000000E+00  0.00000000E+00
  0.00000000E+00  0.00000000E+00  0.00000000E+00
  0.00000000E+00  0.00000000E+00  0.00000000E+00
  0.00000000E+00  0.00000000E+00  0.00000000E+00
  0.00000000E+00  0.00000000E+00  0.00000000E+00
  0.00000000E+00  0.00000000E+00  0.00000000E+00
  0.00000000E+00  0.00000000E+00  0.00000000E+00
  0.00000000E+00  0.00000000E+00  0.00000000E+00
  0.00000000E+00  0.00000000E+00  0.00000000E+00
  0.00000000E+00  0.00000000E+00  0.00000000E+00