Amorphous Sb                            
   1.00000000000000     
    15.7878869700586897    0.0000000000000000    0.0000000000000000
     0.0000000000000000   15.7878869700586897    0.0000000000000000
     0.0000000000000000    0.0000000000000000   15.7878869700586897
   Ga   O 
   120   180
Direct
  0.7242285287641865  0.6651458047721233  0.4137030433959437
  0.6887243641444344  0.0460917780520094  0.3728528633200801
  0.3162905041979535  0.5469046384251699  0.6616313804644776
  0.2249113053915582  0.6041098985667142  0.8842869000016198
  0.0301192271205344  0.9250266184682598  0.8371939148525565
  0.8090782105249853  0.0629379355622715  0.7028192145952941
  0.1746810800180278  0.0217682831828486  0.1477057280310641
  0.5805787697906460  0.5748228630760411  0.2286558142748558
  0.7933887179248279  0.4753704492435706  0.4185159848280794
  0.3982571678457786  0.3715947937993141  0.4815703725947366
  0.2213633748244079  0.6666681850984207  0.3255084516191166
  0.4542113242953399  0.3853679796660039  0.9110646651175092
  0.9279095410437803  0.4396098779496844  0.0645206554453681
  0.4715869615282940  0.6916509231763869  0.6709230520025152
  0.0063458639299540  0.4133758552489098  0.7268690644296260
  0.2313053967809271  0.0696602745554564  0.9867920525680250
  0.2617295158532486  0.1376745911061849  0.8181224318607463
  0.9491452149119279  0.5385333854462534  0.2793034427760055
  0.7536764263412746  0.9138561301157461  0.0759173490666080
  0.5801446837103018  0.8451198967028286  0.6372556647923477
  0.7321110945603930  0.4687761303499806  0.0201269328607171
  0.2599247424205133  0.4813748767215669  0.4258665167722034
  0.0995426171252442  0.0814681492256811  0.6987651410570381
  0.4044624392425510  0.6560168976180762  0.9829299811312695
  0.0616721922140834  0.0983724394648457  0.9006082167796352
  0.6105611424191371  0.3513682395373496  0.7937964381780463
  0.3038010087686631  0.8224473087168372  0.6436425758103106
  0.5551197491829812  0.1828589639267239  0.8873248997007458
  0.2334927234300218  0.1028020775781773  0.4089356620840969
  0.8457149762305216  0.8005806433970672  0.4491156287248055
  0.1476367141771569  0.2622727319516618  0.3243541476530324
  0.7199685616793530  0.8099384709678726  0.9272811053044407
  0.8416438030598408  0.9839547401813655  0.2963094684414722
  0.4142262956669771  0.0117353762264512  0.9065660689324743
  0.6945787420250070  0.7247938789119347  0.7637315739047931
  0.8985757665060894  0.7515845781049943  0.7992042969577398
  0.0448984277267419  0.1624985963588306  0.0994919522095262
  0.0303988814537353  0.8792269022730308  0.4900656024067959
  0.6996882297888869  0.0110518747285790  0.9126337811661492
  0.0463585273171699  0.0872620730269719  0.2947927147771100
  0.0779909321725838  0.6093211004734616  0.4259326992850776
  0.1533024440487465  0.2738376486324944  0.7068714723639397
  0.9415754342403111  0.2324988798798951  0.3959725593282905
  0.1382428106927795  0.4304301920344052  0.2537162619038347
  0.9870203562528556  0.2819094671023558  0.5642243070519953
  0.3853056557066535  0.6379004279069840  0.1929180640837679
  0.2633309873426701  0.0480801853655006  0.6118404885998027
  0.8676556471104232  0.3515095424373761  0.2139911713913013
  0.3276824051401812  0.9717051799673586  0.2648777245789568
  0.6126792192910059  0.3771492678131221  0.3981636682650225
  0.5418454812371969  0.5170521489613353  0.0607433683005948
  0.5835264119872957  0.9915395031951996  0.5153287872285833
  0.5031603407369538  0.5318963870210434  0.7623426105926412
  0.9413031156870298  0.2522860580476059  0.9804864392474911
  0.8747998999231735  0.4144067967192122  0.8509063990240429
  0.7672890553906526  0.2688919441527964  0.3417664433904082
  0.0557988143622106  0.4410202177573508  0.9155281397599186
  0.0164018806619881  0.5478775789241219  0.5881006316790164
  0.5831579258756635  0.1970195630202594  0.2947712630398002
  0.0608434237405601  0.9453230328283868  0.0376655494611152
  0.5912378909626771  0.1904235507605793  0.1007269791905823
  0.5570154406128436  0.9958188541117585  0.2274606065718800
  0.9708455984502740  0.9116659491104608  0.1934146540565334
  0.5518582920955516  0.8798509321763047  0.8222285988046052
  0.4532811592598783  0.5551130685716948  0.3739732179436788
  0.8315299055246170  0.6744055726200352  0.6168627548650214
  0.1289919856207469  0.3447675804600003  0.0879405238671613
  0.7183608309862711  0.5130470379268267  0.8164905956293191
  0.3325512143262478  0.3324630543652339  0.6705641075294985
  0.3776279404853878  0.2677711949708679  0.3069027479457130
  0.7220483146634141  0.0956655505031498  0.1798281556971044
  0.3741636781127655  0.7873201714627047  0.3406189485557294
  0.2322535411953327  0.6894260618395780  0.0935063337039353
  0.1765283157086180  0.4836425890711812  0.7472029617531432
  0.4724617148777625  0.8431965861965477  0.0089038617022056
  0.2382669215073024  0.2878720073097124  0.9368628269096696
  0.8179165915366130  0.2001720699792670  0.5547375725174816
  0.6761790906636689  0.5577215758113778  0.5960839854333670
  0.8807263858708145  0.0385383741771541  0.0213522727842778
  0.4560310719223555  0.1779944946473659  0.6776416464962043
  0.4463470820760742  0.0758599083256080  0.3517388629682257
  0.9313998060182221  0.8216272840582611  0.9879914214616859
  0.1524571397801680  0.8048760417744272  0.9467890432648129
  0.6019419388885781  0.0363102705235691  0.7325507399494179
  0.5854704933066009  0.8489032198112487  0.3727030833981815
  0.8580509299793755  0.6295439892647593  0.1038806370352041
  0.5222120526457082  0.7869653148821183  0.1901795255941310
  0.6440265841722712  0.2141826704318241  0.6855923458639066
  0.2947071438036645  0.9020944118679144  0.0667473112571498
  0.8602748134864745  0.9980386946901675  0.5089124644396383
  0.0807462631280299  0.7433229004052652  0.6181986750915373
  0.7683591830738962  0.2774523657630552  0.0501340313976308
  0.8480278523505979  0.4780046073711369  0.6385435348224771
  0.3428182998158041  0.6655569784950417  0.5094515195525486
  0.6175165983354212  0.6403110137772595  0.9343689878719945
  0.1199764075690716  0.5490663501433719  0.0652008195062963
  0.0139699354449653  0.4195069856726229  0.4088689542313940
  0.6691122457370005  0.7347922768646705  0.1098210331297317
  0.3913009607937794  0.0006758284427851  0.7184676425149263
  0.6442791317080996  0.3790790394030287  0.1955410774090081
  0.3993261511775859  0.3627249997416558  0.1046192089766124
  0.1844635262190180  0.3074641222006972  0.5116960908187985
  0.5380067118386003  0.4042969324191498  0.6047861345638788
  0.2396796618494666  0.9089091409626218  0.4522637720204235
  0.3884367096557486  0.7191787480419336  0.8249977685608244
  0.7995317120601531  0.8639277884885926  0.6544244908032532
  0.0588816588006347  0.0767820538827789  0.4922132387524487
  0.4055035211047779  0.2067998802267423  0.9897802233989542
  0.7621407968372343  0.1853920129490997  0.8561569730992691
  0.2751107874635986  0.2096656049985128  0.1464735503690042
  0.0340959304103205  0.6024701667039701  0.7897927872995485
  0.3381527827965700  0.4543527942677529  0.2387382484695960
  0.4251305244759574  0.9074083491154019  0.4815775545877581
  0.0126447157607847  0.7087793116224033  0.1355195695667312
  0.6196927722956244  0.1980364936764114  0.5069084485894947
  0.1779479538797294  0.7680167919399460  0.7697391546985379
  0.7889013606378094  0.7859391143008500  0.2355346162392197
  0.0075901434916135  0.7441032834888384  0.3296642796624427
  0.9476354877394203  0.2164096425962362  0.7648756277722031
  0.5579959703963202  0.6818502513834543  0.4869029576375997
  0.5611818730169122  0.7212218949838275  0.5997603136283111
  0.6081184090124412  0.4679375268990378  0.8123953995965296
  0.5490684302858402  0.1785790146030343  0.6004463510988294
  0.1069368745721630  0.1067236359147131  0.0169033585818820
  0.0300564277200940  0.0278986469441750  0.7772470410360161
  0.9327954934926378  0.1416862260626108  0.0540581399906984
  0.0069033184384813  0.7935546404064436  0.2192853246896289
  0.0083620782812552  0.9930360805982595  0.9375493370029668
  0.7119096593261622  0.8397840837348777  0.1584313056748537
  0.9461312126643607  0.6174379465980738  0.1851550742778120
  0.4619520919513996  0.1174231389366888  0.9278479771576655
  0.7625016704338279  0.5704876549338451  0.3572342525708198
  0.9295769040713677  0.7133274475639529  0.0485620513542439
  0.6920786492525375  0.3666450134754167  0.0672076404396900
  0.3026036100095310  0.9417856463148409  0.6660510058173221
  0.6491115960888881  0.9606556760799426  0.8162935728948488
  0.5315940859698225  0.3021485658208652  0.8662450232705317
  0.3442618431204311  0.0484613482286749  0.8160776712627542
  0.1333121363801648  0.8732858051477413  0.4375340480177735
  0.2180681253921399  0.2724039755715055  0.0619535893679640
  0.6992907747672137  0.1071234750991475  0.7162381199860040
  0.4413130586928526  0.9986187996004816  0.2541657939946865
  0.6059461844956473  0.6948011585121022  0.2041420822411093
  0.1816628947556073  0.9616886122808589  0.0325673212925099
  0.8091558002815193  0.0182978852755848  0.4039159007570023
  0.2344450580880802  0.7967163990686977  0.0344444486078923
  0.3828173192235367  0.4718843569006090  0.4178098137203645
  0.5756233410161981  0.0715752759875345  0.3217352092713326
  0.8381073686234933  0.9521269437016278  0.7178819782095064
  0.1457452056256446  0.3738017875801255  0.9607494718001861
  0.3051892111582095  0.7125196050074135  0.4016051628117721
  0.0493542979770860  0.5047562384138238  0.4838368046562597
  0.5113902078092121  0.6103329481677705  0.9820177017821354
  0.2656546659131468  0.2339675041834845  0.2640975457993351
  0.5601636139220955  0.5834309812761173  0.3423381564915000
  0.3425326963675351  0.6237750234467356  0.8865852173249743
  0.9933608888811737  0.1741925701460954  0.4960299003192030
  0.4829026919928442  0.4159790518311319  0.0283917718145977
  0.9537351978704066  0.0159444544993991  0.2661314857052482
  0.2169139611985728  0.1068806730636140  0.7062894720390923
  0.4830063804091260  0.5719232490281797  0.1550675464124131
  0.8694502945661861  0.3261789767097833  0.0933474405582296
  0.1158933312470307  0.6560402172879063  0.1228602458867493
  0.4042417302718259  0.8676639616387150  0.1008557191360411
  0.5835881956720813  0.5062610052219950  0.6499177314350918
  0.4194375578785161  0.3787735031993621  0.6000730588400544
  0.9008074074414872  0.4611091605696199  0.3627051422434710
  0.0370919583470322  0.2001460825361490  0.3271838351175063
  0.4610523163787572  0.1808302905758387  0.2955187781156715
  0.6734821644025414  0.9174728084358716  0.9846418912163420
  0.6031916382382977  0.0719086566429456  0.1458827560518520
  0.3724555189484064  0.7281516759950674  0.6093566730496986
  0.1755589078331492  0.0721040954223390  0.8743096047563516
  0.3610142752418114  0.3193138750737818  0.9510486240663640
  0.5332098925576576  0.2274492688602242  0.0083246514685809
  0.2769378927237399  0.4365705764374435  0.6968663491536594
  0.9770880107073332  0.9883237016398869  0.4840603512473037
  0.8186960124294986  0.2492278430161480  0.9437141922786996
  0.7285175825481863  0.0051918202640449  0.2616067419999440
  0.0738998978009677  0.7063691713072000  0.7337448387828490
  0.5364613041681034  0.3995243238089842  0.4862094240316124
  0.8149437237426072  0.8425252918030492  0.9985203137198670
  0.0775399998652980  0.9495711108078644  0.1590420821563619
  0.5717902575496672  0.8780116390205615  0.2539021697440690
  0.2558395750705545  0.9375723890491635  0.1809094699955189
  0.3514780927318878  0.6702972318727017  0.0840919858838522
  0.6304354790572855  0.4955260452714348  0.1509403324614365
  0.3696382477394287  0.5627557384656880  0.2848307459020820
  0.4910119028714118  0.6576586534420510  0.7875920309403230
  0.9564282148218959  0.8206811352649417  0.4084168587776517
  0.5250353617606333  0.8830426450160020  0.5385855995637812
  0.5830269882230964  0.4133659193129087  0.2928630437274553
  0.7756679143728318  0.6885101433244453  0.1640299022002297
  0.6441821619618111  0.9381061251264426  0.4207640322803248
  0.6080528152168727  0.2526476620482953  0.4012546379473801
  0.2627764154913286  0.6793682032318856  0.2156386539525190
  0.5475985549557182  0.1504672566287714  0.7611085534743294
  0.0565481687457605  0.4907803597829816  0.3128224919700681
  0.5570229800230916  0.7918538483456924  0.0765566060798065
  0.8975075553206950  0.2454542199250219  0.6323679959171421
  0.1208284788568621  0.0541888440508966  0.3860979267817946
  0.0651486062603086  0.6523086158755240  0.5431590032542774
  0.1052656963196823  0.1153595725992455  0.1941594095520408
  0.9769203806673614  0.4814195572944214  0.8269300249270825
  0.9447800131337846  0.3768260223809721  0.9523959103194078
  0.9356880448563939  0.6471338044273187  0.8329179636291182
  0.6974815715213394  0.2669452509750071  0.7895489430266340
  0.6944057355448682  0.7092318452796523  0.9962910549509655
  0.1252530843140377  0.0482059702178400  0.5865649241803803
  0.1362325167299814  0.8661994822648383  0.8414984419192527
  0.0946372501279054  0.3158874378333501  0.5944387097628716
  0.6520506003272654  0.0874685764934155  0.4814540002780282
  0.1985951280893775  0.2124840614825766  0.4305533550906005
  0.3185562774893153  0.0718615454132674  0.3326984098236381
  0.1191783763249191  0.3179060717649728  0.2189163420696641
  0.9540730336335588  0.4260485726609404  0.6199141787228442
  0.4335724444673242  0.4603238339957265  0.8243696802047684
  0.5848390436339004  0.2655162584486045  0.1935954714169035
  0.4943285692104626  0.9222330199011100  0.9224027138598744
  0.1151062487524894  0.3773543523269441  0.7615327228699618
  0.9076904233076107  0.5849749608072150  0.6278067191214785
  0.0110918766954020  0.8333517648395335  0.5942011592872546
  0.1178556988496622  0.3503829493689167  0.4048932943669449
  0.0570602188230026  0.1943163596200724  0.7146466276211282
  0.8499715850435628  0.1482715197181028  0.7792788535403472
  0.7334881530694907  0.3705467984658337  0.4137305482274867
  0.7141332632627178  0.1825839164412945  0.0947143334316691
  0.8693457046522192  0.7674720330318243  0.6811236450169704
  0.4502377696696085  0.6393964327655808  0.4622812384483193
  0.0302658412457763  0.2761107782540150  0.0679409128733479
  0.2830421758202910  0.5726622587624487  0.5487775000655994
  0.0536654696973331  0.8240735723076070  0.0129873788664853
  0.9279026703523541  0.3326581751389249  0.7785419251218813
  0.3283541398038579  0.9880377033516391  0.9848818120970447
  0.2682364158178472  0.3913579184677553  0.5012582366060738
  0.8052759256202525  0.4643557416664933  0.7489396731529659
  0.1877227009420208  0.7932165355144810  0.6496345974704731
  0.2441258348418663  0.4342214638427579  0.3088313067164142
  0.2608404632145627  0.0977864650041800  0.1099724382026000
  0.1384892665625245  0.4566085643002591  0.1355845607272150
  0.1174780133916391  0.7123766303495936  0.3612341587252015
  0.7828366020986270  0.7631682891652185  0.3514599036782967
  0.2408787717430877  0.5881728093071366  0.7505087369144436
  0.3884842525519619  0.2523794010896935  0.7359909410717502
  0.2170806295239140  0.2513701982409999  0.8173290035190268
  0.8342449148492548  0.5216085357770113  0.0583013598156711
  0.7072953032607285  0.2379286156893382  0.5805936497045344
  0.7697629380887536  0.4891723819015613  0.5492586302249409
  0.4954266141354334  0.9811751415640647  0.7672784108708546
  0.9370569558770104  0.9312997341599373  0.0716612397179081
  0.1264448564824575  0.5333968555787265  0.8560696078803308
  0.4105861325975901  0.3583565353200499  0.2343598190981357
  0.8221022692938016  0.8855925953518630  0.5337421134606456
  0.4670896307610430  0.0185842946503704  0.4574167558457350
  0.3857423691024371  0.0868334467086645  0.6346827959814588
  0.2934453717440825  0.1700831437484155  0.9437209380933557
  0.7736080172905581  0.4497148223521419  0.9058126220426787
  0.5848373750731816  0.3260054532591129  0.6807244830658905
  0.9715961166173435  0.6335179249712752  0.3604538356377718
  0.7844511959365951  0.7670532978898736  0.8330276705784998
  0.6480433432123013  0.6041614292410782  0.4929807426942612
  0.6172147751491981  0.9701222428253482  0.6314034849517202
  0.7944743942258675  0.0210000597186736  0.1090519894529171
  0.6920668409242596  0.8111270044943346  0.6753075323171979
  0.3888770205356807  0.2722369793818645  0.4231646363192714
  0.1720296351426878  0.7106721287156538  0.8770906800470359
  0.6257534290442547  0.7445047201657252  0.4110393229591232
  0.4326152809506473  0.5701686253476428  0.6662572941658983
  0.9929860106044733  0.1955072605668711  0.8834927003686792
  0.3071611453311207  0.8886194218198669  0.3495936284627913
  0.8256672023701469  0.2060558836618021  0.4353646519727806
  0.6725730076699840  0.6228725532973073  0.8294171573117936
  0.3227796893058486  0.4509319727234933  0.1218217635056208
  0.9496393811796775  0.8390791055991464  0.8652930301938588
  0.2420898235038138  0.2684387144891464  0.6228039404198230
  0.4280024114875556  0.7402384565771343  0.2455099684682540
  0.8816813054244316  0.2654317676502047  0.2939690664382847
  0.7509193563843156  0.3460147175107980  0.2406209316428297
  0.3239194307182006  0.8575330620819710  0.5198873134097420
  0.3867145593942096  0.2398550399835610  0.1058783631669450
  0.3070848694480786  0.7826485684812260  0.7657656288258509
  0.8333802284242235  0.0829971588505262  0.5857807263469557
  0.8642667075640590  0.8795219553436447  0.2427932619695297
  0.0207196704818363  0.5069171068886409  0.0145457743090499
  0.2124812309353686  0.5951902800464246  0.0072515554750575
  0.9488583299869281  0.3334648018636788  0.4623692024719738
  0.5016598474600635  0.8178142405854717  0.7260040396611062
  0.8133901936997060  0.0435312200059396  0.9242761036804273
  0.4672999315071011  0.8333228822558624  0.3952998879611149
  0.4237330135383089  0.7639977633777383  0.9316635189784166
  0.8054145680584626  0.7041363700306711  0.5047708615408225
  0.7094919891028942  0.1675616980341232  0.2914003585134833
  0.6218690939581725  0.7832278026344058  0.8554211130263257
  0.9348388545963491  0.4460336556361965  0.1877880357232285
  0.0709895041162908  0.5276366916767131  0.6943131154292869
  0.2667819040514467  0.0236809395463086  0.4933717391160451
  0.6640617679303704  0.1289690085753237  0.9052259632871640
  0.1931130181512400  0.5740528722493022  0.3958647295811333
  0.6415962311754810  0.5328769829199265  0.9872895010662786
  0.7327816188124600  0.6335485168538901  0.6732335889710410
 
  0.00000000E+00  0.00000000E+00  0.00000000E+00
  0.00000000E+00  0.00000000E+00  0.00000000E+00
  0.00000000E+00  0.00000000E+00  0.00000000E+00
  0.00000000E+00  0.00000000E+00  0.00000000E+00
  0.00000000E+00  0.00000000E+00  0.00000000E+00
  0.00000000E+00  0.00000000E+00  0.00000000E+00
  0.00000000E+00  0.00000000E+00  0.00000000E+00
  0.00000000E+00  0.00000000E+00  0.00000000E+00
  0.00000000E+00  0.00000000E+00  0.00000000E+00
  0.00000000E+00  0.00000000E+00  0.00000000E+00
  0.00000000E+00  0.00000000E+00  0.00000000E+00
  0.00000000E+00  0.00000000E+00  0.00000000E+00
  0.00000000E+00  0.00000000E+00  0.00000000E+00
  0.00000000E+00  0.00000000E+00  0.00000000E+00
  0.00000000E+00  0.00000000E+00  0.00000000E+00
  0.00000000E+00  0.00000000E+00  0.00000000E+00
  0.00000000E+00  0.00000000E+00  0.00000000E+00
  0.00000000E+00  0.00000000E+00  0.00000000E+00
  0.00000000E+00  0.00000000E+00  0.00000000E+00
  0.00000000E+00  0.00000000E+00  0.00000000E+00
  0.00000000E+00  0.00000000E+00  0.00000000E+00
  0.00000000E+00  0.00000000E+00  0.00000000E+00
  0.00000000E+00  0.00000000E+00  0.00000000E+00
  0.00000000E+00  0.00000000E+00  0.00000000E+00
  0.00000000E+00  0.00000000E+00  0.00000000E+00
  0.00000000E+00  0.00000000E+00  0.00000000E+00
  0.00000000E+00  0.00000000E+00  0.00000000E+00
  0.00000000E+00  0.00000000E+00  0.00000000E+00
  0.00000000E+00  0.00000000E+00  0.00000000E+00
  0.00000000E+00  0.00000000E+00  0.00000000E+00
  0.00000000E+00  0.00000000E+00  0.00000000E+00
  0.00000000E+00  0.00000000E+00  0.00000000E+00
  0.00000000E+00  0.00000000E+00  0.00000000E+00
  0.00000000E+00  0.00000000E+00  0.00000000E+00
  0.00000000E+00  0.00000000E+00  0.00000000E+00
  0.00000000E+00  0.00000000E+00  0.00000000E+00
  0.00000000E+00  0.00000000E+00  0.00000000E+00
  0.00000000E+00  0.00000000E+00  0.00000000E+00
  0.00000000E+00  0.00000000E+00  0.00000000E+00
  0.00000000E+00  0.00000000E+00  0.00000000E+00
  0.00000000E+00  0.00000000E+00  0.00000000E+00
  0.00000000E+00  0.00000000E+00  0.00000000E+00
  0.00000000E+00  0.00000000E+00  0.00000000E+00
  0.00000000E+00  0.00000000E+00  0.00000000E+00
  0.00000000E+00  0.00000000E+00  0.00000000E+00
  0.00000000E+00  0.00000000E+00  0.00000000E+00
  0.00000000E+00  0.00000000E+00  0.00000000E+00
  0.00000000E+00  0.00000000E+00  0.00000000E+00
  0.00000000E+00  0.00000000E+00  0.00000000E+00
  0.00000000E+00  0.00000000E+00  0.00000000E+00
  0.00000000E+00  0.00000000E+00  0.00000000E+00
  0.00000000E+00  0.00000000E+00  0.00000000E+00
  0.00000000E+00  0.00000000E+00  0.00000000E+00
  0.00000000E+00  0.00000000E+00  0.00000000E+00
  0.00000000E+00  0.00000000E+00  0.00000000E+00
  0.00000000E+00  0.00000000E+00  0.00000000E+00
  0.00000000E+00  0.00000000E+00  0.00000000E+00
  0.00000000E+00  0.00000000E+00  0.00000000E+00
  0.00000000E+00  0.00000000E+00  0.00000000E+00
  0.00000000E+00  0.00000000E+00  0.00000000E+00
  0.00000000E+00  0.00000000E+00  0.00000000E+00
  0.00000000E+00  0.00000000E+00  0.00000000E+00
  0.00000000E+00  0.00000000E+00  0.00000000E+00
  0.00000000E+00  0.00000000E+00  0.00000000E+00
  0.00000000E+00  0.00000000E+00  0.00000000E+00
  0.00000000E+00  0.00000000E+00  0.00000000E+00
  0.00000000E+00  0.00000000E+00  0.00000000E+00
  0.00000000E+00  0.00000000E+00  0.00000000E+00
  0.00000000E+00  0.00000000E+00  0.00000000E+00
  0.00000000E+00  0.00000000E+00  0.00000000E+00
  0.00000000E+00  0.00000000E+00  0.00000000E+00
  0.00000000E+00  0.00000000E+00  0.00000000E+00
  0.00000000E+00  0.00000000E+00  0.00000000E+00
  0.00000000E+00  0.00000000E+00  0.00000000E+00
  0.00000000E+00  0.00000000E+00  0.00000000E+00
  0.00000000E+00  0.00000000E+00  0.00000000E+00
  0.00000000E+00  0.00000000E+00  0.00000000E+00
  0.00000000E+00  0.00000000E+00  0.00000000E+00
  0.00000000E+00  0.00000000E+00  0.00000000E+00
  0.00000000E+00  0.00000000E+00  0.00000000E+00
  0.00000000E+00  0.00000000E+00  0.00000000E+00
  0.00000000E+00  0.00000000E+00  0.00000000E+00
  0.00000000E+00  0.00000000E+00  0.00000000E+00
  0.00000000E+00  0.00000000E+00  0.00000000E+00
  0.00000000E+00  0.00000000E+00  0.00000000E+00
  0.00000000E+00  0.00000000E+00  0.00000000E+00
  0.00000000E+00  0.00000000E+00  0.00000000E+00
  0.00000000E+00  0.00000000E+00  0.00000000E+00
  0.00000000E+00  0.00000000E+00  0.00000000E+00
  0.00000000E+00  0.00000000E+00  0.00000000E+00
  0.00000000E+00  0.00000000E+00  0.00000000E+00
  0.00000000E+00  0.00000000E+00  0.00000000E+00
  0.00000000E+00  0.00000000E+00  0.00000000E+00
  0.00000000E+00  0.00000000E+00  0.00000000E+00
  0.00000000E+00  0.00000000E+00  0.00000000E+00
  0.00000000E+00  0.00000000E+00  0.00000000E+00
  0.00000000E+00  0.00000000E+00  0.00000000E+00
  0.00000000E+00  0.00000000E+00  0.00000000E+00
  0.00000000E+00  0.00000000E+00  0.00000000E+00
  0.00000000E+00  0.00000000E+00  0.00000000E+00
  0.00000000E+00  0.00000000E+00  0.00000000E+00
  0.00000000E+00  0.00000000E+00  0.00000000E+00
  0.00000000E+00  0.00000000E+00  0.00000000E+00
  0.00000000E+00  0.00000000E+00  0.00000000E+00
  0.00000000E+00  0.00000000E+00  0.00000000E+00
  0.00000000E+00  0.00000000E+00  0.00000000E+00
  0.00000000E+00  0.00000000E+00  0.00000000E+00
  0.00000000E+00  0.00000000E+00  0.00000000E+00
  0.00000000E+00  0.00000000E+00  0.00000000E+00
  0.00000000E+00  0.00000000E+00  0.00000000E+00
  0.00000000E+00  0.00000000E+00  0.00000000E+00
  0.00000000E+00  0.00000000E+00  0.00000000E+00
  0.00000000E+00  0.00000000E+00  0.00000000E+00
  0.00000000E+00  0.00000000E+00  0.00000000E+00
  0.00000000E+00  0.00000000E+00  0.00000000E+00
  0.00000000E+00  0.00000000E+00  0.00000000E+00
  0.00000000E+00  0.00000000E+00  0.00000000E+00
  0.00000000E+00  0.00000000E+00  0.00000000E+00
  0.00000000E+00  0.00000000E+00  0.00000000E+00
  0.00000000E+00  0.00000000E+00  0.00000000E+00
  0.00000000E+00  0.00000000E+00  0.00000000E+00
  0.00000000E+00  0.00000000E+00  0.00000000E+00
  0.00000000E+00  0.00000000E+00  0.00000000E+00
  0.00000000E+00  0.00000000E+00  0.00000000E+00
  0.00000000E+00  0.00000000E+00  0.00000000E+00
  0.00000000E+00  0.00000000E+00  0.00000000E+00
  0.00000000E+00  0.00000000E+00  0.00000000E+00
  0.00000000E+00  0.00000000E+00  0.00000000E+00
  0.00000000E+00  0.00000000E+00  0.00000000E+00
  0.00000000E+00  0.00000000E+00  0.00000000E+00
  0.00000000E+00  0.00000000E+00  0.00000000E+00
  0.00000000E+00  0.00000000E+00  0.00000000E+00
  0.00000000E+00  0.00000000E+00  0.00000000E+00
  0.00000000E+00  0.00000000E+00  0.00000000E+00
  0.00000000E+00  0.00000000E+00  0.00000000E+00
  0.00000000E+00  0.00000000E+00  0.00000000E+00
  0.00000000E+00  0.00000000E+00  0.00000000E+00
  0.00000000E+00  0.00000000E+00  0.00000000E+00
  0.00000000E+00  0.00000000E+00  0.00000000E+00
  0.00000000E+00  0.00000000E+00  0.00000000E+00
  0.00000000E+00  0.00000000E+00  0.00000000E+00
  0.00000000E+00  0.00000000E+00  0.00000000E+00
  0.00000000E+00  0.00000000E+00  0.00000000E+00
  0.00000000E+00  0.00000000E+00  0.00000000E+00
  0.00000000E+00  0.00000000E+00  0.00000000E+00
  0.00000000E+00  0.00000000E+00  0.00000000E+00
  0.00000000E+00  0.00000000E+00  0.00000000E+00
  0.00000000E+00  0.00000000E+00  0.00000000E+00
  0.00000000E+00  0.00000000E+00  0.00000000E+00
  0.00000000E+00  0.00000000E+00  0.00000000E+00
  0.00000000E+00  0.00000000E+00  0.00000000E+00
  0.00000000E+00  0.00000000E+00  0.00000000E+00
  0.00000000E+00  0.00000000E+00  0.00000000E+00
  0.00000000E+00  0.00000000E+00  0.00000000E+00
  0.00000000E+00  0.00000000E+00  0.00000000E+00
  0.00000000E+00  0.00000000E+00  0.00000000E+00
  0.00000000E+00  0.00000000E+00  0.00000000E+00
  0.00000000E+00  0.00000000E+00  0.00000000E+00
  0.00000000E+00  0.00000000E+00  0.00000000E+00
  0.00000000E+00  0.00000000E+00  0.00000000E+00
  0.00000000E+00  0.00000000E+00  0.00000000E+00
  0.00000000E+00  0.00000000E+00  0.00000000E+00
  0.00000000E+00  0.00000000E+00  0.00000000E+00
  0.00000000E+00  0.00000000E+00  0.00000000E+00
  0.00000000E+00  0.00000000E+00  0.00000000E+00
  0.00000000E+00  0.00000000E+00  0.00000000E+00
  0.00000000E+00  0.00000000E+00  0.00000000E+00
  0.00000000E+00  0.00000000E+00  0.00000000E+00
  0.00000000E+00  0.00000000E+00  0.00000000E+00
  0.00000000E+00  0.00000000E+00  0.00000000E+00
  0.00000000E+00  0.00000000E+00  0.00000000E+00
  0.00000000E+00  0.00000000E+00  0.00000000E+00
  0.00000000E+00  0.00000000E+00  0.00000000E+00
  0.00000000E+00  0.00000000E+00  0.00000000E+00
  0.00000000E+00  0.00000000E+00  0.00000000E+00
  0.00000000E+00  0.00000000E+00  0.00000000E+00
  0.00000000E+00  0.00000000E+00  0.00000000E+00
  0.00000000E+00  0.00000000E+00  0.00000000E+00
  0.00000000E+00  0.00000000E+00  0.00000000E+00
  0.00000000E+00  0.00000000E+00  0.00000000E+00
  0.00000000E+00  0.00000000E+00  0.00000000E+00
  0.00000000E+00  0.00000000E+00  0.00000000E+00
  0.00000000E+00  0.00000000E+00  0.00000000E+00
  0.00000000E+00  0.00000000E+00  0.00000000E+00
  0.00000000E+00  0.00000000E+00  0.00000000E+00
  0.00000000E+00  0.00000000E+00  0.00000000E+00
  0.00000000E+00  0.00000000E+00  0.00000000E+00
  0.00000000E+00  0.00000000E+00  0.00000000E+00
  0.00000000E+00  0.00000000E+00  0.00000000E+00
  0.00000000E+00  0.00000000E+00  0.00000000E+00
  0.00000000E+00  0.00000000E+00  0.00000000E+00
  0.00000000E+00  0.00000000E+00  0.00000000E+00
  0.00000000E+00  0.00000000E+00  0.00000000E+00
  0.00000000E+00  0.00000000E+00  0.00000000E+00
  0.00000000E+00  0.00000000E+00  0.00000000E+00
  0.00000000E+00  0.00000000E+00  0.00000000E+00
  0.00000000E+00  0.00000000E+00  0.00000000E+00
  0.00000000E+00  0.00000000E+00  0.00000000E+00
  0.00000000E+00  0.00000000E+00  0.00000000E+00
  0.00000000E+00  0.00000000E+00  0.00000000E+00
  0.00000000E+00  0.00000000E+00  0.00000000E+00
  0.00000000E+00  0.00000000E+00  0.00000000E+00
  0.00000000E+00  0.00000000E+00  0.00000000E+00
  0.00000000E+00  0.00000000E+00  0.00000000E+00
  0.00000000E+00  0.00000000E+00  0.00000000E+00
  0.00000000E+00  0.00000000E+00  0.00000000E+00
  0.00000000E+00  0.00000000E+00  0.00000000E+00
  0.00000000E+00  0.00000000E+00  0.00000000E+00
  0.00000000E+00  0.00000000E+00  0.00000000E+00
  0.00000000E+00  0.00000000E+00  0.00000000E+00
  0.00000000E+00  0.00000000E+00  0.00000000E+00
  0.00000000E+00  0.00000000E+00  0.00000000E+00
  0.00000000E+00  0.00000000E+00  0.00000000E+00
  0.00000000E+00  0.00000000E+00  0.00000000E+00
  0.00000000E+00  0.00000000E+00  0.00000000E+00
  0.00000000E+00  0.00000000E+00  0.00000000E+00
  0.00000000E+00  0.00000000E+00  0.00000000E+00
  0.00000000E+00  0.00000000E+00  0.00000000E+00
  0.00000000E+00  0.00000000E+00  0.00000000E+00
  0.00000000E+00  0.00000000E+00  0.00000000E+00
  0.00000000E+00  0.00000000E+00  0.00000000E+00
  0.00000000E+00  0.00000000E+00  0.00000000E+00
  0.00000000E+00  0.00000000E+00  0.00000000E+00
  0.00000000E+00  0.00000000E+00  0.00000000E+00
  0.00000000E+00  0.00000000E+00  0.00000000E+00
  0.00000000E+00  0.00000000E+00  0.00000000E+00
  0.00000000E+00  0.00000000E+00  0.00000000E+00
  0.00000000E+00  0.00000000E+00  0.00000000E+00
  0.00000000E+00  0.00000000E+00  0.00000000E+00
  0.00000000E+00  0.00000000E+00  0.00000000E+00
  0.00000000E+00  0.00000000E+00  0.00000000E+00
  0.00000000E+00  0.00000000E+00  0.00000000E+00