I4 Pb, 2(C8 H12 N)                      
   1.00000000000000     
     8.8446000304999988    0.0000000000000000    0.0000000000000000
     0.0000000000000000    9.2885000005999991    0.0000000000000000
     0.0000000000000000    0.0000000000000000   28.7950000915999986
   C    H    N    Pb   I 
    64    96     8     4    16
Direct
  0.8833038646879458  0.4648784878610265  0.1679698418051400
  0.6166961353120612  0.5351215121389737  0.6679698718051396
  0.1166961353120598  0.9648784878610364  0.3320301581948616
  0.3833038646879369  0.0351215121389650  0.8320301281948597
  0.7799043634759132  0.3844840512888547  0.2003557349416907
  0.7200956365240762  0.6155159187111374  0.7003557349416888
  0.2200956365240773  0.8844840812888585  0.2996442650583087
  0.2799043634759210  0.1155159487111454  0.7996442650583109
  0.8163471092780890  0.3755479067285109  0.2489860979513406
  0.6836528907219160  0.6244520932714854  0.7489860829513424
  0.1836528907219053  0.8755479067285149  0.2510139170486576
  0.3163471092780982  0.1244520932714885  0.7510139170486596
  0.9278298133446951  0.4682969456528550  0.2670917430156800
  0.5721701866553146  0.5317030543471420  0.7670917430156727
  0.0721701866553149  0.9682969456528461  0.2329082569843257
  0.4278298133446942  0.0317030543471416  0.7329082569843197
  0.0208693640242102  0.5461172572487901  0.2364965723501836
  0.4791306359758007  0.4538827427512156  0.7364965873501828
  0.9791306359757892  0.0461172572487788  0.2635034126498144
  0.5208693640242096  0.9538827427512122  0.7635034126498154
  0.0094652707447375  0.5407726898122898  0.1875454957046519
  0.4905347292552626  0.4592273401876976  0.6875455257046469
  0.9905347292552628  0.0407726598122862  0.3124545042953512
  0.5094652707447365  0.9592273101876997  0.8124544742953558
  0.8405777121719965  0.4628738810226057  0.1181076645551044
  0.6594222878280209  0.5371261479773949  0.6181076345551106
  0.1594222878280060  0.9628738520226109  0.3818923354448943
  0.3405777121719818  0.0371261189773928  0.8818923654448871
  0.8025663479127755  0.6127420893394532  0.0983317391006742
  0.6974336520872242  0.3872579106605324  0.5983317391006738
  0.1974336520872019  0.1127420893394862  0.4016682608993248
  0.3025663479127905  0.8872579106605321  0.9016682608993259
  0.4416230297228495  0.0562893258203371  0.1613162405791062
  0.0583769702771617  0.9437106751796656  0.6613162405790989
  0.5583770002771558  0.5562893248203356  0.3386837594208900
  0.9416229997228450  0.4437106751796582  0.8386837594208943
  0.3301331842168688  0.1618710211752902  0.1737372825390947
  0.1698668157831369  0.8381290088247134  0.6737372825390889
  0.6698668157831430  0.6618709911752867  0.3262627174609139
  0.8301331842168632  0.3381289788246979  0.8262627174609104
  0.3326686091672551  0.2268380883759263  0.2184649288304997
  0.1673313908327711  0.7731619266240750  0.7184649288305023
  0.6673313908327644  0.7268380733759309  0.2815350711694969
  0.8326686091672392  0.2731619266240729  0.7815350711694973
  0.4391058930953872  0.1892812522493398  0.2528288340438642
  0.0608941069046159  0.8107187697506647  0.7528288640438729
  0.5608940779046150  0.6892812302493430  0.2471711659561283
  0.9391059220953781  0.3107187397506617  0.7471711359561188
  0.5545567633225380  0.0908219182183827  0.2384881716145088
  0.9454432366774510  0.9091780817816254  0.7384881566145196
  0.4454432366774623  0.5908219182183849  0.2615118433854759
  0.0545567633225380  0.4091780817816161  0.7615118433854725
  0.5558757710223547  0.0254883780114246  0.1940693560806689
  0.9441242289776512  0.9745116029885700  0.6940693850806752
  0.4441242289776448  0.5254884080114290  0.3059306439193323
  0.0558757710223503  0.4745116219885699  0.8059306149193232
  0.4474891422038812  0.9752502074679681  0.1178815178015720
  0.0525108577961144  0.0247497815320353  0.6178814958015775
  0.5525108277961160  0.4752502074679659  0.3821184741984379
  0.9474891722038978  0.5247497925320314  0.8821185041984226
  0.3094833695643101  0.8840920624491826  0.1081686404357101
  0.1905166304356959  0.1159079515508109  0.6081686404357155
  0.6905166304357183  0.3840920624491934  0.3918313595642896
  0.8094833695643036  0.6159079375507949  0.8918313595642872
  0.6827057896276132  0.3364882979038648  0.1817508237065647
  0.8172942103722908  0.6635117320961230  0.6817508387065683
  0.3172942103722967  0.8364882679038511  0.3182491612934261
  0.1827057896275994  0.1635117020961283  0.8182491612934325
  0.7387327545758604  0.3208649198849716  0.2739552653884594
  0.7612672454240463  0.6791350801149981  0.7739552943884617
  0.2612672454239875  0.8208649198849574  0.2260447346115236
  0.2387327545758368  0.1791350801150584  0.7260447056115291
  0.9397493969356256  0.4788936997925982  0.3051140908515506
  0.5602506030643176  0.5211063002073825  0.8051140608515439
  0.0602506030643683  0.9788936997926032  0.1948859091484719
  0.4397493969356727  0.0211063002073738  0.6948859391484427
  0.1217749557138059  0.5996512720986232  0.2509763984075832
  0.3782250442861340  0.4003487279013759  0.7509763984075748
  0.8782250442860768  0.0996512720986116  0.2490236015924001
  0.6217749557139316  0.9003487279013291  0.7490236015923800
  0.0880722166533184  0.6060762612347526  0.1661441372286781
  0.4119277833466985  0.3939237387653706  0.6661441222286684
  0.9119277833467454  0.1060762612347011  0.3338558777713420
  0.5880722166532774  0.8939237387653134  0.8338558777713674
  0.7398532271830860  0.3887323568420370  0.1104312998244235
  0.7601467728169927  0.6112676431579507  0.6104312848244420
  0.2601467728167827  0.8887323568419981  0.3895687151756297
  0.2398532271832263  0.1112676431579690  0.8895687151756215
  0.8144512876924621  0.6253405731542475  0.0583436886353309
  0.6855487123074565  0.3746594268457428  0.5583436956353148
  0.1855487123074542  0.1253405731541420  0.4416563043646743
  0.3144512876925135  0.8746594268457748  0.9416563043646845
  0.8782569326335898  0.7020281940617173  0.1085704695725785
  0.6217430673664005  0.2979718059382842  0.6085704845725833
  0.1217430673665194  0.2020281940618087  0.3914295154274260
  0.3782569326335038  0.7979718059382762  0.8914295154274153
  0.6896609231528970  0.6316839620157244  0.1084653780145442
  0.8103390768469864  0.3683160379843085  0.6084653480145622
  0.3103390768470088  0.1316839620157898  0.3915346219854731
  0.1896609231529446  0.8683160379843091  0.8915346519854551
  0.2453125739481744  0.1868578380929617  0.1479553715461406
  0.2546874260517459  0.8131421469070537  0.6479553415461485
  0.7546873960517881  0.6868578530929703  0.3520446284538498
  0.7453126039481506  0.3131421469070028  0.8520446584538488
  0.2413940738235701  0.3113024489948061  0.2247336501655570
  0.2586059261764874  0.6886975800052229  0.7247336501655574
  0.7586059261764350  0.8113024199947608  0.2752663498344471
  0.7413940738235573  0.1886975510052439  0.7752663498344553
  0.4547262822369721  0.2530761356957920  0.2861307819172122
  0.0452737177630207  0.7469238493042024  0.7861307819172482
  0.5452737177630134  0.7530761506958115  0.2138692180826950
  0.9547262822369875  0.2469238493042001  0.7138692180827360
  0.6365083966803279  0.0671260576445075  0.2604670710488496
  0.8634916033196741  0.9328739723554423  0.7604670710488820
  0.3634916033196710  0.5671260276445266  0.2395329289511671
  0.1365083966803403  0.4328739423554707  0.7395329289511295
  0.6402940061803535  0.9511694946958313  0.1868462826752133
  0.8597059938196706  0.0488305123041336  0.6868462676752193
  0.3597059938197269  0.4511694946958468  0.3131537323247914
  0.1402940061804071  0.5488305053042004  0.8131537323247742
  0.5552309230576701  0.9207856557554479  0.1178401477355815
  0.9447690769421866  0.0792143672446037  0.6178401627355803
  0.4447690769422024  0.4207856257554471  0.3821598372644373
  0.0552309230578532  0.5792143442445262  0.8821598372644365
  0.3160389904881971  0.8448559172808127  0.0718569136664453
  0.1839610095117798  0.1551440677191727  0.5718568986664582
  0.6839610395117927  0.3448559172807943  0.4281431013335728
  0.8160389604882051  0.6551440827192335  0.9281431013335603
  0.2068424194702096  0.9457034511077634  0.1092445174898311
  0.2931575655297368  0.0542965208922856  0.6092445404898272
  0.7931575655297595  0.4457034811078459  0.3907554895101682
  0.7068424344702621  0.5542965488921623  0.8907554595101738
  0.3006452319017494  0.7873482821492267  0.1332849463263014
  0.1993547680982428  0.2126517178507826  0.6332849683263124
  0.6993547380982590  0.2873482821492200  0.3667150616736962
  0.8006452619017181  0.7126517178507769  0.8667150316736895
  0.9235104421946674  0.3931735791488060  0.0523964682429333
  0.5764895578053394  0.6068263908511708  0.5523964832429344
  0.0764895578053592  0.8931736091488394  0.4476035167570696
  0.4235104421946637  0.1068264208511977  0.9476035167570976
  0.9937056268114399  0.2955439845609802  0.0994357458123928
  0.5062943731885334  0.7044559854389864  0.5994357608123911
  0.0062943731886194  0.7955440145610753  0.4005642391876005
  0.4937056268114460  0.2044560154389622  0.9005642391876094
  0.0715999422276982  0.4469236776585817  0.0850039362992858
  0.4284000577722109  0.5530763223414211  0.5850039212992822
  0.9284000577721576  0.9469236776585594  0.4149960787007276
  0.5715999422277718  0.0530763223414212  0.9149960787007255
  0.5427919529233912  0.1465288499220677  0.0770243207801540
  0.9572080470766493  0.8534711500778702  0.5770243057801576
  0.4572080470766475  0.6465288499221079  0.4229756942198397
  0.0427919529233725  0.3534711500778686  0.9229756942198407
  0.3524255371613594  0.1063192494438177  0.0583678239317692
  0.1475744628385428  0.8936807355562011  0.5583678099317950
  0.6475744628385153  0.6063192644436549  0.4416321900682316
  0.8524255371613778  0.3936807355562338  0.9416321900681957
  0.4915970518783395  0.9842694100022268  0.0465530369572288
  0.0084029481216355  0.0157305669978114  0.5465530149571953
  0.5084029781216801  0.4842694330021994  0.4534469550427253
  0.9915970218783468  0.5157305969977753  0.9534469850427358
  0.9726773002762169  0.3977930841483134  0.0870524025781399
  0.5273226997237886  0.6022069158516892  0.5870523875781454
  0.0273226997237834  0.8977930841483274  0.4129476124218597
  0.4726773002762147  0.1022069158516692  0.9129476124218536
  0.4590658864657548  0.0661547036455637  0.0720227468949015
  0.0409341135342496  0.9338453183544074  0.5720227468949015
  0.5409341135342420  0.5661546816455777  0.4279772531051035
  0.9590658864657441  0.4338452883544278  0.9279772531051017
  0.8746980017602388  0.0201959467294785  0.9989602753952022
  0.6253019982397615  0.9798040532705209  0.4989602753952094
  0.1253019982397636  0.5201959467294794  0.5010397246047978
  0.3746980017602371  0.4798040532705233  0.0010397166047910
  0.8655960838016838  0.0312100546699458  0.0928760968443311
  0.6344039161983179  0.9687899453300551  0.5928760888443318
  0.1344039161983177  0.5312100546699458  0.4071239111556707
  0.3655960838016837  0.4687899453300551  0.9071239111556680
  0.1273721831579817  0.1816925312877979  0.0073849588386367
  0.3726278168420181  0.8183074687121999  0.5073849728386313
  0.8726278168420187  0.6816925312878016  0.4926150271613693
  0.6273721831579817  0.3183074687122034  0.9926150271613694
  0.1361376027181198  0.6674316395026049  0.0052644183281940
  0.3638623972818797  0.3325683604973951  0.5052644283281938
  0.8638623972818845  0.1674316395026058  0.4947355716718054
  0.6361376027181163  0.8325683604973951  0.9947355716718057
  0.8914378522301539  0.0294611534593505  0.9056914498611242
  0.6085621477698483  0.9705388465406478  0.4056914198611235
  0.1085621477698454  0.5294611534593515  0.5943085501388757
  0.3914378522301551  0.4705388465406478  0.0943085721388763
 
 -0.84925388E-02 -0.73686940E-02  0.14843477E-02
  0.84925388E-02  0.73686940E-02  0.14843477E-02
  0.84925388E-02 -0.73686940E-02 -0.14843477E-02
 -0.84925388E-02  0.73686940E-02 -0.14843477E-02
  0.17624906E-02 -0.94966331E-03 -0.38086479E-02
 -0.17624906E-02  0.94966331E-03 -0.38086479E-02
 -0.17624906E-02 -0.94966331E-03  0.38086479E-02
  0.17624906E-02  0.94966331E-03  0.38086479E-02
 -0.44891772E-02 -0.39374787E-02  0.18507072E-02
  0.44891772E-02  0.39374787E-02  0.18507072E-02
  0.44891772E-02 -0.39374787E-02 -0.18507072E-02
 -0.44891772E-02  0.39374787E-02 -0.18507072E-02
  0.17440186E-02 -0.26612870E-03 -0.25279212E-03
 -0.17440186E-02  0.26612870E-03 -0.25279212E-03
 -0.17440186E-02 -0.26612870E-03  0.25279212E-03
  0.17440186E-02  0.26612870E-03  0.25279212E-03
 -0.48945546E-03  0.48352337E-02  0.26820298E-02
  0.48945546E-03 -0.48352337E-02  0.26820298E-02
  0.48945546E-03  0.48352337E-02 -0.26820298E-02
 -0.48945546E-03 -0.48352337E-02 -0.26820298E-02
  0.12760690E-01 -0.13166519E-02 -0.34580652E-03
 -0.12760690E-01  0.13166519E-02 -0.34580652E-03
 -0.12760690E-01 -0.13166519E-02  0.34580652E-03
  0.12760690E-01  0.13166519E-02  0.34580652E-03
  0.24011854E-02  0.23181707E-02 -0.80745031E-02
 -0.24011854E-02 -0.23181707E-02 -0.80745031E-02
 -0.24011854E-02  0.23181707E-02  0.80745031E-02
  0.24011854E-02 -0.23181707E-02  0.80745031E-02
 -0.26993544E-02  0.86230644E-03 -0.40384022E-02
  0.26993544E-02 -0.86230644E-03 -0.40384022E-02
  0.26993544E-02  0.86230644E-03  0.40384022E-02
 -0.26993544E-02 -0.86230644E-03  0.40384022E-02
  0.32953998E-02 -0.66128617E-02  0.50046041E-02
 -0.32953998E-02  0.66128617E-02  0.50046041E-02
 -0.32953998E-02 -0.66128617E-02 -0.50046041E-02
  0.32953998E-02  0.66128617E-02 -0.50046041E-02
  0.58099406E-02  0.49218130E-02  0.27943564E-02
 -0.58099406E-02 -0.49218130E-02  0.27943564E-02
 -0.58099406E-02  0.49218130E-02 -0.27943564E-02
  0.58099406E-02 -0.49218130E-02 -0.27943564E-02
  0.18539653E-03 -0.39024042E-02  0.30235563E-02
 -0.18539653E-03  0.39024042E-02  0.30235563E-02
 -0.18539653E-03 -0.39024042E-02 -0.30235563E-02
  0.18539653E-03  0.39024042E-02 -0.30235563E-02
 -0.22174428E-02 -0.36618997E-02 -0.97960028E-02
  0.22174428E-02  0.36618997E-02 -0.97960028E-02
  0.22174428E-02 -0.36618997E-02  0.97960028E-02
 -0.22174428E-02  0.36618997E-02  0.97960028E-02
  0.22764055E-02  0.10228893E-02 -0.25156390E-02
 -0.22764055E-02 -0.10228893E-02 -0.25156390E-02
 -0.22764055E-02  0.10228893E-02  0.25156390E-02
  0.22764055E-02 -0.10228893E-02  0.25156390E-02
 -0.54385612E-02  0.15668208E-03 -0.51550823E-02
  0.54385612E-02 -0.15668208E-03 -0.51550823E-02
  0.54385612E-02  0.15668208E-03  0.51550823E-02
 -0.54385612E-02 -0.15668208E-03  0.51550823E-02
 -0.74443963E-02  0.41457157E-02 -0.31677367E-02
  0.74443963E-02 -0.41457157E-02 -0.31677367E-02
  0.74443963E-02  0.41457157E-02  0.31677367E-02
 -0.74443963E-02 -0.41457157E-02  0.31677367E-02
  0.49489664E-02 -0.47671911E-02 -0.40208715E-03
 -0.49489664E-02  0.47671911E-02 -0.40208715E-03
 -0.49489664E-02 -0.47671911E-02  0.40208715E-03
  0.49489664E-02  0.47671911E-02  0.40208715E-03
  0.72325940E-02  0.31677183E-02  0.85942859E-02
 -0.72325940E-02 -0.31677183E-02  0.85942859E-02
 -0.72325940E-02  0.31677183E-02 -0.85942859E-02
  0.72325940E-02 -0.31677183E-02 -0.85942859E-02
  0.81526626E-03  0.82422263E-02  0.21369738E-01
 -0.81526626E-03 -0.82422263E-02  0.21369738E-01
 -0.81526626E-03  0.82422263E-02 -0.21369738E-01
  0.81526626E-03 -0.82422263E-02 -0.21369738E-01
 -0.14499473E-01 -0.61984841E-02 -0.24505571E-01
  0.14499473E-01  0.61984841E-02 -0.24505571E-01
  0.14499473E-01 -0.61984841E-02  0.24505571E-01
 -0.14499473E-01  0.61984841E-02  0.24505571E-01
 -0.20975821E-01 -0.89447339E-02  0.36921466E-02
  0.20975821E-01  0.89447339E-02  0.36921466E-02
  0.20975821E-01 -0.89447339E-02 -0.36921466E-02
 -0.20975821E-01  0.89447339E-02 -0.36921466E-02
  0.20929825E-01  0.22027904E-01 -0.40237221E-02
 -0.20929825E-01 -0.22027904E-01 -0.40237221E-02
 -0.20929825E-01  0.22027904E-01  0.40237221E-02
  0.20929825E-01 -0.22027904E-01  0.40237221E-02
  0.11568890E-01 -0.26237172E-02  0.45894622E-04
 -0.11568890E-01  0.26237172E-02  0.45894622E-04
 -0.11568890E-01 -0.26237172E-02 -0.45894622E-04
  0.11568890E-01  0.26237172E-02 -0.45894622E-04
  0.46550264E-02 -0.21302203E-01  0.44551982E-01
 -0.46550264E-02  0.21302203E-01  0.44551982E-01
 -0.46550264E-02 -0.21302203E-01 -0.44551982E-01
  0.46550264E-02  0.21302203E-01 -0.44551982E-01
 -0.16382023E-02 -0.16387538E-02 -0.14900910E-01
  0.16382023E-02  0.16387538E-02 -0.14900910E-01
  0.16382023E-02 -0.16387538E-02  0.14900910E-01
 -0.16382023E-02  0.16387538E-02  0.14900910E-01
 -0.12136734E-01 -0.26630167E-03  0.16680614E-02
  0.12136734E-01  0.26630167E-03  0.16680614E-02
  0.12136734E-01 -0.26630167E-03 -0.16680614E-02
 -0.12136734E-01  0.26630167E-03 -0.16680614E-02
 -0.41152387E-02  0.91436285E-02  0.11228301E-01
  0.41152387E-02 -0.91436285E-02  0.11228301E-01
  0.41152387E-02  0.91436285E-02 -0.11228301E-01
 -0.41152387E-02 -0.91436285E-02 -0.11228301E-01
 -0.15444520E-01  0.25101336E-01 -0.84681911E-02
  0.15444520E-01 -0.25101336E-01 -0.84681911E-02
  0.15444520E-01  0.25101336E-01  0.84681911E-02
 -0.15444520E-01 -0.25101336E-01  0.84681911E-02
 -0.25006681E-02 -0.83976261E-02 -0.27941200E-01
  0.25006681E-02  0.83976261E-02 -0.27941200E-01
  0.25006681E-02 -0.83976261E-02  0.27941200E-01
 -0.25006681E-02  0.83976261E-02  0.27941200E-01
  0.44877692E-01 -0.10732329E-01  0.22014730E-01
 -0.44877692E-01  0.10732329E-01  0.22014730E-01
 -0.44877692E-01 -0.10732329E-01 -0.22014730E-01
  0.44877692E-01  0.10732329E-01 -0.22014730E-01
  0.53026909E-02  0.17034280E-01 -0.42944016E-02
 -0.53026909E-02 -0.17034280E-01 -0.42944016E-02
 -0.53026909E-02  0.17034280E-01  0.42944016E-02
  0.53026909E-02 -0.17034280E-01  0.42944016E-02
  0.21242974E-01 -0.16147404E-01  0.16869606E-01
 -0.21242974E-01  0.16147404E-01  0.16869606E-01
 -0.21242974E-01 -0.16147404E-01 -0.16869606E-01
  0.21242974E-01  0.16147404E-01 -0.16869606E-01
 -0.21697758E-01 -0.99902972E-02 -0.13104408E-01
  0.21697758E-01  0.99902972E-02 -0.13104408E-01
  0.21697758E-01 -0.99902972E-02  0.13104408E-01
 -0.21697758E-01  0.99902972E-02  0.13104408E-01
 -0.66425792E-02  0.15931048E-01 -0.12667715E-02
  0.66425792E-02 -0.15931048E-01 -0.12667715E-02
  0.66425792E-02  0.15931048E-01  0.12667715E-02
 -0.66425792E-02 -0.15931048E-01  0.12667715E-02
 -0.23343461E-01  0.36758686E-01  0.22630087E-02
  0.23343461E-01 -0.36758686E-01  0.22630087E-02
  0.23343461E-01  0.36758686E-01 -0.22630087E-02
 -0.23343461E-01 -0.36758686E-01 -0.22630087E-02
 -0.31130736E-01  0.26118981E-01  0.30382025E-01
  0.31130736E-01 -0.26118981E-01  0.30382025E-01
  0.31130736E-01  0.26118981E-01 -0.30382025E-01
 -0.31130736E-01 -0.26118981E-01 -0.30382025E-01
 -0.21761796E-01  0.12237378E-01 -0.64220474E-02
  0.21761796E-01 -0.12237378E-01 -0.64220474E-02
  0.21761796E-01  0.12237378E-01  0.64220474E-02
 -0.21761796E-01 -0.12237378E-01  0.64220474E-02
  0.13276829E-01  0.12661519E-01  0.64923705E-02
 -0.13276829E-01 -0.12661519E-01  0.64923705E-02
 -0.13276829E-01  0.12661519E-01 -0.64923705E-02
  0.13276829E-01 -0.12661519E-01 -0.64923705E-02
  0.11508808E-01 -0.52050109E-02 -0.23727500E-01
 -0.11508808E-01  0.52050109E-02 -0.23727500E-01
 -0.11508808E-01 -0.52050109E-02  0.23727500E-01
  0.11508808E-01  0.52050109E-02  0.23727500E-01
  0.11890070E-01 -0.41063677E-02  0.32928603E-01
 -0.11890070E-01  0.41063677E-02  0.32928603E-01
 -0.11890070E-01 -0.41063677E-02 -0.32928603E-01
  0.11890070E-01  0.41063677E-02 -0.32928603E-01
  0.72565525E-02  0.28044092E-01 -0.58673389E-01
 -0.72565525E-02 -0.28044092E-01 -0.58673389E-01
 -0.72565525E-02  0.28044092E-01  0.58673389E-01
  0.72565525E-02 -0.28044092E-01  0.58673389E-01
 -0.17968987E-02 -0.36116296E-02  0.52671576E-02
  0.17968987E-02  0.36116296E-02  0.52671576E-02
  0.17968987E-02 -0.36116296E-02 -0.52671576E-02
 -0.17968987E-02  0.36116296E-02 -0.52671576E-02
 -0.17453037E-02  0.47388710E-02  0.36572580E-02
  0.17453037E-02 -0.47388710E-02  0.36572580E-02
  0.17453037E-02  0.47388710E-02 -0.36572580E-02
 -0.17453037E-02 -0.47388710E-02 -0.36572580E-02
 -0.63659383E-03  0.36294091E-03 -0.31357513E-03
  0.63659383E-03 -0.36294091E-03 -0.31357513E-03
  0.63659383E-03  0.36294091E-03  0.31357513E-03
 -0.63659383E-03 -0.36294091E-03  0.31357513E-03
 -0.16956162E-03  0.16206165E-02  0.24611718E-03
  0.16956162E-03 -0.16206165E-02  0.24611718E-03
  0.16956162E-03  0.16206165E-02 -0.24611718E-03
 -0.16956162E-03 -0.16206165E-02 -0.24611718E-03
 -0.64441203E-03 -0.59014112E-03  0.51692062E-03
  0.64441203E-03  0.59014112E-03  0.51692062E-03
  0.64441203E-03 -0.59014112E-03 -0.51692062E-03
 -0.64441203E-03  0.59014112E-03 -0.51692062E-03
  0.17222395E-03 -0.24638003E-03 -0.36018074E-03
 -0.17222395E-03  0.24638003E-03 -0.36018074E-03
 -0.17222395E-03 -0.24638003E-03  0.36018074E-03
  0.17222395E-03  0.24638003E-03  0.36018074E-03
  0.18173798E-02  0.41099028E-04  0.11489675E-03
 -0.18173798E-02 -0.41099028E-04  0.11489675E-03
 -0.18173798E-02  0.41099028E-04 -0.11489675E-03
  0.18173798E-02 -0.41099028E-04 -0.11489675E-03
 
           1
   2.00000000000000     
  0.10000000E+01  0.00000000E+00  0.00000000E+00  0.00000000E+00
  0.88138348E+00  0.46329186E+00  0.16807294E+00
  0.61861652E+00  0.53670814E+00  0.66807297E+00
  0.11861652E+00  0.96329186E+00  0.33192706E+00
  0.38138348E+00  0.36708139E-01  0.83192703E+00
  0.78030291E+00  0.38427957E+00  0.20009120E+00
  0.71969709E+00  0.61572040E+00  0.70009120E+00
  0.21969709E+00  0.88427960E+00  0.29990880E+00
  0.28030291E+00  0.11572043E+00  0.79990880E+00
  0.81533199E+00  0.37470009E+00  0.24911464E+00
  0.68466801E+00  0.62529991E+00  0.74911463E+00
  0.18466801E+00  0.87470009E+00  0.25088537E+00
  0.31533199E+00  0.12529991E+00  0.75088537E+00
  0.92822418E+00  0.46823964E+00  0.26707418E+00
  0.57177582E+00  0.53176036E+00  0.76707418E+00
  0.71775818E-01  0.96823964E+00  0.23292582E+00
  0.42822418E+00  0.31760357E-01  0.73292582E+00
  0.20758685E-01  0.54715838E+00  0.23668286E+00
  0.47924131E+00  0.45284162E+00  0.73668287E+00
  0.97924131E+00  0.47158380E-01  0.26331713E+00
  0.52075869E+00  0.95284162E+00  0.76331713E+00
  0.12350803E-01  0.54048919E+00  0.18752148E+00
  0.48764920E+00  0.45951084E+00  0.68752151E+00
  0.98764920E+00  0.40489158E-01  0.31247852E+00
  0.51235080E+00  0.95951081E+00  0.81247849E+00
  0.84112068E+00  0.46337303E+00  0.11754684E+00
  0.65887932E+00  0.53662700E+00  0.61754681E+00
  0.15887932E+00  0.96337300E+00  0.38245316E+00
  0.34112068E+00  0.36626970E-01  0.88245319E+00
  0.80195595E+00  0.61292776E+00  0.98051246E-01
  0.69804405E+00  0.38707224E+00  0.59805125E+00
  0.19804405E+00  0.11292776E+00  0.40194875E+00
  0.30195595E+00  0.88707224E+00  0.90194875E+00
  0.44236821E+00  0.54865444E-01  0.16166384E+00
  0.57631792E-01  0.94513456E+00  0.66166384E+00
  0.55763182E+00  0.55486544E+00  0.33833616E+00
  0.94236818E+00  0.44513456E+00  0.83833616E+00
  0.33144697E+00  0.16293079E+00  0.17393137E+00
  0.16855303E+00  0.83706924E+00  0.67393137E+00
  0.66855303E+00  0.66293076E+00  0.32606863E+00
  0.83144697E+00  0.33706921E+00  0.82606863E+00
  0.33271053E+00  0.22599782E+00  0.21867493E+00
  0.16728947E+00  0.77400219E+00  0.71867493E+00
  0.66728947E+00  0.72599781E+00  0.28132507E+00
  0.83271053E+00  0.27400219E+00  0.78132507E+00
  0.43860447E+00  0.18849277E+00  0.25214844E+00
  0.61395530E-01  0.81150725E+00  0.75214847E+00
  0.56139550E+00  0.68849275E+00  0.24785156E+00
  0.93860450E+00  0.31150722E+00  0.74785153E+00
  0.55507152E+00  0.91042167E-01  0.23831344E+00
  0.94492848E+00  0.90895783E+00  0.73831343E+00
  0.44492848E+00  0.59104217E+00  0.26168657E+00
  0.55071519E-01  0.40895783E+00  0.76168657E+00
  0.55464597E+00  0.25522115E-01  0.19371130E+00
  0.94535403E+00  0.97447787E+00  0.69371133E+00
  0.44535403E+00  0.52552214E+00  0.30628870E+00
  0.54645967E-01  0.47447789E+00  0.80628867E+00
  0.44580577E+00  0.97614286E+00  0.11766150E+00
  0.54194234E-01  0.23857126E-01  0.61766148E+00
  0.55419420E+00  0.47614286E+00  0.38233849E+00
  0.94580580E+00  0.52385714E+00  0.88233852E+00
  0.31060246E+00  0.88306559E+00  0.10814071E+00
  0.18939754E+00  0.11693442E+00  0.60814071E+00
  0.68939754E+00  0.38306559E+00  0.39185929E+00
  0.81060246E+00  0.61693441E+00  0.89185929E+00
  0.68434127E+00  0.33717037E+00  0.18234775E+00
  0.81565873E+00  0.66282966E+00  0.68234777E+00
  0.31565873E+00  0.83717034E+00  0.31765223E+00
  0.18434127E+00  0.16282963E+00  0.81765223E+00
  0.73891711E+00  0.32263964E+00  0.27543953E+00
  0.76108289E+00  0.67736036E+00  0.77543956E+00
  0.26108289E+00  0.82263964E+00  0.22456047E+00
  0.23891711E+00  0.17736036E+00  0.72456044E+00
  0.93647068E+00  0.47755904E+00  0.30341202E+00
  0.56352932E+00  0.52244096E+00  0.80341199E+00
  0.63529321E-01  0.97755904E+00  0.19658798E+00
  0.43647068E+00  0.22440958E-01  0.69658801E+00
  0.11703176E+00  0.59772529E+00  0.25123284E+00
  0.38296824E+00  0.40227471E+00  0.75123284E+00
  0.88296824E+00  0.97725292E-01  0.24876716E+00
  0.61703176E+00  0.90227471E+00  0.74876716E+00
  0.92805008E-01  0.61081931E+00  0.16586466E+00
  0.40719499E+00  0.38918069E+00  0.66586465E+00
  0.90719499E+00  0.11081931E+00  0.33413535E+00
  0.59280501E+00  0.88918069E+00  0.83413535E+00
  0.74246926E+00  0.38816742E+00  0.11043449E+00
  0.75753074E+00  0.61183258E+00  0.61043447E+00
  0.25753074E+00  0.88816742E+00  0.38956553E+00
  0.24246926E+00  0.11183258E+00  0.88956553E+00
  0.81550391E+00  0.62075378E+00  0.61438113E-01
  0.68449609E+00  0.37924622E+00  0.56143812E+00
  0.18449609E+00  0.12075378E+00  0.43856188E+00
  0.31550391E+00  0.87924622E+00  0.93856188E+00
  0.87788649E+00  0.70167534E+00  0.10753550E+00
  0.62211351E+00  0.29832466E+00  0.60753552E+00
  0.12211351E+00  0.20167534E+00  0.39246448E+00
  0.37788649E+00  0.79832466E+00  0.89246448E+00
  0.68691648E+00  0.63162662E+00  0.10858124E+00
  0.81308352E+00  0.36837338E+00  0.60858121E+00
  0.31308352E+00  0.13162662E+00  0.39141876E+00
  0.18691648E+00  0.86837338E+00  0.89141879E+00
  0.24438201E+00  0.18882664E+00  0.14873525E+00
  0.25561799E+00  0.81117334E+00  0.64873522E+00
  0.75561796E+00  0.68882666E+00  0.35126475E+00
  0.74438204E+00  0.31117334E+00  0.85126478E+00
  0.23790166E+00  0.31670727E+00  0.22414548E+00
  0.26209834E+00  0.68329276E+00  0.72414548E+00
  0.76209834E+00  0.81670724E+00  0.27585452E+00
  0.73790166E+00  0.18329273E+00  0.77585452E+00
  0.45416081E+00  0.25126796E+00  0.28419008E+00
  0.45839186E-01  0.74873203E+00  0.78419008E+00
  0.54583919E+00  0.75126797E+00  0.21580992E+00
  0.95416081E+00  0.24873203E+00  0.71580992E+00
  0.64665644E+00  0.64815172E-01  0.26199614E+00
  0.85334356E+00  0.93518486E+00  0.76199614E+00
  0.35334356E+00  0.56481514E+00  0.23800386E+00
  0.14665644E+00  0.43518483E+00  0.73800386E+00
  0.64149309E+00  0.95483732E+00  0.18654801E+00
  0.85850691E+00  0.45162691E-01  0.68654799E+00
  0.35850691E+00  0.45483732E+00  0.31345201E+00
  0.14149309E+00  0.54516268E+00  0.81345201E+00
  0.56003453E+00  0.91730880E+00  0.11901185E+00
  0.93996547E+00  0.82691227E-01  0.61901187E+00
  0.43996547E+00  0.41730877E+00  0.38098813E+00
  0.60034526E-01  0.58269120E+00  0.88098813E+00
  0.31113255E+00  0.84270481E+00  0.70946727E-01
  0.18886745E+00  0.15729518E+00  0.57094671E+00
  0.68886748E+00  0.34270481E+00  0.42905329E+00
  0.81113252E+00  0.65729519E+00  0.92905329E+00
  0.20534036E+00  0.94913372E+00  0.10915653E+00
  0.29465963E+00  0.50866247E-01  0.60915655E+00
  0.79465963E+00  0.44913375E+00  0.39084348E+00
  0.70534037E+00  0.55086628E+00  0.89084345E+00
  0.29536665E+00  0.79526316E+00  0.13344213E+00
  0.20463335E+00  0.20473684E+00  0.63344215E+00
  0.70463332E+00  0.29526316E+00  0.36655788E+00
  0.79536668E+00  0.70473684E+00  0.86655785E+00
  0.91647095E+00  0.39879752E+00  0.54506697E-01
  0.58352905E+00  0.60120245E+00  0.55450671E+00
  0.83529048E-01  0.89879755E+00  0.44549329E+00
  0.41647095E+00  0.10120248E+00  0.94549329E+00
  0.98878470E+00  0.29817894E+00  0.98989693E-01
  0.51121530E+00  0.70182103E+00  0.59898971E+00
  0.11215296E-01  0.79817897E+00  0.40101029E+00
  0.48878470E+00  0.20182106E+00  0.90101029E+00
  0.74602187E-01  0.44964996E+00  0.85454874E-01
  0.42539781E+00  0.55035004E+00  0.58545486E+00
  0.92539781E+00  0.94964996E+00  0.41454514E+00
  0.57460219E+00  0.50350044E-01  0.91454514E+00
  0.54539440E+00  0.14540811E+00  0.75376292E-01
  0.95460560E+00  0.85459189E+00  0.57537628E+00
  0.45460560E+00  0.64540811E+00  0.42462372E+00
  0.45394401E-01  0.35459189E+00  0.92462372E+00
  0.35511420E+00  0.10543507E+00  0.60654930E-01
  0.14488580E+00  0.89456492E+00  0.56065492E+00
  0.64488580E+00  0.60543508E+00  0.43934508E+00
  0.85511420E+00  0.39456492E+00  0.93934508E+00
  0.49323795E+00  0.99030786E+00  0.42477789E-01
  0.67620480E-02  0.96921125E-02  0.54247777E+00
  0.50676208E+00  0.49030789E+00  0.45752220E+00
  0.99323792E+00  0.50969214E+00  0.95752223E+00
  0.97227097E+00  0.39701543E+00  0.87418241E-01
  0.52772903E+00  0.60298457E+00  0.58741823E+00
  0.27729026E-01  0.89701543E+00  0.41258177E+00
  0.47227097E+00  0.10298457E+00  0.91258177E+00
  0.45867123E+00  0.67175077E-01  0.72276767E-01
  0.41328773E-01  0.93282494E+00  0.57227677E+00
  0.54132877E+00  0.56717506E+00  0.42772323E+00
  0.95867123E+00  0.43282491E+00  0.92772323E+00
  0.87455405E+00  0.20274095E-01  0.99893850E+00
  0.62544595E+00  0.97972590E+00  0.49893850E+00
  0.12544595E+00  0.52027410E+00  0.50106150E+00
  0.37455405E+00  0.47972590E+00  0.10614964E-02
  0.86555774E+00  0.31559006E-01  0.92893191E-01
  0.63444226E+00  0.96844099E+00  0.59289318E+00
  0.13444226E+00  0.53155901E+00  0.40710682E+00
  0.36555774E+00  0.46844099E+00  0.90710682E+00
  0.12722646E+00  0.18156546E+00  0.74208623E-02
  0.37277354E+00  0.81843454E+00  0.50742088E+00
  0.87277354E+00  0.68156546E+00  0.49257912E+00
  0.62722646E+00  0.31843454E+00  0.99257912E+00
  0.13617655E+00  0.66737859E+00  0.52394014E-02