Bi6 Pb3 Se12                            
   1.00000000000000     
     2.1188904070993160   -3.6700258407663173    0.0000000000000013
     2.1188904070993195    3.6700258407663173   -0.0000000000000013
    -0.0000000000000033   -0.0000000000000083   42.3215852671303310
   Bi   Pb   Se
     6     3    12
Direct
  0.3333333333333357  0.6666666666666643  0.2436168527359074
  0.3333333333333357  0.6666666666666643  0.0897164805974282
  0.0000000000000000  0.0000000000000000  0.5769501860692359
  0.0000000000000000  0.0000000000000000  0.4230498139307634
  0.6666666666666643  0.3333333333333357  0.9102835194025716
  0.6666666666666643  0.3333333333333357  0.7563831472640927
  0.0000000000000000  0.0000000000000000  0.0000000000000000
  0.6666666666666643  0.3333333333333357  0.3333333333333357
  0.3333333333333357  0.6666666666666643  0.6666666666666643
  0.6666666666666643  0.3333333333333357  0.2075419609340106
  0.6666666666666643  0.3333333333333357  0.0440448446861554
  0.0000000000000000  0.0000000000000000  0.2892884886471804
  0.0000000000000000  0.0000000000000000  0.1257913723993251
  0.3333333333333357  0.6666666666666643  0.5408752942673397
  0.3333333333333357  0.6666666666666643  0.3773781780194910
  0.6666666666666643  0.3333333333333357  0.6226218219805084
  0.6666666666666643  0.3333333333333357  0.4591247057326607
  0.0000000000000000  0.0000000000000000  0.8742086276006754
  0.0000000000000000  0.0000000000000000  0.7107115113528202
  0.3333333333333357  0.6666666666666643  0.9559551553138441
  0.3333333333333357  0.6666666666666643  0.7924580390659889
 
  0.00000000E+00  0.00000000E+00  0.00000000E+00
  0.00000000E+00  0.00000000E+00  0.00000000E+00
  0.00000000E+00  0.00000000E+00  0.00000000E+00
  0.00000000E+00  0.00000000E+00  0.00000000E+00
  0.00000000E+00  0.00000000E+00  0.00000000E+00
  0.00000000E+00  0.00000000E+00  0.00000000E+00
  0.00000000E+00  0.00000000E+00  0.00000000E+00
  0.00000000E+00  0.00000000E+00  0.00000000E+00
  0.00000000E+00  0.00000000E+00  0.00000000E+00
  0.00000000E+00  0.00000000E+00  0.00000000E+00
  0.00000000E+00  0.00000000E+00  0.00000000E+00
  0.00000000E+00  0.00000000E+00  0.00000000E+00
  0.00000000E+00  0.00000000E+00  0.00000000E+00
  0.00000000E+00  0.00000000E+00  0.00000000E+00
  0.00000000E+00  0.00000000E+00  0.00000000E+00
  0.00000000E+00  0.00000000E+00  0.00000000E+00
  0.00000000E+00  0.00000000E+00  0.00000000E+00
  0.00000000E+00  0.00000000E+00  0.00000000E+00
  0.00000000E+00  0.00000000E+00  0.00000000E+00
  0.00000000E+00  0.00000000E+00  0.00000000E+00
  0.00000000E+00  0.00000000E+00  0.00000000E+00
