Ge Se                                   
   1.00000000000000     
    19.7402305603027344    0.0000000000000000    0.0000000000000000
     0.0000000000000000   19.7402305603027344    0.0000000000000000
     0.0000000000000000    0.0000000000000000   19.7402305603027344
   Ge   Se
   150   150
Direct
  0.5854660595769350  0.3466427534161052  0.7489029998794119
  0.4784525098498811  0.6913407842515555  0.6074750088615374
  0.6312485211371368  0.9367239102166623  0.0292897216636187
  0.9389377059758574  0.5216049007796920  0.9184173102004469
  0.8958798646095933  0.9357619071683135  0.6304344732674544
  0.9032287175050305  0.8297602282005677  0.4840453186702417
  0.5490311090632990  0.5191326211407762  0.7227330754112071
  0.9592759552337066  0.0994636785104635  0.5066831157418555
  0.4217275506957775  0.2444967689518101  0.0045123206207328
  0.7817821904044086  0.5939791626714871  0.5667138902932765
  0.3714738039075490  0.8245431266901274  0.7744550487434063
  0.6423940916004757  0.1632959448943331  0.6434588039196951
  0.0029598772549539  0.1443599488054584  0.3452053577354733
  0.1640889408602271  0.6086174802203833  0.0783040755343590
  0.1341031325370755  0.2189914727372062  0.3170247203396269
  0.6942155404243450  0.8501779050183677  0.4349670733752083
  0.2625836734373323  0.2662545857928094  0.1360904407350441
  0.7885521792501702  0.1665586614147148  0.4808745044174493
  0.1393890352249740  0.1887395072739036  0.0071126502939504
  0.3224698477054737  0.6457547076881166  0.2330415399377251
  0.5320525455154579  0.0314403643677096  0.0056612681612228
  0.0133325097436556  0.9333900063864162  0.2535572906886766
  0.2027687133407702  0.8018464652229041  0.9141595092994937
  0.8154106859951045  0.7856364169460863  0.1193473950966679
  0.1342078661868860  0.3669525114217164  0.4197398677839382
  0.4387776367861037  0.1763014545688261  0.7557489474309186
  0.9439380267972318  0.2512744249949325  0.6744732594644960
  0.9940278709345238  0.1061765270930929  0.2180530579930516
  0.3365877290652703  0.6594354955282478  0.5176968613737566
  0.9203267953540449  0.3943249135328417  0.4605858045911952
  0.5184844815868830  0.2606693967671669  0.8260364483374437
  0.0140758915704039  0.5579817855262861  0.6534412821146224
  0.4631508467284469  0.4729963291187814  0.5489936647238033
  0.2448500100019805  0.2791311859917868  0.2651721777322139
  0.5692959164282353  0.4092584995720376  0.0589470023602642
  0.5449157150992117  0.8481382801260886  0.6707422809153939
  0.7026471792365265  0.8904933710557045  0.5707052156042290
  0.8790215326289428  0.6369909346443294  0.8084353771906654
  0.2448553132381937  0.6006110935780657  0.7153679839747171
  0.7047745939315863  0.6612660173162952  0.3394999868956788
  0.3039310082399923  0.9379987577390523  0.4706580542597902
  0.5228774344537666  0.7095536678719456  0.0090219203681793
  0.5894912090227632  0.3961233404734595  0.4276596044786832
  0.6529633359870700  0.0585701759069201  0.5663583334974378
  0.9578882396466665  0.6182096468923883  0.0842069288543832
  0.9886595583247272  0.8451592333032775  0.1061939232050951
  0.8351192276706971  0.2791545635045316  0.0482343752480334
  0.4856171071401667  0.7744300044967640  0.2000932003694807
  0.4384763253481085  0.9130175760493834  0.9325396833767069
  0.0694442762588749  0.6768623651168337  0.6716441317705081
  0.9173653916882473  0.3330404272259767  0.8764739760396952
  0.1964914669981233  0.5105513232558259  0.9807822982799971
  0.5430059546232534  0.8660140330081674  0.3055537274243950
  0.0211778950175974  0.9431910894858689  0.7094391528234696
  0.7552253867956724  0.3118572503765267  0.3487042648719908
  0.9850932877256554  0.5835141660631501  0.5283347513921595
  0.2432689668115368  0.4666885638964194  0.5222028794537037
  0.5693948262293644  0.5592219139173191  0.5521380659515989
  0.0481036096537752  0.4981886214854323  0.3512627191167292
  0.1088099117756427  0.0815823068777650  0.1591125969542436
  0.6020611166933906  0.4291540791418845  0.6426113174878326
  0.5603924682964448  0.0412609343793551  0.8152853210510386
  0.9719033603593166  0.0456946933771665  0.9049044960321296
  0.3093880154627068  0.4259628468451466  0.1366004158702553
  0.0546261921965855  0.0666803446959580  0.6169768037079744
  0.0465672968154484  0.8322458593372838  0.5298977477668819
  0.7392554083052091  0.5690293353024346  0.7616422946788839
  0.6848176806031463  0.2211552060473660  0.7540620962069884
  0.4995402965850531  0.8254510271910589  0.8474321255647608
  0.7626828682948904  0.7402063502779143  0.2486392296409366
  0.0134618248227253  0.4257379281011535  0.6487803796887794
  0.8454091830258514  0.1533036710529767  0.6674637740668034
  0.8153867540420594  0.0808783161827109  0.1154724201738565
  0.3168836223898121  0.9767499774281586  0.7112264972305704
  0.8334959630031976  0.1633409778903289  0.3563296438194529
  0.1257506647611491  0.3597734341727656  0.6236032960279393
  0.2687789962272472  0.0013481984151587  0.8572432171702340
  0.9326818661732114  0.4020524230921582  0.1409537091081819
  0.4824978854451110  0.3059432930583840  0.6415333158471670
  0.7824220210652261  0.1229904571741820  0.2443767446666642
  0.1107015801136814  0.9821515307920026  0.9952000846533643
  0.0985192283536126  0.7853089331803472  0.0681560873493002
  0.4730290509012464  0.5034237144148370  0.2678441390258999
  0.3063635412960325  0.8465762546279698  0.5957339983524561
  0.6640508125277648  0.3118505992975553  0.9312377440456764
  0.4825281189744600  0.8518205189093243  0.4494593958506506
  0.7004259915535566  0.0702088398632227  0.4418341796373356
  0.7468314908871507  0.4408755969203414  0.5288037272292516
  0.2769218300453851  0.2431640992916497  0.5874025917856527
  0.8730384734199759  0.9004384095004185  0.8401684952484263
  0.0752371429882911  0.6200600348793722  0.9504436013013694
  0.7908803924630408  0.9466216946132758  0.3158747199866372
  0.4712127167696080  0.9099920284201950  0.1323436253969682
  0.1077259580607027  0.8818284649404352  0.4182503365095886
  0.7320925506584547  0.3462495445495050  0.1023213731353559
  0.4794097738767395  0.3021570989900082  0.2409533461401780
  0.2151686884850718  0.9626067727504118  0.0774028581257588
  0.6151635170444827  0.1664244506385110  0.3057952189181223
  0.3648195198274141  0.9410387822393634  0.0379608815413417
  0.3877168730313351  0.9198145483177108  0.2315603911584788
  0.1366900564893025  0.6720671068860887  0.5618930967590495
  0.3387724717516461  0.7559138703766035  0.0982738503416788
  0.4615139144326505  0.9518781456038178  0.5346868007523007
  0.4731582135478222  0.4440233635365327  0.3804734415824339
  0.9331106634624768  0.9649654186483694  0.0762218453779498
  0.1543726899553868  0.9964549267732010  0.5743778509862124
  0.8437007516834361  0.7108632757760660  0.4387424014739159
  0.4414791231381362  0.4274470224791384  0.9234027547686179
  0.5526000255314756  0.0286783519350931  0.2869380501057546
  0.0889265726842169  0.0947930043894111  0.8342636323460840
  0.6196705021905149  0.7146235478225226  0.4268629100033008
  0.2313389380308686  0.2132303074044365  0.4065464549758595
  0.3924055511985811  0.6613499878349640  0.9025191556644294
  0.6951247978460906  0.8069842416070193  0.9796981436143005
  0.6508386270699285  0.3298150694653486  0.5258250711159980
  0.4361599747928377  0.6991615658751457  0.4320812691483154
  0.1604957226631721  0.3431275989284528  0.9066003600251070
  0.1111379477311528  0.1780375433113929  0.6385910022549141
  0.6267778167447511  0.1627621076784028  0.1294091183342067
  0.1025710219227590  0.4713374139840315  0.1937438576171328
  0.2799129492022805  0.1090914482774353  0.2284664171151432
  0.0527104958284798  0.2895882340707929  0.9928519666175006
  0.9829321882866097  0.2807676717908976  0.1075978874418610
  0.6537471796856940  0.5121714618895080  0.8982261960078225
  0.1094640240417759  0.3553988085380099  0.2602631874196285
  0.8882618610825835  0.7730392591228765  0.2907385985806421
  0.0014860713579121  0.4185351004525579  0.9717763897835302
  0.2717880596164252  0.3915074759358556  0.9686838278901766
  0.4887535198521268  0.5879039904865175  0.0506822128761665
  0.6919361595714777  0.1016872159748513  0.9816098114898925
  0.8537381536683588  0.1723194169400735  0.8534404350848602
  0.8758498341920823  0.4535826710179021  0.7503492234982145
  0.2881696569350682  0.3945323663414115  0.3199883229039125
  0.3872341615949348  0.3933122135025887  0.7283771064748241
  0.2730733262537291  0.8850947923094686  0.3443472841676605
  0.6586818684692577  0.6984752198059734  0.1536344341918935
  0.2212183324910745  0.4280912314763614  0.7437162731806169
  0.5612985202238877  0.5924142213413932  0.2427795625215525
  0.9512193285676558  0.7944409217380264  0.8530906486863705
  0.2710021232318228  0.6887709830630273  0.9358064119296047
  0.9500499292444783  0.5153722876928218  0.4290192548307580
  0.8071035605154274  0.9513718140355277  0.9404649602837372
  0.8042422372319127  0.3737620579819668  0.6732305069234928
 -0.0054935967606100  0.7856351236973539  0.6750244269126026
  0.7890925519844717  0.5225715656010488  0.0710063912801388
  0.6377079248535292  0.6934345734072280  0.6274683515914686
  0.8640533586802830  0.4757441545170925  0.2294248268510060
  0.9852016079436737  0.2791174688132478  0.4294237743864346
  0.3144575875797468  0.1682461016187613  0.9287245379916228
  0.8960060642006522  0.5790168629277850  0.3271457935469876
  0.7393270768582345  0.7050479994133724  0.0535364424864964
  0.1047878821644892  0.4592059283561059  0.9066156379902136
  0.5362030652816284  0.6148522938037821  0.4366697803182817
  0.8214241367972102  0.8371517050945967  0.5824432164125870
  0.5231298632818457  0.4168229345230835  0.2009337477844258
  0.2137913830512637  0.8342753380370760  0.0432069302057064
  0.7533410399141817  0.6616773647719665  0.6749491175545232
  0.1920939157958272  0.6012000364180029  0.8896534327339729
  0.0818554727611601  0.7479051947229329  0.9499110543927214
  0.8562104098212259  0.5867637011092586  0.1634327781908142
  0.5343660313786776  0.5190855585701589  0.9466948359458842
  0.5556614818129244  0.2760504646736049  0.3510355908199043
  0.4755112897020664  0.1928436926437859  0.4005911920898733
  0.2229947820505335  0.1847396080863924  0.6850891449338298
  0.6715583806821753  0.3971050504838479  0.8332588649383716
  0.5558702200559512  0.1035426247503802  0.4094966979906469
  0.4115830166861588  0.7658384609763581  0.9841551594596225
  0.2749661442028318  0.0135725328442989  0.5964371719710322
  0.8673481596489897  0.4204277991927026  0.0349252261196708
  0.5176856472764260  0.3307313583279342  0.9653140757355441
  0.7157775257354907  0.4777287558943614  0.6699142095768738
  0.8610681597744381  0.2801542683421688  0.7712816740624460
  0.5946943876863356  0.7472494993534021  0.9139738635469001
  0.3597484305158876  0.6379012049365144  0.3539933556215019
  0.7544041245504058  0.2172064971036410  0.6049412056575959
  0.9856213053563563  0.2278025680083979  0.9084226374794736
  0.6515784198304061  0.3816153273089783  0.3194731530426662
 -0.0004475093507906  0.8101546446050882  0.2300665171788411
  0.2656132285530753  0.7210848159840281  0.4368720333865997
  0.8141509614688883  0.9074107411336858  0.0595325564987444
  0.4400812914737311  0.0320115275832505  0.0928742012031618
  0.0510685965112202  0.8378808939068539  0.7799609112303432
  0.0833921459862537  0.2609443223536322  0.1767369731575913
  0.3848506198464214  0.4999680449690614  0.6488624337910789
  0.3816234917618925  0.2960584063700941  0.1176201915602133
  0.0412560437128588  0.2053770986615389  0.7393486152261196
  0.9896901101582186  0.4131291573568235  0.7704227225265936
  0.6953547426840294  0.2463854905498160  0.4407345631609315
  0.4593856969926953  0.0378835812813943  0.9006133148263610
  0.8914085155224892  0.5676321148115759  0.6950231654828267
  0.6851601814499190  0.9626989020990430  0.9145848845050714
  0.7205628043078142  0.9908187178788130  0.6452213143602590
  0.2364379789826167  0.5925632099118674  0.5765756837994238
  0.8918617533954161  0.6679591044620807  0.5495969467126808
  0.3234357427187182  0.8827251693917993  0.8835517818823804
  0.0962107069064708  0.9531497654706124  0.1660626499783070
  0.6694026338872167  0.5563380869918121  0.2854678720047734
  0.1691829125812786  0.4772602974365671  0.3607725104257631
  0.1215898747795596  0.8843360916684622  0.6191706585546501
  0.7996607082313242  0.2783108988120777  0.9246197995929165
  0.1821595485155265  0.9793841698488465  0.4516713990853968
  0.5529555951494529  0.7090062183056572  0.2842661295829944
  0.6909446037054853  0.0508550517057766  0.2943324213352392
  0.1962731047737157  0.7747018343565442  0.5260889152565001
  0.0921769378965422  0.2632316365537045  0.5509821227810986
  0.2833038767462867  0.6452110537298387  0.0580820654344343
  0.1736223978380584  0.3245412398897013  0.7831913557851894
  0.5673059874375694  0.1509570162732062  0.0111818534670432
  0.6093909687548567  0.1777435630970914  0.8470314848240589
  0.2497423815411192  0.1485008701588446  0.5061203528891910
  0.8944830382841603  0.7483189330905149  0.7450923327376515
  0.1167646926544216  0.4435098884732238  0.5254477938043729
  0.0004270519806746  0.5982521843603656  0.8373779557835391
  0.2083505521824064  0.5289964724636923  0.1663801069538335
  0.9664056238751504  0.9366699545971913  0.5204940320756354
  0.4265784756847332  0.6723090616139107  0.1541992414456635
  0.1448495700728159  0.5183146936477306  0.7251902806848862
  0.4387101791733947  0.3537543841115102  0.5356932810516007
  0.8049645778963885  0.4176171914737787  0.4162643178239095
  0.2027308745244580  0.3540819046567439  0.0713593025138084
  0.4135946284424862  0.9093597834369750  0.6453278228510573
  0.6677420448159638  0.8138037213706600  0.6677180123018793
  0.4073396090089239  0.3448487865272155  0.3418868963074072
  0.8539731659131438  0.0663639679553787  0.9620052746510972
  0.7289017643177373  0.7944489490960506  0.8018138419710028
  0.7677307823037227  0.9602462368826633  0.4438085585420254
  0.9527499441525662  0.6948716425608855  0.3648340762772797
  0.7092366866103160  0.2244632503092959  0.2397613361150439
  0.5106356922954505  0.7367764422138470  0.7228464306383395
  0.6160702007660185  0.3037965296782694  0.1230069016517044
  0.8770149721174801  0.6049828900352772  0.9840550156098680
  0.3578863994269142  0.5197128665093536  0.2294833625828801
  0.9976875826487835  0.3915231355703702  0.3070859168613524
  0.2599131054856125  0.8591024837341618  0.7160466373291428
  0.3171242328270656  0.4645794209654859  0.8096825409889706
  0.9187808399362680  0.1760612429268528  0.1458084393505713
  0.8359689538304141  0.4757084440613928  0.8647965678135243
  0.9054605499623557  0.0657722050315021  0.3895162484143750
  0.7466636566173656  0.4424719205653166  0.1814743357830400
  0.5969313151180512  0.5837412111074113  0.1214885550443374
  0.6909803681162306  0.4171421376640961  0.0049848130396597
  0.9233116808992681  0.0043228152212646  0.7911321516894192
  0.4475166882434566  0.5878930201360739  0.7102393223307490
  0.5658656057883175  0.9740016814588748  0.5977965442627902
  0.3520366594660955  0.7259308025345551  0.6229745384597076
  0.2850209489524375  0.0280428777534507  0.9836997237959526
  0.6169526722801384  0.5930274765656023  0.7943351970768892
  0.3333000948946632  0.1376307293364941  0.8059220348422278
  0.1198423378716714  0.0284189884716725  0.7259753644845174
  0.0567659515275844  0.0933186037825856  0.0192182352057391
  0.3461055977692766  0.3026876117807122  0.9161903543966932
  0.1653061054321684  0.0990833109162451  0.2819807968524645
  0.5742444082894773  0.7799139024006864  0.1015152381953221
  0.4217259743735985  0.0664007932566894  0.5105127949643805
  0.7762395986596826  0.9007113331104640  0.7648573633843850
  0.5903814623570098  0.9225439031188200  0.4140249775748852
  0.3492778963713377  0.8111715630848392  0.2756386871398240
  0.0233508440410420  0.4762649277459919  0.0900644947669573
  0.3919991848898863  0.5024097696739639  0.4519313997935154
  0.7667406925184648  0.1185960790380911  0.7656634647261714
  0.8915981951358074  0.8750963318644062  0.3605152843360947
  0.5419817518631211  0.7931452441792013  0.5459504528219088
  0.4511287282297116  0.9584161588847104  0.3318087690121744
  0.2604378185274769  0.3359440959340327  0.4369207646797735
  0.5223090541017826  0.1348459791528510  0.2222029202847598
  0.7520915983880687  0.1814567924131633  0.0702372469129620
  0.9229886423669541  0.2445297595894069  0.3203842302489422
  0.3258263536614202  0.1921213777321504  0.3190473401123194
  0.9171847719002184  0.0028786346359313  0.2198183527663928
  0.4993235160679807  0.0795289849973445  0.7121492607896326
  0.1424608447069340  0.9751524708364863  0.8747365595723071
  0.2684562537939789  0.3932563496060014  0.6311942580789501
  0.5702376412688326  0.2390132819358942  0.5699930030248085
  0.8966907880913505  0.4204049313786359  0.5867056810868727
  0.9086010563597575  0.2184530589862886  0.5152903046280939
  0.3480059607611318  0.0467239371606106  0.4187120876382925
  0.7925864257099754  0.5961199985119936  0.4033610182020101
  0.2382093900601198  0.1588548331255652  0.0815606186874981
  0.9223149641651434  0.7480304510420968  0.0603096079405741
  0.1674026045394545  0.8244505156294780  0.3271297729052044
  0.5666654051442056  0.9097539160472141  0.7864567232852469
  0.7078053203754296  0.6942013861755465  0.5193080318898952
  0.7092377093699245  0.8448997315913990  0.2937389359354264
  0.7912190226574032  0.7700299435357262  0.9025683466571904
  0.3310425405236876  0.7093987443540418  0.8011442889201043
  0.6832028023895168  0.0354776957444052  0.0946568695346328
  0.1889531378094112  0.1786042059952423  0.8923543905998674
  0.4945461510610225  0.4280695581698714  0.7947131807450121
  0.8592824002650348  0.0575545225261021  0.5806449340260974
  0.1675561111341680  0.6987402371345455  0.7390075562101452
  0.4013206077275133  0.2088826475137901  0.6385048272551407
  0.2775035766495904  0.9741627669104405  0.2436820296924937
  0.3562024244424838  0.4716645323045326  0.0269896928371780
  0.0420173561179578  0.5667327679610805  0.2487604574451140
  0.1112528230975620  0.6974363907666442  0.1506523866609800
  0.0743687981060630  0.6390837319739812  0.4639294420184801
  0.0481145801130699  0.9763062414371403  0.3590977947581618
 -0.0013766288763893  0.9274983309483811  0.9607596456881701
  0.5774314272769273  0.9361384107014810  0.1975839810840023
  0.6513354103674899  0.5024710446418356  0.4673548800868091
 
  0.00000000E+00  0.00000000E+00  0.00000000E+00
  0.00000000E+00  0.00000000E+00  0.00000000E+00
  0.00000000E+00  0.00000000E+00  0.00000000E+00
  0.00000000E+00  0.00000000E+00  0.00000000E+00
  0.00000000E+00  0.00000000E+00  0.00000000E+00
  0.00000000E+00  0.00000000E+00  0.00000000E+00
  0.00000000E+00  0.00000000E+00  0.00000000E+00
  0.00000000E+00  0.00000000E+00  0.00000000E+00
  0.00000000E+00  0.00000000E+00  0.00000000E+00
  0.00000000E+00  0.00000000E+00  0.00000000E+00
  0.00000000E+00  0.00000000E+00  0.00000000E+00
  0.00000000E+00  0.00000000E+00  0.00000000E+00
  0.00000000E+00  0.00000000E+00  0.00000000E+00
  0.00000000E+00  0.00000000E+00  0.00000000E+00
  0.00000000E+00  0.00000000E+00  0.00000000E+00
  0.00000000E+00  0.00000000E+00  0.00000000E+00
  0.00000000E+00  0.00000000E+00  0.00000000E+00
  0.00000000E+00  0.00000000E+00  0.00000000E+00
  0.00000000E+00  0.00000000E+00  0.00000000E+00
  0.00000000E+00  0.00000000E+00  0.00000000E+00
  0.00000000E+00  0.00000000E+00  0.00000000E+00
  0.00000000E+00  0.00000000E+00  0.00000000E+00
  0.00000000E+00  0.00000000E+00  0.00000000E+00
  0.00000000E+00  0.00000000E+00  0.00000000E+00
  0.00000000E+00  0.00000000E+00  0.00000000E+00
  0.00000000E+00  0.00000000E+00  0.00000000E+00
  0.00000000E+00  0.00000000E+00  0.00000000E+00
  0.00000000E+00  0.00000000E+00  0.00000000E+00
  0.00000000E+00  0.00000000E+00  0.00000000E+00
  0.00000000E+00  0.00000000E+00  0.00000000E+00
  0.00000000E+00  0.00000000E+00  0.00000000E+00
  0.00000000E+00  0.00000000E+00  0.00000000E+00
  0.00000000E+00  0.00000000E+00  0.00000000E+00
  0.00000000E+00  0.00000000E+00  0.00000000E+00
  0.00000000E+00  0.00000000E+00  0.00000000E+00
  0.00000000E+00  0.00000000E+00  0.00000000E+00
  0.00000000E+00  0.00000000E+00  0.00000000E+00
  0.00000000E+00  0.00000000E+00  0.00000000E+00
  0.00000000E+00  0.00000000E+00  0.00000000E+00
  0.00000000E+00  0.00000000E+00  0.00000000E+00
  0.00000000E+00  0.00000000E+00  0.00000000E+00
  0.00000000E+00  0.00000000E+00  0.00000000E+00
  0.00000000E+00  0.00000000E+00  0.00000000E+00
  0.00000000E+00  0.00000000E+00  0.00000000E+00
  0.00000000E+00  0.00000000E+00  0.00000000E+00
  0.00000000E+00  0.00000000E+00  0.00000000E+00
  0.00000000E+00  0.00000000E+00  0.00000000E+00
  0.00000000E+00  0.00000000E+00  0.00000000E+00
  0.00000000E+00  0.00000000E+00  0.00000000E+00
  0.00000000E+00  0.00000000E+00  0.00000000E+00
  0.00000000E+00  0.00000000E+00  0.00000000E+00
  0.00000000E+00  0.00000000E+00  0.00000000E+00
  0.00000000E+00  0.00000000E+00  0.00000000E+00
  0.00000000E+00  0.00000000E+00  0.00000000E+00
  0.00000000E+00  0.00000000E+00  0.00000000E+00
  0.00000000E+00  0.00000000E+00  0.00000000E+00
  0.00000000E+00  0.00000000E+00  0.00000000E+00
  0.00000000E+00  0.00000000E+00  0.00000000E+00
  0.00000000E+00  0.00000000E+00  0.00000000E+00
  0.00000000E+00  0.00000000E+00  0.00000000E+00
  0.00000000E+00  0.00000000E+00  0.00000000E+00
  0.00000000E+00  0.00000000E+00  0.00000000E+00
  0.00000000E+00  0.00000000E+00  0.00000000E+00
  0.00000000E+00  0.00000000E+00  0.00000000E+00
  0.00000000E+00  0.00000000E+00  0.00000000E+00
  0.00000000E+00  0.00000000E+00  0.00000000E+00
  0.00000000E+00  0.00000000E+00  0.00000000E+00
  0.00000000E+00  0.00000000E+00  0.00000000E+00
  0.00000000E+00  0.00000000E+00  0.00000000E+00
  0.00000000E+00  0.00000000E+00  0.00000000E+00
  0.00000000E+00  0.00000000E+00  0.00000000E+00
  0.00000000E+00  0.00000000E+00  0.00000000E+00
  0.00000000E+00  0.00000000E+00  0.00000000E+00
  0.00000000E+00  0.00000000E+00  0.00000000E+00
  0.00000000E+00  0.00000000E+00  0.00000000E+00
  0.00000000E+00  0.00000000E+00  0.00000000E+00
  0.00000000E+00  0.00000000E+00  0.00000000E+00
  0.00000000E+00  0.00000000E+00  0.00000000E+00
  0.00000000E+00  0.00000000E+00  0.00000000E+00
  0.00000000E+00  0.00000000E+00  0.00000000E+00
  0.00000000E+00  0.00000000E+00  0.00000000E+00
  0.00000000E+00  0.00000000E+00  0.00000000E+00
  0.00000000E+00  0.00000000E+00  0.00000000E+00
  0.00000000E+00  0.00000000E+00  0.00000000E+00
  0.00000000E+00  0.00000000E+00  0.00000000E+00
  0.00000000E+00  0.00000000E+00  0.00000000E+00
  0.00000000E+00  0.00000000E+00  0.00000000E+00
  0.00000000E+00  0.00000000E+00  0.00000000E+00
  0.00000000E+00  0.00000000E+00  0.00000000E+00
  0.00000000E+00  0.00000000E+00  0.00000000E+00
  0.00000000E+00  0.00000000E+00  0.00000000E+00
  0.00000000E+00  0.00000000E+00  0.00000000E+00
  0.00000000E+00  0.00000000E+00  0.00000000E+00
  0.00000000E+00  0.00000000E+00  0.00000000E+00
  0.00000000E+00  0.00000000E+00  0.00000000E+00
  0.00000000E+00  0.00000000E+00  0.00000000E+00
  0.00000000E+00  0.00000000E+00  0.00000000E+00
  0.00000000E+00  0.00000000E+00  0.00000000E+00
  0.00000000E+00  0.00000000E+00  0.00000000E+00
  0.00000000E+00  0.00000000E+00  0.00000000E+00
  0.00000000E+00  0.00000000E+00  0.00000000E+00
  0.00000000E+00  0.00000000E+00  0.00000000E+00
  0.00000000E+00  0.00000000E+00  0.00000000E+00
  0.00000000E+00  0.00000000E+00  0.00000000E+00
  0.00000000E+00  0.00000000E+00  0.00000000E+00
  0.00000000E+00  0.00000000E+00  0.00000000E+00
  0.00000000E+00  0.00000000E+00  0.00000000E+00
  0.00000000E+00  0.00000000E+00  0.00000000E+00
  0.00000000E+00  0.00000000E+00  0.00000000E+00
  0.00000000E+00  0.00000000E+00  0.00000000E+00
  0.00000000E+00  0.00000000E+00  0.00000000E+00
  0.00000000E+00  0.00000000E+00  0.00000000E+00
  0.00000000E+00  0.00000000E+00  0.00000000E+00
  0.00000000E+00  0.00000000E+00  0.00000000E+00
  0.00000000E+00  0.00000000E+00  0.00000000E+00
  0.00000000E+00  0.00000000E+00  0.00000000E+00
  0.00000000E+00  0.00000000E+00  0.00000000E+00
  0.00000000E+00  0.00000000E+00  0.00000000E+00
  0.00000000E+00  0.00000000E+00  0.00000000E+00
  0.00000000E+00  0.00000000E+00  0.00000000E+00
  0.00000000E+00  0.00000000E+00  0.00000000E+00
  0.00000000E+00  0.00000000E+00  0.00000000E+00
  0.00000000E+00  0.00000000E+00  0.00000000E+00
  0.00000000E+00  0.00000000E+00  0.00000000E+00
  0.00000000E+00  0.00000000E+00  0.00000000E+00
  0.00000000E+00  0.00000000E+00  0.00000000E+00
  0.00000000E+00  0.00000000E+00  0.00000000E+00
  0.00000000E+00  0.00000000E+00  0.00000000E+00
  0.00000000E+00  0.00000000E+00  0.00000000E+00
  0.00000000E+00  0.00000000E+00  0.00000000E+00
  0.00000000E+00  0.00000000E+00  0.00000000E+00
  0.00000000E+00  0.00000000E+00  0.00000000E+00
  0.00000000E+00  0.00000000E+00  0.00000000E+00
  0.00000000E+00  0.00000000E+00  0.00000000E+00
  0.00000000E+00  0.00000000E+00  0.00000000E+00
  0.00000000E+00  0.00000000E+00  0.00000000E+00
  0.00000000E+00  0.00000000E+00  0.00000000E+00
  0.00000000E+00  0.00000000E+00  0.00000000E+00
  0.00000000E+00  0.00000000E+00  0.00000000E+00
  0.00000000E+00  0.00000000E+00  0.00000000E+00
  0.00000000E+00  0.00000000E+00  0.00000000E+00
  0.00000000E+00  0.00000000E+00  0.00000000E+00
  0.00000000E+00  0.00000000E+00  0.00000000E+00
  0.00000000E+00  0.00000000E+00  0.00000000E+00
  0.00000000E+00  0.00000000E+00  0.00000000E+00
  0.00000000E+00  0.00000000E+00  0.00000000E+00
  0.00000000E+00  0.00000000E+00  0.00000000E+00
  0.00000000E+00  0.00000000E+00  0.00000000E+00
  0.00000000E+00  0.00000000E+00  0.00000000E+00
  0.00000000E+00  0.00000000E+00  0.00000000E+00
  0.00000000E+00  0.00000000E+00  0.00000000E+00
  0.00000000E+00  0.00000000E+00  0.00000000E+00
  0.00000000E+00  0.00000000E+00  0.00000000E+00
  0.00000000E+00  0.00000000E+00  0.00000000E+00
  0.00000000E+00  0.00000000E+00  0.00000000E+00
  0.00000000E+00  0.00000000E+00  0.00000000E+00
  0.00000000E+00  0.00000000E+00  0.00000000E+00
  0.00000000E+00  0.00000000E+00  0.00000000E+00
  0.00000000E+00  0.00000000E+00  0.00000000E+00
  0.00000000E+00  0.00000000E+00  0.00000000E+00
  0.00000000E+00  0.00000000E+00  0.00000000E+00
  0.00000000E+00  0.00000000E+00  0.00000000E+00
  0.00000000E+00  0.00000000E+00  0.00000000E+00
  0.00000000E+00  0.00000000E+00  0.00000000E+00
  0.00000000E+00  0.00000000E+00  0.00000000E+00
  0.00000000E+00  0.00000000E+00  0.00000000E+00
  0.00000000E+00  0.00000000E+00  0.00000000E+00
  0.00000000E+00  0.00000000E+00  0.00000000E+00
  0.00000000E+00  0.00000000E+00  0.00000000E+00
  0.00000000E+00  0.00000000E+00  0.00000000E+00
  0.00000000E+00  0.00000000E+00  0.00000000E+00
  0.00000000E+00  0.00000000E+00  0.00000000E+00
  0.00000000E+00  0.00000000E+00  0.00000000E+00
  0.00000000E+00  0.00000000E+00  0.00000000E+00
  0.00000000E+00  0.00000000E+00  0.00000000E+00
  0.00000000E+00  0.00000000E+00  0.00000000E+00
  0.00000000E+00  0.00000000E+00  0.00000000E+00
  0.00000000E+00  0.00000000E+00  0.00000000E+00
  0.00000000E+00  0.00000000E+00  0.00000000E+00
  0.00000000E+00  0.00000000E+00  0.00000000E+00
  0.00000000E+00  0.00000000E+00  0.00000000E+00
  0.00000000E+00  0.00000000E+00  0.00000000E+00
  0.00000000E+00  0.00000000E+00  0.00000000E+00
  0.00000000E+00  0.00000000E+00  0.00000000E+00
  0.00000000E+00  0.00000000E+00  0.00000000E+00
  0.00000000E+00  0.00000000E+00  0.00000000E+00
  0.00000000E+00  0.00000000E+00  0.00000000E+00
  0.00000000E+00  0.00000000E+00  0.00000000E+00
  0.00000000E+00  0.00000000E+00  0.00000000E+00
  0.00000000E+00  0.00000000E+00  0.00000000E+00
  0.00000000E+00  0.00000000E+00  0.00000000E+00
  0.00000000E+00  0.00000000E+00  0.00000000E+00
  0.00000000E+00  0.00000000E+00  0.00000000E+00
  0.00000000E+00  0.00000000E+00  0.00000000E+00
  0.00000000E+00  0.00000000E+00  0.00000000E+00
  0.00000000E+00  0.00000000E+00  0.00000000E+00
  0.00000000E+00  0.00000000E+00  0.00000000E+00
  0.00000000E+00  0.00000000E+00  0.00000000E+00
  0.00000000E+00  0.00000000E+00  0.00000000E+00
  0.00000000E+00  0.00000000E+00  0.00000000E+00
  0.00000000E+00  0.00000000E+00  0.00000000E+00
  0.00000000E+00  0.00000000E+00  0.00000000E+00
  0.00000000E+00  0.00000000E+00  0.00000000E+00
  0.00000000E+00  0.00000000E+00  0.00000000E+00
  0.00000000E+00  0.00000000E+00  0.00000000E+00
  0.00000000E+00  0.00000000E+00  0.00000000E+00
  0.00000000E+00  0.00000000E+00  0.00000000E+00
  0.00000000E+00  0.00000000E+00  0.00000000E+00
  0.00000000E+00  0.00000000E+00  0.00000000E+00
  0.00000000E+00  0.00000000E+00  0.00000000E+00
  0.00000000E+00  0.00000000E+00  0.00000000E+00
  0.00000000E+00  0.00000000E+00  0.00000000E+00
  0.00000000E+00  0.00000000E+00  0.00000000E+00
  0.00000000E+00  0.00000000E+00  0.00000000E+00
  0.00000000E+00  0.00000000E+00  0.00000000E+00
  0.00000000E+00  0.00000000E+00  0.00000000E+00
  0.00000000E+00  0.00000000E+00  0.00000000E+00
  0.00000000E+00  0.00000000E+00  0.00000000E+00
  0.00000000E+00  0.00000000E+00  0.00000000E+00
  0.00000000E+00  0.00000000E+00  0.00000000E+00
  0.00000000E+00  0.00000000E+00  0.00000000E+00
  0.00000000E+00  0.00000000E+00  0.00000000E+00
  0.00000000E+00  0.00000000E+00  0.00000000E+00
  0.00000000E+00  0.00000000E+00  0.00000000E+00
  0.00000000E+00  0.00000000E+00  0.00000000E+00
  0.00000000E+00  0.00000000E+00  0.00000000E+00
  0.00000000E+00  0.00000000E+00  0.00000000E+00
  0.00000000E+00  0.00000000E+00  0.00000000E+00
  0.00000000E+00  0.00000000E+00  0.00000000E+00
  0.00000000E+00  0.00000000E+00  0.00000000E+00
  0.00000000E+00  0.00000000E+00  0.00000000E+00
  0.00000000E+00  0.00000000E+00  0.00000000E+00