Ge Se                                   
   1.00000000000000     
    19.7402305603027344    0.0000000000000000    0.0000000000000000
     0.0000000000000000   19.7402305603027344    0.0000000000000000
     0.0000000000000000    0.0000000000000000   19.7402305603027344
   Ge   Se
   150   150
Direct
  0.4190668110455234  0.1414519874366858  0.4143444823477600
  0.3925006345000773  0.8742300013188435  0.1931052046113083
  0.0007294597996361  0.1254045027233754  0.5003968613408379
  0.9295512097844709  0.5946527307462154  0.9377705464014863
  0.2363451398432819  0.6910133904158885  0.4667863607983889
  0.0959105337289152  0.6498374509093950  0.7114935922931406
  0.0838405238237539  0.9449715523800570  0.6320233493865335
  0.8740097490417129  0.4448821044053115  0.5867877692745230
  0.6827523802918424  0.9445450557860690  0.1407559725594223
  0.7020728433305282  0.3204311428107325  0.8540550075236307
  0.6137224385046085  0.4709908443683993  0.9532887546640183
  0.4770131713133747  0.0473698560004010  0.8823174430902494
  0.3553098485389820  0.3327590383537812  0.9702039550612248
  0.7171177407118747  0.8457448014264946  0.6693285139492410
  0.8711410547390780  0.2893651708596578  0.1213823366946716
  0.0158435538921641 -0.0061915127493677  0.8408270689829392
  0.2255205341599665  0.8264837748480729  0.4109542692806749
  0.7597696954482055  0.4232267933835119  0.3724040029523912
  0.0447983058848706  0.7542386043961848  0.6580071735296013
  0.6006074313942453  0.5703208647397062  0.7697050026047826
  0.9695931226132817  0.3298396237990290  0.4381530960187719
  0.8189035047575975  0.1092828355712037  0.4855177218843489
  0.5953412871628287  0.2957381991366716  0.1743501855011627
  0.2642134040620707  0.9113451602154271  0.6838332531609113
  0.0801810257099980  0.7453876865822500  0.5313422595321100
  0.8983912790314225  0.9863310535772994  0.9046501157515570
  0.5909414364806119  0.7667520324003414  0.5506142930070973
 -0.0022128454790655  0.7627382271549661  0.8271719837823751
  0.6789301795128672  0.4639313626243960  0.1933240415046236
  0.2493750388070982  0.7908872389915542  0.6054200747517526
  0.9387381128951515  0.1242728725393363  0.0344365286228923
  0.6634925280407321  0.4371280738321589  0.5751084737518795
  0.9085865934822168  0.6248420435830948  0.1929412911113210
  0.4164420458664876  0.5756077418130882  0.3502346754805651
  0.1399094896385479  0.9715487060807291  0.3807897579218456
  0.2596400899173940  0.1632075399722838  0.0432312069708782
  0.1625291530277949  0.2906677940858550  0.9044342873135057
  0.2420953532265878  0.6685765247242180  0.0202044417730471
  0.3971647372096087  0.1513063584739958  0.9393091933863548
  0.5089587679081099  0.0437265245442365  0.2694850284749536
  0.4829524259029641  0.9877605272155654  0.0905909212957681
  0.6276891933001495  0.7700305608277823  0.7320467716263888
  0.0055901491210075  0.1328598693781118  0.7178945413781426
  0.2955601644779906  0.4101368648901964  0.6992018664368432
  0.9683674328568651  0.6844766822485913  0.3765878194007029
  0.1853491827960059  0.1387889147517164  0.4194876890822660
  0.0907174852194478  0.1961591888628483  0.8020009848457833
  0.7072074320406095  0.1226501599570643  0.5756528429739900
  0.0323915689970319  0.5247220488390745  0.5255079043835894
  0.4165507394630035  0.2741079293979238  0.4403473493792950
  0.6857522522934227  0.5081842575613832  0.8487136131743951
  0.3311291115981360  0.0392685139666836  0.1804898956699124
  0.1914341752893115  0.9958817240780874  0.0612115744511877
  0.0380660476324602  0.7702678414295238  0.0212472465746212
  0.5902428981701732  0.8948823277625294  0.9654940207302984
  0.2178781013550475  0.4993041385675949  0.6063412955870171
  0.9281572341024705  0.6311499846002783  0.6312892352262162
  0.6204721197480795  0.9775676970213315  0.2547909103451040
  0.7345457872981964  0.3059603377786359  0.2994309881376782
  0.0263005170088173  0.2148232071095615  0.0839271858165395
  0.7509925771006369  0.6069404232937545  0.2649629724121059
  0.5644625451000334  0.1113718225577197  0.9531773899311724
  0.1578875532176277  0.8373336706219734  0.1138082148777161
  0.4129211944396211  0.2629626858898561  0.0771853404275396
  0.2727294282441332  0.1155946824176696  0.7871835909058601
  0.9194908395202764  0.9720689735491971  0.3262133127829124
  0.4645657292301941  0.8810094903162445  0.4658434912795285
  0.7042324369930597  0.0171072118878706  0.9102414088726113
  0.3295248216820024  0.8885909428138248  0.0152034676602588
  0.9300218425150094  0.2679483274760146  0.6288227380315399
  0.2396006353419488  0.2663608365130579  0.5795755788939106
  0.0570813502939622  0.7506353383626679  0.2230469007543998
  0.0896056547935580  0.0899201099902462  0.9742929855505316
  0.8657792573993632  0.8428701946797907  0.9910369247722541
  0.5937694689460525  0.0054647629325753  0.8100949387372329
  0.0327174902979229  0.0967857625114876  0.2581003306097123
  0.1566649760272703  0.5620632045926833  0.1708999131321317
  0.9513505246824839  0.8940026274672639  0.5434138582965681
  0.2828209559444551  0.8118880961125752  0.8505353897307212
  0.4227439655640997  0.0035239699911359  0.7490015256400530
  0.6184707974780519  0.6685756493625038  0.9591101472489719
  0.3455706302676856  0.5469952202296759  0.1245809904685831
  0.8211278170876823  0.9323131149413827  0.4035901582787937
  0.2437499989547917  0.2819030667408655  0.3781994301947300
  0.6201069603203937  0.3711201244085154  0.6995965285837653
  0.2104360644950143  0.7245345641191259  0.7798473486081725
  0.7188133048617474  0.8473246573078071  0.8792531817792986
  0.6924974759482408  0.2458180098183795  0.0954221622917888
  0.4575387853648060  0.4043375241235875  0.5630955236483014
  0.0977872581751034  0.5462444776453833  0.6354094639730040
  0.0557793145224294  0.3254270934922536  0.2669849475923182
  0.4057649347068136  0.2721760190889161  0.7643969076783524
  0.2568293199937515  0.9848957256546912  0.5241784333761642
  0.0994764329488723  0.5414493149592439  0.4112209742949620
  0.4527463324780961  0.4459472449405559  0.7068749227620746
  0.4766601175433425  0.4744242172137880  0.0134770945938423
  0.0236787309842981  0.2128443249150125  0.3198587281907393
  0.0499768815926414  0.8422022058971684  0.3988084707805865
  0.3144432771414306  0.6048211952498177  0.6759695197704301
  0.9840874711961224  0.9019100034456938  0.1767437519067757
  0.5306976769750349  0.4320875621335751  0.2844730567110372
  0.1718015612607106  0.4445522115739360  0.8691726589414165
  0.1779156970958403  0.3603716899685412  0.2320854027730311
  0.9943796860715780  0.3223880058950586  0.1519976638205272
  0.2536544180024786  0.4993189835988649  0.3188100047154651
  0.7663333534790739  0.2918301709820532  0.5190007677968723
  0.6823623697699307  0.7662135039136714  0.0892986002361477
  0.4491288673648821  0.8472121552326415  0.7870416164184904
  0.8265787388201834  0.5042414204090088  0.4825333518704008
  0.6016352065278121  0.7475222023810729  0.4176569018059436
  0.6359702314791500  0.8496252919784109  0.2934777054044941
  0.7659068800393015  0.6146424204638244  0.0019600734325611
  0.4903622079114514  0.1240218685598461  0.1680539456891120
  0.8054082527071679  0.0267041848554521  0.7258419669564309
  0.7290028256028479  0.1740224994791434  0.3013236199403251
  0.5318721885196729  0.3054679297514241  0.9990973564875811
  0.8079096506579115  0.0792545256881947  0.1333477964607071
  0.4685066980731177  0.6845437978481191  0.6631504264985785
  0.8430578118448031  0.6414933678266038  0.3722988450805675
  0.9423065932684089  0.2909083792437194  0.9637324081492774
  0.7357222373423995  0.2273032566472028  0.7135656189701926
  0.2415668840422653  0.2378736939698379  0.2238421624271529
  0.1834985379293897  0.1298191774956443  0.6068919225533945
  0.4116468170120979  0.0716645744670193  0.5916653505604249
  0.6411000883471069  0.5675371615310845  0.1220170297776103
  0.5377599262271470  0.7552196308364663  0.0978849891079652
  0.9007446203666518  0.5115900852553389  0.3380698933045081
  0.0957326923768624  0.8877499708683929 -0.0059706624171104
  0.1087246305042886  0.3713986974050903  0.7047179569453291
  0.1052718886010043  0.6594673340617361  0.0304497146394260
  0.8546205123351182  0.1631397818034724  0.2968111052079332
  0.1996294553763835  0.6588934368828617  0.2489857360889896
  0.1931961248404579  0.9519964734453706  0.9009409736706248
  0.5763211675940957  0.0303157738896049  0.4149199137796086
  0.5029405811181281  0.6068697852815117  0.5333480536929983
  0.7567770467232129  0.5822355936040151  0.6748158889043618
  0.5392534090878705  0.8805096342271999  0.6725150053283924
  0.5790281143237291  0.6066896745241515  0.3265931001028365
  0.8855963232944193 -0.0086600229767744  0.0403088187794919
  0.7143058068273104  0.0463148813668331  0.3027095422853301
  0.7357008116583955  0.8034796781370758  0.4693459824847360
  0.3888285194141162  0.3992204651597484  0.2540834520400037
  0.5798907317860462  0.2040331740865655  0.4912306951326751
  0.3958112303103080  0.9873953164342647  0.3155048951363442
  0.4123967993570120  0.6336451549570410  0.8654745526237544
  0.4170060625867794  0.7119310458986637  0.2243829953082478
  0.3120780768018070  0.5854003458113121  0.4522010229085957
  0.0920147915210559  0.6059795184342869  0.8537550263278965
  0.1939017943811292  0.5529581726231456  0.7898415247252611
  0.4384582854310725  0.8214196318049130  0.3530971763255276
  0.8802322377698997  0.3873590385999288  0.0319184780812413
  0.3344233310634110  0.7966521924615385  0.2848092108751563
  0.9917102557765916  0.0042573884185935  0.7182865257074774
  0.3766556708746989  0.5696661293091247  0.5595290755483152
  0.3192533941871035  0.6169997162765465  0.2334662909566654
  0.1395136488422113  0.0374019392429086  0.4937635963500618
  0.7036107353298622  0.7298201001073884  0.8229148045013557
  0.4576108329991158  0.1967214818821870  0.5362142309379851
  0.4787059398968068  0.2470476531403887  0.1917380576855415
  0.7307480385330284  0.6539258375893188  0.1372203552083902
  0.2840236093015387  0.2712528161034158  0.1079149387998117
  0.0534377661762053  0.4764745973761505  0.7291226541209997
  0.1532553523736148  0.0781305985424600  0.3089320080086884
  0.5624417819696379  0.4159154507018992  0.1540111975755061
  0.4906469646457999  0.5594666095838372  0.2427113788992136
  0.9109898779512119  0.0896564940481832  0.3780835808424594
  0.0583631075944660  0.1682072096150076  0.6093629080571491
  0.8531772477124269  0.8719616249559146  0.8668958341217495
  0.9841614039435475  0.1351043672539074  0.9175098453475871
  0.6768652879962427  0.3759085687621376  0.4596512885797754
  0.7912568857594420  0.5828705844018656  0.8669679693164853
  0.2859210428412350  0.0119735675699856  0.9742669709542566
  0.7013874106998156  0.1025646811526210  0.7091777239316343
  0.1302711220761882  0.0615218988719629  0.8533155237915703
  0.7340153307541036  0.1900022004755761  0.4328035010823481
  0.9695442706424120  0.7803242255151128  0.1284687104254247
  0.3821293747967519  0.6422414261174429  0.0269225840384094
  0.2614016456612200  0.9077717105155624  0.1315001257864101
  0.3967521529638657  0.7985083172464150  0.8929134272437244
  0.9670854349192626  0.7921321885785130  0.3067087503587385
  0.5103132512797306  0.2158082143583239  0.9109252262474952
  0.4011324297378586  0.7713854855491640  0.1064881229779464
  0.3203820879944570  0.7854135005876276  0.4913348261145608
  0.3416955544769670  0.2845254625974183  0.2932330857216446
  0.9915459493708521  0.4098863342024779  0.5577488885600148
  0.5561383475397788  0.4487610758773736  0.7839427107499075
  0.4444707311732431  0.0070322768349341  0.4373310264912716
  0.3204293629203857  0.2168310381702835  0.8563217152662685
  0.1332839891693069  0.2101464477842905  0.0087823987249452
  0.8908686158498932  0.3029019959266555  0.8468480488232949
  0.2066398311682754  0.3568296789017367  0.7785802107890861
  0.8501221088346207  0.3696081869943946  0.4483677784903271
  0.6568203383239610  0.3456534475203024  0.9653050449352599
  0.0249596177565479  0.2951806635197651  0.7440868778733328
  0.5723473766889292  0.8932639241780180  0.1032475693543511
  0.0948138296816196  0.6766521663848807  0.4186967814470172
  0.3775585181308438  0.9478672298160508  0.6378826616897202
  0.6245583096445676  0.2627422641154025  0.7789379108397064
  0.9348398450140311  0.8161316324678870  0.6744976824912997
  0.9032190604266656  0.1514764902752848  0.1840418640029746
  0.5131493342284229  0.7343274779205371  0.7749210916524345
  0.2373130659266789  0.3870349262963236  0.9616863385682654
  0.8887139088959493  0.1667650338477493  0.6985438218716790
  0.8772657102325263  0.5763556165317345  0.0471782077040449
  0.8327102930279185  0.7078960276271399  0.2648199345423850
  0.2093241306171102  0.5112541404982088  0.4766334130903955
  0.8771435804699859  0.4978126179973160  0.8732271051547773
  0.9034675766623749  0.2117384248763040  0.5109823466684128
  0.5450092632491875  0.5923883743507554  0.8852715569091201
  0.7922160338348332  0.2354725113934003  0.8547721147751792
  0.1919986488157688  0.6721093916720891  0.5832002333508360
  0.6821506854908993  0.1383487543668544  0.9406639563778896
  0.1940111826388449  0.1955356768162470  0.7222632688421576
  0.2809470559116376  0.4425068166468333  0.2033762898952898
  0.0791208020899363  0.2118689077056378  0.4381164194376875
  0.4785945012343428  0.7105275942762876  0.3980188765429422
  0.2295970145870896  0.8215552058761976  0.9650811479962376
  0.4155881170192329  0.5717342245535451  0.7496866990735215
  0.0028599243174468  0.4148513311665920  0.3421474008080666
  0.6443367018561789  0.4900548485499302  0.3155826845963386
  0.5666899200743269  0.8827198826348506  0.8325200053030199
  0.3750297452215943  0.5409156951064963  0.9562887641123453
  0.4679250351019216  0.3828950840870941  0.9205318643390835
  0.8060077614507113  0.9959881806052187  0.2339798764133993
  0.6571818909973929  0.2393911517070106  0.5965394899976182
  0.5067482961806932  0.3559246971543108  0.4527076624976086
  0.7836227093473757  0.6874130608571418  0.4688733934304437
  0.5459284063344767  0.6196748955139628  0.0606299504865551
  0.9422044254882957  0.7389545760030527  0.9476362382508966
  0.3406775641399031  0.3007257310693031  0.6499849808167801
  0.8240545712747676  0.8979612199934055  0.5248671478087314
  0.1230265279552073  0.8398676956999762  0.6983675693420456
  0.7416844496756508  0.9631841430226256  0.0263455899863542
  0.4746097688292126  0.7934499863040601  0.5883721483239120
  0.8476061789847734  0.2158809728849050  0.0188418381774613
  0.8768309020845337  0.5248894424028776  0.6853572448706221
  0.2698787369106491  0.9485258046801163  0.3956794765863255
  0.7502678777012014  0.4166132810197446  0.7962787369695529
  0.5483016754837382  0.4963945363583824  0.5903446867080309
  0.1468885187660114  0.8524864122491416  0.5154160909570239
  0.7132894557640711  0.9358048819871901  0.7569219542367946
  0.2201049704445761  0.7273153459090529  0.1418399412526000
  0.9294310230749148  0.5937438628457530  0.5077888895890267
  0.5381069929071398  0.0156889734940412  0.6944182904269349
  0.3933143595328058  0.3946005148256519  0.0822652763121126
  0.2633006896826732  0.6360764399713416  0.8580202043947259
  0.8367898744120447  0.5165322600520800  0.2245129775053585
  0.1151560705558448  0.7268646786073235  0.8767105393596502
  0.2198908300050811  0.0913780546238435  0.1443940548714755
  0.7587436966527320  0.3304487610285259  0.1710384408557979
  0.9806221672199332  0.4281693865693523  0.0905641906572490
  0.0516091472000323  0.5628918498143940  0.9642617893864665
  0.6272898685938878  0.6841107800968995  0.6385711182280909
  0.1619546270345115  0.3746747489094663  0.5921684221338507
  0.7025030122183481  0.1465436630609668  0.1739446506182848
  0.5200910470582502  0.5401404503683156  0.4222161004474969
  0.5428404960327169  0.1403967084550558  0.3480943076948377
  0.9905632853888362  0.6251677854446869  0.7854967312201883
  0.8470027393478891  0.7518168228259829  0.7303166861588738
  0.6305456267905434  0.8868007325039975  0.5820908875962080
  0.3416814352087245  0.7292138204812119  0.6901104384813934
  0.5392478014925833  0.7719043729646889  0.9695493660094114
  0.1853943372575712  0.0129136875957040  0.6750502624982764
  0.0652884499524116  0.8825909106904077  0.8585540350776683
  0.7400360476542556  0.8386879401212268  0.1727504341693856
  0.2286968984391802  0.5474280347956080  0.0684681796104759
  0.1037640436256656  0.4515505488912569  0.1863873517697370
  0.0931922830975854  0.1822147097588469  0.1824892131916546
  0.6080789844942469  0.3074504895090898  0.2970296450534704
  0.0502153065131389  0.6116405861728862  0.1310045128803649
  0.7238352771628650  0.5486741644624540  0.5540586702083815
  0.3643404467219556  0.4567055581662687  0.3675486653823773
  0.1836012350735557  0.3924532720943490  0.3546209550575667
  0.2895152251348391  0.9335986308627029  0.8115344754937907
  0.5851889279509963  0.8759159467676484  0.4172991662171499
  0.3052998234176540  0.3272423856952054  0.4815438186989013
  0.3480147962376291  0.1037969024846158  0.2923487397233808
  0.9087777513340326  0.2695568253066248  0.3215646283386592
  0.8113400258574661  0.6942549191281261  0.6265160259466073
  0.7066114078776186  0.5005575074500558  0.0358375330304583
  0.5908899756955966  0.0794574565922542  0.5355533145519056
  0.8214314405815080  0.3476407868106366  0.6422494389947105
  0.9645824256627807  0.7814842961958517  0.4842984704624750
  0.3946557177582307  0.1097424979928196  0.0905591333229942
  0.3107088986311245  0.1015828517429724  0.5199518482201766
  0.7298268320995672  0.0141444003623095  0.4213106984193337
  0.8162635960020641  0.0638783383357684  0.8524789317430749
  0.4690881722935950  0.9529215541963851  0.9667074460507330
  0.5092717507715839  0.3249388528826477  0.6548750392098956
  0.7647347915879480  0.7668056692624544  0.9854982965405177
  0.0740976256417061  0.3817451555413311  0.9147743468958502
  0.7652030704608113  0.8363271175500643  0.3508060228246636
  0.0149476783920441  0.9639671000079474  0.0671658969064230
  0.5061155001547468  0.8323003664728957  0.2499616989399940
  0.3809462850604192  0.1219987958715987  0.7104065286133396
  0.1040303798143369  0.8765571459627829  0.2224580550649025
  0.3731323540987199  0.3965991972924487  0.7994311115434322
  0.9953544420976440  0.9538677463538192  0.4337398195353817
  0.5732452721563349  0.0837897253189134  0.0799111756170122
 -0.0047575889215958  0.5921224853794202  0.2913775242747378
 
  0.00000000E+00  0.00000000E+00  0.00000000E+00
  0.00000000E+00  0.00000000E+00  0.00000000E+00
  0.00000000E+00  0.00000000E+00  0.00000000E+00
  0.00000000E+00  0.00000000E+00  0.00000000E+00
  0.00000000E+00  0.00000000E+00  0.00000000E+00
  0.00000000E+00  0.00000000E+00  0.00000000E+00
  0.00000000E+00  0.00000000E+00  0.00000000E+00
  0.00000000E+00  0.00000000E+00  0.00000000E+00
  0.00000000E+00  0.00000000E+00  0.00000000E+00
  0.00000000E+00  0.00000000E+00  0.00000000E+00
  0.00000000E+00  0.00000000E+00  0.00000000E+00
  0.00000000E+00  0.00000000E+00  0.00000000E+00
  0.00000000E+00  0.00000000E+00  0.00000000E+00
  0.00000000E+00  0.00000000E+00  0.00000000E+00
  0.00000000E+00  0.00000000E+00  0.00000000E+00
  0.00000000E+00  0.00000000E+00  0.00000000E+00
  0.00000000E+00  0.00000000E+00  0.00000000E+00
  0.00000000E+00  0.00000000E+00  0.00000000E+00
  0.00000000E+00  0.00000000E+00  0.00000000E+00
  0.00000000E+00  0.00000000E+00  0.00000000E+00
  0.00000000E+00  0.00000000E+00  0.00000000E+00
  0.00000000E+00  0.00000000E+00  0.00000000E+00
  0.00000000E+00  0.00000000E+00  0.00000000E+00
  0.00000000E+00  0.00000000E+00  0.00000000E+00
  0.00000000E+00  0.00000000E+00  0.00000000E+00
  0.00000000E+00  0.00000000E+00  0.00000000E+00
  0.00000000E+00  0.00000000E+00  0.00000000E+00
  0.00000000E+00  0.00000000E+00  0.00000000E+00
  0.00000000E+00  0.00000000E+00  0.00000000E+00
  0.00000000E+00  0.00000000E+00  0.00000000E+00
  0.00000000E+00  0.00000000E+00  0.00000000E+00
  0.00000000E+00  0.00000000E+00  0.00000000E+00
  0.00000000E+00  0.00000000E+00  0.00000000E+00
  0.00000000E+00  0.00000000E+00  0.00000000E+00
  0.00000000E+00  0.00000000E+00  0.00000000E+00
  0.00000000E+00  0.00000000E+00  0.00000000E+00
  0.00000000E+00  0.00000000E+00  0.00000000E+00
  0.00000000E+00  0.00000000E+00  0.00000000E+00
  0.00000000E+00  0.00000000E+00  0.00000000E+00
  0.00000000E+00  0.00000000E+00  0.00000000E+00
  0.00000000E+00  0.00000000E+00  0.00000000E+00
  0.00000000E+00  0.00000000E+00  0.00000000E+00
  0.00000000E+00  0.00000000E+00  0.00000000E+00
  0.00000000E+00  0.00000000E+00  0.00000000E+00
  0.00000000E+00  0.00000000E+00  0.00000000E+00
  0.00000000E+00  0.00000000E+00  0.00000000E+00
  0.00000000E+00  0.00000000E+00  0.00000000E+00
  0.00000000E+00  0.00000000E+00  0.00000000E+00
  0.00000000E+00  0.00000000E+00  0.00000000E+00
  0.00000000E+00  0.00000000E+00  0.00000000E+00
  0.00000000E+00  0.00000000E+00  0.00000000E+00
  0.00000000E+00  0.00000000E+00  0.00000000E+00
  0.00000000E+00  0.00000000E+00  0.00000000E+00
  0.00000000E+00  0.00000000E+00  0.00000000E+00
  0.00000000E+00  0.00000000E+00  0.00000000E+00
  0.00000000E+00  0.00000000E+00  0.00000000E+00
  0.00000000E+00  0.00000000E+00  0.00000000E+00
  0.00000000E+00  0.00000000E+00  0.00000000E+00
  0.00000000E+00  0.00000000E+00  0.00000000E+00
  0.00000000E+00  0.00000000E+00  0.00000000E+00
  0.00000000E+00  0.00000000E+00  0.00000000E+00
  0.00000000E+00  0.00000000E+00  0.00000000E+00
  0.00000000E+00  0.00000000E+00  0.00000000E+00
  0.00000000E+00  0.00000000E+00  0.00000000E+00
  0.00000000E+00  0.00000000E+00  0.00000000E+00
  0.00000000E+00  0.00000000E+00  0.00000000E+00
  0.00000000E+00  0.00000000E+00  0.00000000E+00
  0.00000000E+00  0.00000000E+00  0.00000000E+00
  0.00000000E+00  0.00000000E+00  0.00000000E+00
  0.00000000E+00  0.00000000E+00  0.00000000E+00
  0.00000000E+00  0.00000000E+00  0.00000000E+00
  0.00000000E+00  0.00000000E+00  0.00000000E+00
  0.00000000E+00  0.00000000E+00  0.00000000E+00
  0.00000000E+00  0.00000000E+00  0.00000000E+00
  0.00000000E+00  0.00000000E+00  0.00000000E+00
  0.00000000E+00  0.00000000E+00  0.00000000E+00
  0.00000000E+00  0.00000000E+00  0.00000000E+00
  0.00000000E+00  0.00000000E+00  0.00000000E+00
  0.00000000E+00  0.00000000E+00  0.00000000E+00
  0.00000000E+00  0.00000000E+00  0.00000000E+00
  0.00000000E+00  0.00000000E+00  0.00000000E+00
  0.00000000E+00  0.00000000E+00  0.00000000E+00
  0.00000000E+00  0.00000000E+00  0.00000000E+00
  0.00000000E+00  0.00000000E+00  0.00000000E+00
  0.00000000E+00  0.00000000E+00  0.00000000E+00
  0.00000000E+00  0.00000000E+00  0.00000000E+00
  0.00000000E+00  0.00000000E+00  0.00000000E+00
  0.00000000E+00  0.00000000E+00  0.00000000E+00
  0.00000000E+00  0.00000000E+00  0.00000000E+00
  0.00000000E+00  0.00000000E+00  0.00000000E+00
  0.00000000E+00  0.00000000E+00  0.00000000E+00
  0.00000000E+00  0.00000000E+00  0.00000000E+00
  0.00000000E+00  0.00000000E+00  0.00000000E+00
  0.00000000E+00  0.00000000E+00  0.00000000E+00
  0.00000000E+00  0.00000000E+00  0.00000000E+00
  0.00000000E+00  0.00000000E+00  0.00000000E+00
  0.00000000E+00  0.00000000E+00  0.00000000E+00
  0.00000000E+00  0.00000000E+00  0.00000000E+00
  0.00000000E+00  0.00000000E+00  0.00000000E+00
  0.00000000E+00  0.00000000E+00  0.00000000E+00
  0.00000000E+00  0.00000000E+00  0.00000000E+00
  0.00000000E+00  0.00000000E+00  0.00000000E+00
  0.00000000E+00  0.00000000E+00  0.00000000E+00
  0.00000000E+00  0.00000000E+00  0.00000000E+00
  0.00000000E+00  0.00000000E+00  0.00000000E+00
  0.00000000E+00  0.00000000E+00  0.00000000E+00
  0.00000000E+00  0.00000000E+00  0.00000000E+00
  0.00000000E+00  0.00000000E+00  0.00000000E+00
  0.00000000E+00  0.00000000E+00  0.00000000E+00
  0.00000000E+00  0.00000000E+00  0.00000000E+00
  0.00000000E+00  0.00000000E+00  0.00000000E+00
  0.00000000E+00  0.00000000E+00  0.00000000E+00
  0.00000000E+00  0.00000000E+00  0.00000000E+00
  0.00000000E+00  0.00000000E+00  0.00000000E+00
  0.00000000E+00  0.00000000E+00  0.00000000E+00
  0.00000000E+00  0.00000000E+00  0.00000000E+00
  0.00000000E+00  0.00000000E+00  0.00000000E+00
  0.00000000E+00  0.00000000E+00  0.00000000E+00
  0.00000000E+00  0.00000000E+00  0.00000000E+00
  0.00000000E+00  0.00000000E+00  0.00000000E+00
  0.00000000E+00  0.00000000E+00  0.00000000E+00
  0.00000000E+00  0.00000000E+00  0.00000000E+00
  0.00000000E+00  0.00000000E+00  0.00000000E+00
  0.00000000E+00  0.00000000E+00  0.00000000E+00
  0.00000000E+00  0.00000000E+00  0.00000000E+00
  0.00000000E+00  0.00000000E+00  0.00000000E+00
  0.00000000E+00  0.00000000E+00  0.00000000E+00
  0.00000000E+00  0.00000000E+00  0.00000000E+00
  0.00000000E+00  0.00000000E+00  0.00000000E+00
  0.00000000E+00  0.00000000E+00  0.00000000E+00
  0.00000000E+00  0.00000000E+00  0.00000000E+00
  0.00000000E+00  0.00000000E+00  0.00000000E+00
  0.00000000E+00  0.00000000E+00  0.00000000E+00
  0.00000000E+00  0.00000000E+00  0.00000000E+00
  0.00000000E+00  0.00000000E+00  0.00000000E+00
  0.00000000E+00  0.00000000E+00  0.00000000E+00
  0.00000000E+00  0.00000000E+00  0.00000000E+00
  0.00000000E+00  0.00000000E+00  0.00000000E+00
  0.00000000E+00  0.00000000E+00  0.00000000E+00
  0.00000000E+00  0.00000000E+00  0.00000000E+00
  0.00000000E+00  0.00000000E+00  0.00000000E+00
  0.00000000E+00  0.00000000E+00  0.00000000E+00
  0.00000000E+00  0.00000000E+00  0.00000000E+00
  0.00000000E+00  0.00000000E+00  0.00000000E+00
  0.00000000E+00  0.00000000E+00  0.00000000E+00
  0.00000000E+00  0.00000000E+00  0.00000000E+00
  0.00000000E+00  0.00000000E+00  0.00000000E+00
  0.00000000E+00  0.00000000E+00  0.00000000E+00
  0.00000000E+00  0.00000000E+00  0.00000000E+00
  0.00000000E+00  0.00000000E+00  0.00000000E+00
  0.00000000E+00  0.00000000E+00  0.00000000E+00
  0.00000000E+00  0.00000000E+00  0.00000000E+00
  0.00000000E+00  0.00000000E+00  0.00000000E+00
  0.00000000E+00  0.00000000E+00  0.00000000E+00
  0.00000000E+00  0.00000000E+00  0.00000000E+00
  0.00000000E+00  0.00000000E+00  0.00000000E+00
  0.00000000E+00  0.00000000E+00  0.00000000E+00
  0.00000000E+00  0.00000000E+00  0.00000000E+00
  0.00000000E+00  0.00000000E+00  0.00000000E+00
  0.00000000E+00  0.00000000E+00  0.00000000E+00
  0.00000000E+00  0.00000000E+00  0.00000000E+00
  0.00000000E+00  0.00000000E+00  0.00000000E+00
  0.00000000E+00  0.00000000E+00  0.00000000E+00
  0.00000000E+00  0.00000000E+00  0.00000000E+00
  0.00000000E+00  0.00000000E+00  0.00000000E+00
  0.00000000E+00  0.00000000E+00  0.00000000E+00
  0.00000000E+00  0.00000000E+00  0.00000000E+00
  0.00000000E+00  0.00000000E+00  0.00000000E+00
  0.00000000E+00  0.00000000E+00  0.00000000E+00
  0.00000000E+00  0.00000000E+00  0.00000000E+00
  0.00000000E+00  0.00000000E+00  0.00000000E+00
  0.00000000E+00  0.00000000E+00  0.00000000E+00
  0.00000000E+00  0.00000000E+00  0.00000000E+00
  0.00000000E+00  0.00000000E+00  0.00000000E+00
  0.00000000E+00  0.00000000E+00  0.00000000E+00
  0.00000000E+00  0.00000000E+00  0.00000000E+00
  0.00000000E+00  0.00000000E+00  0.00000000E+00
  0.00000000E+00  0.00000000E+00  0.00000000E+00
  0.00000000E+00  0.00000000E+00  0.00000000E+00
  0.00000000E+00  0.00000000E+00  0.00000000E+00
  0.00000000E+00  0.00000000E+00  0.00000000E+00
  0.00000000E+00  0.00000000E+00  0.00000000E+00
  0.00000000E+00  0.00000000E+00  0.00000000E+00
  0.00000000E+00  0.00000000E+00  0.00000000E+00
  0.00000000E+00  0.00000000E+00  0.00000000E+00
  0.00000000E+00  0.00000000E+00  0.00000000E+00
  0.00000000E+00  0.00000000E+00  0.00000000E+00
  0.00000000E+00  0.00000000E+00  0.00000000E+00
  0.00000000E+00  0.00000000E+00  0.00000000E+00
  0.00000000E+00  0.00000000E+00  0.00000000E+00
  0.00000000E+00  0.00000000E+00  0.00000000E+00
  0.00000000E+00  0.00000000E+00  0.00000000E+00
  0.00000000E+00  0.00000000E+00  0.00000000E+00
  0.00000000E+00  0.00000000E+00  0.00000000E+00
  0.00000000E+00  0.00000000E+00  0.00000000E+00
  0.00000000E+00  0.00000000E+00  0.00000000E+00
  0.00000000E+00  0.00000000E+00  0.00000000E+00
  0.00000000E+00  0.00000000E+00  0.00000000E+00
  0.00000000E+00  0.00000000E+00  0.00000000E+00
  0.00000000E+00  0.00000000E+00  0.00000000E+00
  0.00000000E+00  0.00000000E+00  0.00000000E+00
  0.00000000E+00  0.00000000E+00  0.00000000E+00
  0.00000000E+00  0.00000000E+00  0.00000000E+00
  0.00000000E+00  0.00000000E+00  0.00000000E+00
  0.00000000E+00  0.00000000E+00  0.00000000E+00
  0.00000000E+00  0.00000000E+00  0.00000000E+00
  0.00000000E+00  0.00000000E+00  0.00000000E+00
  0.00000000E+00  0.00000000E+00  0.00000000E+00
  0.00000000E+00  0.00000000E+00  0.00000000E+00
  0.00000000E+00  0.00000000E+00  0.00000000E+00
  0.00000000E+00  0.00000000E+00  0.00000000E+00
  0.00000000E+00  0.00000000E+00  0.00000000E+00
  0.00000000E+00  0.00000000E+00  0.00000000E+00
  0.00000000E+00  0.00000000E+00  0.00000000E+00
  0.00000000E+00  0.00000000E+00  0.00000000E+00
  0.00000000E+00  0.00000000E+00  0.00000000E+00
  0.00000000E+00  0.00000000E+00  0.00000000E+00
  0.00000000E+00  0.00000000E+00  0.00000000E+00
  0.00000000E+00  0.00000000E+00  0.00000000E+00
  0.00000000E+00  0.00000000E+00  0.00000000E+00
  0.00000000E+00  0.00000000E+00  0.00000000E+00
  0.00000000E+00  0.00000000E+00  0.00000000E+00
  0.00000000E+00  0.00000000E+00  0.00000000E+00
  0.00000000E+00  0.00000000E+00  0.00000000E+00
  0.00000000E+00  0.00000000E+00  0.00000000E+00
  0.00000000E+00  0.00000000E+00  0.00000000E+00
  0.00000000E+00  0.00000000E+00  0.00000000E+00
  0.00000000E+00  0.00000000E+00  0.00000000E+00
  0.00000000E+00  0.00000000E+00  0.00000000E+00
  0.00000000E+00  0.00000000E+00  0.00000000E+00
  0.00000000E+00  0.00000000E+00  0.00000000E+00
  0.00000000E+00  0.00000000E+00  0.00000000E+00