Ge Se                                   
   1.00000000000000     
    18.0000000000000000    0.0000000000000000    0.0000000000000000
     0.0000000000000000   18.0000000000000000    0.0000000000000000
     0.0000000000000000    0.0000000000000000   18.0000000000000000
   Ge   Se
   106   106
Direct
  0.8177020694461138  0.2855613971540338  0.7541388794898759
  0.2359722058226185  0.4398888991386533  0.1101095620425532
  0.2794176640671798  0.2978412260656415  0.1133868820808228
  0.5942296054946635  0.3679147068749528  0.6735257021826208
  0.4056154959634313  0.6173954781006473 -0.0334108142613765
  0.8602691307788441  0.8406119484709842  0.2137541130177181
  0.0884410633689169  0.2876895995831408  0.0973864659116385
  0.2902829570893538  0.4042593997721122 -0.0416408615794688
  0.9997298491983017  0.0305642041841438  0.2104580349511895
 -0.0103924297261419  0.8889072410680945  0.1979355704835469
  0.2053661635491743  0.1556809424967060  0.6617620269989140
  0.0627617559414134  0.3087544065747685  0.9598324941425090
  0.7032945883740175  0.5160569267811436  0.2487256680785450
  0.1721781673999474  0.6444378606392924  0.7707161941778741
  0.8372842022201764  0.8632743257695222  0.6590762495831514
  0.3261086010329568  0.4135482791986128  0.3338777069418830
  0.4720404098347513  0.4399734693992170  0.4871654658092080
  0.6629546866021039  0.1215414635713167  0.0865097188253941
  0.5347509860770493  0.1907898515832337  0.5698182284429545
  0.5612602436080550  0.4115333409726490  0.1376888745079405
  0.1518458903899558  0.6114152572332568  0.2128128956253193
  0.6004545891750751  0.8711757458499523  0.9267289134252590
  0.7818075160604873  0.3023931628536761  0.0499140924114155
  0.4111728388939373  0.0060029942546111 -0.0149490474479036
  0.7396819668344053  0.1918735090641240  0.8288706065656029
  0.1007176455934589  0.4868930178931108  0.0591638700261066
  0.8979341861295461  0.3906385605631456  0.5751315759383558
  0.8282850420722837  0.2277048077884556  0.9333316265433846
  0.9814964633658281  0.0943497111262447  0.0666208321970287
  0.6653492767228516  0.7941419198326779  0.4921821501297174
  0.7115743633735544  0.1199925257257934  0.4467707452988261
  0.7623345040946421  0.7224455285612281  0.3468003075310840
  0.4737797004257139  0.6066653636333434  0.5914079447234311
  0.6128243915356985  0.2191351601875072  0.8777336422612393
  0.1483118256382834  0.8852455777045134  0.3765407098815013
 -0.0190823868932147  0.7441024428519063  0.3758884212494873
  0.1821767052192623  0.3431683626777857  0.8924372943739154
  0.1319316894100286  0.1318499444183606  0.3548902455003839
  0.6123325733720392  0.5056906268250867  0.6569558394620004
  0.4645977477246985  0.7555606633361871  0.6251139064918001
  0.5927346973652092  0.0396756349216979  0.4451530836038262
  0.0173326426030174  0.0047387366291079  0.5809169085550543
  0.2185952334813291  0.8642541638942792  0.7092387046831570
  0.1600352399446125  0.2851352665584601  0.2228592424204585
  0.3595046631005818  0.8195454419479705  0.0928971861579271
  0.5525015995759499  0.5777177657431182 -0.0069567619907616
  0.5670411871774221  0.0900198365384114  0.9040326671256160
  0.6474980695633361  0.2646924639076997  0.0075583746466342
  0.6357311307085871  0.6265020192091144  0.8870145827958330
  0.9159741555862039  0.7936091826175823  0.5556273709568584
  0.4665032817004480  0.7695583228188695  0.4845038341523657
  0.7907016645839725  0.8396363585900218  0.8573930923154814
  0.4885595428416384  0.1159710850265969  0.3827203259353902
  0.3972645276843455  0.8188603081690524  0.8957963439767905
  0.7377696526945517  0.3524278173504271  0.4147912943814442
  0.5670883714791995  0.9306642696328215  0.6721984838743523
  0.4404066254454594  0.0646335745184950  0.6746069328094195
  0.3378723657636284  0.5583348064028458  0.1203276757548159
  0.8206694052753192  0.9319025174365850  0.3189086550356312
  0.1948980840555413  0.5122798916035526  0.4105544592554922
  0.2705053045357300  0.4483717115863948  0.7221257942275738
  0.5907043811544977  0.6587352903488968  0.7536981170703355
  0.0230429298027123  0.1390526609266641  0.5127412901826872
  0.2437124073728490 -0.0293603979862159  0.2716350518871506
  0.4539228187516980  0.0263013110310057  0.8495065294822089
  0.8816467111358893  0.4352193864438613  0.0180207362387810
  0.8605080826514535  0.2588432415239407  0.6220513333755018
  0.6746923683423803  0.0001973268495607  0.8931562585835082
  0.1027283239282176  0.0666620751247336  0.7773515157015964
  0.3325223154336790  0.1303091482205416  0.3100975546243419
  0.5943192960090354  0.6248360169758668  0.2200958822893888
  0.3579401871465510  0.4236751484394414  0.8334267808949072
  0.8068090013850412  0.1354145350697428  0.5542011369008447
  0.2697677127051160  0.0174339976465794  0.0227671077490197
  0.6743036778408728  0.9262642537698313  0.4316515976012427
  0.1051011610308132  0.7211954251714077  0.1329900771456685
  0.8618883936769142  0.5159602747677735  0.4130572795480448
  0.0636348387970076  0.4517164476729996  0.5682339395325258
  0.8186757903209735  0.8122703169930658  0.0781262440243102
  0.5455805816324998  0.0896859383853946  0.2511337432485116
  0.5368723079167868  0.3002156599121286  0.7888616246323193
  0.3728830515451292 -0.0457304822661405  0.5334205542793671
  0.1878799582462593  0.0663376864177998  0.4706215152600410
  0.0289361454540499  0.1744329240716111  0.8920025263338660
  0.7983236160409816  0.4015571319331092  0.2083461516409265
  0.4295749896625767  0.4592801380436146  0.1722976798450460
  0.0801772164021238  0.8230116793227692  0.6886953502959452
  0.2824787914761990  0.4051627171391936  0.5062024076258240
  0.2621772974686967  0.5764434936793729  0.6512945603755551
  0.0587515330988768  0.8991490136630796  0.4897390404622471
  0.9715500593546014  0.9134798841897608  0.6790986209658115
  0.1382179810882584  0.3399972153774420  0.6121209992331171
  0.2010894677571728  0.8337132200182936 -0.0103246513026983
  0.1039586659199295  0.7524219482861066  0.8840698643283624
  0.3883365837187115  0.6175844501927037  0.3293173568546373
  0.6228437700525692  0.3232061324189772  0.2339958633415897
  0.4498712458579233  0.6513165570585422  0.1823893512735568
  0.3511209054132001  0.8147313299195768  0.4239861973291886
  0.2785714096976268  0.1705770520484873  0.9548816544069060
  0.7549458005753529  0.5454946070535650  0.9109841909620977
  0.2510868443287647  0.8678370601461024  0.5133704979661282
  0.3616552185228202  0.5230984301750511  0.5535747692710392
  0.3715888904559140  0.3405408151506554  0.2165575019023869
  0.3703345353902203  0.1502240766749766  0.8253783508281010
 -0.0635322788176651  0.1490893366792584  0.3142117003183104
  0.0490135721323595  0.5102277622630057  0.1898075215687788
  0.4652602466552302  0.9063758060280780  0.4410506696117915
  0.8062637033180554  0.2359366508734425  0.2457968221963961
  0.0716097815270257  0.2499578439692281  0.3244633241464152
  0.1999509305040920  0.1043232827447024  0.2388721219782331
  0.5683799857686302  0.2175655902478907  0.4340378451992313
  0.5566279006410124  0.6764939299678036  0.0912462366952267
  0.9101769820453186  0.2993082689123305  0.8520792022187651
  0.7532125052968256  0.6932339075921267  0.1118065049248510
  0.7460304698418190  0.7062225893389347  0.5626289622705342
  0.6664245330982559  0.7650402345580426  0.8604284832237801
  0.7527758463876892  0.0600268939148163  0.7993439249212594
 -0.0078941057462342  0.3848757894581166  0.4763832601212163
  0.3074499007680878  0.5984475081474945  0.4477268593645973
  0.5733214765538858  0.7289073188812372  0.4147045517799487
  0.2946411813761372  0.7720495223769140  0.3076099779060016
  0.0658859689798070  0.8131717683709881  0.2818637906677435
  0.9061868970042933  0.1161209353344578  0.9444344764940500
  0.7952244523901805  0.1800487314163305  0.1189101955322569
  0.8842719994662829  0.7179801572334209  0.2739518110140738
  0.2747305775354965  0.3385109246033533  0.6361952366082262
  0.8601441912194424  0.6810859977441546  0.4998910240346019
  0.6668226373716920  0.1891592813589904  0.6277908971801479
  0.1642425733137017  0.6268493031801150  0.9139637975395987
  0.2625817055049126 -0.0665880285173291  0.9089050167349370
  0.2814376971510703  0.5675119536320319  0.2492879277860766
  0.7048275648691835  0.8927401163555148  0.0605674173430410
  0.2780715524683210  0.7752925971708878  0.6114969591830214
  0.9322061490381388  0.8672708264111078  0.4366944404531451
  0.3532527329651343  0.6376916523084125  0.7426282272622440
  0.1451726201205882  0.2607372244320980  0.5035535154075595
  0.4882725132719081  0.2739407323762102  0.2627938924042419
  0.3953471049028172  0.0915645947403471  0.5397896894433803
  0.4499214855163942  0.4860924329586082  0.3110975924471133
  0.0117372140557096  0.5212390583399839  0.3218895834057178
  0.7022620747002659  0.3169043110852949  0.6103259141194314
  0.4817654390455746  0.7041509772638445 -0.1049099399632202
  0.6042154992779210  0.7996029747054716  0.6194079111657015
  0.1950590758610748  0.7552796123339979  0.4039000539890920
  0.6646833214539303  0.0516324972221442  0.2023299535799999
  0.7397275686343374  0.5829363964663987  0.3658307540056072
  0.0180817271995289  0.4414768938243023  0.9580982559950584
  0.0432269597983638  0.8515992491258699  0.0767934347670240
  0.9759917217860495  0.2194893511701957  0.1252954738566864
  0.4332079292595012  0.2324355576687994  0.7323852753259585
  0.3351550599914598  0.5600057540513816  0.8517259535254912
  0.7898335994178649  0.4577479087256790  0.5224374035884916
  0.4578918692143988  0.8786029867092244  0.0179336080758569
  0.0303739677507597  0.0386576731054790  0.3558022267326425
  0.5047553175794742  0.1851680155131964  0.1603269136010054
  0.9407187301388540  0.8565039748186618  0.9094492045483911
  0.1432121309438992  0.0232000103058291  0.6410672325015918
  0.8526009921080284  0.3902708435018629  0.3381291008985615
 -0.2950842528180828  0.5886346644828059 -0.2994527534112782
  0.6851379681009396  0.9031867216666130  0.3005391488029721
  0.3732890355598941  0.3288083636397565  0.4396364045774616
  0.1635883337885506  0.4222491846057631  0.2340903544906155
  0.0643264720903091  0.2846477512266753  0.7109020895374871
  0.9230836843437982  0.4308432824270912  0.1538510582105833
  0.0427735137637589  0.7087223020144546  0.7562384376652748
  0.5210958829722678  0.0804047131218555  0.0327863173991271
 -0.0118387262697259 -0.0156023488031860  0.7958029951933711
  0.4880615514979917  0.3473425927009725  0.5929533293898470
  0.8395631369349633  0.5693043694032592  0.0121194112096182
  0.0961866262213617  0.0948802064575465 -0.0111549831555970
  0.1313593694466611  0.5580441723220642  0.5308462900374218
  0.1918355880263070  0.1940262706800781  0.0684423646382553
  0.2986684767661092  0.0195309022253260  0.3941784642902849
  0.1036942655882313  0.6191517096439029  0.3452957679305052
  0.2147350348154005  0.2194283686331588  0.8441160374961325
  0.4907695607864594  0.4085922028850679  0.8549688525287208
  0.4973251479274466  0.5471971218951022  0.7145901675145927
  0.7440570734435381  0.0126550931885491  0.0161389564539051
  0.6499368087125776  0.4972937418150638  0.0647763997965782
  0.5943320608407444  0.0427766958085691  0.5819552907315085
  0.8610717388955510  0.0431811205827735  0.2411943676724558
  0.4728519845655554  0.9780133175969660  0.2195669423711262
  0.3582719564897261  0.0411563413257035  0.2019169396196845
  0.6362035840265591  0.4234402507533704  0.3334010882587384
  0.2589664756424223  0.1772895768067060  0.5275703436255317
  0.4212890352107967  0.7858931260460599  0.2075495857526641
  0.6836025491335204  0.7357541463503677  0.2213644850299055
  0.7913456455400005 -0.0028906426301779  0.4491889121340015
  0.9026343792583893  0.1823443408266195  0.4544180629843647
  0.0685989660002954  0.6264359872052047  0.0277888900036744
  0.1497017582859561  0.4199860617253286  0.7822549670953547
  0.4259181474300597  0.9168363489309290  0.6560312330240031
  0.3551308320008489  0.2864323600259098 -0.0063867700173554
  0.8495018248507409  0.7660034850812952  0.7552155842644495
  0.8605507856371111  0.7543928669232719  0.9520110741746646
  0.9512222330437643  0.9368303106777648  0.0139355842087445
  0.9905788484552135  0.6433617242798125  0.1487890685510876
  0.3050014996354300  0.0753424063134548  0.7277546911710587
  0.5828743121913803  0.5411939579301283  0.5297115538990169
 -0.0350312033946182  0.4802742145367265  0.6527221461600792
  0.0565249467568681  0.7726706273002202  0.5596889172926010
  0.7051634238829416  0.2129363123619819  0.3320763008077975
  0.6757930984542915  0.4347255319027028 -0.0507437674725397
 -0.0162633744258960  0.1922130236396556  0.6490021303145374
  0.5324476945425896  0.3254426401944406  0.0374122105485265
  0.8431510383486236  0.4854911246640272  0.8294210785787965
  0.5033557340360399  0.8961606454665517  0.8214467985864256
  0.2507489877315941  0.8981520644247534  0.1111035858186806
  0.1175861011928392  0.9462449347675300  0.8439851914093748
  0.2288881061936463  0.7679711796821649  0.8119082238341661
  0.3006365427683781  0.7267320409046026  0.0160492418143061
  0.7664283685146031  0.4131809339939611  0.7471968444072511
 
  0.00000000E+00  0.00000000E+00  0.00000000E+00
  0.00000000E+00  0.00000000E+00  0.00000000E+00
  0.00000000E+00  0.00000000E+00  0.00000000E+00
  0.00000000E+00  0.00000000E+00  0.00000000E+00
  0.00000000E+00  0.00000000E+00  0.00000000E+00
  0.00000000E+00  0.00000000E+00  0.00000000E+00
  0.00000000E+00  0.00000000E+00  0.00000000E+00
  0.00000000E+00  0.00000000E+00  0.00000000E+00
  0.00000000E+00  0.00000000E+00  0.00000000E+00
  0.00000000E+00  0.00000000E+00  0.00000000E+00
  0.00000000E+00  0.00000000E+00  0.00000000E+00
  0.00000000E+00  0.00000000E+00  0.00000000E+00
  0.00000000E+00  0.00000000E+00  0.00000000E+00
  0.00000000E+00  0.00000000E+00  0.00000000E+00
  0.00000000E+00  0.00000000E+00  0.00000000E+00
  0.00000000E+00  0.00000000E+00  0.00000000E+00
  0.00000000E+00  0.00000000E+00  0.00000000E+00
  0.00000000E+00  0.00000000E+00  0.00000000E+00
  0.00000000E+00  0.00000000E+00  0.00000000E+00
  0.00000000E+00  0.00000000E+00  0.00000000E+00
  0.00000000E+00  0.00000000E+00  0.00000000E+00
  0.00000000E+00  0.00000000E+00  0.00000000E+00
  0.00000000E+00  0.00000000E+00  0.00000000E+00
  0.00000000E+00  0.00000000E+00  0.00000000E+00
  0.00000000E+00  0.00000000E+00  0.00000000E+00
  0.00000000E+00  0.00000000E+00  0.00000000E+00
  0.00000000E+00  0.00000000E+00  0.00000000E+00
  0.00000000E+00  0.00000000E+00  0.00000000E+00
  0.00000000E+00  0.00000000E+00  0.00000000E+00
  0.00000000E+00  0.00000000E+00  0.00000000E+00
  0.00000000E+00  0.00000000E+00  0.00000000E+00
  0.00000000E+00  0.00000000E+00  0.00000000E+00
  0.00000000E+00  0.00000000E+00  0.00000000E+00
  0.00000000E+00  0.00000000E+00  0.00000000E+00
  0.00000000E+00  0.00000000E+00  0.00000000E+00
  0.00000000E+00  0.00000000E+00  0.00000000E+00
  0.00000000E+00  0.00000000E+00  0.00000000E+00
  0.00000000E+00  0.00000000E+00  0.00000000E+00
  0.00000000E+00  0.00000000E+00  0.00000000E+00
  0.00000000E+00  0.00000000E+00  0.00000000E+00
  0.00000000E+00  0.00000000E+00  0.00000000E+00
  0.00000000E+00  0.00000000E+00  0.00000000E+00
  0.00000000E+00  0.00000000E+00  0.00000000E+00
  0.00000000E+00  0.00000000E+00  0.00000000E+00
  0.00000000E+00  0.00000000E+00  0.00000000E+00
  0.00000000E+00  0.00000000E+00  0.00000000E+00
  0.00000000E+00  0.00000000E+00  0.00000000E+00
  0.00000000E+00  0.00000000E+00  0.00000000E+00
  0.00000000E+00  0.00000000E+00  0.00000000E+00
  0.00000000E+00  0.00000000E+00  0.00000000E+00
  0.00000000E+00  0.00000000E+00  0.00000000E+00
  0.00000000E+00  0.00000000E+00  0.00000000E+00
  0.00000000E+00  0.00000000E+00  0.00000000E+00
  0.00000000E+00  0.00000000E+00  0.00000000E+00
  0.00000000E+00  0.00000000E+00  0.00000000E+00
  0.00000000E+00  0.00000000E+00  0.00000000E+00
  0.00000000E+00  0.00000000E+00  0.00000000E+00
  0.00000000E+00  0.00000000E+00  0.00000000E+00
  0.00000000E+00  0.00000000E+00  0.00000000E+00
  0.00000000E+00  0.00000000E+00  0.00000000E+00
  0.00000000E+00  0.00000000E+00  0.00000000E+00
  0.00000000E+00  0.00000000E+00  0.00000000E+00
  0.00000000E+00  0.00000000E+00  0.00000000E+00
  0.00000000E+00  0.00000000E+00  0.00000000E+00
  0.00000000E+00  0.00000000E+00  0.00000000E+00
  0.00000000E+00  0.00000000E+00  0.00000000E+00
  0.00000000E+00  0.00000000E+00  0.00000000E+00
  0.00000000E+00  0.00000000E+00  0.00000000E+00
  0.00000000E+00  0.00000000E+00  0.00000000E+00
  0.00000000E+00  0.00000000E+00  0.00000000E+00
  0.00000000E+00  0.00000000E+00  0.00000000E+00
  0.00000000E+00  0.00000000E+00  0.00000000E+00
  0.00000000E+00  0.00000000E+00  0.00000000E+00
  0.00000000E+00  0.00000000E+00  0.00000000E+00
  0.00000000E+00  0.00000000E+00  0.00000000E+00
  0.00000000E+00  0.00000000E+00  0.00000000E+00
  0.00000000E+00  0.00000000E+00  0.00000000E+00
  0.00000000E+00  0.00000000E+00  0.00000000E+00
  0.00000000E+00  0.00000000E+00  0.00000000E+00
  0.00000000E+00  0.00000000E+00  0.00000000E+00
  0.00000000E+00  0.00000000E+00  0.00000000E+00
  0.00000000E+00  0.00000000E+00  0.00000000E+00
  0.00000000E+00  0.00000000E+00  0.00000000E+00
  0.00000000E+00  0.00000000E+00  0.00000000E+00
  0.00000000E+00  0.00000000E+00  0.00000000E+00
  0.00000000E+00  0.00000000E+00  0.00000000E+00
  0.00000000E+00  0.00000000E+00  0.00000000E+00
  0.00000000E+00  0.00000000E+00  0.00000000E+00
  0.00000000E+00  0.00000000E+00  0.00000000E+00
  0.00000000E+00  0.00000000E+00  0.00000000E+00
  0.00000000E+00  0.00000000E+00  0.00000000E+00
  0.00000000E+00  0.00000000E+00  0.00000000E+00
  0.00000000E+00  0.00000000E+00  0.00000000E+00
  0.00000000E+00  0.00000000E+00  0.00000000E+00
  0.00000000E+00  0.00000000E+00  0.00000000E+00
  0.00000000E+00  0.00000000E+00  0.00000000E+00
  0.00000000E+00  0.00000000E+00  0.00000000E+00
  0.00000000E+00  0.00000000E+00  0.00000000E+00
  0.00000000E+00  0.00000000E+00  0.00000000E+00
  0.00000000E+00  0.00000000E+00  0.00000000E+00
  0.00000000E+00  0.00000000E+00  0.00000000E+00
  0.00000000E+00  0.00000000E+00  0.00000000E+00
  0.00000000E+00  0.00000000E+00  0.00000000E+00
  0.00000000E+00  0.00000000E+00  0.00000000E+00
  0.00000000E+00  0.00000000E+00  0.00000000E+00
  0.00000000E+00  0.00000000E+00  0.00000000E+00
  0.00000000E+00  0.00000000E+00  0.00000000E+00
  0.00000000E+00  0.00000000E+00  0.00000000E+00
  0.00000000E+00  0.00000000E+00  0.00000000E+00
  0.00000000E+00  0.00000000E+00  0.00000000E+00
  0.00000000E+00  0.00000000E+00  0.00000000E+00
  0.00000000E+00  0.00000000E+00  0.00000000E+00
  0.00000000E+00  0.00000000E+00  0.00000000E+00
  0.00000000E+00  0.00000000E+00  0.00000000E+00
  0.00000000E+00  0.00000000E+00  0.00000000E+00
  0.00000000E+00  0.00000000E+00  0.00000000E+00
  0.00000000E+00  0.00000000E+00  0.00000000E+00
  0.00000000E+00  0.00000000E+00  0.00000000E+00
  0.00000000E+00  0.00000000E+00  0.00000000E+00
  0.00000000E+00  0.00000000E+00  0.00000000E+00
  0.00000000E+00  0.00000000E+00  0.00000000E+00
  0.00000000E+00  0.00000000E+00  0.00000000E+00
  0.00000000E+00  0.00000000E+00  0.00000000E+00
  0.00000000E+00  0.00000000E+00  0.00000000E+00
  0.00000000E+00  0.00000000E+00  0.00000000E+00
  0.00000000E+00  0.00000000E+00  0.00000000E+00
  0.00000000E+00  0.00000000E+00  0.00000000E+00
  0.00000000E+00  0.00000000E+00  0.00000000E+00
  0.00000000E+00  0.00000000E+00  0.00000000E+00
  0.00000000E+00  0.00000000E+00  0.00000000E+00
  0.00000000E+00  0.00000000E+00  0.00000000E+00
  0.00000000E+00  0.00000000E+00  0.00000000E+00
  0.00000000E+00  0.00000000E+00  0.00000000E+00
  0.00000000E+00  0.00000000E+00  0.00000000E+00
  0.00000000E+00  0.00000000E+00  0.00000000E+00
  0.00000000E+00  0.00000000E+00  0.00000000E+00
  0.00000000E+00  0.00000000E+00  0.00000000E+00
  0.00000000E+00  0.00000000E+00  0.00000000E+00
  0.00000000E+00  0.00000000E+00  0.00000000E+00
  0.00000000E+00  0.00000000E+00  0.00000000E+00
  0.00000000E+00  0.00000000E+00  0.00000000E+00
  0.00000000E+00  0.00000000E+00  0.00000000E+00
  0.00000000E+00  0.00000000E+00  0.00000000E+00
  0.00000000E+00  0.00000000E+00  0.00000000E+00
  0.00000000E+00  0.00000000E+00  0.00000000E+00
  0.00000000E+00  0.00000000E+00  0.00000000E+00
  0.00000000E+00  0.00000000E+00  0.00000000E+00
  0.00000000E+00  0.00000000E+00  0.00000000E+00
  0.00000000E+00  0.00000000E+00  0.00000000E+00
  0.00000000E+00  0.00000000E+00  0.00000000E+00
  0.00000000E+00  0.00000000E+00  0.00000000E+00
  0.00000000E+00  0.00000000E+00  0.00000000E+00
  0.00000000E+00  0.00000000E+00  0.00000000E+00
  0.00000000E+00  0.00000000E+00  0.00000000E+00
  0.00000000E+00  0.00000000E+00  0.00000000E+00
  0.00000000E+00  0.00000000E+00  0.00000000E+00
  0.00000000E+00  0.00000000E+00  0.00000000E+00
  0.00000000E+00  0.00000000E+00  0.00000000E+00
  0.00000000E+00  0.00000000E+00  0.00000000E+00
  0.00000000E+00  0.00000000E+00  0.00000000E+00
  0.00000000E+00  0.00000000E+00  0.00000000E+00
  0.00000000E+00  0.00000000E+00  0.00000000E+00
  0.00000000E+00  0.00000000E+00  0.00000000E+00
  0.00000000E+00  0.00000000E+00  0.00000000E+00
  0.00000000E+00  0.00000000E+00  0.00000000E+00
  0.00000000E+00  0.00000000E+00  0.00000000E+00
  0.00000000E+00  0.00000000E+00  0.00000000E+00
  0.00000000E+00  0.00000000E+00  0.00000000E+00
  0.00000000E+00  0.00000000E+00  0.00000000E+00
  0.00000000E+00  0.00000000E+00  0.00000000E+00
  0.00000000E+00  0.00000000E+00  0.00000000E+00
  0.00000000E+00  0.00000000E+00  0.00000000E+00
  0.00000000E+00  0.00000000E+00  0.00000000E+00
  0.00000000E+00  0.00000000E+00  0.00000000E+00
  0.00000000E+00  0.00000000E+00  0.00000000E+00
  0.00000000E+00  0.00000000E+00  0.00000000E+00
  0.00000000E+00  0.00000000E+00  0.00000000E+00
  0.00000000E+00  0.00000000E+00  0.00000000E+00
  0.00000000E+00  0.00000000E+00  0.00000000E+00
  0.00000000E+00  0.00000000E+00  0.00000000E+00
  0.00000000E+00  0.00000000E+00  0.00000000E+00
  0.00000000E+00  0.00000000E+00  0.00000000E+00
  0.00000000E+00  0.00000000E+00  0.00000000E+00
  0.00000000E+00  0.00000000E+00  0.00000000E+00
  0.00000000E+00  0.00000000E+00  0.00000000E+00
  0.00000000E+00  0.00000000E+00  0.00000000E+00
  0.00000000E+00  0.00000000E+00  0.00000000E+00
  0.00000000E+00  0.00000000E+00  0.00000000E+00
  0.00000000E+00  0.00000000E+00  0.00000000E+00
  0.00000000E+00  0.00000000E+00  0.00000000E+00
  0.00000000E+00  0.00000000E+00  0.00000000E+00
  0.00000000E+00  0.00000000E+00  0.00000000E+00
  0.00000000E+00  0.00000000E+00  0.00000000E+00
  0.00000000E+00  0.00000000E+00  0.00000000E+00
  0.00000000E+00  0.00000000E+00  0.00000000E+00
  0.00000000E+00  0.00000000E+00  0.00000000E+00
  0.00000000E+00  0.00000000E+00  0.00000000E+00
  0.00000000E+00  0.00000000E+00  0.00000000E+00
  0.00000000E+00  0.00000000E+00  0.00000000E+00
  0.00000000E+00  0.00000000E+00  0.00000000E+00
  0.00000000E+00  0.00000000E+00  0.00000000E+00
  0.00000000E+00  0.00000000E+00  0.00000000E+00
  0.00000000E+00  0.00000000E+00  0.00000000E+00
  0.00000000E+00  0.00000000E+00  0.00000000E+00
  0.00000000E+00  0.00000000E+00  0.00000000E+00
  0.00000000E+00  0.00000000E+00  0.00000000E+00
  0.00000000E+00  0.00000000E+00  0.00000000E+00
  0.00000000E+00  0.00000000E+00  0.00000000E+00
  0.00000000E+00  0.00000000E+00  0.00000000E+00
  0.00000000E+00  0.00000000E+00  0.00000000E+00
  0.00000000E+00  0.00000000E+00  0.00000000E+00
  0.00000000E+00  0.00000000E+00  0.00000000E+00
