Ge Se
 1.0000000000000000
    20.3978870000000008    0.0000000000000000    0.0000000000000000
     0.0000000000000000   20.3978870000000008    0.0000000000000000
     0.0000000000000000    0.0000000000000000   20.3978870000000008
 Ge  Se 
 150 150
Direct
  0.2046853098068442  0.7296378801392517  0.1501825997957534
  0.4567283601482841  0.3846473901929156  0.1113698801253287
  0.1099863397615645  0.5769924600523574  0.5173142002404466
  0.0095902100055756  0.3287590900959496  0.7904772901232368
  0.7047038097622562  0.5740404498760092  0.5173142600505630
  0.2151515301560402  0.6418549298758249  0.0637413997832226
  0.2258204999370768  0.4729965000786601  0.3867604301367098
  0.1154937999215311  0.9191656601490146  0.8387055198413443
  0.7116158502103673  0.1771679698980586  0.4236430199853545
  0.3975706699424308  0.7544606899724466  0.1123777198098999
  0.9822547698200309  0.6993741297811877  0.6989090198411237
  0.3809625898996303  0.0509114801940024  0.5517653299089263
  0.4410875700017360  0.4726941501342762  0.5813801802118034
  0.7867337499222347  0.9172695598323493  0.0063422799626255
  0.2090796899698484  0.7643233997717509  0.4251781397749679
  0.8266887197678859  0.0916530501419093  0.5513481102233775
  0.9673439400855588  0.5791696899781825  0.1978082200376931
  0.6102753701890790  0.7376280700054865  0.4427300798362105
  0.4623265699040298  0.5900958300239628  0.8739321298328596
  0.6926157998620153  0.2618732798156986  0.9398286297987629
  0.3017605098018242  0.9243838197554483  0.7688038800293385
  0.7784569597821580  0.2480800501542145  0.7691781099679590
  0.3005783000954952  0.5939119399965300  0.1432457999203545
  0.8973006601124912  0.9026035098635461  0.4889755698715264
  0.5590474797708214  0.0727562800990122  0.9762303100316224
  0.7343167598683139  0.9375786697906503  0.7142330698272817
  0.3708414101911634  0.5786208497968442  0.3938078600984504
  0.8753820898213625  0.3305316898755248  0.9564595901526467
  0.5986271700593302  0.1613921000738949  0.7072238501958561
  0.7407309899304767  0.6814687001648750  0.3469480799653415
  0.9373363799887704  0.3114605498108701  0.6111402597729854
  0.9682250700771117  0.9368354599670055  0.3836705600928176
  0.5772140001559966  0.6364974798615172  0.6519753398967257
  0.3417376201760506  0.5190874201822964  0.2563552999386652
  0.4733497700031382  0.5246914501487335  0.2288563001648161
  0.9049174402230978  0.3485550699442546  0.1486048000952256
  0.6026652397868467  0.0257716698793360  0.4501410798089038
  0.2826533199247550  0.1483268198318777  0.9688087202365618
  0.9407618798947166  0.5185251898885409  0.6419485797720128
  0.3691462400002510  0.3284288000026669  0.9361613401427316
  0.7633651000223700  0.9057457701378580  0.2001480300386016
  0.2899374699938284  0.5118859198504238  0.9214775702012665
  0.5015470602420731  0.2666488401470211  0.1427749599750209
  0.9362560901528673  0.1926293497949077  0.2131608700450199
  0.2540988701427752  0.8375745399511234  0.0032317901359097
  0.2654494600347575  0.1806732898363443  0.2495885701298375
  0.3396216402218525  0.8393845298780211  0.2042587401332305
  0.3411804899203530  0.9351844502325168  0.3673370501562245
  0.3543176398614229  0.3216158899203628  0.7265189301225171
  0.5566917901839539  0.8570353600841106  0.3017436698222713
  0.2706550801070719  0.0264323397810763  0.9326485802181372
  0.0600703999389741  0.0879008198251123  0.2663073498740335
  0.3852523798175763  0.7407299702170133  0.4079942000855284
  0.1613180002418878  0.4353348202193688  0.1976758597593957
  0.7995314901979798  0.6516857898075424  0.9032292501669414
  0.8782313398441713  0.1717869600905231  0.3851099699689483
  0.5547099000989661  0.2332476300118733  0.3198214202284776
  0.5843385297702649  0.4162786998476852  0.3440495302283026
  0.9653293799499919  0.9026116602175509  0.1696884701832106
  0.5171928200210149  0.4010509000270469  0.9014923300634031
  0.4557876200608427  0.9210733601965735  0.0642803801197644
  0.7501941701118358  0.6106249701255821  0.7175448099109482
  0.9242531900485577  0.7129300299584952  0.1485441398905681
  0.9381336199185729  0.9897308598679854  0.6410816100706902
  0.3271708299982248  0.5999541197576005  0.6676729501442968
  0.1486189701903928  0.1771953599899833  0.0946562602293071
  0.5942632499140720  0.3151794301046967  0.4908502900324921
  0.0859299700993539  0.5585887700034813  0.7405487798809750
  0.3202596102233530  0.2244781702143953  0.1306838899538957
  0.4881391700032459  0.6572954801641955  0.5554674398382539
  0.0878870399664436  0.5232127700285819  0.9782673700467113
  0.3881479998393951  0.2911242497813621  0.2358761802141565
  0.4472183898263580  0.9982889899331240  0.8821645099808623
  0.7151117500552877  0.0550565698300025  0.0864870601548092
  0.0940910600200893  0.7695158101424917  0.5476399599625197
  0.6572164499195431  0.5238502497832253  0.8835439901201532
  0.8694084299025678  0.1285971497930153  0.8878994500753926
  0.0270151001424804  0.2021381699977061  0.9173870999481465
  0.2091146401585615  0.6975235900659712  0.9512751899253095
  0.5714304501245644  0.8556850202180256  0.6657622899862129
  0.5996588597632686  0.8683037301853863  0.0782530200309473
  0.4808409900496066  0.6854805000145360  0.3141700799695576
  0.5950919401602724  0.9741014498217389  0.8396383801910463
  0.7654258801414089  0.3713297499883200  0.4502780699785228
  0.5981073402357803  0.6800992597909774  0.0139535300886803
  0.9350296797898724  0.9493067899630977  0.7629187101585573
  0.3019441199963507  0.0047596601549955  0.6619198802307318
  0.2512328497554673  0.4065587999384446  0.1133724198981983
  0.0878887798525406  0.0115232200276431  0.0152846699268410
  0.6252067201862624  0.7126498901577405  0.8460874800414376
  0.6798227100679596  0.0905936600197854  0.2674613600908762
  0.0612933398444653  0.5015776398800522  0.3192959099145907
  0.5189755698715265  0.2224789298028761  0.5381385802362766
  0.8365537700056873  0.5182618101571013  0.3891170100118703
  0.7823385299663638  0.6008342702359318  0.1588401097623494
  0.2375844998062789  0.5957085702063160  0.5415458400176449
  0.4793014698042009  0.2609068302025597  0.9681919597848543
  0.2744638099034474  0.4020589799325783  0.6613842801462720
  0.7507047298575583  0.7983666298376886  0.0296824200467431
  0.3230831002250381  0.7587618599906941  0.6918547298551071
  0.5910880700535306  0.6923151201886745  0.1519964798314649
  0.0290575200264616  0.1333423202118925  0.6565696000767138
  0.8615606797900195  0.0869939700126783  0.2200148397723745
  0.4530594600313259  0.9226123901951216  0.4467145900945524
  0.0408069100490654  0.4737930198358292  0.1722128399868084
  0.6905262201913366  0.3032590998273498  0.0734673601241148
  0.1345747199207447  0.9616887798231257  0.1671168498972467
  0.7687333001697677  0.9112148900520922  0.3822682702379908
  0.4587794402430018  0.7966359201813404  0.8357345101480363
  0.1899389098488486  0.3701312498691655  0.5134005698727521
  0.1559429601703353  0.0182156499837459  0.3974135198415405
  0.8271455499287744  0.5387684498889517  0.5754259301465883
  0.1946604699790719  0.6897406299976072  0.8086545199510126
  0.5954754700817787  0.1712529601718060  0.1919404299082547
  0.8506741002143996  0.8069673098983243  0.8501541497901228
  0.0436478900976361  0.7017034499700876  0.0905515698758406
  0.7037672000045888  0.1293931101785200  0.6313853601600989
  0.5451843301220368  0.2965560898538167  0.7797528199857171
  0.4225197002022808  0.1777828801581262  0.7180550299155988
  0.3437309300713353  0.8414269698621235  0.5776907402222593
  0.0856535900017487  0.2881475997979595  0.1924471598455272
  0.1776939998736144  0.2470764702245875  0.7677665500353051
  0.7816231298859534  0.0806015701528301  0.3503528301730469
  0.1600788101238133  0.8525675801616118  0.6697252200681376
  0.5142881799472663  0.5154297202450430  0.7435638799254062
  0.7579871199404136  0.9795784597688967  0.8997727401862752
  0.9812454701803182  0.7011337997901449  0.9372345699336406
  0.6661012299950481  0.5745418199443894  0.3271727900051608
  0.0206599698292279  0.1028717101923351  0.5305515497757194
  0.8332320499667442  0.0314635501216376  0.0378527202351891
  0.8170911300763654  0.4291057799271071  0.7645719902262426
  0.0985980900864879  0.1001292501522339  0.8590383101936000
  0.6888220500486153  0.3364694499974433  0.6642354499757746
  0.4470211198836430  0.9966104699962306  0.6962250697829634
  0.8627977397854986  0.7418458500137786  0.9914399501281678
  0.2494208302065797  0.1314940699495002  0.7608778100398341
  0.1432934298537883  0.2070940798917064  0.5524133401660672
  0.8297617302223510  0.8076564401008790  0.6163344100298231
  0.6426327599520482  0.4377960300495831  0.1957412000566529
  0.0770521799635423  0.8213218697603335  0.3254705597692545
  0.3494085000078684  0.1151078398463527  0.3948283800179891
  0.8779494101521399  0.4523183700350923  0.0724724399149775
  0.7070697200156075  0.0997820298739767  0.8679647200712505
  0.7557000899161761  0.2117945898023653  0.2486320901767914
  0.2869649601451366  0.0062303899418602  0.2004235600481560
  0.1087059997930178  0.4104374100121253  0.7021781300190555
  0.3416487099864804  0.2038415601576771  0.5428986002324653
  0.9150940001775674  0.7171747098118545  0.5108002098452649
  0.4264944001307586  0.3293991598247408  0.4201241300140550
  0.8938396501559206  0.5165678900956752  0.9390543598952186
  0.4217842701060164  0.6819956400385982  0.6613423601179867
  0.2013659802115778  0.0687447199800646  0.6674374899713877
  0.9066848899594355  0.1070822198397314  0.6540875498525902
  0.0039784900269327  0.4457859997949788  0.0602642999247912
  0.6737584098784350  0.9714091998842822  0.9941394101261567
  0.2761619598147592  0.0181802002334850  0.4359476998769530
  0.4969147201374338  0.3447419200822124  0.2855864001991971
  0.6919576302192478  0.8408759701433780  0.6551016499895309
  0.5767510899535819  0.2760190200092785  0.6593011300631286
  0.4309444698855328  0.8054630300677712  0.3111041898604497
  0.8455651901591571  0.8663036298808794  0.7341629101092678
  0.5163915801671026  0.8934804399102712  0.8946591100342894
  0.4850709698509458  0.7581106601874988  0.4840484698243499
  0.9496154297746625  0.8270529702414766  0.5693230597855552
  0.1798404702408637  0.0851774097973972  0.2949851697874393
  0.1566590098278317  0.1413177301158693  0.9688071200708191
  0.0787897099341711  0.0823712701222435  0.1412116098103691
  0.3140427702143854  0.6644600399051138  0.7798901900966508
  0.1032093598714416  0.2869848499503895  0.8674240498537913
  0.8648996599500723  0.5037421900611568  0.1863746401771909
  0.8779820699075350  0.6419994801422325  0.0587717801358543
  0.4132589498118114  0.4211361799386378  0.0064104997738246
  0.8611297498608557  0.2855801201369534  0.2487978700931131
  0.1832816698121722  0.5852067799963790  0.8962151599329873
  0.2074295401283476  0.4768187298027488  0.7292989200302954
  0.5163892701239106  0.6926403499538948  0.9212214897552868
  0.2070857099071095  0.9605678597984193  0.0108321999234529
  0.3977056201948760  0.6262819001791705  0.0641897599491555
  0.0564117601984951  0.9365576601145011  0.2653331700484468
  0.5865097301499905  0.0803728601889009  0.3407232200080332
  0.7207975301559422  0.4693347002069382  0.3630186798269840
  0.3390587598607641  0.9331054201839634  0.8890101700239834
  0.0529028001772929  0.2655657000158889  0.4876191901641577
  0.1724691498683172  0.3294828498657730  0.6352670200594797
  0.2448639797837884  0.5949695299321934  0.4150600299923222
  0.2151244798051877  0.7248222700714051  0.5442816400541880
  0.5333851202332871  0.4783970800504975  0.1325598200441055
  0.4350416398522062  0.9331355600705112  0.5759850601192174
  0.7041428599932924  0.8592258502069356  0.2997179001923092
  0.8109569701999035  0.2310129500178131  0.4709109698470239
  0.0916962899147348  0.4886174102248924  0.4384960501055821
  0.5242497200813006  0.4074605502030677  0.4556208302359945
  0.2047993000451468  0.0299426798471822  0.8326271299571373
  0.2416461700175121  0.2544319301308023  0.4873617497733956
  0.9583910799192092  0.8192626098967997  0.3535327899404482
  0.6995694000069713  0.8119171299458615  0.1416084999392339
  0.9181184600150005  0.2457770498483495  0.8671076298245990
  0.0559049199556797  0.9060212001370535  0.0839488300920581
  0.0375126399121634  0.2579085902378026  0.0318782999435187
  0.6932092897661410  0.6156825101541156  0.9659156298885272
  0.4798583799390594  0.2138007701483982  0.4149876901465334
  0.5736684098701008  0.9719450700947605  0.7159581097787237
  0.0219411799859466  0.3651534700628551  0.5411967499378735
  0.8561248799936975  0.4457322202049653  0.4957381600358900
  0.9373869602277923  0.2388979701672041  0.0912246199814716
  0.9952658101302356  0.3740088299341986  0.2266491298829138
  0.8181980001163845  0.6725486301595848  0.2534935201866743
  0.2452674299058525  0.9155387800707004  0.5971524697631673
  0.7125772801859330  0.4198011700917846  0.0962631698077355
  0.0332487899359380  0.0030705798105461  0.8969807000107413
  0.2319873499642389  0.8449104698932786  0.1258822401555612
  0.6513147200001648  0.2851654100250678  0.3846899597982870
  0.0238980302224441  0.2540225097825083  0.6857203297576853
  0.5407242500166807  0.5195051100145814  0.9385739400360440
  0.1104987300890529  0.1248362901510338  0.4536100400987612
  0.3892761000195756  0.4942825999575349  0.6953776099455793
  0.8901670099456872  0.8198713901101620  0.0882838001798912
  0.5214519298003760  0.1675027697721828  0.9085559499373635
  0.7665260700777489  0.7243756997967487  0.8135294797936671
  0.1646122198833634  0.3418123798803279  0.2687554701131544
  0.6427299798258516  0.1479815399506821  0.5220021000214385
  0.2706867897640574  0.1192732002094139  0.0893299698150107
  0.5577991999857632  0.5140015301584916  0.6250513697815857
  0.6253868501183480  0.1376813402290149  0.0685932797843228
  0.9562561298628627  0.5855404998566763  0.7423420999439795
  0.0374537200838499  0.6716037999426118  0.4887746201358994
  0.6338929698943817  0.7937903901516861  0.9802625100335148
  0.8160557997992636  0.5389202700260081  0.8426834000011865
  0.7606354599375906  0.4898556198492521  0.6709063198555811
  0.7892794199712940  0.1539412101851530  0.1459985100417509
  0.7694309297820897  0.1609675899273293  0.9582135997713882
  0.5412139399536825  0.5361184602110993  0.3291432499846675
  0.4508547301982799  0.0512457501112738  0.4431096000286696
  0.1003862802063763  0.9559479999080298  0.7185234902026864
  0.6057810497724593  0.6135508702445505  0.4538953000376951
  0.7636551599682850  0.2377860000891269  0.6444666601986765
  0.8556911301646098  0.9701729198715534  0.3241303699741057
  0.5664869802445714  0.3166960298387769  0.0439515798866814
  0.3157611800673277  0.2639317900917875  0.3259264202218592
  0.2906016201580095  0.6911733597700586  0.2233844201607745
  0.5946847102349375  0.7348582698786400  0.3156884401801029
  0.5830431299085047  0.4160365198611014  0.7868409600464989
  0.4792727599677359  0.6436519302219882  0.1932565299533231
  0.3818768801886195  0.8310025401160425  0.0124605298578230
  0.3110052801057286  0.2147261699214237  0.6651217001055060
  0.8354281200793003  0.9641511598725887  0.5798517900408018
  0.6811779499513848  0.3821006200299080  0.5446570000118149
  0.9586627301151340  0.7485572098717872  0.8199506399854064
  0.4067365698221585  0.4043832897985953  0.8471501298149166
  0.6639807299648244  0.2757016699817976  0.1960394500665682
  0.3642332801431836  0.0898714200152202  0.7842679602058782
  0.8024644101616997  0.8294089000493041  0.4585936401157629
  0.6953358100277740  0.8989796198008158  0.8313495701785190
  0.6324474701717880  0.5987196301263951  0.7810411799026048
  0.3997434101875356  0.9472406901754089  0.1743137002376766
  0.3129771201301390  0.8386187000643743  0.4487334099850636
  0.1048610500685684  0.5942579199502380  0.0848107801558073
  0.9423351899145239  0.4137111098811362  0.8944055200423455
  0.6688637401511245  0.5602554798935792  0.2029898297799179
  0.3547684399859652  0.0937742997595780  0.2676637800768286
  0.4154272601863124  0.3032830900573182  0.5493714898018603
  0.0264577801612491  0.8640512902145209  0.7572475801047434
  0.2343629798517856  0.4909669300550591  0.0322667798875442
  0.4353793302218020  0.0306558600898220  0.0041874798110216
  0.2548141800177636  0.3003738401923690  0.0598009798760038
  0.3509405601668448  0.4099008701244399  0.1882472400204982
  0.2205889801232844  0.8312170701798672  0.7764406401506195
  0.0955436599879193  0.7395794799726071  0.1939777502444248
  0.9803363902349298  0.5866376100622579  0.3181935398504757
  0.0271555901844147  0.9848579899476843  0.5604642098468336
  0.0354978302409460  0.2149687999546228  0.2798860499619397
  0.4698890801777655  0.1012756301669874  0.6265681798315679
  0.9205805400333869  0.0824623800494630  0.4615263997687604
  0.2833394699166634  0.4468614700140264  0.5490872799716952
  0.5727218701623359  0.8988638700665419  0.4196089197866426
  0.0014897601893765  0.5825113699276793  0.9075990601379447
  0.9134695598617643  0.0195734999414400  0.1311271897917662
  0.7633425099374265  0.3542202199669015  0.9102336001763320
  0.6572780102174310  0.2282628700708068  0.8025333599504694
  0.9267556399346660  0.4113972300170112  0.6994296502377919
  0.2004579498847111  0.5242923999922149  0.2686103501798985
  0.3559744899067242  0.4571717398963924  0.3677334701383532
  0.7986545498560709  0.1217617800314317  0.7842357500068512
  0.0939014800895799  0.7451025598876981  0.9795343900081418
  0.3979724997986311  0.8529005999493967  0.7344241102031793
  0.2590521297622641  0.9064971298252609  0.2796478497993444
  0.5190664199679114  0.7928316001554475  0.1394501298100141
  0.5504821200352763  0.7675473797849748  0.7582499702052472
  0.3575141199674260  0.6185073601005829  0.9514464101110081
  0.0643563399483486  0.5085057599348403  0.6209629100308284
  0.2678702999972497  0.3129849797677574  0.8130255099462017
  0.7312322599884978  0.0094263400910104  0.4427832500493801
  0.8708626300361406  0.6858630602277579  0.6272180897952813
  0.6925684699596580  0.6593619701883827  0.6090063902207126
  0.4279248600602601  0.2007174301926469  0.0680143198165575
  0.7994737999087846  0.6257975201058816  0.4453114300515539
  0.1211681499167046  0.8484554199167786  0.4500802999840132
  0.1291068898459924  0.6661379901751590  0.7036967897704307
  0.6706464998065732  0.9949578301909411  0.1846063197624342
  0.4001102501450274  0.5786797598202206  0.5187163699847931
