In3 Sb1 Te2                             
   1.00000000000000     
     2.6984052174286344   -4.6737749359953362   -0.0000000000000004
     2.6984052174286344    4.6737749359953362    0.0000000000000004
     0.0000000000000000   -0.0000000000000001    6.3862519838640246
   In   Sb   Te
     3     1     2
Direct
  0.0000000000000000  0.0000000000000000  0.5000000000000000
  0.3333333333333357  0.6666666666666643  0.1447362419454875
  0.6666666666666643  0.3333333333333357  0.8552637580545127
  0.0000000000000000  0.0000000000000000  0.0000000000000000
  0.3333333333333357  0.6666666666666643  0.6525869226070211
  0.6666666666666643  0.3333333333333357  0.3474130773929788
 
  0.00000000E+00  0.00000000E+00  0.00000000E+00
  0.00000000E+00  0.00000000E+00  0.00000000E+00
  0.00000000E+00  0.00000000E+00  0.00000000E+00
  0.00000000E+00  0.00000000E+00  0.00000000E+00
  0.00000000E+00  0.00000000E+00  0.00000000E+00
  0.00000000E+00  0.00000000E+00  0.00000000E+00
