Ge Se                                   
   1.00000000000000     
    19.5617997542078044    0.0000000000000000    0.0000000000000000
     0.0000000000000000   19.5617997542078044    0.0000000000000000
     0.0000000000000000    0.0000000000000000   19.5617997542078044
   Ge   Se
   270    30
Direct
  0.4935183182352908  0.4894748511341929  0.1202517300480887
  0.5392148718169854  0.6479365184332830  0.4032367271973538
  0.8121771204982414  0.3352249890413247  0.6249423440131412
  0.7977486837035169  0.8362822784834665  0.6456414069323478
  0.6065452094808124  0.6549407047804616  0.5213184796827141
  0.5153717495806441  0.0788527175942080  0.5571172482004679
  0.4848098299313456  0.3101822545088284  0.8751042549215658
  0.0784674476561504  0.6200580384500195  0.6839265145983898
  0.3251958332588039  0.5665312560855480  0.2265893701602561
  0.9873349471967996  0.5027935895552867  0.8055191126647802
  0.9701764912669427  0.6529030140358039  0.6120282692116773
  0.3950914034466748  0.1120413414207935  0.5997834545259969
  0.6211486927200252  0.6422806640003590  0.2939739958769548
  0.4792871613252256  0.2835069009089755  0.1517989486518710
  0.0381077946432262  0.9841308295636167  0.0835390854663196
  0.5816374649670867  0.1797306469108474  0.5135502101253749
  0.1661392740354164  0.7101221216963575  0.7197252462384007
  0.2971895255290005  0.2400072362027279  0.6977175181643411
  0.6197679308312561  0.4632945612732666  0.6878189230957663
  0.5509736993024554  0.9040501286954625  0.3153979372323907
  0.4806437288601554  0.7370846508470705  0.6022355320745378
  0.3552735440363044  0.8362377499033909  0.0093658175032699
  0.2043943162811984  0.8278656623428901  0.8669341879657682
  0.1316377642927958  0.9638142568591097  0.2741088516981746
  0.8029886984999982  0.5439470658026409  0.9422855014923319
  0.1244318777678966  0.1316704210250680  0.7436214137073857
  0.6438800384973710  0.3620245843869725  0.9049208214527390
  0.6220672625712259  0.9718019214850148  0.3962109963649326
  0.6389976304974673  0.4296951568743068  0.2083009903012617
  0.8127371586612964  0.2612103239578342  0.8881660056607572
  0.4844229237582838  0.8706584737291486  0.0017415243529753
  0.8109985118236650  0.2286567639897495  0.0953801252584992
  0.7984283800043513  0.7511185979608553  0.3430479864086640
  0.9353903177972195  0.7421062962282167  0.3348552313392392
  0.9916217677189267  0.7506493120421128  0.0818299299640807
  0.4110795943306961  0.3270058249567450  0.5012916203952673
  0.2600922317732625  0.9963362159005222  0.4132581399627986
  0.7507743623404802  0.7506891871123683  0.5599787328590640
  0.8438181471704028  0.1088810190631404  0.0548721870532668
  0.3792947575727805  0.7277649595848743  0.0821044833981500
  0.4972571613326166  0.1863634189170896  0.8951566252341456
  0.0424177731323160  0.0741448584987386  0.6641190362966679
  0.7880856313125061  0.6887108944296119  0.2281185783747779
  0.4592638800643250  0.7280843284640333  0.7300374825113221
  0.6767368783491214  0.3703163844247307  0.7579010361664271
  0.8265721831761678  0.9381848211908986  0.4255747136855666
  0.7562658974028706  0.1227262248691693  0.3976589866066312
  0.7481513342210100  0.6362390613826994  0.8659507197214886
  0.1687623432725193  0.0980613829304579  0.9545289483871564
  0.4125536884003894  0.6727225842380963  0.4076323291127504
  0.4696954740717443  0.4884852397828954  0.3306910688349957
  0.8708678806646922  0.9137271889529914  0.0006950590913626
  0.4812223409378937  0.3981861387385985  0.5831248490992610
  0.2001880672871692  0.3544921519034206  0.5752806355136046
  0.9511730967371528  0.8847557854254164  0.6159451028067848
  0.8656090028360848  0.4035130952693927  0.1681831017647769
  0.1431068177064446  0.5420678126686612  0.2337873319159222
  0.8249279759026735  0.7720541390290103  0.1363350985512519
  0.1951427998220152  0.2222304864394530  0.9277783596775587
  0.7517092728405631  0.2048947139671162  0.2998686341837011
  0.9489850824379965  0.8490669162724858  0.2746723263067211
  0.6122404352833740  0.1432892823435312  0.9316061420764696
  0.2619485952044806  0.9956928916845595  0.9787959469174058
  0.5121125360744606  0.9750716201591531  0.2118046920384828
  0.2722267782460761  0.6528479236849439  0.1395346822889938
  0.2337217427238241  0.4663503177459086  0.9918218968128305
  0.5054280891720608  0.7165878661108335  0.8891430647492143
  0.3001568661173975  0.9730161568673300  0.8556650346036050
  0.5656466250650735  0.8571861136117243  0.6094372520427095
  0.7079308224791366  0.9293530743664846  0.4781875121627208
  0.6728242531832125  0.1109465832211960  0.1202003308670645
  0.8531437725984257  0.3445283074621859  0.7574191895751580
  0.6094296391828035  0.0685308645071994  0.2254800036551756
  0.1872478207543498  0.5401807363582340  0.6968529232710987
  0.3185277475782178  0.1620241633793215  0.4939399163440315
  0.5323541485848217  0.0227466309880738  0.7722655045856163
  0.8245356775401420  0.9155780503861249  0.8117969765784763
  0.5957717938478712  0.2400814516248056  0.6263381880431018
  0.7166652275334631  0.7897746941309958  0.0664420956861315
  0.8748490741071876  0.9520097903396439  0.6963593127377389
  0.0102382744372895  0.2112008925063622  0.2801477185842302
  0.3156167018069709  0.0518959957688903  0.6919693121098384
  0.1353840844873610  0.0467703761322169  0.8405121073318558
  0.6922995840837405  0.0323323963898213  0.5546842991531005
  0.8456586048114443  0.4719626624643278  0.6705309806771474
  0.0502485219399431  0.6670677260392494  0.1721847800912621
  0.6081437700533607  0.3105484799765347  0.1661028306701497
  0.1999709586236379  0.8952794559546263  0.3607366570487260
  0.8177042516598707  0.7373991118417219  0.9228970903764220
  0.3295730193394913  0.7945226299544744  0.2264146130732919
  0.7494062162454098  0.4270542614803322  0.9611971071055007
  0.7743366418269265  0.4346178607301299  0.8178192007487113
  0.4426337109984769  0.4567141735356754  0.9257452637611041
  0.9769372995617126  0.2578387098484020  0.4255153585652897
  0.6663589740923610  0.7530788128420195  0.3406648277428643
  0.1703041294795035  0.6710215541442933  0.2271616316701283
  0.4550034181159840  0.1260995806669011  0.7914851461058928
  0.8768369418000275  0.4684780024139798  0.4266196665025269
  0.7608021357470003  0.8518230411382119  0.9622978539665296
  0.3293961510363071  0.3745542851853658 -0.0011746613957691
  0.0946879216005630  0.5619957372798349  0.1035711101640359
  0.6090445732847174  0.0198929557208146  0.8806442267971337
  0.3301662301374456  0.1018051330037679  0.8190643872603783
  0.1163286843147350  0.4163694258624133  0.9660586425373253
  0.8871405674735305  0.3453298584190646  0.3880012380464184
  0.5185467757395910  0.4948666478349584  0.8121449452479611
  0.7011970326034548  0.5768028818234537  0.6660091060941075
  0.0493827805654480  0.0726632847300092  0.9920256478235157
  0.3698816491765788  0.1028875204706351  0.2942092973906305
  0.7368125090306629  0.4231291194741568  0.1050753359157591
  0.2502902785899789  0.1341402992151689  0.2598373885562922
  0.5893162994397284  0.7972306089140592  0.9669329843941792
  0.8448971387354552  0.2301007111390138  0.5555664320257265
  0.2244202856805015  0.1397644965874580  0.6616255696432501
  0.7709836961073628  0.3176146051236458  0.3518394585676454
  0.1595098582944114  0.8559185313828687  0.9813908432097673
  0.4356539483176759  0.0793538447463886  0.1844279693125210
  0.6031162266924429  0.8069141867257361  0.1317164521530882
  0.4259969281580976  0.7401111905030195  0.2969474489039523
  0.0008305196514687  0.4667707867535200  0.3857355509409455
  0.8219311224722123  0.4419864605690335  0.5461264396837778
  0.8821153244319663  0.9912100397259298  0.8999777019461243
  0.0588862561188518  0.3645869520964199  0.2369013654545634
  0.5088193472374055  0.7177558412998660  0.1158935992479777
  0.0867557458427198  0.2919004206385518  0.9501453316912927
  0.2794160060268232  0.0345277220160079  0.5406364002123343
  0.9584826897541828  0.1578165251109341  0.0143184438919967
  0.4208901619766923  0.5082510861384645  0.6176887268594952
  0.0143447067526103 -0.0001702375412347  0.8762401637916820
  0.5447297634117690  0.3698926849615453  0.7782675859309197
  0.3268348010981691  0.3711026178693874  0.4145243979817935
  0.2320833615946057  0.0629288412364427  0.1543474426226098
  0.5899993360486221  0.7260039994029739  0.7600765364088945
  0.9821633707968505  0.6293447444186905  0.2804869388566821
  0.0231420085193148  0.4925551549686971  0.2534988417435634
  0.3822112109156154  0.7414999728802806  0.5133817850623710
  0.5763972575280861  0.5822475450345389  0.7211612663426394
  0.6330982524992202  0.2540205216118390  0.2792044939978555
  0.4089573318348776  0.5093951437452259  0.7449828055422489
  0.9219343446667029  0.8823973984092747  0.4905869425175029
  0.7681415166801705  0.5480382585600168  0.1462566631198695
  0.0500166705041421  0.9178603328836135  0.7728256430294848
  0.1646254901843010  0.9067190015987511  0.5893372900228468
  0.1864075821256559  0.4862589235994680  0.3892470828615637
  0.0036182565326636  0.7724571869055543  0.6515080876129166
  0.4699020244759216  0.8269592236553475  0.3791801244429495
  0.2537042331885205  0.9369999480155962  0.6849651825813672
  0.2763357736498012  0.5275588971158385  0.8834479914948525
  0.5771076595986663  0.7729095165200116  0.4318078543837008
  0.2705239683306486  0.6425146318920362  0.6909128176509916
  0.3312543382415175  0.4357208293914885  0.2027543596323344
  0.5036488984260760  0.2566295555568496  0.4456702865759710
  0.3878802390297569  0.9162450076192222  0.2355331622369992
  0.4964160816615059  0.3059088869592159  0.6749382148320763
  0.8877818491270754  0.7991501131586001  0.8284955017014302
  0.7061781916239591 -0.0011082859875375  0.6990032378317906
  0.6261735845299385  0.5248461017011081  0.1151356388395573
  0.8629334134014196  0.1232786673432516  0.6311401052380504
  0.3911766812860458  0.3918924052940900  0.3074962154334011
  0.7870013496134194  0.5580554274121051  0.7593954934579258
  0.1440274996762486  0.3674210634781964  0.3413372614421761
  0.4648515966872533  0.1684973853671144  0.0915427721362460
  0.6950834781189260  0.0421802082023019  0.3184354633533396
  0.8705438217023479  0.0606077594643583  0.4004994971183724
  0.9657878029483971  0.6486350536859078  0.9092142774070459
  0.8500196391479871  0.2262116574123937  0.2184346189145409
  0.2455103451665728  0.8966423230416968  0.0677561135297436
  0.7683342741499998  0.0093360657723799  0.1032210369802993
  0.3129868525965210  0.2758921731825251  0.5720300223908363
  0.8962684945619356  0.3204456987557928  0.0716384764183110
  0.0980840780769369  0.6561712256022613  0.9332628286552139
  0.0165022489867504  0.2650232071611039  0.0592075875875416
  0.6461398696369076  0.5694156541844955  0.9846355636313513
  0.2863937653199056  0.8014782547593093  0.3495399888394851
  0.8861101129628609  0.6314050360090273  0.7093313658545527
  0.1077477569888485  0.7446324308740782  0.4365054037754459
  0.3958937070446616  0.8263089452715662  0.7859356469536307
  0.2082349207127371  0.2685901056677636  0.1332868841109380
  0.8264661729562713  0.8776099785155967  0.3102171761739185
  0.2759100594369331  0.2594748442791839  0.2471974985163537
  0.6583591900344857  0.6976893580698522  0.6376260135205990
  0.2072708216047008  0.6993528604422413  0.3494526278343391
  0.2397093900677628  0.2847302486245451  0.3720518972378959
  0.1828923533237138  0.1232102868796534  0.5384945784919503
  0.5956647304680610  0.8358713426973223  0.8373812458911944
  0.4877915347031308  0.9113630298536493  0.8177469280756987
  0.7130998383089442  0.1611256176384553  0.5147960805155399
  0.9018637797774274  0.0266489062979019  0.2817058185209372
  0.5816306482688680  0.4619095730320592  0.3894042415866715
  0.3586408359555048  0.8555247899696486  0.4493152796382632
  0.9700917741501941  0.7669884170883319  0.4574308860846999
  0.2037970436105104  0.4236772361522381  0.2232145867844390
  0.1362529157713016  0.3808503762467675  0.1212646923265143
  0.6847489854049625  0.3298002639191935  0.6311980728990444
  0.2719536311612024  0.5795770512431140  0.3478663322969800
  0.1985026363317172  0.2453053719481575  0.4915870549624473
  0.2270068867315488  0.5148361100005356  0.1202150166621774
  0.3249800292997961  0.7844179776338770  0.8891419881662874
  0.1270887831701675  0.8776901871598312  0.4643816457835580
 -0.0080927196701365  0.6284674087395142  0.7819555615924011
  0.1524888350731615  0.9595544110617149  0.1464010693134007
  0.1797529961626780  0.9314336105826109  0.7932907250414737
  0.5466185853371147  0.1642658249923944  0.2758494841455719
  0.9914498829294038  0.0721102143302926  0.4518059408891928
  0.2313334628662315  0.4152248304727956  0.6975558009640900
  0.3781388398293486  0.6319335942114250  0.7637277882290577
  0.5932646022883714  0.3303440630489936  0.3804771519604264
  0.9106019384248584  0.9656635183780938  0.1154215463800071
  0.8029071686754404  0.6820013314560883  0.4612448450431845
  0.4204602610842850  0.2017149753316208  0.6924563041889260
  0.8623107942277645  0.5844557165178664  0.2414709867470413
  0.4204465233315559  0.6584223687968788  0.9778283596354902
  0.7845019169159017 -0.0182298256295464  0.2382789261982815
  0.6723631426944033  0.6450320906364493  0.1648107138394734
  0.7050803557761971  0.5959295148494528  0.4628362231234992
  0.6523147719858030  0.8226755028348638  0.5221080769454877
  0.0085009660099226  0.9531172208494586  0.3110713161981400
  0.6845617023553699  0.2383058385604089  0.0865967485284343
  0.6135239250687876  0.4169092158157511  0.5615824556519201
  0.3327878828392256  0.6490932996855781  0.8827562442661859
  0.5083124686561101  0.6058264420872138  0.6079300892774800
 -0.0016158837128802  0.2885558719770074  0.8510696343271030
  0.0994650521740262  0.4510826392753673  0.8438497255632795
  0.2843641305256500  0.2499269424285940  0.0198041405134071
  0.9301247054114131  0.8442721732685105  0.1514547851865499
  0.5247464341148641  0.5419697652339339  0.4842566463853222
  0.1189536512235889  0.7397681489483058  0.8339957508260292
  0.0564554455963947  0.9497155021112954  0.6462963942674709
  0.9331261682082942  0.5140758773856363  0.1499060626412692
  0.3166841364722929  0.4372485597631465  0.7955459598244408
  0.0112899713660832  0.7934122054924759  0.7805919028950926
  0.0307110183351983  0.6365241045759270  0.4040716338739622
  0.2709406736390141  0.1130185560654166  0.0420380299576038
  0.3976856266573109  0.1795843328442498  0.9810526136374105
  0.6785906745814131  0.5397776991728704  0.3498207531889934
  0.5640252453959482  0.6706325292206271  0.0064086873889438
  0.3557800491729057  0.3372331506593026  0.8730170170705206
  0.0845340015566957  0.2469785832998336  0.1710794005705358
  0.9273286260029758  0.3292596064835395  0.2625685403024467
  0.0488040640251540  0.9188465780498499  0.9716983770474921
  0.8753623842928046  0.7023760633576630  0.0366260528479116
  0.3829019586102406  0.0551295901231190  0.9391959111098033
  0.5099998091232322  0.6668464217967406  0.2338295335490576
  0.6988628597885829  0.9167096549702732  0.8637400081973235
  0.8021539148653477  0.5074529793894669  0.3243589016694416
  0.0196274629295930  0.9469186652508430  0.4397672014304017
  0.2915929941616623  0.6602564392244140  0.5639735434657948
  0.2518400251615941  0.4413135544797112  0.4915331528092582
  0.7263356732012844  0.6597262702884205  0.0394558023390243
  0.3834219078409372  0.5493793497859440  0.4128539694000442
  0.0359306649031462  0.4515934761871442  0.0640108180542126
  0.4929356023574778  0.9769589485184902  0.9299013441723843
  0.3289216589231798  0.5369343872359748  0.5300063288685027
  0.5910045060534123  0.0497101988146842  0.6599642313642869
  0.1310092899950000  0.7867744073837141  0.6256296365391895
  0.2846124996088067  0.2304015079512932  0.8306091434461034
  0.4083528093087644  0.2737079643781856  0.2604785421314056
  0.4525602707322585  0.5559472519848060  0.2238637239448404
  0.7098812501746762  0.5068554506244570  0.5548222664023844
  0.9286306740256580  0.6478155485208741  0.4883572006115045
  0.8065060863912813  0.0136374766074790  0.6055302703944001
  0.4481547403317380  0.1888026410024981  0.3498559201443998
  0.1925047368180692  0.6070538381825424  0.0204463346521353
  0.9768853092297587  0.1256601999597005  0.5668749315402186
  0.8532334418513166  0.5789652496437931  0.0548140336943867
  0.1759554555461023  0.0674074178662402  0.3397993635737601
  0.7605103170400830  0.4063866901801318  0.2556881687337662
  0.4096442343420778  0.3867845926199999  0.1061648018737193
  0.6928735403351115  0.2454665750053211  0.9561542649739583
  0.6094538416708243  0.6231061025583983  0.8499532220081847
  0.8191594058495771  0.7405322120072366  0.7338715752235911
  0.1395558987750559  0.3640203928207653  0.7660178167818302
  0.6357509786750937  0.1563268953741955  0.7089707618297308
  0.6969855299093896  0.3291331468775145  0.4519840146317445
  0.1659213074838218  0.5584386948144279  0.8245449014664867
  0.9322378190811432  0.5198265253885670  0.9208561476762200
  0.3748390759514465  0.9877329171738574  0.3471698933907095
  0.5223307474912079  0.9848922660760282  0.4744551703606645
  0.6441552360904950  0.8437921983384821  0.2514520355510526
  0.6765122086528623  0.8710859664329746  0.6887505783607459
  0.5672176451286892  0.1001111967670470  0.0455660961211622
  0.3439744284788377 -0.0039612420722480  0.1430814945109262
  0.9611595420500377  0.8295741831115028  0.9627853244764519
  0.0571961994017819  0.3603771597758206  0.4390017453438375
  0.9808372923307420  0.2515691497308091  0.5571310042489576
  0.4192341245078048  0.5383966114867667  0.0256672061366883
  0.0860446281047332  0.5326998296121642  0.4569422607129878
  0.9250087992924938  0.1907326295381055  0.8961894060350907
  0.8636453779041388  0.3617023161959553  0.9545944548870209
  0.7989052796672358  0.0793553533622719  0.9375250726899236
  0.1152987927727045  0.7458226309030455  0.0313488325712669
  0.5246338108440938  0.3717195320290143  0.9799535793603166
  0.9324306091191421  0.0728075614167433  0.7309351723468186
  0.5558660700367755  0.9230824555012117  0.1026544389124598
  0.0402116050170718  0.2234456598430982  0.7503719622164282
  0.9540060346515294  0.4192757440995751  0.7142389608401243
  0.9353040714904041  0.1282867479972022  0.2106070649373379
  0.1600674793637139  0.6915728643792974  0.5434785009882989
  0.3295107876008297  0.8385533021876119  0.6801744813972105
  0.0784131966977282  0.1401704567961990  0.3816656120465382
 
  0.00000000E+00  0.00000000E+00  0.00000000E+00
  0.00000000E+00  0.00000000E+00  0.00000000E+00
  0.00000000E+00  0.00000000E+00  0.00000000E+00
  0.00000000E+00  0.00000000E+00  0.00000000E+00
  0.00000000E+00  0.00000000E+00  0.00000000E+00
  0.00000000E+00  0.00000000E+00  0.00000000E+00
  0.00000000E+00  0.00000000E+00  0.00000000E+00
  0.00000000E+00  0.00000000E+00  0.00000000E+00
  0.00000000E+00  0.00000000E+00  0.00000000E+00
  0.00000000E+00  0.00000000E+00  0.00000000E+00
  0.00000000E+00  0.00000000E+00  0.00000000E+00
  0.00000000E+00  0.00000000E+00  0.00000000E+00
  0.00000000E+00  0.00000000E+00  0.00000000E+00
  0.00000000E+00  0.00000000E+00  0.00000000E+00
  0.00000000E+00  0.00000000E+00  0.00000000E+00
  0.00000000E+00  0.00000000E+00  0.00000000E+00
  0.00000000E+00  0.00000000E+00  0.00000000E+00
  0.00000000E+00  0.00000000E+00  0.00000000E+00
  0.00000000E+00  0.00000000E+00  0.00000000E+00
  0.00000000E+00  0.00000000E+00  0.00000000E+00
  0.00000000E+00  0.00000000E+00  0.00000000E+00
  0.00000000E+00  0.00000000E+00  0.00000000E+00
  0.00000000E+00  0.00000000E+00  0.00000000E+00
  0.00000000E+00  0.00000000E+00  0.00000000E+00
  0.00000000E+00  0.00000000E+00  0.00000000E+00
  0.00000000E+00  0.00000000E+00  0.00000000E+00
  0.00000000E+00  0.00000000E+00  0.00000000E+00
  0.00000000E+00  0.00000000E+00  0.00000000E+00
  0.00000000E+00  0.00000000E+00  0.00000000E+00
  0.00000000E+00  0.00000000E+00  0.00000000E+00
  0.00000000E+00  0.00000000E+00  0.00000000E+00
  0.00000000E+00  0.00000000E+00  0.00000000E+00
  0.00000000E+00  0.00000000E+00  0.00000000E+00
  0.00000000E+00  0.00000000E+00  0.00000000E+00
  0.00000000E+00  0.00000000E+00  0.00000000E+00
  0.00000000E+00  0.00000000E+00  0.00000000E+00
  0.00000000E+00  0.00000000E+00  0.00000000E+00
  0.00000000E+00  0.00000000E+00  0.00000000E+00
  0.00000000E+00  0.00000000E+00  0.00000000E+00
  0.00000000E+00  0.00000000E+00  0.00000000E+00
  0.00000000E+00  0.00000000E+00  0.00000000E+00
  0.00000000E+00  0.00000000E+00  0.00000000E+00
  0.00000000E+00  0.00000000E+00  0.00000000E+00
  0.00000000E+00  0.00000000E+00  0.00000000E+00
  0.00000000E+00  0.00000000E+00  0.00000000E+00
  0.00000000E+00  0.00000000E+00  0.00000000E+00
  0.00000000E+00  0.00000000E+00  0.00000000E+00
  0.00000000E+00  0.00000000E+00  0.00000000E+00
  0.00000000E+00  0.00000000E+00  0.00000000E+00
  0.00000000E+00  0.00000000E+00  0.00000000E+00
  0.00000000E+00  0.00000000E+00  0.00000000E+00
  0.00000000E+00  0.00000000E+00  0.00000000E+00
  0.00000000E+00  0.00000000E+00  0.00000000E+00
  0.00000000E+00  0.00000000E+00  0.00000000E+00
  0.00000000E+00  0.00000000E+00  0.00000000E+00
  0.00000000E+00  0.00000000E+00  0.00000000E+00
  0.00000000E+00  0.00000000E+00  0.00000000E+00
  0.00000000E+00  0.00000000E+00  0.00000000E+00
  0.00000000E+00  0.00000000E+00  0.00000000E+00
  0.00000000E+00  0.00000000E+00  0.00000000E+00
  0.00000000E+00  0.00000000E+00  0.00000000E+00
  0.00000000E+00  0.00000000E+00  0.00000000E+00
  0.00000000E+00  0.00000000E+00  0.00000000E+00
  0.00000000E+00  0.00000000E+00  0.00000000E+00
  0.00000000E+00  0.00000000E+00  0.00000000E+00
  0.00000000E+00  0.00000000E+00  0.00000000E+00
  0.00000000E+00  0.00000000E+00  0.00000000E+00
  0.00000000E+00  0.00000000E+00  0.00000000E+00
  0.00000000E+00  0.00000000E+00  0.00000000E+00
  0.00000000E+00  0.00000000E+00  0.00000000E+00
  0.00000000E+00  0.00000000E+00  0.00000000E+00
  0.00000000E+00  0.00000000E+00  0.00000000E+00
  0.00000000E+00  0.00000000E+00  0.00000000E+00
  0.00000000E+00  0.00000000E+00  0.00000000E+00
  0.00000000E+00  0.00000000E+00  0.00000000E+00
  0.00000000E+00  0.00000000E+00  0.00000000E+00
  0.00000000E+00  0.00000000E+00  0.00000000E+00
  0.00000000E+00  0.00000000E+00  0.00000000E+00
  0.00000000E+00  0.00000000E+00  0.00000000E+00
  0.00000000E+00  0.00000000E+00  0.00000000E+00
  0.00000000E+00  0.00000000E+00  0.00000000E+00
  0.00000000E+00  0.00000000E+00  0.00000000E+00
  0.00000000E+00  0.00000000E+00  0.00000000E+00
  0.00000000E+00  0.00000000E+00  0.00000000E+00
  0.00000000E+00  0.00000000E+00  0.00000000E+00
  0.00000000E+00  0.00000000E+00  0.00000000E+00
  0.00000000E+00  0.00000000E+00  0.00000000E+00
  0.00000000E+00  0.00000000E+00  0.00000000E+00
  0.00000000E+00  0.00000000E+00  0.00000000E+00
  0.00000000E+00  0.00000000E+00  0.00000000E+00
  0.00000000E+00  0.00000000E+00  0.00000000E+00
  0.00000000E+00  0.00000000E+00  0.00000000E+00
  0.00000000E+00  0.00000000E+00  0.00000000E+00
  0.00000000E+00  0.00000000E+00  0.00000000E+00
  0.00000000E+00  0.00000000E+00  0.00000000E+00
  0.00000000E+00  0.00000000E+00  0.00000000E+00
  0.00000000E+00  0.00000000E+00  0.00000000E+00
  0.00000000E+00  0.00000000E+00  0.00000000E+00
  0.00000000E+00  0.00000000E+00  0.00000000E+00
  0.00000000E+00  0.00000000E+00  0.00000000E+00
  0.00000000E+00  0.00000000E+00  0.00000000E+00
  0.00000000E+00  0.00000000E+00  0.00000000E+00
  0.00000000E+00  0.00000000E+00  0.00000000E+00
  0.00000000E+00  0.00000000E+00  0.00000000E+00
  0.00000000E+00  0.00000000E+00  0.00000000E+00
  0.00000000E+00  0.00000000E+00  0.00000000E+00
  0.00000000E+00  0.00000000E+00  0.00000000E+00
  0.00000000E+00  0.00000000E+00  0.00000000E+00
  0.00000000E+00  0.00000000E+00  0.00000000E+00
  0.00000000E+00  0.00000000E+00  0.00000000E+00
  0.00000000E+00  0.00000000E+00  0.00000000E+00
  0.00000000E+00  0.00000000E+00  0.00000000E+00
  0.00000000E+00  0.00000000E+00  0.00000000E+00
  0.00000000E+00  0.00000000E+00  0.00000000E+00
  0.00000000E+00  0.00000000E+00  0.00000000E+00
  0.00000000E+00  0.00000000E+00  0.00000000E+00
  0.00000000E+00  0.00000000E+00  0.00000000E+00
  0.00000000E+00  0.00000000E+00  0.00000000E+00
  0.00000000E+00  0.00000000E+00  0.00000000E+00
  0.00000000E+00  0.00000000E+00  0.00000000E+00
  0.00000000E+00  0.00000000E+00  0.00000000E+00
  0.00000000E+00  0.00000000E+00  0.00000000E+00
  0.00000000E+00  0.00000000E+00  0.00000000E+00
  0.00000000E+00  0.00000000E+00  0.00000000E+00
  0.00000000E+00  0.00000000E+00  0.00000000E+00
  0.00000000E+00  0.00000000E+00  0.00000000E+00
  0.00000000E+00  0.00000000E+00  0.00000000E+00
  0.00000000E+00  0.00000000E+00  0.00000000E+00
  0.00000000E+00  0.00000000E+00  0.00000000E+00
  0.00000000E+00  0.00000000E+00  0.00000000E+00
  0.00000000E+00  0.00000000E+00  0.00000000E+00
  0.00000000E+00  0.00000000E+00  0.00000000E+00
  0.00000000E+00  0.00000000E+00  0.00000000E+00
  0.00000000E+00  0.00000000E+00  0.00000000E+00
  0.00000000E+00  0.00000000E+00  0.00000000E+00
  0.00000000E+00  0.00000000E+00  0.00000000E+00
  0.00000000E+00  0.00000000E+00  0.00000000E+00
  0.00000000E+00  0.00000000E+00  0.00000000E+00
  0.00000000E+00  0.00000000E+00  0.00000000E+00
  0.00000000E+00  0.00000000E+00  0.00000000E+00
  0.00000000E+00  0.00000000E+00  0.00000000E+00
  0.00000000E+00  0.00000000E+00  0.00000000E+00
  0.00000000E+00  0.00000000E+00  0.00000000E+00
  0.00000000E+00  0.00000000E+00  0.00000000E+00
  0.00000000E+00  0.00000000E+00  0.00000000E+00
  0.00000000E+00  0.00000000E+00  0.00000000E+00
  0.00000000E+00  0.00000000E+00  0.00000000E+00
  0.00000000E+00  0.00000000E+00  0.00000000E+00
  0.00000000E+00  0.00000000E+00  0.00000000E+00
  0.00000000E+00  0.00000000E+00  0.00000000E+00
  0.00000000E+00  0.00000000E+00  0.00000000E+00
  0.00000000E+00  0.00000000E+00  0.00000000E+00
  0.00000000E+00  0.00000000E+00  0.00000000E+00
  0.00000000E+00  0.00000000E+00  0.00000000E+00
  0.00000000E+00  0.00000000E+00  0.00000000E+00
  0.00000000E+00  0.00000000E+00  0.00000000E+00
  0.00000000E+00  0.00000000E+00  0.00000000E+00
  0.00000000E+00  0.00000000E+00  0.00000000E+00
  0.00000000E+00  0.00000000E+00  0.00000000E+00
  0.00000000E+00  0.00000000E+00  0.00000000E+00
  0.00000000E+00  0.00000000E+00  0.00000000E+00
  0.00000000E+00  0.00000000E+00  0.00000000E+00
  0.00000000E+00  0.00000000E+00  0.00000000E+00
  0.00000000E+00  0.00000000E+00  0.00000000E+00
  0.00000000E+00  0.00000000E+00  0.00000000E+00
  0.00000000E+00  0.00000000E+00  0.00000000E+00
  0.00000000E+00  0.00000000E+00  0.00000000E+00
  0.00000000E+00  0.00000000E+00  0.00000000E+00
  0.00000000E+00  0.00000000E+00  0.00000000E+00
  0.00000000E+00  0.00000000E+00  0.00000000E+00
  0.00000000E+00  0.00000000E+00  0.00000000E+00
  0.00000000E+00  0.00000000E+00  0.00000000E+00
  0.00000000E+00  0.00000000E+00  0.00000000E+00
  0.00000000E+00  0.00000000E+00  0.00000000E+00
  0.00000000E+00  0.00000000E+00  0.00000000E+00
  0.00000000E+00  0.00000000E+00  0.00000000E+00
  0.00000000E+00  0.00000000E+00  0.00000000E+00
  0.00000000E+00  0.00000000E+00  0.00000000E+00
  0.00000000E+00  0.00000000E+00  0.00000000E+00
  0.00000000E+00  0.00000000E+00  0.00000000E+00
  0.00000000E+00  0.00000000E+00  0.00000000E+00
  0.00000000E+00  0.00000000E+00  0.00000000E+00
  0.00000000E+00  0.00000000E+00  0.00000000E+00
  0.00000000E+00  0.00000000E+00  0.00000000E+00
  0.00000000E+00  0.00000000E+00  0.00000000E+00
  0.00000000E+00  0.00000000E+00  0.00000000E+00
  0.00000000E+00  0.00000000E+00  0.00000000E+00
  0.00000000E+00  0.00000000E+00  0.00000000E+00
  0.00000000E+00  0.00000000E+00  0.00000000E+00
  0.00000000E+00  0.00000000E+00  0.00000000E+00
  0.00000000E+00  0.00000000E+00  0.00000000E+00
  0.00000000E+00  0.00000000E+00  0.00000000E+00
  0.00000000E+00  0.00000000E+00  0.00000000E+00
  0.00000000E+00  0.00000000E+00  0.00000000E+00
  0.00000000E+00  0.00000000E+00  0.00000000E+00
  0.00000000E+00  0.00000000E+00  0.00000000E+00
  0.00000000E+00  0.00000000E+00  0.00000000E+00
  0.00000000E+00  0.00000000E+00  0.00000000E+00
  0.00000000E+00  0.00000000E+00  0.00000000E+00
  0.00000000E+00  0.00000000E+00  0.00000000E+00
  0.00000000E+00  0.00000000E+00  0.00000000E+00
  0.00000000E+00  0.00000000E+00  0.00000000E+00
  0.00000000E+00  0.00000000E+00  0.00000000E+00
  0.00000000E+00  0.00000000E+00  0.00000000E+00
  0.00000000E+00  0.00000000E+00  0.00000000E+00
  0.00000000E+00  0.00000000E+00  0.00000000E+00
  0.00000000E+00  0.00000000E+00  0.00000000E+00
  0.00000000E+00  0.00000000E+00  0.00000000E+00
  0.00000000E+00  0.00000000E+00  0.00000000E+00
  0.00000000E+00  0.00000000E+00  0.00000000E+00
  0.00000000E+00  0.00000000E+00  0.00000000E+00
  0.00000000E+00  0.00000000E+00  0.00000000E+00
  0.00000000E+00  0.00000000E+00  0.00000000E+00
  0.00000000E+00  0.00000000E+00  0.00000000E+00
  0.00000000E+00  0.00000000E+00  0.00000000E+00
  0.00000000E+00  0.00000000E+00  0.00000000E+00
  0.00000000E+00  0.00000000E+00  0.00000000E+00
  0.00000000E+00  0.00000000E+00  0.00000000E+00
  0.00000000E+00  0.00000000E+00  0.00000000E+00
  0.00000000E+00  0.00000000E+00  0.00000000E+00
  0.00000000E+00  0.00000000E+00  0.00000000E+00
  0.00000000E+00  0.00000000E+00  0.00000000E+00
  0.00000000E+00  0.00000000E+00  0.00000000E+00
  0.00000000E+00  0.00000000E+00  0.00000000E+00
  0.00000000E+00  0.00000000E+00  0.00000000E+00
  0.00000000E+00  0.00000000E+00  0.00000000E+00
  0.00000000E+00  0.00000000E+00  0.00000000E+00
  0.00000000E+00  0.00000000E+00  0.00000000E+00
  0.00000000E+00  0.00000000E+00  0.00000000E+00
  0.00000000E+00  0.00000000E+00  0.00000000E+00
  0.00000000E+00  0.00000000E+00  0.00000000E+00
  0.00000000E+00  0.00000000E+00  0.00000000E+00