In2O3 structure 50 - random placement wi
   1.00000000000000     
     8.0534556307739891    0.0307913587267983   -0.1450176314883231
     0.0308724516947324    8.0099870358018936   -0.0051365634722667
    -0.1446494264893161   -0.0061869053733619    8.1438896206885580
   In   Ga   O 
    14     2    24
Direct
  0.6648561887873115  0.2135209329611811  0.4034719893698480
  0.9289092429433978  0.9668242012356885  0.1217356263628986
  0.4574473436396715  0.9499113474253988  0.1440368133861440
  0.8405178434817984  0.5444687693571311  0.1695077320364149
  0.1736683543276953  0.2023906538135378  0.8826658014270095
  0.6644472657108054  0.2048906622175934  0.8969755676121380
  0.3893983390239484  0.4352948159806829  0.6704058711474588
  0.3978866722373340  0.4388981034900326  0.1747833747578653
  0.9288699059952847  0.9746557135063796  0.6108739485459438
  0.1624833705905573  0.2196712826478020  0.4006933850794567
  0.8765581784677821  0.4622848925914340  0.6692688620702043
  0.4181797382317995  0.9351145456826018  0.6319084893755473
  0.1687288585708089  0.7103116645355101  0.9133902317818610
  0.1496436255130007  0.7191901317848206  0.4052918694395800
  0.6104501491282051  0.7128869378801852  0.9083228277050921
  0.6332992217541786  0.7125884331420167  0.4472347649540964
  0.6742217966006976  0.9555881310337426  0.5179982018761464
  0.4090722020277511  0.6699197232682366  0.0279631338320598
  0.5321873974352940  0.6717906726860932  0.6719629554434832
  0.4073979376477297  0.1816521199397059  0.2880767847434882
  0.1364735815452818  0.3774873239465677  0.0825264321866186
  0.2701672272560245  0.4764904618504815  0.4198272047664489
  0.7099834857162151  0.7911797483396867  0.1264120384921199
  0.2014894920270507  0.9741848681181509  0.0245846318611243
  0.1323536458232013  0.4753811949148172  0.7684455426367904
  0.9224472024148440  0.2431764034495316  0.5185645386053039
  0.4126102586120766  0.8123909036872021  0.3775744725528938
  0.0064176387137280  0.3221477025866974  0.1932356000494693
  0.4247955592344681  0.3240578154664391  0.9285798692894573
  0.2861144073130930  0.1704833938210797  0.6410348498925202
  0.1613092636957347  0.8253340261738060  0.6668876648595230
  0.0472434422119790  0.7051411068406139  0.1476952548630450
  0.7650594664370587  0.5191600326624979  0.9103021695563882
  0.5441939484836382  0.9533244816043549  0.8739092115390008
  0.6303192778823359  0.4900143365394598  0.3200330587951399
  0.9145472303007196  0.0893758035010705  0.8593614864520802
  0.7111841597331363  0.1340994327227776  0.1531652401917825
  0.6345630363551251  0.3182446060389879  0.6507746111755708
  0.0480228288455748  0.9729399313441860  0.3680393425332156
  0.8741591765581802  0.6654179832603830  0.4927456146713709
 
  0.00000000E+00  0.00000000E+00  0.00000000E+00
  0.00000000E+00  0.00000000E+00  0.00000000E+00
  0.00000000E+00  0.00000000E+00  0.00000000E+00
  0.00000000E+00  0.00000000E+00  0.00000000E+00
  0.00000000E+00  0.00000000E+00  0.00000000E+00
  0.00000000E+00  0.00000000E+00  0.00000000E+00
  0.00000000E+00  0.00000000E+00  0.00000000E+00
  0.00000000E+00  0.00000000E+00  0.00000000E+00
  0.00000000E+00  0.00000000E+00  0.00000000E+00
  0.00000000E+00  0.00000000E+00  0.00000000E+00
  0.00000000E+00  0.00000000E+00  0.00000000E+00
  0.00000000E+00  0.00000000E+00  0.00000000E+00
  0.00000000E+00  0.00000000E+00  0.00000000E+00
  0.00000000E+00  0.00000000E+00  0.00000000E+00
  0.00000000E+00  0.00000000E+00  0.00000000E+00
  0.00000000E+00  0.00000000E+00  0.00000000E+00
  0.00000000E+00  0.00000000E+00  0.00000000E+00
  0.00000000E+00  0.00000000E+00  0.00000000E+00
  0.00000000E+00  0.00000000E+00  0.00000000E+00
  0.00000000E+00  0.00000000E+00  0.00000000E+00
  0.00000000E+00  0.00000000E+00  0.00000000E+00
  0.00000000E+00  0.00000000E+00  0.00000000E+00
  0.00000000E+00  0.00000000E+00  0.00000000E+00
  0.00000000E+00  0.00000000E+00  0.00000000E+00
  0.00000000E+00  0.00000000E+00  0.00000000E+00
  0.00000000E+00  0.00000000E+00  0.00000000E+00
  0.00000000E+00  0.00000000E+00  0.00000000E+00
  0.00000000E+00  0.00000000E+00  0.00000000E+00
  0.00000000E+00  0.00000000E+00  0.00000000E+00
  0.00000000E+00  0.00000000E+00  0.00000000E+00
  0.00000000E+00  0.00000000E+00  0.00000000E+00
  0.00000000E+00  0.00000000E+00  0.00000000E+00
  0.00000000E+00  0.00000000E+00  0.00000000E+00
  0.00000000E+00  0.00000000E+00  0.00000000E+00
  0.00000000E+00  0.00000000E+00  0.00000000E+00
  0.00000000E+00  0.00000000E+00  0.00000000E+00
  0.00000000E+00  0.00000000E+00  0.00000000E+00
  0.00000000E+00  0.00000000E+00  0.00000000E+00
  0.00000000E+00  0.00000000E+00  0.00000000E+00
  0.00000000E+00  0.00000000E+00  0.00000000E+00
