Sb2Te3 rock-salt random cation occupancy
   1.00000000000000     
    18.5115264665545141    0.0000000000000000    0.0000000000000000
     0.0000000000000000   18.5115264665545141    0.0000000000000000
     0.0000000000000000    0.0000000000000000   18.5115264665545141
   Sb   Te
    72   108
Direct
  0.5000000000000000  0.0000000000000000  0.1666666667000030
  0.8333333332999970  0.8333333332999970  0.0000000000000000
  0.0000000000000000  0.6666666667000030  0.6666666667000030
  0.6666666667000030  0.5000000000000000  0.1666666667000030
  0.6666666667000030  0.8333333332999970  0.8333333332999970
  0.3333333332999970  0.8333333332999970  0.5000000000000000
  0.0000000000000000  0.3333333332999970  0.3333333332999970
  0.1666666667000030  0.8333333332999970  0.6666666667000030
  0.5000000000000000  0.3333333332999970  0.1666666667000030
  0.6666666667000030  0.5000000000000000  0.5000000000000000
  0.1666666667000030  0.3333333332999970  0.1666666667000030
  0.3333333332999970  0.1666666667000030  0.8333333332999970
  0.3333333332999970  0.3333333332999970  0.6666666667000030
  0.1666666667000030  0.6666666667000030  0.8333333332999970
  0.1666666667000030  0.1666666667000030  0.6666666667000030
  0.1666666667000030  0.8333333332999970  0.0000000000000000
  0.1666666667000030  0.1666666667000030  0.0000000000000000
  0.3333333332999970  0.1666666667000030  0.1666666667000030
  0.5000000000000000  0.1666666667000030  0.6666666667000030
  0.6666666667000030  0.6666666667000030  0.6666666667000030
  0.8333333332999970  0.6666666667000030  0.5000000000000000
  0.0000000000000000  0.8333333332999970  0.8333333332999970
  0.8333333332999970  0.1666666667000030  0.0000000000000000
  0.0000000000000000  0.5000000000000000  0.8333333332999970
  0.8333333332999970  0.5000000000000000  0.3333333332999970
  0.0000000000000000  0.1666666667000030  0.5000000000000000
  0.6666666667000030  0.0000000000000000  0.0000000000000000
  0.3333333332999970  0.5000000000000000  0.8333333332999970
  0.1666666667000030  0.0000000000000000  0.1666666667000030
  0.5000000000000000  0.3333333332999970  0.8333333332999970
  0.8333333332999970  0.1666666667000030  0.6666666667000030
  0.5000000000000000  0.8333333332999970  0.6666666667000030
  0.1666666667000030  0.3333333332999970  0.5000000000000000
  0.0000000000000000  0.0000000000000000  0.6666666667000030
  0.5000000000000000  0.1666666667000030  0.0000000000000000
  0.8333333332999970  0.6666666667000030  0.1666666667000030
  0.0000000000000000  0.5000000000000000  0.1666666667000030
  0.5000000000000000  0.5000000000000000  0.6666666667000030
  0.6666666667000030  0.8333333332999970  0.1666666667000030
  0.6666666667000030  0.1666666667000030  0.1666666667000030
  0.3333333332999970  0.3333333332999970  0.3333333332999970
  0.3333333332999970  0.0000000000000000  0.3333333332999970
  0.3333333332999970  0.8333333332999970  0.1666666667000030
  0.1666666667000030  0.6666666667000030  0.5000000000000000
  0.3333333332999970  0.0000000000000000  0.0000000000000000
  0.1666666667000030  0.6666666667000030  0.1666666667000030
  0.3333333332999970  0.5000000000000000  0.1666666667000030
  0.8333333332999970  0.1666666667000030  0.3333333332999970
  0.6666666667000030  0.5000000000000000  0.8333333332999970
  0.1666666667000030  0.8333333332999970  0.3333333332999970
  0.1666666667000030  0.5000000000000000  0.6666666667000030
  0.6666666667000030  0.6666666667000030  0.3333333332999970
  0.5000000000000000  0.0000000000000000  0.8333333332999970
  0.3333333332999970  0.0000000000000000  0.6666666667000030
  0.5000000000000000  0.1666666667000030  0.3333333332999970
  0.6666666667000030  0.0000000000000000  0.6666666667000030
  0.6666666667000030  0.8333333332999970  0.5000000000000000
  0.0000000000000000  0.3333333332999970  0.0000000000000000
  0.6666666667000030  0.1666666667000030  0.5000000000000000
  0.8333333332999970  0.5000000000000000  0.6666666667000030
  0.3333333332999970  0.6666666667000030  0.3333333332999970
  0.3333333332999970  0.1666666667000030  0.5000000000000000
  0.6666666667000030  0.3333333332999970  0.0000000000000000
  0.3333333332999970  0.3333333332999970  0.0000000000000000
  0.0000000000000000  0.1666666667000030  0.1666666667000030
  0.5000000000000000  0.0000000000000000  0.5000000000000000
  0.0000000000000000  0.8333333332999970  0.5000000000000000
  0.1666666667000030  0.1666666667000030  0.3333333332999970
  0.1666666667000030  0.0000000000000000  0.8333333332999970
  0.8333333332999970  0.8333333332999970  0.6666666667000030
  0.0000000000000000  0.0000000000000000  0.0000000000000000
  0.5000000000000000  0.6666666667000030  0.8333333332999970
  0.1666666667000030  0.0000000000000000  0.0000000000000000
  0.0000000000000000  0.1666666667000030  0.0000000000000000
  0.0000000000000000  0.0000000000000000  0.1666666667000030
  0.1666666667000030  0.1666666667000030  0.1666666667000030
  0.1666666667000030  0.0000000000000000  0.3333333332999970
  0.0000000000000000  0.1666666667000030  0.3333333332999970
  0.0000000000000000  0.0000000000000000  0.5000000000000000
  0.1666666667000030  0.1666666667000030  0.5000000000000000
  0.1666666667000030  0.0000000000000000  0.6666666667000030
  0.0000000000000000  0.1666666667000030  0.6666666667000030
  0.0000000000000000  0.0000000000000000  0.8333333332999970
  0.1666666667000030  0.1666666667000030  0.8333333332999970
  0.1666666667000030  0.3333333332999970  0.0000000000000000
  0.0000000000000000  0.5000000000000000  0.0000000000000000
  0.0000000000000000  0.3333333332999970  0.1666666667000030
  0.1666666667000030  0.5000000000000000  0.1666666667000030
  0.1666666667000030  0.3333333332999970  0.3333333332999970
  0.0000000000000000  0.5000000000000000  0.3333333332999970
  0.0000000000000000  0.3333333332999970  0.5000000000000000
  0.1666666667000030  0.5000000000000000  0.5000000000000000
  0.1666666667000030  0.3333333332999970  0.6666666667000030
  0.0000000000000000  0.5000000000000000  0.6666666667000030
  0.0000000000000000  0.3333333332999970  0.8333333332999970
  0.1666666667000030  0.5000000000000000  0.8333333332999970
  0.1666666667000030  0.6666666667000030  0.0000000000000000
  0.0000000000000000  0.8333333332999970  0.0000000000000000
  0.0000000000000000  0.6666666667000030  0.1666666667000030
  0.1666666667000030  0.8333333332999970  0.1666666667000030
  0.1666666667000030  0.6666666667000030  0.3333333332999970
  0.0000000000000000  0.8333333332999970  0.3333333332999970
  0.0000000000000000  0.6666666667000030  0.5000000000000000
  0.1666666667000030  0.8333333332999970  0.5000000000000000
  0.1666666667000030  0.6666666667000030  0.6666666667000030
  0.0000000000000000  0.8333333332999970  0.6666666667000030
  0.0000000000000000  0.6666666667000030  0.8333333332999970
  0.1666666667000030  0.8333333332999970  0.8333333332999970
  0.5000000000000000  0.0000000000000000  0.0000000000000000
  0.3333333332999970  0.1666666667000030  0.0000000000000000
  0.3333333332999970  0.0000000000000000  0.1666666667000030
  0.5000000000000000  0.1666666667000030  0.1666666667000030
  0.5000000000000000  0.0000000000000000  0.3333333332999970
  0.3333333332999970  0.1666666667000030  0.3333333332999970
  0.3333333332999970  0.0000000000000000  0.5000000000000000
  0.5000000000000000  0.1666666667000030  0.5000000000000000
  0.5000000000000000  0.0000000000000000  0.6666666667000030
  0.3333333332999970  0.1666666667000030  0.6666666667000030
  0.3333333332999970  0.0000000000000000  0.8333333332999970
  0.5000000000000000  0.1666666667000030  0.8333333332999970
  0.5000000000000000  0.3333333332999970  0.0000000000000000
  0.3333333332999970  0.5000000000000000  0.0000000000000000
  0.3333333332999970  0.3333333332999970  0.1666666667000030
  0.5000000000000000  0.5000000000000000  0.1666666667000030
  0.5000000000000000  0.3333333332999970  0.3333333332999970
  0.3333333332999970  0.5000000000000000  0.3333333332999970
  0.3333333332999970  0.3333333332999970  0.5000000000000000
  0.5000000000000000  0.5000000000000000  0.5000000000000000
  0.5000000000000000  0.3333333332999970  0.6666666667000030
  0.3333333332999970  0.5000000000000000  0.6666666667000030
  0.3333333332999970  0.3333333332999970  0.8333333332999970
  0.5000000000000000  0.5000000000000000  0.8333333332999970
  0.5000000000000000  0.6666666667000030  0.0000000000000000
  0.3333333332999970  0.8333333332999970  0.0000000000000000
  0.3333333332999970  0.6666666667000030  0.1666666667000030
  0.5000000000000000  0.8333333332999970  0.1666666667000030
  0.5000000000000000  0.6666666667000030  0.3333333332999970
  0.3333333332999970  0.8333333332999970  0.3333333332999970
  0.3333333332999970  0.6666666667000030  0.5000000000000000
  0.5000000000000000  0.8333333332999970  0.5000000000000000
  0.5000000000000000  0.6666666667000030  0.6666666667000030
  0.3333333332999970  0.8333333332999970  0.6666666667000030
  0.3333333332999970  0.6666666667000030  0.8333333332999970
  0.5000000000000000  0.8333333332999970  0.8333333332999970
  0.8333333332999970  0.0000000000000000  0.0000000000000000
  0.6666666667000030  0.1666666667000030  0.0000000000000000
  0.6666666667000030  0.0000000000000000  0.1666666667000030
  0.8333333332999970  0.1666666667000030  0.1666666667000030
  0.8333333332999970  0.0000000000000000  0.3333333332999970
  0.6666666667000030  0.1666666667000030  0.3333333332999970
  0.6666666667000030  0.0000000000000000  0.5000000000000000
  0.8333333332999970  0.1666666667000030  0.5000000000000000
  0.8333333332999970  0.0000000000000000  0.6666666667000030
  0.6666666667000030  0.1666666667000030  0.6666666667000030
  0.6666666667000030  0.0000000000000000  0.8333333332999970
  0.8333333332999970  0.1666666667000030  0.8333333332999970
  0.8333333332999970  0.3333333332999970  0.0000000000000000
  0.6666666667000030  0.5000000000000000  0.0000000000000000
  0.6666666667000030  0.3333333332999970  0.1666666667000030
  0.8333333332999970  0.5000000000000000  0.1666666667000030
  0.8333333332999970  0.3333333332999970  0.3333333332999970
  0.6666666667000030  0.5000000000000000  0.3333333332999970
  0.6666666667000030  0.3333333332999970  0.5000000000000000
  0.8333333332999970  0.5000000000000000  0.5000000000000000
  0.8333333332999970  0.3333333332999970  0.6666666667000030
  0.6666666667000030  0.5000000000000000  0.6666666667000030
  0.6666666667000030  0.3333333332999970  0.8333333332999970
  0.8333333332999970  0.5000000000000000  0.8333333332999970
  0.8333333332999970  0.6666666667000030  0.0000000000000000
  0.6666666667000030  0.8333333332999970  0.0000000000000000
  0.6666666667000030  0.6666666667000030  0.1666666667000030
  0.8333333332999970  0.8333333332999970  0.1666666667000030
  0.8333333332999970  0.6666666667000030  0.3333333332999970
  0.6666666667000030  0.8333333332999970  0.3333333332999970
  0.6666666667000030  0.6666666667000030  0.5000000000000000
  0.8333333332999970  0.8333333332999970  0.5000000000000000
  0.8333333332999970  0.6666666667000030  0.6666666667000030
  0.6666666667000030  0.8333333332999970  0.6666666667000030
  0.6666666667000030  0.6666666667000030  0.8333333332999970
  0.8333333332999970  0.8333333332999970  0.8333333332999970
 
  0.00000000E+00  0.00000000E+00  0.00000000E+00
  0.00000000E+00  0.00000000E+00  0.00000000E+00
  0.00000000E+00  0.00000000E+00  0.00000000E+00
  0.00000000E+00  0.00000000E+00  0.00000000E+00
  0.00000000E+00  0.00000000E+00  0.00000000E+00
  0.00000000E+00  0.00000000E+00  0.00000000E+00
  0.00000000E+00  0.00000000E+00  0.00000000E+00
  0.00000000E+00  0.00000000E+00  0.00000000E+00
  0.00000000E+00  0.00000000E+00  0.00000000E+00
  0.00000000E+00  0.00000000E+00  0.00000000E+00
  0.00000000E+00  0.00000000E+00  0.00000000E+00
  0.00000000E+00  0.00000000E+00  0.00000000E+00
  0.00000000E+00  0.00000000E+00  0.00000000E+00
  0.00000000E+00  0.00000000E+00  0.00000000E+00
  0.00000000E+00  0.00000000E+00  0.00000000E+00
  0.00000000E+00  0.00000000E+00  0.00000000E+00
  0.00000000E+00  0.00000000E+00  0.00000000E+00
  0.00000000E+00  0.00000000E+00  0.00000000E+00
  0.00000000E+00  0.00000000E+00  0.00000000E+00
  0.00000000E+00  0.00000000E+00  0.00000000E+00
  0.00000000E+00  0.00000000E+00  0.00000000E+00
  0.00000000E+00  0.00000000E+00  0.00000000E+00
  0.00000000E+00  0.00000000E+00  0.00000000E+00
  0.00000000E+00  0.00000000E+00  0.00000000E+00
  0.00000000E+00  0.00000000E+00  0.00000000E+00
  0.00000000E+00  0.00000000E+00  0.00000000E+00
  0.00000000E+00  0.00000000E+00  0.00000000E+00
  0.00000000E+00  0.00000000E+00  0.00000000E+00
  0.00000000E+00  0.00000000E+00  0.00000000E+00
  0.00000000E+00  0.00000000E+00  0.00000000E+00
  0.00000000E+00  0.00000000E+00  0.00000000E+00
  0.00000000E+00  0.00000000E+00  0.00000000E+00
  0.00000000E+00  0.00000000E+00  0.00000000E+00
  0.00000000E+00  0.00000000E+00  0.00000000E+00
  0.00000000E+00  0.00000000E+00  0.00000000E+00
  0.00000000E+00  0.00000000E+00  0.00000000E+00
  0.00000000E+00  0.00000000E+00  0.00000000E+00
  0.00000000E+00  0.00000000E+00  0.00000000E+00
  0.00000000E+00  0.00000000E+00  0.00000000E+00
  0.00000000E+00  0.00000000E+00  0.00000000E+00
  0.00000000E+00  0.00000000E+00  0.00000000E+00
  0.00000000E+00  0.00000000E+00  0.00000000E+00
  0.00000000E+00  0.00000000E+00  0.00000000E+00
  0.00000000E+00  0.00000000E+00  0.00000000E+00
  0.00000000E+00  0.00000000E+00  0.00000000E+00
  0.00000000E+00  0.00000000E+00  0.00000000E+00
  0.00000000E+00  0.00000000E+00  0.00000000E+00
  0.00000000E+00  0.00000000E+00  0.00000000E+00
  0.00000000E+00  0.00000000E+00  0.00000000E+00
  0.00000000E+00  0.00000000E+00  0.00000000E+00
  0.00000000E+00  0.00000000E+00  0.00000000E+00
  0.00000000E+00  0.00000000E+00  0.00000000E+00
  0.00000000E+00  0.00000000E+00  0.00000000E+00
  0.00000000E+00  0.00000000E+00  0.00000000E+00
  0.00000000E+00  0.00000000E+00  0.00000000E+00
  0.00000000E+00  0.00000000E+00  0.00000000E+00
  0.00000000E+00  0.00000000E+00  0.00000000E+00
  0.00000000E+00  0.00000000E+00  0.00000000E+00
  0.00000000E+00  0.00000000E+00  0.00000000E+00
  0.00000000E+00  0.00000000E+00  0.00000000E+00
  0.00000000E+00  0.00000000E+00  0.00000000E+00
  0.00000000E+00  0.00000000E+00  0.00000000E+00
  0.00000000E+00  0.00000000E+00  0.00000000E+00
  0.00000000E+00  0.00000000E+00  0.00000000E+00
  0.00000000E+00  0.00000000E+00  0.00000000E+00
  0.00000000E+00  0.00000000E+00  0.00000000E+00
  0.00000000E+00  0.00000000E+00  0.00000000E+00
  0.00000000E+00  0.00000000E+00  0.00000000E+00
  0.00000000E+00  0.00000000E+00  0.00000000E+00
  0.00000000E+00  0.00000000E+00  0.00000000E+00
  0.00000000E+00  0.00000000E+00  0.00000000E+00
  0.00000000E+00  0.00000000E+00  0.00000000E+00
  0.00000000E+00  0.00000000E+00  0.00000000E+00
  0.00000000E+00  0.00000000E+00  0.00000000E+00
  0.00000000E+00  0.00000000E+00  0.00000000E+00
  0.00000000E+00  0.00000000E+00  0.00000000E+00
  0.00000000E+00  0.00000000E+00  0.00000000E+00
  0.00000000E+00  0.00000000E+00  0.00000000E+00
  0.00000000E+00  0.00000000E+00  0.00000000E+00
  0.00000000E+00  0.00000000E+00  0.00000000E+00
  0.00000000E+00  0.00000000E+00  0.00000000E+00
  0.00000000E+00  0.00000000E+00  0.00000000E+00
  0.00000000E+00  0.00000000E+00  0.00000000E+00
  0.00000000E+00  0.00000000E+00  0.00000000E+00
  0.00000000E+00  0.00000000E+00  0.00000000E+00
  0.00000000E+00  0.00000000E+00  0.00000000E+00
  0.00000000E+00  0.00000000E+00  0.00000000E+00
  0.00000000E+00  0.00000000E+00  0.00000000E+00
  0.00000000E+00  0.00000000E+00  0.00000000E+00
  0.00000000E+00  0.00000000E+00  0.00000000E+00
  0.00000000E+00  0.00000000E+00  0.00000000E+00
  0.00000000E+00  0.00000000E+00  0.00000000E+00
  0.00000000E+00  0.00000000E+00  0.00000000E+00
  0.00000000E+00  0.00000000E+00  0.00000000E+00
  0.00000000E+00  0.00000000E+00  0.00000000E+00
  0.00000000E+00  0.00000000E+00  0.00000000E+00
  0.00000000E+00  0.00000000E+00  0.00000000E+00
  0.00000000E+00  0.00000000E+00  0.00000000E+00
  0.00000000E+00  0.00000000E+00  0.00000000E+00
  0.00000000E+00  0.00000000E+00  0.00000000E+00
  0.00000000E+00  0.00000000E+00  0.00000000E+00
  0.00000000E+00  0.00000000E+00  0.00000000E+00
  0.00000000E+00  0.00000000E+00  0.00000000E+00
  0.00000000E+00  0.00000000E+00  0.00000000E+00
  0.00000000E+00  0.00000000E+00  0.00000000E+00
  0.00000000E+00  0.00000000E+00  0.00000000E+00
  0.00000000E+00  0.00000000E+00  0.00000000E+00
  0.00000000E+00  0.00000000E+00  0.00000000E+00
  0.00000000E+00  0.00000000E+00  0.00000000E+00
  0.00000000E+00  0.00000000E+00  0.00000000E+00
  0.00000000E+00  0.00000000E+00  0.00000000E+00
  0.00000000E+00  0.00000000E+00  0.00000000E+00
  0.00000000E+00  0.00000000E+00  0.00000000E+00
  0.00000000E+00  0.00000000E+00  0.00000000E+00
  0.00000000E+00  0.00000000E+00  0.00000000E+00
  0.00000000E+00  0.00000000E+00  0.00000000E+00
  0.00000000E+00  0.00000000E+00  0.00000000E+00
  0.00000000E+00  0.00000000E+00  0.00000000E+00
  0.00000000E+00  0.00000000E+00  0.00000000E+00
  0.00000000E+00  0.00000000E+00  0.00000000E+00
  0.00000000E+00  0.00000000E+00  0.00000000E+00
  0.00000000E+00  0.00000000E+00  0.00000000E+00
  0.00000000E+00  0.00000000E+00  0.00000000E+00
  0.00000000E+00  0.00000000E+00  0.00000000E+00
  0.00000000E+00  0.00000000E+00  0.00000000E+00
  0.00000000E+00  0.00000000E+00  0.00000000E+00
  0.00000000E+00  0.00000000E+00  0.00000000E+00
  0.00000000E+00  0.00000000E+00  0.00000000E+00
  0.00000000E+00  0.00000000E+00  0.00000000E+00
  0.00000000E+00  0.00000000E+00  0.00000000E+00
  0.00000000E+00  0.00000000E+00  0.00000000E+00
  0.00000000E+00  0.00000000E+00  0.00000000E+00
  0.00000000E+00  0.00000000E+00  0.00000000E+00
  0.00000000E+00  0.00000000E+00  0.00000000E+00
  0.00000000E+00  0.00000000E+00  0.00000000E+00
  0.00000000E+00  0.00000000E+00  0.00000000E+00
  0.00000000E+00  0.00000000E+00  0.00000000E+00
  0.00000000E+00  0.00000000E+00  0.00000000E+00
  0.00000000E+00  0.00000000E+00  0.00000000E+00
  0.00000000E+00  0.00000000E+00  0.00000000E+00
  0.00000000E+00  0.00000000E+00  0.00000000E+00
  0.00000000E+00  0.00000000E+00  0.00000000E+00
  0.00000000E+00  0.00000000E+00  0.00000000E+00
  0.00000000E+00  0.00000000E+00  0.00000000E+00
  0.00000000E+00  0.00000000E+00  0.00000000E+00
  0.00000000E+00  0.00000000E+00  0.00000000E+00
  0.00000000E+00  0.00000000E+00  0.00000000E+00
  0.00000000E+00  0.00000000E+00  0.00000000E+00
  0.00000000E+00  0.00000000E+00  0.00000000E+00
  0.00000000E+00  0.00000000E+00  0.00000000E+00
  0.00000000E+00  0.00000000E+00  0.00000000E+00
  0.00000000E+00  0.00000000E+00  0.00000000E+00
  0.00000000E+00  0.00000000E+00  0.00000000E+00
  0.00000000E+00  0.00000000E+00  0.00000000E+00
  0.00000000E+00  0.00000000E+00  0.00000000E+00
  0.00000000E+00  0.00000000E+00  0.00000000E+00
  0.00000000E+00  0.00000000E+00  0.00000000E+00
  0.00000000E+00  0.00000000E+00  0.00000000E+00
  0.00000000E+00  0.00000000E+00  0.00000000E+00
  0.00000000E+00  0.00000000E+00  0.00000000E+00
  0.00000000E+00  0.00000000E+00  0.00000000E+00
  0.00000000E+00  0.00000000E+00  0.00000000E+00
  0.00000000E+00  0.00000000E+00  0.00000000E+00
  0.00000000E+00  0.00000000E+00  0.00000000E+00
  0.00000000E+00  0.00000000E+00  0.00000000E+00
  0.00000000E+00  0.00000000E+00  0.00000000E+00
  0.00000000E+00  0.00000000E+00  0.00000000E+00
  0.00000000E+00  0.00000000E+00  0.00000000E+00
  0.00000000E+00  0.00000000E+00  0.00000000E+00
  0.00000000E+00  0.00000000E+00  0.00000000E+00
  0.00000000E+00  0.00000000E+00  0.00000000E+00
  0.00000000E+00  0.00000000E+00  0.00000000E+00
  0.00000000E+00  0.00000000E+00  0.00000000E+00
  0.00000000E+00  0.00000000E+00  0.00000000E+00
  0.00000000E+00  0.00000000E+00  0.00000000E+00
  0.00000000E+00  0.00000000E+00  0.00000000E+00
  0.00000000E+00  0.00000000E+00  0.00000000E+00
  0.00000000E+00  0.00000000E+00  0.00000000E+00
  0.00000000E+00  0.00000000E+00  0.00000000E+00
  0.00000000E+00  0.00000000E+00  0.00000000E+00
