Amorphous Sb2Se3                        
  0.840915653000000     
    20.9867606951059784    0.0000000000000000    0.0000000000000000
     0.0000000000000000   20.9867606951059784    0.0000000000000000
     0.0000000000000000    0.0000000000000000   20.9867606951059784
   Sb   Se
   120   180
Direct
  0.2604198442118012  0.5315764001462197  0.1566596301168368
  0.2245365614509436  0.5380166528157235  0.4693067175103210
  0.5485661592891264  0.9705232970971625  0.1461580986343718
  0.6128547552368027  0.2648509028220060  0.0439737680942423
  0.3529881989949238  0.8712249666792448  0.6349420439389335
  0.6774421209301229  0.9396490382438625  0.2447164699157102
  0.6732184966824430  0.4424092266877173  0.2922567927990622
  0.9557343736389551  0.8107766702896796  0.2356706422112996
  0.9126436083315608  0.9632497394641929  0.6073604107188779
  0.4361885535132508  0.7074637343314863  0.1369020190925209
  0.9776998005426054  0.5337080679905236  0.2832038963712868
  0.5825465478496851  0.6171162484624226  0.5488621298477772
  0.7987059295839186  0.9762724681460856  0.7270900285522403
  0.7224471352011114  0.0895348628490191  0.2374989336182234
  0.5069502510532784  0.4857753060679712  0.3163334626286290
  0.3027818531305097  0.2432799608493992  0.9245667225224168
  0.9101234282710310  0.6152525574787061  0.4123421138866940
  0.9939222965634714  0.8562728572321420  0.7812700818339315
  0.5758376461816864  0.6234390817611855  0.2362864893504847
  0.4983524838674036  0.2995652140541977  0.1631171350312489
  0.7183680042699561  0.3293818164279191  0.8903835757751899
  0.5917648894279423  0.4519533399997485  0.8339783215582680
  0.3779400119548982  0.4914509900893509  0.8874589342886992
  0.9096496478633875  0.3687130460569014  0.1155441848573964
  0.8521460080869074  0.5940957205157181  0.9075899483347302
  0.6484298356752815  0.1084178239961056  0.6481320057680129
  0.6091241211962496  0.8031568873279753  0.3041415234583484
  0.4391347197801670  0.3027015878192036  0.9932183402206063
  0.2987338032258063  0.3979599439811574  0.5070189142372652
  0.7652086944742471  0.1890895317610005  0.1124444398782568
 -0.0008996349340491  0.7680341170080939  0.0052681860344235
  0.7446376426437021  0.4841239080768623  0.0530897639997229
  0.7816228936214014  0.4563233668049808  0.4948819566151699
  0.3389350146702254  0.7907421558969969  0.3426231299882496
  0.0725286793401506  0.9835948463658969  0.5037997121426870
  0.5121451531335502  0.4970321662692824  0.1559168672400420
  0.7590647805958179  0.6286469194010904  0.3161016704838877
  0.0254924015408452  0.4998437332465288  0.1278318583549569
  0.7677904331270148  0.2675875979143746  0.6141791724991368
  0.5601850023082604  0.0378920132534387  0.5033891263436993
  0.6209173830905470  0.0023230161687655  0.8871949762095531
  0.4831139298129618  0.6283210752382004  0.3989509475327605
  0.6571115429117315  0.7764326868675250  0.7796184703257912
  0.9446067648600107  0.2550409730427751  0.6106804298957170
  0.8783630399389570  0.3195949557391283  0.9571499765527411
  0.1170824922859417  0.4308436410701346  0.3986484603733845
  0.8126953803079079  0.1079711051291687  0.6052941341471644
  0.3357226983697857  0.9590301871334166  0.2065539982906027
  0.0466234581863965  0.7589873956071717  0.4171150059504411
  0.0570718806408967  0.6320185935425779  0.8306148011400356
  0.3487570313641712  0.6510115046191139  0.7285754293066002
  0.1888160230799244  0.2849867391380066  0.7637039070893424
  0.9440828427042058  0.5114285039229158  0.6940629006812645
  0.5569285405361925  0.3400864329524701  0.4584403068289330
  0.0503594671931756  0.1774855746445606  0.0796182334614698
  0.8520382420353865  0.6995847652556780  0.7267995280823536
  0.0716546670652704  0.2150867429722004  0.9207001553831474
  0.7944718972565170  0.0410172315452148  0.0411026562561983
  0.1413286552214328  0.6112988958695676  0.9863643094625449
  0.5627188760007787  0.2479148505928455  0.5995033317455767
  0.0545817824546060  0.8087150470908305  0.5917653393577529
  0.7252059400170325  0.4235683652396621  0.7280886106955922
  0.1051139872802425  0.9101855675560260  0.9728941644820878
  0.2285167764870835  0.8273634040930855  0.7792907992251753
  0.6481862049854565  0.6334483948589889  0.9117208263537863
  0.1494688762764571  0.7717062331441414  0.1845432545473079
  0.5645416685352891  0.4613048688998591  0.6612718232896222
  0.5555069658598309  0.0143120036300545  0.3295070269710919
  0.1995148025721868  0.1218370994624761  0.5915678557749348
  0.5118465352652681  0.7237116690381593  0.8351020389957410
  0.7754899792040023  0.1820192101463923  0.9334225313102192
  0.4062215920647564  0.0836092004167164  0.3508618383314252
  0.3776973245201685  0.7889353555140826  0.9525397546445848
  0.1121457978981299  0.4430396629674076  0.8390680551071042
  0.2332822358058396  0.0135549627198465  0.8938024952256410
  0.2105371086075457  0.3075693845377472  0.0684032086845254
  0.1274952900776860  0.0601495163581444  0.1799284457319041
  0.6265817441568605  0.8727323300560547  0.6353343013556512
  0.3424358098973397  0.1131709436312418  0.7747799485668101
  0.1756590287154735 -0.0145195238431644  0.3689188446475086
  0.3383620623825220  0.6968247064928970  0.5192905636516623
  0.8488926685202380  0.3374597733417049  0.3414409903930192
  0.4918147570171428  0.1461143877511799  0.9224245869456871
  0.2993839423039624  0.5846801482263975  0.0160129280391391
  0.8985713185546519  0.5999370338179371  0.1023147988885204
  0.7647234736352027  0.6441135806232198  0.4850435231239123
  0.6178446335588705  0.2070694245000191  0.3739413400106714
  0.8100330450582460  0.1620919767006355  0.4407377339135924
  0.9050569272879362  0.0940227632325904  0.1796903000706179
  0.0111048712372658  0.2766948213659321  0.4613561266790292
  0.5564249471157704  0.8524126613788900 -0.0024647168999467
  0.3804893548103042  0.3358218138776451  0.7038932355653459
  0.3442901281996690  0.9464491971747033  0.7900269046064814
  0.6524607115298716  0.7713241294246702  0.5051148566480917
  0.9065449191439259  0.1442408055583854  0.7298588637641785
  0.9497259229872735  0.3515131991544790  0.7461858073553189
  0.9263542481048980  0.8927384433871217  0.0963845455130692
  0.1941744650678915  0.2156464386021689  0.3730903898268323
  0.7520611712098582  0.9326877900228754  0.3899660612647002
  0.9252658363770331  0.0443703198042902  0.9333182970129748
  0.0845190085949311  0.0714627930651671  0.7831233769954526
  0.1735981350887493  0.8478577299313428  0.4852072725371810
  0.9582052497328969  0.1108168547156950  0.5214155005268020
  0.7122685649095576  0.5496584205619410  0.6205818588925309
  0.7282200693848947  0.8491573785952591  0.1048819538071988
  0.5044001087556758  0.0190138341342744  0.6594532011606937
  0.3078528510268243  0.2537612562500166  0.2592942738060173
  0.7472447783720662  0.1307941633305235  0.7845665639552433
  0.1436584003532482  0.6514455152279400  0.6171375565531665
  0.5110131291208210  0.5987996129490792  0.7346136578541144
  0.3608603335826328  0.9742533205423394  0.0358481829873017
  0.3715394438405040  0.1510629767686367  0.5531820794944721
  0.9834520424468070  0.0263326891223168  0.3714056115254347
  0.2974271684498790  0.4973260024785148  0.3112474661564372
  0.0932524322772363  0.3560877455197951  0.1900801957321743
  0.4582258149126562  0.8817761278265218  0.4135750434230507
  0.6687636174786684  0.2701861421765412  0.7444602249995731
  0.2515063787572074  0.4947153841477315  0.7362229393398504
  0.1839802897707633  0.6315968657567415  0.3314875704558319
  0.3219692178509180  0.1198235618209589  0.1077694089757090
  0.6672073868143821  0.5288381286734566  0.4215794855184148
  0.5499483583113486  0.4871772730075024  0.4751573704836158
  0.0071029602373589  0.2028732020483307  0.2203519298444347
  0.4557606434427757  0.2170079122747813  0.2862955569313084
  0.9059436728191046  0.1877466721843384  0.0383896633964351
  0.4936368907005827  0.8881023627508858  0.5629923362542673
  0.0504699635772746  0.6762297399362329  0.2879547098896678
  0.8272478389174404  0.2709467775104627  0.7679911882290237
  0.7263344622146961  0.5052728680284049  0.9002609120545293
  0.9211756673323622  0.1813176041707031  0.8749744382503578
  0.0526510976340323  0.4771452676261175  0.9802193866320577
  0.4317568956994579  0.8594904684999796  0.0880120360461378
  0.0948603367886469  0.5238140174365579  0.5501160136906296
  0.5338435506631681  0.3287196462692112  0.7256399633342089
  0.8184521801820649  0.9682593003045911  0.1730904083763431
 -0.0011005411668142  0.9897664763288376  0.2271123163763706
  0.2489394681062149  0.3777660857325378  0.6456104232326499
  0.7482817604854071  0.7793581176380303  0.3847536767421024
  0.9665219767349192  0.8991237288728198  0.9265850915623483
  0.0495840353180541  0.1026636185457494  0.6385856339840615
  0.8381247900630613  0.4069530233267826  0.6386459258101931
  0.2923886918518248  0.2138445947177692  0.6774603687267126
  0.7099104889770113  0.8675409269784523  0.8848453644017433
  0.1009904195464774  0.7662745484345648  0.7257309427734623
  0.1056654281414307  0.5212888942912161  0.7019428145639806
  0.6805475241253215  0.1934504921560262  0.5158542853448022
  0.9654516116831304  0.4211939636309673  0.4178832173154429
  0.3252230000209667  0.8459495321333612  0.4909945620349169
  0.6519014818464856  0.2612502445973854  0.1974764236696970
  0.4061384652959599  0.5825913367678157  0.2351653433553884
  0.6060441422249265  0.6812979392652783  0.0967184749527596
  0.2150273561752102  0.0374837242170789  0.7133300300241560
  0.2012359443495277  0.6408329241836558  0.7705200428836452
  0.2362338468846839  0.7066731845797010  0.8919755336285313
  0.5771041282160346  0.2743756514445528  0.8941211041426596
  0.3780644216266155  0.4287376662941637  0.1318736875371598
  0.2652857970717355  0.0947372381277105  0.4284366667660942
  0.5056798999691529  0.0187395579556808  0.0087579815337240
  0.6806684098083453  0.7671550330049794  0.9903913612508842
  0.2025595217175701  0.8986703164181719  0.6352010513512996
  0.4405728640139223  0.5846589894981539  0.5807762399758929
  0.7679569043843796  0.3589293597393772  0.2151387276955138
  0.2412580852693524  0.2593749001826147  0.5130954483316619
  0.8490155886961099  0.7541944594953145  0.9773154089852095
  0.8630359083475012  0.7584048558868750  0.5231922691447399
  0.8499420042862462  0.0120888718380525  0.4737554011848672
  0.8571786977872663  0.6056724023993800  0.5994886604900800
  0.8833147474265398  0.6516722026738253  0.2440868518601794
  0.5063759045948943  0.7132945701551292  0.9867695915823400
  0.0764414548629730  0.8892323784671076  0.1231356772005742
  0.3571234204008861  0.0236321529067452  0.6424658677562478
  0.4890668090518667  0.7473433808621734  0.4813998494977711
  0.7031709927426424  0.3490371088587734  0.4153937040134886
  0.1875785753072722  0.9335864732923479  0.2287761980149982
  0.1735888783162851  0.4570477646442193  0.0483030236862403
  0.0131872443211837  0.7095237580773994  0.1410558541569103
  0.4647650454670720  0.1644508293277072  0.6747069158254313
  0.1335621957213108  0.3495633223339479  0.5272907548634379
  0.3019010197240115  0.7240281332285110  0.0645059837103286
  0.9930850118097967  0.0252763642965212  0.0683036462454057
  0.9423088095755472  0.7260218464342456  0.8451427618978653
  0.4245149743068305  0.9295905227955735  0.9092765398767193
  0.3343933234845582  0.6483255249335328  0.3767583553651965
  0.3506502067674978  0.1015675260777889  0.9458451194630515
  0.6413936376130840  0.1310783522506715  0.9657069543166921
  0.2405491604790718  0.8863818955345609  0.0842499946008264
  0.6053342176532145  0.5574862382817993  0.0392460675192105
  0.4772101628492429  0.8970951366789883  0.2604142093649705
  0.2814516575343340  0.5662705968076822  0.6043841605812458
  0.3868626650292755  0.5035224478066912  0.4288878514369188
  0.8443339239110058  0.8621908946866885  0.8177294352218394
  0.3137228869863101  0.3991375121934876 -0.0014684693412728
  0.3219159612638540  0.8111898762257839  0.2005199227279861
  0.5798741690065063  0.1402713216436322  0.2420000796055879
  0.3496357505389776  0.2633675566921753  0.1165990500485377
  0.8408773359470413  0.4183273781125209  0.8364040700151749
  0.8409177016156724  0.4878341037627512  0.1809989174921147
  0.8905566882765640  0.9099295138430262  0.3376106265637963
  0.6115773891126864  0.4118536245467776  0.9813752167599415
  0.1985038865916438  0.1618474137904442  0.0179511352234735
  0.0803979034025366  0.2992511084295245  0.3325317698491623
  0.4900789257662055  0.8769337666286351  0.7178563289207094
  0.0466335880947355  0.2204433645161040  0.7729644091512279
  0.2968710624768772  0.3658875703822395  0.8258163720116827
  0.6312963437907351  0.0990719586599514  0.1112672891460176
  0.3783097241272112  0.7873952895397328  0.7945604759378846
  0.4117514104702417  0.3545597926179563  0.4082942106084658
  0.8194524403103853  0.8999947530170777 -0.0102134332437697
  0.4101864677855419  0.0145520658114613  0.4889363707460677
  0.0981453498356346  0.2413597467081538  0.6297410574350386
  0.5044620856045544  0.1692521747691804  0.4683720391182593
  0.2660453973342748  0.6703754313011275  0.2151831249698206
  0.5596286681437187  0.3411320580942004  0.3066621893850676
  0.6082001069241715  0.8962761052659879  0.4319789742531399
  0.2617638984383838  0.7476680258851062  0.6447660077418933
  0.4853229980350431  0.4412193988852889  0.0148395214322348
  0.8166625993115905  0.5580980817028405  0.7578172220638300
  0.6269466500034565  0.4048368934054176  0.1445073026277015
  0.5827285442149126  0.1437683558863113  0.7880900978389388
 -0.0028594313632240  0.3939751533356678  0.5826415727379070
  0.1001455238851955  0.1085640306103912  0.3171422778196135
  0.4325540100086777  0.7373489699827794  0.6356641901939821
  0.7755145216961886  0.0185829850468479  0.8817595475179607
  0.3945929376442030  0.3879150716476422  0.2631181522573212
  0.7678167426188046  0.7078500613332165  0.8521981028163721
  0.1249591884218981  0.9303170818788501  0.8175032506185022
  0.0581008075980475  0.8813152215763469  0.3248382507821052
  0.1009589944367812  0.1522287139209699  0.4729291641535964
  0.9886604308106317  0.6244843559469908  0.9805686327406490
  0.4409004593487515  0.5827576752621827  0.0495652533297359
  0.5782078798641064  0.8142520927326997  0.1477786896597783
  0.4202533610608561  0.2966268849920202  0.5620905713079618
  0.4812129164525241  0.0361537176945266  0.8087418965062050
  0.2363515238641065  0.9925766248537612  0.5276785418097830
  0.9394096042702541  0.1925380284954496  0.3640119482659515
  0.9713888470770532  0.5106817720894898  0.8433526558676074
  0.7011747083765348  0.9862715250227484  0.5665685693825674
  0.7540898961175801  0.2190050735180643  0.3146964072663290
  0.7167290095669889  0.7012412954962205  0.6439054120759076
  0.1924900337468355  0.7996705049707223  0.3379483489944631
  0.1888455011562129  0.6935965277006580  0.4801740530843154
  0.1053516584006304  0.7698133143640216  0.8860971929622955
  0.7030075911077452  0.5581203519057519  0.1959926165440858
  0.4740208630200929  0.7338286034579083  0.2887516219252000
  0.6488439244753550  0.9794507480967934  0.7412974791382222
  0.9616712257770524  0.3846679865882692  0.2589496617522434
  0.9049889014323212  0.7646840705213451  0.3736904310058438
  0.0930154588058541  0.3798291885937087  0.6902043845875945
  0.8481803762572019  0.3054003801427828  0.4935907042108620
  0.2546296184013827  0.8674352561897966  0.9295996275112786
  0.2026150551177707  0.0170578087829107  0.0524872764733220
  0.9211096869518226  0.8176184493955490  0.6556372313987930
  0.4447331037394582  0.0704411428909366  0.1940347104457985
  0.5664101323049415  0.7225292383796412  0.6547291151493725
  0.4869671635660180  0.1653118482992673  0.0790958119187417
  0.7979120115260565  0.8221488794982931  0.2502396962579124
  0.2767575214756343  0.0990857498615859  0.2525972374881350
  0.7590243697238681  0.3306642938984781  0.0527414290454726
  0.1271948742058668  0.6061615080440210  0.1366083708207747
  0.9255510606786977  0.5137852129102122  0.5208983314269774
  0.2477667762705863  0.3666314962890476  0.3655520762992091
  0.1287351928972247  0.4964437436264514  0.2680766373774057
  0.1662021223517719  0.2179234946125624  0.1925687038288227
  0.2373225287636265  0.3804570923205338  0.2003396335864072
  0.9660538685679255  0.8810779645478183  0.4869084829949081
  0.8452233115552661  0.0651288916072456  0.3174690014843819
  0.0640182132903875  0.5777692107513153  0.4251316686479081
  0.1522076362820651  0.7547755108322182  0.0332827902231111
  0.1697931436858435  0.3275035301798458  0.9188071843878575
  0.9962531968781296  0.6497646962313048  0.6912300832312963
  0.4611686398718788  0.3740778435570700  0.8598156513468512
  0.0025210303158580  0.3462923883335577  0.8854342075516705
  0.6621697816316909  0.3804483505059599  0.5790793526061870
  0.9435664750727222  0.0084414166238560  0.7784776406441507
  0.0576018785299062  0.9488650773638969  0.6553648311179349
  0.2095390602447642  0.1592611251914971  0.8398757592115016
  0.7682822588280734  0.8392614944495814  0.6786385099394598
  0.3591787578224565  0.2242566402856035  0.4087832962796836
  0.7118436526095288  0.7226613797520716  0.2080335437821447
  0.5492411966852354  0.8703326027125238  0.8442362495691582
  0.5111793707293941  0.5623412687034188  0.8888631175781565
  0.2251964854972650  0.5192301963918847  0.8890880313873570
  0.4166815347788388  0.2303152105078821  0.8207496588252444
  0.7821063917378361  0.8672903257523824  0.5330967895973413
  0.3258094636464207  0.9481267816212262  0.3535778840465560
  0.6555107291818265  0.5938900372740701  0.7636311884512055
  0.0775848050565150  0.0608953269300312  0.9348161938218510
  0.8480431806786244  0.7521807617514512  0.1117663423942209
  0.6649980307927353  0.9633376241086610  0.0354511549457084
  0.6795721743215316  0.0695591939854799  0.4017000277848307
  0.4038671302390643  0.4882770451879759  0.7385260547399408
  0.8721990889798057  0.2468954096053952  0.2066999939213525
  0.6220096973901258  0.6745338468713394  0.3799354982754283
  0.7624818763609416  0.6304423999117701  0.0357325019380786
 -0.0074990745861646  0.6795533527404231  0.5353529219200365
  0.8897956835808704  0.4730815263934476  0.9977141341625078
  0.8230836347942114  0.4892134382595622  0.3497119850391495
  0.0441048357016473  0.3243941074346172  0.0481247815772631
  0.4397234462165207  0.4429258964574074  0.5767646513313904
  0.3680939088693669  0.6449058504437861  0.8845603313792737
 
  0.00000000E+00  0.00000000E+00  0.00000000E+00
  0.00000000E+00  0.00000000E+00  0.00000000E+00
  0.00000000E+00  0.00000000E+00  0.00000000E+00
  0.00000000E+00  0.00000000E+00  0.00000000E+00
  0.00000000E+00  0.00000000E+00  0.00000000E+00
  0.00000000E+00  0.00000000E+00  0.00000000E+00
  0.00000000E+00  0.00000000E+00  0.00000000E+00
  0.00000000E+00  0.00000000E+00  0.00000000E+00
  0.00000000E+00  0.00000000E+00  0.00000000E+00
  0.00000000E+00  0.00000000E+00  0.00000000E+00
  0.00000000E+00  0.00000000E+00  0.00000000E+00
  0.00000000E+00  0.00000000E+00  0.00000000E+00
  0.00000000E+00  0.00000000E+00  0.00000000E+00
  0.00000000E+00  0.00000000E+00  0.00000000E+00
  0.00000000E+00  0.00000000E+00  0.00000000E+00
  0.00000000E+00  0.00000000E+00  0.00000000E+00
  0.00000000E+00  0.00000000E+00  0.00000000E+00
  0.00000000E+00  0.00000000E+00  0.00000000E+00
  0.00000000E+00  0.00000000E+00  0.00000000E+00
  0.00000000E+00  0.00000000E+00  0.00000000E+00
  0.00000000E+00  0.00000000E+00  0.00000000E+00
  0.00000000E+00  0.00000000E+00  0.00000000E+00
  0.00000000E+00  0.00000000E+00  0.00000000E+00
  0.00000000E+00  0.00000000E+00  0.00000000E+00
  0.00000000E+00  0.00000000E+00  0.00000000E+00
  0.00000000E+00  0.00000000E+00  0.00000000E+00
  0.00000000E+00  0.00000000E+00  0.00000000E+00
  0.00000000E+00  0.00000000E+00  0.00000000E+00
  0.00000000E+00  0.00000000E+00  0.00000000E+00
  0.00000000E+00  0.00000000E+00  0.00000000E+00
  0.00000000E+00  0.00000000E+00  0.00000000E+00
  0.00000000E+00  0.00000000E+00  0.00000000E+00
  0.00000000E+00  0.00000000E+00  0.00000000E+00
  0.00000000E+00  0.00000000E+00  0.00000000E+00
  0.00000000E+00  0.00000000E+00  0.00000000E+00
  0.00000000E+00  0.00000000E+00  0.00000000E+00
  0.00000000E+00  0.00000000E+00  0.00000000E+00
  0.00000000E+00  0.00000000E+00  0.00000000E+00
  0.00000000E+00  0.00000000E+00  0.00000000E+00
  0.00000000E+00  0.00000000E+00  0.00000000E+00
  0.00000000E+00  0.00000000E+00  0.00000000E+00
  0.00000000E+00  0.00000000E+00  0.00000000E+00
  0.00000000E+00  0.00000000E+00  0.00000000E+00
  0.00000000E+00  0.00000000E+00  0.00000000E+00
  0.00000000E+00  0.00000000E+00  0.00000000E+00
  0.00000000E+00  0.00000000E+00  0.00000000E+00
  0.00000000E+00  0.00000000E+00  0.00000000E+00
  0.00000000E+00  0.00000000E+00  0.00000000E+00
  0.00000000E+00  0.00000000E+00  0.00000000E+00
  0.00000000E+00  0.00000000E+00  0.00000000E+00
  0.00000000E+00  0.00000000E+00  0.00000000E+00
  0.00000000E+00  0.00000000E+00  0.00000000E+00
  0.00000000E+00  0.00000000E+00  0.00000000E+00
  0.00000000E+00  0.00000000E+00  0.00000000E+00
  0.00000000E+00  0.00000000E+00  0.00000000E+00
  0.00000000E+00  0.00000000E+00  0.00000000E+00
  0.00000000E+00  0.00000000E+00  0.00000000E+00
  0.00000000E+00  0.00000000E+00  0.00000000E+00
  0.00000000E+00  0.00000000E+00  0.00000000E+00
  0.00000000E+00  0.00000000E+00  0.00000000E+00
  0.00000000E+00  0.00000000E+00  0.00000000E+00
  0.00000000E+00  0.00000000E+00  0.00000000E+00
  0.00000000E+00  0.00000000E+00  0.00000000E+00
  0.00000000E+00  0.00000000E+00  0.00000000E+00
  0.00000000E+00  0.00000000E+00  0.00000000E+00
  0.00000000E+00  0.00000000E+00  0.00000000E+00
  0.00000000E+00  0.00000000E+00  0.00000000E+00
  0.00000000E+00  0.00000000E+00  0.00000000E+00
  0.00000000E+00  0.00000000E+00  0.00000000E+00
  0.00000000E+00  0.00000000E+00  0.00000000E+00
  0.00000000E+00  0.00000000E+00  0.00000000E+00
  0.00000000E+00  0.00000000E+00  0.00000000E+00
  0.00000000E+00  0.00000000E+00  0.00000000E+00
  0.00000000E+00  0.00000000E+00  0.00000000E+00
  0.00000000E+00  0.00000000E+00  0.00000000E+00
  0.00000000E+00  0.00000000E+00  0.00000000E+00
  0.00000000E+00  0.00000000E+00  0.00000000E+00
  0.00000000E+00  0.00000000E+00  0.00000000E+00
  0.00000000E+00  0.00000000E+00  0.00000000E+00
  0.00000000E+00  0.00000000E+00  0.00000000E+00
  0.00000000E+00  0.00000000E+00  0.00000000E+00
  0.00000000E+00  0.00000000E+00  0.00000000E+00
  0.00000000E+00  0.00000000E+00  0.00000000E+00
  0.00000000E+00  0.00000000E+00  0.00000000E+00
  0.00000000E+00  0.00000000E+00  0.00000000E+00
  0.00000000E+00  0.00000000E+00  0.00000000E+00
  0.00000000E+00  0.00000000E+00  0.00000000E+00
  0.00000000E+00  0.00000000E+00  0.00000000E+00
  0.00000000E+00  0.00000000E+00  0.00000000E+00
  0.00000000E+00  0.00000000E+00  0.00000000E+00
  0.00000000E+00  0.00000000E+00  0.00000000E+00
  0.00000000E+00  0.00000000E+00  0.00000000E+00
  0.00000000E+00  0.00000000E+00  0.00000000E+00
  0.00000000E+00  0.00000000E+00  0.00000000E+00
  0.00000000E+00  0.00000000E+00  0.00000000E+00
  0.00000000E+00  0.00000000E+00  0.00000000E+00
  0.00000000E+00  0.00000000E+00  0.00000000E+00
  0.00000000E+00  0.00000000E+00  0.00000000E+00
  0.00000000E+00  0.00000000E+00  0.00000000E+00
  0.00000000E+00  0.00000000E+00  0.00000000E+00
  0.00000000E+00  0.00000000E+00  0.00000000E+00
  0.00000000E+00  0.00000000E+00  0.00000000E+00
  0.00000000E+00  0.00000000E+00  0.00000000E+00
  0.00000000E+00  0.00000000E+00  0.00000000E+00
  0.00000000E+00  0.00000000E+00  0.00000000E+00
  0.00000000E+00  0.00000000E+00  0.00000000E+00
  0.00000000E+00  0.00000000E+00  0.00000000E+00
  0.00000000E+00  0.00000000E+00  0.00000000E+00
  0.00000000E+00  0.00000000E+00  0.00000000E+00
  0.00000000E+00  0.00000000E+00  0.00000000E+00
  0.00000000E+00  0.00000000E+00  0.00000000E+00
  0.00000000E+00  0.00000000E+00  0.00000000E+00
  0.00000000E+00  0.00000000E+00  0.00000000E+00
  0.00000000E+00  0.00000000E+00  0.00000000E+00
  0.00000000E+00  0.00000000E+00  0.00000000E+00
  0.00000000E+00  0.00000000E+00  0.00000000E+00
  0.00000000E+00  0.00000000E+00  0.00000000E+00
  0.00000000E+00  0.00000000E+00  0.00000000E+00
  0.00000000E+00  0.00000000E+00  0.00000000E+00
  0.00000000E+00  0.00000000E+00  0.00000000E+00
  0.00000000E+00  0.00000000E+00  0.00000000E+00
  0.00000000E+00  0.00000000E+00  0.00000000E+00
  0.00000000E+00  0.00000000E+00  0.00000000E+00
  0.00000000E+00  0.00000000E+00  0.00000000E+00
  0.00000000E+00  0.00000000E+00  0.00000000E+00
  0.00000000E+00  0.00000000E+00  0.00000000E+00
  0.00000000E+00  0.00000000E+00  0.00000000E+00
  0.00000000E+00  0.00000000E+00  0.00000000E+00
  0.00000000E+00  0.00000000E+00  0.00000000E+00
  0.00000000E+00  0.00000000E+00  0.00000000E+00
  0.00000000E+00  0.00000000E+00  0.00000000E+00
  0.00000000E+00  0.00000000E+00  0.00000000E+00
  0.00000000E+00  0.00000000E+00  0.00000000E+00
  0.00000000E+00  0.00000000E+00  0.00000000E+00
  0.00000000E+00  0.00000000E+00  0.00000000E+00
  0.00000000E+00  0.00000000E+00  0.00000000E+00
  0.00000000E+00  0.00000000E+00  0.00000000E+00
  0.00000000E+00  0.00000000E+00  0.00000000E+00
  0.00000000E+00  0.00000000E+00  0.00000000E+00
  0.00000000E+00  0.00000000E+00  0.00000000E+00
  0.00000000E+00  0.00000000E+00  0.00000000E+00
  0.00000000E+00  0.00000000E+00  0.00000000E+00
  0.00000000E+00  0.00000000E+00  0.00000000E+00
  0.00000000E+00  0.00000000E+00  0.00000000E+00
  0.00000000E+00  0.00000000E+00  0.00000000E+00
  0.00000000E+00  0.00000000E+00  0.00000000E+00
  0.00000000E+00  0.00000000E+00  0.00000000E+00
  0.00000000E+00  0.00000000E+00  0.00000000E+00
  0.00000000E+00  0.00000000E+00  0.00000000E+00
  0.00000000E+00  0.00000000E+00  0.00000000E+00
  0.00000000E+00  0.00000000E+00  0.00000000E+00
  0.00000000E+00  0.00000000E+00  0.00000000E+00
  0.00000000E+00  0.00000000E+00  0.00000000E+00
  0.00000000E+00  0.00000000E+00  0.00000000E+00
  0.00000000E+00  0.00000000E+00  0.00000000E+00
  0.00000000E+00  0.00000000E+00  0.00000000E+00
  0.00000000E+00  0.00000000E+00  0.00000000E+00
  0.00000000E+00  0.00000000E+00  0.00000000E+00
  0.00000000E+00  0.00000000E+00  0.00000000E+00
  0.00000000E+00  0.00000000E+00  0.00000000E+00
  0.00000000E+00  0.00000000E+00  0.00000000E+00
  0.00000000E+00  0.00000000E+00  0.00000000E+00
  0.00000000E+00  0.00000000E+00  0.00000000E+00
  0.00000000E+00  0.00000000E+00  0.00000000E+00
  0.00000000E+00  0.00000000E+00  0.00000000E+00
  0.00000000E+00  0.00000000E+00  0.00000000E+00
  0.00000000E+00  0.00000000E+00  0.00000000E+00
  0.00000000E+00  0.00000000E+00  0.00000000E+00
  0.00000000E+00  0.00000000E+00  0.00000000E+00
  0.00000000E+00  0.00000000E+00  0.00000000E+00
  0.00000000E+00  0.00000000E+00  0.00000000E+00
  0.00000000E+00  0.00000000E+00  0.00000000E+00
  0.00000000E+00  0.00000000E+00  0.00000000E+00
  0.00000000E+00  0.00000000E+00  0.00000000E+00
  0.00000000E+00  0.00000000E+00  0.00000000E+00
  0.00000000E+00  0.00000000E+00  0.00000000E+00
  0.00000000E+00  0.00000000E+00  0.00000000E+00
  0.00000000E+00  0.00000000E+00  0.00000000E+00
  0.00000000E+00  0.00000000E+00  0.00000000E+00
  0.00000000E+00  0.00000000E+00  0.00000000E+00
  0.00000000E+00  0.00000000E+00  0.00000000E+00
  0.00000000E+00  0.00000000E+00  0.00000000E+00
  0.00000000E+00  0.00000000E+00  0.00000000E+00
  0.00000000E+00  0.00000000E+00  0.00000000E+00
  0.00000000E+00  0.00000000E+00  0.00000000E+00
  0.00000000E+00  0.00000000E+00  0.00000000E+00
  0.00000000E+00  0.00000000E+00  0.00000000E+00
  0.00000000E+00  0.00000000E+00  0.00000000E+00
  0.00000000E+00  0.00000000E+00  0.00000000E+00
  0.00000000E+00  0.00000000E+00  0.00000000E+00
  0.00000000E+00  0.00000000E+00  0.00000000E+00
  0.00000000E+00  0.00000000E+00  0.00000000E+00
  0.00000000E+00  0.00000000E+00  0.00000000E+00
  0.00000000E+00  0.00000000E+00  0.00000000E+00
  0.00000000E+00  0.00000000E+00  0.00000000E+00
  0.00000000E+00  0.00000000E+00  0.00000000E+00
  0.00000000E+00  0.00000000E+00  0.00000000E+00
  0.00000000E+00  0.00000000E+00  0.00000000E+00
  0.00000000E+00  0.00000000E+00  0.00000000E+00
  0.00000000E+00  0.00000000E+00  0.00000000E+00
  0.00000000E+00  0.00000000E+00  0.00000000E+00
  0.00000000E+00  0.00000000E+00  0.00000000E+00
  0.00000000E+00  0.00000000E+00  0.00000000E+00
  0.00000000E+00  0.00000000E+00  0.00000000E+00
  0.00000000E+00  0.00000000E+00  0.00000000E+00
  0.00000000E+00  0.00000000E+00  0.00000000E+00
  0.00000000E+00  0.00000000E+00  0.00000000E+00
  0.00000000E+00  0.00000000E+00  0.00000000E+00
  0.00000000E+00  0.00000000E+00  0.00000000E+00
  0.00000000E+00  0.00000000E+00  0.00000000E+00
  0.00000000E+00  0.00000000E+00  0.00000000E+00
  0.00000000E+00  0.00000000E+00  0.00000000E+00
  0.00000000E+00  0.00000000E+00  0.00000000E+00
  0.00000000E+00  0.00000000E+00  0.00000000E+00
  0.00000000E+00  0.00000000E+00  0.00000000E+00
  0.00000000E+00  0.00000000E+00  0.00000000E+00
  0.00000000E+00  0.00000000E+00  0.00000000E+00
  0.00000000E+00  0.00000000E+00  0.00000000E+00
  0.00000000E+00  0.00000000E+00  0.00000000E+00
  0.00000000E+00  0.00000000E+00  0.00000000E+00
  0.00000000E+00  0.00000000E+00  0.00000000E+00
  0.00000000E+00  0.00000000E+00  0.00000000E+00
  0.00000000E+00  0.00000000E+00  0.00000000E+00
  0.00000000E+00  0.00000000E+00  0.00000000E+00
  0.00000000E+00  0.00000000E+00  0.00000000E+00
  0.00000000E+00  0.00000000E+00  0.00000000E+00
  0.00000000E+00  0.00000000E+00  0.00000000E+00
  0.00000000E+00  0.00000000E+00  0.00000000E+00
  0.00000000E+00  0.00000000E+00  0.00000000E+00
  0.00000000E+00  0.00000000E+00  0.00000000E+00
  0.00000000E+00  0.00000000E+00  0.00000000E+00
  0.00000000E+00  0.00000000E+00  0.00000000E+00