Sn4 Se4                                 
   1.00000000000000     
     4.2144049063763243    0.0000000000000000    0.0000000000000003
     0.0000000000000007    4.5466298710107678    0.0000000000000003
     0.0000000000000000    0.0000000000000000   11.8696035875237822
   Sn   Se
     4     4
Direct
  0.7500000000000000  0.3874682306286256  0.6226622021639651
  0.2500000000000000  0.8874682306286256  0.8773377978360349
  0.2500000000000000  0.6125317693713744  0.3773377978360352
  0.7500000000000000  0.1125317693713744  0.1226622021639649
  0.2500000000000000  0.5229302008865743  0.1455012483823656
  0.2500000000000000  0.9770697991134257  0.6455012483823657
  0.7500000000000000  0.0229302008865743  0.3544987516176346
  0.7500000000000000  0.4770697991134256  0.8544987516176343
 
  0.00000000E+00  0.00000000E+00  0.00000000E+00
  0.00000000E+00  0.00000000E+00  0.00000000E+00
  0.00000000E+00  0.00000000E+00  0.00000000E+00
  0.00000000E+00  0.00000000E+00  0.00000000E+00
  0.00000000E+00  0.00000000E+00  0.00000000E+00
  0.00000000E+00  0.00000000E+00  0.00000000E+00
  0.00000000E+00  0.00000000E+00  0.00000000E+00
  0.00000000E+00  0.00000000E+00  0.00000000E+00
