Amorphous Sb                            
   1.00000000000000     
    20.1578869700586907    0.0000000000000000    0.0000000000000000
     0.0000000000000000   20.1578869700586907    0.0000000000000000
     0.0000000000000000    0.0000000000000000   20.1578869700586907
   Ge   Se
   150   150
Direct
  0.3520216013394959  0.3790068553647886  0.3271448812663075
  0.9251809607399096  0.2522385078884756  0.3704224834149008
  0.0057931840327630  0.5915805162051638  0.0655979985399590
  0.9247049385542772  0.9594793113254996  0.2453403637195569
  0.7628782084233213  0.0129564567963009  0.3445628069168012
  0.6884736188898140  0.4436288258751340  0.1324902981027877
  0.3173070773067959  0.7125181337470293  0.8846770796018019
  0.7472216976485648  0.5937259040849375  0.3121574776211463
  0.2996728673994315  0.5369258269037462  0.2470505307546770
  0.6367728676090857  0.4288967232661859  0.7502507553844628
  0.8116207807080790  0.1293092801678685  0.2188641186787075
  0.7242219386774198  0.4847064819129792  0.5519598020716873
  0.5876735869844403  0.4293430934242674  0.4321985656116971
  0.9346897835846324  0.6188792844660079  0.6762896110618063
  0.0989064896070008  0.0585890703209710  0.8916849306341128
  0.6080870315999972  0.7416720674938043  0.1188756668764281
  0.3999774273517993  0.8920199591887082  0.9730595385829370
  0.0806073846588927  0.3981266300584009  0.4059421587451950
  0.3278669062881346  0.2041528081147981  0.1626764972035641
  0.2995772894771332  0.4120331696628580  0.0143488857664577
  0.4111427479340593  0.5838746856196040 -0.0013699938660232
  0.3033921376842063  0.1603976852428355  0.6070301837015868
  0.3419343807780628  0.2157367819993057  0.9722583797375024
  0.5426793280726108  0.3264448002386890  0.8551193486953261
  0.0744391491837235  0.7239204908776106  0.2757946759630967
  0.6862702804289028  0.9500807996192070  0.6676247624529416
  0.2193505861703493  0.2281166968856671  0.3775650050905756
  0.7717336448562060  0.1658645516810020  0.3862370377915499
  0.1149029246963613  0.9910624329995337  0.7229700682223783
  0.9032051698821753  0.4466506953875545  0.7526826489409224
  0.8237745327893734  0.7316587216309430  0.4820886370249545
  0.5611913709989144  0.7662184714114399  0.9562249625424377
  0.9036675740115753  0.1130614044412637  0.6034739080948546
  0.8718906789718128  0.3895458941820322  0.2029625143052539
  0.2415492028254500  0.8627987117342487  0.7157655894696093
  0.8694374534771833  0.7255667031043905  0.9315796504852500
  0.8126015667019189  0.4191904653425287  0.3199934347030036
  0.4205642582753161  0.7519160124772551  0.5507043027584988
  0.1442476267287967  0.2603234982055318  0.5927788633947814
  0.0204393924626083  0.0177175526215832  0.4550164641641805
  0.5827112850323918  0.2772552996203824  0.1791252268432616
  0.5893520319564799  0.0733370106364685  0.4145717748766181
  0.7229669559698298  0.1298643488375236  0.9697458046978081
  0.2064358036909020  0.0210867209930080  0.2955318632990991
  0.9146305747589715  0.4824821776148335  0.0151634791920110
  0.2030145082925101  0.6796698258431576  0.7482309834283367
  0.7089275743396598  0.9018057658866458  0.1538617300287109
  0.0414452842433489  0.5871694175537033  0.4128434426137621
  0.2291560171743897  0.1080887532330269  0.4588106340154571
  0.9048334931243148  0.9911631734974009  0.8092964265014445
  0.2918802429544369  0.6131309120023072  0.4895978536490212
  0.4140896575677543  0.0271926609542727  0.4674461726081742
  0.5296774172457552  0.7171882538311460  0.4200251764004590
  0.6415625458801044  0.4846313316514904  0.9233371021632177
  0.7315633980310464  0.1157949102115592  0.5271132740011907
  0.4304259689806075  0.5406865456147167  0.3821838429415026
  0.4302116886801577  0.6940612541396265  0.2263184006055331
  0.6076571876217466  0.7591704195894009  0.7038757381483951
  0.1921943210539571  0.4034936999007757  0.6663990965830047
  0.1329624486431958  0.2628122211581839  0.1807196436952501
  0.0350765578480006  0.2481806379331094  0.4520547338900380
  0.0452356784023279  0.5069063103584758  0.2814801997774341
  0.8250784513111746  0.5819139766604629  0.6221119850725633
  0.2688082035286313  0.9091155525999508  0.2466967759136663
  0.3890776628819647  0.8691538032152162  0.6014498682981522
  0.1489445833732467  0.8389035538008420  0.0405988483007758
  0.8756171465365838  0.0115410407241742  0.0516312320810735
  0.0858019936373422  0.8180258483638725  0.7997838740102129
  0.6192088620673832  0.6314542266101304  0.9317600112302633
  0.5128948110408947  0.9714578882963067  0.7054278948885110
  0.2990896565688614  0.3077522461538666  0.5727743785739065
  0.4095808087487339  0.3594390802928455  0.1465410502265659
  0.9482373773335242  0.2910810348429553  0.0025233190962265
  0.6783518453777360  0.5788638998241511  0.1281249133184435
  0.8500970717745875  0.8566910199240310  0.2558109202175353
  0.6559580160425152  0.6173603367974519  0.6185591179551684
  0.2447777145181658  0.3529941716274437  0.8461105987626640
  0.9996571400293058  0.8802561205278424  0.4017259301818482
  0.1933642577729362  0.5986429810521131  0.9802503876009030
  0.7304902476880967  0.1420397285106124  0.6964804058182512
  0.8531624566902817  0.3635800406491548  0.4978658125007587
  0.1780165977500542  0.1926225193436867  0.7387554631166937
  0.3932133595359693  0.7801044662814540  0.7869515215358068
  0.7150643244037073  0.9362409237957369  0.4600637665085092
  0.3315280403646391  0.6303483197425570  0.0891772032424910
  0.5488021400221345  0.9116619389102674  0.0710592218962156
  0.9551713103962144  0.7232495818799556  0.5309578734127256
  0.8898864512765201  0.7310145907991743  0.2848813150954305
  0.7001456732041536  0.3266693757274202  0.3279027352942460
  0.9506617612383567  0.3191687373881927  0.5826671262930389
  0.4275555075508141  0.4658591318137906  0.5483765466938394
  0.3676643832220665  0.0415708190849014  0.8750052460435601
  0.2343700879846741  0.8806837214838955  0.4215300007585025
  0.4698654984366054  0.3003922931049149  0.4780406853970872
  0.5283459533023930  0.2451189218718015  0.2922444032051139
  0.0310074901732748  0.1416008495698876  0.2964497822547151
  0.1422633634709644  0.3185276293275723  0.0060393199862501
  0.7445524719246623  0.8029665689587354  0.8053143471633373
  0.7291490686422870  0.5904269613863464  0.7715363071541451
  0.4299618066085459  0.9807867850157371  0.3380418338439645
  0.6128171199666227  0.6492568902659930  0.2857397342191108
  0.0795138307863968  0.9551803755475312  0.1405443944601395
  0.4052022720818494  0.5843110868506338  0.8015832055982104
  0.9167835992716796  0.1449938306252841  0.8963192573875485
  0.5549732788431315  0.6820550894362214  0.7931864842887674
  0.9139467807702482  0.6077349787737434  0.9055831077910422
  0.2284123427067392  0.1636272444456459  0.9887800749641135
  0.0310747594759038  0.4494914665420832  0.7209042534011986
  0.1583374788408055  0.6012077448271934  0.1628404701903603
  0.8744801679828527  0.8850631976991918  0.0532356333643575
  0.9927361500812767  0.2466744563656140  0.7427978441728067
  0.5534626674067107  0.1319563149380410  0.7933393475101486
  0.2210427454690166  0.7759421974185967  0.5756599571135277
  0.4347576359260198  0.8498195277064625  0.0894399879416899
  0.3130439173327542  0.7792024078365174  0.1359495745824609
  0.9030055360312323  0.8698263104038070  0.8680352877611160
  0.9644659724026071  0.7986746853665367  0.0450559571157233
  0.5891950929302550  0.9479498413794861  0.8938178729648831
  0.6897499689903913  0.7464978954087388  0.5196880700073711
  0.8674850633013499  0.5709575493465441  0.1816950896944921
  0.5720206133001312  0.4215493244465189  0.6159360847936177
  0.0039246007134851  0.5026683798933234  0.5566460996528459
  0.8407934645466394  0.9614297364001593  0.4890179550235117
  0.0281381690946344  0.3415364344485474  0.1538190963314410
  0.2631367164606612  0.7346970069399216  0.3061753285796604
  0.5552679790361899  0.8830786967538341  0.4854579605067167
  0.1655179896584439  0.6898472950030170  0.4668890163009016
  0.9623813788500064 -0.0000326734481019  0.6232277982516754
  0.7215261202594273  0.1947182026752320  0.1331008061748121
  0.1301895382019872  0.0871368437618700  0.1373528696432429
  0.5584349571689700  0.4817309238934465  0.2501783932487974
  0.3714462566610660  0.0971741348927844  0.2265316240834120
  0.7047945475786639  0.0017953177853672  0.9951426436282808
  0.2636584782416693  0.9499476956907699  0.8168167891649746
  0.2775079006935184  0.4937698862708799  0.6375830943881374
  0.4752435357586344  0.4308311944724959  0.9717904011296480
  0.1081210819160892  0.2016796795036067  0.9651524876488707
  0.8188014301284829  0.8258205394064282  0.6412280734346958
  0.8065506313504535  0.2063783045366214  0.7862997891157164
  0.5647095186330119  0.2821157544368398  0.9992589132139096
  0.1802035078283343  0.4156424008760903  0.3256357779658409
  0.7199705842207730  0.2912364444346806  0.9002010408655831
  0.7143793171330626  0.2901351304432935  0.5172317716968506
  0.5136051846240048  0.2458775482383793  0.6601122310564506
  0.5047457102322990  0.0428750220242553  0.1660378943107438
  0.3706408909661623  0.4038969799043113  0.7720639135577048
  0.2576447490740307  0.9876234543646814  0.0119382150584576
  0.4352861324398055  0.2004336163465064  0.4016672438536445
  0.8693591322008496  0.3437549228172833  0.8431601885561231
  0.3664236913977587  0.2057013656912115  0.7709094772136419
  0.8667000378007994  0.7696324009870927  0.8045562031360338
  0.3120461254329307  0.7416856554835709  0.4886629126130111
  0.5746478502569353  0.3623669699065341  0.3198937695449811
  0.1418580341543967  0.8162561210043989  0.4796196159717636
  0.7212556299307493  0.6646894771238681  0.8718104809738820
  0.4093004839274634  0.8978496874520329  0.7196915245564073
  0.6868400386174200  0.4805255734784324  0.2527674051368752
  0.3653765119605637  0.6297614486781323  0.3122244376740987
  0.4108669797794684  0.1591585306450337  0.8871372107349065
  0.4362562452544646  0.6643425088307258  0.9096921988086798
  0.7394797977846417  0.9047861059749633  0.2781569159713131
  0.0721460563086071  0.1332790269454456  0.4181236365257950
  0.2142868302755450  0.7157458357572524  0.1903004925322877
  0.5143069320836451  0.5322097681931987  0.0327421148508348
  0.6782711004932330  0.6706770225843697  0.0394539459996815
  0.4742059619547386  0.3291562995701366  0.7499083754581521
  0.8230483095527714  0.2382874005032538  0.2918425549511259
  0.6448639696778246  0.0230666518050538  0.5206136191384301
  0.5808587562416430  0.3320822321030187  0.5202363033800481
  0.4635979200392922  0.9596505680855713  0.5592843321762934
  0.9695780538016441  0.0287965800232966  0.9106236052540374
  0.9147866563357707  0.1441185326473220  0.7669825750145515
  0.6474584606407426  0.3087798901952867  0.7893428692430972
  0.6659453073051336  0.2297939067565625  0.4102149549697593
  0.6358213697252323  0.7866188668214044  0.4174627487301953
  0.9153672646685453  0.3777156246572427  0.3873139933953710
  0.2805754543307172  0.1161834783600978  0.7294945895877498
  0.2908684665997200  0.8746797134039941  0.9184817122294038
  0.4821517929286710  0.0881978756772174  0.2875313382742178
  0.3134560688395712  0.0516872514951937  0.5366835395228273
  0.9019720970103421  0.0698559629587113  0.4833555010973743
  0.5740759128501958  0.9390324797867363  0.1860332278816712
  0.1404312821505576  0.4341708117177335  0.7741690662858703
  0.4449800644063194  0.4098824723558016  0.4280797425174359
  0.8613746429707123  0.3736298146537451  0.9661087099351063
  0.1281219648409854  0.8353271488110732  0.6837991011160065
  0.5680544878611188  0.6129397381280071  0.1753697987924537
  0.5329409668536536  0.3715973970448930  0.1207335974567486
  0.9208979850531088  0.6879739190300799  0.0640417287969865
  0.6660856150341672  0.1921414171834320  0.6046670416763167
  0.8109197988609709  0.8679711656451511  0.9510036698065673
  0.3098456205687848  0.0812158248568936  0.3318994420300465
  0.8933074498183452  0.3051283153220021  0.6903333165681610
  0.0526130212450944  0.8219497997773301  0.1241940324991352
  0.0278192268592970  0.6167091184899289  0.2186915929875244
  0.1540580106088955  0.1329679651804777  0.2547658409347819
  0.2537996044898322  0.6068794200235493  0.6082080119578761
  0.5815517145637700  0.7199027062125681  0.5875728684480487
  0.8745595436338103  0.8888190852419149  0.3957200439985931
  0.7946039517952330  0.7139692722308985  0.3627863665440664
  0.1413141030100999  0.6453802691811101  0.3515304178772093
  0.7050825719335717  0.1018650232601341  0.2790612975111178
  0.1723199043825385  0.7451059080152311  0.8502132440133937
  0.7596110276485429  0.0136199091729911  0.1114262353939219
  0.1692085154639134  0.9942496572676867  0.4127564141645812
  0.6392729605368378  0.8412513652144222  0.0263393918646763
  0.8917273251808279  0.5721104621243268  0.7861782789248690
  0.7259351681651778  0.7321986701008419  0.6998048241897205
  0.9144220477814684  0.2916463078778049  0.1369851952471025
  0.0485310849284894  0.3941038675336747  0.6100583570311731
  0.3673295827392822  0.4892689050548882  0.9307724170812091
  0.1123999877743934  0.4997776151014443  0.4737589728492227
  0.3005646789654259  0.7543944005079032  0.7041041385967466
  0.5748257404451663  0.0151870494436881  0.0066356035027592
  0.7608903027267030  0.6454270652153883  0.1966856848677655
  0.1452929427587338  0.4616704099834679  0.2199799443031833
  0.0589038892527964  0.6525201441937455  0.5239374752126601
  0.2493415709492776  0.1014979177532782  0.0949809872850859
  0.0312597018456897  0.9352306966281869  0.2913034405210549
  0.6342105096614453  0.1949248307291571  0.9154038150858944
  0.9951165119262679  0.9459262993115514  0.7297439643782342
  0.4546449777672971  0.8170945092770484  0.4465787531030981
  0.6504612557006300  0.0639011256587612  0.7470252954193627
  0.5504034597102351  0.9562010724659497  0.3808991126386170
  0.7253371794587382  0.4716234725442150  0.8292179701764116
  0.2890466292600789  0.3316654032475984  0.7053261998260206
  0.1822501418333589  0.1408329923394389  0.5761810378351282
  0.6024252956284937  0.5840225605669320  0.7306094589850527
  0.9828705839727722  0.7506514684795201  0.3651363942834838
  0.8254907534728027  0.5508663544962750  0.9652884137949970
  0.8119453136821720  0.8226968274143848  0.1354447436262420
  0.5042396393395981  0.0186673123516692  0.8289064190527833
  0.1895794299912300  0.4145340801345118  0.9468310709598415
  0.0234077438305513  0.2157316896325156  0.5788710853529060
  0.3905738644295420  0.4970899334884696  0.6891067774618808
  0.8763677567979684  0.6183662996023762  0.5108721494601016
  0.9791775683688670  0.4521657002022610  0.1863486691882564
  0.4916898957826550  0.7415489855821032  0.0581565663276557
  0.3618483904652786  0.8038169799583778  0.2528111460412387
  0.9614543371100387  0.7341892336962573  0.6547290997274495
  0.3522241597076309  0.3246243716188207  0.9232728763843256
  0.1850741781207328  0.8421892174637245  0.3099388677301145
  0.9631150989662272  0.0210825334622911  0.1456754950377056
  0.0105273228857033  0.5455170537562379  0.9408845989649655
  0.0879864060335950  0.1088876260252793  0.7748844670306756
  0.1154937626498157  0.9599000999807691  0.0188817010484335
  0.1555964974416842  0.3047982791202855  0.4640774803816717
  0.4951574927917935  0.8590592599414810  0.8964509182644309
  0.9073404137298917  0.9009134872744117  0.5722151504933553
  0.2669222239292746  0.8967398445556335  0.5956499296148581
  0.6002659158969635  0.1912422293788668  0.0928854988160572
  0.0684418644039738  0.0018128319752173  0.5685030567512077
  0.7867395130306291  0.9082969218490722  0.7334668490036039
  0.6602172735025704  0.3685206434115921  0.9837751950738716
  0.1975353381589685  0.2372286268976756  0.8548590947823208
  0.0463885795686567  0.5598140480811873  0.6641455416161485
  0.1113943682098717  0.6592698365722890  0.0566726757164798
  0.2160173425157346  0.3139253800205635  0.1008632254031174
  0.0315836761945822  0.2679369070508921  0.2984443551962014
  0.2350898259917091  0.3146480637048129  0.2839896871433379
  0.6014888924188765  0.5258855906631387  0.5431858576194561
  0.0697893539258615  0.1862843474969609  0.0906099115911058
  0.8139902143296616  0.4653486969683813  0.1222014917601285
  0.4015575328836266  0.4564461176600585  0.2367006592402991
  0.2807335702513132  0.6079686354364288  0.8235286891857585
  0.7903777562107558  0.0575956346498259  0.6266157757044714
  0.4490195102446244  0.6824670158594520  0.7252942861078712
  0.5278422107703731  0.7417540516474959  0.2943150104580484
  0.3242779793938463  0.2349822604343995  0.4532608167609325
  0.5555174933880291  0.5576787979086646  0.3570092754103548
  0.4908237860993529  0.1220733626209258  0.4888983242178478
  0.4219706239940229  0.5866603960089293  0.5017012605104170
  0.2422582459556713  0.0706718354473913  0.9099373312069294
  0.8729450226531968  0.4656653906565620  0.6328700277220284
  0.9845975944156578  0.3054237302812478  0.8549160164180258
  0.5377120044003566  0.4551788293056354  0.8588260604676481
  0.7949857050497231  0.1069279846812998  0.8704375174561909
  0.2695787761058063  0.7007783990866534  0.0040336323730509
  0.8666733299226688  0.5331060960292139  0.3052281230423498
  0.0389243177459064  0.3801212495950159  0.0331676702203384
  0.3896072958913138 -0.0131116520040859  0.1784891672625934
  0.7018992939565187  0.3099862833330373  0.1867130233050922
  0.4003644977091027  0.0106832251199522  0.9925485376947271
  0.3042475654047586  0.4358693077359744  0.5308843041271281
  0.4116039442738906  0.2057835151967073  0.0697336101816230
  0.4547941038784890  0.1409730190070816  0.7005828039439495
  0.2501683894384789  0.5353756133846234  0.0774065341583767
  0.9867742082989496  0.7912017602272805  0.9250756713872078
  0.7269693183515149  0.4179326340241358  0.4411250481363320
  0.8336556912431446  0.2390442974732603  0.4927461126005981
  0.7147097744583319  0.8601447821097794  0.5682249018351804
  0.4161109739792737  0.2756867528382008  0.2426138424038648
  0.7835579446741049  0.2173396274492616  0.0266831923306163
  0.2755735404947258  0.4862991535939246  0.3610834812742104
  0.2398520152407976  0.8850232150394980  0.1251387751627369
  0.8771621942862845  0.0520695260596852  0.3097589420439537
  0.4240445831472462  0.3102032974490075  0.5907981338937234
  0.6982620348813748  0.3946677635427782  0.6362917253119160
  0.1368250692304367  0.9382707896577318  0.8417611218036238
  0.6022404228496221  0.8796885286380446  0.7351501910637576
 
  0.00000000E+00  0.00000000E+00  0.00000000E+00
  0.00000000E+00  0.00000000E+00  0.00000000E+00
  0.00000000E+00  0.00000000E+00  0.00000000E+00
  0.00000000E+00  0.00000000E+00  0.00000000E+00
  0.00000000E+00  0.00000000E+00  0.00000000E+00
  0.00000000E+00  0.00000000E+00  0.00000000E+00
  0.00000000E+00  0.00000000E+00  0.00000000E+00
  0.00000000E+00  0.00000000E+00  0.00000000E+00
  0.00000000E+00  0.00000000E+00  0.00000000E+00
  0.00000000E+00  0.00000000E+00  0.00000000E+00
  0.00000000E+00  0.00000000E+00  0.00000000E+00
  0.00000000E+00  0.00000000E+00  0.00000000E+00
  0.00000000E+00  0.00000000E+00  0.00000000E+00
  0.00000000E+00  0.00000000E+00  0.00000000E+00
  0.00000000E+00  0.00000000E+00  0.00000000E+00
  0.00000000E+00  0.00000000E+00  0.00000000E+00
  0.00000000E+00  0.00000000E+00  0.00000000E+00
  0.00000000E+00  0.00000000E+00  0.00000000E+00
  0.00000000E+00  0.00000000E+00  0.00000000E+00
  0.00000000E+00  0.00000000E+00  0.00000000E+00
  0.00000000E+00  0.00000000E+00  0.00000000E+00
  0.00000000E+00  0.00000000E+00  0.00000000E+00
  0.00000000E+00  0.00000000E+00  0.00000000E+00
  0.00000000E+00  0.00000000E+00  0.00000000E+00
  0.00000000E+00  0.00000000E+00  0.00000000E+00
  0.00000000E+00  0.00000000E+00  0.00000000E+00
  0.00000000E+00  0.00000000E+00  0.00000000E+00
  0.00000000E+00  0.00000000E+00  0.00000000E+00
  0.00000000E+00  0.00000000E+00  0.00000000E+00
  0.00000000E+00  0.00000000E+00  0.00000000E+00
  0.00000000E+00  0.00000000E+00  0.00000000E+00
  0.00000000E+00  0.00000000E+00  0.00000000E+00
  0.00000000E+00  0.00000000E+00  0.00000000E+00
  0.00000000E+00  0.00000000E+00  0.00000000E+00
  0.00000000E+00  0.00000000E+00  0.00000000E+00
  0.00000000E+00  0.00000000E+00  0.00000000E+00
  0.00000000E+00  0.00000000E+00  0.00000000E+00
  0.00000000E+00  0.00000000E+00  0.00000000E+00
  0.00000000E+00  0.00000000E+00  0.00000000E+00
  0.00000000E+00  0.00000000E+00  0.00000000E+00
  0.00000000E+00  0.00000000E+00  0.00000000E+00
  0.00000000E+00  0.00000000E+00  0.00000000E+00
  0.00000000E+00  0.00000000E+00  0.00000000E+00
  0.00000000E+00  0.00000000E+00  0.00000000E+00
  0.00000000E+00  0.00000000E+00  0.00000000E+00
  0.00000000E+00  0.00000000E+00  0.00000000E+00
  0.00000000E+00  0.00000000E+00  0.00000000E+00
  0.00000000E+00  0.00000000E+00  0.00000000E+00
  0.00000000E+00  0.00000000E+00  0.00000000E+00
  0.00000000E+00  0.00000000E+00  0.00000000E+00
  0.00000000E+00  0.00000000E+00  0.00000000E+00
  0.00000000E+00  0.00000000E+00  0.00000000E+00
  0.00000000E+00  0.00000000E+00  0.00000000E+00
  0.00000000E+00  0.00000000E+00  0.00000000E+00
  0.00000000E+00  0.00000000E+00  0.00000000E+00
  0.00000000E+00  0.00000000E+00  0.00000000E+00
  0.00000000E+00  0.00000000E+00  0.00000000E+00
  0.00000000E+00  0.00000000E+00  0.00000000E+00
  0.00000000E+00  0.00000000E+00  0.00000000E+00
  0.00000000E+00  0.00000000E+00  0.00000000E+00
  0.00000000E+00  0.00000000E+00  0.00000000E+00
  0.00000000E+00  0.00000000E+00  0.00000000E+00
  0.00000000E+00  0.00000000E+00  0.00000000E+00
  0.00000000E+00  0.00000000E+00  0.00000000E+00
  0.00000000E+00  0.00000000E+00  0.00000000E+00
  0.00000000E+00  0.00000000E+00  0.00000000E+00
  0.00000000E+00  0.00000000E+00  0.00000000E+00
  0.00000000E+00  0.00000000E+00  0.00000000E+00
  0.00000000E+00  0.00000000E+00  0.00000000E+00
  0.00000000E+00  0.00000000E+00  0.00000000E+00
  0.00000000E+00  0.00000000E+00  0.00000000E+00
  0.00000000E+00  0.00000000E+00  0.00000000E+00
  0.00000000E+00  0.00000000E+00  0.00000000E+00
  0.00000000E+00  0.00000000E+00  0.00000000E+00
  0.00000000E+00  0.00000000E+00  0.00000000E+00
  0.00000000E+00  0.00000000E+00  0.00000000E+00
  0.00000000E+00  0.00000000E+00  0.00000000E+00
  0.00000000E+00  0.00000000E+00  0.00000000E+00
  0.00000000E+00  0.00000000E+00  0.00000000E+00
  0.00000000E+00  0.00000000E+00  0.00000000E+00
  0.00000000E+00  0.00000000E+00  0.00000000E+00
  0.00000000E+00  0.00000000E+00  0.00000000E+00
  0.00000000E+00  0.00000000E+00  0.00000000E+00
  0.00000000E+00  0.00000000E+00  0.00000000E+00
  0.00000000E+00  0.00000000E+00  0.00000000E+00
  0.00000000E+00  0.00000000E+00  0.00000000E+00
  0.00000000E+00  0.00000000E+00  0.00000000E+00
  0.00000000E+00  0.00000000E+00  0.00000000E+00
  0.00000000E+00  0.00000000E+00  0.00000000E+00
  0.00000000E+00  0.00000000E+00  0.00000000E+00
  0.00000000E+00  0.00000000E+00  0.00000000E+00
  0.00000000E+00  0.00000000E+00  0.00000000E+00
  0.00000000E+00  0.00000000E+00  0.00000000E+00
  0.00000000E+00  0.00000000E+00  0.00000000E+00
  0.00000000E+00  0.00000000E+00  0.00000000E+00
  0.00000000E+00  0.00000000E+00  0.00000000E+00
  0.00000000E+00  0.00000000E+00  0.00000000E+00
  0.00000000E+00  0.00000000E+00  0.00000000E+00
  0.00000000E+00  0.00000000E+00  0.00000000E+00
  0.00000000E+00  0.00000000E+00  0.00000000E+00
  0.00000000E+00  0.00000000E+00  0.00000000E+00
  0.00000000E+00  0.00000000E+00  0.00000000E+00
  0.00000000E+00  0.00000000E+00  0.00000000E+00
  0.00000000E+00  0.00000000E+00  0.00000000E+00
  0.00000000E+00  0.00000000E+00  0.00000000E+00
  0.00000000E+00  0.00000000E+00  0.00000000E+00
  0.00000000E+00  0.00000000E+00  0.00000000E+00
  0.00000000E+00  0.00000000E+00  0.00000000E+00
  0.00000000E+00  0.00000000E+00  0.00000000E+00
  0.00000000E+00  0.00000000E+00  0.00000000E+00
  0.00000000E+00  0.00000000E+00  0.00000000E+00
  0.00000000E+00  0.00000000E+00  0.00000000E+00
  0.00000000E+00  0.00000000E+00  0.00000000E+00
  0.00000000E+00  0.00000000E+00  0.00000000E+00
  0.00000000E+00  0.00000000E+00  0.00000000E+00
  0.00000000E+00  0.00000000E+00  0.00000000E+00
  0.00000000E+00  0.00000000E+00  0.00000000E+00
  0.00000000E+00  0.00000000E+00  0.00000000E+00
  0.00000000E+00  0.00000000E+00  0.00000000E+00
  0.00000000E+00  0.00000000E+00  0.00000000E+00
  0.00000000E+00  0.00000000E+00  0.00000000E+00
  0.00000000E+00  0.00000000E+00  0.00000000E+00
  0.00000000E+00  0.00000000E+00  0.00000000E+00
  0.00000000E+00  0.00000000E+00  0.00000000E+00
  0.00000000E+00  0.00000000E+00  0.00000000E+00
  0.00000000E+00  0.00000000E+00  0.00000000E+00
  0.00000000E+00  0.00000000E+00  0.00000000E+00
  0.00000000E+00  0.00000000E+00  0.00000000E+00
  0.00000000E+00  0.00000000E+00  0.00000000E+00
  0.00000000E+00  0.00000000E+00  0.00000000E+00
  0.00000000E+00  0.00000000E+00  0.00000000E+00
  0.00000000E+00  0.00000000E+00  0.00000000E+00
  0.00000000E+00  0.00000000E+00  0.00000000E+00
  0.00000000E+00  0.00000000E+00  0.00000000E+00
  0.00000000E+00  0.00000000E+00  0.00000000E+00
  0.00000000E+00  0.00000000E+00  0.00000000E+00
  0.00000000E+00  0.00000000E+00  0.00000000E+00
  0.00000000E+00  0.00000000E+00  0.00000000E+00
  0.00000000E+00  0.00000000E+00  0.00000000E+00
  0.00000000E+00  0.00000000E+00  0.00000000E+00
  0.00000000E+00  0.00000000E+00  0.00000000E+00
  0.00000000E+00  0.00000000E+00  0.00000000E+00
  0.00000000E+00  0.00000000E+00  0.00000000E+00
  0.00000000E+00  0.00000000E+00  0.00000000E+00
  0.00000000E+00  0.00000000E+00  0.00000000E+00
  0.00000000E+00  0.00000000E+00  0.00000000E+00
  0.00000000E+00  0.00000000E+00  0.00000000E+00
  0.00000000E+00  0.00000000E+00  0.00000000E+00
  0.00000000E+00  0.00000000E+00  0.00000000E+00
  0.00000000E+00  0.00000000E+00  0.00000000E+00
  0.00000000E+00  0.00000000E+00  0.00000000E+00
  0.00000000E+00  0.00000000E+00  0.00000000E+00
  0.00000000E+00  0.00000000E+00  0.00000000E+00
  0.00000000E+00  0.00000000E+00  0.00000000E+00
  0.00000000E+00  0.00000000E+00  0.00000000E+00
  0.00000000E+00  0.00000000E+00  0.00000000E+00
  0.00000000E+00  0.00000000E+00  0.00000000E+00
  0.00000000E+00  0.00000000E+00  0.00000000E+00
  0.00000000E+00  0.00000000E+00  0.00000000E+00
  0.00000000E+00  0.00000000E+00  0.00000000E+00
  0.00000000E+00  0.00000000E+00  0.00000000E+00
  0.00000000E+00  0.00000000E+00  0.00000000E+00
  0.00000000E+00  0.00000000E+00  0.00000000E+00
  0.00000000E+00  0.00000000E+00  0.00000000E+00
  0.00000000E+00  0.00000000E+00  0.00000000E+00
  0.00000000E+00  0.00000000E+00  0.00000000E+00
  0.00000000E+00  0.00000000E+00  0.00000000E+00
  0.00000000E+00  0.00000000E+00  0.00000000E+00
  0.00000000E+00  0.00000000E+00  0.00000000E+00
  0.00000000E+00  0.00000000E+00  0.00000000E+00
  0.00000000E+00  0.00000000E+00  0.00000000E+00
  0.00000000E+00  0.00000000E+00  0.00000000E+00
  0.00000000E+00  0.00000000E+00  0.00000000E+00
  0.00000000E+00  0.00000000E+00  0.00000000E+00
  0.00000000E+00  0.00000000E+00  0.00000000E+00
  0.00000000E+00  0.00000000E+00  0.00000000E+00
  0.00000000E+00  0.00000000E+00  0.00000000E+00
  0.00000000E+00  0.00000000E+00  0.00000000E+00
  0.00000000E+00  0.00000000E+00  0.00000000E+00
  0.00000000E+00  0.00000000E+00  0.00000000E+00
  0.00000000E+00  0.00000000E+00  0.00000000E+00
  0.00000000E+00  0.00000000E+00  0.00000000E+00
  0.00000000E+00  0.00000000E+00  0.00000000E+00
  0.00000000E+00  0.00000000E+00  0.00000000E+00
  0.00000000E+00  0.00000000E+00  0.00000000E+00
  0.00000000E+00  0.00000000E+00  0.00000000E+00
  0.00000000E+00  0.00000000E+00  0.00000000E+00
  0.00000000E+00  0.00000000E+00  0.00000000E+00
  0.00000000E+00  0.00000000E+00  0.00000000E+00
  0.00000000E+00  0.00000000E+00  0.00000000E+00
  0.00000000E+00  0.00000000E+00  0.00000000E+00
  0.00000000E+00  0.00000000E+00  0.00000000E+00
  0.00000000E+00  0.00000000E+00  0.00000000E+00
  0.00000000E+00  0.00000000E+00  0.00000000E+00
  0.00000000E+00  0.00000000E+00  0.00000000E+00
  0.00000000E+00  0.00000000E+00  0.00000000E+00
  0.00000000E+00  0.00000000E+00  0.00000000E+00
  0.00000000E+00  0.00000000E+00  0.00000000E+00
  0.00000000E+00  0.00000000E+00  0.00000000E+00
  0.00000000E+00  0.00000000E+00  0.00000000E+00
  0.00000000E+00  0.00000000E+00  0.00000000E+00
  0.00000000E+00  0.00000000E+00  0.00000000E+00
  0.00000000E+00  0.00000000E+00  0.00000000E+00
  0.00000000E+00  0.00000000E+00  0.00000000E+00
  0.00000000E+00  0.00000000E+00  0.00000000E+00
  0.00000000E+00  0.00000000E+00  0.00000000E+00
  0.00000000E+00  0.00000000E+00  0.00000000E+00
  0.00000000E+00  0.00000000E+00  0.00000000E+00
  0.00000000E+00  0.00000000E+00  0.00000000E+00
  0.00000000E+00  0.00000000E+00  0.00000000E+00
  0.00000000E+00  0.00000000E+00  0.00000000E+00
  0.00000000E+00  0.00000000E+00  0.00000000E+00
  0.00000000E+00  0.00000000E+00  0.00000000E+00
  0.00000000E+00  0.00000000E+00  0.00000000E+00
  0.00000000E+00  0.00000000E+00  0.00000000E+00
  0.00000000E+00  0.00000000E+00  0.00000000E+00
  0.00000000E+00  0.00000000E+00  0.00000000E+00
  0.00000000E+00  0.00000000E+00  0.00000000E+00
  0.00000000E+00  0.00000000E+00  0.00000000E+00
  0.00000000E+00  0.00000000E+00  0.00000000E+00
  0.00000000E+00  0.00000000E+00  0.00000000E+00
  0.00000000E+00  0.00000000E+00  0.00000000E+00
  0.00000000E+00  0.00000000E+00  0.00000000E+00
  0.00000000E+00  0.00000000E+00  0.00000000E+00
  0.00000000E+00  0.00000000E+00  0.00000000E+00
  0.00000000E+00  0.00000000E+00  0.00000000E+00
  0.00000000E+00  0.00000000E+00  0.00000000E+00
  0.00000000E+00  0.00000000E+00  0.00000000E+00
  0.00000000E+00  0.00000000E+00  0.00000000E+00
  0.00000000E+00  0.00000000E+00  0.00000000E+00
  0.00000000E+00  0.00000000E+00  0.00000000E+00
  0.00000000E+00  0.00000000E+00  0.00000000E+00