Sb_48                                   
   1.00000000000000     
     8.8068398029424131    0.0000089062127183    0.0000045917000033
    -4.4034121885149489    7.6269514495072759   -0.0000045917000033
     0.0000117225365797   -0.0000067680096498   23.1536803180924053
   Sb
    48
Direct
  0.0000007549991498  0.9999992450008505  0.1348963936386857
  0.3333325465830325  0.1666674534169674  0.3015865942539800
  0.1666665977783824  0.3333334022216177  0.9682109841665534
  0.9999992450008505  0.0000007549991498  0.3651036203613154
  0.3333334022216177  0.1666665977783824  0.0317890418334489
  0.1666674534169674  0.3333325465830325  0.1984134057460201
  0.5000007549991495  0.9999992450008505  0.1348963936386857
  0.8333325175830338  0.1666674534169674  0.3015865942539800
  0.6666666267783813  0.3333334022216177  0.9682109841665534
  0.4999992450008502  0.0000007549991498  0.3651036203613154
  0.8333333732216187  0.1666665977783824  0.0317890418334489
  0.6666674824169662  0.3333325465830325  0.1984134057460201
  0.0000007549991498  0.4999992450008502  0.1348963936386857
  0.3333325465830325  0.6666674824169662  0.3015865942539800
  0.1666665977783824  0.8333333732216187  0.9682109841665534
  0.9999992450008505  0.5000007549991495  0.3651036203613154
  0.3333334022216177  0.6666666267783813  0.0317890418334489
  0.1666674534169674  0.8333325175830338  0.1984134057460201
  0.5000007549991495  0.4999992450008502  0.1348963936386857
  0.8333325175830338  0.6666674824169662  0.3015865942539800
  0.6666666267783813  0.8333333732216187  0.9682109841665534
  0.4999992450008502  0.5000007549991495  0.3651036203613154
  0.8333333732216187  0.6666666267783813  0.0317890418334489
  0.6666674824169662  0.8333325175830338  0.1984134057460201
  0.0000007549991498  0.9999992450008505  0.6348963796386845
  0.3333325465830325  0.1666674534169674  0.8015865942539798
  0.1666665977783824  0.3333334022216177  0.4682109541665508
  0.9999992450008505  0.0000007549991498  0.8651036203613155
  0.3333334022216177  0.1666665977783824  0.5317890158334466
  0.1666674534169674  0.3333325465830325  0.6984134057460202
  0.5000007549991495  0.9999992450008505  0.6348963796386845
  0.8333325175830338  0.1666674534169674  0.8015865942539798
  0.6666666267783813  0.3333334022216177  0.4682109541665508
  0.4999992450008502  0.0000007549991498  0.8651036203613155
  0.8333333732216187  0.1666665977783824  0.5317890158334466
  0.6666674824169662  0.3333325465830325  0.6984134057460202
  0.0000007549991498  0.4999992450008502  0.6348963796386845
  0.3333325465830325  0.6666674824169662  0.8015865942539798
  0.1666665977783824  0.8333333732216187  0.4682109541665508
  0.9999992450008505  0.5000007549991495  0.8651036203613155
  0.3333334022216177  0.6666666267783813  0.5317890158334466
  0.1666674534169674  0.8333325175830338  0.6984134057460202
  0.5000007549991495  0.4999992450008502  0.6348963796386845
  0.8333325175830338  0.6666674824169662  0.8015865942539798
  0.6666666267783813  0.8333333732216187  0.4682109541665508
  0.4999992450008502  0.5000007549991495  0.8651036203613155
  0.8333333732216187  0.6666666267783813  0.5317890158334466
  0.6666674824169662  0.8333325175830338  0.6984134057460202
 
  0.00000000E+00  0.00000000E+00  0.00000000E+00
  0.00000000E+00  0.00000000E+00  0.00000000E+00
  0.00000000E+00  0.00000000E+00  0.00000000E+00
  0.00000000E+00  0.00000000E+00  0.00000000E+00
  0.00000000E+00  0.00000000E+00  0.00000000E+00
  0.00000000E+00  0.00000000E+00  0.00000000E+00
  0.00000000E+00  0.00000000E+00  0.00000000E+00
  0.00000000E+00  0.00000000E+00  0.00000000E+00
  0.00000000E+00  0.00000000E+00  0.00000000E+00
  0.00000000E+00  0.00000000E+00  0.00000000E+00
  0.00000000E+00  0.00000000E+00  0.00000000E+00
  0.00000000E+00  0.00000000E+00  0.00000000E+00
  0.00000000E+00  0.00000000E+00  0.00000000E+00
  0.00000000E+00  0.00000000E+00  0.00000000E+00
  0.00000000E+00  0.00000000E+00  0.00000000E+00
  0.00000000E+00  0.00000000E+00  0.00000000E+00
  0.00000000E+00  0.00000000E+00  0.00000000E+00
  0.00000000E+00  0.00000000E+00  0.00000000E+00
  0.00000000E+00  0.00000000E+00  0.00000000E+00
  0.00000000E+00  0.00000000E+00  0.00000000E+00
  0.00000000E+00  0.00000000E+00  0.00000000E+00
  0.00000000E+00  0.00000000E+00  0.00000000E+00
  0.00000000E+00  0.00000000E+00  0.00000000E+00
  0.00000000E+00  0.00000000E+00  0.00000000E+00
  0.00000000E+00  0.00000000E+00  0.00000000E+00
  0.00000000E+00  0.00000000E+00  0.00000000E+00
  0.00000000E+00  0.00000000E+00  0.00000000E+00
  0.00000000E+00  0.00000000E+00  0.00000000E+00
  0.00000000E+00  0.00000000E+00  0.00000000E+00
  0.00000000E+00  0.00000000E+00  0.00000000E+00
  0.00000000E+00  0.00000000E+00  0.00000000E+00
  0.00000000E+00  0.00000000E+00  0.00000000E+00
  0.00000000E+00  0.00000000E+00  0.00000000E+00
  0.00000000E+00  0.00000000E+00  0.00000000E+00
  0.00000000E+00  0.00000000E+00  0.00000000E+00
  0.00000000E+00  0.00000000E+00  0.00000000E+00
  0.00000000E+00  0.00000000E+00  0.00000000E+00
  0.00000000E+00  0.00000000E+00  0.00000000E+00
  0.00000000E+00  0.00000000E+00  0.00000000E+00
  0.00000000E+00  0.00000000E+00  0.00000000E+00
  0.00000000E+00  0.00000000E+00  0.00000000E+00
  0.00000000E+00  0.00000000E+00  0.00000000E+00
  0.00000000E+00  0.00000000E+00  0.00000000E+00
  0.00000000E+00  0.00000000E+00  0.00000000E+00
  0.00000000E+00  0.00000000E+00  0.00000000E+00
  0.00000000E+00  0.00000000E+00  0.00000000E+00
  0.00000000E+00  0.00000000E+00  0.00000000E+00
  0.00000000E+00  0.00000000E+00  0.00000000E+00
