Sb                                      
   1.00000000000000     
    17.3573007965000023    0.0000000000000000    0.0000000000000000
     0.0000000000000000   17.3573007965000023    0.0000000000000000
     0.0000000000000000    0.0000000000000000   17.3573007965000023
   Ga   S 
    99    99
Direct
  0.9699470721622507  0.9261117719035945  0.1082222045528323
  0.6480558141806970  0.0880331586297156  0.3577077013007636
  0.0889740196791619  0.5795697311960305  0.9206147676979274
  0.5268142245347409  0.3614424054150173  0.9073586278099190
  0.4669515273648870  0.2362169820124523  0.9328994765522565
  0.3863477053192449  0.3203668944987554  0.2383861094494626
  0.7385136191823052  0.0813371603857418 -0.0040989307206582
  0.2622026468146341  0.3300848636959371  0.5042035875684524
  0.0036029077760572  0.2045459615279015  0.8528785446403776
  0.3252475180050500  0.3908901035733136  0.8617122561473050
  0.9964738589071440  0.7502007086221979  0.4031546854835510
  0.6583926063333793  0.5251089906495175  0.8389128193434258
  0.4373784917484577  0.8892311213469225  0.7613849653654537
  0.1151828510560479  0.8988139811456594  0.5053413061767293
  0.7380616102558818  0.1435816311910282  0.6367146905012881
  0.1325317521125109  0.7533243686464335  0.5375430400352190
  0.3178283950161667  0.7257183320387284  0.0355349134418643
  0.0273741155290021  0.5640145789074734  0.7471592934599299
  0.7659956877897331  0.3247366274723579  0.7194374239575257
  0.7725467166245532  0.0150610101119497  0.2189531355541189
  0.6193698106817459  0.4183387317266752  0.1954605692315738
  0.3088844723306863  0.0724749841801261  0.7592442292886485
  0.1836383594127396  0.4191376153797517  0.2417315961125583
  0.4412728426336360  0.0997409454129644  0.6003112514622716
  0.4865202655531138  0.5652574033371077  0.5073240884484004
  0.1770595027597455  0.8737822002503792  0.1466057688824190
  0.0407136946213378  0.7185507248135840  0.1151866311821445
  0.7006216021437556  0.5538221524638924  0.6014374868193370
  0.8804893838664578  0.8055427999901644  0.7197079872561738
  0.9636170080199565  0.0172509291195085  0.6506559569427643
 -0.0132587492814151  0.3164089683481090  0.1678682263590930
  0.4502177714338070  0.7304107365883542  0.6608733680209331
  0.9435980225299585  0.3110511435923380  0.4996666493889312
  0.7867893493640038  0.3310287527991740  0.3617213759051314
  0.9711521761812074  0.0931147829175436  0.9776039656284529
  0.1666065760163320  0.0156236238307654  0.3521202137233082
  0.6174310956277945  0.7680386797405281  0.5076561266420990
  0.8781131228887162  0.4136811150946559  0.8124454266319049
  0.8451371937712421  0.2579495526885684  0.9566664870405036
  0.8830250184494490  0.5675247625799862  0.4040176219911390
  0.0854337602301987  0.2363299753613171  0.4837008297747063
  0.8107947939377436  0.4289982963029736  0.2569232196136434
  0.3986974634467738  0.7509062216846635  0.9172982161136520
  0.5921368831980764  0.9419665817389355  0.0902732252301347
  0.4945849564230019  0.6440422070487999  0.9038589557006448
  0.7859705681932080  0.2595281673587475  0.1898524804811991
  0.4548956941838239  0.4907497348227962  0.7514352214651545
  0.2852962428413692  0.8670372039361709  0.6200568745666347
  0.2064247751009734  0.8499976844340198  0.3935712192939297
  0.5308596689854254  0.4526562604050883  0.0946735808170934
  0.4558349111850733  0.0406076186480498  0.9330980710979234
  0.4429084580528914  0.2773552264181217  0.7020947719060077
  0.9013747998529632  0.8481939875728551  0.5843614374039139
  0.0842755292523159  0.6517862426915816  0.2619318247453623
  0.2316405788168507  0.6768579186668451  0.2044844138861814
  0.4806024056833427  0.8591354251094030  0.9691695875920793
  0.2236770169453239  0.0102394410997581  0.1368194765256893
  0.7153435958775164  0.4259725691115023  0.0184244998584386
  0.7367342911684869  0.7508201583872219  0.9253760967308432
  0.5470346192573736  0.5708118659961445  0.0157357917229867
  0.2509475805413777  0.5850753772887045  0.9281715458705949
  0.1219540172158778  0.5629589366912416  0.0882220079416326
  0.4477821595245308  0.6963753109599313  0.1726162793362957
  0.3345759337757359  0.6889056309914017  0.5042001595983214
  0.3251856165525597  0.4931497475900278  0.0341724610273093
  0.6868557837377425  0.4973352611920662  0.4030302139533758
  0.0109161715264991  0.9700499193548748  0.3011251159236449
  0.1238077400090897  0.2272184208137913  0.6822056411340019
  0.6474488186578747  0.7028727849869524  0.6823466148306734
  0.0202709542312071  0.4429147655639034  0.3181092003551596
  0.4638465071046375  0.1638763585639003  0.4387803536312541
  0.2319030452862356  0.5406030458184257  0.7521082201793053
  0.3236764266441113  0.7087433855536994  0.7199807434357330
  0.9334590537015437  0.6161192120189132  0.5911526443987752
  0.6426495884401937  0.8549328767806476  0.3086670250761244
  0.5785902726868211  0.0809947291456441  0.7779101283198000
  0.2204762539199886  0.2839151082344046  0.3678088616057543
  0.7820646041707299  0.9867234461776603  0.5316425675290141
  0.1140317751832912  0.4696130499133487  0.5261126959658720
  0.7083252482119359  0.3183614269336940  0.5305249563946179
  0.9750123450998701  0.9278810311976697  0.4913887408555126
  0.3215165492865223  0.0740607359744522  0.9030155536927628
  0.8082434635517809  0.0857936593032371  0.8278571427310215
  0.2342682715611300  0.6761866431919770  0.6104453323505147
  0.9055309899859829  0.1183274028320448  0.3446099120983462
  0.3909926508769254  0.2720813697825584  0.0533393941332978
  0.8223714734945904  0.8821627438713565  0.9189059908150072
  0.5810056609020674  0.3128239635776096  0.7094380884506880
  0.0036428826454429  0.8345087341456173  0.9156186070993448
  0.2534833874110938  0.1717015047843240  0.2730906216767408
  0.3302347236286793  0.4608547079548649  0.5367433639715106
  0.1641746531093031  0.0821833279069898  0.5795539213291293
  0.3687812431553305  0.8758017138702799  0.2380701668774103
  0.8312009821723160  0.6438832306391619  0.8042019672372083
  0.6306524986877901  0.7712211665791461  0.1234406535079241
  0.1206349892728423  0.0029273679881648  0.9529953773399441
  0.5886889496578576  0.3100320240706730  0.3292968441603515
  0.4361214922912732  0.8169820032878236  0.3473486664560351
  0.4153362350769843  0.5403938394979655  0.2955311613575262
  0.9017058598883132  0.0038632574050309  0.1901790459373472
  0.0041332247007262  0.5105435909210480  0.6274926038696866
  0.1896619657017169  0.7547579151177268  0.0805937606736776
  0.9953955516663114  0.4993691188353904  0.8544588091130478
  0.1296817263375060  0.7275019329404556  0.3931291202596575
  0.0766447905604737  0.2877994088884379  0.7881507844774107
  0.6219963518009921  0.3948719162780703  0.8184623473854779
  0.2354404696079165  0.1496983267178539  0.6723401780292013
  0.3437973510763607  0.2139540673467471  0.1734465064272770
  0.3449195703080186  0.3616364553597183  0.7342039600458897
  0.4284832342609833  0.1485747210718326  0.7379123453846560
  0.2267989310043597  0.0676453020614547  0.0002947371684444
  0.8300023035924046  0.3890774647307669  0.9597280474671124
  0.4080976876127038  0.3937379203525064  0.1226229716907745
  0.3207540337074487  0.0524458123698351  0.3146004470018962
  0.7731007370544619  0.4188421866727884  0.4711451825483420
  0.5730987308710657  0.6188496939286824  0.7950192386760032
  0.6778698220494429  0.2550514877029162  0.4136474532693360
  0.3424711975311818  0.5993044986680499  0.7986917240604845
  0.8628670518510296  0.2109947560589258  0.8287824213368509
  0.9359195383953401  0.4512274953057362  0.2155995274115411
  0.7542553717108366  0.2050670031075983  0.0335905009462498
  0.2970140416934091  0.3937795303017464  0.3069751497450380
  0.6660856027054927  0.2058942265652859  0.7338228518669071
  0.9472562232529677  0.6563827306202970  0.3252655579020677
  0.8060008911645614  0.2486760532902531  0.5881851350726039
  0.6168720140066085  0.5855665530674558  0.4744466122000628
  0.2413307003007444  0.8306462814211263  0.2594080642524267
  0.1273748242806945  0.5229594446798695  0.3055884058408931
  0.4600210238959209  0.2873396915898340  0.3459719914711138
  0.7368906600748133  0.4683787129880827  0.1484312770775406
  0.1928273910417857  0.4143370242856012  0.1094983888099733
  0.6813927933867552  0.5481106774000355  0.9691977239179359
  0.4746910561536307  0.6982988555944916  0.5317720050405798
  0.4514196348518906  0.6884495666467312  0.3034048130528729
  0.8983755316332879  0.2612292941034047  0.3729429898017986
  0.3682273593240320  0.9737507221244691  0.6817065857664639
  0.3503809201413626  0.0112260401795466  0.2050030413667808
  0.6018188549274197  0.3545712073840759  0.0213778434423853
  0.7777727058257728  0.5507832539838443  0.3212737109174820
  0.6812562720945465  0.0682685522218335  0.5431541532385037
  0.7500269821331713  0.7699321874748468  0.1776724151698042
  0.9258828364814945  0.8872605171609999  0.8185946155027317
  0.3666687386842165  0.5602203940410325  0.4386559475938229
  0.9893601824734959  0.7292181488280374  0.5397461183673542
  0.1363574482515390  0.6321708645605421  0.7777434660405271
  0.2838639607702462  0.2922380825826364  0.9512857976320165
  0.3353977929281034  0.8144878815138937  0.4426131746779391
  0.7042548087326846  0.7409442921776312  0.2845149415299403
  0.7593220094209547  0.7541460471140417  0.7708600245520955
  0.7763822214518270  0.5283702784588191  0.7754901988161089
  0.5500863153184961  0.8592287116168299  0.4058180059538054
  0.4292733002128930  0.4578756576856666  0.9159879983727871
  0.8828444292236549  0.6730864475232150  0.9254991056126018
  0.1686980406204160  0.9552216692066644  0.6145024222209738
  0.7715412529500605  0.1353784667656908  0.2756956246931953
  0.5128812676428701  0.9415288610884932  0.8569975578485447
  0.2314469041239544  0.5333971301355339  0.6175256260875989
  0.9373891985031556  0.8655972641281768  0.3757712655885367
  0.6364525137516941  0.3872468564439902  0.6134692382052636
  0.9217811294338734  0.8402154511554651  0.0230948665830792
  0.0466196218285294  0.0294642419525924  0.0644232717508326
  0.4693510685273635  0.9746456755448918  0.0512181230482996
  0.9771302367480307  0.2267531219969210 -0.0130614424140462
  0.9634503417169125  0.4642738361930479  0.4342259842399042
  0.8984537243369051  0.0412830982591645  0.5016711256601631
  0.0464961994044959  0.1463425916811520  0.6067331575178199
  0.8587867476482639  0.0307860344621224  0.9497552264551125
  0.3979944628905098  0.8093651531691598  0.1211057239547119
  0.8212143758042687  0.0553606072974903  0.7002241235513873
  0.4519141738124017  0.4734702161609519  0.5921006652047339
  0.6855408905746000  0.0332045083621860  0.1112294774106868
  0.5309529133358373  0.8303620135905179  0.6855367176060816
  0.0495366819317011  0.8565296754077112  0.1899463216884477
  0.7260837855117459  0.9558643795419285  0.3273322021232021
  0.6352246314942873  0.2832939809141379  0.2095130191225811
  0.2097497323955987  0.4567890387365441  0.8533464907624337
  0.5681394539341630  0.6550141821258605  0.1297326310392304
  0.7696946483418248  0.8604658923628288  0.5485267896331107
  0.4486133157172854  0.2704957795601577  0.5628265405620037
  0.1269730024286185  0.8795111518749439  0.9155501990296612
  0.6957302235918278  0.0395261509095819  0.8776274914349153
  0.3465376237582924  0.2201141249336298  0.5247238583955313
  0.0773331495886271  0.4285390227884110  0.0813634589322688
  0.1569299833528634  0.0968518281959411  0.2151073412545154
  0.5655054059969472  0.8665707440179564  0.1976395790104210
  0.0953708400262671  0.3295401774159919  0.2915039634225987
  0.3539800954265064  0.6163928905425169  0.1152381181211641
  0.9339069598522055  0.6673953982809447  0.7193360031371373
  0.5894842504112247  0.4459779863333432  0.3288616608988700
  0.8261666240734962  0.6128156426716602  0.5175360315445910
  0.0388435915925154  0.0726616556575667  0.8611768298992000
  0.3361651657417275  0.8130628447538156  0.8122439824319349
  0.1891339467987893  0.1161202055961090  0.4539832581218476
  0.5478532142805120  0.1345726137978011  0.9227701000778573
  0.3403636371426519  0.2137647463803940  0.8788884168288303
  0.1526836082565565  0.3224143219443426  0.5889130771875052
  0.9967765666573025  0.6999967461795130  0.8977826832157605
  0.6182366114613573  0.8399586519312554  0.0056676504558314
 
  0.00000000E+00  0.00000000E+00  0.00000000E+00
  0.00000000E+00  0.00000000E+00  0.00000000E+00
  0.00000000E+00  0.00000000E+00  0.00000000E+00
  0.00000000E+00  0.00000000E+00  0.00000000E+00
  0.00000000E+00  0.00000000E+00  0.00000000E+00
  0.00000000E+00  0.00000000E+00  0.00000000E+00
  0.00000000E+00  0.00000000E+00  0.00000000E+00
  0.00000000E+00  0.00000000E+00  0.00000000E+00
  0.00000000E+00  0.00000000E+00  0.00000000E+00
  0.00000000E+00  0.00000000E+00  0.00000000E+00
  0.00000000E+00  0.00000000E+00  0.00000000E+00
  0.00000000E+00  0.00000000E+00  0.00000000E+00
  0.00000000E+00  0.00000000E+00  0.00000000E+00
  0.00000000E+00  0.00000000E+00  0.00000000E+00
  0.00000000E+00  0.00000000E+00  0.00000000E+00
  0.00000000E+00  0.00000000E+00  0.00000000E+00
  0.00000000E+00  0.00000000E+00  0.00000000E+00
  0.00000000E+00  0.00000000E+00  0.00000000E+00
  0.00000000E+00  0.00000000E+00  0.00000000E+00
  0.00000000E+00  0.00000000E+00  0.00000000E+00
  0.00000000E+00  0.00000000E+00  0.00000000E+00
  0.00000000E+00  0.00000000E+00  0.00000000E+00
  0.00000000E+00  0.00000000E+00  0.00000000E+00
  0.00000000E+00  0.00000000E+00  0.00000000E+00
  0.00000000E+00  0.00000000E+00  0.00000000E+00
  0.00000000E+00  0.00000000E+00  0.00000000E+00
  0.00000000E+00  0.00000000E+00  0.00000000E+00
  0.00000000E+00  0.00000000E+00  0.00000000E+00
  0.00000000E+00  0.00000000E+00  0.00000000E+00
  0.00000000E+00  0.00000000E+00  0.00000000E+00
  0.00000000E+00  0.00000000E+00  0.00000000E+00
  0.00000000E+00  0.00000000E+00  0.00000000E+00
  0.00000000E+00  0.00000000E+00  0.00000000E+00
  0.00000000E+00  0.00000000E+00  0.00000000E+00
  0.00000000E+00  0.00000000E+00  0.00000000E+00
  0.00000000E+00  0.00000000E+00  0.00000000E+00
  0.00000000E+00  0.00000000E+00  0.00000000E+00
  0.00000000E+00  0.00000000E+00  0.00000000E+00
  0.00000000E+00  0.00000000E+00  0.00000000E+00
  0.00000000E+00  0.00000000E+00  0.00000000E+00
  0.00000000E+00  0.00000000E+00  0.00000000E+00
  0.00000000E+00  0.00000000E+00  0.00000000E+00
  0.00000000E+00  0.00000000E+00  0.00000000E+00
  0.00000000E+00  0.00000000E+00  0.00000000E+00
  0.00000000E+00  0.00000000E+00  0.00000000E+00
  0.00000000E+00  0.00000000E+00  0.00000000E+00
  0.00000000E+00  0.00000000E+00  0.00000000E+00
  0.00000000E+00  0.00000000E+00  0.00000000E+00
  0.00000000E+00  0.00000000E+00  0.00000000E+00
  0.00000000E+00  0.00000000E+00  0.00000000E+00
  0.00000000E+00  0.00000000E+00  0.00000000E+00
  0.00000000E+00  0.00000000E+00  0.00000000E+00
  0.00000000E+00  0.00000000E+00  0.00000000E+00
  0.00000000E+00  0.00000000E+00  0.00000000E+00
  0.00000000E+00  0.00000000E+00  0.00000000E+00
  0.00000000E+00  0.00000000E+00  0.00000000E+00
  0.00000000E+00  0.00000000E+00  0.00000000E+00
  0.00000000E+00  0.00000000E+00  0.00000000E+00
  0.00000000E+00  0.00000000E+00  0.00000000E+00
  0.00000000E+00  0.00000000E+00  0.00000000E+00
  0.00000000E+00  0.00000000E+00  0.00000000E+00
  0.00000000E+00  0.00000000E+00  0.00000000E+00
  0.00000000E+00  0.00000000E+00  0.00000000E+00
  0.00000000E+00  0.00000000E+00  0.00000000E+00
  0.00000000E+00  0.00000000E+00  0.00000000E+00
  0.00000000E+00  0.00000000E+00  0.00000000E+00
  0.00000000E+00  0.00000000E+00  0.00000000E+00
  0.00000000E+00  0.00000000E+00  0.00000000E+00
  0.00000000E+00  0.00000000E+00  0.00000000E+00
  0.00000000E+00  0.00000000E+00  0.00000000E+00
  0.00000000E+00  0.00000000E+00  0.00000000E+00
  0.00000000E+00  0.00000000E+00  0.00000000E+00
  0.00000000E+00  0.00000000E+00  0.00000000E+00
  0.00000000E+00  0.00000000E+00  0.00000000E+00
  0.00000000E+00  0.00000000E+00  0.00000000E+00
  0.00000000E+00  0.00000000E+00  0.00000000E+00
  0.00000000E+00  0.00000000E+00  0.00000000E+00
  0.00000000E+00  0.00000000E+00  0.00000000E+00
  0.00000000E+00  0.00000000E+00  0.00000000E+00
  0.00000000E+00  0.00000000E+00  0.00000000E+00
  0.00000000E+00  0.00000000E+00  0.00000000E+00
  0.00000000E+00  0.00000000E+00  0.00000000E+00
  0.00000000E+00  0.00000000E+00  0.00000000E+00
  0.00000000E+00  0.00000000E+00  0.00000000E+00
  0.00000000E+00  0.00000000E+00  0.00000000E+00
  0.00000000E+00  0.00000000E+00  0.00000000E+00
  0.00000000E+00  0.00000000E+00  0.00000000E+00
  0.00000000E+00  0.00000000E+00  0.00000000E+00
  0.00000000E+00  0.00000000E+00  0.00000000E+00
  0.00000000E+00  0.00000000E+00  0.00000000E+00
  0.00000000E+00  0.00000000E+00  0.00000000E+00
  0.00000000E+00  0.00000000E+00  0.00000000E+00
  0.00000000E+00  0.00000000E+00  0.00000000E+00
  0.00000000E+00  0.00000000E+00  0.00000000E+00
  0.00000000E+00  0.00000000E+00  0.00000000E+00
  0.00000000E+00  0.00000000E+00  0.00000000E+00
  0.00000000E+00  0.00000000E+00  0.00000000E+00
  0.00000000E+00  0.00000000E+00  0.00000000E+00
  0.00000000E+00  0.00000000E+00  0.00000000E+00
  0.00000000E+00  0.00000000E+00  0.00000000E+00
  0.00000000E+00  0.00000000E+00  0.00000000E+00
  0.00000000E+00  0.00000000E+00  0.00000000E+00
  0.00000000E+00  0.00000000E+00  0.00000000E+00
  0.00000000E+00  0.00000000E+00  0.00000000E+00
  0.00000000E+00  0.00000000E+00  0.00000000E+00
  0.00000000E+00  0.00000000E+00  0.00000000E+00
  0.00000000E+00  0.00000000E+00  0.00000000E+00
  0.00000000E+00  0.00000000E+00  0.00000000E+00
  0.00000000E+00  0.00000000E+00  0.00000000E+00
  0.00000000E+00  0.00000000E+00  0.00000000E+00
  0.00000000E+00  0.00000000E+00  0.00000000E+00
  0.00000000E+00  0.00000000E+00  0.00000000E+00
  0.00000000E+00  0.00000000E+00  0.00000000E+00
  0.00000000E+00  0.00000000E+00  0.00000000E+00
  0.00000000E+00  0.00000000E+00  0.00000000E+00
  0.00000000E+00  0.00000000E+00  0.00000000E+00
  0.00000000E+00  0.00000000E+00  0.00000000E+00
  0.00000000E+00  0.00000000E+00  0.00000000E+00
  0.00000000E+00  0.00000000E+00  0.00000000E+00
  0.00000000E+00  0.00000000E+00  0.00000000E+00
  0.00000000E+00  0.00000000E+00  0.00000000E+00
  0.00000000E+00  0.00000000E+00  0.00000000E+00
  0.00000000E+00  0.00000000E+00  0.00000000E+00
  0.00000000E+00  0.00000000E+00  0.00000000E+00
  0.00000000E+00  0.00000000E+00  0.00000000E+00
  0.00000000E+00  0.00000000E+00  0.00000000E+00
  0.00000000E+00  0.00000000E+00  0.00000000E+00
  0.00000000E+00  0.00000000E+00  0.00000000E+00
  0.00000000E+00  0.00000000E+00  0.00000000E+00
  0.00000000E+00  0.00000000E+00  0.00000000E+00
  0.00000000E+00  0.00000000E+00  0.00000000E+00
  0.00000000E+00  0.00000000E+00  0.00000000E+00
  0.00000000E+00  0.00000000E+00  0.00000000E+00
  0.00000000E+00  0.00000000E+00  0.00000000E+00
  0.00000000E+00  0.00000000E+00  0.00000000E+00
  0.00000000E+00  0.00000000E+00  0.00000000E+00
  0.00000000E+00  0.00000000E+00  0.00000000E+00
  0.00000000E+00  0.00000000E+00  0.00000000E+00
  0.00000000E+00  0.00000000E+00  0.00000000E+00
  0.00000000E+00  0.00000000E+00  0.00000000E+00
  0.00000000E+00  0.00000000E+00  0.00000000E+00
  0.00000000E+00  0.00000000E+00  0.00000000E+00
  0.00000000E+00  0.00000000E+00  0.00000000E+00
  0.00000000E+00  0.00000000E+00  0.00000000E+00
  0.00000000E+00  0.00000000E+00  0.00000000E+00
  0.00000000E+00  0.00000000E+00  0.00000000E+00
  0.00000000E+00  0.00000000E+00  0.00000000E+00
  0.00000000E+00  0.00000000E+00  0.00000000E+00
  0.00000000E+00  0.00000000E+00  0.00000000E+00
  0.00000000E+00  0.00000000E+00  0.00000000E+00
  0.00000000E+00  0.00000000E+00  0.00000000E+00
  0.00000000E+00  0.00000000E+00  0.00000000E+00
  0.00000000E+00  0.00000000E+00  0.00000000E+00
  0.00000000E+00  0.00000000E+00  0.00000000E+00
  0.00000000E+00  0.00000000E+00  0.00000000E+00
  0.00000000E+00  0.00000000E+00  0.00000000E+00
  0.00000000E+00  0.00000000E+00  0.00000000E+00
  0.00000000E+00  0.00000000E+00  0.00000000E+00
  0.00000000E+00  0.00000000E+00  0.00000000E+00
  0.00000000E+00  0.00000000E+00  0.00000000E+00
  0.00000000E+00  0.00000000E+00  0.00000000E+00
  0.00000000E+00  0.00000000E+00  0.00000000E+00
  0.00000000E+00  0.00000000E+00  0.00000000E+00
  0.00000000E+00  0.00000000E+00  0.00000000E+00
  0.00000000E+00  0.00000000E+00  0.00000000E+00
  0.00000000E+00  0.00000000E+00  0.00000000E+00
  0.00000000E+00  0.00000000E+00  0.00000000E+00
  0.00000000E+00  0.00000000E+00  0.00000000E+00
  0.00000000E+00  0.00000000E+00  0.00000000E+00
  0.00000000E+00  0.00000000E+00  0.00000000E+00
  0.00000000E+00  0.00000000E+00  0.00000000E+00
  0.00000000E+00  0.00000000E+00  0.00000000E+00
  0.00000000E+00  0.00000000E+00  0.00000000E+00
  0.00000000E+00  0.00000000E+00  0.00000000E+00
  0.00000000E+00  0.00000000E+00  0.00000000E+00
  0.00000000E+00  0.00000000E+00  0.00000000E+00
  0.00000000E+00  0.00000000E+00  0.00000000E+00
  0.00000000E+00  0.00000000E+00  0.00000000E+00
  0.00000000E+00  0.00000000E+00  0.00000000E+00
  0.00000000E+00  0.00000000E+00  0.00000000E+00
  0.00000000E+00  0.00000000E+00  0.00000000E+00
  0.00000000E+00  0.00000000E+00  0.00000000E+00
  0.00000000E+00  0.00000000E+00  0.00000000E+00
  0.00000000E+00  0.00000000E+00  0.00000000E+00
  0.00000000E+00  0.00000000E+00  0.00000000E+00
  0.00000000E+00  0.00000000E+00  0.00000000E+00
  0.00000000E+00  0.00000000E+00  0.00000000E+00
  0.00000000E+00  0.00000000E+00  0.00000000E+00
  0.00000000E+00  0.00000000E+00  0.00000000E+00
  0.00000000E+00  0.00000000E+00  0.00000000E+00
  0.00000000E+00  0.00000000E+00  0.00000000E+00
  0.00000000E+00  0.00000000E+00  0.00000000E+00
  0.00000000E+00  0.00000000E+00  0.00000000E+00
  0.00000000E+00  0.00000000E+00  0.00000000E+00
  0.00000000E+00  0.00000000E+00  0.00000000E+00
  0.00000000E+00  0.00000000E+00  0.00000000E+00
  0.00000000E+00  0.00000000E+00  0.00000000E+00
  0.00000000E+00  0.00000000E+00  0.00000000E+00
