Bi24 Te27                               
   1.00000000000000     
     2.2381843184510850   -3.8766489562611994    0.0000000000000000
     2.2381843184510850    3.8766489562611994    0.0000000000000001
     0.0000000000000003   -0.0000000000000013  106.3625274560747016
   Bi   Te
    24    27
Direct
  0.6666666666666643  0.3333333333333357  0.1587422147809811
  0.0000000000000000  0.0000000000000000  0.1174030283584019
  0.3333333333333357  0.6666666666666643  0.2541004476907485
  0.3333333333333357  0.6666666666666643  0.0792328856425872
  0.0000000000000000  0.0000000000000000  0.1745911185523546
  0.6666666666666643  0.3333333333333357  0.2159303049749338
  0.3333333333333357  0.6666666666666643  0.4920755481143169
  0.6666666666666643  0.3333333333333357  0.4507363616917305
  0.0000000000000000  0.0000000000000000  0.5874337810240772
  0.0000000000000000  0.0000000000000000  0.4125662189759229
  0.6666666666666643  0.3333333333333357  0.5079244518856832
  0.3333333333333357  0.6666666666666643  0.5492636383082695
  0.0000000000000000  0.0000000000000000  0.8254088814476453
  0.3333333333333357  0.6666666666666643  0.7840696950250662
  0.6666666666666643  0.3333333333333357  0.9207671143574129
  0.6666666666666643  0.3333333333333357  0.7458995523092514
  0.3333333333333357  0.6666666666666643  0.8412577852190189
  0.0000000000000000  0.0000000000000000  0.8825969716415981
  0.3333333333333357  0.6666666666666643  0.3141745408713660
  0.3333333333333357  0.6666666666666643  0.0191587924619698
  0.0000000000000000  0.0000000000000000  0.6475078742047018
  0.0000000000000000  0.0000000000000000  0.3524921257952983
  0.6666666666666643  0.3333333333333357  0.9808412075380304
  0.6666666666666643  0.3333333333333357  0.6858254591286339
  0.6666666666666643  0.3333333333333357  0.0352220957795981
  0.3333333333333357  0.6666666666666643  0.1996817586500276
  0.6666666666666643  0.3333333333333357  0.2701187902387676
  0.0000000000000000  0.0000000000000000  0.2981112375537377
  0.3333333333333357  0.6666666666666643  0.1336515746833081
  0.6666666666666643  0.3333333333333357  0.0984364127302264
  0.0000000000000000  0.0000000000000000  0.0000000000000000
  0.0000000000000000  0.0000000000000000  0.2348969206031092
  0.0000000000000000  0.0000000000000000  0.0632145430945681
  0.3333333333333357  0.6666666666666643  0.3685554291129337
  0.0000000000000000  0.0000000000000000  0.5330150919833562
  0.3333333333333357  0.6666666666666643  0.6034521235721032
  0.6666666666666643  0.3333333333333357  0.6314445708870663
  0.0000000000000000  0.0000000000000000  0.4669849080166438
  0.3333333333333357  0.6666666666666643  0.4317697460635550
  0.6666666666666643  0.3333333333333357  0.3333333333333357
  0.6666666666666643  0.3333333333333357  0.5682302539364449
  0.6666666666666643  0.3333333333333357  0.3965478764278967
  0.0000000000000000  0.0000000000000000  0.7018887624462623
  0.6666666666666643  0.3333333333333357  0.8663484253166919
  0.0000000000000000  0.0000000000000000  0.9367854569054318
  0.3333333333333357  0.6666666666666643  0.9647779042204020
  0.6666666666666643  0.3333333333333357  0.8003182413499724
  0.0000000000000000  0.0000000000000000  0.7651030793968908
  0.3333333333333357  0.6666666666666643  0.6666666666666643
  0.3333333333333357  0.6666666666666643  0.9015635872697735
  0.3333333333333357  0.6666666666666643  0.7298812097612325
 
  0.00000000E+00  0.00000000E+00  0.00000000E+00
  0.00000000E+00  0.00000000E+00  0.00000000E+00
  0.00000000E+00  0.00000000E+00  0.00000000E+00
  0.00000000E+00  0.00000000E+00  0.00000000E+00
  0.00000000E+00  0.00000000E+00  0.00000000E+00
  0.00000000E+00  0.00000000E+00  0.00000000E+00
  0.00000000E+00  0.00000000E+00  0.00000000E+00
  0.00000000E+00  0.00000000E+00  0.00000000E+00
  0.00000000E+00  0.00000000E+00  0.00000000E+00
  0.00000000E+00  0.00000000E+00  0.00000000E+00
  0.00000000E+00  0.00000000E+00  0.00000000E+00
  0.00000000E+00  0.00000000E+00  0.00000000E+00
  0.00000000E+00  0.00000000E+00  0.00000000E+00
  0.00000000E+00  0.00000000E+00  0.00000000E+00
  0.00000000E+00  0.00000000E+00  0.00000000E+00
  0.00000000E+00  0.00000000E+00  0.00000000E+00
  0.00000000E+00  0.00000000E+00  0.00000000E+00
  0.00000000E+00  0.00000000E+00  0.00000000E+00
  0.00000000E+00  0.00000000E+00  0.00000000E+00
  0.00000000E+00  0.00000000E+00  0.00000000E+00
  0.00000000E+00  0.00000000E+00  0.00000000E+00
  0.00000000E+00  0.00000000E+00  0.00000000E+00
  0.00000000E+00  0.00000000E+00  0.00000000E+00
  0.00000000E+00  0.00000000E+00  0.00000000E+00
  0.00000000E+00  0.00000000E+00  0.00000000E+00
  0.00000000E+00  0.00000000E+00  0.00000000E+00
  0.00000000E+00  0.00000000E+00  0.00000000E+00
  0.00000000E+00  0.00000000E+00  0.00000000E+00
  0.00000000E+00  0.00000000E+00  0.00000000E+00
  0.00000000E+00  0.00000000E+00  0.00000000E+00
  0.00000000E+00  0.00000000E+00  0.00000000E+00
  0.00000000E+00  0.00000000E+00  0.00000000E+00
  0.00000000E+00  0.00000000E+00  0.00000000E+00
  0.00000000E+00  0.00000000E+00  0.00000000E+00
  0.00000000E+00  0.00000000E+00  0.00000000E+00
  0.00000000E+00  0.00000000E+00  0.00000000E+00
  0.00000000E+00  0.00000000E+00  0.00000000E+00
  0.00000000E+00  0.00000000E+00  0.00000000E+00
  0.00000000E+00  0.00000000E+00  0.00000000E+00
  0.00000000E+00  0.00000000E+00  0.00000000E+00
  0.00000000E+00  0.00000000E+00  0.00000000E+00
  0.00000000E+00  0.00000000E+00  0.00000000E+00
  0.00000000E+00  0.00000000E+00  0.00000000E+00
  0.00000000E+00  0.00000000E+00  0.00000000E+00
  0.00000000E+00  0.00000000E+00  0.00000000E+00
  0.00000000E+00  0.00000000E+00  0.00000000E+00
  0.00000000E+00  0.00000000E+00  0.00000000E+00
  0.00000000E+00  0.00000000E+00  0.00000000E+00
  0.00000000E+00  0.00000000E+00  0.00000000E+00
  0.00000000E+00  0.00000000E+00  0.00000000E+00
  0.00000000E+00  0.00000000E+00  0.00000000E+00
