Amorphous Sb                            
   1.00000000000000     
    20.8915646190562967    0.0000000000000000    0.0000000000000000
     0.0000000000000000   20.8915646190562967    0.0000000000000000
     0.0000000000000000    0.0000000000000000   20.8915646190562967
   Ge   Se   Cu
   143   143    14
Direct
  0.6204526938520550  0.5677691925512450  0.8649017123141765
  0.9231198525086547  0.8444469892466993  0.7805902865415097
  0.3188111135230665  0.9530488793756171  0.3777848288670358
  0.9124914441035424  0.9334578151707109  0.0106669949623376
  0.4231769053643701  0.1807577168147357  0.3078473560321490
  0.1355109412206893  0.8448494671153606  0.3690970914560665
  0.6751715460794201  0.8358941285114846  0.0850142324055649
  0.2538957292128198 -0.0085737110041190  0.7198364208677765
  0.3535159731977411  0.5178847315787600  0.2904370457371497
  0.8019769681748287  0.3837738065452759  0.4420179848540767
  0.2645217504338099  0.6158855305721774  0.4510459079010187
  0.7667102390974477  0.8092269975979444  0.5960491382312395
  0.7077887161796509  0.0438226966094650  0.4208323112829547
  0.7962898654138884  0.7375985083649036  0.7319603314389416
  0.3802917284128597  0.8242892692826022  0.7077189787929660
  0.6914546237574253  0.3147743591293587  0.3133011803691435
  0.5309481824263100  0.8885310530872321  0.9313639436544605
  0.0964215243439337  0.2057567884346009  0.5250358750722044
  0.2582775058945138  0.1692343164206433  0.6573855785672448
  0.1722657267834573  0.6386452659850719  0.5746757072429926
  0.5628009633534237  0.3427074829534709  0.0241569407199879
  0.3007001255151192  0.0659400509894194  0.2801596386012760
  0.3450680789417749  0.7720780746205510  0.1812532343174311
  0.2599140769858518  0.2926485771498215  0.1407929915523979
  0.0276975695239095  0.6944581673470971  0.2491502295086267
  0.7875901163219649  0.8803657452224229  0.1245405845980100
  0.1857282708282097  0.8142451643873336  0.7427841820181986
  0.6860364679535559  0.9204242562577818  0.2415349106912358
  0.1813745185466119  0.0866283865767010  0.7022000589748134
  0.4617768421599887  0.4089436109659208  0.7387193921065421
  0.9359777826595239  0.9082688674144559  0.6734547818011457
  0.2039855874811596  0.2302219897833727  0.8471087522295306
  0.0829008650096138  0.5942603672144444  0.4019870428409208
  0.0015872306712057  0.7297424113635639  0.6874421776078503
  0.9165633542474707  0.5807811284039044  0.6864581993502711
  0.2703141414496150  0.6981479492092177  0.6243608740458348
  0.6963790763053124  0.2714319294092424  0.6932457803306366
  0.0154735592187839  0.7740512570572656  0.9538811469193237
  0.0139951518006033  0.2010906977397258  0.2204736735391594
  0.2033763366535070  0.4771604114066574  0.9249723947431624
  0.0496176174862421  0.4805417931581858  0.5645152967615253
  0.3125239940239412  0.4309211020126753  0.7470325258891845
  0.4211954231338259  0.8893968458953280  0.1733546060618250
  0.2977512812112962  0.4449190846321494  0.4368919222757623
  0.8993174880421911  0.4806281558958945  0.9924262616929208
  0.5052934721862764  0.6782898460311355  0.7996760323540307
  0.1730608423580890  0.5432151713335861  0.7744981720460744
  0.2987717904220003  0.9745725627725293  0.5979375147515005
  0.6812092241286339  0.3746818593944446  0.8952865652775915
  0.0777361313645809  0.1198644170759349  0.0113416910072829
  0.8723773912874290  0.5849393472257753  0.4586086471217861
  0.6813223194778626  0.2519463867508011  0.8945646695651697
  0.5150717586692429  0.0925894194878647  0.2379727777432544
  0.3759422012118431  0.7931437463786722  0.8281868957666499
  0.9367587769260720  0.7161589922298949  0.7904068726531672
  0.3777818133374975  0.7903148568431352  0.9685690388577841
  0.0847693151385040  0.6485733191702764  0.1155614428796158
  0.2681134782324122  0.3338318328732381  0.4838684770070944
 -0.0085790276854036  0.1278429998189127  0.3382235623553758
  0.5458403860084612  0.5341002626296253  0.0354341192822171
  0.0854033229472433  0.6489097543810263  0.6569589519584174
  0.5535881732897535  0.5202294900817014  0.5134499678405839
  0.9340413004470024  0.4219097327636626  0.5753566006729537
  0.6906840627408940  0.5243473524994907  0.4080151991715502
  0.3638609315471165  0.3267103514058657  0.6969426379732887
  0.8306125303507239  0.4741261913556662  0.8262808089324828
  0.6235703624793942  0.0506928887912060  0.9465422299304215
  0.3686144949955699  0.3260129608666226  0.3630857171868253
  0.5336142337749067  0.5748274671841853  0.3617557663386481
  0.5797468593920692  0.6232829462005498  0.6361463325583669
  0.5750181491000319  0.0554494030070599  0.8315909562127163
  0.5723257778861421  0.0100779957969827  0.1016449049295585
  0.8219629254200379  0.4612952261225802  0.6209607267773433
  0.7151670675400038  0.1957607191152373  0.5051183920979011
  0.1124184131606374  0.3162961967122164  0.1526055773803985
  0.1742508196513090  0.1002235729521376  0.3974296963599650
  0.0233478031770715  0.9608949129202952  0.9595206562005333
  0.9754872873633004  0.2828717665906351  0.4764186634076764
  0.0867249303313938  0.0755561879713018  0.6169033541351424
  0.2528536502478887  0.4598428425297223  0.1496600860382926
  0.6587262223017398  0.6504114387778709  0.7557109685135257
  0.1205966462378700  0.2919344541257995  0.3408501214234351
  0.3701480313394161  0.3892332519155470  0.8865531643750688
  0.3748152458067284  0.3658122887359586  0.0305459325243465
  0.4372588373892646  0.0761935266566071  0.3862507734868774
  0.0115782956822356  0.9310256784827924  0.5225247296930290
  0.9252912861296477  0.1380266597806860  0.0941888604765508
  0.7618781607252068  0.9574712281996198  0.7206303686800145
  0.2310770033090941  0.6639964567800336  0.3173607040235522
  0.0587199490060874  0.8102142307627368  0.7610610154754491
  0.6904961919981745  0.1726001753105411  0.1750849736528338
  0.8500773789691893  0.9758949801798613  0.1811054182365779
  0.2374285881589269  0.0770243041532949  0.8958955021863206
  0.4179314972453719  0.9675422886661714  0.4693673774906526
  0.2565500599433952  0.8731917590086451  0.0554675680221922
  0.0373435653916203  0.0047711012523376  0.2200663594107602
  0.0341151603190477  0.3669987887980621  0.8725680921269898
  0.8605041846791950  0.6071821606089942  0.8299205191644289
  0.2055220976233332  0.9409134604930427  0.3284722736471633
  0.3849158254213297  0.6552468973443640  0.6730074562094621
  0.7521154433141908  0.7750223567243966  0.3921600181827268
  0.4571367358755527  0.9467345199286423  0.8220232118963539
  0.2342011228621435  0.9152785811310795  0.8845328055423561
  0.2153408971866252  0.5020992210252042  0.5874121067534652
  0.7934985571079414  0.1355736827142668  0.9919851591336921
  0.8599986079501230  0.8235166160042749  0.4398781286220670
  0.4924563218647385  0.2329557910464456  0.1219393358295886
  0.2772449580236639  0.2520227576621531 -0.0221650656761793
  0.1274363928618671  0.8285397963379795  0.1602630402011402
  0.5525197058083988  0.9242035410938630  0.6764399781614232
  0.5380050403703300  0.8132751464231285  0.2688456609134894
  0.3710789302207103  0.2007808959243352  0.4604335595287212
  0.7841406302208647  0.0701852853150535  0.2734554561844229
  0.6622935606758383  0.6728718119959997  0.0213541566989692
  0.4500922162935866  0.6591361759769825  0.0742742846603702
  0.9266720673146316  0.9932472068343625  0.3515570574950158
  0.7256756587364993  0.9250093441965399  0.5048767777640264
  0.6189175527404781  0.1725705707092744  0.9666573387873255
  0.6674378700447625  0.7410989196692350  0.1710186301290991
  0.6849869207535897  0.3618674506560230  0.4940804005749158
  0.8157551599659008  0.1936234001677441  0.3921800018622633
  0.4206371930223454  0.8021401495222503  0.3934156325735519
  0.1723919443697615  0.3172954956341853  0.6447700646120877
  0.6972011354405986  0.4598762633914635  0.6615598619706112
  0.9567698428890808  0.8014550880144500  0.6013406913740830
  0.5626304428009156  0.7478600402455619  0.9593384487619254
  0.5990639365229785  0.4607233560749556  0.2452124074437493
  0.9654076793523072  0.7724219894421681  0.1091392985313759
  0.2232776539735716  0.7859338334365091  0.4773599394367606
  0.8232256860198257  0.3190994264471202  0.6479929612449090
  0.2277656701221875  0.9037794607139757  0.2153416183074262
  0.0873921329273962  0.0702367238123237  0.4844173879272665
  0.0290927329795990  0.4766989092757887  0.9876984434563700
  0.6820548347171880  0.0829706623398198  0.6490162574679751
  0.8680779665583841  0.3312473258751462  0.0606349627169971
  0.5868697463364450  0.4481953822211958  0.8736342681283055
  0.6751889189973750  0.3428964596373122  0.1241859871268128
  0.0328836889065597  0.6176891588797379  0.9862720265593997
  0.3275331615630770  0.1329262202537634  0.5599140729595299
  0.2239366244929454  0.3728656007594333  0.2932077889831921
  0.9183643858348960  0.2131989070869646  0.5668179523792616
  0.0348121106489468  0.7721024546607640  0.4478489362323538
  0.7285614028847954  0.5581170335004255  0.1712872067715971
  0.5699121200009855  0.6388431106245747  0.0997246357442593
  0.3372307330893960  0.2233041598832828  0.0769896580307941
  0.4253616815427466  0.8899306900292981  0.2952873956092390
  0.7458297016018144  0.6675843846091448  0.1123486973362769
  0.8053012003890407  0.8540684558063443  0.7823053993055820
  0.8622381258849312  0.9698613701095815  0.9094595491487013
  0.6286564717013713  0.0688390205600511  0.1950929863027296
  0.1733485756958864  0.0523924148404142  0.2869603674895753
  0.2413833400532382  0.3806472872740702  0.0532314763341851
  0.0750256712665387  0.8118557975123002  0.2676005180544620
  0.0341222839650948  0.5421369716160640  0.6735422716668963
  0.0402057287367642  0.1068024035382119  0.1360239751285361
  0.4641766041163692  0.0120654877198352  0.1592221927281912
  0.5861248485855333  0.6378243852981806  0.5136373798778119
  0.7124298897718070  0.1476462559722893  0.3458272609408410
  0.9227765226495166  0.7391344414266793  0.5031191453977609
  0.2624981576348941  0.3839279924976632  0.5952395933509378
  0.1675897687931787  0.6585767632036953  0.7390848747764640
  0.6159829618083035  0.4693797296334557  0.1180523772023573
  0.8475600353724854  0.5751636081791038  0.5829207888104377
  0.5418076542191317  0.0401775257381208  0.3434917158890468
  0.2079388132015935  0.2294243185454654  0.5676894139110222
  0.6972039277095665  0.5807516248823793  0.6625197835122786
  0.8227913210813760  0.5078184618908368  0.1159244853994960
  0.7588657007548454  0.0846670516811417  0.5209492120824170
  0.3171108417303571  0.5288047633285023  0.5201480477825985
  0.0642053485672752  0.8261891255720446  0.5575238202195265
  0.5094958538369255  0.5285186053431533  0.6232683363956131
  0.6432313901985006  0.8469625324745875  0.9694965551858680
  0.9584016063723005  0.9367811074618929  0.8548165815123825
  0.9117269024683984  0.4065919447193101  0.8919773861501639
  0.4411430623196704  0.5368179753479455  0.1084855360490491
  0.0929556789244862  0.8661225638802572  0.9687521159304848
  0.3900489236355718  0.3133525162043284  0.4910474930488690
  0.8605405949797614  0.9927265196344426  0.6657826447518187
  0.0806344486986735  0.4789591719084651  0.8784816318368486
  0.1126379545294300  0.7092704906736059  0.0054752108988635
  0.1431035185903983  0.4161404163380832  0.2123546355266733
  0.8080479678711781  0.4943527789536323  0.3895030636346111
  0.2476835880688958  0.3931879362657793  0.8398638529193583
  0.9458930407767167  0.3145184831760983  0.6332351960847009
  0.3165456130484314  0.1838519772007728  0.2512243906739445
 -0.0104703768917109  0.3072101883179677  0.1646277702713619
  0.6471691159672986  0.1932610245203228  0.6080498447213142
  0.8108489690303637  0.2689585649000494  0.5368592678119448
  0.8060480870616679  0.2168942933419892  0.7104483669805298
  0.4813023714197369  0.8237710234636074  0.0234897394294646
  0.4432216617329557  0.7066012033529122  0.1856534761451719
  0.2240073807795757  0.4810472403608868  0.3525962642427616
  0.7999132143071027  0.2340353537443952  0.9047510035202418
  0.5365392542903610  0.7911582666562054  0.8485188733260295
  0.6999514323798754  0.1888806266594577  0.0506643270396402
  0.9737772455394736  0.1820636957215804 -0.0069115598262080
  0.2452341788753209  0.7868457020882332  0.3540346796820702
  0.1324250400922657  0.9491628290339270  0.1554700844859029
  0.5757857147945200  0.4121690478554964  0.7633788536391882
  0.9595464571003797  0.9248571962613985  0.1734895959050956
  0.7548254936069837  0.8151725562245982  0.2187839999341213
  0.3158561750721589  0.7126422603341628  0.5078278608644645
  0.3329051858167866  0.9053195398111652  0.9653252912582886
  0.0464778470759762  0.7227251376779290  0.8436604568355071
  0.5159415648897679  0.7331197548508730  0.3590923298729536
  0.0458314017069189  0.1835618120334635  0.6332838657674495
  0.1306439578038454  0.6924056206882820  0.4725512396633181
  0.9242879001593831  0.3906476455565771  0.4591108711179743
  0.4761516252288965  0.5440612467546263  0.2630687790141961
  0.6943970630848704  0.8050131147462968  0.4960136872659798
  0.4771568910456155  0.3528154926842759  0.1099424411441382
  0.8779626755358343  0.1492653623844543  0.2937578060164476
  0.6853351950225095  0.7532318345225270  0.6945804972066821
  0.4169506170514414  0.3094134099030887  0.8056230818286523
  0.1325254617901430  0.2285889866066038  0.2360528833699540
  0.2321962564507108  0.5762768509725797  0.8716424971877124
  0.5644028198081059  0.0413729262353804  0.6388463527252527
  0.8689344194660463  0.5926838383929856  0.9504030299126415
  0.1175248199641391  0.9584614931857276  0.4725602694521443
  0.5990713239314636  0.8991694985565913  0.1509566740177529
  0.3217970578221828  0.3794451526433624  0.2129949768859412
  0.1618804287662239  0.9290992519435448  0.7526152366900981
  0.4950764310736794  0.8796934575205473  0.4541510333620890
  0.5007363854020825  0.4116184219209319  0.9451519594325919
  0.0000314389792142  0.2490534161855520  0.3631214529661097
  0.7599411736084518  0.6729303850707948  0.8317501210983398
  0.3785678070352288  0.6771736337016080  0.7970493064093079
  0.2644989770759689  0.8178658394572300  0.6511126507127399
  0.9235078532448321  0.7511506154282732  0.2183215480205793
  0.1078061457671786  0.5402467042180878  0.0539110572076325
  0.7479194607233354  0.3879277363617346  0.7971713043741189
  0.6025026753897794  0.2556135700321442  0.1833981655984191
  0.3448453491997583  0.6274562537467946  0.3545090962277494
  0.3533390227771848  0.4861575754457572  0.0519759468316635
  0.0801716494340060  0.3252128285339277  0.5086189043405619
  0.9656331710280501  0.6489568884323952  0.0859529350009711
  0.2920491206975311  0.0711333337304443  0.4063400614719933
  0.0478633885652898  0.3566925699983877 -0.0059456861859771
  0.5918127050848720  0.1187076146400068  0.7302818244099544
  0.0059605666178319  0.5637960406219492  0.4905742066340622
  0.1539424720101017  0.1189724639695527  0.8156664280305918
  0.6309055719170188  0.2309379054161160  0.7905594633860001
  0.8050711700776416  0.9858064659298361  0.3610357251653997
  0.8052341926492019  0.2887413403344344  0.1445586970429640
  0.2723675941630094  0.5292429713732133  0.6948963400001414
  0.8941577994713248  0.4620564639708272  0.7209295595735163
  0.6266893078313842  0.8686830299693086  0.3320487001356991
  0.9508720423980711  0.8771715944519430  0.3779845232196552
  0.9696035706384034  0.0761167203794693  0.4494447184932173
  0.6778106480135473  0.5623015683698089  0.9745735769068037
  0.1586823842883579  0.2110241575938898 -0.0100990996909567
  0.2531041527427449  0.6817476467043696  0.2008601612413228
  0.8101172134970549  0.3117101593723457  0.3458604955989004
  0.2531286710456885  0.8010042063652383  0.8412937698982851
  0.0366586035376438  0.9635257555183613  0.6432795675879505
  0.3969449120548916  0.4847589325991710  0.8121844127862770
  0.4606840899831227  0.0635818392741238  0.8406086678703665
  0.6454861401554103  0.4029078680913544  0.3883112845234555
  0.4260607144865282  0.9349204868130648  0.6988633524366757
  0.3083794359154677 -0.0008748932064233  0.8258973584890932
  0.7384157391310558  0.0597038320079700  0.9192563172794892
  0.5849236624391518  0.9432924997596297  0.7938747622188203
  0.7536408471089004  0.4082465149794034  0.9825843407576140
  0.8624896187271537  0.0246001076239231  0.0706584675978385
  0.9928225255472729  0.6653437785459065  0.3589002637854815
  0.3121820152456064  0.9053244020364296  0.4898183789954252
  0.3113106484887804  0.9452454156737915  0.1437513475444256
  0.7766252886795120  0.6589520346867328  0.4094610350473177
  0.1970932255169136  0.2149670025242103  0.3991063183042663
  0.5165308314177899  0.6130741090339293  0.9002840253282074
  0.6720160438092869  0.4709585666285631  0.5414611660112257
  0.2285041014507420  0.0645654766533992  0.5553390159826914
  0.4672292312243363  0.2884255154742025  0.3118170616014844
  0.4744057392787252  0.1495102774956324  0.4713087568003008
  0.8439290120995313  0.9013316209938438  0.5250333608572338
  0.7130186105354418  0.4036385916324911  0.2299767385922092
  0.3073913377270847  0.7611655554176160  0.0666693927611822
  0.4405969961516065  0.7554152054928662  0.6396475922617231
  0.3973321889659038  0.0422674045280826  0.5883222220407962
  0.6393456823962205  0.5636841984413949  0.2977737395358784
  0.6996628560377322  0.9061818204496854  0.6256414031638811
  0.2545642950887164  0.2654778751300779  0.7300450122659619
  0.5191829960547412  0.2285761744252515 -0.0017817475571833
  0.8649883025464996  0.8234202138253630  0.0509773015287957
  0.3082992135835108  0.1749372557900793  0.8830117055323955
  0.4021026556439437  0.4500560971279456  0.3816890606240885
  0.2251259197928902  0.7898515661669591  0.2085622637068309
  0.3102854990593614  0.2069815013387989  0.3634959305175931
  0.4706167916347559  0.6554662516472920  0.2892930889023426
  0.0692691867309427  0.8006137973744627  0.0672112696410633
  0.7947225810954434  0.2838686498495943  0.7999711213288682
  0.8365716841445936  0.3333552839487191  0.9466585155936303
  0.9784544742000375  0.2806516618908097  0.0540674667370636
  0.9601642765909884  0.8535749523342909  0.2654535690050726
  0.6846252994700814  0.6327310178418880  0.4642184691250372
  0.7183965406320661  0.4876561109698208  0.0697419726808815
  0.8044115375181186  0.4015147859615493  0.1468096062280630
  0.5268766139042542  0.9239619884866169  0.3469910722037606
  0.1455643208801134  0.3119685738076640  0.0422318842918039
  0.7840927790360225  0.5165423314119078 -0.0437188458913680
 
  0.00000000E+00  0.00000000E+00  0.00000000E+00
  0.00000000E+00  0.00000000E+00  0.00000000E+00
  0.00000000E+00  0.00000000E+00  0.00000000E+00
  0.00000000E+00  0.00000000E+00  0.00000000E+00
  0.00000000E+00  0.00000000E+00  0.00000000E+00
  0.00000000E+00  0.00000000E+00  0.00000000E+00
  0.00000000E+00  0.00000000E+00  0.00000000E+00
  0.00000000E+00  0.00000000E+00  0.00000000E+00
  0.00000000E+00  0.00000000E+00  0.00000000E+00
  0.00000000E+00  0.00000000E+00  0.00000000E+00
  0.00000000E+00  0.00000000E+00  0.00000000E+00
  0.00000000E+00  0.00000000E+00  0.00000000E+00
  0.00000000E+00  0.00000000E+00  0.00000000E+00
  0.00000000E+00  0.00000000E+00  0.00000000E+00
  0.00000000E+00  0.00000000E+00  0.00000000E+00
  0.00000000E+00  0.00000000E+00  0.00000000E+00
  0.00000000E+00  0.00000000E+00  0.00000000E+00
  0.00000000E+00  0.00000000E+00  0.00000000E+00
  0.00000000E+00  0.00000000E+00  0.00000000E+00
  0.00000000E+00  0.00000000E+00  0.00000000E+00
  0.00000000E+00  0.00000000E+00  0.00000000E+00
  0.00000000E+00  0.00000000E+00  0.00000000E+00
  0.00000000E+00  0.00000000E+00  0.00000000E+00
  0.00000000E+00  0.00000000E+00  0.00000000E+00
  0.00000000E+00  0.00000000E+00  0.00000000E+00
  0.00000000E+00  0.00000000E+00  0.00000000E+00
  0.00000000E+00  0.00000000E+00  0.00000000E+00
  0.00000000E+00  0.00000000E+00  0.00000000E+00
  0.00000000E+00  0.00000000E+00  0.00000000E+00
  0.00000000E+00  0.00000000E+00  0.00000000E+00
  0.00000000E+00  0.00000000E+00  0.00000000E+00
  0.00000000E+00  0.00000000E+00  0.00000000E+00
  0.00000000E+00  0.00000000E+00  0.00000000E+00
  0.00000000E+00  0.00000000E+00  0.00000000E+00
  0.00000000E+00  0.00000000E+00  0.00000000E+00
  0.00000000E+00  0.00000000E+00  0.00000000E+00
  0.00000000E+00  0.00000000E+00  0.00000000E+00
  0.00000000E+00  0.00000000E+00  0.00000000E+00
  0.00000000E+00  0.00000000E+00  0.00000000E+00
  0.00000000E+00  0.00000000E+00  0.00000000E+00
  0.00000000E+00  0.00000000E+00  0.00000000E+00
  0.00000000E+00  0.00000000E+00  0.00000000E+00
  0.00000000E+00  0.00000000E+00  0.00000000E+00
  0.00000000E+00  0.00000000E+00  0.00000000E+00
  0.00000000E+00  0.00000000E+00  0.00000000E+00
  0.00000000E+00  0.00000000E+00  0.00000000E+00
  0.00000000E+00  0.00000000E+00  0.00000000E+00
  0.00000000E+00  0.00000000E+00  0.00000000E+00
  0.00000000E+00  0.00000000E+00  0.00000000E+00
  0.00000000E+00  0.00000000E+00  0.00000000E+00
  0.00000000E+00  0.00000000E+00  0.00000000E+00
  0.00000000E+00  0.00000000E+00  0.00000000E+00
  0.00000000E+00  0.00000000E+00  0.00000000E+00
  0.00000000E+00  0.00000000E+00  0.00000000E+00
  0.00000000E+00  0.00000000E+00  0.00000000E+00
  0.00000000E+00  0.00000000E+00  0.00000000E+00
  0.00000000E+00  0.00000000E+00  0.00000000E+00
  0.00000000E+00  0.00000000E+00  0.00000000E+00
  0.00000000E+00  0.00000000E+00  0.00000000E+00
  0.00000000E+00  0.00000000E+00  0.00000000E+00
  0.00000000E+00  0.00000000E+00  0.00000000E+00
  0.00000000E+00  0.00000000E+00  0.00000000E+00
  0.00000000E+00  0.00000000E+00  0.00000000E+00
  0.00000000E+00  0.00000000E+00  0.00000000E+00
  0.00000000E+00  0.00000000E+00  0.00000000E+00
  0.00000000E+00  0.00000000E+00  0.00000000E+00
  0.00000000E+00  0.00000000E+00  0.00000000E+00
  0.00000000E+00  0.00000000E+00  0.00000000E+00
  0.00000000E+00  0.00000000E+00  0.00000000E+00
  0.00000000E+00  0.00000000E+00  0.00000000E+00
  0.00000000E+00  0.00000000E+00  0.00000000E+00
  0.00000000E+00  0.00000000E+00  0.00000000E+00
  0.00000000E+00  0.00000000E+00  0.00000000E+00
  0.00000000E+00  0.00000000E+00  0.00000000E+00
  0.00000000E+00  0.00000000E+00  0.00000000E+00
  0.00000000E+00  0.00000000E+00  0.00000000E+00
  0.00000000E+00  0.00000000E+00  0.00000000E+00
  0.00000000E+00  0.00000000E+00  0.00000000E+00
  0.00000000E+00  0.00000000E+00  0.00000000E+00
  0.00000000E+00  0.00000000E+00  0.00000000E+00
  0.00000000E+00  0.00000000E+00  0.00000000E+00
  0.00000000E+00  0.00000000E+00  0.00000000E+00
  0.00000000E+00  0.00000000E+00  0.00000000E+00
  0.00000000E+00  0.00000000E+00  0.00000000E+00
  0.00000000E+00  0.00000000E+00  0.00000000E+00
  0.00000000E+00  0.00000000E+00  0.00000000E+00
  0.00000000E+00  0.00000000E+00  0.00000000E+00
  0.00000000E+00  0.00000000E+00  0.00000000E+00
  0.00000000E+00  0.00000000E+00  0.00000000E+00
  0.00000000E+00  0.00000000E+00  0.00000000E+00
  0.00000000E+00  0.00000000E+00  0.00000000E+00
  0.00000000E+00  0.00000000E+00  0.00000000E+00
  0.00000000E+00  0.00000000E+00  0.00000000E+00
  0.00000000E+00  0.00000000E+00  0.00000000E+00
  0.00000000E+00  0.00000000E+00  0.00000000E+00
  0.00000000E+00  0.00000000E+00  0.00000000E+00
  0.00000000E+00  0.00000000E+00  0.00000000E+00
  0.00000000E+00  0.00000000E+00  0.00000000E+00
  0.00000000E+00  0.00000000E+00  0.00000000E+00
  0.00000000E+00  0.00000000E+00  0.00000000E+00
  0.00000000E+00  0.00000000E+00  0.00000000E+00
  0.00000000E+00  0.00000000E+00  0.00000000E+00
  0.00000000E+00  0.00000000E+00  0.00000000E+00
  0.00000000E+00  0.00000000E+00  0.00000000E+00
  0.00000000E+00  0.00000000E+00  0.00000000E+00
  0.00000000E+00  0.00000000E+00  0.00000000E+00
  0.00000000E+00  0.00000000E+00  0.00000000E+00
  0.00000000E+00  0.00000000E+00  0.00000000E+00
  0.00000000E+00  0.00000000E+00  0.00000000E+00
  0.00000000E+00  0.00000000E+00  0.00000000E+00
  0.00000000E+00  0.00000000E+00  0.00000000E+00
  0.00000000E+00  0.00000000E+00  0.00000000E+00
  0.00000000E+00  0.00000000E+00  0.00000000E+00
  0.00000000E+00  0.00000000E+00  0.00000000E+00
  0.00000000E+00  0.00000000E+00  0.00000000E+00
  0.00000000E+00  0.00000000E+00  0.00000000E+00
  0.00000000E+00  0.00000000E+00  0.00000000E+00
  0.00000000E+00  0.00000000E+00  0.00000000E+00
  0.00000000E+00  0.00000000E+00  0.00000000E+00
  0.00000000E+00  0.00000000E+00  0.00000000E+00
  0.00000000E+00  0.00000000E+00  0.00000000E+00
  0.00000000E+00  0.00000000E+00  0.00000000E+00
  0.00000000E+00  0.00000000E+00  0.00000000E+00
  0.00000000E+00  0.00000000E+00  0.00000000E+00
  0.00000000E+00  0.00000000E+00  0.00000000E+00
  0.00000000E+00  0.00000000E+00  0.00000000E+00
  0.00000000E+00  0.00000000E+00  0.00000000E+00
  0.00000000E+00  0.00000000E+00  0.00000000E+00
  0.00000000E+00  0.00000000E+00  0.00000000E+00
  0.00000000E+00  0.00000000E+00  0.00000000E+00
  0.00000000E+00  0.00000000E+00  0.00000000E+00
  0.00000000E+00  0.00000000E+00  0.00000000E+00
  0.00000000E+00  0.00000000E+00  0.00000000E+00
  0.00000000E+00  0.00000000E+00  0.00000000E+00
  0.00000000E+00  0.00000000E+00  0.00000000E+00
  0.00000000E+00  0.00000000E+00  0.00000000E+00
  0.00000000E+00  0.00000000E+00  0.00000000E+00
  0.00000000E+00  0.00000000E+00  0.00000000E+00
  0.00000000E+00  0.00000000E+00  0.00000000E+00
  0.00000000E+00  0.00000000E+00  0.00000000E+00
  0.00000000E+00  0.00000000E+00  0.00000000E+00
  0.00000000E+00  0.00000000E+00  0.00000000E+00
  0.00000000E+00  0.00000000E+00  0.00000000E+00
  0.00000000E+00  0.00000000E+00  0.00000000E+00
  0.00000000E+00  0.00000000E+00  0.00000000E+00
  0.00000000E+00  0.00000000E+00  0.00000000E+00
  0.00000000E+00  0.00000000E+00  0.00000000E+00
  0.00000000E+00  0.00000000E+00  0.00000000E+00
  0.00000000E+00  0.00000000E+00  0.00000000E+00
  0.00000000E+00  0.00000000E+00  0.00000000E+00
  0.00000000E+00  0.00000000E+00  0.00000000E+00
  0.00000000E+00  0.00000000E+00  0.00000000E+00
  0.00000000E+00  0.00000000E+00  0.00000000E+00
  0.00000000E+00  0.00000000E+00  0.00000000E+00
  0.00000000E+00  0.00000000E+00  0.00000000E+00
  0.00000000E+00  0.00000000E+00  0.00000000E+00
  0.00000000E+00  0.00000000E+00  0.00000000E+00
  0.00000000E+00  0.00000000E+00  0.00000000E+00
  0.00000000E+00  0.00000000E+00  0.00000000E+00
  0.00000000E+00  0.00000000E+00  0.00000000E+00
  0.00000000E+00  0.00000000E+00  0.00000000E+00
  0.00000000E+00  0.00000000E+00  0.00000000E+00
  0.00000000E+00  0.00000000E+00  0.00000000E+00
  0.00000000E+00  0.00000000E+00  0.00000000E+00
  0.00000000E+00  0.00000000E+00  0.00000000E+00
  0.00000000E+00  0.00000000E+00  0.00000000E+00
  0.00000000E+00  0.00000000E+00  0.00000000E+00
  0.00000000E+00  0.00000000E+00  0.00000000E+00
  0.00000000E+00  0.00000000E+00  0.00000000E+00
  0.00000000E+00  0.00000000E+00  0.00000000E+00
  0.00000000E+00  0.00000000E+00  0.00000000E+00
  0.00000000E+00  0.00000000E+00  0.00000000E+00
  0.00000000E+00  0.00000000E+00  0.00000000E+00
  0.00000000E+00  0.00000000E+00  0.00000000E+00
  0.00000000E+00  0.00000000E+00  0.00000000E+00
  0.00000000E+00  0.00000000E+00  0.00000000E+00
  0.00000000E+00  0.00000000E+00  0.00000000E+00
  0.00000000E+00  0.00000000E+00  0.00000000E+00
  0.00000000E+00  0.00000000E+00  0.00000000E+00
  0.00000000E+00  0.00000000E+00  0.00000000E+00
  0.00000000E+00  0.00000000E+00  0.00000000E+00
  0.00000000E+00  0.00000000E+00  0.00000000E+00
  0.00000000E+00  0.00000000E+00  0.00000000E+00
  0.00000000E+00  0.00000000E+00  0.00000000E+00
  0.00000000E+00  0.00000000E+00  0.00000000E+00
  0.00000000E+00  0.00000000E+00  0.00000000E+00
  0.00000000E+00  0.00000000E+00  0.00000000E+00
  0.00000000E+00  0.00000000E+00  0.00000000E+00
  0.00000000E+00  0.00000000E+00  0.00000000E+00
  0.00000000E+00  0.00000000E+00  0.00000000E+00
  0.00000000E+00  0.00000000E+00  0.00000000E+00
  0.00000000E+00  0.00000000E+00  0.00000000E+00
  0.00000000E+00  0.00000000E+00  0.00000000E+00
  0.00000000E+00  0.00000000E+00  0.00000000E+00
  0.00000000E+00  0.00000000E+00  0.00000000E+00
  0.00000000E+00  0.00000000E+00  0.00000000E+00
  0.00000000E+00  0.00000000E+00  0.00000000E+00
  0.00000000E+00  0.00000000E+00  0.00000000E+00
  0.00000000E+00  0.00000000E+00  0.00000000E+00
  0.00000000E+00  0.00000000E+00  0.00000000E+00
  0.00000000E+00  0.00000000E+00  0.00000000E+00
  0.00000000E+00  0.00000000E+00  0.00000000E+00
  0.00000000E+00  0.00000000E+00  0.00000000E+00
  0.00000000E+00  0.00000000E+00  0.00000000E+00
  0.00000000E+00  0.00000000E+00  0.00000000E+00
  0.00000000E+00  0.00000000E+00  0.00000000E+00
  0.00000000E+00  0.00000000E+00  0.00000000E+00
  0.00000000E+00  0.00000000E+00  0.00000000E+00
  0.00000000E+00  0.00000000E+00  0.00000000E+00
  0.00000000E+00  0.00000000E+00  0.00000000E+00
  0.00000000E+00  0.00000000E+00  0.00000000E+00
  0.00000000E+00  0.00000000E+00  0.00000000E+00
  0.00000000E+00  0.00000000E+00  0.00000000E+00
  0.00000000E+00  0.00000000E+00  0.00000000E+00
  0.00000000E+00  0.00000000E+00  0.00000000E+00
  0.00000000E+00  0.00000000E+00  0.00000000E+00
  0.00000000E+00  0.00000000E+00  0.00000000E+00
  0.00000000E+00  0.00000000E+00  0.00000000E+00
  0.00000000E+00  0.00000000E+00  0.00000000E+00
  0.00000000E+00  0.00000000E+00  0.00000000E+00
  0.00000000E+00  0.00000000E+00  0.00000000E+00
  0.00000000E+00  0.00000000E+00  0.00000000E+00
  0.00000000E+00  0.00000000E+00  0.00000000E+00
  0.00000000E+00  0.00000000E+00  0.00000000E+00
  0.00000000E+00  0.00000000E+00  0.00000000E+00
  0.00000000E+00  0.00000000E+00  0.00000000E+00
  0.00000000E+00  0.00000000E+00  0.00000000E+00
  0.00000000E+00  0.00000000E+00  0.00000000E+00
  0.00000000E+00  0.00000000E+00  0.00000000E+00
  0.00000000E+00  0.00000000E+00  0.00000000E+00
  0.00000000E+00  0.00000000E+00  0.00000000E+00
  0.00000000E+00  0.00000000E+00  0.00000000E+00