Sb                                      
   1.00000000000000     
    19.4173007964999975    0.0000000000000000    0.0000000000000000
     0.0000000000000000   19.4173007964999975    0.0000000000000000
     0.0000000000000000    0.0000000000000000   19.4173007964999975
   Tl   Te
   100   100
Direct
  0.3324361710905437  0.8134751738551654  0.7911473739340422
  0.0614569824977945  0.2244559323718890  0.2844155981169857
  0.2102194508955524  0.8251703119733949  0.6421390342028965
  0.3790695173261833  0.6099413621530919  0.4811839927553396
  0.1018168449065591  0.7566200630760483  0.4312292454619900
  0.7603429147508971  0.8488713829503627  0.0160878994007748
  0.0860730074444426  0.2342603755691077  0.4764593691651082
  0.9778679650046302  0.9211510411801573  0.3960380335935115
  0.7871705917817033  0.6085245454314512  0.2943349372210969
  0.1405552544823023  0.1569716060163232  0.0191455102538126
  0.0210608438952289  0.4292974092786260  0.2987059784575994
  0.9734617324077285  0.6999034419656371  0.2477978664420797
  0.0386882416687196  0.7074588891405711  0.8861355557046906
  0.5571788983275410  0.8432782418365458  0.6948498515420091
  0.0706333913540912  0.0640814190857907  0.5548762486897524
  0.7580172127354223  0.9011478848382193  0.3698112005866036
  0.7108715380757471  0.2638959293545509  0.3054204372688296
  0.9434386539412644  0.2185300973075432  0.7587794612299923
  0.3243085939368784  0.6195056446394538  0.7012650108787898
  0.4113592511916671  0.1514700599793363  0.0285197038903520
  0.7215563161760681  0.5758738608104447  0.7535103808472776
  0.7066450716170773  0.0345541822237399  0.9644609820941658
  0.5721021697855778  0.6027028975613923  0.8810845311153186
  0.8620694231315859  0.3423522563046357  0.9720452194961045
  0.0429430108405734  0.4729805868153933  0.6209977366121109
  0.5858767222985893  0.0251116100340047  0.7269298799568795
  0.3899845849677833  0.1329897903974873  0.5167460491406907
  0.8657418345469979  0.8668276362787541  0.7989388348050305
  0.1969493359071228  0.0353324256742774  0.8940836532670071
  0.5896784827598264  0.7851344085925271  0.0212963286700290
  0.6930094098055289  0.8319547886566404  0.5473689053648128
  0.5078138400878019  0.2250420042308907  0.1950227283760071
  0.2023253064455729  0.2889643295106635  0.9293403248676113
  0.9147154995114621  0.8625348171690619  0.2082673369038683
  0.9700257171936437  0.4162949937693856  0.0943142408665985
  0.2460092789361185  0.1571960894035888  0.7438465051959934
  0.2270767793089498  0.0948839721789530  0.4116990878000196
  0.0762138027261185  0.5643360372309982  0.1584357434715982
  0.1026163715473203  0.2447294885530277  0.6626773712551806
  0.1657947126670083  0.5534332332840199  0.4691268055535542
 -0.0048631307727989  0.0753553087567681  0.1778246651848749
  0.3939062732840908  0.5991884653847475  0.2493085872815633
  0.5677854057530898 -0.0065465327452783  0.2267363661292353
  0.4974301538015910  0.4756203080744500  0.3831680829361243
  0.4857073114881107  0.9566345978508289  0.9033557419871409
  0.5376027868175175  0.5579515425711986  0.6814147587767994
  0.3739954591458625  0.8413638668484184  0.5633057117413220
  0.1503099257759133  0.0080804216546493  0.2858933008315284
  0.6378413845666434  0.7622430307429511  0.2934765609862960
  0.7003548232896237  0.0387394719776619  0.5474708910179400
  0.8939730894192408  0.1358665627955968  0.4390288342299882
  0.7206779972094183  0.9320288023640266  0.1840221861245945
  0.6689384334592773  0.2367312719854453  0.8050587591368974
  0.4304313118409162  0.1359552042268970  0.7719066683894851
  0.1346668030404488  0.5309895372028928  0.8039866118355661
  0.3572436233787177  0.6331773769745217  0.8845064510599588
  0.9623106796058027  0.1013661013373683  0.9363708468192767
  0.5648969816584307  0.6232927345812513  0.4983311348589078
  0.3450971598385824  0.3646612933530746  0.4831474334319604
  0.5234318657736321  0.3548572964726768  0.0647965087024511
  0.8792050878398100  0.8542586422300412  0.6007385137454873
  0.0553015182420210  0.7192299973729911  0.5967476020290511
  0.5734115685350459  0.1763766575762444  0.4905499037692082
  0.7996487073196553  0.2644557552178353  0.6011193522821020
  0.2086101699782657  0.4863089317123416  0.2377211918711547
  0.2753417669461399  0.4964695032649699  0.5788642247109872
  0.7713633405866480  0.6819845682150166  0.4860051284700150
  0.3430445960463842  0.3643707868055901  0.2613803775162379
  0.1665024843226586  0.3932285785142166  0.3922046426571159
  0.8889609108113385  0.0397586088589770  0.6452816850771957
  0.4065657866038304  0.9766971122770967  0.0714284894307032
  0.8457357276542005  0.6554870025943131  0.0791874748446633
  0.2255194154484718  0.9785905237668092  0.1038330888708657
  0.3055628594003816  0.8936425420555498  0.9439784320240340
  0.8784446567820806  0.5757097547453269  0.9030703457299716
  0.4830106817095636  0.8464525763560595  0.1942540192705066
  0.7008571714448310  0.0621459476994703  0.3562418329101261
  0.5931592881662126  0.1290095949566687  0.0520305861054770
  0.4850376997785515  0.1122317748360826  0.3249197168611578
  0.1941511529075420  0.2889953907013164  0.1820592384572390
  0.1723660595915674  0.7699120518755610  0.1081544887271887
  0.3289949974915601  0.1632560514229955  0.2231162281397504
  0.3767765659882665  0.9387943115098747  0.3964708750171183
  0.7894657417665817  0.3674440114030491  0.4459430923930294
  0.4552320073759024  0.3240726893399697  0.7690441424568989
  0.9684938347338061  0.8637511278234259  0.0200478719119992
  0.2862841169764612  0.3068585649305573  0.6432381275179953
  0.9130318634715046  0.6146784632055657  0.5935313401889765
  0.6759698352670809  0.6125874643546216  0.1444919038383780
  0.1072545994810864  0.8574261147426036  0.7917804612947560
  0.6772355895920243  0.4415069375811307  0.2593843484963355
  0.8116833381765730  0.1583009839641411  0.1442820159337573
  0.2009103162200593  0.5686968698709853 -0.0247776306907315
  0.3713317826032238  0.3148318201556812  0.9298733349592735
  0.6559805688780713  0.3665532811636142  0.9350090492898665
  0.2759315586481196  0.9966879575779224  0.5690714250714075
  0.5777846871567938  0.3463233550992578  0.5382666317201573
  0.4328651046846002  0.6382391204797665  0.0501635062448697
  0.2182559303284751  0.6782011984929101  0.2975654270050069
  0.4530274555981585  0.7318406501264766  0.3572647478953550
  0.0710705729837315 -0.0000234450228923  0.0238541623814519
  0.7102682436972797  0.4736816507824302  0.5994674577005509
  0.3836899161091391 -0.0035723747879335  0.2379909055627620
 -0.0275122494932486  0.5944179159419812  0.7660043722317009
  0.5490148907247941  0.8885578316128623  0.3853924664866554
  0.3159857717161949  0.1537955846382729  0.9002140106988696
  0.0502265438791515  0.8901605197925451  0.6236216510279921
  0.4685997863207531  0.4700195966405333  0.5516622260982281
 -0.0081445817842909  0.5219693614934122  0.4410239262987505
  0.4644642847678528  0.7125246700022282  0.7733195211568403
  0.8569979655369921  0.9663711278007943  0.9381806490383922
  0.1587287365329248  0.5964532373723919  0.6529077083177431
  0.2702330109995091  0.5972285575869559  0.1255372879923939
  0.1902609487238011  0.6941882150901183  0.7928216701151050
  0.8476939038271455  0.9754895748536577  0.4870550642277095
  0.7298638096093391  0.5156022223694693 -0.0134612598346982
  0.4610196697303816 -0.0120580341128795  0.6078876524568509
  0.0495828597545186  0.3757787166824935  0.7649045929667371
  0.9571796643040832  0.7327832449792571  0.7294396017283370
  0.3936150841398976  0.4587649159360705  0.6878419386603731
  0.5093903365082169  0.3867926778340411  0.2408125897873181
  0.3087783768339235  0.4466435819554970  0.0938736497956298
  0.0793703018280486  0.0195449713901510  0.7280189661143088
  0.3320981077838934  0.7723233165708133  0.2175854955326128
  0.9067270629425203  0.5429147467908270  0.1972463733052915
  0.5228950225815713  0.2402320018481822  0.9338704755085291
  0.3949419455687302  0.2508929450504072  0.3716333030913662
  0.2214018933417633  0.7429049895255984  0.9304043539637232
  0.0792184955960745  0.4266569584845143  0.9422021242603648
  0.1442572434070640  0.4074225180705310  0.0701962150490699
  0.6452446205545732  0.6968019207346717  0.6323884764921016
  0.1377054471618841  0.8696212795160256  0.9629395578800920
  0.1209280338239144  0.8227535640369215  0.2755716950697829
  0.1943408542195322  0.3593286962030913  0.7765049641924399
 -0.0568406099611135  0.3050680399466194  0.3948849122556202
  0.0700991421173072  0.5983770148550467  0.3414150160538889
  0.2945758299612434  0.7666795728270670  0.4191924665976189
  0.8694149903652696  0.3959034385869878  0.2384415193346466
  0.5278579758111855  0.0182245915592120  0.4563539232116584
  0.7416957296436608  0.2231423181422098  0.0050337918942001
  0.7870090404573271  0.7081653155487635  0.6665881382836120
  0.8836310431806318  0.2433920442335888  0.2788528772076516
  0.4476828177243007  0.4886716336003746  0.1341211635984131
  0.8702465571033778  0.3762148297586773  0.7316211998441107
  0.0270368856344899  0.5758828921507905 -0.0002603799359217
  0.2317922105877956  0.9828893112449648  0.7315274773746114
  0.6012303172117086  0.5980365869319150  0.3068989266008750
  0.6731528165431943  0.5159117960772092  0.4186116155246266
  0.8594706293775819  0.7455447986687498  0.9278845668626622
  0.3460718549457873  0.2914010404872476  0.0972617148697071
  0.5688645612421132  0.9502335102732618  0.0657413643848604
  0.3953283292177913  0.9685452814774471  0.7409145543477442
  0.8585495970182747  0.4492162005403216  0.6053123714007898
  0.0906241784827390  0.1420097376104976  0.8140685790850276
  0.7852378614403868  0.4366214917052567  0.1115474652759817
  0.5722167265574455  0.4419816500141480  0.8045394121213084
  0.8550413444385672  0.0073333404287052  0.2600019642480529
  0.3078953971455398  0.4977136697045159  0.3754947054344020
  0.7218042410555223  0.9253986055016439  0.6853800105725988
  0.7286189119028782  0.6929668161330870  0.8933774515501729
  0.7066363102352778  0.8121728175612694  0.7906968287854194
  0.2600873276868980  0.8933609871091728  0.2622882103573710
 -0.0034288049288576  0.2398722380615971  0.0514420179112885
  0.6531202916620694  0.3780928012961360  0.6887316003655860
  0.5327841239095218  0.6835809375263456  0.1846549617123018
  0.4554669527808582  0.4812420179954511  0.9080288558765844
  0.0144428251502877  0.7018125352066692  0.0757123337156458
  0.9293613447938933  0.7556990667136909  0.4725474541051276
  0.2402295931422347  0.6913948376837538  0.5339606147010115
  0.2334770112671086  0.2472325343632005  0.3518577758495881
  0.5660738456365398  0.1148482380922013  0.8747019557772114
  0.7860503991435890  0.0517823148924605  0.8063710522370134
  0.7381749537358351  0.1314932026971889  0.6877521086033378
  0.3779425946495666  0.7976598454138266  0.0651424194550805
  0.0770373996777106  0.9181909688357505  0.1567785819574191
  0.5264218760481860  0.8031754210761836  0.5031821813432095
  0.4487172162078035  0.7835714287803145  0.9293365146032095
  0.8174282990183995  0.1759722652740859  0.8776095179378258
  0.7934180819552543  0.4354630953485086  0.8405255627192545
  0.7705132288711478  0.7659556747228581  0.1958350997596625
  0.4565460211594371  0.2496473057960740  0.6149061855344200
  0.3297067140424361  0.4630893357277340  0.8309623236395528
  0.6406961800592912  0.8931190310387161  0.8949516131832874
  0.7301392571353817  0.1892874366864294  0.4565944026136055
  0.1746409178552674  0.1252207993044804  0.1748839090620212
  0.1612770060465384  0.3763696629667760  0.5546760137167887
  0.0213898041155304  0.2892029426807877  0.9180458572257882
  0.8412554637344128  0.5317225904598823  0.4390015967663518
  0.6955371936192569  0.3196493684685030  0.1172796526845460
  0.1373258993093295  0.9083909174267724  0.5097295933334816
  0.8475213533597410  0.7619636321772487  0.3466644895621535
  0.5823752105966159  0.1815713648417873  0.6559665319396474
  0.6585642771501617  0.1362525180017596  0.2126380734054206
  0.9510481289899371  0.1907896771419366  0.5933645992709597
  0.8515249828241410 -0.0074009576535414  0.1008279079072182
  0.0504887680887100  0.0881659886451583  0.3773766474260998
  0.2199823974123515  0.1530264455890093  0.5636992021532043
  0.4567461442947055  0.7046757416465372  0.6248523760199288
  0.5897980967125670  0.5142814733001262  0.0299155872708173
  0.5446466746468245  0.2890594660519795  0.3548885248808967
 
  0.00000000E+00  0.00000000E+00  0.00000000E+00
  0.00000000E+00  0.00000000E+00  0.00000000E+00
  0.00000000E+00  0.00000000E+00  0.00000000E+00
  0.00000000E+00  0.00000000E+00  0.00000000E+00
  0.00000000E+00  0.00000000E+00  0.00000000E+00
  0.00000000E+00  0.00000000E+00  0.00000000E+00
  0.00000000E+00  0.00000000E+00  0.00000000E+00
  0.00000000E+00  0.00000000E+00  0.00000000E+00
  0.00000000E+00  0.00000000E+00  0.00000000E+00
  0.00000000E+00  0.00000000E+00  0.00000000E+00
  0.00000000E+00  0.00000000E+00  0.00000000E+00
  0.00000000E+00  0.00000000E+00  0.00000000E+00
  0.00000000E+00  0.00000000E+00  0.00000000E+00
  0.00000000E+00  0.00000000E+00  0.00000000E+00
  0.00000000E+00  0.00000000E+00  0.00000000E+00
  0.00000000E+00  0.00000000E+00  0.00000000E+00
  0.00000000E+00  0.00000000E+00  0.00000000E+00
  0.00000000E+00  0.00000000E+00  0.00000000E+00
  0.00000000E+00  0.00000000E+00  0.00000000E+00
  0.00000000E+00  0.00000000E+00  0.00000000E+00
  0.00000000E+00  0.00000000E+00  0.00000000E+00
  0.00000000E+00  0.00000000E+00  0.00000000E+00
  0.00000000E+00  0.00000000E+00  0.00000000E+00
  0.00000000E+00  0.00000000E+00  0.00000000E+00
  0.00000000E+00  0.00000000E+00  0.00000000E+00
  0.00000000E+00  0.00000000E+00  0.00000000E+00
  0.00000000E+00  0.00000000E+00  0.00000000E+00
  0.00000000E+00  0.00000000E+00  0.00000000E+00
  0.00000000E+00  0.00000000E+00  0.00000000E+00
  0.00000000E+00  0.00000000E+00  0.00000000E+00
  0.00000000E+00  0.00000000E+00  0.00000000E+00
  0.00000000E+00  0.00000000E+00  0.00000000E+00
  0.00000000E+00  0.00000000E+00  0.00000000E+00
  0.00000000E+00  0.00000000E+00  0.00000000E+00
  0.00000000E+00  0.00000000E+00  0.00000000E+00
  0.00000000E+00  0.00000000E+00  0.00000000E+00
  0.00000000E+00  0.00000000E+00  0.00000000E+00
  0.00000000E+00  0.00000000E+00  0.00000000E+00
  0.00000000E+00  0.00000000E+00  0.00000000E+00
  0.00000000E+00  0.00000000E+00  0.00000000E+00
  0.00000000E+00  0.00000000E+00  0.00000000E+00
  0.00000000E+00  0.00000000E+00  0.00000000E+00
  0.00000000E+00  0.00000000E+00  0.00000000E+00
  0.00000000E+00  0.00000000E+00  0.00000000E+00
  0.00000000E+00  0.00000000E+00  0.00000000E+00
  0.00000000E+00  0.00000000E+00  0.00000000E+00
  0.00000000E+00  0.00000000E+00  0.00000000E+00
  0.00000000E+00  0.00000000E+00  0.00000000E+00
  0.00000000E+00  0.00000000E+00  0.00000000E+00
  0.00000000E+00  0.00000000E+00  0.00000000E+00
  0.00000000E+00  0.00000000E+00  0.00000000E+00
  0.00000000E+00  0.00000000E+00  0.00000000E+00
  0.00000000E+00  0.00000000E+00  0.00000000E+00
  0.00000000E+00  0.00000000E+00  0.00000000E+00
  0.00000000E+00  0.00000000E+00  0.00000000E+00
  0.00000000E+00  0.00000000E+00  0.00000000E+00
  0.00000000E+00  0.00000000E+00  0.00000000E+00
  0.00000000E+00  0.00000000E+00  0.00000000E+00
  0.00000000E+00  0.00000000E+00  0.00000000E+00
  0.00000000E+00  0.00000000E+00  0.00000000E+00
  0.00000000E+00  0.00000000E+00  0.00000000E+00
  0.00000000E+00  0.00000000E+00  0.00000000E+00
  0.00000000E+00  0.00000000E+00  0.00000000E+00
  0.00000000E+00  0.00000000E+00  0.00000000E+00
  0.00000000E+00  0.00000000E+00  0.00000000E+00
  0.00000000E+00  0.00000000E+00  0.00000000E+00
  0.00000000E+00  0.00000000E+00  0.00000000E+00
  0.00000000E+00  0.00000000E+00  0.00000000E+00
  0.00000000E+00  0.00000000E+00  0.00000000E+00
  0.00000000E+00  0.00000000E+00  0.00000000E+00
  0.00000000E+00  0.00000000E+00  0.00000000E+00
  0.00000000E+00  0.00000000E+00  0.00000000E+00
  0.00000000E+00  0.00000000E+00  0.00000000E+00
  0.00000000E+00  0.00000000E+00  0.00000000E+00
  0.00000000E+00  0.00000000E+00  0.00000000E+00
  0.00000000E+00  0.00000000E+00  0.00000000E+00
  0.00000000E+00  0.00000000E+00  0.00000000E+00
  0.00000000E+00  0.00000000E+00  0.00000000E+00
  0.00000000E+00  0.00000000E+00  0.00000000E+00
  0.00000000E+00  0.00000000E+00  0.00000000E+00
  0.00000000E+00  0.00000000E+00  0.00000000E+00
  0.00000000E+00  0.00000000E+00  0.00000000E+00
  0.00000000E+00  0.00000000E+00  0.00000000E+00
  0.00000000E+00  0.00000000E+00  0.00000000E+00
  0.00000000E+00  0.00000000E+00  0.00000000E+00
  0.00000000E+00  0.00000000E+00  0.00000000E+00
  0.00000000E+00  0.00000000E+00  0.00000000E+00
  0.00000000E+00  0.00000000E+00  0.00000000E+00
  0.00000000E+00  0.00000000E+00  0.00000000E+00
  0.00000000E+00  0.00000000E+00  0.00000000E+00
  0.00000000E+00  0.00000000E+00  0.00000000E+00
  0.00000000E+00  0.00000000E+00  0.00000000E+00
  0.00000000E+00  0.00000000E+00  0.00000000E+00
  0.00000000E+00  0.00000000E+00  0.00000000E+00
  0.00000000E+00  0.00000000E+00  0.00000000E+00
  0.00000000E+00  0.00000000E+00  0.00000000E+00
  0.00000000E+00  0.00000000E+00  0.00000000E+00
  0.00000000E+00  0.00000000E+00  0.00000000E+00
  0.00000000E+00  0.00000000E+00  0.00000000E+00
  0.00000000E+00  0.00000000E+00  0.00000000E+00
  0.00000000E+00  0.00000000E+00  0.00000000E+00
  0.00000000E+00  0.00000000E+00  0.00000000E+00
  0.00000000E+00  0.00000000E+00  0.00000000E+00
  0.00000000E+00  0.00000000E+00  0.00000000E+00
  0.00000000E+00  0.00000000E+00  0.00000000E+00
  0.00000000E+00  0.00000000E+00  0.00000000E+00
  0.00000000E+00  0.00000000E+00  0.00000000E+00
  0.00000000E+00  0.00000000E+00  0.00000000E+00
  0.00000000E+00  0.00000000E+00  0.00000000E+00
  0.00000000E+00  0.00000000E+00  0.00000000E+00
  0.00000000E+00  0.00000000E+00  0.00000000E+00
  0.00000000E+00  0.00000000E+00  0.00000000E+00
  0.00000000E+00  0.00000000E+00  0.00000000E+00
  0.00000000E+00  0.00000000E+00  0.00000000E+00
  0.00000000E+00  0.00000000E+00  0.00000000E+00
  0.00000000E+00  0.00000000E+00  0.00000000E+00
  0.00000000E+00  0.00000000E+00  0.00000000E+00
  0.00000000E+00  0.00000000E+00  0.00000000E+00
  0.00000000E+00  0.00000000E+00  0.00000000E+00
  0.00000000E+00  0.00000000E+00  0.00000000E+00
  0.00000000E+00  0.00000000E+00  0.00000000E+00
  0.00000000E+00  0.00000000E+00  0.00000000E+00
  0.00000000E+00  0.00000000E+00  0.00000000E+00
  0.00000000E+00  0.00000000E+00  0.00000000E+00
  0.00000000E+00  0.00000000E+00  0.00000000E+00
  0.00000000E+00  0.00000000E+00  0.00000000E+00
  0.00000000E+00  0.00000000E+00  0.00000000E+00
  0.00000000E+00  0.00000000E+00  0.00000000E+00
  0.00000000E+00  0.00000000E+00  0.00000000E+00
  0.00000000E+00  0.00000000E+00  0.00000000E+00
  0.00000000E+00  0.00000000E+00  0.00000000E+00
  0.00000000E+00  0.00000000E+00  0.00000000E+00
  0.00000000E+00  0.00000000E+00  0.00000000E+00
  0.00000000E+00  0.00000000E+00  0.00000000E+00
  0.00000000E+00  0.00000000E+00  0.00000000E+00
  0.00000000E+00  0.00000000E+00  0.00000000E+00
  0.00000000E+00  0.00000000E+00  0.00000000E+00
  0.00000000E+00  0.00000000E+00  0.00000000E+00
  0.00000000E+00  0.00000000E+00  0.00000000E+00
  0.00000000E+00  0.00000000E+00  0.00000000E+00
  0.00000000E+00  0.00000000E+00  0.00000000E+00
  0.00000000E+00  0.00000000E+00  0.00000000E+00
  0.00000000E+00  0.00000000E+00  0.00000000E+00
  0.00000000E+00  0.00000000E+00  0.00000000E+00
  0.00000000E+00  0.00000000E+00  0.00000000E+00
  0.00000000E+00  0.00000000E+00  0.00000000E+00
  0.00000000E+00  0.00000000E+00  0.00000000E+00
  0.00000000E+00  0.00000000E+00  0.00000000E+00
  0.00000000E+00  0.00000000E+00  0.00000000E+00
  0.00000000E+00  0.00000000E+00  0.00000000E+00
  0.00000000E+00  0.00000000E+00  0.00000000E+00
  0.00000000E+00  0.00000000E+00  0.00000000E+00
  0.00000000E+00  0.00000000E+00  0.00000000E+00
  0.00000000E+00  0.00000000E+00  0.00000000E+00
  0.00000000E+00  0.00000000E+00  0.00000000E+00
  0.00000000E+00  0.00000000E+00  0.00000000E+00
  0.00000000E+00  0.00000000E+00  0.00000000E+00
  0.00000000E+00  0.00000000E+00  0.00000000E+00
  0.00000000E+00  0.00000000E+00  0.00000000E+00
  0.00000000E+00  0.00000000E+00  0.00000000E+00
  0.00000000E+00  0.00000000E+00  0.00000000E+00
  0.00000000E+00  0.00000000E+00  0.00000000E+00
  0.00000000E+00  0.00000000E+00  0.00000000E+00
  0.00000000E+00  0.00000000E+00  0.00000000E+00
  0.00000000E+00  0.00000000E+00  0.00000000E+00
  0.00000000E+00  0.00000000E+00  0.00000000E+00
  0.00000000E+00  0.00000000E+00  0.00000000E+00
  0.00000000E+00  0.00000000E+00  0.00000000E+00
  0.00000000E+00  0.00000000E+00  0.00000000E+00
  0.00000000E+00  0.00000000E+00  0.00000000E+00
  0.00000000E+00  0.00000000E+00  0.00000000E+00
  0.00000000E+00  0.00000000E+00  0.00000000E+00
  0.00000000E+00  0.00000000E+00  0.00000000E+00
  0.00000000E+00  0.00000000E+00  0.00000000E+00
  0.00000000E+00  0.00000000E+00  0.00000000E+00
  0.00000000E+00  0.00000000E+00  0.00000000E+00
  0.00000000E+00  0.00000000E+00  0.00000000E+00
  0.00000000E+00  0.00000000E+00  0.00000000E+00
  0.00000000E+00  0.00000000E+00  0.00000000E+00
  0.00000000E+00  0.00000000E+00  0.00000000E+00
  0.00000000E+00  0.00000000E+00  0.00000000E+00
  0.00000000E+00  0.00000000E+00  0.00000000E+00
  0.00000000E+00  0.00000000E+00  0.00000000E+00
  0.00000000E+00  0.00000000E+00  0.00000000E+00
  0.00000000E+00  0.00000000E+00  0.00000000E+00
  0.00000000E+00  0.00000000E+00  0.00000000E+00
  0.00000000E+00  0.00000000E+00  0.00000000E+00
  0.00000000E+00  0.00000000E+00  0.00000000E+00
  0.00000000E+00  0.00000000E+00  0.00000000E+00
  0.00000000E+00  0.00000000E+00  0.00000000E+00
  0.00000000E+00  0.00000000E+00  0.00000000E+00
  0.00000000E+00  0.00000000E+00  0.00000000E+00
  0.00000000E+00  0.00000000E+00  0.00000000E+00
  0.00000000E+00  0.00000000E+00  0.00000000E+00
  0.00000000E+00  0.00000000E+00  0.00000000E+00
  0.00000000E+00  0.00000000E+00  0.00000000E+00
  0.00000000E+00  0.00000000E+00  0.00000000E+00
  0.00000000E+00  0.00000000E+00  0.00000000E+00
  0.00000000E+00  0.00000000E+00  0.00000000E+00
  0.00000000E+00  0.00000000E+00  0.00000000E+00
