Amorphous AlTe                          
   1.00000000000000     
    20.9072922372385506    0.0000000000000000    0.0000000000000000
     0.0000000000000000   20.9072922372385506    0.0000000000000000
     0.0000000000000000    0.0000000000000000   20.9072922372385506
   Al   Te
   150   150
Direct
  0.5366958291792172  0.5854431807479588  0.9516611546941173
  0.0034232061274826  0.6211085291605142  0.6232678325285315
  0.4719799908700416  0.0951978203714157  0.6615980494118193
  0.9338566240469882  0.2377223582339054  0.7884489723629582
  0.4933626408255619  0.1929192902344703  0.4431125753200643
  0.2072528418931867  0.5854743641199476  0.5168020749205330
  0.1704565379349031  0.7390666894343608  0.9124586596256317
  0.7619552033946000  0.0729074620326834  0.0975200905112892
  0.8979115931495154  0.9373339696828686  0.4021090186353077
  0.6291803469053612  0.3728425191811354  0.5179581886951783
  0.3165929681735534  0.3531020243275695  0.4885371463848161
  0.2799741866480670  0.1125259394853991  0.6828479098422467
  0.1085055574712785  0.3582957418944474  0.8592407981212484
  0.9645593606301291  0.0443015763205187  0.5611053134104741
  0.3437476255423028  0.7490269679756482  0.7993260146920742
  0.7744176268050009  0.6917662360498085  0.0524290775943214
  0.8540884902178754  0.7950186910177733  0.5173249162552666
  0.2791362986403128  0.9787298153426742  0.2343680290542796
  0.3685468035542681  0.1010329977070421  0.5625013566130895
  0.7821816768933730  0.1375900309549365  0.2580116584941727
  0.8867189401805938  0.9527885632592659  0.5842399749946866
  0.5672315434820936  0.1952654819548908  0.7891832988718180
  0.7674319366785840  0.1387917287555528  0.8480517979265857
  0.1373930996873430  0.0777315620413968  0.9244613066699444
  0.5463246574548546  0.2272286040360770  0.0091240649788636
  0.2001395843679202  0.1259691396158989  0.3067100872887686
  0.8986491081747946  0.0109483336864290  0.1107203417795406
  0.5689404263727437  0.9727898019291951  0.7902970623968000
  0.3265026272430627  0.6984334655608428  0.5726278487698961
  0.9150491369590055  0.1488819940255732  0.5081474233581237
  0.7600856609143047  0.8960734571402714  0.0406202097754970
  0.7932976880240853  0.4766187003820245  0.5860838827864250
  0.9704230092724769  0.7207089957291997  0.1333830876639907
  0.1984425322895483  0.1006605909741824  0.7753586018701409
  0.8443936773555817  0.1115894911519960  0.6583860743167277
  0.5979182030327227  0.1253640450116012  0.3544818965587716
  0.9316312416607845  0.8610289400411103  0.8546420148803584
  0.6783649703388154  0.7222156991725756  0.4508671384120917
  0.2604592955987370  0.9039363638618678  0.6201688592011878
  0.5477544507755497  0.4677377052944071  0.0815947400575191
  0.4532217885705532  0.0836737446180011  0.1525357086851492
  0.9596817670798530  0.5583509528315104  0.4406862093801984
  0.5113881862242907  0.8855039071504475  0.2451799441412190
  0.6812730617745307  0.9260175099943559  0.6142436667795810
  0.4754201162842845  0.3119495897759141  0.9606485557085539
  0.4547670879794740  0.4615582714971712  0.4680759254928669
  0.0484604259707575  0.7420829331875196  0.4831570152514457
  0.0345535425853722  0.1709638540176116  0.5779542910785817
  0.4488836351056602  0.6820681965527109  0.0392868864753360
  0.7062076732956667  0.7126928783318395  0.8680456224699087
  0.3297114909564189  0.4937208337858879  0.0498403350145491
  0.0323023730371730  0.1312876004143151  0.8116861390077594
  0.9606059841509947  0.1194290293699941  0.7088687112252271
  0.1319973102915958  0.8006403110722953  0.2390654146796302
  0.0574017965298718  0.6419001542838622  0.1926021249560556
  0.7654452488489001  0.3843706889614942  0.6720711287652201
  0.5533969079854009  0.0211545980694312  0.1093255456914598
  0.8549606724495762  0.9699614109287134  0.7750135974586488
  0.7886926836899774  0.6182663226211960  0.3300910392435476
  0.3602426544789851  0.5555408352487358  0.1596871303404863
  0.8025289938763058  0.4539601448881634  0.8204588396010273
  0.3923120124453223  0.9815373260427818  0.7408052273172684
  0.0716814116237521  0.5086013538026982  0.4610628455565580
  0.9651609646986367  0.2432451021935063  0.6597938588843834
  0.7651789688222428  0.2858017711449117  0.7575712547970705
  0.3101094116982203  0.3482736522913505  0.6099319832343731
  0.4579820494709620  0.8138327408254796  0.7759257512718676
  0.5028848129044716  0.5027444361702809  0.2717012321757634
  0.9252463452188591  0.8432280410431878  0.1450614291377796
  0.3786924546126236  0.7714736512167721  0.1777082843952575
  0.3026917372292218  0.8341840837227615  0.0097541521195155
  0.3419459867266332  0.2075926207979208  0.0718996946205266
  0.4116213235611907  0.5491889409308095  0.8469040685082064
  0.2472610959961267  0.6280958087077454  0.7777571265280060
  0.2873125050761674  0.2287667494885816  0.6388790784714011
  0.7331880460632233  0.2786307831273828  0.1291904471969132
  0.1525795295246425  0.5441873180752858  0.9269242259384891
  0.0090041851056315  0.2087558999187540  0.3644030387245342
  0.0015262297737566  0.4399532503761612  0.0585873752506677
  0.5496858042446326  0.3440974787161469  0.3562381911146749
  0.0077823669061147  0.7929534180509431  0.2357032977184442
  0.9779169341721092  0.7156835660290514  0.3265179730127448
  0.7890233736220308  0.7116346731232600  0.5848830987966924
  0.8182146322401934  0.0011703630164260  0.3219012656488435
  0.4533650328854471  0.1941396083197612  0.5831973860555771
  0.0203974497516884  0.8490605490528399  0.4236507708708726
  0.1567690218996626  0.5140808782936300  0.1391923569323461
  0.2586616383003496  0.0853463917125339  0.1601476351886787
  0.9097639976231316  0.2373651690499445  0.1000790052564703
  0.5252936675642256  0.3449283232394947  0.1449164296911521
  0.8719732814482868  0.3077804838337414  0.1927751725519016
  0.6454787560960932  0.8935990705409064  0.9836752709837664
  0.0610362387125605  0.3833667208503744  0.1693720531588040
  0.4394496511691935  0.2840245004394442  0.3664124643928134
  0.5139770406088592  0.4309700220201959  0.6445168612435721
  0.2045099389753997  0.6901206767024944  0.3415013943744335
  0.1707495165044616  0.9016726725889461  0.9549232511991086
  0.0345771964147112  0.2605517694699785  0.8604367970733519
  0.6196272110263816  0.6943867497079967  0.2942995395062219
  0.1210608728937927  0.3453641248559875  0.5915542700229799
  0.3298092282017440  0.6595192616645276  0.3593735547132191
  0.0833072659011189  0.9714075266732177  0.2222269792218697
  0.6618990359492746  0.8446946145936971  0.4095297296400491
  0.5722166242608406  0.6954759766611124  0.0091139543783884
  0.3058408398570080  0.3819175646027785  0.9917144844104495
  0.8036752479466047  0.0072884672070221  0.1964085280797303
  0.9112335839456707  0.8169738410550461  0.7037870042869832
  0.1920418470475004  0.1938983461491192  0.4099800057301193
  0.5942987640816829  0.4676617229285092  0.1959933751528896
  0.3526398648233571  0.0457244602849378  0.3821663997520315
  0.9167803395116829  0.5487206515291724  0.6771097959604024
  0.4107954292149374  0.3244577384894700  0.7607561766180625
  0.3847550353737473  0.7913297087363403  0.6776267234286361
  0.4012755859599414  0.0844808232142175  0.2684229327497924
  0.6805610763589561  0.5534660997401263  0.4208514514212841
  0.3245206368633053  0.3244350464883440  0.3372273923671947
  0.2952624738323072  0.8780398479853094  0.3216298224506342
  0.9789535604058811  0.4851525244953067  0.8283717800633524
  0.9367368669182651  0.3585318548634048  0.4991303153360388
  0.2760645825396326  0.8481147038044550  0.8290388351798351
  0.2265113668437734  0.2326941532158621  0.8598385641515629
  0.1264404828189075  0.6266383741530180  0.7617735629616217
  0.6096355234721877  0.3748012656116767  0.7084339503028402
  0.9295725828289531  0.4213211733559034  0.6675760014791351
  0.6673701215596184  0.0973067584623538  0.9191587804110515
  0.1247246867258290  0.7619847782443019  0.5762647575646697
  0.6478364822500410  0.5834399276574145  0.0270192490333082
  0.9359853442982715  0.8166814716617158  0.0253116790147452
  0.1553934856764247  0.4207859133296963  0.7642332122863955
  0.5297720196485305  0.7101966899246626  0.7671822262892675
  0.4220650603353570  0.5581244481958781  0.5345110234683359
  0.6573747585107159  0.9865300666107580  0.2780258640907300
  0.9242563216981171  0.5538681662571860  0.1177268603312916
  0.8978823151838733  0.0744626863955943  0.4072461802783325
  0.5602119079511733  0.1292085170069222  0.5480721307363149
  0.8900556885956825  0.1015579529722196  0.2059804426210413
  0.6561435074755879  0.8297990822109766  0.5399354656557728
  0.6081010236986668  0.6375381587864647  0.1847345560822382
  0.4041845210679766  0.9493315629822274  0.2811800567302851
  0.4571513743866294  0.8520072055081295  0.0608035732801770
  0.3089208485935383  0.3916362870303218  0.2344571234394229
  0.9697580611493378  0.4681335253107207  0.1911911940555275
  0.1754618965857465  0.2907486192077530  0.1402793993380487
  0.6179645944103688  0.1896959847677603  0.4576513617821569
  0.6013934491153956  0.9385939270700401  0.4688681458584045
  0.8026475327773546  0.7671552704980170  0.8142091945562461
  0.5045630931206447  0.8514298747982091  0.6569721600842243
  0.3895660316830633  0.2518266388722610  0.4841392354780418
  0.8450305500375467  0.3984851969656727  0.0096319370747705
  0.0431493501820091  0.2865904764551203  0.2754926411767056
  0.4878347873542044  0.1766424506304307  0.3031058767785457
  0.4948888624521878  0.2533671103782242  0.6964858591389477
  0.7419551458110445  0.7226227025013000  0.2802107512996217
  0.6111793802997720  0.3458227247753863  0.2407177704625692
  0.6492366581256427  0.0284396567398170  0.5439859393993194
  0.1933083585991053  0.3184959822170529  0.9461138775104393
  0.5852129030962990  0.0835710509388798  0.7266774766283913
  0.3571722821625958  0.2642133431795965  0.9553365026344905
  0.0645255846756772  0.5142032497122666  0.7398545503843920
  0.0100041976090153  0.9750539533642206  0.4575489192015170
  0.4630186271523214  0.0680599987528364  0.4756643906555821
  0.2724300454646619  0.9418352555962352  0.7422642932100714
  0.8918385117316684  0.7997650144867557  0.3923579613908817
  0.5261382208685601  0.9432432613833778  0.0089929424540018
  0.0050840423905782  0.9406701310512944  0.1215132407624384
  0.6025568514960516  0.4777935918536918  0.9686258426801376
  0.8255291783498566  0.0027716147200444  0.0055983471793010
  0.3070113449189530  0.1696360770567833  0.2460499565440531
  0.1415904757350831  0.4044582166557100  0.0729937764838922
  0.0380776722035578  0.1568364171010990  0.9394007579509324
  0.0825308064277766  0.6618688181638182  0.3862536225922572
  0.6170971135616741  0.8805198472818065  0.7164112881223627
  0.6895685120353722  0.5459428923663738  0.1455317290954668
  0.1391358950365632  0.0020714203119674  0.0220162556397888
  0.4868520730233239  0.3755574017959096  0.8505231573012306
  0.1824560016049639  0.7933146733995492  0.0284371513042745
  0.6984915369478057  0.4713880809610891  0.7458009721591008
  0.3074257996062134  0.5685266705931691  0.5962987151848965
  0.1005024977210789  0.5502477661105044  0.5781202591454432
  0.8550481004338160  0.6573433585150392  0.1496616653337857
  0.1418300297269891  0.8847678287379348  0.5915623000061578
  0.8005555413229511  0.5939501795843877  0.6418204563964154
  0.5157448635824669  0.5543408163001399  0.6208175139691195
  0.2182081197384071  0.5713142396090491  0.0334584201031633
  0.5590555779450336 -0.0010593908303255  0.3586437029638368
  0.6729676960733305  0.4908353637759043  0.5321787550586076
  0.6605036932926864  0.7099951036752541  0.5807178445503377
  0.8147795203703512  0.7914538710715335  0.9861896305207721
  0.9170711126298232  0.6006684825832616  0.3227335823127192
  0.4580156540676589  0.9301585048642405  0.8372890686433255
  0.6571483539680442  0.1082858462559138  0.2372027502813332
  0.0379353588669263  0.3477424939472444  0.6861597754976765
  0.2993841662117815  0.3278421981735613  0.1232001435620549
  0.6586092165045869  0.7274163457765855  0.1010583859601192
  0.6102810086888296  0.7840540608247517  0.9198128922910895
  0.0435120633300172  0.2581029707813921  0.1503955061267969
  0.4709171726475740  0.2136419976253135  0.1171292164375406
  0.2556665177368042  0.5103483271891491  0.2246163286988155
  0.2314919271045741  0.5029710711200470  0.8354503464122923
  0.2175061107571213  0.3176841986011310  0.4122969307215191
  0.2916210884308514  0.2823472078343829  0.7650313582919921
  0.9082079285175195  0.3818508270440010  0.7916137609236330
  0.4784184631764806  0.7116901982299132  0.6435181995054481
  0.3364950972519880  0.6775784008279068  0.1074879430323421
  0.6531098375580332  0.6857320307101979  0.7571004119414354
  0.7931668134867621  0.1949159867023396  0.0544509945877712
  0.9554482354960335  0.8387609541273618  0.5859323711332394
  0.9308292881322280  0.7414028703770398  0.8077352071583436
  0.6611265028121210  0.3042286072309491  0.4169656357927629
  0.4101984024522066  0.7824098326974567  0.9640146560488461
  0.3719784933007266  0.7748523924494398  0.3021503596790766
  0.8277009976279235  0.2505612486217852  0.8667211323625610
  0.6742385155720556  0.3086114805325529  0.6165432103174890
  0.8064607709994392  0.8901431883678481  0.8568067809639019
  0.0861079650980333  0.6464032692118552  0.8843495185999657
  0.3473797010426459  0.8847543769781790  0.1199218779329351
  0.3867145779965583  0.1057407992785151  0.7589930654027398
  0.6291134316109727  0.3091070883524234  0.0611543163934468
  0.6596554609458573  0.9750403207444868  0.8793913597386490
  0.9464638233789321  0.6661057254488825  0.5156452713541670
  0.4088319126289130  0.5747775617722810  0.9724370195117283
  0.5056433900019258  0.5866098262956817  0.1192066925682753
  0.4487257042288729  0.9731324358252539  0.6297998481332885
  0.9413471824490407  0.3754152869389641  0.2781890231577880
  0.3533317167325602  0.8367857072407806  0.5639593826045920
  0.3820841181314468  0.9212407132794885  0.4078536357705996
  0.7378520893681980  0.8982766716138646  0.3222580085749570
  0.3556465692890687  0.0768649278172174  0.0679564357472588
  0.0049861855135796  0.9066257558041898  0.3033584801083651
  0.7666102000002685  0.2651024991845853  0.2533432023622805
  0.2193787290106265  0.7115787207191510  0.5049368269602286
  0.9913106753183911  0.9034050924124368  0.9519978876632773
  0.7442893232382490  0.1628046448082473  0.7227616362766240
  0.1884778182088827  0.5182384699029366  0.4133789023224209
  0.6410259536846526  0.2979440954421899  0.8095843187147351
  0.7726690958420886  0.1051888813639867  0.3812661273046639
  0.0689893953757517  0.7137182168428654  0.6848615071559568
  0.3910599269237849  0.4205009209238851  0.6824793595743458
  0.8765097869451208  0.3184679963204066  0.6047555080135346
  0.3689448107852006  0.6146436452225463  0.7507895702219192
  0.7752246955616414  0.6387925792682283  0.4550754733188572
  0.9651805257855215  0.1212304808790890  0.1022485418383355
  0.7958052828427437  0.3915319737164518  0.1269230989715556
  0.8699161682586447  0.4663200596472591  0.4772744582196445
  0.0498168901249249  0.5711382767340260  0.0754473614075438
  0.7479998183696230  0.6160737504804212  0.9529078934167096
  0.2633573510593682  0.7439423834898371  0.6940931890410924
  0.8015570646133923  0.8791953337849419  0.1622699569721964
  0.1052512356514831  0.0212003277326809  0.8140289573489903
  0.1806986281768691  0.6842711411648933  0.2096812797008569
  0.5525399187227820  0.4713379941661348  0.3862229832096009
  0.5296429998609800  0.8472437043866544  0.5272774937606429
  0.4386581131823625  0.3978910161548851  0.2344628797287442
  0.7993582334779022  0.1571158275729312  0.5523165303845030
  0.3088440793797499  0.1525574481542632  0.4518219702124645
  0.2296317544336494  0.0106222655760614  0.3528332654640505
  0.1830903495474560  0.9035478473584733  0.1801390105629272
  0.0041475713307129  0.7137035344639712  0.0140032911131249
  0.0732906586103486  0.5219655070800792  0.2475288792660596
  0.1654465959123923  0.2292912210062279  0.5856454428580435
  0.7548239268904933  0.4067357445799646  0.9250520735250791
  0.6132803940208610  0.9281604983782248  0.1750899688911339
  0.4467714242376364  0.3967000188089478  0.0517106130804828
  0.2075894641444520  0.4216474400583697  0.6449198634222435
  0.4059181510806568  0.6714427044144793  0.4675380115554220
  0.9487305919892370  0.3234016762872947  0.0072669630412766
  0.1527037352242328  0.3514349318639737  0.2574135956681569
  0.8776038008904311  0.0736858013633517  0.8383658288858797
  0.7317127897188669  0.5071059507483968  0.3175397516501356
  0.9715048700821209  0.0976598779492917  0.3043416743550988
  0.1443096131677552  0.8414364691537336  0.8428636240361363
  0.8802163099839851  0.5610791885487284  0.8080955713785281
  0.7916563498935014  0.9858268464479925  0.6670905662380094
  0.1262613325861671  0.0908800281050387  0.2071487306348820
  0.1845681831878652  0.8196873294432211  0.3565464570693184
  0.2115351411850975  0.1815794414116636  0.0771770797598822
  0.3505639230638852  0.4392875135212642  0.4004052465331527
  0.2636910104974855  0.0303031284422856  0.5827801120086069
  0.5603645213362073  0.8051378673000550  0.3363480746566530
  0.2946128399429770  0.9308592121665573  0.9292767101578002
  0.9069589280783779  0.2537961932754076  0.4270861654682598
  0.8051792650042953  0.9179923661103605  0.4936896389587153
  0.1294672107592379  0.2160092825422517  0.7716985105296439
  0.5311044392726423  0.5857322447827040  0.8231842615103255
  0.0618616678209930  0.0615128878727466  0.6396015755852659
  0.5874272541243070  0.6420047016416232  0.4072976380669425
  0.0611932935396651  0.3765824053095740  0.4805729759458724
  0.5035302392075682  0.7834971095784958  0.1573859829894110
  0.7882941655006444  0.7959228897929347  0.6884541833670802
  0.0793355462229490  0.1495667420262169  0.4531458855113155
  0.9692668382003817  0.9229582747246486  0.7475023338609686
  0.3578862904566638  0.4326971638864593  0.8621743930263774
  0.8997808455196322  0.5115890016820971  0.0023691691998784
  0.4168623172755533  0.6000668784315150  0.2715915661826721
  0.5027402748417039  0.3606163511638890  0.5345454171784486
  0.2555190748816242  0.1155073896866719  0.8937853098722259
  0.6438899245275552  0.0962602995754763  0.0494561551706154
  0.2779742976931904  0.6789245082724359  0.8923007320356349
  0.5453722392387791  0.1439924375485415  0.9064801457781998
  0.0550735723891030  0.4569393241934550  0.9284542212172401
 
  0.00000000E+00  0.00000000E+00  0.00000000E+00
  0.00000000E+00  0.00000000E+00  0.00000000E+00
  0.00000000E+00  0.00000000E+00  0.00000000E+00
  0.00000000E+00  0.00000000E+00  0.00000000E+00
  0.00000000E+00  0.00000000E+00  0.00000000E+00
  0.00000000E+00  0.00000000E+00  0.00000000E+00
  0.00000000E+00  0.00000000E+00  0.00000000E+00
  0.00000000E+00  0.00000000E+00  0.00000000E+00
  0.00000000E+00  0.00000000E+00  0.00000000E+00
  0.00000000E+00  0.00000000E+00  0.00000000E+00
  0.00000000E+00  0.00000000E+00  0.00000000E+00
  0.00000000E+00  0.00000000E+00  0.00000000E+00
  0.00000000E+00  0.00000000E+00  0.00000000E+00
  0.00000000E+00  0.00000000E+00  0.00000000E+00
  0.00000000E+00  0.00000000E+00  0.00000000E+00
  0.00000000E+00  0.00000000E+00  0.00000000E+00
  0.00000000E+00  0.00000000E+00  0.00000000E+00
  0.00000000E+00  0.00000000E+00  0.00000000E+00
  0.00000000E+00  0.00000000E+00  0.00000000E+00
  0.00000000E+00  0.00000000E+00  0.00000000E+00
  0.00000000E+00  0.00000000E+00  0.00000000E+00
  0.00000000E+00  0.00000000E+00  0.00000000E+00
  0.00000000E+00  0.00000000E+00  0.00000000E+00
  0.00000000E+00  0.00000000E+00  0.00000000E+00
  0.00000000E+00  0.00000000E+00  0.00000000E+00
  0.00000000E+00  0.00000000E+00  0.00000000E+00
  0.00000000E+00  0.00000000E+00  0.00000000E+00
  0.00000000E+00  0.00000000E+00  0.00000000E+00
  0.00000000E+00  0.00000000E+00  0.00000000E+00
  0.00000000E+00  0.00000000E+00  0.00000000E+00
  0.00000000E+00  0.00000000E+00  0.00000000E+00
  0.00000000E+00  0.00000000E+00  0.00000000E+00
  0.00000000E+00  0.00000000E+00  0.00000000E+00
  0.00000000E+00  0.00000000E+00  0.00000000E+00
  0.00000000E+00  0.00000000E+00  0.00000000E+00
  0.00000000E+00  0.00000000E+00  0.00000000E+00
  0.00000000E+00  0.00000000E+00  0.00000000E+00
  0.00000000E+00  0.00000000E+00  0.00000000E+00
  0.00000000E+00  0.00000000E+00  0.00000000E+00
  0.00000000E+00  0.00000000E+00  0.00000000E+00
  0.00000000E+00  0.00000000E+00  0.00000000E+00
  0.00000000E+00  0.00000000E+00  0.00000000E+00
  0.00000000E+00  0.00000000E+00  0.00000000E+00
  0.00000000E+00  0.00000000E+00  0.00000000E+00
  0.00000000E+00  0.00000000E+00  0.00000000E+00
  0.00000000E+00  0.00000000E+00  0.00000000E+00
  0.00000000E+00  0.00000000E+00  0.00000000E+00
  0.00000000E+00  0.00000000E+00  0.00000000E+00
  0.00000000E+00  0.00000000E+00  0.00000000E+00
  0.00000000E+00  0.00000000E+00  0.00000000E+00
  0.00000000E+00  0.00000000E+00  0.00000000E+00
  0.00000000E+00  0.00000000E+00  0.00000000E+00
  0.00000000E+00  0.00000000E+00  0.00000000E+00
  0.00000000E+00  0.00000000E+00  0.00000000E+00
  0.00000000E+00  0.00000000E+00  0.00000000E+00
  0.00000000E+00  0.00000000E+00  0.00000000E+00
  0.00000000E+00  0.00000000E+00  0.00000000E+00
  0.00000000E+00  0.00000000E+00  0.00000000E+00
  0.00000000E+00  0.00000000E+00  0.00000000E+00
  0.00000000E+00  0.00000000E+00  0.00000000E+00
  0.00000000E+00  0.00000000E+00  0.00000000E+00
  0.00000000E+00  0.00000000E+00  0.00000000E+00
  0.00000000E+00  0.00000000E+00  0.00000000E+00
  0.00000000E+00  0.00000000E+00  0.00000000E+00
  0.00000000E+00  0.00000000E+00  0.00000000E+00
  0.00000000E+00  0.00000000E+00  0.00000000E+00
  0.00000000E+00  0.00000000E+00  0.00000000E+00
  0.00000000E+00  0.00000000E+00  0.00000000E+00
  0.00000000E+00  0.00000000E+00  0.00000000E+00
  0.00000000E+00  0.00000000E+00  0.00000000E+00
  0.00000000E+00  0.00000000E+00  0.00000000E+00
  0.00000000E+00  0.00000000E+00  0.00000000E+00
  0.00000000E+00  0.00000000E+00  0.00000000E+00
  0.00000000E+00  0.00000000E+00  0.00000000E+00
  0.00000000E+00  0.00000000E+00  0.00000000E+00
  0.00000000E+00  0.00000000E+00  0.00000000E+00
  0.00000000E+00  0.00000000E+00  0.00000000E+00
  0.00000000E+00  0.00000000E+00  0.00000000E+00
  0.00000000E+00  0.00000000E+00  0.00000000E+00
  0.00000000E+00  0.00000000E+00  0.00000000E+00
  0.00000000E+00  0.00000000E+00  0.00000000E+00
  0.00000000E+00  0.00000000E+00  0.00000000E+00
  0.00000000E+00  0.00000000E+00  0.00000000E+00
  0.00000000E+00  0.00000000E+00  0.00000000E+00
  0.00000000E+00  0.00000000E+00  0.00000000E+00
  0.00000000E+00  0.00000000E+00  0.00000000E+00
  0.00000000E+00  0.00000000E+00  0.00000000E+00
  0.00000000E+00  0.00000000E+00  0.00000000E+00
  0.00000000E+00  0.00000000E+00  0.00000000E+00
  0.00000000E+00  0.00000000E+00  0.00000000E+00
  0.00000000E+00  0.00000000E+00  0.00000000E+00
  0.00000000E+00  0.00000000E+00  0.00000000E+00
  0.00000000E+00  0.00000000E+00  0.00000000E+00
  0.00000000E+00  0.00000000E+00  0.00000000E+00
  0.00000000E+00  0.00000000E+00  0.00000000E+00
  0.00000000E+00  0.00000000E+00  0.00000000E+00
  0.00000000E+00  0.00000000E+00  0.00000000E+00
  0.00000000E+00  0.00000000E+00  0.00000000E+00
  0.00000000E+00  0.00000000E+00  0.00000000E+00
  0.00000000E+00  0.00000000E+00  0.00000000E+00
  0.00000000E+00  0.00000000E+00  0.00000000E+00
  0.00000000E+00  0.00000000E+00  0.00000000E+00
  0.00000000E+00  0.00000000E+00  0.00000000E+00
  0.00000000E+00  0.00000000E+00  0.00000000E+00
  0.00000000E+00  0.00000000E+00  0.00000000E+00
  0.00000000E+00  0.00000000E+00  0.00000000E+00
  0.00000000E+00  0.00000000E+00  0.00000000E+00
  0.00000000E+00  0.00000000E+00  0.00000000E+00
  0.00000000E+00  0.00000000E+00  0.00000000E+00
  0.00000000E+00  0.00000000E+00  0.00000000E+00
  0.00000000E+00  0.00000000E+00  0.00000000E+00
  0.00000000E+00  0.00000000E+00  0.00000000E+00
  0.00000000E+00  0.00000000E+00  0.00000000E+00
  0.00000000E+00  0.00000000E+00  0.00000000E+00
  0.00000000E+00  0.00000000E+00  0.00000000E+00
  0.00000000E+00  0.00000000E+00  0.00000000E+00
  0.00000000E+00  0.00000000E+00  0.00000000E+00
  0.00000000E+00  0.00000000E+00  0.00000000E+00
  0.00000000E+00  0.00000000E+00  0.00000000E+00
  0.00000000E+00  0.00000000E+00  0.00000000E+00
  0.00000000E+00  0.00000000E+00  0.00000000E+00
  0.00000000E+00  0.00000000E+00  0.00000000E+00
  0.00000000E+00  0.00000000E+00  0.00000000E+00
  0.00000000E+00  0.00000000E+00  0.00000000E+00
  0.00000000E+00  0.00000000E+00  0.00000000E+00
  0.00000000E+00  0.00000000E+00  0.00000000E+00
  0.00000000E+00  0.00000000E+00  0.00000000E+00
  0.00000000E+00  0.00000000E+00  0.00000000E+00
  0.00000000E+00  0.00000000E+00  0.00000000E+00
  0.00000000E+00  0.00000000E+00  0.00000000E+00
  0.00000000E+00  0.00000000E+00  0.00000000E+00
  0.00000000E+00  0.00000000E+00  0.00000000E+00
  0.00000000E+00  0.00000000E+00  0.00000000E+00
  0.00000000E+00  0.00000000E+00  0.00000000E+00
  0.00000000E+00  0.00000000E+00  0.00000000E+00
  0.00000000E+00  0.00000000E+00  0.00000000E+00
  0.00000000E+00  0.00000000E+00  0.00000000E+00
  0.00000000E+00  0.00000000E+00  0.00000000E+00
  0.00000000E+00  0.00000000E+00  0.00000000E+00
  0.00000000E+00  0.00000000E+00  0.00000000E+00
  0.00000000E+00  0.00000000E+00  0.00000000E+00
  0.00000000E+00  0.00000000E+00  0.00000000E+00
  0.00000000E+00  0.00000000E+00  0.00000000E+00
  0.00000000E+00  0.00000000E+00  0.00000000E+00
  0.00000000E+00  0.00000000E+00  0.00000000E+00
  0.00000000E+00  0.00000000E+00  0.00000000E+00
  0.00000000E+00  0.00000000E+00  0.00000000E+00
  0.00000000E+00  0.00000000E+00  0.00000000E+00
  0.00000000E+00  0.00000000E+00  0.00000000E+00
  0.00000000E+00  0.00000000E+00  0.00000000E+00
  0.00000000E+00  0.00000000E+00  0.00000000E+00
  0.00000000E+00  0.00000000E+00  0.00000000E+00
  0.00000000E+00  0.00000000E+00  0.00000000E+00
  0.00000000E+00  0.00000000E+00  0.00000000E+00
  0.00000000E+00  0.00000000E+00  0.00000000E+00
  0.00000000E+00  0.00000000E+00  0.00000000E+00
  0.00000000E+00  0.00000000E+00  0.00000000E+00
  0.00000000E+00  0.00000000E+00  0.00000000E+00
  0.00000000E+00  0.00000000E+00  0.00000000E+00
  0.00000000E+00  0.00000000E+00  0.00000000E+00
  0.00000000E+00  0.00000000E+00  0.00000000E+00
  0.00000000E+00  0.00000000E+00  0.00000000E+00
  0.00000000E+00  0.00000000E+00  0.00000000E+00
  0.00000000E+00  0.00000000E+00  0.00000000E+00
  0.00000000E+00  0.00000000E+00  0.00000000E+00
  0.00000000E+00  0.00000000E+00  0.00000000E+00
  0.00000000E+00  0.00000000E+00  0.00000000E+00
  0.00000000E+00  0.00000000E+00  0.00000000E+00
  0.00000000E+00  0.00000000E+00  0.00000000E+00
  0.00000000E+00  0.00000000E+00  0.00000000E+00
  0.00000000E+00  0.00000000E+00  0.00000000E+00
  0.00000000E+00  0.00000000E+00  0.00000000E+00
  0.00000000E+00  0.00000000E+00  0.00000000E+00
  0.00000000E+00  0.00000000E+00  0.00000000E+00
  0.00000000E+00  0.00000000E+00  0.00000000E+00
  0.00000000E+00  0.00000000E+00  0.00000000E+00
  0.00000000E+00  0.00000000E+00  0.00000000E+00
  0.00000000E+00  0.00000000E+00  0.00000000E+00
  0.00000000E+00  0.00000000E+00  0.00000000E+00
  0.00000000E+00  0.00000000E+00  0.00000000E+00
  0.00000000E+00  0.00000000E+00  0.00000000E+00
  0.00000000E+00  0.00000000E+00  0.00000000E+00
  0.00000000E+00  0.00000000E+00  0.00000000E+00
  0.00000000E+00  0.00000000E+00  0.00000000E+00
  0.00000000E+00  0.00000000E+00  0.00000000E+00
  0.00000000E+00  0.00000000E+00  0.00000000E+00
  0.00000000E+00  0.00000000E+00  0.00000000E+00
  0.00000000E+00  0.00000000E+00  0.00000000E+00
  0.00000000E+00  0.00000000E+00  0.00000000E+00
  0.00000000E+00  0.00000000E+00  0.00000000E+00
  0.00000000E+00  0.00000000E+00  0.00000000E+00
  0.00000000E+00  0.00000000E+00  0.00000000E+00
  0.00000000E+00  0.00000000E+00  0.00000000E+00
  0.00000000E+00  0.00000000E+00  0.00000000E+00
  0.00000000E+00  0.00000000E+00  0.00000000E+00
  0.00000000E+00  0.00000000E+00  0.00000000E+00
  0.00000000E+00  0.00000000E+00  0.00000000E+00
  0.00000000E+00  0.00000000E+00  0.00000000E+00
  0.00000000E+00  0.00000000E+00  0.00000000E+00
  0.00000000E+00  0.00000000E+00  0.00000000E+00
  0.00000000E+00  0.00000000E+00  0.00000000E+00
  0.00000000E+00  0.00000000E+00  0.00000000E+00
  0.00000000E+00  0.00000000E+00  0.00000000E+00
  0.00000000E+00  0.00000000E+00  0.00000000E+00
  0.00000000E+00  0.00000000E+00  0.00000000E+00
  0.00000000E+00  0.00000000E+00  0.00000000E+00
  0.00000000E+00  0.00000000E+00  0.00000000E+00
  0.00000000E+00  0.00000000E+00  0.00000000E+00
  0.00000000E+00  0.00000000E+00  0.00000000E+00
  0.00000000E+00  0.00000000E+00  0.00000000E+00
  0.00000000E+00  0.00000000E+00  0.00000000E+00
  0.00000000E+00  0.00000000E+00  0.00000000E+00
  0.00000000E+00  0.00000000E+00  0.00000000E+00
  0.00000000E+00  0.00000000E+00  0.00000000E+00
  0.00000000E+00  0.00000000E+00  0.00000000E+00
  0.00000000E+00  0.00000000E+00  0.00000000E+00
  0.00000000E+00  0.00000000E+00  0.00000000E+00
  0.00000000E+00  0.00000000E+00  0.00000000E+00
  0.00000000E+00  0.00000000E+00  0.00000000E+00
  0.00000000E+00  0.00000000E+00  0.00000000E+00
  0.00000000E+00  0.00000000E+00  0.00000000E+00
  0.00000000E+00  0.00000000E+00  0.00000000E+00
  0.00000000E+00  0.00000000E+00  0.00000000E+00
  0.00000000E+00  0.00000000E+00  0.00000000E+00
  0.00000000E+00  0.00000000E+00  0.00000000E+00
  0.00000000E+00  0.00000000E+00  0.00000000E+00
  0.00000000E+00  0.00000000E+00  0.00000000E+00
  0.00000000E+00  0.00000000E+00  0.00000000E+00
  0.00000000E+00  0.00000000E+00  0.00000000E+00
  0.00000000E+00  0.00000000E+00  0.00000000E+00
  0.00000000E+00  0.00000000E+00  0.00000000E+00
  0.00000000E+00  0.00000000E+00  0.00000000E+00