I4 Pb, 2(C8 H12 N)                      
   1.00000000000000     
     8.8279000304999986    0.0000000000000000    0.0000000000000000
     0.0000000000000000    9.2085007405999999    0.0000000000000000
     0.0000000000000000    0.0000000000000000   28.6383000016000011
   C    H    N    Pb   I 
    64    96     8     4    16
Direct
  0.8914275596923021  0.4254950643923244  0.1707736245907522
  0.6085724403076979  0.5745049356076747  0.6707736545907537
  0.1085724403076977  0.9254950643923253  0.3292263754092471
  0.3914275596923021  0.0745049356076751  0.8292263454092463
  0.7918275094007784  0.3363010326586069  0.1957770961988601
  0.7081724905992216  0.6636989373413912  0.6957770961988591
  0.2081724905992219  0.8363010626586088  0.3042229038011404
  0.2918275094007778  0.1636989673413935  0.8042229038011409
  0.8139199988124042  0.3106975725949589  0.2433079525538170
  0.6860800011875958  0.6893024274050403  0.7433079375538194
  0.1860800011875959  0.8106975725949597  0.2566920624461806
  0.3139199988124038  0.1893024274050414  0.7566920624461806
  0.9364129732491109  0.3733047488479928  0.2664679663747388
  0.5635870267508891  0.6266952511520064  0.7664679663747396
  0.0635870267508888  0.8733047488479936  0.2335320336252609
  0.4364129732491105  0.1266952511520070  0.7335320336252604
  0.0372238605089832  0.4612233397671615  0.2417800062822755
  0.4627761394910169  0.5387766602328371  0.7417800212822736
  0.9627761394910174  0.9612233397671629  0.2582199787177264
  0.5372238605089826  0.0387766602328385  0.7582199787177264
  0.0151429555383251  0.4871095809251969  0.1942662866484090
  0.4848570444616744  0.5128904490748053  0.6942663166484050
  0.9848570444616752  0.9871095509251947  0.3057337133515906
  0.5151429555383248  0.0128904190748032  0.8057336833515950
  0.8583270512257279  0.4620366660595481  0.1202461402948593
  0.6416729487742721  0.5379633629404509  0.6202461102948629
  0.1416729487742729  0.9620366370595491  0.3797538597051405
  0.3583270512257268  0.0379633339404514  0.8797538897051371
  0.8401455113491926  0.6239850063840515  0.1112812420795810
  0.6598544886508074  0.3760149936159471  0.6112812420795809
  0.1598544886508066  0.1239850063840598  0.3887187579204194
  0.3401455113491929  0.8760149936159485  0.8887187579204191
  0.4450769522366613  0.0251414556043589  0.1684467704242285
  0.0549230477633390  0.9748585453956451  0.6684467704242281
  0.5549230777633418  0.5251414546043549  0.3315532295757721
  0.9450769222366582  0.4748585453956445  0.8315532295757719
  0.3299982013935862  0.1199583982213318  0.1829601339367043
  0.1700017986064138  0.8800416317786705  0.6829601339367040
  0.6700017986064134  0.6199583682213295  0.3170398660632958
  0.8299982013935866  0.3800416017786680  0.8170398660632960
  0.3209549030834944  0.1644422070556465  0.2293818731822014
  0.1790450969165054  0.8355578079443524  0.7293818731822017
  0.6790450969165054  0.6644421920556476  0.2706181268177988
  0.8209549030834946  0.3355578079443506  0.7706181268177983
  0.4257441556398809  0.1134721119433626  0.2619920845594264
  0.0742558443601188  0.8865279100566384  0.7619921145594301
  0.5742558153601199  0.6134720899433616  0.2380079154405736
  0.9257441846398801  0.3865278800566368  0.7380078854405699
  0.5408494250861049  0.0196906454623374  0.2479275941478307
  0.9591505749138951  0.9803093545376628  0.7479275791478339
  0.4591505749138949  0.5196906454623372  0.2520724208521668
  0.0408494250861049  0.4803093545376627  0.7520724208521661
  0.5512786542303910  0.9771114297630805  0.2012650491959359
  0.9487213457696090  0.0228885512369211  0.7012650781959427
  0.4487213457696086  0.4771114597630834  0.2987349508040647
  0.0512786542303912  0.5228885702369195  0.7987349218040573
  0.4503330921950807  0.9674092921189018  0.1190500429853968
  0.0496669078049191  0.0325906968811003  0.6190500209853951
  0.5496668778049166  0.4674092921189025  0.3809499490146097
  0.9503331221950834  0.5325907078810982  0.8809499790146049
  0.3044260971268136  0.8944229111636053  0.1036356249095023
  0.1955739028731866  0.1055771028363952  0.6036356249095028
  0.6955739028731850  0.3944229111636059  0.3963643750904979
  0.8044260971268150  0.6055770888363947  0.8963643750904972
  0.6940266962016639  0.2887668038058264  0.1781024175522517
  0.8059733037983361  0.7112332261941688  0.6781024325522567
  0.3059733037983359  0.7887667738058312  0.3218975674477439
  0.1940266962016642  0.2112331961941732  0.8218975674477433
  0.7325913269737455  0.2439501430761497  0.2622791553784564
  0.7674086730262545  0.7560498569238503  0.7622791843784552
  0.2674086730262532  0.7439501430761497  0.2377208446215364
  0.2325913269737462  0.2560498569238503  0.7377208156215448
  0.9527975388019968  0.3558487556711847  0.3038375561756047
  0.5472024611980032  0.6441512443288148  0.8038375261756026
  0.0472024611980034  0.8558487556711852  0.1961624438243955
  0.4527975388019957  0.1441512443288152  0.6961624738243974
  0.1313773881238086  0.5128991161348387  0.2599554892232578
  0.3686226118761913  0.4871008838651623  0.7599554892232584
  0.8686226118761916  0.0128991161348381  0.2400445107767414
  0.6313773881238084  0.9871008838651613  0.7400445107767416
  0.0941789649994639  0.5576706789227130  0.1755624315991193
  0.4058210350005356  0.4423293210772867  0.6755624165991074
  0.9058210350005291  0.0576706789227135  0.3244375834008853
  0.5941789649994709  0.9423293210772870  0.8244375834008926
  0.7541097544660259  0.4058660142329928  0.1093265599719404
  0.7458902455339741  0.5941339857670090  0.6093265449719427
  0.2458902455339727  0.9058660142329910  0.3906734550280572
  0.2541097544660273  0.0941339857670077  0.8906734550280573
  0.8071387892793599  0.6455269923370658  0.0749126179336044
  0.6928612107206401  0.3544730076629345  0.5749126249336014
  0.1928612107206392  0.1455269923370655  0.4250873750663985
  0.3071387892793603  0.8544730076629342  0.9250873750663986
  0.9446468698984415  0.6845436394432209  0.1186541758696717
  0.5553531301015585  0.3154563605567786  0.6186541908696702
  0.0553531301015589  0.1845436394432215  0.3813458091303300
  0.4446468698984414  0.8154563605567791  0.8813458091303298
  0.7502342872125816  0.6664946744006065  0.1339517226127844
  0.7497657127874184  0.3335053255993932  0.6339516926127886
  0.2497657127874185  0.1664946744006076  0.3660482773872154
  0.2502342872125812  0.8335053255993935  0.8660483073872114
  0.2446129057194656  0.1575194408774635  0.1581199882491330
  0.2553870942805351  0.8424805441225386  0.6581199582491234
  0.7553870642805391  0.6575194558774614  0.3418800117508671
  0.7446129357194609  0.3424805441225388  0.8418800417508766
  0.2290535583839813  0.2361344614451791  0.2401775892428382
  0.2709464416160183  0.7638655675548185  0.7401775892428385
  0.7709464416160186  0.7361344324451815  0.2598224107571618
  0.7290535583839814  0.2638655385548206  0.7598224107571615
  0.4173098939230645  0.1450676292361123  0.2986089125142168
  0.0826901060769355  0.8549323557638899  0.7986089125142188
  0.5826901060769278  0.6450676442361101  0.2013910874857831
  0.9173098939230722  0.3549323557638895  0.7013910874857812
  0.6209891627237935  0.9775593855516523  0.2735733256777458
  0.8790108372762065  0.0224406444483490  0.7735733256777468
  0.3790108372762068  0.4775593555516505  0.2264266743222537
  0.1209891627237932  0.5224406144483477  0.7264266743222532
  0.6418817481252843  0.9042038293426439  0.1900597068304760
  0.8581182518747157  0.0957961776573597  0.6900596918304784
  0.3581182518747157  0.4042038293426379  0.3099403081695218
  0.1418817481252843  0.5957961706573561  0.8099403081695216
  0.5450435063296896  0.8902549034342155  0.1158678691932191
  0.9549564936703104  0.1097451195657823  0.6158678841932174
  0.4549564936703114  0.3902548734342206  0.3841321158067831
  0.0450435063296885  0.6097450965657845  0.8841321158067826
  0.3146289121422739  0.8506510353423983  0.0680764053134406
  0.1853710878577263  0.1493489496576043  0.5680763903134427
  0.6853711178577294  0.3506510353423975  0.4319236096865567
  0.8146288821422706  0.6493489646576017  0.9319236096865573
  0.2075032945902842  0.9691419906158992  0.1044484884126884
  0.2924966904097175  0.0308579813840996  0.6044485114126867
  0.7924966904097169  0.4691420206159007  0.3955515185873087
  0.7075033095902831  0.5308580093841008  0.8955514885873133
  0.2803588059636635  0.8027669756327782  0.1270010862120839
  0.2196411940363367  0.1972330243672221  0.6270011082120857
  0.7196411640363339  0.3027669756327778  0.3729989217879169
  0.7803588359636661  0.6972330243672218  0.8729988917879143
  0.9682594979273069  0.4415220570606607  0.0547763517759131
  0.5317405020726931  0.5584779129393367  0.5547763667759180
  0.0317405020726862  0.9415220870606633  0.4452236332240818
  0.4682594979273137  0.0584779429393393  0.9452236332240820
  0.9731882397152155  0.2884961114674068  0.0872417198581592
  0.5268117602847845  0.7115038585325909  0.5872417348581637
  0.0268117602847841  0.7884961414674091  0.4127582651418362
  0.4731882397152161  0.2115038885325923  0.9127582651418363
  0.0898844123841646  0.4309289990351958  0.0985968657190573
  0.4101155876158351  0.5690710009648052  0.5985968507190522
  0.9101155876158359  0.9309289990351948  0.4014031492809475
  0.5898844123841641  0.0690710009648044  0.9014031492809478
  0.6038407990620090  0.1167315356378745  0.0896176072464911
  0.8961592009379910  0.8832684643621249  0.5896175922464931
  0.3961592009379907  0.6167315356378751  0.4103824077535067
  0.1038407990620092  0.3832684643621253  0.9103824077535069
  0.4237996015192393  0.1792717096436586  0.0876373437494082
  0.0762003984807607  0.8207282753563372  0.5876373297494136
  0.5762003984807611  0.6792717246436628  0.4123626702505935
  0.9237996015192389  0.3207282753563366  0.9123626702505864
  0.4863371741139474  0.0462753928313405  0.0510363762778909
  0.0136628258860525  0.9537245841686607  0.5510363542778893
  0.5136628558860555  0.5462754158313393  0.4489636157221155
  0.9863371441139445  0.4537246141686567  0.9489636457221107
  0.9798831773597643  0.4021699293374621  0.0885912282887526
  0.5201168226402357  0.5978300706625382  0.5885912132887539
  0.0201168226402359  0.9021699293374618  0.4114087867112450
  0.4798831773597640  0.0978300706625381  0.9114087867112461
  0.4907645982347676  0.0865012158181567  0.0850570373058204
  0.0092354017652323  0.9134988061818384  0.5850570373058205
  0.5092354017652322  0.5865011938181616  0.4149429626941794
  0.9907645982347678  0.4134987761818426  0.9149429626941795
  0.8866694984698318  0.0172151433838621  0.9979118314518747
  0.6133305015301682  0.9827848566161387  0.4979118314518812
  0.1133305015301679  0.5172151433838613  0.5020881685481253
  0.3866694984698325  0.4827848566161375  0.0020881605481180
  0.8836927090599250  0.0292781960825124  0.0908013826344938
  0.6163072909400750  0.9707218039174880  0.5908013746344934
  0.1163072909400756  0.5292781960825120  0.4091986253655067
  0.3836927090599244  0.4707218039174875  0.9091986253655066
  0.1467149177065032  0.1623516617788466  0.9983195914891896
  0.3532850822934969  0.8376483382211535  0.4983196054891857
  0.8532850822934965  0.6623516617788465  0.5016803945108164
  0.6467149177065035  0.3376483382211534  0.0016803945108153
  0.1358327824604514  0.6453048734302185  0.0016713680266638
  0.3641672175395487  0.3546951265697814  0.5016713780266655
  0.8641672175395482  0.1453048734302188  0.4983286219733353
  0.6358327824604518  0.8546951265697815  0.9983286219733345
  0.8830317524894213  0.0293416480875348  0.9048617552492622
  0.6169682475105787  0.9706583519124664  0.4048617252492606
  0.1169682475105781  0.5293416480875336  0.5951382447507378
  0.3830317524894220  0.4706583519124647  0.0951382667507387
 
  0.00000000E+00  0.00000000E+00  0.00000000E+00
  0.00000000E+00  0.00000000E+00  0.00000000E+00
  0.00000000E+00  0.00000000E+00  0.00000000E+00
  0.00000000E+00  0.00000000E+00  0.00000000E+00
  0.00000000E+00  0.00000000E+00  0.00000000E+00
  0.00000000E+00  0.00000000E+00  0.00000000E+00
  0.00000000E+00  0.00000000E+00  0.00000000E+00
  0.00000000E+00  0.00000000E+00  0.00000000E+00
  0.00000000E+00  0.00000000E+00  0.00000000E+00
  0.00000000E+00  0.00000000E+00  0.00000000E+00
  0.00000000E+00  0.00000000E+00  0.00000000E+00
  0.00000000E+00  0.00000000E+00  0.00000000E+00
  0.00000000E+00  0.00000000E+00  0.00000000E+00
  0.00000000E+00  0.00000000E+00  0.00000000E+00
  0.00000000E+00  0.00000000E+00  0.00000000E+00
  0.00000000E+00  0.00000000E+00  0.00000000E+00
  0.00000000E+00  0.00000000E+00  0.00000000E+00
  0.00000000E+00  0.00000000E+00  0.00000000E+00
  0.00000000E+00  0.00000000E+00  0.00000000E+00
  0.00000000E+00  0.00000000E+00  0.00000000E+00
  0.00000000E+00  0.00000000E+00  0.00000000E+00
  0.00000000E+00  0.00000000E+00  0.00000000E+00
  0.00000000E+00  0.00000000E+00  0.00000000E+00
  0.00000000E+00  0.00000000E+00  0.00000000E+00
  0.00000000E+00  0.00000000E+00  0.00000000E+00
  0.00000000E+00  0.00000000E+00  0.00000000E+00
  0.00000000E+00  0.00000000E+00  0.00000000E+00
  0.00000000E+00  0.00000000E+00  0.00000000E+00
  0.00000000E+00  0.00000000E+00  0.00000000E+00
  0.00000000E+00  0.00000000E+00  0.00000000E+00
  0.00000000E+00  0.00000000E+00  0.00000000E+00
  0.00000000E+00  0.00000000E+00  0.00000000E+00
  0.00000000E+00  0.00000000E+00  0.00000000E+00
  0.00000000E+00  0.00000000E+00  0.00000000E+00
  0.00000000E+00  0.00000000E+00  0.00000000E+00
  0.00000000E+00  0.00000000E+00  0.00000000E+00
  0.00000000E+00  0.00000000E+00  0.00000000E+00
  0.00000000E+00  0.00000000E+00  0.00000000E+00
  0.00000000E+00  0.00000000E+00  0.00000000E+00
  0.00000000E+00  0.00000000E+00  0.00000000E+00
  0.00000000E+00  0.00000000E+00  0.00000000E+00
  0.00000000E+00  0.00000000E+00  0.00000000E+00
  0.00000000E+00  0.00000000E+00  0.00000000E+00
  0.00000000E+00  0.00000000E+00  0.00000000E+00
  0.00000000E+00  0.00000000E+00  0.00000000E+00
  0.00000000E+00  0.00000000E+00  0.00000000E+00
  0.00000000E+00  0.00000000E+00  0.00000000E+00
  0.00000000E+00  0.00000000E+00  0.00000000E+00
  0.00000000E+00  0.00000000E+00  0.00000000E+00
  0.00000000E+00  0.00000000E+00  0.00000000E+00
  0.00000000E+00  0.00000000E+00  0.00000000E+00
  0.00000000E+00  0.00000000E+00  0.00000000E+00
  0.00000000E+00  0.00000000E+00  0.00000000E+00
  0.00000000E+00  0.00000000E+00  0.00000000E+00
  0.00000000E+00  0.00000000E+00  0.00000000E+00
  0.00000000E+00  0.00000000E+00  0.00000000E+00
  0.00000000E+00  0.00000000E+00  0.00000000E+00
  0.00000000E+00  0.00000000E+00  0.00000000E+00
  0.00000000E+00  0.00000000E+00  0.00000000E+00
  0.00000000E+00  0.00000000E+00  0.00000000E+00
  0.00000000E+00  0.00000000E+00  0.00000000E+00
  0.00000000E+00  0.00000000E+00  0.00000000E+00
  0.00000000E+00  0.00000000E+00  0.00000000E+00
  0.00000000E+00  0.00000000E+00  0.00000000E+00
  0.00000000E+00  0.00000000E+00  0.00000000E+00
  0.00000000E+00  0.00000000E+00  0.00000000E+00
  0.00000000E+00  0.00000000E+00  0.00000000E+00
  0.00000000E+00  0.00000000E+00  0.00000000E+00
  0.00000000E+00  0.00000000E+00  0.00000000E+00
  0.00000000E+00  0.00000000E+00  0.00000000E+00
  0.00000000E+00  0.00000000E+00  0.00000000E+00
  0.00000000E+00  0.00000000E+00  0.00000000E+00
  0.00000000E+00  0.00000000E+00  0.00000000E+00
  0.00000000E+00  0.00000000E+00  0.00000000E+00
  0.00000000E+00  0.00000000E+00  0.00000000E+00
  0.00000000E+00  0.00000000E+00  0.00000000E+00
  0.00000000E+00  0.00000000E+00  0.00000000E+00
  0.00000000E+00  0.00000000E+00  0.00000000E+00
  0.00000000E+00  0.00000000E+00  0.00000000E+00
  0.00000000E+00  0.00000000E+00  0.00000000E+00
  0.00000000E+00  0.00000000E+00  0.00000000E+00
  0.00000000E+00  0.00000000E+00  0.00000000E+00
  0.00000000E+00  0.00000000E+00  0.00000000E+00
  0.00000000E+00  0.00000000E+00  0.00000000E+00
  0.00000000E+00  0.00000000E+00  0.00000000E+00
  0.00000000E+00  0.00000000E+00  0.00000000E+00
  0.00000000E+00  0.00000000E+00  0.00000000E+00
  0.00000000E+00  0.00000000E+00  0.00000000E+00
  0.00000000E+00  0.00000000E+00  0.00000000E+00
  0.00000000E+00  0.00000000E+00  0.00000000E+00
  0.00000000E+00  0.00000000E+00  0.00000000E+00
  0.00000000E+00  0.00000000E+00  0.00000000E+00
  0.00000000E+00  0.00000000E+00  0.00000000E+00
  0.00000000E+00  0.00000000E+00  0.00000000E+00
  0.00000000E+00  0.00000000E+00  0.00000000E+00
  0.00000000E+00  0.00000000E+00  0.00000000E+00
  0.00000000E+00  0.00000000E+00  0.00000000E+00
  0.00000000E+00  0.00000000E+00  0.00000000E+00
  0.00000000E+00  0.00000000E+00  0.00000000E+00
  0.00000000E+00  0.00000000E+00  0.00000000E+00
  0.00000000E+00  0.00000000E+00  0.00000000E+00
  0.00000000E+00  0.00000000E+00  0.00000000E+00
  0.00000000E+00  0.00000000E+00  0.00000000E+00
  0.00000000E+00  0.00000000E+00  0.00000000E+00
  0.00000000E+00  0.00000000E+00  0.00000000E+00
  0.00000000E+00  0.00000000E+00  0.00000000E+00
  0.00000000E+00  0.00000000E+00  0.00000000E+00
  0.00000000E+00  0.00000000E+00  0.00000000E+00
  0.00000000E+00  0.00000000E+00  0.00000000E+00
  0.00000000E+00  0.00000000E+00  0.00000000E+00
  0.00000000E+00  0.00000000E+00  0.00000000E+00
  0.00000000E+00  0.00000000E+00  0.00000000E+00
  0.00000000E+00  0.00000000E+00  0.00000000E+00
  0.00000000E+00  0.00000000E+00  0.00000000E+00
  0.00000000E+00  0.00000000E+00  0.00000000E+00
  0.00000000E+00  0.00000000E+00  0.00000000E+00
  0.00000000E+00  0.00000000E+00  0.00000000E+00
  0.00000000E+00  0.00000000E+00  0.00000000E+00
  0.00000000E+00  0.00000000E+00  0.00000000E+00
  0.00000000E+00  0.00000000E+00  0.00000000E+00
  0.00000000E+00  0.00000000E+00  0.00000000E+00
  0.00000000E+00  0.00000000E+00  0.00000000E+00
  0.00000000E+00  0.00000000E+00  0.00000000E+00
  0.00000000E+00  0.00000000E+00  0.00000000E+00
  0.00000000E+00  0.00000000E+00  0.00000000E+00
  0.00000000E+00  0.00000000E+00  0.00000000E+00
  0.00000000E+00  0.00000000E+00  0.00000000E+00
  0.00000000E+00  0.00000000E+00  0.00000000E+00
  0.00000000E+00  0.00000000E+00  0.00000000E+00
  0.00000000E+00  0.00000000E+00  0.00000000E+00
  0.00000000E+00  0.00000000E+00  0.00000000E+00
  0.00000000E+00  0.00000000E+00  0.00000000E+00
  0.00000000E+00  0.00000000E+00  0.00000000E+00
  0.00000000E+00  0.00000000E+00  0.00000000E+00
  0.00000000E+00  0.00000000E+00  0.00000000E+00
  0.00000000E+00  0.00000000E+00  0.00000000E+00
  0.00000000E+00  0.00000000E+00  0.00000000E+00
  0.00000000E+00  0.00000000E+00  0.00000000E+00
  0.00000000E+00  0.00000000E+00  0.00000000E+00
  0.00000000E+00  0.00000000E+00  0.00000000E+00
  0.00000000E+00  0.00000000E+00  0.00000000E+00
  0.00000000E+00  0.00000000E+00  0.00000000E+00
  0.00000000E+00  0.00000000E+00  0.00000000E+00
  0.00000000E+00  0.00000000E+00  0.00000000E+00
  0.00000000E+00  0.00000000E+00  0.00000000E+00
  0.00000000E+00  0.00000000E+00  0.00000000E+00
  0.00000000E+00  0.00000000E+00  0.00000000E+00
  0.00000000E+00  0.00000000E+00  0.00000000E+00
  0.00000000E+00  0.00000000E+00  0.00000000E+00
  0.00000000E+00  0.00000000E+00  0.00000000E+00
  0.00000000E+00  0.00000000E+00  0.00000000E+00
  0.00000000E+00  0.00000000E+00  0.00000000E+00
  0.00000000E+00  0.00000000E+00  0.00000000E+00
  0.00000000E+00  0.00000000E+00  0.00000000E+00
  0.00000000E+00  0.00000000E+00  0.00000000E+00
  0.00000000E+00  0.00000000E+00  0.00000000E+00
  0.00000000E+00  0.00000000E+00  0.00000000E+00
  0.00000000E+00  0.00000000E+00  0.00000000E+00
  0.00000000E+00  0.00000000E+00  0.00000000E+00
  0.00000000E+00  0.00000000E+00  0.00000000E+00
  0.00000000E+00  0.00000000E+00  0.00000000E+00
  0.00000000E+00  0.00000000E+00  0.00000000E+00
  0.00000000E+00  0.00000000E+00  0.00000000E+00
  0.00000000E+00  0.00000000E+00  0.00000000E+00
  0.00000000E+00  0.00000000E+00  0.00000000E+00
  0.00000000E+00  0.00000000E+00  0.00000000E+00
  0.00000000E+00  0.00000000E+00  0.00000000E+00
  0.00000000E+00  0.00000000E+00  0.00000000E+00
  0.00000000E+00  0.00000000E+00  0.00000000E+00
  0.00000000E+00  0.00000000E+00  0.00000000E+00
  0.00000000E+00  0.00000000E+00  0.00000000E+00
  0.00000000E+00  0.00000000E+00  0.00000000E+00
  0.00000000E+00  0.00000000E+00  0.00000000E+00
  0.00000000E+00  0.00000000E+00  0.00000000E+00
  0.00000000E+00  0.00000000E+00  0.00000000E+00
  0.00000000E+00  0.00000000E+00  0.00000000E+00
  0.00000000E+00  0.00000000E+00  0.00000000E+00
  0.00000000E+00  0.00000000E+00  0.00000000E+00
  0.00000000E+00  0.00000000E+00  0.00000000E+00
  0.00000000E+00  0.00000000E+00  0.00000000E+00
  0.00000000E+00  0.00000000E+00  0.00000000E+00
  0.00000000E+00  0.00000000E+00  0.00000000E+00
  0.00000000E+00  0.00000000E+00  0.00000000E+00
  0.00000000E+00  0.00000000E+00  0.00000000E+00
  0.00000000E+00  0.00000000E+00  0.00000000E+00
  0.00000000E+00  0.00000000E+00  0.00000000E+00
  0.00000000E+00  0.00000000E+00  0.00000000E+00
  0.00000000E+00  0.00000000E+00  0.00000000E+00
