Amorphous Sb                            
   1.00000000000000     
    18.8218727037387410    0.0000000000000000    0.0000000000000000
     0.0000000000000000   18.8218727037387410    0.0000000000000000
     0.0000000000000000    0.0000000000000000   18.8218727037387410
   Si   Se
   150   150
Direct
  0.0669456662407097  0.2029484845466816  0.9821125579419157
  0.0912686750039505  0.5763774289215288  0.7934945984204800
  0.0386364469236943  0.3738205870281316  0.5028071757078405
  0.9440167311910950  0.1735061913063375  0.9872774481990968
  0.0543795374135072  0.9398957298433074  0.5505067796765724
  0.3091078039184181  0.8914637510239788  0.5767862246701791
  0.6153341745477947  0.1724458170148201  0.8584166889578833
  0.2371841701593906  0.7251590564118855  0.2920187580828717
  0.5878602379483675  0.3653392691943722  0.3497392484489683
  0.4943127596426002  0.5167995368486379  0.8069795465171604
  0.1456648819349577  0.2210573826512119  0.5216540011328857
  0.8865284557703709  0.5578733610189391  0.4925778383586960
  0.2764088244076938  0.6816756688497477  0.1842379676028961
  0.5859928791740739  0.7318282794654443 -0.0017891370606829
  0.7294396247203919  0.0946619151644838  0.2162110726796750
  0.6499557875386883  0.6543964511181156  0.5209606971223789
  0.5258404399350770  0.5326636866405425  0.6064654256723940
  0.8582346879540641  0.0887591022593720  0.0332730384928382
  0.3008584561078328  0.7770280394763810  0.7390288556046886
  0.6903312751760416  0.6669466638272190  0.9677748103362334
  0.8502988414456661  0.5595114783246979  0.9218922441373278
  0.3040732185264013  0.3161427277056525  0.3609675512081498
  0.4246597192534315  0.3300953436023144  0.3129263536038164
  0.8084202795279706  0.4474884341218101  0.3409652320457164
  0.9713616278102016  0.3465974682187243  0.4005247979325868
  0.6102712183593249  0.2078787703396948  0.4916053600306118
  0.8030351801812901  0.1951082050712726  0.0648216519894552
  0.4195309476749081  0.5115286177512164  0.0351874949389586
  0.0995755465711208  0.2859706255661202  0.0716338234099666
  0.1400446691546754  0.4222753724826007  0.3416452258947338
  0.4257024478926364  0.7772872238353030  0.2575263235605197
  0.6219243096471736  0.6147443326087302  0.4078590240126639
  0.6766735274853883  0.1702034161055205  0.3014885199707372
  0.9746666345676873  0.7923705336000845  0.4170910623461152
  0.8702621331430603  0.9084073896632594  0.0892278776735408
  0.0397372710064696  0.1163713146485441  0.8107948200513654
  0.8149677399284615  0.7000603064745198  0.7858018657284976
  0.3526497252942304  0.7163626801350592  0.3407278679908374
  0.1924218449618199  0.5220985609292000  0.3953610380963886
  0.8899086874878450  0.3079766640400927  0.6944235227698431
  0.6923847166258640  0.9036865722998295  0.1102525957701933
  0.6600177525364344  0.0436804155017249  0.0054183185981961
  0.2890370556874357  0.3791903757848981  0.4703825655652311
  0.2597141238400169  0.0759284035699649  0.5865888552385619
  0.1218554351172340  0.3996610636932347  0.0297756045829120
  0.9559073947716991  0.7937664334799832  0.9618159767765340
  0.6172190717663897  0.8451895845281762  0.4996287960900012
  0.0068032465963340  0.4688331141921315  0.5815715449026252
  0.6726388357354343  0.5483527311313783  0.0025647397338266
  0.6042685582989530  0.8500680074834353  0.0416884568718940
  0.8089166069401935  0.6062555096567928  0.6374622835104701
  0.5871163061264222  0.9490550044377887  0.9647667454687014
  0.9807376203959595  0.1362010927768105  0.2738693017779287
  0.2144651530004173  0.0607548696065520  0.9557739622873709
  0.6868655040033111  0.4420534587679300  0.3072008808977419
  0.0048568098732569  0.6084181877665122  0.3632117157275145
  0.8537000190934854  0.7236700260973356  0.9362649578485975
  0.4673197164078720  0.3232922162992531  0.1159255268960948
  0.8298686046728164  0.9355374980103919  0.3990493645846954
  0.3215981163541327  0.5856707771895832  0.9045539286963549
  0.9273199743732560  0.7606618023785624  0.3015745294891524
  0.0562044144597215  0.8885836239099011  0.4188920359485855
  0.3290894115394294  0.8554665959978537  0.4548514836680896
  0.6326618064092034  0.0390572886163644  0.6994730199279264
  0.5361835261237150  0.7250732152832684  0.7897157181657807
  0.9628257037838385  0.2181935409360214  0.5401887039591795
  0.7506331153689259  0.3489695164621157  0.8147270639041512
  0.6988946973889882  0.2599802589216156  0.8860080797718645
  0.7048430664352385  0.9384905487375736  0.7316992155566099
  0.4334965723299047  0.2176415785637236  0.9098949889033040
  0.6194752678995648  0.1189553060994980  0.4023701141691581
  0.8920377331804156  0.8758163585890825  0.7848052715968030
  0.0417438965271747  0.7873570256965294  0.1352225470799906
  0.7022956268049637  0.4221729305093372  0.9057585257841535
  0.9916159625840923  0.3666684240869705  0.6520316522415922
  0.6728084561102375  0.2595768552493165  0.2043395307460058
  0.6711067927933273  0.0254646135428798  0.1284579022107632
  0.4274031892033414  0.3335341888422383  0.7318624824142903
  0.2611752217080363  0.4487694715968496  0.0948746042659046
  0.4091784911571124  0.2502040090724548  0.6353227098911290
  0.2351007735006760  0.9086067547345871  0.3888454749323513
  0.0868531136027346  0.8781120370937662  0.2940471044950251
  0.7644498055527374  0.6316780224032827  0.8726517859683574
  0.0737728874769306  0.0617938282432745  0.5277020891277562
  0.4427809243346246  0.8839368536261669  0.4109165836519639
  0.9321934871257628  0.9138179802507745  0.5709053501250136
  0.2813607512833212  0.9809640899308362  0.8868314864831931
  0.1866863682946186  0.3966372587189422  0.8649452178763989
  0.2787673685190537  0.8291947711390791  0.8529285272188437
  0.9698785927203679  0.2716204637231109  0.7970498219332461
  0.8573953999080668  0.1460201063458602  0.3091083107994277
  0.9563007638734112  0.5579126574891353  0.9852746400596418
  0.2299770692741464  0.1674738713785790  0.0973746481307712
  0.0644607771136456  0.2177810622977764  0.1662931399460696
  0.1024756282852307  0.0995663783285017  0.9185504097805024
  0.7944084029499828  0.3928501247051948  0.7059218691403852
  0.5161406661988385  0.8204785372246205  0.9299244324318716
  0.4968741951381911  0.0916851139005263  0.4212508814346942
  0.0556944151515046  0.2824453155468033  0.5847110730480868
  0.2048296262336763  0.9654867145040483  0.7176876397964145
  0.1896189384876262  0.6100197519372043  0.3074253148369501
  0.5318518840534207  0.5921716369365307  0.1271857789046155
  0.6042756297244812  0.0410701145207323  0.5761331074492697
  0.0763219416289505  0.4395213773646631  0.9238615679602056
  0.5979669427569236  0.8715278168369818  0.7136453732600130
  0.2601022092519695  0.6562057363553839  0.7439388497360001
  0.8291536043217881  0.9824452203877179  0.5959648564762878
  0.0180295183582198  0.4784349103494328  0.8205923434776654
  0.5515584152163178  0.0145986997103676  0.1582862351414128
  0.7003404372612060  0.5368170989609715  0.2204892026684487
  0.0347397982928532  0.6113944331618195  0.9018857880798623
  0.2887771895593633  0.0070013455751701  0.3313128005467658
  0.2161495421028833  0.5749456998129658  0.8335301677585172
  0.1321042289161619  0.9981399985333290  0.3597908307299048
  0.8408656818537451  0.4109956546844298  0.2273644199234436
  0.4460468550527941  0.8977704701366959  0.2854380988833161
  0.5001074237286725  0.9698845362276652  0.0530109698420233
  0.2076684056729236  0.8457937594097811  0.2835520681650539
  0.3289541527079123  0.1407468827817280  0.7763770204320469
  0.3130529081114135  0.1170022140960517  0.3859727095006963
  0.9866130182020746  0.8719454477501413  0.0606432699765570
  0.7692963802126916  0.0610193021414593  0.9484219049972120
  0.7144010754574226  0.7635999607202238  0.5203290490076652
  0.8331149229321224  0.8406113192355735  0.1852514092033463
  0.1536401923954488  0.6808610708079973  0.6848839599459623
  0.8932115775566360  0.4904353245878049  0.8247890297780361
  0.6804130521952191  0.2437849699298387  0.6721319354310714
  0.4052395412093824  0.3946721544909418  0.5279736265426921
  0.4128119764345743  0.1227379032952394  0.1069381122525227
  0.2283029653929299  0.3079875616755491  0.5631425602244988
  0.5278141517198423  0.6443916709825119  0.3316722263076971
  0.0205622060101444  0.0221448392404302  0.3069231552910972
  0.6314259308619351  0.9588252776022176  0.8454299663157777
  0.8178146512524507  0.9744779058825124  0.7705513199966186
  0.8177694339090971  0.5671100492760022  0.3876033624520058
  0.6145783522770164  0.4065665384520916  0.6344251898840707
  0.9636143978294947  0.7137398284941173  0.0764408412794099
  0.3025952223065775  0.6678833850415765  0.6275835783984334
  0.0888679680285927  0.9465662270774703  0.0364635862238794
  0.6748148417841477  0.0283350680658032  0.4730734269437662
  0.1617379233950940  0.7993544497638517  0.1052923595188783
  0.0836515485318570  0.9613610581479174  0.6788572718598950
  0.7268368690975291  0.6492883621288620  0.3564586630992373
  0.0506090225850877  0.8410140770429680  0.6890974882786466
  0.8189315158647146  0.5144984001850613  0.7264303399754122
  0.4114195038945125  0.5296656981385965  0.6486859467169643
  0.3592698312073915  0.7011187371039422  0.9438209575364666
  0.5193267269831379  0.1330306949656141  0.5380424885428424
  0.3218464595451370  0.2712600262569944  0.7796242509118922
  0.3108290795780439  0.0357336302231109  0.6984546646634002
  0.0477265649501333  0.7614082546312644  0.2579456383758615
  0.9882010846346631  0.8630377944679836  0.8548633732737257
  0.9649049269654321  0.4398170087689316  0.0026275377461332
  0.8493705150750666  0.3622160584467634  0.4162284540116283
  0.7476311869252199  0.7630639293378538  0.3936313770575705
  0.8781775809262244  0.7277581091136558  0.1789372981734981
  0.0488830375660899  0.3758472735564021  0.7595997051693001
  0.2445446407390395  0.4655026962736431  0.7834058186230897
  0.1356369666642513  0.5535815441868402  0.9519324273900465
  0.3889739269786560  0.7212022011622126  0.1525304172348448
  0.7519672147064217  0.7056933870487540  0.6817537810399418
  0.8917226602171201  0.8774316522378082  0.2854161372278880
  0.5865784946522292  0.7052246171917307  0.1209318879823803
  0.7785490248740186  0.4793703365494302  0.9923013093994205
  0.3941147849576758  0.0267060297350052  0.0352679002254570
  0.9609776712374889  0.1548075317259002  0.1545156344949526
  0.2426868396053782  0.8680769234492107  0.1657393119954776
  0.5261384465276893  0.2598324395328594  0.3240966414607742
  0.4361561420682974  0.2771388646344259  0.5188565769358027
  0.5113704882124824  0.7948802597542423  0.4633653447210768
  0.8794836313762637  0.8318185595123642  0.4909345765526220
  0.4002488700612027  0.4912388111751065  0.8939468667571846
  0.6450908402062487  0.4953915694110202  0.4164273389296143
  0.7819446551796488  0.7113911536650421  0.0384526044022620
  0.3616709296528234  0.4130145161700051  0.6486284034623966
  0.1568646884385053  0.8127377260765651  0.4268504001515461
  0.3036806108160480  0.5596252186043721  0.0298516941298295
  0.0263716293306262  0.3948857520201733  0.2970994078436407
  0.2494604731429880  0.2088573755059427  0.3338947103259415
  0.6461250338191736  0.3216120486767267  0.4540254163418632
  0.7531878760464684  0.8922097412560392  0.6226574082570953
  0.5286239756390593  0.2678428704071786  0.8601296497975421
  0.1685668382145387  0.3920443416486462  0.6301498097481443
  0.7001069889469100  0.1754216689983122  0.5705706628253489
  0.5387191378362717  0.4324729201514499  0.5360375572534423
  0.3364906949500979  0.7339972377141399  0.4603501583138939
  0.3789082035629862  0.3320576012029010  0.1980327203183771
  0.7275218251229507  0.3633512171879871  0.6035675701586011
  0.3070278529679074  0.4880438929385532  0.4105648271421056
  0.8166452259230268  0.5159446265491304  0.1678534149626463
  0.9602823179219623  0.2215367965148954  0.4168655045610679
  0.6720383583425064  0.3284200533540743  0.9822497519128355
  0.0750772375091600  0.5856914574089380  0.2656681891194617
  0.5127966275668293  0.1290945038093492  0.1748735168543361
  0.0712011544087455  0.5910310531003309  0.6730441674183271
  0.2005505962256694  0.2889429199425156  0.8050219511907691
  0.8718286308530894  0.0210306667057593  0.1332318486140353
  0.1948292699335570  0.0412372110835531  0.2619946502559638
  0.1012338016482404  0.7613418868492927  0.7638612701746671
  0.0572821686047550  0.7199977469279394  0.9554535218009365
  0.9871374379736950  0.5126602176476747  0.4331452003420994
  0.2203965284693112  0.9716372546813721  0.5333246071115471
  0.7994784787473330  0.8120149342223659  0.8401849259650114
  0.3685994115030070  0.9790792256481059  0.2405107615567202
  0.9476765664424920 -0.0032608955073122  0.4040458389411305
  0.5919068545162472  0.1535647225972962  0.7331571167792621
  0.2002541821664131  0.6847233290228749  0.0883152607823340
  0.9172001545519997  0.3267822792161630  0.2039637370438167
  0.8935456536775633  0.2769514699269283  0.0367037667832245
  0.0339186096903932  0.9512860177457049  0.2062081287722898
  0.2295501294972741  0.4938778089970138  0.5825573081482216
  0.7739077038361118  0.2219591919530622  0.7459458216031427
  0.0389946719232316  0.2968713772148765  0.9044553690739421
  0.5775361971805544  0.3382156698848671  0.1589662211286863
  0.0310663191528239  0.6882297624576685  0.4518374877916735
  0.6552053794397844  0.9246888584939991  0.4123675349686559
  0.0527395110237240  0.2044676920305752  0.7294744313512356
  0.5639541161219550  0.5588304702481700  0.2532058882767281
  0.8065673586957770  0.1955676668465218  0.2016160372017305
  0.0745465393807975  0.8148501997578571  0.5721207707637068
  0.3166695968063964  0.1464891411155343  0.5040280908579278
  0.8566228508804624  0.2485094523525886  0.5897020301452991
  0.1197256184969023  0.1180239289987614  0.1167382066351051
  0.5508153825110034  0.7655456048136141  0.6743461488048615
  0.7723149349029901  0.2040226489327132  0.3762304873946007
  0.5978505742370045  0.4853680122519657  0.9294137111634375
  0.1284892454179534  0.1039638944722244  0.4281192695354130
  0.5630686254200181  0.9184438599881002  0.5885349465153706
  0.7157719883480156  0.8419739649201134  0.2128438596954664
  0.8312348873988619  0.0647644115923040  0.6865690012662774
  0.4955187576625876  0.6035121309929813  0.0064277585667218
  0.3582010464945937  0.5864111528733340  0.5541095771252150
  0.9032073220889536  0.6506687215002948  0.5704659084040371
  0.0723653423478985  0.2169341316961656  0.2872796459340573
  0.5581708978414746  0.9443203695000354  0.2587379173973474
  0.8076929952827430  0.0319983527741391  0.2924425736505522
  0.7731272911762913  0.8983567293402321  0.0148381940558003
  0.4112100077879113  0.6083921600197559  0.3413396671073230
  0.5313442374101411  0.6431257728055404  0.5610884041196843
  0.1408957205405015  0.4741130943995743  0.1233574649663911
  0.7287141494367331  0.5619953624874422  0.5523658862960876
  0.4300550645744068  0.7640356646748543  0.8421407767192683
  0.8985031136001086  0.6234580678591893  0.3060489119074407
  0.4363558562260243  0.5207204587553925  0.1572022560559166
  0.5776925644687396  0.1323439878051682  0.9703149210995851
  0.3536961244755142  0.3032890003563362  0.8958948127941921
  0.2644070629013903  0.1694293953632835  0.9802214376952660
  0.4234281369193589  0.1430884434771606  0.3398706927568540
  0.6803380250713733  0.2013057873451795  0.0945129324309886
  0.2699563977082076  0.5634370459621282  0.2250262762812157
  0.3285130639838827  0.8830540926409578  0.9514080095596000
  0.3909273691727089  0.9611721455994484  0.6317401271348859
  0.7219011335974757  0.5347248632643439  0.8032467233018465
  0.5700110305478671  0.6208812481120864  0.8364901920943778
  0.7987414835269447  0.0453465590390076  0.4915247329840370
  0.5357228944699380  0.9755686756802611  0.7619909157849033
  0.5434049685964267  0.7545784662655765  0.2827772506273327
  0.2382455856416024  0.3768063974361494  0.9849146122743920
  0.6110434135950814  0.5139300698763221  0.6902135318762858
  0.4075324055576692  0.5952468192968920  0.7481685910011669
  0.8517887503588559 -0.0055306660740395  0.8859032858966412
  0.1467383281134660  0.3514063648692851  0.4408016584078392
  0.6305594807619440  0.5088424542021984  0.1133156326157612
  0.6939750293889422  0.0683135511779389  0.8377460836212320
  0.2035273033457540  0.9968016388541180  0.0610076190479344
  0.4449532825012089 -0.0081050237960965  0.4667733544410721
  0.1451769227166137  0.1211729063747977  0.6141911450043935
  0.2265202856853086  0.8505009551551079  0.6644145295764118
  0.7281450637142776  0.3699235786644691  0.1873698246087235
  0.9279534583205042  0.1572185280253557  0.8554132287303066
  0.1462388486575781  0.8463614056349988  0.9917121990948373
  0.9264247472839502  0.8266050799269926  0.6727502584180465
  0.2138096061871944  0.1040400330930863  0.8035420892743841
  0.8638226610061144  0.3701041154811797  0.8658576988604686
  0.4864317354630029  0.8531652138683375  0.0864525610405407
  0.9256972893859279  0.6586620645188602  0.7793174099647368
  0.4489512919940519  0.3932466943019074  0.0164251249695734
  0.8789366700100416  0.4606961320131618  0.5666508354064557
  0.3165410896060660  0.1354177098868986  0.1784070218251529
  0.4167047428456127  0.2288956534369589  0.0423328915581332
  0.2093191494602649  0.2808685065122862  0.1325682671260729
  0.2849372563902674  0.2331663122779361  0.6467402165469823
  0.5783788549631842  0.3119648153391761  0.7009570998145042
  0.9630792947343648  0.0982917793875404  0.5644527110171856
  0.4108199748283228  0.1056036428728473  0.8661559293471665
  0.2366177068306321  0.7246028040392917  0.9017603731562317
  0.7216784987523306  0.6583204741269751  0.2351604620014221
  0.1835731335080321  0.9157461456587667  0.8345475776802761
  0.4473374651742202  0.1331885367953428  0.6376760008447611
  0.3605949009064546  0.9636002504981497  0.7967946159676457
  0.3797808013685776  0.7663938589187977  0.6422784809004943
  0.4814238048330012  0.4294121364296046  0.3608933517591625
  0.2324557490209515  0.3759548394980821  0.2747339821071413
  0.9770981336624260  0.5947572393764400  0.0985726258673593
  0.1993933120958884  0.7040672705217529  0.5726424122114345
  0.1419111822137011  0.5438907974198454  0.5055373571716332
  0.0222508438768837  0.0159934549387821  0.9626235873094562
  0.0030841947500264  0.0136354924830617  0.7553929157516426
  0.6141194497525255  0.8070403926503370  0.8417651793030837
  0.7865244996849626  0.1859200523709817  0.9324100025514829
 
  0.00000000E+00  0.00000000E+00  0.00000000E+00
  0.00000000E+00  0.00000000E+00  0.00000000E+00
  0.00000000E+00  0.00000000E+00  0.00000000E+00
  0.00000000E+00  0.00000000E+00  0.00000000E+00
  0.00000000E+00  0.00000000E+00  0.00000000E+00
  0.00000000E+00  0.00000000E+00  0.00000000E+00
  0.00000000E+00  0.00000000E+00  0.00000000E+00
  0.00000000E+00  0.00000000E+00  0.00000000E+00
  0.00000000E+00  0.00000000E+00  0.00000000E+00
  0.00000000E+00  0.00000000E+00  0.00000000E+00
  0.00000000E+00  0.00000000E+00  0.00000000E+00
  0.00000000E+00  0.00000000E+00  0.00000000E+00
  0.00000000E+00  0.00000000E+00  0.00000000E+00
  0.00000000E+00  0.00000000E+00  0.00000000E+00
  0.00000000E+00  0.00000000E+00  0.00000000E+00
  0.00000000E+00  0.00000000E+00  0.00000000E+00
  0.00000000E+00  0.00000000E+00  0.00000000E+00
  0.00000000E+00  0.00000000E+00  0.00000000E+00
  0.00000000E+00  0.00000000E+00  0.00000000E+00
  0.00000000E+00  0.00000000E+00  0.00000000E+00
  0.00000000E+00  0.00000000E+00  0.00000000E+00
  0.00000000E+00  0.00000000E+00  0.00000000E+00
  0.00000000E+00  0.00000000E+00  0.00000000E+00
  0.00000000E+00  0.00000000E+00  0.00000000E+00
  0.00000000E+00  0.00000000E+00  0.00000000E+00
  0.00000000E+00  0.00000000E+00  0.00000000E+00
  0.00000000E+00  0.00000000E+00  0.00000000E+00
  0.00000000E+00  0.00000000E+00  0.00000000E+00
  0.00000000E+00  0.00000000E+00  0.00000000E+00
  0.00000000E+00  0.00000000E+00  0.00000000E+00
  0.00000000E+00  0.00000000E+00  0.00000000E+00
  0.00000000E+00  0.00000000E+00  0.00000000E+00
  0.00000000E+00  0.00000000E+00  0.00000000E+00
  0.00000000E+00  0.00000000E+00  0.00000000E+00
  0.00000000E+00  0.00000000E+00  0.00000000E+00
  0.00000000E+00  0.00000000E+00  0.00000000E+00
  0.00000000E+00  0.00000000E+00  0.00000000E+00
  0.00000000E+00  0.00000000E+00  0.00000000E+00
  0.00000000E+00  0.00000000E+00  0.00000000E+00
  0.00000000E+00  0.00000000E+00  0.00000000E+00
  0.00000000E+00  0.00000000E+00  0.00000000E+00
  0.00000000E+00  0.00000000E+00  0.00000000E+00
  0.00000000E+00  0.00000000E+00  0.00000000E+00
  0.00000000E+00  0.00000000E+00  0.00000000E+00
  0.00000000E+00  0.00000000E+00  0.00000000E+00
  0.00000000E+00  0.00000000E+00  0.00000000E+00
  0.00000000E+00  0.00000000E+00  0.00000000E+00
  0.00000000E+00  0.00000000E+00  0.00000000E+00
  0.00000000E+00  0.00000000E+00  0.00000000E+00
  0.00000000E+00  0.00000000E+00  0.00000000E+00
  0.00000000E+00  0.00000000E+00  0.00000000E+00
  0.00000000E+00  0.00000000E+00  0.00000000E+00
  0.00000000E+00  0.00000000E+00  0.00000000E+00
  0.00000000E+00  0.00000000E+00  0.00000000E+00
  0.00000000E+00  0.00000000E+00  0.00000000E+00
  0.00000000E+00  0.00000000E+00  0.00000000E+00
  0.00000000E+00  0.00000000E+00  0.00000000E+00
  0.00000000E+00  0.00000000E+00  0.00000000E+00
  0.00000000E+00  0.00000000E+00  0.00000000E+00
  0.00000000E+00  0.00000000E+00  0.00000000E+00
  0.00000000E+00  0.00000000E+00  0.00000000E+00
  0.00000000E+00  0.00000000E+00  0.00000000E+00
  0.00000000E+00  0.00000000E+00  0.00000000E+00
  0.00000000E+00  0.00000000E+00  0.00000000E+00
  0.00000000E+00  0.00000000E+00  0.00000000E+00
  0.00000000E+00  0.00000000E+00  0.00000000E+00
  0.00000000E+00  0.00000000E+00  0.00000000E+00
  0.00000000E+00  0.00000000E+00  0.00000000E+00
  0.00000000E+00  0.00000000E+00  0.00000000E+00
  0.00000000E+00  0.00000000E+00  0.00000000E+00
  0.00000000E+00  0.00000000E+00  0.00000000E+00
  0.00000000E+00  0.00000000E+00  0.00000000E+00
  0.00000000E+00  0.00000000E+00  0.00000000E+00
  0.00000000E+00  0.00000000E+00  0.00000000E+00
  0.00000000E+00  0.00000000E+00  0.00000000E+00
  0.00000000E+00  0.00000000E+00  0.00000000E+00
  0.00000000E+00  0.00000000E+00  0.00000000E+00
  0.00000000E+00  0.00000000E+00  0.00000000E+00
  0.00000000E+00  0.00000000E+00  0.00000000E+00
  0.00000000E+00  0.00000000E+00  0.00000000E+00
  0.00000000E+00  0.00000000E+00  0.00000000E+00
  0.00000000E+00  0.00000000E+00  0.00000000E+00
  0.00000000E+00  0.00000000E+00  0.00000000E+00
  0.00000000E+00  0.00000000E+00  0.00000000E+00
  0.00000000E+00  0.00000000E+00  0.00000000E+00
  0.00000000E+00  0.00000000E+00  0.00000000E+00
  0.00000000E+00  0.00000000E+00  0.00000000E+00
  0.00000000E+00  0.00000000E+00  0.00000000E+00
  0.00000000E+00  0.00000000E+00  0.00000000E+00
  0.00000000E+00  0.00000000E+00  0.00000000E+00
  0.00000000E+00  0.00000000E+00  0.00000000E+00
  0.00000000E+00  0.00000000E+00  0.00000000E+00
  0.00000000E+00  0.00000000E+00  0.00000000E+00
  0.00000000E+00  0.00000000E+00  0.00000000E+00
  0.00000000E+00  0.00000000E+00  0.00000000E+00
  0.00000000E+00  0.00000000E+00  0.00000000E+00
  0.00000000E+00  0.00000000E+00  0.00000000E+00
  0.00000000E+00  0.00000000E+00  0.00000000E+00
  0.00000000E+00  0.00000000E+00  0.00000000E+00
  0.00000000E+00  0.00000000E+00  0.00000000E+00
  0.00000000E+00  0.00000000E+00  0.00000000E+00
  0.00000000E+00  0.00000000E+00  0.00000000E+00
  0.00000000E+00  0.00000000E+00  0.00000000E+00
  0.00000000E+00  0.00000000E+00  0.00000000E+00
  0.00000000E+00  0.00000000E+00  0.00000000E+00
  0.00000000E+00  0.00000000E+00  0.00000000E+00
  0.00000000E+00  0.00000000E+00  0.00000000E+00
  0.00000000E+00  0.00000000E+00  0.00000000E+00
  0.00000000E+00  0.00000000E+00  0.00000000E+00
  0.00000000E+00  0.00000000E+00  0.00000000E+00
  0.00000000E+00  0.00000000E+00  0.00000000E+00
  0.00000000E+00  0.00000000E+00  0.00000000E+00
  0.00000000E+00  0.00000000E+00  0.00000000E+00
  0.00000000E+00  0.00000000E+00  0.00000000E+00
  0.00000000E+00  0.00000000E+00  0.00000000E+00
  0.00000000E+00  0.00000000E+00  0.00000000E+00
  0.00000000E+00  0.00000000E+00  0.00000000E+00
  0.00000000E+00  0.00000000E+00  0.00000000E+00
  0.00000000E+00  0.00000000E+00  0.00000000E+00
  0.00000000E+00  0.00000000E+00  0.00000000E+00
  0.00000000E+00  0.00000000E+00  0.00000000E+00
  0.00000000E+00  0.00000000E+00  0.00000000E+00
  0.00000000E+00  0.00000000E+00  0.00000000E+00
  0.00000000E+00  0.00000000E+00  0.00000000E+00
  0.00000000E+00  0.00000000E+00  0.00000000E+00
  0.00000000E+00  0.00000000E+00  0.00000000E+00
  0.00000000E+00  0.00000000E+00  0.00000000E+00
  0.00000000E+00  0.00000000E+00  0.00000000E+00
  0.00000000E+00  0.00000000E+00  0.00000000E+00
  0.00000000E+00  0.00000000E+00  0.00000000E+00
  0.00000000E+00  0.00000000E+00  0.00000000E+00
  0.00000000E+00  0.00000000E+00  0.00000000E+00
  0.00000000E+00  0.00000000E+00  0.00000000E+00
  0.00000000E+00  0.00000000E+00  0.00000000E+00
  0.00000000E+00  0.00000000E+00  0.00000000E+00
  0.00000000E+00  0.00000000E+00  0.00000000E+00
  0.00000000E+00  0.00000000E+00  0.00000000E+00
  0.00000000E+00  0.00000000E+00  0.00000000E+00
  0.00000000E+00  0.00000000E+00  0.00000000E+00
  0.00000000E+00  0.00000000E+00  0.00000000E+00
  0.00000000E+00  0.00000000E+00  0.00000000E+00
  0.00000000E+00  0.00000000E+00  0.00000000E+00
  0.00000000E+00  0.00000000E+00  0.00000000E+00
  0.00000000E+00  0.00000000E+00  0.00000000E+00
  0.00000000E+00  0.00000000E+00  0.00000000E+00
  0.00000000E+00  0.00000000E+00  0.00000000E+00
  0.00000000E+00  0.00000000E+00  0.00000000E+00
  0.00000000E+00  0.00000000E+00  0.00000000E+00
  0.00000000E+00  0.00000000E+00  0.00000000E+00
  0.00000000E+00  0.00000000E+00  0.00000000E+00
  0.00000000E+00  0.00000000E+00  0.00000000E+00
  0.00000000E+00  0.00000000E+00  0.00000000E+00
  0.00000000E+00  0.00000000E+00  0.00000000E+00
  0.00000000E+00  0.00000000E+00  0.00000000E+00
  0.00000000E+00  0.00000000E+00  0.00000000E+00
  0.00000000E+00  0.00000000E+00  0.00000000E+00
  0.00000000E+00  0.00000000E+00  0.00000000E+00
  0.00000000E+00  0.00000000E+00  0.00000000E+00
  0.00000000E+00  0.00000000E+00  0.00000000E+00
  0.00000000E+00  0.00000000E+00  0.00000000E+00
  0.00000000E+00  0.00000000E+00  0.00000000E+00
  0.00000000E+00  0.00000000E+00  0.00000000E+00
  0.00000000E+00  0.00000000E+00  0.00000000E+00
  0.00000000E+00  0.00000000E+00  0.00000000E+00
  0.00000000E+00  0.00000000E+00  0.00000000E+00
  0.00000000E+00  0.00000000E+00  0.00000000E+00
  0.00000000E+00  0.00000000E+00  0.00000000E+00
  0.00000000E+00  0.00000000E+00  0.00000000E+00
  0.00000000E+00  0.00000000E+00  0.00000000E+00
  0.00000000E+00  0.00000000E+00  0.00000000E+00
  0.00000000E+00  0.00000000E+00  0.00000000E+00
  0.00000000E+00  0.00000000E+00  0.00000000E+00
  0.00000000E+00  0.00000000E+00  0.00000000E+00
  0.00000000E+00  0.00000000E+00  0.00000000E+00
  0.00000000E+00  0.00000000E+00  0.00000000E+00
  0.00000000E+00  0.00000000E+00  0.00000000E+00
  0.00000000E+00  0.00000000E+00  0.00000000E+00
  0.00000000E+00  0.00000000E+00  0.00000000E+00
  0.00000000E+00  0.00000000E+00  0.00000000E+00
  0.00000000E+00  0.00000000E+00  0.00000000E+00
  0.00000000E+00  0.00000000E+00  0.00000000E+00
  0.00000000E+00  0.00000000E+00  0.00000000E+00
  0.00000000E+00  0.00000000E+00  0.00000000E+00
  0.00000000E+00  0.00000000E+00  0.00000000E+00
  0.00000000E+00  0.00000000E+00  0.00000000E+00
  0.00000000E+00  0.00000000E+00  0.00000000E+00
  0.00000000E+00  0.00000000E+00  0.00000000E+00
  0.00000000E+00  0.00000000E+00  0.00000000E+00
  0.00000000E+00  0.00000000E+00  0.00000000E+00
  0.00000000E+00  0.00000000E+00  0.00000000E+00
  0.00000000E+00  0.00000000E+00  0.00000000E+00
  0.00000000E+00  0.00000000E+00  0.00000000E+00
  0.00000000E+00  0.00000000E+00  0.00000000E+00
  0.00000000E+00  0.00000000E+00  0.00000000E+00
  0.00000000E+00  0.00000000E+00  0.00000000E+00
  0.00000000E+00  0.00000000E+00  0.00000000E+00
  0.00000000E+00  0.00000000E+00  0.00000000E+00
  0.00000000E+00  0.00000000E+00  0.00000000E+00
  0.00000000E+00  0.00000000E+00  0.00000000E+00
  0.00000000E+00  0.00000000E+00  0.00000000E+00
  0.00000000E+00  0.00000000E+00  0.00000000E+00
  0.00000000E+00  0.00000000E+00  0.00000000E+00
  0.00000000E+00  0.00000000E+00  0.00000000E+00
  0.00000000E+00  0.00000000E+00  0.00000000E+00
  0.00000000E+00  0.00000000E+00  0.00000000E+00
  0.00000000E+00  0.00000000E+00  0.00000000E+00
  0.00000000E+00  0.00000000E+00  0.00000000E+00
  0.00000000E+00  0.00000000E+00  0.00000000E+00
  0.00000000E+00  0.00000000E+00  0.00000000E+00
  0.00000000E+00  0.00000000E+00  0.00000000E+00
  0.00000000E+00  0.00000000E+00  0.00000000E+00
  0.00000000E+00  0.00000000E+00  0.00000000E+00
  0.00000000E+00  0.00000000E+00  0.00000000E+00
  0.00000000E+00  0.00000000E+00  0.00000000E+00
  0.00000000E+00  0.00000000E+00  0.00000000E+00
  0.00000000E+00  0.00000000E+00  0.00000000E+00
  0.00000000E+00  0.00000000E+00  0.00000000E+00
  0.00000000E+00  0.00000000E+00  0.00000000E+00
  0.00000000E+00  0.00000000E+00  0.00000000E+00
  0.00000000E+00  0.00000000E+00  0.00000000E+00
  0.00000000E+00  0.00000000E+00  0.00000000E+00
  0.00000000E+00  0.00000000E+00  0.00000000E+00
  0.00000000E+00  0.00000000E+00  0.00000000E+00
  0.00000000E+00  0.00000000E+00  0.00000000E+00
  0.00000000E+00  0.00000000E+00  0.00000000E+00
  0.00000000E+00  0.00000000E+00  0.00000000E+00
  0.00000000E+00  0.00000000E+00  0.00000000E+00
  0.00000000E+00  0.00000000E+00  0.00000000E+00
  0.00000000E+00  0.00000000E+00  0.00000000E+00
  0.00000000E+00  0.00000000E+00  0.00000000E+00
  0.00000000E+00  0.00000000E+00  0.00000000E+00
  0.00000000E+00  0.00000000E+00  0.00000000E+00