Amorphous Sb                            
   1.00000000000000     
    20.8058902478061469    0.0000000000000000    0.0000000000000000
     0.0000000000000000   20.8058902478061469    0.0000000000000000
     0.0000000000000000    0.0000000000000000   20.8058902478061469
   Ge   Te   Se
   150    90    60
Direct
  0.6359864099044463  0.4459178440576361  0.6309368693632122
  0.3575054250813791  0.4847478656006239  0.8468701293088168
  0.1370709979398624  0.7622127872347572  0.4701439326950264
  0.2270099014314452  0.4818728725223770  0.1205620305631738
  0.7185198823916708  0.4746070450808232  0.8554320050908061
  0.1773795288265532  0.3505616658261743  0.6341361964468420
  0.1581651029371459  0.4014337780996923  0.9272033870405639
  0.3691158259933669  0.8110826507643797  0.7521064796219881
  0.1190479026811978  0.5144223441605066  0.4247974541276345
  0.2304227250217117  0.1543915741384980  0.6800890642708864
  0.0699858663953696  0.3949769307979228  0.4509184279244655
  0.2092262340108824  0.4677660249957052  0.3248730491642937
  0.5823641264890413  0.3378415360549698  0.1828045255716574
  0.6175229060981324  0.9807786606680202  0.5489726922729002
  0.8863738710668638  0.6662132206598754  0.5927850995552914
  0.3577872028772850  0.9674786276675076  0.8243310290552741
  0.4016470221903274  0.4489464301293240  0.0309742093512244
  0.8477974096184585  0.5500342739205358  0.5582611807512861
  0.9610923017217331  0.4318073979636988  0.9877019526619170
  0.7928260842191158  0.4229917758796375  0.6285583820554614
  0.9021210903612771  0.0966849205407529  0.8731099701830520
  0.8743407579361022  0.6322030633131852  0.7307441333994387
  0.9876151826828188  0.1536626190224223  0.5520876179906594
  0.0742894846689845  0.8971120997943983  0.8911934487280113
  0.9586445333359893  0.2658259384062142  0.2163272176493956
  0.7971474929963080  0.8736694840837562  0.8557612186762061
  0.7340347077303926  0.7789465596803574  0.0019011413570230
  0.9330584626051391  0.7846283482366958  0.0488122031077213
  0.7458336770487138  0.1387416648054588  0.9678703867082726
  0.2767765666124151  0.4028274016735133  0.4253747371389241
  0.3954090245567978  0.1484038835248192  0.5798743133602174
  0.8637135723219120  0.0076195709620385  0.4020748855218270
  0.3802758565992069  0.8314966032688105  0.1058827992271365
  0.8905027163305895  0.2969184479993466  0.9498190033449374
  0.1732003724895702  0.7501800051433285  0.1419760348306919
  0.0379693411122978  0.1030643002730442  0.7162317924978406
  0.7201717439516773  0.6546694448495104  0.1369296931458019
  0.2513747800556978  0.6144682374494485  0.2886928276606490
  0.1757116168964886  0.9494107847789762  0.0666187345275294
  0.0637318350805443  0.2241241547767454  0.9061011388307872
  0.3825246650334155  0.9267919405898565  0.6302671294003328
  0.6017327210693676  0.7005421781644078  0.8686344238853523
  0.6750258606281303  0.1591054925238990  0.0925884163673281
  0.9547134441878328  0.7088302999251355  0.1914976221264057
  0.6942158617205298  0.0952022858284533  0.2017076023685773
  0.8212016487075947  0.1656369636812447  0.1937662536517522
  0.7331885886143519  0.5377315919429962  0.6059037594944759
  0.2396528566805406  0.0739126673134673  0.7800358019857330
  0.7739647364481365  0.8297455657088934  0.6664614174057207
  0.5103535067266343  0.7914845538610079  0.9398171741685530
  0.7304683533261676  0.7003251006590936  0.4389487159841711
  0.2273689962749965  0.7480305995294936  0.8542055784027721
  0.0888532026092997  0.8373374123017921  0.7074164938599561
  0.7198295574435168  0.6396474870681343  0.6810297458749374
  0.5662017913905233  0.8026900232470213  0.6780500489001153
  0.4016385461877091  0.9620559057291586  0.2911854053506073
  0.1858082955222401  0.1346857846308852  0.9769405617944362
  0.0698196923419241  0.9527095062716910  0.4675514673994108
  0.5609258012516689  0.3739400460979921  0.9104106806186593
  0.9192087953308874  0.4301197868777326  0.2841194753291827
  0.4437694183205411  0.6891830321002581  0.4343857575214939
  0.0792980216141344  0.1772656415640246  0.1090651949517625
  0.5584418432717912  0.0713366987384682  0.3650264709675736
  0.0516434978212151  0.6726307397490090  0.7020250855219138
  0.5790264842654816  0.6604808257225202  0.9873558280694660
  0.3242430395784209  0.2626940286389677  0.4838275936703695
  0.0781314341389934  0.9914602824879074  0.1322853475536560
  0.8580782258530585  0.7887189653886016  0.1496164935013047
  0.4205716217182325  0.2742504512131670  0.1174794849542927
  0.8695036273382611  0.2228642867861641  0.3452611200454144
  0.4146716833789023  0.7982930555253405  0.2483880765452315
  0.8124934569380887  0.5258418024982717  0.4412653965296596
  0.5731769541629399  0.1604876828512800  0.8867338961651168
  0.0520404236144447  0.3910060151022011  0.1574358192147336
  0.3692314721920274  0.4655912071913030  0.6520040788901688
  0.1154936045189263  0.0010858812715853  0.7666834535216955
  0.6781611322151218  0.8298511892866371  0.3445865671293221
  0.7727969462263431  0.3293507206192968  0.1222647938632233
  0.4948190279196463  0.6411703634051180  0.5539944120962934
  0.3663712188007721  0.5853517598444594  0.4581154016864343
  0.9492197769007993  0.8175517480979113  0.8735997815696565
  0.5398578611883760  0.5075376568674008  0.5374210715950378
  0.5736749828152941  0.7330048412478135  0.1712128373639238
  0.4775004326397013  0.8082512447621090  0.4524514193422775
  0.0818096195190805  0.0738982065305240  0.9324253086771674
  0.4234525912852992  0.6183163194769991  0.8954033122695679
  0.3307821500588604  0.8208723393068026  0.4006506972265057
  0.9541149633903990  0.9645493993777242  0.1289388716562914
  0.4926547488151657  0.9028610045912910  0.6911599085804400
  0.4068262790377835  0.8304140931557272  0.5506427432269534
  0.2852305503932925  0.9214951040338982  0.1171180192462856
  0.3781838865484040  0.0773217193465871  0.4308197455595135
  0.3878461162956212  0.2142750802317940  0.0040899410778939
  0.6355499667053347  0.2303616684517613  0.4551743718328879
  0.6793921144156925  0.1594445577662928  0.6218441356081338
  0.5613647618664933  0.5895780501441278  0.7484070430458188
  0.5389113968106576  0.2898341680205526  0.5130093645653880
  0.5261289046580897  0.2306565665603455  0.0062932317466589
  0.0099252648059797  0.7166488997225051  0.9171669051147842
  0.2813799301269721  0.9780957635872467  0.4189282030839635
  0.4932245507692788  0.4805681451091612  0.7569433690992518
  0.4339913994512690  0.0324087932974349  0.5899684276276222
  0.4234958528656214  0.5705861087828500  0.2364343097013874
  0.9430756111806027  0.9469062428818088  0.5565386895751960
  0.8085308156741637  0.9457143674727537  0.2818926596725636
  0.9109919334902350  0.4836489981821927  0.8246082173800261
  0.9256325328286331  0.6340651210309883  0.9499162839048537
  0.2131906890693892  0.8322827966247691  0.5427438471708991
  0.4994792221481029  0.9006073974560490  0.3713561810780507
  0.5984160938462287  0.7332619830316482  0.3494538701711580
  0.7775584927174874  0.9539696050504869  0.9597062415761434
  0.6319436828631492  0.9947288114321445  0.8303967702192960
  0.6056006883200250  0.5476641582692167  0.0527469200101094
  0.3193542325246879  0.8747954428190426  0.9451479326285177
  0.1511551543209738  0.5881516695685466  0.9166991565287844
  0.9006299321657070  0.4010632134333943  0.4875501219335942
  0.8443512339200269  0.6460646537506730  0.4271049263568563
  0.9323835820016267  0.4653054852231883  0.5907322959885454
  0.5813692110633425  0.4723800429305263  0.3233384313298323
  0.6458503925285527  0.7993495382981152  0.8019241692463005
  0.7981522794421548  0.7654838577093527  0.2818826532237166
  0.0831918934837918  0.2649789120291861  0.7653779712938772
  0.0595065871448875  0.6024760704890983  0.2763389197853819
  0.8832483011697100  0.5473450810520485  0.2381613738102740
  0.3247543155814931  0.2960306907214914  0.8478049342736758
  0.1715150289796767  0.9264305329144662  0.3822055175628196
  0.1791344936430208  0.7784784973069758  0.6486562941752826
  0.7590386220153286  0.2499896112891333  0.4570817310390720
  0.2066657303817228  0.2569753391140894  0.3313371858952188
  0.2416251741584854  0.4612045986044024  0.7934563442059562
  0.1859055169506619  0.0041472314138198  0.2852658295008693
  0.5979892622119203  0.7974659069142572  0.4752275050545549
  0.3934707166769237  0.1706672526917496  0.8736959281412771
  0.6881961175642655  0.9199056631962150  0.6921021063245613
  0.0891069684267275  0.5778183458819347  0.0352609852501706
  0.2200659905855212  0.3376636503765849  0.1523337694763297
  0.3317092235017854  0.1475122327051220  0.1710642484749455
  0.5078252352657681  0.1497557756985679  0.7333852214776062
  0.9260605922924775  0.3688765922430161  0.6733088359858178
  0.4109362377867395  0.3739100808062646  0.2709960445455818
  0.3178029394288872  0.6184348003544082  0.9858345595344113
  0.2179780148272893  0.6498995583829758  0.4092049774420886
  0.7352471491963022  0.1516050853216683  0.3069363377541554
  0.9801422436511237  0.7765060436325897  0.6798902065947854
  0.8825282431335703  0.1681008661679017  0.0808172460268337
  0.9380695870837440  0.2459139968998080  0.6304776181736212
  0.2670227938014963  0.6009037746950475  0.1025502854320669
  0.5281302604324080  0.0420630657450303  0.0502656885107179
  0.0593714984096607  0.8690211657475025  0.3385134854883657
  0.0197053616565127  0.1282512320960149  0.3767064562245601
  0.0276452161365610  0.3555879545905067  0.9016498670641977
  0.2957745769345166  0.0169866747025532  0.2122744414031355
  0.4528052822022681  0.7436570153276214  0.6344653570814883
  0.2646696895254281  0.7232181100674755  0.7264859506312188
  0.6190419115627678  0.4027967204056215  0.5057564516738066
  0.2757278883513175  0.7778558064507594  0.0315433735770383
  0.6009242505672431  0.7774959024460042  0.0446099566672322
  0.5653917053158318  0.2373833340713872  0.6324847459004308
  0.9319849420795913  0.4193931894554188  0.1106694920693527
  0.8450673346994003  0.4314907098031369  0.9341749159121715
  0.0818094124668823  0.9507895112106952  0.6488004130856048
  0.1873498679544090  0.3345940738233030  0.4984561712238875
  0.1098142667134645  0.1957065865370771  0.6496155851895885
  0.8592718364570249  0.6045514369345779  0.0578006877189381
  0.3785951541221144  0.5877057020503041  0.5881502737902190
  0.3775782442025091  0.3857803786252929  0.5086283248020694
  0.0723911442266793  0.7358185214084569  0.2415882552295888
  0.0600222860530871  0.4817423563950772  0.5512053410653938
  0.5275783836940543  0.6121625603490346  0.3746310316337541
  0.7008499437986875  0.4594423507341405  0.2587243111962273
  0.7649223437797074  0.7253483718215011  0.5835626034106682
  0.2122623455730430  0.0878377824839333  0.3813157700770397
  0.2549379685144300  0.9547779215593830  0.5495244055997905
  0.0928982039135983  0.1166104624447987  0.4867441080057743
  0.7714206551982631  0.8869385721558192  0.0707860945074295
  0.8455164569947781  0.5943756985147646  0.8579240085225014
  0.9100945714584279  0.6552168901397170  0.3084142975514928
  0.2811206742112199  0.2726395566241381  0.6921390510586309
  0.2193696227946646  0.2102463345343231  0.2042739870526992
  0.2235906674899018  0.4702689250591360  0.6624451378492803
  0.4164740164915352  0.2472778843833733  0.6578702232325705
  0.6705709012081287  0.4049775703797978  0.9758118761887065
  0.9382835090036313  0.0624539378942367  0.6347764341587602
  0.3475568397848017  0.3767225295077967  0.1519467309811706
  0.1330536964899060  0.8339105950954251  0.0333417674078546
  0.2714084055907810  0.1258014828158225  0.5604509316345503
  0.2789232068388836  0.4876877277260065  0.9905939208706338
  0.9288373545103236  0.8719498091942471  0.2192250994488626
  0.6222107397985149  0.4106586275867388  0.7911564874467766
  0.4704560987546135  0.2598667210896193  0.2361812182753936
  0.9822940962230933  0.2978956424187820  0.4914308016082736
  0.2265321386890214  0.1759597640804130  0.8600925519368353
  0.4569744783343782  0.4887247280857794  0.4323137522475697
  0.9938079287247047  0.8961661067289667  0.0239968257091398
  0.8133358963356065  0.2903258509909308  0.8456663125086756
  0.4829294829572784  0.0735962440962185  0.9275248927463198
  0.8037683624992037  0.4903534646935271  0.7417908920576908
  0.4756734320088759  0.9103439769301199  0.8158148352137736
  0.7943086640167716  0.3742824801369149  0.4226601642101464
  0.9512551601834845  0.4828401631163420  0.4013484285042490
  0.6667941768064332  0.4356066047370600  0.1239577737634745
  0.6442639441950485  0.2631241626564780  0.9448204404869724
  0.8009336565696371  0.0236378852619459  0.1747454975991860
  0.4411030534771730  0.8871296987283263  0.0014298894262456
  0.1738563493988169  0.9799608030665973  0.9362359152451939
  0.2083424836016358  0.8621805530671457  0.2017916013016930
  0.7194201203960905  0.6088458886968795  0.0083516752871504
  0.9912906138415488  0.9850292274372821  0.3658007537756914
  0.4868794886798039  0.5060946882116452  0.9328852681458939
  0.9039226213212429  0.1314371800157807  0.4482054196431530
  0.9839522291270197  0.5621780757131072  0.7038227904269978
  0.4354140933326952  0.0886411573696024  0.3112771016245424
  0.5015608797076396  0.4628405857512906  0.2163920852260781
  0.7876247647054203  0.1592772251082548  0.8371557588593714
  0.1300133253765160  0.6702593515555972  0.5992710915088073
  0.7054111752207243  0.6686971875829336  0.3041188748063823
  0.6664081771956943  0.0256441580155304  0.9563553452141749
  0.4770292186108764  0.9455304504952350  0.1822024448857013
  0.0509991931744883  0.3801839772707791  0.7085738399836131
  0.3779015773138693  0.0854076803640095  0.7641121281085611
  0.8982314214258923  0.8822407036857074  0.6662417879656359
  0.3019324037733782  0.1205055425386483  0.0429240993231279
  0.6100555240791476  0.0042255819165050  0.2609558257353504
  0.2040410052271462  0.8006581383998631  0.3582489988842938
  0.8317347733143435  0.1708586048097499  0.6204744782849763
  0.6658408594675170  0.1138999104524452  0.5020829194041647
  0.9628945690018734  0.2053707240662598  0.7557256772455192
  0.2344715311200593  0.5374252808036756  0.4834053593199321
  0.3187484266067704  0.3195380835982939  0.9799580952580632
  0.7602287036966860  0.9816888017273520  0.7877989106191666
  0.5430173671547823  0.0192707024754218  0.6566072066881931
  0.9701138127382405  0.5855797563936774  0.1462385826093566
  0.9952654474503877  0.2780740870697311  0.3560813469538709
  0.6101254193861223  0.1934224199604357  0.3321447834284247
  0.3942884473419636  0.5640277875617623  0.1065461498942279
  0.7170582014966091  0.0274902566881094  0.3494367606169460
  0.6893331169331495  0.5652483981250384  0.4848134531969495
  0.6981094332028391  0.3445734019903774  0.6877362807455683
  0.8545342428014198  0.0559778102259762  0.9945310901810231
  0.6703707874272816  0.5977645664646769  0.8202293599112467
  0.0063349803769769  0.5380299905788737  0.9522068021902693
  0.6830290209430803  0.2560063388333050  0.1661039740871046
  0.9538325939296057  0.1833242053773417  0.9437784985832278
  0.0160013716243430  0.9940300296359582  0.8417934357951291
  0.7835878336878869  0.8152552319429034  0.3957634663310544
  0.8399950374675214  0.2924561398093368  0.2246625529005762
  0.4208409801373573  0.0318128831354781  0.1089737615278645
  0.5139519738195952  0.3358771901212057  0.0670233172097617
  0.3261754297095222  0.5204581067841723  0.3007756324374211
  0.9229239342420293  0.7438912423311138  0.7781414878870210
  0.5001846999852096  0.6768526324409819  0.8089786124633103
  0.2111170157365924  0.3484978074689393  0.8251459991709771
  0.0934254624025962  0.6699780844705410  0.8502832508681863
  0.6172395347774641  0.9057171250799220  0.4185365135379917
  0.9754180785488580  0.2462720851852644  0.0964279553284346
  0.4931187974198204  0.2311167884016305  0.8286039499509519
  0.7179440394213292  0.0011499568804283  0.6132842458266138
  0.3489666118436570  0.7827532818679221  0.8705000798181325
  0.3689140857046052  0.7198325402400489  0.3413462651619729
  0.0376916540672451  0.0742832002023096  0.0505393464041506
  0.0966903845034678  0.6292649720889215  0.3948453953042751
  0.3921154009242469  0.3830188234600280  0.7923002910315298
  0.1653306634137096  0.5493405669962859  0.2361974059258987
  0.2563107070732675  0.6273533630074113  0.8771193368007586
  0.3108881734780135  0.7664208883793532  0.5118297965517250
  0.9301097686728445  0.6953784095890522  0.4856243435132042
  0.5297766256913724  0.8254536867486786  0.2802053261842250
  0.1543311847208739  0.8794700645132985  0.7984019692797079
  0.6203572654084089  0.1123602707970692  0.7885778987529323
  0.5983185892425708  0.6498835618699198  0.6525219281984765
  0.9249874573635450  0.1510664149382949  0.2542586191898778
  0.2818205411759527  0.6811534398132735  0.1951065139387719
  0.8060381180365708  0.2452577421246267  0.0291343901623794
  0.1299599400910040  0.2374841810476838  0.0126517885126121
  0.7797266479934019  0.5520413796181323  0.1784414884964418
  0.4530968340189450  0.7236262924227099  0.1597187882539801
  0.1333315250632973  0.4918287320976614  0.8445051023135677
  0.1825147364784141  0.3641772157547971  0.2667037527643320
  0.6881759949863411  0.8489506413929073  0.9079626673444374
  0.4302932253803257  0.1874916663295152  0.4742470954201612
  0.5007391744642117  0.4398690599945931  0.6384625451690458
  0.0332321670454005  0.4541213341772538  0.2582916146525774
  0.8392392516513889  0.9508812077761256  0.5003539327583857
  0.6323605633993685  0.3626373109811074  0.3085341107817476
  0.6046335328920422  0.6130165737434980  0.1587537433087061
  0.3188009103114594  0.2903623138628552  0.3646005708110670
  0.8675690162306934  0.7650690044248880  0.9506557824377994
  0.0289020404589766  0.7127667353746995  0.0362105014866234
  0.3896420301904470  0.5496504330601465  0.7466404800841606
  0.4602087847773074  0.6919208372612478  0.9875309236984049
  0.7604702753802179  0.7700710150168876  0.7710551848765681
  0.6244679906484095  0.8486433944402189  0.5826405851321448
  0.1158423349888655  0.4642744557492093  0.0713814318140024
  0.3049578808010913  0.9173397396986264  0.7250325330639819
  0.1086116753235789  0.0639899416769808  0.2206150065272793
  0.7220174372047367  0.8626694068249937  0.2393401275076766
  0.7479310054261589  0.2614539406376503  0.5793762145703502
  0.4644010923710650  0.0061082906684033  0.4808186974058328
  0.5538019422689722  0.1542014494893319  0.0995679677413956
  0.0359412458980731  0.8321733771909509  0.4521484704886535
 
  0.00000000E+00  0.00000000E+00  0.00000000E+00
  0.00000000E+00  0.00000000E+00  0.00000000E+00
  0.00000000E+00  0.00000000E+00  0.00000000E+00
  0.00000000E+00  0.00000000E+00  0.00000000E+00
  0.00000000E+00  0.00000000E+00  0.00000000E+00
  0.00000000E+00  0.00000000E+00  0.00000000E+00
  0.00000000E+00  0.00000000E+00  0.00000000E+00
  0.00000000E+00  0.00000000E+00  0.00000000E+00
  0.00000000E+00  0.00000000E+00  0.00000000E+00
  0.00000000E+00  0.00000000E+00  0.00000000E+00
  0.00000000E+00  0.00000000E+00  0.00000000E+00
  0.00000000E+00  0.00000000E+00  0.00000000E+00
  0.00000000E+00  0.00000000E+00  0.00000000E+00
  0.00000000E+00  0.00000000E+00  0.00000000E+00
  0.00000000E+00  0.00000000E+00  0.00000000E+00
  0.00000000E+00  0.00000000E+00  0.00000000E+00
  0.00000000E+00  0.00000000E+00  0.00000000E+00
  0.00000000E+00  0.00000000E+00  0.00000000E+00
  0.00000000E+00  0.00000000E+00  0.00000000E+00
  0.00000000E+00  0.00000000E+00  0.00000000E+00
  0.00000000E+00  0.00000000E+00  0.00000000E+00
  0.00000000E+00  0.00000000E+00  0.00000000E+00
  0.00000000E+00  0.00000000E+00  0.00000000E+00
  0.00000000E+00  0.00000000E+00  0.00000000E+00
  0.00000000E+00  0.00000000E+00  0.00000000E+00
  0.00000000E+00  0.00000000E+00  0.00000000E+00
  0.00000000E+00  0.00000000E+00  0.00000000E+00
  0.00000000E+00  0.00000000E+00  0.00000000E+00
  0.00000000E+00  0.00000000E+00  0.00000000E+00
  0.00000000E+00  0.00000000E+00  0.00000000E+00
  0.00000000E+00  0.00000000E+00  0.00000000E+00
  0.00000000E+00  0.00000000E+00  0.00000000E+00
  0.00000000E+00  0.00000000E+00  0.00000000E+00
  0.00000000E+00  0.00000000E+00  0.00000000E+00
  0.00000000E+00  0.00000000E+00  0.00000000E+00
  0.00000000E+00  0.00000000E+00  0.00000000E+00
  0.00000000E+00  0.00000000E+00  0.00000000E+00
  0.00000000E+00  0.00000000E+00  0.00000000E+00
  0.00000000E+00  0.00000000E+00  0.00000000E+00
  0.00000000E+00  0.00000000E+00  0.00000000E+00
  0.00000000E+00  0.00000000E+00  0.00000000E+00
  0.00000000E+00  0.00000000E+00  0.00000000E+00
  0.00000000E+00  0.00000000E+00  0.00000000E+00
  0.00000000E+00  0.00000000E+00  0.00000000E+00
  0.00000000E+00  0.00000000E+00  0.00000000E+00
  0.00000000E+00  0.00000000E+00  0.00000000E+00
  0.00000000E+00  0.00000000E+00  0.00000000E+00
  0.00000000E+00  0.00000000E+00  0.00000000E+00
  0.00000000E+00  0.00000000E+00  0.00000000E+00
  0.00000000E+00  0.00000000E+00  0.00000000E+00
  0.00000000E+00  0.00000000E+00  0.00000000E+00
  0.00000000E+00  0.00000000E+00  0.00000000E+00
  0.00000000E+00  0.00000000E+00  0.00000000E+00
  0.00000000E+00  0.00000000E+00  0.00000000E+00
  0.00000000E+00  0.00000000E+00  0.00000000E+00
  0.00000000E+00  0.00000000E+00  0.00000000E+00
  0.00000000E+00  0.00000000E+00  0.00000000E+00
  0.00000000E+00  0.00000000E+00  0.00000000E+00
  0.00000000E+00  0.00000000E+00  0.00000000E+00
  0.00000000E+00  0.00000000E+00  0.00000000E+00
  0.00000000E+00  0.00000000E+00  0.00000000E+00
  0.00000000E+00  0.00000000E+00  0.00000000E+00
  0.00000000E+00  0.00000000E+00  0.00000000E+00
  0.00000000E+00  0.00000000E+00  0.00000000E+00
  0.00000000E+00  0.00000000E+00  0.00000000E+00
  0.00000000E+00  0.00000000E+00  0.00000000E+00
  0.00000000E+00  0.00000000E+00  0.00000000E+00
  0.00000000E+00  0.00000000E+00  0.00000000E+00
  0.00000000E+00  0.00000000E+00  0.00000000E+00
  0.00000000E+00  0.00000000E+00  0.00000000E+00
  0.00000000E+00  0.00000000E+00  0.00000000E+00
  0.00000000E+00  0.00000000E+00  0.00000000E+00
  0.00000000E+00  0.00000000E+00  0.00000000E+00
  0.00000000E+00  0.00000000E+00  0.00000000E+00
  0.00000000E+00  0.00000000E+00  0.00000000E+00
  0.00000000E+00  0.00000000E+00  0.00000000E+00
  0.00000000E+00  0.00000000E+00  0.00000000E+00
  0.00000000E+00  0.00000000E+00  0.00000000E+00
  0.00000000E+00  0.00000000E+00  0.00000000E+00
  0.00000000E+00  0.00000000E+00  0.00000000E+00
  0.00000000E+00  0.00000000E+00  0.00000000E+00
  0.00000000E+00  0.00000000E+00  0.00000000E+00
  0.00000000E+00  0.00000000E+00  0.00000000E+00
  0.00000000E+00  0.00000000E+00  0.00000000E+00
  0.00000000E+00  0.00000000E+00  0.00000000E+00
  0.00000000E+00  0.00000000E+00  0.00000000E+00
  0.00000000E+00  0.00000000E+00  0.00000000E+00
  0.00000000E+00  0.00000000E+00  0.00000000E+00
  0.00000000E+00  0.00000000E+00  0.00000000E+00
  0.00000000E+00  0.00000000E+00  0.00000000E+00
  0.00000000E+00  0.00000000E+00  0.00000000E+00
  0.00000000E+00  0.00000000E+00  0.00000000E+00
  0.00000000E+00  0.00000000E+00  0.00000000E+00
  0.00000000E+00  0.00000000E+00  0.00000000E+00
  0.00000000E+00  0.00000000E+00  0.00000000E+00
  0.00000000E+00  0.00000000E+00  0.00000000E+00
  0.00000000E+00  0.00000000E+00  0.00000000E+00
  0.00000000E+00  0.00000000E+00  0.00000000E+00
  0.00000000E+00  0.00000000E+00  0.00000000E+00
  0.00000000E+00  0.00000000E+00  0.00000000E+00
  0.00000000E+00  0.00000000E+00  0.00000000E+00
  0.00000000E+00  0.00000000E+00  0.00000000E+00
  0.00000000E+00  0.00000000E+00  0.00000000E+00
  0.00000000E+00  0.00000000E+00  0.00000000E+00
  0.00000000E+00  0.00000000E+00  0.00000000E+00
  0.00000000E+00  0.00000000E+00  0.00000000E+00
  0.00000000E+00  0.00000000E+00  0.00000000E+00
  0.00000000E+00  0.00000000E+00  0.00000000E+00
  0.00000000E+00  0.00000000E+00  0.00000000E+00
  0.00000000E+00  0.00000000E+00  0.00000000E+00
  0.00000000E+00  0.00000000E+00  0.00000000E+00
  0.00000000E+00  0.00000000E+00  0.00000000E+00
  0.00000000E+00  0.00000000E+00  0.00000000E+00
  0.00000000E+00  0.00000000E+00  0.00000000E+00
  0.00000000E+00  0.00000000E+00  0.00000000E+00
  0.00000000E+00  0.00000000E+00  0.00000000E+00
  0.00000000E+00  0.00000000E+00  0.00000000E+00
  0.00000000E+00  0.00000000E+00  0.00000000E+00
  0.00000000E+00  0.00000000E+00  0.00000000E+00
  0.00000000E+00  0.00000000E+00  0.00000000E+00
  0.00000000E+00  0.00000000E+00  0.00000000E+00
  0.00000000E+00  0.00000000E+00  0.00000000E+00
  0.00000000E+00  0.00000000E+00  0.00000000E+00
  0.00000000E+00  0.00000000E+00  0.00000000E+00
  0.00000000E+00  0.00000000E+00  0.00000000E+00
  0.00000000E+00  0.00000000E+00  0.00000000E+00
  0.00000000E+00  0.00000000E+00  0.00000000E+00
  0.00000000E+00  0.00000000E+00  0.00000000E+00
  0.00000000E+00  0.00000000E+00  0.00000000E+00
  0.00000000E+00  0.00000000E+00  0.00000000E+00
  0.00000000E+00  0.00000000E+00  0.00000000E+00
  0.00000000E+00  0.00000000E+00  0.00000000E+00
  0.00000000E+00  0.00000000E+00  0.00000000E+00
  0.00000000E+00  0.00000000E+00  0.00000000E+00
  0.00000000E+00  0.00000000E+00  0.00000000E+00
  0.00000000E+00  0.00000000E+00  0.00000000E+00
  0.00000000E+00  0.00000000E+00  0.00000000E+00
  0.00000000E+00  0.00000000E+00  0.00000000E+00
  0.00000000E+00  0.00000000E+00  0.00000000E+00
  0.00000000E+00  0.00000000E+00  0.00000000E+00
  0.00000000E+00  0.00000000E+00  0.00000000E+00
  0.00000000E+00  0.00000000E+00  0.00000000E+00
  0.00000000E+00  0.00000000E+00  0.00000000E+00
  0.00000000E+00  0.00000000E+00  0.00000000E+00
  0.00000000E+00  0.00000000E+00  0.00000000E+00
  0.00000000E+00  0.00000000E+00  0.00000000E+00
  0.00000000E+00  0.00000000E+00  0.00000000E+00
  0.00000000E+00  0.00000000E+00  0.00000000E+00
  0.00000000E+00  0.00000000E+00  0.00000000E+00
  0.00000000E+00  0.00000000E+00  0.00000000E+00
  0.00000000E+00  0.00000000E+00  0.00000000E+00
  0.00000000E+00  0.00000000E+00  0.00000000E+00
  0.00000000E+00  0.00000000E+00  0.00000000E+00
  0.00000000E+00  0.00000000E+00  0.00000000E+00
  0.00000000E+00  0.00000000E+00  0.00000000E+00
  0.00000000E+00  0.00000000E+00  0.00000000E+00
  0.00000000E+00  0.00000000E+00  0.00000000E+00
  0.00000000E+00  0.00000000E+00  0.00000000E+00
  0.00000000E+00  0.00000000E+00  0.00000000E+00
  0.00000000E+00  0.00000000E+00  0.00000000E+00
  0.00000000E+00  0.00000000E+00  0.00000000E+00
  0.00000000E+00  0.00000000E+00  0.00000000E+00
  0.00000000E+00  0.00000000E+00  0.00000000E+00
  0.00000000E+00  0.00000000E+00  0.00000000E+00
  0.00000000E+00  0.00000000E+00  0.00000000E+00
  0.00000000E+00  0.00000000E+00  0.00000000E+00
  0.00000000E+00  0.00000000E+00  0.00000000E+00
  0.00000000E+00  0.00000000E+00  0.00000000E+00
  0.00000000E+00  0.00000000E+00  0.00000000E+00
  0.00000000E+00  0.00000000E+00  0.00000000E+00
  0.00000000E+00  0.00000000E+00  0.00000000E+00
  0.00000000E+00  0.00000000E+00  0.00000000E+00
  0.00000000E+00  0.00000000E+00  0.00000000E+00
  0.00000000E+00  0.00000000E+00  0.00000000E+00
  0.00000000E+00  0.00000000E+00  0.00000000E+00
  0.00000000E+00  0.00000000E+00  0.00000000E+00
  0.00000000E+00  0.00000000E+00  0.00000000E+00
  0.00000000E+00  0.00000000E+00  0.00000000E+00
  0.00000000E+00  0.00000000E+00  0.00000000E+00
  0.00000000E+00  0.00000000E+00  0.00000000E+00
  0.00000000E+00  0.00000000E+00  0.00000000E+00
  0.00000000E+00  0.00000000E+00  0.00000000E+00
  0.00000000E+00  0.00000000E+00  0.00000000E+00
  0.00000000E+00  0.00000000E+00  0.00000000E+00
  0.00000000E+00  0.00000000E+00  0.00000000E+00
  0.00000000E+00  0.00000000E+00  0.00000000E+00
  0.00000000E+00  0.00000000E+00  0.00000000E+00
  0.00000000E+00  0.00000000E+00  0.00000000E+00
  0.00000000E+00  0.00000000E+00  0.00000000E+00
  0.00000000E+00  0.00000000E+00  0.00000000E+00
  0.00000000E+00  0.00000000E+00  0.00000000E+00
  0.00000000E+00  0.00000000E+00  0.00000000E+00
  0.00000000E+00  0.00000000E+00  0.00000000E+00
  0.00000000E+00  0.00000000E+00  0.00000000E+00
  0.00000000E+00  0.00000000E+00  0.00000000E+00
  0.00000000E+00  0.00000000E+00  0.00000000E+00
  0.00000000E+00  0.00000000E+00  0.00000000E+00
  0.00000000E+00  0.00000000E+00  0.00000000E+00
  0.00000000E+00  0.00000000E+00  0.00000000E+00
  0.00000000E+00  0.00000000E+00  0.00000000E+00
  0.00000000E+00  0.00000000E+00  0.00000000E+00
  0.00000000E+00  0.00000000E+00  0.00000000E+00
  0.00000000E+00  0.00000000E+00  0.00000000E+00
  0.00000000E+00  0.00000000E+00  0.00000000E+00
  0.00000000E+00  0.00000000E+00  0.00000000E+00
  0.00000000E+00  0.00000000E+00  0.00000000E+00
  0.00000000E+00  0.00000000E+00  0.00000000E+00
  0.00000000E+00  0.00000000E+00  0.00000000E+00
  0.00000000E+00  0.00000000E+00  0.00000000E+00
  0.00000000E+00  0.00000000E+00  0.00000000E+00
  0.00000000E+00  0.00000000E+00  0.00000000E+00
  0.00000000E+00  0.00000000E+00  0.00000000E+00
  0.00000000E+00  0.00000000E+00  0.00000000E+00
  0.00000000E+00  0.00000000E+00  0.00000000E+00
  0.00000000E+00  0.00000000E+00  0.00000000E+00
  0.00000000E+00  0.00000000E+00  0.00000000E+00
  0.00000000E+00  0.00000000E+00  0.00000000E+00
  0.00000000E+00  0.00000000E+00  0.00000000E+00
  0.00000000E+00  0.00000000E+00  0.00000000E+00
  0.00000000E+00  0.00000000E+00  0.00000000E+00
  0.00000000E+00  0.00000000E+00  0.00000000E+00
  0.00000000E+00  0.00000000E+00  0.00000000E+00
  0.00000000E+00  0.00000000E+00  0.00000000E+00
  0.00000000E+00  0.00000000E+00  0.00000000E+00
  0.00000000E+00  0.00000000E+00  0.00000000E+00
  0.00000000E+00  0.00000000E+00  0.00000000E+00
  0.00000000E+00  0.00000000E+00  0.00000000E+00
  0.00000000E+00  0.00000000E+00  0.00000000E+00
  0.00000000E+00  0.00000000E+00  0.00000000E+00
  0.00000000E+00  0.00000000E+00  0.00000000E+00
  0.00000000E+00  0.00000000E+00  0.00000000E+00
  0.00000000E+00  0.00000000E+00  0.00000000E+00