Ge Se                                   
   1.00000000000000     
    20.8706398010253906    0.0000000000000000    0.0000000000000000
     0.0000000000000000   20.8706398010253906    0.0000000000000000
     0.0000000000000000    0.0000000000000000   20.8706398010253906
   Ge   Se
   150   150
Direct
  0.4142770606012812  0.7054020438619868  0.2207583601116061
  0.1220635101090991  0.9952144319506406  0.5716376313677428
  0.8389101250018274  0.2366162890462980  0.2559967385607483
  0.0233752150547081  0.6136124940437664  0.7536733709505187
  0.6616343397993369  0.0362377285484207  0.4241387299685184
  0.2399373111835610  0.3918791152527827  0.2267811985950607
  0.5029560865054929  0.0779850054373953  0.9149972298008173
  0.6368683407246110  0.9216962254493867  0.6874822587342801
  0.8093878888091588  0.0028518415870984  0.9748822518900263
  0.4180819766891812  0.6130606288910713  0.3655117771447355
  0.0699013523974972  0.9543148659439551  0.3973553911104598
  0.1769705240162609  0.6917026618977207  0.9636355352103506
  0.1264966063167531  0.2699133853887873  0.4547787069085417
  0.4946026304515536  0.9960014017271448  0.0105738938536389
  0.8636821583457623  0.6614416968126458  0.7474091355997103
  0.9021331685143791  0.4464392865166873  0.2601814726642909
  0.4822021254759161  0.8609563104580207  0.7287684118523992
  0.2622381776112899  0.1060248723061121  0.6489350203763742
  0.5878213869755404  0.9303201821152310  0.4230801862924101
  0.9288238229221003  0.7601697864496270  0.5769554343454003
  0.3817184901704830  0.7011837072333050  0.6647483872644473
  0.8185327211231046  0.5796952262524625  0.1413231229261586
  0.0065476048270772  0.3477433287783933  0.6643164882567351
  0.3046548822327766  0.2870750164613101  0.3833029217545947
  0.5927666431210667  0.2615401013234836  0.5325070509908595
  0.8543059356310511  0.8538475248247647  0.1424796928252670
  0.2244277553412996  0.2121106819105097  0.3258396419370982
  0.8679777219966052  0.3026880677442044  0.6149394531806837
  0.1857812606181244  0.8711649598043067  0.2809269510590160
  0.4821311515640272  0.4539933458320959  0.0295987502136915
  0.6302055250581341  0.7455675401092211  0.9007430800161053
  0.8156561543077477  0.7246070370832683  0.9971578118282198
  0.5377445109515886  0.9254767932839286  0.8243436612057149
  0.7598589690781261  0.1822677116679473  0.5993695461460532
  0.6414715247149353  0.9728244872312070  0.8803295791272896
  0.7015194658759821  0.7483682910054131  0.0516721991181385
  0.3464172525541918  0.8670339344007358  0.6522304328452923
  0.4309010717449165  0.2602953552250553  0.6387445990092836
  0.7673197378860350  0.8896406961851840  0.0047016845789010
  0.1569247902712789  0.1584683475729680  0.7897276156602365
  0.5680598480719983  0.0732842049408356  0.7442809258563154
  0.7528917281783997 -0.0143510448734563  0.1706777778723781
  0.3454463377418163  0.3642198756746026  0.7794077720590906
  0.0504297635203963  0.7169024722233809  0.5207628869266802
  0.7095181411216032  0.8488458962870188  0.8926189564520919
  0.7503163222630417  0.6818017736643037  0.1467708529292209
  0.2795755792174813  0.5134229246042443  0.8692223423997310
  0.7453629760720755  0.5386790750418249  0.4622501224001746
  0.2351416063142657  0.4345585870137152  0.4342549085014891
  0.9020163400754000  0.6327940068694561  0.9785299357160463
  0.1367268640946897  0.7199336555971574  0.1254391860988871
  0.8120385912146674  0.6337076257720030  0.5200214678132914
  0.2403911499059161  0.2228823087908427  0.9342475897852273
  0.4655997768884824  0.1971004038577844  0.4481815750729484
  0.5355147282750568  0.4055648514109508  0.4510305972736020
  0.4549642445613750  0.8006416878142294  0.0464282709737130
  0.7360396779889569  0.9108064523703651  0.3534606062002845
  0.1285488025394547  0.5352640116932820  0.3443895713756545
  0.5907922221531492  0.7773744082764494  0.1387804224606436
  0.0050327945247234  0.3378669411637116  0.2407158082740846
  0.4773251133845623  0.2858447946166509  0.0396993353784312
  0.3049651808460419  0.5291742779881019  0.5714519099440942
  0.2398973444852313  0.7235134550515662  0.5693569400319536
  0.6156725306765375  0.1070508823075144  0.5661287887047315
  0.3533607217744043  0.2015296846921814  0.9772542518500223
  0.9244796911869061  0.3999657383455212  0.0307045162401835
  0.5987458033972916  0.7191747823603242  0.2483335602362016
  0.6348567492582526  0.5438285631610842  0.5305493244332051
  0.6645207134332021  0.4159319918793746  0.6701935388779174
 -0.0036013039739268  0.3027158475474548  0.4194895575083676
  0.3666445374566457  0.9176062110012114  0.1512792611201936
  0.3409343947208883  0.5256572110554977  0.6963668796844126
  0.4976237921309576  0.5000928291468804  0.1940593716816073
  0.8848279407297128  0.5429052922676602  0.8882760171771037
  0.3475032750269623  0.4464498432804508  0.1885992458750166
  0.9493353444419049  0.2696219633184955  0.1508368693581450
  0.6659600200322913  0.5249859751022087  0.8539603785864721
  0.5292363632209632  0.8439295780936803  0.3537296997361953
  0.0152683125782454  0.9913795300856805  0.2278528988707908
  0.4655943064734171  0.8177544770206207  0.2517604132565267
  0.0847620505632234  0.6540866418011013  0.0313796154549094
  0.1732862512277671  0.1892918324723883  0.6258980184685766
  0.6921210125394650  0.8946833770744853  0.5726916187110657
  0.2330822815326571  0.6518156996748184  0.3494611556680450
  0.8101891618109140  0.7608657755758237  0.5409201320442393
  0.7643747553005670  0.6680992554989522  0.8227658336759043
  0.7508459833558666  0.3985969652516299  0.0063068179183301
  0.2670436750003557  0.9035376488439930  0.4572907431618138
  0.9201192940138326  0.7615348887398152  0.2922672525577163
  0.2455327603287177  0.5876510730731949  0.2408598845150348
  0.2603970183609066  0.3790186382530586  0.5928248163655102
  0.3525584318131630  0.1237725164244354  0.8318775410421464
  0.1813251113470918  0.3159426145840219  0.8702328239345126
  0.2709031745414138  0.8756342605328056  0.0332423999699724
  0.2881769532602547  0.2892526643490946  0.5092460300325430
  0.9234630293034298  0.6371373617830816  0.5778113231869872
  0.5235559937798302  0.7044399494667752  0.5548638947350059
  0.9091250859066895  0.9204457146139599  0.3873055348948181
  0.1824611428163738  0.3060485329678507  0.1348197585245662
  0.8682395346838052 -0.0036063813608926  0.2229974411584917
  0.7329635742346667  0.3557222683561476  0.4481498638613640
  0.2300586601634262  0.5505292993522117  0.0515123494742456
  0.8117482673263569  0.4076648653089804  0.1846527675496395
  0.9074326989072414  0.1452482107692484  0.0051725712685606
  0.0673723645211406  0.8234182878744387  0.2769374571545791
  0.3150845830634045  0.1303314818722759  0.3319740842105632
  0.6710808642964536  0.0763905964480285  0.0215689687524318
  0.8893765240792748  0.4259962862888706  0.4124396443925581
  0.1772308388647421  0.7258094751098370  0.6741000796917822
  0.4991395171688732  0.2713804682951858  0.2883035059665741
  0.6782127007363800  0.6605514451274104  0.6530825967430260
  0.4774693711315027  0.1993067643891493  0.9398375514588918
  0.7475344608352820 -0.0056837634635361  0.8095879695488205
  0.1995611743645405  0.3030484358751287  0.6700771683729890
  0.5820058918657924  0.2228343413746241  0.8506820883678601
  0.7563749338468823  0.1105447107093859  0.9380344754287406
  0.0123544818952886  0.6610243197122465  0.3813257287389284
 -0.0125329684449734  0.2303907680877765  0.0386050078568757
  0.6224383112972078  0.5361128535711910  0.0439187768216256
  0.3489641233717707  0.1649325401421357  0.2199862309988774
 -0.0153538012036912  0.8510997125265004  0.6658077371890022
  0.0166241588708954  0.9742129238364790  0.7709191163189548
  0.5079161513054823  0.7667589295259271  0.8840557153907103
  0.6163654453394166  0.2411387293684834  0.6843257376650715
  0.2856336115132413  0.3926060344736272  0.0350290080195047
  0.7872705140429236  0.0563047462276956  0.2985113660518092
  0.0572089863955392  0.1439322584042321  0.5983903882837645
  0.8156602703040502  0.2768697162899648  0.4918347376552203
  0.7047486205354193  0.4071801692347212  0.3400618041045140
  0.0716992577194768  0.4529379240801026  0.5217273775302301
  0.2003312437706146  0.6203328107498839  0.7349017892640058
  0.4013743646532474 -0.0240112075321720  0.3264881145164452
  0.8623415747642371  0.7594658145554299  0.6801529296648953
  0.9199084893692829  0.1817061202780434  0.7190331342407519
  0.6823917629170938  0.3414401025976206  0.8410962845294436
  0.1858754036153971  0.0167578881355332  0.6784004906526724
 -0.0066497064238015  0.5666406159862017  0.2149971606184127
  0.9842240078271165  0.0289076296807759  0.9210887294499013
  0.5121243868286052  0.8309287325589698  0.5758402880333665
  0.2877360126652992  0.0533711472986020  0.1855371466186919
  0.3282307881538061  0.0618103224607417  0.5493894313498525
  0.5040764671719516  0.9668081394571914  0.5885654618526697
  0.1575930023705379  0.8455849155491031  0.6829384700441935
  0.4808653143506441  0.5102346014815701  0.6247655095143601
  0.0832412380268680  0.1776096640696844  0.9815627598117702
  0.1508617764851440  0.5490705107116747  0.8790888601818186
  0.1590705995487430  0.5772127551596989  0.4839462197896525
  0.4304660586573614  0.6302723758810506  0.0348118199377287
  0.2444136974161438  0.2211852165120443  0.2018642825104399
  0.1176170623564931  0.4769498969081986  0.7122103709134350
  0.2749657175708719  0.6295808688746939  0.9720149424407589
  0.7263395828479060  0.3492078809842531  0.2414227901131507
  0.6362948677477771  0.6659077161626726  0.5366783116550274
  0.7238803328105086  0.8858588297722586  0.7604673679043634
  0.1284746400567310  0.3486732993087440  0.5489589003936622
  0.0546628800848665  0.5050828646398251  0.8229836645983231
  0.3660305830647477  0.3612401752781122  0.6569744028899124
  0.6516063197830659  0.6842977345248594  0.8016962426327376
  0.2872141909753232  0.0175817125748024  0.3058273228645174
  0.2450325133723593  0.9351140086302726  0.1388417333633182
  0.0304934585733151  0.7098276102328605  0.2592247708993817
  0.2869837434704142  0.4026076721756203  0.9154808020861995
  0.1453025648308581  0.6666271263487480  0.8479313766228392
  0.5654545419942489  0.3560780299821847  0.8298156354969005
  0.8908793717403770  0.0760520426028567  0.7671094225577791
  0.6257093192520281  0.7786784827065176  0.3434654672155761
  0.9529351469821222  0.3542806539333851  0.7746774768873246
  0.4441567672749124  0.3934720675956811  0.2175158048095222
  0.6903853040918261  0.6467612247742485  0.2403324623222041
  0.5039785571489140  0.6428537565155833  0.2738442782881975
  0.1755449645640002  0.7927452096212572  0.0292565436268811
  0.1098748593757811  0.3518376831574287  0.7324162222584438
  0.5056880092975756  0.0835163261459395  0.0900754993890839
  0.7583342094248269  0.1669927260354471  0.3081976278928987
  0.1896103046792619  0.1163522747296470  0.1998325887248482
  0.9550720773174739  0.3065286418023525  0.9604944045658999
  0.8354538277332938  0.9455719495143843  0.8745989719109696
  0.6129792971242265  0.0925464379218278  0.8745718742867850
  0.3902568620304396  0.2404395924979790  0.8645313495389351
  0.1245987097528472  0.9747702976869062  0.2903819962673269
  0.1127459500937053  0.5425056481655631  0.0015388933194732
  0.6036910403658641  0.5230297982517513  0.6487854525457701
  0.3346236609126153  0.6539965653769166  0.5606745593773872
  0.3777468960813360  0.9288885446329306  0.4360157354860720
  0.5212007171209742  0.8722810427251696  0.1633711112276257
  0.9657866760842280  0.3868438360073625  0.5010017914845254
  0.0839951663586762  0.0639963627284487 -0.0208112531361873
  0.5377794024040344  0.5274546048991824  0.4710530650000500
  0.8413661047212594  0.8956027559389877  0.2856146979277147
  0.5137769554850938  0.0815678299739289  0.6275100395376064
  0.3026479293153949  0.8235486994557010  0.5421294314423392
  0.3544577461109871  0.2904910955826938  0.0576746238425648
  0.7469795446616165  0.4893945438174516  0.1283748254490631
  0.0191599281750394  0.4701072703975226  0.6410045825999177
  0.2343311776050838  0.1185265396341703  0.8759108867031181
  0.4516565701547161  0.2044808917722406  0.1994266405596664
  0.5862040421253456  0.4045222659083598  0.3302819327593320
  0.4923825924217268  0.8768753675077430  0.9216919817784913
  0.6867424249261348  0.9913263784474544  0.2720090409472091
  0.2339560559446381  0.6447610283185812  0.1334596408223814
  0.9185437443429578  0.5755026602070245  0.6869354388594726
  0.4856099350126972  0.6363432263043142  0.6456021007532488
  0.6388560223404878  0.6679241326732792  0.9890736436192337
  0.1233010296699699  0.0325221690851296  0.7787701055880198
  0.8962815703354045  0.6840283291721360  0.3815878235797439
  0.1836260006363905  0.2005377010637081  0.0367146769391609
  0.3618313045318156  0.8733603593641625  0.2659047883220856
  0.5235732014629740  0.1884352859704816  0.7512913230588265
  0.7834721894438524  0.0123894047699398  0.4087805686411564
  0.6084708272194610  0.2718678065139078  0.4086845564789895
  0.2677775506145501  0.5560275258115206  0.4221376796492275
  0.7294144230635009  0.2996404581280535  0.9337198414887576
  0.6886749902122925  0.0099242093730109  0.5380283037011071
  0.6100605366550124  0.8418112993841187  0.5027549120690580
 -0.0129486531989164  0.9788507832729479  0.6476547667040469
  0.2541820409838522  0.2773404549630339  0.7766053598785791
  0.0880816770681511  0.2216955716571980  0.8692054897535960
  0.8730957410837223  0.5649790943529216  0.2467681747792553
  0.0950328832199247  0.2678549712476073  0.2063560833868149
  0.9150348300273878  0.5713261778120997  0.0786344590491749
  0.5612784340831957  0.1849691224264554  0.3508763523016527
  0.1745445669293228  0.4934478140434878  0.2244380359559659
  0.6395464517507403  0.3779153613812945  0.5159473530699157
  0.4459271227620032  0.5051533961701862  0.7414519803812017
  0.7385150135354538  0.5173085812400070  0.3459973021815697
  0.2999688658529105  0.3984048651698492  0.3367653021415128
  0.1911968683380475  0.5524055709469432  0.6000938208232941
  0.6926907070305959  0.1155768962562610  0.6652861172770553
  0.0020340428768552  0.8756965183235674  0.1966384518077682
  0.8799903372832646  0.1761092757956944  0.6071271867765063
  0.8028837937731540  0.7647123176264277  0.8815546578679955
  0.4236583036080381  0.2936554320374122  0.3863369156513519
  0.8004822776515943  0.1771884958897389  0.0257055721131810
  0.8720687825297967  0.8295692741178831  0.0187476188134407
  0.6524005896793419  0.4581320623737324  0.9541733471243953
  0.5829739606925075  0.8133046238768005  0.6776326979896440
  0.6870514919488528  0.0734425918996373  0.1362152937156215
  0.5089597281256385  0.0018837745381309  0.4730300623156793
  0.8000364667661003  0.4408223864216771  0.5025664061339967
  0.5129625258637723  0.5557428369936707  0.9789149715712935
  0.9678496701989773  0.0142791079159554  0.3424034312263543
  0.8503281131180367  0.7387708959424178  0.1774971545211696
  0.8679104726149527  0.2845874632679248  0.7510030199267143
  0.5794039270631508  0.1522632130498853  0.0375104446226479
  0.4977583505727685  0.6853779683436053  0.4390909876767292
  0.0301664558280800  0.2041511900245923  0.4901876555226042
  0.1130661504947612  0.8764011293439340  0.5808089379697040
  0.7835078973177523  0.8660389401568537  0.4995189021024580
  0.8801941560166775  0.0176538227357375  0.6694721657587300
  0.5062749397623454  0.3352029471933128  0.5741372866091224
  0.7445356049195804  0.2933883078380474  0.6278333986740781
  0.4782725844563777  0.3703234420489768  0.9536876947527408
  0.3850792776573442  0.9758785703346378  0.6232406772043210
  0.7305465667904458  0.8783397003158290  0.1230953431881004
  0.0671440037982642  0.7083231929311934  0.6434786588069595
  0.0063676745270659  0.5429464166222386  0.3360238348521083
  0.8753137474794153  0.3004308372560898  0.3873577992052230
  0.0117515182863782  0.5995519212232744  0.5130785738742906
  0.2441578263839849  0.9171410291146571  0.7156628262414839
  0.9917580235491059  0.4424088739158548  0.1769092032324407
  0.1247208276237877  0.4265319419252857  0.3887031275824184
  0.2636338287422176  0.4574847655066154  0.7584774167143832
  0.1714535522699429  0.7009169134808340  0.4784778811746016
  0.3571963139056494  0.5566629640098614  0.2278856460139550
  0.9144786499153004  0.0266767596771938  0.0280781177013553
  0.4695145549208902  0.0239966076827628  0.8093823762669282
  0.6162482038497488  0.9712372557046948  0.0010941157507176
  0.8474155408856934  0.4349376709329950  0.9396110573966112
  0.8911576688666604  0.8509365260437400  0.7412305619751756
  0.4223924505494294  0.7187080489092326  0.9520225567434079
  0.9115927037002475  0.1666494447276484  0.1941724816103449
  0.4471725797683933  0.7633330274616467  0.7851037127143028
  0.0106128404053416  0.8440779240019569  0.3810910963161719
  0.7676967340319824  0.5810230025518305  0.9005552978166701
  0.9336266788070304  0.1352491244423451  0.8918051461273389
 -0.0018486395528418  0.7026128353974148  0.9757974114301706
  0.8429087413726726  0.3273846960252798  0.1022428141304858
  0.1804493735733240  0.8515421159279232  0.4031170593068829
  0.4932041026407291  0.7035041874322668  0.1154936361338535
  0.0317637773217520  0.2045670000954960  0.7003502051642492
  0.6886497915393476  0.2393049090737122  0.7840153815641066
  0.5655462122010104  0.5107553939182511  0.2910441115570231
  0.3487468680779635  0.1471386466632835  0.7145151928025213
  0.7579740920423419  0.1716046534194771  0.4845713324232873
  0.5674654902347116  0.4376765299047863  0.1069417622727247
  0.5630100774189405  0.3551114708963330  0.7114371093968649
  0.3709942636060776  0.4773613260422795  0.0693410301752883
  0.2266338099882107  0.0043992248431727  0.5017035278079301
  0.3215782934202847  0.6315078291941624  0.7505465430139828
  0.0672963556197930  0.8578823206356829  0.7585987401619483
  0.4535006945640746  0.7923533393333573  0.4324592500810913
  0.7470398119311689  0.7689540332135052  0.6425896326102030
  0.3977723353229849  0.1047545937341024  0.4063860717789649
  0.3726887503008807  0.2150531040105488  0.5425122044779990
  0.7229372595880624  0.4340495650366356  0.7823296746530728
  0.9459787549065626  0.6728820084488063  0.8270933007654365
  0.2082306846685960  0.1984091370453502  0.5101314857746256
  0.7667925278321749  0.5868432845761792  0.6186994775709109
  0.3427142747125712  0.7031046242159598  0.3442583381815363
  0.3456460330962483  0.8059359682287833  0.1018244520285138
 
  0.00000000E+00  0.00000000E+00  0.00000000E+00
  0.00000000E+00  0.00000000E+00  0.00000000E+00
  0.00000000E+00  0.00000000E+00  0.00000000E+00
  0.00000000E+00  0.00000000E+00  0.00000000E+00
  0.00000000E+00  0.00000000E+00  0.00000000E+00
  0.00000000E+00  0.00000000E+00  0.00000000E+00
  0.00000000E+00  0.00000000E+00  0.00000000E+00
  0.00000000E+00  0.00000000E+00  0.00000000E+00
  0.00000000E+00  0.00000000E+00  0.00000000E+00
  0.00000000E+00  0.00000000E+00  0.00000000E+00
  0.00000000E+00  0.00000000E+00  0.00000000E+00
  0.00000000E+00  0.00000000E+00  0.00000000E+00
  0.00000000E+00  0.00000000E+00  0.00000000E+00
  0.00000000E+00  0.00000000E+00  0.00000000E+00
  0.00000000E+00  0.00000000E+00  0.00000000E+00
  0.00000000E+00  0.00000000E+00  0.00000000E+00
  0.00000000E+00  0.00000000E+00  0.00000000E+00
  0.00000000E+00  0.00000000E+00  0.00000000E+00
  0.00000000E+00  0.00000000E+00  0.00000000E+00
  0.00000000E+00  0.00000000E+00  0.00000000E+00
  0.00000000E+00  0.00000000E+00  0.00000000E+00
  0.00000000E+00  0.00000000E+00  0.00000000E+00
  0.00000000E+00  0.00000000E+00  0.00000000E+00
  0.00000000E+00  0.00000000E+00  0.00000000E+00
  0.00000000E+00  0.00000000E+00  0.00000000E+00
  0.00000000E+00  0.00000000E+00  0.00000000E+00
  0.00000000E+00  0.00000000E+00  0.00000000E+00
  0.00000000E+00  0.00000000E+00  0.00000000E+00
  0.00000000E+00  0.00000000E+00  0.00000000E+00
  0.00000000E+00  0.00000000E+00  0.00000000E+00
  0.00000000E+00  0.00000000E+00  0.00000000E+00
  0.00000000E+00  0.00000000E+00  0.00000000E+00
  0.00000000E+00  0.00000000E+00  0.00000000E+00
  0.00000000E+00  0.00000000E+00  0.00000000E+00
  0.00000000E+00  0.00000000E+00  0.00000000E+00
  0.00000000E+00  0.00000000E+00  0.00000000E+00
  0.00000000E+00  0.00000000E+00  0.00000000E+00
  0.00000000E+00  0.00000000E+00  0.00000000E+00
  0.00000000E+00  0.00000000E+00  0.00000000E+00
  0.00000000E+00  0.00000000E+00  0.00000000E+00
  0.00000000E+00  0.00000000E+00  0.00000000E+00
  0.00000000E+00  0.00000000E+00  0.00000000E+00
  0.00000000E+00  0.00000000E+00  0.00000000E+00
  0.00000000E+00  0.00000000E+00  0.00000000E+00
  0.00000000E+00  0.00000000E+00  0.00000000E+00
  0.00000000E+00  0.00000000E+00  0.00000000E+00
  0.00000000E+00  0.00000000E+00  0.00000000E+00
  0.00000000E+00  0.00000000E+00  0.00000000E+00
  0.00000000E+00  0.00000000E+00  0.00000000E+00
  0.00000000E+00  0.00000000E+00  0.00000000E+00
  0.00000000E+00  0.00000000E+00  0.00000000E+00
  0.00000000E+00  0.00000000E+00  0.00000000E+00
  0.00000000E+00  0.00000000E+00  0.00000000E+00
  0.00000000E+00  0.00000000E+00  0.00000000E+00
  0.00000000E+00  0.00000000E+00  0.00000000E+00
  0.00000000E+00  0.00000000E+00  0.00000000E+00
  0.00000000E+00  0.00000000E+00  0.00000000E+00
  0.00000000E+00  0.00000000E+00  0.00000000E+00
  0.00000000E+00  0.00000000E+00  0.00000000E+00
  0.00000000E+00  0.00000000E+00  0.00000000E+00
  0.00000000E+00  0.00000000E+00  0.00000000E+00
  0.00000000E+00  0.00000000E+00  0.00000000E+00
  0.00000000E+00  0.00000000E+00  0.00000000E+00
  0.00000000E+00  0.00000000E+00  0.00000000E+00
  0.00000000E+00  0.00000000E+00  0.00000000E+00
  0.00000000E+00  0.00000000E+00  0.00000000E+00
  0.00000000E+00  0.00000000E+00  0.00000000E+00
  0.00000000E+00  0.00000000E+00  0.00000000E+00
  0.00000000E+00  0.00000000E+00  0.00000000E+00
  0.00000000E+00  0.00000000E+00  0.00000000E+00
  0.00000000E+00  0.00000000E+00  0.00000000E+00
  0.00000000E+00  0.00000000E+00  0.00000000E+00
  0.00000000E+00  0.00000000E+00  0.00000000E+00
  0.00000000E+00  0.00000000E+00  0.00000000E+00
  0.00000000E+00  0.00000000E+00  0.00000000E+00
  0.00000000E+00  0.00000000E+00  0.00000000E+00
  0.00000000E+00  0.00000000E+00  0.00000000E+00
  0.00000000E+00  0.00000000E+00  0.00000000E+00
  0.00000000E+00  0.00000000E+00  0.00000000E+00
  0.00000000E+00  0.00000000E+00  0.00000000E+00
  0.00000000E+00  0.00000000E+00  0.00000000E+00
  0.00000000E+00  0.00000000E+00  0.00000000E+00
  0.00000000E+00  0.00000000E+00  0.00000000E+00
  0.00000000E+00  0.00000000E+00  0.00000000E+00
  0.00000000E+00  0.00000000E+00  0.00000000E+00
  0.00000000E+00  0.00000000E+00  0.00000000E+00
  0.00000000E+00  0.00000000E+00  0.00000000E+00
  0.00000000E+00  0.00000000E+00  0.00000000E+00
  0.00000000E+00  0.00000000E+00  0.00000000E+00
  0.00000000E+00  0.00000000E+00  0.00000000E+00
  0.00000000E+00  0.00000000E+00  0.00000000E+00
  0.00000000E+00  0.00000000E+00  0.00000000E+00
  0.00000000E+00  0.00000000E+00  0.00000000E+00
  0.00000000E+00  0.00000000E+00  0.00000000E+00
  0.00000000E+00  0.00000000E+00  0.00000000E+00
  0.00000000E+00  0.00000000E+00  0.00000000E+00
  0.00000000E+00  0.00000000E+00  0.00000000E+00
  0.00000000E+00  0.00000000E+00  0.00000000E+00
  0.00000000E+00  0.00000000E+00  0.00000000E+00
  0.00000000E+00  0.00000000E+00  0.00000000E+00
  0.00000000E+00  0.00000000E+00  0.00000000E+00
  0.00000000E+00  0.00000000E+00  0.00000000E+00
  0.00000000E+00  0.00000000E+00  0.00000000E+00
  0.00000000E+00  0.00000000E+00  0.00000000E+00
  0.00000000E+00  0.00000000E+00  0.00000000E+00
  0.00000000E+00  0.00000000E+00  0.00000000E+00
  0.00000000E+00  0.00000000E+00  0.00000000E+00
  0.00000000E+00  0.00000000E+00  0.00000000E+00
  0.00000000E+00  0.00000000E+00  0.00000000E+00
  0.00000000E+00  0.00000000E+00  0.00000000E+00
  0.00000000E+00  0.00000000E+00  0.00000000E+00
  0.00000000E+00  0.00000000E+00  0.00000000E+00
  0.00000000E+00  0.00000000E+00  0.00000000E+00
  0.00000000E+00  0.00000000E+00  0.00000000E+00
  0.00000000E+00  0.00000000E+00  0.00000000E+00
  0.00000000E+00  0.00000000E+00  0.00000000E+00
  0.00000000E+00  0.00000000E+00  0.00000000E+00
  0.00000000E+00  0.00000000E+00  0.00000000E+00
  0.00000000E+00  0.00000000E+00  0.00000000E+00
  0.00000000E+00  0.00000000E+00  0.00000000E+00
  0.00000000E+00  0.00000000E+00  0.00000000E+00
  0.00000000E+00  0.00000000E+00  0.00000000E+00
  0.00000000E+00  0.00000000E+00  0.00000000E+00
  0.00000000E+00  0.00000000E+00  0.00000000E+00
  0.00000000E+00  0.00000000E+00  0.00000000E+00
  0.00000000E+00  0.00000000E+00  0.00000000E+00
  0.00000000E+00  0.00000000E+00  0.00000000E+00
  0.00000000E+00  0.00000000E+00  0.00000000E+00
  0.00000000E+00  0.00000000E+00  0.00000000E+00
  0.00000000E+00  0.00000000E+00  0.00000000E+00
  0.00000000E+00  0.00000000E+00  0.00000000E+00
  0.00000000E+00  0.00000000E+00  0.00000000E+00
  0.00000000E+00  0.00000000E+00  0.00000000E+00
  0.00000000E+00  0.00000000E+00  0.00000000E+00
  0.00000000E+00  0.00000000E+00  0.00000000E+00
  0.00000000E+00  0.00000000E+00  0.00000000E+00
  0.00000000E+00  0.00000000E+00  0.00000000E+00
  0.00000000E+00  0.00000000E+00  0.00000000E+00
  0.00000000E+00  0.00000000E+00  0.00000000E+00
  0.00000000E+00  0.00000000E+00  0.00000000E+00
  0.00000000E+00  0.00000000E+00  0.00000000E+00
  0.00000000E+00  0.00000000E+00  0.00000000E+00
  0.00000000E+00  0.00000000E+00  0.00000000E+00
  0.00000000E+00  0.00000000E+00  0.00000000E+00
  0.00000000E+00  0.00000000E+00  0.00000000E+00
  0.00000000E+00  0.00000000E+00  0.00000000E+00
  0.00000000E+00  0.00000000E+00  0.00000000E+00
  0.00000000E+00  0.00000000E+00  0.00000000E+00
  0.00000000E+00  0.00000000E+00  0.00000000E+00
  0.00000000E+00  0.00000000E+00  0.00000000E+00
  0.00000000E+00  0.00000000E+00  0.00000000E+00
  0.00000000E+00  0.00000000E+00  0.00000000E+00
  0.00000000E+00  0.00000000E+00  0.00000000E+00
  0.00000000E+00  0.00000000E+00  0.00000000E+00
  0.00000000E+00  0.00000000E+00  0.00000000E+00
  0.00000000E+00  0.00000000E+00  0.00000000E+00
  0.00000000E+00  0.00000000E+00  0.00000000E+00
  0.00000000E+00  0.00000000E+00  0.00000000E+00
  0.00000000E+00  0.00000000E+00  0.00000000E+00
  0.00000000E+00  0.00000000E+00  0.00000000E+00
  0.00000000E+00  0.00000000E+00  0.00000000E+00
  0.00000000E+00  0.00000000E+00  0.00000000E+00
  0.00000000E+00  0.00000000E+00  0.00000000E+00
  0.00000000E+00  0.00000000E+00  0.00000000E+00
  0.00000000E+00  0.00000000E+00  0.00000000E+00
  0.00000000E+00  0.00000000E+00  0.00000000E+00
  0.00000000E+00  0.00000000E+00  0.00000000E+00
  0.00000000E+00  0.00000000E+00  0.00000000E+00
  0.00000000E+00  0.00000000E+00  0.00000000E+00
  0.00000000E+00  0.00000000E+00  0.00000000E+00
  0.00000000E+00  0.00000000E+00  0.00000000E+00
  0.00000000E+00  0.00000000E+00  0.00000000E+00
  0.00000000E+00  0.00000000E+00  0.00000000E+00
  0.00000000E+00  0.00000000E+00  0.00000000E+00
  0.00000000E+00  0.00000000E+00  0.00000000E+00
  0.00000000E+00  0.00000000E+00  0.00000000E+00
  0.00000000E+00  0.00000000E+00  0.00000000E+00
  0.00000000E+00  0.00000000E+00  0.00000000E+00
  0.00000000E+00  0.00000000E+00  0.00000000E+00
  0.00000000E+00  0.00000000E+00  0.00000000E+00
  0.00000000E+00  0.00000000E+00  0.00000000E+00
  0.00000000E+00  0.00000000E+00  0.00000000E+00
  0.00000000E+00  0.00000000E+00  0.00000000E+00
  0.00000000E+00  0.00000000E+00  0.00000000E+00
  0.00000000E+00  0.00000000E+00  0.00000000E+00
  0.00000000E+00  0.00000000E+00  0.00000000E+00
  0.00000000E+00  0.00000000E+00  0.00000000E+00
  0.00000000E+00  0.00000000E+00  0.00000000E+00
  0.00000000E+00  0.00000000E+00  0.00000000E+00
  0.00000000E+00  0.00000000E+00  0.00000000E+00
  0.00000000E+00  0.00000000E+00  0.00000000E+00
  0.00000000E+00  0.00000000E+00  0.00000000E+00
  0.00000000E+00  0.00000000E+00  0.00000000E+00
  0.00000000E+00  0.00000000E+00  0.00000000E+00
  0.00000000E+00  0.00000000E+00  0.00000000E+00
  0.00000000E+00  0.00000000E+00  0.00000000E+00
  0.00000000E+00  0.00000000E+00  0.00000000E+00
  0.00000000E+00  0.00000000E+00  0.00000000E+00
  0.00000000E+00  0.00000000E+00  0.00000000E+00
  0.00000000E+00  0.00000000E+00  0.00000000E+00
  0.00000000E+00  0.00000000E+00  0.00000000E+00
  0.00000000E+00  0.00000000E+00  0.00000000E+00
  0.00000000E+00  0.00000000E+00  0.00000000E+00
  0.00000000E+00  0.00000000E+00  0.00000000E+00
  0.00000000E+00  0.00000000E+00  0.00000000E+00
  0.00000000E+00  0.00000000E+00  0.00000000E+00
  0.00000000E+00  0.00000000E+00  0.00000000E+00
  0.00000000E+00  0.00000000E+00  0.00000000E+00
  0.00000000E+00  0.00000000E+00  0.00000000E+00
  0.00000000E+00  0.00000000E+00  0.00000000E+00
  0.00000000E+00  0.00000000E+00  0.00000000E+00
  0.00000000E+00  0.00000000E+00  0.00000000E+00
  0.00000000E+00  0.00000000E+00  0.00000000E+00
  0.00000000E+00  0.00000000E+00  0.00000000E+00
  0.00000000E+00  0.00000000E+00  0.00000000E+00
  0.00000000E+00  0.00000000E+00  0.00000000E+00
  0.00000000E+00  0.00000000E+00  0.00000000E+00
  0.00000000E+00  0.00000000E+00  0.00000000E+00
  0.00000000E+00  0.00000000E+00  0.00000000E+00
  0.00000000E+00  0.00000000E+00  0.00000000E+00
  0.00000000E+00  0.00000000E+00  0.00000000E+00
  0.00000000E+00  0.00000000E+00  0.00000000E+00
  0.00000000E+00  0.00000000E+00  0.00000000E+00
  0.00000000E+00  0.00000000E+00  0.00000000E+00
  0.00000000E+00  0.00000000E+00  0.00000000E+00
  0.00000000E+00  0.00000000E+00  0.00000000E+00
  0.00000000E+00  0.00000000E+00  0.00000000E+00
  0.00000000E+00  0.00000000E+00  0.00000000E+00
  0.00000000E+00  0.00000000E+00  0.00000000E+00
  0.00000000E+00  0.00000000E+00  0.00000000E+00
  0.00000000E+00  0.00000000E+00  0.00000000E+00
  0.00000000E+00  0.00000000E+00  0.00000000E+00