Ge4 Se4                                 
   1.00000000000000     
     3.9312443733000002    0.0000000000000000    0.0000000000000000
     0.0000000000000000    4.4105257988000002    0.0000000000000000
     0.0000000000000000    0.0000000000000000   11.4300575256000005
   Ge   Se
     4     4
Direct
  0.2500000000000000  0.6037412880000019  0.3674540219999969
  0.7500000000000000  0.1037412660000001  0.1325459780000031
  0.2500000000000000  0.8962587119999981  0.8674539920000015
  0.7500000000000000  0.3962587420000006  0.6325460079999985
  0.2500000000000000  0.5057227610000012  0.1454526630000004
  0.7500000000000000  0.0057227659999981  0.3545473220000019
  0.2500000000000000  0.9942772389999988  0.6454526779999981
  0.7500000000000000  0.4942772389999988  0.8545473220000019
 
  0.00000000E+00  0.00000000E+00  0.00000000E+00
  0.00000000E+00  0.00000000E+00  0.00000000E+00
  0.00000000E+00  0.00000000E+00  0.00000000E+00
  0.00000000E+00  0.00000000E+00  0.00000000E+00
  0.00000000E+00  0.00000000E+00  0.00000000E+00
  0.00000000E+00  0.00000000E+00  0.00000000E+00
  0.00000000E+00  0.00000000E+00  0.00000000E+00
  0.00000000E+00  0.00000000E+00  0.00000000E+00
