Amorphous Sb                            
   1.00000000000000     
    20.5915646190562960    0.0000000000000000    0.0000000000000000
     0.0000000000000000   20.5915646190562960    0.0000000000000000
     0.0000000000000000    0.0000000000000000   20.5915646190562960
   Ge   Se   Cu
   136   136    28
Direct
 -0.0080100540022508  0.6465699453693998  0.8305110393646614
  0.2557199086942836  0.3833394066130247  0.0222073475328740
  0.2031719099068307  0.8212624513189295  0.5945291887042036
  0.4874388978525251  0.6465130716747526  0.0677800115808790
  0.4486481911772832  0.8708369380058859  0.1219025659663608
  0.4616100638221740  0.7946072177954316  0.9792949895134274
  0.5847899670180045  0.8278359152706442  0.9628095312258582
  0.5138471129695676  0.2048287361457393  0.5450779590511069
  0.2268434944256907  0.5499245191267097  0.1173017846398044
  0.0015213679854908  0.6037694413066651  0.3197344426417791
  0.7660310924512249  0.7483353130725315  0.2421920535093582
  0.6882343269669164  0.4125239161227792  0.0903776156462162
  0.5278374901412803  0.3195086907208891  0.8795944806368151
  0.7339592373190771  0.2511205926004556  0.6159523137131092
  0.1525388926599492  0.9406962248549245  0.6113283635437480
  0.8662834233681852  0.4119095379207711  0.1327323993617623
  0.1238785200334299  0.8426551588526994  0.2015087046522819
  0.5396410763387152  0.5179231909050216  0.1509847615483715
  0.2673644423781451  0.0985307311612111  0.6505317627866886
  0.9811466974936977  0.9389492401515724  0.8122532566227256
  0.1032097984323761  0.9582380147369883  0.4103562835893530
  0.3987153822121650  0.7634993037304443  0.4237635419208730
  0.4890794161202268  0.6366685699955886  0.8748207020613011
  0.1065731168195680  0.2657771640698308  0.7741924058406688
  0.4111963536005211  0.6163366663171675  0.3365384716581701
  0.6827705942749177  0.1072646334239731  0.5229772560279573
  0.2598313178376356  0.6526587489799893  0.5086730143454455
  0.3471210327025313  0.6868646208484835  0.6645095854170228
  0.3517873192380611  0.2296603452182140  0.4393975101831261
  0.7926092190960626  0.7480674265034369  0.8523894142905084
  0.9585214761157848  0.9266753600583129  0.1229684050100258
  0.7420570268319383  0.0230029290294113  0.4608447854061274
  0.5870102476944625  0.4501319184172047  0.2467787783521857
  0.7609054983773516  0.2532204291443251  0.3909761725852039
  0.8372227873107571  0.4412956046209757  0.5867888236553445
  0.1153127189616566  0.5193436791622751  0.0732171043556248
  0.7059928109817259  0.2998465025998833  0.1960383402248432
  0.0297410434078797  0.6596334406410750  0.1659418914328651
  0.6790034315806918  0.7270279364979431  0.7191740418949091
  0.6961211467122806  0.7211173337191781  0.4856119795513874
  0.5747452315335528  0.2374290661018590  0.0506038378451348
  0.6369149263107454  0.4146995914482968  0.6908466785941689
  0.2066486787130737  0.2925042449490927  0.8557352363849200
  0.0536573195058796  0.0998925490159851  0.5324636606854855
  0.4677131756374245  0.8749508066945449  0.8340762251554430
  0.5578098674060540  0.7052883345177378  0.3156537464185707
  0.8037110781760831  0.1150233915913368  0.6261667888456062
  0.6576825782676167  0.7178735166456410  0.1000616286479672
  0.1435788507287775  0.9407799882145071  0.8577484022667375
  0.2411051705232425  0.2968691778460050  0.4631540875892696
  0.3853160543025515  0.9743212669996680  0.7201668889099379
  0.8706844099985530  0.2724638946258183  0.5181854123370639
  0.5674209636153468  0.3238040996735342  0.3788955987619376
  0.8026855532867936  0.0136527556308151  0.0520686616756837
  0.2346640124499727  0.3791818928814166  0.6781624035737157
  0.4320805592757023  0.4311580005389317  0.7431506039713630
  0.9514987270855351  0.4696775486956896  0.4219500335143898
  0.0924194742268220  0.9744308773758367  0.0222407964371292
  0.4951682163448189  0.8216315763941185  0.6834749036266826
  0.5737552763617046  0.5768230924645134  0.7188407700737861
  0.3961103300574371  0.5404286451929393  0.6716443095881447
  0.5310492545764743  0.0961114638498490  0.1026049736869407
  0.4020753557450613  0.1117414296816188  0.4156638250104565
  0.1257594823036322  0.4604776096461783  0.5001812996123286
  0.0184410959243638  0.4129938926702433  0.6135184177999666
  0.3801723082973031  0.3393311224840119  0.5776297253270711
  0.0370203562675304  0.2740802642933153  0.1485978500140420
  0.6054824643477440  0.3900347883204808  0.8075114147675558
  0.0431088048131022  0.9272532691148624  0.6626809574899710
  0.0092987926426732  0.9511939537437831  0.3065140978173979
  0.2267008037721235  0.1192338458983430  0.9963817696541812
  0.7060674866452352  0.9634604562690677  0.9075940430257780
  0.5645329805649161  0.5311428401201116  0.0156329391506534
  0.0961632008494804  0.7522118577611198  0.3462456679359618
  0.6854828923570505  0.4491906099234821  0.3298157130989570
  0.1301134690460062  0.7405670234810104  0.0516682994084456
  0.7749409026316280  0.6118020950967278  0.3573364047094944
  0.8746317687237189  0.8477322883964509  0.9569252591357880
  0.2581305966651218  0.1795223178055660  0.8930917303557997
  0.3420425907119448  0.5308661903366140  0.8377392507080279
  0.9138924819692960  0.3073801929529023  0.9767593709974347
  0.8040124257915693  0.4821019161317023  0.8059358156827487
  0.6327038994877738  0.9772450653714816  0.1281601948035135
  0.3082136267885533  0.1711434707346278  0.2549761692028796
  0.4960438824704211  0.8175785428253969  0.4791166922610372
  0.5830481477232992  0.0955306714660753  0.3279396910677767
  0.2252000986738696  0.2820528113964532  0.3349898533035895
  0.3080758196051548  0.9118214609232786  0.3853512293617820
  0.6509493482947415  0.2249195049783911  0.4731628795155518
  0.3479209929835809  0.1399094554782145  0.1384540365351304
  0.0015545977200948  0.5953652356134301  0.5384986789159575
  0.1095138899955038  0.7524934173167133  0.6429775599759219
  0.4753100480965894  0.8960282233685487  0.2871187067592956
  0.5500165329026587  0.4119385090254946  0.5954131477977416
  0.3603333119986440  0.0199576391587720  0.1074820986064796
  0.5933657842268946  0.9418417918481965  0.5611685052308810
  0.8417518971568358  0.2356830567003775  0.7479965413192451
  0.7930389234091566  0.2144057014814413  0.9638270272900582
  0.1064889614732402  0.2446811047113795  0.5761423741843325
  0.7373526345035210  0.8044148878889130  0.6093642801961250
  0.9491949400670988  0.0279897965395040  0.5870354059984673
  0.2714359151241551  0.6434835023082210  0.2442053187941694
  0.2540810460130136  0.7168678988603978  0.8259355286702158
  0.8234683257432559  0.6225861420189964  0.9315902324589915
  0.5979433951763203  0.1763521600641295  0.8858717305802274
  0.8859499731943471  0.9923654910535374  0.2049612375712761
  0.9135203534199414  0.3816293072579531  0.6741482692580305
  0.7796486567501879  0.1134813290305562  0.8930424472566248
  0.9772748826956478  0.3872292992344103  0.7871782313854802
  0.4232478846004373  0.1761189265460970  0.7730540009348349
  0.2291170897189857  0.2866710895552076  0.5914292108795779
  0.5786574762927527  0.0869561779238736  0.4599967864119189
  0.1256056864640177  0.7992911850612269  0.9394049500644230
  0.2716877558143531  0.0708026106908254  0.5287587186948109
  0.4991019347975864  0.4692478566889635  0.4137129997763836
  0.7791534775565900 -0.0033825841670083  0.6407216036952237
  0.1030931949950651  0.3986645310557954  0.8705588502678679
  0.3356530804423487  0.6072290426611324  0.9901621057688863
  0.8781141100395013  0.9910993100791985  0.3740794241883916
  0.1950016369077890  0.1839920631341714  0.7154084951481203
  0.1754432800688043 -0.0032563172876771  0.2610896028236154
  0.8652781000925948  0.7702686924690872  0.7382363928640880
  0.3080142958783763  0.9099225508742559  0.6424848617612879
  0.8073602980693867  0.6127981999388857  0.1482937201776466
  0.1229244324005812  0.5504207506732615  0.2773971946584466
  0.7672441444724921  0.3203322534271714  0.8053544717357370
  0.0656514388904414  0.3656482558004421  0.9878174925873199
  0.9206067410341385  0.9576829869301520  0.6907278098999571
  0.1698822403200674  0.7167874301732603  0.4447330817364937
  0.4251868928969115  0.0507506508581610  0.8883253952782357
  0.6367234438209964  0.4916278470963031  0.9099101751623691
  0.8144299569376302  0.5114681264931545  0.0674002465014106
  0.9387837016476387  0.2507897595815211  0.2764307472725182
  0.2803081582471098  0.9656959600169868  0.1894258401589312
  0.4800682485298770 -0.0041208346521542 -0.0091218140514669
  0.6814629562059686  0.8602391642973827  0.1415518398271763
  0.8224786410057753  0.3443766593374791  0.4357190053035360
  0.4256250374113382  0.5379095813723518  0.9323987379134937
  0.2251133578226338  0.8772949193476918  0.1311448062566427
 -0.0096297516052133  0.7022492645696211  0.3869339828849218
  0.1652060124288577  0.3801762299157651  0.3079710927744273
  0.2642882298189195  0.6605500138093567  0.1220221503626582
  0.4238699743429398  0.7547251662769020  0.0855330381760648
  0.6129823483008112  0.2770354892474395  0.5765304819531185
  0.5858561441461606  0.6865471404094825  0.0050301336458524
  0.1275727485892852  0.7187647618918871  0.8487851225239059
  0.4165392392609075  0.3599771954399374  0.8415171299213622
  0.9058719323229698  0.6779244681100158  0.1912706828478850
  0.5663279757675903  0.4087813154573834 -0.0182637845566475
  0.7679971386527435  0.0434109230955514  0.3456178651864860
  0.0482681090386172  0.8989026163885141  0.9265455096611125
  0.7548178571841692  0.8317151213693491  0.9338432959078591
  0.4795349668106406  0.1628373704273212  0.3351126455559099
  0.6746130598090515  0.0834386399659772  0.8472905174173522
  0.2862883538696102  0.0172318294859448  0.0119358105620443
 -0.0207791416652908  0.0103701501001892  0.0413217449762546
  0.0754099590051450  0.5179749055441466  0.8963838405620573
  0.2725486211307084  0.2876302239823561  0.7538668419498865
  0.0634632143071962  0.5227860965834801  0.6219041462951747
  0.0388509085852020  0.3752632977614246  0.5031780833162993
  0.6505067008805855  0.8114466197760648  0.2474963150823256
  0.9007219434331096  0.5796425527571504  0.0193350691232708
  0.8935008049594538  0.5605375165275842  0.8484179127174847
  0.1163280128975863  0.0634436091138068  0.3409648521896834
  0.5244117063041240  0.6346630667700413  0.1840685934448313
  0.6930533079942693  0.6040914034378707  0.4660408475123376
  0.7465455924984212  0.3583040834364059  0.6845178531450345
  0.1431034476462161  0.3980349790959666  0.0773718058046629
  0.4942214738481773  0.3995646761406466  0.3075345080979962
  0.4703742437608973  0.9195032660435133  0.4110333905649854
  0.2591769114575151  0.1959391042522165  0.0810419414234402
  0.3058443238728932  0.7553374130181953  0.5603536938024225
  0.0906687710653980  0.1416298984825677  0.6410134199438507
  0.3981795117891942  0.7173204358993455  0.9119748373569221
  0.8153308793896190  0.1380494418473034  0.0585984609341802
  0.9471772971989377  0.0568652295632039  0.2922752931595212
  0.6630735811619221  0.0298320213305498  0.6177481657648229
  0.5504914255419125  0.9399942426498812  0.9073601610962930
  0.2256740564834049  0.4077893673003815  0.9027417542544118
  0.1552389262377720  0.0203961357510952  0.5203340930251223
  0.2385248024799729  0.6747787994005787  0.7131656551773570
  0.9627977940400058  0.4196866959133373  0.0077150279298466
  0.0461649385604715  0.8368097012835704  0.5803331402855149
  0.5042691315459288  0.0914469627110207  0.8086757450077169
  0.1931875157042746  0.2060150651758033  0.2428908722039301
  0.0752135628635508  0.9593304915520763  0.1995575454613736
  0.8976603038068082  0.5479438500963379  0.3333931499522876
  0.0403406063631582  0.0402150806562822  0.7838303083501503
  0.3335360641980924  0.2256067799854824  0.5872598490263280
  0.8677915067960249  0.3830863757641530  0.8450833576104652
  0.6780779419644368  0.3248981639773327  0.3171354095510628
  0.7815151268548879  0.0435053611999150  0.1950600737430275
  0.8194748126596609  0.2224932316188324  0.2641159856523311
  0.3083815286205531  0.4930007718590690  0.0523975715443033
  0.9215967333969309  0.1306684718773278  0.6462276847008637
  0.1849052100473058  0.8344632027895906  0.4753629803076254
  0.3078775252978921  0.0852354683451484  0.3408365647643237
  0.0286330621472995  0.6733924657043002  0.0388530331812265
  0.6955845683743178  0.8495106809336817  0.7242659095798892
  0.8977810489849933  0.7301583620150383  0.9133291444830455
  0.5456811450568072  0.7782187823906618  0.7861960113502415
  0.3280971995025497  0.9659395627564370  0.5297528403232711
  0.8675187161759546  0.8398798048172180  0.0823515984248698
  0.4004070463596240  0.8963441990903148  0.0091978149104644
  0.5322533394120155  0.5784790098603801  0.3580602034143309
  0.6790308431394824  0.5243008423515656  0.6950050367539427
  0.4117591765482423  0.6147881478596428  0.7714350706984783
  0.0517706552669486  0.5309464924434282  0.1738991929853174
  0.8734130807560245  0.4993053554032064  0.6916271612122967
  0.5286421405917129  0.4841458450649759  0.7969869957182878
  0.6718643318906238  0.2515890949627289  0.9629174726331824
  0.2283203148188641  0.9886682347632724  0.6934266152586486
  0.5277167345948605  0.1408532925396317  0.9824071816673635
  0.3470263988216838  0.8986776335289445  0.2663321325990265
  0.7193246130067288  0.6305637438370205  0.2353964265425192
  0.2434876340249744  0.5221983789518679  0.2316006164950425
  0.6562651547766265  0.9365536978448242  0.4542502555010342
  0.1109131362641629  0.3468062881352924  0.6791344367687137
  0.3775035186509617  0.1666850819949115  0.8908852304086327
  0.3486537922185091  0.2685363255045005  0.3133892614791856
  0.4378581099672454  0.7383858798510294  0.3093955135662801
  0.8949163965917595  0.5239076350721193  0.5159445338475829
  0.8046741470813696  0.7323887410615366  0.3590950812629948
  0.3528458683372708  0.9719327185045692  0.8340951510461696
  0.0653769947265317  0.5530076802266033  0.7811631971192314
  0.1455444156034735  0.6721415726354378  0.2603263967901058
  0.8244789336506906  0.0064026218095274  0.9215077653199530
  0.9676508484839377  0.1748918449701717  0.1778364519918911
  0.8333128808456403  0.9803918755628278  0.5293852778497862
  0.8958784567716802  0.8977222425762889  0.2869469978839846
  0.6281134044329872  0.1652824464377611  0.1384310974028991
  0.4541797140680534  0.1883141391807050  0.1417988056542876
  0.7367985938800494  0.1753014864484841  0.7098026702141771
  0.1242665977581759  0.6729304298586040  0.5502069231367025
  0.6131807201820237  0.4251643627015232  0.4341409792290301
  0.0771857216300469  0.8688743262681641  0.7646912176884921
  0.4998218780645493  0.9376223323574063  0.7296937905170779
  0.8710183880582090  0.1666886469387015  0.4593687183273235
  0.6538576614491196  0.5314073658771308  0.1029123315797978
  0.0516985006773214  0.8196344308883214  0.1038416514165631
  0.0285832694051806  0.2578691176789545  0.0236049849097483
  0.3784440583439672  0.7966780207460976  0.7194480058262467
  0.7655157099575800  0.6812459256731564  0.0575546852851966
 -0.0052170918591638  0.2678122535298240  0.8085267638661170
  0.1628780313564474  0.2000387714562727  0.4584949619169810
  0.5975754451123716  0.3612420800734510  0.1630915166869557
  0.4517771160436214  0.2977063039728274  0.4790769735876190
  0.4733407708195880  0.3424389295335905  0.6657874560640377
  0.8929596084725452  0.8466018582729161  0.6453053094846620
  0.7512493762832195  0.4753166713432874  0.9453247980999832
  0.2219804902292169  0.8687999021621877  0.9269740509850503
  0.1876747194127737  0.9043229009476049  0.3368554313822355
  0.8305718208948661  0.3139992143997590  0.0714224650905530
  0.5498620380514047  0.9932584000646226  0.2694136830857693
  0.6820151248662115  0.0149825127133154  0.0223382129423360
  0.1115680571566404  0.0907820411986566  0.9744820646753034
  0.6277729472342515  0.7375232388363538  0.5967765464881997
  0.7603426417705232  0.4142647848286521  0.1981259955407232
  0.3868751675277453  0.6483136517942687  0.4535252312567383
  0.5903598861202666  0.7730015586190064  0.4146060395272560
  0.8737114517957295  0.1493936129181573  0.8259633917489124
  0.7914469008135112  0.7047637545085202  0.6634622090946208
  0.9549824446068698  0.3603122840505852  0.2049816553451067
  0.3851994114827488  0.0896161433251474  0.6849647059456889
  0.9644783005719963  0.6967617876297103  0.7217435073869580
  0.5699597980215418  0.8723524309697074  0.0795185134892929
  0.2029484784447671  0.4202021074253913  0.4100866136963636
  0.0580036282689752  0.5436533692753467  0.4367569263185148
  0.5141578046285505  0.0374492755883172  0.5488793328556238
  0.5065812897710490  0.5330525476568133  0.6214876394219282
  0.2576738267728567  0.6024221637343750  0.8912431636259702
  0.2210838391915791  0.1052731536862074  0.8099192809674153
  0.2543554908370927  0.1323298846072178  0.4319543691483003
  0.9610762903906719  0.5118762879108626  0.9337102697475792
  0.1237550204813157  0.0642111157172349  0.8626556156484153
  0.5983702364175889  0.6522222090115821  0.4231654982771824
  0.7039371002732023  0.1773066907537160  0.0493090935735793
  0.8370977816685883  0.1470341738357159  0.1741131744200913
  0.5737083226878276  0.9793532393572062  0.3841847089030825
  0.8157132272125415  0.1508552355542682  0.3585083772803756
  0.1688555124154174  0.1681980244813730  0.3485308570971880
  0.7065031695787435  0.4044130860711749  0.8615678963626702
  0.2054710286714110  0.9287321071675830  0.0286300749018395
  0.9410557530245472  0.0889156491837289  0.7530989063487304
  0.7781224804284055  0.1771951713489494  0.5305091833204738
  0.9018772966700360  0.6877314449937073  0.3088189315936413
  0.4250267110081172  0.0120120840641811  0.4783527176007318
  0.2963260174712666  0.8105599297351204  0.4499425772672548
  0.6212975528091850  0.7003123052719856  0.2100819442392425
  0.0624449138148836  0.7514785381628157  0.7553951414673904
  0.4367193859292386  0.7362704900696958  0.8033222907178150
  0.5426351570590181  0.2053855077455226  0.4245930354854140
  0.0551598010879842  0.5746149826784561 -0.0075870183660747
  0.4770573559126074  0.4308390939373521  0.9114316582302177
  0.5538325074546323  0.8283050803816712  0.5812029321563831
  0.7595588523257952  0.7931995534676597  0.0900959157574304
  0.7943389498751583  0.8905491202813657  0.6863285442987506
 -0.0134730588173618  0.5018174207537630  0.7162687084899324
  0.9477767254814268  0.7653948684443451  0.1254846326002858
  0.8988085126166417  0.2633971203005242  0.1499715947398478
 
  0.00000000E+00  0.00000000E+00  0.00000000E+00
  0.00000000E+00  0.00000000E+00  0.00000000E+00
  0.00000000E+00  0.00000000E+00  0.00000000E+00
  0.00000000E+00  0.00000000E+00  0.00000000E+00
  0.00000000E+00  0.00000000E+00  0.00000000E+00
  0.00000000E+00  0.00000000E+00  0.00000000E+00
  0.00000000E+00  0.00000000E+00  0.00000000E+00
  0.00000000E+00  0.00000000E+00  0.00000000E+00
  0.00000000E+00  0.00000000E+00  0.00000000E+00
  0.00000000E+00  0.00000000E+00  0.00000000E+00
  0.00000000E+00  0.00000000E+00  0.00000000E+00
  0.00000000E+00  0.00000000E+00  0.00000000E+00
  0.00000000E+00  0.00000000E+00  0.00000000E+00
  0.00000000E+00  0.00000000E+00  0.00000000E+00
  0.00000000E+00  0.00000000E+00  0.00000000E+00
  0.00000000E+00  0.00000000E+00  0.00000000E+00
  0.00000000E+00  0.00000000E+00  0.00000000E+00
  0.00000000E+00  0.00000000E+00  0.00000000E+00
  0.00000000E+00  0.00000000E+00  0.00000000E+00
  0.00000000E+00  0.00000000E+00  0.00000000E+00
  0.00000000E+00  0.00000000E+00  0.00000000E+00
  0.00000000E+00  0.00000000E+00  0.00000000E+00
  0.00000000E+00  0.00000000E+00  0.00000000E+00
  0.00000000E+00  0.00000000E+00  0.00000000E+00
  0.00000000E+00  0.00000000E+00  0.00000000E+00
  0.00000000E+00  0.00000000E+00  0.00000000E+00
  0.00000000E+00  0.00000000E+00  0.00000000E+00
  0.00000000E+00  0.00000000E+00  0.00000000E+00
  0.00000000E+00  0.00000000E+00  0.00000000E+00
  0.00000000E+00  0.00000000E+00  0.00000000E+00
  0.00000000E+00  0.00000000E+00  0.00000000E+00
  0.00000000E+00  0.00000000E+00  0.00000000E+00
  0.00000000E+00  0.00000000E+00  0.00000000E+00
  0.00000000E+00  0.00000000E+00  0.00000000E+00
  0.00000000E+00  0.00000000E+00  0.00000000E+00
  0.00000000E+00  0.00000000E+00  0.00000000E+00
  0.00000000E+00  0.00000000E+00  0.00000000E+00
  0.00000000E+00  0.00000000E+00  0.00000000E+00
  0.00000000E+00  0.00000000E+00  0.00000000E+00
  0.00000000E+00  0.00000000E+00  0.00000000E+00
  0.00000000E+00  0.00000000E+00  0.00000000E+00
  0.00000000E+00  0.00000000E+00  0.00000000E+00
  0.00000000E+00  0.00000000E+00  0.00000000E+00
  0.00000000E+00  0.00000000E+00  0.00000000E+00
  0.00000000E+00  0.00000000E+00  0.00000000E+00
  0.00000000E+00  0.00000000E+00  0.00000000E+00
  0.00000000E+00  0.00000000E+00  0.00000000E+00
  0.00000000E+00  0.00000000E+00  0.00000000E+00
  0.00000000E+00  0.00000000E+00  0.00000000E+00
  0.00000000E+00  0.00000000E+00  0.00000000E+00
  0.00000000E+00  0.00000000E+00  0.00000000E+00
  0.00000000E+00  0.00000000E+00  0.00000000E+00
  0.00000000E+00  0.00000000E+00  0.00000000E+00
  0.00000000E+00  0.00000000E+00  0.00000000E+00
  0.00000000E+00  0.00000000E+00  0.00000000E+00
  0.00000000E+00  0.00000000E+00  0.00000000E+00
  0.00000000E+00  0.00000000E+00  0.00000000E+00
  0.00000000E+00  0.00000000E+00  0.00000000E+00
  0.00000000E+00  0.00000000E+00  0.00000000E+00
  0.00000000E+00  0.00000000E+00  0.00000000E+00
  0.00000000E+00  0.00000000E+00  0.00000000E+00
  0.00000000E+00  0.00000000E+00  0.00000000E+00
  0.00000000E+00  0.00000000E+00  0.00000000E+00
  0.00000000E+00  0.00000000E+00  0.00000000E+00
  0.00000000E+00  0.00000000E+00  0.00000000E+00
  0.00000000E+00  0.00000000E+00  0.00000000E+00
  0.00000000E+00  0.00000000E+00  0.00000000E+00
  0.00000000E+00  0.00000000E+00  0.00000000E+00
  0.00000000E+00  0.00000000E+00  0.00000000E+00
  0.00000000E+00  0.00000000E+00  0.00000000E+00
  0.00000000E+00  0.00000000E+00  0.00000000E+00
  0.00000000E+00  0.00000000E+00  0.00000000E+00
  0.00000000E+00  0.00000000E+00  0.00000000E+00
  0.00000000E+00  0.00000000E+00  0.00000000E+00
  0.00000000E+00  0.00000000E+00  0.00000000E+00
  0.00000000E+00  0.00000000E+00  0.00000000E+00
  0.00000000E+00  0.00000000E+00  0.00000000E+00
  0.00000000E+00  0.00000000E+00  0.00000000E+00
  0.00000000E+00  0.00000000E+00  0.00000000E+00
  0.00000000E+00  0.00000000E+00  0.00000000E+00
  0.00000000E+00  0.00000000E+00  0.00000000E+00
  0.00000000E+00  0.00000000E+00  0.00000000E+00
  0.00000000E+00  0.00000000E+00  0.00000000E+00
  0.00000000E+00  0.00000000E+00  0.00000000E+00
  0.00000000E+00  0.00000000E+00  0.00000000E+00
  0.00000000E+00  0.00000000E+00  0.00000000E+00
  0.00000000E+00  0.00000000E+00  0.00000000E+00
  0.00000000E+00  0.00000000E+00  0.00000000E+00
  0.00000000E+00  0.00000000E+00  0.00000000E+00
  0.00000000E+00  0.00000000E+00  0.00000000E+00
  0.00000000E+00  0.00000000E+00  0.00000000E+00
  0.00000000E+00  0.00000000E+00  0.00000000E+00
  0.00000000E+00  0.00000000E+00  0.00000000E+00
  0.00000000E+00  0.00000000E+00  0.00000000E+00
  0.00000000E+00  0.00000000E+00  0.00000000E+00
  0.00000000E+00  0.00000000E+00  0.00000000E+00
  0.00000000E+00  0.00000000E+00  0.00000000E+00
  0.00000000E+00  0.00000000E+00  0.00000000E+00
  0.00000000E+00  0.00000000E+00  0.00000000E+00
  0.00000000E+00  0.00000000E+00  0.00000000E+00
  0.00000000E+00  0.00000000E+00  0.00000000E+00
  0.00000000E+00  0.00000000E+00  0.00000000E+00
  0.00000000E+00  0.00000000E+00  0.00000000E+00
  0.00000000E+00  0.00000000E+00  0.00000000E+00
  0.00000000E+00  0.00000000E+00  0.00000000E+00
  0.00000000E+00  0.00000000E+00  0.00000000E+00
  0.00000000E+00  0.00000000E+00  0.00000000E+00
  0.00000000E+00  0.00000000E+00  0.00000000E+00
  0.00000000E+00  0.00000000E+00  0.00000000E+00
  0.00000000E+00  0.00000000E+00  0.00000000E+00
  0.00000000E+00  0.00000000E+00  0.00000000E+00
  0.00000000E+00  0.00000000E+00  0.00000000E+00
  0.00000000E+00  0.00000000E+00  0.00000000E+00
  0.00000000E+00  0.00000000E+00  0.00000000E+00
  0.00000000E+00  0.00000000E+00  0.00000000E+00
  0.00000000E+00  0.00000000E+00  0.00000000E+00
  0.00000000E+00  0.00000000E+00  0.00000000E+00
  0.00000000E+00  0.00000000E+00  0.00000000E+00
  0.00000000E+00  0.00000000E+00  0.00000000E+00
  0.00000000E+00  0.00000000E+00  0.00000000E+00
  0.00000000E+00  0.00000000E+00  0.00000000E+00
  0.00000000E+00  0.00000000E+00  0.00000000E+00
  0.00000000E+00  0.00000000E+00  0.00000000E+00
  0.00000000E+00  0.00000000E+00  0.00000000E+00
  0.00000000E+00  0.00000000E+00  0.00000000E+00
  0.00000000E+00  0.00000000E+00  0.00000000E+00
  0.00000000E+00  0.00000000E+00  0.00000000E+00
  0.00000000E+00  0.00000000E+00  0.00000000E+00
  0.00000000E+00  0.00000000E+00  0.00000000E+00
  0.00000000E+00  0.00000000E+00  0.00000000E+00
  0.00000000E+00  0.00000000E+00  0.00000000E+00
  0.00000000E+00  0.00000000E+00  0.00000000E+00
  0.00000000E+00  0.00000000E+00  0.00000000E+00
  0.00000000E+00  0.00000000E+00  0.00000000E+00
  0.00000000E+00  0.00000000E+00  0.00000000E+00
  0.00000000E+00  0.00000000E+00  0.00000000E+00
  0.00000000E+00  0.00000000E+00  0.00000000E+00
  0.00000000E+00  0.00000000E+00  0.00000000E+00
  0.00000000E+00  0.00000000E+00  0.00000000E+00
  0.00000000E+00  0.00000000E+00  0.00000000E+00
  0.00000000E+00  0.00000000E+00  0.00000000E+00
  0.00000000E+00  0.00000000E+00  0.00000000E+00
  0.00000000E+00  0.00000000E+00  0.00000000E+00
  0.00000000E+00  0.00000000E+00  0.00000000E+00
  0.00000000E+00  0.00000000E+00  0.00000000E+00
  0.00000000E+00  0.00000000E+00  0.00000000E+00
  0.00000000E+00  0.00000000E+00  0.00000000E+00
  0.00000000E+00  0.00000000E+00  0.00000000E+00
  0.00000000E+00  0.00000000E+00  0.00000000E+00
  0.00000000E+00  0.00000000E+00  0.00000000E+00
  0.00000000E+00  0.00000000E+00  0.00000000E+00
  0.00000000E+00  0.00000000E+00  0.00000000E+00
  0.00000000E+00  0.00000000E+00  0.00000000E+00
  0.00000000E+00  0.00000000E+00  0.00000000E+00
  0.00000000E+00  0.00000000E+00  0.00000000E+00
  0.00000000E+00  0.00000000E+00  0.00000000E+00
  0.00000000E+00  0.00000000E+00  0.00000000E+00
  0.00000000E+00  0.00000000E+00  0.00000000E+00
  0.00000000E+00  0.00000000E+00  0.00000000E+00
  0.00000000E+00  0.00000000E+00  0.00000000E+00
  0.00000000E+00  0.00000000E+00  0.00000000E+00
  0.00000000E+00  0.00000000E+00  0.00000000E+00
  0.00000000E+00  0.00000000E+00  0.00000000E+00
  0.00000000E+00  0.00000000E+00  0.00000000E+00
  0.00000000E+00  0.00000000E+00  0.00000000E+00
  0.00000000E+00  0.00000000E+00  0.00000000E+00
  0.00000000E+00  0.00000000E+00  0.00000000E+00
  0.00000000E+00  0.00000000E+00  0.00000000E+00
  0.00000000E+00  0.00000000E+00  0.00000000E+00
  0.00000000E+00  0.00000000E+00  0.00000000E+00
  0.00000000E+00  0.00000000E+00  0.00000000E+00
  0.00000000E+00  0.00000000E+00  0.00000000E+00
  0.00000000E+00  0.00000000E+00  0.00000000E+00
  0.00000000E+00  0.00000000E+00  0.00000000E+00
  0.00000000E+00  0.00000000E+00  0.00000000E+00
  0.00000000E+00  0.00000000E+00  0.00000000E+00
  0.00000000E+00  0.00000000E+00  0.00000000E+00
  0.00000000E+00  0.00000000E+00  0.00000000E+00
  0.00000000E+00  0.00000000E+00  0.00000000E+00
  0.00000000E+00  0.00000000E+00  0.00000000E+00
  0.00000000E+00  0.00000000E+00  0.00000000E+00
  0.00000000E+00  0.00000000E+00  0.00000000E+00
  0.00000000E+00  0.00000000E+00  0.00000000E+00
  0.00000000E+00  0.00000000E+00  0.00000000E+00
  0.00000000E+00  0.00000000E+00  0.00000000E+00
  0.00000000E+00  0.00000000E+00  0.00000000E+00
  0.00000000E+00  0.00000000E+00  0.00000000E+00
  0.00000000E+00  0.00000000E+00  0.00000000E+00
  0.00000000E+00  0.00000000E+00  0.00000000E+00
  0.00000000E+00  0.00000000E+00  0.00000000E+00
  0.00000000E+00  0.00000000E+00  0.00000000E+00
  0.00000000E+00  0.00000000E+00  0.00000000E+00
  0.00000000E+00  0.00000000E+00  0.00000000E+00
  0.00000000E+00  0.00000000E+00  0.00000000E+00
  0.00000000E+00  0.00000000E+00  0.00000000E+00
  0.00000000E+00  0.00000000E+00  0.00000000E+00
  0.00000000E+00  0.00000000E+00  0.00000000E+00
  0.00000000E+00  0.00000000E+00  0.00000000E+00
  0.00000000E+00  0.00000000E+00  0.00000000E+00
  0.00000000E+00  0.00000000E+00  0.00000000E+00
  0.00000000E+00  0.00000000E+00  0.00000000E+00
  0.00000000E+00  0.00000000E+00  0.00000000E+00
  0.00000000E+00  0.00000000E+00  0.00000000E+00
  0.00000000E+00  0.00000000E+00  0.00000000E+00
  0.00000000E+00  0.00000000E+00  0.00000000E+00
  0.00000000E+00  0.00000000E+00  0.00000000E+00
  0.00000000E+00  0.00000000E+00  0.00000000E+00
  0.00000000E+00  0.00000000E+00  0.00000000E+00
  0.00000000E+00  0.00000000E+00  0.00000000E+00
  0.00000000E+00  0.00000000E+00  0.00000000E+00
  0.00000000E+00  0.00000000E+00  0.00000000E+00
  0.00000000E+00  0.00000000E+00  0.00000000E+00
  0.00000000E+00  0.00000000E+00  0.00000000E+00
  0.00000000E+00  0.00000000E+00  0.00000000E+00
  0.00000000E+00  0.00000000E+00  0.00000000E+00
  0.00000000E+00  0.00000000E+00  0.00000000E+00
  0.00000000E+00  0.00000000E+00  0.00000000E+00
  0.00000000E+00  0.00000000E+00  0.00000000E+00
  0.00000000E+00  0.00000000E+00  0.00000000E+00
  0.00000000E+00  0.00000000E+00  0.00000000E+00
  0.00000000E+00  0.00000000E+00  0.00000000E+00
  0.00000000E+00  0.00000000E+00  0.00000000E+00
  0.00000000E+00  0.00000000E+00  0.00000000E+00
  0.00000000E+00  0.00000000E+00  0.00000000E+00
  0.00000000E+00  0.00000000E+00  0.00000000E+00
  0.00000000E+00  0.00000000E+00  0.00000000E+00
  0.00000000E+00  0.00000000E+00  0.00000000E+00
  0.00000000E+00  0.00000000E+00  0.00000000E+00
  0.00000000E+00  0.00000000E+00  0.00000000E+00
  0.00000000E+00  0.00000000E+00  0.00000000E+00
  0.00000000E+00  0.00000000E+00  0.00000000E+00
  0.00000000E+00  0.00000000E+00  0.00000000E+00