Amorphous Sb                            
   1.00000000000000     
    22.5519198510770451    0.0000000000000000    0.0000000000000000
     0.0000000000000000   22.5519198510770451    0.0000000000000000
     0.0000000000000000    0.0000000000000000   22.5519198510770451
   In   Te
    60   240
Direct
  0.1916952522195546  0.5887612215531517  0.2707266327776331
  0.1930982677522886  0.3557892276501832  0.9392233550061204
  0.9075362053269951  0.9721930745802924  0.5456014959266230
  0.8465308587172852  0.2402528425642494  0.4629307198303858
  0.9242200180296896  0.7228766080935801  0.4784798107253963
  0.7854384639342264  0.6724570809407937  0.8085748117141849
  0.3961903080504133  0.8242541291391212  0.5078732473194134
  0.3570611173912130  0.2808388023831430  0.7136289984432720
  0.5614943497396516  0.2460401983376645  0.2379689262621366
  0.0417837796968024  0.7683334503560947  0.0133024633122227
  0.4107305626449481  0.8645768962182975  0.6758521773292663
  0.0418929364858808  0.0486347357188551  0.8230013576439094
  0.9823746273117813  0.3079237117478474  0.3236070145826131
  0.8434144398332285  0.9229647471373916  0.8011828327980810
  0.8280207589352825  0.7141388978075929  0.3372982289521964
  0.2371975145043954  0.7419542512554548  0.1619992639494361
  0.7500855544237458  0.9902155541584862  0.4607958079556924
  0.9166521202234076  0.3196309811379068  0.6382654827002915
  0.1112174064018194  0.6036064660565301  0.6763283094093806
  0.0151666798744798  0.6693580623233585  0.3512349673570302
  0.5815156212949125  0.2819137702553626  0.9775248560328955
  0.1443062147753525  0.7365552382551015  0.7578467792849619
  0.4491168931622143  0.0517464013426478  0.1603910641358628
  0.7488643373535095  0.4810825964199763  0.7707664595695322
  0.4826348592040585  0.0886272516758193  0.5139435591062170
  0.3829328617847095  0.0838927330675737  0.0050366853158621
  0.2478728250044765  0.3763404184387169  0.2393623932277395
  0.9499952694742847  0.5818436459367342  0.2868065791830063
  0.1784067056242392  0.4906934092634666  0.0729740947554336
  0.4189767651347789  0.8206596265790133  0.3479973701080998
  0.3774779804017540  0.6393664451533039  0.8836026477163599
  0.3117150384684409  0.4943474593634527  0.3854734295595019
  0.1151569200475278  0.1666667850311034  0.1203893918628424
  0.5865679373965400  0.8235681625840031  0.0213782548144721
  0.2977275250030728  0.8201475221458944  0.7098407580309046
  0.9479225010738311  0.3173262312253958  0.0043604474869570
  0.9754355577814946  0.6806126842666503  0.8299668260790928
  0.6945903871014372  0.4948433509344277  0.1562606066662506
  0.6747135792596872  0.6602070615343201  0.4194550940465683
  0.3293790945900139  0.0930412294705795  0.6833268392882699
  0.0846101780300310  0.2320513180240215  0.5197162915122832
 -0.0056294394187131  0.4656086219526134  0.1396577895182638
  0.0781667101121945  0.6108391142038720  0.9573565115666691
  0.0442832321760761  0.4270927396526478  0.5045374882904030
  0.4627869059336963  0.0932570616587436  0.8054724715277505
  0.6991664244039698  0.5666906340288899  0.3349978882473952
  0.0595246773775683  0.2452967912307483  0.7995404835590290
  0.5206890398290868  0.6553199329904859  0.2267230996532689
  0.8018100217299211  0.3422841426838556  0.9669857220118908
  0.6481396851815266  0.8105853363854284  0.2935076394372257
  0.1414760570152988  0.8804055316480537  0.1909740017757942
  0.1939657892609235  0.3216092826511270  0.7419513308130176
  0.9791700628049762  0.0927325542342188  0.0791774350224235
  0.4965816069381666  0.4555191769600897  0.1176442090823749
  0.7059039305588506  0.9551896186083988  0.0263016939943289
  0.8990782718096451  0.0943998361935033  0.5590856397649735
  0.3475205568636595  0.5383831892368123  0.2034486124300138
  0.9704616622534934  0.9849769835430272  0.9751043931920784
  0.8174333288010678  0.4064948273281236  0.3693476318249322
  0.6399536496255713  0.1240167932085762  0.8804591607588570
  0.8541542072274788  0.3096317516225982  0.0919362058312963
  0.4809678378547561  0.4628920154191875  0.5629070225436824
  0.2051929835615496  0.0090752690201229  0.6076519395896569
  0.5306941565340721  0.6289308659086349  0.3517524994708168
  0.0115979816595469  0.9056168651955212  0.5739176747700299
  0.5785670143099024  0.1918677516364467  0.6139844031706108
  0.4513923391444656  0.5825341197727589  0.1432583077854825
  0.5291582586017686  0.3664699601422021  0.8803641381057458
  0.2042800663650817  0.1883193957185323  0.2124505573421756
  0.8839947730956312  0.9116526902868090  0.0366862421577184
  0.1003543638221185  0.8511357571824920  0.4082760471056119
  0.6285179885863811  0.3616668546790474  0.7082658169131497
  0.1517508043434400  0.3668315694415999  0.1598564776052297
  0.6734033809955846  0.2744924005659845  0.7832497293741821
  0.6509139532716546  0.4258367574659898  0.8908866956078508
  0.7643292833323315  0.1927413366087033  0.2503831252977013
  0.8752317844338307  0.7578884752607778  0.8532448515013292
  0.5718176200255530  0.2343053618487367  0.8466638399362720
  0.6798272659184526  0.3622026276099552  0.0028969734707589
  0.8176042811739849  0.6792707582760802  0.6873892053222271
  0.8998798770729178  0.4299719703685274  0.9642451986929912
  0.2483785885415395  0.3850004722806273  0.0523444348373346
  0.5405236611111067  0.7097909347723578  0.9480986569623903
  0.8861369752450853  0.0269455410997032  0.8862521245219559
  0.7400454304904578  0.1635352784672605  0.4390882331210627
  0.0711000868340150  0.3336657796712363  0.9040068732834766
  0.8716883270903881  0.5790014844953785  0.0644588792187678
  0.3830730093451820 -0.0033902444284047  0.7754576166290228
  0.3736434008874162  0.3568291913627046  0.5548107903549319
  0.3830889234497115  0.0778898157599054  0.4352371308821737
  0.4259636744401150  0.2835927428148870  0.8680475668765697
  0.9084533223422833  0.1307185868728906  0.6819823057239900
  0.9448000659101625  0.5095622529651768  0.6016368752309615
  0.9532867601135133  0.1785451707750494  0.4840502085596251
  0.2168565196843234  0.0973356693638120  0.3971806858201669
  0.2596810828350603  0.8831317876108581  0.1431911615077242
  0.1685565257080574  0.9393582241404854  0.3043251065256741
  0.4252523413390620  0.9770430272612152  0.0597904142657893
  0.9424441037248024  0.6084249397372232  0.9435336887660102
  0.2750321277308376  0.6296029309315557  0.7852575079864365
  0.0334520989322867  0.6541942407489132  0.4798855552896333
  0.2179614091995866  0.8917737291537431  0.8380034930271963
  0.8377881305058775  0.9003216769740470  0.4660914149439233
  0.0621212759634353  0.2955092301702665  0.0420927544754951
  0.8637455455747719  0.1742845042872004  0.0118401961124254
  0.6702133704151618  0.4183910672581173  0.5732553261679530
  0.2525485683956848  0.2479215052056134  0.9065198025204508
  0.2433659470567560  0.9626455333876582  0.0492613764450590
  0.4016718726248911  0.6921959730309343  0.7677954232769236
  0.6271966130339842  0.9579358335194318  0.4834346480376034
  0.0215530057484719  0.5163609757452574  0.8888014961180445
  0.4140260570973786  0.7240508268289042  0.2576380095026928
  0.9061469617577560  0.3734912492969945  0.8385210892223500
  0.4635679380796081  0.3204408490071715  0.2725940071617279
  0.4697904102597330  0.4412546484737329  0.7298881170401720
  0.8725975802286792  0.4380037680138343  0.0956699901217206
  0.2052758538861298  0.5583211973333012  0.9574031302219370
  0.0133069683572272  0.7458349670331441  0.7205188092677057
  0.3454998703862056  0.7448075454806985  0.4198236345683330
  0.6023501801218432  0.7473847448155713  0.1831407602524916
  0.3085659398019442  0.7260572589586992  0.6203860710353108
  0.7796352652311664  0.3021035807844319  0.5568382607446853
  0.0717677822520175  0.3242947985941141  0.4108850900469986
  0.4872858270071208  0.2162638665549415  0.5361369153865677
  0.6041645004432951  0.0657272706030726  0.5503280499288989
  0.8150613045718190  0.5569974967253065  0.8473776642048286
  0.5104930563681194  0.5980842774138369  0.8955397532211231
  0.0858472656010679  0.3781542157804860  0.7806651899050709
  0.8859105413050514  0.0466259054946649  0.1963482431519017
  0.5742294167227222  0.6737977970504576  0.7030487745949460
  0.7803484407244251  0.3700408249798499  0.8300859321398295
  0.7321862685139127  0.8504299759556913  0.8812533750008533
  0.4774509641999908  0.3082819955229715  0.7170547484738762
  0.4414439222079827  0.0432016902936798  0.6350558459286568
  0.4669117746485421  0.6064217394590032  0.7109474252725093
  0.7579957739176117  0.1560437925403081  0.8391119790158825
  0.6136794543710521  0.4869944880521148  0.0562771190539325
  0.6824796606067812  0.7346553862337792  0.8451242878530848
  0.1841334828087633  0.4684359767047964  0.8736938102589688
  0.8296511095990022  0.4356225605246352  0.4913399232797903
  0.7533901631363270  0.8113882683386963  0.7047656770870926
  0.8225871200581869  0.2359308299117022  0.6594694978328207
  0.6047535189217915  0.6101459756032784  0.0740775093669564
  0.4910174690740533  0.5448233294417830  0.4692115697357999
  0.2627230726188985  0.4191878881569566  0.5492842119821751
  0.4863668241552272  0.1094149230370369  0.9299883086695255
  0.2691356759269928  0.2897615056990654  0.3299451553826150
  0.9097155112070257  0.0717091290190441  0.3788298063044626
  0.2586078042758545  0.1205468683990309  0.5802450199173222
  0.6041620057400726  0.9441322129498573  0.1005561484471404
  0.8480643075618630  0.6246872910465827  0.4684770906452600
  0.6246901951127473  0.6198613429925174  0.8007218084174961
  0.4964261964462802  0.8378461088855473  0.1280375487086521
  0.2100197831287608  0.4217283565820552  0.3584318764956201
  0.7876787451636990  0.0577274034951121  0.3587128197918236
  0.3721014599390525  0.8372145593468263  0.9379899097996212
  0.5606042990065321  0.9656003964623230  0.3428532960484610
  0.6791978455529336  0.9356101718400203  0.3031347351141628
  0.3741412614594862  0.2873758345833326  0.9803380825143497
  0.0619766657738867  0.4740769075261113  0.0340613222094478
  0.1397984338739225  0.4853819628742543  0.6520556692876381
  0.1970110537694479  0.0814195984446321  0.7147936894496605
  0.2812929870071637  0.0823137129316693  0.9314612276369345
  0.9879291618603205  0.9356870912057882  0.8507761761999532
  0.0306285579110657  0.9295840157449857  0.1526307672474573
  0.9778752777962633  0.5885774364686215  0.1626874856258889
  0.3520333122105223  0.1299271454283147  0.1257462603385729
  0.5685538122065894  0.2303408125425288  0.4153024953882665
  0.5820128889035938  0.7436944089913029  0.3855425486754305
  0.0748669644657005  0.7273344070572555  0.8958476435571995
  0.3399824544004261  0.5523215269536382  0.9797379093983154
  0.4332729225583742  0.7540443179536760  0.6077717993774014
  0.0936917444858720  0.7772180638244216  0.5101924156017725
  0.1480374628555184  0.6121404631753008  0.7987163890532282
  0.3374626455908302  0.9799076401960347  0.8904000445696931
  0.3279533886199839  0.9602760807287434  0.3976064846892931
  0.3744182736057436  0.9120450231690153  0.2721741851976130
  0.6931309615584026  0.4329046265283650  0.3519664248955802
  0.2309203582246021  0.9619578717047190  0.4808227732560598
  0.9072342746354941  0.7795284843159012  0.5913915921131627
  0.2134656166868857  0.7526397890658464  0.4627255157723426
  0.0891424787574464  0.0342756060613218  0.9720116894720494
  0.6792013585016988  0.9906867900561217  0.7604022720400480
  0.6947378838538502  0.7292596347264867  0.6253319925478056
  0.6980579502876768  0.6721083893639815  0.2235391808074226
  0.3466618323676866  0.4144699690266587  0.9750592816645273
  0.6130504575230586  0.5483412662676662  0.2362103103071564
  0.7011452117111339  0.1148443927724821  0.1807277289038175
  0.4229849155525297  0.4335339387338619  0.3887100619581229
  0.5459759593898617  0.0030660383421805  0.0007931672759544
  0.3513525233919858  0.4171521048472634  0.1808851862100546
  0.9914481707382092  0.6412711692943825  0.6516777162874117
  0.9297994838308052  0.3533843851448608  0.5124095533132547
  0.4696731665982961  0.5044758632631746  0.2992016148270066
  0.5944246999996331  0.0810015730087593  0.7620817393894010
  0.5269588584973149  0.6432435404945013  0.5355620034393994
  0.1506014878227051  0.5215210695970306  0.5341849321234521
  0.6553402403576357  0.6593705100170497  0.9684004017854849
  0.0695716210507576  0.3583209313061196  0.6333412759816852
  0.1176315914332159  0.8646819609434835  0.7686045960872155
  0.3144258115223749  0.2537697514572174  0.5970777780130153
  0.1116560105184522  0.8706816906627330  0.0299915608725471
  0.5955146659415641  0.7879968854326486  0.5674570733361159
  0.7660616917631072  0.7831591290883536  0.2479104852676027
  0.3140417823580977  0.5971752371343734  0.3122417140402576
  0.5446243259199570  0.4169181442917486  0.2389885707108839
  0.2182292676734220  0.0596872276397812  0.1207631396200061
  0.8779475015380339  0.1720775380807610  0.1979939513096966
  0.3758717737236917  0.9448742151773543  0.5826476821998892
  0.9674907542694934  0.8225956053875262  0.1858226232746610
  0.8523322645994186  0.4378587573945277  0.2531001686532096
  0.2477491547799259  0.6009636603648474  0.5643315948829744
  0.9647082016903059  0.0077738436776869  0.2870754821033224
  0.1697594717862693  0.7080964949132653  0.6312943941327332
  0.5239530918034795  0.8971259758744130  0.7246360511517894
  0.4904534970184233  0.8685834678025689  0.4389416585039602
  0.7846375507677410  0.0558769158464322  0.7338267390894430
  0.5293498325906415  0.8092369832494576  0.8142896543454493
  0.5980410502987077  0.9030428513140124  0.6054432670896787
  0.9384545692891179  0.7752854428135389  0.3617993860741686
  0.0671086109943826  0.0207676405689667  0.4967246027198691
  0.3299459565898111  0.5196322661964909  0.5101384796806396
  0.0436926315299204  0.3999002231383541  0.2398008390601675
 -0.0026078723110502  0.5656788371479414  0.7757392780015399
  0.1880180294470511  0.8727617180111691  0.6600830053862295
  0.2174989685342119  0.7056899206402636  0.0284709259149988
  0.1852164047170671  0.6372980139634671  0.4220290446166714
  0.7323832890950503  0.8329272741551466  0.0029423483376836
  0.8004895561201862  0.8381452510152415  0.5849361458874013
  0.7528942166887634  0.6012670001079828  0.1110856123158719
  0.7941331145598559  0.9812253545172388  0.6294656183484605
  0.1260451393949167  0.5131885008762116  0.3458442124183683
  0.7924755409265519  0.0921671051213698  0.9461744445866096
  0.3010022219655647  0.3625899394789663  0.7941522578148980
  0.5611678847878455  0.1046698500653294  0.3880889428697757
  0.1030623279472336  0.6682038193791162  0.0701402801157987
  0.7025812096457670  0.4886899158413680  0.4718971245770173
  0.0144095464146705  0.2338867024041576  0.1572584852002108
  0.7171012883718744  0.1702832430206353  0.0708573968508559
  0.3665909435397467  0.2090848078244292  0.2988818304467419
  0.1368662231020689  0.2439342711855016  0.3068683390415845
  0.7671780497581383  0.0832639473197832  0.5488386470037133
  0.0997190820249928  0.7610871945731945  0.1961083453698751
  0.3520281789973071  0.1715966029282287  0.7810535830466072
  0.2678511378280490  0.8576811320926795  0.5455415398522379
  0.8838111002309006  0.2563006961023374  0.9109357387822279
  0.6516428674105796  0.9979747934103051  0.9185007603182815
  0.4532425392597616  0.4681094022824399  0.8596773120738681
  0.1844433534747786  0.2098135176465936  0.8033609612243748
  0.9623725508752338  0.4604659865861232  0.3263998471629077
  0.0202999392782488  0.1920735983197032  0.2797638340440520
  0.5616901399298259  0.3754076873672322  0.5321678050180165
  0.7594808028843328  0.5076367907330555  0.6476144124164721
  0.8606608372998851  0.7127882840020634  0.9678016171696189
  0.2895649461244021  0.4915925353582846  0.7768306910951084
  0.6074529812875922  0.1608944498488713  0.0140362183329437
  0.9829149164933988  0.1568357883694387  0.8469446306002447
  0.0196960319388773  0.2440713595770183  0.6618775577290470
  0.1397264479871188  0.6978333386259215  0.3164851565167388
  0.6045428549402371  0.3240764807203347  0.1457897636381871
  0.1664950972440663  0.0315029960926923  0.8251560271573812
  0.7691056283883764  0.7395402623656323  0.4452096938185282
  0.1976969408166861  0.8164855558009847  0.9577047456431738
  0.3688327214022537  0.7218849248780157  0.9824430933682827
  0.8205451884408898  0.6001214125040081  0.2827065340468335
  0.8553604125856189  0.2865150149647863  0.3448698328878204
  0.6513042151431777  0.2592951895063645  0.3236001583698271
  0.8155808054069237  0.8968389856248983  0.2972867412666181
  0.3930826234562554  0.7730391722659868  0.1470374212615012
  0.0775218505863582  0.1572183350087702  0.9970230797763850
  0.6227457946585987  0.4764259465895103  0.7702219479888563
  0.4564341187732273  0.1003430908010177  0.3208078920470600
  0.0140953792870382  0.0501152266274601  0.6909221842050374
  0.9387914175324830  0.4262291902566800  0.7031245793948018
  0.0133757166991063  0.9394603437162390  0.4175348941361330
  0.8640162823558999  0.5578627417979951  0.6951765274182998
  0.4004890433730249  0.2395493610979440  0.1841244425374228
  0.2625853729945252  0.8620347610260056  0.3333692565939711
  0.0948040429794635  0.0459878145107945  0.1621685676208718
  0.5419721435026434  0.1213178232414951  0.2168346294504470
  0.2322229330442759  0.5801368913098229  0.1491562263308554
  0.2607578652931905  0.7661810657465269  0.8206520024396340
  0.2081255431682186  0.0657439841029785  0.2796284833243628
  0.7674140086510735  0.5617527251952348  0.9879340557707944
  0.7290593777159076  0.3931236140450834  0.2195912221779217
  0.6730123913694929  0.2547913948912350  0.5032937235379065
  0.3683349414121492  0.4915131655865476  0.6796717124569618
  0.1885398318472062  0.3093441768908684  0.6145709739224862
  0.4993390605878087  0.3207758548477697  0.0756926152371640
  0.4906443005816038  0.8708251428966323  0.9146948890288454
  0.6489278957410202  0.6253804724886175  0.5407693490960559
  0.4962640958357180  0.9482510155811299  0.2328892717703587
  0.9259787101894221  0.7745548778723585  0.0632896819031061
  0.4846804846413463  0.1739261060330885  0.6994894428181802
  0.9865588828916040  0.9306238625782963  0.6937249847216566
  0.0955576052437004  0.1172552538601694  0.4214299252327027
  0.8124755805050309  0.0141279633298155  0.0623505555820041
  0.9537275375163645  0.5481003941631869  0.4669835620537188
  0.8615542649472119  0.9016151925215925  0.1807043416675785
  0.4631115377666856  0.5173700006179184  0.9859384461035671
 
  0.00000000E+00  0.00000000E+00  0.00000000E+00
  0.00000000E+00  0.00000000E+00  0.00000000E+00
  0.00000000E+00  0.00000000E+00  0.00000000E+00
  0.00000000E+00  0.00000000E+00  0.00000000E+00
  0.00000000E+00  0.00000000E+00  0.00000000E+00
  0.00000000E+00  0.00000000E+00  0.00000000E+00
  0.00000000E+00  0.00000000E+00  0.00000000E+00
  0.00000000E+00  0.00000000E+00  0.00000000E+00
  0.00000000E+00  0.00000000E+00  0.00000000E+00
  0.00000000E+00  0.00000000E+00  0.00000000E+00
  0.00000000E+00  0.00000000E+00  0.00000000E+00
  0.00000000E+00  0.00000000E+00  0.00000000E+00
  0.00000000E+00  0.00000000E+00  0.00000000E+00
  0.00000000E+00  0.00000000E+00  0.00000000E+00
  0.00000000E+00  0.00000000E+00  0.00000000E+00
  0.00000000E+00  0.00000000E+00  0.00000000E+00
  0.00000000E+00  0.00000000E+00  0.00000000E+00
  0.00000000E+00  0.00000000E+00  0.00000000E+00
  0.00000000E+00  0.00000000E+00  0.00000000E+00
  0.00000000E+00  0.00000000E+00  0.00000000E+00
  0.00000000E+00  0.00000000E+00  0.00000000E+00
  0.00000000E+00  0.00000000E+00  0.00000000E+00
  0.00000000E+00  0.00000000E+00  0.00000000E+00
  0.00000000E+00  0.00000000E+00  0.00000000E+00
  0.00000000E+00  0.00000000E+00  0.00000000E+00
  0.00000000E+00  0.00000000E+00  0.00000000E+00
  0.00000000E+00  0.00000000E+00  0.00000000E+00
  0.00000000E+00  0.00000000E+00  0.00000000E+00
  0.00000000E+00  0.00000000E+00  0.00000000E+00
  0.00000000E+00  0.00000000E+00  0.00000000E+00
  0.00000000E+00  0.00000000E+00  0.00000000E+00
  0.00000000E+00  0.00000000E+00  0.00000000E+00
  0.00000000E+00  0.00000000E+00  0.00000000E+00
  0.00000000E+00  0.00000000E+00  0.00000000E+00
  0.00000000E+00  0.00000000E+00  0.00000000E+00
  0.00000000E+00  0.00000000E+00  0.00000000E+00
  0.00000000E+00  0.00000000E+00  0.00000000E+00
  0.00000000E+00  0.00000000E+00  0.00000000E+00
  0.00000000E+00  0.00000000E+00  0.00000000E+00
  0.00000000E+00  0.00000000E+00  0.00000000E+00
  0.00000000E+00  0.00000000E+00  0.00000000E+00
  0.00000000E+00  0.00000000E+00  0.00000000E+00
  0.00000000E+00  0.00000000E+00  0.00000000E+00
  0.00000000E+00  0.00000000E+00  0.00000000E+00
  0.00000000E+00  0.00000000E+00  0.00000000E+00
  0.00000000E+00  0.00000000E+00  0.00000000E+00
  0.00000000E+00  0.00000000E+00  0.00000000E+00
  0.00000000E+00  0.00000000E+00  0.00000000E+00
  0.00000000E+00  0.00000000E+00  0.00000000E+00
  0.00000000E+00  0.00000000E+00  0.00000000E+00
  0.00000000E+00  0.00000000E+00  0.00000000E+00
  0.00000000E+00  0.00000000E+00  0.00000000E+00
  0.00000000E+00  0.00000000E+00  0.00000000E+00
  0.00000000E+00  0.00000000E+00  0.00000000E+00
  0.00000000E+00  0.00000000E+00  0.00000000E+00
  0.00000000E+00  0.00000000E+00  0.00000000E+00
  0.00000000E+00  0.00000000E+00  0.00000000E+00
  0.00000000E+00  0.00000000E+00  0.00000000E+00
  0.00000000E+00  0.00000000E+00  0.00000000E+00
  0.00000000E+00  0.00000000E+00  0.00000000E+00
  0.00000000E+00  0.00000000E+00  0.00000000E+00
  0.00000000E+00  0.00000000E+00  0.00000000E+00
  0.00000000E+00  0.00000000E+00  0.00000000E+00
  0.00000000E+00  0.00000000E+00  0.00000000E+00
  0.00000000E+00  0.00000000E+00  0.00000000E+00
  0.00000000E+00  0.00000000E+00  0.00000000E+00
  0.00000000E+00  0.00000000E+00  0.00000000E+00
  0.00000000E+00  0.00000000E+00  0.00000000E+00
  0.00000000E+00  0.00000000E+00  0.00000000E+00
  0.00000000E+00  0.00000000E+00  0.00000000E+00
  0.00000000E+00  0.00000000E+00  0.00000000E+00
  0.00000000E+00  0.00000000E+00  0.00000000E+00
  0.00000000E+00  0.00000000E+00  0.00000000E+00
  0.00000000E+00  0.00000000E+00  0.00000000E+00
  0.00000000E+00  0.00000000E+00  0.00000000E+00
  0.00000000E+00  0.00000000E+00  0.00000000E+00
  0.00000000E+00  0.00000000E+00  0.00000000E+00
  0.00000000E+00  0.00000000E+00  0.00000000E+00
  0.00000000E+00  0.00000000E+00  0.00000000E+00
  0.00000000E+00  0.00000000E+00  0.00000000E+00
  0.00000000E+00  0.00000000E+00  0.00000000E+00
  0.00000000E+00  0.00000000E+00  0.00000000E+00
  0.00000000E+00  0.00000000E+00  0.00000000E+00
  0.00000000E+00  0.00000000E+00  0.00000000E+00
  0.00000000E+00  0.00000000E+00  0.00000000E+00
  0.00000000E+00  0.00000000E+00  0.00000000E+00
  0.00000000E+00  0.00000000E+00  0.00000000E+00
  0.00000000E+00  0.00000000E+00  0.00000000E+00
  0.00000000E+00  0.00000000E+00  0.00000000E+00
  0.00000000E+00  0.00000000E+00  0.00000000E+00
  0.00000000E+00  0.00000000E+00  0.00000000E+00
  0.00000000E+00  0.00000000E+00  0.00000000E+00
  0.00000000E+00  0.00000000E+00  0.00000000E+00
  0.00000000E+00  0.00000000E+00  0.00000000E+00
  0.00000000E+00  0.00000000E+00  0.00000000E+00
  0.00000000E+00  0.00000000E+00  0.00000000E+00
  0.00000000E+00  0.00000000E+00  0.00000000E+00
  0.00000000E+00  0.00000000E+00  0.00000000E+00
  0.00000000E+00  0.00000000E+00  0.00000000E+00
  0.00000000E+00  0.00000000E+00  0.00000000E+00
  0.00000000E+00  0.00000000E+00  0.00000000E+00
  0.00000000E+00  0.00000000E+00  0.00000000E+00
  0.00000000E+00  0.00000000E+00  0.00000000E+00
  0.00000000E+00  0.00000000E+00  0.00000000E+00
  0.00000000E+00  0.00000000E+00  0.00000000E+00
  0.00000000E+00  0.00000000E+00  0.00000000E+00
  0.00000000E+00  0.00000000E+00  0.00000000E+00
  0.00000000E+00  0.00000000E+00  0.00000000E+00
  0.00000000E+00  0.00000000E+00  0.00000000E+00
  0.00000000E+00  0.00000000E+00  0.00000000E+00
  0.00000000E+00  0.00000000E+00  0.00000000E+00
  0.00000000E+00  0.00000000E+00  0.00000000E+00
  0.00000000E+00  0.00000000E+00  0.00000000E+00
  0.00000000E+00  0.00000000E+00  0.00000000E+00
  0.00000000E+00  0.00000000E+00  0.00000000E+00
  0.00000000E+00  0.00000000E+00  0.00000000E+00
  0.00000000E+00  0.00000000E+00  0.00000000E+00
  0.00000000E+00  0.00000000E+00  0.00000000E+00
  0.00000000E+00  0.00000000E+00  0.00000000E+00
  0.00000000E+00  0.00000000E+00  0.00000000E+00
  0.00000000E+00  0.00000000E+00  0.00000000E+00
  0.00000000E+00  0.00000000E+00  0.00000000E+00
  0.00000000E+00  0.00000000E+00  0.00000000E+00
  0.00000000E+00  0.00000000E+00  0.00000000E+00
  0.00000000E+00  0.00000000E+00  0.00000000E+00
  0.00000000E+00  0.00000000E+00  0.00000000E+00
  0.00000000E+00  0.00000000E+00  0.00000000E+00
  0.00000000E+00  0.00000000E+00  0.00000000E+00
  0.00000000E+00  0.00000000E+00  0.00000000E+00
  0.00000000E+00  0.00000000E+00  0.00000000E+00
  0.00000000E+00  0.00000000E+00  0.00000000E+00
  0.00000000E+00  0.00000000E+00  0.00000000E+00
  0.00000000E+00  0.00000000E+00  0.00000000E+00
  0.00000000E+00  0.00000000E+00  0.00000000E+00
  0.00000000E+00  0.00000000E+00  0.00000000E+00
  0.00000000E+00  0.00000000E+00  0.00000000E+00
  0.00000000E+00  0.00000000E+00  0.00000000E+00
  0.00000000E+00  0.00000000E+00  0.00000000E+00
  0.00000000E+00  0.00000000E+00  0.00000000E+00
  0.00000000E+00  0.00000000E+00  0.00000000E+00
  0.00000000E+00  0.00000000E+00  0.00000000E+00
  0.00000000E+00  0.00000000E+00  0.00000000E+00
  0.00000000E+00  0.00000000E+00  0.00000000E+00
  0.00000000E+00  0.00000000E+00  0.00000000E+00
  0.00000000E+00  0.00000000E+00  0.00000000E+00
  0.00000000E+00  0.00000000E+00  0.00000000E+00
  0.00000000E+00  0.00000000E+00  0.00000000E+00
  0.00000000E+00  0.00000000E+00  0.00000000E+00
  0.00000000E+00  0.00000000E+00  0.00000000E+00
  0.00000000E+00  0.00000000E+00  0.00000000E+00
  0.00000000E+00  0.00000000E+00  0.00000000E+00
  0.00000000E+00  0.00000000E+00  0.00000000E+00
  0.00000000E+00  0.00000000E+00  0.00000000E+00
  0.00000000E+00  0.00000000E+00  0.00000000E+00
  0.00000000E+00  0.00000000E+00  0.00000000E+00
  0.00000000E+00  0.00000000E+00  0.00000000E+00
  0.00000000E+00  0.00000000E+00  0.00000000E+00
  0.00000000E+00  0.00000000E+00  0.00000000E+00
  0.00000000E+00  0.00000000E+00  0.00000000E+00
  0.00000000E+00  0.00000000E+00  0.00000000E+00
  0.00000000E+00  0.00000000E+00  0.00000000E+00
  0.00000000E+00  0.00000000E+00  0.00000000E+00
  0.00000000E+00  0.00000000E+00  0.00000000E+00
  0.00000000E+00  0.00000000E+00  0.00000000E+00
  0.00000000E+00  0.00000000E+00  0.00000000E+00
  0.00000000E+00  0.00000000E+00  0.00000000E+00
  0.00000000E+00  0.00000000E+00  0.00000000E+00
  0.00000000E+00  0.00000000E+00  0.00000000E+00
  0.00000000E+00  0.00000000E+00  0.00000000E+00
  0.00000000E+00  0.00000000E+00  0.00000000E+00
  0.00000000E+00  0.00000000E+00  0.00000000E+00
  0.00000000E+00  0.00000000E+00  0.00000000E+00
  0.00000000E+00  0.00000000E+00  0.00000000E+00
  0.00000000E+00  0.00000000E+00  0.00000000E+00
  0.00000000E+00  0.00000000E+00  0.00000000E+00
  0.00000000E+00  0.00000000E+00  0.00000000E+00
  0.00000000E+00  0.00000000E+00  0.00000000E+00
  0.00000000E+00  0.00000000E+00  0.00000000E+00
  0.00000000E+00  0.00000000E+00  0.00000000E+00
  0.00000000E+00  0.00000000E+00  0.00000000E+00
  0.00000000E+00  0.00000000E+00  0.00000000E+00
  0.00000000E+00  0.00000000E+00  0.00000000E+00
  0.00000000E+00  0.00000000E+00  0.00000000E+00
  0.00000000E+00  0.00000000E+00  0.00000000E+00
  0.00000000E+00  0.00000000E+00  0.00000000E+00
  0.00000000E+00  0.00000000E+00  0.00000000E+00
  0.00000000E+00  0.00000000E+00  0.00000000E+00
  0.00000000E+00  0.00000000E+00  0.00000000E+00
  0.00000000E+00  0.00000000E+00  0.00000000E+00
  0.00000000E+00  0.00000000E+00  0.00000000E+00
  0.00000000E+00  0.00000000E+00  0.00000000E+00
  0.00000000E+00  0.00000000E+00  0.00000000E+00
  0.00000000E+00  0.00000000E+00  0.00000000E+00
  0.00000000E+00  0.00000000E+00  0.00000000E+00
  0.00000000E+00  0.00000000E+00  0.00000000E+00
  0.00000000E+00  0.00000000E+00  0.00000000E+00
  0.00000000E+00  0.00000000E+00  0.00000000E+00
  0.00000000E+00  0.00000000E+00  0.00000000E+00
  0.00000000E+00  0.00000000E+00  0.00000000E+00
  0.00000000E+00  0.00000000E+00  0.00000000E+00
  0.00000000E+00  0.00000000E+00  0.00000000E+00
  0.00000000E+00  0.00000000E+00  0.00000000E+00
  0.00000000E+00  0.00000000E+00  0.00000000E+00
  0.00000000E+00  0.00000000E+00  0.00000000E+00
  0.00000000E+00  0.00000000E+00  0.00000000E+00
  0.00000000E+00  0.00000000E+00  0.00000000E+00
  0.00000000E+00  0.00000000E+00  0.00000000E+00
  0.00000000E+00  0.00000000E+00  0.00000000E+00
  0.00000000E+00  0.00000000E+00  0.00000000E+00
  0.00000000E+00  0.00000000E+00  0.00000000E+00
  0.00000000E+00  0.00000000E+00  0.00000000E+00
  0.00000000E+00  0.00000000E+00  0.00000000E+00
  0.00000000E+00  0.00000000E+00  0.00000000E+00
  0.00000000E+00  0.00000000E+00  0.00000000E+00
  0.00000000E+00  0.00000000E+00  0.00000000E+00
  0.00000000E+00  0.00000000E+00  0.00000000E+00
  0.00000000E+00  0.00000000E+00  0.00000000E+00
  0.00000000E+00  0.00000000E+00  0.00000000E+00
  0.00000000E+00  0.00000000E+00  0.00000000E+00
  0.00000000E+00  0.00000000E+00  0.00000000E+00
  0.00000000E+00  0.00000000E+00  0.00000000E+00
  0.00000000E+00  0.00000000E+00  0.00000000E+00
  0.00000000E+00  0.00000000E+00  0.00000000E+00
  0.00000000E+00  0.00000000E+00  0.00000000E+00
  0.00000000E+00  0.00000000E+00  0.00000000E+00
  0.00000000E+00  0.00000000E+00  0.00000000E+00
  0.00000000E+00  0.00000000E+00  0.00000000E+00
  0.00000000E+00  0.00000000E+00  0.00000000E+00
  0.00000000E+00  0.00000000E+00  0.00000000E+00
  0.00000000E+00  0.00000000E+00  0.00000000E+00
  0.00000000E+00  0.00000000E+00  0.00000000E+00
  0.00000000E+00  0.00000000E+00  0.00000000E+00