Ge Se                                   
   1.00000000000000     
    20.8706398010253906    0.0000000000000000    0.0000000000000000
     0.0000000000000000   20.8706398010253906    0.0000000000000000
     0.0000000000000000    0.0000000000000000   20.8706398010253906
   Ge   Se
   150   150
Direct
  0.4382748419668516  0.4197103006171048  0.7344466340645681
  0.7962105507408737  0.2189353214032579  0.0393245903589730
  0.1348218516112851  0.7672487633701337  0.1158581860980163
  0.5043439378983692  0.7423206511279759  0.2065646509247117
  0.7335734753297061  0.4684008903215044  0.5485034957229473
  0.3892418538032700  0.5320139503021153  0.3940232539974744
  0.2925386230822014  0.0870417507509131  0.2327942390350444
  0.7706571691495228  0.2193562765101547  0.5916991922332997
  0.7810608120826359  0.5862420156476134  0.9843985358057949
  0.7938612121479736  0.0356362444020206  0.8989598739320002
  0.9838557553505680  0.3000313557416732  0.2894745347588668
  0.7324813263929357  0.0247600175749625  0.5125369405367906
  0.3272513832018404  0.7712693272889481  0.4102371073449191
  0.9376441651520722  0.5251774081402019  0.2444536512343092
  0.5266063283643447  0.9631433943280285  0.2915284558299689
  0.6841395163438406  0.8396108382657843  0.3910485934839585
  0.8371808392529445  0.4686963647809179  0.9886855804957548
  0.1135270536052673  0.4104077018707031  0.2058077536032030
  0.4618061570609626  0.8354488175424279  0.1311738491053163
  0.5949261157614387  0.6001665187623288  0.0396501427246747
  0.3766198453875305  0.8930892560920185  0.7586770977445525
  0.5266877881818033  0.8805751934872816  0.8509731948224939
  0.6318724942563136  0.7813112683142975  0.0135655137856290
  0.3571307023180097  0.5072674506226136  0.7775389560447010
  0.4184707979544413  0.1960976354396067  0.7777890887185421
  0.0519077413598978  0.0559295700157421  0.7478964003545556
  0.6528347710871358  0.1456145550080521  0.9657720689033766
  0.0752566285570140  0.4044439705774181  0.5086038794108703
  0.7564462337303155  0.9595570290563415  0.0271830110481446
  0.1227071357940730  0.2200107271581473  0.8201925714368912
  0.5260160077073408  0.4347704401690393  0.3989728323576003
  0.4780078988667071  0.7467955665495509  0.9641135955594606
  0.4924047260335414  0.0277814758697090  0.7322279950089694
  0.4958675641841026  0.8779128632826243  0.5393856166859123
  0.2539129571947925  0.2569593371782162  0.0627778348414907
  0.4638442672609528  0.9188747943345419  0.0326760201723886
  0.9335294584418250  0.3420432860680762  0.0924017396823373
  0.2960690647351356  0.3409755861917461  0.7681018662319588
  0.5156266926158466  0.2013173903638830  0.9056841839221264
  0.1552504191943811  0.7591403727320909  0.2900155605419457
  0.4584483862815532  0.0580088610739509  0.1458775945491411
  0.8484768189001599  0.6593717423320840  0.4638464180025395
  0.2466184653273373  0.3394951653385050  0.8968403944160599
  0.7841809945166958  0.5942899001427406  0.7517655127778227
  0.3170963478140578  0.1630817573225656  0.9084693349394826
  0.0199791857972116  0.1419052440844695  0.2549387746781306
  0.8152317637233324  0.8455951951034919  0.9600046235319297
  0.1966503572222749  0.4386052625406336  0.3276877398149125
  0.6793101402566606  0.4327449414543025  0.8377575162257429
  0.8258521592326531  0.9578311691662833  0.3768720211513497
  0.1416986578922845  0.8340769441511995  0.6472266173829269
  0.3470680598508196  0.6157560921242009  0.2273966298301602
  0.5901996959948477  0.5323824356831750  0.4364611867626778
  0.7418053958847395  0.1879795126719586  0.4611029755102791
  0.3860835719616418  0.6045988202074994  0.4969802024019501
  0.2253722413732717  0.8756902257716064  0.9692298285510432
  0.8925187221334454  0.1645911465205145  0.6801315601636233
  0.7426907873138546  0.3183014296102300  0.0914886884671162
  0.6441555708606117  0.7525916460799422  0.5808564862343530
  0.9690823750074316  0.8425970943789167  0.7818028762323834
  0.5360101732545957  0.1073564876971105  0.3430179622845557
  0.6685035328808553  0.4000645743327880  0.3305765618435430
  0.4301136321652663  0.3947932768869933  0.2275073977553035
  0.6639630319598382  0.3445190788384735  0.9404665927672937
  0.3980164392497940  0.0116297712813420  0.9055251393983283
  0.6611008705857273  0.2803527471194585  0.4882631260208043
  0.1731763734844520  0.0094530132790140  0.3301324959136025
  0.3187431722603975  0.1678519711583775  0.7096435949578250
  0.0843409521176000  0.2119557794550246  0.1704029112732783
  0.6027538471221163  0.0736039318846693  0.7483059208920722
  0.4596135024036485  0.6901719541672335  0.3108895475220947
  0.4958541011668416  0.8413161578663804  0.4169001001567381
  0.0801241846850189  0.3720645140556940  0.0303289870079908
  0.9541732705482033  0.4103511142511351  0.3472891854316345
  0.8503898464317885  0.4215557654115258  0.6854531742469447
  0.8516954875250846  0.7873406643664111  0.7701786884052311
  0.1642559168016504  0.9083435085891125  0.3956017156646112
  0.1805869166052219  0.6178750555658183  0.2232664592684515
  0.0538024066770362  0.7032898565313630  0.9521441082751849
  0.4370547165534049  0.5238300709089074  0.9792120757520451
  0.2743979109335513  0.4477403039182946  0.4570712951120015
  0.9208038043397266  0.6924947337203164  0.7162549348335574
  0.0706119486329015  0.8858490367018135  0.8774053788788905
  0.7903357352345068  0.3576090350335619  0.3917056744001215
  0.3203944323785421  0.6275249663555442  0.7470757205678993
  0.1982543194539730  0.0560737812728860  0.5014835013402106
  0.5741284348608602  0.3695164681772312  0.6682468735402551
  0.8061555227581394  0.8728937684622196  0.5025461339888153
  0.7735816125464581  0.6447417086679863  0.6235971466304306
  0.8387012953088586  0.7185950254398392  0.1976379777078847
  0.1729542148233421  0.0774040169310908  0.9082478649293080
  0.0345261253043105  0.9959132484401181  0.5591764715940712
  0.9271259455870577  0.6329128775368247  0.8483295174603498
  0.7801279784501247  0.0540537892478525  0.1018189156376366
  0.5900910389080209  0.6940583082402370  0.4592490794384219
  0.7393588634558625  0.6940207450031082  0.9013096320002134
  0.5132740056093397  0.2243021170979489  0.7048657539398562
  0.8000971690061931  0.4336816242074377  0.8724740538022431
  0.8268070097790741  0.0921594264298804  0.7868993492421978
  0.7719707705307002  0.7638505522736452  0.3502659419031673
  0.3213902711626417  0.8849690689398031  0.0759731033869784
  0.7012042736795934  0.5612713213723950  0.3130303749067238
  0.7967973841751075  0.2686723039584820  0.8096500247674925
  0.0160968674679935  0.0027329424586284  0.9963013548154720
  0.8121063713805938  0.2171026366024194  0.1876438162628915
  0.4102533122468444  0.4154632849065365  0.4361725527729305
  0.4015881475617462  0.9916482909927211  0.3801093104075193
  0.2741515410062263  0.5884390472172640  0.0593644631168431
  0.3764669403730565  0.1302486444852207  0.6073813625151772
  0.4095794120797223  0.0766648975187252  0.8041610357744347
  0.3965034532900376  0.7704392659691095  0.7793190024080445
  0.2310450451379964  0.4385721263801514  0.0280031296378880
  0.7691020733249871  0.8773419034765340  0.7907843716679466
  0.0328754336916361  0.1421764439778883  0.5944718319743671
  0.9896565007585565  0.4746673744786136  0.6078780555321188
  0.1373274803854088  0.6096767278141257  0.9234179042470458
  0.3185425904154187  0.2921291594531326  0.1668837835589017
  0.2352608589921061  0.9294627232011052  0.7790250551719069
  0.9308784184128243  0.1151495994143801  0.4807927577831279
  0.7164637177761009  0.0653296681833027  0.3164723516019663
  0.0055141468456128  0.6496987750511778  0.1174614017314681
  0.2677438586815839  0.0817546525086428  0.0517190557027902
  0.6266646212761700  0.1564931141188524  0.8350551639947170
  0.9380612517091507  0.8599229494649308  0.6338000327004565
  0.9833966771950458  0.9212681620732539  0.4293793063050586
  0.2231416013986589  0.8044735117661190  0.8009438744972925
  0.9266568115576703  0.1746217642478669  0.9500857056285312
  0.8246317421796832  0.8199414325213041  0.6141341981419117
  0.2718849551282290  0.7120854576522149  0.5801244380081414
  0.2889629929032580  0.3535093721193832  0.3115960122716643
  0.5916833819676413  0.2685061059232581  0.7920305889237724
  0.0301549140483957  0.5344108533242249  0.9289600778393492
  0.1370894870161194  0.0283961655071607  0.1603009074328128
  0.4248060652092249  0.2841407352054759  0.6341845137864297
  0.5619470868685923  0.1460348708112136  0.5431688931589918
  0.6332893015721837  0.0928035495969439  0.6316560554673885
  0.7543630724194159  0.7477300852630577  0.6971419021872762
  0.8742863478645972  0.0119282509084258  0.1777779758511429
  0.7834326229770880  0.6422867136216084  0.3584268362663536
  0.6131251540329998  0.5363579310500270  0.6729115222356157
  0.6591349990699555  0.6900909119878094  0.1046730444025386
  0.3491591960277773  0.9568885544751140  0.6239648924031869
  0.6805241687793213  0.9293985264405791  0.6834702106589319
  0.0036437529473829  0.7523164908864359  0.2550881270992846
  0.1058642260391949  0.1398033665354745  0.0156562242128828
  0.0639036335386081  0.6169099712219364  0.7587209546466838
  0.0076960196286180  0.5065721221174471  0.0787990225652351
  0.8836531251346855  0.4207849978962841  0.5143695820899126
  0.2269920688664371  0.2273575120289948  0.6524965451431797
  0.3528256113487060  0.6823381777397444  0.0541341371068995
  0.2740223391549179  0.5297002318898834  0.3618904109385355
  0.1863813882576508  0.1414686428554575  0.1692036699740029
  0.3216431184313748  0.5146614052158824  0.5429466087127892
  0.1715524699791544  0.7436290444273723  0.7205305559253077
  0.2886048675241852  0.0146929175972161  0.9466995257644584
  0.3036352273987575  0.4072598584385787  0.2040824563469883
  0.5640530391070016  0.4446693624703428  0.2891285431332165
  0.2062658636368511  0.2241367163310599  0.9139121438092914
  0.3674742392885761  0.4751393094900962  0.8907740717526522
  0.0291472423754087  0.1012822177046289  0.9239937394349909
  0.7078477580357401  0.1461556737266321  0.0827998399820800
  0.0551379535418874  0.6396555804511834  0.2299945793351128
  0.6996291226791627  0.6755352957954983  0.7875055575667602
  0.9051820126966845  0.3340004363198616  0.4298202744334176
  0.3977935959091852  0.2532290541538273  0.8796286516567875
  0.6850452885364007  0.8470049514629920  0.5087265029876846
  0.1593578071708421  0.1057587891185534  0.7848457727550553
  0.4189438200628999  0.8771246889729412  0.3359180389235092
  0.7281933934206180  0.2392819611211081  0.9363768370532739
  0.7394009891960636  0.6486296571256531  0.5086900158144019
  0.5890990895420245  0.6869837171147637  0.9524518902710923
  0.7978248226650422  0.8142567384887656  0.2485334056914112
  0.1729298367662579  0.5716342338875720  0.1113130707359318
  0.7963079134347311  0.9339621027694065  0.6837327741225536
  0.3591538550212121  0.8453309670892537  0.1809291646659759
  0.3124389629230677  0.0545364517757960  0.7444514526457766
  0.0888418180766593  0.8294659330598577  0.2116651106072283
  0.8946608376444729  0.1808838307150822  0.8330553221041370
  0.7025690687557358  0.8122612799227014  0.9202330726933923
  0.5476386459835041  0.4633192987783943  0.7524510016359045
  0.8547481030723674  0.7836543188864411  0.4332868811934389
  0.0674455507141829  0.8469155358760503  0.3874325461336525
  0.3693527723463674  0.8626759793830203  0.5346685377422702
  0.6501524349906092  0.8155519910057123  0.6935080664645241
  0.0205467783907594  0.8819252903598880  0.5473169694248199
  0.9308718233982347  0.2609331090234548  0.1876430160424647
  0.3569398547224694  0.5080879454573690  0.0733720908779247
  0.7031446804896362  0.9574551760806571  0.3882176220469731
  0.4060353018940930  0.8957805269609196  0.8832533639506579
  0.9829491202275875  0.4897011498878427  0.4893226460803177
  0.3469759319752086  0.7194541157299028  0.2945607291459638
  0.5835080038454024  0.8264398145836012  0.3373808370845026
  0.4912881694469391  0.9094095926485366  0.7217248420129820
  0.9389032538342406  0.7536636244078068  0.1469343280596362
  0.0514690831247862  0.0236658687077593  0.4489092043148091
  0.0721453980416413  0.0308154598857229  0.2691533460344431
  0.4754276566061080  0.0309290190014195  0.9881152997623417
  0.3104551280560415  0.3174225679056022  0.6402868948555849
  0.6038696250349105  0.2553862493155776  0.5859377909738512
  0.6167791752183760  0.4519181723655237  0.5824252689453004
  0.8740549396953980  0.6434086332273878  0.2794975825432147
  0.8179309840761064  0.1745070731155565  0.2994908786022776
  0.6855628506186378  0.3348941874588647  0.7629563820537584
  0.4684951013441747  0.7198734327381402  0.4257713851428306
  0.9150616622195358  0.5312033321595848  0.6712349967344693
  0.5209373983852785  0.0013985857900067  0.4109890520590156
  0.6760395972920037  0.5320735925591649  0.9905426733208742
  0.9119116514337051  0.5647677075705531  0.1291756694253934
  0.7192151237947257  0.4964564681801349  0.7250545278471705
  0.3051441725506763  0.7208544480925880  0.8367450341980884
  0.7381874697754256  0.2467966012180582  0.3539291093568337
  0.1018125648990917  0.4684334527651401  0.6114195481593043
  0.2638087493898027  0.6144077887702935  0.6459540550862428
  0.5597206608225633  0.5988222343742180  0.5251447583883362
  0.8449950003013882  0.9275878190392390  0.8722645888692924
  0.1011171253928396  0.2997851752183607  0.2592678297848536
  0.6195302068543000  0.9785926191500067  0.5993933570014747
  0.6000054287821541  0.6170236215310894  0.3540459916152869
  0.4182341142386079  0.2151324114528421  0.5378068759265915
  0.9567193379133698  0.4459087005782223  0.9825127942625542
  0.2451055102310278  0.9787010392044095  0.2460937350310601
  0.2070224073828300  0.9349837798076734  0.4975544765422626
  0.2174691405180269  0.0959829483064354  0.3870497216707562
  0.8345023812020500  0.2698566251968728  0.6918378963087335
  0.3427692615492717  0.1740864893026881  0.0277452405263645
  0.1545636686253999  0.7970305407106011  0.9027460275450636
  0.1790374872282996  0.7700141773129161  0.5516158981152017
  0.0125330848083607  0.1799639750201649  0.7045973797286820
  0.9931421537028839  0.2713197049745446  0.9282907231736175
  0.6513970148406969  0.1082705919743248  0.4574229545940725
  0.3118717744725998  0.3462902947660069  0.0002722785510159
  0.8788773338294860  0.6976575525996296  0.6030557928813209
  0.9593418299086736  0.6237279065665717  0.9694307954150716
  0.0065742851480763  0.7772840888392167  0.6833848917233425
  0.9981331093515422  0.2006304448288034  0.3535244578132719
  0.5528924329189167  0.1818176942712526  0.0157008498410320
  0.6186807186944847  0.7079835344204781  0.2105977064008400
  0.2342455909717600  0.9195224755271241  0.6597395653442177
  0.0441448568392744  0.2511599989881077  0.0299700720431488
  0.9372272011839939  0.0512592227274666  0.5875861327331933
  0.1926865479372353  0.8722523120277046  0.0862938652188845
  0.7763434566539118  0.6794951318657994  0.1057536734816367
  0.9939935711744354  0.4212888969863045  0.1659479280673111
  0.7513868531183618  0.0978975914213009  0.6172221988859619
  0.4982086133749704  0.7591672098264937  0.8416971840106271
  0.7866428800522485  0.9823492018451248  0.2544050237656492
  0.8554530900137465  0.4457346151362245  0.2902133838755248
  0.9940110764165766  0.5301417145044454  0.8169639155007928
  0.8517330874349369  0.7454845232492531  0.8834442315732005
  0.4441438340693438  0.5714922099112556  0.2918069924388362
  0.5525930473448852  0.3177357329995729  0.8936078672673915
  0.8166651687175204  0.5535699023837992  0.8679092049914630
  0.2382834852088820  0.8369095970643698  0.3379465620471933
  0.4048158112339664  0.3421647322591568  0.3397517743427798
  0.9491834253850939  0.9426419897299141  0.7129495561375663
  0.7024801167337031  0.4910065819331635  0.4184435531237511
  0.4385209286695542  0.0559954517765107  0.2750319115661668
  0.3233427143630436  0.0482817664524191  0.5391815566852785
  0.9127428509034772  0.0894895972487220  0.2583390291295586
  0.8237196961788840  0.4085681189088390  0.0940452046880296
  0.6864653279208284  0.0155732701702220  0.9475358567310792
  0.4342951266468447  0.2904340927016236  0.1705840528526039
  0.4666097810166079  0.0538393501054770  0.6205554505176991
  0.1120679599808128  0.9258949781533943  0.7737642988205309
  0.1814322700505500  0.2962663167587110  0.7415658157450480
  0.1656387751130666  0.5925094915949032  0.8148978779704876
  0.4176466671788504  0.6822509736493174  0.7052608604571091
  0.1089871013233221  0.0462418320352853  0.6340246792819357
  0.2236054665477170  0.7268358287925878  0.1894961759631286
  0.2581454473091753  0.4524108091478070  0.7520520829619244
  0.7525829326509950  0.3523302751822115  0.5173219616086158
  0.0354908367496378  0.0752411953584087  0.0935321741252437
  0.5657878238805623  0.8770593287399322  0.9813321879080803
  0.1688815928080274  0.3594474574260289  0.1105144457109333
  0.8539916450212814  0.0386205044222407  0.0046991819676094
  0.3404160179124744  0.0249881701929340  0.1318691380539718
  0.9419506960214150  0.3675182718947241  0.6096900505279308
  0.7374219475595680  0.3065890561220570  0.2066462598264280
  0.1314472440068073  0.9690604939775866  0.9531212108078222
  0.4601064034739508  0.3960535285636766  0.6136856876111025
  0.1477854998736277  0.4023602205345682  0.9350793815887073
  0.7299138431164209  0.1650083367025559  0.7733157325774869
  0.1520429034675672  0.4704992594602686  0.4380860701606295
  0.6090435157173175  0.0625658868280041  0.2573343311706680
  0.5936063431034384  0.3331232465781753  0.4037000702406672
  0.3706885228796395  0.7701858564770703  0.6121752354673831
  0.8229898773124589  0.0695936096641105  0.4348412896621952
  0.5245846591874610  0.7654875489325406  0.5709018414966991
  0.8890365106782454  0.2034703771664823  0.5599248720554399
  0.4352264639194843  0.6575798914182158  0.1440703167791426
  0.2705580053221013  0.2486512532408085  0.2664564392880422
  0.6579948613438447  0.9773869614093442  0.7872394515011294
  0.8823409803928968  0.3890179155308005  0.8027487655160073
  0.2838740100712940  0.6694164192299539  0.4693174214381202
  0.4061686797597375  0.6425592903728869  0.9565752094431943
  0.3318500484147506  0.7842490970795382  0.0036423504196179
  0.2442598379278778  0.5718560430947832  0.9486892075501387
  0.0289008910738460  0.7099436742801188  0.8340868213515904
  0.5173141498293461  0.9502937803287352  0.1394713362204953
  0.6405067299736587  0.3566795194565273  0.0547727634330712
 
  0.00000000E+00  0.00000000E+00  0.00000000E+00
  0.00000000E+00  0.00000000E+00  0.00000000E+00
  0.00000000E+00  0.00000000E+00  0.00000000E+00
  0.00000000E+00  0.00000000E+00  0.00000000E+00
  0.00000000E+00  0.00000000E+00  0.00000000E+00
  0.00000000E+00  0.00000000E+00  0.00000000E+00
  0.00000000E+00  0.00000000E+00  0.00000000E+00
  0.00000000E+00  0.00000000E+00  0.00000000E+00
  0.00000000E+00  0.00000000E+00  0.00000000E+00
  0.00000000E+00  0.00000000E+00  0.00000000E+00
  0.00000000E+00  0.00000000E+00  0.00000000E+00
  0.00000000E+00  0.00000000E+00  0.00000000E+00
  0.00000000E+00  0.00000000E+00  0.00000000E+00
  0.00000000E+00  0.00000000E+00  0.00000000E+00
  0.00000000E+00  0.00000000E+00  0.00000000E+00
  0.00000000E+00  0.00000000E+00  0.00000000E+00
  0.00000000E+00  0.00000000E+00  0.00000000E+00
  0.00000000E+00  0.00000000E+00  0.00000000E+00
  0.00000000E+00  0.00000000E+00  0.00000000E+00
  0.00000000E+00  0.00000000E+00  0.00000000E+00
  0.00000000E+00  0.00000000E+00  0.00000000E+00
  0.00000000E+00  0.00000000E+00  0.00000000E+00
  0.00000000E+00  0.00000000E+00  0.00000000E+00
  0.00000000E+00  0.00000000E+00  0.00000000E+00
  0.00000000E+00  0.00000000E+00  0.00000000E+00
  0.00000000E+00  0.00000000E+00  0.00000000E+00
  0.00000000E+00  0.00000000E+00  0.00000000E+00
  0.00000000E+00  0.00000000E+00  0.00000000E+00
  0.00000000E+00  0.00000000E+00  0.00000000E+00
  0.00000000E+00  0.00000000E+00  0.00000000E+00
  0.00000000E+00  0.00000000E+00  0.00000000E+00
  0.00000000E+00  0.00000000E+00  0.00000000E+00
  0.00000000E+00  0.00000000E+00  0.00000000E+00
  0.00000000E+00  0.00000000E+00  0.00000000E+00
  0.00000000E+00  0.00000000E+00  0.00000000E+00
  0.00000000E+00  0.00000000E+00  0.00000000E+00
  0.00000000E+00  0.00000000E+00  0.00000000E+00
  0.00000000E+00  0.00000000E+00  0.00000000E+00
  0.00000000E+00  0.00000000E+00  0.00000000E+00
  0.00000000E+00  0.00000000E+00  0.00000000E+00
  0.00000000E+00  0.00000000E+00  0.00000000E+00
  0.00000000E+00  0.00000000E+00  0.00000000E+00
  0.00000000E+00  0.00000000E+00  0.00000000E+00
  0.00000000E+00  0.00000000E+00  0.00000000E+00
  0.00000000E+00  0.00000000E+00  0.00000000E+00
  0.00000000E+00  0.00000000E+00  0.00000000E+00
  0.00000000E+00  0.00000000E+00  0.00000000E+00
  0.00000000E+00  0.00000000E+00  0.00000000E+00
  0.00000000E+00  0.00000000E+00  0.00000000E+00
  0.00000000E+00  0.00000000E+00  0.00000000E+00
  0.00000000E+00  0.00000000E+00  0.00000000E+00
  0.00000000E+00  0.00000000E+00  0.00000000E+00
  0.00000000E+00  0.00000000E+00  0.00000000E+00
  0.00000000E+00  0.00000000E+00  0.00000000E+00
  0.00000000E+00  0.00000000E+00  0.00000000E+00
  0.00000000E+00  0.00000000E+00  0.00000000E+00
  0.00000000E+00  0.00000000E+00  0.00000000E+00
  0.00000000E+00  0.00000000E+00  0.00000000E+00
  0.00000000E+00  0.00000000E+00  0.00000000E+00
  0.00000000E+00  0.00000000E+00  0.00000000E+00
  0.00000000E+00  0.00000000E+00  0.00000000E+00
  0.00000000E+00  0.00000000E+00  0.00000000E+00
  0.00000000E+00  0.00000000E+00  0.00000000E+00
  0.00000000E+00  0.00000000E+00  0.00000000E+00
  0.00000000E+00  0.00000000E+00  0.00000000E+00
  0.00000000E+00  0.00000000E+00  0.00000000E+00
  0.00000000E+00  0.00000000E+00  0.00000000E+00
  0.00000000E+00  0.00000000E+00  0.00000000E+00
  0.00000000E+00  0.00000000E+00  0.00000000E+00
  0.00000000E+00  0.00000000E+00  0.00000000E+00
  0.00000000E+00  0.00000000E+00  0.00000000E+00
  0.00000000E+00  0.00000000E+00  0.00000000E+00
  0.00000000E+00  0.00000000E+00  0.00000000E+00
  0.00000000E+00  0.00000000E+00  0.00000000E+00
  0.00000000E+00  0.00000000E+00  0.00000000E+00
  0.00000000E+00  0.00000000E+00  0.00000000E+00
  0.00000000E+00  0.00000000E+00  0.00000000E+00
  0.00000000E+00  0.00000000E+00  0.00000000E+00
  0.00000000E+00  0.00000000E+00  0.00000000E+00
  0.00000000E+00  0.00000000E+00  0.00000000E+00
  0.00000000E+00  0.00000000E+00  0.00000000E+00
  0.00000000E+00  0.00000000E+00  0.00000000E+00
  0.00000000E+00  0.00000000E+00  0.00000000E+00
  0.00000000E+00  0.00000000E+00  0.00000000E+00
  0.00000000E+00  0.00000000E+00  0.00000000E+00
  0.00000000E+00  0.00000000E+00  0.00000000E+00
  0.00000000E+00  0.00000000E+00  0.00000000E+00
  0.00000000E+00  0.00000000E+00  0.00000000E+00
  0.00000000E+00  0.00000000E+00  0.00000000E+00
  0.00000000E+00  0.00000000E+00  0.00000000E+00
  0.00000000E+00  0.00000000E+00  0.00000000E+00
  0.00000000E+00  0.00000000E+00  0.00000000E+00
  0.00000000E+00  0.00000000E+00  0.00000000E+00
  0.00000000E+00  0.00000000E+00  0.00000000E+00
  0.00000000E+00  0.00000000E+00  0.00000000E+00
  0.00000000E+00  0.00000000E+00  0.00000000E+00
  0.00000000E+00  0.00000000E+00  0.00000000E+00
  0.00000000E+00  0.00000000E+00  0.00000000E+00
  0.00000000E+00  0.00000000E+00  0.00000000E+00
  0.00000000E+00  0.00000000E+00  0.00000000E+00
  0.00000000E+00  0.00000000E+00  0.00000000E+00
  0.00000000E+00  0.00000000E+00  0.00000000E+00
  0.00000000E+00  0.00000000E+00  0.00000000E+00
  0.00000000E+00  0.00000000E+00  0.00000000E+00
  0.00000000E+00  0.00000000E+00  0.00000000E+00
  0.00000000E+00  0.00000000E+00  0.00000000E+00
  0.00000000E+00  0.00000000E+00  0.00000000E+00
  0.00000000E+00  0.00000000E+00  0.00000000E+00
  0.00000000E+00  0.00000000E+00  0.00000000E+00
  0.00000000E+00  0.00000000E+00  0.00000000E+00
  0.00000000E+00  0.00000000E+00  0.00000000E+00
  0.00000000E+00  0.00000000E+00  0.00000000E+00
  0.00000000E+00  0.00000000E+00  0.00000000E+00
  0.00000000E+00  0.00000000E+00  0.00000000E+00
  0.00000000E+00  0.00000000E+00  0.00000000E+00
  0.00000000E+00  0.00000000E+00  0.00000000E+00
  0.00000000E+00  0.00000000E+00  0.00000000E+00
  0.00000000E+00  0.00000000E+00  0.00000000E+00
  0.00000000E+00  0.00000000E+00  0.00000000E+00
  0.00000000E+00  0.00000000E+00  0.00000000E+00
  0.00000000E+00  0.00000000E+00  0.00000000E+00
  0.00000000E+00  0.00000000E+00  0.00000000E+00
  0.00000000E+00  0.00000000E+00  0.00000000E+00
  0.00000000E+00  0.00000000E+00  0.00000000E+00
  0.00000000E+00  0.00000000E+00  0.00000000E+00
  0.00000000E+00  0.00000000E+00  0.00000000E+00
  0.00000000E+00  0.00000000E+00  0.00000000E+00
  0.00000000E+00  0.00000000E+00  0.00000000E+00
  0.00000000E+00  0.00000000E+00  0.00000000E+00
  0.00000000E+00  0.00000000E+00  0.00000000E+00
  0.00000000E+00  0.00000000E+00  0.00000000E+00
  0.00000000E+00  0.00000000E+00  0.00000000E+00
  0.00000000E+00  0.00000000E+00  0.00000000E+00
  0.00000000E+00  0.00000000E+00  0.00000000E+00
  0.00000000E+00  0.00000000E+00  0.00000000E+00
  0.00000000E+00  0.00000000E+00  0.00000000E+00
  0.00000000E+00  0.00000000E+00  0.00000000E+00
  0.00000000E+00  0.00000000E+00  0.00000000E+00
  0.00000000E+00  0.00000000E+00  0.00000000E+00
  0.00000000E+00  0.00000000E+00  0.00000000E+00
  0.00000000E+00  0.00000000E+00  0.00000000E+00
  0.00000000E+00  0.00000000E+00  0.00000000E+00
  0.00000000E+00  0.00000000E+00  0.00000000E+00
  0.00000000E+00  0.00000000E+00  0.00000000E+00
  0.00000000E+00  0.00000000E+00  0.00000000E+00
  0.00000000E+00  0.00000000E+00  0.00000000E+00
  0.00000000E+00  0.00000000E+00  0.00000000E+00
  0.00000000E+00  0.00000000E+00  0.00000000E+00
  0.00000000E+00  0.00000000E+00  0.00000000E+00
  0.00000000E+00  0.00000000E+00  0.00000000E+00
  0.00000000E+00  0.00000000E+00  0.00000000E+00
  0.00000000E+00  0.00000000E+00  0.00000000E+00
  0.00000000E+00  0.00000000E+00  0.00000000E+00
  0.00000000E+00  0.00000000E+00  0.00000000E+00
  0.00000000E+00  0.00000000E+00  0.00000000E+00
  0.00000000E+00  0.00000000E+00  0.00000000E+00
  0.00000000E+00  0.00000000E+00  0.00000000E+00
  0.00000000E+00  0.00000000E+00  0.00000000E+00
  0.00000000E+00  0.00000000E+00  0.00000000E+00
  0.00000000E+00  0.00000000E+00  0.00000000E+00
  0.00000000E+00  0.00000000E+00  0.00000000E+00
  0.00000000E+00  0.00000000E+00  0.00000000E+00
  0.00000000E+00  0.00000000E+00  0.00000000E+00
  0.00000000E+00  0.00000000E+00  0.00000000E+00
  0.00000000E+00  0.00000000E+00  0.00000000E+00
  0.00000000E+00  0.00000000E+00  0.00000000E+00
  0.00000000E+00  0.00000000E+00  0.00000000E+00
  0.00000000E+00  0.00000000E+00  0.00000000E+00
  0.00000000E+00  0.00000000E+00  0.00000000E+00
  0.00000000E+00  0.00000000E+00  0.00000000E+00
  0.00000000E+00  0.00000000E+00  0.00000000E+00
  0.00000000E+00  0.00000000E+00  0.00000000E+00
  0.00000000E+00  0.00000000E+00  0.00000000E+00
  0.00000000E+00  0.00000000E+00  0.00000000E+00
  0.00000000E+00  0.00000000E+00  0.00000000E+00
  0.00000000E+00  0.00000000E+00  0.00000000E+00
  0.00000000E+00  0.00000000E+00  0.00000000E+00
  0.00000000E+00  0.00000000E+00  0.00000000E+00
  0.00000000E+00  0.00000000E+00  0.00000000E+00
  0.00000000E+00  0.00000000E+00  0.00000000E+00
  0.00000000E+00  0.00000000E+00  0.00000000E+00
  0.00000000E+00  0.00000000E+00  0.00000000E+00
  0.00000000E+00  0.00000000E+00  0.00000000E+00
  0.00000000E+00  0.00000000E+00  0.00000000E+00
  0.00000000E+00  0.00000000E+00  0.00000000E+00
  0.00000000E+00  0.00000000E+00  0.00000000E+00
  0.00000000E+00  0.00000000E+00  0.00000000E+00
  0.00000000E+00  0.00000000E+00  0.00000000E+00
  0.00000000E+00  0.00000000E+00  0.00000000E+00
  0.00000000E+00  0.00000000E+00  0.00000000E+00
  0.00000000E+00  0.00000000E+00  0.00000000E+00
  0.00000000E+00  0.00000000E+00  0.00000000E+00
  0.00000000E+00  0.00000000E+00  0.00000000E+00
  0.00000000E+00  0.00000000E+00  0.00000000E+00
  0.00000000E+00  0.00000000E+00  0.00000000E+00
  0.00000000E+00  0.00000000E+00  0.00000000E+00
  0.00000000E+00  0.00000000E+00  0.00000000E+00
  0.00000000E+00  0.00000000E+00  0.00000000E+00
  0.00000000E+00  0.00000000E+00  0.00000000E+00
  0.00000000E+00  0.00000000E+00  0.00000000E+00
  0.00000000E+00  0.00000000E+00  0.00000000E+00
  0.00000000E+00  0.00000000E+00  0.00000000E+00
  0.00000000E+00  0.00000000E+00  0.00000000E+00
  0.00000000E+00  0.00000000E+00  0.00000000E+00
  0.00000000E+00  0.00000000E+00  0.00000000E+00
  0.00000000E+00  0.00000000E+00  0.00000000E+00
  0.00000000E+00  0.00000000E+00  0.00000000E+00
  0.00000000E+00  0.00000000E+00  0.00000000E+00
  0.00000000E+00  0.00000000E+00  0.00000000E+00
  0.00000000E+00  0.00000000E+00  0.00000000E+00
  0.00000000E+00  0.00000000E+00  0.00000000E+00
  0.00000000E+00  0.00000000E+00  0.00000000E+00
  0.00000000E+00  0.00000000E+00  0.00000000E+00
  0.00000000E+00  0.00000000E+00  0.00000000E+00
  0.00000000E+00  0.00000000E+00  0.00000000E+00
  0.00000000E+00  0.00000000E+00  0.00000000E+00
  0.00000000E+00  0.00000000E+00  0.00000000E+00
  0.00000000E+00  0.00000000E+00  0.00000000E+00
  0.00000000E+00  0.00000000E+00  0.00000000E+00
  0.00000000E+00  0.00000000E+00  0.00000000E+00
  0.00000000E+00  0.00000000E+00  0.00000000E+00
  0.00000000E+00  0.00000000E+00  0.00000000E+00
  0.00000000E+00  0.00000000E+00  0.00000000E+00
  0.00000000E+00  0.00000000E+00  0.00000000E+00
  0.00000000E+00  0.00000000E+00  0.00000000E+00
  0.00000000E+00  0.00000000E+00  0.00000000E+00
  0.00000000E+00  0.00000000E+00  0.00000000E+00
  0.00000000E+00  0.00000000E+00  0.00000000E+00
  0.00000000E+00  0.00000000E+00  0.00000000E+00
  0.00000000E+00  0.00000000E+00  0.00000000E+00
  0.00000000E+00  0.00000000E+00  0.00000000E+00
  0.00000000E+00  0.00000000E+00  0.00000000E+00