Amorphous GeAsSeSi                      
   1.00000000000000     
    18.9645921067747238    0.0000000000000000    0.0000000000000000
     0.0000000000000000   18.9645921067747238    0.0000000000000000
     0.0000000000000000    0.0000000000000000   18.9645921067747238
   Ge   P    Sb   Se
    84    36    36    84
Direct
 -0.0023174062586905  0.0198462304959403  0.0081342117597236
  0.1476068435479285  0.3587157073772479  0.2015629141185382
  0.3143849474284923  0.3753013234288900  0.1785259167819590
  0.1082189719733079  0.2226184041906633  0.4699923099409259
  0.8064562399955816  0.5873844121334312  0.4111019132293542
  0.4281234967417836  0.1950431176516122  0.1375456699338076
  0.1359759018791007  0.3650860368362869  0.8632588376367901
  0.0091663601992653  0.3259819917672687  0.1875585754370220
  0.2521611836721893  0.5938932395849353  0.3942825856601294
  0.7513048174873739  0.8919158695221323  0.8907806381862501
  0.8165431662704689  0.3826174243743897  0.9144690285977929
  0.0536936957899683  0.0620624645612908  0.8358114645634241
  0.7157451833778665  0.1928293701896856  0.6752676680688360
  0.2952993306799341  0.4151996244031563  0.8498709106112192
  0.0090472832437541  0.7457404333298899  0.3304646065723491
  0.4460485470363891  0.7170623673943877  0.9902623513151351
  0.9718079156958873  0.9171233724753564  0.2506811459005130
  0.7912033201343999  0.2657574143792711  0.1688900485832492
  0.8051979564145084  0.8217443457954874  0.7359316141279401
  0.6596088354446696  0.3594851607790203  0.0313989135398596
  0.9008394597840160  0.1350693667658215  0.7839707765272135
  0.3123497070471896  0.4807110318081997  0.0271692248151132
  0.8418230035880152  0.2982525931838229  0.3103088340016218
  0.1708223733067123  0.6083270396482456  0.1693226743962218
  0.5057093929912972  0.3563873030484818  0.2679463112898379
  0.6635380180161343  0.1328547986443130  0.4797849795715590
  0.2645902471373113  0.8120690195777818  0.1809889398779176
  0.7642160273710479  0.0012609267115157  0.6305424926489718
  0.6643088813886875  0.3236387011631760  0.1639302523939543
  0.3825173830144693  0.6338734133044996  0.9105125508622162
  0.0983165187712149  0.6620101834767794  0.9243740135316139
  0.3905885073858916  0.0671488995484599  0.9624184016736930
  0.9016247273815975  0.5729749329497758  0.6896066589082819
  0.1053515626166988  0.3372282819211622  0.0158858366467560
  0.4252367440439012  0.6271773674569497  0.2850667686776835
  0.1687645305865886  0.3938277659805848  0.3607817663939028
  0.9997743210951217  0.4771232372095173  0.7378597685720898
  0.4040772297289772  0.8000053947597550  0.4613347634574045
  0.1268245578456554  0.4855011842712282  0.4592955004894550
  0.8541011377679298  0.9061307894843488  0.3158260906715056
  0.9205343067210978  0.5602269095786111  0.3028269739742127
  0.0050111400729789  0.4645756056602429  0.9219683427291175
  0.8126050190912504  0.6068605356176708  0.8076239607856066
  0.4740485310427942  0.3493986256894860  0.8787704179675510
  0.7181126189178607  0.5312799134451501  0.6455820165233475
  0.4222234211918824  0.2419400861547062  0.5268956441396081
  0.0217568789516107  0.4931653017470335  0.0787168763829661
  0.7683087767761934  0.9671607364989636  0.0036173638758640
  0.8925548832659882  0.9435727368905287  0.0555527261314380
  0.5245930618341548  0.6657291099536125  0.4782739643633765
  0.9064028880057889  0.6001977380305975  0.0248239090493043
  0.5145536341634094  0.0152197344204806  0.3835016845095988
  0.7258790543761858  0.8898778116254293  0.2072033883485075
  0.7119906465217115  0.1330676233606661  0.8910115602377711
  0.5066508242320006  0.6504593648992717  0.6131683294273582
  0.9759671463126248  0.6605616977514798  0.8187529828977720
  0.6540410256907935  0.8401801374228144  0.8113307637479484
  0.3039943720279536  0.0738781866034059  0.2366506611379712
  0.3436428068830255  0.9021303801956321  0.6098217328561025
  0.4177725697511195  0.4898393782785302  0.5517277823747125
  0.7761362443318666  0.7007645466828544  0.8986666697400264
  0.3409712784966191  0.2561706043587432  0.7356746675544960
  0.5363593835882005  0.3098666375540334  0.5564334490625226
  0.9242227414977027  0.4065694016969108  0.2486288414614986
  0.0580316684588701  0.1630235261012115  0.1036715049486502
  0.3017004611079191  0.2248311673583113  0.3705499672428963
  0.3328836614403241  0.4178481318745413  0.4665997752673726
  0.6173627817652365  0.8397091056942269  0.6794167620176226
  0.1273108362172290  0.6605317075223317  0.7046763658190908
  0.2497884005338561  0.6428495451000240  0.8999881430464163
  0.6313926974499391  0.5756320308687619  0.4534395683219647
  0.5155518388063186  0.9543574210168556  0.5622593929742371
  0.5511182891033489  0.8757925381798778  0.8863915148437286
  0.9331630638104734  0.6543733624064385  0.4556446530809161
  0.6512137003564950  0.4452272969864274  0.4800332324357885
  0.4940498315116989  0.0021489279473184  0.0190230133370214
  0.6642482054604479  0.2352219630101170  0.3475576569256185
  0.7171278337593596  0.4663497247519835  0.2779702188607472
  0.4955111396014576  0.0094195499422261  0.1992409063690304
  0.7936986623401767  0.8005404950647975  0.0394792337235569
  0.4782028694506909  0.0858512400040579  0.5409711081768592
  0.0499293472962069  0.0363197207323303  0.4086969113298576
  0.8331125887879646  0.4563280114805920  0.4479696005668256
  0.3901465798791197  0.6645595209346972  0.0965087940078966
  0.6960894790925285  0.4133947029429786  0.5917394874213767
  0.1409253467083273  0.2610158092013011  0.1162122540740822
  0.2043199094881618  0.1448471283295621  0.0095747143478973
  0.7661658418146633  0.1199914020459811  0.7729738750795800
  0.2528255216951081  0.6964515868304305  0.7045484755719594
  0.3001805316901955  0.1935994481919475  0.1795013396447754
  0.4133379560427858  0.4577606216189549  0.8326997067549187
  0.3438966930521614 -0.0004659816607058  0.4326083131982085
  0.6527424049859004  0.7260244221306827  0.8698777604813452
  0.3860248547935792  0.5994280764328763  0.6125101449351161
  0.5993644161825604  0.3693583405899500  0.8400238817102239
  0.1437087084916621  0.9492153987852066  0.3879502145570845
  0.7309720764303821  0.0118518576337310  0.7530054061573755
  0.4966263594198276  0.8817598742270111  0.0591474406860343
  0.3561995007987205  0.3110171499625624  0.6147860447380010
  0.0112160999825373  0.1277763518717634  0.5804854860048105
  0.4067958777583060  0.9254830548370806  0.4991602759505275
  0.9131412615242290  0.0968488334639371  0.6381869922868557
  0.2467360794890306  0.2293012856990024  0.0803568104389612
  0.5514829984100252  0.2184540053482108  0.7535394839345033
  0.2784552749560961  0.4676695725660536  0.3635301725389299
  0.0365067917897929  0.0128575470178270  0.5721646272071834
  0.2695954777429432  0.2765729717580696  0.2531395074865437
  0.6208552293390791  0.9027856271841709  0.2824255419425327
  0.4292814556533238  0.8806744391727295  0.8650101951150712
  0.2112989617217022  0.2959553582928091  0.4332754191293953
  0.2306689859811476  0.8009159123991650  0.4283014853683943
  0.8349363759085805  0.1829325112385064  0.6154238507180465
  0.6125232312457187  0.6438488855862872  0.7962600383559166
  0.6310358809022866  0.2931607506033161  0.9213030194492114
  0.5928302250410183  0.8519744931658769  0.0008150219161170
  0.8381108784004704  0.8069389835394575  0.9153638181792301
  0.3954411524440067  0.4156572446630373  0.6540311556034996
  0.4643142098019034  0.2949688753246901  0.7580107762669804
  0.1238247095863510  0.8379790368013695  0.4090823054009218
  0.6922818201813600  0.5590195150004944  0.7908798461021387
  0.0801158548759681  0.6883823197404804  0.4465419113118121
  0.7298465642057549  0.3702791541286015  0.3814979936364588
  0.8318170088577854  0.5018933096627715  0.1990201005848958
  0.7268589265058464  0.1829504524428372  0.0651577510560700
  0.3808299431127576  0.8424738335847385  0.9856442905683416
  0.5890523688436531  0.7171392394494832  0.9965357210625245
  0.8748984229917968  0.1458042988174078  0.0421065907523231
  0.4532369132310459  0.0485736166856908  0.8306030354332612
  0.5789825035466420  0.6418081046589996  0.1576377380458624
  0.2623882926824731  0.0197777285742646  0.0084827798275322
  0.7107670795279237  0.0390938801230482  0.1205765731410539
  0.0879791334926890  0.1814633768793810  0.6789471169679255
  0.0482633653198828  0.1771418744928912  0.9407779050805218
  0.8271291426558174  0.3840241057334347  0.5734508641197744
  0.9617231831901817  0.7280554066413798  0.6426827367652953
  0.1142050741945813  0.0528626755313419  0.1916245671266139
  0.6890394402945487  0.8720837096428973  0.3982439227609645
  0.2648827875327273  0.6193761838752270  0.0510305094670808
  0.1806840115757903  0.0567078084314021  0.6948731875462828
  0.1002300924621781  0.8194374068241418  0.2435410944807510
  0.3243100306540046  0.5852490305702510  0.7356975776241929
  0.3536278714551530  0.7932597282593716  0.7802582236193716
  0.8087932543894831  0.2505494340452118  0.4925376945530089
  0.2134411454736442  0.9424043739496740  0.2677296259018312
  0.5365304509646538  0.7908553047022521  0.1860558597142805
  0.2949840261863673  0.6940571469525489  0.5746942406045730
  0.6824279157322570  0.4625447536653654  0.8893324471639098
  0.6468333986300147  0.6932965938958895  0.6716057859581309
  0.0798495561834871  0.7916169739838642  0.0895621084987546
  0.2680433635014853  0.1963086671715859  0.8953933146137562
  0.5252702735828304  0.3904912483406697  0.6802033228582336
  0.5061163243692841  0.1114949466472684  0.6808756249106487
  0.9582262967337972  0.4216503993336747  0.3898698417456071
  0.0641927270616516  0.5502871279763650  0.5725695920886372
  0.2167517011195597 -0.0006849868066193  0.4910034541697819
  0.2369248885857767  0.3512849243534106  0.5568816330310591
  0.0034110385965973  0.0446301000360204  0.2787173638685995
  0.9681956855532653  0.6965636611629609  0.9484104183001676
  0.4410872162157646  0.3356075604667716  0.1509088773981680
  0.1971650711655299  0.7163454945023005  0.2503015825144619
  0.2172717089833886  0.3980081904454322  0.7536995479236971
  0.5343139558283848  0.1411293458295661  0.4358350251390674
  0.5347226798684361  0.1634324484645994  0.8589380789824306
  0.7821449019058758  0.8032308551878156  0.2964426449471461
  0.4630136594459995  0.5663033235254160  0.1354494704600918
  0.6066167937753156  0.0242599766285827  0.2821942909736938
  0.2342974428604385  0.5468238190789478  0.5192053325466923
  0.1880411728662668  0.0458908871991218  0.8320502135982724
  0.5845638783976876  0.2465169158578995  0.2376195634192163
  0.6102748637585667  0.9747490845683981  0.4693760239732740
  0.8557842593760842  0.0388142236160783  0.1439308714655339
  0.0141983712361300  0.5037259825927385  0.2180405464288489
  0.6575862265625247  0.0857153287757995  0.6120810015532930
  0.5373155378067154  0.3932396613072326  0.4571884731942364
 -0.0035394884112418  0.3749383452024123  0.8178072896018438
  0.9318618462289300  0.8422962671885059  0.7100569910333211
  0.5706164788309638  0.0029084626867591  0.9112304165429276
  0.1151207948463738  0.5763035511154180  0.3639733219014197
  0.8287351262529725  0.0644205991054054  0.9367845319255291
  0.0860993198681109  0.7385540390726754  0.8137280618579914
  0.4162248074977011  0.6241228819973562  0.4211424967774319
  0.7724806732380439  0.1878162158514406  0.2840437198571928
  0.0690509275999883  0.9734158906208908  0.6847293147764137
  0.0655659798527031  0.5541963786873869  0.8390030693576260
  0.3971260451429469  0.3138578201348381  0.4114996902062982
  0.2329469514617581  0.8639076274148195  0.5414412477764911
  0.0960672336427010  0.7547220059453112  0.6170500431253353
  0.1485782836860548  0.4471710252197590  0.0916410745740207
  0.2315328161213034  0.4989043779030514  0.9237948006319369
  0.9107051629525806  0.9954963498176296  0.5712434514416121
  0.9134407140875521  0.6864209285870914  0.2703558961396239
  0.5354101695996385  0.7874396109074755  0.4414194403898956
  0.8252298009836917  0.9518937326618959  0.8006098801629699
  0.3712778393557271  0.1271164019843561  0.7188877387775339
  0.1563085307621703  0.1191506529975654  0.3994910303143264
  0.9257037851246023  0.5516836718033689  0.5488444574626988
  0.7341512601162715  0.8689026918656740  0.6233833375408327
  0.2784939484134946  0.3280313027150542  0.9461920360287446
  0.3042116732595946  0.8584346512259204  0.3522611990017209
  0.5490288423345455  0.6844842545134671  0.2891567117158474
  0.9657496510489256  0.2059686047358584  0.1901321027330374
  0.6926117253108131  0.5825529505438518  0.3322178023659874
  0.9058605110899677  0.7623286593742145  0.5232262167015428
  0.3511346523432464  0.4699821866395976  0.2686550539668839
  0.5424499385968118  0.5252037733728133  0.5862806164816677
  0.4303325361583454  0.1101207220157618  0.2628985689281921
  0.1857131706310383  0.2075078195632012  0.5812964561750817
  0.7834462259640027  0.9754503590400710  0.3964901549570403
  0.4059954109364168  0.7821315129003303  0.6045559774402797
  0.1368475433855576  0.2322537845640252  0.8386565801180232
  0.0724010725833648  0.4308636588643021  0.6423761835682069
  0.6227954021423353  0.4819822255337434  0.0115824704085463
  0.4285284365274449  0.5143125645523229  0.9412471859785235
  0.9793873987992735  0.3607633505036232  0.0646302595508365
  0.9007958201382698  0.8298791518032197  0.1160880961350417
  0.4297984087605621  0.6669051167507034  0.7910298628932532
  0.8813728995547189  0.5163046670344377  0.9218742910343007
  0.8970346486676711  0.2437247105876796  0.6990221022389422
  0.3806855151976283  0.7400293448978708  0.2002077809900477
  0.3554200175256931  0.1002343221993806  0.5056057598156194
  0.2698271567364247  0.7842878219492241  0.8868094455612981
  0.9203864488299831  0.2191570831714293  0.8994213799011461
  0.6542490729800324  0.2572839920968608  0.5303268040673279
  0.0890057577716050  0.9626829226401952  0.0915696169961402
  0.6708476722550868  0.7862828423082706  0.1459574164455648
  0.7912671668240577  0.6807601171918254  0.6923121115267677
  0.0227712648163140  0.9543137854841268  0.9017083052098469
  0.0646399771045119  0.6529267723967777  0.1112619364015272
  0.3979934739135585  0.1887741303600907  0.9943938975383045
  0.7879942017513409  0.3689941354790459  0.0419256753526829
  0.6105917900997178  0.4400132746162104  0.2061862129517843
  0.3291826759113461 -0.0019176411133200  0.1286019141374657
  0.8226572919004698  0.4684021768612120  0.7059848819552520
  0.2160265483392879  0.7908707952551132  0.0607310313924903
  0.7325504020486231  0.6249480925754822  0.5171791772270236
  0.5546780868520914  0.0803888835607334  0.0999801087071642
  0.7817335581534489  0.6600216809811601  0.0232181960187114
  0.9271551933423337  0.2769514322823173  0.4108493074199284
  0.7388071857888886  0.2643770215029833  0.8749348454347885
  0.9643314261419065  0.8620197012110161  0.3801774427781976
 
  0.00000000E+00  0.00000000E+00  0.00000000E+00
  0.00000000E+00  0.00000000E+00  0.00000000E+00
  0.00000000E+00  0.00000000E+00  0.00000000E+00
  0.00000000E+00  0.00000000E+00  0.00000000E+00
  0.00000000E+00  0.00000000E+00  0.00000000E+00
  0.00000000E+00  0.00000000E+00  0.00000000E+00
  0.00000000E+00  0.00000000E+00  0.00000000E+00
  0.00000000E+00  0.00000000E+00  0.00000000E+00
  0.00000000E+00  0.00000000E+00  0.00000000E+00
  0.00000000E+00  0.00000000E+00  0.00000000E+00
  0.00000000E+00  0.00000000E+00  0.00000000E+00
  0.00000000E+00  0.00000000E+00  0.00000000E+00
  0.00000000E+00  0.00000000E+00  0.00000000E+00
  0.00000000E+00  0.00000000E+00  0.00000000E+00
  0.00000000E+00  0.00000000E+00  0.00000000E+00
  0.00000000E+00  0.00000000E+00  0.00000000E+00
  0.00000000E+00  0.00000000E+00  0.00000000E+00
  0.00000000E+00  0.00000000E+00  0.00000000E+00
  0.00000000E+00  0.00000000E+00  0.00000000E+00
  0.00000000E+00  0.00000000E+00  0.00000000E+00
  0.00000000E+00  0.00000000E+00  0.00000000E+00
  0.00000000E+00  0.00000000E+00  0.00000000E+00
  0.00000000E+00  0.00000000E+00  0.00000000E+00
  0.00000000E+00  0.00000000E+00  0.00000000E+00
  0.00000000E+00  0.00000000E+00  0.00000000E+00
  0.00000000E+00  0.00000000E+00  0.00000000E+00
  0.00000000E+00  0.00000000E+00  0.00000000E+00
  0.00000000E+00  0.00000000E+00  0.00000000E+00
  0.00000000E+00  0.00000000E+00  0.00000000E+00
  0.00000000E+00  0.00000000E+00  0.00000000E+00
  0.00000000E+00  0.00000000E+00  0.00000000E+00
  0.00000000E+00  0.00000000E+00  0.00000000E+00
  0.00000000E+00  0.00000000E+00  0.00000000E+00
  0.00000000E+00  0.00000000E+00  0.00000000E+00
  0.00000000E+00  0.00000000E+00  0.00000000E+00
  0.00000000E+00  0.00000000E+00  0.00000000E+00
  0.00000000E+00  0.00000000E+00  0.00000000E+00
  0.00000000E+00  0.00000000E+00  0.00000000E+00
  0.00000000E+00  0.00000000E+00  0.00000000E+00
  0.00000000E+00  0.00000000E+00  0.00000000E+00
  0.00000000E+00  0.00000000E+00  0.00000000E+00
  0.00000000E+00  0.00000000E+00  0.00000000E+00
  0.00000000E+00  0.00000000E+00  0.00000000E+00
  0.00000000E+00  0.00000000E+00  0.00000000E+00
  0.00000000E+00  0.00000000E+00  0.00000000E+00
  0.00000000E+00  0.00000000E+00  0.00000000E+00
  0.00000000E+00  0.00000000E+00  0.00000000E+00
  0.00000000E+00  0.00000000E+00  0.00000000E+00
  0.00000000E+00  0.00000000E+00  0.00000000E+00
  0.00000000E+00  0.00000000E+00  0.00000000E+00
  0.00000000E+00  0.00000000E+00  0.00000000E+00
  0.00000000E+00  0.00000000E+00  0.00000000E+00
  0.00000000E+00  0.00000000E+00  0.00000000E+00
  0.00000000E+00  0.00000000E+00  0.00000000E+00
  0.00000000E+00  0.00000000E+00  0.00000000E+00
  0.00000000E+00  0.00000000E+00  0.00000000E+00
  0.00000000E+00  0.00000000E+00  0.00000000E+00
  0.00000000E+00  0.00000000E+00  0.00000000E+00
  0.00000000E+00  0.00000000E+00  0.00000000E+00
  0.00000000E+00  0.00000000E+00  0.00000000E+00
  0.00000000E+00  0.00000000E+00  0.00000000E+00
  0.00000000E+00  0.00000000E+00  0.00000000E+00
  0.00000000E+00  0.00000000E+00  0.00000000E+00
  0.00000000E+00  0.00000000E+00  0.00000000E+00
  0.00000000E+00  0.00000000E+00  0.00000000E+00
  0.00000000E+00  0.00000000E+00  0.00000000E+00
  0.00000000E+00  0.00000000E+00  0.00000000E+00
  0.00000000E+00  0.00000000E+00  0.00000000E+00
  0.00000000E+00  0.00000000E+00  0.00000000E+00
  0.00000000E+00  0.00000000E+00  0.00000000E+00
  0.00000000E+00  0.00000000E+00  0.00000000E+00
  0.00000000E+00  0.00000000E+00  0.00000000E+00
  0.00000000E+00  0.00000000E+00  0.00000000E+00
  0.00000000E+00  0.00000000E+00  0.00000000E+00
  0.00000000E+00  0.00000000E+00  0.00000000E+00
  0.00000000E+00  0.00000000E+00  0.00000000E+00
  0.00000000E+00  0.00000000E+00  0.00000000E+00
  0.00000000E+00  0.00000000E+00  0.00000000E+00
  0.00000000E+00  0.00000000E+00  0.00000000E+00
  0.00000000E+00  0.00000000E+00  0.00000000E+00
  0.00000000E+00  0.00000000E+00  0.00000000E+00
  0.00000000E+00  0.00000000E+00  0.00000000E+00
  0.00000000E+00  0.00000000E+00  0.00000000E+00
  0.00000000E+00  0.00000000E+00  0.00000000E+00
  0.00000000E+00  0.00000000E+00  0.00000000E+00
  0.00000000E+00  0.00000000E+00  0.00000000E+00
  0.00000000E+00  0.00000000E+00  0.00000000E+00
  0.00000000E+00  0.00000000E+00  0.00000000E+00
  0.00000000E+00  0.00000000E+00  0.00000000E+00
  0.00000000E+00  0.00000000E+00  0.00000000E+00
  0.00000000E+00  0.00000000E+00  0.00000000E+00
  0.00000000E+00  0.00000000E+00  0.00000000E+00
  0.00000000E+00  0.00000000E+00  0.00000000E+00
  0.00000000E+00  0.00000000E+00  0.00000000E+00
  0.00000000E+00  0.00000000E+00  0.00000000E+00
  0.00000000E+00  0.00000000E+00  0.00000000E+00
  0.00000000E+00  0.00000000E+00  0.00000000E+00
  0.00000000E+00  0.00000000E+00  0.00000000E+00
  0.00000000E+00  0.00000000E+00  0.00000000E+00
  0.00000000E+00  0.00000000E+00  0.00000000E+00
  0.00000000E+00  0.00000000E+00  0.00000000E+00
  0.00000000E+00  0.00000000E+00  0.00000000E+00
  0.00000000E+00  0.00000000E+00  0.00000000E+00
  0.00000000E+00  0.00000000E+00  0.00000000E+00
  0.00000000E+00  0.00000000E+00  0.00000000E+00
  0.00000000E+00  0.00000000E+00  0.00000000E+00
  0.00000000E+00  0.00000000E+00  0.00000000E+00
  0.00000000E+00  0.00000000E+00  0.00000000E+00
  0.00000000E+00  0.00000000E+00  0.00000000E+00
  0.00000000E+00  0.00000000E+00  0.00000000E+00
  0.00000000E+00  0.00000000E+00  0.00000000E+00
  0.00000000E+00  0.00000000E+00  0.00000000E+00
  0.00000000E+00  0.00000000E+00  0.00000000E+00
  0.00000000E+00  0.00000000E+00  0.00000000E+00
  0.00000000E+00  0.00000000E+00  0.00000000E+00
  0.00000000E+00  0.00000000E+00  0.00000000E+00
  0.00000000E+00  0.00000000E+00  0.00000000E+00
  0.00000000E+00  0.00000000E+00  0.00000000E+00
  0.00000000E+00  0.00000000E+00  0.00000000E+00
  0.00000000E+00  0.00000000E+00  0.00000000E+00
  0.00000000E+00  0.00000000E+00  0.00000000E+00
  0.00000000E+00  0.00000000E+00  0.00000000E+00
  0.00000000E+00  0.00000000E+00  0.00000000E+00
  0.00000000E+00  0.00000000E+00  0.00000000E+00
  0.00000000E+00  0.00000000E+00  0.00000000E+00
  0.00000000E+00  0.00000000E+00  0.00000000E+00
  0.00000000E+00  0.00000000E+00  0.00000000E+00
  0.00000000E+00  0.00000000E+00  0.00000000E+00
  0.00000000E+00  0.00000000E+00  0.00000000E+00
  0.00000000E+00  0.00000000E+00  0.00000000E+00
  0.00000000E+00  0.00000000E+00  0.00000000E+00
  0.00000000E+00  0.00000000E+00  0.00000000E+00
  0.00000000E+00  0.00000000E+00  0.00000000E+00
  0.00000000E+00  0.00000000E+00  0.00000000E+00
  0.00000000E+00  0.00000000E+00  0.00000000E+00
  0.00000000E+00  0.00000000E+00  0.00000000E+00
  0.00000000E+00  0.00000000E+00  0.00000000E+00
  0.00000000E+00  0.00000000E+00  0.00000000E+00
  0.00000000E+00  0.00000000E+00  0.00000000E+00
  0.00000000E+00  0.00000000E+00  0.00000000E+00
  0.00000000E+00  0.00000000E+00  0.00000000E+00
  0.00000000E+00  0.00000000E+00  0.00000000E+00
  0.00000000E+00  0.00000000E+00  0.00000000E+00
  0.00000000E+00  0.00000000E+00  0.00000000E+00
  0.00000000E+00  0.00000000E+00  0.00000000E+00
  0.00000000E+00  0.00000000E+00  0.00000000E+00
  0.00000000E+00  0.00000000E+00  0.00000000E+00
  0.00000000E+00  0.00000000E+00  0.00000000E+00
  0.00000000E+00  0.00000000E+00  0.00000000E+00
  0.00000000E+00  0.00000000E+00  0.00000000E+00
  0.00000000E+00  0.00000000E+00  0.00000000E+00
  0.00000000E+00  0.00000000E+00  0.00000000E+00
  0.00000000E+00  0.00000000E+00  0.00000000E+00
  0.00000000E+00  0.00000000E+00  0.00000000E+00
  0.00000000E+00  0.00000000E+00  0.00000000E+00
  0.00000000E+00  0.00000000E+00  0.00000000E+00
  0.00000000E+00  0.00000000E+00  0.00000000E+00
  0.00000000E+00  0.00000000E+00  0.00000000E+00
  0.00000000E+00  0.00000000E+00  0.00000000E+00
  0.00000000E+00  0.00000000E+00  0.00000000E+00
  0.00000000E+00  0.00000000E+00  0.00000000E+00
  0.00000000E+00  0.00000000E+00  0.00000000E+00
  0.00000000E+00  0.00000000E+00  0.00000000E+00
  0.00000000E+00  0.00000000E+00  0.00000000E+00
  0.00000000E+00  0.00000000E+00  0.00000000E+00
  0.00000000E+00  0.00000000E+00  0.00000000E+00
  0.00000000E+00  0.00000000E+00  0.00000000E+00
  0.00000000E+00  0.00000000E+00  0.00000000E+00
  0.00000000E+00  0.00000000E+00  0.00000000E+00
  0.00000000E+00  0.00000000E+00  0.00000000E+00
  0.00000000E+00  0.00000000E+00  0.00000000E+00
  0.00000000E+00  0.00000000E+00  0.00000000E+00
  0.00000000E+00  0.00000000E+00  0.00000000E+00
  0.00000000E+00  0.00000000E+00  0.00000000E+00
  0.00000000E+00  0.00000000E+00  0.00000000E+00
  0.00000000E+00  0.00000000E+00  0.00000000E+00
  0.00000000E+00  0.00000000E+00  0.00000000E+00
  0.00000000E+00  0.00000000E+00  0.00000000E+00
  0.00000000E+00  0.00000000E+00  0.00000000E+00
  0.00000000E+00  0.00000000E+00  0.00000000E+00
  0.00000000E+00  0.00000000E+00  0.00000000E+00
  0.00000000E+00  0.00000000E+00  0.00000000E+00
  0.00000000E+00  0.00000000E+00  0.00000000E+00
  0.00000000E+00  0.00000000E+00  0.00000000E+00
  0.00000000E+00  0.00000000E+00  0.00000000E+00
  0.00000000E+00  0.00000000E+00  0.00000000E+00
  0.00000000E+00  0.00000000E+00  0.00000000E+00
  0.00000000E+00  0.00000000E+00  0.00000000E+00
  0.00000000E+00  0.00000000E+00  0.00000000E+00
  0.00000000E+00  0.00000000E+00  0.00000000E+00
  0.00000000E+00  0.00000000E+00  0.00000000E+00
  0.00000000E+00  0.00000000E+00  0.00000000E+00
  0.00000000E+00  0.00000000E+00  0.00000000E+00
  0.00000000E+00  0.00000000E+00  0.00000000E+00
  0.00000000E+00  0.00000000E+00  0.00000000E+00
  0.00000000E+00  0.00000000E+00  0.00000000E+00
  0.00000000E+00  0.00000000E+00  0.00000000E+00
  0.00000000E+00  0.00000000E+00  0.00000000E+00
  0.00000000E+00  0.00000000E+00  0.00000000E+00
  0.00000000E+00  0.00000000E+00  0.00000000E+00
  0.00000000E+00  0.00000000E+00  0.00000000E+00
  0.00000000E+00  0.00000000E+00  0.00000000E+00
  0.00000000E+00  0.00000000E+00  0.00000000E+00
  0.00000000E+00  0.00000000E+00  0.00000000E+00
  0.00000000E+00  0.00000000E+00  0.00000000E+00
  0.00000000E+00  0.00000000E+00  0.00000000E+00
  0.00000000E+00  0.00000000E+00  0.00000000E+00
  0.00000000E+00  0.00000000E+00  0.00000000E+00
  0.00000000E+00  0.00000000E+00  0.00000000E+00
  0.00000000E+00  0.00000000E+00  0.00000000E+00
  0.00000000E+00  0.00000000E+00  0.00000000E+00
  0.00000000E+00  0.00000000E+00  0.00000000E+00
  0.00000000E+00  0.00000000E+00  0.00000000E+00
  0.00000000E+00  0.00000000E+00  0.00000000E+00
  0.00000000E+00  0.00000000E+00  0.00000000E+00
  0.00000000E+00  0.00000000E+00  0.00000000E+00
  0.00000000E+00  0.00000000E+00  0.00000000E+00
  0.00000000E+00  0.00000000E+00  0.00000000E+00
  0.00000000E+00  0.00000000E+00  0.00000000E+00
  0.00000000E+00  0.00000000E+00  0.00000000E+00
  0.00000000E+00  0.00000000E+00  0.00000000E+00
  0.00000000E+00  0.00000000E+00  0.00000000E+00
  0.00000000E+00  0.00000000E+00  0.00000000E+00
  0.00000000E+00  0.00000000E+00  0.00000000E+00
  0.00000000E+00  0.00000000E+00  0.00000000E+00
  0.00000000E+00  0.00000000E+00  0.00000000E+00
  0.00000000E+00  0.00000000E+00  0.00000000E+00
  0.00000000E+00  0.00000000E+00  0.00000000E+00
  0.00000000E+00  0.00000000E+00  0.00000000E+00
  0.00000000E+00  0.00000000E+00  0.00000000E+00
  0.00000000E+00  0.00000000E+00  0.00000000E+00
  0.00000000E+00  0.00000000E+00  0.00000000E+00
  0.00000000E+00  0.00000000E+00  0.00000000E+00
  0.00000000E+00  0.00000000E+00  0.00000000E+00
  0.00000000E+00  0.00000000E+00  0.00000000E+00
  0.00000000E+00  0.00000000E+00  0.00000000E+00
  0.00000000E+00  0.00000000E+00  0.00000000E+00
  0.00000000E+00  0.00000000E+00  0.00000000E+00
  0.00000000E+00  0.00000000E+00  0.00000000E+00
  0.00000000E+00  0.00000000E+00  0.00000000E+00
