seed=1 POSCAR cation-sublattice shuffle 
   1.00000000000000     
    18.5132145768521994   -0.0841633680111259   -0.0123056503688617
    -0.0820916073331077   18.3951602489260182   -0.1436318052106956
    -0.0110470451354701   -0.1383637729718198   18.3941516309121162
   Ge   Sb   Te   N 
    43    43   108    10
Direct
  0.1633328377609873  0.0182682516232622  0.4885186615262339
  0.1581138074721959  0.1687695930067148  0.6501948471650104
  0.1697439072688911  0.0000020612168919  0.8303496172685132
  0.1746353927552923  0.6497622864328446  0.1629593595207897
  0.5075760373872131  0.0105010190871060  0.4973472281636095
  0.3188939893152266  0.0008438129860569  0.6585326647763294
  0.3221785977517975  0.1727931428133215  0.8115319052339526
  0.5088439320461849  0.3424181312768985  0.1723554739347438
  0.3406793514864230  0.3434423374327413  0.3479081713333300
  0.3278632809199547  0.5071441422606894  0.4894415917150970
  0.3228408079498723  0.5006746770074293  0.8363275019456748
  0.3232835540658715  0.6679790734536807  0.0063576400702198
  0.4900605249033899  0.8318960129723518 -0.0006556198361779
  0.8346257890026948  0.0157557350187897  0.1731527906154153
  0.8333271118071304  0.0193455575146719  0.4917278792221593
  0.6666816604397442  0.9817520248742034  0.6613065168587952
  0.8383736814543666  0.4979152827080109  0.9848946658789197
  0.6713079565926765  0.6581336263389583  0.3457746796347880
  0.1667064495767953  0.0044040948695107  0.1627487054778112
  0.1534831369554029  0.1821763153869385  0.3246841110527728
  0.0137066046878302  0.3412763634597894  0.3379411082663625
  0.1775430422414425  0.3386177595188630  0.4851573577997104
  0.9855124455605994  0.4940516968707126  0.4856525054954607
  0.0011478341936327  0.5054544176085943  0.8200966805025863
  0.1551231094881693  0.8209534968996287  0.9991904068856918
  0.1632143543700615  0.6703981639821425  0.8353086353433570
  0.5026046146465161  0.0066048599487053  0.1608536019041638
  0.3308974186446848  0.0106132111138598  0.3287944711299108
  0.3203121042733564  0.1779955241363330  0.4909861805484241
  0.3378030236925437  0.3411407574859935  0.0203832266995057
  0.3126667575053830  0.4944901897687012  0.1642944047906260
  0.5074304574117754  0.5007983618852608  0.3311773049870732
  0.5164579385130240  0.4829292961479146  0.6661266132464629
  0.3227184464704770  0.8335653710422030  0.8336339087252183
  0.6561234626544495  0.9988131845614076 -0.0124728915100083
  0.6562820779000372  0.1669906024408754  0.8316232734491349
  0.6506761717887770  0.5117819236078990  0.1761787764508141
  0.8505249708210799  0.3172696077172483  0.4791729281185094
  0.8316882932526669  0.8409808154081733  0.0011478286152780
  0.8463213427253514  0.6451269340880972  0.1791069240244881
  0.9957328640614873  0.1585334235733014  0.8408157034652922
  0.5232418438329078  0.3369564519734958  0.4953452453798799
  0.3223332865325271  0.6698914481611163  0.3309650278799937
  0.1657503631213073  0.1713785924902088  0.9929423053533062
  0.9935662484776039  0.9932555019419340  0.6720689440269113
  0.0006071789690459  0.4817090427787640  0.1533079660534327
  0.1756308782530933  0.4896824412744163  0.6626187426385440
  0.1678982124637951  0.6744495001704190  0.4955100871790997
  0.9932853560957413  0.6660286488800011  0.6547960581756890
  0.1639723946972476  0.8303252460531235  0.6681326945493968
  0.4994400134482414  0.1648561541780456  0.9997578536887248
  0.5006558989444226  0.1703989415123198  0.3327753576470539
  0.4978288165855961  0.4995803528952025  0.9986563849556698
  0.5049722558553378  0.3235675489582708  0.8355677871892316
  0.3354310230076450  0.8239794886216807  0.1771596121413082
  0.4974404234155914  0.8275263327354492  0.3324538929026682
  0.4980951476226921  0.6686616528730259  0.4877724349408819
  0.3393652844933004  0.6638985804499823  0.6695836760200601
  0.4968940459148000  0.6732395666141002  0.8473911337120097
  0.6799769834677162  0.1764561218989375  0.5039426037868637
  0.8288467302102069  0.0106997719751822  0.8328396521931065
  0.6756233514358416  0.3391685559277563  0.9955859019427948
  0.8355745086018853  0.6643487663113357  0.4951922157098446
  0.8359787212289492  0.6613823549172598  0.8410238395734038
  0.6727928790017885  0.8305787536111584  0.8439744504881685
  0.9926264574880922  0.0110185236745014  0.0019015674488403
  0.9986994459665025  0.3295392049777076  0.6653890405774875
  0.1534362829480078  0.3359612357132262  0.8347444139161131
  0.9972272988877942  0.6599910331915053  0.0114864055922450
  0.3238154374829807  0.9979168078995660  0.9915798701911585
  0.3220597207989985  0.1726498881892997  0.1616119675173003
  0.4984342832410517  0.1506482993856957  0.6629080848896527
  0.8344888429409435  0.1862585103130387  0.9883612035101527
  0.6699486840131358  0.9987202413284914  0.3299854164714415
  0.6859049498163741  0.3375677446224180  0.3375532497341179
  0.8275517052371312  0.4819108494481633  0.6407907684947066
  0.6625085852358393  0.4942700124094701  0.8184194528490289
  0.8355619606630078  0.8376947679053499  0.3291293137614587
  0.6730108215779906  0.8182002386463784  0.4930038627541162
  0.0052249008500215  0.0257774746433850  0.3340045238531528
  0.9927396605734767  0.8394820109204986  0.1711647152009906
  0.1595305418247565  0.8281019923411301  0.3257877870978682
  0.5021286237387484  0.8183637534909435  0.6660306244164528
  0.6766567204233493  0.1727685461169549  0.1692144533402774
  0.6602355756583392  0.6682907011096735  0.0091073423685428
  0.8356301729489877  0.8361927602146347  0.6661793271085018
  0.1668381297594133  0.9885279551110191  0.0051668577753577
 -0.0000104475606382  0.1741226823580390  0.9950957979195608
  0.0056328891128543  0.0076469314514505  0.1696847942092073
  0.1659462582410701  0.1627321453449815  0.1654472106092483
  0.1707789486084888  0.0034111879938378  0.3360232638605706
  0.0066412370239383  0.1794798046456401  0.3079367181250685
  0.9893943217204256  0.0392519794425258  0.5113558377941392
  0.1657113515034332  0.1693601708323875  0.4954898859625693
  0.1667650266294671  0.9977825395040189  0.6735492539984802
  0.0023021561175735  0.1610623124029830  0.6539129978427408
 -0.0003319540231104  0.9983022422019766  0.8372268585976993
  0.1697195134522155  0.1567905044459118  0.8272998128435769
  0.1502080605654194  0.3308330020970701  0.0041304713163164
  0.9898820469403422  0.4959469978134660  0.9951488018919947
  0.0127333221544094  0.3275281300663969  0.1355631137360963
  0.1669108725583708  0.5012695263891325  0.1708628202095575
  0.1667587836600859  0.3346527856949861  0.3323511241738737
  0.9822549609188579  0.4971337043412076  0.3301465171222481
  0.0002162786036932  0.3340821307365279  0.4878187617052901
  0.1770137526076863  0.4963695482079082  0.4976068448604052
  0.1694172120324710  0.3235821826211017  0.6645185029882699
  0.9990003954888261  0.4988605869097828  0.6631015434392111
  0.9972235166392243  0.3276474560627324  0.8274244391194312
  0.1626035502021224  0.4965269510478457  0.8365553485926720
  0.1684222229873783  0.6612905973684403  0.0035644066852305
  0.0013752188854717  0.8325289517565966  0.0029630287197881
  0.9944423141336799  0.6675002758557603  0.1730720011882003
  0.1718192247317847  0.8316725425336415  0.1675551595609075
  0.1669726650025224  0.6655539216834788  0.3341705672224142
  0.9979681404541682  0.8385733600593622  0.3380582197012271
  0.9991110832659851  0.6636981739482007  0.4956713060983264
  0.1819096461167583  0.8430888288871979  0.5048563600863283
  0.1676439236534593  0.6610440518855587  0.6737885917194194
  0.0018957419598447  0.8342205190871999  0.6572437693028290
  0.0043657621800586  0.6590645643624032  0.8347139549761148
  0.1681944663094914  0.8245965622165151  0.8421993974103645
  0.5035921998185351  0.9919044962062320  0.0069358311829392
  0.3319081692421670  0.1645953470621398  0.9934845894456025
  0.3393465216394770  0.9968948606584385  0.1738140843862423
  0.5008654457966375  0.1584859859331086  0.1652201810217321
  0.4968344435328536 -0.0001567042127578  0.3444868603823538
  0.3317158611948723  0.1646419526503844  0.3329079359642337
  0.3127495013121976  0.9794920289706210  0.5039424964911822
  0.4953498463781341  0.1651030569375898  0.4985086552575285
  0.5147787176471765  0.9904690424988580  0.7002577574533093
  0.3257903323480646  0.1521359225301230  0.6600221215926225
  0.3278422866963357  0.9894405239123152  0.8315874655544002
  0.5036243440530522  0.1601502081504861  0.8332218341571302
  0.4928780736006165  0.3304957877161035  0.0139302597272387
  0.3328939540308904  0.4951921384968243  0.0080250008825798
  0.3316585212231606  0.3349862786041339  0.1691650475512556
  0.4992972705133801  0.4957298339027752  0.1776726231378775
  0.4998610784562529  0.3380856292238779  0.3428776328630960
  0.3405153441263834  0.4967967433040711  0.3388715547026971
  0.3313953047961521  0.3293743414282677  0.4996815543073733
  0.5289334584912567  0.4967396762786545  0.5113829276751175
  0.5081802027704738  0.3267437222014929  0.6697241611898915
  0.3411112543751159  0.4696481829445834  0.6826903105996462
  0.3384728560197771  0.3287849511765395  0.8075890713040913
  0.4970328187324686  0.4945861533483054  0.8352654679631610
  0.4945789337733285  0.6672461846442735  0.0087177402397717
  0.3356899477016100  0.8238788532838275  0.0024038178960287
  0.3288102690494982  0.6562519025881459  0.1707530630007199
  0.5121825876554795  0.8055959217681873  0.1731372281139582
  0.4987932472169622  0.6646596721716288  0.3293854218147455
  0.3298509293780756  0.8282853517284922  0.3387533297130391
  0.3317439910941265  0.6625766836848365  0.4992071321403437
  0.4991867322462162  0.8292743243349745  0.5061447603912761
  0.5005228305253724  0.6589906318826748  0.6706276015250663
  0.3340909595012433  0.8245011785086229  0.6740669264774285
  0.3281331636922944  0.6562704542702547  0.8411027660961578
  0.4991467669245598  0.8323983458548617  0.8463251061048785
  0.8320124353025400  0.0037836666852899  0.0106436564916296
  0.6662953688740695  0.1667454786555228  0.9881328116900316
  0.6751353433284022  0.0031222692044729  0.1700902189452497
  0.8365383802508154  0.1778730381188029  0.1783620274051688
  0.8337498461456605  0.0106929074101156  0.3374752704919813
  0.6687902331078412  0.1730590949839958  0.3308913194127928
  0.6615287282289842  0.0021626363100698  0.5080916453240113
  0.8360754336075776  0.1683829540462096  0.5263242902564953
  0.8284535222641110  0.0057787773843373  0.6726727769765704
  0.6519372209749269  0.2059332618046078  0.6640436225075157
  0.6522196586320365  0.0058185439528247  0.8302515209809314
  0.8401705316290475  0.1724361464842696  0.8313367941298480
  0.8302106952753664  0.3437381128125694  0.0149113663906649
  0.6638635609984938  0.5043297813478438  0.0015669874685548
  0.6615080669272916  0.3400555209375755  0.1660254700556011
  0.8439376511658214  0.4939386914974742  0.2047031407070174
  0.8476844264379001  0.3167694454286428  0.3084407985097231
  0.6648258392836103  0.5056081198174307  0.3301651859641606
  0.6730898184238393  0.3377093592655296  0.4991821867240748
  0.8330856688061250  0.4946294172698855  0.4837791011289075
  0.8366988340504423  0.3276033528506795  0.6445554777001555
  0.6612221190061215  0.5169305014197162  0.6521050645735833
  0.6688963875386167  0.3329970755763702  0.8303113034715089
  0.8342321975394047  0.4994841080506480  0.8331805836061523
  0.8311428916832811  0.6684032888654992  0.0062493665488055
  0.6725679957585740  0.8401125936932364  0.0053340613685235
  0.6425919867640493  0.6719292590654747  0.1738716553835302
  0.8349679412711429  0.8426348524515905  0.1656591204512982
  0.8259419878941440  0.6732364577431851  0.3296981564950149
  0.6653996434010374  0.8333864104001626  0.3330993715671973
  0.6625061054298519  0.6448193651791719  0.5017974764231966
  0.8342953533302916  0.8372139520332339  0.5003266018219188
  0.8333569963606737  0.6695896449137875  0.6634413691413837
  0.6698652821859584  0.8309376325881388  0.6676638236380731
  0.6676551213281104  0.6679451480241695  0.8335882853394206
  0.8339847637084143  0.8366092393801263  0.8404400912448313
  0.3602003505707715  0.3609323000050238  0.7021558330761191
  0.5332882311196189  0.6960283428632834  0.1801855251226878
  0.2884187628205457  0.8699366969806025  0.4905271757494311
  0.9736148582159412  0.1454441038348542  0.5452970030284566
  0.0423437860641748  0.3296186693200038  0.0277312179792890
  0.5407607188130026  0.9882531014944822  0.8067093011899955
  0.8579855181243377  0.2076000730794323  0.2847649278960783
  0.8742117578017042  0.4770761322323896  0.3108281484248840
  0.6341917193612882  0.5298865955270926  0.5314241227978276
  0.6184625087943960  0.3104641871070095  0.6571221516105151
 
  0.00000000E+00  0.00000000E+00  0.00000000E+00
  0.00000000E+00  0.00000000E+00  0.00000000E+00
  0.00000000E+00  0.00000000E+00  0.00000000E+00
  0.00000000E+00  0.00000000E+00  0.00000000E+00
  0.00000000E+00  0.00000000E+00  0.00000000E+00
  0.00000000E+00  0.00000000E+00  0.00000000E+00
  0.00000000E+00  0.00000000E+00  0.00000000E+00
  0.00000000E+00  0.00000000E+00  0.00000000E+00
  0.00000000E+00  0.00000000E+00  0.00000000E+00
  0.00000000E+00  0.00000000E+00  0.00000000E+00
  0.00000000E+00  0.00000000E+00  0.00000000E+00
  0.00000000E+00  0.00000000E+00  0.00000000E+00
  0.00000000E+00  0.00000000E+00  0.00000000E+00
  0.00000000E+00  0.00000000E+00  0.00000000E+00
  0.00000000E+00  0.00000000E+00  0.00000000E+00
  0.00000000E+00  0.00000000E+00  0.00000000E+00
  0.00000000E+00  0.00000000E+00  0.00000000E+00
  0.00000000E+00  0.00000000E+00  0.00000000E+00
  0.00000000E+00  0.00000000E+00  0.00000000E+00
  0.00000000E+00  0.00000000E+00  0.00000000E+00
  0.00000000E+00  0.00000000E+00  0.00000000E+00
  0.00000000E+00  0.00000000E+00  0.00000000E+00
  0.00000000E+00  0.00000000E+00  0.00000000E+00
  0.00000000E+00  0.00000000E+00  0.00000000E+00
  0.00000000E+00  0.00000000E+00  0.00000000E+00
  0.00000000E+00  0.00000000E+00  0.00000000E+00
  0.00000000E+00  0.00000000E+00  0.00000000E+00
  0.00000000E+00  0.00000000E+00  0.00000000E+00
  0.00000000E+00  0.00000000E+00  0.00000000E+00
  0.00000000E+00  0.00000000E+00  0.00000000E+00
  0.00000000E+00  0.00000000E+00  0.00000000E+00
  0.00000000E+00  0.00000000E+00  0.00000000E+00
  0.00000000E+00  0.00000000E+00  0.00000000E+00
  0.00000000E+00  0.00000000E+00  0.00000000E+00
  0.00000000E+00  0.00000000E+00  0.00000000E+00
  0.00000000E+00  0.00000000E+00  0.00000000E+00
  0.00000000E+00  0.00000000E+00  0.00000000E+00
  0.00000000E+00  0.00000000E+00  0.00000000E+00
  0.00000000E+00  0.00000000E+00  0.00000000E+00
  0.00000000E+00  0.00000000E+00  0.00000000E+00
  0.00000000E+00  0.00000000E+00  0.00000000E+00
  0.00000000E+00  0.00000000E+00  0.00000000E+00
  0.00000000E+00  0.00000000E+00  0.00000000E+00
  0.00000000E+00  0.00000000E+00  0.00000000E+00
  0.00000000E+00  0.00000000E+00  0.00000000E+00
  0.00000000E+00  0.00000000E+00  0.00000000E+00
  0.00000000E+00  0.00000000E+00  0.00000000E+00
  0.00000000E+00  0.00000000E+00  0.00000000E+00
  0.00000000E+00  0.00000000E+00  0.00000000E+00
  0.00000000E+00  0.00000000E+00  0.00000000E+00
  0.00000000E+00  0.00000000E+00  0.00000000E+00
  0.00000000E+00  0.00000000E+00  0.00000000E+00
  0.00000000E+00  0.00000000E+00  0.00000000E+00
  0.00000000E+00  0.00000000E+00  0.00000000E+00
  0.00000000E+00  0.00000000E+00  0.00000000E+00
  0.00000000E+00  0.00000000E+00  0.00000000E+00
  0.00000000E+00  0.00000000E+00  0.00000000E+00
  0.00000000E+00  0.00000000E+00  0.00000000E+00
  0.00000000E+00  0.00000000E+00  0.00000000E+00
  0.00000000E+00  0.00000000E+00  0.00000000E+00
  0.00000000E+00  0.00000000E+00  0.00000000E+00
  0.00000000E+00  0.00000000E+00  0.00000000E+00
  0.00000000E+00  0.00000000E+00  0.00000000E+00
  0.00000000E+00  0.00000000E+00  0.00000000E+00
  0.00000000E+00  0.00000000E+00  0.00000000E+00
  0.00000000E+00  0.00000000E+00  0.00000000E+00
  0.00000000E+00  0.00000000E+00  0.00000000E+00
  0.00000000E+00  0.00000000E+00  0.00000000E+00
  0.00000000E+00  0.00000000E+00  0.00000000E+00
  0.00000000E+00  0.00000000E+00  0.00000000E+00
  0.00000000E+00  0.00000000E+00  0.00000000E+00
  0.00000000E+00  0.00000000E+00  0.00000000E+00
  0.00000000E+00  0.00000000E+00  0.00000000E+00
  0.00000000E+00  0.00000000E+00  0.00000000E+00
  0.00000000E+00  0.00000000E+00  0.00000000E+00
  0.00000000E+00  0.00000000E+00  0.00000000E+00
  0.00000000E+00  0.00000000E+00  0.00000000E+00
  0.00000000E+00  0.00000000E+00  0.00000000E+00
  0.00000000E+00  0.00000000E+00  0.00000000E+00
  0.00000000E+00  0.00000000E+00  0.00000000E+00
  0.00000000E+00  0.00000000E+00  0.00000000E+00
  0.00000000E+00  0.00000000E+00  0.00000000E+00
  0.00000000E+00  0.00000000E+00  0.00000000E+00
  0.00000000E+00  0.00000000E+00  0.00000000E+00
  0.00000000E+00  0.00000000E+00  0.00000000E+00
  0.00000000E+00  0.00000000E+00  0.00000000E+00
  0.00000000E+00  0.00000000E+00  0.00000000E+00
  0.00000000E+00  0.00000000E+00  0.00000000E+00
  0.00000000E+00  0.00000000E+00  0.00000000E+00
  0.00000000E+00  0.00000000E+00  0.00000000E+00
  0.00000000E+00  0.00000000E+00  0.00000000E+00
  0.00000000E+00  0.00000000E+00  0.00000000E+00
  0.00000000E+00  0.00000000E+00  0.00000000E+00
  0.00000000E+00  0.00000000E+00  0.00000000E+00
  0.00000000E+00  0.00000000E+00  0.00000000E+00
  0.00000000E+00  0.00000000E+00  0.00000000E+00
  0.00000000E+00  0.00000000E+00  0.00000000E+00
  0.00000000E+00  0.00000000E+00  0.00000000E+00
  0.00000000E+00  0.00000000E+00  0.00000000E+00
  0.00000000E+00  0.00000000E+00  0.00000000E+00
  0.00000000E+00  0.00000000E+00  0.00000000E+00
  0.00000000E+00  0.00000000E+00  0.00000000E+00
  0.00000000E+00  0.00000000E+00  0.00000000E+00
  0.00000000E+00  0.00000000E+00  0.00000000E+00
  0.00000000E+00  0.00000000E+00  0.00000000E+00
  0.00000000E+00  0.00000000E+00  0.00000000E+00
  0.00000000E+00  0.00000000E+00  0.00000000E+00
  0.00000000E+00  0.00000000E+00  0.00000000E+00
  0.00000000E+00  0.00000000E+00  0.00000000E+00
  0.00000000E+00  0.00000000E+00  0.00000000E+00
  0.00000000E+00  0.00000000E+00  0.00000000E+00
  0.00000000E+00  0.00000000E+00  0.00000000E+00
  0.00000000E+00  0.00000000E+00  0.00000000E+00
  0.00000000E+00  0.00000000E+00  0.00000000E+00
  0.00000000E+00  0.00000000E+00  0.00000000E+00
  0.00000000E+00  0.00000000E+00  0.00000000E+00
  0.00000000E+00  0.00000000E+00  0.00000000E+00
  0.00000000E+00  0.00000000E+00  0.00000000E+00
  0.00000000E+00  0.00000000E+00  0.00000000E+00
  0.00000000E+00  0.00000000E+00  0.00000000E+00
  0.00000000E+00  0.00000000E+00  0.00000000E+00
  0.00000000E+00  0.00000000E+00  0.00000000E+00
  0.00000000E+00  0.00000000E+00  0.00000000E+00
  0.00000000E+00  0.00000000E+00  0.00000000E+00
  0.00000000E+00  0.00000000E+00  0.00000000E+00
  0.00000000E+00  0.00000000E+00  0.00000000E+00
  0.00000000E+00  0.00000000E+00  0.00000000E+00
  0.00000000E+00  0.00000000E+00  0.00000000E+00
  0.00000000E+00  0.00000000E+00  0.00000000E+00
  0.00000000E+00  0.00000000E+00  0.00000000E+00
  0.00000000E+00  0.00000000E+00  0.00000000E+00
  0.00000000E+00  0.00000000E+00  0.00000000E+00
  0.00000000E+00  0.00000000E+00  0.00000000E+00
  0.00000000E+00  0.00000000E+00  0.00000000E+00
  0.00000000E+00  0.00000000E+00  0.00000000E+00
  0.00000000E+00  0.00000000E+00  0.00000000E+00
  0.00000000E+00  0.00000000E+00  0.00000000E+00
  0.00000000E+00  0.00000000E+00  0.00000000E+00
  0.00000000E+00  0.00000000E+00  0.00000000E+00
  0.00000000E+00  0.00000000E+00  0.00000000E+00
  0.00000000E+00  0.00000000E+00  0.00000000E+00
  0.00000000E+00  0.00000000E+00  0.00000000E+00
  0.00000000E+00  0.00000000E+00  0.00000000E+00
  0.00000000E+00  0.00000000E+00  0.00000000E+00
  0.00000000E+00  0.00000000E+00  0.00000000E+00
  0.00000000E+00  0.00000000E+00  0.00000000E+00
  0.00000000E+00  0.00000000E+00  0.00000000E+00
  0.00000000E+00  0.00000000E+00  0.00000000E+00
  0.00000000E+00  0.00000000E+00  0.00000000E+00
  0.00000000E+00  0.00000000E+00  0.00000000E+00
  0.00000000E+00  0.00000000E+00  0.00000000E+00
  0.00000000E+00  0.00000000E+00  0.00000000E+00
  0.00000000E+00  0.00000000E+00  0.00000000E+00
  0.00000000E+00  0.00000000E+00  0.00000000E+00
  0.00000000E+00  0.00000000E+00  0.00000000E+00
  0.00000000E+00  0.00000000E+00  0.00000000E+00
  0.00000000E+00  0.00000000E+00  0.00000000E+00
  0.00000000E+00  0.00000000E+00  0.00000000E+00
  0.00000000E+00  0.00000000E+00  0.00000000E+00
  0.00000000E+00  0.00000000E+00  0.00000000E+00
  0.00000000E+00  0.00000000E+00  0.00000000E+00
  0.00000000E+00  0.00000000E+00  0.00000000E+00
  0.00000000E+00  0.00000000E+00  0.00000000E+00
  0.00000000E+00  0.00000000E+00  0.00000000E+00
  0.00000000E+00  0.00000000E+00  0.00000000E+00
  0.00000000E+00  0.00000000E+00  0.00000000E+00
  0.00000000E+00  0.00000000E+00  0.00000000E+00
  0.00000000E+00  0.00000000E+00  0.00000000E+00
  0.00000000E+00  0.00000000E+00  0.00000000E+00
  0.00000000E+00  0.00000000E+00  0.00000000E+00
  0.00000000E+00  0.00000000E+00  0.00000000E+00
  0.00000000E+00  0.00000000E+00  0.00000000E+00
  0.00000000E+00  0.00000000E+00  0.00000000E+00
  0.00000000E+00  0.00000000E+00  0.00000000E+00
  0.00000000E+00  0.00000000E+00  0.00000000E+00
  0.00000000E+00  0.00000000E+00  0.00000000E+00
  0.00000000E+00  0.00000000E+00  0.00000000E+00
  0.00000000E+00  0.00000000E+00  0.00000000E+00
  0.00000000E+00  0.00000000E+00  0.00000000E+00
  0.00000000E+00  0.00000000E+00  0.00000000E+00
  0.00000000E+00  0.00000000E+00  0.00000000E+00
  0.00000000E+00  0.00000000E+00  0.00000000E+00
  0.00000000E+00  0.00000000E+00  0.00000000E+00
  0.00000000E+00  0.00000000E+00  0.00000000E+00
  0.00000000E+00  0.00000000E+00  0.00000000E+00
  0.00000000E+00  0.00000000E+00  0.00000000E+00
  0.00000000E+00  0.00000000E+00  0.00000000E+00
  0.00000000E+00  0.00000000E+00  0.00000000E+00
  0.00000000E+00  0.00000000E+00  0.00000000E+00
  0.00000000E+00  0.00000000E+00  0.00000000E+00
  0.00000000E+00  0.00000000E+00  0.00000000E+00
  0.00000000E+00  0.00000000E+00  0.00000000E+00
  0.00000000E+00  0.00000000E+00  0.00000000E+00
  0.00000000E+00  0.00000000E+00  0.00000000E+00
  0.00000000E+00  0.00000000E+00  0.00000000E+00
  0.00000000E+00  0.00000000E+00  0.00000000E+00
  0.00000000E+00  0.00000000E+00  0.00000000E+00
  0.00000000E+00  0.00000000E+00  0.00000000E+00
  0.00000000E+00  0.00000000E+00  0.00000000E+00
  0.00000000E+00  0.00000000E+00  0.00000000E+00
  0.00000000E+00  0.00000000E+00  0.00000000E+00
  0.00000000E+00  0.00000000E+00  0.00000000E+00
  0.00000000E+00  0.00000000E+00  0.00000000E+00
  0.00000000E+00  0.00000000E+00  0.00000000E+00
