Ge Sb Te                                
   1.00000000000000     
    22.1636823189530148    0.0000000000000000    0.0000000000000000
     0.0000000000000000   22.1636823189530148    0.0000000000000000
     0.0000000000000000    0.0000000000000000   22.1636823189530148
   Ge   Sb   Te
    43    86   172
Direct
  0.5457236297690624  0.3204318074414356  0.3201791146465118
  0.5444915073424229  0.7218117147605688  0.0960690458048091
  0.2572736297663126  0.0827879908156350  0.6121020585354051
  0.4288277090822369  0.9662713571524243  0.8163520026059339
  0.4931826016652245  0.5664228141940368  0.1818177992233826
  0.0358206449424559  0.5627873337228780  0.9357603934315858
  0.3860486097914747  0.2564510146354461  0.9501668626578692
  0.3607671918155931  0.4265154847614593  0.8246728317495164
  0.6980983225551536  0.1962438290326464  0.1778079906440098
  0.7680877810420251  0.0215012502833123  0.7135662821722620
  0.6513530447265493  0.7933723413803448  0.2743605603993673
  0.1209374087159159  0.1171472907230247  0.3729123200049133
  0.3400631178136941  0.5658696204095340  0.6415161937702268
  0.6941528432492852  0.7406834963371526  0.6607653591347630
  0.7248563381342831  0.3784341061032094  0.4301807192735282
  0.2851825265064047  0.2832797319640284  0.4020663462047810
  0.6607486251508724  0.1528482401797472  0.2885941460310675
  0.8462425025723271  0.3986596766803303  0.7591654021302054
  0.6274856456719282  0.6568597068090247  0.5206168614904735
  0.1125958214669672  0.1922508353485369  0.1992168760189131
  0.4369034365083705  0.1287244924046118  0.1015694958644011
  0.8879761293907863  0.4840456867856274  0.4698733431031084
  0.2722717295461419  0.4064925255321904  0.1875613554413289
  0.7776131779161286  0.2672090520963402  0.3016465581211264
  0.7604471067838021  0.3062147779666802  0.8826670768480608
  0.9090855551448607  0.9553286122199439  0.7854063883281485
  0.5312273886246502  0.5753322822303262  0.8555161347240068
  0.1043780160076272  0.1332252179235859  0.0991968156842135
  0.6441128624675818  0.5766656023247128  0.0668120513004302
  0.0854135624703084  0.6674126548261248  0.0292912059210709
  0.8999440604911463  0.6202150040587564  0.8042938443134389
  0.7332695325816847  0.2977578589367802  0.5191233983253019
  0.0191444846902472  0.6297953495963698  0.7822161742871243
  0.8240778149832957  0.7719341516500112  0.0905010965386285
  0.7679141993104659  0.5658815653567923  0.6783061780225286
  0.1932494376337632  0.4910814413171329  0.1606730812711894
  0.4969484434324359  0.1392772421573739  0.4203964957172671
  0.7217573796341269  0.8260983657658884  0.4190115469180071
  0.4223766265811492  0.7218853724093414  0.7670514708998823
  0.8076602199792196  0.6590429660304963  0.0675559290472589
  0.6443616693939470  0.4449592257256346  0.9432408822388257
  0.5735803308917756  0.3963838471798948  0.8555940403154837
  0.7885385346940539  0.4474874804219719  0.3553205378710917
  0.4711265749415254  0.4482411960819787  0.6855911495095596
  0.7984241857348088  0.1656536915624659  0.7115875148736132
  0.4388354122206771  0.7011986537887609  0.9513915558874158
  0.6089837149430466  0.0010560790137410  0.1480339178219765
  0.9751259118136777  0.2079256952474158  0.9719252194778161
  0.0299833128381734  0.5209407109700603  0.3010584677081598
  0.8740581003656043  0.1948040558767642  0.2608780030241674
  0.3956670121945378  0.5564072250409834  0.4632558967968629
  0.9460674364083705  0.9740079068079971  0.0017557174198268
  0.3011578276566659  0.0788263293328200  0.3977693082205632
  0.3109981471587294  0.5980994888855693  0.1200582239480121
  0.7988991093053678  0.5156188736115874  0.1778153818013243
  0.1182794538529120  0.4585842712128301  0.7201686118524875
  0.2410963888699926  0.9489800479799853  0.5178099041551750
  0.8788881703675752  0.6185611791293957  0.4309361177393574
  0.4572878495346892  0.3949116896901081  0.1865425034194619
  0.3143064950004029  0.2191569123215897  0.7938201489309422
  0.4583249527523933  0.2923414691856943  0.7111927033529989
  0.8824431976959078  0.5512045366822850  0.9084221894548576
  0.7102350762387170  0.4919059524526059  0.8408703251934451
  0.3498703290604704  0.7223942866336370  0.1481293320402230
  0.5631420432770509  0.3687690206473395  0.5060535788040772
  0.0837335335926870  0.1250545384170407  0.6412873584493087
  0.3529367909995090  0.0123539628890310  0.9888525302831414
  0.6092278496797352  0.9709944243687112  0.8136536535199788
  0.8998284920898215  0.3324936706911181  0.4294106422388204
  0.3802702381534106  0.3730365814554505  0.5376569061549243
  0.2005016477630717  0.9198626261317496  0.0907692558602636
  0.4131624432108174  0.9222734387180532  0.1594447346425340
  0.4286713097095571  0.0757615479858747  0.9012353883662794
  0.8425813889827505  0.4535231664742898  0.5851787057894584
  0.1130633474761551  0.2435845299119563  0.8307967527494701
  0.6934057969608463  0.5983193100442632  0.3491636156345588
  0.0732171278949371  0.3033414417236769  0.6577469225804007
  0.2623888439982034  0.6277861849654840  0.9181874335812095
  0.0505516231047248  0.8941733960756199  0.8955357283820945
  0.2324104708575383  0.1902529511671431  0.2304304742059886
  0.5307317021640794  0.8602848855144590  0.6845654820369532
  0.6769205685369153  0.3784092625177777  0.1541089215255036
  0.9214941195315367  0.6063685018345567  0.0923513024062774
  0.1056887440141889  0.8883701997963064  0.7748956250891228
  0.0462088687459961  0.0000432132762143  0.2071365285717148
  0.8253024834833934  0.7208790220716711  0.7807703536829130
  0.2345331084678981  0.8566418524272086  0.9330137315167066
  0.2135198112677953  0.6431282834178583  0.0418873570588972
  0.0667016752113120  0.3251476884151707  0.4844010821018518
  0.1228372140554459  0.9371338259536571  0.2953089735451552
  0.3813912515127213  0.7012883907583638  0.3356596134370967
  0.2708878958833092 -0.0003558966050377  0.7109019453168667
  0.3147594267730111  0.7445977533532233  0.4424035698973380
  0.6114027452487413  0.6708755082971116  0.7211097496514701
  0.9225471512728896  0.8338359169943808  0.3922699712374114
  0.4268248559031914  0.4972171590273932  0.3354294589633965
  0.5810101353359045  0.2610375358019518  0.6726393410499817
  0.6105360055368185  0.8391727265501565  0.7871927229418215
  0.1434734928623621  0.0385875173306514  0.5289336746796781
  0.1281413697657618  0.6778220843349577  0.6422686930940112
  0.2239106569734390  0.9014502132645912  0.6397132298344753
  0.7786060957206795  0.8925432909643122  0.0553847847656765
  0.4346661920450848  0.4414312749638383  0.0606625506117130
  0.4076936891255285  0.0995414958971294  0.6704705366374175
  0.4473172709156787  0.2675371329174557  0.1163049088380249
  0.1389755541995087  0.7797435290203553  0.1819642903890573
  0.0842727965524990  0.8580010132084638  0.0926208734463151
  0.1913365550100598  0.0676859002936835  0.8442945086873572
  0.3888101144424611  0.5072618246223827  0.2119147694391909
  0.0818724668164238  0.3172202668039314  0.2021112340794537
  0.1172670287549823  0.3593395697902759  0.3234163575406061
  0.5859544311005515  0.5410345478108531  0.4041465718739614
  0.8725982570996870  0.8043128247722158  0.5716706350939565
  0.3418515701887282  0.3891542959605381  0.3570524280556914
  0.3372586071222397  0.9161680673347917  0.3774731993041556
  0.7664303618270047  0.8859748174782688  0.5724605958721128
  0.7838257445184968  0.0703722971600516  0.5935576970430758
  0.7968476081143739  0.0703418428231353  0.8801035100982798
  0.5954708125015153  0.2607337993939078  0.9231419993509076
  0.9725128406995636  0.4369436429568246  0.5941933162324262
  0.6198377752741266  0.1096569584567738  0.6682023416588364
  0.5161039281455854  0.8013864987679100  0.3909604651160949
  0.7933514465016747  0.0105391750844247  0.1881514279314435
  0.8602691141600036  0.0745949954751170  0.9958817687016960
  0.3581595969076560  0.8596755090386946  0.4940941114705057
  0.1882855574693245  0.6839907983257472  0.4662616533068705
  0.4234077262358556  0.8536518877611409  0.7600293688651613
  0.0741308700802654  0.8329550272830588  0.5146097586179514
  0.0168751751027803  0.3880300016043839  0.9466457870596959
  0.8786043400052026  0.8702193675630193  0.9536606136871933
  0.6709598172702583  0.7814643628927029  0.9867388287022353
  0.1185102675018025  0.0160933228841133  0.7505912607826843
  0.1105266642070596  0.6250033707150117  0.8641138819510428
  0.7101282841515055  0.1083702475076852  0.3937456130286725
  0.8800582742400396  0.2788394344343644  0.0189889475625336
  0.5264064223465754  0.9289542850650269  0.2182093743050084
  0.7088683951033233  0.4599898673342556  0.2565653751662509
  0.3758955309177111  0.3178111011361881  0.2529430387207922
  0.0414134529036741  0.1173943953867647  0.2650782518178292
  0.8539666571027879  0.1051173656144930  0.3500436404614413
  0.6429031508301166  0.1642548129486381  0.0693597983015089
  0.1988585766453333  0.3122795325062840  0.1518607203415761
  0.0970815037133373  0.1344634314083074  0.9036508987530164
  0.7264360405405855  0.4977158008233911  0.0248964853855263
  0.5788465080365122  0.4951594344253945  0.1349575105535212
  0.5449312776051675  0.5143305202802800  0.9651482007347333
  0.0583406743260255  0.5087250237041105  0.0438427425449194
  0.7496499034169222  0.0246379622153445  0.0365904532209516
  0.5534928097082289  0.4609944010846737  0.3075778082115748
  0.0257233541850295  0.2041242829000814  0.7314596272618240
  0.2634914227651777  0.5267404117956368  0.7324205121764782
  0.7299498702601032  0.4346648888877405  0.7282998214281728
  0.4512214040172011  0.5738760869462751  0.7039947574088458
  0.1915879948259852  0.1499295109371270  0.0170580635655921
  0.0644539944170104  0.7409690331685420  0.7529576197035160
  0.8343056037840142  0.2742773269469293  0.7892837918953621
  0.3533285502839664  0.5487226455440563  0.9585201247946064
  0.4932846377136795  0.1136053732027863  0.5691435047456695
  0.8554358618242882  0.9520177084251388  0.6404426663387650
  0.7152849205168141  0.6387321633131374  0.1452610453161471
  0.6542702734537112  0.4648518398241464  0.4861144708878121
  0.0463857221131875  0.5750076469600134  0.6764692479433017
  0.5069572010090350  0.6671752905176344  0.4745202718839358
  0.7735568630147924  0.2919922209323086  0.1662909671681073
  0.9489570856560299  0.8933162271141869  0.5040793487682064
  0.8431951639473458  0.7507316772097752  0.4541405875466480
  0.4401878086785418  0.3327639052724262  0.4293258812932165
  0.0733117426578339  0.0133532506599043  0.4219036166155984
  0.2770978120457943  0.1326488298337520  0.1153445110855683
  0.5952164083949461  0.2936241999570907  0.2044911901405658
  0.0369433938650231  0.8456176081153758  0.2577387785680701
  0.2867939955860849  0.7406702423791052  0.2595480801876868
  0.3186475797721876  0.3975637320554866  0.0309782321823387
  0.3569527888377961  0.1906301872504286  0.3657610549204452
  0.2228920464625750  0.8495474001341976  0.8041749307860396
  0.3165574037111185  0.1532716971747568  0.9053024121382746
  0.7697590032173979  0.6210221961495475  0.9537771199226244
  0.6363471608877456  0.2980497175265533  0.4027642244032285
  0.8798960475611768  0.9300282931342633  0.1278205530363617
  0.5018238651657037  0.7309865428214840  0.6676387417011039
  0.0475057321800185  0.6894144114402306  0.1425246764068222
  0.7346798959342319  0.6257461308110920  0.7848361916004657
  0.5829511942939968  0.4901960467921053  0.7783094265781125
  0.6007260543088822  0.8474319525307258  0.0719599031975210
  0.2141600335191046  0.1368867218025570  0.4730740223093023
  0.5452828068146935  0.9928385659207493  0.4843465382175183
  0.2621368792533467  0.3067655710052158  0.5146959470087550
  0.6256129563425868  0.5887522118758372  0.6254367970176429
  0.4766037050778354  0.1712050186949157  0.7556981955205646
  0.8208165840914102  0.4273747547213151  0.8809826580436648
  0.7800271510247201  0.2109397308496861  0.9710253020861114
  0.6073816088010715  0.6692567347158078  0.9857264777874750
  0.0759501242435167  0.4669546432296310  0.1896467785452605
  0.1084937423804056  0.7823841822213680  0.9903734241164831
  0.1243902545071849  0.2184737428312503  0.5604967102051981
  0.3678713586342534  0.9211662828405247  0.6623124454032528
  0.3263335547962343  0.1863337319523854  0.6304058852142005
  0.3149467031501192  0.6861956443115950  0.6665568554764759
  0.3403285714647867  0.0269137752402226  0.5380853916940698
  0.1094604687992362  0.5160608977751107  0.5139727584929867
  0.1496644494969229  0.4252052418615958  0.5983153192478602
  0.7558454972783372  0.5921365529727346  0.4624693752897975
  0.4603247084909456  0.3422128552162169  0.8342056955674424
  0.5433723582587550  0.6341295751593455  0.2691398851910076
  0.0089554448890171  0.4476898128742612  0.4483934389329055
  0.4395516872011253  0.0934203346078329  0.2543740242439789
  0.5188204137037685  0.0026081987903058  0.7285115889007683
  0.3279409719984732  0.7386977108046913  0.8957100192398634
  0.4959336952386279  0.2429501219214853  0.5740188747009453
  0.2213058983706095  0.4340200758769089  0.2983371206904150
  0.4650327866810324  0.7956546774022771  0.0354624488671069
  0.3424232035798813  0.4156661504818709  0.7005905355542889
  0.8896831589552863  0.1589852133064501  0.6000473545862249
  0.1560073450697346  0.9614657463334736  0.9463995210926456
  0.2196931153928562  0.6528495703361943  0.7450493749732001
  0.6476681497793920  0.3054172757648249  0.8099591513365354
  0.3936610483021212  0.6692301801099403  0.5366314011952550
  0.6350288814375181  0.3638251153542149  0.6147765558393895
  0.1696254282881293  0.2924966869032254  0.9546450557956706
  0.8135321526961367  0.1379780866664034  0.1607658034653323
  0.2173848807677470  0.5981696002839397  0.2083493265631967
  0.2118395789349274  0.0721310429706273  0.2974474079687972
  0.5501355438762880  0.1232447141746905  0.1538675435174694
  0.8873239574639076  0.7427589288912533  0.1915467520031942
  0.9649385903663823  0.7938731382782979  0.6954463993867501
  0.0314559845939158  0.7637155502361720  0.3668321916782291
  0.0517486510122526  0.6528226942354293  0.4488049795641175
  0.4072481412146308  0.5536719578039455  0.8332044827387896
  0.6715754687221136  0.9947495727333555  0.6348717216472022
  0.4866529969453737  0.8639101825015357  0.5019875222379269
  0.6149852027342629  0.8797369418340067  0.3583694348891259
  0.4623792674929024  0.6237351120885000  0.0837201862045127
  0.8161799566696213  0.3286156784018157  0.6057273839150233
  0.9980048054180336  0.3990516909290668  0.7208269907483850
  0.1570590855539554  0.0337798069743695  0.1481277465442563
  0.1875551628298672  0.5109824699095331  0.0337753262727328
  0.9057681559850732  0.4844399565427291  0.0474270471973860
  0.5132097556658798  0.7403448895484273  0.8546987464792183
  0.2367945907308683  0.8345784321617344  0.3782011153375842
  0.7971348505855151  0.7397782060574380  0.9096703387682779
  0.9598675220226025  0.3111661031951310  0.5590376179049550
  0.9912467200475278  0.2926063731634341  0.8614152513769314
  0.4819377533710015  0.0275580905381104  0.3707040224859016
  0.3472631104701719  0.0097560321689440  0.2266138196432479
  0.1174465963569509  0.6031528467014841  0.3420108024566736
  0.3599003755890444  0.9003714302707566  0.9277215640224328
  0.9734581027382047  0.0654890341021354  0.6111429328040200
  0.8837809734826710  0.0040736024658860  0.2817618445445351
  0.6434255422206520  0.7726652853163553  0.5579305824488046
  0.7258288895108602  0.8362499134968313  0.7264080162282304
  0.9915251658842266  0.4857041352957444  0.8531915149153906
  0.8030857192002917  0.7173231591644039  0.2816724397156147
  0.6411801989003144  0.7132126195348697  0.3761219889688678
  0.9135845526080809  0.5829071580898680  0.5474842880852538
  0.6617109657194010  0.0330098603328092  0.2633206828770562
  0.8140091171374675  0.2374161234990620  0.4337125268979583
  0.5202798342558275  0.7509783152586259  0.2257787034207971
  0.8611232192219486  0.3620568981031409  0.3023411968887359
  0.7844235306030459  0.9297501813255598  0.4540675284407361
  0.8055812050723705  0.9438860825066117  0.8524982085953543
  0.7999215126852040  0.6900742399561836  0.6345620063976881
  0.6570051505184740  0.1493861254470734  0.9318786830693547
  0.7713237241751024  0.8394803127551094  0.3042648948655754
  0.0614123761186655  0.2831477572996801  0.0335106032277100
  0.5436818671092639  0.1878144391821870  0.3145201236953690
  0.3053752574539171  0.4637900952491973  0.4878075375427822
  0.2070829671908470  0.1614260980006471  0.7519846240826065
  0.1939791502521004  0.7762369393209025  0.5560814373369561
  0.0161672195999705  0.7277528874305090  0.5665699378994329
  0.6918913680297327  0.8785495477645434  0.1589424409167107
  0.8848486895773020  0.5384983876908753  0.7196686523571429
  0.3142539902910638  0.5900395262585293  0.3672102392682544
  0.9329575802047916  0.8323967687305666  0.8164819198563636
  0.4201417459957336  0.8434842089709165  0.3091374030601556
  0.8483803961986582  0.5638460495853268  0.2894657306389175
  0.9353943729640581  0.7889866545445335  0.0423854805395966
  0.5176153973571839  0.9551502898282682  0.9035851913251518
  0.4925882001051384  0.3343263661997379  0.0175784063656359
  0.4564718120138146  0.9986768442096348  0.0638232231466414
  0.2064663934102338  0.5970128206888047  0.5599959189207248
  0.9925911198081387  0.1082274191908772  0.0705164083163897
  0.2220226874797385  0.8935244602241847  0.2177498133754527
  0.9555944404173105  0.6518970279265939  0.9711592008719240
  0.6874279747280980  0.1222992691933584  0.7797563241343267
  0.8914964784398882  0.4248059073259804  0.1626238295301815
  0.1774395899512493  0.2500625993365549  0.3550537128040031
  0.9572561349985437  0.6110378158801203  0.2432616268896685
  0.1808532302080368  0.3372291703864155  0.7206570912039415
  0.4827647226331231  0.4705795860752963  0.5587016548226955
  0.7087629614821818  0.1806256505098577  0.5980051311625793
  0.9868970952305524  0.0047081251602751  0.8753394001216819
  0.2810310910117428  0.3198503456442989  0.8693632921257880
  0.8850480534164094  0.1024511852135775  0.7935174444406544
  0.0914421075824628  0.9226824435952133  0.6084532279928651
  0.2454298183062847  0.7739264037355821  0.0874578889534363
  0.0034803014208119  0.2659437257959850  0.3887501321227219
  0.3268654810935471  0.2697734099918279  0.0639867947901835
  0.1344264357042281  0.4044261724884165  0.9004567887380516
  0.4755867972869164  0.1640650755201997  0.9870145597186463
  0.6094096940089532  0.1088856817951086  0.4739557083537684
  0.6718093629706420  0.3386381170716307  0.9964734260165644
 