Ge Se                                   
   1.00000000000000     
    19.7402305603027344    0.0000000000000000    0.0000000000000000
     0.0000000000000000   19.7402305603027344    0.0000000000000000
     0.0000000000000000    0.0000000000000000   19.7402305603027344
   Ge   Se
   150   150
Direct
  0.5411885454881937  0.2196492027726391  0.7546263290086550
  0.2751346603990185  0.6810481341414041  0.6759388830790870
  0.3211555184779910  0.1133705278359871  0.1358897208372519
  0.6856844176664021  0.2427440976512989  0.9027106704261745
  0.3104674264560115  0.3253782144524062  0.3953899090645758
  0.4214717186968361  0.2625376103335589  0.1223519103796535
  0.3065170782388068  0.6648457259143341  0.1644144842969337
  0.5795531024270592  0.2759898130572752  0.4895539977159337
  0.6255735967843358  0.7716804579541772  0.9394467948859840
  0.4702936988044673  0.0476172527730327  0.7042269645810341
  0.4245368606741990  0.8017223334570547  0.6630832149550174
  0.1333305395807007  0.6229393236480519  0.9409443874383753
  0.8244953626275345  0.7208318203971015  0.3062320126073324
  0.6796293390843881  0.5607773744712985  0.9242661058908839
  0.4068789700900864  0.8815687605705301  0.4841486919833448
  0.9150447722031243  0.0367928064252762  0.8986644807059270
  0.2449897829477931  0.4659982613342092  0.0316365004190277
  0.2500146995486537  0.6995124166389988  0.8629828116166188
  0.5672952851503883  0.8607545204272847  0.2021616593242091
  0.8074289695719787  0.8240630009361115  0.8144202634894071
  0.8038082884216798  0.4510711771868553  0.0120375817156002
  0.8559817155194089  0.9154588633701354  0.3565737212506395
  0.5948358468455144  0.2176934353835666  0.2829025579839430
  0.3512859307067783  0.7863962846682220  0.8624933198378592
  0.9725834310158115  0.7487418259356591  0.4222054170334322
  0.1252859407753044  0.2091444613791104  0.0202323027070580
  0.1992282177834218  0.2726834024570523  0.8868924681967095
  0.7209503643954979  0.1740563572304685  0.6881758895193678
  0.3838253529271263  0.0466636406039337  0.9598063382732310
  0.8931422510506476  0.7442307796556981  0.0576264983055403
  0.8874389298161126  0.4657029128194426  0.4734910875674638
  0.4480028596998675  0.1504236324241193  0.9958272805190101
  0.5841467494186601  0.9530004779551225  0.3937741294685054
  0.2473666929359574  0.0536423105110837  0.2743307306843965
  0.0912772149482124  0.9822458606968627  0.9347262714996892
  0.7746291016197692  0.9598431375916787  0.0576582029806678
  0.1870345681534755  0.0896336550995807  0.9451765482761075
  0.0554392964499283  0.8121527877152193  0.0337406596541156
  0.9663911362114322  0.6683254717135029  0.2471127868236921
  0.2748736438981634  0.7852579757547851  0.1529304750306955
  0.7287710731738507  0.8862461587819246  0.3183855478399543
  0.3369990416982722  0.5458472151114078  0.9756328165709593
  0.5835210392529150  0.3730240304378566  0.8886028117473819
  0.0197436176589266  0.7571144024467640  0.8618305902409077
  0.6811006092935273  0.7520198281552479  0.4254194918792181
  0.8025390066692646  0.2434883829805572  0.0571271157262854
  0.0588038872141384  0.8998007902149783  0.4922052982038343
  0.2902633718637467  0.6790596453490824  0.5466455729903116
  0.1129482057913670  0.9504000571042640  0.6041528912897552
  0.0787691505639758  0.9760996534111920  0.2017976422102121
  0.0787991842968434  0.1338256705669265  0.6808397282888744
  0.4871852727234500  0.4640928952246251  0.2708650622669256
  0.9120855308370081  0.5906631051521187  0.7300571897011455
  0.3636029143929633  0.2931767599971599  0.2827810866464840
  0.1761751344597926  0.5578140861496934  0.4089231111170443
  0.7875889463124742  0.1555770885056594  0.4415559104067799
  0.0466470497893261  0.4144632152046782  0.6378268792249605
  0.5602889586357492  0.6894900082301264  0.0162675035732981
  0.2510502427442858  0.5583147695311927  0.1301754715780300
  0.4398721329617524  0.7968343841247513  0.9579377479824663
  0.4062855644682576  0.4604719704687600  0.1690163857734881
  0.1148281138773986  0.1352097787778948  0.5027687555150727
  0.9005772464078929  0.5356076631099428  0.6105528317537194
  0.9130090293789256  0.8376297970771823  0.1511611961956930
  0.5959439383292892  0.8186475259980261  0.5746983731567299
  0.7535148833543422  0.5386587966092548  0.7365309273690148
  0.3987682090424818  0.0403424439658673  0.5687231497247892
  0.7158071527204857  0.8652352859360263  0.9036434227310590
  0.7163132633618098  0.7654580123215488  0.0515385757376424
  0.9936725396277832  0.2688541712132393  0.8896667138123310
  0.3836720051677697  0.4492594059011825  0.4661681554395908
  0.7880784961213061  0.4816932955189387  0.2462050988578446
  0.2138846261340429  0.3826436862532113  0.1288101591508639
  0.6542977702484155  0.0972210444231652  0.0111682861654830
  0.7651226232447846  0.5831450984437109  0.1013267304209231
  0.5951207212330228  0.3532379626686229  0.1707747139820494
  0.2641758137117257  0.6908070628611424 -0.0013741652897185
  0.5473220854345547  0.7588312591564035  0.4090164666267168
  0.0045780769479150  0.5765978274540634  0.3889594020809255
  0.4196500455713298  0.3181161011748067  0.8990571694627751
  0.0017715312180165  0.2146393363577731  0.4094552840323557
  0.7356530203128316  0.6174361691175639  0.3798445685761224
  0.9876545962725527  0.2263777896466748  0.2477575072354303
  0.8501009211500544  0.6446580079253285  0.4931581985352279
  0.4246838938849820  0.1523862828069764  0.2470638993919510
  0.3176041052279260  0.2293498997877760  0.5398106614812206
  0.0320852177852799  0.4154678009282901  0.3202178442514864
  0.3727040589757487  0.3212863472336566  0.6836410928667540
  0.5870009567605755  0.8951527291978720  0.0282415039925842
  0.1999676593802820  0.7687385457624984  0.7448680123640736
  0.3140600018578376  0.4599520942475884  0.6933842499491933
  0.1474570483899204  0.2006702230574950  0.1954068133022003
  0.8236951907972769  0.2845264240752439  0.2424777160059736
  0.6287582351788743  0.8770485702548835  0.7612688944046018
  0.9209081882058310  0.8264807577584374  0.6340595760858267
  0.0808163491558940  0.2988910035061599  0.5724709498333054
  0.7755522721638898  0.1396310865892230  0.9879854282254479
  0.7369458614342288  0.8635933126714650  0.6138328949038060
  0.8007645990103689  0.4125961208466657  0.1350854958013679
  0.0031376662935903  0.8808328373842849  0.8102843898806512
  0.2732978555792779  0.8969403854138672  0.7628214384293525
  0.6256358710646712  0.4942565231224383  0.3041201918286282
  0.0957732470239436  0.6804938832562824  0.2434401963722042
  0.0767675045655473  0.9646531748928813  0.3408190826444516
  0.5792319789970870  0.0312154648625252  0.5431025959719412
  0.1742112984024842  0.5277357273731230  0.6029201940764790
  0.4877411331189057  0.5202731922901707  0.4295575887583996
  0.7824732415602225  0.2864711190791845  0.4786904549319771
  0.2341940738153402  0.9815086986467326  0.4946924902020257
  0.2227724774765729  0.4110899133303462  0.5422680203765959
  0.9898153270771480  0.3275615493770195  0.0737551869276789
  0.1386917219171437  0.5727134924969055  0.1878432718243655
  0.4528020480666436  0.5931298763753479  0.6379771035483640
  0.2023275422917283  0.0397727300286452  0.6658291939798970
  0.0699916458681016  0.5007713431832639  0.1046170169964395
  0.7642429524089862  0.3932737920276019  0.6551788527464051
  0.7075343289501352  0.3294128595413207  0.0924087472347774
  0.4379907377865281  0.5591955338699741  0.8315486773072457
  0.2314591573434715  0.9004958227323494  0.3881184260069709
  0.0363391239949242  0.1549783351590940  0.8515473486440485
  0.4335195318697038  0.6429086624247748  0.1582974530483977
  0.5595211455844834  0.0705380525934799  0.8658087664262804
  0.6234031135350185  0.4896638292496830  0.5531898440145017
  0.2828465805124287  0.1531005451880731  0.3765109819996769
  0.8987403130235777  0.0081511964496868  0.6763457982428114
  0.8684377812631845  0.1098686644026811  0.5896774837219260
  0.5888829062477451  0.6364457842584914  0.5403149557067930
  0.8867153353196127  0.2800125342968351  0.9635890365625359
  0.2421662455001777  0.4026963609353486  0.2561950422921350
  0.7542929589622613  0.1186449446612955  0.2129500423669770
  0.5925929712781899  0.2213282022588133  0.0490026582340174
  0.8782375946028280  0.5293350075891318  0.3297152791544532
  0.0218609843877044  0.5919504779070347  0.8021953003748760
  0.5238448711058794  0.6843667688624668  0.8270685377590058
  0.1868552343093705  0.7756196950069016  0.2557117381924401
  0.4591811746293658  0.6818867305635725  0.3525410773776826
  0.3642353319898052  0.7568590887119854  0.3090622588919656
  0.9005125170203424  0.5625948724938007  0.1247060893639389
  0.7215854985213229  0.3856757250864720  0.4153783147209908
  0.8066133191831778  0.0005259402531508  0.4717300277770123
  0.8830292182023610  0.2377008973005373  0.6185149748562313
  0.5976079104018278  0.0937641117318045  0.4042984922921228
  0.1659326379766081  0.8323989403982278  0.8994067755565662
  0.5306789478117271  0.2174960668890923  0.6220848238789344
  0.0674568757541063  0.4017595358661636  0.7641331899088747
  0.7355008761829852  0.9974520435222659  0.7855217628476889
  0.2781411068683552  0.4073216725281202  0.8262760061931061
  0.8813971232580541  0.3492477397507075  0.5458555930486195
  0.4163535046812773  0.9102306604034222  0.0633591017495368
  0.6283170676385849  0.5160414815033255  0.7350829468716304
  0.4549433410583523  0.9495461424172207  0.9443816722821772
  0.2690321324594591  0.2100870181723235  0.2609544783721512
  0.4326174167166644  0.4945131044739577  0.7198077403513031
  0.3540198196486409  0.3783932028508594  0.0976475069094202
  0.6592274863377374  0.9776928764403618  0.9551287519774949
  0.3205774731605338  0.4940534642001119  0.5663723429174794
  0.5065766975441768  0.7344690069911849  0.1175420608133837
  0.5450569036426685  0.1054212142547894  0.2824766639249113
  0.5303894101831249  0.2161442883150073  0.9328885918183648
  0.8058321514901129  0.0913196185973444  0.7406768791376419
  0.6836268540847282  0.7208663216494801  0.5579255857252094
  0.9644258084104066  0.4935940617518080  0.0440911018528428
  0.2709657991171742  0.6768640781618572  0.2863133926333625
  0.6837058907511561  0.8869768436252855  0.4426160873927947
  0.2593543663967733  0.8032488465639960  0.5647448300368191
  0.7470207110298785  0.0917922330124526  0.5505856069242772
  0.2806127596159388  0.8898806377154046  0.8921441389418897
  0.8988491243504383  0.0998422377381605  0.4667013345545573
  0.7444655191409832  0.7856532586058674  0.7172348908691716
  0.6044616077030857  0.4037002344890893  0.4530006769718229
  0.0738572645277180  0.2857717853119398  0.3290873843177478
  0.9905203132472572  0.0867222560485642  0.7610347343799913
  0.2574142231234329  0.3034845933137681  0.6244247577382522
  0.6537934609955707  0.6758606891880179  0.8621335830602790
  0.8915458863376282  0.7457206186249673  0.8613458012859593
  0.8120792101670169  0.2659944080371179  0.7153816109799760
  0.7956501225662245  0.7057409423710711  0.1345350454682782
  0.3694835153026537  0.0361013114818471  0.2340865437769357
  0.8888849951071807  0.2240426426523869  0.3385928368743817
  0.5727585674750096  0.6148741204977530  0.6887887527921868
  0.7463733730619351  0.0608815651046993  0.3620526678920591
  0.1042280032725660  0.6617259616496627  0.3686595809989426
  0.5361058375085400  0.9732035104492552  0.7854414188713128
  0.2216654836013376  0.2542041257388715  0.4414243558175340
  0.1712311898563103  0.6303284118068472  0.5311829926027244
  0.9218792045011982  0.4126913529545501  0.6521411006047825
  0.2173316507271333  0.2614542690106200  0.0959469680332335
  0.2332195261255417  0.5649734600519354  0.7109119967997534
  0.5328201689926252  0.8130213513072327  0.8666361366093445
  0.1431226323643179  0.6958184997256563  0.0470667578607265
  0.0999730490107783  0.5021505063790311  0.8274459972084148
  0.0430162178112546  0.1115650670228041  0.2788889955226296
  0.8555751350420595  0.0341441869146160  0.3036127874900530
  0.6726067347380043  0.8627162350777089  0.1229430356916637
  0.4074025296546970  0.2006563940121051  0.6489246206375228
  0.9556645078703352  0.6913273995011784  0.6673060950681727
  0.2229706899092311  0.9265191939130658  0.2665849919826511
  0.3973501492480037  0.8653319266135941  0.7723615188911379
  0.6531266088683899  0.2266490329483563  0.3898855721223562
  0.1292997351141544  0.4999372677342240  0.9931869195281613
  0.0054723279620012  0.2437206328065822  0.6605770072963284
  0.3005299103076591  0.0865242916717796  0.8782346554947436
  0.3551960759701629 -0.0001430876847806  0.4491830876020504
  0.3100140150931423  0.8036053502467001  0.4087868415198675
  0.0041295655887900  0.7985620337997998  0.5369990551417168
  0.9791273766019583  0.6394131099402144  0.4947861081053522
  0.0532360644463316  0.5370184579657094  0.6332115010607238
  0.4878715356010626  0.9456706465184318  0.5768778728448798
  0.7085369257702326  0.5807646586144671  0.2551685266562418
  0.0398458706040502  0.0644921435152491  0.5793802250345210
  0.3276702453119595  0.2888701314507317  0.8049083579087387
  0.1215558543585980  0.9259155401878467  0.8191164803835426
  0.5214196248770840  0.3309694310320200  0.0697350025067233
  0.1491328332424719  0.4890012346984147  0.2790023777546315
  0.3098030793832401  0.5092816573156109  0.2320810856472655
  0.6889292544629662  0.2719655898528534  0.5585825645734647
  0.4873350824054509  0.8689587201278213  0.3779006668725530
  0.0806536913729075  0.3847157627853919  0.1477474799716154
  0.8466311191793386  0.6995831367734721  0.6093662988762447
  0.9682516174593193  0.0400595542428992  0.2088397445181895
  0.8525236411369042  0.1885152254148474  0.1572814697842245
  0.0053015120873271  0.6370404877908395  0.9210761684413492
  0.6725593934139216  0.2195282183971325  0.1893367742531372
  0.3079670454367335  0.0265767773150130  0.7491838471023491
  0.5776052432464349  0.4796551291260236  0.1823054719004453
  0.4604573330349158  0.6648216371836096  0.9479392845377111
  0.4376736252423454  0.5453646265745583  0.0815819519221408
  0.3048438920142685  0.9637729778354708  0.6331945935480118
  0.7049970627550767  0.7694253567379763  0.2831624330749286
  0.1715351705196740  0.3366649670059964  0.7761044241665565
  0.1569118976471789  0.1435581509523907  0.8327415930048724
  0.7699309517057743  0.5303709765365352  0.6144407361060830
  0.4995624510178355  0.7428566227909712  0.5250069145693158
  0.4162881916162525  0.4649015225851815  0.9151520399123292
  0.8022279749016370  0.8416181806641392  0.9914444639596285
  0.8587408061818572  0.0513973695025343  0.0151642244363856
  0.9762797436999762  0.6656212384541224  0.1175817386927243
  0.6482221215710393  0.1609258364996698  0.8060376913619366
  0.5044835525819804  0.1379651694990932  0.1026925055302969
  0.0773816216862877  0.6987940331230001  0.7605721438072223
  0.8480798249101881  0.9278463013283531  0.5857350818134496
  0.5750959448605070  0.4977122287506684  0.8452009101729945
  0.8998020495198195  0.4067112278412510  0.3616263100005203
  0.0721761335207032  0.4784061091758399  0.4379060709452010
  0.6232050912918370  0.5878105538169488  0.0371325509009585
  0.8580926220760619  0.9449818955220891  0.1549635096224914
  0.9094444868349885  0.3635665523344118  0.1801847610021855
  0.0393662711825813  0.8519832857126561  0.1574693005068865
  0.3039286393012944  0.5856929502475903  0.8571405680232688
  0.8135755057831796  0.2020748510423948  0.8849494235762227
  0.8019276757530797  0.4353412207710752  0.7699997000041946
  0.2665045086660435  0.3683888234128661  0.9477408723929448
  0.0099450430730793  0.1058095502778483  0.9590538065574674
  0.6784503984426523  0.9588719779075021  0.6731655086304094
  0.5153959676911843  0.3091557929081159  0.2648073849859560
  0.9779246435244940  0.9606139107539036  0.4202487931597299
  0.0891494122062532  0.3159937719054019  0.9535634079354335
  0.6967240302973253  0.0502129916484534  0.1198185123523941
  0.5048239532912494  0.1186475814512575  0.4843345235776607
  0.6870000622431452  0.3390475782187904  0.8269886298853799
  0.7083441144907721  0.3902483387036740  0.2902047656238855
  0.3921779012537869  0.6899546827925825  0.7260380969025173
  0.3001167633446443  0.8062951151276618  0.0340272090915003
  0.1473618548198708  0.8956974983741832  0.0143146961108347
  0.2712004679296613  0.4430792368894834  0.4039827770003308
  0.6109831259503791  0.6106977702317909  0.4090792714815336
  0.3786674232993755  0.8266439727105943  0.2097195224635811
  0.6847778855638578  0.4209991473703170  0.0054878142424159
  0.8528458501356588  0.9362629587999910  0.7907176720389733
  0.4027855861815338  0.6168965046272306  0.4377403629526323
  0.5252918444039282  0.9574690150959897  0.1221089194174508
  0.3191836141856283  0.0089749835484328  0.0559101262684027
  0.0311689847186802  0.2076890035552186  0.1051953456081801
  0.9754623420587496  0.9257785274416419  0.9358268945358508
  0.4062879941413166  0.1993989694490246  0.3669033406403335
  0.1929060969861280  0.0832409252854735  0.1532731111935274
  0.1558846922617008  0.8106680255481036  0.6288833675848629
  0.4975451296271627  0.6036488546439465  0.2602825885895401
  0.1538588793944922  0.0463300778133450  0.4113373586618575
  0.0154840431293825  0.9128185755664501  0.6783860653849266
  0.8162661327918417  0.5730344276257445  0.9836231261266918
  0.5771870758009061  0.1015152888583278  0.6521398620531436
  0.1140533134512798  0.8474941671121684  0.3875183563972767
  0.6284965655404313  0.4135412061096733  0.6635757149363318
  0.7638472810222748  0.4993406604141389  0.4459354853294248
  0.5544648498224262  0.7907225135507873  0.6945308597928653
  0.8414545185556727  0.7620347700559601  0.4314619153700801
  0.2283215193307075  0.1137391847129718  0.5632328679486802
  0.8733504887584316  0.3978999219477652  0.9271617515527042
  0.6309718330528962  0.9540609105826244  0.2723223988941569
  0.9063708212627729  0.8200218626605926  0.2770995058700306
  0.8121409962232162  0.6283667247971924  0.7931943071718321
  0.9639105464800602  0.3493644012117474  0.8045034476869423
  0.9664493484192010  0.5367485726332805  0.2334272330686705
  0.4610903269979427  0.1341669783071805  0.8025131324945445
  0.3572749280289104  0.2271431529735866  0.0107370449572332
  0.9907988779168424  0.3239812942578975  0.4858893083223704
  0.4015371892600942  0.3269699182538520  0.4843744107450764
  0.4965750834609097  0.4883314845245428  0.5560216945461844
  0.5015445494135081  0.3327159673680048  0.7926789189639774
 
  0.00000000E+00  0.00000000E+00  0.00000000E+00
  0.00000000E+00  0.00000000E+00  0.00000000E+00
  0.00000000E+00  0.00000000E+00  0.00000000E+00
  0.00000000E+00  0.00000000E+00  0.00000000E+00
  0.00000000E+00  0.00000000E+00  0.00000000E+00
  0.00000000E+00  0.00000000E+00  0.00000000E+00
  0.00000000E+00  0.00000000E+00  0.00000000E+00
  0.00000000E+00  0.00000000E+00  0.00000000E+00
  0.00000000E+00  0.00000000E+00  0.00000000E+00
  0.00000000E+00  0.00000000E+00  0.00000000E+00
  0.00000000E+00  0.00000000E+00  0.00000000E+00
  0.00000000E+00  0.00000000E+00  0.00000000E+00
  0.00000000E+00  0.00000000E+00  0.00000000E+00
  0.00000000E+00  0.00000000E+00  0.00000000E+00
  0.00000000E+00  0.00000000E+00  0.00000000E+00
  0.00000000E+00  0.00000000E+00  0.00000000E+00
  0.00000000E+00  0.00000000E+00  0.00000000E+00
  0.00000000E+00  0.00000000E+00  0.00000000E+00
  0.00000000E+00  0.00000000E+00  0.00000000E+00
  0.00000000E+00  0.00000000E+00  0.00000000E+00
  0.00000000E+00  0.00000000E+00  0.00000000E+00
  0.00000000E+00  0.00000000E+00  0.00000000E+00
  0.00000000E+00  0.00000000E+00  0.00000000E+00
  0.00000000E+00  0.00000000E+00  0.00000000E+00
  0.00000000E+00  0.00000000E+00  0.00000000E+00
  0.00000000E+00  0.00000000E+00  0.00000000E+00
  0.00000000E+00  0.00000000E+00  0.00000000E+00
  0.00000000E+00  0.00000000E+00  0.00000000E+00
  0.00000000E+00  0.00000000E+00  0.00000000E+00
  0.00000000E+00  0.00000000E+00  0.00000000E+00
  0.00000000E+00  0.00000000E+00  0.00000000E+00
  0.00000000E+00  0.00000000E+00  0.00000000E+00
  0.00000000E+00  0.00000000E+00  0.00000000E+00
  0.00000000E+00  0.00000000E+00  0.00000000E+00
  0.00000000E+00  0.00000000E+00  0.00000000E+00
  0.00000000E+00  0.00000000E+00  0.00000000E+00
  0.00000000E+00  0.00000000E+00  0.00000000E+00
  0.00000000E+00  0.00000000E+00  0.00000000E+00
  0.00000000E+00  0.00000000E+00  0.00000000E+00
  0.00000000E+00  0.00000000E+00  0.00000000E+00
  0.00000000E+00  0.00000000E+00  0.00000000E+00
  0.00000000E+00  0.00000000E+00  0.00000000E+00
  0.00000000E+00  0.00000000E+00  0.00000000E+00
  0.00000000E+00  0.00000000E+00  0.00000000E+00
  0.00000000E+00  0.00000000E+00  0.00000000E+00
  0.00000000E+00  0.00000000E+00  0.00000000E+00
  0.00000000E+00  0.00000000E+00  0.00000000E+00
  0.00000000E+00  0.00000000E+00  0.00000000E+00
  0.00000000E+00  0.00000000E+00  0.00000000E+00
  0.00000000E+00  0.00000000E+00  0.00000000E+00
  0.00000000E+00  0.00000000E+00  0.00000000E+00
  0.00000000E+00  0.00000000E+00  0.00000000E+00
  0.00000000E+00  0.00000000E+00  0.00000000E+00
  0.00000000E+00  0.00000000E+00  0.00000000E+00
  0.00000000E+00  0.00000000E+00  0.00000000E+00
  0.00000000E+00  0.00000000E+00  0.00000000E+00
  0.00000000E+00  0.00000000E+00  0.00000000E+00
  0.00000000E+00  0.00000000E+00  0.00000000E+00
  0.00000000E+00  0.00000000E+00  0.00000000E+00
  0.00000000E+00  0.00000000E+00  0.00000000E+00
  0.00000000E+00  0.00000000E+00  0.00000000E+00
  0.00000000E+00  0.00000000E+00  0.00000000E+00
  0.00000000E+00  0.00000000E+00  0.00000000E+00
  0.00000000E+00  0.00000000E+00  0.00000000E+00
  0.00000000E+00  0.00000000E+00  0.00000000E+00
  0.00000000E+00  0.00000000E+00  0.00000000E+00
  0.00000000E+00  0.00000000E+00  0.00000000E+00
  0.00000000E+00  0.00000000E+00  0.00000000E+00
  0.00000000E+00  0.00000000E+00  0.00000000E+00
  0.00000000E+00  0.00000000E+00  0.00000000E+00
  0.00000000E+00  0.00000000E+00  0.00000000E+00
  0.00000000E+00  0.00000000E+00  0.00000000E+00
  0.00000000E+00  0.00000000E+00  0.00000000E+00
  0.00000000E+00  0.00000000E+00  0.00000000E+00
  0.00000000E+00  0.00000000E+00  0.00000000E+00
  0.00000000E+00  0.00000000E+00  0.00000000E+00
  0.00000000E+00  0.00000000E+00  0.00000000E+00
  0.00000000E+00  0.00000000E+00  0.00000000E+00
  0.00000000E+00  0.00000000E+00  0.00000000E+00
  0.00000000E+00  0.00000000E+00  0.00000000E+00
  0.00000000E+00  0.00000000E+00  0.00000000E+00
  0.00000000E+00  0.00000000E+00  0.00000000E+00
  0.00000000E+00  0.00000000E+00  0.00000000E+00
  0.00000000E+00  0.00000000E+00  0.00000000E+00
  0.00000000E+00  0.00000000E+00  0.00000000E+00
  0.00000000E+00  0.00000000E+00  0.00000000E+00
  0.00000000E+00  0.00000000E+00  0.00000000E+00
  0.00000000E+00  0.00000000E+00  0.00000000E+00
  0.00000000E+00  0.00000000E+00  0.00000000E+00
  0.00000000E+00  0.00000000E+00  0.00000000E+00
  0.00000000E+00  0.00000000E+00  0.00000000E+00
  0.00000000E+00  0.00000000E+00  0.00000000E+00
  0.00000000E+00  0.00000000E+00  0.00000000E+00
  0.00000000E+00  0.00000000E+00  0.00000000E+00
  0.00000000E+00  0.00000000E+00  0.00000000E+00
  0.00000000E+00  0.00000000E+00  0.00000000E+00
  0.00000000E+00  0.00000000E+00  0.00000000E+00
  0.00000000E+00  0.00000000E+00  0.00000000E+00
  0.00000000E+00  0.00000000E+00  0.00000000E+00
  0.00000000E+00  0.00000000E+00  0.00000000E+00
  0.00000000E+00  0.00000000E+00  0.00000000E+00
  0.00000000E+00  0.00000000E+00  0.00000000E+00
  0.00000000E+00  0.00000000E+00  0.00000000E+00
  0.00000000E+00  0.00000000E+00  0.00000000E+00
  0.00000000E+00  0.00000000E+00  0.00000000E+00
  0.00000000E+00  0.00000000E+00  0.00000000E+00
  0.00000000E+00  0.00000000E+00  0.00000000E+00
  0.00000000E+00  0.00000000E+00  0.00000000E+00
  0.00000000E+00  0.00000000E+00  0.00000000E+00
  0.00000000E+00  0.00000000E+00  0.00000000E+00
  0.00000000E+00  0.00000000E+00  0.00000000E+00
  0.00000000E+00  0.00000000E+00  0.00000000E+00
  0.00000000E+00  0.00000000E+00  0.00000000E+00
  0.00000000E+00  0.00000000E+00  0.00000000E+00
  0.00000000E+00  0.00000000E+00  0.00000000E+00
  0.00000000E+00  0.00000000E+00  0.00000000E+00
  0.00000000E+00  0.00000000E+00  0.00000000E+00
  0.00000000E+00  0.00000000E+00  0.00000000E+00
  0.00000000E+00  0.00000000E+00  0.00000000E+00
  0.00000000E+00  0.00000000E+00  0.00000000E+00
  0.00000000E+00  0.00000000E+00  0.00000000E+00
  0.00000000E+00  0.00000000E+00  0.00000000E+00
  0.00000000E+00  0.00000000E+00  0.00000000E+00
  0.00000000E+00  0.00000000E+00  0.00000000E+00
  0.00000000E+00  0.00000000E+00  0.00000000E+00
  0.00000000E+00  0.00000000E+00  0.00000000E+00
  0.00000000E+00  0.00000000E+00  0.00000000E+00
  0.00000000E+00  0.00000000E+00  0.00000000E+00
  0.00000000E+00  0.00000000E+00  0.00000000E+00
  0.00000000E+00  0.00000000E+00  0.00000000E+00
  0.00000000E+00  0.00000000E+00  0.00000000E+00
  0.00000000E+00  0.00000000E+00  0.00000000E+00
  0.00000000E+00  0.00000000E+00  0.00000000E+00
  0.00000000E+00  0.00000000E+00  0.00000000E+00
  0.00000000E+00  0.00000000E+00  0.00000000E+00
  0.00000000E+00  0.00000000E+00  0.00000000E+00
  0.00000000E+00  0.00000000E+00  0.00000000E+00
  0.00000000E+00  0.00000000E+00  0.00000000E+00
  0.00000000E+00  0.00000000E+00  0.00000000E+00
  0.00000000E+00  0.00000000E+00  0.00000000E+00
  0.00000000E+00  0.00000000E+00  0.00000000E+00
  0.00000000E+00  0.00000000E+00  0.00000000E+00
  0.00000000E+00  0.00000000E+00  0.00000000E+00
  0.00000000E+00  0.00000000E+00  0.00000000E+00
  0.00000000E+00  0.00000000E+00  0.00000000E+00
  0.00000000E+00  0.00000000E+00  0.00000000E+00
  0.00000000E+00  0.00000000E+00  0.00000000E+00
  0.00000000E+00  0.00000000E+00  0.00000000E+00
  0.00000000E+00  0.00000000E+00  0.00000000E+00
  0.00000000E+00  0.00000000E+00  0.00000000E+00
  0.00000000E+00  0.00000000E+00  0.00000000E+00
  0.00000000E+00  0.00000000E+00  0.00000000E+00
  0.00000000E+00  0.00000000E+00  0.00000000E+00
  0.00000000E+00  0.00000000E+00  0.00000000E+00
  0.00000000E+00  0.00000000E+00  0.00000000E+00
  0.00000000E+00  0.00000000E+00  0.00000000E+00
  0.00000000E+00  0.00000000E+00  0.00000000E+00
  0.00000000E+00  0.00000000E+00  0.00000000E+00
  0.00000000E+00  0.00000000E+00  0.00000000E+00
  0.00000000E+00  0.00000000E+00  0.00000000E+00
  0.00000000E+00  0.00000000E+00  0.00000000E+00
  0.00000000E+00  0.00000000E+00  0.00000000E+00
  0.00000000E+00  0.00000000E+00  0.00000000E+00
  0.00000000E+00  0.00000000E+00  0.00000000E+00
  0.00000000E+00  0.00000000E+00  0.00000000E+00
  0.00000000E+00  0.00000000E+00  0.00000000E+00
  0.00000000E+00  0.00000000E+00  0.00000000E+00
  0.00000000E+00  0.00000000E+00  0.00000000E+00
  0.00000000E+00  0.00000000E+00  0.00000000E+00
  0.00000000E+00  0.00000000E+00  0.00000000E+00
  0.00000000E+00  0.00000000E+00  0.00000000E+00
  0.00000000E+00  0.00000000E+00  0.00000000E+00
  0.00000000E+00  0.00000000E+00  0.00000000E+00
  0.00000000E+00  0.00000000E+00  0.00000000E+00
  0.00000000E+00  0.00000000E+00  0.00000000E+00
  0.00000000E+00  0.00000000E+00  0.00000000E+00
  0.00000000E+00  0.00000000E+00  0.00000000E+00
  0.00000000E+00  0.00000000E+00  0.00000000E+00
  0.00000000E+00  0.00000000E+00  0.00000000E+00
  0.00000000E+00  0.00000000E+00  0.00000000E+00
  0.00000000E+00  0.00000000E+00  0.00000000E+00
  0.00000000E+00  0.00000000E+00  0.00000000E+00
  0.00000000E+00  0.00000000E+00  0.00000000E+00
  0.00000000E+00  0.00000000E+00  0.00000000E+00
  0.00000000E+00  0.00000000E+00  0.00000000E+00
  0.00000000E+00  0.00000000E+00  0.00000000E+00
  0.00000000E+00  0.00000000E+00  0.00000000E+00
  0.00000000E+00  0.00000000E+00  0.00000000E+00
  0.00000000E+00  0.00000000E+00  0.00000000E+00
  0.00000000E+00  0.00000000E+00  0.00000000E+00
  0.00000000E+00  0.00000000E+00  0.00000000E+00
  0.00000000E+00  0.00000000E+00  0.00000000E+00
  0.00000000E+00  0.00000000E+00  0.00000000E+00
  0.00000000E+00  0.00000000E+00  0.00000000E+00
  0.00000000E+00  0.00000000E+00  0.00000000E+00
  0.00000000E+00  0.00000000E+00  0.00000000E+00
  0.00000000E+00  0.00000000E+00  0.00000000E+00
  0.00000000E+00  0.00000000E+00  0.00000000E+00
  0.00000000E+00  0.00000000E+00  0.00000000E+00
  0.00000000E+00  0.00000000E+00  0.00000000E+00
  0.00000000E+00  0.00000000E+00  0.00000000E+00
  0.00000000E+00  0.00000000E+00  0.00000000E+00
  0.00000000E+00  0.00000000E+00  0.00000000E+00
  0.00000000E+00  0.00000000E+00  0.00000000E+00
  0.00000000E+00  0.00000000E+00  0.00000000E+00
  0.00000000E+00  0.00000000E+00  0.00000000E+00
  0.00000000E+00  0.00000000E+00  0.00000000E+00
  0.00000000E+00  0.00000000E+00  0.00000000E+00
  0.00000000E+00  0.00000000E+00  0.00000000E+00
  0.00000000E+00  0.00000000E+00  0.00000000E+00
  0.00000000E+00  0.00000000E+00  0.00000000E+00
  0.00000000E+00  0.00000000E+00  0.00000000E+00
  0.00000000E+00  0.00000000E+00  0.00000000E+00
  0.00000000E+00  0.00000000E+00  0.00000000E+00
  0.00000000E+00  0.00000000E+00  0.00000000E+00
  0.00000000E+00  0.00000000E+00  0.00000000E+00
  0.00000000E+00  0.00000000E+00  0.00000000E+00
  0.00000000E+00  0.00000000E+00  0.00000000E+00
  0.00000000E+00  0.00000000E+00  0.00000000E+00
  0.00000000E+00  0.00000000E+00  0.00000000E+00
  0.00000000E+00  0.00000000E+00  0.00000000E+00
  0.00000000E+00  0.00000000E+00  0.00000000E+00
  0.00000000E+00  0.00000000E+00  0.00000000E+00
  0.00000000E+00  0.00000000E+00  0.00000000E+00
  0.00000000E+00  0.00000000E+00  0.00000000E+00
  0.00000000E+00  0.00000000E+00  0.00000000E+00
  0.00000000E+00  0.00000000E+00  0.00000000E+00
  0.00000000E+00  0.00000000E+00  0.00000000E+00
  0.00000000E+00  0.00000000E+00  0.00000000E+00
  0.00000000E+00  0.00000000E+00  0.00000000E+00
  0.00000000E+00  0.00000000E+00  0.00000000E+00
  0.00000000E+00  0.00000000E+00  0.00000000E+00