In2O3 structure 37 - random placement wi
   1.00000000000000     
     8.0069933029430516   -0.1291798206263912   -0.0968221099462486
    -0.1298875904217207    8.0610846922649735    0.0381003027579744
    -0.0967424242143698    0.0382756651589208    8.0516968302460636
   In   Ga   O 
    14     2    24
Direct
  0.6902154512745255  0.0267086843266924  0.2798582724031462
  0.1818707181475645  0.0225471264127108  0.2947630645944699
  0.4946895271494682  0.2473281284072826  0.9940378178243208
  0.9416227425808330  0.7625866759103062  0.0233917719848762
  0.9300630287278153  0.7522525424185389  0.5195937148834346
  0.7050159156023597  0.5376146665764026  0.7402544186441631
  0.7061748487764277  0.5350433109120516  0.2476463953275001
  0.9605261366573856  0.2549621591080893  0.5028997603040395
  0.9661194911455055  0.2789879771121306  0.9955966423626563
  0.4690454637350996  0.2495158468387331  0.5038705524600147
  0.2061351052324341  0.5296160935348269  0.7147769223681024
  0.1824631517142237  0.0043722310432983  0.7797264249099172
  0.4330693784218056  0.7566887686922144  0.0213756550179269
  0.6815964975258098  0.0140738638523317  0.7690661418999341
  0.2124005961972344  0.5055433638939135  0.2760395001580775
  0.4319723171462115  0.7446517785969391  0.5108247418374177
  0.5784942489997036  0.9910583346232329  0.0298543077641966
  0.6650936948789550  0.7865907472693010  0.6164788995681505
  0.4618236724791345  0.4993168950022948  0.6077399690046050
  0.0601081479458472  0.9918623634883730  0.5341382140793485
  0.5859825313410525  0.2872447750524998  0.2460686261887020
  0.4245178656312021  0.1361115331954252  0.7540315849654249
  0.9919567695808311  0.5174489839789587  0.1495657032860649
  0.8269684434984796  0.4896358877524563  0.4922229835891159
  0.9432242945828975  0.1507904337703749  0.2358158408696056
  0.3412038583514487  0.4829014162498027  0.9524079040672646
  0.0871287534864891  0.2859580250163773  0.7489794821260745
  0.1987454014342021  0.8860537295313478  0.0647696936764461
  0.9702371423067362  0.6482671591993139  0.7763835112353661
  0.7164569503784861  0.1374741907214911  0.5305476917259426
  0.4387084815638218  0.6305421719783837  0.2720702808808326
  0.4292788217335897  0.9706701155509876  0.4007438138644446
  0.9290950341935442  0.0037316642508429  0.8901891605286849
  0.1810897356663190  0.6555133045058312  0.4628308344626006
  0.3352456656939609  0.7797668722587261  0.7529341721381755
  0.2195304073351991  0.2922897783408018  0.3944091365529161
  0.2578034663671644  0.3607261424647987  0.0716304308011715
  0.7261266736821739  0.2998403317870668  0.8682118620386134
  0.8213533724665538  0.7954850559613647  0.2719872756049639
  0.6770635284234316  0.6404324273436330  0.9906583951778885
 
  0.00000000E+00  0.00000000E+00  0.00000000E+00
  0.00000000E+00  0.00000000E+00  0.00000000E+00
  0.00000000E+00  0.00000000E+00  0.00000000E+00
  0.00000000E+00  0.00000000E+00  0.00000000E+00
  0.00000000E+00  0.00000000E+00  0.00000000E+00
  0.00000000E+00  0.00000000E+00  0.00000000E+00
  0.00000000E+00  0.00000000E+00  0.00000000E+00
  0.00000000E+00  0.00000000E+00  0.00000000E+00
  0.00000000E+00  0.00000000E+00  0.00000000E+00
  0.00000000E+00  0.00000000E+00  0.00000000E+00
  0.00000000E+00  0.00000000E+00  0.00000000E+00
  0.00000000E+00  0.00000000E+00  0.00000000E+00
  0.00000000E+00  0.00000000E+00  0.00000000E+00
  0.00000000E+00  0.00000000E+00  0.00000000E+00
  0.00000000E+00  0.00000000E+00  0.00000000E+00
  0.00000000E+00  0.00000000E+00  0.00000000E+00
  0.00000000E+00  0.00000000E+00  0.00000000E+00
  0.00000000E+00  0.00000000E+00  0.00000000E+00
  0.00000000E+00  0.00000000E+00  0.00000000E+00
  0.00000000E+00  0.00000000E+00  0.00000000E+00
  0.00000000E+00  0.00000000E+00  0.00000000E+00
  0.00000000E+00  0.00000000E+00  0.00000000E+00
  0.00000000E+00  0.00000000E+00  0.00000000E+00
  0.00000000E+00  0.00000000E+00  0.00000000E+00
  0.00000000E+00  0.00000000E+00  0.00000000E+00
  0.00000000E+00  0.00000000E+00  0.00000000E+00
  0.00000000E+00  0.00000000E+00  0.00000000E+00
  0.00000000E+00  0.00000000E+00  0.00000000E+00
  0.00000000E+00  0.00000000E+00  0.00000000E+00
  0.00000000E+00  0.00000000E+00  0.00000000E+00
  0.00000000E+00  0.00000000E+00  0.00000000E+00
  0.00000000E+00  0.00000000E+00  0.00000000E+00
  0.00000000E+00  0.00000000E+00  0.00000000E+00
  0.00000000E+00  0.00000000E+00  0.00000000E+00
  0.00000000E+00  0.00000000E+00  0.00000000E+00
  0.00000000E+00  0.00000000E+00  0.00000000E+00
  0.00000000E+00  0.00000000E+00  0.00000000E+00
  0.00000000E+00  0.00000000E+00  0.00000000E+00
  0.00000000E+00  0.00000000E+00  0.00000000E+00
  0.00000000E+00  0.00000000E+00  0.00000000E+00
