Amorphous Sb                            
   1.00000000000000     
    21.0671579077798050    0.0000000000000000    0.0000000000000000
     0.0000000000000000   21.0671579077798050    0.0000000000000000
     0.0000000000000000    0.0000000000000000   21.0671579077798050
   Sn   Sb
    45   255
Direct
  0.7275135136328690  0.1468310247653765  0.8643480783609135
  0.8310358418814178  0.7567468159358676  0.9036356613898736
  0.9443016987083089  0.9789773547399435  0.3569647464504743
  0.3632067078687545  0.3859342588420458  0.8573149577818173
  0.6608515308933812  0.8217070847678108  0.7849890540589285
  0.5955714196739419  0.2958611443277366  0.9630912950109309
  0.5242117914462815  0.4925233669606300  0.0471357771108879
  0.8672475969257005  0.2568048692551700  0.5176521303252519
  0.5662346966360424  0.3083281939110802  0.4767702020765623
  0.1272683568240115  0.8845898064984999  0.7989035365674229
  0.2366495855522945  0.3776846298346993  0.1061879284847597
  0.2183865420368133  0.7117426454091353  0.5123743644479476
  0.3604140357228941  0.8387423590660601  0.2957263171117314
  0.7235033367043952  0.2902002808948838  0.6840049702170372
  0.1965199106301917  0.4256619632969031  0.7216309819729630
  0.2007634559308974  0.2474438276816481  0.2896867310700700
  0.5237415055104535  0.1486769766577443  0.9919409050537072
  0.0848569661919397  0.4886318076297705  0.3155521966312432
  0.0191748596034653  0.2818251139521127  0.8813772225426494
  0.4369226616420704  0.2498421570466940  0.2253023094966631
  0.0836416432615802  0.7338928146303889  0.3505932144271281
  0.5886811911908479  0.4248134520418241  0.8996817593638916
  0.5267680070130669  0.5054679809867103  0.7690632377418429
  0.0015903885694376  0.6150874729324414  0.2924773429191963
  0.1841298090614411  0.8427863240061917  0.9404619062910929
  0.8007523619105328  0.5305944626668151  0.5094950691269805
  0.8621661991722269  0.3651804171487743  0.9329976524358167
  0.8723048360015332  0.0487904341177866  0.8215471882796310
  0.3109325646216188  0.8319369764574803  0.8278699346376232
  0.6764120827495055  0.7003158249753363  0.2224790894467845
  0.9953420292480422  0.6917353589553220  0.1308386390455572
  0.1105928796257896  0.7372820048613263  0.7915958765196911
  0.9181183891299352  0.7931872123729654  0.0537638252530807
  0.1624363699713831  0.1133132269014512  0.1110227238867858
  0.7889171900670359  0.7452179391443084  0.1515207240485824
  0.0688490827543142  0.2843674940199491  0.3495233255867680
  0.3170554446549255  0.1405698454875094  0.8271919949843787
  0.3267072628254590  0.9635531201555063  0.8806241912358490
  0.5134311075775813  0.1134956089055341  0.3513277948158115
  0.4486856696830481  0.2130823051252102  0.0941209864892302
  0.4766906901827449  0.7915461421724733  0.0844375854079450
  0.6359360240734460  0.6646049925397336  0.7001460660301103
  0.3260382683335895  0.7331635228188648  0.6266424594484168
  0.3307832367697082  0.2537238674304689  0.9281398385766154
  0.4680850307609620  0.7774949055976379  0.9284619624695092
  0.0684954378865017  0.1454562650995143  0.3999795017319160
  0.5746788692181147  0.3644346954759898  0.7605561829959484
  0.7896978890412119  0.8517006807664589  0.4878382234273662
  0.3656777694761239  0.5949630601097361  0.9427854742438493
  0.3883264432441949  0.9286161369389609  0.4058259698543195
  0.7274594193721887  0.9259726535331532  0.9288069027225523
  0.2879927322214458  0.1575577216749230  0.1873979200701049
  0.3480914503433123  0.0392532053018619  0.5570344189887766
  0.4673808738162656  0.5951856403062594  0.4674417901397283
  0.1899698159790510  0.4720223434475521  0.4109590734701652
  0.5612418870894372  0.9509613386103511  0.0713715848253457
  0.8223340922248450  0.0414006276810873  0.9533029648717660
  0.5647352403719211  0.5980724177806125  0.8757684221602628
  0.7808849469541588  0.9833986679903493  0.7422642733040652
  0.8401100246971867  0.4476011483602355  0.0525651217364026
  0.3932197394886578  0.1059799932441178  0.2651299207766352
  0.6402231923214544  0.3250971880700672  0.1559231722022837
  0.0662509111353860  0.2644955199981230  0.7359750460838280
  0.3656733940284399  0.5376319253720480  0.2900321463050213
  0.2393094200356574  0.4203270908709651  0.5459004104098614
  0.0576312232001294  0.2840330740982266  0.0251658554120809
  0.0306242878766192  0.9925499640854427  0.2396740544192194
  0.3593978962391927  0.4066422248085573  0.4650946121805364
  0.3376075491481130  0.1429898164595980  0.6505480231710916
  0.7291521840427615  0.3216933286829747  0.9913432334827953
  0.5096602058079458  0.5617857477619179  0.3359861868593722
  0.0065289898699095  0.1320572433283619  0.7202711065658910
  0.6367946358669057  0.0450274178415399  0.5750878613989825
  0.4621412885318957  0.0614588977193370  0.1203102335017260
  0.3759434391021098  0.4131629946712664  0.0196279767045728
  0.4550332842215913  0.9386784750774568  0.9534055704404141
  0.5611293352840507  0.1259433562505748  0.2100720859878852
  0.4566910530322684  0.9797953496231890  0.6134910260195987
  0.8464218293226180  0.6003753223148278  0.3111378289542982
  0.1695337403405630  0.2391095735581336  0.9538736401607848
  0.6567069198625423  0.5139799573967124  0.9982055840993592
  0.2281296948980175  0.9385257475430899  0.7190151313774298
  0.6955545138880782  0.6038743864909699  0.8245275827225877
  0.8121343455866331  0.4085345296394654  0.6513307597979318
  0.9560179064447029  0.1552634016968773  0.9178952703625136
  0.9423732206203905  0.8173808957074904  0.5131786379529234
  0.2116377741272906  0.9917388597188862  0.4092103153072508
  0.2187596346157582  0.2817601183290346  0.4816724717062482
  0.6511311999901441  0.5450725515763823  0.3380709998535715
  0.0965075102703761  0.5936820572678044  0.7600832478116578
  0.8588904857948967  0.9304153321161442  0.6324309528135095
  0.5663691551381848  0.0523080201622873  0.7020343405261942
  0.5286291279237626  0.9586109694209262  0.3049945803780563
  0.7720919717398613  0.8725945051656644  0.0548640964357758
  0.6545826306845476  0.2298975093573850  0.2743071339491734
  0.1817099151808247  0.8530574721602291  0.4470268375163844
  0.9553085930336166  0.3582835871520839  0.1169987249846051
  0.8055650490613667  0.6402969301089064  0.0248328306717094
  0.9491910680842295  0.9204145816202449  0.8437537249685274
  0.0875416594620276  0.1256764653370271  0.2597950054590134
  0.6241718613661484  0.9965534924876323  0.2031074611068105
  0.9612750343849731  0.5256121787138978  0.0426581277107712
  0.4908027859294106  0.6467378325695745  0.9902322632767298
  0.7846663192960359  0.1499700713417239  0.4107744886721687
  0.2496994991974300  0.1323889186541503  0.0084967632592347
  0.5923411994021404  0.7408952676973850  0.3883829404474227
  0.2293437658514425  0.5314296743322894  0.2328950743580505
  0.4078237030302671  0.9647409240107614  0.2192459355111757
  0.6238923580530390  0.3997479604770160  0.3067246149979871
  0.9150472138937095  0.5198806451234118  0.7113195948807578
  0.6317311235531490  0.8687529458688295  0.3622350557034786
  0.3465876296165220  0.6803411679103537  0.2608895069731119
  0.0324202199249330  0.8131451264230021  0.9702582039822929
  0.9154733508115068  0.4109520388712752  0.2351863016179864
  0.4131018838297326  0.5788616229839630  0.6304236294976397
  0.1879668258084926  0.1742686209214308  0.7583095413654649
  0.6279701576539503  0.0489461297188350  0.0106973676898558
  0.1523383612574778  0.0573285662514488  0.7024411263842141
  0.2357720139741111  0.5472890758890563  0.8911664995727261
  0.6000381887866401  0.1904528499428119  0.5392937580932305
  0.7802024864503377  0.2974307746805168  0.1268799262886933
  0.9965175328364764  0.6847230402979011  0.6371807088017618
  0.4595769787852639  0.4751994023802736  0.9204296662409632
  0.2738581327339825  0.2857966380471500  0.7955802383879428
  0.1098493420880342  0.3610713221450425  0.4633402302957441
  0.8806951315114360  0.1219918011372049  0.2483827421135738
  0.7751169706755794  0.8160662014515373  0.3527383888276800
  0.1407570999973889  0.2533378968230113  0.1354130933176038
  0.9134864812735429  0.9518444311208220  0.9984312438093944
  0.0500959648646677  0.0055263638782668  0.5734865379541385
  0.7774131032277510  0.9975201615904384  0.4647593481587892
  0.1696219986599218  0.2646857872620573  0.6091829743307388
  0.6437262942002380  0.8401564372811141  0.2186358695476393
  0.0865605395260799  0.5699825392016725  0.9012351980716303
  0.2845971144608669  0.3341160214890433  0.6643036328479018
  0.0967251098721742  0.4223691542538136  0.6197359942876752
  0.2675753402139524  0.7034381308668365  0.7599976691990251
  0.4070637858810768  0.0724888278131024  0.9556985022489818
  0.0546592787121492  0.1222459508635977  0.0164259470803261
  0.2375522567028882  0.9458675788492210  0.0263315585563123
  0.8538393823257185  0.7932189598833588  0.7014524953908671
  0.0323868052566753  0.8647847214520330  0.4003676743124725
  0.1919521878620502  0.7022579907510182  0.2094594041908141
  0.9628788372381842  0.4200684898337363  0.5270144326243020
  0.7309431656950942  0.3036950950316351  0.8377794094314663
  0.0244886202203127  0.8322794570993985  0.6974373725834118
  0.7543921972560956  0.1526470837876697  0.1456746895475468
  0.0869196689212688  0.7902304711606410  0.2030366279629539
  0.1029336661582459  0.1582050567611111  0.8707269864528878
  0.4212388116472173  0.4421336724322649  0.5879784026074183
  0.3787161759893805  0.5260767667065109  0.7547145626749732
  0.8209736533568834  0.6747001270599466  0.7816404508316643
  0.9060349933938463  0.0036199268402274  0.1319035617030353
  0.3240502101475513  0.0403651468062307  0.1027617407593316
  0.5634183315093612  0.6504587226627802  0.1608548154953314
  0.7262979613382290  0.6952169330814185  0.5503578475467364
  0.0501998330151178  0.7208439057858677  0.4955417345778413
  0.4228048988018820  0.2300910860990902  0.7775843322142749
  0.2018321652257973  0.0374760100753324  0.9185840035646023
  0.3435454236971275  0.2113503548871540  0.3546181545173077
  0.8027070664786415  0.8878401969461359  0.2063995455683236
  0.4563900392968316  0.7163779953079513  0.7009852770605071
  0.1359956537636303  0.9450257534717001  0.1272391212605563
  0.9012891556579056  0.2330188852827209  0.0244839888162621
  0.6563562584871659  0.6554017364618393  0.0325118462087887
  0.9466217656603727  0.4422839386983327  0.3882146427054418
  0.6845097245224290  0.9284874386223992  0.6276749158331546
  0.4035922263216754  0.6689043972571785  0.1214964743199770
  0.2688926297969491  0.5667729602201204  0.5655319362499925
  0.5710317051390770  0.8899919398084939  0.6959539094431667
  0.6492792650047613  0.8524849030031834  0.5138806709593933
  0.4999502557372264  0.8376672490152313  0.2207381850357045
  0.2858557310349340  0.8228361310722657  0.1649154511849205
  0.8687129601184811  0.2600958860137008  0.2539036026517230
  0.3354531167202413  0.5434441138627463  0.4376635012121227
  0.4373649260084648  0.8016194929144809  0.5347334111003981
  0.3581972094357378  0.0670829227320400  0.4157609984491683
  0.2093374686530224  0.0786600651644457  0.2901624218785402
  0.3645196075411478  0.0125543252775114  0.7499688535305249
  0.0662937023129422  0.9949500380388087  0.8526608544905014
  0.8037226736039853  0.9693158574324878  0.3264985280703596
  0.7045513977621460  0.7810286055448773  0.6554196926955423
  0.9688308079537618  0.9591664344182199  0.7101082687392025
  0.1686352589442778  0.6130513343701239  0.3443560390348418
  0.2871927864732540  0.6819083803089678  0.3921130376257268
  0.0257212378246409  0.1595045610163655  0.5790353888694926
  0.1581653830748933  0.3462585858198480  0.8423216150776867
  0.3499233644815179  0.2543995982040179  0.5541656394203301
  0.5021273115551789  0.6999655360793250  0.2867774542516743
  0.5944456362078278  0.6522583134087783  0.5268620596714492
  0.1677686240630154  0.5570717742757529  0.0324345657453839
  0.0743624211232497  0.0048884414728037  0.4385290006706816
  0.2341419175884031  0.5577292437159920  0.7503242711553073
  0.8715816098444175  0.1577396622461180  0.7157632629761281
  0.1187456030224633  0.4232420999518307  0.0204637495705484
  0.5550612886067885  0.7228233061885468  0.8099181229703353
  0.9127221206753483  0.7763881609484571  0.3737192195952626
  0.0534659571686358  0.9798939369606854  0.9905275577234781
  0.4401880580694559  0.2241707632710767  0.4490016752102222
  0.8674819687623094  0.6562744799882736  0.4386986410367235
  0.9223703881996949  0.9712992596106040  0.5094096404825769
  0.3051691830959346  0.8777996421662432  0.5058709736803090
  0.7736346244336644  0.0957073380127281  0.6030316197060684
  0.6411217626552084  0.8222899346381191  0.0716314674673404
  0.2178376617616568  0.9755181289658569  0.5601409136514217
  0.0582284945861987  0.4444783798895934  0.1435769164480211
  0.4846381769876980  0.0904370278643514  0.4901275953433118
  0.6197391282460536  0.1961506094382398  0.0972584783516516
  0.6448921315015458  0.1441759971107976  0.4122884572458338
  0.2889557520593427  0.3516693754898785  0.3417977624151686
  0.7650447203408093  0.9980325646413395  0.1189771209510359
  0.0174346688493772  0.2557190316855761  0.1935286646220201
  0.3180221138716404  0.2552436529447378  0.0673667710313962
  0.9042277435953860  0.7321840531913615  0.2356759074084789
  0.4054288523516918  0.6454405509712766  0.8133633483834484
  0.7691308791490371  0.4145552931626253  0.2555490705434162
  0.9310944797122502  0.5434538416533541  0.1824908199918958
  0.9325004166970097  0.3376516633255639  0.7738805183171394
  0.1896106058693021  0.7033398159970445  0.9032983058249906
  0.0150480893034400  0.2952155271771850  0.5885341249435888
  0.9289422380576330  0.1224656612615293  0.3826794394949458
  0.1335586046685196  0.9046854075554047  0.2948447400149427
  0.0863793568344457  0.5622859288853648  0.6167073046347211
  0.2939640111183788  0.5099443174205466  0.0998192186791137
  0.5230902397987419  0.4691914822709392  0.5045782921767468
  0.7953562063983513  0.8672736948988287  0.8224847294158345
  0.5873379080597593  0.2060894096461516  0.8533485536388717
  0.0877662836978692  0.6843345827160969  0.0004194829564974
  0.8784184824019635  0.2881597775626853  0.6582970996625342
  0.6885400182063538  0.3901745870989806  0.4317955740460728
  0.4132578649329144  0.7484952339062140  0.4057000758114761
  0.0751932412957671  0.8587370419918416  0.5694863510746473
  0.2932156589125272  0.6685126351544886  0.0332398539927470
  0.4670941887658711  0.0798529227645094  0.8235913995179673
  0.4246058745935763  0.3519375170085307  0.7242641849429309
  0.0197925785948831  0.4519810888658413  0.9067093682711431
  0.4223864672462763  0.5320023931398646  0.1604179801599807
  0.6774311291381536  0.7266760118705445  0.9202204741481376
  0.4979186489942425  0.4255960174034164  0.3702365652527850
  0.2188060055724443  0.1527782485507272  0.4193057037911088
  0.2418480889650516  0.4116497166080844  0.9304317482002170
  0.7324356608171382  0.2189139342025467  0.5598935336795914
  0.9609921196602923  0.7721096244067343  0.8566351272936952
  0.4766359305464044  0.3067752010481950  0.5962062033184626
  0.3405592980413857  0.3428931544307798  0.2091137651832782
  0.1450886807822180  0.5758281012489345  0.4976536734808658
  0.1663825362662463  0.4031475794440612  0.2307555766260754
  0.7086393258062159  0.4777575741998461  0.1333449083363307
  0.8098521952612894  0.4222366494917492  0.8201208403841216
  0.1675688396617987  0.7147493234082368  0.6596112148250406
  0.9909848588696694  0.6024925725812528  0.4371968192040283
  0.9536619900395826  0.6428791087205453  0.7720068795124081
  0.4966784294891622  0.9189415664423972  0.4959368999311816
  0.8732131307298595  0.7122512442883648  0.5872522127237817
  0.3203002410868190  0.7772956661283910  0.9567144962782176
  0.4604025778091955  0.2867092280897562  0.9012240089194434
  0.7983842506647896  0.6007049657557708  0.6378058699646489
  0.5908587606583000  0.5177469815412079  0.2014434692514142
  0.8237319525418760  0.3897654142261519  0.5128679986517229
  0.6747531833794930  0.4741967601777513  0.7764130652578747
  0.6922182966806553  0.4927895584223880  0.6333084686158923
  0.7619007312522181  0.1825571328068495  0.0039620443403501
  0.4960963902966375  0.3537600728193432  0.0795768598671503
  0.7895517260966303  0.5299453984854436  0.9414672737182810
  0.9293670464407184  0.2932750045252315  0.3832745178579581
  0.6461619786090488  0.0280679842206187  0.8750558176761237
  0.9507002862118475  0.5590456184176287  0.5696205714296977
  0.5605830508355141  0.5581547791451107  0.6321786140880464
  0.5403818933044486  0.9470276420356446  0.8372512718757349
  0.3698126713823013  0.8819041064789894  0.6657940407357554
  0.6496809650090215  0.5302529706415503  0.4765624890949158
  0.4426210359954698  0.8402316805291097  0.7792495075651930
  0.7642591773822703  0.3022130867754446  0.3597653283655712
  0.5327185009805027  0.2615532575723877  0.3389035028892333
  0.7476356980971054  0.0975988117747685  0.2872728076756890
  0.8141224740941013  0.4800027644936044  0.3745144808592598
  0.1118922006878141  0.6032996743279480  0.1603798004287341
  0.2117955304276441  0.8351151240207509  0.6211743059104451
  0.5965999348168444  0.2226110546954506  0.7183293749437045
  0.6005096409778810  0.8466648218228481  0.9258958808252676
  0.7985438270738251  0.5915130249787995  0.1632190074570145
  0.9096762986324242  0.1177237130518132  0.5346679639237594
  0.4729397454316990  0.3971462481572143  0.2069542993499432
  0.7072924572745251  0.6768384306920305  0.3531965698531047
  0.9587442295173854  0.1434959686240502  0.1125281997333926
  0.6332050691843006  0.0035690401465155  0.4458285835346493
  0.0235212887065434  0.4500142394434441  0.7492008302856845
  0.3630525445651652  0.8711826924408169  0.0533200831601899
  0.9422904174285983  0.8526545298798281  0.1804964879060111
  0.8484774113008070  0.2321679380920561  0.8493699059592763
  0.2530898065448483  0.9558820685688373  0.2151361761779846
  0.9311188966614999  0.5535876845564276  0.8737183947729216
  0.2034063631825498  0.1298576296852699  0.5860768140681540
  0.6944916368579149  0.0974735663518908  0.7298177597536691
  0.5533441372790173  0.7643623926005149  0.6193589679274317
  0.9452329650004588  0.6501896592541450  0.9854960155070065
  0.1696358904233242  0.8087984306633071  0.0857961749302767
  0.4888686950672699  0.1665582628741526  0.6432544818147544
  0.6186954265363644  0.3690937056741592  0.6249309981551933
  0.2161363957778921  0.7872987717904664  0.3302288145879468
 
  0.42043243E-02  0.11003203E-02  0.10884779E-02
 -0.16267685E-02 -0.54136626E-03  0.88279415E-04
  0.47032637E-03  0.25017362E-02 -0.81736452E-03
 -0.17349664E-02 -0.63349225E-04 -0.18508268E-02
  0.17787442E-02  0.19906382E-02 -0.14581039E-02
  0.11903716E-02 -0.11194449E-02 -0.12917130E-02
 -0.43533316E-03  0.89330526E-03  0.35668963E-02
 -0.16161672E-02 -0.28190596E-02 -0.16581477E-02
 -0.18941393E-03  0.15695930E-02 -0.10201822E-02
  0.20233736E-02  0.13345065E-02  0.62378649E-03
 -0.14131522E-02 -0.32020669E-04 -0.64935145E-05
  0.98087555E-03  0.51553003E-03  0.25443829E-03
  0.23724406E-02 -0.72815490E-03 -0.52523256E-03
 -0.11597315E-02  0.11301780E-02  0.18583351E-02
 -0.22512408E-02  0.30324206E-03 -0.85897425E-03
 -0.41772800E-03  0.11968208E-02  0.86079812E-03
  0.19272122E-02 -0.11639086E-03 -0.29384035E-02
 -0.25420896E-02 -0.14164200E-02  0.91756069E-03
 -0.34843811E-03  0.24653425E-03  0.11326224E-02
 -0.12199304E-03  0.13116628E-02  0.11808997E-02
  0.66057150E-03 -0.31440565E-03  0.14463446E-02
 -0.14342187E-02  0.22245300E-02  0.30018676E-02
  0.15415239E-02 -0.25870800E-02  0.90880899E-03
 -0.15715205E-02  0.37509257E-03 -0.18966180E-03
  0.11124998E-02  0.15686708E-03 -0.81571964E-03
  0.14410417E-02  0.52754814E-03 -0.82066403E-03
  0.64948479E-03  0.48120348E-03 -0.18109937E-04
  0.74346197E-03  0.49809638E-03  0.15228042E-02
  0.81272698E-03 -0.10443323E-02 -0.19156855E-02
  0.79066341E-03 -0.27776271E-03 -0.26809149E-02
  0.17952132E-03 -0.30269447E-03  0.27300319E-03
  0.69657622E-03  0.87971229E-03  0.49811663E-03
  0.14325342E-02  0.11245848E-02 -0.12012454E-02
 -0.25985589E-02  0.14909539E-02  0.10829118E-02
 -0.34694182E-03  0.16834327E-02 -0.23032795E-02
  0.15254538E-02 -0.57461151E-03 -0.86064485E-03
 -0.94551581E-03  0.73696181E-03  0.23330414E-03
  0.17476186E-02  0.15223930E-02 -0.62270108E-03
  0.30982067E-03 -0.20853252E-02  0.42269523E-03
 -0.11500958E-02 -0.70574801E-03 -0.20716100E-02
 -0.11261533E-03  0.17347080E-02  0.42721651E-03
 -0.33259572E-02 -0.88988358E-03  0.44169152E-03
  0.15621070E-02  0.75236443E-03  0.72577450E-04
 -0.89147275E-03 -0.18039144E-02  0.10674063E-02
  0.77646605E-03  0.13125561E-02  0.57460281E-03
  0.29191934E-03  0.70498766E-04 -0.18026730E-02
  0.43389751E-03 -0.68073415E-03  0.23717830E-02
  0.46203404E-03 -0.96833592E-03  0.22404279E-02
  0.80279115E-03  0.12817215E-02  0.14746081E-02
 -0.18529421E-02  0.94137608E-03  0.17445618E-02
  0.61358886E-03 -0.37483869E-03 -0.10596527E-02
  0.17594996E-02 -0.10133155E-02 -0.10682619E-03
 -0.96446623E-03  0.93607475E-03  0.34010844E-03
  0.62884095E-03  0.24864288E-02 -0.23418170E-02
 -0.22063366E-02  0.34416071E-03 -0.10460925E-02
 -0.11793357E-02  0.13561862E-02 -0.73705146E-03
  0.15704971E-02  0.12466742E-02 -0.27075990E-03
 -0.14232505E-03  0.32883026E-03 -0.12049442E-02
 -0.14552880E-02 -0.67270574E-03  0.12938548E-02
 -0.11421960E-02 -0.76151139E-03  0.13844463E-02
  0.24159262E-02  0.69133561E-03 -0.27575268E-02
 -0.28038459E-02  0.14900421E-02  0.29221494E-02
  0.33034148E-03 -0.89568317E-03 -0.13189199E-03
 -0.28036632E-02 -0.98333299E-03 -0.11322604E-03
  0.14251335E-02  0.54372413E-03 -0.33565352E-03
  0.24502890E-02  0.77098099E-04 -0.23043980E-02
  0.22128747E-02  0.80243185E-04  0.15540787E-02
  0.21064872E-02  0.26760384E-02 -0.18064967E-03
 -0.84802780E-03  0.23338464E-04 -0.33797555E-02
 -0.26538193E-02 -0.40464573E-03  0.69753781E-03
  0.37153784E-02  0.84710318E-04  0.20742528E-04
  0.33554888E-02 -0.21151883E-02 -0.10341000E-02
 -0.18570317E-02  0.26124407E-02  0.20394579E-02
  0.47505837E-05 -0.15694387E-02 -0.82788024E-04
  0.14338328E-02 -0.12162035E-02  0.74382757E-03
 -0.13944822E-02 -0.20871190E-04 -0.14664090E-02
  0.12710977E-02  0.29642500E-02 -0.59450776E-03
 -0.12636442E-02 -0.14523897E-02  0.20780698E-03
  0.47138488E-03 -0.20366547E-02 -0.46448345E-03
  0.70017437E-03  0.17042498E-02 -0.25198438E-03
  0.23780167E-02 -0.13607572E-03  0.52896647E-03
  0.12358507E-02  0.10261814E-02  0.25844231E-02
 -0.81597367E-03 -0.27388096E-03 -0.72236562E-03
 -0.18676980E-02  0.16981868E-02  0.12513401E-03
  0.89515436E-03 -0.40099521E-03 -0.20749191E-02
 -0.11927156E-02 -0.81121821E-03 -0.67418874E-03
  0.43485475E-03  0.19629122E-02 -0.29126998E-02
 -0.79692105E-03 -0.12842206E-02 -0.18132506E-02
 -0.43195213E-02 -0.16763202E-02  0.15057350E-02
 -0.40894739E-03 -0.99680238E-03 -0.41143017E-03
  0.33204982E-02 -0.17896178E-02  0.21869984E-02
  0.66800503E-03  0.28633248E-02  0.63756960E-03
 -0.86979435E-03  0.99618885E-03 -0.16410667E-02
  0.12149181E-03  0.15758619E-02  0.98824430E-03
  0.37773339E-02  0.23374474E-02 -0.75991167E-03
 -0.52736651E-04  0.17664349E-03 -0.29943518E-03
 -0.89456374E-03 -0.20550918E-02 -0.46877526E-03
  0.42310369E-03  0.20360509E-02 -0.12651915E-02
 -0.19230531E-02 -0.74033729E-03  0.13656608E-02
 -0.25973378E-02 -0.81587457E-03  0.56463420E-03
  0.48092221E-03  0.47265582E-03  0.23122585E-03
 -0.22461112E-03  0.17826260E-02 -0.14105533E-02
 -0.11375475E-02  0.36395808E-02 -0.24786265E-03
  0.65403637E-03  0.62846902E-03 -0.57814613E-03
 -0.86407037E-04 -0.15635308E-02 -0.17244850E-02
  0.86418442E-04 -0.44170860E-03 -0.75646439E-03
  0.12372476E-02 -0.13866538E-02  0.59612864E-03
  0.33697640E-04  0.48261476E-03 -0.41096299E-03
 -0.63625145E-04 -0.54904840E-03  0.12377328E-02
 -0.26063883E-02  0.12124400E-02  0.55150098E-03
 -0.73692683E-03 -0.17434390E-02 -0.16150777E-02
  0.34106864E-04 -0.19414231E-03  0.11943155E-02
 -0.45340496E-03 -0.76132517E-03 -0.29800162E-03
 -0.48963476E-03  0.16162625E-03 -0.17043819E-02
 -0.32686597E-03 -0.86553534E-04  0.18080834E-02
  0.15314631E-02  0.18414920E-03 -0.10493660E-02
  0.34229038E-03  0.17112009E-02 -0.13050510E-02
 -0.45925459E-03  0.19040329E-02 -0.95705398E-04
 -0.26385046E-02 -0.22834686E-02  0.22385528E-02
 -0.25753965E-02  0.11790647E-02 -0.77493984E-03
  0.13711580E-02  0.65876615E-03  0.39363389E-03
  0.38922358E-03  0.79198221E-03  0.16625012E-02
 -0.68111058E-03 -0.10967868E-02 -0.77993695E-03
 -0.99557262E-03  0.21461870E-03 -0.10156732E-02
 -0.10028266E-02 -0.13024542E-02 -0.33335254E-03
 -0.13175944E-02  0.45854299E-03  0.22183162E-02
 -0.62539056E-03  0.61610705E-03  0.24408056E-03
  0.11142791E-02  0.23886868E-02 -0.19608854E-02
 -0.17854606E-02 -0.17366892E-03 -0.53307797E-03
 -0.20168698E-02 -0.79422370E-03  0.36764787E-02
  0.19395696E-03  0.14432795E-02 -0.24033078E-02
  0.54741424E-03  0.84392072E-03 -0.88533989E-03
  0.21238865E-02  0.14365916E-02  0.20293977E-02
 -0.89204191E-03 -0.14809270E-03  0.57826409E-03
  0.22573397E-02 -0.40471954E-03  0.11766480E-02
 -0.13002316E-02  0.20383320E-02  0.70362037E-03
 -0.16133673E-02  0.17261869E-02 -0.34166932E-03
  0.16766489E-02  0.57429424E-03  0.33961458E-02
 -0.19675644E-02 -0.15811284E-02 -0.12572142E-02
  0.17938221E-02 -0.31546020E-02  0.15921601E-02
  0.95362195E-05 -0.12290173E-03 -0.18109259E-02
  0.23748956E-02  0.61466857E-03  0.13077440E-02
 -0.14683159E-02 -0.36181711E-03  0.72357499E-03
  0.17227324E-02  0.15452725E-02 -0.99139262E-03
  0.49265703E-03  0.19679966E-03  0.20224818E-03
 -0.22098935E-02  0.30905017E-03 -0.14254709E-03
  0.44459447E-03 -0.17983965E-02 -0.20012089E-02
  0.17305965E-02 -0.20129992E-02 -0.14010627E-02
 -0.53309026E-04 -0.48074520E-04  0.14582136E-02
  0.64027137E-04 -0.10903436E-02  0.34088333E-03
  0.18866015E-02  0.49285163E-03 -0.96877258E-03
 -0.12445177E-02  0.67325171E-03  0.25531992E-02
  0.74224723E-03 -0.63277596E-03 -0.20859419E-03
 -0.21721659E-02 -0.12769290E-03 -0.32307776E-03
  0.20796352E-02  0.12567788E-02 -0.68479990E-03
 -0.19053320E-02 -0.63507135E-03  0.17828035E-02
  0.41160975E-03  0.12545686E-02 -0.17307316E-02
 -0.23334097E-02 -0.80461236E-03 -0.12160645E-02
  0.12402786E-02 -0.15091858E-02  0.73288294E-03
 -0.50513552E-03 -0.86800967E-04  0.76692278E-03
  0.12149117E-02 -0.21504694E-02 -0.10322218E-03
  0.89959127E-03  0.12136281E-02 -0.86403111E-03
  0.73787792E-03  0.18871638E-02  0.52053595E-03
  0.16019258E-02 -0.11023538E-02 -0.16670066E-02
 -0.10544007E-03 -0.39505540E-02 -0.42754583E-03
  0.41653552E-03  0.76319060E-03 -0.19112776E-02
 -0.13277475E-02 -0.16720662E-02  0.21795512E-02
  0.28781745E-02  0.40034944E-03  0.27914911E-03
 -0.10598598E-02 -0.10903216E-03  0.66426268E-03
 -0.10187136E-03 -0.82974951E-03  0.17534810E-02
  0.14484897E-02  0.48481110E-03 -0.12447495E-02
 -0.61878894E-03  0.33554302E-03  0.73485193E-03
 -0.69522167E-03 -0.47985293E-03 -0.98159908E-03
 -0.24148240E-03  0.24788271E-02  0.62295438E-03
 -0.37159497E-02  0.10129849E-02  0.11731170E-03
  0.29053514E-03 -0.11305684E-02  0.99304131E-03
 -0.26156446E-03 -0.23170466E-02  0.18280652E-03
  0.23545994E-02  0.19748295E-02 -0.59836471E-03
  0.63853976E-03  0.11098339E-02  0.55384371E-03
 -0.50324541E-03 -0.17709431E-02 -0.28281050E-03
 -0.10281045E-04  0.32477953E-02 -0.25634694E-02
 -0.12696079E-02 -0.68415013E-03  0.20292340E-02
  0.92869841E-03 -0.19811565E-03  0.20817431E-02
  0.40162203E-03 -0.29562432E-03  0.40483485E-03
 -0.22741920E-02  0.66394028E-03 -0.68896251E-03
  0.14370255E-02 -0.18655828E-02  0.93554344E-03
  0.14846701E-02  0.24495869E-02 -0.17182875E-02
  0.15311067E-02 -0.14291856E-02 -0.15204055E-02
  0.25707705E-03  0.14063075E-02  0.94497651E-03
 -0.13576479E-02 -0.13097617E-02 -0.12327448E-02
 -0.22359617E-02  0.92941700E-03  0.97038780E-03
  0.49678459E-03  0.22029700E-02 -0.16385353E-04
  0.89434417E-03 -0.16886183E-03 -0.10357922E-02
 -0.10204420E-02  0.30119416E-03  0.19664224E-02
  0.14054782E-02  0.12658101E-02  0.12537931E-03
 -0.52186473E-03  0.10707394E-02 -0.12038593E-02
 -0.29537474E-02  0.49616287E-03  0.20552947E-02
  0.10933087E-02 -0.15589675E-02  0.21344658E-02
  0.85563479E-03  0.21911004E-02 -0.53781182E-03
  0.29433992E-02 -0.25405509E-02 -0.56826949E-03
  0.56580186E-03 -0.24529438E-03  0.37083006E-03
 -0.10226927E-02 -0.20697630E-02  0.37676059E-04
 -0.29023943E-03  0.83186838E-03  0.28906041E-03
 -0.14436461E-02  0.13360199E-02 -0.34179637E-02
 -0.22756490E-02 -0.76239826E-03 -0.29304147E-03
 -0.19938566E-03  0.64011910E-03  0.45678634E-03
 -0.92624705E-03 -0.11547590E-02 -0.85644709E-03
 -0.43574438E-03  0.13113407E-02 -0.84184766E-03
 -0.33259336E-03  0.44330504E-03 -0.13711372E-02
 -0.25604942E-03  0.21149785E-03  0.10884318E-02
 -0.11939413E-02 -0.34626352E-04  0.71463488E-04
  0.55722651E-03  0.17123518E-02  0.19988425E-02
  0.25630966E-02 -0.61855691E-04 -0.18481798E-03
 -0.78887062E-03  0.13097730E-02  0.47749634E-03
  0.42240518E-03  0.10857803E-02 -0.16789673E-02
 -0.16828020E-02  0.27221817E-03  0.77366678E-03
 -0.13494909E-02  0.10259469E-02 -0.17551690E-02
  0.48723052E-03  0.90746220E-03 -0.80789604E-03
 -0.91861336E-03  0.68784163E-03 -0.10029408E-02
  0.25558074E-02 -0.61547126E-03 -0.61232995E-03
  0.67426749E-04 -0.81786591E-05 -0.19586419E-02
  0.11990872E-02 -0.40760517E-04 -0.22042417E-02
 -0.18629506E-02  0.20934720E-02 -0.51009421E-03
  0.26162000E-02  0.41208172E-03 -0.15617332E-02
  0.98066491E-03  0.58929919E-03  0.39937218E-02
  0.40862281E-03 -0.17416033E-02 -0.21858425E-02
  0.90822346E-03  0.15229649E-02  0.15120443E-02
 -0.68075266E-03  0.62443313E-03 -0.44718443E-03
 -0.46395470E-03 -0.43514627E-02 -0.11558088E-02
  0.18755890E-02 -0.19554332E-02  0.56009998E-03
  0.21984587E-02 -0.23100387E-02  0.42021564E-03
  0.19424832E-03 -0.24937975E-02  0.13337381E-02