Sb                                      
   1.00000000000000     
    17.6173007965000004    0.0000000000000000    0.0000000000000000
     0.0000000000000000   17.6173007965000004    0.0000000000000000
     0.0000000000000000    0.0000000000000000   17.6173007965000004
   In   S 
   100   100
Direct
  0.9000282033360871  0.5971437838551354  0.7010600645256855
  0.5914945484406819  0.8214645544392484  0.5130839274188438
  0.4978022427634011  0.9459294635294843  0.0221168448232283
  0.9387822248516665  0.4770270278082953  0.4818999572226185
  0.8754769751911466  0.1065760773973579  0.3895544811326925
  0.5095212112059192  0.0702553251362585  0.6478182637025808
  0.2134489221512329  0.7377770369714229  0.1602427616549543
  0.9271254930042596  0.0748774206648818  0.7670239304273611
  0.1140614327169838  0.3842743960883307  0.4583270067176377
  0.0537101313693436  0.8936520019534404  0.4656574647082024
  0.6001623581224999  0.1083808796604872  0.1003994184897587
  0.0375389861832821  0.3297852795368121  0.9270091306315288
  0.6666623230286036  0.5750301675388609  0.8583601330104060
  0.4968934498619417  0.1597230662615314  0.8741894304884738
  0.7732871963752436  0.4878721081193692  0.0390211989061292
  0.5108780899987755  0.2723364466693625  0.6724445158170568
  0.2736142121808066  0.5001668306054540  0.5085585996522652
  0.2594351699531438  0.2794230825419183  0.3379521555897495
  0.2012606597058099  0.5384636813124244  0.2767497625312254
  0.5599940093461441  0.9217118747635631  0.7331242769448562
  0.0742785326741212  0.1784579803471017  0.3626184278856502
  0.7690393456404238  0.8464195543633115  0.6866261661769215
  0.5802452043367159  0.9744266132696331  0.2769741937309977
  0.6367220411470284  0.6907546683473205  0.4382133782574099
  0.1238428871373793  0.1706383041140876  0.0227557696981131
  0.7059914805568274  0.4652491976649664  0.4671107325398562
  0.7319481052659659  0.1200298783833229  0.6435286901850762
  0.3003205298004121  0.2178501762743725  0.6056388644165842
  0.2130397358315972  0.7105914778618619  0.6338921020382904
  0.4954319561113900  0.7886645348667508  0.3036989825687004
  0.8374193908322056  0.8050897996108798  0.3234990239263020
  0.2480207570432131  0.1491087315153925  0.2337785605688933
  0.2765722812995129  0.6280795240495460  0.8138467884537935
  0.2656884046485993  0.7191669668898580  0.3950615365186734
  0.3709034522060236  0.7509698758807067  0.1408452634265736
  0.9731808303324051 -0.0050995161647297  0.2401533227956291
  0.3107397872120455  0.1841191517844941  0.8166116244555079
  0.1859545420796581  0.8516339895458415  0.9906305378784231
  0.6859420589383913  0.7277565024293455  0.8918355315256259
  0.1028484101138677  0.1275814442701793  0.5757114012953711
  0.3144969834038965  0.9599650458636010  0.1193796156420726
  0.6870546769938581  0.1371454790145245  0.8618184691529365
  0.1514084905663319  0.2692135691651154  0.6492218241184229
  0.6403602959463095  0.1446905175898740  0.4023751171403931
  0.0499926936255883  0.5893197103571701  0.0938109955757918
  0.0417908565868668  0.6493144925009190  0.8539315819787868
  0.7732052661300963  0.9502740419714086  0.4753434104071886
  0.5157934837451938  0.7330627071731017  0.7995836875198625
  0.6924411340641367  0.7431735521200202  0.1994393652814674
  0.6743468472144886  0.4615859184806231  0.2104111768294440
  0.0136016881736154  0.8297234597605309  0.7718767539033522
  0.4438689114327844  0.5312200737716088  0.1806063942432365
  0.9846379272365220  0.8011081268303762  0.1437807615153559
  0.7943983852789884  0.9485948975989006  0.8760084794067224
  0.8810449500105800  0.9573409322385161  0.6672050159458179
  0.3797084691240175  0.9800930615125756  0.4277704650041397
  0.4515663168800816  0.6569180681654917  0.9404387366311826
  0.2478288613533801  0.5439159676262438  0.0385229083136797
  0.0928389670024275  0.6182255118663559  0.4992907523516393
  0.3820283865079621  0.4449989005915345  0.7605625732522400
  0.4568558044224317  0.1377260315364749  0.3064036442260594
  0.3579510010753415  0.3924534585738738  0.9268073313248107
  0.1520389684959406  0.1782144160230584  0.8558195728819016
  0.8111825942272772  0.3052000141176134  0.8122454651422599
  0.5475297197481307  0.3205033519808198  0.3511230406319046
  0.7667177738831578  0.5587622405058952  0.2957446949423255
  0.9913531479201877  0.6155679319190436  0.3025516840063719
  0.3803846673961686  0.8287206911470468  0.6118438617987723
  0.0078903432401647  0.3686759605831476  0.1355258636211488
  0.4855559242348289  0.3251459977396222  0.1155036382345674
  0.2758948279698284  0.0475330993014254  0.6390686002482118
  0.0386858272009454  0.4472215121105594  0.7286362393006507
  0.9002153988815335  0.7577621238655584  0.5620738433819810
  0.7900209015392895  0.9868461680243269  0.1841818146975278
  0.2343311516728931  0.0517431800882235  0.4231898867670418
  0.4896922994043100  0.4738978305563841  0.5039061085486404
  0.9878118342099923  0.9909402584716813 -0.0084329598979296
  0.4447146656505384  0.5763442560815785  0.3339633060124992
  0.9060425524977878  0.7624724778466689  0.9566716968108226
  0.6866492444170313  0.2911466348487981  0.6013881838362014
  0.6824439261047615  0.3911083837020692  0.7661101410125326
  0.1245468391309856  0.8928202040926008  0.2923794753228370
  0.3910735345723156  0.1210866074498704  0.0615458647116512
  0.7274788877184010  0.2718551633208542  0.0561586500987047
  0.5723758491955945  0.5442998433181391  0.6749842818426474
  0.2487958955179162  0.3415473238884055  0.1373127389276338
  0.4518678534921368  0.6409852873964441  0.6059508266597203
  0.3137775228797717  0.8282967161839637  0.7514373628684179
  0.3681017206277070  0.8035973369982540  0.9577893837584701
  0.3435082476848202  0.9910156759376864  0.8908246714611570
  0.5773524951911602  0.7563546476747295  0.0990386727581757
  0.9347974029315800  0.3531977624565816  0.2787312543415211
  0.9044965356369689  0.1749974377574754  0.1273487851384654
  0.8190834153258592  0.3207363868202366  0.3860386953791728
  0.1052758583816086  0.9572756737671764  0.7974181355840351
  0.5757971423060824  0.4554379788703785 -0.0062827616676269
  0.7106860913610077  0.8927767636443351 -0.0034483454930164
  0.4365291597511994  0.1993290228457589  0.5057057365417172
  0.8983076607062651  0.4999072642129136  0.9475975008807767
  0.9133151431259895  0.2543023483915181  0.5729874671846670
  0.2001702403582564  0.1908209630388311  0.4524493522746747
  0.7734527166020673  0.3803844057635326  0.1395535246990086
  0.4039150131040802  0.2540044751200255  0.3688299218366644
  0.2455023509453065  0.7605022095138632  0.8579562355494744
  0.8750812265944528  0.8350644263532845  0.8278653332885989
  0.3015769222236960  0.5717880223482300  0.3884801288979680
  0.4403403946421653  0.4486472339024699  0.0556353147079437
  0.5873346308709581  0.3042407128173767  0.0176386528493380
  0.8143330257877823  0.6825780178537733  0.2403635643684172
  0.3812465969128183  0.7084988917096158  0.2926069898388307
  0.9710580334422162  0.8132310259511661  0.2841606188835055
  0.4931458091314651  0.0777892499032939  0.4359002259487759
  0.7256971712591822  0.0316854603324925  0.7755249071918161
  0.0781317644765305  0.3193749246982015  0.3357350663100609
  0.6699891468343812  0.9189801818833813  0.5782150757651534
  0.3879868906559119  0.2212774930187045  0.9406326668862005
  0.3916744404915604  0.9677155711038121  0.5765329068112360
  0.3698940868367012  0.2522618625940826  0.1483005056234735
  0.8904639792777329  0.4923186744958188  0.3312735321399790
  0.7977917152401007  0.7106122756928466  0.6477179838048998
  0.6095510651685521  0.4393649358493894  0.5666972449205242
  0.3000736493229447  0.5718403443782885  0.1669295119208845
  0.0204446459976502  0.4692809414134142  0.0194952494502190
  0.7092956321538447  0.5345060003899591  0.7267828594087820
  0.8595360899025137  0.1992439180215099  0.7241571956143282
  0.8916742477568852  0.0550794947342836  0.9080107835876969
  0.2737584895859087  0.4047000116789003  0.2614788893934585
  0.1787736558380555  0.5334650936337165  0.7730786915510445
  0.9169099767494624  0.3996059781777077  0.8441180088502335
  0.1180998938007885  0.3040416130901925  0.7853939034826549
  0.7694803804890581  0.7548729633686547  0.0082737984944064
  0.3650478618064129  0.2851377397286768  0.7250011702793344
  0.5175634235820602  0.7828622116158993  0.6333414387655403
  0.8391066336271782  0.0461693516250703  0.5603726677889913
  0.1437735235974195  0.0636661200248364  0.3042510080096317
  0.5850906493716033  0.1957838938561485  0.2751051715428691
  0.2776120413062163  0.8723532545017910  0.2599122849199644
  0.5068365633826820  0.8857321172782454  0.4052893440288088
  0.0523045593216664  0.3534977078835796  0.5816528352020148
  0.1635592461935575 -0.0040309673728674  0.5419826814529977
  0.6746681448369277  0.8383694470735249  0.7960066373030044
  0.4517097123047549  0.4277404374633110  0.3815576704553906
  0.8097497836181263  0.3850397116925391  0.5225484514272984
  0.0737465459132538  0.0945771335106096  0.7617128533044686
  0.4819758701701237  0.8471385548563157  0.1706400667238523
  0.0771756552678032  0.5053480279088060  0.2039944815013766
  0.2249739587113081  0.4058463053495335  0.0136224930715932
  0.3453550819908008  0.7149717648627146  0.5316238841016915
  0.8911454059109883  0.9685701080748500  0.3780149217604213
  0.0355817943129928  0.6967011548600359  0.7206355673242930
  0.5429296444858277  0.3995262981219761  0.2227582082856874
  0.4347469760082939  0.8688426452284908  0.8331739570512312
  0.7468160947315413  0.5975490248608347  0.4378017605991488
  0.3866192859814435  0.4985308490060149  0.5975089406429426
  0.9530831843535102  0.6321128901767632  0.5179043607417083
  0.9227319484477390  0.2890251920485498  0.0465907805047735
  0.1007197684731537  0.5167212427906525  0.3959660859614444
  0.9905257039619479  0.1449150230939187  0.4711705423053806
  0.7750312058572800  0.1936011635471794  0.4424573688866488
  0.6514973564087022  0.9580329095648100  0.1095840563536534
  0.3633209085966654  0.0509406176185119  0.2522423893483834
  0.3920689190952385  0.6608673132549246  0.7390871303131143
  0.5959963055790650  0.2312019910334768  0.8019045767840997
  0.1192563193246198  0.9824978918860338  0.9410356312599346
  0.9098067212448768  0.8875157884896000  0.0539040698089031
  0.1769243281856282  0.5551491275516615  0.5956981649570779
  0.1506062899183211  0.7459249251715659  0.4847442289276797
  0.7817774828394797  0.2214166585297524  0.9293592448785738
  0.8020696571171559  0.8038872654725175  0.4609195572951447
  0.8999967323468425  0.6261705855048607  0.8783845821650931
  0.1199632060801567  0.5317902871206044  0.8765105314815536
  0.6973984846014859  0.0201568851935105  0.3701443268276817
  0.2469501542735250  0.9632462663180608  0.7627936075200897
  0.5107518168627693  0.6124100895746728  0.4632967068750037
  0.1618388827353697  0.6584846911522445  0.0409747804101873
  0.2356182436848372  0.1030110504174010  0.0953431646568039
  0.4152943622964579  0.0821287432017455  0.7827781036761760
  0.7230327340392921  0.8673287823564144  0.2656250920360753
  0.6479608172048047  0.5440765752851676  0.0850041032261294
  0.4742562757351609  0.6525271057938470  0.0920611106499432
  0.2540016113735897  0.3634451680562000  0.4746708442134527
  0.1181509478391989  0.8483324431758564  0.1348791539290429
  0.2816250098351580  0.8676189081325898  0.3779983501233767
  0.1660189993447991  0.6854891094888693  0.2851965047901766
  0.5948188675384236  0.6844657718727316  0.2987522571866532
  0.0478669789339370  0.7759270593413194  0.9205657232157366
  0.5834676242191320  0.8123287097514859  0.9671318515297394
  0.9397877790809632  0.6778454989667975  0.0888840756645098
  0.6860806499742091  0.3800105671742797  0.3522959671916939
  0.5783551974326666  0.2508624562907982  0.4807955237771364
  0.7002495740004839  0.4415342154405344  0.9142118730580715
  0.9830929584772271  0.8631193594873489  0.6127250620875712
  0.0167478896118972  0.0894305085919673  0.0920314122969749
  0.3352843062848969  0.5621641655010405  0.9284699816516594
  0.7622410797154323  0.1552699477559872  0.1317478023037670
  0.1226829766972586  0.2704609604810044  0.1360881446543364
  0.9431590217213373  0.1645430834444213  0.2711532562083134
  0.5399428474904149  0.4130171557598249  0.7429535423596298
  0.5862344672969828  0.0711502356864144  0.9423864222746638
  0.5280173619555287  0.5402450125869274  0.8868357914788004
 
  0.00000000E+00  0.00000000E+00  0.00000000E+00
  0.00000000E+00  0.00000000E+00  0.00000000E+00
  0.00000000E+00  0.00000000E+00  0.00000000E+00
  0.00000000E+00  0.00000000E+00  0.00000000E+00
  0.00000000E+00  0.00000000E+00  0.00000000E+00
  0.00000000E+00  0.00000000E+00  0.00000000E+00
  0.00000000E+00  0.00000000E+00  0.00000000E+00
  0.00000000E+00  0.00000000E+00  0.00000000E+00
  0.00000000E+00  0.00000000E+00  0.00000000E+00
  0.00000000E+00  0.00000000E+00  0.00000000E+00
  0.00000000E+00  0.00000000E+00  0.00000000E+00
  0.00000000E+00  0.00000000E+00  0.00000000E+00
  0.00000000E+00  0.00000000E+00  0.00000000E+00
  0.00000000E+00  0.00000000E+00  0.00000000E+00
  0.00000000E+00  0.00000000E+00  0.00000000E+00
  0.00000000E+00  0.00000000E+00  0.00000000E+00
  0.00000000E+00  0.00000000E+00  0.00000000E+00
  0.00000000E+00  0.00000000E+00  0.00000000E+00
  0.00000000E+00  0.00000000E+00  0.00000000E+00
  0.00000000E+00  0.00000000E+00  0.00000000E+00
  0.00000000E+00  0.00000000E+00  0.00000000E+00
  0.00000000E+00  0.00000000E+00  0.00000000E+00
  0.00000000E+00  0.00000000E+00  0.00000000E+00
  0.00000000E+00  0.00000000E+00  0.00000000E+00
  0.00000000E+00  0.00000000E+00  0.00000000E+00
  0.00000000E+00  0.00000000E+00  0.00000000E+00
  0.00000000E+00  0.00000000E+00  0.00000000E+00
  0.00000000E+00  0.00000000E+00  0.00000000E+00
  0.00000000E+00  0.00000000E+00  0.00000000E+00
  0.00000000E+00  0.00000000E+00  0.00000000E+00
  0.00000000E+00  0.00000000E+00  0.00000000E+00
  0.00000000E+00  0.00000000E+00  0.00000000E+00
  0.00000000E+00  0.00000000E+00  0.00000000E+00
  0.00000000E+00  0.00000000E+00  0.00000000E+00
  0.00000000E+00  0.00000000E+00  0.00000000E+00
  0.00000000E+00  0.00000000E+00  0.00000000E+00
  0.00000000E+00  0.00000000E+00  0.00000000E+00
  0.00000000E+00  0.00000000E+00  0.00000000E+00
  0.00000000E+00  0.00000000E+00  0.00000000E+00
  0.00000000E+00  0.00000000E+00  0.00000000E+00
  0.00000000E+00  0.00000000E+00  0.00000000E+00
  0.00000000E+00  0.00000000E+00  0.00000000E+00
  0.00000000E+00  0.00000000E+00  0.00000000E+00
  0.00000000E+00  0.00000000E+00  0.00000000E+00
  0.00000000E+00  0.00000000E+00  0.00000000E+00
  0.00000000E+00  0.00000000E+00  0.00000000E+00
  0.00000000E+00  0.00000000E+00  0.00000000E+00
  0.00000000E+00  0.00000000E+00  0.00000000E+00
  0.00000000E+00  0.00000000E+00  0.00000000E+00
  0.00000000E+00  0.00000000E+00  0.00000000E+00
  0.00000000E+00  0.00000000E+00  0.00000000E+00
  0.00000000E+00  0.00000000E+00  0.00000000E+00
  0.00000000E+00  0.00000000E+00  0.00000000E+00
  0.00000000E+00  0.00000000E+00  0.00000000E+00
  0.00000000E+00  0.00000000E+00  0.00000000E+00
  0.00000000E+00  0.00000000E+00  0.00000000E+00
  0.00000000E+00  0.00000000E+00  0.00000000E+00
  0.00000000E+00  0.00000000E+00  0.00000000E+00
  0.00000000E+00  0.00000000E+00  0.00000000E+00
  0.00000000E+00  0.00000000E+00  0.00000000E+00
  0.00000000E+00  0.00000000E+00  0.00000000E+00
  0.00000000E+00  0.00000000E+00  0.00000000E+00
  0.00000000E+00  0.00000000E+00  0.00000000E+00
  0.00000000E+00  0.00000000E+00  0.00000000E+00
  0.00000000E+00  0.00000000E+00  0.00000000E+00
  0.00000000E+00  0.00000000E+00  0.00000000E+00
  0.00000000E+00  0.00000000E+00  0.00000000E+00
  0.00000000E+00  0.00000000E+00  0.00000000E+00
  0.00000000E+00  0.00000000E+00  0.00000000E+00
  0.00000000E+00  0.00000000E+00  0.00000000E+00
  0.00000000E+00  0.00000000E+00  0.00000000E+00
  0.00000000E+00  0.00000000E+00  0.00000000E+00
  0.00000000E+00  0.00000000E+00  0.00000000E+00
  0.00000000E+00  0.00000000E+00  0.00000000E+00
  0.00000000E+00  0.00000000E+00  0.00000000E+00
  0.00000000E+00  0.00000000E+00  0.00000000E+00
  0.00000000E+00  0.00000000E+00  0.00000000E+00
  0.00000000E+00  0.00000000E+00  0.00000000E+00
  0.00000000E+00  0.00000000E+00  0.00000000E+00
  0.00000000E+00  0.00000000E+00  0.00000000E+00
  0.00000000E+00  0.00000000E+00  0.00000000E+00
  0.00000000E+00  0.00000000E+00  0.00000000E+00
  0.00000000E+00  0.00000000E+00  0.00000000E+00
  0.00000000E+00  0.00000000E+00  0.00000000E+00
  0.00000000E+00  0.00000000E+00  0.00000000E+00
  0.00000000E+00  0.00000000E+00  0.00000000E+00
  0.00000000E+00  0.00000000E+00  0.00000000E+00
  0.00000000E+00  0.00000000E+00  0.00000000E+00
  0.00000000E+00  0.00000000E+00  0.00000000E+00
  0.00000000E+00  0.00000000E+00  0.00000000E+00
  0.00000000E+00  0.00000000E+00  0.00000000E+00
  0.00000000E+00  0.00000000E+00  0.00000000E+00
  0.00000000E+00  0.00000000E+00  0.00000000E+00
  0.00000000E+00  0.00000000E+00  0.00000000E+00
  0.00000000E+00  0.00000000E+00  0.00000000E+00
  0.00000000E+00  0.00000000E+00  0.00000000E+00
  0.00000000E+00  0.00000000E+00  0.00000000E+00
  0.00000000E+00  0.00000000E+00  0.00000000E+00
  0.00000000E+00  0.00000000E+00  0.00000000E+00
  0.00000000E+00  0.00000000E+00  0.00000000E+00
  0.00000000E+00  0.00000000E+00  0.00000000E+00
  0.00000000E+00  0.00000000E+00  0.00000000E+00
  0.00000000E+00  0.00000000E+00  0.00000000E+00
  0.00000000E+00  0.00000000E+00  0.00000000E+00
  0.00000000E+00  0.00000000E+00  0.00000000E+00
  0.00000000E+00  0.00000000E+00  0.00000000E+00
  0.00000000E+00  0.00000000E+00  0.00000000E+00
  0.00000000E+00  0.00000000E+00  0.00000000E+00
  0.00000000E+00  0.00000000E+00  0.00000000E+00
  0.00000000E+00  0.00000000E+00  0.00000000E+00
  0.00000000E+00  0.00000000E+00  0.00000000E+00
  0.00000000E+00  0.00000000E+00  0.00000000E+00
  0.00000000E+00  0.00000000E+00  0.00000000E+00
  0.00000000E+00  0.00000000E+00  0.00000000E+00
  0.00000000E+00  0.00000000E+00  0.00000000E+00
  0.00000000E+00  0.00000000E+00  0.00000000E+00
  0.00000000E+00  0.00000000E+00  0.00000000E+00
  0.00000000E+00  0.00000000E+00  0.00000000E+00
  0.00000000E+00  0.00000000E+00  0.00000000E+00
  0.00000000E+00  0.00000000E+00  0.00000000E+00
  0.00000000E+00  0.00000000E+00  0.00000000E+00
  0.00000000E+00  0.00000000E+00  0.00000000E+00
  0.00000000E+00  0.00000000E+00  0.00000000E+00
  0.00000000E+00  0.00000000E+00  0.00000000E+00
  0.00000000E+00  0.00000000E+00  0.00000000E+00
  0.00000000E+00  0.00000000E+00  0.00000000E+00
  0.00000000E+00  0.00000000E+00  0.00000000E+00
  0.00000000E+00  0.00000000E+00  0.00000000E+00
  0.00000000E+00  0.00000000E+00  0.00000000E+00
  0.00000000E+00  0.00000000E+00  0.00000000E+00
  0.00000000E+00  0.00000000E+00  0.00000000E+00
  0.00000000E+00  0.00000000E+00  0.00000000E+00
  0.00000000E+00  0.00000000E+00  0.00000000E+00
  0.00000000E+00  0.00000000E+00  0.00000000E+00
  0.00000000E+00  0.00000000E+00  0.00000000E+00
  0.00000000E+00  0.00000000E+00  0.00000000E+00
  0.00000000E+00  0.00000000E+00  0.00000000E+00
  0.00000000E+00  0.00000000E+00  0.00000000E+00
  0.00000000E+00  0.00000000E+00  0.00000000E+00
  0.00000000E+00  0.00000000E+00  0.00000000E+00
  0.00000000E+00  0.00000000E+00  0.00000000E+00
  0.00000000E+00  0.00000000E+00  0.00000000E+00
  0.00000000E+00  0.00000000E+00  0.00000000E+00
  0.00000000E+00  0.00000000E+00  0.00000000E+00
  0.00000000E+00  0.00000000E+00  0.00000000E+00
  0.00000000E+00  0.00000000E+00  0.00000000E+00
  0.00000000E+00  0.00000000E+00  0.00000000E+00
  0.00000000E+00  0.00000000E+00  0.00000000E+00
  0.00000000E+00  0.00000000E+00  0.00000000E+00
  0.00000000E+00  0.00000000E+00  0.00000000E+00
  0.00000000E+00  0.00000000E+00  0.00000000E+00
  0.00000000E+00  0.00000000E+00  0.00000000E+00
  0.00000000E+00  0.00000000E+00  0.00000000E+00
  0.00000000E+00  0.00000000E+00  0.00000000E+00
  0.00000000E+00  0.00000000E+00  0.00000000E+00
  0.00000000E+00  0.00000000E+00  0.00000000E+00
  0.00000000E+00  0.00000000E+00  0.00000000E+00
  0.00000000E+00  0.00000000E+00  0.00000000E+00
  0.00000000E+00  0.00000000E+00  0.00000000E+00
  0.00000000E+00  0.00000000E+00  0.00000000E+00
  0.00000000E+00  0.00000000E+00  0.00000000E+00
  0.00000000E+00  0.00000000E+00  0.00000000E+00
  0.00000000E+00  0.00000000E+00  0.00000000E+00
  0.00000000E+00  0.00000000E+00  0.00000000E+00
  0.00000000E+00  0.00000000E+00  0.00000000E+00
  0.00000000E+00  0.00000000E+00  0.00000000E+00
  0.00000000E+00  0.00000000E+00  0.00000000E+00
  0.00000000E+00  0.00000000E+00  0.00000000E+00
  0.00000000E+00  0.00000000E+00  0.00000000E+00
  0.00000000E+00  0.00000000E+00  0.00000000E+00
  0.00000000E+00  0.00000000E+00  0.00000000E+00
  0.00000000E+00  0.00000000E+00  0.00000000E+00
  0.00000000E+00  0.00000000E+00  0.00000000E+00
  0.00000000E+00  0.00000000E+00  0.00000000E+00
  0.00000000E+00  0.00000000E+00  0.00000000E+00
  0.00000000E+00  0.00000000E+00  0.00000000E+00
  0.00000000E+00  0.00000000E+00  0.00000000E+00
  0.00000000E+00  0.00000000E+00  0.00000000E+00
  0.00000000E+00  0.00000000E+00  0.00000000E+00
  0.00000000E+00  0.00000000E+00  0.00000000E+00
  0.00000000E+00  0.00000000E+00  0.00000000E+00
  0.00000000E+00  0.00000000E+00  0.00000000E+00
  0.00000000E+00  0.00000000E+00  0.00000000E+00
  0.00000000E+00  0.00000000E+00  0.00000000E+00
  0.00000000E+00  0.00000000E+00  0.00000000E+00
  0.00000000E+00  0.00000000E+00  0.00000000E+00
  0.00000000E+00  0.00000000E+00  0.00000000E+00
  0.00000000E+00  0.00000000E+00  0.00000000E+00
  0.00000000E+00  0.00000000E+00  0.00000000E+00
  0.00000000E+00  0.00000000E+00  0.00000000E+00
  0.00000000E+00  0.00000000E+00  0.00000000E+00
  0.00000000E+00  0.00000000E+00  0.00000000E+00
  0.00000000E+00  0.00000000E+00  0.00000000E+00
  0.00000000E+00  0.00000000E+00  0.00000000E+00
  0.00000000E+00  0.00000000E+00  0.00000000E+00
  0.00000000E+00  0.00000000E+00  0.00000000E+00
  0.00000000E+00  0.00000000E+00  0.00000000E+00
  0.00000000E+00  0.00000000E+00  0.00000000E+00
  0.00000000E+00  0.00000000E+00  0.00000000E+00
  0.00000000E+00  0.00000000E+00  0.00000000E+00
