Te                                      
   1.00000000000000     
    23.0200124665750074    0.0000000000000000    0.0000000000000000
     0.0000000000000000   23.0200124665750074    0.0000000000000000
     0.0000000000000000    0.0000000000000000   23.0200124665750074
   Te
   300
Direct
  0.6621599839237051  0.8107437567580593  0.1380597406637440
  0.3647186460861093  0.7498011902096732  0.0900635071140116
  0.9782606365347489  0.1937452939824654  0.2916899538491135
  0.3652053174517414  0.5907798428169863  0.6387429921838442
  0.9133160549978904  0.3373288462453988  0.8378437692754501
  0.0259560936300204  0.9189254657367563  0.5909334564666868
  0.1583069675316323  0.0744490058578051  0.4465155964354577
  0.5235498783125070  0.6355038974626088  0.0273623872707844
  0.3702324331587615  0.4543581224770724  0.2533578810017764
  0.4324143501475007  0.1844197204723575  0.1475480049327133
  0.6491329153413978  0.5312459566797569  0.2878272108603320
  0.2593458326510975  0.1426038883016269  0.1698501177519854
  0.9161147044400387  0.6671087396099612  0.5167220947869741
  0.1564238572979356  0.1061573544052586  0.9177583800967050
  0.9091419969776838  0.9776881062939805  0.0157496203008759
  0.4410541176305821  0.1825589156611080  0.6566606001969277
  0.1597155761428775  0.8839140043039967  0.2590430337248780
  0.0538349970184347  0.7234214274029743  0.1875855706340634
  0.7811018098393157  0.1291294253029101  0.8721641204315852
  0.5973016514659348  0.0220522894707363  0.6106308813280106
  0.8474553541481372  0.4030468241186683  0.9820035518272523
  0.4691116459482700  0.5971593846586059  0.2788936157705884
  0.2347155451425525  0.4460326996935155  0.8395675885346079
  0.7121740446759135  0.8557600186893143  0.3229663988368058
  0.7737084382363941  0.6233105358415056  0.5547302311134281
  0.4487562575067633  0.2424439915132968  0.3305361532901667
  0.0038024206503505  0.0753593359058185  0.5245251011650558
  0.6830602242834652  0.0070987926982241  0.1674532106610311
  0.8740323134731302  0.8067446828610069  0.5490450024599246
  0.4986096181730916  0.7322915568124142  0.5027321354525324
  0.8138574896971533  0.8998169545347342  0.6108335285013513
  0.2922536955944312  0.3765264422629704  0.9367718106109378
  0.0960346372502424  0.5697211343178966  0.2542844882156504
  0.6739950726451938  0.4958587708335270  0.8339599342717976
  0.4419853407975496  0.8058013082139983  0.0009434512769534
  0.2220535391586029  0.3275743032490663  0.3137720238771815
  0.9118973633800316  0.6398749208846288  0.3208497703174648
  0.2467480310191044  0.8312431064345006  0.7364529613622361
  0.8979091908168948  0.6285492462847952  0.1350031591983440
  0.8829668642169591  0.8079798053001112  0.1902323829908369
  0.0723752378948337  0.1432021909648538  0.3625342020310239
  0.6160423123188655  0.6580386715179534  0.2937116451747473
  0.4352638862460830  0.2833503525794462  0.4993336664788182
  0.3938144960366367  0.5971768229132803  0.5100469073837696
  0.9044116068282874  0.0085302063686933  0.8287833505145332
  0.4007238918744203  0.4569930737492806  0.0724337531705885
  0.6835791013293583  0.0463086933080213  0.5261293552827015
 -0.0109177199243509  0.4773806891255402  0.0607077025386628
  0.3405755745984609  0.4407759604424100  0.5320791534994742
  0.6529771917575450  0.1777649918277988  0.7311304308172351
  0.5321280880873406  0.3474706328179699  0.1810713275160255
  0.2781831334031729  0.4519849873999968  0.1038178802298254
  0.6400265931607297  0.4718293570096916  0.4914565674862053
  0.6969927118785154  0.2199770228510534  0.1293510844010406
  0.3605047219195672  0.6012386635267586  0.2134976184958227
  0.3487993482798977  0.2586164183466053  0.9910627821500807
  0.6601251137783777  0.7237065693669328  0.0478815932024466
  0.1813979994926241  0.0221442782860821  0.7763280661564468
  0.4868479319301943  0.0716126303844406  0.2281021700388656
  0.4849741326438515  0.0544669688439618  0.5660549504000673
  0.7210259084617524  0.4586163934972370  0.0166714525708597
  0.9953128406053202  0.6363712787394368  0.7718728574213658
  0.0010210767471619  0.8286275840850597  0.1571035697023954
  0.6455531815379737  0.4447536057456350  0.7292610991355034
  0.0067153438322562  0.5842926026698124  0.3735787599009113
  0.9683120931602021  0.2505690011981956  0.9228337526680075
  0.1014901742065604  0.3175160309234223  0.3413392283049729
  0.3032751209687121  0.5410972744187542  0.8152811608749555
  0.2413936987948745  0.5581199249831600  0.0479474153279500
  0.7479798048998776  0.9506997103239848  0.7837837611316936
  0.8493335053233803  0.8041413342945212  0.3686510068963929
 -0.0030340065975455  0.4119197908287589  0.1693007836890859
  0.5571807624464649  0.9333715723730449  0.7629803034053457
  0.3561428672264842  0.6952670613241531  0.9489308558052115
  0.5525182244358189  0.8958076516021949  0.6060844069015077
  0.0196785142960387  0.7160594728462163  0.9132497526822956
  0.9882976265322971  0.3052594871675966  0.1070365618083845
  0.6826986349637502  0.3016490328365815  0.5490394778910104
  0.0449911517117729  0.4737021615161711  0.6682874379734089
  0.8714518271720618  0.3082486282254490  0.5132949018657106
  0.5367921672968664  0.1985263340929621  0.5788587496712012
  0.2355074331370541  0.7975358006221082  0.3845356120564546
  0.3329034292599531  0.7947579704399985  0.5704155441691963
  0.9873169239401378  0.1660597460561403  0.0691301084559781
  0.3011761698276153  0.0468052301072361  0.0124370479464709
  0.7583656697185539  0.3319459760661136  0.3551877319603655
  0.9807477725604632  0.8132013902702050  0.6327555971421512
  0.8306885386770966  0.2529740834070991  0.7392994442161634
  0.5771697475473431  0.8218165121902230  0.4536487187357379
  0.6997317449402317  0.3894345887505050  0.8948854360519898
  0.6029241831405252  0.7855223709642669  0.9627797782434068
  0.6094570206168125  0.5305521984762709  0.0084718740484680
  0.3473955203312237  0.7152423897864527  0.3828912713550443
  0.9005402525716910  0.9830867732025559  0.5781386377327885
  0.4098856082129733  0.0314887391970215  0.1438326989301488
  0.9859437917443981  0.5427556942649523  0.9371731572016015
  0.9214730425425206  0.6493303461601982  0.9384578076117263
  0.5738410055383617  0.2129986165941022  0.1542886789720694
  0.1299416601299373  0.1900949483367674  0.6427010296854698
  0.0891782191783202  0.1918960604064759  0.7721036254618815
  0.4642834687716091  0.8729273671005116  0.4203198540809804
  0.1471023428028114  0.7187072103984044  0.3517125430188042
  0.4795649009922233  0.7928096416711266  0.6236696932160510
  0.5306768575292214  0.4817850380007312  0.3434177740204422
  0.8434212775759049  0.4346978133695809  0.7956042072032355
  0.9498631000048148  0.9097444734483987  0.3182801351495124
  0.2294941992970017  0.7562011023462574  0.5188502284439234
  0.7586226036369156  0.7928496792013651  0.4908007436068416
  0.8526834931268091  0.4003655723469595  0.1934011561808320
  0.9492952166718681  0.1778691137375753  0.7570199373293705
  0.0848305655453269  0.1611735252181827  0.1451274285011048
  0.7599874493056544  0.1799299613665472  0.6701834127184850
  0.4579629910878809  0.4023842015353440  0.4970947905232589
  0.0094754440087417  0.8861653808693004 -0.0387610118650139
  0.2765933716537396  0.3362848797399178  0.5282048851406893
  0.1534024932379792  0.5990409552943318  0.5869608560256045
  0.2627524525485724  0.4981491379652877  0.6423410588763958
  0.5341884426163790  0.4299216693853400  0.0422852100416132
  0.5881664443365000  0.9048292254937297  0.8770020967331109
  0.5380635421176897  0.1884439263851208  0.8275974045807822
  0.7091346714187323  0.6945093793476885  0.3608161791480651
  0.3061788222662100  0.1613371018700700  0.7039249411227245
  0.1697441306307601  0.3466060091481391  0.1772929744398390
  0.8697732468892367  0.6102077107107580  0.8141813233657580
  0.9532230141090163  0.7492174371386255  0.4000406401372423
  0.5012652150228025  0.5479235491577801  0.5410182300326541
  0.0123903856377927  0.6537597679558078  0.0975228858397950
  0.7877355887154254  0.7507521496306284  0.9319214242901366
  0.5002958559117759  0.1433658133325237  0.3745629899547759
  0.3453519603262177  0.6865992205154057  0.8254065853652870
  0.2232997603001953  0.7776794632347862  0.2579987906539109
  0.3402270053790781  0.0413558649495255  0.7077113615306885
  0.8159072488724760  0.5336714843347056  0.4327864869858878
  0.1083244892414847  0.4803445165968165  0.4101696769543443
  0.4151728374397067 -0.0139451473598996  0.9554043896003037
  0.1329083288491564  0.8867135169635751  0.1375703253898887
  0.5023544217463627  0.3926993881559655  0.9304619653239317
  0.1216609494538806  0.2417224853037175  0.0130916266532368
  0.3406865859503017  0.8998071036873474  0.3752760801750144
  0.0157520088621174  0.5134005413930324  0.7777510326206849
  0.8353626487966962  0.7302806349046117  0.1070474060390883
  0.3670888711364030  0.1223168863017898  0.5204460545500400
  0.7638391591551195  0.2481843010981445  0.8576477625559064
  0.1376898874378445  0.8519646552288545  0.5755388308366250
  0.1716246304494513  0.3487381391450183  0.0554668882099591
  0.6853627044945069  0.0803902880225797  0.8123487583910021
  0.8832248508942455  0.1698189800685246  0.9727990737312934
  0.4855235422951637  0.0804849453210876  0.9924079242609019
  0.0493933035870548  0.2277732600948292  0.4823230601413769
  0.4377622692982045  0.9444929115664166  0.5389121153329404
  0.8644512576207497  0.5496391172995724  0.2490891597227967
  0.7620708977940336  0.5238262678550342  0.1153663600771582
  0.3428714912504885  0.9609920323894078  0.2708491733302963
  0.6617664223451518  0.0914430902572292  0.2550984436138822
  0.2508118056975239  0.0070294421192517  0.8861967126083835
  0.4249052709330461  0.2986945020518750  0.6832980068021951
  0.2175939839877389  0.5879726139424165  0.2496504429380643
  0.4224065521324525  0.7074902941144326  0.1887174228087455
  0.5018261664943553  0.8890661307180001  0.0683261402450203
  0.2647554012924934  0.1344326437159688  0.5871073850534922
  0.2294087669287246  0.4657196225292966  0.4389730567729028
  0.0845562953948850  0.7114134540177023  0.4646194146082760
  0.7077023537718020  0.3509304940091437  0.0886168860904305
  0.1154029755718469  0.5091245335987629  0.0540609681945253
  0.2809597324500416  0.5486320572242025  0.3698630164041812
  0.5243861711275026  0.5851024009155371  0.8589981097545475
  0.6926474808060458  0.7545475143713011  0.5886429424060762
  0.6924350645633290  0.9251598937867519  0.0513457993318296
  0.4204716589987950  0.0533271697728390  0.3296276958014028
  0.8307069061763490  0.5428801507036273  0.7181258847927597
  0.0256439598257188  0.3636481863966844  0.7936168624263638
  0.8697085565877921  0.2804928335871564  0.3406512705585170
  0.9520724938738173  0.9140022834904834  0.7668809228263005
  0.7969406217572309  0.6080423545263031  0.0290675226872266
  0.8163339808344285  0.2508539652148680  0.0357961818658909
  0.4405304374693313  0.2281156472011350  0.9023622872366001
  0.4122609206402478  0.7804155122145723  0.7912052551765746
  0.2067454288403211  0.1486664953795002  0.8079004181034534
  0.7457164530440332  0.4000091500856452  0.6095089149988552
  0.8424388725454598  0.8571240519476462  0.9537453944636730
  0.9064589375599494  0.4744761684890086  0.6159867819148229
  0.8617334399508956  0.2824211743696473  0.2192994247876622
  0.0291537102450465  0.0877039578193367  0.7935124156130169
  0.3309751884617066  0.2040990671292392  0.8473548833406688
  0.9015894527671710  0.1245554314193067  0.1436440453606751
  0.6970865339319398  0.6190911742669810  0.9571887492943583
  0.0099557488560146  0.7783166647342090  0.0207731680159615
  0.0422247546068362  0.9957612809083565  0.6892506412243055
  0.2452530083784148  0.2075973542117056  0.3441987464662309
  0.5772913898454655  0.6463847616009348  0.5391505078656231
  0.1007559054830273  0.3825388438971551  0.8860654796511377
  0.8491326337620859  0.3752321506376171  0.6688908914313718
  0.0980495987452852  0.4518001203492331  0.2920413833061161
  0.1690490446676192  0.2079567160685132  0.5242169698546160
  0.1730109355390932  0.7807608381532882  0.8545900520957241
  0.1565668968065773  0.3074943940012335  0.6734399039689983
  0.0069547784833470 -0.0085895130616084  0.1395836748811937
  0.1356050674419472  0.9535697566113930  0.4267954518011725
  0.5906914001189567  0.0367607149421709  0.0898141377969680
  0.7462357194174298  0.1742372365679686  0.2317333819992740
  0.5979690023858146  0.3214988714529632  0.8929546223871906
  0.0772996776228358  0.8356465475783594  0.4619511698782335
  0.9516025023798735  0.6617769078047433  0.6352105768952225
  0.4688293125388611  0.8847185181214863  0.8993716143494487
  0.5274538642056031  0.4199915603816926  0.7244516804428337
  0.4119626238711917  0.4855614305809129  0.7777097295412626
  0.5491701468552629  0.8265526677067959  0.1786000411936336
  0.5497446120049997  0.3029235697200114  0.2925725232136857
  0.1673460480354029  0.2839495321811599  0.9062556321789972
  0.5135328185483001  0.7449381053974320  0.7325041178461480
  0.5086199212249558  0.0448770877694493  0.7858648341452974
  0.3833456754828136  0.0278065498622804  0.8203000179852152
  0.7264429275599156  0.4103596565397682  0.1936657185073240
  0.1989405586212354  0.5888413857139005  0.6994543781712945
  0.7711810144553148  0.1374893962225023  0.4361063585160932
  0.1616434531888338  0.4470397842695675  0.7045158243095676
  0.9399760054049581  0.0759712570772963  0.4210297770429490
  0.6938623862597741  0.7995372034934579  0.8745300081934254
  0.6101796269847863  0.2446003955122476  0.4589590789790731
  0.2191270104106993  0.1466433682235939  0.0127103258050987
  0.4670532941420953  0.5870482214279306  0.7492016926738750
  0.1062461763628245  0.6934879465230455  0.7329667010986732
  0.4485841353518998  0.6420935006780333  0.3968839106725237
  0.2712496356620987  0.6442106278667874  0.4523127171777053
  0.8393245079742304  0.0056213643734718  0.4480411009195021
  0.6201555208872396  0.6424014480623640  0.6744549088629117
  0.2995628386086986  0.8878695135995778  0.6397392424733811
  0.2578181380541507  0.0701852749560878  0.3755597124871164
  0.0942712530046250  0.0041922815152977  0.2266284503183351
  0.7748665921362178  0.0367440297705602  0.3445094443161684
  0.2098426652793107  0.9355991898668025  0.5246595810015274
  0.7323048891323310  0.0146701146808727  0.9736488435400609
  0.9714804236719105  0.0373423103368285  0.9267318147575994
  0.2982486737413550  0.8632689292027278  0.0999702035680600
  0.4918395419133757  0.4664958866164869  0.1935485394784687
  0.2938066845795786  0.3210053680605564  0.8125312604866495
  0.8237976877274036  0.6558745497624164  0.6629063101444584
  0.6869673558541445  0.6282086348950167  0.7787210313409577
  0.6863316520937283  0.5607971596893752  0.6147375881694165
  0.0900566687263878  0.6034124669186338  0.9774848671965287
  0.0846344727117870  0.8584319503574891  0.8263637075859888
  0.7683751264035377  0.3728333987686838  0.4781748950755659
  0.0722712117525259  0.0331580422403923  0.0484503420884417
  0.6464045622236676  0.9235406624106768  0.4006900595481265
  0.3492388247620501  0.3289050562500089  0.2464997312092227
  0.0366330937383527  0.8228272686591274  0.3325619108400342
  0.5998818950757435  0.6778213831612397  0.8496226552785135
  0.5281524819169695  0.6232098580125763  0.1538874831560513
  0.0753998543724603  0.3541669043527620  0.4533695839282953
  0.6488682087727476  0.1108388876636447  0.0100768582538081
  0.9828172274650971  0.2606548375988572  0.5831332926635883
  0.8297292733476920  0.0679713299353837  0.0561384879919696
  0.8570334839875898  0.4998775211637502  0.9027430235427555
  0.6584745471977997  0.8483006573216985  0.6567392716550051
  0.1957301877311014  0.7900483326979324  0.1023613137301866
  0.3364195160736965  0.2983018923599630  0.4291170039858820
  0.5731107167102818  0.0797841176238041  0.8992334116205434
  0.1216637164766990  0.9309913399543126 -0.0002797053061126
  0.7101408639933708  0.2548759870471985  0.9739405646952862
  0.4173259356576875  0.4307692888190197  0.3696114990209432
  0.1451399313493469  0.9073434670884724  0.7265810681308807
  0.4181755305011803  0.9122639608458960  0.1637152573211117
  0.9666650953040237  0.3640267348225816 -0.0086446416400207
  0.0169769512645745  0.0134285763695578  0.3282619199399174
  0.2471710673123692  0.6396445367476811  0.1388485436241948
  0.6960936932786405  0.2116156506439901  0.3794777472111779
  0.2297136998800620 -0.0263279827241815  0.0835469419382481
  0.5704229351372661  0.7853754890555624  0.3000001500772873
  0.3392758443397674  0.0179337652067040  0.4564006106303238
  0.8859248908636262  0.8229933315027246  0.8200753826731513
  0.4967696010755757  0.3142571299016138  0.7862039537467725
  0.6040105171297826  0.2688141111685058  0.6497579003817280
  0.9508058596878964  0.5530185739153729  0.4796178738561549
  0.0837926914957891  0.6997732577366022  0.6116602976155947
  0.2424183686156487  0.8308301022798497  0.9436875993545089
  0.4134763780111091  0.2935865342220362  0.0874027751483408
  0.2790829900109426  0.3024766844170085  0.6866296600988649
  0.0508988930732815  0.2568052766360364  0.2150824992327488
  0.7994601280394522  0.7348136024415061  0.2815421947900767
  0.3801198994604991  0.4605228547545003  0.9491211131271927
  0.7222386674735142  0.9283092533161549  0.5033516046348880
  0.8025023192209702  0.8735113348033683  0.0703296497893995
  0.3490232750801024  0.1890614022493740  0.2401316231998977
  0.2925509291605479  0.6773386756493083  0.6786165668955048
  0.2874728107135633  0.3203529306325269  0.1402342821516749
  0.8398124863831902  0.4642676585733757  0.3368320391176439
  0.6078361069490372  0.5218908546147397  0.1666689413503326
  0.4502070728998411  0.7996563531606259  0.3166901109698260
  0.9481600500442893  0.4011649906058866  0.5204531475031295
  0.5542136003345056  0.2051565622112781  0.0354553805422717
  0.9653946264546909  0.1439766934101046  0.6283014298482387
  0.7813647357518112  0.8352280386106896  0.7595812145844851
  0.4081863796590715  0.5984217112540389  0.0034846635402743
  0.1752013760355697  0.1437567417549440  0.2654642307975580
  0.3145980363316004  0.9004346877864010  0.8759298590943834
  0.6940144492692689  0.5587945687003161  0.4247431585550994
  0.7801371797215370  0.9402337398978350  0.2656835833291532
  0.8407534254858278  0.0720961651948475  0.6483932262018511
  0.7423635078739983 -0.0005083098198866  0.6704035849950408
  0.5932207161848816  0.3967138631241520  0.4058233636677262
 
  0.00000000E+00  0.00000000E+00  0.00000000E+00
  0.00000000E+00  0.00000000E+00  0.00000000E+00
  0.00000000E+00  0.00000000E+00  0.00000000E+00
  0.00000000E+00  0.00000000E+00  0.00000000E+00
  0.00000000E+00  0.00000000E+00  0.00000000E+00
  0.00000000E+00  0.00000000E+00  0.00000000E+00
  0.00000000E+00  0.00000000E+00  0.00000000E+00
  0.00000000E+00  0.00000000E+00  0.00000000E+00
  0.00000000E+00  0.00000000E+00  0.00000000E+00
  0.00000000E+00  0.00000000E+00  0.00000000E+00
  0.00000000E+00  0.00000000E+00  0.00000000E+00
  0.00000000E+00  0.00000000E+00  0.00000000E+00
  0.00000000E+00  0.00000000E+00  0.00000000E+00
  0.00000000E+00  0.00000000E+00  0.00000000E+00
  0.00000000E+00  0.00000000E+00  0.00000000E+00
  0.00000000E+00  0.00000000E+00  0.00000000E+00
  0.00000000E+00  0.00000000E+00  0.00000000E+00
  0.00000000E+00  0.00000000E+00  0.00000000E+00
  0.00000000E+00  0.00000000E+00  0.00000000E+00
  0.00000000E+00  0.00000000E+00  0.00000000E+00
  0.00000000E+00  0.00000000E+00  0.00000000E+00
  0.00000000E+00  0.00000000E+00  0.00000000E+00
  0.00000000E+00  0.00000000E+00  0.00000000E+00
  0.00000000E+00  0.00000000E+00  0.00000000E+00
  0.00000000E+00  0.00000000E+00  0.00000000E+00
  0.00000000E+00  0.00000000E+00  0.00000000E+00
  0.00000000E+00  0.00000000E+00  0.00000000E+00
  0.00000000E+00  0.00000000E+00  0.00000000E+00
  0.00000000E+00  0.00000000E+00  0.00000000E+00
  0.00000000E+00  0.00000000E+00  0.00000000E+00
  0.00000000E+00  0.00000000E+00  0.00000000E+00
  0.00000000E+00  0.00000000E+00  0.00000000E+00
  0.00000000E+00  0.00000000E+00  0.00000000E+00
  0.00000000E+00  0.00000000E+00  0.00000000E+00
  0.00000000E+00  0.00000000E+00  0.00000000E+00
  0.00000000E+00  0.00000000E+00  0.00000000E+00
  0.00000000E+00  0.00000000E+00  0.00000000E+00
  0.00000000E+00  0.00000000E+00  0.00000000E+00
  0.00000000E+00  0.00000000E+00  0.00000000E+00
  0.00000000E+00  0.00000000E+00  0.00000000E+00
  0.00000000E+00  0.00000000E+00  0.00000000E+00
  0.00000000E+00  0.00000000E+00  0.00000000E+00
  0.00000000E+00  0.00000000E+00  0.00000000E+00
  0.00000000E+00  0.00000000E+00  0.00000000E+00
  0.00000000E+00  0.00000000E+00  0.00000000E+00
  0.00000000E+00  0.00000000E+00  0.00000000E+00
  0.00000000E+00  0.00000000E+00  0.00000000E+00
  0.00000000E+00  0.00000000E+00  0.00000000E+00
  0.00000000E+00  0.00000000E+00  0.00000000E+00
  0.00000000E+00  0.00000000E+00  0.00000000E+00
  0.00000000E+00  0.00000000E+00  0.00000000E+00
  0.00000000E+00  0.00000000E+00  0.00000000E+00
  0.00000000E+00  0.00000000E+00  0.00000000E+00
  0.00000000E+00  0.00000000E+00  0.00000000E+00
  0.00000000E+00  0.00000000E+00  0.00000000E+00
  0.00000000E+00  0.00000000E+00  0.00000000E+00
  0.00000000E+00  0.00000000E+00  0.00000000E+00
  0.00000000E+00  0.00000000E+00  0.00000000E+00
  0.00000000E+00  0.00000000E+00  0.00000000E+00
  0.00000000E+00  0.00000000E+00  0.00000000E+00
  0.00000000E+00  0.00000000E+00  0.00000000E+00
  0.00000000E+00  0.00000000E+00  0.00000000E+00
  0.00000000E+00  0.00000000E+00  0.00000000E+00
  0.00000000E+00  0.00000000E+00  0.00000000E+00
  0.00000000E+00  0.00000000E+00  0.00000000E+00
  0.00000000E+00  0.00000000E+00  0.00000000E+00
  0.00000000E+00  0.00000000E+00  0.00000000E+00
  0.00000000E+00  0.00000000E+00  0.00000000E+00
  0.00000000E+00  0.00000000E+00  0.00000000E+00
  0.00000000E+00  0.00000000E+00  0.00000000E+00
  0.00000000E+00  0.00000000E+00  0.00000000E+00
  0.00000000E+00  0.00000000E+00  0.00000000E+00
  0.00000000E+00  0.00000000E+00  0.00000000E+00
  0.00000000E+00  0.00000000E+00  0.00000000E+00
  0.00000000E+00  0.00000000E+00  0.00000000E+00
  0.00000000E+00  0.00000000E+00  0.00000000E+00
  0.00000000E+00  0.00000000E+00  0.00000000E+00
  0.00000000E+00  0.00000000E+00  0.00000000E+00
  0.00000000E+00  0.00000000E+00  0.00000000E+00
  0.00000000E+00  0.00000000E+00  0.00000000E+00
  0.00000000E+00  0.00000000E+00  0.00000000E+00
  0.00000000E+00  0.00000000E+00  0.00000000E+00
  0.00000000E+00  0.00000000E+00  0.00000000E+00
  0.00000000E+00  0.00000000E+00  0.00000000E+00
  0.00000000E+00  0.00000000E+00  0.00000000E+00
  0.00000000E+00  0.00000000E+00  0.00000000E+00
  0.00000000E+00  0.00000000E+00  0.00000000E+00
  0.00000000E+00  0.00000000E+00  0.00000000E+00
  0.00000000E+00  0.00000000E+00  0.00000000E+00
  0.00000000E+00  0.00000000E+00  0.00000000E+00
  0.00000000E+00  0.00000000E+00  0.00000000E+00
  0.00000000E+00  0.00000000E+00  0.00000000E+00
  0.00000000E+00  0.00000000E+00  0.00000000E+00
  0.00000000E+00  0.00000000E+00  0.00000000E+00
  0.00000000E+00  0.00000000E+00  0.00000000E+00
  0.00000000E+00  0.00000000E+00  0.00000000E+00
  0.00000000E+00  0.00000000E+00  0.00000000E+00
  0.00000000E+00  0.00000000E+00  0.00000000E+00
  0.00000000E+00  0.00000000E+00  0.00000000E+00
  0.00000000E+00  0.00000000E+00  0.00000000E+00
  0.00000000E+00  0.00000000E+00  0.00000000E+00
  0.00000000E+00  0.00000000E+00  0.00000000E+00
  0.00000000E+00  0.00000000E+00  0.00000000E+00
  0.00000000E+00  0.00000000E+00  0.00000000E+00
  0.00000000E+00  0.00000000E+00  0.00000000E+00
  0.00000000E+00  0.00000000E+00  0.00000000E+00
  0.00000000E+00  0.00000000E+00  0.00000000E+00
  0.00000000E+00  0.00000000E+00  0.00000000E+00
  0.00000000E+00  0.00000000E+00  0.00000000E+00
  0.00000000E+00  0.00000000E+00  0.00000000E+00
  0.00000000E+00  0.00000000E+00  0.00000000E+00
  0.00000000E+00  0.00000000E+00  0.00000000E+00
  0.00000000E+00  0.00000000E+00  0.00000000E+00
  0.00000000E+00  0.00000000E+00  0.00000000E+00
  0.00000000E+00  0.00000000E+00  0.00000000E+00
  0.00000000E+00  0.00000000E+00  0.00000000E+00
  0.00000000E+00  0.00000000E+00  0.00000000E+00
  0.00000000E+00  0.00000000E+00  0.00000000E+00
  0.00000000E+00  0.00000000E+00  0.00000000E+00
  0.00000000E+00  0.00000000E+00  0.00000000E+00
  0.00000000E+00  0.00000000E+00  0.00000000E+00
  0.00000000E+00  0.00000000E+00  0.00000000E+00
  0.00000000E+00  0.00000000E+00  0.00000000E+00
  0.00000000E+00  0.00000000E+00  0.00000000E+00
  0.00000000E+00  0.00000000E+00  0.00000000E+00
  0.00000000E+00  0.00000000E+00  0.00000000E+00
  0.00000000E+00  0.00000000E+00  0.00000000E+00
  0.00000000E+00  0.00000000E+00  0.00000000E+00
  0.00000000E+00  0.00000000E+00  0.00000000E+00
  0.00000000E+00  0.00000000E+00  0.00000000E+00
  0.00000000E+00  0.00000000E+00  0.00000000E+00
  0.00000000E+00  0.00000000E+00  0.00000000E+00
  0.00000000E+00  0.00000000E+00  0.00000000E+00
  0.00000000E+00  0.00000000E+00  0.00000000E+00
  0.00000000E+00  0.00000000E+00  0.00000000E+00
  0.00000000E+00  0.00000000E+00  0.00000000E+00
  0.00000000E+00  0.00000000E+00  0.00000000E+00
  0.00000000E+00  0.00000000E+00  0.00000000E+00
  0.00000000E+00  0.00000000E+00  0.00000000E+00
  0.00000000E+00  0.00000000E+00  0.00000000E+00
  0.00000000E+00  0.00000000E+00  0.00000000E+00
  0.00000000E+00  0.00000000E+00  0.00000000E+00
  0.00000000E+00  0.00000000E+00  0.00000000E+00
  0.00000000E+00  0.00000000E+00  0.00000000E+00
  0.00000000E+00  0.00000000E+00  0.00000000E+00
  0.00000000E+00  0.00000000E+00  0.00000000E+00
  0.00000000E+00  0.00000000E+00  0.00000000E+00
  0.00000000E+00  0.00000000E+00  0.00000000E+00
  0.00000000E+00  0.00000000E+00  0.00000000E+00
  0.00000000E+00  0.00000000E+00  0.00000000E+00
  0.00000000E+00  0.00000000E+00  0.00000000E+00
  0.00000000E+00  0.00000000E+00  0.00000000E+00
  0.00000000E+00  0.00000000E+00  0.00000000E+00
  0.00000000E+00  0.00000000E+00  0.00000000E+00
  0.00000000E+00  0.00000000E+00  0.00000000E+00
  0.00000000E+00  0.00000000E+00  0.00000000E+00
  0.00000000E+00  0.00000000E+00  0.00000000E+00
  0.00000000E+00  0.00000000E+00  0.00000000E+00
  0.00000000E+00  0.00000000E+00  0.00000000E+00
  0.00000000E+00  0.00000000E+00  0.00000000E+00
  0.00000000E+00  0.00000000E+00  0.00000000E+00
  0.00000000E+00  0.00000000E+00  0.00000000E+00
  0.00000000E+00  0.00000000E+00  0.00000000E+00
  0.00000000E+00  0.00000000E+00  0.00000000E+00
  0.00000000E+00  0.00000000E+00  0.00000000E+00
  0.00000000E+00  0.00000000E+00  0.00000000E+00
  0.00000000E+00  0.00000000E+00  0.00000000E+00
  0.00000000E+00  0.00000000E+00  0.00000000E+00
  0.00000000E+00  0.00000000E+00  0.00000000E+00
  0.00000000E+00  0.00000000E+00  0.00000000E+00
  0.00000000E+00  0.00000000E+00  0.00000000E+00
  0.00000000E+00  0.00000000E+00  0.00000000E+00
  0.00000000E+00  0.00000000E+00  0.00000000E+00
  0.00000000E+00  0.00000000E+00  0.00000000E+00
  0.00000000E+00  0.00000000E+00  0.00000000E+00
  0.00000000E+00  0.00000000E+00  0.00000000E+00
  0.00000000E+00  0.00000000E+00  0.00000000E+00
  0.00000000E+00  0.00000000E+00  0.00000000E+00
  0.00000000E+00  0.00000000E+00  0.00000000E+00
  0.00000000E+00  0.00000000E+00  0.00000000E+00
  0.00000000E+00  0.00000000E+00  0.00000000E+00
  0.00000000E+00  0.00000000E+00  0.00000000E+00
  0.00000000E+00  0.00000000E+00  0.00000000E+00
  0.00000000E+00  0.00000000E+00  0.00000000E+00
  0.00000000E+00  0.00000000E+00  0.00000000E+00
  0.00000000E+00  0.00000000E+00  0.00000000E+00
  0.00000000E+00  0.00000000E+00  0.00000000E+00
  0.00000000E+00  0.00000000E+00  0.00000000E+00
  0.00000000E+00  0.00000000E+00  0.00000000E+00
  0.00000000E+00  0.00000000E+00  0.00000000E+00
  0.00000000E+00  0.00000000E+00  0.00000000E+00
  0.00000000E+00  0.00000000E+00  0.00000000E+00
  0.00000000E+00  0.00000000E+00  0.00000000E+00
  0.00000000E+00  0.00000000E+00  0.00000000E+00
  0.00000000E+00  0.00000000E+00  0.00000000E+00
  0.00000000E+00  0.00000000E+00  0.00000000E+00
  0.00000000E+00  0.00000000E+00  0.00000000E+00
  0.00000000E+00  0.00000000E+00  0.00000000E+00
  0.00000000E+00  0.00000000E+00  0.00000000E+00
  0.00000000E+00  0.00000000E+00  0.00000000E+00
  0.00000000E+00  0.00000000E+00  0.00000000E+00
  0.00000000E+00  0.00000000E+00  0.00000000E+00
  0.00000000E+00  0.00000000E+00  0.00000000E+00
  0.00000000E+00  0.00000000E+00  0.00000000E+00
  0.00000000E+00  0.00000000E+00  0.00000000E+00
  0.00000000E+00  0.00000000E+00  0.00000000E+00
  0.00000000E+00  0.00000000E+00  0.00000000E+00
  0.00000000E+00  0.00000000E+00  0.00000000E+00
  0.00000000E+00  0.00000000E+00  0.00000000E+00
  0.00000000E+00  0.00000000E+00  0.00000000E+00
  0.00000000E+00  0.00000000E+00  0.00000000E+00
  0.00000000E+00  0.00000000E+00  0.00000000E+00
  0.00000000E+00  0.00000000E+00  0.00000000E+00
  0.00000000E+00  0.00000000E+00  0.00000000E+00
  0.00000000E+00  0.00000000E+00  0.00000000E+00
  0.00000000E+00  0.00000000E+00  0.00000000E+00
  0.00000000E+00  0.00000000E+00  0.00000000E+00
  0.00000000E+00  0.00000000E+00  0.00000000E+00
  0.00000000E+00  0.00000000E+00  0.00000000E+00
  0.00000000E+00  0.00000000E+00  0.00000000E+00
  0.00000000E+00  0.00000000E+00  0.00000000E+00
  0.00000000E+00  0.00000000E+00  0.00000000E+00
  0.00000000E+00  0.00000000E+00  0.00000000E+00
  0.00000000E+00  0.00000000E+00  0.00000000E+00
  0.00000000E+00  0.00000000E+00  0.00000000E+00
  0.00000000E+00  0.00000000E+00  0.00000000E+00
  0.00000000E+00  0.00000000E+00  0.00000000E+00
  0.00000000E+00  0.00000000E+00  0.00000000E+00
  0.00000000E+00  0.00000000E+00  0.00000000E+00
  0.00000000E+00  0.00000000E+00  0.00000000E+00
  0.00000000E+00  0.00000000E+00  0.00000000E+00
  0.00000000E+00  0.00000000E+00  0.00000000E+00