Amorphous AsTe                          
   1.00000000000000     
    20.8072922372385491    0.0000000000000000    0.0000000000000000
     0.0000000000000000   20.8072922372385491    0.0000000000000000
     0.0000000000000000    0.0000000000000000   20.8072922372385491
   As   Te
   150   150
Direct
  0.5923898412106968  0.8615791398272212  0.1063672874700204
  0.8912566888689959  0.2542514632044054  0.4133137016949420
  0.4159221064493453  0.7482727453770605  0.6917556399389744
  0.1951149662064503  0.6267731811276229  0.6980998651802737
  0.8025021034897988  0.9472682870855677  0.7698739624130780
  0.3812589165802208  0.8336317256147233  0.2947139887920555
  0.3513044381078692  0.2514331632522488  0.2595347043900306
  0.5023228765380547  0.4955193607559396  0.0451585388424497
  0.9534844373905220  0.3249357940440202  0.1595787426813948
  0.2116140955979417  0.0867291851251376  0.4221860427534689
  0.7910199408784553  0.7707863291844366  0.5549165241018598
  0.9058361507900822  0.0422722568401655  0.1605230647169310
  0.7657783913395669  0.6874488119702805  0.7245258933320237
  0.2701759780799604  0.3579937183263153  0.3835439239473133
  0.1943328505498138  0.1925863137572549  0.4797413135742820
  0.0594248471028995  0.4554235085014895  0.9785833114775356
  0.8101440816872854  0.0693370996441912  0.5722185753643810
  0.2848688518615189  0.0500380833706129  0.5130741721822502
  0.5436869002878125  0.1146237660612842  0.7964015980015796
  0.5494427204159273  0.4245708841488164  0.7804678756669915
  0.7518737719318784  0.0717915620312152  0.8703851993183410
  0.0780091842631984  0.7972002510752267  0.1677610029630120
  0.0090161754386539  0.1401544656176225  0.1356297934852070
  0.8296086570651247  0.4562387554137337  0.7393395784319818
  0.8901382522587371  0.0278483246140582  0.7433937122735097
  0.4173779013799404  0.7294654892833167  0.2456021450181386
  0.0050732944179585  0.0354015733270086  0.8889226695756068
  0.4959123172453854  0.9546564955217309  0.8576720356059407
  0.5355617392372684  0.9091580665642837  0.9627291979631061
  0.0746527262691759  0.4491550238386990  0.3471501988328601
  0.6445627018657980  0.8837242449989391  0.6575057325882598
  0.7337821919191989  0.6402120803626822  0.4371128877007402
  0.3342155608839025  0.3562999858422625  0.8651307751540176
  0.5827549950072672  0.4896895905008362  0.4883604838445620
  0.8959031948315910  0.8032383265838560  0.6772425008658908
  0.8599536052412684  0.5167577682308970  0.6352573131381973
  0.9689450675546902  0.9054215071974434  0.5128642616845112
  0.1898213052150234  0.9164515030406017  0.7026881352140711
  0.1345238652177397  0.7638381318378152  0.2689222499539899
  0.1212265991713995  0.0209649980097525  0.4633091566808379
  0.3335418973574695  0.5925728073838684  0.1620290017947903
  0.5216154412392042  0.1220082142967815  0.3495986688962934
  0.4317761548687211  0.8915254200334385  0.5188373994100640
  0.0122032273045557  0.3865760689335236  0.4326691140410959
  0.9431390583952565  0.8803078124159944  0.9437835587847915
  0.4271059356931214  0.7177787746501770  0.4657388164224747
  0.8853817484387199  0.9354629537241650  0.3179470109053224
  0.1822515067050229  0.1510815661887536  0.9926673082315854
  0.2371762199776392  0.0805353836272725  0.6978788957928305
  0.7952556227859789  0.5086845219334643  0.0763134920110205
  0.8199834940601556  0.9704919117572172  0.8856286891150349
  0.9813232690906051  0.4988345772135927  0.1160423754128780
  0.3576467476797001  0.0575738723217969  0.1868523126620711
  0.7005942090623826  0.0217471953882911  0.5920940311498154
  0.9622243797938898  0.7632058479944168  0.9196022942783141
  0.4071685578779913  0.6280238217836861  0.6990235463947037
  0.7739366206028431  0.7959651916074738  0.6714232609335573
  0.4284031957870316  0.2294968537724961  0.0289222531125755
  0.5273277095575826  0.3252958556273689  0.6608081514952100
  0.9405463958183037  0.7425830612238485  0.0998988531121800
  0.6435262009444926  0.4616396072129385  0.1884124050149418
  0.5384725652837149  0.5120035866751431  0.9299103834297616
  0.2650861328783556  0.5261929704500252  0.7170793536872291
  0.6356323614481928  0.9798082440105055  0.9542197019233383
  0.9457227769030128  0.7944594696046012  0.4666117401707081
  0.6481455726490561  0.3714100035867486  0.3508489149637828
  0.4650716914796352  0.5119428643706712  0.5066194423428747
  0.6885454745760736  0.7136628756628204  0.5234054122261742
  0.1361764188455646  0.9719170045723892  0.1716788199367212
  0.5728269477375391  0.8070158842316377  0.9114537132700010
  0.5675858365144503  0.4268091556070339  0.2768501112942092
  0.6027929784703981  0.2320747686337489  0.0255792906273654
  0.3610704530031346  0.8412026665664633  0.8469940977626255
  0.6675118221901207  0.4151422337648021  0.8184412294853227
  0.1225954340004572  0.4950822553205572  0.1777504624836870
  0.9137978987244961  0.6840297847770211 -0.0014104215229944
  0.0738550014686456  0.3253495109666922  0.1761486008632400
  0.4755652073459252  0.4972587890918403  0.6269140284331626
  0.6129593569402259  0.9805923112379106  0.8350782718595572
  0.4642560055471024  0.1044637427260683  0.4592939597458500
  0.4054512546714968  0.9328218073171439  0.0705117751903539
  0.0509416741517487  0.9038438098657261  0.2254946508398702
  0.1223392148428908  0.1238158583951930  0.5813849553938832
  0.8955186583020756  0.5748220767630257  0.0840157599545869
  0.6465265477808048  0.2370757976648724  0.2722218898666138
  0.3961515957980284  0.4468314850159281  0.8120284306291696
  0.2834098140552669  0.6827843261448615 -0.0036330525710110
  0.7652928693393536  0.1534966280958959  0.4968578886627836
  0.4915556481163204  0.1995911905202417  0.7275736002384144
  0.2862512062001143  0.2970846111608874  0.1131818615669591
  0.8085850023109394  0.1944968620716169  0.9566493137544955
  0.0374694787048767  0.6945820574943761  0.7919722274742488
  0.1666070439404986  0.3542595334380073  0.4495714769144295
  0.2391913082713290  0.2021926949750170  0.8322141492236332
  0.1976462836675066  0.0305816356831452  0.5942458002245764
  0.5460183460743816  0.2605981568272864  0.5587391602081766
  0.1004206160123928  0.2215592819745091  0.1186897245401627
  0.1608196462935307  0.6460465182385842  0.2599756405869944
  0.8741624125972659  0.8488756850060886  0.7847724924803036
  0.9934663279427786  0.9795600163344717  0.7831848456492048
  0.5178995741918979  0.6088252603503217  0.6490794733998294
  0.2615625589195875  0.2333890662768558  0.9479795703314100
  0.9407704613756251  0.1996923890831870  0.6088435636774594
  0.7789425405934030  0.2712479661301257  0.7641473478920680
  0.2556600765380787  0.6398326923580436  0.4260983354171846
  0.9037512789968641  0.4130572554577293  0.5861150076472482
  0.6300453965441588  0.1775616896856461  0.8543072713407938
  0.3446613904745480  0.1532708356635251  0.9828481552195319
  0.2217933376219861  0.3712358711239096  0.2708834230989384
  0.6932253110233860  0.8891912387282916  0.2570875485722228
  0.7364898908650827  0.3939874216494959  0.2275297402758347
  0.1614571187465170  0.5467435566474561  0.0728718792740577
  0.8991485461557683  0.0456773252973814  0.0389467446647711
  0.5042397432393609  0.8126443992856370  0.4653611377263361
  0.5845538818518075  0.3734185577320788  0.4545350691847067
  0.3173318302938379  0.9467438597052947  0.1502189343961910
  0.1987075560800278  0.3821164593351664  0.1100424167368838
  0.3271076917911900  0.7924509784418672  0.0214666811445709
  0.3792092198395501  0.1575557363892227  0.7055389199152241
  0.8079042295354374  0.6789656555538209  0.2252540243578253
  0.2307639483395284  0.6767581922198727  0.5394015350420559
  0.1410981106328267  0.0212480159139531  0.7449798137562521
  0.2714560580798365  0.1241042355921742  0.0738163124250606
  0.1573454385637976  0.5922302765416950  0.5874899201486580
  0.0675823358109001  0.2235982195904272  0.9149818842223891
  0.8298926411976841  0.8101485300124682  0.4261053463417441
  0.8195116437796260  0.4079170465786675  0.1397566966656081
  0.8346467119837317  0.8982719707841448  0.0425848580070684
  0.5869727702752765  0.9563949226129422  0.2496812766161747
  0.4891355728693665  0.4127456755840200  0.8833139202923924
  0.1594440595159786  0.0335711357186314  0.2758312544348649
  0.7825240515412372  0.0446102564570139  0.1732276585739600
  0.9649338883298880  0.1485582317484548  0.0212268926118125
  0.5580039277638063  0.6186678324547532  0.1908238430334206
  0.3567188333302816  0.9137650452691188  0.4250792183551256
  0.1225384015018917  0.1782254599435165  0.3121908924016645
  0.1745117031299989  0.9153215572522400  0.4338988399279915
  0.9091552869729931  0.3707030554157596  0.3713095338327160
  0.4545264598272293  0.5660975044052379  0.3337993524613344
  0.5793075267739980  0.2707979100719995  0.9127161410334936
  0.2706640900751205  0.9292308249060416  0.5063876299388615
  0.9152467930738973  0.6508285084682791  0.1772262654329599
  0.9606043120557463  0.4100717224745052  0.0344998416142707
  0.9832114488918513  0.8689441646838968  0.8291424846597033
  0.6588461410007759  0.5692874558025587  0.2429062875896786
  0.7459881265579945  0.1744234610313828  0.3041797231089678
  0.4694350795768505  0.1119966712082044  0.8903163126068373
  0.9351823482041693  0.6507860182741423  0.7435586311611916
  0.3273701832561642  0.3583077374312946  0.2113562285066961
  0.0598931049900976  0.5937446992474226  0.2145435976299192
  0.4162916540765111  0.3863466837881740  0.5028292150968773
  0.9309142063426751  0.5605640677315277  0.8331839294919280
  0.4207601835720662  0.4160222732106263  0.3560403553544812
  0.0344643023756765  0.2765291717334945  0.5679036214848333
  0.7753525343690844  0.0047096297927446  0.2953404969582113
  0.3226673070497526  0.6525786329003018  0.2766746464616898
  0.8850506248615863  0.2442080177539665  0.0464541430052237
  0.3016481571958306  0.2063452076587826  0.5591404392785786
  0.4561226139347403  0.2881717498447331  0.3272848339109616
  0.3591573505638281  0.1027187058684775  0.8163261809786806
  0.7027811382498946  0.9034048960889622  0.5433741998393629
  0.8121465081217086  0.2007657994333028  0.1949047008962486
  0.8740796011088131  0.6759060962773316  0.5712777395734634
  0.5936034707778709  0.3528869078049561  0.0795335622794152
  0.2684806994173734  0.4709151272299929  0.0568755378026481
  0.0333554281609136  0.1921147395061001  0.4522061338831490
  0.0239520292054805  0.6114008693452696  0.9489681080598303
  0.3142848901682345  0.7914693213652400  0.3956178920085026
  0.2102214209724560  0.3421933376979487  0.5697553924050338
  0.6467563258604397  0.0867650625575740  0.4969558827418967
  0.6292986901172083  0.0431826583292196  0.1638842601103145
  0.8439185742803557  0.4600392472305297  0.4347631061516958
  0.6691826517075469  0.8469878786263837  0.3789196996687225
  0.1961704192040402  0.7240740392129975  0.9143622257171777
  0.1584014062230677  0.5851846799952329  0.9098558851036895
  0.9601447856934867  0.0813809530857248  0.4793891168024279
  0.0533609267030281  0.8267965765927435  0.9837648763959987
  0.6807044437401483  0.7133517136793331  0.3473812927842709
  0.7710084179806248  0.3629241761408785  0.6735318786626061
  0.4162469912606496  0.6735350516259817  0.1046614417826003
  0.4533617085769146  0.2402370862796206  0.8946172540188605
  0.3063531989350148  0.2884531156135549  0.7622140938007187
  0.6447440498425401  0.7064118774471696  0.7697578273390655
  0.7769591717830489  0.0864365484730469  0.0216255285533285
  0.5787341968974176  0.5472018411605282  0.3696598903723858
  0.0914387105142152  0.8736851415455709  0.5583114830091199
  0.4118573951648528  0.9493324985900976  0.6960653107308368
  0.8599200560907152  0.4587822489501006  0.9729847999796274
  0.3407406630819703  0.6147709732808735  0.5713296032119841
  0.0240563651642733  0.4148753507737816  0.8611152433359943
  0.7247979601348961  0.6214996438769262  0.1450112944568180
  0.5516468838280816  0.1501196720884321  0.6254936994434258
  0.8697245614603990  0.1158465792709500  0.8399587712124066
  0.3240675490291046  0.5323212876153133  0.8752625251199818
  0.4361034623835789  0.0104397211123168  0.2774699723285539
  0.2307591823105670  0.9354115722849148  0.3136569058393812
  0.9294426054829481  0.2461957700315630  0.2597034718680997
  0.9325011652076266  0.9168564379841223  0.1722407098831950
  0.2620331700351223 -0.0007772772342010  0.0471747525315391
  0.3100182806821473  0.7582144225651777  0.7617747894899142
  0.5845344632084296  0.5890204051777655  0.0680862159776283
  0.5045372053331408  0.8471958133514014  0.3420397625054628
  0.1890002604011694  0.1834613632215154  0.2008709373962637
  0.2871801703624655  0.4902979365013672  0.5968481244300422
  0.5947405673194923  0.7685878404516696  0.6426726930583320
  0.6378948484145706  0.7844852821017391  0.1963498970759253
  0.5883061691074828  0.4358161842021370  0.6209080728429095
  0.5469005332100840  0.9689870870111212  0.6333986370942060
  0.6108504483573580  0.0254245606308017  0.3555772698521304
  0.2230266336488116  0.4998359125713122  0.2582321813254722
  0.0002423946638893  0.5649353576090262  0.6623966061852505
  0.2555947182106074  0.2284327098686985  0.3705708545723231
  0.1786799068548100  0.4344339841716132  0.7418001084344380
  0.4704630438731745  0.8494341868326378  0.1442849292041021
  0.0783611277645862  0.0467769818697756  0.0830352522977165
  0.1148863735681844  0.7632840947596883  0.4815496310897269
  0.2526755897682912  0.8550882342220120  0.9353888590345880
  0.3636648403642884  0.7693099617551515  0.5726766654508030
  0.6269051534020348  0.7698843622133031  0.0217103070961987
  0.3903066001853878  0.0598746907132651  0.6199457690379776
  0.9306598390868470  0.2542326514524701  0.7229923226431240
  0.8388731824886084  0.8192968019904626  0.2948454055327207
  0.1823462772521276  0.8369667746377734  0.1016762738031749
  0.5771628685968596  0.0891798751164787  0.9857476451741037
  0.0557634653512488  0.0057423476827609  0.3488700996327547
  0.4486200027450540  0.0551032093304081  0.0973784399292784
  0.2226988715242747  0.6545212706698011  0.1170111813693305
  0.0777239748038475  0.7666658563300786  0.6942761145272572
  0.0494314438186547  0.0489948243569174  0.6577549369020549
  0.4080148795070782  0.2250223967314944  0.4742296584647533
  0.2637528100238862  0.7824803196577884  0.1946459813967066
  0.9959273829972579  0.3687129227982540  0.6761776432207690
  0.8350192278479143  0.9386609142379397  0.4412933878519237
  0.1335620084077304  0.6343836630324496  0.3872553549878398
  0.5636210780578543  0.5541566222706901  0.7750356760366302
  0.8626588951242037  0.6476182867934041  0.4331082111697656
  0.0050558951529601  0.1178283855588659  0.2904379437574621
  0.0417874538688339  0.1367413258029162  0.8226572529976375
  0.2847608615314164  0.5122957580477557  0.4213793874917960
  0.7225059241654708  0.5229029859021606  0.7635194040865830
  0.6060178936647147  0.2078560460507605  0.3958428145989934
  0.0664518689310162  0.2938368660729448  0.3048444741682010
  0.1070510166166599  0.3423672272683448  0.0241055428087541
  0.4704757738451565  0.5272133125088009  0.2124621479717852
  0.4154409489270717  0.7590643078277741  0.9346981692548385
  0.7713709878446794  0.2795448085118025  0.3729465310441491
  0.9205158331560055  0.4427268182452343  0.2161457385264290
  0.7060701035769643  0.2962598949712600  0.1430346498892255
  0.7879825835541403  0.6027747495199534  0.8899212460373795
  0.8374723472357735  0.5832398453193781  0.3018670365986701
  0.1155785523526698  0.4364546836809174  0.6099767132562499
  0.0048694694408418  0.8499340745852944  0.3666325942306117
  0.7044139014533777  0.0646612133309696  0.7467373548493440
  0.5373384416911664  0.9705961169329298  0.4959023643482933
  0.7861597926714853  0.6951857990877133 -0.0013529437765203
  0.6482029293003080  0.2662672901463545  0.7619583246295322
  0.8073261418291776  0.3494037057131011  0.8619560716237583
  0.0965356801502346  0.5792094755725533  0.7679227047796132
  0.8501528130292210  0.2610822742648161  0.5381083641723163
  0.7003195572443456  0.3638204100069940  0.5087788298335036
  0.3703391664760778  0.0540982614575980  0.3892055738626487
  0.2080892927851340  0.0636799057829678  0.9005761095306566
  0.5706814457599805  0.1593339959193753  0.2022295679627947
  0.4067417956098720  0.3537322753202193  0.6387111730245155
  0.7507921438041475  0.5195235065247906  0.5616173093766749
  0.9626310705981356  0.3023868272311971  0.8929157724044292
  0.5233053580703875  0.6475784011443129  0.5212664144009830
  0.6523264506094272  0.4530192777886139  0.9392362562615096
  0.4150209123601957  0.1983458641680170  0.1629394094009539
  0.1424891925886839  0.2905523462440727  0.8356154906155662
  0.4580029934651034  0.6241940914446041  0.8236286263726406
  0.0652493426684378  0.6619518417829529  0.0732050021584548
  0.6710743069324034  0.2546969607284252  0.5833908302340254
  0.1821272559924226  0.1946353252647530  0.6696357004949166
  0.6563463936595545  0.8603987110571069  0.8207632940358831
  0.0544856910635676  0.6672832260073603  0.5653871559594655
  0.0039138632313889  0.7389557774339214  0.2911890574308554
  0.2910632135101838  0.9535396496400309  0.7716598399126281
  0.1526683726197844  0.4833265395472803  0.4490454405808036
  0.1342613957762225  0.8447962121917457  0.7925251415474240
  0.1157262439422440  0.9699347725747015  0.9223435406072417
  0.8185075907650707  0.7900131838412590  0.1089801397645551
  0.8493636272652519  0.1053123544927243  0.4063577009832928
  0.5222418907665528  0.3245363090760657  0.2037914916049875
  0.3746441764986636  0.3457436142544838  0.0350449592504458
  0.7558298362834588  0.8732297807868572  0.9393554902212616
  0.7125655149224871  0.2811440457678849  0.9655857100933297
  0.7333393880389866  0.9429773290147824  0.1097860480904837
  0.7928019473685800  0.1430580597158524  0.6758373392581105
  0.9021749382656138  0.9180438511262333  0.6217282723477332
  0.2292144106282365  0.4317906119520516  0.8807033373974997
  0.4862757058874692  0.8480555676416944  0.7862458589510574
  0.6587745432248707  0.6456529153565376  0.9012872463997714
  0.9791009325352383  0.4847457858959833  0.5092196727455807
  0.5026736697240292  0.6882377816761189  0.3319962755290513
  0.4011379458432028  0.5735653213506032  0.0122099068739372
  0.6848590617698892  0.6247677237050038  0.6159401795382922
  0.8316927899469553  0.7325823525285007  0.8320575320379454
  0.7264252229471734  0.4745412787414305  0.3568537584994276
  0.0047058162143057  0.5509819177519351  0.3300695130133345
 
  0.00000000E+00  0.00000000E+00  0.00000000E+00
  0.00000000E+00  0.00000000E+00  0.00000000E+00
  0.00000000E+00  0.00000000E+00  0.00000000E+00
  0.00000000E+00  0.00000000E+00  0.00000000E+00
  0.00000000E+00  0.00000000E+00  0.00000000E+00
  0.00000000E+00  0.00000000E+00  0.00000000E+00
  0.00000000E+00  0.00000000E+00  0.00000000E+00
  0.00000000E+00  0.00000000E+00  0.00000000E+00
  0.00000000E+00  0.00000000E+00  0.00000000E+00
  0.00000000E+00  0.00000000E+00  0.00000000E+00
  0.00000000E+00  0.00000000E+00  0.00000000E+00
  0.00000000E+00  0.00000000E+00  0.00000000E+00
  0.00000000E+00  0.00000000E+00  0.00000000E+00
  0.00000000E+00  0.00000000E+00  0.00000000E+00
  0.00000000E+00  0.00000000E+00  0.00000000E+00
  0.00000000E+00  0.00000000E+00  0.00000000E+00
  0.00000000E+00  0.00000000E+00  0.00000000E+00
  0.00000000E+00  0.00000000E+00  0.00000000E+00
  0.00000000E+00  0.00000000E+00  0.00000000E+00
  0.00000000E+00  0.00000000E+00  0.00000000E+00
  0.00000000E+00  0.00000000E+00  0.00000000E+00
  0.00000000E+00  0.00000000E+00  0.00000000E+00
  0.00000000E+00  0.00000000E+00  0.00000000E+00
  0.00000000E+00  0.00000000E+00  0.00000000E+00
  0.00000000E+00  0.00000000E+00  0.00000000E+00
  0.00000000E+00  0.00000000E+00  0.00000000E+00
  0.00000000E+00  0.00000000E+00  0.00000000E+00
  0.00000000E+00  0.00000000E+00  0.00000000E+00
  0.00000000E+00  0.00000000E+00  0.00000000E+00
  0.00000000E+00  0.00000000E+00  0.00000000E+00
  0.00000000E+00  0.00000000E+00  0.00000000E+00
  0.00000000E+00  0.00000000E+00  0.00000000E+00
  0.00000000E+00  0.00000000E+00  0.00000000E+00
  0.00000000E+00  0.00000000E+00  0.00000000E+00
  0.00000000E+00  0.00000000E+00  0.00000000E+00
  0.00000000E+00  0.00000000E+00  0.00000000E+00
  0.00000000E+00  0.00000000E+00  0.00000000E+00
  0.00000000E+00  0.00000000E+00  0.00000000E+00
  0.00000000E+00  0.00000000E+00  0.00000000E+00
  0.00000000E+00  0.00000000E+00  0.00000000E+00
  0.00000000E+00  0.00000000E+00  0.00000000E+00
  0.00000000E+00  0.00000000E+00  0.00000000E+00
  0.00000000E+00  0.00000000E+00  0.00000000E+00
  0.00000000E+00  0.00000000E+00  0.00000000E+00
  0.00000000E+00  0.00000000E+00  0.00000000E+00
  0.00000000E+00  0.00000000E+00  0.00000000E+00
  0.00000000E+00  0.00000000E+00  0.00000000E+00
  0.00000000E+00  0.00000000E+00  0.00000000E+00
  0.00000000E+00  0.00000000E+00  0.00000000E+00
  0.00000000E+00  0.00000000E+00  0.00000000E+00
  0.00000000E+00  0.00000000E+00  0.00000000E+00
  0.00000000E+00  0.00000000E+00  0.00000000E+00
  0.00000000E+00  0.00000000E+00  0.00000000E+00
  0.00000000E+00  0.00000000E+00  0.00000000E+00
  0.00000000E+00  0.00000000E+00  0.00000000E+00
  0.00000000E+00  0.00000000E+00  0.00000000E+00
  0.00000000E+00  0.00000000E+00  0.00000000E+00
  0.00000000E+00  0.00000000E+00  0.00000000E+00
  0.00000000E+00  0.00000000E+00  0.00000000E+00
  0.00000000E+00  0.00000000E+00  0.00000000E+00
  0.00000000E+00  0.00000000E+00  0.00000000E+00
  0.00000000E+00  0.00000000E+00  0.00000000E+00
  0.00000000E+00  0.00000000E+00  0.00000000E+00
  0.00000000E+00  0.00000000E+00  0.00000000E+00
  0.00000000E+00  0.00000000E+00  0.00000000E+00
  0.00000000E+00  0.00000000E+00  0.00000000E+00
  0.00000000E+00  0.00000000E+00  0.00000000E+00
  0.00000000E+00  0.00000000E+00  0.00000000E+00
  0.00000000E+00  0.00000000E+00  0.00000000E+00
  0.00000000E+00  0.00000000E+00  0.00000000E+00
  0.00000000E+00  0.00000000E+00  0.00000000E+00
  0.00000000E+00  0.00000000E+00  0.00000000E+00
  0.00000000E+00  0.00000000E+00  0.00000000E+00
  0.00000000E+00  0.00000000E+00  0.00000000E+00
  0.00000000E+00  0.00000000E+00  0.00000000E+00
  0.00000000E+00  0.00000000E+00  0.00000000E+00
  0.00000000E+00  0.00000000E+00  0.00000000E+00
  0.00000000E+00  0.00000000E+00  0.00000000E+00
  0.00000000E+00  0.00000000E+00  0.00000000E+00
  0.00000000E+00  0.00000000E+00  0.00000000E+00
  0.00000000E+00  0.00000000E+00  0.00000000E+00
  0.00000000E+00  0.00000000E+00  0.00000000E+00
  0.00000000E+00  0.00000000E+00  0.00000000E+00
  0.00000000E+00  0.00000000E+00  0.00000000E+00
  0.00000000E+00  0.00000000E+00  0.00000000E+00
  0.00000000E+00  0.00000000E+00  0.00000000E+00
  0.00000000E+00  0.00000000E+00  0.00000000E+00
  0.00000000E+00  0.00000000E+00  0.00000000E+00
  0.00000000E+00  0.00000000E+00  0.00000000E+00
  0.00000000E+00  0.00000000E+00  0.00000000E+00
  0.00000000E+00  0.00000000E+00  0.00000000E+00
  0.00000000E+00  0.00000000E+00  0.00000000E+00
  0.00000000E+00  0.00000000E+00  0.00000000E+00
  0.00000000E+00  0.00000000E+00  0.00000000E+00
  0.00000000E+00  0.00000000E+00  0.00000000E+00
  0.00000000E+00  0.00000000E+00  0.00000000E+00
  0.00000000E+00  0.00000000E+00  0.00000000E+00
  0.00000000E+00  0.00000000E+00  0.00000000E+00
  0.00000000E+00  0.00000000E+00  0.00000000E+00
  0.00000000E+00  0.00000000E+00  0.00000000E+00
  0.00000000E+00  0.00000000E+00  0.00000000E+00
  0.00000000E+00  0.00000000E+00  0.00000000E+00
  0.00000000E+00  0.00000000E+00  0.00000000E+00
  0.00000000E+00  0.00000000E+00  0.00000000E+00
  0.00000000E+00  0.00000000E+00  0.00000000E+00
  0.00000000E+00  0.00000000E+00  0.00000000E+00
  0.00000000E+00  0.00000000E+00  0.00000000E+00
  0.00000000E+00  0.00000000E+00  0.00000000E+00
  0.00000000E+00  0.00000000E+00  0.00000000E+00
  0.00000000E+00  0.00000000E+00  0.00000000E+00
  0.00000000E+00  0.00000000E+00  0.00000000E+00
  0.00000000E+00  0.00000000E+00  0.00000000E+00
  0.00000000E+00  0.00000000E+00  0.00000000E+00
  0.00000000E+00  0.00000000E+00  0.00000000E+00
  0.00000000E+00  0.00000000E+00  0.00000000E+00
  0.00000000E+00  0.00000000E+00  0.00000000E+00
  0.00000000E+00  0.00000000E+00  0.00000000E+00
  0.00000000E+00  0.00000000E+00  0.00000000E+00
  0.00000000E+00  0.00000000E+00  0.00000000E+00
  0.00000000E+00  0.00000000E+00  0.00000000E+00
  0.00000000E+00  0.00000000E+00  0.00000000E+00
  0.00000000E+00  0.00000000E+00  0.00000000E+00
  0.00000000E+00  0.00000000E+00  0.00000000E+00
  0.00000000E+00  0.00000000E+00  0.00000000E+00
  0.00000000E+00  0.00000000E+00  0.00000000E+00
  0.00000000E+00  0.00000000E+00  0.00000000E+00
  0.00000000E+00  0.00000000E+00  0.00000000E+00
  0.00000000E+00  0.00000000E+00  0.00000000E+00
  0.00000000E+00  0.00000000E+00  0.00000000E+00
  0.00000000E+00  0.00000000E+00  0.00000000E+00
  0.00000000E+00  0.00000000E+00  0.00000000E+00
  0.00000000E+00  0.00000000E+00  0.00000000E+00
  0.00000000E+00  0.00000000E+00  0.00000000E+00
  0.00000000E+00  0.00000000E+00  0.00000000E+00
  0.00000000E+00  0.00000000E+00  0.00000000E+00
  0.00000000E+00  0.00000000E+00  0.00000000E+00
  0.00000000E+00  0.00000000E+00  0.00000000E+00
  0.00000000E+00  0.00000000E+00  0.00000000E+00
  0.00000000E+00  0.00000000E+00  0.00000000E+00
  0.00000000E+00  0.00000000E+00  0.00000000E+00
  0.00000000E+00  0.00000000E+00  0.00000000E+00
  0.00000000E+00  0.00000000E+00  0.00000000E+00
  0.00000000E+00  0.00000000E+00  0.00000000E+00
  0.00000000E+00  0.00000000E+00  0.00000000E+00
  0.00000000E+00  0.00000000E+00  0.00000000E+00
  0.00000000E+00  0.00000000E+00  0.00000000E+00
  0.00000000E+00  0.00000000E+00  0.00000000E+00
  0.00000000E+00  0.00000000E+00  0.00000000E+00
  0.00000000E+00  0.00000000E+00  0.00000000E+00
  0.00000000E+00  0.00000000E+00  0.00000000E+00
  0.00000000E+00  0.00000000E+00  0.00000000E+00
  0.00000000E+00  0.00000000E+00  0.00000000E+00
  0.00000000E+00  0.00000000E+00  0.00000000E+00
  0.00000000E+00  0.00000000E+00  0.00000000E+00
  0.00000000E+00  0.00000000E+00  0.00000000E+00
  0.00000000E+00  0.00000000E+00  0.00000000E+00
  0.00000000E+00  0.00000000E+00  0.00000000E+00
  0.00000000E+00  0.00000000E+00  0.00000000E+00
  0.00000000E+00  0.00000000E+00  0.00000000E+00
  0.00000000E+00  0.00000000E+00  0.00000000E+00
  0.00000000E+00  0.00000000E+00  0.00000000E+00
  0.00000000E+00  0.00000000E+00  0.00000000E+00
  0.00000000E+00  0.00000000E+00  0.00000000E+00
  0.00000000E+00  0.00000000E+00  0.00000000E+00
  0.00000000E+00  0.00000000E+00  0.00000000E+00
  0.00000000E+00  0.00000000E+00  0.00000000E+00
  0.00000000E+00  0.00000000E+00  0.00000000E+00
  0.00000000E+00  0.00000000E+00  0.00000000E+00
  0.00000000E+00  0.00000000E+00  0.00000000E+00
  0.00000000E+00  0.00000000E+00  0.00000000E+00
  0.00000000E+00  0.00000000E+00  0.00000000E+00
  0.00000000E+00  0.00000000E+00  0.00000000E+00
  0.00000000E+00  0.00000000E+00  0.00000000E+00
  0.00000000E+00  0.00000000E+00  0.00000000E+00
  0.00000000E+00  0.00000000E+00  0.00000000E+00
  0.00000000E+00  0.00000000E+00  0.00000000E+00
  0.00000000E+00  0.00000000E+00  0.00000000E+00
  0.00000000E+00  0.00000000E+00  0.00000000E+00
  0.00000000E+00  0.00000000E+00  0.00000000E+00
  0.00000000E+00  0.00000000E+00  0.00000000E+00
  0.00000000E+00  0.00000000E+00  0.00000000E+00
  0.00000000E+00  0.00000000E+00  0.00000000E+00
  0.00000000E+00  0.00000000E+00  0.00000000E+00
  0.00000000E+00  0.00000000E+00  0.00000000E+00
  0.00000000E+00  0.00000000E+00  0.00000000E+00
  0.00000000E+00  0.00000000E+00  0.00000000E+00
  0.00000000E+00  0.00000000E+00  0.00000000E+00
  0.00000000E+00  0.00000000E+00  0.00000000E+00
  0.00000000E+00  0.00000000E+00  0.00000000E+00
  0.00000000E+00  0.00000000E+00  0.00000000E+00
  0.00000000E+00  0.00000000E+00  0.00000000E+00
  0.00000000E+00  0.00000000E+00  0.00000000E+00
  0.00000000E+00  0.00000000E+00  0.00000000E+00
  0.00000000E+00  0.00000000E+00  0.00000000E+00
  0.00000000E+00  0.00000000E+00  0.00000000E+00
  0.00000000E+00  0.00000000E+00  0.00000000E+00
  0.00000000E+00  0.00000000E+00  0.00000000E+00
  0.00000000E+00  0.00000000E+00  0.00000000E+00
  0.00000000E+00  0.00000000E+00  0.00000000E+00
  0.00000000E+00  0.00000000E+00  0.00000000E+00
  0.00000000E+00  0.00000000E+00  0.00000000E+00
  0.00000000E+00  0.00000000E+00  0.00000000E+00
  0.00000000E+00  0.00000000E+00  0.00000000E+00
  0.00000000E+00  0.00000000E+00  0.00000000E+00
  0.00000000E+00  0.00000000E+00  0.00000000E+00
  0.00000000E+00  0.00000000E+00  0.00000000E+00
  0.00000000E+00  0.00000000E+00  0.00000000E+00
  0.00000000E+00  0.00000000E+00  0.00000000E+00
  0.00000000E+00  0.00000000E+00  0.00000000E+00
  0.00000000E+00  0.00000000E+00  0.00000000E+00
  0.00000000E+00  0.00000000E+00  0.00000000E+00
  0.00000000E+00  0.00000000E+00  0.00000000E+00
  0.00000000E+00  0.00000000E+00  0.00000000E+00
  0.00000000E+00  0.00000000E+00  0.00000000E+00
  0.00000000E+00  0.00000000E+00  0.00000000E+00
  0.00000000E+00  0.00000000E+00  0.00000000E+00
  0.00000000E+00  0.00000000E+00  0.00000000E+00
  0.00000000E+00  0.00000000E+00  0.00000000E+00
  0.00000000E+00  0.00000000E+00  0.00000000E+00
  0.00000000E+00  0.00000000E+00  0.00000000E+00
  0.00000000E+00  0.00000000E+00  0.00000000E+00
  0.00000000E+00  0.00000000E+00  0.00000000E+00
  0.00000000E+00  0.00000000E+00  0.00000000E+00
  0.00000000E+00  0.00000000E+00  0.00000000E+00
  0.00000000E+00  0.00000000E+00  0.00000000E+00
  0.00000000E+00  0.00000000E+00  0.00000000E+00
  0.00000000E+00  0.00000000E+00  0.00000000E+00
  0.00000000E+00  0.00000000E+00  0.00000000E+00
  0.00000000E+00  0.00000000E+00  0.00000000E+00
  0.00000000E+00  0.00000000E+00  0.00000000E+00
  0.00000000E+00  0.00000000E+00  0.00000000E+00
  0.00000000E+00  0.00000000E+00  0.00000000E+00