Ge Se                                   
   1.00000000000000     
    21.6093826699708735    0.0000000000000000    0.0000000000000000
     0.0000000000000000   21.6093826699708735    0.0000000000000000
     0.0000000000000000    0.0000000000000000   21.6093826699708735
   Ge   Se
   100   200
Direct
  0.4979631744382017 -0.0046564805015797  0.6402727451583234
  0.5010897704142712  0.1789720221708150  0.0285319308131629
  0.5873637280339734  0.7929769744534543  0.9763693124019424
  0.1724340395534334  0.5438252987051073  0.7186727258923711
  0.8139875026631842  0.6545398183352921  0.9232230017486510
  0.4285029697911582  0.8036043621066185  0.9814081518120684
  0.8797387722884253  0.5359990871689940  0.9703023804013259
  0.5126374510978553  0.8116314278348874  0.3969870326296927
  0.1564044229438125  0.4701548596271921  0.9168808136027605
  0.3147160281944632  0.4635677096563223  0.0187742799132098
  0.5560410857831302  0.1375260182399641  0.5274688022328567
  0.6902941497585615  0.4118509107392549  0.2857779952459418
  0.3599297235853057  0.4403606177063852  0.3671009578270429
  0.0909352361581184 -0.0205100184634341  0.7352568409241858
  0.6393097783014969  0.4056626281922845  0.5177826930028206
  0.5779007389026134  0.4359505987791219  0.0660610422496343
  0.2130032569209183  0.6507609772214268  0.9116260432410609
  0.6373734029658459  0.4141008742289443  0.7330635507085418
  0.4186025717996965  0.5093871330689975  0.0791639810705495
  0.6826038516383963  0.2641145311530648  0.2109318659541450
  0.0181598441818598  0.3210645962362613  0.6569743238180729
  0.1381499315430094  0.7828017612569379  0.5535722247338987
  0.7474688161045973  0.2841841966899042  0.0420079904661751
  0.2865645903938095  0.7627840693233937  0.9130831486104619
  0.3100241077978555  0.2209543616613656  0.7446395148236850
  0.0285238052176110  0.5581761058143679  0.3232986053225644
  0.7062039918014242  0.2381688998838457  0.4917093777390352
  0.8982231118414353  0.2966538760092609  0.8327338032964543
  0.6939540927581638  0.8845264307481391  0.6255579710074812
  0.2952839522857020  0.2784956391319179  0.2098063566518104
  0.7439269089830934  0.5610775998606375  0.5824286190207093
  0.6162816776215083  0.0329035971065901  0.7062542671725315
  0.1517873194418738  0.2392048908958927  0.7059800009479698
  0.6085188383241100  0.9158054733591411  0.1357913178557751
  0.4266886512886461  0.6639859972727723  0.6481535028110488
 -0.0137924698885593  0.8757189177695791  0.3792110132228246
  0.4855478508179930  0.0656744464104534  0.1846279862415771
  0.5825411229712465  0.5846070049249891  0.9153095202707089
  0.0952831811192501  0.1013035199540349  0.4243066797785187
  0.1858545866734366  0.0327097183229112  0.9149584961850310
  0.4394315631646543  0.0489822050052834  0.8761923955193712
  0.0240125464818864  0.5873371969789684  0.8468880553178739
  0.5126996654219302  0.2209456791995930  0.3055523221419477
  0.4862314044581578  0.6322585947281670  0.0867782667401364
  0.4364022441189779  0.8201552824790727  0.2755925893849037
  0.2954202766432912  0.0276315589862459  0.7394993525428861
  0.5319509372838473  0.4940837267057616  0.8119824133776975
  0.2436460093525784  0.4235726927418308  0.6736951851290839
  0.2494752798412830  0.1140694260610455  0.1301382034194676
  0.7878213164467591 -0.0188064471161815  0.1680709997960211
  0.9449173240544243  0.8990010156813611  0.2210400604848553
  0.2846216213615521  0.6786687146961220  0.2761286522676221
  0.4563811196724613  0.8387920584386757  0.5880419045422769
  0.3718301090820587  0.1041714174454984  0.3997957715023120
  0.4801601572875313  0.2539255090193649  0.1912027353044460
  0.7394591631070079  0.1016450836353855  0.5828653530841973
  0.3928930406063965  0.7335515801622950  0.7872152089242840
  0.1120321752558932  0.1948015140505818  0.5458681255807771
  0.7361579637496304  0.6857157108330735  0.5224504943700277
  0.4531611342994561  0.9962137576966708  0.4798885141754975
  0.3425429058742894  0.1176032208113394  0.8982524200257651
  0.0703559015642762  0.7732691349420951  0.2644969912598734
  0.0654179062598213  0.6657741998953606  0.6870726647565565
  0.0675647934581248  0.0794266941815645  0.9408693629595525
  0.2432635943060967 -0.0045835913536940  0.3759144672193171
  0.5644616310309196  0.9046413765838800  0.3358144296807309
  0.7713994193132740  0.9846578062534419  0.7388984382731992
  0.4779954843227218  0.6356713588894338  0.2971781638471176
  0.3578197384455348  0.6520992251568266  0.4403204926118365
  0.2043517341339940  0.1700688189852470  0.3117266889831363
  0.5461805857806220  0.7494224330849811  0.6988684921898590
  0.5787164349628253  0.5031276525508942  0.1682134766373098
  0.7909430328341808  0.8160437036923576  0.2417495292150972
  0.1986801710339968  0.7262206104545528  0.7270229214468498
  0.0372441421997172  0.8402834157307307  0.7225659532737664
  0.6469444439639155  0.9441053447635096  0.9254197154859609
  0.4027632033828009  0.3858642250850129  0.2221551603687608
  0.6371354804915073  0.2093367090778528  0.9314633108038294
  0.3452593323937866  0.2355693299047190  0.8990277441028262
  0.3866955418948032  0.8517148447760685  0.1655306386908787
  0.3331287734787615  0.9336268178359485  0.8720570090254786
  0.4316304152254433  0.9682302592727112  0.0545617394515559
  0.7174543706708096  0.4818817237141833  0.4233725895355447
  0.7126268014442252  0.8443759479180368  0.4362070078472924
  0.3741568077996263  0.8458379921014723  0.6792390938201242
  0.3004324192577664  0.6904376618151585  0.0790855876682873
  0.5593937570208118  0.0758280486837420  0.2931915656869988
  0.4210007945733685  0.3490252817301629  0.4087910942996443
  0.3899606494139715 -0.0257708152281330  0.2823231359279952
  0.7492787860660329  0.6414670832899266  0.2278456258662181
  0.9240342821534038  0.0808821148157079  0.1685417351848704
  0.5433402851004538  0.1067665870427029  0.8723347886906401
  0.0964412415771655  0.1279547998261150  0.1512427955798279
  0.6357091233091300  0.2418573106702988  0.6303753389724909
  0.6616582316469440  0.6577216011979613  0.3656638017977761
  0.4347721449793197  0.3143640621683915  0.0686298641837404
  0.9636850228164501  0.9595627694985595  0.8402633698604911
  0.6123789690286360  0.7881473448759415  0.2139802858719440
  0.8788607772986582  0.7306835472955587  0.2349321122306502
  0.3857397117489895  0.5198456181287144  0.7170980025866968
  0.3524793593019735  0.0875254692196350  0.5865121295592465
  0.5976993279640592  0.0048626139992235  0.3746148743465095
  0.4988655726119040  0.7292290769952239  0.5873294834874067
  0.3975322861415257  0.3174403668654332  0.9545749460267643
  0.9461136906516310  0.8341521492504351  0.5422702263463977
  0.9509482090505992  0.2848266354295537  0.0061438370432019
  0.0082700201034689  0.4784097982231903  0.8798099799379494
  0.6276482128352686  0.4645984849557879  0.3609707481143695
  0.8347090779839350  0.7304546832010811  0.4102568307946040
  0.6024713865842155  0.2850683094128486  0.5319524417393428
  0.1889424740795449  0.0146858246011316  0.2653168658839772
  0.1062664486127231  0.0988571714176751  0.2681543892540948
  0.6840559023012839  0.0039797057432981  0.1381844718035090
  0.6431904947348054  0.8361626350627025  0.8707253499024463
  0.0843245247444750  0.0883103615338351  0.5397502784542738
  0.4559803892992778  0.4852514753395153  0.1856431345732739
  0.4704476332467213  0.4942312006269539  0.3985196622722251
  0.7176053436548295  0.6812827392882760  0.8708190839112019
  0.0626011966943576  0.9078137197815628  0.8289461362520582
  0.5541998457587307  0.0181891891423680  0.5388116094610013
  0.6373209618619962  0.4827143438355583 -0.0219437168201771
  0.7640415858782409  0.7963509297213018  0.5293493328196373
  0.7794672116007791  0.3166879233408775  0.1496924987073260
  0.3207720170627138  0.4083607561221406  0.9168202522505172
  0.3784775078902350  0.1911259526428055  0.2059571342237978
  0.9042679449197529  0.5400133156660726  0.5956440071033482
  0.3530013406720194  0.9589117925679744  0.1694850975967294
  0.8647744471183322  0.4487179369798350  0.0940262503161721
  0.6194145919190135  0.2926266325430657  0.7336383655159109
  0.9720038914843335  0.5563365572704465  0.0322293840770556
  0.3407091163402656  0.2137491055779819  0.3572032667439761
  0.7178625093079708  0.7480719249561589  0.1762315782472631
  0.0877831273922858  0.5232070289232122  0.1902956475493784
  0.9861062119502105  0.7872673092049203  0.4535355758422608
  0.0190184621528073  0.2536742633540112  0.3736062414869312
  0.7439621977401277  0.2234569229406220  0.6063960590577681
  0.7454968060361249  0.3873634418315764  0.4712282313623870
  0.9236238381309378  0.1896634139317572  0.1946062805256255
  0.4033741497893731  0.6920577363976566  0.0199763571177212
  0.5378526691507796  0.0076873911793663  0.0964923614071483
  0.1992102618928580  0.8575140932501693  0.6152052294871386
  0.5691558645823095  0.1554402632694176  0.6452855485592890
  0.8421962765501965  0.8821195619497910  0.1531303556247558
  0.8054849394929621  0.9404355400593597  0.6294309485828395
  0.8037815977588619  0.0178278677580903  0.2727333548936705
  0.8784092631508191  0.6689079223378747  0.3306165562591205
  0.5413789729155900  0.1672654209647811  0.1407390941683242
  0.4653992612428477  0.9584105979009802  0.9345600488394780
  0.8786718473777877  0.8897241320464521  0.8105431307764981
  0.7952722459475039  0.5313542637216951  0.3630975243488713
  0.2152333293573628  0.1046798421237228  0.4121169077127475
  0.2818757576496257  0.0650299051181457  0.9739716114146657
  0.1866228182690491  0.4446761680558354  0.7698658703146168
  0.5710154775235664  0.7149440938751015  0.3108132430197724
  0.6244708177466917  0.0497162686290333  0.8228381540041197
  0.6999544469114044  0.7684066326532597  0.9400453900510397
  0.2745829260595815  0.1249046955475495  0.8022987292058841
  0.9801998599877808  0.3222243308637538  0.4487067275090616
  0.9281778093815940  0.7267152711847589  0.0267417033960917
  0.6922581472907661  0.3978325348039109  0.6253274487397656
  0.0936076997226456  0.3842649768614732  0.6020473352473877
  0.8340286937237269  0.5976386781589218  0.5257973281975169
  0.3143145228781052  0.4487515408808365  0.2697759208031281
  0.2730156340069325  0.0860362232251272  0.2498635903669901
  0.3645188789340648  0.1366293394728127  0.1104981984800435
  0.7256195066969229  0.3110654426711869  0.3114453332414758
  0.8617551953068630  0.2186575165693776  0.0253851861496388
  0.7748829880076914  0.4846409010634635  0.2606555399327724
  0.9967540996805581  0.9503925260076637  0.6646970514123302
  0.5612903399990302  0.2803161521195044 -0.0073588966864600
  0.7358073825840810  0.7547009110056201  0.3598643068925813
  0.7138026182795022  0.3341573471700149  0.7706312871686293
  0.6059561777694987  0.8004905770638114  0.4720879678711528
  0.1572695645727728  0.6782226092276074  0.6236542133274851
  0.1631516456425105  0.9520276381255569  0.4454980297104506
  0.1244486762485510  0.6197980841865321  0.3177002763113254
  0.5483261145873263  0.8880241786206223  0.6309307157691646
  0.1687886943299828  0.7710356278598719  0.9177482381558144
  0.6532002820434930  0.8733954991807444  0.0282789365500145
  0.1882040881495836  0.3280844956091026  0.6260532271819288
  0.1154818562205217  0.2228703615525084  0.4188227777751097
  0.8399649818928216  0.1698121264406960  0.9287802722007000
  0.2482412738516483  0.7871905857671423  0.2390955739174132
  0.9680804161718354  0.6941805291370406  0.6396425748175423
  0.3935181481386799  0.5699194958787079  0.6067018112677568
  0.1743412059123126  0.8460181324618171  0.4163268933398092
  0.0182267520412127  0.0477220737675050  0.1241308879034665
  0.9506345360499945  0.9905039259149514  0.9475953836495520
  0.3493187563207740  0.6384321761541633  0.1826002091675320
  0.2967159934825426  0.2255388911656049  0.6400657269470098
  0.1531319337882683  0.7545690773371752  0.1901968892053795
  0.6261205503894011  0.5525996127547584  0.8132589539895255
  0.0316315393067646  0.2018694992929643  0.2161995664628683
  0.8746018032936724  0.7489568589722626  0.9346581813462844
  0.1753333905025120  0.3646151258062987  0.0634050396960881
  0.6638273134205855  0.5412926481616512  0.5041924393825432
  0.3406923068640628  0.3567570460614916  0.1253805173770261
  0.2167843651689193  0.2237453444151977  0.1489549376493343
  0.3389110606702064  0.7326635059503467  0.6755678333631917
  0.3088276024900476  0.5653074554872396  0.9613116055598429
  0.3980000006382932  0.2539884784608882  0.8013648739441370
  0.3003263836353833  0.4858624684487478  0.4487198432727581
  0.6181268709520988  0.1769273674160929  0.3092794553737950
  0.7294108729016966  0.9779451055133696  0.5591813123697035
  0.0877596311474499  0.1964302873051515 -0.0698182696467651
  0.2371039164837079  0.7961633227042025  0.4930459480209510
  0.8425899943029352  0.0508927768313681  0.1001919669102740
  0.8624089911819731  0.4268348121811042  0.9831997616415027
  0.6685441233466022  0.9277116127256058  0.7346792750364582
  0.9834733776909619  0.7637661823592216  0.1934041733734282
  0.4615822586223314  0.5949211264022976  0.4411792223326356
  0.3428664270807009  0.2782301216280259  0.4460361515560264
  0.0993360017772165  0.4159911575239592  0.2095362419583232
  0.3852906387289403  0.7074691972335158  0.3333454668258707
  0.9150705328961957  0.3645363959130249  0.6669667025670868
  0.4629748525754088  0.4235398889517603  0.4843074551863008
  0.2275496570681252  0.9750115818012988  0.8200181207259101
  0.4746975635569191  0.5477939999908101  0.8888961729474131
  0.5815187172477588  0.6992865696742758  0.0896267447619846
  0.6124013817654916  0.3264776563842567  0.0816677791709615
  0.7037077950570844  0.6515293097390450  0.6307635634271306
  0.8467700171034054  0.1164056121627030  0.5466433969499687
 -0.0138328978093173  0.5541246801803834  0.2192977447374837
  0.0390462195826964  0.2251610514259272  0.0262962976342537
  0.4004282438379940 -0.0087043966341908  0.7849603654124810
  0.8194002735234232  0.8881584737823078  0.9019495254235567
  0.6525414971505407  0.4029294523040833  0.9022608766417873
  0.4441160401181338  0.8739065005358192  0.4803500083351535
  0.1924632071634408  0.7130110370756559  0.0107268957914199
 -0.0323792547905036  0.5844946441155314  0.4139806830980498
  0.0953318226269335  0.9419893697174566  0.0379308678710405
  0.8696679417774204  0.2798658002865994  0.7177853931347564
  0.0601536967015430  0.5572050820683712  0.7181692297604505
  0.9493430293912953  0.4390042139794754  0.7931791894377666
  0.5556966599824898  0.3895114787579277  0.8535197235543459
  0.5427824573756008  0.2165411656911453  0.8597736787036518
  0.6155732042481630  0.3978268061560866  0.2051028779096178
  0.8948821724063533  0.9641365354563441  0.4831595267403884
  0.9123633540247713  0.0186003510541733  0.2634282629264587
  0.2786624194683717  0.5796970425835467  0.3956154740166793
  0.3523166208406842  0.8741269236938248  0.3282072161692187
  0.0383959113088599  0.5092517016669760  0.4586395378328398
  0.1520125521839788  0.8735794126399717  0.7173378475355625
  0.7563658230956684  0.9788818798680694  0.9023889886920574
  0.8538288065429448  0.4060966542198622  0.8378556668738374
  0.6589911839928854  0.8667094002720805  0.2869220375196932
  0.4857928089522099  0.1297891648145039  0.3706348212494454
  0.5878228969031917  0.1065061903247754  0.9771887052830095
  0.0856908853541651  0.7125891579305632  0.3579680049841270
  0.3130481956953908  0.8297831350685766  0.8195261844632010
  0.4874897115986634  0.6517668220491188  0.7398853733542744
  0.4977114245344867  0.9274370651092402  0.2457030036782341
  0.6962197738112594  0.5691982893017778  0.1475565968497603
  0.0023382017699099  0.9050388911149955  0.9946018531761203
  0.7627676776094088  0.4266383377894292  0.1269915564135649
  0.0872998440800931  0.7243566333675182  0.7771874276567519
  0.7613779444705204  0.1799600776205723  0.1860511753806267
  0.2085272765987408  0.5135323471903436  0.6174989095099350
  0.3198596656967815  0.8457753483504129  0.9988582815201289
  0.8921661805256584  0.8696848393191532  0.3222324234589428
  0.2920232619511579  0.8088951198744213  0.1063888452966198
  0.7955746995617170  0.2444456528321621  0.8629885084610899
  0.6548056191455073  0.6211236371514824  0.0584749477597545
  0.4916204750258615  0.4675316532278349  0.7129069517292123
  0.3515043296295463  0.4115581574247997  0.6790686124100540
  0.4643616681433577  0.8197157814259973  0.7509522282585679
  0.0597969636740547  0.2890316831387408  0.7529774963511265
  0.5193714873505257  0.3121226270049491  0.3739173006612662
  0.7988932052596153  0.5983807770809635  0.0174585657827866
  0.3881025946048786  0.9794137529936421  0.5780940912913776
  0.0787254221178731  0.3702214267730860  0.1117601506459506
  0.8735667631158006  0.5787441223074598  0.8662638627242851
  0.8476752060999728  0.0602030304804474  0.4538115833974657
  0.1161103510689818  0.5811178109467021  0.9248035911243414
  0.9294007480830696  0.2569448847775956  0.5191881457579045
  0.0406808219937910  0.8728159160090498  0.5917524096026161
  0.4727252676166344  0.4215981354448262  0.0207339431734353
  0.2336000021189048  0.6201753512761796  0.7684622110362600
  0.0000993446747490  0.2230135072317614  0.5975227685614992
  0.4115064571322288  0.1363480353780297  0.5085378605217551
  0.1813871860060596  0.9318668744145381 -0.0289542253082262
  0.2315125565641835  0.2555093122973658  0.8899568548896685
  0.0730719242943527  0.8785191429466263  0.3062002231296401
  0.7784945702882353  0.4667628948801973  0.6322747151825507
  0.0047556782880585  0.6534156137210795  0.9949525096419474
  0.4497254973408407  0.6858328294178369  0.1864822360732638
  0.6216760039591253  0.6901298444098161  0.4749494817949498
  0.8539444382648247  0.6389144570229051  0.1757472123873985
  0.2303921404517120  0.2930617731320732  0.7864864634160498
  0.9978767359481425  0.9669301637374127  0.4440914642972096
  0.0235619341752799  0.1246426569030875  0.8473015675162882
  0.7229604810305301  0.1783631722738431  0.0825608640379329
  0.6729743023056032  0.1202571396072608  0.4923111980055742
  0.4670369019748189  0.8547588567957448  0.0791701127004082
  0.9687744662868027  0.0470097845233974  0.7728055074717445
  0.7234774816591065  0.0875658412849813  0.6963576363463487
  0.2655277778280355  0.5052318193802162  0.8759376316084608
  0.0497478196774006  0.4547119800508023  0.3626248351081365
  0.1947942801306075  0.4707773463947467  0.0330451138002076
  0.9093443583302612  0.6107861676357821  0.6783733366347307
 
  0.00000000E+00  0.00000000E+00  0.00000000E+00
  0.00000000E+00  0.00000000E+00  0.00000000E+00
  0.00000000E+00  0.00000000E+00  0.00000000E+00
  0.00000000E+00  0.00000000E+00  0.00000000E+00
  0.00000000E+00  0.00000000E+00  0.00000000E+00
  0.00000000E+00  0.00000000E+00  0.00000000E+00
  0.00000000E+00  0.00000000E+00  0.00000000E+00
  0.00000000E+00  0.00000000E+00  0.00000000E+00
  0.00000000E+00  0.00000000E+00  0.00000000E+00
  0.00000000E+00  0.00000000E+00  0.00000000E+00
  0.00000000E+00  0.00000000E+00  0.00000000E+00
  0.00000000E+00  0.00000000E+00  0.00000000E+00
  0.00000000E+00  0.00000000E+00  0.00000000E+00
  0.00000000E+00  0.00000000E+00  0.00000000E+00
  0.00000000E+00  0.00000000E+00  0.00000000E+00
  0.00000000E+00  0.00000000E+00  0.00000000E+00
  0.00000000E+00  0.00000000E+00  0.00000000E+00
  0.00000000E+00  0.00000000E+00  0.00000000E+00
  0.00000000E+00  0.00000000E+00  0.00000000E+00
  0.00000000E+00  0.00000000E+00  0.00000000E+00
  0.00000000E+00  0.00000000E+00  0.00000000E+00
  0.00000000E+00  0.00000000E+00  0.00000000E+00
  0.00000000E+00  0.00000000E+00  0.00000000E+00
  0.00000000E+00  0.00000000E+00  0.00000000E+00
  0.00000000E+00  0.00000000E+00  0.00000000E+00
  0.00000000E+00  0.00000000E+00  0.00000000E+00
  0.00000000E+00  0.00000000E+00  0.00000000E+00
  0.00000000E+00  0.00000000E+00  0.00000000E+00
  0.00000000E+00  0.00000000E+00  0.00000000E+00
  0.00000000E+00  0.00000000E+00  0.00000000E+00
  0.00000000E+00  0.00000000E+00  0.00000000E+00
  0.00000000E+00  0.00000000E+00  0.00000000E+00
  0.00000000E+00  0.00000000E+00  0.00000000E+00
  0.00000000E+00  0.00000000E+00  0.00000000E+00
  0.00000000E+00  0.00000000E+00  0.00000000E+00
  0.00000000E+00  0.00000000E+00  0.00000000E+00
  0.00000000E+00  0.00000000E+00  0.00000000E+00
  0.00000000E+00  0.00000000E+00  0.00000000E+00
  0.00000000E+00  0.00000000E+00  0.00000000E+00
  0.00000000E+00  0.00000000E+00  0.00000000E+00
  0.00000000E+00  0.00000000E+00  0.00000000E+00
  0.00000000E+00  0.00000000E+00  0.00000000E+00
  0.00000000E+00  0.00000000E+00  0.00000000E+00
  0.00000000E+00  0.00000000E+00  0.00000000E+00
  0.00000000E+00  0.00000000E+00  0.00000000E+00
  0.00000000E+00  0.00000000E+00  0.00000000E+00
  0.00000000E+00  0.00000000E+00  0.00000000E+00
  0.00000000E+00  0.00000000E+00  0.00000000E+00
  0.00000000E+00  0.00000000E+00  0.00000000E+00
  0.00000000E+00  0.00000000E+00  0.00000000E+00
  0.00000000E+00  0.00000000E+00  0.00000000E+00
  0.00000000E+00  0.00000000E+00  0.00000000E+00
  0.00000000E+00  0.00000000E+00  0.00000000E+00
  0.00000000E+00  0.00000000E+00  0.00000000E+00
  0.00000000E+00  0.00000000E+00  0.00000000E+00
  0.00000000E+00  0.00000000E+00  0.00000000E+00
  0.00000000E+00  0.00000000E+00  0.00000000E+00
  0.00000000E+00  0.00000000E+00  0.00000000E+00
  0.00000000E+00  0.00000000E+00  0.00000000E+00
  0.00000000E+00  0.00000000E+00  0.00000000E+00
  0.00000000E+00  0.00000000E+00  0.00000000E+00
  0.00000000E+00  0.00000000E+00  0.00000000E+00
  0.00000000E+00  0.00000000E+00  0.00000000E+00
  0.00000000E+00  0.00000000E+00  0.00000000E+00
  0.00000000E+00  0.00000000E+00  0.00000000E+00
  0.00000000E+00  0.00000000E+00  0.00000000E+00
  0.00000000E+00  0.00000000E+00  0.00000000E+00
  0.00000000E+00  0.00000000E+00  0.00000000E+00
  0.00000000E+00  0.00000000E+00  0.00000000E+00
  0.00000000E+00  0.00000000E+00  0.00000000E+00
  0.00000000E+00  0.00000000E+00  0.00000000E+00
  0.00000000E+00  0.00000000E+00  0.00000000E+00
  0.00000000E+00  0.00000000E+00  0.00000000E+00
  0.00000000E+00  0.00000000E+00  0.00000000E+00
  0.00000000E+00  0.00000000E+00  0.00000000E+00
  0.00000000E+00  0.00000000E+00  0.00000000E+00
  0.00000000E+00  0.00000000E+00  0.00000000E+00
  0.00000000E+00  0.00000000E+00  0.00000000E+00
  0.00000000E+00  0.00000000E+00  0.00000000E+00
  0.00000000E+00  0.00000000E+00  0.00000000E+00
  0.00000000E+00  0.00000000E+00  0.00000000E+00
  0.00000000E+00  0.00000000E+00  0.00000000E+00
  0.00000000E+00  0.00000000E+00  0.00000000E+00
  0.00000000E+00  0.00000000E+00  0.00000000E+00
  0.00000000E+00  0.00000000E+00  0.00000000E+00
  0.00000000E+00  0.00000000E+00  0.00000000E+00
  0.00000000E+00  0.00000000E+00  0.00000000E+00
  0.00000000E+00  0.00000000E+00  0.00000000E+00
  0.00000000E+00  0.00000000E+00  0.00000000E+00
  0.00000000E+00  0.00000000E+00  0.00000000E+00
  0.00000000E+00  0.00000000E+00  0.00000000E+00
  0.00000000E+00  0.00000000E+00  0.00000000E+00
  0.00000000E+00  0.00000000E+00  0.00000000E+00
  0.00000000E+00  0.00000000E+00  0.00000000E+00
  0.00000000E+00  0.00000000E+00  0.00000000E+00
  0.00000000E+00  0.00000000E+00  0.00000000E+00
  0.00000000E+00  0.00000000E+00  0.00000000E+00
  0.00000000E+00  0.00000000E+00  0.00000000E+00
  0.00000000E+00  0.00000000E+00  0.00000000E+00
  0.00000000E+00  0.00000000E+00  0.00000000E+00
  0.00000000E+00  0.00000000E+00  0.00000000E+00
  0.00000000E+00  0.00000000E+00  0.00000000E+00
  0.00000000E+00  0.00000000E+00  0.00000000E+00
  0.00000000E+00  0.00000000E+00  0.00000000E+00
  0.00000000E+00  0.00000000E+00  0.00000000E+00
  0.00000000E+00  0.00000000E+00  0.00000000E+00
  0.00000000E+00  0.00000000E+00  0.00000000E+00
  0.00000000E+00  0.00000000E+00  0.00000000E+00
  0.00000000E+00  0.00000000E+00  0.00000000E+00
  0.00000000E+00  0.00000000E+00  0.00000000E+00
  0.00000000E+00  0.00000000E+00  0.00000000E+00
  0.00000000E+00  0.00000000E+00  0.00000000E+00
  0.00000000E+00  0.00000000E+00  0.00000000E+00
  0.00000000E+00  0.00000000E+00  0.00000000E+00
  0.00000000E+00  0.00000000E+00  0.00000000E+00
  0.00000000E+00  0.00000000E+00  0.00000000E+00
  0.00000000E+00  0.00000000E+00  0.00000000E+00
  0.00000000E+00  0.00000000E+00  0.00000000E+00
  0.00000000E+00  0.00000000E+00  0.00000000E+00
  0.00000000E+00  0.00000000E+00  0.00000000E+00
  0.00000000E+00  0.00000000E+00  0.00000000E+00
  0.00000000E+00  0.00000000E+00  0.00000000E+00
  0.00000000E+00  0.00000000E+00  0.00000000E+00
  0.00000000E+00  0.00000000E+00  0.00000000E+00
  0.00000000E+00  0.00000000E+00  0.00000000E+00
  0.00000000E+00  0.00000000E+00  0.00000000E+00
  0.00000000E+00  0.00000000E+00  0.00000000E+00
  0.00000000E+00  0.00000000E+00  0.00000000E+00
  0.00000000E+00  0.00000000E+00  0.00000000E+00
  0.00000000E+00  0.00000000E+00  0.00000000E+00
  0.00000000E+00  0.00000000E+00  0.00000000E+00
  0.00000000E+00  0.00000000E+00  0.00000000E+00
  0.00000000E+00  0.00000000E+00  0.00000000E+00
  0.00000000E+00  0.00000000E+00  0.00000000E+00
  0.00000000E+00  0.00000000E+00  0.00000000E+00
  0.00000000E+00  0.00000000E+00  0.00000000E+00
  0.00000000E+00  0.00000000E+00  0.00000000E+00
  0.00000000E+00  0.00000000E+00  0.00000000E+00
  0.00000000E+00  0.00000000E+00  0.00000000E+00
  0.00000000E+00  0.00000000E+00  0.00000000E+00
  0.00000000E+00  0.00000000E+00  0.00000000E+00
  0.00000000E+00  0.00000000E+00  0.00000000E+00
  0.00000000E+00  0.00000000E+00  0.00000000E+00
  0.00000000E+00  0.00000000E+00  0.00000000E+00
  0.00000000E+00  0.00000000E+00  0.00000000E+00
  0.00000000E+00  0.00000000E+00  0.00000000E+00
  0.00000000E+00  0.00000000E+00  0.00000000E+00
  0.00000000E+00  0.00000000E+00  0.00000000E+00
  0.00000000E+00  0.00000000E+00  0.00000000E+00
  0.00000000E+00  0.00000000E+00  0.00000000E+00
  0.00000000E+00  0.00000000E+00  0.00000000E+00
  0.00000000E+00  0.00000000E+00  0.00000000E+00
  0.00000000E+00  0.00000000E+00  0.00000000E+00
  0.00000000E+00  0.00000000E+00  0.00000000E+00
  0.00000000E+00  0.00000000E+00  0.00000000E+00
  0.00000000E+00  0.00000000E+00  0.00000000E+00
  0.00000000E+00  0.00000000E+00  0.00000000E+00
  0.00000000E+00  0.00000000E+00  0.00000000E+00
  0.00000000E+00  0.00000000E+00  0.00000000E+00
  0.00000000E+00  0.00000000E+00  0.00000000E+00
  0.00000000E+00  0.00000000E+00  0.00000000E+00
  0.00000000E+00  0.00000000E+00  0.00000000E+00
  0.00000000E+00  0.00000000E+00  0.00000000E+00
  0.00000000E+00  0.00000000E+00  0.00000000E+00
  0.00000000E+00  0.00000000E+00  0.00000000E+00
  0.00000000E+00  0.00000000E+00  0.00000000E+00
  0.00000000E+00  0.00000000E+00  0.00000000E+00
  0.00000000E+00  0.00000000E+00  0.00000000E+00
  0.00000000E+00  0.00000000E+00  0.00000000E+00
  0.00000000E+00  0.00000000E+00  0.00000000E+00
  0.00000000E+00  0.00000000E+00  0.00000000E+00
  0.00000000E+00  0.00000000E+00  0.00000000E+00
  0.00000000E+00  0.00000000E+00  0.00000000E+00
  0.00000000E+00  0.00000000E+00  0.00000000E+00
  0.00000000E+00  0.00000000E+00  0.00000000E+00
  0.00000000E+00  0.00000000E+00  0.00000000E+00
  0.00000000E+00  0.00000000E+00  0.00000000E+00
  0.00000000E+00  0.00000000E+00  0.00000000E+00
  0.00000000E+00  0.00000000E+00  0.00000000E+00
  0.00000000E+00  0.00000000E+00  0.00000000E+00
  0.00000000E+00  0.00000000E+00  0.00000000E+00
  0.00000000E+00  0.00000000E+00  0.00000000E+00
  0.00000000E+00  0.00000000E+00  0.00000000E+00
  0.00000000E+00  0.00000000E+00  0.00000000E+00
  0.00000000E+00  0.00000000E+00  0.00000000E+00
  0.00000000E+00  0.00000000E+00  0.00000000E+00
  0.00000000E+00  0.00000000E+00  0.00000000E+00
  0.00000000E+00  0.00000000E+00  0.00000000E+00
  0.00000000E+00  0.00000000E+00  0.00000000E+00
  0.00000000E+00  0.00000000E+00  0.00000000E+00
  0.00000000E+00  0.00000000E+00  0.00000000E+00
  0.00000000E+00  0.00000000E+00  0.00000000E+00
  0.00000000E+00  0.00000000E+00  0.00000000E+00
  0.00000000E+00  0.00000000E+00  0.00000000E+00
  0.00000000E+00  0.00000000E+00  0.00000000E+00
  0.00000000E+00  0.00000000E+00  0.00000000E+00
  0.00000000E+00  0.00000000E+00  0.00000000E+00
  0.00000000E+00  0.00000000E+00  0.00000000E+00
  0.00000000E+00  0.00000000E+00  0.00000000E+00
  0.00000000E+00  0.00000000E+00  0.00000000E+00
  0.00000000E+00  0.00000000E+00  0.00000000E+00
  0.00000000E+00  0.00000000E+00  0.00000000E+00
  0.00000000E+00  0.00000000E+00  0.00000000E+00
  0.00000000E+00  0.00000000E+00  0.00000000E+00
  0.00000000E+00  0.00000000E+00  0.00000000E+00
  0.00000000E+00  0.00000000E+00  0.00000000E+00
  0.00000000E+00  0.00000000E+00  0.00000000E+00
  0.00000000E+00  0.00000000E+00  0.00000000E+00
  0.00000000E+00  0.00000000E+00  0.00000000E+00
  0.00000000E+00  0.00000000E+00  0.00000000E+00
  0.00000000E+00  0.00000000E+00  0.00000000E+00
  0.00000000E+00  0.00000000E+00  0.00000000E+00
  0.00000000E+00  0.00000000E+00  0.00000000E+00
  0.00000000E+00  0.00000000E+00  0.00000000E+00
  0.00000000E+00  0.00000000E+00  0.00000000E+00
  0.00000000E+00  0.00000000E+00  0.00000000E+00
  0.00000000E+00  0.00000000E+00  0.00000000E+00
  0.00000000E+00  0.00000000E+00  0.00000000E+00
  0.00000000E+00  0.00000000E+00  0.00000000E+00
  0.00000000E+00  0.00000000E+00  0.00000000E+00
  0.00000000E+00  0.00000000E+00  0.00000000E+00
  0.00000000E+00  0.00000000E+00  0.00000000E+00
  0.00000000E+00  0.00000000E+00  0.00000000E+00
  0.00000000E+00  0.00000000E+00  0.00000000E+00
  0.00000000E+00  0.00000000E+00  0.00000000E+00
  0.00000000E+00  0.00000000E+00  0.00000000E+00
  0.00000000E+00  0.00000000E+00  0.00000000E+00
  0.00000000E+00  0.00000000E+00  0.00000000E+00
  0.00000000E+00  0.00000000E+00  0.00000000E+00
  0.00000000E+00  0.00000000E+00  0.00000000E+00
  0.00000000E+00  0.00000000E+00  0.00000000E+00
  0.00000000E+00  0.00000000E+00  0.00000000E+00