In2O3 structure 42 - random placement wi
   1.00000000000000     
     8.1209980143831970    0.0187705096896119   -0.0156779457341851
     0.0191227984436166    7.9510275789579596    0.0712471125106100
    -0.0155257552917367    0.0705454736907819    8.0236193851514592
   In   Ga   O 
    14     2    24
Direct
  0.5715757729464812  0.5015671760271871  0.5984943590009166
  0.5361269109959252  0.4907441236849479  0.0714922865136458
  0.5770675640438299  0.0052964502423976  0.6006277058744018
  0.3063075844340020  0.7707106956259366  0.8465361987557145
  0.3070414059945747  0.7692145417860701  0.3539352734016461
  0.8084657776655106  0.2880992416572994  0.8600492420535204
  0.8166300424964987  0.7780372697742948  0.8798381570340439
  0.3023033837330047  0.2670672335707991  0.3517332239505251
  0.8200835712019767  0.7824333939134220  0.3849109188615643
  0.8053121448709391  0.2911846696092368  0.3764320973785757
  0.0807515957594731  0.0441363704970499  0.6267014692385402
  0.0806389241162506  0.0474808884350324  0.1241318274963064
  0.5674686730473439  0.0296586521468569  0.0938651499828680
  0.0860902814529112  0.5407169030477235  0.6263559858321273
  0.2868660140164891  0.2646069126610939  0.8466259853817988
  0.1092330204432486  0.5567210900358575  0.1253036245672092
  0.0497924819560609  0.2938076580483511  0.7438064230176877
  0.6957053961109168  0.0295194939905912  0.3325508134032731
  0.5455792446687724  0.7523835438151920  0.4823632694762736
  0.8361773320916654  0.0484469029397374  0.9997805363863606
  0.1920598421732791  0.3242148588266645  0.0771408018286763
  0.6914895826413385  0.2490019400367345  0.6225681023742951
  0.8437859556356031  0.5370702369220268  0.5081322144335658
  0.3418385564646300  0.6651448892398335  0.0980784480521422
  0.5469081316868269  0.3852589035298024  0.3261668552873118
  0.8465058803419794  0.9046298020225905  0.6364460840436905
  0.0409042074642869  0.1625971722792769  0.3750691229559706
  0.3408131027012331  0.4955969355964953  0.7442064577983132
  0.5159039408251900  0.2519519594354307  0.9497291569416433
  0.1929695731847829  0.5140831261155441  0.3718849911732960
  0.1943655332016974  0.7975462681348944  0.5968572386893527
  0.7649543937383285  0.6270725534854549  0.1481740898280037
  0.5553994917762566  0.8799995541273589  0.8627957318611763
  0.2022721170481887  0.0241973860305009  0.8842795565451738
  0.0553704032500875  0.6532623809954288  0.8954425117353750
  0.8723034663696936  0.4715389624621622  0.1457467752400206
  0.0486736121067679  0.7929551638326231  0.2352764942387964
  0.3397921926552669  0.0175924776246177  0.2359708621831516
  0.3422323842438999  0.1529166784167302  0.6033571744848985
  0.6906601947677657  0.5358058993876327  0.8439587132439712
 
  0.00000000E+00  0.00000000E+00  0.00000000E+00
  0.00000000E+00  0.00000000E+00  0.00000000E+00
  0.00000000E+00  0.00000000E+00  0.00000000E+00
  0.00000000E+00  0.00000000E+00  0.00000000E+00
  0.00000000E+00  0.00000000E+00  0.00000000E+00
  0.00000000E+00  0.00000000E+00  0.00000000E+00
  0.00000000E+00  0.00000000E+00  0.00000000E+00
  0.00000000E+00  0.00000000E+00  0.00000000E+00
  0.00000000E+00  0.00000000E+00  0.00000000E+00
  0.00000000E+00  0.00000000E+00  0.00000000E+00
  0.00000000E+00  0.00000000E+00  0.00000000E+00
  0.00000000E+00  0.00000000E+00  0.00000000E+00
  0.00000000E+00  0.00000000E+00  0.00000000E+00
  0.00000000E+00  0.00000000E+00  0.00000000E+00
  0.00000000E+00  0.00000000E+00  0.00000000E+00
  0.00000000E+00  0.00000000E+00  0.00000000E+00
  0.00000000E+00  0.00000000E+00  0.00000000E+00
  0.00000000E+00  0.00000000E+00  0.00000000E+00
  0.00000000E+00  0.00000000E+00  0.00000000E+00
  0.00000000E+00  0.00000000E+00  0.00000000E+00
  0.00000000E+00  0.00000000E+00  0.00000000E+00
  0.00000000E+00  0.00000000E+00  0.00000000E+00
  0.00000000E+00  0.00000000E+00  0.00000000E+00
  0.00000000E+00  0.00000000E+00  0.00000000E+00
  0.00000000E+00  0.00000000E+00  0.00000000E+00
  0.00000000E+00  0.00000000E+00  0.00000000E+00
  0.00000000E+00  0.00000000E+00  0.00000000E+00
  0.00000000E+00  0.00000000E+00  0.00000000E+00
  0.00000000E+00  0.00000000E+00  0.00000000E+00
  0.00000000E+00  0.00000000E+00  0.00000000E+00
  0.00000000E+00  0.00000000E+00  0.00000000E+00
  0.00000000E+00  0.00000000E+00  0.00000000E+00
  0.00000000E+00  0.00000000E+00  0.00000000E+00
  0.00000000E+00  0.00000000E+00  0.00000000E+00
  0.00000000E+00  0.00000000E+00  0.00000000E+00
  0.00000000E+00  0.00000000E+00  0.00000000E+00
  0.00000000E+00  0.00000000E+00  0.00000000E+00
  0.00000000E+00  0.00000000E+00  0.00000000E+00
  0.00000000E+00  0.00000000E+00  0.00000000E+00
  0.00000000E+00  0.00000000E+00  0.00000000E+00
