POSCAR                                  
   1.00000000000000     
    21.9293967566216601    0.0000000000000000    0.0000000000000000
     0.0000000000000000   21.9293967566216601    0.0000000000000000
     0.0000000000000000    0.0000000000000000   21.9293967566216601
   In   Sb   Te
   150    50   100
Direct
  0.6653559882197148  0.9819371403684696  0.9531101616855390
  0.7928190691132513  0.1773741173171390  0.2779072911537475
  0.8904964010541061  0.4454436912167696  0.4612436556742619
  0.5155998221188941  0.1063534629800683  0.2132346181289072
  0.2482197648601793  0.4947380132622691  0.8073696459836858
  0.1862507982956049  0.5462337707962954  0.0671765715316249
  0.7447217300471860  0.4840656366104602  0.5773137579514562
  0.9189311116216498  0.2446738532227011  0.5876041860098334
  0.0938283290957973  0.7417112912952510  0.0722926590910631
  0.7896331529430282  0.6394018076438652  0.4907778853757798
  0.7219966101860490  0.8984058315966033  0.3622379222372861
  0.9601929372792509  0.2034034773845344  0.2404939519433941
  0.3330683222168306  0.9817102726348178  0.8192339825657907
  0.3068955683705373  0.2886832636675302  0.4365091837931274
  0.7628359986567956  0.7846353658068305  0.0703222539160186
  0.9447584728226740  0.6113377067814312  0.9123305131207990
  0.8231364635260988  0.3221672639090800  0.7779623416102279
  0.6636104112292793  0.8003092318869872  0.2304564004672397
  0.4528760758777493  0.3319282196999853  0.2846820469325602
  0.7060812784927643  0.3284030665620927  0.9293112072364917
  0.6875496789197382  0.1477446233337338  0.9412647895116202
  0.4541781804376795  0.8314499592444907  0.6909404795273622
  0.4944555005055424  0.4280009063641472  0.7911729591346240
  0.1851290099115747  0.9161358904144762  0.7105300302846485
  0.3402218106037119  0.2519725409212198  0.9468889245021035
  0.6154367972343654  0.4932317008396278  0.0499410207264012
  0.1224330391141196  0.5157797427388003  0.7415242153915151
  0.4245310826419243  0.9630472002147138  0.4647290316733755
  0.7463798911527664  0.4332472221582092  0.8588193195375583
  0.8959747331723625  0.4818310545032349  0.0992225684262138
  0.9762763912912770  0.7880714235330926  0.2728554114663383
  0.1010402251044863  0.0737178018347114  0.8202625698445328
  0.2428472729459745  0.4696346746530926  0.4106377910489580
  0.6949850085141183  0.3358373567050057  0.3615731296924112
  0.3258550367521151  0.4306987765167998  0.5451969236762805
  0.6492383741027752  0.5648456325497966  0.2941433552205215
  0.7303774125533639  0.1430693557679788  0.7767104461304869
  0.9095466356071569  0.3004468478043455  0.4590794512691408
  0.0647957994265945  0.8831917917218585  0.5626837524460881
  0.6308654260863520  0.1388120429260472  0.4606178064267164
  0.9654032697319649  0.6931440931367465  0.7665968391712827
  0.7880256197595622  0.5689903492492830  0.0942093305141969
  0.0704193266092191  0.5242009227977589  0.3452571882729291
  0.7938363246871798  0.4050819134618209  0.1601483453626220
  0.0606943048077201  0.8182929798243166  0.1734917119678025
  0.4998807798224066  0.4787919046571334  0.2505591921017999
  0.4616279160410954  0.6327104502062315  0.3551760284030335
  0.4712505925004931  0.6559247738414340  0.8959244332492510
  0.3495836152913768  0.1162686323611392  0.3199643730377946
  0.7964546433313279  0.5285028106311667  0.3045665741373904
  0.3760307838329180  0.3924829775587313  0.7432326853091864
  0.6764824033962817  0.7380283984865139  0.5100867200442653
  0.8155753037448177  0.7612745268043010  0.3332798665666571
  0.8887442527223929  0.1414912469337207  0.0650423234055967
  0.4101109067808933  0.6561151261386818  0.5611415519102242
  0.6145495901572392  0.9509608357188967  0.5499737816339041
  0.1329269166746895  0.1084419449315691  0.9570718651382479
  0.9282901663621191  0.3866324772529375  0.8301990954547401
  0.5679321531826660  0.3585271515296289  0.6275690469934811
  0.6043367341050730  0.4396827252945674  0.3438304451245858
  0.4640395876384592  0.8286121732440376  0.1144961369466186
  0.9121399169832818  0.5688658820717717  0.2241514606283276
  0.8298414428893632  0.0134830366062556  0.0413408030057207
  0.8918873781935552  0.2867345709761200  0.3255222410774002
  0.9409408854451287  0.7750895612262174  0.5052179922949804
  0.4211409153534000  0.3344642895254027  0.1425011783810440
  0.4142583677337810  0.1750043955096420  0.8521630107268482
  0.0083890612937604  0.1866615128582631  0.4352676031757537
  0.7824527093502639  0.1144106276047124  0.5981980614479779
  0.2569354954681257  0.8123745629265697  0.1491102297131003
  0.8876259540026359  0.1555111487007080  0.9260453640323549
  0.3019081905078559  0.7844802562899525  0.8580684291477915
  0.3538964687602975  0.7724171968057058  0.9776217477886908
  0.1789899014309486  0.2221140900260868  0.5185442793914048
  0.9265393828663492  0.0867463334170277  0.3498329105051029
  0.1816505634824361  0.0463200305817357  0.4581069656834213
  0.4174053769279522  0.3216821048109016  0.5440682512392566
  0.6762867180000218  0.5645276067141698  0.7215800249248647
  0.5415446773004987  0.6107069123267046  0.1017860845943004
  0.5974542884158067  0.8723554367997298  0.0791122080808503
  0.7965661154442855  0.7685210473564993  0.6907719504549988
  0.0278269587350456  0.9819625156708354  0.0692793101782315
  0.5834487722140205  0.7599812956895456  0.3788837429036265
  0.5955552512372922  0.2818810644721577  0.4506328489610157
  0.7850164046003684  0.0144333285526282  0.2784949316575455
  0.0451287138632208  0.4674520465835026  0.9552364527943131
  0.9032845381382840  0.8605057137104271  0.9590726060496642
  0.2932586508005539  0.0347573875796374  0.6127023759595693
  0.9862528629257481  0.4016195451244034  0.1641217573324998
  0.9842993145773606  0.8220417028444859  0.8207702126060804
  0.4208305835547058  0.9369941088518591  0.1870824749892747
  0.9906167758279965  0.3493647601075713  0.9374739455853417
  0.9570596904109665  0.9553189520375465  0.8757627265913324
  0.8940535389083649  0.4247024387666806  0.6614244067501149
  0.8106523154569166  0.6337046380071721  0.8368505383141520
  0.4063767973231689  0.4992673689096837  0.9614343170075068
  0.1097892762434847  0.6344668428132025  0.9873131077394361
  0.4534454908437456  0.6547009652897757  0.7083374767912064
  0.1301895962968342  0.9459875937576913  0.3129157494566241
  0.5143441530305610  0.5575482942004011  0.5826191090320096
  0.5796246640160007  0.1618283406191618  0.3349034278549445
  0.4148991622040590  0.7734259906390589  0.4581294029419464
  0.4625330260323415  0.8792920318985247  0.8376264435232007
  0.1327206177061768  0.7657467086384699  0.4173512096440235
  0.3091762704512706  0.6267689037423086  0.6602456149803185
  0.3990442707027333  0.9680137294258546  0.6864434138090902
  0.5753610605857528  0.0154041942860433  0.3581675678835186
  0.7004604710776589  0.6138563340504020  0.0031195447126366
  0.1936953162317399  0.6488839280579631  0.7428868849035556
  0.6426700769194846  0.5942442311446064  0.4409719243952339
  0.0377244987160318  0.6189531342973371  0.5409506468553473
  0.5631167287282194  0.5664281146598659  0.8771253733112362
  0.1084119561439639  0.8338258408875339  0.9076857405996498
  0.8257586632272663  0.9272582620107134  0.4984777369654558
  0.7385477246633031  0.3101520884556291  0.6428881082633101
  0.7402106535080305  0.9068828850915508  0.1952496693940183
  0.4702448546179510  0.2434813450696444  0.0027644049144014
  0.1976752145811582  0.3149623495978177  0.2530914860214972
  0.4259820634295948  0.0946152324573641  0.5824046365026527
  0.2666835256221448  0.9731962200846270  0.3567003033018593
  0.2514641220541832  0.2016864972798447  0.1948386848485474
  0.4565273742437809  0.8767026168872979  0.3664649159826712
  0.2278984296653652  0.0229534498080537  0.1406332457701311
  0.0048708263513362  0.9559958372427927  0.4599197589065979
  0.2615839320536393  0.8452410067600264  0.5285063175725402
  0.7687007900455743  0.8591984126709583  0.9230581759337868
  0.9616140459402540  0.5521649367613992  0.7731666875016217
  0.7137741846447881  0.9563473024243594  0.8172778331865221
  0.6238020692252755  0.7877787629286466  0.6964686541461939
  0.3987733040457009  0.1885275066496119  0.4814414700291841
  0.4468468374067475  0.2316191068663412  0.6920674474896472
  0.8725204842080945  0.9555887834500485  0.7140534812006276
  0.8989046310734479  0.6673866692522125  0.0371117206213901
  0.0963935545374123  0.1887027669289630  0.1375030254361593
  0.3110520209004112  0.4226733270242483  0.0111770967539188
 -0.0131531849391208  0.0250331386382878  0.5968916211297643
  0.5697698056925031  0.0715901758096500  0.7188463305457503
  0.1969513129602714  0.1797388471405631  0.7004553594555057
  0.1798333576502326  0.6442117423607575  0.3829430574516253
  0.3709279269732345  0.8120756252560292  0.2779750084905641
  0.8466043322809479  0.5871748396626028  0.6042375448439158
  0.6004792192620300  0.3690251663482496  0.1883349587722951
  0.8259674169277843  0.3643032787519673  0.5551748963304964
  0.6353356881607050  0.2521144134416323  0.0605618279367134
  0.1602960156986128  0.3225371566836200  0.0152713443315405
  0.8188336562341539  0.1438407388490067  0.4097246893667416
  0.3600502998019583  0.4811515929968953  0.2688286573021018
  0.2583985825739151  0.9446527096303475  0.0348947808013227
  0.1668253725756946  0.4489047041719346  0.6141199218321077
  0.6114311121280679  0.7080310691150085  0.9688447253249315
  0.7815336995260762  0.2278300060969949  0.8686110979922225
  0.3006816195112428  0.2229053366653843  0.7763994369055665
  0.9151542369734418  0.6752241609413435  0.3219561302933526
  0.0840295896521795  0.1472230831021665  0.2613384724301359
  0.7186110140806694  0.0517860280740690  0.4036150328170257
  0.2975257630821821  0.6671224739314724  0.0375886663676440
  0.1590315705764835  0.6527534800493296  0.1721459323666074
  0.0355595582369383  0.2650948406637485  0.6536363198880583
  0.6896076765896316  0.2044178959559531  0.5646990296151176
  0.6725418970202641  0.0976208539620626  0.2372926478082378
  0.2068423537729332  0.7805976369408015  0.6981026333356867
  0.2875665145081391  0.3342931342803364  0.8449750795367855
  0.7306284476789378  0.0101302092557296  0.5260531763909290
  0.5508187267748006  0.4727668572864994  0.4683256680317014
  0.0941965212310555  0.7505408000581404  0.5453361499603083
  0.7234493007394586  0.0757892439706501  0.1161559835503100
  0.9458084336901247  0.4810089862465468  0.3428737167843282
  0.6257606003921833  0.9738069351341712  0.2326206564008080
  0.3474882896990932  0.1174715497687306  0.0084251616882314
  0.9882133832901501  0.2587754962339152  0.7779865800294443
  0.9922318851268948  0.0037249153954044  0.7515027498412590
  0.2210691937748895  0.7305589094309514  0.5780804484754218
  0.3023197218337252  0.6873197151860144  0.4380866682410061
  0.0941947083036729  0.4960815164165022  0.1645415827518471
  0.0907010575454759  0.1271177099423641  0.5354568343203924
  0.5467265618490659  0.9913637657815838  0.1279712939810275
  0.7220612397001587  0.4279704858516183  0.7243346452875341
  0.6125877901703701  0.0716470821153827  0.0457039098882595
  0.8547860567807226  0.8494944787482014  0.2440101092746272
  0.8681527963697991  0.7592456239974025  0.1462395606411440
  0.0535296642167160  0.6032162163254373  0.2306145742130155
  0.1580986309806035  0.4522990353557128  0.2737512708264744
  0.0735347933233363  0.1415542618064784  0.6645399510327228
  0.5444509791198723  0.9548782638597130  0.6634235128957657
  0.7530753022414592  0.1939715164686207  0.0682503017354452
  0.1086640282695959  0.2431846610687483  0.8318795458003841
  0.1153679238395591  0.2471754784270565  0.3419539808399170
  0.6452191935187879  0.8079479794292633  0.8846752229513798
  0.5941989892983001  0.8918152700260734  0.7700763853946991
  0.2578967057752710  0.5992333547134447  0.9294291561757818
  0.3335468755795907  0.5634403751052789  0.4838502644065966
  0.7302698814567981  0.9122857778716504  0.0611589611876950
  0.5216075710270355  0.6786642020145330  0.4602812581710374
  0.7906600601343966  0.2640715921677114  0.1733371298357262
  0.3313115383140093  0.2914713468513451  0.6667454139735338
  0.3625672992094803  0.0518403821265923  0.1241315108996781
  0.8642965175641022  0.4814959504581766  0.9010982313191502
  0.1625025432374924  0.3624208235847200  0.8073117868551245
  0.0707362519698975  0.2463169617085432  0.9578228830837832
  0.3963015714260311  0.5838060926692900  0.0668244455418373
  0.8888414357045752  0.0897353730500554  0.2162013590729285
  0.3075287886929607  0.5022885431241431  0.1207509359399847
  0.3302137804812283  0.0575872270450520  0.4665047664881759
  0.8011010709403615  0.8017974793831315  0.4589744915079829
  0.7705984433087439  0.2613172124548196  0.4569612272918619
  0.6944110175359994  0.5546645645737134  0.8796790626369516
  0.1032522080360461  0.9458734144935010  0.1682202661515934
  0.3656069700916528  0.7412180328401963  0.1574613370324758
  0.4989743582791205  0.7425450528994106  0.8061536355787434
  0.2805721355517140  0.1742102612408969  0.5932054335774652
  0.6525132289034791  0.5844558800792593  0.5861601296253033
  0.8301381082154913  0.5305471618062776  0.7284434792145927
  0.2836291640200045  0.9188640341447899  0.2198254279693037
  0.2247819995102465  0.0412014656835146  0.7403568140597491
  0.3170942172267400  0.3584358911458415  0.3183112605911541
  0.2474916606101919  0.8339186926871982  0.3994163252915544
  0.1905041486698565  0.9473613681518749  0.5707275916101079
  0.9055095831383780  0.9019524011329340  0.5980108503869697
  0.2408228773419855  0.5537986386233863  0.2894770303094415
  0.5638124901991982  0.8861131691917383  0.9488604359874833
  0.5936528438378759  0.2526646222557309  0.9344370887511521
  0.4401159212430084  0.1036452881647784  0.7373627718916872
  0.7062204612169364  0.7007072149682783  0.7596914201072307
  0.6920504182957958  0.5074247232519260  0.1748017553855839
  0.2056493846761237  0.8154578041386207  0.0275347302605630
  0.9161443205348015  0.9167075035760875  0.0830262625658091
  0.3839365416339883  0.8940050310510423  0.0170585363416680
  0.9016175676601287  0.7078175016988639  0.6436558255351079
  0.7158327185472831  0.8309314942742533  0.6102989302550867
  0.4788175383376304  0.7152929754606937  0.0117082598447839
  0.4975426186513223  0.4509542610428097  0.1180829975505049
  0.1998100308498159  0.3513330626307103  0.5009306175803956
  0.0740048372701186  0.9699344436631385  0.9454559169515080
  0.5287839186967727  0.2364826791469322  0.1302452310984820
  0.1962564089361135  0.7000168400259826  0.8741646011560601
  0.2969297186737613  0.4844761300931848  0.6747636369279861
  0.0108246050232264  0.4291040852904492  0.7337880564698809
  0.0734813340293911  0.5666892636254879  0.8708843481040159
  0.8975892698021598  0.1198484667877780  0.5322729856600944
  0.2265166929593193  0.8920331121568013  0.8420847761954755
  0.8020557145768452  0.6583698257555699  0.1936432915670292
  0.0994572236593517  0.3217339912764642  0.1355843204818918
  0.3876243691602375  0.8672690085224479  0.5594653294313972
  0.6264188764334516  0.0689531663671829  0.8385923406114623
  0.9521506246816380  0.5078234490760557  0.5635677639627577
  0.1759629943801755  0.3261865061026739  0.6839853066473499
  0.1716985801292588  0.7645056357641158  0.2373128233424990
  0.4563765368666148  0.2135426941263873  0.3554573599725606
  0.2727807272546102  0.0401057282583578  0.9352931993508611
  0.9140093855102136  0.2666369214905175  0.1281954377824226
  0.0632037010261976  0.6297408118302866  0.6878472968589840
  0.6935786309435885  0.7041492896539343  0.3244771361409811
  0.9586270738619996  0.1349723872793889  0.8099178000388023
  0.7717916735943279  0.5104552868354841  0.4408095904817041
  0.5304017562541038  0.7381538192920156  0.6204583319486425
  0.5407251455635050  0.5510278790883525  0.7441787436562349
  0.1296745841948556  0.5470738991816888  0.4624211284960372
  0.8030091799230201  0.3871648913959674  0.3020450719145661
  0.6363618853680638  0.1806335004570682  0.6891370988273401
  0.9992217523626128  0.3709010989524207  0.2969786635467058
  0.4430136595618089  0.0036831244458330  0.3030460588808505
  0.8434262913243639  0.0248456420464936  0.9064620585939780
  0.0410833798363551  0.8491739359458913  0.3743897364728594
  0.1828776526432207  0.4424545194076752  0.9664747367085580
  0.4188179065593325  0.5155693006217303  0.3992692938257754
  0.4677831986021666  0.1068759575205231  0.9571037619801678
  0.3824090531809683  0.1665523972980285  0.1781454559609568
  0.3692973921608331  0.5780508439158843  0.8559662862954888
  0.8427859525414979  0.8472642635201447  0.7867121126498851
  0.9291814984361944  0.6427785998795357  0.4464363730953539
  0.6892943390720661  0.3737528191674728  0.0584705019033434
  0.2840133244982134  0.3022390153995067  0.0600838079354227
  0.6435395756568205  0.3958276158302718  0.5274061166995448
  0.2061955590284631  0.1459329764113529  0.0764309116533054
  0.8750019248305676  0.3932153614046088  0.9971632643669560
  0.4879044799088014  0.3637831816452743  0.4256020662782654
  0.4890954555951960  0.2738950422728071  0.8089573049354003
  0.5303423992312856  0.8098492346721752  0.2684159736666674
  0.5956862836990251  0.8841706898685613  0.4319886362699123
  0.4616856886142905  0.4311200802918013  0.6230231696132078
  0.5310548814233336  0.6139621936241723  0.2455838219167950
  0.0529183135641239  0.8908552162301763  0.7031215037840571
  0.5224475263315057  0.4482446894224594  0.9238814092122839
  0.7884580580087951  0.7173042102431799  0.9582660168632949
  0.6091996789913058  0.3579100624039249  0.7510994676113112
  0.3447168387880454  0.6794905372890416  0.3162089777500059
  0.5276013162586091  0.2403954613269249  0.5833880158324897
  0.8885197659851618  0.9577438500619212  0.3866967458321344
  0.2139691097344722  0.0839963855165817  0.2584219228913159
  0.6411278887167788  0.7410379188899727  0.1053664075894484
  0.2183073557191399  0.1839727864511700  0.3928711936950483
  0.0220249911551744  0.1131443895981652  0.0565913200710604
  0.6572166926252031  0.2501312192973982  0.2681392533657528
  0.3307386875305874  0.7592843259384802  0.7306262452961430
  0.0554603387878104  0.0509806172062226  0.3794820525348157
  0.8330294063700602  0.2198466286044739  0.6909040026891433
  0.5318948400665229  0.0475332625025599  0.4950396607191200
  0.7646817368729912  0.0310402701319773  0.7044517703002853
 -0.0084893110352928  0.7565569581550619  0.9721234926385606
  0.0050359302277328  0.5546024154339924  0.0479252789792289
 
  0.00000000E+00  0.00000000E+00  0.00000000E+00
  0.00000000E+00  0.00000000E+00  0.00000000E+00
  0.00000000E+00  0.00000000E+00  0.00000000E+00
  0.00000000E+00  0.00000000E+00  0.00000000E+00
  0.00000000E+00  0.00000000E+00  0.00000000E+00
  0.00000000E+00  0.00000000E+00  0.00000000E+00
  0.00000000E+00  0.00000000E+00  0.00000000E+00
  0.00000000E+00  0.00000000E+00  0.00000000E+00
  0.00000000E+00  0.00000000E+00  0.00000000E+00
  0.00000000E+00  0.00000000E+00  0.00000000E+00
  0.00000000E+00  0.00000000E+00  0.00000000E+00
  0.00000000E+00  0.00000000E+00  0.00000000E+00
  0.00000000E+00  0.00000000E+00  0.00000000E+00
  0.00000000E+00  0.00000000E+00  0.00000000E+00
  0.00000000E+00  0.00000000E+00  0.00000000E+00
  0.00000000E+00  0.00000000E+00  0.00000000E+00
  0.00000000E+00  0.00000000E+00  0.00000000E+00
  0.00000000E+00  0.00000000E+00  0.00000000E+00
  0.00000000E+00  0.00000000E+00  0.00000000E+00
  0.00000000E+00  0.00000000E+00  0.00000000E+00
  0.00000000E+00  0.00000000E+00  0.00000000E+00
  0.00000000E+00  0.00000000E+00  0.00000000E+00
  0.00000000E+00  0.00000000E+00  0.00000000E+00
  0.00000000E+00  0.00000000E+00  0.00000000E+00
  0.00000000E+00  0.00000000E+00  0.00000000E+00
  0.00000000E+00  0.00000000E+00  0.00000000E+00
  0.00000000E+00  0.00000000E+00  0.00000000E+00
  0.00000000E+00  0.00000000E+00  0.00000000E+00
  0.00000000E+00  0.00000000E+00  0.00000000E+00
  0.00000000E+00  0.00000000E+00  0.00000000E+00
  0.00000000E+00  0.00000000E+00  0.00000000E+00
  0.00000000E+00  0.00000000E+00  0.00000000E+00
  0.00000000E+00  0.00000000E+00  0.00000000E+00
  0.00000000E+00  0.00000000E+00  0.00000000E+00
  0.00000000E+00  0.00000000E+00  0.00000000E+00
  0.00000000E+00  0.00000000E+00  0.00000000E+00
  0.00000000E+00  0.00000000E+00  0.00000000E+00
  0.00000000E+00  0.00000000E+00  0.00000000E+00
  0.00000000E+00  0.00000000E+00  0.00000000E+00
  0.00000000E+00  0.00000000E+00  0.00000000E+00
  0.00000000E+00  0.00000000E+00  0.00000000E+00
  0.00000000E+00  0.00000000E+00  0.00000000E+00
  0.00000000E+00  0.00000000E+00  0.00000000E+00
  0.00000000E+00  0.00000000E+00  0.00000000E+00
  0.00000000E+00  0.00000000E+00  0.00000000E+00
  0.00000000E+00  0.00000000E+00  0.00000000E+00
  0.00000000E+00  0.00000000E+00  0.00000000E+00
  0.00000000E+00  0.00000000E+00  0.00000000E+00
  0.00000000E+00  0.00000000E+00  0.00000000E+00
  0.00000000E+00  0.00000000E+00  0.00000000E+00
  0.00000000E+00  0.00000000E+00  0.00000000E+00
  0.00000000E+00  0.00000000E+00  0.00000000E+00
  0.00000000E+00  0.00000000E+00  0.00000000E+00
  0.00000000E+00  0.00000000E+00  0.00000000E+00
  0.00000000E+00  0.00000000E+00  0.00000000E+00
  0.00000000E+00  0.00000000E+00  0.00000000E+00
  0.00000000E+00  0.00000000E+00  0.00000000E+00
  0.00000000E+00  0.00000000E+00  0.00000000E+00
  0.00000000E+00  0.00000000E+00  0.00000000E+00
  0.00000000E+00  0.00000000E+00  0.00000000E+00
  0.00000000E+00  0.00000000E+00  0.00000000E+00
  0.00000000E+00  0.00000000E+00  0.00000000E+00
  0.00000000E+00  0.00000000E+00  0.00000000E+00
  0.00000000E+00  0.00000000E+00  0.00000000E+00
  0.00000000E+00  0.00000000E+00  0.00000000E+00
  0.00000000E+00  0.00000000E+00  0.00000000E+00
  0.00000000E+00  0.00000000E+00  0.00000000E+00
  0.00000000E+00  0.00000000E+00  0.00000000E+00
  0.00000000E+00  0.00000000E+00  0.00000000E+00
  0.00000000E+00  0.00000000E+00  0.00000000E+00
  0.00000000E+00  0.00000000E+00  0.00000000E+00
  0.00000000E+00  0.00000000E+00  0.00000000E+00
  0.00000000E+00  0.00000000E+00  0.00000000E+00
  0.00000000E+00  0.00000000E+00  0.00000000E+00
  0.00000000E+00  0.00000000E+00  0.00000000E+00
  0.00000000E+00  0.00000000E+00  0.00000000E+00
  0.00000000E+00  0.00000000E+00  0.00000000E+00
  0.00000000E+00  0.00000000E+00  0.00000000E+00
  0.00000000E+00  0.00000000E+00  0.00000000E+00
  0.00000000E+00  0.00000000E+00  0.00000000E+00
  0.00000000E+00  0.00000000E+00  0.00000000E+00
  0.00000000E+00  0.00000000E+00  0.00000000E+00
  0.00000000E+00  0.00000000E+00  0.00000000E+00
  0.00000000E+00  0.00000000E+00  0.00000000E+00
  0.00000000E+00  0.00000000E+00  0.00000000E+00
  0.00000000E+00  0.00000000E+00  0.00000000E+00
  0.00000000E+00  0.00000000E+00  0.00000000E+00
  0.00000000E+00  0.00000000E+00  0.00000000E+00
  0.00000000E+00  0.00000000E+00  0.00000000E+00
  0.00000000E+00  0.00000000E+00  0.00000000E+00
  0.00000000E+00  0.00000000E+00  0.00000000E+00
  0.00000000E+00  0.00000000E+00  0.00000000E+00
  0.00000000E+00  0.00000000E+00  0.00000000E+00
  0.00000000E+00  0.00000000E+00  0.00000000E+00
  0.00000000E+00  0.00000000E+00  0.00000000E+00
  0.00000000E+00  0.00000000E+00  0.00000000E+00
  0.00000000E+00  0.00000000E+00  0.00000000E+00
  0.00000000E+00  0.00000000E+00  0.00000000E+00
  0.00000000E+00  0.00000000E+00  0.00000000E+00
  0.00000000E+00  0.00000000E+00  0.00000000E+00
  0.00000000E+00  0.00000000E+00  0.00000000E+00
  0.00000000E+00  0.00000000E+00  0.00000000E+00
  0.00000000E+00  0.00000000E+00  0.00000000E+00
  0.00000000E+00  0.00000000E+00  0.00000000E+00
  0.00000000E+00  0.00000000E+00  0.00000000E+00
  0.00000000E+00  0.00000000E+00  0.00000000E+00
  0.00000000E+00  0.00000000E+00  0.00000000E+00
  0.00000000E+00  0.00000000E+00  0.00000000E+00
  0.00000000E+00  0.00000000E+00  0.00000000E+00
  0.00000000E+00  0.00000000E+00  0.00000000E+00
  0.00000000E+00  0.00000000E+00  0.00000000E+00
  0.00000000E+00  0.00000000E+00  0.00000000E+00
  0.00000000E+00  0.00000000E+00  0.00000000E+00
  0.00000000E+00  0.00000000E+00  0.00000000E+00
  0.00000000E+00  0.00000000E+00  0.00000000E+00
  0.00000000E+00  0.00000000E+00  0.00000000E+00
  0.00000000E+00  0.00000000E+00  0.00000000E+00
  0.00000000E+00  0.00000000E+00  0.00000000E+00
  0.00000000E+00  0.00000000E+00  0.00000000E+00
  0.00000000E+00  0.00000000E+00  0.00000000E+00
  0.00000000E+00  0.00000000E+00  0.00000000E+00
  0.00000000E+00  0.00000000E+00  0.00000000E+00
  0.00000000E+00  0.00000000E+00  0.00000000E+00
  0.00000000E+00  0.00000000E+00  0.00000000E+00
  0.00000000E+00  0.00000000E+00  0.00000000E+00
  0.00000000E+00  0.00000000E+00  0.00000000E+00
  0.00000000E+00  0.00000000E+00  0.00000000E+00
  0.00000000E+00  0.00000000E+00  0.00000000E+00
  0.00000000E+00  0.00000000E+00  0.00000000E+00
  0.00000000E+00  0.00000000E+00  0.00000000E+00
  0.00000000E+00  0.00000000E+00  0.00000000E+00
  0.00000000E+00  0.00000000E+00  0.00000000E+00
  0.00000000E+00  0.00000000E+00  0.00000000E+00
  0.00000000E+00  0.00000000E+00  0.00000000E+00
  0.00000000E+00  0.00000000E+00  0.00000000E+00
  0.00000000E+00  0.00000000E+00  0.00000000E+00
  0.00000000E+00  0.00000000E+00  0.00000000E+00
  0.00000000E+00  0.00000000E+00  0.00000000E+00
  0.00000000E+00  0.00000000E+00  0.00000000E+00
  0.00000000E+00  0.00000000E+00  0.00000000E+00
  0.00000000E+00  0.00000000E+00  0.00000000E+00
  0.00000000E+00  0.00000000E+00  0.00000000E+00
  0.00000000E+00  0.00000000E+00  0.00000000E+00
  0.00000000E+00  0.00000000E+00  0.00000000E+00
  0.00000000E+00  0.00000000E+00  0.00000000E+00
  0.00000000E+00  0.00000000E+00  0.00000000E+00
  0.00000000E+00  0.00000000E+00  0.00000000E+00
  0.00000000E+00  0.00000000E+00  0.00000000E+00
  0.00000000E+00  0.00000000E+00  0.00000000E+00
  0.00000000E+00  0.00000000E+00  0.00000000E+00
  0.00000000E+00  0.00000000E+00  0.00000000E+00
  0.00000000E+00  0.00000000E+00  0.00000000E+00
  0.00000000E+00  0.00000000E+00  0.00000000E+00
  0.00000000E+00  0.00000000E+00  0.00000000E+00
  0.00000000E+00  0.00000000E+00  0.00000000E+00
  0.00000000E+00  0.00000000E+00  0.00000000E+00
  0.00000000E+00  0.00000000E+00  0.00000000E+00
  0.00000000E+00  0.00000000E+00  0.00000000E+00
  0.00000000E+00  0.00000000E+00  0.00000000E+00
  0.00000000E+00  0.00000000E+00  0.00000000E+00
  0.00000000E+00  0.00000000E+00  0.00000000E+00
  0.00000000E+00  0.00000000E+00  0.00000000E+00
  0.00000000E+00  0.00000000E+00  0.00000000E+00
  0.00000000E+00  0.00000000E+00  0.00000000E+00
  0.00000000E+00  0.00000000E+00  0.00000000E+00
  0.00000000E+00  0.00000000E+00  0.00000000E+00
  0.00000000E+00  0.00000000E+00  0.00000000E+00
  0.00000000E+00  0.00000000E+00  0.00000000E+00
  0.00000000E+00  0.00000000E+00  0.00000000E+00
  0.00000000E+00  0.00000000E+00  0.00000000E+00
  0.00000000E+00  0.00000000E+00  0.00000000E+00
  0.00000000E+00  0.00000000E+00  0.00000000E+00
  0.00000000E+00  0.00000000E+00  0.00000000E+00
  0.00000000E+00  0.00000000E+00  0.00000000E+00
  0.00000000E+00  0.00000000E+00  0.00000000E+00
  0.00000000E+00  0.00000000E+00  0.00000000E+00
  0.00000000E+00  0.00000000E+00  0.00000000E+00
  0.00000000E+00  0.00000000E+00  0.00000000E+00
  0.00000000E+00  0.00000000E+00  0.00000000E+00
  0.00000000E+00  0.00000000E+00  0.00000000E+00
  0.00000000E+00  0.00000000E+00  0.00000000E+00
  0.00000000E+00  0.00000000E+00  0.00000000E+00
  0.00000000E+00  0.00000000E+00  0.00000000E+00
  0.00000000E+00  0.00000000E+00  0.00000000E+00
  0.00000000E+00  0.00000000E+00  0.00000000E+00
  0.00000000E+00  0.00000000E+00  0.00000000E+00
  0.00000000E+00  0.00000000E+00  0.00000000E+00
  0.00000000E+00  0.00000000E+00  0.00000000E+00
  0.00000000E+00  0.00000000E+00  0.00000000E+00
  0.00000000E+00  0.00000000E+00  0.00000000E+00
  0.00000000E+00  0.00000000E+00  0.00000000E+00
  0.00000000E+00  0.00000000E+00  0.00000000E+00
  0.00000000E+00  0.00000000E+00  0.00000000E+00
  0.00000000E+00  0.00000000E+00  0.00000000E+00
  0.00000000E+00  0.00000000E+00  0.00000000E+00
  0.00000000E+00  0.00000000E+00  0.00000000E+00
  0.00000000E+00  0.00000000E+00  0.00000000E+00
  0.00000000E+00  0.00000000E+00  0.00000000E+00
  0.00000000E+00  0.00000000E+00  0.00000000E+00
  0.00000000E+00  0.00000000E+00  0.00000000E+00
  0.00000000E+00  0.00000000E+00  0.00000000E+00
  0.00000000E+00  0.00000000E+00  0.00000000E+00
  0.00000000E+00  0.00000000E+00  0.00000000E+00
  0.00000000E+00  0.00000000E+00  0.00000000E+00
  0.00000000E+00  0.00000000E+00  0.00000000E+00
  0.00000000E+00  0.00000000E+00  0.00000000E+00
  0.00000000E+00  0.00000000E+00  0.00000000E+00
  0.00000000E+00  0.00000000E+00  0.00000000E+00
  0.00000000E+00  0.00000000E+00  0.00000000E+00
  0.00000000E+00  0.00000000E+00  0.00000000E+00
  0.00000000E+00  0.00000000E+00  0.00000000E+00
  0.00000000E+00  0.00000000E+00  0.00000000E+00
  0.00000000E+00  0.00000000E+00  0.00000000E+00
  0.00000000E+00  0.00000000E+00  0.00000000E+00
  0.00000000E+00  0.00000000E+00  0.00000000E+00
  0.00000000E+00  0.00000000E+00  0.00000000E+00
  0.00000000E+00  0.00000000E+00  0.00000000E+00
  0.00000000E+00  0.00000000E+00  0.00000000E+00
  0.00000000E+00  0.00000000E+00  0.00000000E+00
  0.00000000E+00  0.00000000E+00  0.00000000E+00
  0.00000000E+00  0.00000000E+00  0.00000000E+00
  0.00000000E+00  0.00000000E+00  0.00000000E+00
  0.00000000E+00  0.00000000E+00  0.00000000E+00
  0.00000000E+00  0.00000000E+00  0.00000000E+00
  0.00000000E+00  0.00000000E+00  0.00000000E+00
  0.00000000E+00  0.00000000E+00  0.00000000E+00
  0.00000000E+00  0.00000000E+00  0.00000000E+00
  0.00000000E+00  0.00000000E+00  0.00000000E+00
  0.00000000E+00  0.00000000E+00  0.00000000E+00
  0.00000000E+00  0.00000000E+00  0.00000000E+00
  0.00000000E+00  0.00000000E+00  0.00000000E+00
  0.00000000E+00  0.00000000E+00  0.00000000E+00