Sb                                      
   1.00000000000000     
    18.7624907630590236    0.0000000000000000    0.0000000000000000
     0.0000000000000000   18.7624907630590236    0.0000000000000000
     0.0000000000000000    0.0000000000000000   18.7624907630590236
   Sb   Ge
   195    21
Direct
  0.0878267322693674  0.9266084269805575  0.6601700385753970
  0.4107961721235785  0.9191958749648629  0.1682476027746216
  0.9201575253605824  0.2625913173834846  0.8261727655495751
  0.9117140835769906  0.0868144056484039  0.1748234818587304
  0.0852282787872089  0.0949477365207681  0.4887060659012888
  0.5876841089087222  0.2621598755997574  0.8244009676622737
  0.4184039759604040  0.7617582023539429  0.1507637127760741
  0.4252848610042569  0.1013009128530421  0.1593400158253333
  0.2441347339686213  0.9188508556075710  0.3355850395181834
  0.5763114879601720  0.5905474976478923  0.0000211785894396
  0.0870504841859222  0.2627713036027096  0.3242068564961503
  0.9118946447516044  0.4187577004916903  0.1685737715845352
  0.4199223455942272  0.9236477256596534  0.6511475663107509
  0.4107879990532341  0.0843776635889746  0.0024843258374548
  0.2371444320695884  0.9175829831682494  0.0017540242963350
  0.9222950441001574  0.0931292324549378  0.9932300631506312
  0.4107886898797569  0.9181690942167551  0.8340774818087273
  0.5764233718035960  0.9168509885136461  0.6682049942204095
  0.5835037983964915  0.9268192148207705  0.4923636004338961
  0.9125741646554373  0.0836027769160222  0.4982991589273890
  0.5777493064846465  0.9196421967941960  0.3342781697335049
  0.9300367428537855  0.4275304266863370 -0.0058835043229327
  0.4039825973944447  0.5833385192553951  0.1672659215255233
  0.7430438089885594  0.5865906304878536  0.1677515239142529
  0.7539093907881284  0.9286553704662334  0.3256889139044858
  0.9210005551375370  0.4292808691491495  0.6600796739848159
  0.5828582057439943  0.7603368557628980  0.6517836183740257
  0.9207693148788628  0.4283459593326067  0.3267587787419883
  0.2619516692468692  0.2612555516342671  0.1596480314434088
  0.7535032017332628  0.5968774448423021  0.6594341528657128
  0.2544459152558977  0.4293303709916741  0.6599842254509147
  0.2526218021657106  0.0938994026338507  0.9854661475675104
  0.5831781437553804  0.5959436698658024  0.1588635372619399
  0.4130462265702441  0.0821045426152047  0.6684849490458193
  0.0825196809054973  0.5842131960084217  0.1699811818072546
  0.2444672431059468  0.5870716362952819  0.6699199568360044
  0.4195484727679772  0.9276927481839713  0.3270636416480884
  0.9133460904378105  0.5854100437315942  0.3446921198012072
  0.2456948630156457  0.2514892238128373  0.6688655608210191
  0.9145291839047285  0.9169527810463839  0.0014054467564845
  0.0872633673941857  0.4262435272922326  0.1515719973504201
  0.0870583595399212  0.5948738150486343  0.6493453849300479
  0.7452587756593908  0.4188498240685454  0.3348100907619110
  0.2511889029725788  0.7609507303821458  0.3253344563975119
  0.7411436596907571  0.7539473590336842  0.6694526991185783
  0.9131497266467824  0.5854559123721066  0.0036447764424936
  0.9210668760094557  0.9267215124475213  0.8267506886309934
  0.0855652954673295  0.7623800581183953  0.8256788513755272
  0.0801000152659140  0.7523418150752319  0.6661262404448610
  0.2548249914818579  0.2582181041678569  0.8273818928319283
  0.7334453814720395  0.7534116776526837  0.9991455404258573
  0.0761866815915346  0.5884442135181547  0.8334898628078934
  0.7535888031388487  0.0944877131077358  0.1573029971466369
  0.7608433987182712  0.7632621672260406  0.8267358198015422
  0.0811256019052486  0.9159161668432060  0.5016206529170780
  0.5764330008752099  0.7545574790595553  0.1660835144724915
  0.0881166107411291  0.7574517021232722  0.4856244183038804
  0.4200230751796834  0.0917465434874010  0.4918568713479429
  0.0787226816719854  0.7545017407680926  0.0017977944987425
  0.4091022502885704  0.0861892883145525  0.3324792205163841
  0.9231943401584544  0.5940625822124693  0.1620960996130870
  0.7527941509553758  0.2618912009142538  0.6578095725085612
  0.4212516374284829  0.0931467014528315  0.8279218861259969
  0.2501908474757172  0.0936511780011905  0.3222234049384451
  0.2456188130189459  0.4176609707881844  0.8369235594563436
  0.9054232688803239  0.0846944492142723  0.8356137399542128
  0.2446192531635111  0.2515833571860897  0.3340518390313177
  0.7533414892750285  0.4292226631975249  0.4927625701699301
  0.0786492068303213  0.2514349387601317  0.8369582883398159
  0.9214167178862598  0.7601984639834404  0.6605531577078636
  0.5790811999419911  0.0858888142106240  0.4994590088413420
  0.7521949800853810  0.7616339560441001  0.1569557253680594
  0.2526072720989426  0.9283825384698899  0.1579427854741920
  0.2447416651506256  0.2514623585518738  0.0029792153445691
  0.2434632305104800  0.5862979064091379  0.3327165193721876
  0.4133014734465576  0.5877163602512131  0.8365630091701786
  0.4190406272350065  0.2703397023117012 -0.0027563538728713
  0.5865504822469180  0.9253232056828579  0.8266808928255237
  0.0874055701266572  0.2692738429482114  0.9944587534911569
  0.9274195464846453  0.7620131005498441  0.3255479648632262
  0.9123868081388050  0.9196725080659079  0.3353354737089873
  0.7447890389216379  0.9203513418453476  0.8349066698491178
  0.0703936011885149  0.0844186779007553  0.3297235055915378
  0.0931388822808415  0.0933333056589055  0.8296934978322640
  0.4161230374090706  0.2509563650485549  0.5001469351091264
  0.4214488270955300  0.2608216539413113  0.3174351017523758
  0.0782081366993590  0.9216081257066252  0.1653843384127245
  0.9124499691643964  0.4218224090518145  0.8367385338003214
  0.2565226503707013  0.2607238453392778  0.4922976704158606
  0.7465101100930178  0.7531640405931269  0.3345268769645706
  0.4184030857608773  0.4259164683937995  0.1508270706828885
  0.5880364487474594  0.0939914012106277  0.6585302438960171
  0.2456082351790996  0.9175104436781273  0.6704344186188573
  0.4189869656286282  0.6020456623825414 -0.0062180341809719
  0.7359475464747387  0.2534433476723231  0.5006869270459900
  0.9210888919999034  0.7591497038475598  0.9851204757791994
  0.2441900348577686  0.4200389252147023  0.5017280258599534
  0.2452209839696074  0.0851299815767839  0.5027569637604878
  0.5831788979455463  0.2573538746845037  0.1604892851061039
  0.7465224000351758  0.5876902085704483  0.5019877098003965
  0.2600289612306624  0.4293526941878802  0.9937529514900031
  0.5764382053552113  0.2518375696432553  0.0028560695480285
  0.9231440896768187  0.2593120929868587  0.1600103501041927
  0.4130563845138273  0.2521870341857738  0.8391279357205238
  0.9125210781384581  0.7528355733905868  0.1672902907818697
  0.5841018786238578  0.9364866731041530  0.1575970527324330
  0.0859901238448683  0.9264996813940886  0.3238500632144495
  0.5776950245297456  0.2522204374658534  0.6656187329587933
  0.9222294447858236  0.9243297560153225  0.4931364966863089
  0.2443384658946570  0.4190443177538155  0.1668600242995988
  0.5774686257598324  0.2517415459256256  0.3419409941168275
  0.2633971466669318  0.7615676169997445  0.9930049268671191
  0.5793818485049992  0.7465628252872906  0.8404595835691008
  0.2460590541781412  0.7446548679841561  0.1672724044725033
  0.7423642779929653  0.9202834484728944  0.1675123783991172
  0.0783937896164293  0.9204282561692017  0.8436802670807217
  0.5843644871119252  0.4309525127910394  0.9932353706590752
  0.7527007559571359  0.0955622914586831  0.4931784063523209
  0.7423858664713012  0.9199417511002432  0.5015729506731879
  0.5870545159523394  0.7612015473054540  0.3259146475658570
  0.7512503732117787  0.7614480308427828  0.4930941974470255
  0.7554463349827885  0.5952626430457452  0.3264719758108250
  0.5756494125116367  0.9114633978072348  0.0008804470148798
  0.0811567207324205  0.2439178951517845  0.1665867987532967
  0.0792148027127733  0.0855208229514419  0.6710522378234206
  0.2544847312512320  0.0935963723707809  0.6620247000127453
  0.4199397841484200  0.2622132746273409  0.6583728372567504
  0.0799035703645508  0.0785024724544907  0.0088690672441032
  0.7452321358796327  0.2436157401685230  0.8339036033865070
  0.2447696416681379  0.7545573213270151  0.8358172995907304
  0.9120437562150854  0.2438610560800514  0.3346180164256372
  0.2531942513870764  0.9358682289063708  0.8271176986240530
  0.5797633170309553  0.0845865873332577  0.8369281093154172
  0.5879305150203049  0.0952947564348240  0.3182363110651834
  0.4185252477849775  0.9250110080452658  0.9921282002849399
  0.7529417471753512  0.5958433029032619  0.9913914375124881
  0.7442940977357460  0.4197648114009512  0.6688946921545760
  0.9111842177363336  0.2523811994632128  0.6672602973205135
  0.7430055650282759  0.4201249886690932  0.0003578035463833
  0.9185107706019708  0.2629000236068116  0.4916838762387049
  0.2381614243252252  0.0855032175260008  0.1645527912609377
  0.5858316113980904  0.0927600988570483 -0.0039091048463738
  0.7421959417245874  0.2518242027971425  0.1672828319098840
  0.7462613936113499  0.0865438119409659  0.3350937079888237
  0.7535600453416471  0.4289636489547041  0.8270117738507353
  0.7546802659816171  0.2605390173366756  0.3248416695833289
  0.9113376900448568  0.5873885451973968  0.6671405253843169
  0.0874106834695785  0.4293149017855356  0.8301706973120263
  0.0873863969708440  0.5954968321620737  0.9917998849453422
  0.9113909174059379  0.9182636243356835  0.6685701661821924
  0.5756614015235824  0.4168262513381165  0.1674394769974988
  0.2629891282642891  0.7606458278896924  0.6606645866500930
  0.0861877759170448  0.6025872994496151  0.3278538120125521
  0.9104552033932961  0.7444242786258799  0.5027361588532890
  0.4206569741756070  0.4288108474039383  0.8300016720779787
  0.9208142049500987  0.0939892849782914  0.6575972940266944
  0.7528387159432968  0.4277713233732255  0.1583852437496121
  0.0791880643988515  0.4203957313351342  0.6708200309860366
  0.7558257675589822  0.9268185628261576  0.9921460671397020
  0.4275817717728573  0.7669534756396503  0.4942701149788990
  0.2465652468830917  0.7525760968891279  0.5022881708519499
  0.2529999341911225  0.4283078109693929  0.3243120436305483
  0.0787308631696403  0.4215425055937919  0.3334431599479903
  0.2616743470111128  0.9267828038244841  0.4929808216592326
  0.9177722753087404  0.6030122682260000  0.8249884705996680
  0.0875512561523317  0.7622544075187854  0.1611363637460542
  0.0770485982427349  0.2542856133253706  0.4994354904615645
  0.9201077599039224  0.9289848847255181  0.1593165917154959
  0.7369948366635067  0.5861652476139502  0.8340331192776093
  0.0871188174531199  0.2615188764476289  0.6588064396338815
  0.7530866499630097  0.2612390809275408  0.9910206454954659
  0.4233443580609728  0.7603072576148460  0.8210430152644047
  0.5787145674144849  0.4223442170197657  0.8353091415505434
  0.2452439225338371  0.5862994203827123  0.0091856911978891
  0.2497829395500334  0.5948010333370513  0.4913388348520968
  0.9119974887830840  0.2514710332644956  0.0019094150513393
  0.7457848271577183  0.0864113231433262  0.6772285407425391
  0.9117070181098794  0.4227515925815251  0.5018256186251890
  0.7453136187350785  0.0850810413932698  0.9988884518823085
  0.4106498804501550  0.7537116264157084  0.3367921581976981
  0.0860728061714945  0.4375878654058333  0.4912101575633984
  0.2539160591558209  0.5964340891610170  0.8286910145226202
  0.7531808755077201  0.9292541801234061  0.6593468406396583
  0.4118044697791700  0.4188508827934970  0.3327481768215833
  0.4199002686678088  0.5953353727524614  0.3256947459675596
  0.5863721538809024  0.4281736883364395  0.3258746461953477
  0.4095672223491458  0.5892786325641578  0.5019443615973810
  0.5782623030457148  0.5870978957823724  0.3384004952532184
  0.4127470395191575  0.4209879334135065  0.6704242484788051
  0.4200614283321066  0.4298601455534727  0.4917998532881112
  0.5876149535449203  0.6019100360119216  0.4964357439667275
  0.5765173463492766  0.5879644993199145  0.6763905189659951
  0.4198652759908920  0.6033419300961800  0.6601033850365182
  0.5862233402262371  0.4302965895223723  0.6582006599501196
  0.5777032454260704  0.4140913059115554  0.5007052305378286
  0.9121391291103895  0.7537360578393758  0.8338995733474404
  0.5817875842158753  0.7601069580334299  0.9904941642173291
  0.5848387828715855  0.2630357601460527  0.4929435449702956
  0.5753188693017770  0.0881663748112773  0.1668399635679605
  0.0788086408578689  0.7535222614119879  0.3341475598604061
  0.4151172351216393  0.7534056861972322  0.0001139377686714
  0.0809981311119362  0.4200691305507939  0.0006860155322091
  0.4133446802016028  0.9173378995791928  0.5007841849789686
  0.9194187456931182  0.0934884213112535  0.3253528397058090
  0.2438932589681042  0.0867540416139437  0.8348163680792645
  0.2525124138659436  0.5938186358905182  0.1597888586295949
  0.9280868102095846  0.5942551906552109  0.4945835231171170
  0.0867598508797314  0.9285299971617460 -0.0055137955627859
  0.5783369279988700  0.7521914540168027  0.5016070029251897
  0.4128202006671031  0.2511135022179011  0.1669259019952642
  0.7547178583731076  0.0930217691091285  0.8280338969676238
  0.0706504502300724  0.5875817753020295  0.4997292507200971
  0.0884311214612687  0.0930345867948750  0.1583893415618634
  0.5861604370430148  0.5959431342077635  0.8272484763287917
  0.4105415707460590  0.4213362458452189  0.0007713080195540
  0.4143148726144663  0.7534093081568914  0.6707744765473185
 
  0.00000000E+00  0.00000000E+00  0.00000000E+00
  0.00000000E+00  0.00000000E+00  0.00000000E+00
  0.00000000E+00  0.00000000E+00  0.00000000E+00
  0.00000000E+00  0.00000000E+00  0.00000000E+00
  0.00000000E+00  0.00000000E+00  0.00000000E+00
  0.00000000E+00  0.00000000E+00  0.00000000E+00
  0.00000000E+00  0.00000000E+00  0.00000000E+00
  0.00000000E+00  0.00000000E+00  0.00000000E+00
  0.00000000E+00  0.00000000E+00  0.00000000E+00
  0.00000000E+00  0.00000000E+00  0.00000000E+00
  0.00000000E+00  0.00000000E+00  0.00000000E+00
  0.00000000E+00  0.00000000E+00  0.00000000E+00
  0.00000000E+00  0.00000000E+00  0.00000000E+00
  0.00000000E+00  0.00000000E+00  0.00000000E+00
  0.00000000E+00  0.00000000E+00  0.00000000E+00
  0.00000000E+00  0.00000000E+00  0.00000000E+00
  0.00000000E+00  0.00000000E+00  0.00000000E+00
  0.00000000E+00  0.00000000E+00  0.00000000E+00
  0.00000000E+00  0.00000000E+00  0.00000000E+00
  0.00000000E+00  0.00000000E+00  0.00000000E+00
  0.00000000E+00  0.00000000E+00  0.00000000E+00
  0.00000000E+00  0.00000000E+00  0.00000000E+00
  0.00000000E+00  0.00000000E+00  0.00000000E+00
  0.00000000E+00  0.00000000E+00  0.00000000E+00
  0.00000000E+00  0.00000000E+00  0.00000000E+00
  0.00000000E+00  0.00000000E+00  0.00000000E+00
  0.00000000E+00  0.00000000E+00  0.00000000E+00
  0.00000000E+00  0.00000000E+00  0.00000000E+00
  0.00000000E+00  0.00000000E+00  0.00000000E+00
  0.00000000E+00  0.00000000E+00  0.00000000E+00
  0.00000000E+00  0.00000000E+00  0.00000000E+00
  0.00000000E+00  0.00000000E+00  0.00000000E+00
  0.00000000E+00  0.00000000E+00  0.00000000E+00
  0.00000000E+00  0.00000000E+00  0.00000000E+00
  0.00000000E+00  0.00000000E+00  0.00000000E+00
  0.00000000E+00  0.00000000E+00  0.00000000E+00
  0.00000000E+00  0.00000000E+00  0.00000000E+00
  0.00000000E+00  0.00000000E+00  0.00000000E+00
  0.00000000E+00  0.00000000E+00  0.00000000E+00
  0.00000000E+00  0.00000000E+00  0.00000000E+00
  0.00000000E+00  0.00000000E+00  0.00000000E+00
  0.00000000E+00  0.00000000E+00  0.00000000E+00
  0.00000000E+00  0.00000000E+00  0.00000000E+00
  0.00000000E+00  0.00000000E+00  0.00000000E+00
  0.00000000E+00  0.00000000E+00  0.00000000E+00
  0.00000000E+00  0.00000000E+00  0.00000000E+00
  0.00000000E+00  0.00000000E+00  0.00000000E+00
  0.00000000E+00  0.00000000E+00  0.00000000E+00
  0.00000000E+00  0.00000000E+00  0.00000000E+00
  0.00000000E+00  0.00000000E+00  0.00000000E+00
  0.00000000E+00  0.00000000E+00  0.00000000E+00
  0.00000000E+00  0.00000000E+00  0.00000000E+00
  0.00000000E+00  0.00000000E+00  0.00000000E+00
  0.00000000E+00  0.00000000E+00  0.00000000E+00
  0.00000000E+00  0.00000000E+00  0.00000000E+00
  0.00000000E+00  0.00000000E+00  0.00000000E+00
  0.00000000E+00  0.00000000E+00  0.00000000E+00
  0.00000000E+00  0.00000000E+00  0.00000000E+00
  0.00000000E+00  0.00000000E+00  0.00000000E+00
  0.00000000E+00  0.00000000E+00  0.00000000E+00
  0.00000000E+00  0.00000000E+00  0.00000000E+00
  0.00000000E+00  0.00000000E+00  0.00000000E+00
  0.00000000E+00  0.00000000E+00  0.00000000E+00
  0.00000000E+00  0.00000000E+00  0.00000000E+00
  0.00000000E+00  0.00000000E+00  0.00000000E+00
  0.00000000E+00  0.00000000E+00  0.00000000E+00
  0.00000000E+00  0.00000000E+00  0.00000000E+00
  0.00000000E+00  0.00000000E+00  0.00000000E+00
  0.00000000E+00  0.00000000E+00  0.00000000E+00
  0.00000000E+00  0.00000000E+00  0.00000000E+00
  0.00000000E+00  0.00000000E+00  0.00000000E+00
  0.00000000E+00  0.00000000E+00  0.00000000E+00
  0.00000000E+00  0.00000000E+00  0.00000000E+00
  0.00000000E+00  0.00000000E+00  0.00000000E+00
  0.00000000E+00  0.00000000E+00  0.00000000E+00
  0.00000000E+00  0.00000000E+00  0.00000000E+00
  0.00000000E+00  0.00000000E+00  0.00000000E+00
  0.00000000E+00  0.00000000E+00  0.00000000E+00
  0.00000000E+00  0.00000000E+00  0.00000000E+00
  0.00000000E+00  0.00000000E+00  0.00000000E+00
  0.00000000E+00  0.00000000E+00  0.00000000E+00
  0.00000000E+00  0.00000000E+00  0.00000000E+00
  0.00000000E+00  0.00000000E+00  0.00000000E+00
  0.00000000E+00  0.00000000E+00  0.00000000E+00
  0.00000000E+00  0.00000000E+00  0.00000000E+00
  0.00000000E+00  0.00000000E+00  0.00000000E+00
  0.00000000E+00  0.00000000E+00  0.00000000E+00
  0.00000000E+00  0.00000000E+00  0.00000000E+00
  0.00000000E+00  0.00000000E+00  0.00000000E+00
  0.00000000E+00  0.00000000E+00  0.00000000E+00
  0.00000000E+00  0.00000000E+00  0.00000000E+00
  0.00000000E+00  0.00000000E+00  0.00000000E+00
  0.00000000E+00  0.00000000E+00  0.00000000E+00
  0.00000000E+00  0.00000000E+00  0.00000000E+00
  0.00000000E+00  0.00000000E+00  0.00000000E+00
  0.00000000E+00  0.00000000E+00  0.00000000E+00
  0.00000000E+00  0.00000000E+00  0.00000000E+00
  0.00000000E+00  0.00000000E+00  0.00000000E+00
  0.00000000E+00  0.00000000E+00  0.00000000E+00
  0.00000000E+00  0.00000000E+00  0.00000000E+00
  0.00000000E+00  0.00000000E+00  0.00000000E+00
  0.00000000E+00  0.00000000E+00  0.00000000E+00
  0.00000000E+00  0.00000000E+00  0.00000000E+00
  0.00000000E+00  0.00000000E+00  0.00000000E+00
  0.00000000E+00  0.00000000E+00  0.00000000E+00
  0.00000000E+00  0.00000000E+00  0.00000000E+00
  0.00000000E+00  0.00000000E+00  0.00000000E+00
  0.00000000E+00  0.00000000E+00  0.00000000E+00
  0.00000000E+00  0.00000000E+00  0.00000000E+00
  0.00000000E+00  0.00000000E+00  0.00000000E+00
  0.00000000E+00  0.00000000E+00  0.00000000E+00
  0.00000000E+00  0.00000000E+00  0.00000000E+00
  0.00000000E+00  0.00000000E+00  0.00000000E+00
  0.00000000E+00  0.00000000E+00  0.00000000E+00
  0.00000000E+00  0.00000000E+00  0.00000000E+00
  0.00000000E+00  0.00000000E+00  0.00000000E+00
  0.00000000E+00  0.00000000E+00  0.00000000E+00
  0.00000000E+00  0.00000000E+00  0.00000000E+00
  0.00000000E+00  0.00000000E+00  0.00000000E+00
  0.00000000E+00  0.00000000E+00  0.00000000E+00
  0.00000000E+00  0.00000000E+00  0.00000000E+00
  0.00000000E+00  0.00000000E+00  0.00000000E+00
  0.00000000E+00  0.00000000E+00  0.00000000E+00
  0.00000000E+00  0.00000000E+00  0.00000000E+00
  0.00000000E+00  0.00000000E+00  0.00000000E+00
  0.00000000E+00  0.00000000E+00  0.00000000E+00
  0.00000000E+00  0.00000000E+00  0.00000000E+00
  0.00000000E+00  0.00000000E+00  0.00000000E+00
  0.00000000E+00  0.00000000E+00  0.00000000E+00
  0.00000000E+00  0.00000000E+00  0.00000000E+00
  0.00000000E+00  0.00000000E+00  0.00000000E+00
  0.00000000E+00  0.00000000E+00  0.00000000E+00
  0.00000000E+00  0.00000000E+00  0.00000000E+00
  0.00000000E+00  0.00000000E+00  0.00000000E+00
  0.00000000E+00  0.00000000E+00  0.00000000E+00
  0.00000000E+00  0.00000000E+00  0.00000000E+00
  0.00000000E+00  0.00000000E+00  0.00000000E+00
  0.00000000E+00  0.00000000E+00  0.00000000E+00
  0.00000000E+00  0.00000000E+00  0.00000000E+00
  0.00000000E+00  0.00000000E+00  0.00000000E+00
  0.00000000E+00  0.00000000E+00  0.00000000E+00
  0.00000000E+00  0.00000000E+00  0.00000000E+00
  0.00000000E+00  0.00000000E+00  0.00000000E+00
  0.00000000E+00  0.00000000E+00  0.00000000E+00
  0.00000000E+00  0.00000000E+00  0.00000000E+00
  0.00000000E+00  0.00000000E+00  0.00000000E+00
  0.00000000E+00  0.00000000E+00  0.00000000E+00
  0.00000000E+00  0.00000000E+00  0.00000000E+00
  0.00000000E+00  0.00000000E+00  0.00000000E+00
  0.00000000E+00  0.00000000E+00  0.00000000E+00
  0.00000000E+00  0.00000000E+00  0.00000000E+00
  0.00000000E+00  0.00000000E+00  0.00000000E+00
  0.00000000E+00  0.00000000E+00  0.00000000E+00
  0.00000000E+00  0.00000000E+00  0.00000000E+00
  0.00000000E+00  0.00000000E+00  0.00000000E+00
  0.00000000E+00  0.00000000E+00  0.00000000E+00
  0.00000000E+00  0.00000000E+00  0.00000000E+00
  0.00000000E+00  0.00000000E+00  0.00000000E+00
  0.00000000E+00  0.00000000E+00  0.00000000E+00
  0.00000000E+00  0.00000000E+00  0.00000000E+00
  0.00000000E+00  0.00000000E+00  0.00000000E+00
  0.00000000E+00  0.00000000E+00  0.00000000E+00
  0.00000000E+00  0.00000000E+00  0.00000000E+00
  0.00000000E+00  0.00000000E+00  0.00000000E+00
  0.00000000E+00  0.00000000E+00  0.00000000E+00
  0.00000000E+00  0.00000000E+00  0.00000000E+00
  0.00000000E+00  0.00000000E+00  0.00000000E+00
  0.00000000E+00  0.00000000E+00  0.00000000E+00
  0.00000000E+00  0.00000000E+00  0.00000000E+00
  0.00000000E+00  0.00000000E+00  0.00000000E+00
  0.00000000E+00  0.00000000E+00  0.00000000E+00
  0.00000000E+00  0.00000000E+00  0.00000000E+00
  0.00000000E+00  0.00000000E+00  0.00000000E+00
  0.00000000E+00  0.00000000E+00  0.00000000E+00
  0.00000000E+00  0.00000000E+00  0.00000000E+00
  0.00000000E+00  0.00000000E+00  0.00000000E+00
  0.00000000E+00  0.00000000E+00  0.00000000E+00
  0.00000000E+00  0.00000000E+00  0.00000000E+00
  0.00000000E+00  0.00000000E+00  0.00000000E+00
  0.00000000E+00  0.00000000E+00  0.00000000E+00
  0.00000000E+00  0.00000000E+00  0.00000000E+00
  0.00000000E+00  0.00000000E+00  0.00000000E+00
  0.00000000E+00  0.00000000E+00  0.00000000E+00
  0.00000000E+00  0.00000000E+00  0.00000000E+00
  0.00000000E+00  0.00000000E+00  0.00000000E+00
  0.00000000E+00  0.00000000E+00  0.00000000E+00
  0.00000000E+00  0.00000000E+00  0.00000000E+00
  0.00000000E+00  0.00000000E+00  0.00000000E+00
  0.00000000E+00  0.00000000E+00  0.00000000E+00
  0.00000000E+00  0.00000000E+00  0.00000000E+00
  0.00000000E+00  0.00000000E+00  0.00000000E+00
  0.00000000E+00  0.00000000E+00  0.00000000E+00
  0.00000000E+00  0.00000000E+00  0.00000000E+00
  0.00000000E+00  0.00000000E+00  0.00000000E+00
  0.00000000E+00  0.00000000E+00  0.00000000E+00
  0.00000000E+00  0.00000000E+00  0.00000000E+00
  0.00000000E+00  0.00000000E+00  0.00000000E+00
  0.00000000E+00  0.00000000E+00  0.00000000E+00
  0.00000000E+00  0.00000000E+00  0.00000000E+00
  0.00000000E+00  0.00000000E+00  0.00000000E+00
  0.00000000E+00  0.00000000E+00  0.00000000E+00
  0.00000000E+00  0.00000000E+00  0.00000000E+00
  0.00000000E+00  0.00000000E+00  0.00000000E+00
  0.00000000E+00  0.00000000E+00  0.00000000E+00
  0.00000000E+00  0.00000000E+00  0.00000000E+00
  0.00000000E+00  0.00000000E+00  0.00000000E+00
  0.00000000E+00  0.00000000E+00  0.00000000E+00
  0.00000000E+00  0.00000000E+00  0.00000000E+00
  0.00000000E+00  0.00000000E+00  0.00000000E+00
  0.00000000E+00  0.00000000E+00  0.00000000E+00
  0.00000000E+00  0.00000000E+00  0.00000000E+00
  0.00000000E+00  0.00000000E+00  0.00000000E+00
  0.00000000E+00  0.00000000E+00  0.00000000E+00
  0.00000000E+00  0.00000000E+00  0.00000000E+00
  0.00000000E+00  0.00000000E+00  0.00000000E+00
  0.00000000E+00  0.00000000E+00  0.00000000E+00
 
           1
   4.00000000000000     
  0.10000000E+01  0.00000000E+00  0.00000000E+00  0.00000000E+00
  0.87826732E-01  0.92660843E+00  0.66017004E+00
  0.41079617E+00  0.91919587E+00  0.16824760E+00
  0.92015753E+00  0.26259132E+00  0.82617277E+00
  0.91171408E+00  0.86814406E-01  0.17482348E+00
  0.85228279E-01  0.94947737E-01  0.48870607E+00
  0.58768411E+00  0.26215988E+00  0.82440097E+00
  0.41840398E+00  0.76175820E+00  0.15076371E+00
  0.42528486E+00  0.10130091E+00  0.15934002E+00
  0.24413473E+00  0.91885086E+00  0.33558504E+00
  0.57631149E+00  0.59054750E+00  0.21178589E-04
  0.87050484E-01  0.26277130E+00  0.32420686E+00
  0.91189464E+00  0.41875770E+00  0.16857377E+00
  0.41992235E+00  0.92364773E+00  0.65114757E+00
  0.41078800E+00  0.84377664E-01  0.24843258E-02
  0.23714443E+00  0.91758298E+00  0.17540243E-02
  0.92229504E+00  0.93129232E-01  0.99323006E+00
  0.41078869E+00  0.91816909E+00  0.83407748E+00
  0.57642337E+00  0.91685099E+00  0.66820499E+00
  0.58350380E+00  0.92681921E+00  0.49236360E+00
  0.91257416E+00  0.83602777E-01  0.49829916E+00
  0.57774931E+00  0.91964220E+00  0.33427817E+00
  0.93003674E+00  0.42753043E+00 -0.58835043E-02
  0.40398260E+00  0.58333852E+00  0.16726592E+00
  0.74304381E+00  0.58659063E+00  0.16775152E+00
  0.75390939E+00  0.92865537E+00  0.32568891E+00
  0.92100056E+00  0.42928087E+00  0.66007967E+00
  0.58285821E+00  0.76033686E+00  0.65178362E+00
  0.92076931E+00  0.42834596E+00  0.32675878E+00
  0.26195167E+00  0.26125555E+00  0.15964803E+00
  0.75350320E+00  0.59687744E+00  0.65943415E+00
  0.25444592E+00  0.42933037E+00  0.65998423E+00
  0.25262180E+00  0.93899403E-01  0.98546615E+00
  0.58317814E+00  0.59594367E+00  0.15886354E+00
  0.41304623E+00  0.82104543E-01  0.66848495E+00
  0.82519681E-01  0.58421320E+00  0.16998118E+00
  0.24446724E+00  0.58707164E+00  0.66991996E+00
  0.41954847E+00  0.92769275E+00  0.32706364E+00
  0.91334609E+00  0.58541004E+00  0.34469212E+00
  0.24569486E+00  0.25148922E+00  0.66886556E+00
  0.91452918E+00  0.91695278E+00  0.14054468E-02
  0.87263367E-01  0.42624353E+00  0.15157200E+00
  0.87058360E-01  0.59487382E+00  0.64934538E+00
  0.74525878E+00  0.41884982E+00  0.33481009E+00
  0.25118890E+00  0.76095073E+00  0.32533446E+00
  0.74114366E+00  0.75394736E+00  0.66945270E+00
  0.91314973E+00  0.58545591E+00  0.36447764E-02
  0.92106688E+00  0.92672151E+00  0.82675069E+00
  0.85565295E-01  0.76238006E+00  0.82567885E+00
  0.80100015E-01  0.75234182E+00  0.66612624E+00
  0.25482499E+00  0.25821810E+00  0.82738189E+00
  0.73344538E+00  0.75341168E+00  0.99914554E+00
  0.76186682E-01  0.58844421E+00  0.83348986E+00
  0.75358880E+00  0.94487713E-01  0.15730300E+00
  0.76084340E+00  0.76326217E+00  0.82673582E+00
  0.81125602E-01  0.91591617E+00  0.50162065E+00
  0.57643300E+00  0.75455748E+00  0.16608351E+00
  0.88116611E-01  0.75745170E+00  0.48562442E+00
  0.42002308E+00  0.91746543E-01  0.49185687E+00
  0.78722682E-01  0.75450174E+00  0.17977945E-02
  0.40910225E+00  0.86189288E-01  0.33247922E+00
  0.92319434E+00  0.59406258E+00  0.16209610E+00
  0.75279415E+00  0.26189120E+00  0.65780957E+00
  0.42125164E+00  0.93146701E-01  0.82792189E+00
  0.25019085E+00  0.93651178E-01  0.32222340E+00
  0.24561881E+00  0.41766097E+00  0.83692356E+00
  0.90542327E+00  0.84694449E-01  0.83561374E+00
  0.24461925E+00  0.25158336E+00  0.33405184E+00
  0.75334149E+00  0.42922266E+00  0.49276257E+00
  0.78649207E-01  0.25143494E+00  0.83695829E+00
  0.92141672E+00  0.76019846E+00  0.66055316E+00
  0.57908120E+00  0.85888814E-01  0.49945901E+00
  0.75219498E+00  0.76163396E+00  0.15695573E+00
  0.25260727E+00  0.92838254E+00  0.15794279E+00
  0.24474167E+00  0.25146236E+00  0.29792153E-02
  0.24346323E+00  0.58629791E+00  0.33271652E+00
  0.41330147E+00  0.58771636E+00  0.83656301E+00
  0.41904063E+00  0.27033970E+00 -0.27563539E-02
  0.58655048E+00  0.92532321E+00  0.82668089E+00
  0.87405570E-01  0.26927384E+00  0.99445875E+00
  0.92741955E+00  0.76201310E+00  0.32554796E+00
  0.91238681E+00  0.91967251E+00  0.33533547E+00
  0.74478904E+00  0.92035134E+00  0.83490667E+00
  0.70393601E-01  0.84418678E-01  0.32972351E+00
  0.93138882E-01  0.93333306E-01  0.82969350E+00
  0.41612304E+00  0.25095637E+00  0.50014694E+00
  0.42144883E+00  0.26082165E+00  0.31743510E+00
  0.78208137E-01  0.92160813E+00  0.16538434E+00
  0.91244997E+00  0.42182241E+00  0.83673853E+00
  0.25652265E+00  0.26072385E+00  0.49229767E+00
  0.74651011E+00  0.75316404E+00  0.33452688E+00
  0.41840309E+00  0.42591647E+00  0.15082707E+00
  0.58803645E+00  0.93991401E-01  0.65853024E+00
  0.24560824E+00  0.91751044E+00  0.67043442E+00
  0.41898697E+00  0.60204566E+00 -0.62180342E-02
  0.73594755E+00  0.25344335E+00  0.50068693E+00
  0.92108889E+00  0.75914970E+00  0.98512048E+00
  0.24419003E+00  0.42003893E+00  0.50172803E+00
  0.24522098E+00  0.85129982E-01  0.50275696E+00
  0.58317890E+00  0.25735387E+00  0.16048929E+00
  0.74652240E+00  0.58769021E+00  0.50198771E+00
  0.26002896E+00  0.42935269E+00  0.99375295E+00
  0.57643821E+00  0.25183757E+00  0.28560695E-02
  0.92314409E+00  0.25931209E+00  0.16001035E+00
  0.41305638E+00  0.25218703E+00  0.83912794E+00
  0.91252108E+00  0.75283557E+00  0.16729029E+00
  0.58410188E+00  0.93648667E+00  0.15759705E+00
  0.85990124E-01  0.92649968E+00  0.32385006E+00
  0.57769502E+00  0.25222044E+00  0.66561873E+00
  0.92222944E+00  0.92432976E+00  0.49313650E+00
  0.24433847E+00  0.41904432E+00  0.16686002E+00
  0.57746863E+00  0.25174155E+00  0.34194099E+00
  0.26339715E+00  0.76156762E+00  0.99300493E+00
  0.57938185E+00  0.74656283E+00  0.84045958E+00
  0.24605905E+00  0.74465487E+00  0.16727240E+00
  0.74236428E+00  0.92028345E+00  0.16751238E+00
  0.78393790E-01  0.92042826E+00  0.84368027E+00
  0.58436449E+00  0.43095251E+00  0.99323537E+00
  0.75270076E+00  0.95562291E-01  0.49317841E+00
  0.74238587E+00  0.91994175E+00  0.50157295E+00