Amorphous GeSe2                         
   1.00000000000000     
    20.5078869700586921    0.0000000000000000    0.0000000000000000
     0.0000000000000000   20.5078869700586921    0.0000000000000000
     0.0000000000000000    0.0000000000000000   20.5078869700586921
   Ge   Se
   100   200
Direct
  0.2139992216819948  0.0918660089319374  0.5871961938920052
  0.1965901288347709  0.5832554527747718  0.3971619487833138
  0.5510812440812032  0.9876031499022062  0.0097076537789818
  0.6579045631576221  0.6131036118139050  0.1082313707826046
  0.1793985354042960  0.3821663827290607  0.5382658334593486
  0.9039775680198119  0.0884914057647563  0.1267580448390078
  0.8259160438025788  0.2941152315782958  0.7307519497545201
  0.3934243953681502  0.5629140926511838  0.7213944937557031
  0.4455693850399456  0.4689880588335527  0.5774893428592236
  0.1948217505469430  0.1394227614472783  0.1575491850636155
  0.0722544493156434  0.9991824499169581  0.6610808223005193
  0.2360777669168002  0.3918819466200887  0.6574082100922922
  0.5947840797152395  0.9920528410635256  0.2451127129641506
  0.8313915202268163  0.5372527614766369  0.6517482619729122
  0.1401211633702175  0.6070394438749105  0.8866464711356059
  0.6741199286779107  0.4478056095677658  0.3370738355992913
  0.8592373662350283  0.1609610143775271  0.6418519354294219
  0.8501466903227026  0.0958827524262560  0.3607488603106859
  0.0907064689499180  0.8173060919660102  0.1664867416724718
  0.2883333638679844  0.9406292439194743  0.7410566540702774
  0.2069842493118799  0.9559206847535364  0.2800711535615363
  0.2168154899752750  0.7235703059133627  0.3678470258969568
  0.1448251193627570  0.3552903734550839  0.2571076959065763
  0.7514501663185413  0.5007498615466019  0.8489340027409327
  0.8193417022689715  0.8371637493690400  0.6771119948421571
  0.6824276328143526  0.1828987386601995  0.6797950110777720
  0.3358049149805780  0.9140664089924897  0.4949157339436283
  0.6338865268679186  0.6449666394979658  0.9328430405981223
  0.4475746769689906  0.0929502877587964  0.8939085789963173
  0.0350962145584859  0.6794321221966371  0.3924982935448043
  0.0143845053435285  0.9286805791916777  0.3998892371518394
  0.4553764208810094  0.1088484618649233  0.4860166217495347
  0.2021587976670531  0.7239848708065182  0.0946594483252241
  0.6183832913001055  0.4312806735484216  0.0860929735829075
  0.0280116502581862  0.4310144169307009  0.6511813851154358
  0.3692806742125683  0.7977212607795749  0.0590571096914232
  0.1626458248855585  0.6079601097677454  0.2236624966054279
  0.0523674458811172  0.9790624598084889  0.1516126766391963
  0.4903475239766450  0.9123562774163787  0.3645685831313230
  0.0927403677118122  0.3922223456427005  0.3733061005843865
  0.3369424968216492  0.2067045109457553  0.5424063687243788
  0.7464341863661659  0.6775566721207582  0.7711793405400940
  0.9458847113717255  0.9041184801507924  0.8061636180510234
  0.5580345886371276  0.1576137274845593  0.8199103966705934
  0.7560346779021359  0.3685116648014670  0.1454743320315970
  0.4827432364706254  0.7024310984260467  0.6118200963660811
  0.7780462280267741  0.8055460927501557  0.3201433810662309
  0.8393885827268548  0.4170356816512566  0.5136844598400927
  0.8753583916255963  0.6433242502169279  0.1110310888337906
  0.6522768550939517  0.1620391777230097  0.1380302980297543
  0.3285752464146441  0.9675422118052737  0.9200119076972229
  0.0295345860266423  0.8286418518394001  0.5243896685449130
  0.9771228467873030  0.0731197997219084  0.4613571364440858
  0.4399103276061282  0.5791896681266664  0.1834511635150946
  0.7098158047426608  0.8384936768780591  0.5209271025958557
  0.1472813211480926  0.6991492314446006  0.5641807123036600
  0.9308905965475986  0.7220439224165887  0.6506468888408818
  0.5719806481570160  0.2805531243031751  0.6511328586029563
  0.9901198398764919  0.7124628864551212  0.8740698772657183
  0.9559974054902085  0.8217885608931041  0.0476377783206843
  0.4096787677957963  0.6953376004554954  0.4468850139281315
  0.5308672353233419  0.3669720412682551  0.2258801628052396
  0.4889788737905150  0.9624785271619984  0.1924276825274944
  0.7773825543836779  0.8292130335881680  0.1014335733404579
  0.1430491681673232  0.2247074512617999  0.9063417047392974
  0.1967109801007041  0.3165541961143390  0.1206851565125717
  0.3892596539059241  0.0709079486927919  0.6544225729829307
  0.3503901310377415  0.8271786479000838  0.3454393591325982
  0.3360572778851036  0.4253681850956781  0.9381673189927326
  0.4663415374445066  0.3248043858841498  0.5010917422821777
  0.4065892316918109  0.7340783107241791  0.8212573527865743
  0.4150725055305315  0.2805222951135775  0.3094590968511781
  0.0212043271604330  0.3302849310639502  0.1521022829103771
  0.0441436916453242  0.2848141615291837  0.5175022183835765
  0.3246180892872985  0.1681308195828635  0.3596292403214392
  0.4610759830533411  0.3202206485771271  0.6970235354131731
  0.7368147314702185  0.0240572161407613  0.0466169431452670
  0.7696062265425638  0.8928232094500075  0.9475263437512638
  0.4948500412374273  0.4460523174274655  0.3693953744614191
  0.6945868337865804  0.2545153590356648  0.0138782305173137
  0.2044061669598278  0.8829026739636348  0.5915726606631537
  0.7849376773239385  0.4109209358883845  0.9835380473312227
  0.7955938958266344  0.3221912422155810  0.8893078539381918
  0.7300531907187207  0.1322881278371071  0.5014388935129119
  0.4808187690648680  0.1837269993166970  0.0542642874427202
  0.8775367871158295  0.5930543986798540  0.4765998079429608
  0.4939726883768571  0.9468450179634758  0.7960409271298445
  0.5449744719533385  0.5722636019768785  0.2433651232969964
  0.7467204848446443  0.2975137466723723  0.4349095911020839
  0.8367860653612809  0.9804769315132944  0.2944761599031125
  0.2755414940059993  0.5951478045022043  0.5665070646739352
  0.1262812590358138  0.4157186095902503  0.8741308577096518
  0.6177306751813845  0.3804265400032705  0.8546200510318016
  0.4307074085386091  0.4429686334782659  0.0558534912253066
  0.1873844892010439  0.0836390673316743  0.7935658877286187
  0.0129188071690720  0.1916991272858937  0.6322790717537501
  0.2977724709359677  0.1413314278301954  0.0158877945059572
  0.1210580014800939  0.0774807048703821  0.3978899448616744
  0.8001913565719789  0.6854222424194631  0.9403329210439608
  0.6808846342178185  0.9990424613276545  0.5544113660106760
  0.0925614733938716  0.9286636836218634  0.7537129526305364
  0.4564928826936097  0.1886161864273390  0.5712258751994170
  0.9472621921024569  0.7006035383383704  0.1852015398918496
  0.1030713141757715  0.9433961828047472  0.5617027580671419
  0.5322167940350582  0.1890875113479424  0.1571764948470786
  0.2871357320893111  0.6399761921761140  0.9567402420699906
  0.6296755680680874  0.5468611567303157  0.4001758954223149
  0.6144564199101907  0.9971220339648923  0.8791593435192269
  0.7033237960940681  0.7487719459436022  0.4473964613037964
  0.7412841672080148  0.2420379366008305  0.5400471021977751
  0.9883934944854005  0.8346039075407106  0.8987702373061666
  0.4136325474906855  0.4335572529086917  0.4542742154066417
  0.7292439572569904  0.3849264845154394  0.8000949649994098
  0.6195474636701945  0.2542567371141047  0.7655702260356776
  0.1702433241787986  0.2579354876863533  0.5433389530844508
  0.8501454042447136  0.6652238443979357  0.8362539637097797
  0.4963873271921599  0.9108749580961444  0.0893657259661040
  0.3546170130585864  0.2746425338201988  0.4151881462841018
  0.6450567902117612  0.9389941907563681  0.6509029355001914
  0.9576112570243325  0.0244301644541665  0.6506591892189704
  0.2529669668183629  0.7105542570313546  0.6086839648154978
  0.9702902667786262  0.6602782095334163  0.5151030633322620
  0.5899615744301130  0.8864730622243826  0.8493487682042158
  0.9073035306777371  0.4848400953359331  0.4459843328892674
  0.3248561634028349  0.6807706255236141  0.2859977921971577
  0.8578205180488681  0.8993847329925231  0.0387934679400956
  0.0638283277931535  0.8960897240323575  0.0687573524590590
  0.5782415300675865  0.7488740369080062  0.7351138539792785
  0.7264154334164132  0.4075354961655648  0.4771429463879926
  0.1248556413714610  0.7524347259378672  0.4579851502264276
  0.0882016079666457  0.9211733012136420  0.2494816511062794
  0.5286262634356476  0.7355246579732437  0.8401795804054544
  0.0423142473658871  0.1683979120120185  0.8877124511553163
  0.4555033561619268  0.0736307915797951  0.0179427440393525
  0.6340925184939792  0.0840135896841190  0.0411457833459963
  0.5054750118513027  0.0009746000848025  0.5097829189902896
  0.3971567598843961  0.2371184415092031  0.7574888739086774
  0.0716284409109846  0.5664225531493585  0.4285399786470592
  0.0884756750281923  0.7031198790439959  0.0681540786123378
  0.7436845809578827  0.4765382713158957  0.1054257450906348
  0.5484369875725363  0.2348641879623869  0.9743657511719732
  0.6782462255729271  0.9318379407622075  0.4567718796010922
  0.2208597293380663  0.3863268798815014  0.8075387411456916
  0.6474325274572976  0.3252636924880434  0.1513230196083484
  0.7790677512515956  0.5711414281127176  0.2384946410675539
  0.3328354681899697  0.7832719720782677  0.4632973411413701
  0.9527298343257726  0.1176554979359494  0.7203195064124088
  0.5171556970025293  0.1675076548748677  0.4041722031687343
  0.6103459135377776  0.3975604877457002  0.6509870530852240
  0.7657314910768420  0.6626768019246398  0.1627280546281966
  0.4022037650118051  0.5619172026172947  0.8404237416571334
  0.4928743786568219  0.3591108863541450  0.1066256318438192
  0.8508846758882740  0.4243211759216763  0.6301462588980655
  0.5837663882771622  0.5340718989834841  0.9595360573085259
  0.5508140938842558  0.6022530653818094  0.6214884103499827
  0.0794707202958591  0.1167410393482982  0.5017477908115211
  0.4154023239141793  0.6929435638925057  0.2073667449243715
  0.5921882455116858  0.3616689002839522  0.3720523868120438
  0.1430368311285264  0.4561875060610632  0.6936966723655331
  0.0797151556201712  0.5882381589323202  0.7866525050975355
  0.4880490334304497  0.8606587553215377  0.2577440579622845
  0.6388013656260512  0.8775026503180214  0.2294922092629932
  0.3704918838062810  0.2302626711364582  0.0469995722500016
  0.3476450673130174  0.8539101138489116  0.6846620762270419
  0.9249738554333220  0.5702792517725328  0.7130808851836221
  0.4175346150760717  0.6216333663734588  0.5379705016650291
  0.7649545818103078  0.9025224673615639  0.7566445331583864
  0.2505583521938917  0.4929845987934200  0.4596971117119324
  0.1005561751305990  0.7106762418794403  0.9446165877213986
  0.7942379579248282  0.0385835893613375  0.9428642126919087
  0.5161409227167795  0.7076247956299682  0.1022524578593718
  0.3997022247116959  0.6800996793001914  0.7030457193291326
  0.6313831133805508  0.0733269880653395  0.7137999280724401
  0.2143073068222421  0.8182359459556707  0.1590457645267023
  0.0651397107569380  0.2856240478141601  0.6899033318011405
  0.2397244953909734  0.6613538880002352  0.8500995518031758
  0.1830087416444144  0.9790978247991688  0.3994822622345211
  0.3880394096112099  0.0139541125437290  0.2287107384398013
  0.3635596842381830  0.6149320349739114  0.3718644378872611
  0.4479554480604975  0.1578877370179939  0.3104836792909680
  0.8151514779675466  0.8754953534581560  0.5655622990162286
  0.6227036519907685  0.5116393024312345  0.8505498147481418
  0.7586966491907816  0.6183262794483895  0.3408440434489393
  0.4941679365251588  0.4967986847380530  0.7042233788659757
  0.3556979995079388  0.5128329188198606  0.2271883880562058
  0.1544963968844257  0.5064558261811598  0.9498935068733445
  0.4368170693310987  0.8064643485340142  0.9585067837575423
  0.1251978434673475  0.7018181550894056  0.2863035381091095
  0.9151615973471294  0.8898544390263581  0.3292717765962223
  0.7348079400000813  0.2202778845963920  0.9043397720430164
  0.8548955714348523  0.3010156432801026  0.3879635447767242
  0.2016293003485927  0.5220492903585736  0.2917626873872621
  0.2095427566973882  0.2029484047111154  0.8131382140673153
  0.4521678662459365  0.4185323414751068  0.9425370940534492
  0.9374465368476805  0.9858292883326669  0.1750075171631309
  0.7234795577364252  0.7739884296064830  0.9486935463383048
  0.4701918654393324  0.2266071340065494  0.8851443763319793
  0.7861094553326140  0.0516835599788266  0.5679668249459695
  0.2289359112698008  0.8445028716832326  0.3457343451844821
  0.7409756013120017  0.5550632310925749  0.7278619667246886
  0.3906642150538460  0.3532691235368262  0.6013524382569102
  0.1769622806547773  0.2642749058982901  0.6636404816620498
  0.7874118028885704  0.0724447899980305  0.1423023991693952
  0.3003881634572494  0.5240930738809553  0.8794040934461478
  0.9007254706182692  0.5285063114630049  0.0971893386189464
  0.5174411636533023  0.8359156622648101  0.4513743033803763
  0.0830641714689264  0.7646409690837075  0.8123491045997113
  0.3130091994470234  0.4358756952040608  0.0540785360017324
  0.8390033849465297  0.8550030581511976  0.8361885013992705
  0.9300371965568175  0.1753004715253041  0.2034733852684880
  0.2954855182012253  0.1542984197128661  0.6556098894329594
  0.0619991525884913  0.4108103592631309  0.5276980064230301
  0.1376549830727214  0.5847597472437087  0.5529361097837437
  0.3391496260762779  0.0950385615421538  0.4733577791310921
  0.2451174309529307  0.6244708932853200  0.1408748352545075
  0.6206650422392244  0.0983258693890434  0.5330715893464273
  0.7388385175927255  0.5937136018110110  0.9779601600979220
  0.8480046962527439  0.1391594158787726  0.9703697922574435
  0.1252946273196329  0.1036068809691173  0.6774032635708807
  0.2138664912162085  0.3851031321247262  0.4217944598227845
  0.6650682191353923  0.3737977374228194  0.9753801510993583
  0.7328253468273687  0.1151608144404648  0.3857078392806628
  0.6272861061545143  0.8321595623742084  0.6028607290511445
  0.1216177218902672  0.4144040545108538  0.1528462512061992
  0.9123855227748550  0.8095989010634881  0.1660522197822516
  0.8343051862853486  0.1733171421532660  0.2683013303530188
  0.1820116914805183  0.8652145602535342  0.7141069449896520
  0.4399833014452952  0.8354530264628721  0.7523562339027166
  0.6624626377724780  0.0842546805931406  0.2374895521640639
  0.0892954101272210  0.0660935372113158  0.8641429321395933
  0.2020487566393854  0.9923958911900996  0.0465404335440098
  0.9891149749905210  0.5591649949961734  0.3349656728166082
  0.9409181463160152  0.4416402592869488  0.8799671729058076
  0.0697125820176581  0.7667351140807526  0.6227116612502499
  0.8944561285761878  0.2945011231074091  0.8303158493354701
  0.5227629624765413  0.5723193967709719  0.3634757413993981
  0.0133212150618292  0.0469514860932989  0.3489568213796659
  0.0321060876889305  0.4998975846313130  0.2460691223349301
  0.9428580894278085  0.9672326101809361  0.4933829054596188
  0.6907823518308405  0.9151273719405992  0.0554280565851215
  0.4717382648087494  0.1526664124136587  0.7277974707457133
  0.1115954933075258  0.2530765210394108  0.1962893659586484
  0.8095237909988739  0.3096965339765987  0.0553526173743037
  0.8993437009046730  0.4218641427788015  0.2390171184108425
  0.0983927304123711  0.0768674042131394  0.1063582216537782
  0.4385136665234413  0.6990592762136174  0.0126277045374650
  0.6620132887601997  0.8112580630876352  0.3521436086786025
  0.0317600153793123  0.4422659055748568  0.8066594208938227
  0.7885994643164693  0.1717310539401211  0.7436498650766694
  0.0609129915396949  0.5813864745590394  0.1686253407367175
  0.3658309213382296  0.0256180275636382  0.7679806217093343
  0.6215648904630413  0.7162613510873825  0.0431938256291033
  0.7901320573902808  0.5940633858842261  0.5550023188704500
  0.8152563560420418  0.9059926850756241  0.3938680134703958
  0.0816828112462460  0.2745166326907125  0.4009742328966794
  0.5617315986608205  0.0037309003674011  0.3571288683333407
  0.7569809229429367  0.8862567532849326  0.2189158004768288
  0.2906174784183619  0.5289365657121650  0.6751152493797221
  0.8564869186370387  0.6643100435398281  0.3854908099874734
  0.3775422840460720  0.9496879254485506  0.3840910460389750
  0.2200904163899153  0.0856819180213293  0.2658155057257758
  0.9434115480922145  0.5493078969610323  0.9245410741637627
  0.4190857166766762  0.4200926855837821  0.2711157941343529
  0.2529500581504678  0.9132810056311840  0.8511190086464069
  0.1386583958759644  0.6807408741587153  0.7481601236676880
  0.4284286195610747  0.9396066082229666  0.5703538931733831
  0.1685978774059507  0.1662499298568889  0.3373121632485905
  0.9806384542067406  0.3431541642070997  0.2676066032705577
  0.9932681467108324  0.5395708173745462  0.0287212028459081
  0.5571937423989510  0.4195104596267711  0.5490839148192279
  0.3818469722858211  0.1185166787655305  0.1797650254305623
  0.8948193726628872  0.7023603222949646  0.0101783275373251
  0.2641629373327916  0.7513309144541935  0.9972809605141535
  0.6049790204368222  0.4727415023060288  0.2245839003729841
  0.9376107509631737  0.8455809258504843  0.6898503703112411
  0.1028243060695146  0.3297992683316338  0.9501289714176480
  0.3188457327544327  0.2444546094682494  0.2359957726321085
  0.4708863775465133  0.5535371898272814  0.0715077178210848
  0.9490513283344413  0.1074261262585949  0.0207231365063478
  0.4494691930852923  0.4096276029991657  0.7737101696353292
  0.4430733790774752  0.9419557699688283  0.9111771646707822
  0.8967062193930957  0.3143449883954261  0.4963860858232394
  0.6931470573688827  0.0495758281673986  0.8100654417905844
  0.6108550501699028  0.6641979015569746  0.2168726392730704
  0.6218273497039988  0.6471095955487556  0.7064439532689448
  0.9166723435061215  0.2743359882714316  0.6449588913780104
  0.2654557985345249  0.3513730431600521  0.2247125536378363
  0.1900904016859002  0.1918850265010690  0.0130058497396277
  0.2954460600476594  0.9232732649628019  0.0226578499568504
  0.9060686351067702  0.7602657384311158  0.5316873805544517
  0.3170753300147027  0.0906246730600984  0.9067322426837521
  0.0139188906292560  0.5576232521502291  0.6385575280102884
  0.5119301319037532  0.7330595175196279  0.4004201874479278
  0.8004590924617005  0.3621827483068216  0.2533825948269524
  0.2865807268186060  0.3311787729453997  0.8868534500972487
  0.7960450297774671  0.7219106246993050  0.6651259399806122
  0.8994404192546170  0.1569532612809823  0.4545088970269902
  0.6690374482323449  0.2665824233217862  0.3560833325013988
  0.2842380820855723  0.0614407229540817  0.1071842119970796
  0.2664408493897810  0.9870469988426720  0.6242223626893590
 
  0.00000000E+00  0.00000000E+00  0.00000000E+00
  0.00000000E+00  0.00000000E+00  0.00000000E+00
  0.00000000E+00  0.00000000E+00  0.00000000E+00
  0.00000000E+00  0.00000000E+00  0.00000000E+00
  0.00000000E+00  0.00000000E+00  0.00000000E+00
  0.00000000E+00  0.00000000E+00  0.00000000E+00
  0.00000000E+00  0.00000000E+00  0.00000000E+00
  0.00000000E+00  0.00000000E+00  0.00000000E+00
  0.00000000E+00  0.00000000E+00  0.00000000E+00
  0.00000000E+00  0.00000000E+00  0.00000000E+00
  0.00000000E+00  0.00000000E+00  0.00000000E+00
  0.00000000E+00  0.00000000E+00  0.00000000E+00
  0.00000000E+00  0.00000000E+00  0.00000000E+00
  0.00000000E+00  0.00000000E+00  0.00000000E+00
  0.00000000E+00  0.00000000E+00  0.00000000E+00
  0.00000000E+00  0.00000000E+00  0.00000000E+00
  0.00000000E+00  0.00000000E+00  0.00000000E+00
  0.00000000E+00  0.00000000E+00  0.00000000E+00
  0.00000000E+00  0.00000000E+00  0.00000000E+00
  0.00000000E+00  0.00000000E+00  0.00000000E+00
  0.00000000E+00  0.00000000E+00  0.00000000E+00
  0.00000000E+00  0.00000000E+00  0.00000000E+00
  0.00000000E+00  0.00000000E+00  0.00000000E+00
  0.00000000E+00  0.00000000E+00  0.00000000E+00
  0.00000000E+00  0.00000000E+00  0.00000000E+00
  0.00000000E+00  0.00000000E+00  0.00000000E+00
  0.00000000E+00  0.00000000E+00  0.00000000E+00
  0.00000000E+00  0.00000000E+00  0.00000000E+00
  0.00000000E+00  0.00000000E+00  0.00000000E+00
  0.00000000E+00  0.00000000E+00  0.00000000E+00
  0.00000000E+00  0.00000000E+00  0.00000000E+00
  0.00000000E+00  0.00000000E+00  0.00000000E+00
  0.00000000E+00  0.00000000E+00  0.00000000E+00
  0.00000000E+00  0.00000000E+00  0.00000000E+00
  0.00000000E+00  0.00000000E+00  0.00000000E+00
  0.00000000E+00  0.00000000E+00  0.00000000E+00
  0.00000000E+00  0.00000000E+00  0.00000000E+00
  0.00000000E+00  0.00000000E+00  0.00000000E+00
  0.00000000E+00  0.00000000E+00  0.00000000E+00
  0.00000000E+00  0.00000000E+00  0.00000000E+00
  0.00000000E+00  0.00000000E+00  0.00000000E+00
  0.00000000E+00  0.00000000E+00  0.00000000E+00
  0.00000000E+00  0.00000000E+00  0.00000000E+00
  0.00000000E+00  0.00000000E+00  0.00000000E+00
  0.00000000E+00  0.00000000E+00  0.00000000E+00
  0.00000000E+00  0.00000000E+00  0.00000000E+00
  0.00000000E+00  0.00000000E+00  0.00000000E+00
  0.00000000E+00  0.00000000E+00  0.00000000E+00
  0.00000000E+00  0.00000000E+00  0.00000000E+00
  0.00000000E+00  0.00000000E+00  0.00000000E+00
  0.00000000E+00  0.00000000E+00  0.00000000E+00
  0.00000000E+00  0.00000000E+00  0.00000000E+00
  0.00000000E+00  0.00000000E+00  0.00000000E+00
  0.00000000E+00  0.00000000E+00  0.00000000E+00
  0.00000000E+00  0.00000000E+00  0.00000000E+00
  0.00000000E+00  0.00000000E+00  0.00000000E+00
  0.00000000E+00  0.00000000E+00  0.00000000E+00
  0.00000000E+00  0.00000000E+00  0.00000000E+00
  0.00000000E+00  0.00000000E+00  0.00000000E+00
  0.00000000E+00  0.00000000E+00  0.00000000E+00
  0.00000000E+00  0.00000000E+00  0.00000000E+00
  0.00000000E+00  0.00000000E+00  0.00000000E+00
  0.00000000E+00  0.00000000E+00  0.00000000E+00
  0.00000000E+00  0.00000000E+00  0.00000000E+00
  0.00000000E+00  0.00000000E+00  0.00000000E+00
  0.00000000E+00  0.00000000E+00  0.00000000E+00
  0.00000000E+00  0.00000000E+00  0.00000000E+00
  0.00000000E+00  0.00000000E+00  0.00000000E+00
  0.00000000E+00  0.00000000E+00  0.00000000E+00
  0.00000000E+00  0.00000000E+00  0.00000000E+00
  0.00000000E+00  0.00000000E+00  0.00000000E+00
  0.00000000E+00  0.00000000E+00  0.00000000E+00
  0.00000000E+00  0.00000000E+00  0.00000000E+00
  0.00000000E+00  0.00000000E+00  0.00000000E+00
  0.00000000E+00  0.00000000E+00  0.00000000E+00
  0.00000000E+00  0.00000000E+00  0.00000000E+00
  0.00000000E+00  0.00000000E+00  0.00000000E+00
  0.00000000E+00  0.00000000E+00  0.00000000E+00
  0.00000000E+00  0.00000000E+00  0.00000000E+00
  0.00000000E+00  0.00000000E+00  0.00000000E+00
  0.00000000E+00  0.00000000E+00  0.00000000E+00
  0.00000000E+00  0.00000000E+00  0.00000000E+00
  0.00000000E+00  0.00000000E+00  0.00000000E+00
  0.00000000E+00  0.00000000E+00  0.00000000E+00
  0.00000000E+00  0.00000000E+00  0.00000000E+00
  0.00000000E+00  0.00000000E+00  0.00000000E+00
  0.00000000E+00  0.00000000E+00  0.00000000E+00
  0.00000000E+00  0.00000000E+00  0.00000000E+00
  0.00000000E+00  0.00000000E+00  0.00000000E+00
  0.00000000E+00  0.00000000E+00  0.00000000E+00
  0.00000000E+00  0.00000000E+00  0.00000000E+00
  0.00000000E+00  0.00000000E+00  0.00000000E+00
  0.00000000E+00  0.00000000E+00  0.00000000E+00
  0.00000000E+00  0.00000000E+00  0.00000000E+00
  0.00000000E+00  0.00000000E+00  0.00000000E+00
  0.00000000E+00  0.00000000E+00  0.00000000E+00
  0.00000000E+00  0.00000000E+00  0.00000000E+00
  0.00000000E+00  0.00000000E+00  0.00000000E+00
  0.00000000E+00  0.00000000E+00  0.00000000E+00
  0.00000000E+00  0.00000000E+00  0.00000000E+00
  0.00000000E+00  0.00000000E+00  0.00000000E+00
  0.00000000E+00  0.00000000E+00  0.00000000E+00
  0.00000000E+00  0.00000000E+00  0.00000000E+00
  0.00000000E+00  0.00000000E+00  0.00000000E+00
  0.00000000E+00  0.00000000E+00  0.00000000E+00
  0.00000000E+00  0.00000000E+00  0.00000000E+00
  0.00000000E+00  0.00000000E+00  0.00000000E+00
  0.00000000E+00  0.00000000E+00  0.00000000E+00
  0.00000000E+00  0.00000000E+00  0.00000000E+00
  0.00000000E+00  0.00000000E+00  0.00000000E+00
  0.00000000E+00  0.00000000E+00  0.00000000E+00
  0.00000000E+00  0.00000000E+00  0.00000000E+00
  0.00000000E+00  0.00000000E+00  0.00000000E+00
  0.00000000E+00  0.00000000E+00  0.00000000E+00
  0.00000000E+00  0.00000000E+00  0.00000000E+00
  0.00000000E+00  0.00000000E+00  0.00000000E+00
  0.00000000E+00  0.00000000E+00  0.00000000E+00
  0.00000000E+00  0.00000000E+00  0.00000000E+00
  0.00000000E+00  0.00000000E+00  0.00000000E+00
  0.00000000E+00  0.00000000E+00  0.00000000E+00
  0.00000000E+00  0.00000000E+00  0.00000000E+00
  0.00000000E+00  0.00000000E+00  0.00000000E+00
  0.00000000E+00  0.00000000E+00  0.00000000E+00
  0.00000000E+00  0.00000000E+00  0.00000000E+00
  0.00000000E+00  0.00000000E+00  0.00000000E+00
  0.00000000E+00  0.00000000E+00  0.00000000E+00
  0.00000000E+00  0.00000000E+00  0.00000000E+00
  0.00000000E+00  0.00000000E+00  0.00000000E+00
  0.00000000E+00  0.00000000E+00  0.00000000E+00
  0.00000000E+00  0.00000000E+00  0.00000000E+00
  0.00000000E+00  0.00000000E+00  0.00000000E+00
  0.00000000E+00  0.00000000E+00  0.00000000E+00
  0.00000000E+00  0.00000000E+00  0.00000000E+00
  0.00000000E+00  0.00000000E+00  0.00000000E+00
  0.00000000E+00  0.00000000E+00  0.00000000E+00
  0.00000000E+00  0.00000000E+00  0.00000000E+00
  0.00000000E+00  0.00000000E+00  0.00000000E+00
  0.00000000E+00  0.00000000E+00  0.00000000E+00
  0.00000000E+00  0.00000000E+00  0.00000000E+00
  0.00000000E+00  0.00000000E+00  0.00000000E+00
  0.00000000E+00  0.00000000E+00  0.00000000E+00
  0.00000000E+00  0.00000000E+00  0.00000000E+00
  0.00000000E+00  0.00000000E+00  0.00000000E+00
  0.00000000E+00  0.00000000E+00  0.00000000E+00
  0.00000000E+00  0.00000000E+00  0.00000000E+00
  0.00000000E+00  0.00000000E+00  0.00000000E+00
  0.00000000E+00  0.00000000E+00  0.00000000E+00
  0.00000000E+00  0.00000000E+00  0.00000000E+00
  0.00000000E+00  0.00000000E+00  0.00000000E+00
  0.00000000E+00  0.00000000E+00  0.00000000E+00
  0.00000000E+00  0.00000000E+00  0.00000000E+00
  0.00000000E+00  0.00000000E+00  0.00000000E+00
  0.00000000E+00  0.00000000E+00  0.00000000E+00
  0.00000000E+00  0.00000000E+00  0.00000000E+00
  0.00000000E+00  0.00000000E+00  0.00000000E+00
  0.00000000E+00  0.00000000E+00  0.00000000E+00
  0.00000000E+00  0.00000000E+00  0.00000000E+00
  0.00000000E+00  0.00000000E+00  0.00000000E+00
  0.00000000E+00  0.00000000E+00  0.00000000E+00
  0.00000000E+00  0.00000000E+00  0.00000000E+00
  0.00000000E+00  0.00000000E+00  0.00000000E+00
  0.00000000E+00  0.00000000E+00  0.00000000E+00
  0.00000000E+00  0.00000000E+00  0.00000000E+00
  0.00000000E+00  0.00000000E+00  0.00000000E+00
  0.00000000E+00  0.00000000E+00  0.00000000E+00
  0.00000000E+00  0.00000000E+00  0.00000000E+00
  0.00000000E+00  0.00000000E+00  0.00000000E+00
  0.00000000E+00  0.00000000E+00  0.00000000E+00
  0.00000000E+00  0.00000000E+00  0.00000000E+00
  0.00000000E+00  0.00000000E+00  0.00000000E+00
  0.00000000E+00  0.00000000E+00  0.00000000E+00
  0.00000000E+00  0.00000000E+00  0.00000000E+00
  0.00000000E+00  0.00000000E+00  0.00000000E+00
  0.00000000E+00  0.00000000E+00  0.00000000E+00
  0.00000000E+00  0.00000000E+00  0.00000000E+00
  0.00000000E+00  0.00000000E+00  0.00000000E+00
  0.00000000E+00  0.00000000E+00  0.00000000E+00
  0.00000000E+00  0.00000000E+00  0.00000000E+00
  0.00000000E+00  0.00000000E+00  0.00000000E+00
  0.00000000E+00  0.00000000E+00  0.00000000E+00
  0.00000000E+00  0.00000000E+00  0.00000000E+00
  0.00000000E+00  0.00000000E+00  0.00000000E+00
  0.00000000E+00  0.00000000E+00  0.00000000E+00
  0.00000000E+00  0.00000000E+00  0.00000000E+00
  0.00000000E+00  0.00000000E+00  0.00000000E+00
  0.00000000E+00  0.00000000E+00  0.00000000E+00
  0.00000000E+00  0.00000000E+00  0.00000000E+00
  0.00000000E+00  0.00000000E+00  0.00000000E+00
  0.00000000E+00  0.00000000E+00  0.00000000E+00
  0.00000000E+00  0.00000000E+00  0.00000000E+00
  0.00000000E+00  0.00000000E+00  0.00000000E+00
  0.00000000E+00  0.00000000E+00  0.00000000E+00
  0.00000000E+00  0.00000000E+00  0.00000000E+00
  0.00000000E+00  0.00000000E+00  0.00000000E+00
  0.00000000E+00  0.00000000E+00  0.00000000E+00
  0.00000000E+00  0.00000000E+00  0.00000000E+00
  0.00000000E+00  0.00000000E+00  0.00000000E+00
  0.00000000E+00  0.00000000E+00  0.00000000E+00
  0.00000000E+00  0.00000000E+00  0.00000000E+00
  0.00000000E+00  0.00000000E+00  0.00000000E+00
  0.00000000E+00  0.00000000E+00  0.00000000E+00
  0.00000000E+00  0.00000000E+00  0.00000000E+00
  0.00000000E+00  0.00000000E+00  0.00000000E+00
  0.00000000E+00  0.00000000E+00  0.00000000E+00
  0.00000000E+00  0.00000000E+00  0.00000000E+00
  0.00000000E+00  0.00000000E+00  0.00000000E+00
  0.00000000E+00  0.00000000E+00  0.00000000E+00
  0.00000000E+00  0.00000000E+00  0.00000000E+00
  0.00000000E+00  0.00000000E+00  0.00000000E+00
  0.00000000E+00  0.00000000E+00  0.00000000E+00
  0.00000000E+00  0.00000000E+00  0.00000000E+00
  0.00000000E+00  0.00000000E+00  0.00000000E+00
  0.00000000E+00  0.00000000E+00  0.00000000E+00
  0.00000000E+00  0.00000000E+00  0.00000000E+00
  0.00000000E+00  0.00000000E+00  0.00000000E+00
  0.00000000E+00  0.00000000E+00  0.00000000E+00
  0.00000000E+00  0.00000000E+00  0.00000000E+00
  0.00000000E+00  0.00000000E+00  0.00000000E+00
  0.00000000E+00  0.00000000E+00  0.00000000E+00
  0.00000000E+00  0.00000000E+00  0.00000000E+00
  0.00000000E+00  0.00000000E+00  0.00000000E+00
  0.00000000E+00  0.00000000E+00  0.00000000E+00
  0.00000000E+00  0.00000000E+00  0.00000000E+00
  0.00000000E+00  0.00000000E+00  0.00000000E+00
  0.00000000E+00  0.00000000E+00  0.00000000E+00
  0.00000000E+00  0.00000000E+00  0.00000000E+00
  0.00000000E+00  0.00000000E+00  0.00000000E+00
  0.00000000E+00  0.00000000E+00  0.00000000E+00
  0.00000000E+00  0.00000000E+00  0.00000000E+00
  0.00000000E+00  0.00000000E+00  0.00000000E+00
  0.00000000E+00  0.00000000E+00  0.00000000E+00
  0.00000000E+00  0.00000000E+00  0.00000000E+00