Ge12
1.0
   5.9372086599999996    0.0000000000000000    0.0000000000000000
   0.0000000000000000    5.9372086599999996    0.0000000000000000
  -0.0000000000000000   -0.0000000000000000    7.0806529999999999
Ge
12
direct
   0.0856035700000000    0.0856035700000000    0.0000000000000000 Ge
   0.4143964300000000    0.5856035700000000    0.7500000000000000 Ge
   0.5856035700000000    0.4143964300000000    0.2500000000000000 Ge
   0.9143964300000000    0.9143964300000000    0.5000000000000000 Ge
   0.1694390999999990    0.3720959400000000    0.2454362400000000 Ge
   0.1279040600000000    0.6694391000000000    0.9954362400000000 Ge
   0.8720959400000000    0.3305609000000000    0.4954362400000000 Ge
   0.6694391000000000    0.1279040600000000    0.0045637600000000 Ge
   0.3305609000000000    0.8720959400000000    0.5045637600000000 Ge
   0.8305608999999990    0.6279040600000000    0.7454362400000000 Ge
   0.3720959400000000    0.1694390999999990    0.7545637600000000 Ge
   0.6279040600000000    0.8305608999999990    0.2545637600000000 Ge
