POSCAR file written by OVITO Basic 3.10.
   1.00000000000000     
    14.3576981371999999    0.0000000000000000    0.0000000000000000
     0.0000000000000000   14.3576981371999999    0.0000000000000000
     0.0000000000000000    0.0000000000000000   14.3576981371999999
   Se   Ge   Ag
    50    50     5
Direct
  0.8904558093525831  0.2563017084902807  0.5746038599696398
  0.3256828965737031  0.9546698154851977  0.5022031094972449
  0.3010741944431464  0.6151199043937018  0.1284091330371640
  0.0522386177795019  0.3810551033343243  0.9312652917300593
  0.8498060140611324  0.5736701946922012  0.6212400565533679
  0.1203960947402719  0.1556726041074433  0.3393666294939024
  0.8968159700057332  0.0034701039890589  0.0551574461544198
  0.8337715214835986 -0.0120656348217098  0.5648088315151892
  0.9319996796501461  0.6361753170816070  0.8528809401301077
  0.0858971742309322  0.9286816509753745  0.8711615849247940
  0.3423004526889939  0.8579817611858731  0.2359305915774496
  0.2495479053542950  0.7357440019664414  0.9117723678447928
  0.8955588578500256  0.8249802078137323  0.2420873075125431
  0.4993448564910071  0.7638089367469363  0.0361727361039231
  0.7227234707097575  0.1936265368216128  0.4138968920888311
  0.5046448192141405  0.1258810522866237  0.8396249840094803
  0.3199130695814199  0.4693840195977368  0.8523959395452474
  0.6099613319183054  0.7331622457487279  0.6437649952516638
  0.0582161137392449  0.9233431864710413  0.3941351068751761
  0.0446696221582766  0.6349303934522010  0.0693866081428670
  0.1997566778072505  0.2513806359212936  0.7506996698052660
  0.1161571928776124  0.1069629833466039  0.0750588054585700
  0.7170956342872028  0.0302639612847240  0.2485375324390969
  0.0936207698428752  0.0491673740171892  0.6190127192795126
  0.7362437859129490  0.9357687652909173  0.8529029056630935
  0.3272819996345868  0.9681197276285021 -0.0036175428216190
  0.0989258635805906  0.4116118877303666  0.4020630986477133
  0.8166767675946501  0.3731520182190519  0.8217154694053403
  0.3344974088263903  0.1648518264277855  0.1750078521145350
  0.9244518008075283  0.1224054917195633  0.8181197427286130
  0.7145398043039797  0.1716349227885239  0.0012081912905993
  0.3557966405423837  0.2630249109203084  0.5307724012626519
  0.5643915138842019  0.2373440296989351  0.2096399596567650
  0.4308976346210466  0.4920986072104064  0.6085304401774594
  0.1535668977543553  0.3814626001141608  0.1576484120269885
  0.4128662721762993  0.7003220911471170  0.4538886098287025
  0.3616740963865981  0.4633097950711688  0.3205280741796790
  0.5357663082188757  0.0689531489632743  0.5691271848675321
  0.7772012722051307  0.7354804206903898  0.0299377364463773
  0.4639656713201799  0.9054330426316892  0.7557867515978982
  0.8476194787912222  0.4750368888531222  0.0582821707749683
  0.0007264357811526  0.6539211486986505  0.3942488954273256
  0.5941458541023102  0.5157031017363043  0.8439944024255708
  0.6100399718406241  0.8291922500451442  0.2452099631192344
  0.6224771573832248  0.5426721624578625  0.1768511826989706
  0.8152080378417035  0.4338460478225736  0.3185042426875324
  0.2369136003901518  0.6366467512361540  0.6591307226163745
  0.6129958742390351  0.3208724866482991  0.6550634579567330
  0.0152863063524940  0.7750864117232589  0.6352537764865468
  0.6989073869974574  0.6721361147320229  0.4121356902392165
  0.1963574812254340  0.3030209624855434  0.5799131412475643
  0.6763361587888054  0.5872766038852755  0.5700658362088090
  0.4419352252877551  0.3281518860102814  0.6684753719551372
  0.8926879979736522  0.0005067206958272  0.2328750151330201
  0.2800091056643663  0.8020768127438178  0.3857167251977259
  0.4965313513483354  0.9669623463337588  0.9244778536192388
  0.4629503529642175  0.4815894588349882  0.9599271166278227
  0.9853868656631071  0.0721488911267221  0.4765695326117775
  0.3869279526120060  0.6007817645942162  0.7461124820433570
  0.6427165780821312  0.5121308872068564  0.3504445723413988
  0.8863284896000326  0.3147517238315629  0.9777303672324700
  0.4790472895021353  0.6031082093138457  0.3258712788908073
  0.4835122264476790  0.0804817030280870  0.2282498498909802
  0.2156595504487425  0.3036904574193043  0.3123362864465072
  0.9510734203160717  0.7596177800441859 -0.0210063130873138
  0.8937127087038583  0.5553269047524403  0.2217151424826819
  0.2582489384373448  0.4822696234985190  0.5852065037689196
  0.2563423911558336  0.9075878816728938  0.8448907393684150
  0.7361467822217342  0.1986534798072832  0.1914739228504022
  0.7276824802305754  0.4005528281124897  0.1665945634653076
  0.5548557575614037  0.2194763630711816  0.3912567477742796
  0.3851115247118581  0.0412606560640208  0.6543426265057840
  0.3216119185230993  0.4390192779324816  0.1435510845854095
  0.2041891652545092  0.0478221527911996  0.2208961874701124
  0.7506096661712861  0.9109873083947876  0.0215700529555222
  0.2294328053944359  0.5303445502620477  0.4163841498070992
  0.4648049461113269  0.7420683279747282  0.2034605364753205
  0.1823385339778710  0.7502066731419448  0.0875917033773159
  0.5744520323408985  0.7929724444683203  0.4778938019467040
  0.9352076493331544  0.2714129885353720  0.7328426341421873
  0.1597498105793373  0.6577582595018161  0.3092168206854335
  0.5625187831902664  0.2463314524939644  0.9564321672030096
  0.9524266863383608  0.9737440005982737  0.7040801677333428
  0.3907083872401012  0.6478139556167344  0.9821810702368091
  0.0773482524074120  0.3839990722772720  0.7581390879333952
  0.0959701842340221  0.5538121035597666  0.9155031087023670
  0.7555295789785589  0.7086737945266927  0.2109231600229906
  0.0706940499721867  0.5057485228685351  0.2526269473144740
  0.8623600701729134  0.7247075151325323  0.7091864032986493
  0.6079654999234585  0.9627814321540661  0.1290160736658199
  0.6410513561512207  0.3460923121464176  0.8219522134194095
  0.6034343667518943  0.0095341447377587  0.7187990754910144
  0.0206055303361749  0.6093942147652125  0.5671383628010852
  0.0661305636712692  0.9350116048183436  0.0430346800777845
  0.1513678356113929  0.8932410951231203  0.5440557296427914
  0.3524862831014355  0.2974415194439827  0.8274765870564128
  0.7456044735777464  0.1137140650720327  0.8274432765529744
  0.2772076518159995  0.1385251152657028  0.0029983800587787
  0.9183013653656472  0.8150675914884286  0.4198433238599014
  0.7452204500293735  0.1532268299794025  0.5862649632363046
  0.7370621829094375  0.8610481917106776  0.6546717270906973
  0.4526630546886971  0.0593348969541922  0.4024498269252089
  0.7148120881409669  0.5675383491542579  0.9664333656769150
  0.1070614408806625  0.6900946749943691  0.7813254613523946
  0.2493918881643666  0.1140710926597948  0.4587635254546077
 
  0.00000000E+00  0.00000000E+00  0.00000000E+00
  0.00000000E+00  0.00000000E+00  0.00000000E+00
  0.00000000E+00  0.00000000E+00  0.00000000E+00
  0.00000000E+00  0.00000000E+00  0.00000000E+00
  0.00000000E+00  0.00000000E+00  0.00000000E+00
  0.00000000E+00  0.00000000E+00  0.00000000E+00
  0.00000000E+00  0.00000000E+00  0.00000000E+00
  0.00000000E+00  0.00000000E+00  0.00000000E+00
  0.00000000E+00  0.00000000E+00  0.00000000E+00
  0.00000000E+00  0.00000000E+00  0.00000000E+00
  0.00000000E+00  0.00000000E+00  0.00000000E+00
  0.00000000E+00  0.00000000E+00  0.00000000E+00
  0.00000000E+00  0.00000000E+00  0.00000000E+00
  0.00000000E+00  0.00000000E+00  0.00000000E+00
  0.00000000E+00  0.00000000E+00  0.00000000E+00
  0.00000000E+00  0.00000000E+00  0.00000000E+00
  0.00000000E+00  0.00000000E+00  0.00000000E+00
  0.00000000E+00  0.00000000E+00  0.00000000E+00
  0.00000000E+00  0.00000000E+00  0.00000000E+00
  0.00000000E+00  0.00000000E+00  0.00000000E+00
  0.00000000E+00  0.00000000E+00  0.00000000E+00
  0.00000000E+00  0.00000000E+00  0.00000000E+00
  0.00000000E+00  0.00000000E+00  0.00000000E+00
  0.00000000E+00  0.00000000E+00  0.00000000E+00
  0.00000000E+00  0.00000000E+00  0.00000000E+00
  0.00000000E+00  0.00000000E+00  0.00000000E+00
  0.00000000E+00  0.00000000E+00  0.00000000E+00
  0.00000000E+00  0.00000000E+00  0.00000000E+00
  0.00000000E+00  0.00000000E+00  0.00000000E+00
  0.00000000E+00  0.00000000E+00  0.00000000E+00
  0.00000000E+00  0.00000000E+00  0.00000000E+00
  0.00000000E+00  0.00000000E+00  0.00000000E+00
  0.00000000E+00  0.00000000E+00  0.00000000E+00
  0.00000000E+00  0.00000000E+00  0.00000000E+00
  0.00000000E+00  0.00000000E+00  0.00000000E+00
  0.00000000E+00  0.00000000E+00  0.00000000E+00
  0.00000000E+00  0.00000000E+00  0.00000000E+00
  0.00000000E+00  0.00000000E+00  0.00000000E+00
  0.00000000E+00  0.00000000E+00  0.00000000E+00
  0.00000000E+00  0.00000000E+00  0.00000000E+00
  0.00000000E+00  0.00000000E+00  0.00000000E+00
  0.00000000E+00  0.00000000E+00  0.00000000E+00
  0.00000000E+00  0.00000000E+00  0.00000000E+00
  0.00000000E+00  0.00000000E+00  0.00000000E+00
  0.00000000E+00  0.00000000E+00  0.00000000E+00
  0.00000000E+00  0.00000000E+00  0.00000000E+00
  0.00000000E+00  0.00000000E+00  0.00000000E+00
  0.00000000E+00  0.00000000E+00  0.00000000E+00
  0.00000000E+00  0.00000000E+00  0.00000000E+00
  0.00000000E+00  0.00000000E+00  0.00000000E+00
  0.00000000E+00  0.00000000E+00  0.00000000E+00
  0.00000000E+00  0.00000000E+00  0.00000000E+00
  0.00000000E+00  0.00000000E+00  0.00000000E+00
  0.00000000E+00  0.00000000E+00  0.00000000E+00
  0.00000000E+00  0.00000000E+00  0.00000000E+00
  0.00000000E+00  0.00000000E+00  0.00000000E+00
  0.00000000E+00  0.00000000E+00  0.00000000E+00
  0.00000000E+00  0.00000000E+00  0.00000000E+00
  0.00000000E+00  0.00000000E+00  0.00000000E+00
  0.00000000E+00  0.00000000E+00  0.00000000E+00
  0.00000000E+00  0.00000000E+00  0.00000000E+00
  0.00000000E+00  0.00000000E+00  0.00000000E+00
  0.00000000E+00  0.00000000E+00  0.00000000E+00
  0.00000000E+00  0.00000000E+00  0.00000000E+00
  0.00000000E+00  0.00000000E+00  0.00000000E+00
  0.00000000E+00  0.00000000E+00  0.00000000E+00
  0.00000000E+00  0.00000000E+00  0.00000000E+00
  0.00000000E+00  0.00000000E+00  0.00000000E+00
  0.00000000E+00  0.00000000E+00  0.00000000E+00
  0.00000000E+00  0.00000000E+00  0.00000000E+00
  0.00000000E+00  0.00000000E+00  0.00000000E+00
  0.00000000E+00  0.00000000E+00  0.00000000E+00
  0.00000000E+00  0.00000000E+00  0.00000000E+00
  0.00000000E+00  0.00000000E+00  0.00000000E+00
  0.00000000E+00  0.00000000E+00  0.00000000E+00
  0.00000000E+00  0.00000000E+00  0.00000000E+00
  0.00000000E+00  0.00000000E+00  0.00000000E+00
  0.00000000E+00  0.00000000E+00  0.00000000E+00
  0.00000000E+00  0.00000000E+00  0.00000000E+00
  0.00000000E+00  0.00000000E+00  0.00000000E+00
  0.00000000E+00  0.00000000E+00  0.00000000E+00
  0.00000000E+00  0.00000000E+00  0.00000000E+00
  0.00000000E+00  0.00000000E+00  0.00000000E+00
  0.00000000E+00  0.00000000E+00  0.00000000E+00
  0.00000000E+00  0.00000000E+00  0.00000000E+00
  0.00000000E+00  0.00000000E+00  0.00000000E+00
  0.00000000E+00  0.00000000E+00  0.00000000E+00
  0.00000000E+00  0.00000000E+00  0.00000000E+00
  0.00000000E+00  0.00000000E+00  0.00000000E+00
  0.00000000E+00  0.00000000E+00  0.00000000E+00
  0.00000000E+00  0.00000000E+00  0.00000000E+00
  0.00000000E+00  0.00000000E+00  0.00000000E+00
  0.00000000E+00  0.00000000E+00  0.00000000E+00
  0.00000000E+00  0.00000000E+00  0.00000000E+00
  0.00000000E+00  0.00000000E+00  0.00000000E+00
  0.00000000E+00  0.00000000E+00  0.00000000E+00
  0.00000000E+00  0.00000000E+00  0.00000000E+00
  0.00000000E+00  0.00000000E+00  0.00000000E+00
  0.00000000E+00  0.00000000E+00  0.00000000E+00
  0.00000000E+00  0.00000000E+00  0.00000000E+00
  0.00000000E+00  0.00000000E+00  0.00000000E+00
  0.00000000E+00  0.00000000E+00  0.00000000E+00
  0.00000000E+00  0.00000000E+00  0.00000000E+00
  0.00000000E+00  0.00000000E+00  0.00000000E+00
  0.00000000E+00  0.00000000E+00  0.00000000E+00
