Amorphous GeAsSeSi                      
   1.00000000000000     
    20.3481843750534495    0.0000000000000000    0.0000000000000000
     0.0000000000000000   20.3481843750534495    0.0000000000000000
     0.0000000000000000    0.0000000000000000   20.3481843750534495
   Ge   As   Te   Si
    75    75    75    75
Direct
  0.4606752852024698  0.8129615718078114  0.5356477229784531
  0.7148455440217418  0.8117094990823261  0.6513142065447326
  0.0843261174376622  0.4440917007097553  0.7831805718196421
  0.0692100510344744  0.8501785445237218  0.3078454454201918
  0.0428351629662629  0.1538198895504621  0.7572810420961815
  0.6024207361585354  0.2171422723970409  0.3695495830610582
  0.8521026881247877  0.8811646560016086  0.5794294363938803
  0.1413254128398336  0.6785411750187720  0.9272846936374677
  0.8107479241103945  0.0502939625335657  0.9821644426891041
  0.9198812615202527  0.1495730924428145  0.6534690414383206
  0.3881863816908862  0.1146254832193137  0.4622001065069909
  0.7876548026572223  0.4384129041297840  0.2441314146006732
  0.6995659671796943  0.8732306990567125  0.8136145734169560
  0.2160205716830035  0.8031263914333806  0.6496128022393464
  0.0259476059913766  0.4449316280049374  0.6694485208749796
  0.5754858330933033  0.8480589143720536  0.0377031343116982
  0.5871178034515196  0.4655262697729512  0.8080461251998088
  0.5333710185479958  0.2094576274149134  0.5858979934074142
  0.3851380392096502  0.7971937079454747  0.9445124603532378
  0.7187868990711479  0.1521085409410148  0.8317462273764136
  0.2895877922316430  0.2220385097887458  0.1314654784619123
  0.8098527695575015  0.5621571244014802  0.0262960759348729
  0.6313438066066084  0.8641051874445225  0.4969461196248091
  0.2487746707113203  0.6822737561733732  0.6530394577000180
  0.1291042990930364  0.8807236244958148  0.5385249939297410
  0.6362346227452562  0.1354615792552067  0.4574682935310719
  0.6583423212511761  0.5193832369764664  0.4757150665592533
  0.9448801918516097  0.9496411774968578  0.0204081423227223
  0.1823531539957841  0.1575558796070027  0.5367853239623841
  0.4264173389765773  0.3735064044168368  0.4119561014914623
  0.6501817540754402  0.2154747084078323  0.5490861493917762
  0.9714402056710227  0.0199135708153264  0.3420381944192883
  0.3532446681647272  0.9335377594373711  0.3832231495365974
  0.7100599983952023  0.1359770965315690  0.6269828184853594
  0.0021323266996376  0.7488659748872095  0.4613909321845213
  0.6160261592124172  0.7434379644864180  0.3020158445739227
  0.0138505288249817  0.9379967334262673  0.1927036070646579
  0.6937318764117535  0.7823947431929099  0.9417077732073906
  0.5563972425219603  0.6303764254599358  0.8788939670693807
  0.6583162947629688  0.3385829833980338  0.5269983132892264
  0.6381922328304768  0.9069861596885502  0.6204522862912185
  0.3687566960193607  0.5084195345400815  0.8405500346045685
  0.2444570731137432  0.6692057727511838  0.0631049114937099
  0.2718069108076904  0.1198909095923426  0.8972015350876674
  0.5229620496242759  0.0227423858037596  0.5871622628046111
  0.8957692785886522  0.9270340376178439  0.3796079539266017
  0.1513049649112403  0.2558695135417253  0.4047343767636633
  0.9466976305041896  0.2977326487484504  0.2783607350984809
  0.9988928562452841  0.7603607980695202  0.0225603359242825
  0.7716862151093409  0.3894857818858739  0.5652901574987510
  0.4896092984430354  0.7658913753738190  0.0031759551208381
  0.8036383755029775  0.8941830637958574  0.1114230366509901
  0.7210169180722019  0.7408956499213062  0.5513130253029743
  0.8001446756676174  0.9160910916075551  0.7435189793247972
  0.9995007297350966  0.1286327674420917  0.3928808273960129
  0.2548649626211414  0.3889963487342598  0.9180798706955855
  0.4646432848508297  0.0979034732166042  0.8595153184590316
  0.3381747191943134  0.9528850888700404  0.8477409023114006
  0.1969361615294360  0.2739864635679510  0.8458927317985143
  0.7191608047286593  0.3896837790479140  0.9376106983330814
  0.4800453329114092  0.2500040309004987  0.7528611980939530
  0.2394636702617774  0.4938968770173418  0.8469132783231714
  0.9899847355027873  0.6945714334166908  0.8113823279861165
  0.2362368533956882  0.0721127781643958  0.0086578558295116
  0.7743413539435196  0.9664886182645773  0.8943895487329030
  0.8582433784920838  0.3002460199975587  0.5524057133171993
  0.6548142831195420  0.1896221556753517  0.1633475228328010
  0.5762511950568268  0.4215844687359223  0.4694862167563016
  0.3654920583691066  0.6324502681333115  0.2466164984453059
  0.3717034034110043  0.1591374967981452  0.2546998420991429
  0.5263860342809465  0.6449125837484928  0.6061100273332585
  0.1990675852450110  0.7072272115126239  0.4513734261523581
  0.1102499075445635  0.2628248677908829  0.5292746775363213
  0.9583445923335603  0.4626038520307958  0.5062827120851310
  0.0945615678148783  0.6420623200715028  0.3814618348996106
  0.3486350737356787  0.8087095060460356  0.3750989057093363
  0.4696711226119490  0.8040181687967589  0.4007023941085706
  0.7393017958424082  0.0878585000940930  0.4120961923183870
  0.7647463425389134  0.7678793080089577  0.8396662579676644
  0.4774109428001765  0.3659124605177055  0.7059645038524422
  0.4999182248018101  0.6991240410312969  0.3404889127994508
  0.7406872624415612  0.3980964655770052  0.0670664716334812
  0.6460257159340301  0.8005894970420684  0.1293101339581852
  0.4554515337619662  0.9491563016270490  0.9987144926680145
  0.7536409424600805  0.9575618900138281  0.5965540478076079
  0.8356690130665143  0.8159029481774596  0.6818462742011846
  0.2208966675739532  0.8878234294930891  0.4581890010567946
  0.8997340543074017  0.1239252731996103  0.1838567345410738
  0.4897502265329052  0.6698546129240128  0.0765819778400001
  0.4738631720568520  0.4888892273320522  0.4051809435632663
  0.2903490097988168  0.4678012889937051  0.0118719859840652
  0.5320443377327493  0.8524092250524475  0.8425284577530334
  0.0497203522919776  0.6294770551657933  0.9939547659368628
  0.1518697319303399  0.3457417498097755  0.2200870177223067
  0.1549831821734671  0.8000277078425455  0.9340778690391431
  0.2876936598050435  0.2357524248239216  0.9361018356825852
  0.1869183071518918  0.8136948976639999  0.7781060958250237
  0.8646810166671486  0.0095567700445471  0.4747352637947841
  0.6396342157018395  0.5845156172137607  0.8003598919143968
  0.6660442526819210  0.5900652830011097  0.3734184165304129
  0.5106957751579415  0.5052086172559243  0.5455801785299101
  0.4889501081068985  0.5490207758245660  0.8097408732391216
  0.5555613559303865  0.9459428869024435  0.4352862814158200
  0.9959676145383511  0.1969170640880265  0.2184839717836269
  0.2511363481528122  0.3324518474687466  0.4090012386633148
  0.6845471030128536  0.0745910088803825  0.1257859824219523
  0.3537934024296518  0.3505625188420396  0.7138870969122237
  0.6188722530346524  0.8896499968604559  0.9232362938629137
  0.6930405192045086  0.7095714416173990  0.3950339829824614
  0.5986408769016194  0.6384047493136507  0.2320930359014142
  0.3951527394939376  0.7143439141986079  0.8543740398426607
  0.3491973436294700  0.0707043259807278  0.8107104488724985
  0.1653308571364889  0.8115555247403776  0.3807444439558836
  0.6162056623221730  0.7382241573486539  0.4875084687383477
  0.9097998844905248  0.3955330196930618  0.7182539243253458
  0.6760831661803124  0.4858070398469252  0.2292980359137928
  0.2786119177010704  0.1078316784931914  0.1877482719455443
  0.1113917599419167  0.6414510494001888  0.8124197754840523
  0.3093715288412113  0.4731301268886909  0.2840930150580050
  0.0950178895623139  0.2662805209495573  0.7392558619179468
  0.4426556170693488  0.4309815870184437  0.1287141577076127
  0.1860538617849983  0.1752572303387581  0.3152104741537016
  0.3447021599868592  0.7985926556672780  0.5813879170121652
  0.5195468453643457  0.4835831065328620  0.2865021046221514
  0.7292047759853375  0.8887660658600964  0.4246269847516757
  0.3520378812135903  0.1367481840056612  0.6293871868425498
  0.2238838603656674  0.5955647039789369  0.9641839134978909
  0.1725577143146353  0.9799960117373985  0.9500966947930820
  0.2404601461564226  0.9833505380039043  0.2515499806843593
  0.6434630879041023  0.4581565043192910  0.1133170820184759
  0.1105036934906209  0.5115294409294364  0.3237144744423830
  0.3715550546970761  0.6810739461371540  0.6179581935851246
  0.9271994038212057  0.2905271708031023  0.6571446323749299
  0.0440507006186408  0.3180380361493249  0.6404486542711609
  0.9780232643563167  0.3902961469914743  0.1946299883951852
  0.3200446750005668  0.2601395460876361  0.3111597470158713
  0.0747081872516020  0.0022393567955064  0.7729579410757523
  0.0852904952997093  0.5970763626066642  0.5403397263438805
  0.2685995583202256  0.0232750707757248  0.3669173432603614
  0.2864247421655932  0.9395886064104246  0.9586825704132593
  0.2079803609377748  0.3198527740935830  0.5972923150852623
  0.0935153415237551  0.4442600775375496  0.4270368537365883
  0.7447459299508381  0.6339300282723741  0.6072662191637619
  0.5695975266968247  0.3367689626078771  0.2525814210150372
  0.1210719332712316  0.5254947709793427  0.9757351562392955
  0.9036904793986480  0.0236218385504046  0.6618715050132451
  0.2377781766137019  0.9188974689779599  0.1208590616092096
  0.8202071235686645  0.1799290560098115  0.5764494518368224
  0.1310463393860957  0.7624915579292377  0.5646799194608505
  0.8556026510188630  0.0071924964985328  0.0884598641659551
  0.4575643091319819  0.2271632493689495  0.8788923797288533
  0.1480351716593944  0.7282469373962144  0.1302335892372568
  0.7994626238177958  0.2276769034504653  0.0515289679002819
  0.8431455428633043  0.1742817647971862  0.7716361781514962
  0.3793357100820955  0.7493162154827928  0.1795030295082327
  0.7996131960230386  0.8621022043290196  0.9745955236559851
  0.2178224368747479  0.6036124864892116  0.5482877053717417
  0.9648695455589120  0.5716227741746067  0.4149665487876888
  0.0396587298937874  0.7203025974422630  0.2851963476149564
  0.9552356640574899  0.5717529003177759  0.2044728493738575
  0.7865193569874052  0.3083638235470403  0.2394629648883395
  0.5221692766734591  0.3127487935483018  0.0604803457620378
  0.8231201291854262  0.9544255217902773  0.2672315745497826
  0.8959280185996974  0.9300114531141261  0.8382135795426180
  0.8758611133426584  0.7601590817019783  0.4032209170972649
  0.5201006528317507  0.8760088936623092  0.2893419267870598
  0.0745407275893868  0.3314937603775903  0.3248678881861338
  0.9100759583850433  0.3046401144067588  0.4302670218779525
  0.3719155716849372  0.3743684870360298  0.8483720413849554
  0.5893789733964923  0.4199499593622420  0.9338376551322298
  0.0199842805211006  0.8032761824971359  0.8926992264556688
  0.8014082267287463  0.6451427313106137  0.2448512033112991
  0.0141109534691282  0.8877960734347354  0.4689776254805267
  0.6319756802824372  0.1771190856489042  0.9598403684330279
  0.3051435614561697  0.5818365748647594  0.1365379130700788
  0.5453434139939120  0.9300909628221063  0.1403275470788472
  0.5474568250254848  0.0333828336475293  0.9574306750317092
  0.0044194541526181  0.8375692480507837  0.7006350239418353
  0.2783775000517821  0.9692714993255436  0.6796492542305757
  0.0459199635127234  0.2362630366150213  0.1052123826571574
  0.8627239555900701  0.6673424710048437  0.9663441920879450
  0.9252725707363396  0.1106716395828187  0.9523806537265145
  0.0597356931465072  0.3318648366946206  0.8495102688274940
  0.2086217782837423  0.4102507425385582  0.7448198226143532
  0.1985969940647081  0.2091255016601608  0.0298501117924417
  0.2790271083825928  0.7923209127414168  0.0198138428622627
  0.6785537064934957  0.2278209862345761  0.7241890735538874
  0.9952171010095583  0.1567665894767529  0.5298440794437482
  0.9134457126113347  0.3678470710808597  0.0185006579811500
  0.8247063723456662  0.3590924786479377  0.8276095016397420
  0.1773391155328170  0.1367381559026057  0.6681899989358939
  0.5860796183161341  0.5977894461435653  0.0085782017343448
  0.9350037871909151  0.7165913947057305  0.5731479318597934
  0.6613774836215782  0.0396845687390766  0.7850755632308264
  0.3803181232444999  0.7909398658153819  0.7456263192144732
  0.3894915998691459  0.6536674128268132  0.4863797128564116
  0.8227534091601996  0.1472094180747803  0.2902483320975406
  0.4807276648184597  0.2507257183524985  0.4099378834606497
  0.1498497320213517  0.5192583193032192  0.1592060754187870
  0.5438385715140512  0.0519607606736656  0.2827565413610316
  0.7436002091080525  0.7265113576582394  0.0756269571935846
  0.6638177239443763  0.7484118828705135  0.7573241691801229
  0.9521521395587129  0.5003200858919925  0.8829434203173463
  0.9330824986443815  0.8445073837673007  0.1135503005437570
  0.3218764158542697  0.3865208681545482  0.1131908491196185
  0.0518082351172922  0.0104471008635869  0.0856926909924169
  0.2434993846921216  0.6285114247787931  0.3454360004291246
  0.3608332133202268  0.9818262647564211  0.5067998969067773
  0.1393576832081678  0.0438329918724136  0.4844100885822158
  0.3661825487733950  0.9431325599064166  0.2148381304348632
  0.4901352366510281  0.9893547669100187  0.7088721354640910
  0.4001493641168139  0.1430227038767953  0.0285537825858171
  0.7457608635886714  0.5210728328670342  0.9183327905475309
  0.9621435083667862  0.5768900109996125  0.6969411734080992
  0.5391361108608450  0.7776255576673350  0.6362970192120301
  0.0951128662255769  0.0197338968386234  0.2821869895954521
  0.8298050876533054  0.4690762903261216  0.3699649420195854
  0.3475147068707400  0.5163093094744298  0.6625776414987143
  0.5979368096213946  0.4866363220201606  0.6490833030829037
  0.1390477062788804  0.1499462014183308  0.8604115761474844
  0.7860445337341275  0.5361796485955495  0.7352640139688731
  0.4716529763098762  0.5521247803723739  0.1877454136730563
  0.6899645068154996  0.3131412533567968  0.3986318103204169
  0.2002044853219758  0.8487713109584618  0.2569645574836272
  0.4039745512111637  0.5153257505919555  0.9684052862540753
  0.3732983280986204  0.5317273959334443  0.4586811055683739
  0.4550158138856517  0.1215848078425168  0.5652994695992248
  0.4977992547443435  0.1229234341323675  0.1072358529212494
  0.4320251089021738  0.8968375514309628  0.8962401087731280
  0.8337473413468146  0.4543716989945352  0.6497275844622692
  0.6161262896465800  0.0235738296082744  0.5042695532656438
  0.5540729617518991  0.5906838970810711  0.7161809408069928
  0.8936813792778153  0.1843783120048812  0.3894283035780006
  0.4879412722173697  0.7625230098818392  0.2389810476048169
  0.3677014288358436  0.3683733810440870  0.3060637458388129
  0.1629886079287317  0.9376899226860971  0.6401701095488335
  0.1840446755111529  0.4313197124743056  0.5633215355355929
  0.3601724050790764  0.0206470712301723  0.0159061817510064
  0.4778648141248070  0.9335473679756632  0.5235921559454866
  0.8346442351019832  0.1255134606419617  0.4707124166076682
  0.3033108446112678  0.1772768031826146  0.5268039911672204
  0.0719630119219872  0.6264965738299253  0.6547372296570657
  0.9661056554472012  0.6235520261807039  0.9087604178773532
  0.0414982839838984  0.7376709125655054  0.6350462613534660
  0.5451924923209432  0.0854233763293877  0.7652810773233014
  0.9557772329679324  0.0197994714594500  0.7696386911682964
  0.3682407497893649  0.0828141287507265  0.3460185849047974
  0.2882673666925086  0.7890416044886024  0.4765215986912423
  0.7980442743746536  0.8167315258454835  0.4915637790096525
  0.2271968807319595  0.2544806064583867  0.2354453042897688
  0.1115547805408923  0.8928359540752169  0.7335902742805374
  0.8567585020850714  0.6350160239069211  0.4345858326449061
  0.3895820172815405  0.2402087557898369  0.6759142973491805
  0.6378437699894093  0.5897268425763400  0.5734448578991334
  0.5753447376198935  0.2009599591794355  0.0737348380000640
  0.1072800512665992  0.8140208426550046  0.0437090051721825
  0.9261684424152321  0.0173511437813758  0.2307918900760129
  0.7350102849961928  0.9926965955046043  0.4855882751476273
  0.7829261176228925  0.5893652155809477  0.3564888639578356
  0.0743004114560577  0.1441069103383512  0.2968397819738158
  0.2083278922860785  0.4382332704712297  0.4485657992596828
  0.4868965369494092  0.1461652959327964  0.2210561358601950
  0.1938677895202687  0.4521115550303065  0.2576632082859831
  0.6120451108796630  0.3468797427584249  0.1422628596958759
  0.7720275173601010  0.4834387041006778  0.4887000589586634
  0.0462662649772412  0.4870282883569175  0.2247143260632143
  0.1245674443711735  0.5321172920456476  0.8566032099414826
  0.4586979645525204  0.3017406995672474  0.6061725012818471
  0.2784307355467988  0.5147327975539184  0.3922985961635348
  0.6995477062038660  0.5949623509791024  0.1913603994189685
  0.7854650033538775  0.0284707439848262  0.6888390817115351
  0.5628681780195777  0.7207664263838183  0.1572879885754972
  0.7060789415346846  0.6073325805881424  0.0756966861380164
  0.0382351515101007  0.0425662350215390  0.5626172746014291
  0.3047547919452143  0.0170824130595975  0.1158502680685629
  0.9431226597055442  0.9661440735970359  0.5556092807420043
  0.8205890467892232  0.5827728670587859  0.5328665803061838
  0.5087712794807260  0.7416446702516950  0.8869998033088393
  0.1741765967684543  0.6018347305763569  0.7080652392927931
  0.2862620978505390  0.8781499710965832  0.7676544195402428
  0.4342913857313917  0.9915164700904811  0.3125548060809251
  0.5744493583928474  0.2175720291684371  0.2499038407316334
  0.8353511326633551  0.4820364138873714  0.8376753077603709
  0.2906521930851795  0.2960009032646269  0.5152231504131422
  0.1023466753363707  0.0357140462568637  0.6610468901882172
  0.8881022914545156  0.4680972641726981  0.1824687208192159
  0.0737367775779276  0.4789112446037791  0.5490916658967535
  0.5755267685554557  0.0402311943903229  0.0852833775887021
  0.7280930970976982  0.1278973862297548  0.0270541504476682
  0.0264296523171978  0.3628602062576149  0.0866893103843793
  0.8456282834198987  0.4545943327493092  0.0745275460215993
  0.9031775200137275  0.5280352293966502  0.5918900144081718
  0.2194405600242817  0.5017252000154997  0.6523814851868508
  0.5615163825044505  0.1821036774821678  0.7021355937172871
  0.3960560202848100  0.4689830529328418  0.5553583674317153
  0.9441260896174271  0.1231403448007100  0.8279254416328996
  0.3903723704684054  0.3559699608133400  0.5272885203247597
  0.7193419562507657  0.2870276634771471  0.1326738360034909
  0.1434817371133406  0.9278063300668080  0.0538419981930716
  0.4634198997466541  0.3889899784525639  0.2390204218659591
 
  0.00000000E+00  0.00000000E+00  0.00000000E+00
  0.00000000E+00  0.00000000E+00  0.00000000E+00
  0.00000000E+00  0.00000000E+00  0.00000000E+00
  0.00000000E+00  0.00000000E+00  0.00000000E+00
  0.00000000E+00  0.00000000E+00  0.00000000E+00
  0.00000000E+00  0.00000000E+00  0.00000000E+00
  0.00000000E+00  0.00000000E+00  0.00000000E+00
  0.00000000E+00  0.00000000E+00  0.00000000E+00
  0.00000000E+00  0.00000000E+00  0.00000000E+00
  0.00000000E+00  0.00000000E+00  0.00000000E+00
  0.00000000E+00  0.00000000E+00  0.00000000E+00
  0.00000000E+00  0.00000000E+00  0.00000000E+00
  0.00000000E+00  0.00000000E+00  0.00000000E+00
  0.00000000E+00  0.00000000E+00  0.00000000E+00
  0.00000000E+00  0.00000000E+00  0.00000000E+00
  0.00000000E+00  0.00000000E+00  0.00000000E+00
  0.00000000E+00  0.00000000E+00  0.00000000E+00
  0.00000000E+00  0.00000000E+00  0.00000000E+00
  0.00000000E+00  0.00000000E+00  0.00000000E+00
  0.00000000E+00  0.00000000E+00  0.00000000E+00
  0.00000000E+00  0.00000000E+00  0.00000000E+00
  0.00000000E+00  0.00000000E+00  0.00000000E+00
  0.00000000E+00  0.00000000E+00  0.00000000E+00
  0.00000000E+00  0.00000000E+00  0.00000000E+00
  0.00000000E+00  0.00000000E+00  0.00000000E+00
  0.00000000E+00  0.00000000E+00  0.00000000E+00
  0.00000000E+00  0.00000000E+00  0.00000000E+00
  0.00000000E+00  0.00000000E+00  0.00000000E+00
  0.00000000E+00  0.00000000E+00  0.00000000E+00
  0.00000000E+00  0.00000000E+00  0.00000000E+00
  0.00000000E+00  0.00000000E+00  0.00000000E+00
  0.00000000E+00  0.00000000E+00  0.00000000E+00
  0.00000000E+00  0.00000000E+00  0.00000000E+00
  0.00000000E+00  0.00000000E+00  0.00000000E+00
  0.00000000E+00  0.00000000E+00  0.00000000E+00
  0.00000000E+00  0.00000000E+00  0.00000000E+00
  0.00000000E+00  0.00000000E+00  0.00000000E+00
  0.00000000E+00  0.00000000E+00  0.00000000E+00
  0.00000000E+00  0.00000000E+00  0.00000000E+00
  0.00000000E+00  0.00000000E+00  0.00000000E+00
  0.00000000E+00  0.00000000E+00  0.00000000E+00
  0.00000000E+00  0.00000000E+00  0.00000000E+00
  0.00000000E+00  0.00000000E+00  0.00000000E+00
  0.00000000E+00  0.00000000E+00  0.00000000E+00
  0.00000000E+00  0.00000000E+00  0.00000000E+00
  0.00000000E+00  0.00000000E+00  0.00000000E+00
  0.00000000E+00  0.00000000E+00  0.00000000E+00
  0.00000000E+00  0.00000000E+00  0.00000000E+00
  0.00000000E+00  0.00000000E+00  0.00000000E+00
  0.00000000E+00  0.00000000E+00  0.00000000E+00
  0.00000000E+00  0.00000000E+00  0.00000000E+00
  0.00000000E+00  0.00000000E+00  0.00000000E+00
  0.00000000E+00  0.00000000E+00  0.00000000E+00
  0.00000000E+00  0.00000000E+00  0.00000000E+00
  0.00000000E+00  0.00000000E+00  0.00000000E+00
  0.00000000E+00  0.00000000E+00  0.00000000E+00
  0.00000000E+00  0.00000000E+00  0.00000000E+00
  0.00000000E+00  0.00000000E+00  0.00000000E+00
  0.00000000E+00  0.00000000E+00  0.00000000E+00
  0.00000000E+00  0.00000000E+00  0.00000000E+00
  0.00000000E+00  0.00000000E+00  0.00000000E+00
  0.00000000E+00  0.00000000E+00  0.00000000E+00
  0.00000000E+00  0.00000000E+00  0.00000000E+00
  0.00000000E+00  0.00000000E+00  0.00000000E+00
  0.00000000E+00  0.00000000E+00  0.00000000E+00
  0.00000000E+00  0.00000000E+00  0.00000000E+00
  0.00000000E+00  0.00000000E+00  0.00000000E+00
  0.00000000E+00  0.00000000E+00  0.00000000E+00
  0.00000000E+00  0.00000000E+00  0.00000000E+00
  0.00000000E+00  0.00000000E+00  0.00000000E+00
  0.00000000E+00  0.00000000E+00  0.00000000E+00
  0.00000000E+00  0.00000000E+00  0.00000000E+00
  0.00000000E+00  0.00000000E+00  0.00000000E+00
  0.00000000E+00  0.00000000E+00  0.00000000E+00
  0.00000000E+00  0.00000000E+00  0.00000000E+00
  0.00000000E+00  0.00000000E+00  0.00000000E+00
  0.00000000E+00  0.00000000E+00  0.00000000E+00
  0.00000000E+00  0.00000000E+00  0.00000000E+00
  0.00000000E+00  0.00000000E+00  0.00000000E+00
  0.00000000E+00  0.00000000E+00  0.00000000E+00
  0.00000000E+00  0.00000000E+00  0.00000000E+00
  0.00000000E+00  0.00000000E+00  0.00000000E+00
  0.00000000E+00  0.00000000E+00  0.00000000E+00
  0.00000000E+00  0.00000000E+00  0.00000000E+00
  0.00000000E+00  0.00000000E+00  0.00000000E+00
  0.00000000E+00  0.00000000E+00  0.00000000E+00
  0.00000000E+00  0.00000000E+00  0.00000000E+00
  0.00000000E+00  0.00000000E+00  0.00000000E+00
  0.00000000E+00  0.00000000E+00  0.00000000E+00
  0.00000000E+00  0.00000000E+00  0.00000000E+00
  0.00000000E+00  0.00000000E+00  0.00000000E+00
  0.00000000E+00  0.00000000E+00  0.00000000E+00
  0.00000000E+00  0.00000000E+00  0.00000000E+00
  0.00000000E+00  0.00000000E+00  0.00000000E+00
  0.00000000E+00  0.00000000E+00  0.00000000E+00
  0.00000000E+00  0.00000000E+00  0.00000000E+00
  0.00000000E+00  0.00000000E+00  0.00000000E+00
  0.00000000E+00  0.00000000E+00  0.00000000E+00
  0.00000000E+00  0.00000000E+00  0.00000000E+00
  0.00000000E+00  0.00000000E+00  0.00000000E+00
  0.00000000E+00  0.00000000E+00  0.00000000E+00
  0.00000000E+00  0.00000000E+00  0.00000000E+00
  0.00000000E+00  0.00000000E+00  0.00000000E+00
  0.00000000E+00  0.00000000E+00  0.00000000E+00
  0.00000000E+00  0.00000000E+00  0.00000000E+00
  0.00000000E+00  0.00000000E+00  0.00000000E+00
  0.00000000E+00  0.00000000E+00  0.00000000E+00
  0.00000000E+00  0.00000000E+00  0.00000000E+00
  0.00000000E+00  0.00000000E+00  0.00000000E+00
  0.00000000E+00  0.00000000E+00  0.00000000E+00
  0.00000000E+00  0.00000000E+00  0.00000000E+00
  0.00000000E+00  0.00000000E+00  0.00000000E+00
  0.00000000E+00  0.00000000E+00  0.00000000E+00
  0.00000000E+00  0.00000000E+00  0.00000000E+00
  0.00000000E+00  0.00000000E+00  0.00000000E+00
  0.00000000E+00  0.00000000E+00  0.00000000E+00
  0.00000000E+00  0.00000000E+00  0.00000000E+00
  0.00000000E+00  0.00000000E+00  0.00000000E+00
  0.00000000E+00  0.00000000E+00  0.00000000E+00
  0.00000000E+00  0.00000000E+00  0.00000000E+00
  0.00000000E+00  0.00000000E+00  0.00000000E+00
  0.00000000E+00  0.00000000E+00  0.00000000E+00
  0.00000000E+00  0.00000000E+00  0.00000000E+00
  0.00000000E+00  0.00000000E+00  0.00000000E+00
  0.00000000E+00  0.00000000E+00  0.00000000E+00
  0.00000000E+00  0.00000000E+00  0.00000000E+00
  0.00000000E+00  0.00000000E+00  0.00000000E+00
  0.00000000E+00  0.00000000E+00  0.00000000E+00
  0.00000000E+00  0.00000000E+00  0.00000000E+00
  0.00000000E+00  0.00000000E+00  0.00000000E+00
  0.00000000E+00  0.00000000E+00  0.00000000E+00
  0.00000000E+00  0.00000000E+00  0.00000000E+00
  0.00000000E+00  0.00000000E+00  0.00000000E+00
  0.00000000E+00  0.00000000E+00  0.00000000E+00
  0.00000000E+00  0.00000000E+00  0.00000000E+00
  0.00000000E+00  0.00000000E+00  0.00000000E+00
  0.00000000E+00  0.00000000E+00  0.00000000E+00
  0.00000000E+00  0.00000000E+00  0.00000000E+00
  0.00000000E+00  0.00000000E+00  0.00000000E+00
  0.00000000E+00  0.00000000E+00  0.00000000E+00
  0.00000000E+00  0.00000000E+00  0.00000000E+00
  0.00000000E+00  0.00000000E+00  0.00000000E+00
  0.00000000E+00  0.00000000E+00  0.00000000E+00
  0.00000000E+00  0.00000000E+00  0.00000000E+00
  0.00000000E+00  0.00000000E+00  0.00000000E+00
  0.00000000E+00  0.00000000E+00  0.00000000E+00
  0.00000000E+00  0.00000000E+00  0.00000000E+00
  0.00000000E+00  0.00000000E+00  0.00000000E+00
  0.00000000E+00  0.00000000E+00  0.00000000E+00
  0.00000000E+00  0.00000000E+00  0.00000000E+00
  0.00000000E+00  0.00000000E+00  0.00000000E+00
  0.00000000E+00  0.00000000E+00  0.00000000E+00
  0.00000000E+00  0.00000000E+00  0.00000000E+00
  0.00000000E+00  0.00000000E+00  0.00000000E+00
  0.00000000E+00  0.00000000E+00  0.00000000E+00
  0.00000000E+00  0.00000000E+00  0.00000000E+00
  0.00000000E+00  0.00000000E+00  0.00000000E+00
  0.00000000E+00  0.00000000E+00  0.00000000E+00
  0.00000000E+00  0.00000000E+00  0.00000000E+00
  0.00000000E+00  0.00000000E+00  0.00000000E+00
  0.00000000E+00  0.00000000E+00  0.00000000E+00
  0.00000000E+00  0.00000000E+00  0.00000000E+00
  0.00000000E+00  0.00000000E+00  0.00000000E+00
  0.00000000E+00  0.00000000E+00  0.00000000E+00
  0.00000000E+00  0.00000000E+00  0.00000000E+00
  0.00000000E+00  0.00000000E+00  0.00000000E+00
  0.00000000E+00  0.00000000E+00  0.00000000E+00
  0.00000000E+00  0.00000000E+00  0.00000000E+00
  0.00000000E+00  0.00000000E+00  0.00000000E+00
  0.00000000E+00  0.00000000E+00  0.00000000E+00
  0.00000000E+00  0.00000000E+00  0.00000000E+00
  0.00000000E+00  0.00000000E+00  0.00000000E+00
  0.00000000E+00  0.00000000E+00  0.00000000E+00
  0.00000000E+00  0.00000000E+00  0.00000000E+00
  0.00000000E+00  0.00000000E+00  0.00000000E+00
  0.00000000E+00  0.00000000E+00  0.00000000E+00
  0.00000000E+00  0.00000000E+00  0.00000000E+00
  0.00000000E+00  0.00000000E+00  0.00000000E+00
  0.00000000E+00  0.00000000E+00  0.00000000E+00
  0.00000000E+00  0.00000000E+00  0.00000000E+00
  0.00000000E+00  0.00000000E+00  0.00000000E+00
  0.00000000E+00  0.00000000E+00  0.00000000E+00
  0.00000000E+00  0.00000000E+00  0.00000000E+00
  0.00000000E+00  0.00000000E+00  0.00000000E+00
  0.00000000E+00  0.00000000E+00  0.00000000E+00
  0.00000000E+00  0.00000000E+00  0.00000000E+00
  0.00000000E+00  0.00000000E+00  0.00000000E+00
  0.00000000E+00  0.00000000E+00  0.00000000E+00
  0.00000000E+00  0.00000000E+00  0.00000000E+00
  0.00000000E+00  0.00000000E+00  0.00000000E+00
  0.00000000E+00  0.00000000E+00  0.00000000E+00
  0.00000000E+00  0.00000000E+00  0.00000000E+00
  0.00000000E+00  0.00000000E+00  0.00000000E+00
  0.00000000E+00  0.00000000E+00  0.00000000E+00
  0.00000000E+00  0.00000000E+00  0.00000000E+00
  0.00000000E+00  0.00000000E+00  0.00000000E+00
  0.00000000E+00  0.00000000E+00  0.00000000E+00
  0.00000000E+00  0.00000000E+00  0.00000000E+00
  0.00000000E+00  0.00000000E+00  0.00000000E+00
  0.00000000E+00  0.00000000E+00  0.00000000E+00
  0.00000000E+00  0.00000000E+00  0.00000000E+00
  0.00000000E+00  0.00000000E+00  0.00000000E+00
  0.00000000E+00  0.00000000E+00  0.00000000E+00
  0.00000000E+00  0.00000000E+00  0.00000000E+00
  0.00000000E+00  0.00000000E+00  0.00000000E+00
  0.00000000E+00  0.00000000E+00  0.00000000E+00
  0.00000000E+00  0.00000000E+00  0.00000000E+00
  0.00000000E+00  0.00000000E+00  0.00000000E+00
  0.00000000E+00  0.00000000E+00  0.00000000E+00
  0.00000000E+00  0.00000000E+00  0.00000000E+00
  0.00000000E+00  0.00000000E+00  0.00000000E+00
  0.00000000E+00  0.00000000E+00  0.00000000E+00
  0.00000000E+00  0.00000000E+00  0.00000000E+00
  0.00000000E+00  0.00000000E+00  0.00000000E+00
  0.00000000E+00  0.00000000E+00  0.00000000E+00
  0.00000000E+00  0.00000000E+00  0.00000000E+00
  0.00000000E+00  0.00000000E+00  0.00000000E+00
  0.00000000E+00  0.00000000E+00  0.00000000E+00
  0.00000000E+00  0.00000000E+00  0.00000000E+00
  0.00000000E+00  0.00000000E+00  0.00000000E+00
  0.00000000E+00  0.00000000E+00  0.00000000E+00
  0.00000000E+00  0.00000000E+00  0.00000000E+00
  0.00000000E+00  0.00000000E+00  0.00000000E+00
  0.00000000E+00  0.00000000E+00  0.00000000E+00
  0.00000000E+00  0.00000000E+00  0.00000000E+00
  0.00000000E+00  0.00000000E+00  0.00000000E+00
  0.00000000E+00  0.00000000E+00  0.00000000E+00
  0.00000000E+00  0.00000000E+00  0.00000000E+00
  0.00000000E+00  0.00000000E+00  0.00000000E+00
  0.00000000E+00  0.00000000E+00  0.00000000E+00
  0.00000000E+00  0.00000000E+00  0.00000000E+00
  0.00000000E+00  0.00000000E+00  0.00000000E+00