Amorphous GeAsSeSi                      
   1.00000000000000     
    21.4930323354591130    0.0000000000000000    0.0000000000000000
     0.0000000000000000   21.4930323354591130    0.0000000000000000
     0.0000000000000000    0.0000000000000000   21.4930323354591130
   Ge   As   Te   Si
    30    90   165    15
Direct
  0.4667321499894392  0.7529539150447164  0.5613110718880288
  0.6543876354220576  0.8123109523066488  0.6490730273416107
  0.0886460353015580  0.4230757933764544  0.7707546571146122
  0.0453491328677554  0.8402334778779365  0.2858283563828176
  0.0143335858155785  0.1557882576728157  0.7760417231744432
  0.6249898668260367  0.2206862314595019  0.3904408158914365
  0.8451825741437746  0.8608624621517840  0.5964987843925530
  0.1312071535238288  0.6911040267703737  0.9480360501010181
  0.8213233843839280  0.0937025473231116  0.9506771507225402
  0.8669374542706195  0.1569049659850557  0.6751327279616621
  0.4310585983224646  0.1088647976395957  0.4845643732124028
  0.7700769827137804  0.4104059512841575  0.2169828138343458
  0.6927559317727566  0.8223194473233791  0.7551538346603862
  0.2210754218814491  0.8073996172214084  0.6100763769236361
  0.0468209568117235  0.4572382993849904  0.6627517121583578
  0.5670084271128660  0.8477624937956096  0.9910905918332068
  0.6399078870314748  0.4310856124366497  0.8145100798282088
  0.5386419183791502  0.2113593745154701  0.6156560049526227
  0.4044422774878596  0.7948531338254852  0.9148208200862407
  0.7081095181212150  0.1272217632484586  0.8008303496567605
  0.2782581907211623  0.2739046342866754  0.0931630264859151
  0.8162189186890478  0.5883229866766365  0.0088749684716433
  0.6514388661904306  0.8961850649802358  0.5004755432630853
  0.2749410093793235  0.6791402962759906  0.6193547829734337
  0.1072259413593835  0.9231260500295065  0.5105324670411360
  0.6602394783888692  0.1095032395798843  0.3798505997465574
  0.6676505870759470  0.5240033094393582  0.4915250251878760
  0.9353189623306208  0.9568760708348805  0.0024267221309705
  0.2065682938536477  0.1531885729681272  0.5145060817843047
  0.4611250852976083  0.3813169743265584  0.4210824361019744
  0.7056816087708265  0.1902633245090885  0.5431936643649720
  0.9474552964730734  0.0375135724154370  0.3307224242658025
  0.3540830965444133  0.8905887468960297  0.3437635445319405
  0.6563954200747246  0.1602051350747296  0.6433342697050123
  0.0122600177005123  0.7591491346895634  0.4338892271316537
  0.6494392821694871  0.7926566193621054  0.3207348687330161
  0.9898852115588090  0.9276940360989535  0.1887658564206786
  0.7024139661397365  0.7618127081512147  0.9259618688913409
  0.5258648587341755  0.5389733632716922  0.8629771876188804
  0.6686110196412945  0.2972776854425398  0.5345684179379958
  0.6598804514605843  0.9253883166317408  0.6161981767334723
  0.3309292628121336  0.5207891131248280  0.8515290816029903
  0.2546227268989750  0.6912317353997384  0.0895397506940037
  0.2271579625526716  0.0970009152260953  0.9369416053054794
  0.5293753418165011  0.0161695716750710  0.6405028150938341
  0.9210352958100581  0.8708209735695528  0.3061612281565424
  0.1131282323015477  0.2359308010385472  0.3806018188763746
  0.9387379801470640  0.3233891375823372  0.2963478904675039
  0.9960717145174268  0.7830934338555279  0.0013675531647546
  0.7461104221788337  0.3737556749599666  0.5903939355070957
  0.5064647426044948  0.7472528942806944  0.9570356161887223
  0.8009532765116015  0.8604352741552928  0.1435660973271601
  0.6884176025313330  0.7334102244818634  0.5760118407034290
  0.7839469995879794  0.9012263082795486  0.7372224399734295
  0.0328729327135427  0.1554613202265185  0.3581596039193868
  0.1995592115459836  0.4160975500990703  0.9403604918491795
  0.4605243890129517  0.1526301613841341  0.8737509214941449
  0.3463127138758945  0.0416953487838402  0.7989871333089608
  0.1760236701154996  0.2322205650706994  0.8341913898138483
  0.6921501181229081  0.4171235463612119  0.9361974289831042
  0.4889587476537633  0.2963038453175906  0.7980116192841307
  0.2126724277522276  0.5127175883301354  0.8783559561478221
  0.0100466306471948  0.7056565551269912  0.8254120489807705
  0.2026115982473505  0.1010653881513986  0.0507669600600492
  0.7566389221305908  0.9935779562202520  0.9229138203137368
  0.8518922343396945  0.3281805393089137  0.6060690106244703
  0.6653671643439873  0.1586612085856716  0.1682249464272487
  0.5763385825322289  0.4430750544131115  0.4886711147205077
  0.4105923712480879  0.6513841005264676  0.1670152072114517
  0.2660789908000020  0.1675858847110394  0.2355003589722847
  0.5385960939157232  0.5686195417339557  0.5941116241901342
  0.1892984684926089  0.7089480407481217  0.3969332338881278
  0.1178582631765358  0.2343122463574764  0.4988108732768841
  0.9437594721604923  0.4551750348269295  0.5303788321324195
  0.0899439314075747  0.6569873208768089  0.3685488958530138
  0.3898327882084549  0.7749949464531736  0.3333754241258105
  0.4976073142140519  0.7971013797603439  0.3809046380350394
  0.7783651004698193  0.1024645369329801  0.3915063104522117
  0.7606458188604314  0.7540142243150609  0.8235408111853864
  0.4881009231962609  0.3693056781836996  0.7001961975626083
  0.5547337384536679  0.7193765000103184  0.3089195408484870
  0.7194951403827808  0.4164045111592579  0.0520780958328836
  0.6346951745440113  0.8479436691583293  0.0895434044010427
  0.4916164020778464  0.9379697036200427  0.0038969102102746
  0.7729528269120820  0.9546513343944564  0.6302214330892543
  0.8497369958875456  0.8125568398305839  0.6975972330278212
  0.2045860998030169  0.8764224183133116  0.4592978291135711
  0.8693881463705737  0.1185781824437744  0.1389805462572348
  0.4509838091204511  0.6099897693559647  0.9823713726058216
  0.4925394825321407  0.4951009129776411  0.4294880493103246
  0.2529428068471565  0.4683292476200243  0.0190663650670025
  0.6069516390346246  0.8783667777384606  0.8093109631483163
  0.0388505573134086  0.6769314445220774  0.0224136681437210
  0.0895082900969794  0.4366620994287275  0.2037941110018096
  0.1557106408408107  0.8040604178931273  0.9190577968963995
  0.2517516169542488  0.2126501749794672  0.9234275992161308
  0.2012409832339249  0.7390100277295913  0.8240656265846140
  0.8761011948187323  0.9679099616774076  0.3951973729974351
  0.6165435335825087  0.5453153950500887  0.7832079823769384
  0.6057598043599609  0.6462846166242618  0.3869184295314811
  0.5224871931242183  0.4525167061320428  0.5885679864036053
  0.5263274621846613  0.4244623640103927  0.8635963928899255
  0.5756323210314096  0.9716801904980530  0.4390354654917151
  0.9424450070648608  0.2500136946598815  0.2043726532501268
  0.2172987589892141  0.3480696885521743  0.3120409938433067
  0.6999677666632029  0.0810948179920874  0.0862073698494976
  0.3668233348176467  0.3712272469405538  0.7313493427979981
  0.6552733542905825  0.8675309745596517  0.9132159870731752
  0.6862624541664032  0.7306260462037808  0.4128099722100221
  0.6710780801844238  0.7169992233468158  0.2257164687948250
  0.4286698923983249  0.7183570243050167  0.8252850676052809
  0.2403641179301381  0.0955492349485215  0.7929095503710832
  0.1389295619178928  0.8128617533669473  0.3833308740324823
  0.6191437161541740  0.7817066417728513  0.4951261404031360
  0.9031783091592668  0.3632425906381252  0.7659094975660601
  0.6702293259900650  0.4793872145982345  0.2277232633217340
  0.1705280483605695  0.1053807992689131  0.2662915348445673
  0.1192891231084224  0.6571883967775044  0.8363498273280530
  0.3576632494034637  0.5325708721040705  0.2698332755008912
  0.0676140816615657  0.2532165936308070  0.7241745886117680
  0.4824840016917564  0.3621816744631948  0.1406659757103850
  0.2172793449391349  0.1650979026155260  0.3648573002472581
  0.3433788300794897  0.8311730724961862  0.5582318594374457
  0.4807770033647780  0.5424881175725149  0.2511443308861509
  0.7685519884087419  0.8814820184741096  0.4504479110207803
  0.2790539278155045  0.1121345718762438  0.6739135267473996
  0.2442431689507516  0.6416607709754166  0.9747860805959594
  0.0795544351166281  0.9597172339637362  0.9096455549009652
  0.2096407611538629  0.9861041660325348  0.2611075166438533
  0.6408555443815027  0.4966005502128718  0.1015940691318587
  0.1706763827263825  0.5589041204248721  0.3174469508754025
  0.4042466065143481  0.6707471122212908  0.6400472142516999
  0.8088804129914146  0.2954097402462473  0.7170921578852955
  0.0056445351457792  0.3296306122819357  0.6456428443142422
  0.9348568205925317  0.4408333642513063  0.1989386876674246
  0.4258381748116324  0.2501130696711333  0.3801090186051383
  0.1648006398173509  0.0105649069004223  0.7575604505718472
  0.0758989675151757  0.5823818721176958  0.5132866412914950
  0.2607279319284480  0.9873682372769592  0.4097150664782714
  0.3119411890546359  0.9273594823122389  0.9663543499045736
  0.2527861219622036  0.2952601839077810  0.6834851304137962
  0.0844648565467374  0.3865318508383636  0.4493380337071321
  0.8386354802269800  0.6659964004571008  0.6629442788973480
  0.5687604450236491  0.3808927900323581  0.3194239206931750
  0.0598863163188425  0.4497348106419252  0.0345954473377546
  0.9306959483613300  0.0414457018661494  0.6406637377015707
  0.2094868720144235  0.9668321761085155  0.0579571702940794
  0.8371973195895387  0.2126953503541980  0.5523619419521659
  0.1288473890825944  0.7729972906751258  0.5181865054971675
  0.8319896509399558  0.0164314049908734  0.0728055201802090
  0.5119507875695000  0.2395227752693547  0.9343624973423927
  0.1205975356276163  0.6790058780291534  0.1648045358346868
  0.8177691129506629  0.2227490333368816  0.0615730266734609
  0.8324347572062724  0.1723657184107499  0.8503943710465712
  0.3737367063684714  0.7262377366253306  0.0753577865162853
  0.7910723921830332  0.8283007675562377  0.9839912007668232
  0.2628650301629268  0.5851276157191834  0.5309760002295226
  0.9609168030907536  0.5217915851451730  0.4154135073528672
  0.0332138482671735  0.7003860918397811  0.2645269588043413
  0.9027778287589784  0.5970486832693659  0.1368300733703104
  0.7745493483625341  0.2876770627632728  0.2363205496291201
  0.4286442038248032  0.3185673805421215  0.9968123220605817
  0.8108662733278353  0.8279104497480824  0.2614975932449157
  0.8457968398633986  0.9160824433515961  0.8888005371743809
  0.9048059209434790  0.7516425936833381  0.3607393851399667
  0.5180666034218755  0.8632930243298303  0.2672352911760713
  0.0891752030701065  0.3450486952054638  0.2908576521077139
  0.9502987982993791  0.3276672919141182  0.4852408547246394
  0.3631871076564501  0.4002764745394596  0.8505670913206096
  0.5716583405259440  0.3820921110394886  0.9736708446766102
  0.0311171445220861  0.8149933460532264  0.8828354553173717
  0.8599678448141883  0.7032926741997917  0.2146619540077087
  0.9934016145599462  0.8906210849542644  0.4483178060758964
  0.6718062269399324  0.2058470289371392  0.9307813771983450
  0.2966353836865624  0.5893120187100535  0.1488592100516691
  0.5810711053789955  0.9501202672339985  0.1316096322835946
  0.5814240758790736  0.0070429443523239  0.9516902601830995
  0.9573872962093070  0.8597416325037704  0.7380572291412327
  0.3258109405793588  0.9475932619079904  0.6531785616413147
  0.0278799326616899  0.2968612163408093  0.1230657019062415
  0.8797002336350840  0.7232729705167219  0.9533267658117037
  0.9562969670768685  0.0824730042390649  0.9589182104374024
  0.0515548320639676  0.3138894219169931  0.8293735778029426
  0.2139114219630361  0.4249800589900776  0.7831489929620066
  0.1856951511483078  0.2466365455275450  0.0213043985534650
  0.2892794741653328  0.7944393186645174  0.9672421642626314
  0.6599805562669290  0.2496912309482229  0.7299627553781465
  0.0069055864727793  0.1830494054386135  0.5228110933305363
  0.8815112614151791  0.3776352587437594  0.0228043846073821
  0.7493619361885661  0.3075639397838861  0.8976725295433742
  0.1802551826913165  0.1801416878572992  0.6354528180026601
  0.5698661543356380  0.5823653132900046  0.9675335230236281
  0.9574041123832266  0.7065851755890699  0.5255626832059624
  0.7005225381979009  0.9935164362730013  0.8135852166514749
  0.3767223078094998  0.7697561562271072  0.7249596272535798
  0.4976293948878661  0.6729470412396031  0.4404155761115074
  0.7904288679175463  0.1195320870698086  0.2314185208054900
  0.5397959682504934  0.2467882226015674  0.4769718180587794
  0.1524974841051459  0.5600336610739965  0.1244044013234761
  0.6176583716398056  0.0371221343463297  0.2953541684557792
  0.7585156331165762  0.7418891616968801  0.1303027735897018
  0.7238933128973090  0.6563392451724802  0.7557796123046281
  0.9729187492456643  0.4463613488166034  0.9272605841626009
  0.9208888965328607  0.8438667830521143  0.1118902222377945
  0.3202497600204609  0.3883093990415374  0.0870441280919986
  0.0311877589175777  0.0090939712299874  0.0921517952414364
  0.2405535648485126  0.6867349682284926  0.2768351214625933
  0.3684534750896915  0.9930228487549361  0.4937524419028714
  0.1476134215352394  0.0425564734798710  0.4697016844009740
  0.3363841766396768  0.9215812179465245  0.2238339759881579
  0.4522769384984273  0.9471697787447533  0.7036035980593478
  0.3756426361031246  0.2006567632868651  0.0675894624403454
  0.7314473016298813  0.5648133723180634  0.9226827095607166
  0.9625953374718427  0.6177302220414000  0.6884784168602083
  0.5429333558928945  0.7737972488274407  0.6744046020847771
  0.0485816212538241  0.9763757643485209  0.3101701841802218
  0.8226021212698865  0.4229460329565926  0.3308182922002491
  0.3509230149339012  0.4917859675055726  0.6714845901049025
  0.6209434707911009  0.3912641693742369  0.6998408937057913
  0.0975770882822537  0.1476086248070757  0.8696680790851882
  0.7947471531950263  0.5306158391152018  0.8118077351484444
  0.4757098041039156  0.5676889120089857  0.1004721893193287
  0.7104534276509685  0.3033404008289138  0.4171467963110354
  0.1766505214462453  0.8367784005365094  0.2660401817836008
  0.3848255913638554  0.5031104945781758  0.9664763322981383
  0.4004728321068453  0.5468887444937456  0.4983821481716474
  0.4559864678068254  0.1154594833747739  0.6130233928225518
  0.5011723984800106  0.0900627329736092  0.1121759789115545
  0.4353042984195166  0.9205622415555352  0.8898857391278773
  0.8502596447351058  0.4486884139474281  0.6877930467493660
  0.6111949432833799  0.0831044467638558  0.4923210797227112
  0.5091533088175020  0.5693198943927835  0.7187316872492416
  0.9377932190590306  0.2316935940079407  0.3771355373839529
  0.4250518175220634  0.8258255766929218  0.1851368046700855
  0.3744469808885773  0.4134840583416032  0.3135378601189310
  0.1833573596288217  0.9348297769905225  0.6223628950869323
  0.1655013270867249  0.4357836692114764  0.5997605469673294
  0.3514056808120051  0.0504822024254636  0.9203850311061473
  0.5001818420576070  0.9482548780454555  0.5414803334298421
  0.8180284264476790  0.0559625854710607  0.4947056366412365
  0.3400520191448140  0.1921324045755054  0.4691362301366654
  0.1018290261612887  0.6035164476125741  0.6406235298630846
  0.9711280180031042  0.6287089071690515  0.9287650325124205
  0.0561226916249574  0.7572020784276999  0.6925052348269325
  0.5557062424115928  0.1171810338896320  0.8001876958662476
  0.9099151737641485  0.9951363036921791  0.7792053111503010
  0.3524702711440843  0.0782141808442704  0.2735890363950809
  0.3461787392230548  0.7408722124810124  0.4591963726760048
  0.7971743978320176  0.7644301630547951  0.5203174785012157
  0.1958708518935402  0.2724874723939064  0.1858280012951027
  0.1572268432015135  0.8242834012696901  0.7383424225233743
  0.8899227115162801  0.6248201801375454  0.4369321481852359
  0.3802479425013897  0.2374298078301619  0.7955216673682703
  0.6614789800824061  0.5527763682440011  0.6155488396065320
  0.5642399214594391  0.2057990545108103  0.1072224724413959
  0.0977779051022322  0.8352502401443528  0.0724076685678353
  0.8906127327731496  0.0066777757595894  0.2224380113886970
  0.7579764951912321  0.9888569016202772  0.3493092576649801
  0.7408157307125902  0.5204094860930532  0.3575714872221123
  0.0371395607348408  0.1664455493413539  0.2354208406492818
  0.2118108581313093  0.4226731069224782  0.4195606988179352
  0.4471189662311997  0.1657312750533272  0.2802622529630967
  0.2116027024443308  0.4417625817156606  0.2252835199129781
  0.6337675377501221  0.3268546707553205  0.1169962602435257
  0.7732717826075458  0.4454375472291918  0.4930529758882887
  0.0537926616530276  0.5319141198173881  0.2727277722886889
  0.0316970190421757  0.5195475750937931  0.8303335309304135
  0.4252129151308603  0.2897389692877131  0.6175787499620982
  0.3293537382145565  0.6152173726499779  0.3509062964377838
  0.7555033916621114  0.5673305381595320  0.2281200257608350
  0.7519994453416347  0.0870219107753016  0.6804732416242427
  0.5724052951470412  0.7609370034436932  0.1545509793582698
  0.7197568356722747  0.6088618986497465  0.0905986697961428
  0.0090995729695169  0.0528931640082236  0.5263098547343619
  0.2959097795565021  0.0986394625946748  0.1323275053501483
  0.9705806315219352  0.8638805311271613  0.5775651768274721
  0.8151461057191340  0.5571901094792897  0.5929242278563748
  0.5438732842414404  0.7590516791931790  0.8347918735276518
  0.2449000085121558  0.6060442491716729  0.7237503692448516
  0.3033092463380690  0.9269353438350958  0.7877611174313544
  0.4553262359384811  0.9545906605231452  0.3333240879763474
  0.5731803304997951  0.2533557952940826  0.2816754400439614
  0.8416851844070524  0.4107058586841573  0.8623662645766142
  0.2646041388006390  0.3407423126818802  0.5504589964850836
  0.0599133797359909  0.0689539937146545  0.7007883190984473
  0.8385605005733282  0.4954299005102072  0.1590875820112045
  0.0564643402240473  0.4640418003718634  0.5340866451515605
  0.5979535686197779  0.0467291855356349  0.0607784096247671
  0.7401207986835158  0.1508972434564246  0.0079250511025923
  0.9742662185459363  0.3970345526275977  0.0939869903823053
  0.8156416003501391  0.4759058312141992  0.0523729642270329
  0.9279874994965717  0.5173432066153817  0.6297274165874882
  0.2347087882370513  0.5270883352514176  0.6300428849511227
  0.5408798210911875  0.2164577976746567  0.7357807127583432
  0.4076723763967374  0.4540381419549554  0.5717265165002374
  0.9295799553595513  0.1018766246525125  0.8377840765185305
  0.3841239994109383  0.3592211627034193  0.5215948047427501
  0.7236075423528517  0.2508853759981361  0.1373527402308557
  0.0987147549515019  0.9412180870220533  0.0210716042863849
  0.4781726095756759  0.4173363452868990  0.2434606206095602
 
  0.15882898E-02 -0.15673618E-02  0.96484627E-03
 -0.16097228E-02  0.17494467E-02  0.26518694E-02
 -0.51596665E-04 -0.11586425E-02 -0.16251792E-02
 -0.26516005E-03 -0.33411475E-02  0.15573581E-02
 -0.35683794E-02  0.96337866E-03 -0.39521822E-03
 -0.15149763E-02  0.23192824E-02  0.76949407E-03
  0.96625448E-03 -0.61147193E-03  0.30579050E-03
  0.64911608E-03 -0.92424255E-03 -0.26958865E-03
  0.59503469E-03 -0.14258061E-02 -0.71678393E-03
  0.14964384E-03 -0.87201696E-03  0.25428268E-02
  0.25624872E-02 -0.25391999E-03  0.13753231E-02
  0.18575926E-02  0.11680450E-02 -0.10022531E-02
  0.14182719E-02  0.20152386E-02  0.19207362E-02
 -0.22950581E-02  0.15993816E-02 -0.12729645E-02
 -0.27706694E-02  0.13988560E-02  0.47124344E-03
 -0.81061292E-03  0.69082325E-03  0.14756977E-02
  0.52893526E-03 -0.35828929E-02  0.85849615E-03
 -0.90113041E-03  0.84021177E-03 -0.13666394E-02
  0.25601668E-03 -0.21338299E-02 -0.16539643E-02
 -0.15666031E-02 -0.13240313E-02  0.13638610E-02
  0.15149556E-02  0.50365809E-03  0.23892822E-02
  0.20005869E-02 -0.17728702E-02  0.12172453E-02
  0.13198707E-02  0.16805150E-02 -0.14675900E-02
 -0.18474361E-02  0.65795264E-03 -0.37806497E-02
  0.66519112E-03 -0.39797717E-03  0.11167599E-02
 -0.17873478E-02 -0.21892564E-03 -0.78926372E-03
  0.15820390E-02  0.17540817E-02 -0.18351597E-02
  0.98513725E-03 -0.14111423E-02 -0.25296528E-02
 -0.21051260E-02  0.16041446E-03 -0.24564951E-02
  0.96961722E-03  0.85874203E-03 -0.44311299E-03
  0.22133762E-02 -0.10954676E-02 -0.34614404E-03
 -0.21272746E-02  0.33742563E-03 -0.15817589E-02
 -0.36977561E-03 -0.11723085E-03  0.38146391E-03
 -0.25507486E-02 -0.27617692E-02  0.24209557E-02
  0.10198233E-02 -0.14388748E-02  0.24795416E-02
  0.68901521E-03 -0.12955787E-02  0.18732740E-02
  0.19587395E-03 -0.34161909E-03 -0.16433867E-04
 -0.14587421E-02  0.10084501E-03  0.23260382E-02
  0.13577781E-02 -0.51290085E-03 -0.19055672E-02
 -0.20457211E-03 -0.31416554E-02 -0.18300767E-02
 -0.16518651E-02  0.73685445E-03 -0.16593490E-02
 -0.27377093E-02  0.11157137E-02  0.37139524E-03
  0.10423484E-02 -0.45735599E-02  0.14181817E-02
 -0.29210320E-02 -0.18785794E-02  0.59906235E-04
  0.17763303E-02  0.10862538E-02  0.58224855E-03
  0.43684842E-04  0.20467539E-02  0.40312516E-03
 -0.17175295E-03  0.22189183E-02 -0.11710424E-02
 -0.21120235E-02  0.19492538E-02 -0.11254459E-02
  0.20242717E-02  0.18497170E-03 -0.14952492E-02
 -0.27646315E-02 -0.21344012E-02  0.10411216E-02
  0.92362672E-03  0.12614253E-03  0.18401630E-02
 -0.31344623E-02 -0.34337393E-02 -0.32118172E-02
  0.71773000E-04 -0.40770873E-03  0.13456563E-02
 -0.15173476E-02  0.49549402E-03  0.26069545E-02
 -0.19768869E-02 -0.53303141E-03 -0.15819525E-02
 -0.19653419E-02  0.56188529E-03  0.43877839E-03
  0.37237330E-02 -0.21873417E-02 -0.20441162E-02
  0.28693300E-02  0.23710453E-02 -0.23351165E-02
  0.18578249E-02 -0.54392171E-03  0.53797021E-03
 -0.41904725E-03  0.45725073E-03 -0.22325714E-02
 -0.94525704E-03 -0.96589086E-03  0.35259789E-03
 -0.44976921E-03  0.38186379E-04 -0.27692842E-02
  0.28775187E-02  0.22381615E-02 -0.25036860E-02
 -0.84501836E-03 -0.31625774E-03  0.31284837E-03
 -0.71298083E-03 -0.24398611E-02 -0.13293455E-02
 -0.77105753E-03 -0.43242798E-02 -0.34371484E-03
 -0.46166343E-03 -0.33164526E-03  0.81065767E-03
  0.19087461E-02  0.31663993E-02 -0.32059841E-03
 -0.28750013E-03 -0.20888862E-02 -0.77660630E-03
  0.27925045E-03 -0.14229263E-02  0.12524521E-02
 -0.67650333E-03 -0.12413788E-02  0.19128688E-02
  0.17759186E-03 -0.20940231E-03 -0.31637597E-02
 -0.13908901E-02  0.26232913E-02 -0.59182865E-03
 -0.68898431E-03  0.15577665E-02 -0.19236421E-02
 -0.20199160E-02 -0.51571658E-03 -0.13679715E-03
  0.11492251E-02 -0.17285445E-03 -0.43006531E-04
  0.28123655E-02 -0.29863275E-02 -0.30847594E-02
 -0.14068767E-04 -0.14402587E-02 -0.21622961E-03
  0.28238756E-02 -0.31815112E-04  0.19793665E-02
 -0.18438732E-02 -0.20409642E-02  0.30062899E-02
 -0.12207938E-02  0.19929777E-03 -0.50524596E-03
 -0.21302504E-02 -0.78317541E-03 -0.16139517E-02
  0.19684456E-02  0.57487115E-03 -0.22003919E-02
  0.10506276E-02  0.10584331E-02 -0.88641448E-03
  0.11530321E-03  0.56413024E-03  0.10617339E-02
 -0.93637992E-03 -0.26472149E-02  0.16022326E-02
 -0.76296576E-03 -0.43620733E-03 -0.52850037E-03
 -0.25765881E-03 -0.39794768E-03 -0.13211260E-02
 -0.18598136E-02  0.46322342E-02  0.25561042E-02
  0.95886328E-03  0.69922343E-04  0.10793153E-02
 -0.30505879E-03  0.22673053E-03  0.52831020E-03
  0.57514758E-03 -0.12294030E-02 -0.63133110E-03
  0.20269025E-02  0.82688965E-03 -0.36704225E-03
  0.18329876E-02 -0.65881366E-03  0.20506681E-02
 -0.27001117E-02 -0.15528751E-02  0.86977806E-03
  0.30714247E-03 -0.13309203E-03  0.10892021E-02
 -0.83615396E-03  0.10799052E-02  0.29165778E-03
 -0.39423917E-02  0.97852554E-03 -0.28174672E-03
  0.47223409E-03 -0.30771093E-02 -0.16767069E-02
  0.39822198E-03 -0.36723643E-04 -0.23199962E-02
  0.23247984E-02 -0.13678055E-02 -0.18563706E-02
 -0.11538021E-02  0.83329119E-03 -0.13646450E-02
  0.68774185E-03 -0.16672666E-03  0.45096802E-04
 -0.11077909E-02  0.81818375E-03  0.77111470E-04
  0.23149478E-02 -0.17212696E-03 -0.91510191E-03
  0.36556322E-03 -0.26085983E-02  0.17144057E-02
  0.13017962E-02  0.18789301E-02  0.12103067E-02
 -0.30520526E-02 -0.14261650E-02  0.22346900E-02
 -0.25497404E-02  0.47894334E-02  0.19445179E-02
 -0.30048664E-03  0.50383713E-02  0.19720658E-03
  0.14858535E-03 -0.58557618E-03  0.84320629E-03
 -0.18562161E-02 -0.50708070E-02 -0.15397350E-03
 -0.19954714E-02 -0.31317418E-03 -0.21064020E-02
  0.17345081E-04  0.12685047E-02  0.30604804E-02
  0.34504925E-03  0.13167791E-02 -0.36308392E-03
  0.91828103E-03  0.18460337E-02 -0.30591151E-02
  0.19525482E-02  0.21568923E-03  0.93511234E-03
  0.33144419E-03 -0.96917895E-03 -0.90912849E-03
  0.50487798E-02  0.87801454E-03  0.12954906E-02
  0.96319358E-03  0.77094051E-03 -0.43978729E-03
 -0.20360309E-02  0.22339044E-02  0.31292017E-02
  0.86091447E-03  0.75475688E-03  0.29411146E-03
  0.18619493E-02 -0.15403380E-02 -0.12391759E-02
  0.36364903E-03 -0.55654014E-03  0.20255348E-02
  0.50654167E-03 -0.98299464E-03 -0.51236791E-03
  0.15105924E-02  0.25510760E-02 -0.37032183E-04
  0.14173914E-02  0.12218487E-02 -0.11500024E-03
 -0.18204769E-02  0.15619923E-02 -0.13891548E-03
  0.10653025E-02  0.26761891E-02 -0.56665657E-03
  0.58363157E-03  0.21558024E-02 -0.16474982E-02
 -0.19137886E-02  0.62767888E-03  0.10502209E-02
  0.12813267E-02  0.21106867E-02 -0.15178163E-02
 -0.23329861E-02 -0.20930124E-02 -0.13948817E-02
 -0.39803491E-03 -0.22368807E-02 -0.95250059E-03
  0.51835616E-03 -0.12925164E-02 -0.11431755E-02
  0.36741113E-02 -0.10686474E-02  0.27445499E-02
  0.39964425E-02  0.64275556E-03  0.48272874E-03
  0.18005709E-02 -0.31446557E-04  0.66960624E-03
 -0.81556313E-03  0.11109249E-02  0.20136060E-02
  0.16995161E-02 -0.38075764E-03 -0.27500459E-02
  0.90956390E-03  0.21832691E-03 -0.17542500E-02
 -0.98735326E-03  0.23004702E-03  0.79837886E-03
 -0.26261241E-02 -0.40096848E-02  0.64938428E-03
  0.63873775E-03  0.10978853E-02  0.37471996E-03
  0.15918857E-02  0.14797794E-02 -0.11135179E-02
 -0.36977975E-02 -0.13135497E-03  0.94363123E-03
 -0.35368682E-03 -0.23437714E-03 -0.29584282E-02
 -0.34844516E-03 -0.19359234E-02  0.17012033E-02
 -0.80013043E-03 -0.47153486E-03  0.35540374E-02
  0.12991517E-02 -0.80865735E-03 -0.77590962E-04
 -0.14174276E-02  0.14825733E-02 -0.18545165E-02
  0.50913846E-03 -0.64378488E-03 -0.10808094E-02
 -0.12085490E-02 -0.54704373E-03 -0.24822181E-02
  0.58127925E-03 -0.20254401E-02 -0.14762689E-02
 -0.13732002E-02 -0.93437314E-03  0.12262848E-02
  0.35678105E-03 -0.80083678E-04 -0.15559786E-02
  0.33745076E-03  0.11062403E-02  0.33739938E-03
 -0.11175938E-02  0.18123547E-02  0.46516493E-03
 -0.73175704E-03 -0.16753966E-03 -0.19798090E-02
 -0.42469331E-03 -0.67712016E-03  0.52027253E-03
 -0.31662750E-03  0.15617014E-02  0.82029948E-03
  0.19533872E-02 -0.46793853E-03 -0.13735542E-02
  0.79866696E-03  0.24275617E-02 -0.17094365E-02
  0.80836217E-03 -0.13564858E-02  0.10573704E-02
  0.30353475E-02  0.12537299E-02  0.14542422E-02
  0.25121260E-03  0.51980003E-03 -0.32994609E-02
  0.12384155E-02 -0.17315303E-03  0.95374697E-04
 -0.43835406E-03  0.47051905E-02 -0.66309405E-03
 -0.95920057E-03  0.60618262E-04 -0.10694381E-02
 -0.31547353E-03  0.97425069E-03  0.82794625E-03
  0.80744569E-03  0.21958023E-05  0.18647640E-04
  0.24498670E-03  0.38674215E-02  0.14256039E-03
 -0.76035584E-03 -0.11267078E-02 -0.61860259E-03
 -0.12756558E-02 -0.10426710E-02 -0.43165052E-03
 -0.38764093E-02 -0.33205851E-02 -0.12728430E-02
 -0.10808439E-02  0.37395676E-03 -0.14464256E-03
  0.12099233E-02  0.16061095E-02  0.20647651E-02
 -0.81103311E-03 -0.24807409E-02  0.41682097E-04
 -0.20491224E-02 -0.14485923E-02  0.14533083E-02
 -0.11587383E-02  0.42790267E-03 -0.12926436E-02
 -0.11871522E-03 -0.31742170E-03 -0.24972880E-03
  0.12934941E-02  0.12063465E-02 -0.57003938E-03
 -0.11192872E-02 -0.19321953E-02  0.19213776E-02
 -0.49160225E-03 -0.97076730E-03 -0.21401499E-02
 -0.65450673E-04  0.64952989E-03  0.73207984E-03
 -0.14711372E-03  0.13333516E-02 -0.10348616E-02
  0.21756753E-02 -0.86715292E-03 -0.54959086E-03
  0.23793513E-02 -0.25368781E-03  0.14355110E-03
 -0.22276483E-02  0.17014336E-02  0.84553248E-03
 -0.26508395E-02 -0.39695827E-02 -0.72727014E-04
  0.73340349E-03  0.14441336E-02 -0.39984878E-03
 -0.18249641E-02  0.15402966E-02  0.14335605E-02
 -0.20020254E-02  0.11329750E-02  0.41347586E-03
  0.13549858E-02  0.14854133E-02  0.25757513E-02
 -0.24043764E-03 -0.21709987E-02  0.51991537E-03
 -0.64733772E-03  0.81765088E-03 -0.21719757E-02
 -0.13293633E-03  0.17334856E-04 -0.14164609E-02
  0.15022508E-02 -0.12553621E-02  0.22357825E-02
 -0.47907201E-03 -0.18542669E-02 -0.78197098E-03
  0.15265794E-02  0.25651777E-03 -0.17444163E-02
  0.12064596E-02  0.10895851E-02 -0.26955594E-02
  0.10540293E-02 -0.10657614E-02  0.21734494E-02
  0.21793963E-03 -0.18537743E-02  0.80238185E-03
  0.10513798E-02 -0.37969971E-03 -0.18538728E-02
 -0.20989880E-02  0.12651756E-02 -0.12681609E-02
  0.93939008E-03 -0.20094731E-02 -0.10561302E-02
  0.34619801E-02  0.14801036E-02  0.39111925E-03
 -0.88511968E-03  0.10051714E-02 -0.22184314E-02
 -0.11249308E-02 -0.21155716E-03 -0.60093746E-03
 -0.78870478E-03  0.27225691E-02 -0.38336628E-03
 -0.96847972E-03  0.20894730E-02  0.23517029E-02
 -0.16002794E-02 -0.83558577E-03 -0.79495294E-03
  0.27312817E-02 -0.23102050E-02  0.15033591E-02
 -0.30317944E-03  0.58117770E-03 -0.15832296E-02
  0.16303697E-02  0.15869184E-02 -0.75882417E-03
  0.19214144E-02  0.57059806E-03 -0.24449282E-02
 -0.72169682E-03 -0.21153404E-02  0.10304111E-02
 -0.10996958E-03 -0.81685762E-03 -0.89994236E-03
 -0.80078581E-03  0.16142055E-02  0.13968769E-02
  0.29679689E-03  0.28888528E-02 -0.31330227E-03
 -0.13392993E-03 -0.58633023E-03 -0.10190543E-03
  0.11855897E-04 -0.23423918E-03  0.95542447E-03
  0.19467173E-02  0.81261819E-03  0.17325500E-02
 -0.63256047E-03  0.86746777E-03  0.19844750E-02
  0.20376457E-02  0.76713122E-03  0.32652910E-03
 -0.62277166E-03 -0.22412158E-02  0.22438845E-02
 -0.11268876E-02  0.12595122E-02  0.66354669E-03
 -0.67119229E-03  0.54310884E-03  0.11458236E-02
 -0.67852214E-03 -0.16581234E-02  0.75942974E-03
 -0.54025883E-04 -0.10264745E-02  0.91145424E-03
  0.20753362E-03 -0.36876353E-03 -0.15348698E-02
  0.52532523E-03  0.18459556E-03  0.44955908E-04