Amorphous Sb                            
   1.00000000000000     
    20.6515646190562947    0.0000000000000000    0.0000000000000000
     0.0000000000000000   20.6515646190562947    0.0000000000000000
     0.0000000000000000    0.0000000000000000   20.6515646190562947
   Ge   Se   Cu
   140   140    20
Direct
  0.7183465844098703  0.1303850833913402  0.0663928281926406
  0.1483414015932706  0.5066992864456951  0.7775663159339422
  0.8466884030929235  0.6088727019938212  0.7690092644449702
  0.1007712316557815  0.1370005898301419  0.3699714201049868
  0.2793142972514173  0.5088710496137789  0.4883264723311847
  0.5973877289672617  0.5255293538305836  0.4511408072618632
  0.2905268983019217  0.7166389932007482  0.1235535848098421
  0.3686069512899208  0.9458349242836194  0.4820270570984440
  0.5470225406064330  0.9545096014460993  0.8676037821414933
  0.0274413945993213  0.3889577379085941  0.5516123157824582
  0.7437818357838751  0.8886069395219781  0.6220980146589636
  0.4186337491084050  0.0405421785319776  0.7773544800150429
  0.6574188328839177  0.9083309321782533  0.2106908503465002
  0.6155111740580145  0.1808289499729727  0.9245182066430616
  0.1910343272559839  0.3712198933104621  0.9270379883481316
  0.3423972525940096  0.0935358803492682  0.2504036501875287
  0.7534983800071132  0.9276678889355058  0.0140310810783224
  0.7853630196659016  0.5002046603106953  0.1008126184797943
  0.4486706046776994  0.9137454780592865  0.6195247916170434
  0.5917413425224590  0.5164207765845379  0.6935962082363865
  0.5552349049055011  0.2819132152451820  0.2309764560014618
  0.2776601052514777  0.0379823828576263  0.4301526641675027
  0.8050930615877849  0.4751709468699408  0.3100807152033830
  0.5469200874318482  0.7363068208467353  0.2070068044362884
  0.4439610705643175  0.7946738220488222  0.6447260435389356
  0.4589116279667180  0.7900977827922909  0.0860509970622010
  0.0436670654416090  0.1854895438616742  0.5344656733168575
  0.2046555485622047  0.9228876350109116  0.2614632644941535
  0.5870040022282964  0.8533529532091280  0.5043802549597980
  0.3141939345755623  0.4597554485957631  0.8229286247529520
  0.3178733823566680  0.8011960297490721  0.7740235179135503
  0.4096892235334893  0.2855263322571464  0.2370039851757447
  0.7882570699704372  0.8116635497518012  0.5276114755275579
  0.1111587277828107  0.6608824909678996  0.1532413321613948
  0.8262081756078594  0.2851915148448209  0.0495664933934922
  0.4785311787715407  0.4241093751196255  0.6940586492910786
  0.1678855678811414  0.8962552087101080  0.9463949706689961
  0.7252791854572518  0.6891172978273242  0.3747587186455804
  0.8757117869913132  0.7945453861104160  0.7043787938426922
  0.4670864067229403  0.2505323742259134  0.8453949386725448
  0.1784710278088398  0.5770627599649168  0.3297885436327557
  0.6959054973958471  0.8918174633665218  0.4175508275259546
  0.1419318632088793  0.8214800026510786  0.1212773903942263
  0.7201550615126106  0.8517173176625162  0.3002594351363135
  0.6131480585276696  0.8020781110233642  0.8668674293297411
  0.3842067649236293  0.7094317458257444  0.9264801619516427
  0.1692057545070610  0.2876189351640594  0.2797489315852757
  0.3064247225928532  0.8393105824538784  0.5012017597888490
  0.9675531038699168  0.2853528954097571  0.4211588707683426
  0.5305155429260844  0.6109104971546168  0.8650127395845645
  0.8999133556197220  0.1325903116844821  0.7836058010402639
  0.6783546098208217  0.9636578599407813  0.9193496868377270
  0.2923084941481822  0.5942342080138807  0.0810692633105755
  0.0725699887207470  0.1325919941419893  0.6477579613023583
  0.8126259380184329  0.2451536301119240  0.8850468116218120
  0.6990037675725074  0.5825876752976566  0.6961785667511130
  0.6325894007725601  0.4549172965295713  0.1166748187954059
  0.0466217571443396  0.9505671934748104  0.1631289562031298
  0.3394786859137262  0.7619507318977502  0.5910165658644183
  0.8440758394087130  0.9387742929832421  0.1799912832493324
  0.6156175945567995  0.5825806926128071  0.0366788627293942
  0.0445681474263015  0.1399724181874641  0.1595111007512369
  0.3289569125049663  0.4541218463126691  0.2659423018783651
  0.1134496396102171  0.8797467494120534  0.4729447581226166
  0.2800101786577204  0.5979776902398541  0.8590842347467808
  0.2970180274445851  0.2734932998586403  0.7770677769846062
  0.9541369730857507  0.4497384445167285  0.8795755864824600
  0.7997339570546785  0.3461332957001860  0.7514555259622240
  0.5505479370553278  0.6910188855070653  0.7676907870933224
 -0.0214986846073096  0.8123989247847179  0.5575260698706023
  0.9959892626379665  0.5310344674388356  0.5882254436690003
  0.2737289834695293  0.0909982449642469  0.9355281397544360
  0.7558157847727313  0.6649505188835477  0.0839975581115210
  0.4439565324947685  0.7648472061780622  0.7630540815431901
  0.8812160281204381  0.2805276715980371  0.2644894609239019
  0.4367555139779869  0.1125293479188894  0.4381632760943099
  0.1520689583839377  0.2204356676623581  0.0363511937251705
  0.3625007448605072  0.1698554534995826  0.0447577517030837
  0.1131714853516249  0.0005891439641578  0.7644704415369588
  0.0806605322263830  0.7683068267648504  0.2128400916240595
  0.9869324025478449  0.8503189149073277  0.2272437835417821
  0.6200659961383942  0.1110961853939899  0.4253638455613915
  0.9453037021912104  0.2179577899283667  0.1414178046001013
  0.0151383340422096  0.8120023286826362  0.9310716766802055
  0.0408751586055632  0.6987302286994963  0.7795423616586314
  0.6670429756907823  0.0264768266146809  0.2505032437606742
  0.8705725187388313  0.1588850680720608  0.5332299056375519
  0.3460676207151460  0.2707270195828869  0.5685727812877625
  0.5553913956382107  0.2010529044079093  0.5171917446987002
  0.2836302746291353  0.4205268587210891  0.0997335614739155
  0.0419698903948246 -0.0066641426555723  0.4824221551822426
  0.4054673864031175  0.7178741107992106  0.4307010231958442
  0.1677761408548963  0.1080393969143190  0.1768787943463022
  0.1364638359771418  0.5370702434517504  0.1626662017853434
  0.2968539972641275  0.3182887006548223  0.9641708592494812
  0.9943031663902506  0.5238282478941343  0.7363316075596619
  0.1854419649815870  0.2076817121298369  0.7824065747139793
  0.0187355901706150  0.4743632895322468  0.2433486578419002
  0.5281378534913296  0.2460668305680704  0.6291705267756047
  0.6694395913099447  0.3930956211638600  0.4399434622996246
  0.2181735499625613  0.0190166216187537  0.0687351007523354
  0.9752767107884384  0.3103107626857922  0.9893592930629530
  0.9815756620795963 -0.0037097195958122  0.9571044608397846
  0.7383422392087015  0.2863200092777257  0.4358735645866445
  0.6587973109369756  0.7592548986525791  0.0494530541103974
  0.4840590045356299  0.1477127813165582  0.9772625336325994
  0.4943800549351201  0.3332144911896879  0.0910541953092086
  0.8413579483943123  0.6890530986659908  0.6367331123837912
  0.5254659345040618  0.8656562569646888  0.7754877124776796
  0.4764389088410387  0.1468877849153093  0.6904484366593112
  0.5958819301166537  0.1317718581146645  0.2297024731591362
  0.4315005671166566  0.5440252310019148  0.4439877782792500
  0.5977709133880685  0.7895274499455412  0.7064378102705218
  0.4416673180479962  0.8483266419151174  0.8820866715578672
  0.0981405831519081  0.8272202215589777  0.6790474277305580
  0.0348025558372779  0.4530877497189698  0.0950522207060221
  0.6989739703852097  0.5592051611383552  0.8530821045881766
  0.8078120670350200  0.0265518995461868  0.6382428136091769
  0.0209647279408735  0.1681116971881846  0.2796557444034877
  0.8876224238271353  0.9830905111022457  0.4937565620352986
  0.6847654216920882  0.2089438794047380  0.2795663600199093
  0.2989108766163895  0.4745392280778283  0.6171679003757500
  0.7259950797087480  0.3329500136555292  0.6329248264217541
  0.8566949573248768  0.1307014128380160  0.1975752873151246
  0.2736118826979066  0.6410320704888546  0.4421484693368905
  0.2876259545541928  0.0223836932725468  0.7410076987097789
  0.8374547567831933  0.6408941683623646  0.3584984809679224
  0.1323395409063565  0.8619291767272307  0.3503332320896252
  0.8592164939208038  0.6142936735517249  0.1482866564832067
  0.5420101855239616  0.6203138363107958  0.3481574932484775
  0.9882109760061274  0.0079851384153609  0.6743903825812196
  0.3865629933139885  0.9673022450208282  0.1737631791850856
  0.8995834724626651  0.8390515535723473  0.8959829987718023
  0.6833245504585975  0.1505835407148670  0.5653021453815971
  0.4111563934145811  0.6090966960370431  0.6943222230075489
  0.5874774715716878  0.4141718532840011  0.5776267858989802
  0.1076318190600594  0.9204221151264715  0.0573125986716054
  0.7930278262032232  0.0152634903718042  0.9000446911072765
  0.2742363466188678  0.1052316715039126  0.6424732696454160
  0.1994604068017856  0.3982563545793746  0.3938559554479145
  0.1356624824925786  0.2651355380583287  0.9236536679447620
  0.2689188235686697  0.2549003039752197  0.0639771650182295
  0.4225913934335571  0.9703105937205949  0.8824531570984764
  0.1294496114607987  0.2190000701640740  0.4521215313230921
  0.5237322270082615  0.6250077032904796  0.4731376314007888
  0.3055681446352637  0.3469567183319605  0.2100033477310742
  0.7178895929746822  0.3105697888886992  0.8332514914348506
  0.7399863407210280  0.6356472843105035  0.6008648745350152
  0.6652694372676518  0.7159117469491665  0.9358687831807595
  0.0372958938498940  0.3936598749647215  0.4280861505173700
  0.3344894171677551  0.1328596774187968  0.3743146728729794
  0.9025829901493266  0.5876117461648404  0.6561499390554716
  0.5700528016949611  0.3423427679287334  0.4810286512882843
  0.9637339197859796  0.5352135459191457  0.1489577846381876
  0.8366650420342506  0.5504350957332179  0.4289570480463169
  0.3480945481246567  0.2362740090703040  0.8869224417779279
  0.4182521312910447  0.5010414861416779  0.6213173550605388
  0.0340124115739630  0.4513788865016152  0.9750887368744856
  0.2257974496932128  0.3736607216238523  0.8101689885690081
  0.8108082043329757  0.6238953899928631  0.9854016968033869
  0.9407071737613916  0.5734149122464386  0.8393868644743351
  0.0555141810064760  0.5741725179168981  0.3103429270256839
  0.3605921864459877  0.6594281923092964  0.5349611252969729
 -0.0084073836819521  0.8923573464676222  0.0240799296582914
  0.5167065026060220  0.4984936603538094  0.3610643541720747
  0.5478584644586302  0.8639964750156830  0.9522407882728525
  0.2759141057955730  0.3607686337363882  0.6368394883290451
  0.9227138293592027  0.7160457173623809  0.3512842170106656
  0.0737494277461030  0.7704333014799416  0.4990720026517194
  0.2100770913465159  0.9316337567830189  0.7437686149267090
  0.2128337649979509  0.9017903649677522  0.5329962239743407
  0.2825147802846820  0.5308653063372853  0.7277432401087096
  0.1605977952125485  0.4794537616113317  0.4734060845819748
  0.5541951486329301  0.8604561304576193  0.1863682470898531
  0.2028139276499930  0.4616056895188939  0.2868085896125331
  0.4250307395378974  0.5855542919561970  0.8139422526136137
  0.7893069587580374  0.0625619029662954  0.5186115155958855
  0.5457741737400039  0.1486840005867059  0.3375636208636648
  0.5972514521072595  0.1071495168917582  0.0297775997508008
  0.8905661029492927  0.1233541859074253  0.6538714585565482
  0.5345975767696156  0.5003113690614878  0.0674558608916234
  0.9753701505588976  0.0443252013400596  0.1421640086049410
  0.9908243665712592  0.7516206839811491  0.6713650111982433
  0.4146242494482816  0.3989493429202282  0.7957766999348788
  0.1346520953056603  0.7766895672913477  0.7864236879152579
  0.7796363287717953  0.2289658937696145  0.2069503924600625
  0.6102958821734881  0.2893125308568403  0.1169691421199198
  0.0256762038886048  0.6096901630402721  0.5001052346640307
  0.3683639447284798  0.6202936685484539  0.3634374547540777
  0.1854577948991976  0.1862931070943561  0.6566187785455345
  0.7130879484943146  0.7975945088117984  0.6941867284664879
  0.7122416900815476  0.4268225758659045  0.5576513023646767
  0.1659733456619722  0.1049253258313166  0.9922279177158053
  0.5095761965093577  0.0968669242656829  0.5847497745957070
  0.1906468952776545  0.1643108995996304  0.2908475289556925
  0.2124357728077338  0.6230304234739490  0.2163936611336476
  0.6986306518503194  0.1519592015209894  0.6851842456721934
  0.5600719977786972  0.6930825417878134  0.0823048352381500
  0.8853301401154100  0.2563033260989959  0.7665306689966265
  0.7768952812936541  0.4147761697294617  0.1897428926205159
  0.3718504599791009  0.3999188224662817  0.0072145559943076
  0.2662857258207572  0.9683365294131152  0.9652728342994389
  0.4509797091240004  0.0410157793386157  0.2412072320609513
  0.4826102514879506  0.3810722728531631  0.2106658341548488
  0.5354585152774739  0.6207316549701595  0.6689901342017004
  0.6868830911661346  0.7415223086982183  0.2772847140842211
  0.4918948991181618  0.9378103250331311  0.5123997494047922
  0.0875756731527435  0.0196602692314794  0.5981568738326565
  0.7603226504170220  0.2477041618243502  0.5502996467910467
  0.9700815039709798  0.3424052470828829  0.1135420515723741
  0.6969763301569092  0.7538757647849368  0.4710584934122737
  0.0884843914667604  0.6035602279305826  0.7175070690162110
  0.5905052715151156  0.5136763735778823  0.8165068516355474
  0.8044591057421867  0.5897648845210600  0.2562727155529566
  0.9049372483682891  0.1617276337666501  0.3097651071299838
  0.3532140294708536  0.5098522138269427  0.1475279369869665
  0.5017685049881022  0.9689991525957384  0.7108950420556510
  0.5486339853989092  0.7692674134660834  0.5940084991991746
  0.5253917035766879  0.2625996643426616  0.9571244839592447
  0.9188967733772001  0.4337260267333282  0.3002239389353736
  0.1770792666463225  0.7199442456687934  0.0649638757321344
  0.7706221066863832  0.5069706123219472  0.7651212871976169
  0.6863690711169580  0.5691505924975495  0.1437151338986615
  0.2240930061202972  0.0930612126497218  0.8177529034982846
  0.8097619773527790  0.0392837038222152  0.0191128262940500
  0.8605235250177468  0.3491164699593826  0.9503677501616286
  0.1230749204253801  0.0111298114381034  0.2374880127047169
  0.9150839870156644  0.4377356609609329  0.5360607070901368
  0.8229521132346841  0.8878752301961583  0.4419234773736865
  0.6463490918022213  0.9329295884520739  0.5722108893561597
  0.7442934499218296  0.8859503535133842  0.1282057888341351
  0.3497968900476405  0.9724292416439406  0.6013228866174729
  0.6620593137454593  0.5855360426403273  0.3609316549946811
  0.3461429617882668  0.7719722916730780  0.0276729584043314
  0.7270593777420080  0.1739337183115717  0.3871155582042989
  0.5107131567615412  0.1292019589812756  0.8584593756947762
  0.1509828500520825  0.7561367529590589  0.3057070193468624
  0.7881916407985849  0.1078076463641345  0.8260904509672260
  0.8788038511724776  0.7302185985433585  0.5272648775269730
  0.0455961086031699  0.4280985581209950  0.8038516971492963
  0.0881982678092122 -0.0270274150814924  0.8892367467558361
  0.9200523479305577  0.7151549515194109  0.1438149404544407
  0.7050896920731697  0.8775180309901699  0.8463947554401574
  0.1958992440489237  0.5264126311272798  0.0557109420333960
  0.3126687141545399  0.9726552936713719  0.2789454136538143
  0.7103756373319059  0.4485052382903033  0.0185600348907181
  0.2418467310904396  0.8714968186906997  0.1611878177722771
  0.0286266666571295  0.9092463879553097  0.7388543967473734
  0.3475869583275777  0.5912121195340840  0.9709910539281316
  0.7293475938424581  0.2254246628424654 -0.0056638402112638
  0.2793339732971606  0.7294848889153541  0.8676216349292881
  0.3317853397597684  0.0656251594735230  0.1027419536296131
  0.8429627667918903  0.3240405080476195  0.3875675633452312
  0.2983615476747923  0.1178292187789897  0.5232558455247135
  0.0456428066795185  0.2860578274018127  0.2847178576034848
  0.2930833180249598  0.7711781820981702  0.4063910406111934
  0.6571511088581727  0.0035561224131017  0.3665318866562049
  0.9727999416546211  0.1156903949513642  0.4694817383857458
  0.3135766570281784  0.4083005590047635  0.4318067411336940
  0.9653959367695757  0.2771656990964643  0.5481031368703165
  0.8599059698365970  0.7521772802940979  0.8201145202548761
  0.4461372925197489  0.3313158963721319  0.6090305213359430
  0.4472961974495221  0.2176414285197489  0.1295302312210849
  0.4489433559344269  0.2277902261543598  0.4662474309182998
  0.8370683538773582  0.8629446208593463  0.2753817414797776
  0.0218130412356673  0.8955710901034006  0.3310000233586108
  0.4260077648447597  0.7511687280527610  0.1923951394356835
  0.6989949438522364  0.6595039575209750  0.7864678471849251
  0.6088744494839993  0.3271001460903137  0.6765257757896966
 -0.0171260494464419  0.7067209230989435  0.9707791000067971
  0.1611050411424642  0.5667187461255268  0.8828789991268275
  0.3593737219386048  0.1887518735145926  0.6701094796468505
  0.7886580035580643  0.0326948106796335  0.2445057550316870
  0.8331971090915566  0.8300047416483232 -0.0030559767984339
  0.2696481363192317  0.7377917132804730  0.6797541328385815
  0.9138500046612560  0.1985459000162240  0.0275762664894086
  0.9003707949322286  0.9439229159063607  0.6107131901293482
  0.8970582764702978  0.9586065503767324  0.8658856240686286
  0.1367954461352352  0.0338915930130122  0.4140458507233125
  0.6527431261348616  0.3234872040082100  0.2988291924576315
  0.8602325610973958  0.3538841693604518  0.1432157000291634
  0.9170477897868783  0.4188715573668619  0.4170567156379205
  0.8069100391507492  0.1941100086041677  0.7036295296163660
  0.7766300726070582  0.7354924505145581  0.9638285730622177
  0.0897750734835852  0.8587449711594640  0.8547489977192054
  0.3385434152416490  0.4817046474563159  0.9346609615571428
  0.7135386506671383  0.5531004918656587  0.9680170649569773
  0.9552313863917342  0.6918286594999430  0.8584927622535828
  0.4021276511121715  0.0710399632599593  0.5497658220548109
  0.8815902556068926  0.7136498125361934  0.0321403209674088
  0.9407978955266529  0.5348083081347634  0.4732272528606553
  0.5679407385623484  0.1759511879853790  0.1217583434692889
  0.1142584703854029  0.3155906023908543  0.3860577788800299
  0.7017497168581177  0.2549507552200788  0.7345911342224528
  0.3691213805854618  0.3397509259146875  0.7065386905516154
  0.1476415621219046  0.4774366711037962  0.9553876537173559
  0.0681785526828058  0.5324532668740234  0.4206387930584857
  0.8958192182082922  0.7663653296065414  0.2439454002707243
  0.9828079419444362  0.6243978882995078  0.3908372472028842
  0.6701466097333745  0.3650767502877456  0.1877395148902046
 
  0.00000000E+00  0.00000000E+00  0.00000000E+00
  0.00000000E+00  0.00000000E+00  0.00000000E+00
  0.00000000E+00  0.00000000E+00  0.00000000E+00
  0.00000000E+00  0.00000000E+00  0.00000000E+00
  0.00000000E+00  0.00000000E+00  0.00000000E+00
  0.00000000E+00  0.00000000E+00  0.00000000E+00
  0.00000000E+00  0.00000000E+00  0.00000000E+00
  0.00000000E+00  0.00000000E+00  0.00000000E+00
  0.00000000E+00  0.00000000E+00  0.00000000E+00
  0.00000000E+00  0.00000000E+00  0.00000000E+00
  0.00000000E+00  0.00000000E+00  0.00000000E+00
  0.00000000E+00  0.00000000E+00  0.00000000E+00
  0.00000000E+00  0.00000000E+00  0.00000000E+00
  0.00000000E+00  0.00000000E+00  0.00000000E+00
  0.00000000E+00  0.00000000E+00  0.00000000E+00
  0.00000000E+00  0.00000000E+00  0.00000000E+00
  0.00000000E+00  0.00000000E+00  0.00000000E+00
  0.00000000E+00  0.00000000E+00  0.00000000E+00
  0.00000000E+00  0.00000000E+00  0.00000000E+00
  0.00000000E+00  0.00000000E+00  0.00000000E+00
  0.00000000E+00  0.00000000E+00  0.00000000E+00
  0.00000000E+00  0.00000000E+00  0.00000000E+00
  0.00000000E+00  0.00000000E+00  0.00000000E+00
  0.00000000E+00  0.00000000E+00  0.00000000E+00
  0.00000000E+00  0.00000000E+00  0.00000000E+00
  0.00000000E+00  0.00000000E+00  0.00000000E+00
  0.00000000E+00  0.00000000E+00  0.00000000E+00
  0.00000000E+00  0.00000000E+00  0.00000000E+00
  0.00000000E+00  0.00000000E+00  0.00000000E+00
  0.00000000E+00  0.00000000E+00  0.00000000E+00
  0.00000000E+00  0.00000000E+00  0.00000000E+00
  0.00000000E+00  0.00000000E+00  0.00000000E+00
  0.00000000E+00  0.00000000E+00  0.00000000E+00
  0.00000000E+00  0.00000000E+00  0.00000000E+00
  0.00000000E+00  0.00000000E+00  0.00000000E+00
  0.00000000E+00  0.00000000E+00  0.00000000E+00
  0.00000000E+00  0.00000000E+00  0.00000000E+00
  0.00000000E+00  0.00000000E+00  0.00000000E+00
  0.00000000E+00  0.00000000E+00  0.00000000E+00
  0.00000000E+00  0.00000000E+00  0.00000000E+00
  0.00000000E+00  0.00000000E+00  0.00000000E+00
  0.00000000E+00  0.00000000E+00  0.00000000E+00
  0.00000000E+00  0.00000000E+00  0.00000000E+00
  0.00000000E+00  0.00000000E+00  0.00000000E+00
  0.00000000E+00  0.00000000E+00  0.00000000E+00
  0.00000000E+00  0.00000000E+00  0.00000000E+00
  0.00000000E+00  0.00000000E+00  0.00000000E+00
  0.00000000E+00  0.00000000E+00  0.00000000E+00
  0.00000000E+00  0.00000000E+00  0.00000000E+00
  0.00000000E+00  0.00000000E+00  0.00000000E+00
  0.00000000E+00  0.00000000E+00  0.00000000E+00
  0.00000000E+00  0.00000000E+00  0.00000000E+00
  0.00000000E+00  0.00000000E+00  0.00000000E+00
  0.00000000E+00  0.00000000E+00  0.00000000E+00
  0.00000000E+00  0.00000000E+00  0.00000000E+00
  0.00000000E+00  0.00000000E+00  0.00000000E+00
  0.00000000E+00  0.00000000E+00  0.00000000E+00
  0.00000000E+00  0.00000000E+00  0.00000000E+00
  0.00000000E+00  0.00000000E+00  0.00000000E+00
  0.00000000E+00  0.00000000E+00  0.00000000E+00
  0.00000000E+00  0.00000000E+00  0.00000000E+00
  0.00000000E+00  0.00000000E+00  0.00000000E+00
  0.00000000E+00  0.00000000E+00  0.00000000E+00
  0.00000000E+00  0.00000000E+00  0.00000000E+00
  0.00000000E+00  0.00000000E+00  0.00000000E+00
  0.00000000E+00  0.00000000E+00  0.00000000E+00
  0.00000000E+00  0.00000000E+00  0.00000000E+00
  0.00000000E+00  0.00000000E+00  0.00000000E+00
  0.00000000E+00  0.00000000E+00  0.00000000E+00
  0.00000000E+00  0.00000000E+00  0.00000000E+00
  0.00000000E+00  0.00000000E+00  0.00000000E+00
  0.00000000E+00  0.00000000E+00  0.00000000E+00
  0.00000000E+00  0.00000000E+00  0.00000000E+00
  0.00000000E+00  0.00000000E+00  0.00000000E+00
  0.00000000E+00  0.00000000E+00  0.00000000E+00
  0.00000000E+00  0.00000000E+00  0.00000000E+00
  0.00000000E+00  0.00000000E+00  0.00000000E+00
  0.00000000E+00  0.00000000E+00  0.00000000E+00
  0.00000000E+00  0.00000000E+00  0.00000000E+00
  0.00000000E+00  0.00000000E+00  0.00000000E+00
  0.00000000E+00  0.00000000E+00  0.00000000E+00
  0.00000000E+00  0.00000000E+00  0.00000000E+00
  0.00000000E+00  0.00000000E+00  0.00000000E+00
  0.00000000E+00  0.00000000E+00  0.00000000E+00
  0.00000000E+00  0.00000000E+00  0.00000000E+00
  0.00000000E+00  0.00000000E+00  0.00000000E+00
  0.00000000E+00  0.00000000E+00  0.00000000E+00
  0.00000000E+00  0.00000000E+00  0.00000000E+00
  0.00000000E+00  0.00000000E+00  0.00000000E+00
  0.00000000E+00  0.00000000E+00  0.00000000E+00
  0.00000000E+00  0.00000000E+00  0.00000000E+00
  0.00000000E+00  0.00000000E+00  0.00000000E+00
  0.00000000E+00  0.00000000E+00  0.00000000E+00
  0.00000000E+00  0.00000000E+00  0.00000000E+00
  0.00000000E+00  0.00000000E+00  0.00000000E+00
  0.00000000E+00  0.00000000E+00  0.00000000E+00
  0.00000000E+00  0.00000000E+00  0.00000000E+00
  0.00000000E+00  0.00000000E+00  0.00000000E+00
  0.00000000E+00  0.00000000E+00  0.00000000E+00
  0.00000000E+00  0.00000000E+00  0.00000000E+00
  0.00000000E+00  0.00000000E+00  0.00000000E+00
  0.00000000E+00  0.00000000E+00  0.00000000E+00
  0.00000000E+00  0.00000000E+00  0.00000000E+00
  0.00000000E+00  0.00000000E+00  0.00000000E+00
  0.00000000E+00  0.00000000E+00  0.00000000E+00
  0.00000000E+00  0.00000000E+00  0.00000000E+00
  0.00000000E+00  0.00000000E+00  0.00000000E+00
  0.00000000E+00  0.00000000E+00  0.00000000E+00
  0.00000000E+00  0.00000000E+00  0.00000000E+00
  0.00000000E+00  0.00000000E+00  0.00000000E+00
  0.00000000E+00  0.00000000E+00  0.00000000E+00
  0.00000000E+00  0.00000000E+00  0.00000000E+00
  0.00000000E+00  0.00000000E+00  0.00000000E+00
  0.00000000E+00  0.00000000E+00  0.00000000E+00
  0.00000000E+00  0.00000000E+00  0.00000000E+00
  0.00000000E+00  0.00000000E+00  0.00000000E+00
  0.00000000E+00  0.00000000E+00  0.00000000E+00
  0.00000000E+00  0.00000000E+00  0.00000000E+00
  0.00000000E+00  0.00000000E+00  0.00000000E+00
  0.00000000E+00  0.00000000E+00  0.00000000E+00
  0.00000000E+00  0.00000000E+00  0.00000000E+00
  0.00000000E+00  0.00000000E+00  0.00000000E+00
  0.00000000E+00  0.00000000E+00  0.00000000E+00
  0.00000000E+00  0.00000000E+00  0.00000000E+00
  0.00000000E+00  0.00000000E+00  0.00000000E+00
  0.00000000E+00  0.00000000E+00  0.00000000E+00
  0.00000000E+00  0.00000000E+00  0.00000000E+00
  0.00000000E+00  0.00000000E+00  0.00000000E+00
  0.00000000E+00  0.00000000E+00  0.00000000E+00
  0.00000000E+00  0.00000000E+00  0.00000000E+00
  0.00000000E+00  0.00000000E+00  0.00000000E+00
  0.00000000E+00  0.00000000E+00  0.00000000E+00
  0.00000000E+00  0.00000000E+00  0.00000000E+00
  0.00000000E+00  0.00000000E+00  0.00000000E+00
  0.00000000E+00  0.00000000E+00  0.00000000E+00
  0.00000000E+00  0.00000000E+00  0.00000000E+00
  0.00000000E+00  0.00000000E+00  0.00000000E+00
  0.00000000E+00  0.00000000E+00  0.00000000E+00
  0.00000000E+00  0.00000000E+00  0.00000000E+00
  0.00000000E+00  0.00000000E+00  0.00000000E+00
  0.00000000E+00  0.00000000E+00  0.00000000E+00
  0.00000000E+00  0.00000000E+00  0.00000000E+00
  0.00000000E+00  0.00000000E+00  0.00000000E+00
  0.00000000E+00  0.00000000E+00  0.00000000E+00
  0.00000000E+00  0.00000000E+00  0.00000000E+00
  0.00000000E+00  0.00000000E+00  0.00000000E+00
  0.00000000E+00  0.00000000E+00  0.00000000E+00
  0.00000000E+00  0.00000000E+00  0.00000000E+00
  0.00000000E+00  0.00000000E+00  0.00000000E+00
  0.00000000E+00  0.00000000E+00  0.00000000E+00
  0.00000000E+00  0.00000000E+00  0.00000000E+00
  0.00000000E+00  0.00000000E+00  0.00000000E+00
  0.00000000E+00  0.00000000E+00  0.00000000E+00
  0.00000000E+00  0.00000000E+00  0.00000000E+00
  0.00000000E+00  0.00000000E+00  0.00000000E+00
  0.00000000E+00  0.00000000E+00  0.00000000E+00
  0.00000000E+00  0.00000000E+00  0.00000000E+00
  0.00000000E+00  0.00000000E+00  0.00000000E+00
  0.00000000E+00  0.00000000E+00  0.00000000E+00
  0.00000000E+00  0.00000000E+00  0.00000000E+00
  0.00000000E+00  0.00000000E+00  0.00000000E+00
  0.00000000E+00  0.00000000E+00  0.00000000E+00
  0.00000000E+00  0.00000000E+00  0.00000000E+00
  0.00000000E+00  0.00000000E+00  0.00000000E+00
  0.00000000E+00  0.00000000E+00  0.00000000E+00
  0.00000000E+00  0.00000000E+00  0.00000000E+00
  0.00000000E+00  0.00000000E+00  0.00000000E+00
  0.00000000E+00  0.00000000E+00  0.00000000E+00
  0.00000000E+00  0.00000000E+00  0.00000000E+00
  0.00000000E+00  0.00000000E+00  0.00000000E+00
  0.00000000E+00  0.00000000E+00  0.00000000E+00
  0.00000000E+00  0.00000000E+00  0.00000000E+00
  0.00000000E+00  0.00000000E+00  0.00000000E+00
  0.00000000E+00  0.00000000E+00  0.00000000E+00
  0.00000000E+00  0.00000000E+00  0.00000000E+00
  0.00000000E+00  0.00000000E+00  0.00000000E+00
  0.00000000E+00  0.00000000E+00  0.00000000E+00
  0.00000000E+00  0.00000000E+00  0.00000000E+00
  0.00000000E+00  0.00000000E+00  0.00000000E+00
  0.00000000E+00  0.00000000E+00  0.00000000E+00
  0.00000000E+00  0.00000000E+00  0.00000000E+00
  0.00000000E+00  0.00000000E+00  0.00000000E+00
  0.00000000E+00  0.00000000E+00  0.00000000E+00
  0.00000000E+00  0.00000000E+00  0.00000000E+00
  0.00000000E+00  0.00000000E+00  0.00000000E+00
  0.00000000E+00  0.00000000E+00  0.00000000E+00
  0.00000000E+00  0.00000000E+00  0.00000000E+00
  0.00000000E+00  0.00000000E+00  0.00000000E+00
  0.00000000E+00  0.00000000E+00  0.00000000E+00
  0.00000000E+00  0.00000000E+00  0.00000000E+00
  0.00000000E+00  0.00000000E+00  0.00000000E+00
  0.00000000E+00  0.00000000E+00  0.00000000E+00
  0.00000000E+00  0.00000000E+00  0.00000000E+00
  0.00000000E+00  0.00000000E+00  0.00000000E+00
  0.00000000E+00  0.00000000E+00  0.00000000E+00
  0.00000000E+00  0.00000000E+00  0.00000000E+00
  0.00000000E+00  0.00000000E+00  0.00000000E+00
  0.00000000E+00  0.00000000E+00  0.00000000E+00
  0.00000000E+00  0.00000000E+00  0.00000000E+00
  0.00000000E+00  0.00000000E+00  0.00000000E+00
  0.00000000E+00  0.00000000E+00  0.00000000E+00
  0.00000000E+00  0.00000000E+00  0.00000000E+00
  0.00000000E+00  0.00000000E+00  0.00000000E+00
  0.00000000E+00  0.00000000E+00  0.00000000E+00
  0.00000000E+00  0.00000000E+00  0.00000000E+00
  0.00000000E+00  0.00000000E+00  0.00000000E+00
  0.00000000E+00  0.00000000E+00  0.00000000E+00
  0.00000000E+00  0.00000000E+00  0.00000000E+00
  0.00000000E+00  0.00000000E+00  0.00000000E+00
  0.00000000E+00  0.00000000E+00  0.00000000E+00
  0.00000000E+00  0.00000000E+00  0.00000000E+00
  0.00000000E+00  0.00000000E+00  0.00000000E+00
  0.00000000E+00  0.00000000E+00  0.00000000E+00
  0.00000000E+00  0.00000000E+00  0.00000000E+00
  0.00000000E+00  0.00000000E+00  0.00000000E+00
  0.00000000E+00  0.00000000E+00  0.00000000E+00
  0.00000000E+00  0.00000000E+00  0.00000000E+00
  0.00000000E+00  0.00000000E+00  0.00000000E+00
  0.00000000E+00  0.00000000E+00  0.00000000E+00
  0.00000000E+00  0.00000000E+00  0.00000000E+00
  0.00000000E+00  0.00000000E+00  0.00000000E+00
  0.00000000E+00  0.00000000E+00  0.00000000E+00
  0.00000000E+00  0.00000000E+00  0.00000000E+00
  0.00000000E+00  0.00000000E+00  0.00000000E+00
  0.00000000E+00  0.00000000E+00  0.00000000E+00
  0.00000000E+00  0.00000000E+00  0.00000000E+00
  0.00000000E+00  0.00000000E+00  0.00000000E+00
  0.00000000E+00  0.00000000E+00  0.00000000E+00
  0.00000000E+00  0.00000000E+00  0.00000000E+00
  0.00000000E+00  0.00000000E+00  0.00000000E+00
  0.00000000E+00  0.00000000E+00  0.00000000E+00
  0.00000000E+00  0.00000000E+00  0.00000000E+00