Ge Se                                   
   1.00000000000000     
    20.8706398010253906    0.0000000000000000    0.0000000000000000
     0.0000000000000000   20.8706398010253906    0.0000000000000000
     0.0000000000000000    0.0000000000000000   20.8706398010253906
   Ge   Se
   150   150
Direct
  0.0090313198285421  0.1631405724833055  0.3613841000240231
  0.2112360835918709  0.3403543719536813  0.4820496693413336
  0.9863573215886364  0.8874244034640283  0.3111407896556420
  0.3475394281911496  0.5811127854541770 -0.0109556266641329
  0.4867418574067122  0.5066718984710820  0.6444514385492515
  0.0081762857110031  0.4694215126123474  0.2859988792100650
  0.6474441844150558  0.8422739487445137  0.5291718652172256
  0.7932852309828781  0.5228383621878907  0.4856080611869804
  0.8291592377651434  0.5080140180147229  0.1543266897372267
  0.5228234300664771  0.5018183634108935  0.4251137381993324
  0.2375076249382998  0.4433855293769243  0.1621155062122012
  0.7570784063042614  0.2561371496172467  0.2232982315034225
  0.0366963770090784  0.0444464359344773  0.3280522082725768
  0.6195780077053159  0.1630262849822356  0.5090706103305680
  0.1109379012353134  0.5136768681851228  0.3495020884378275
  0.4832323490000846  0.2313659468078299  0.6767599736372372
  0.6348577330038859  0.5274105203610301  0.4743205014309170
  0.2414904859666705  0.4470663650700076  0.9733851282408200
  0.0067676327048600  0.2315810976924030  0.1478324791951556
  0.7549795396040214  0.6710397469153541  0.2884524556096889
  0.1966768494396200  0.9247188407921390  0.3097108988595651
  0.2757621770372302  0.3439409086622502  0.2403096892277736
  0.9588076885299516  0.9122465382775067  0.9381594222802928
  0.3095377646773613  0.8602731898267374  0.8211117775578766
  0.3586461503726465  0.5782965094461403  0.1354953280053046
  0.9217965744266762  0.2837571796887045  0.0674897587256071
  0.0056594873198106  0.0975406134068014  0.4836031408897697
  0.1379424069475324  0.9641114409132332  0.8508860260755702
  0.6543983043848919  0.7360866739150933  0.3852566973310801
  0.9378310006855841  0.7825133971484154  0.4370487698633124
  0.7649625468079624  0.2257177448718171  0.0127783292796515
  0.4753931240044988  0.7840777417652101  0.4562851716898707
  0.2531369485987757  0.8822836761048838  0.9324746356149562
  0.7287676760620688  0.8050021549532684  0.8614513525029298
  0.6307770574376830  0.0075436025010954  0.4014114234642059
  0.7226011548401408  0.0383976916492833  0.9151070821819041
  0.7973926848898376  0.3318624985332148  0.5729927862084355
  0.2924647012421478  0.0395191322948316  0.4118841319825484
  0.5471673589339836  0.9297021703866160  0.1366592754331803
  0.3260966266150422  0.8633579404086791  0.0318159573944245
  0.9102559940817118  0.5036192839844378  0.8292810417957198
  0.8901883056682220  0.0635940439836489  0.1163702877899686
  0.9263631239322926  0.3018800088200378  0.3154765705707382
  0.4947394432829555  0.7229336287000545  0.6106231633800043
  0.2292998071206287  0.3600287891428521  0.3570057527099321
  0.2036987315017439  0.1305928815726142  0.3309764828355937
  0.0968051635224276  0.8411116068574507  0.8776475354520424
  0.3379396455334253  0.3076824372025417  0.9546188235745404
  0.4587941810325597  0.7866136659339368  0.2540100115776200
  0.9740343613484957  0.5630173793623505  0.4748315046958759
  0.9550240070802491  0.0256371588290133  0.6149938471731434
  0.5676070725219202  0.3666041640005354  0.5490776037891880
  0.5411919641270354  0.9073088572329296  0.5171522679404013
  0.4530290706389282  0.0536030683962293  0.7404302935706896
  0.0794852985934981  0.9263358777002935  0.4563999661383679
  0.1061077253531995  0.7739103575949846  0.1013926615835307
  0.2885858203795433  0.5521593736734963  0.6437230858017388
  0.8672403710725471  0.1291744931118597  0.9085513222396978
  0.2384572315763047  0.7620078377138909  0.9094139129446189
  0.3761527320121766  0.7802389620845762  0.1074227241985132
  0.0010755007609022  0.4007576703853589  0.4399447334574746
  0.4819921358431424  0.8930457857677424  0.6836513077623508
  0.8138465668544670  0.6434814065637150  0.6136431802734365
  0.3864070083832494  0.6342765042214029  0.3799289767980870
  0.2516821874328107  0.4498129953082718  0.5414371360315356
  0.2346931495596335  0.4475165113181158  0.7006673600609832
  0.5540020288875038  0.7325251685088173  0.7986035242807579
  0.9035798025930520  0.4213979028070765  0.2050468348397060
  0.4468193750076282  0.1508722455945707  0.0760273468742607
  0.0015570981627117  0.7005215540507360  0.6323750346068079
  0.8763236767960295  0.5916070985422118  0.7509600038063957
  0.7664009479377668  0.4237187862544528  0.2929681955868892
  0.4669317844380156  0.0654969477309456  0.5407713409306135
  0.5847166163866779  0.9353132492049276  0.8361949351306315
  0.0884259952767428  0.2173482248920329 -0.0088601038096803
  0.4330874677987230  0.3931748868814129  0.4413280470141023
  0.8108083039067748  0.7357641611438628  0.7000167925325167
  0.0839161195987237  0.2052583775871686  0.4913163790947958
  0.1562315591054576  0.5759198368982862  0.5782528945129094
  0.9950109487738977  0.5683087751616326  0.1171992295326228
  0.3454594583329013  0.7440721047948859  0.2215153083696554
  0.1991129717431971  0.7336050932957975  0.4747429011109336
  0.3710333441752270  0.4644611330986184  0.8704000643022475
  0.0727526514970919  0.4193323123255695  0.0895793491418380
  0.7419111117679351  0.5047287807138708  0.9326524016837938
  0.0790350104950153  0.2946342859041036  0.7245350620607260
  0.3938514408545026  0.4718331940364201  0.2995062930438070
  0.9653283469849865  0.8371943625054510  0.5954794457423722
  0.9369312860875803  0.7157933937101573  0.1545596945993259
  0.3930337454010253  0.3190363759066215  0.2784969997524961
  0.3752467157158259  0.8867184585118563  0.1711192675801337
  0.9776182603240451  0.9194644997589467  0.7390299809147151
  0.8372648992391749  0.9112260228658253  0.0351592162241843
  0.5100588755430212  0.0308967985552109  0.9483982202004212
  0.2305867910631412  0.0096778586930605  0.2101421254447218
  0.6013892736569698  0.0809436663992695  0.2147020059092419
  0.1527932566590781  0.8493653103452139  0.7320199962507701
  0.7403909460971483  0.4580530851694295  0.6841655404478590
  0.9443952741269689  0.2028492177573677  0.8380450892994292
  0.6886061120956558  0.1819445097565234  0.3533483848330548
 -0.0051832442138441  0.7282594032571208  0.9533273914050453
  0.3031989240236293  0.2075802382886752  0.6755538127843476
  0.5398233579186865  0.2237223405898367  0.3076423851252455
  0.4552542426218693  0.6379874327519501  0.7494972785276244
  0.8241179162743379  0.8215447342876870  0.3508418735150524
  0.4578134141786379  0.9815675255724279  0.3329678485610431
  0.5634478006930363  0.8236209796010471  0.0729673164605282
  0.0152965694362779  0.4779404553186647  0.9259073413693970
  0.1126494309136125  0.5931515094823161  0.8430588524008984
  0.7129164125461193  0.8631766320699603  0.1586215625465605
  0.2980754895620691  0.3967373617454729  0.7971696561513748
  0.6993998775585064  0.8589188251318772  0.6957819764348441
  0.8100436541958549  0.8626838685369654  0.5655660763740848
  0.1121084060930109  0.6010697569347484  0.7172846881956629
  0.5967341270975878  0.8690407736565939  0.9591374119220379
  0.4051887960094859  0.0865963965358193  0.1806821625862574
  0.3382495773988922  0.0373752274282653  0.6860309171302795
  0.0702243434825591  0.7120770032928627  0.2977070073296638
  0.1716954086245907  0.1780600333084082  0.1416182058544123
  0.7656201317068507  0.4744820200330061  0.0518253336271128
  0.9611345039921213  0.0171584261855192  0.8134537613039204
  0.6309999160879191  0.8440945239372950  0.3300007934293067
  0.0406635956226378  0.4659255371990296  0.7494807111171129
  0.4464241240862935  0.5230876710995507  0.5256603705516060
  0.2454881540574559  0.8039508829640990  0.2642597451384313
  0.8088762897158396  0.6873103533137684  0.8920263345462739
  0.6648240527132419  0.3948669146807153  0.0547385443694614
  0.3805693194803218  0.6738614616437638  0.8612906042840451
  0.1982745254929510  0.6058224542058438  0.2293256025944220
  0.3033612832301765  0.2258747186249329  0.0883857062010651
  0.5957398261007535  0.3219038292059149  0.4421245891484357
  0.4084743660673149  0.8288996152079904  0.7584473662859218
  0.6337403749489795  0.2862996886081285  0.2293521548697392
  0.3208837152938590  0.6512439611779327  0.5623659841375882
  0.3994508885185067  0.1470558315430731  0.8527778739818838
  0.5774130415365543  0.4080553152276250  0.3594127322052336
  0.8921126036831628  0.3418950757753112  0.7496845625487288
  0.6174360461645463  0.3030135423662813  0.6394813311425007
  0.4372260954734247  0.9782444664557833  0.1258764964054071
  0.1271991855717610  0.3134547718811747  0.0685101734298438
  0.1896213562607797  0.1778128261825740  0.5473689736970395
  0.7475159600163936  0.7597621826489086  0.0342618386170780
  0.7036561060365917  0.0468138692584313  0.0393704115660277
  0.7812483989165050  0.1452822513638399  0.1721354484811054
  0.3399360964774551  0.8299536811497336  0.4206043267650055
  0.0480414188691090  0.9367719797129341  0.1331406360903000
  0.9024186193185451  0.6411432553966782  0.3140956195649239
  0.2901102219769514  0.8461360036886292  0.6420770616035001
  0.4430045144514004  0.9477336303618775  0.5808326881585810
  0.5599138906259151  0.3030533111605385  0.0088043034145955
  0.3423196115294985  0.1153061721298575  0.5869339221023833
  0.2643233526030770  0.8981023395498581  0.1291998549820464
  0.4124569144170142  0.9431017456016278  0.0163180627844217
  0.2933141058602055  0.3781908525651626  0.6263704790198771
  0.8916080562808125  0.1413260705424290  0.0248808290961653
  0.6208662396251884  0.7612760460018052  0.8984953649272109
  0.0709500020008926  0.6536150478517662  0.5473911916351328
  0.1393721915735541  0.1031751119323616  0.2311979770288659
  0.9577706149526464  0.1970035915385915  0.2527550669847055
  0.1013731757623085  0.8587076400195707  0.3438341645088074
  0.8448611368516771  0.2455554240857679  0.7828127464563491
  0.4343464094711466  0.2137313053645098  0.2572278527370550
  0.5397145412037183  0.6178965271931132  0.6596754106150534
  0.4731560780513682  0.7192060787302044  0.3547710660817651
  0.3052244901437627  0.7684461415588596  0.5320537984785433
  0.7322432675336414  0.0836381741623863  0.4215183606421772
  0.3820764216910708  0.4689961408199298  0.1787117353320529
  0.7297311301366748  0.1157794056387581  0.5305310810689742
  0.1845193100254870  0.1924328448237476  0.6612536827170281
  0.8294879540054183  0.8525714851168329  0.6896036889928304
  0.2531312457066366  0.9186941218625667  0.4177666543222336
  0.2760297946539594  0.2310176365783193  0.2105551759005410
  0.7277269796277628  0.3194597294680075  0.6735052555974583
  0.6877385976752312  0.2606367176199056  0.4755384415083507
  0.2389976226848465  0.3503382690254154  0.8866523138331353
  0.7658544160589775  0.5847784928267732  0.7116380433274277
  0.9114367561161603  0.1140194674521154  0.5452469468391582
  0.4290917815366694  0.6394891678859145  0.5018047753756972
  0.4249508579349471  0.3098593156407617  0.8662161860257086
  0.5622444277009189  0.8057643853502264  0.6842313213378137
  0.2721539898974247  0.7431038339555563  0.3685836288445265
  0.9913576446911377  0.9835332770669097  0.2341582935983601
  0.7935942018370429  0.3599155937475850  0.1789902749507264
  0.0385542177669931  0.8151795081796560  0.4977027404535322
  0.7066525104476435  0.5712920316383302  0.0259777432977152
  0.4908372912836769  0.1482714305810087  0.9673785845126462
  0.3662142274842770  0.3053012718746034  0.7682657878928716
  0.5553318545268827  0.1069651995820745  0.3243097621559803
  0.6522192238642276  0.7624310923651968  0.1214685999500753
  0.5903327077500152  0.9608365539285666  0.2407372416078380
  0.9955736137239332  0.2601319714640278  0.6445101428723052
  0.0813426830176306  0.4982851659233430  0.4639807647367002
  0.5460955038824408  0.3217873735965750  0.7269254209899187
  0.6079383413752075  0.0496682649311117  0.8732291632592251
  0.9739986129728133  0.1160613529545868  0.7589326122277833
  0.0912184791471173  0.9589244140766490  0.7383923882963492
  0.1751629948834005  0.8434045189646716  0.6145322527671628
  0.8194532374833626  0.4287883519472521  0.7793195873459521
  0.7489846818783344  0.1583754196563011  0.9084738803301050
  0.1293516546582385  0.7212838173721143  0.9055358200790170
  0.4521794786859558  0.3645238795307179  0.5585850175736342
  0.3200937946146520  0.0462402167806930  0.2779243859591506
  0.2473200002058523  0.5454916612663440  0.0979104383403502
  0.4987314572440504  0.1564949398268504  0.7769871786880035
  0.2684349442015345  0.7506454968060670  0.7982671081693568
  0.4170609527627680  0.2647254255564456  0.0788363321554960
  0.3211535447187049  0.6286790778342853  0.2447013885384450
  0.9875873939648787  0.8366360762913473  0.8317342555630576
  0.1212926757365462  0.4057692238871418  0.6780389521173554
  0.3812536477945893  0.5435811127406511  0.7188557281769841
  0.7158192888185535  0.8678478655736530  0.9791532200313066
  0.1439080643605141  0.0319956872597924  0.3785474406950554
  0.1654647782482103  0.7246687794084418  0.2104313174268969
  0.8827650364245359  0.7037934618797139  0.7920251142962978
  0.2160449161378525  0.6448449906029293  0.6735153459535713
  0.4837043366005745  0.7386304824101390  0.0884339593752609
  0.1115620975692223  0.2801097449224678  0.1835477779446643
  0.8793381179153423  0.7607728183118929  0.5448103391026311
  0.0439018131330143  0.3632210679356579  0.3314923320669338
  0.5077797501243040  0.2500737636106752  0.4192828610350689
  0.6930221520025185  0.1574898837414890  0.0874878482580538
  0.7091654659991152  0.6019713157372228  0.5233131518638429
  0.3513709690228962  0.4809309759447806  0.4686360721643498
  0.7314270170884831  0.8064101144589952  0.2665905936693902
  0.4614896079482769  0.6047072076666332  0.9323440214678111
  0.9015484572722918  0.7577894425428329  0.2804787120325340
  0.0226962552277428  0.8239253828324313  0.1720735294163961
  0.9800742112758259  0.6673345350665689  0.4061329227015013
  0.5977985060476999  0.1892035281685892  0.6304667340573192
  0.7166000213570533  0.0930886993144760  0.2600254683812556
  0.3657278269722410  0.4279430177847613  0.9833986924033185
  0.0055470379161694  0.5972118214284883  0.8893840241123783
  0.2352050349334961  0.6149988943832596  0.4864497080857335
  0.1002941311694166  0.3212032206644079  0.5126170100593311
  0.0567765779726952  0.1457122808443942  0.0841797391827366
  0.9538212535639851  0.4069424515599623  0.0949283278136633
  0.1497345770066593  0.6273132179644723  0.3454032066109584
  0.2256239016289642  0.4777229395443601  0.3419493591727428
  0.3842010586486325  0.8793858652842371  0.2922370508624585
  0.3059702548860979  0.1243760685277502  0.7648395791195571
  0.9752245873685593  0.9772094528194571  0.4056530892760130
  0.8195861249874844  0.4518292997906226  0.5915869747376417
  0.5958198185487071 -0.0012675273151134  0.0520943458994032
  0.4767394876486875  0.5172658645976311  0.8609066765063639
  0.0609309212551916  0.7023990816633204  0.7351522273089539
  0.5841063873439581  0.0179461323571784  0.5144815596870218
  0.0488958838128356  0.8445113476847298  0.9891889339443952
  0.8753706737956700  0.7506951754374255  0.9676905124340582
  0.9193576360761682  0.3462249544624340  0.6337889447150749
  0.7840314884933434 -0.0030379637984552  0.1125869579853886
  0.2487793115644377  0.9269129550995853  0.7480466426062512
  0.5656866477360878  0.4232730147651653  0.0013311251670160
  0.7013446986170658  0.7438486409412625  0.7391847558321385
  0.5143691547509355  0.8898891736226971  0.4025126937592113
  0.7543083714653837  0.5333288935080640  0.2396724541815232
  0.0300615705479229  0.6797820115129648  0.0672217955586000
  0.1155560738624150  0.2120638928492306  0.3733033506365897
  0.6915444135172212  0.8941727125055116  0.4243682751711662
  0.4878255555708165  0.3928827777596451  0.2766749380004947
  0.0644138231106602  0.0283578093570723  0.5572425236564884
  0.3467720208069670  0.3219500932739082  0.3888476175059462
  0.4779077355016361  0.5595701065846486  0.3326207892841392
  0.6068668016796442  0.4721598667309269  0.5787416898118977
  0.6801104909437363  0.3069731307169514  0.9732781056661403
  0.8786636084078746  0.6025752027148817  0.1008371956719622
 -0.0014083895291408  0.6326411006697795  0.2312437638173180
  0.8609977201017940  0.0161730924161795  0.8772122784067150
  0.9292071391854637  0.4916347583061093  0.3789734340787854
  0.4188668426326570  0.0225749112656717  0.8488881174250802
  0.2958182919690079  0.5546354697656207  0.8819892814973957
  0.3263517580064517  0.7037751423313974  0.9689981809858619
  0.2712600145885937  0.2412586499041423  0.4952342113119270
  0.7106448369174362  0.4525114374266625  0.4270089302903819
  0.3944752548125521  0.7287885567284550  0.6890854238506188
  0.2379886431223757  0.3602350964689022  0.0718358773064906
  0.5859831131647268  0.3365299153875149  0.1307141766855646
  0.0367961795574847  0.0053750111363044  0.9062026057976610
  0.4126710123758407  0.0456186900763585  0.4323335375372264
  0.1120446543535802  0.4684039021181917  0.8488500969620129
  0.0900428100358897  0.5075215779051458  0.0178341561435388
  0.9265179607645780  0.6001469495163618  0.6429570296569604
  0.7751127222048854  0.7205225168552792  0.4026768773911886
  0.3242125566912351  0.1033407484554925  0.0919287901194707
  0.1175775670102246  0.4601724555344099  0.1881744036445525
  0.7020614865000009  0.9141143885749036  0.8070574792263487
  0.2445733250578930  0.0709339608474362  0.5436450929885548
  0.9394892742950435  0.2389611960826639  0.4178707381213415
  0.5929891208854158  0.7389815985858644  0.4899079697976743
  0.8486349021110273  0.5646548507713850  0.9143244502021682
  0.5498824411635338  0.9823573446663144  0.7182820804649264
 -0.0027983474646331  0.3558595802435535  0.7991560464869013
  0.9064973465147744  0.9325469701921796  0.5420801984491600
  0.7874668286467420  0.2549168321729545  0.3331199367462594
 -0.0064393853897945  0.2871911329303553  0.9740820993631640
  0.9491931721295049  0.9644258728099814  0.0657960084018129
  0.6460774893047645  0.6376069752986949  0.3270679155774243
  0.3315515002972751  0.9282137058029134  0.5603719524659151
  0.4598663640331823  0.7845529053054249  0.8539916592230592
  0.6472764525022651  0.4035166823099566  0.2628113926263396
  0.8208539005134033  0.8195906530175419  0.1152551489223268
 
  0.00000000E+00  0.00000000E+00  0.00000000E+00
  0.00000000E+00  0.00000000E+00  0.00000000E+00
  0.00000000E+00  0.00000000E+00  0.00000000E+00
  0.00000000E+00  0.00000000E+00  0.00000000E+00
  0.00000000E+00  0.00000000E+00  0.00000000E+00
  0.00000000E+00  0.00000000E+00  0.00000000E+00
  0.00000000E+00  0.00000000E+00  0.00000000E+00
  0.00000000E+00  0.00000000E+00  0.00000000E+00
  0.00000000E+00  0.00000000E+00  0.00000000E+00
  0.00000000E+00  0.00000000E+00  0.00000000E+00
  0.00000000E+00  0.00000000E+00  0.00000000E+00
  0.00000000E+00  0.00000000E+00  0.00000000E+00
  0.00000000E+00  0.00000000E+00  0.00000000E+00
  0.00000000E+00  0.00000000E+00  0.00000000E+00
  0.00000000E+00  0.00000000E+00  0.00000000E+00
  0.00000000E+00  0.00000000E+00  0.00000000E+00
  0.00000000E+00  0.00000000E+00  0.00000000E+00
  0.00000000E+00  0.00000000E+00  0.00000000E+00
  0.00000000E+00  0.00000000E+00  0.00000000E+00
  0.00000000E+00  0.00000000E+00  0.00000000E+00
  0.00000000E+00  0.00000000E+00  0.00000000E+00
  0.00000000E+00  0.00000000E+00  0.00000000E+00
  0.00000000E+00  0.00000000E+00  0.00000000E+00
  0.00000000E+00  0.00000000E+00  0.00000000E+00
  0.00000000E+00  0.00000000E+00  0.00000000E+00
  0.00000000E+00  0.00000000E+00  0.00000000E+00
  0.00000000E+00  0.00000000E+00  0.00000000E+00
  0.00000000E+00  0.00000000E+00  0.00000000E+00
  0.00000000E+00  0.00000000E+00  0.00000000E+00
  0.00000000E+00  0.00000000E+00  0.00000000E+00
  0.00000000E+00  0.00000000E+00  0.00000000E+00
  0.00000000E+00  0.00000000E+00  0.00000000E+00
  0.00000000E+00  0.00000000E+00  0.00000000E+00
  0.00000000E+00  0.00000000E+00  0.00000000E+00
  0.00000000E+00  0.00000000E+00  0.00000000E+00
  0.00000000E+00  0.00000000E+00  0.00000000E+00
  0.00000000E+00  0.00000000E+00  0.00000000E+00
  0.00000000E+00  0.00000000E+00  0.00000000E+00
  0.00000000E+00  0.00000000E+00  0.00000000E+00
  0.00000000E+00  0.00000000E+00  0.00000000E+00
  0.00000000E+00  0.00000000E+00  0.00000000E+00
  0.00000000E+00  0.00000000E+00  0.00000000E+00
  0.00000000E+00  0.00000000E+00  0.00000000E+00
  0.00000000E+00  0.00000000E+00  0.00000000E+00
  0.00000000E+00  0.00000000E+00  0.00000000E+00
  0.00000000E+00  0.00000000E+00  0.00000000E+00
  0.00000000E+00  0.00000000E+00  0.00000000E+00
  0.00000000E+00  0.00000000E+00  0.00000000E+00
  0.00000000E+00  0.00000000E+00  0.00000000E+00
  0.00000000E+00  0.00000000E+00  0.00000000E+00
  0.00000000E+00  0.00000000E+00  0.00000000E+00
  0.00000000E+00  0.00000000E+00  0.00000000E+00
  0.00000000E+00  0.00000000E+00  0.00000000E+00
  0.00000000E+00  0.00000000E+00  0.00000000E+00
  0.00000000E+00  0.00000000E+00  0.00000000E+00
  0.00000000E+00  0.00000000E+00  0.00000000E+00
  0.00000000E+00  0.00000000E+00  0.00000000E+00
  0.00000000E+00  0.00000000E+00  0.00000000E+00
  0.00000000E+00  0.00000000E+00  0.00000000E+00
  0.00000000E+00  0.00000000E+00  0.00000000E+00
  0.00000000E+00  0.00000000E+00  0.00000000E+00
  0.00000000E+00  0.00000000E+00  0.00000000E+00
  0.00000000E+00  0.00000000E+00  0.00000000E+00
  0.00000000E+00  0.00000000E+00  0.00000000E+00
  0.00000000E+00  0.00000000E+00  0.00000000E+00
  0.00000000E+00  0.00000000E+00  0.00000000E+00
  0.00000000E+00  0.00000000E+00  0.00000000E+00
  0.00000000E+00  0.00000000E+00  0.00000000E+00
  0.00000000E+00  0.00000000E+00  0.00000000E+00
  0.00000000E+00  0.00000000E+00  0.00000000E+00
  0.00000000E+00  0.00000000E+00  0.00000000E+00
  0.00000000E+00  0.00000000E+00  0.00000000E+00
  0.00000000E+00  0.00000000E+00  0.00000000E+00
  0.00000000E+00  0.00000000E+00  0.00000000E+00
  0.00000000E+00  0.00000000E+00  0.00000000E+00
  0.00000000E+00  0.00000000E+00  0.00000000E+00
  0.00000000E+00  0.00000000E+00  0.00000000E+00
  0.00000000E+00  0.00000000E+00  0.00000000E+00
  0.00000000E+00  0.00000000E+00  0.00000000E+00
  0.00000000E+00  0.00000000E+00  0.00000000E+00
  0.00000000E+00  0.00000000E+00  0.00000000E+00
  0.00000000E+00  0.00000000E+00  0.00000000E+00
  0.00000000E+00  0.00000000E+00  0.00000000E+00
  0.00000000E+00  0.00000000E+00  0.00000000E+00
  0.00000000E+00  0.00000000E+00  0.00000000E+00
  0.00000000E+00  0.00000000E+00  0.00000000E+00
  0.00000000E+00  0.00000000E+00  0.00000000E+00
  0.00000000E+00  0.00000000E+00  0.00000000E+00
  0.00000000E+00  0.00000000E+00  0.00000000E+00
  0.00000000E+00  0.00000000E+00  0.00000000E+00
  0.00000000E+00  0.00000000E+00  0.00000000E+00
  0.00000000E+00  0.00000000E+00  0.00000000E+00
  0.00000000E+00  0.00000000E+00  0.00000000E+00
  0.00000000E+00  0.00000000E+00  0.00000000E+00
  0.00000000E+00  0.00000000E+00  0.00000000E+00
  0.00000000E+00  0.00000000E+00  0.00000000E+00
  0.00000000E+00  0.00000000E+00  0.00000000E+00
  0.00000000E+00  0.00000000E+00  0.00000000E+00
  0.00000000E+00  0.00000000E+00  0.00000000E+00
  0.00000000E+00  0.00000000E+00  0.00000000E+00
  0.00000000E+00  0.00000000E+00  0.00000000E+00
  0.00000000E+00  0.00000000E+00  0.00000000E+00
  0.00000000E+00  0.00000000E+00  0.00000000E+00
  0.00000000E+00  0.00000000E+00  0.00000000E+00
  0.00000000E+00  0.00000000E+00  0.00000000E+00
  0.00000000E+00  0.00000000E+00  0.00000000E+00
  0.00000000E+00  0.00000000E+00  0.00000000E+00
  0.00000000E+00  0.00000000E+00  0.00000000E+00
  0.00000000E+00  0.00000000E+00  0.00000000E+00
  0.00000000E+00  0.00000000E+00  0.00000000E+00
  0.00000000E+00  0.00000000E+00  0.00000000E+00
  0.00000000E+00  0.00000000E+00  0.00000000E+00
  0.00000000E+00  0.00000000E+00  0.00000000E+00
  0.00000000E+00  0.00000000E+00  0.00000000E+00
  0.00000000E+00  0.00000000E+00  0.00000000E+00
  0.00000000E+00  0.00000000E+00  0.00000000E+00
  0.00000000E+00  0.00000000E+00  0.00000000E+00
  0.00000000E+00  0.00000000E+00  0.00000000E+00
  0.00000000E+00  0.00000000E+00  0.00000000E+00
  0.00000000E+00  0.00000000E+00  0.00000000E+00
  0.00000000E+00  0.00000000E+00  0.00000000E+00
  0.00000000E+00  0.00000000E+00  0.00000000E+00
  0.00000000E+00  0.00000000E+00  0.00000000E+00
  0.00000000E+00  0.00000000E+00  0.00000000E+00
  0.00000000E+00  0.00000000E+00  0.00000000E+00
  0.00000000E+00  0.00000000E+00  0.00000000E+00
  0.00000000E+00  0.00000000E+00  0.00000000E+00
  0.00000000E+00  0.00000000E+00  0.00000000E+00
  0.00000000E+00  0.00000000E+00  0.00000000E+00
  0.00000000E+00  0.00000000E+00  0.00000000E+00
  0.00000000E+00  0.00000000E+00  0.00000000E+00
  0.00000000E+00  0.00000000E+00  0.00000000E+00
  0.00000000E+00  0.00000000E+00  0.00000000E+00
  0.00000000E+00  0.00000000E+00  0.00000000E+00
  0.00000000E+00  0.00000000E+00  0.00000000E+00
  0.00000000E+00  0.00000000E+00  0.00000000E+00
  0.00000000E+00  0.00000000E+00  0.00000000E+00
  0.00000000E+00  0.00000000E+00  0.00000000E+00
  0.00000000E+00  0.00000000E+00  0.00000000E+00
  0.00000000E+00  0.00000000E+00  0.00000000E+00
  0.00000000E+00  0.00000000E+00  0.00000000E+00
  0.00000000E+00  0.00000000E+00  0.00000000E+00
  0.00000000E+00  0.00000000E+00  0.00000000E+00
  0.00000000E+00  0.00000000E+00  0.00000000E+00
  0.00000000E+00  0.00000000E+00  0.00000000E+00
  0.00000000E+00  0.00000000E+00  0.00000000E+00
  0.00000000E+00  0.00000000E+00  0.00000000E+00
  0.00000000E+00  0.00000000E+00  0.00000000E+00
  0.00000000E+00  0.00000000E+00  0.00000000E+00
  0.00000000E+00  0.00000000E+00  0.00000000E+00
  0.00000000E+00  0.00000000E+00  0.00000000E+00
  0.00000000E+00  0.00000000E+00  0.00000000E+00
  0.00000000E+00  0.00000000E+00  0.00000000E+00
  0.00000000E+00  0.00000000E+00  0.00000000E+00
  0.00000000E+00  0.00000000E+00  0.00000000E+00
  0.00000000E+00  0.00000000E+00  0.00000000E+00
  0.00000000E+00  0.00000000E+00  0.00000000E+00
  0.00000000E+00  0.00000000E+00  0.00000000E+00
  0.00000000E+00  0.00000000E+00  0.00000000E+00
  0.00000000E+00  0.00000000E+00  0.00000000E+00
  0.00000000E+00  0.00000000E+00  0.00000000E+00
  0.00000000E+00  0.00000000E+00  0.00000000E+00
  0.00000000E+00  0.00000000E+00  0.00000000E+00
  0.00000000E+00  0.00000000E+00  0.00000000E+00
  0.00000000E+00  0.00000000E+00  0.00000000E+00
  0.00000000E+00  0.00000000E+00  0.00000000E+00
  0.00000000E+00  0.00000000E+00  0.00000000E+00
  0.00000000E+00  0.00000000E+00  0.00000000E+00
  0.00000000E+00  0.00000000E+00  0.00000000E+00
  0.00000000E+00  0.00000000E+00  0.00000000E+00
  0.00000000E+00  0.00000000E+00  0.00000000E+00
  0.00000000E+00  0.00000000E+00  0.00000000E+00
  0.00000000E+00  0.00000000E+00  0.00000000E+00
  0.00000000E+00  0.00000000E+00  0.00000000E+00
  0.00000000E+00  0.00000000E+00  0.00000000E+00
  0.00000000E+00  0.00000000E+00  0.00000000E+00
  0.00000000E+00  0.00000000E+00  0.00000000E+00
  0.00000000E+00  0.00000000E+00  0.00000000E+00
  0.00000000E+00  0.00000000E+00  0.00000000E+00
  0.00000000E+00  0.00000000E+00  0.00000000E+00
  0.00000000E+00  0.00000000E+00  0.00000000E+00
  0.00000000E+00  0.00000000E+00  0.00000000E+00
  0.00000000E+00  0.00000000E+00  0.00000000E+00
  0.00000000E+00  0.00000000E+00  0.00000000E+00
  0.00000000E+00  0.00000000E+00  0.00000000E+00
  0.00000000E+00  0.00000000E+00  0.00000000E+00
  0.00000000E+00  0.00000000E+00  0.00000000E+00
  0.00000000E+00  0.00000000E+00  0.00000000E+00
  0.00000000E+00  0.00000000E+00  0.00000000E+00
  0.00000000E+00  0.00000000E+00  0.00000000E+00
  0.00000000E+00  0.00000000E+00  0.00000000E+00
  0.00000000E+00  0.00000000E+00  0.00000000E+00
  0.00000000E+00  0.00000000E+00  0.00000000E+00
  0.00000000E+00  0.00000000E+00  0.00000000E+00
  0.00000000E+00  0.00000000E+00  0.00000000E+00
  0.00000000E+00  0.00000000E+00  0.00000000E+00
  0.00000000E+00  0.00000000E+00  0.00000000E+00
  0.00000000E+00  0.00000000E+00  0.00000000E+00
  0.00000000E+00  0.00000000E+00  0.00000000E+00
  0.00000000E+00  0.00000000E+00  0.00000000E+00
  0.00000000E+00  0.00000000E+00  0.00000000E+00
  0.00000000E+00  0.00000000E+00  0.00000000E+00
  0.00000000E+00  0.00000000E+00  0.00000000E+00
  0.00000000E+00  0.00000000E+00  0.00000000E+00
  0.00000000E+00  0.00000000E+00  0.00000000E+00
  0.00000000E+00  0.00000000E+00  0.00000000E+00
  0.00000000E+00  0.00000000E+00  0.00000000E+00
  0.00000000E+00  0.00000000E+00  0.00000000E+00
  0.00000000E+00  0.00000000E+00  0.00000000E+00
  0.00000000E+00  0.00000000E+00  0.00000000E+00
  0.00000000E+00  0.00000000E+00  0.00000000E+00
  0.00000000E+00  0.00000000E+00  0.00000000E+00
  0.00000000E+00  0.00000000E+00  0.00000000E+00
  0.00000000E+00  0.00000000E+00  0.00000000E+00
  0.00000000E+00  0.00000000E+00  0.00000000E+00
  0.00000000E+00  0.00000000E+00  0.00000000E+00
  0.00000000E+00  0.00000000E+00  0.00000000E+00
  0.00000000E+00  0.00000000E+00  0.00000000E+00
  0.00000000E+00  0.00000000E+00  0.00000000E+00
  0.00000000E+00  0.00000000E+00  0.00000000E+00
  0.00000000E+00  0.00000000E+00  0.00000000E+00
  0.00000000E+00  0.00000000E+00  0.00000000E+00
  0.00000000E+00  0.00000000E+00  0.00000000E+00
  0.00000000E+00  0.00000000E+00  0.00000000E+00
  0.00000000E+00  0.00000000E+00  0.00000000E+00
  0.00000000E+00  0.00000000E+00  0.00000000E+00
  0.00000000E+00  0.00000000E+00  0.00000000E+00
  0.00000000E+00  0.00000000E+00  0.00000000E+00
  0.00000000E+00  0.00000000E+00  0.00000000E+00
  0.00000000E+00  0.00000000E+00  0.00000000E+00
  0.00000000E+00  0.00000000E+00  0.00000000E+00
  0.00000000E+00  0.00000000E+00  0.00000000E+00