Sb                                      
   1.00000000000000     
    17.0173007964999918    0.0000000000000000    0.0000000000000000
     0.0000000000000000   17.0173007964999918    0.0000000000000000
     0.0000000000000000    0.0000000000000000   17.0173007964999918
   C    Se
    66   134
Direct
  0.1309890295109971  0.2793110399877828  0.1964647733246646
  0.2888058859429415  0.9287465058493243  0.0518808929835896
  0.1459223071826267  0.9486243979450868  0.6386255395783857
  0.1657736415691894  0.6080886950327141  0.9394811719286671
  0.9397502514282127  0.6722683688489223  0.2808243587760793
  0.9277973904344516  0.8243538072155252  0.6299213652086763
  0.3456743922347811  0.9868411784045554  0.0252343208433510
  0.3769612760109809  0.1010354057378356  0.4686771252466163
  0.9782418870773881  0.0850216342273084  0.3534346023179829
  0.9788388201340007  0.0070303141450551  0.3783926868298195
  0.0496913026062726  0.7507392715246218  0.6009853012619821
  0.3344608825191142  0.0925209458410767  0.9132502253318947
  0.0514356350179583  0.1186096318179724  0.3307149953708705
  0.8419392700514582  0.0198098669556772  0.3656894519032860
  0.5981666204296627  0.9231207596050289  0.8179307412387855
  0.6499775040779217  0.7681909814010534  0.9636305383539883
  0.2523243388069046  0.5399984707725547  0.8145887067319445
  0.2882205776267647  0.8978695069131786  0.1228704645718328
  0.9559557393083111  0.8005178559285884  0.2178118806307487
  0.3181425744221841  0.1166165928647224  0.4121703685084283
  0.7370177120316120  0.7540306809475719  0.2157693471473003
  0.7067199510501904  0.6853892524182692  0.1708114264739808
  0.1933821265623877  0.7460537890593845  0.9430065076929723
  0.7455475577831877  0.7462502898156115  0.2986803560468766
  0.7646548288301075  0.7958045569759787  0.3613268917975225
  0.9045760092379053  0.9680896184851624  0.3787273206923495
  0.6817156651203811  0.8230679475129440  0.0166977862477747
 -0.0017869293540567  0.6299573246188501  0.5700865101411292
  0.4220854383888187  0.1597002392106189  0.5063036624571756
  0.1162476429468618  0.0682729156620525  0.3493988694462479
  0.8040986011872577  0.8713674538016115  0.3627788723931027
  0.6225268434460027  0.7957609268420223  0.8917288524560323
  0.3301691771361194  0.4732793505990868  0.3249986314152487
  0.2622036226769719  0.4375256158559457  0.3396209407309655
  0.8604954189591201  0.6408304993592007  0.6105953911395222
  0.1954637253794197  0.0880128514622512  0.3391381015994124
  0.2209158261168623  0.8187214319443983  0.9177671995610004
  0.7064485593977218  0.7906552923870155  0.0881534094754374
  0.5656259574856642  0.9974153069573120  0.8145285244005791
  0.0916903706272319  0.8861322267364692  0.6325407057041310
  0.1255649100241500  0.2151646659449335  0.2481015870347084
  0.9665210000314255  0.7545479915311974  0.6146014573620552
  0.2239213026839021  0.9452248547929444  0.6168376537091912
  0.1436053983863863  0.6503920457252067  0.5516126000628383
  0.2904100843386168  0.8743775992609867  0.1964034531465560
  0.2045828430368093  0.7067594395991024  0.5594464212691526
  0.1245297261285443  0.6226243783079066  0.0085137717856185
  0.0595394690372385  0.1933394354910538  0.2917633963326648
  0.4407353032260082  0.5622029129771953  0.3740198487699680
  0.3841048439170807  0.5061413981013522  0.3805283017295243
  0.6246258940123726  0.8781360249214929  0.8832605605276459
  0.2017650459202567  0.6732632374169774  0.9036465315923067
  0.8565551885514897  0.9661891961010823  0.8303367249814896
  0.1095179523083649  0.8088422041328812  0.6070487027505949
  0.9339208954541833  0.6758516483395948  0.5977188736946175
  0.9719909213047576  0.9754887148073427  0.0477504120629032
  0.2642890114728645  0.0627586942218886  0.3794774622422246
  0.6914239104493005  0.7088090356561720  0.0941966860341720
  0.5592697736483473  0.3672450571597199  0.7934035153658570
  0.9472703553862549  0.6195599571001316  0.3415497897183395
  0.1871999693645918  0.7833375274219903  0.5850251555652035
  0.3381483056894408  0.0367421135708230  0.9659491962422589
  0.0678464768534910  0.6747110539495006  0.5727577664338040
  0.7395582417250240  0.8185522836174799  0.1615713140627408
  0.8824587379330895  0.8863116465525932  0.3762068032685715
  0.9496621807627269  0.7549899047796055  0.2846822474127099
  0.4942906580013511 -0.0129210477647955  0.3115623536206999
  0.2938845338318763  0.5907548718721523  0.1641242684294457
  0.9341198587154780  0.6743400180026070  0.8339670146410854
  0.8449050137505160  0.4205277011784463  0.8775582140039780
  0.0180626628553606  0.9683813190555297  0.9381246265559882
  0.6689431913563290  0.9258581546370026  0.9764231640494500
  0.7774709953449674  0.9222050328482827  0.1642353029054654
  0.1735415565885879  0.5066234782695704  0.8933537512902110
  0.6369775910905466  0.5233678187102579  0.6262087298095707
  0.8211423721733520  0.8434202138108714  0.6273536725809121
  0.4700321557317135  0.2547170583989962  0.1024695982628898
  0.3089820112416320  0.6758055950977222  0.5290256695125773
  0.8341098668807432  0.5861158576621780  0.0133386646052482
  0.8566391631755546  0.8576461170509401  0.8399113024788432
  0.5014952494447733  0.3757564520034440  0.6994937600924770
  0.6861670441551918  0.1154199704307033  0.5109389658531812
  0.2148041367395681  0.2931895665689946  0.1285903307335753
  0.2890228030109390  0.7445332746133521  0.3410006506459559
  0.9333153597603728  0.0422299026456275  0.8547585009195066
  0.0577100268923703  0.9193339774642121  0.1068787778077110
  0.7834417617802693  0.0261219766631638  0.5730374126985853
  0.5568320793673369  0.0659613946413784  0.9016532736265110
  0.8113931199795472  0.6614077962302020  0.8934684708450114
  0.0825607371190473  0.9709182177099231  0.3949159706965117
  0.2205031182153442  0.1560471069051295  0.2540113405287331
  0.2752106810871959  0.8517107595387889  0.5879365081177582
  0.0243243415191644  0.4952842036547300  0.7883019055646578
  0.5148627357566345  0.8558131104610501  0.6338402962399687
  0.3495571310409998  0.4682540899621912  0.2128317247401078
  0.8785719233948494  0.4672924123003104  0.2213852015688939
  0.1472615654499015  0.4182716135363834  0.0846076606080733
  0.9709685615243914  0.0793942832435642  0.0955700990950194
  0.4508316275464599  0.3846864359128689  0.0510286963177627
  0.8097773324621336  0.1635409195067591  0.7478918904918622
  0.0629260718006399  0.5527582108391156  0.0662316072552582
  0.3756412161381593  0.6800103377506094  0.6574778960610532
  0.9692702924698393  0.2975465069721397  0.0250421824124175
  0.2776340264378713  0.2717141472243948  0.8392908039122938
  0.9231799962016571  0.6301753655218139  0.1768798116957093
  0.5510394050184032  0.7056375923712357  0.3775444344696256
  0.7739342837497125  0.6895174179664619  0.6657639216390616
  0.5115636025306219  0.3030516523224797  0.3155842540678608
  0.4551484264601577  0.6157303639703312  0.0002271085723586
 -0.0021869130457650  0.5250348655039574  0.5417454730716351
  0.8493077579682139  0.5365905732387546  0.5787406693753732
  0.7386997780339295  0.7521245182812298  0.4596712304095630
  0.6275813676091500  0.2011497962249391  0.0153301992084825
  0.0512434654369747  0.3565150691427220  0.1902504116887495
  0.6907853563067826  0.1190286645485135  0.9203052469849645
  0.4503358652776774  0.7981794019590097  0.4331524552729777
  0.4116691722418747  0.2616613389584281  0.2293122811661804
  0.3559461481264708  0.4922338721810208  0.8381031879505694
  0.7698947142908380  0.4142447514184215  0.3985977767480628
  0.0809870363513501  0.3662436747938110  0.7770195702986753
  0.5310549147272963  0.4666418176393282  0.1245647726118898
  0.7804582000844282  0.3736114459905526  0.2646739599287959
  0.2712440673372052  0.8315851116582484  0.8229469371394810
  0.6623110755607100  0.4638646406196286  0.0574650443243028
  0.0682529137521342  0.1819440653264721  0.8923204005054793
  0.1761215430338019  0.3908595545817207  0.3618946334972065
  0.0855874719006540  0.3231673243996102  0.5331538282469085
  0.5770076996168180  0.7202472453221519  0.8219727638152938
  0.1741328068224955  0.5860867038468427  0.2339909743740068
  0.5771993641645168  0.9382272686864369  0.2113040780140657
  0.5265781191733895  0.9127662932389156  0.4242699112686659
  0.9649960774592815  0.2855188897182572  0.8847084124277187
  0.2844291062194395  0.0381194934601884  0.6173481826804458
  0.3901180699822195  0.2644515568322609  0.4964891297737795
  0.7518632553321353  0.2353208043613453  0.4932578324243919
  0.6917933213192767  0.5864875153248175  0.2127215385788357
  0.8662247509159816  0.9257808639136899  0.0396699470640767
  0.9251357452078857  0.4934117970968798  0.9696830745595416
  0.3499770946114714  0.5277340890347919 -0.0258945895671776
  0.8288075908946746  0.3013219952941440  0.7080882890727309
  0.8881031535364857  0.4854560902834668  0.7590430253056015
  0.9538521630605922  0.2957706674263907  0.4998794275718787
  0.6463383737474035  0.6636524704813450  0.0028284032219512
  0.8481082292246949  0.2499944205889997  0.0709162882776660
  0.6448329936351919  0.4696807871362179  0.4238858532430413
  0.4778029163936325  0.6261639385493231  0.2897092895290735
  0.3032820724583825  0.2283174077444227  0.3898827613769925
  0.4411845884758085  0.1354531178730418  0.7522821376318214
  0.0571385514900562  0.1093570968913026  0.5677529291011147
  0.7380756516240606  0.1330360157105125  0.1935482152265880
  0.4888548310191410  0.5747713971089694  0.4749567602487934
  0.9852215921929425  0.9071954736657596  0.2248716444248609
  0.2096091087363972  0.9189936284951633  0.2617343170164262
  0.5934526216648739  0.2699395602951048  0.8200488469791857
  0.5826400875312414  0.3639100742989890  0.4952974277220796
  0.7169642642248966  0.5696700199794063  0.7303326991678846
  0.5116986257917474  0.1497630577193376  0.5663626206257129
  0.1335991905235769  0.7304368851928278  0.0376126930831449
  0.1593492666947648  0.2040128778918743  0.7936172454019133
  0.7159106508688671  0.6468639648072478  0.3484575743892442
  0.3356600661954880  0.0608828701213665  0.8043037512553471
  0.2786496978851544  0.9498916306086809  0.3875274036531586
  0.4153746168359768  0.7444868337439448  0.9692147506491313
  0.8439540844839117  0.1113301156074177  0.0399832062908637
  0.9532565588261592  0.3064794357972039  0.6492796569238436
  0.7645567856755727  0.0011261113988953  0.7868949897476625
  0.2589499394730739  0.6622121577465392  0.8096142963946886
  0.6406378807193107  0.3762260064797512  0.9542931922734610
  0.9763732375070074  0.2666591405175758  0.2916559250847168
  0.1987295430492981  0.9134190989522759  0.9784434431050746
  0.9796074251969150  0.7993742641990527  0.8837845901412091
  0.8705860305789125  0.1114560641454860  0.6306160408316813
  0.1680754785498976  0.7178254993784698  0.2799826488650732
  0.5035628523389912  0.7158141392541316  0.6236861452005910
  0.7030180739596780  0.2145849402770048  0.3076974380792198
  0.9349439943627288  0.7567299135703660  0.1182520032260231
  0.5310116702851597  0.0346941248413719  0.7127415133750129
  0.4372854435945418  0.0087390528895595  0.0887821331885238
  0.7455521346768293  0.9682159214091987  0.3570723223754510
  0.9586162636375861  0.8023726744821232  0.3882792625529804
  0.3637249462643947  0.7956187373268133  0.2309470353297222
  0.9321839386112188  0.5191917988016703  0.3518636677879582
  0.2205376738412985  0.5190622783826685  0.7044358994978942
  0.5759750518283651  0.1852189015280168  0.3509298146051684
  0.5078407070207871  0.5147982026607121  0.6811062614235596
  0.1485703220660029  0.1974149386216799  0.5135748851158617
  0.3108921412466790  0.1985384257931193  0.9501522220019809
  0.3841474798404111 -0.0010165008370359  0.5167042083007957
  0.8736239393307981  0.1242480405356304  0.3428223552307485
  0.1531653429739235  0.5475960974412071  0.5139728482864807
  0.4422476466854180  0.7609321355509922  0.8323883409552005
  0.1124290915749017  0.0484187514832258  0.6827546399844109
  0.6237201664392271  0.1101272645783902  0.1224840195860281
  0.4920783656736396  0.8805888516300616  0.1175586745322380
  0.6271212108061109  0.8815692487484634  0.7133285039190544
  0.6882911264983477  0.3265144087118195  0.5786292048788795
  0.5793605708459552  0.4580979502289046  0.8525901747622768
  0.3882550649479196  0.4720835004827260  0.4888360035774189
  0.2036209166683443  0.3828883116686277  0.6940463542906007
  0.9863567459671105  0.9161164009126269  0.6555430195842300
 
  0.00000000E+00  0.00000000E+00  0.00000000E+00
  0.00000000E+00  0.00000000E+00  0.00000000E+00
  0.00000000E+00  0.00000000E+00  0.00000000E+00
  0.00000000E+00  0.00000000E+00  0.00000000E+00
  0.00000000E+00  0.00000000E+00  0.00000000E+00
  0.00000000E+00  0.00000000E+00  0.00000000E+00
  0.00000000E+00  0.00000000E+00  0.00000000E+00
  0.00000000E+00  0.00000000E+00  0.00000000E+00
  0.00000000E+00  0.00000000E+00  0.00000000E+00
  0.00000000E+00  0.00000000E+00  0.00000000E+00
  0.00000000E+00  0.00000000E+00  0.00000000E+00
  0.00000000E+00  0.00000000E+00  0.00000000E+00
  0.00000000E+00  0.00000000E+00  0.00000000E+00
  0.00000000E+00  0.00000000E+00  0.00000000E+00
  0.00000000E+00  0.00000000E+00  0.00000000E+00
  0.00000000E+00  0.00000000E+00  0.00000000E+00
  0.00000000E+00  0.00000000E+00  0.00000000E+00
  0.00000000E+00  0.00000000E+00  0.00000000E+00
  0.00000000E+00  0.00000000E+00  0.00000000E+00
  0.00000000E+00  0.00000000E+00  0.00000000E+00
  0.00000000E+00  0.00000000E+00  0.00000000E+00
  0.00000000E+00  0.00000000E+00  0.00000000E+00
  0.00000000E+00  0.00000000E+00  0.00000000E+00
  0.00000000E+00  0.00000000E+00  0.00000000E+00
  0.00000000E+00  0.00000000E+00  0.00000000E+00
  0.00000000E+00  0.00000000E+00  0.00000000E+00
  0.00000000E+00  0.00000000E+00  0.00000000E+00
  0.00000000E+00  0.00000000E+00  0.00000000E+00
  0.00000000E+00  0.00000000E+00  0.00000000E+00
  0.00000000E+00  0.00000000E+00  0.00000000E+00
  0.00000000E+00  0.00000000E+00  0.00000000E+00
  0.00000000E+00  0.00000000E+00  0.00000000E+00
  0.00000000E+00  0.00000000E+00  0.00000000E+00
  0.00000000E+00  0.00000000E+00  0.00000000E+00
  0.00000000E+00  0.00000000E+00  0.00000000E+00
  0.00000000E+00  0.00000000E+00  0.00000000E+00
  0.00000000E+00  0.00000000E+00  0.00000000E+00
  0.00000000E+00  0.00000000E+00  0.00000000E+00
  0.00000000E+00  0.00000000E+00  0.00000000E+00
  0.00000000E+00  0.00000000E+00  0.00000000E+00
  0.00000000E+00  0.00000000E+00  0.00000000E+00
  0.00000000E+00  0.00000000E+00  0.00000000E+00
  0.00000000E+00  0.00000000E+00  0.00000000E+00
  0.00000000E+00  0.00000000E+00  0.00000000E+00
  0.00000000E+00  0.00000000E+00  0.00000000E+00
  0.00000000E+00  0.00000000E+00  0.00000000E+00
  0.00000000E+00  0.00000000E+00  0.00000000E+00
  0.00000000E+00  0.00000000E+00  0.00000000E+00
  0.00000000E+00  0.00000000E+00  0.00000000E+00
  0.00000000E+00  0.00000000E+00  0.00000000E+00
  0.00000000E+00  0.00000000E+00  0.00000000E+00
  0.00000000E+00  0.00000000E+00  0.00000000E+00
  0.00000000E+00  0.00000000E+00  0.00000000E+00
  0.00000000E+00  0.00000000E+00  0.00000000E+00
  0.00000000E+00  0.00000000E+00  0.00000000E+00
  0.00000000E+00  0.00000000E+00  0.00000000E+00
  0.00000000E+00  0.00000000E+00  0.00000000E+00
  0.00000000E+00  0.00000000E+00  0.00000000E+00
  0.00000000E+00  0.00000000E+00  0.00000000E+00
  0.00000000E+00  0.00000000E+00  0.00000000E+00
  0.00000000E+00  0.00000000E+00  0.00000000E+00
  0.00000000E+00  0.00000000E+00  0.00000000E+00
  0.00000000E+00  0.00000000E+00  0.00000000E+00
  0.00000000E+00  0.00000000E+00  0.00000000E+00
  0.00000000E+00  0.00000000E+00  0.00000000E+00
  0.00000000E+00  0.00000000E+00  0.00000000E+00
  0.00000000E+00  0.00000000E+00  0.00000000E+00
  0.00000000E+00  0.00000000E+00  0.00000000E+00
  0.00000000E+00  0.00000000E+00  0.00000000E+00
  0.00000000E+00  0.00000000E+00  0.00000000E+00
  0.00000000E+00  0.00000000E+00  0.00000000E+00
  0.00000000E+00  0.00000000E+00  0.00000000E+00
  0.00000000E+00  0.00000000E+00  0.00000000E+00
  0.00000000E+00  0.00000000E+00  0.00000000E+00
  0.00000000E+00  0.00000000E+00  0.00000000E+00
  0.00000000E+00  0.00000000E+00  0.00000000E+00
  0.00000000E+00  0.00000000E+00  0.00000000E+00
  0.00000000E+00  0.00000000E+00  0.00000000E+00
  0.00000000E+00  0.00000000E+00  0.00000000E+00
  0.00000000E+00  0.00000000E+00  0.00000000E+00
  0.00000000E+00  0.00000000E+00  0.00000000E+00
  0.00000000E+00  0.00000000E+00  0.00000000E+00
  0.00000000E+00  0.00000000E+00  0.00000000E+00
  0.00000000E+00  0.00000000E+00  0.00000000E+00
  0.00000000E+00  0.00000000E+00  0.00000000E+00
  0.00000000E+00  0.00000000E+00  0.00000000E+00
  0.00000000E+00  0.00000000E+00  0.00000000E+00
  0.00000000E+00  0.00000000E+00  0.00000000E+00
  0.00000000E+00  0.00000000E+00  0.00000000E+00
  0.00000000E+00  0.00000000E+00  0.00000000E+00
  0.00000000E+00  0.00000000E+00  0.00000000E+00
  0.00000000E+00  0.00000000E+00  0.00000000E+00
  0.00000000E+00  0.00000000E+00  0.00000000E+00
  0.00000000E+00  0.00000000E+00  0.00000000E+00
  0.00000000E+00  0.00000000E+00  0.00000000E+00
  0.00000000E+00  0.00000000E+00  0.00000000E+00
  0.00000000E+00  0.00000000E+00  0.00000000E+00
  0.00000000E+00  0.00000000E+00  0.00000000E+00
  0.00000000E+00  0.00000000E+00  0.00000000E+00
  0.00000000E+00  0.00000000E+00  0.00000000E+00
  0.00000000E+00  0.00000000E+00  0.00000000E+00
  0.00000000E+00  0.00000000E+00  0.00000000E+00
  0.00000000E+00  0.00000000E+00  0.00000000E+00
  0.00000000E+00  0.00000000E+00  0.00000000E+00
  0.00000000E+00  0.00000000E+00  0.00000000E+00
  0.00000000E+00  0.00000000E+00  0.00000000E+00
  0.00000000E+00  0.00000000E+00  0.00000000E+00
  0.00000000E+00  0.00000000E+00  0.00000000E+00
  0.00000000E+00  0.00000000E+00  0.00000000E+00
  0.00000000E+00  0.00000000E+00  0.00000000E+00
  0.00000000E+00  0.00000000E+00  0.00000000E+00
  0.00000000E+00  0.00000000E+00  0.00000000E+00
  0.00000000E+00  0.00000000E+00  0.00000000E+00
  0.00000000E+00  0.00000000E+00  0.00000000E+00
  0.00000000E+00  0.00000000E+00  0.00000000E+00
  0.00000000E+00  0.00000000E+00  0.00000000E+00
  0.00000000E+00  0.00000000E+00  0.00000000E+00
  0.00000000E+00  0.00000000E+00  0.00000000E+00
  0.00000000E+00  0.00000000E+00  0.00000000E+00
  0.00000000E+00  0.00000000E+00  0.00000000E+00
  0.00000000E+00  0.00000000E+00  0.00000000E+00
  0.00000000E+00  0.00000000E+00  0.00000000E+00
  0.00000000E+00  0.00000000E+00  0.00000000E+00
  0.00000000E+00  0.00000000E+00  0.00000000E+00
  0.00000000E+00  0.00000000E+00  0.00000000E+00
  0.00000000E+00  0.00000000E+00  0.00000000E+00
  0.00000000E+00  0.00000000E+00  0.00000000E+00
  0.00000000E+00  0.00000000E+00  0.00000000E+00
  0.00000000E+00  0.00000000E+00  0.00000000E+00
  0.00000000E+00  0.00000000E+00  0.00000000E+00
  0.00000000E+00  0.00000000E+00  0.00000000E+00
  0.00000000E+00  0.00000000E+00  0.00000000E+00
  0.00000000E+00  0.00000000E+00  0.00000000E+00
  0.00000000E+00  0.00000000E+00  0.00000000E+00
  0.00000000E+00  0.00000000E+00  0.00000000E+00
  0.00000000E+00  0.00000000E+00  0.00000000E+00
  0.00000000E+00  0.00000000E+00  0.00000000E+00
  0.00000000E+00  0.00000000E+00  0.00000000E+00
  0.00000000E+00  0.00000000E+00  0.00000000E+00
  0.00000000E+00  0.00000000E+00  0.00000000E+00
  0.00000000E+00  0.00000000E+00  0.00000000E+00
  0.00000000E+00  0.00000000E+00  0.00000000E+00
  0.00000000E+00  0.00000000E+00  0.00000000E+00
  0.00000000E+00  0.00000000E+00  0.00000000E+00
  0.00000000E+00  0.00000000E+00  0.00000000E+00
  0.00000000E+00  0.00000000E+00  0.00000000E+00
  0.00000000E+00  0.00000000E+00  0.00000000E+00
  0.00000000E+00  0.00000000E+00  0.00000000E+00
  0.00000000E+00  0.00000000E+00  0.00000000E+00
  0.00000000E+00  0.00000000E+00  0.00000000E+00
  0.00000000E+00  0.00000000E+00  0.00000000E+00
  0.00000000E+00  0.00000000E+00  0.00000000E+00
  0.00000000E+00  0.00000000E+00  0.00000000E+00
  0.00000000E+00  0.00000000E+00  0.00000000E+00
  0.00000000E+00  0.00000000E+00  0.00000000E+00
  0.00000000E+00  0.00000000E+00  0.00000000E+00
  0.00000000E+00  0.00000000E+00  0.00000000E+00
  0.00000000E+00  0.00000000E+00  0.00000000E+00
  0.00000000E+00  0.00000000E+00  0.00000000E+00
  0.00000000E+00  0.00000000E+00  0.00000000E+00
  0.00000000E+00  0.00000000E+00  0.00000000E+00
  0.00000000E+00  0.00000000E+00  0.00000000E+00
  0.00000000E+00  0.00000000E+00  0.00000000E+00
  0.00000000E+00  0.00000000E+00  0.00000000E+00
  0.00000000E+00  0.00000000E+00  0.00000000E+00
  0.00000000E+00  0.00000000E+00  0.00000000E+00
  0.00000000E+00  0.00000000E+00  0.00000000E+00
  0.00000000E+00  0.00000000E+00  0.00000000E+00
  0.00000000E+00  0.00000000E+00  0.00000000E+00
  0.00000000E+00  0.00000000E+00  0.00000000E+00
  0.00000000E+00  0.00000000E+00  0.00000000E+00
  0.00000000E+00  0.00000000E+00  0.00000000E+00
  0.00000000E+00  0.00000000E+00  0.00000000E+00
  0.00000000E+00  0.00000000E+00  0.00000000E+00
  0.00000000E+00  0.00000000E+00  0.00000000E+00
  0.00000000E+00  0.00000000E+00  0.00000000E+00
  0.00000000E+00  0.00000000E+00  0.00000000E+00
  0.00000000E+00  0.00000000E+00  0.00000000E+00
  0.00000000E+00  0.00000000E+00  0.00000000E+00
  0.00000000E+00  0.00000000E+00  0.00000000E+00
  0.00000000E+00  0.00000000E+00  0.00000000E+00
  0.00000000E+00  0.00000000E+00  0.00000000E+00
  0.00000000E+00  0.00000000E+00  0.00000000E+00
  0.00000000E+00  0.00000000E+00  0.00000000E+00
  0.00000000E+00  0.00000000E+00  0.00000000E+00
  0.00000000E+00  0.00000000E+00  0.00000000E+00
  0.00000000E+00  0.00000000E+00  0.00000000E+00
  0.00000000E+00  0.00000000E+00  0.00000000E+00
  0.00000000E+00  0.00000000E+00  0.00000000E+00
  0.00000000E+00  0.00000000E+00  0.00000000E+00
  0.00000000E+00  0.00000000E+00  0.00000000E+00
  0.00000000E+00  0.00000000E+00  0.00000000E+00
  0.00000000E+00  0.00000000E+00  0.00000000E+00
  0.00000000E+00  0.00000000E+00  0.00000000E+00
  0.00000000E+00  0.00000000E+00  0.00000000E+00
  0.00000000E+00  0.00000000E+00  0.00000000E+00
  0.00000000E+00  0.00000000E+00  0.00000000E+00
  0.00000000E+00  0.00000000E+00  0.00000000E+00
  0.00000000E+00  0.00000000E+00  0.00000000E+00
  0.00000000E+00  0.00000000E+00  0.00000000E+00
