Amorphous GeTe6                         
   1.00000000000000     
    22.2982823540567736    0.0000000000000000    0.0000000000000000
     0.0000000000000000   22.2982823540567736    0.0000000000000000
     0.0000000000000000    0.0000000000000000   22.2982823540567736
   Ge   Te
    43   257
Direct
  0.0364884425147923  0.8636315249610502  0.8050390908837316
  0.1106345968239736  0.7225382137468329  0.2826701219792052
  0.0409375485059693  0.7395054411745432  0.0475223826052892
  0.2052587784110911  0.9723447042603016  0.4339466739530041
  0.9692072103805799  0.3825332933653918  0.3554189772310385
  0.9169720134351561  0.6868380088910074  0.1498727012457366
  0.4797342967719694  0.6659432654625892  0.1703850965152651
  0.5386972564753316  0.2137380473170480  0.0494631941267099
  0.4211463166968101  0.1514286044206905  0.4729940656682093
  0.6942057460039590  0.2708246888958557  0.6375741069416343
  0.1638613008925641  0.1226841667440998  0.6925254965051252
  0.5815442572621047  0.3406660054910848  0.8725068843431845
  0.8459681575559557  0.5189625134765288  0.7785191051347372
  0.3247461137693051  0.7678033107296254  0.0144871837497965
  0.1626139808810585  0.0357984500446114  0.6039267012665334
  0.9903683169631073  0.8160998030192893  0.3499599263218018
  0.6369187166472258  0.1728659820533884  0.8642219692785604
  0.0971771166712608  0.0293234966460508  0.2111084009363439
  0.3615166281381806  0.9016951839523124  0.3883599331503905
  0.4274403698951686  0.1862668511122539  0.3126685669145878
  0.0648762577145929  0.5409230850895226  0.3144830853248688
  0.1942214418121162  0.7844140634239259  0.7334986839816193
  0.9400941105294989  0.4633649018411147  0.1594419862037114
  0.6338977326861067  0.8647156864771073  0.8984275293037229
  0.7664530463845611  0.4505418669921506  0.0282127358383347
  0.9423861620277076  0.0765860695579466  0.2672414473028430
  0.5409805800301618  0.8993175191271819  0.2551304462259620
  0.4136544337891080  0.1179266538476613  0.6469050288951755
  0.3647956873670675  0.7566070918586494  0.8460246117146720
  0.8715170427269417  0.8272114096590910  0.7314191785280125
  0.0834147858807676  0.3525294430281546  0.1043792608943511
  0.4398019356831459  0.5115971683949799  0.7662402474662680
  0.1018268793054878  0.6189816621970152  0.2332001433077027
  0.0344850843419788  0.8093049920852401  0.6452695270447710
  0.1958603707770803  0.8821129914589982  0.5994576150252844
  0.3939540193366980  0.0754904994469379  0.3296831160709617
  0.4118295719833256  0.9823109855031036  0.4646995195550573
  0.7590608529253936  0.1115188506060742  0.6477782208363370
  0.5992636556362514  0.7864925556564338  0.5011378476433724
  0.4782620199827896  0.1836545558043011  0.7771661127686282
  0.7392002767311247  0.9118263964128800  0.6618545734174137
  0.4092080202826560  0.9541312448559356  0.6622121667920374
  0.4267733959922640  0.8199797769522358  0.2479288620882500
  0.8403814285514293  0.0711728728671364  0.0930212854494931
  0.6200325909091100  0.0184550268231834  0.4060883545072685
  0.0426551484564547  0.2255238944614997  0.3276407889944885
  0.3852011992795628  0.6659536114882473  0.9745323172646236
  0.8536907150459709  0.1970441610174870  0.0931693070837965
  0.3601362213797898  0.2653800333386740  0.3739839322492817
  0.4621184453967236  0.6486366038798967  0.7375366980204040
  0.9227189756630638  0.8909046478160978  0.5245985165309164
  0.2398341585629465  0.6110966476884121  0.6389488613983185
  0.3867037713448929  0.7279748293829323  0.3221795508391485
  0.4802698623281715  0.8613352174136253  0.8004839843199939
  0.0579669345674447  0.3102943359241806  0.7417636682904584
  0.7598567243468508  0.5962458023867540  0.9100211235944523
  0.1288973592547958  0.5561734701141079  0.6558064001905745
  0.6018497739362266  0.1689138646959686  0.7505566172472528
  0.7619669195586672  0.6063709916159316  0.2680039303726764
  0.7621249909106975  0.7320195654212226  0.0888615740674209
  0.8267182488011275  0.9174486329429977  0.0784483516931172
  0.6602245881886255  0.1383174727269368  0.5877771179000288
  0.1597000202580463  0.8775971275578295  0.0197551157800764
  0.8524190333212103  0.8307243259783043  0.2360562047803713
  0.3276959365345853  0.7119429851369795  0.4935026609164584
  0.0067558006390820  0.1033690412789330  0.1638575024175581
  0.7401221596883401  0.7784174098175528  0.6149773743553362
  0.3164705541568938  0.5081391594865439  0.8161643792850339
  0.7429591021520980  0.9096439615868801  0.2830945723395024
  0.1878975406215022  0.3432452249912672  0.1685515634067411
  0.3973221908139509  0.0596756498663675  0.8980193739932365
  0.2059077641574406  0.1389971237211949  0.5271507677289253
  0.2156949952822682  0.2127626472150041  0.7549973550601916
  0.1941565613559388  0.7650133696649932  0.6100954731460140
  0.5912713945627609  0.6801685712493073  0.8641639422733680
  0.6047634996352361  0.0324412332226118  0.7190479353404584
  0.5140509154180934  0.9400106074363460  0.0050852677247014
  0.9342920942729638  0.0015543746421112  0.4589526657394082
  0.5532038856087643  0.0885199645981839  0.0966194124819831
  0.3434648257111781  0.3188173624530029  0.8420607498888636
  0.8332254597225365  0.0479541492910703  0.2163395684894583
  0.4927360203977982  0.2190260671527820  0.6170782271052353
  0.5473337070617875  0.9505661389350887  0.8816935328780008
  0.7510089433410695  0.2439990801632718  0.2097712318940011
  0.0353367710675095  0.6379688565403732  0.6420206288579966
  0.0596947698674647  0.0970659106762364  0.7479599716268290
  0.1526896631695841  0.7795648190332136  0.1026455286120767
  0.6501501565839387  0.4212409969681720  0.0248520740399426
  0.5157950167307536  0.1793375563000610  0.3941996684117761
  0.5131975541353956  0.8768863994806299  0.5121479226947455
  0.0754400106882895  0.7558816993309441  0.7545386529943455
  0.7544506746138316  0.8189831912293132  0.7541659665747774
  0.0137218971047636  0.5971409553722021  0.8249727065427123
  0.1043798107138533  0.1930244010565783  0.5943587289545234
  0.5238940412976066  0.3771371103442481  0.1301749632582525
  0.6149094350284255  0.9097363909420981  0.6590396303244848
  0.3954633355837292  0.7491739831782134  0.1432893320849443
  0.3393991086673482  0.5927027040887514  0.2763393496500400
  0.6986868706333128  0.6386591017213268  0.8071377906383379
  0.3353625811602468  0.9353605240939423  0.9139357694901663
  0.6040784293717546  0.5555679120963505  0.0730103572916513
  0.6487215018801595  0.5249541697748890  0.4699024885454445
  0.2286724842577209  0.6906007888682396  0.0461451154065853
  0.0462792044427287  0.0045039837450653  0.3233720596879557
  0.8890885680930782  0.8036705681695862  0.4246822472191817
  0.8635808091665457  0.1838122747399856  0.5021876086491942
  0.9220681938505075  0.5210516387616834  0.8794429114362269
  0.6867476903509631  0.7228768807336029  0.9865536437008311
  0.0116446212704939  0.9809170098854726  0.1377630861142899
  0.7760920791304681  0.3708885079533489  0.6357621887749516
  0.6010043624357161  0.8187395613293889  0.0025502348760843
  0.0372122397003078  0.8373973546843522  0.4920460459891733
  0.2022079790845601  0.1261547352699189  0.3272420136549227
  0.7148567128118778  0.8685301822046014  0.1300591559197302
  0.0462426972888195  0.0796923343353850  0.6000919178778803
  0.2142710514394437  0.3050351480268287  0.6211885635971286
  0.3167135033702656  0.4284171883896730  0.4689447048997784
  0.8040930553854395  0.4377952410014544  0.9137272390408819
  0.8059282761518731  0.5617056422956157  0.0520549539683293
  0.6159152721149673  0.7511375310518672  0.6294811771750873
  0.1344014244437135  0.0906605784312514  0.4322015803276169
  0.2863380195802793  0.5507757172825393  0.0097301283561407
  0.4458867631295195  0.8137728501644175  0.3999299615842444
  0.4386018281982311  0.2091086517717770  0.1949768389805510
  0.3157126783941782  0.5866368492489727  0.5144578898780708
  0.6579584463330430  0.4648028675520497  0.8940312789415036
  0.7009378574198860  0.6668860694611146  0.3620705269281270
  0.7431725867401416  0.0490061285383609  0.4198243483226904
  0.7441999368166271  0.7359038706024239  0.4951520519079091
  0.3051921136005550  0.1317029821275860  0.8310108989341027
  0.4758402984407846  0.0747193867862809  0.5486575406252474
  0.6745961022827082  0.4460171566383136  0.6006066177587075
  0.0291234847827639  0.6356792816008688  0.1379346021210921
  0.1550863257455043  0.3660537787523023  0.8367813431730809
  0.3641890383578127  0.9066367895584448  0.7654452372704383
  0.2566834387627009  0.3222283603709825  0.5006448155213907
  0.2769402540371081  0.4930414207550249  0.2301236541209962
  0.1189310825172433  0.9361142106715938  0.5206924383375956
  0.8145710527195875  0.6364929457821058  0.5430806582589370
  0.8238462303285184  0.3650109642007733  0.0877200802079760
  0.6480673125129558  0.0767080320669972  0.9914028046602162
  0.3810917159389219  0.3760862667513221  0.1210913916287632
  0.4896504449073557  0.4996898343100835  0.4424645547478802
  0.2995247584455396  0.2118694208415539  0.6504657871824291
  0.9000855562878249  0.3092741062968922  0.4697081922466448
  0.2510656808189941  0.0359860920736900  0.7681797897001552
  0.4649556699046912  0.4147772654446265  0.8476189719579102
  0.1691182776368511  0.6651567255763647  0.9014060108838710
  0.1989298309576323  0.0419575839564029  0.1110001213110332
  0.8930890322658455  0.3979671909188542  0.2494193293671036
  0.3819754171870156  0.5549542638639773  0.4065962759218804
  0.3844211328801598  0.4799222091922393  0.6620779432443779
  0.9638965767577403  0.1455094714442488  0.4292759125609175
  0.2937182676549273  0.3536227463365922  0.9623085607127866
  0.5663601810010580  0.5298816941852018  0.7351414620588880
  0.5398288342560261  0.3317889457270884  0.3405979552651898
  0.6745962048473986  0.2044693995252258  0.0452877139245456
  0.0486029033541086  0.0422348191622385  0.9226930518973238
  0.6034468124678817  0.8241042897405603  0.3645383802455408
  0.7674030508971906  0.5216178035998448  0.4279435900371655
  0.9180491311229888  0.7672819973766692  0.6392447924132193
  0.0454848748800154  0.6623475116631439  0.9336285597937267
  0.1589477388940701  0.4404215830621362  0.4533329071548609
  0.3776942258477916  0.4034521489532227  0.2451896311962259
  0.0654650134787383  0.8174775580382732  0.2252632614807241
  0.6486766147136535  0.1444404210751232  0.1621258690751906
  0.1671691562179215  0.9944860454707417  0.9261957480755578
  0.3010635385058363  0.1650815213390945  0.2290730513214023
  0.6845568405843351  0.4330283410679385  0.2547801596328522
  0.9161421053518376  0.2816070532531368  0.1944514458235366
  0.5511053446596720  0.5154862604441951  0.6099536421088647
  0.6051280577098306  0.3399095636791136  0.5686093353438790
  0.5592633011428971  0.4350566023890436  0.2711525672128385
  0.2361440877596334  0.2387318480040896  0.9764387028465287
  0.6812146278457605  0.2697481232491368  0.9148025310831298
  0.1267237352853848  0.4189701029765699  0.0062475588315152
  0.4691255979331800  0.0418947119385987  0.7278586379594308
  0.5682368031653640  0.6778325534441831  0.0893493645526740
  0.2345968601444547  0.0734822952100377  0.9951563130280734
  0.5432632255507359  0.1452279903324792  0.9340948957668128
  0.6027893680285651  0.3336704409711407  0.7488641388250582
  0.6060049696666734  0.7897542566726635  0.8064270349602596
  0.7030530913362835  0.4969350161496937  0.7668985559130236
  0.4382934414814346  0.5534753157578467  0.1652263086941450
  0.4396604581157025  0.3847115560769855  0.4124424654492477
  0.1045557314105705  0.5504891100658381  0.4269647084907066
  0.2652746148376287  0.8525076754113208  0.4495245880846028
  0.6728495751244278  0.9882570950207541  0.1412243571630525
  0.1246365209437912  0.7266623206670925  0.4738929506958441
  0.4786669739741706  0.9963375601324218  0.3594767071452326
  0.2847766751129214  0.3145456573505770  0.2867666023259957
  0.3135178783226031  0.6489175771702290  0.8570160848472470
  0.8415487134191348  0.0646258169445471  0.5719114703432453
  0.9785370976151311  0.2495428463104978  0.6511044387936155
  0.4124665139446719  0.2032357489577967  0.0380816963756962
  0.9315825529848274  0.2070421934790939  0.9875277561166173
  0.6563043115923384  0.1887303927722990  0.3721397301262686
  0.9093363002078038  0.9438036583486442  0.8621362829027704
  0.8344880287223404  0.1414761798358618  0.9263204033571985
  0.9145858095288025  0.1880558546327281  0.3175058423753368
  0.0617100723518336  0.4676631060807589  0.1670750912200815
  0.1151991843173072  0.2425206137515528  0.0187189038739463
  0.1907994941007628  0.5743863358326139  0.1670025785330734
  0.0540591705136237  0.5142642383545858  0.0443309221347085
  0.0941751259696144  0.3961330621944453  0.6497133164806922
  0.2753116884867656  0.8135616939691647  0.9030649513272291
  0.1559002275227876  0.9368882149239747  0.3293990437364422
  0.0579865192021335  0.3270564804622841  0.9267946018710188
  0.1011855224196912  0.1459895794831812  0.8585673065573260
  0.6891589566719228  0.3158174292958875  0.1207527537528357
  0.3240975140828367  0.0361624055781276  0.2386931196561874
  0.2192480753370277  0.7624552833504181  0.3156855935245000
  0.5577975476327413  0.2598459851371449  0.1731236703835295
  0.9234225271374834  0.4883726725579818  0.4061415681677402
  0.9337078929618171  0.4210744930994728  0.0493857963949468
  0.0661437285310427  0.3548499499941286  0.4602701858127487
  0.3286550898664963  0.0716899676245162  0.4318485311378037
  0.9012225974710592  0.7348058702076946  0.3047224679870356
  0.2877098196034499  0.6643705468429536  0.1642695917445927
  0.9158013230537217  0.0740827548197459  0.8589500824708817
  0.0724896156604670  0.4231878426008646  0.2961300121740871
 -0.0008891519107505  0.3695839804744979  0.5663494931218120
  0.9747065121872240  0.9341953045522715  0.9756290928885075
  0.7232454146576984  0.8539124275784363  0.3924610879890316
  0.4584550095292939  0.7566883879913446  0.9190730970288712
  0.0419764947807695  0.6931187329036603  0.3812579722744850
  0.3042928608476432  0.9145962505637857  0.5562203469773427
  0.7601927650730204  0.9723597069071428  0.9858688346944341
  0.8491670258435272  0.9734906738356367  0.3626202926022717
  0.4738456142173040  0.2935704304221418  0.7209624510786774
  0.0408294537978517  0.2609650245758031  0.2015404194162583
  0.3728712173258962  0.9240157232641308  0.0332696394254710
  0.0436000850230357  0.8303824435349867  0.9511181481517251
  0.9404553288041182  0.9160156369655136  0.2803277098195319
  0.8596158544464665  0.5565519728737376  0.1665107813846523
  0.9299971406513213  0.8070217066100936  0.8337255907956700
  0.9958551164749075  0.2315935293497058  0.8553700176746873
  0.7382146615287818  0.0287757299950328  0.7313389813026288
  0.3863711113910052  0.2482305464629894  0.5482774988533626
  0.4863497154353503  0.5219807672928589  0.0521992445417779
  0.1840492260009348  0.5415111320916055  0.9301232779463545
  0.8849067857273346  0.9429637455844492  0.7106278215926494
  0.9824631962740615  0.4150127413806797  0.8199159825595119
  0.4295267369609694  0.7332940256141970  0.5689616282901804
  0.4044023750573787  0.6093076025466883  0.6284143230169957
  0.4477784945354726  0.0561360932054358  0.1738170785231839
  0.7503121673888472  0.8968054903121138  0.8853225159352187
  0.2782873080957893  0.2030525536748073  0.1029216492625091
  0.6168121268118385  0.9536407860190145  0.5307659763242998
  0.4753822691697043  0.9341258253008244  0.1503344958313420
  0.0104679799760698  0.9262390334817862  0.6921831219105672
  0.7307391879075559  0.3714835907447539  0.7640606197293739
  0.4021313471855228  0.0780828786581307  0.0260693330518936
  0.1758525208557266  0.2469321645312584  0.3451581182395069
  0.8885365106094959  0.3141168229333269  0.8256372915576673
  0.7582202481609193  0.9738246387837024  0.5376649866344525
  0.2733279015680486  0.3915663242819289  0.7693064263271160
  0.8003198689416237  0.2053705231285211  0.7091307107206419
  0.0964911823085471  0.4905340090643120  0.8259084435285601
  0.2601202733419857  0.4106523392616137  0.0911854495281949
  0.6272575442743069  0.6356893093679765  0.5681514279188861
  0.5955097597239394  0.5995446281207085  0.3792786514910778
  0.5125226396310100  0.3334731034580057  0.0105221389679168
  0.8458771963368170  0.6395499831068152  0.7555712503003452
  0.9703909700672306  0.8065557537447083  0.1267137623799279
  0.7409026073410550  0.1209064471374897  0.3041472174106153
  0.3071381870925466  0.0262932508933913  0.6511861265255494
  0.7283749086131065  0.5828745273932724  0.6313863324093961
  0.4029386598376825  0.7665560750034011  0.7317885849040080
  0.3657016034417511  0.4830900278721577  0.9297724889365139
  0.9195357658767801  0.6728995009545317  0.0247544296328432
  0.9212585296611011  0.1626932623943343  0.7250869841445107
  0.2571206196135373  0.9196795678669263  0.0979119926033010
  0.5412073707937350  0.5119981515789397  0.8894445724200398
  0.7895103338186260  0.3579933513233547  0.4984730169237273
  0.2197322081282876  0.6752390205333010  0.4038381411770078
  0.6441346013978779  0.7456477584597352  0.2618535965669812
  0.7124751984661792  0.0807803336492673  0.8790200254049747
  0.9337645751283339  0.4746333197171896  0.7036938171483855
  0.9468601308891402  0.5657977616106771  0.3129842594828049
  0.6733764015910669  0.2942552154738442  0.3039688641516030
  0.5207835317221140  0.6899655043742163  0.4880484220967811
  0.5905304020985808  0.8231845579430032  0.1707871777675203
  0.2204086627401964  0.6594002285053079  0.7598364030951823
  0.9845882499373296  0.5779248733887572  0.5422849423092724
  0.6853283725171260  0.6499889361693586  0.1730931288735036
  0.5110618975199485  0.7015606546465446  0.2837188897203368
  0.8801364583651923  0.5241112446117331  0.5928716269635752
  0.1605384123766332  0.9364445166079268  0.6982948416382662
  0.3249269544793048  0.8897877666942843  0.2739473077384980
  0.6338512377018473  0.9904494517346722  0.2639170131456310
  0.8590717921509393  0.3245042371844682  0.9481767715599719
  0.7272888702191970  0.2338037905601415  0.5265899653984445
  0.4936589819392894  0.4034378119515514  0.6110397323361467
  0.8621080812704485  0.6662271402715364  0.8766896413850651
  0.8725916528307078  0.7964630131796454  0.0315736009672148
  0.9328113357766024  0.6896023364340876  0.4892451029399661
  0.1584617142655776  0.1723515860684549  0.1316155270883754
  0.4866229401857862  0.2517008423057437  0.8803368721583933
  0.7370570712720591  0.4121434225484459  0.3694490427676190
 
  0.00000000E+00  0.00000000E+00  0.00000000E+00
  0.00000000E+00  0.00000000E+00  0.00000000E+00
  0.00000000E+00  0.00000000E+00  0.00000000E+00
  0.00000000E+00  0.00000000E+00  0.00000000E+00
  0.00000000E+00  0.00000000E+00  0.00000000E+00
  0.00000000E+00  0.00000000E+00  0.00000000E+00
  0.00000000E+00  0.00000000E+00  0.00000000E+00
  0.00000000E+00  0.00000000E+00  0.00000000E+00
  0.00000000E+00  0.00000000E+00  0.00000000E+00
  0.00000000E+00  0.00000000E+00  0.00000000E+00
  0.00000000E+00  0.00000000E+00  0.00000000E+00
  0.00000000E+00  0.00000000E+00  0.00000000E+00
  0.00000000E+00  0.00000000E+00  0.00000000E+00
  0.00000000E+00  0.00000000E+00  0.00000000E+00
  0.00000000E+00  0.00000000E+00  0.00000000E+00
  0.00000000E+00  0.00000000E+00  0.00000000E+00
  0.00000000E+00  0.00000000E+00  0.00000000E+00
  0.00000000E+00  0.00000000E+00  0.00000000E+00
  0.00000000E+00  0.00000000E+00  0.00000000E+00
  0.00000000E+00  0.00000000E+00  0.00000000E+00
  0.00000000E+00  0.00000000E+00  0.00000000E+00
  0.00000000E+00  0.00000000E+00  0.00000000E+00
  0.00000000E+00  0.00000000E+00  0.00000000E+00
  0.00000000E+00  0.00000000E+00  0.00000000E+00
  0.00000000E+00  0.00000000E+00  0.00000000E+00
  0.00000000E+00  0.00000000E+00  0.00000000E+00
  0.00000000E+00  0.00000000E+00  0.00000000E+00
  0.00000000E+00  0.00000000E+00  0.00000000E+00
  0.00000000E+00  0.00000000E+00  0.00000000E+00
  0.00000000E+00  0.00000000E+00  0.00000000E+00
  0.00000000E+00  0.00000000E+00  0.00000000E+00
  0.00000000E+00  0.00000000E+00  0.00000000E+00
  0.00000000E+00  0.00000000E+00  0.00000000E+00
  0.00000000E+00  0.00000000E+00  0.00000000E+00
  0.00000000E+00  0.00000000E+00  0.00000000E+00
  0.00000000E+00  0.00000000E+00  0.00000000E+00
  0.00000000E+00  0.00000000E+00  0.00000000E+00
  0.00000000E+00  0.00000000E+00  0.00000000E+00
  0.00000000E+00  0.00000000E+00  0.00000000E+00
  0.00000000E+00  0.00000000E+00  0.00000000E+00
  0.00000000E+00  0.00000000E+00  0.00000000E+00
  0.00000000E+00  0.00000000E+00  0.00000000E+00
  0.00000000E+00  0.00000000E+00  0.00000000E+00
  0.00000000E+00  0.00000000E+00  0.00000000E+00
  0.00000000E+00  0.00000000E+00  0.00000000E+00
  0.00000000E+00  0.00000000E+00  0.00000000E+00
  0.00000000E+00  0.00000000E+00  0.00000000E+00
  0.00000000E+00  0.00000000E+00  0.00000000E+00
  0.00000000E+00  0.00000000E+00  0.00000000E+00
  0.00000000E+00  0.00000000E+00  0.00000000E+00
  0.00000000E+00  0.00000000E+00  0.00000000E+00
  0.00000000E+00  0.00000000E+00  0.00000000E+00
  0.00000000E+00  0.00000000E+00  0.00000000E+00
  0.00000000E+00  0.00000000E+00  0.00000000E+00
  0.00000000E+00  0.00000000E+00  0.00000000E+00
  0.00000000E+00  0.00000000E+00  0.00000000E+00
  0.00000000E+00  0.00000000E+00  0.00000000E+00
  0.00000000E+00  0.00000000E+00  0.00000000E+00
  0.00000000E+00  0.00000000E+00  0.00000000E+00
  0.00000000E+00  0.00000000E+00  0.00000000E+00
  0.00000000E+00  0.00000000E+00  0.00000000E+00
  0.00000000E+00  0.00000000E+00  0.00000000E+00
  0.00000000E+00  0.00000000E+00  0.00000000E+00
  0.00000000E+00  0.00000000E+00  0.00000000E+00
  0.00000000E+00  0.00000000E+00  0.00000000E+00
  0.00000000E+00  0.00000000E+00  0.00000000E+00
  0.00000000E+00  0.00000000E+00  0.00000000E+00
  0.00000000E+00  0.00000000E+00  0.00000000E+00
  0.00000000E+00  0.00000000E+00  0.00000000E+00
  0.00000000E+00  0.00000000E+00  0.00000000E+00
  0.00000000E+00  0.00000000E+00  0.00000000E+00
  0.00000000E+00  0.00000000E+00  0.00000000E+00
  0.00000000E+00  0.00000000E+00  0.00000000E+00
  0.00000000E+00  0.00000000E+00  0.00000000E+00
  0.00000000E+00  0.00000000E+00  0.00000000E+00
  0.00000000E+00  0.00000000E+00  0.00000000E+00
  0.00000000E+00  0.00000000E+00  0.00000000E+00
  0.00000000E+00  0.00000000E+00  0.00000000E+00
  0.00000000E+00  0.00000000E+00  0.00000000E+00
  0.00000000E+00  0.00000000E+00  0.00000000E+00
  0.00000000E+00  0.00000000E+00  0.00000000E+00
  0.00000000E+00  0.00000000E+00  0.00000000E+00
  0.00000000E+00  0.00000000E+00  0.00000000E+00
  0.00000000E+00  0.00000000E+00  0.00000000E+00
  0.00000000E+00  0.00000000E+00  0.00000000E+00
  0.00000000E+00  0.00000000E+00  0.00000000E+00
  0.00000000E+00  0.00000000E+00  0.00000000E+00
  0.00000000E+00  0.00000000E+00  0.00000000E+00
  0.00000000E+00  0.00000000E+00  0.00000000E+00
  0.00000000E+00  0.00000000E+00  0.00000000E+00
  0.00000000E+00  0.00000000E+00  0.00000000E+00
  0.00000000E+00  0.00000000E+00  0.00000000E+00
  0.00000000E+00  0.00000000E+00  0.00000000E+00
  0.00000000E+00  0.00000000E+00  0.00000000E+00
  0.00000000E+00  0.00000000E+00  0.00000000E+00
  0.00000000E+00  0.00000000E+00  0.00000000E+00
  0.00000000E+00  0.00000000E+00  0.00000000E+00
  0.00000000E+00  0.00000000E+00  0.00000000E+00
  0.00000000E+00  0.00000000E+00  0.00000000E+00
  0.00000000E+00  0.00000000E+00  0.00000000E+00
  0.00000000E+00  0.00000000E+00  0.00000000E+00
  0.00000000E+00  0.00000000E+00  0.00000000E+00
  0.00000000E+00  0.00000000E+00  0.00000000E+00
  0.00000000E+00  0.00000000E+00  0.00000000E+00
  0.00000000E+00  0.00000000E+00  0.00000000E+00
  0.00000000E+00  0.00000000E+00  0.00000000E+00
  0.00000000E+00  0.00000000E+00  0.00000000E+00
  0.00000000E+00  0.00000000E+00  0.00000000E+00
  0.00000000E+00  0.00000000E+00  0.00000000E+00
  0.00000000E+00  0.00000000E+00  0.00000000E+00
  0.00000000E+00  0.00000000E+00  0.00000000E+00
  0.00000000E+00  0.00000000E+00  0.00000000E+00
  0.00000000E+00  0.00000000E+00  0.00000000E+00
  0.00000000E+00  0.00000000E+00  0.00000000E+00
  0.00000000E+00  0.00000000E+00  0.00000000E+00
  0.00000000E+00  0.00000000E+00  0.00000000E+00
  0.00000000E+00  0.00000000E+00  0.00000000E+00
  0.00000000E+00  0.00000000E+00  0.00000000E+00
  0.00000000E+00  0.00000000E+00  0.00000000E+00
  0.00000000E+00  0.00000000E+00  0.00000000E+00
  0.00000000E+00  0.00000000E+00  0.00000000E+00
  0.00000000E+00  0.00000000E+00  0.00000000E+00
  0.00000000E+00  0.00000000E+00  0.00000000E+00
  0.00000000E+00  0.00000000E+00  0.00000000E+00
  0.00000000E+00  0.00000000E+00  0.00000000E+00
  0.00000000E+00  0.00000000E+00  0.00000000E+00
  0.00000000E+00  0.00000000E+00  0.00000000E+00
  0.00000000E+00  0.00000000E+00  0.00000000E+00
  0.00000000E+00  0.00000000E+00  0.00000000E+00
  0.00000000E+00  0.00000000E+00  0.00000000E+00
  0.00000000E+00  0.00000000E+00  0.00000000E+00
  0.00000000E+00  0.00000000E+00  0.00000000E+00
  0.00000000E+00  0.00000000E+00  0.00000000E+00
  0.00000000E+00  0.00000000E+00  0.00000000E+00
  0.00000000E+00  0.00000000E+00  0.00000000E+00
  0.00000000E+00  0.00000000E+00  0.00000000E+00
  0.00000000E+00  0.00000000E+00  0.00000000E+00
  0.00000000E+00  0.00000000E+00  0.00000000E+00
  0.00000000E+00  0.00000000E+00  0.00000000E+00
  0.00000000E+00  0.00000000E+00  0.00000000E+00
  0.00000000E+00  0.00000000E+00  0.00000000E+00
  0.00000000E+00  0.00000000E+00  0.00000000E+00
  0.00000000E+00  0.00000000E+00  0.00000000E+00
  0.00000000E+00  0.00000000E+00  0.00000000E+00
  0.00000000E+00  0.00000000E+00  0.00000000E+00
  0.00000000E+00  0.00000000E+00  0.00000000E+00
  0.00000000E+00  0.00000000E+00  0.00000000E+00
  0.00000000E+00  0.00000000E+00  0.00000000E+00
  0.00000000E+00  0.00000000E+00  0.00000000E+00
  0.00000000E+00  0.00000000E+00  0.00000000E+00
  0.00000000E+00  0.00000000E+00  0.00000000E+00
  0.00000000E+00  0.00000000E+00  0.00000000E+00
  0.00000000E+00  0.00000000E+00  0.00000000E+00
  0.00000000E+00  0.00000000E+00  0.00000000E+00
  0.00000000E+00  0.00000000E+00  0.00000000E+00
  0.00000000E+00  0.00000000E+00  0.00000000E+00
  0.00000000E+00  0.00000000E+00  0.00000000E+00
  0.00000000E+00  0.00000000E+00  0.00000000E+00
  0.00000000E+00  0.00000000E+00  0.00000000E+00
  0.00000000E+00  0.00000000E+00  0.00000000E+00
  0.00000000E+00  0.00000000E+00  0.00000000E+00
  0.00000000E+00  0.00000000E+00  0.00000000E+00
  0.00000000E+00  0.00000000E+00  0.00000000E+00
  0.00000000E+00  0.00000000E+00  0.00000000E+00
  0.00000000E+00  0.00000000E+00  0.00000000E+00
  0.00000000E+00  0.00000000E+00  0.00000000E+00
  0.00000000E+00  0.00000000E+00  0.00000000E+00
  0.00000000E+00  0.00000000E+00  0.00000000E+00
  0.00000000E+00  0.00000000E+00  0.00000000E+00
  0.00000000E+00  0.00000000E+00  0.00000000E+00
  0.00000000E+00  0.00000000E+00  0.00000000E+00
  0.00000000E+00  0.00000000E+00  0.00000000E+00
  0.00000000E+00  0.00000000E+00  0.00000000E+00
  0.00000000E+00  0.00000000E+00  0.00000000E+00
  0.00000000E+00  0.00000000E+00  0.00000000E+00
  0.00000000E+00  0.00000000E+00  0.00000000E+00
  0.00000000E+00  0.00000000E+00  0.00000000E+00
  0.00000000E+00  0.00000000E+00  0.00000000E+00
  0.00000000E+00  0.00000000E+00  0.00000000E+00
  0.00000000E+00  0.00000000E+00  0.00000000E+00
  0.00000000E+00  0.00000000E+00  0.00000000E+00
  0.00000000E+00  0.00000000E+00  0.00000000E+00
  0.00000000E+00  0.00000000E+00  0.00000000E+00
  0.00000000E+00  0.00000000E+00  0.00000000E+00
  0.00000000E+00  0.00000000E+00  0.00000000E+00
  0.00000000E+00  0.00000000E+00  0.00000000E+00
  0.00000000E+00  0.00000000E+00  0.00000000E+00
  0.00000000E+00  0.00000000E+00  0.00000000E+00
  0.00000000E+00  0.00000000E+00  0.00000000E+00
  0.00000000E+00  0.00000000E+00  0.00000000E+00
  0.00000000E+00  0.00000000E+00  0.00000000E+00
  0.00000000E+00  0.00000000E+00  0.00000000E+00
  0.00000000E+00  0.00000000E+00  0.00000000E+00
  0.00000000E+00  0.00000000E+00  0.00000000E+00
  0.00000000E+00  0.00000000E+00  0.00000000E+00
  0.00000000E+00  0.00000000E+00  0.00000000E+00
  0.00000000E+00  0.00000000E+00  0.00000000E+00
  0.00000000E+00  0.00000000E+00  0.00000000E+00
  0.00000000E+00  0.00000000E+00  0.00000000E+00
  0.00000000E+00  0.00000000E+00  0.00000000E+00
  0.00000000E+00  0.00000000E+00  0.00000000E+00
  0.00000000E+00  0.00000000E+00  0.00000000E+00
  0.00000000E+00  0.00000000E+00  0.00000000E+00
  0.00000000E+00  0.00000000E+00  0.00000000E+00
  0.00000000E+00  0.00000000E+00  0.00000000E+00
  0.00000000E+00  0.00000000E+00  0.00000000E+00
  0.00000000E+00  0.00000000E+00  0.00000000E+00
  0.00000000E+00  0.00000000E+00  0.00000000E+00
  0.00000000E+00  0.00000000E+00  0.00000000E+00
  0.00000000E+00  0.00000000E+00  0.00000000E+00
  0.00000000E+00  0.00000000E+00  0.00000000E+00
  0.00000000E+00  0.00000000E+00  0.00000000E+00
  0.00000000E+00  0.00000000E+00  0.00000000E+00
  0.00000000E+00  0.00000000E+00  0.00000000E+00
  0.00000000E+00  0.00000000E+00  0.00000000E+00
  0.00000000E+00  0.00000000E+00  0.00000000E+00
  0.00000000E+00  0.00000000E+00  0.00000000E+00
  0.00000000E+00  0.00000000E+00  0.00000000E+00
  0.00000000E+00  0.00000000E+00  0.00000000E+00
  0.00000000E+00  0.00000000E+00  0.00000000E+00
  0.00000000E+00  0.00000000E+00  0.00000000E+00
  0.00000000E+00  0.00000000E+00  0.00000000E+00
  0.00000000E+00  0.00000000E+00  0.00000000E+00
  0.00000000E+00  0.00000000E+00  0.00000000E+00
  0.00000000E+00  0.00000000E+00  0.00000000E+00
  0.00000000E+00  0.00000000E+00  0.00000000E+00
  0.00000000E+00  0.00000000E+00  0.00000000E+00
  0.00000000E+00  0.00000000E+00  0.00000000E+00
  0.00000000E+00  0.00000000E+00  0.00000000E+00
  0.00000000E+00  0.00000000E+00  0.00000000E+00
  0.00000000E+00  0.00000000E+00  0.00000000E+00
  0.00000000E+00  0.00000000E+00  0.00000000E+00