Sb                                      
   1.00000000000000     
    17.3227300796500003    0.0000000000000000    0.0000000000000000
     0.0000000000000000   17.3273007965000012    0.0000000000000000
     0.0000000000000000    0.0000000000000000   17.3273007965000012
   As   S 
    66   132
Direct
  0.8779621555199925  0.4493264927879136  0.2179515954261332
  0.1107545454532326  0.4058262258083953  0.0556981444479942
  0.9294579532082532  0.6982212937902256  0.3254727613880223
  0.0702167281634891  0.2385490696854778  0.5713291164753751
  0.1121289491868934  0.9166435054897371  0.1416363589806025
  0.7724296220408473  0.9218619644706076  0.1617592130508189
  0.8549153165582317  0.5422184395380238  0.4412390730987772
  0.6516398228268246  0.4912231529859723  0.7084161265919640
  0.4499315856768942  0.1749198571983135  0.0748907586305240
  0.6992012298886467  0.6755017349665350  0.7119492368323799
  0.6765484520562144  0.3339452765197533  0.9972857789739950
  0.7328844780902082  0.1076588898125791  0.3159913880222598
  0.2901215265373401  0.4681602564970846  0.5286510182162607
  0.6206439552203438  0.4675887175050784  0.8497395936053579
  0.4808748522129335  0.2504259364843825  0.2620064460896118
  0.4999742570786695  0.1582808343298577  0.4160170540399021
  0.2415064478742300  0.5995916099390702  0.0831684315112029
  0.0977324094353847  0.7556361050569631  0.2669905144767668
  0.6719059014584350  0.0886406909360362  0.7489658693399525
  0.0440695319071079  0.9164453673158162  0.6484787899877439
  0.3059731921662686  0.9245921735382652  0.0850436106645977
  0.2388678595414510  0.9494620099784304  0.9015782997720891
  0.0103555936261070  0.9263922776529425  0.3161517867889010
  0.5365966241186588  0.4089469163410758  0.5635959699872557
  0.2911143746462755  0.0752374052780852  0.5574565416136602
  0.2235723890354879  0.1269172802128503  0.0128999216891587
  0.8171087217427659  0.6479036990561589  0.6328147273956056
  0.2374851404815487  0.3535318079393173  0.3641950595536925
  0.0694153576261326  0.7512300782609382  0.8928996675662333
  0.4004932784139665  0.5082191799053202  0.4453458456152173
  0.3038831897747868  0.7271918461606249  0.2373479821845214
  0.3142842135793537  0.5058455507749292  0.2562675409898015
  0.3584209048616419  0.7326124525936264  0.6786635040189117
  0.9007303441292900  0.8615209045224569  0.2045303324904909
  0.2020071517468537  0.1780199683391956  0.4161355969562210
  0.0785769528597383  0.5778008498652448  0.4709152144221699
  0.4074860538890298  0.4666497858000453  0.6144572617292100
  0.4892957981276139  0.6060947990140980  0.2418784728754674
  0.8788030462498241  0.9443035832403558  0.5529074871993176
  0.9399027985389120  0.1102618487602475  0.7311282912358341
  0.8250116032081796  0.7952728515252828  0.8353187872998544
  0.6983263131519083  0.0567959921774458  0.9463000353223677
  0.2783315083982288  0.3889648373371987  0.8611940091366285
  0.1343706664020620  0.5019587893860215  0.9477752208521361
  0.3518308191090451  0.6918099828996803  0.8747202700685159
  0.1907468437396352  0.1996294093686460  0.1869698299646450
  0.7370018486358065  0.6334387406081915  0.2932505973935722
  0.7522774083119863  0.5533818793918620  0.5457400901797131
  0.6794404541907165  0.8985798174638692  0.5842737870296433
  0.6051961960595208  0.2212699671963774  0.5700723595955098
  0.0578589973597293  0.4540387684300282  0.5406627188929218
  0.1986189137322297  0.8183015707337792  0.4918458482914548
  0.4288730484422957  0.6938611118467739  0.0619730404997267
  0.2772637996056735  0.1084346948527664  0.7351461301832112
  0.7460228493772045  0.6136161771138572  0.8392987439874232
  0.0494161451003153  0.4041374049677369  0.3251371714130517
  0.0580708664387714  0.5930021122735105  0.1557258597074271
  0.9342870725046765  0.2540519401554300  0.7504143369468912
  0.7503732162874641  0.3334603875518896  0.7995140490895081
  0.8621665144704330  0.3705493560833021  0.0251041649769630
  0.6305085294002161  0.2844342036975229  0.4353956632677972
  0.3670603581665191  0.1685261112886506  0.3161231384332300
  0.8632483671775990  0.2372528672610883  0.4188725200910123
  0.4415960561979745  0.1860032127465321  0.8779794718546250
  0.5463389570400246  0.7633380571951514  0.5338996960055835
  0.5360954437161308  0.9358965154868073  0.7808312244855403
  0.8664872989815423  0.1149897051470538  0.1871711521039428
  0.6191987318693106  0.6677921129724306  0.3565137435551725
  0.9361735523311123  0.1032406129550171  0.0940826256003147
  0.8060631488844481  0.2938699821444144  0.3099136163643270
  0.4167791850722283  0.6547014400669565  0.7602526516196684
  0.4328078320399880  0.0609987388896846  0.3558278248073068
  0.6399039253627354  0.0239966013698929  0.3591301249055410
  0.1852632974476521  0.8668692616809289  0.9805072412681000
  0.5440176145807870  0.2948794258291029  0.8896180975653328
  0.2370174983727004  0.3645876124209416  0.0744609620064899
  0.9048014895782350  0.6997583841434746  0.7861869691777967
  0.2118694401431721  0.0020689816389635  0.1392620019856724
  0.2614220030636752  0.5332635054770085  0.9694250423742393
  0.6140675464259200  0.9677057115543874  0.2573267964422656
  0.6634768975975107  0.1530853627164756  0.8664063652218746
  0.7878275778423894  0.8613060331420941  0.5127877431859628
  0.3581614878664438  0.4019088922196499  0.3287913303786499
  0.5118536589949112  0.0010570809942815  0.6696737327782761
  0.2532598396163336  0.3447895731243345  0.4942692719442071
  0.7411068968668000  0.7974219669896876  0.7333196318914048
  0.4152545300528366  0.5215884796755785  0.1696442932985004
  0.5525109841872529  0.8113630748923777  0.7239214906302228
  0.8507816774694612  0.8029419956542729  0.3101416044003319
  0.5367640269001840  0.3750400061604336  0.4353587307481623
  0.7256005229923748  0.3704063546597686  0.4802238588862814
  0.3687844430912902  0.1013193726563549  0.1548710901502001
  0.9293718707384364  0.9851008652626632  0.0619285945745437
  0.4036811801952365  0.7937195989584912  0.2378892458868764
  0.6827688679431444  0.5669151246158838  0.1866138088856367
  0.1257562170288483  0.1956928225525954  0.0751620254489110
  0.2733263562500000  0.4891649952777260  0.7684861642554321
  0.8613595705695752  0.6736378034512734  0.4360630576190432
  0.9377671879622279  0.4524200319838845  0.0981560236639405
  0.4505383233081803  0.6394378505466544  0.9441185288110328
  0.7564656762065691  0.5189554418216449  0.3496455750974495
  0.0575022429031171  0.0049372935071354  0.2243863127033933
  0.0742983954720897  0.1978850883613201  0.2518237719226879
  0.9013694364888314  0.3193073742205091  0.2434739339362289
  0.7567155036393097  0.1575949689800225  0.4365601975617032
  0.0851725789810771  0.9188880180329633  0.7764552968031402
  0.3671831913530205  0.0693676291624172  0.8152219055519203
  0.2816592006509180  0.2829099213144296  0.7816104624863069
  0.1692440558205524  0.9800453223674072  0.4140956566490144
  0.3675956448179337  0.2248433809184871  0.9812144144576267
  0.8232326281136982  0.5179442938028522  0.6504026260318940
  0.7213869549948908  0.1381734567008893  0.0492388459833125
  0.7543062152653047  0.7211260611531775  0.9140605895478494
  0.3439499556422904  0.5941856806821779  0.3498450154876772
  0.9617265106332169  0.1807611365787393  0.5669022565278402
  0.8905641417181800  0.9904126731645482  0.3306480197120729
  0.0761439940056125  0.6329294738399670  0.7223578170591487
  0.0829489370549001  0.5207461042851211  0.7615695664431491
  0.3925214116771910  0.8493225920821771  0.4302021895650785
  0.5739229463008254  0.0106525905930095  0.9666411080669218
  0.9945290680736298  0.3878261993869598  0.4456642833672985
  0.9849859347549238  0.5630110395648554  0.5619880838909804
  0.1433812284841989  0.0544489253794298  0.9297023846222426
  0.9621412379230072  0.6722890802151459  0.8857137913454084
  0.1238040705567649  0.6508585522218363  0.0525049671896033
  0.1294653403726854  0.4834424136126056  0.1626254369475591
  0.5795182584856295  0.5678456268315488  0.4027866210380876
  0.6856824321949183  0.8727167430067044  0.2478982949021729
  0.6694365242916281  0.9620034948590650  0.7800625839604634
  0.4454228056049237  0.7451689830203481  0.4504814736978834
  0.5400970898537345  0.5048900589193864  0.3066877366464200
  0.1644895180305638  0.4653313453763218  0.3569037947935815
  0.1054223387102466  0.2187617345798183  0.7011324299181926
  0.2602952622977811 -0.0013127996474830  0.6566703390076095
  0.9211738112776591  0.0989076647170073  0.2949512853746773
  0.1903616769420088  0.1580518381100788  0.8895225784683984
  0.4038902755883126  0.9884999648836245  0.1543469452583908
  0.7976858859818466  0.0314176788178447  0.6170564883797286
  0.0387374942390336  0.7471308400446625  0.3865977841860276
  0.9222369191397140  0.7610269808089098  0.1152748011641072
  0.5366921966245006  0.1135260094918706  0.5317147864464437
  0.9168755398784498  0.8986220134402865  0.6722933320276816
  0.6991000180523328  0.3705368925060510  0.6843585320388201
  0.7337966950829379  0.7305368105340704  0.1130362062843749
  0.1541262261417597  0.1276399996242089  0.5269862148918327
  0.8467083464255459  0.6748257141568913  0.1330121526447726
  0.5376082112386104  0.0996641789243572  0.7281465052637561
  0.1836561142705760  0.6245296878969918  0.5390084280145077
  0.9736100504550940  0.5114325012709757  0.2885968978275679
  0.6616894214620981  0.1993104894143263  0.2442250953986852
  0.4107233448993043  0.5851668130183117  0.5581510828706633
  0.8588246876763086  0.4132255919193604  0.8204832078864674
  0.5561435636454128  0.1502026054633053  0.2214692509657958
  0.4002405260754781  0.2784128263905669  0.7898650121206239
  0.3839362348667666  0.2188050165564309  0.4400134357238383
  0.2238624135119827  0.3319675310577321  0.1864696677025826
  0.9178628936008599  0.0738802315192210  0.8589353180903661
  0.2114063211116964  0.0663932030447678  0.3443462970512317
  0.2154536582950450  0.8099517961813536  0.2954337590901974
  0.7515291529136983  0.3906797635785217  0.0926189799596038
  0.4457499823229940  0.8245538199618224  0.0375205975612984
  0.9411754148303867  0.2569326214333841  0.8853573035406480
 -0.0121192487250098  0.1512167115234728  0.9134799895327251
  0.3858502266432527  0.8194911225316156  0.8608961014837728
  0.0625649098431487  0.7895185053604213  0.6189888140948674
  0.0527699218529455  0.9947771646386185  0.4236129575640098
  0.1386061436827514  0.6311743768547834  0.2545883435149441
  0.0076895661364942  0.8593656562113163  0.8409086767699121
  0.3202742797865878  0.8703949076691733  0.5216927040923933
  0.6280956054291748  0.5916572635394381  0.8921182788488381
  0.5891433493939506  0.6266103591957120  0.1504051321095758
  0.0876470756112255  0.2351536764266245  0.3625382809169327
  0.5667496924376587  0.3833701977828121  0.0516391932593868
  0.1438000979404948  0.7006906006892681  0.7927243634186542
  0.5878450005253111  0.8767515862342669  0.4884754772123107
  0.5021808035383435  0.3870519957851053  0.9493968347433138
  0.5294072136873591  0.4730364552004034  0.7564385331831874
  0.6373667144053041  0.2206711497306990  0.0562630986099511
  0.0365739624233835  0.9468529829982486  0.0311195568210513
  0.8041067329306465  0.2312290161232857  0.7363239113558963
  0.8309542868226454  0.4589496313145452  0.9259450759829710
  0.0740160671897801  0.1081142366116967  0.7270558772259864
  0.4201846581887025  0.2790260174513962  0.1475364262062694
  0.2991513355895654  0.7189303984940446  0.0505233121869149
  0.5960764814646449  0.8939110316858645  0.9520923944887588
  0.2304047170249095  0.6915018409750178  0.4550295311444392
  0.1757584074309503  0.4694586114159612  0.7056476594522210
  0.1811289626914466  0.7959619968552475  0.6191620276461691
  0.1505988027269383  0.3818385351857948  0.8857740989867128
  0.4690912841686081  0.8170721908299051  0.6406667065854194
  0.7570001432717450  0.8321627683974472  0.0626676411033259
  0.5018531872954196  0.2921524924388956  0.6093285571922989
  0.6970061796361308  0.0270639143925945  0.5572703882569950
  0.3132803307755153  0.8235636288650212  0.7665565256711380
  0.5642355863816225  0.8401402199419593  0.0521269436364957
  0.3448305758768638  0.1647244121516579  0.6309893083490479
  0.8164451013089897  0.3091465893339073  0.5228338367416856
  0.3370465786718072  0.9959777064830128  0.9780246145669348
 
  0.00000000E+00  0.00000000E+00  0.00000000E+00
  0.00000000E+00  0.00000000E+00  0.00000000E+00
  0.00000000E+00  0.00000000E+00  0.00000000E+00
  0.00000000E+00  0.00000000E+00  0.00000000E+00
  0.00000000E+00  0.00000000E+00  0.00000000E+00
  0.00000000E+00  0.00000000E+00  0.00000000E+00
  0.00000000E+00  0.00000000E+00  0.00000000E+00
  0.00000000E+00  0.00000000E+00  0.00000000E+00
  0.00000000E+00  0.00000000E+00  0.00000000E+00
  0.00000000E+00  0.00000000E+00  0.00000000E+00
  0.00000000E+00  0.00000000E+00  0.00000000E+00
  0.00000000E+00  0.00000000E+00  0.00000000E+00
  0.00000000E+00  0.00000000E+00  0.00000000E+00
  0.00000000E+00  0.00000000E+00  0.00000000E+00
  0.00000000E+00  0.00000000E+00  0.00000000E+00
  0.00000000E+00  0.00000000E+00  0.00000000E+00
  0.00000000E+00  0.00000000E+00  0.00000000E+00
  0.00000000E+00  0.00000000E+00  0.00000000E+00
  0.00000000E+00  0.00000000E+00  0.00000000E+00
  0.00000000E+00  0.00000000E+00  0.00000000E+00
  0.00000000E+00  0.00000000E+00  0.00000000E+00
  0.00000000E+00  0.00000000E+00  0.00000000E+00
  0.00000000E+00  0.00000000E+00  0.00000000E+00
  0.00000000E+00  0.00000000E+00  0.00000000E+00
  0.00000000E+00  0.00000000E+00  0.00000000E+00
  0.00000000E+00  0.00000000E+00  0.00000000E+00
  0.00000000E+00  0.00000000E+00  0.00000000E+00
  0.00000000E+00  0.00000000E+00  0.00000000E+00
  0.00000000E+00  0.00000000E+00  0.00000000E+00
  0.00000000E+00  0.00000000E+00  0.00000000E+00
  0.00000000E+00  0.00000000E+00  0.00000000E+00
  0.00000000E+00  0.00000000E+00  0.00000000E+00
  0.00000000E+00  0.00000000E+00  0.00000000E+00
  0.00000000E+00  0.00000000E+00  0.00000000E+00
  0.00000000E+00  0.00000000E+00  0.00000000E+00
  0.00000000E+00  0.00000000E+00  0.00000000E+00
  0.00000000E+00  0.00000000E+00  0.00000000E+00
  0.00000000E+00  0.00000000E+00  0.00000000E+00
  0.00000000E+00  0.00000000E+00  0.00000000E+00
  0.00000000E+00  0.00000000E+00  0.00000000E+00
  0.00000000E+00  0.00000000E+00  0.00000000E+00
  0.00000000E+00  0.00000000E+00  0.00000000E+00
  0.00000000E+00  0.00000000E+00  0.00000000E+00
  0.00000000E+00  0.00000000E+00  0.00000000E+00
  0.00000000E+00  0.00000000E+00  0.00000000E+00
  0.00000000E+00  0.00000000E+00  0.00000000E+00
  0.00000000E+00  0.00000000E+00  0.00000000E+00
  0.00000000E+00  0.00000000E+00  0.00000000E+00
  0.00000000E+00  0.00000000E+00  0.00000000E+00
  0.00000000E+00  0.00000000E+00  0.00000000E+00
  0.00000000E+00  0.00000000E+00  0.00000000E+00
  0.00000000E+00  0.00000000E+00  0.00000000E+00
  0.00000000E+00  0.00000000E+00  0.00000000E+00
  0.00000000E+00  0.00000000E+00  0.00000000E+00
  0.00000000E+00  0.00000000E+00  0.00000000E+00
  0.00000000E+00  0.00000000E+00  0.00000000E+00
  0.00000000E+00  0.00000000E+00  0.00000000E+00
  0.00000000E+00  0.00000000E+00  0.00000000E+00
  0.00000000E+00  0.00000000E+00  0.00000000E+00
  0.00000000E+00  0.00000000E+00  0.00000000E+00
  0.00000000E+00  0.00000000E+00  0.00000000E+00
  0.00000000E+00  0.00000000E+00  0.00000000E+00
  0.00000000E+00  0.00000000E+00  0.00000000E+00
  0.00000000E+00  0.00000000E+00  0.00000000E+00
  0.00000000E+00  0.00000000E+00  0.00000000E+00
  0.00000000E+00  0.00000000E+00  0.00000000E+00
  0.00000000E+00  0.00000000E+00  0.00000000E+00
  0.00000000E+00  0.00000000E+00  0.00000000E+00
  0.00000000E+00  0.00000000E+00  0.00000000E+00
  0.00000000E+00  0.00000000E+00  0.00000000E+00
  0.00000000E+00  0.00000000E+00  0.00000000E+00
  0.00000000E+00  0.00000000E+00  0.00000000E+00
  0.00000000E+00  0.00000000E+00  0.00000000E+00
  0.00000000E+00  0.00000000E+00  0.00000000E+00
  0.00000000E+00  0.00000000E+00  0.00000000E+00
  0.00000000E+00  0.00000000E+00  0.00000000E+00
  0.00000000E+00  0.00000000E+00  0.00000000E+00
  0.00000000E+00  0.00000000E+00  0.00000000E+00
  0.00000000E+00  0.00000000E+00  0.00000000E+00
  0.00000000E+00  0.00000000E+00  0.00000000E+00
  0.00000000E+00  0.00000000E+00  0.00000000E+00
  0.00000000E+00  0.00000000E+00  0.00000000E+00
  0.00000000E+00  0.00000000E+00  0.00000000E+00
  0.00000000E+00  0.00000000E+00  0.00000000E+00
  0.00000000E+00  0.00000000E+00  0.00000000E+00
  0.00000000E+00  0.00000000E+00  0.00000000E+00
  0.00000000E+00  0.00000000E+00  0.00000000E+00
  0.00000000E+00  0.00000000E+00  0.00000000E+00
  0.00000000E+00  0.00000000E+00  0.00000000E+00
  0.00000000E+00  0.00000000E+00  0.00000000E+00
  0.00000000E+00  0.00000000E+00  0.00000000E+00
  0.00000000E+00  0.00000000E+00  0.00000000E+00
  0.00000000E+00  0.00000000E+00  0.00000000E+00
  0.00000000E+00  0.00000000E+00  0.00000000E+00
  0.00000000E+00  0.00000000E+00  0.00000000E+00
  0.00000000E+00  0.00000000E+00  0.00000000E+00
  0.00000000E+00  0.00000000E+00  0.00000000E+00
  0.00000000E+00  0.00000000E+00  0.00000000E+00
  0.00000000E+00  0.00000000E+00  0.00000000E+00
  0.00000000E+00  0.00000000E+00  0.00000000E+00
  0.00000000E+00  0.00000000E+00  0.00000000E+00
  0.00000000E+00  0.00000000E+00  0.00000000E+00
  0.00000000E+00  0.00000000E+00  0.00000000E+00
  0.00000000E+00  0.00000000E+00  0.00000000E+00
  0.00000000E+00  0.00000000E+00  0.00000000E+00
  0.00000000E+00  0.00000000E+00  0.00000000E+00
  0.00000000E+00  0.00000000E+00  0.00000000E+00
  0.00000000E+00  0.00000000E+00  0.00000000E+00
  0.00000000E+00  0.00000000E+00  0.00000000E+00
  0.00000000E+00  0.00000000E+00  0.00000000E+00
  0.00000000E+00  0.00000000E+00  0.00000000E+00
  0.00000000E+00  0.00000000E+00  0.00000000E+00
  0.00000000E+00  0.00000000E+00  0.00000000E+00
  0.00000000E+00  0.00000000E+00  0.00000000E+00
  0.00000000E+00  0.00000000E+00  0.00000000E+00
  0.00000000E+00  0.00000000E+00  0.00000000E+00
  0.00000000E+00  0.00000000E+00  0.00000000E+00
  0.00000000E+00  0.00000000E+00  0.00000000E+00
  0.00000000E+00  0.00000000E+00  0.00000000E+00
  0.00000000E+00  0.00000000E+00  0.00000000E+00
  0.00000000E+00  0.00000000E+00  0.00000000E+00
  0.00000000E+00  0.00000000E+00  0.00000000E+00
  0.00000000E+00  0.00000000E+00  0.00000000E+00
  0.00000000E+00  0.00000000E+00  0.00000000E+00
  0.00000000E+00  0.00000000E+00  0.00000000E+00
  0.00000000E+00  0.00000000E+00  0.00000000E+00
  0.00000000E+00  0.00000000E+00  0.00000000E+00
  0.00000000E+00  0.00000000E+00  0.00000000E+00
  0.00000000E+00  0.00000000E+00  0.00000000E+00
  0.00000000E+00  0.00000000E+00  0.00000000E+00
  0.00000000E+00  0.00000000E+00  0.00000000E+00
  0.00000000E+00  0.00000000E+00  0.00000000E+00
  0.00000000E+00  0.00000000E+00  0.00000000E+00
  0.00000000E+00  0.00000000E+00  0.00000000E+00
  0.00000000E+00  0.00000000E+00  0.00000000E+00
  0.00000000E+00  0.00000000E+00  0.00000000E+00
  0.00000000E+00  0.00000000E+00  0.00000000E+00
  0.00000000E+00  0.00000000E+00  0.00000000E+00
  0.00000000E+00  0.00000000E+00  0.00000000E+00
  0.00000000E+00  0.00000000E+00  0.00000000E+00
  0.00000000E+00  0.00000000E+00  0.00000000E+00
  0.00000000E+00  0.00000000E+00  0.00000000E+00
  0.00000000E+00  0.00000000E+00  0.00000000E+00
  0.00000000E+00  0.00000000E+00  0.00000000E+00
  0.00000000E+00  0.00000000E+00  0.00000000E+00
  0.00000000E+00  0.00000000E+00  0.00000000E+00
  0.00000000E+00  0.00000000E+00  0.00000000E+00
  0.00000000E+00  0.00000000E+00  0.00000000E+00
  0.00000000E+00  0.00000000E+00  0.00000000E+00
  0.00000000E+00  0.00000000E+00  0.00000000E+00
  0.00000000E+00  0.00000000E+00  0.00000000E+00
  0.00000000E+00  0.00000000E+00  0.00000000E+00
  0.00000000E+00  0.00000000E+00  0.00000000E+00
  0.00000000E+00  0.00000000E+00  0.00000000E+00
  0.00000000E+00  0.00000000E+00  0.00000000E+00
  0.00000000E+00  0.00000000E+00  0.00000000E+00
  0.00000000E+00  0.00000000E+00  0.00000000E+00
  0.00000000E+00  0.00000000E+00  0.00000000E+00
  0.00000000E+00  0.00000000E+00  0.00000000E+00
  0.00000000E+00  0.00000000E+00  0.00000000E+00
  0.00000000E+00  0.00000000E+00  0.00000000E+00
  0.00000000E+00  0.00000000E+00  0.00000000E+00
  0.00000000E+00  0.00000000E+00  0.00000000E+00
  0.00000000E+00  0.00000000E+00  0.00000000E+00
  0.00000000E+00  0.00000000E+00  0.00000000E+00
  0.00000000E+00  0.00000000E+00  0.00000000E+00
  0.00000000E+00  0.00000000E+00  0.00000000E+00
  0.00000000E+00  0.00000000E+00  0.00000000E+00
  0.00000000E+00  0.00000000E+00  0.00000000E+00
  0.00000000E+00  0.00000000E+00  0.00000000E+00
  0.00000000E+00  0.00000000E+00  0.00000000E+00
  0.00000000E+00  0.00000000E+00  0.00000000E+00
  0.00000000E+00  0.00000000E+00  0.00000000E+00
  0.00000000E+00  0.00000000E+00  0.00000000E+00
  0.00000000E+00  0.00000000E+00  0.00000000E+00
  0.00000000E+00  0.00000000E+00  0.00000000E+00
  0.00000000E+00  0.00000000E+00  0.00000000E+00
  0.00000000E+00  0.00000000E+00  0.00000000E+00
  0.00000000E+00  0.00000000E+00  0.00000000E+00
  0.00000000E+00  0.00000000E+00  0.00000000E+00
  0.00000000E+00  0.00000000E+00  0.00000000E+00
  0.00000000E+00  0.00000000E+00  0.00000000E+00
  0.00000000E+00  0.00000000E+00  0.00000000E+00
  0.00000000E+00  0.00000000E+00  0.00000000E+00
  0.00000000E+00  0.00000000E+00  0.00000000E+00
  0.00000000E+00  0.00000000E+00  0.00000000E+00
  0.00000000E+00  0.00000000E+00  0.00000000E+00
  0.00000000E+00  0.00000000E+00  0.00000000E+00
  0.00000000E+00  0.00000000E+00  0.00000000E+00
  0.00000000E+00  0.00000000E+00  0.00000000E+00
  0.00000000E+00  0.00000000E+00  0.00000000E+00
  0.00000000E+00  0.00000000E+00  0.00000000E+00
  0.00000000E+00  0.00000000E+00  0.00000000E+00
  0.00000000E+00  0.00000000E+00  0.00000000E+00
  0.00000000E+00  0.00000000E+00  0.00000000E+00
  0.00000000E+00  0.00000000E+00  0.00000000E+00
  0.00000000E+00  0.00000000E+00  0.00000000E+00
  0.00000000E+00  0.00000000E+00  0.00000000E+00
