In2O3 structure 14 - random placement wi
   1.00000000000000     
     7.9574189015833063    0.0795444325091215   -0.0047606985346849
     0.0797421122186679    8.0005629181701305    0.0204309771947367
    -0.0055758089507098    0.0207170084773826    8.2346630448028026
   In   Ga   O 
    14     2    24
Direct
  0.7192261774072790  0.9915455132191440  0.0015515147310552
  0.9423477221404539  0.1993412085067803  0.2683049954532208
  0.2264771491917230  0.4776820705965150  0.0041474620738882
  0.7051078193319995  0.9536634744938155  0.5113368683440171
  0.9712937268760200  0.7337349617183335  0.7401737566758868
  0.4796653564967386  0.7330690213704187  0.7386288206988425
  0.6745650945444126  0.4584358397033910  0.4872757405256749
  0.9482197805525487  0.2383424682222923  0.7650765249199480
  0.2195054146123923  0.9894568006818929  0.0113024956537444
  0.7251854410872340  0.4996254370027202  0.0184261969559358
  0.2002971202074946  0.4465218109966997  0.5400771178478223
  0.9583848510443076  0.7040048953090690  0.2440180882423775
  0.1958994135660390  0.9487359241580933  0.5259891048571248
  0.4525160058405646  0.7324171668994452  0.2277020176633044
  0.4207111793755161  0.1523328090208409  0.3154029497320323
  0.4706239500694736  0.2281303706454736  0.7522592553352254
  0.4505069869291844  0.8469299069867802  0.4682718661050203
  0.4804607033104205  0.9926703318755941  0.1321959657644456
  0.7284877803383338  0.6904776957191885  0.6228979885796306
  0.9795634653612311  0.4405637969913982  0.1404258303662118
  0.1884744016929929  0.0704884614809345  0.2807713018880662
  0.8405045164249927  0.7440494513185669  0.9718920375955307
  0.6929423943555690  0.2859341701865574  0.8643519352220110
  0.5804585288968696  0.9978282571031656  0.7622281907725039
  0.9427301438787481  0.3389842802793126  0.5039938689639669
  0.9451695417066119  0.9977036994320727  0.6389194731471193
  0.1969935138172261  0.7336423872589179  0.1210738981370980
  0.0748320051350575  0.4816253174126288  0.7825232175723045
  0.3871477956157179  0.4845771233927110  0.3417029830857459
  0.6982862856083898  0.6016730328935509  0.2651701571906386
  0.2282732869435407  0.8450589560474597  0.7788895033986094
  0.6462832055453305  0.2025632364764789  0.3925404550435090
  0.9647562454609755  0.1060105620287430  0.9984913712306209
  0.4559919336513474  0.4662063034025437  0.6598301779834301
  0.0866001933759790  0.6965430235609062  0.4841284423737164
  0.8315289156709653  0.9454629624715452  0.2737461640172825
  0.2891683406797227  0.2288154455210503  0.9021678811658518
  0.3274936896053617  0.1886041247227652  0.5500978147028164
  0.3861702310057780  0.3669316443095454  0.2034223824038861
  0.4780208565471185  0.6151410982221535  0.9783310197022317
 
  0.00000000E+00  0.00000000E+00  0.00000000E+00
  0.00000000E+00  0.00000000E+00  0.00000000E+00
  0.00000000E+00  0.00000000E+00  0.00000000E+00
  0.00000000E+00  0.00000000E+00  0.00000000E+00
  0.00000000E+00  0.00000000E+00  0.00000000E+00
  0.00000000E+00  0.00000000E+00  0.00000000E+00
  0.00000000E+00  0.00000000E+00  0.00000000E+00
  0.00000000E+00  0.00000000E+00  0.00000000E+00
  0.00000000E+00  0.00000000E+00  0.00000000E+00
  0.00000000E+00  0.00000000E+00  0.00000000E+00
  0.00000000E+00  0.00000000E+00  0.00000000E+00
  0.00000000E+00  0.00000000E+00  0.00000000E+00
  0.00000000E+00  0.00000000E+00  0.00000000E+00
  0.00000000E+00  0.00000000E+00  0.00000000E+00
  0.00000000E+00  0.00000000E+00  0.00000000E+00
  0.00000000E+00  0.00000000E+00  0.00000000E+00
  0.00000000E+00  0.00000000E+00  0.00000000E+00
  0.00000000E+00  0.00000000E+00  0.00000000E+00
  0.00000000E+00  0.00000000E+00  0.00000000E+00
  0.00000000E+00  0.00000000E+00  0.00000000E+00
  0.00000000E+00  0.00000000E+00  0.00000000E+00
  0.00000000E+00  0.00000000E+00  0.00000000E+00
  0.00000000E+00  0.00000000E+00  0.00000000E+00
  0.00000000E+00  0.00000000E+00  0.00000000E+00
  0.00000000E+00  0.00000000E+00  0.00000000E+00
  0.00000000E+00  0.00000000E+00  0.00000000E+00
  0.00000000E+00  0.00000000E+00  0.00000000E+00
  0.00000000E+00  0.00000000E+00  0.00000000E+00
  0.00000000E+00  0.00000000E+00  0.00000000E+00
  0.00000000E+00  0.00000000E+00  0.00000000E+00
  0.00000000E+00  0.00000000E+00  0.00000000E+00
  0.00000000E+00  0.00000000E+00  0.00000000E+00
  0.00000000E+00  0.00000000E+00  0.00000000E+00
  0.00000000E+00  0.00000000E+00  0.00000000E+00
  0.00000000E+00  0.00000000E+00  0.00000000E+00
  0.00000000E+00  0.00000000E+00  0.00000000E+00
  0.00000000E+00  0.00000000E+00  0.00000000E+00
  0.00000000E+00  0.00000000E+00  0.00000000E+00
  0.00000000E+00  0.00000000E+00  0.00000000E+00
  0.00000000E+00  0.00000000E+00  0.00000000E+00
