Amorphous GeAsSeSi                      
   1.00000000000000     
    18.9455039271898009    0.0000000000000000    0.0000000000000000
     0.0000000000000000   18.9455039271898009    0.0000000000000000
     0.0000000000000000    0.0000000000000000   18.9455039271898009
   Ge   As   S 
   108    24   108
Direct
  0.1810611098268566  0.5342055410071396  0.7585915345477403
  0.0029075934965874  0.1709176681373350  0.9078000884900703
  0.5153943435443509  0.1802535809033259  0.4227686062532285
  0.2949242934393439  0.9496057208617259  0.4072598099024916
  0.9448331418624818  0.3580167998129866  0.9419885733358271
  0.2755570936800567  0.3892993770758153  0.8412212666097503
  0.6999193062973106  0.5563314018426340  0.0125338431122941
  0.2493106455482845  0.6902569245637835  0.1857868543805523
  0.4188386904742956  0.5011799492469891  0.3711604717550898
  0.8457286976803715  0.1007495777331329  0.6910672435517355
  0.9096077492734977  0.8642810258564992  0.1917721588283356
  0.9629710477486952  0.7597485891960716  0.9586176949607434
  0.0752967176343091  0.0611634727574071  0.2660749376012888
  0.8252733411425197  0.0320951493992112  0.5032403285380980
  0.4508420864645188  0.0220441565354506  0.6658028386990154
  0.4180960563521410  0.5668914196637829  0.4967860832962714
  0.0816789812928320  0.3840981544902675  0.4611112111217324
  0.8029094028447830  0.7280147743234053  0.7294140155873379
  0.3483857294236472  0.7686391012519920  0.3291909823929160
  0.0056895215237347  0.7755276851711912  0.5354970606967910
  0.0689609815061232  0.9791819658894454  0.8709691215134896
  0.9225672008865189  0.8768682518062718  0.3921954225095590
  0.5250724217307052  0.5790753942368099  0.9395625581415885
  0.7523071321868571  0.3514533043133312  0.8839954825794152
  0.1793394830392288  0.9515050619928473  0.9994860586896479
  0.2545442035976322  0.4773919441022585  0.5166940978345238
  0.3002851731331262  0.7924100232582418  0.5792843680093966
  0.6807540215344545  0.6277330051897891  0.2059162625781639
  0.4822538902157518  0.9663487833602957  0.3162039318245320
  0.9510121483827163  0.6337904573102833  0.6457226910757186
  0.9835618786806464  0.6467476952252227  0.8457711184992789
  0.6585899892046427  0.3868819586500436  0.1097833642639117
  0.9193744606846153  0.6097440123506601  0.4675438992530800
  0.9378496438597068  0.2402373433674470  0.6055894830715971
  0.4937610052589818  0.2868080538445597  0.6377956418290580
  0.4420442151933770  0.9872475096004365  0.5326756288572341
  0.9074765444004527  0.4825598469957484  0.7774333098858932
  0.3276809984242988  0.8485628993102807  0.1371254093982159
  0.9261176964804463  0.5484471009890726  0.2008647061400737
  0.9560665884054416  0.9722027954590260  0.0119348006993931
  0.1105135371016956  0.5660304172069388  0.1569493776762769
  0.5908675134510375  0.6550211493927378  0.5164445393208155
  0.9358122380759113  0.3768793908789192  0.5796670618984336
  0.7832607679174828  0.7437710884297246  0.5080663584574907
  0.8855000071405215  0.1348779733469385  0.4455322163879671
  0.1578938996616017  0.2495153306484923  0.9795502553093627
  0.0145767164079729  0.0516350742958593  0.5747751507446779
  0.6323651174650351  0.0018823081747925  0.9412276351212512
  0.8374365715038437  0.6907336037148823  0.1097223219306045
  0.6353485035488617  0.8650362893049177  0.8578987838977596
  0.2258077090224830  0.9359590130747861  0.7847026506471764
  0.8385088404756402  0.4908041865728592  0.2855719481690002
  0.9785045744661574  0.8324829797985558  0.7012753757128110
  0.8451250817203757  0.1798047752953735  0.2415100610490271
  0.0211598067000907  0.5894608472994634  0.3389519737596061
  0.4841538912255317  0.7182454126391136  0.1336460167795295
  0.6168429139855007  0.6865235527817006  0.8346162833260991
  0.1145421532708326  0.4281960730080669  0.8827315349299596
  0.4830050055034576  0.1633524207819335  0.2535886881744744
  0.4329286429341366  0.3583276712111285  0.2867695881980623
  0.3507334367703976  0.4937497203499674  0.6828130568742168
  0.2169945454986504  0.2257411433397749  0.7995553747461628
  0.3077064090968733  0.9810612433478738  0.9689778144605938
  0.7136991003103148  0.0946388475515789  0.5472127924437018
  0.1263511826582047  0.7044773404619349  0.7077868063643891
  0.2640716364877065  0.1291935779135684  0.4845887417560562
  0.6709044357720018  0.3049179166472626  0.5894048033944088
  0.6258846042244315  0.3263248063272428  0.7675538033263365
  0.6429922355740203  0.5010521746618650  0.3509484392239131
  0.7769219730644963  0.2385039428819482  0.0680921753066102
  0.6326579738691294  0.0421516789287182  0.2790070530380149
  0.4785367780307936  0.3178412193264819  0.9473537947401027
  0.8425107333649464  0.7031223517409444  0.2861854590678732
  0.5331532438021398  0.6742069399182427  0.3202505429749678
  0.4526070597276330  0.0155993810697908  0.0235324912368426
  0.5631881498313476  0.1378787560956383  0.0981302425830393
  0.6960823268045928  0.1302325551640067  0.0986832536938778
  0.7848188032811692  0.3422515173331249  0.2956220121725082
  0.1201131286202255  0.0308790617492107  0.4179697603265708
  0.4465359037277921  0.7344009088813692  0.9959504884669101
  0.0055514693125360  0.3048653254243661  0.7642785778752668
  0.7868192107707799  0.9122557091750707  0.0170340103325586
  0.1559838647061440  0.8232378238111693  0.4703152983747358
  0.6450134218145109  0.9071098305029679  0.5004033635613041
  0.0186969570866609  0.3346603122641625  0.0542289301736929
  0.2153891347735168  0.0962351071109282  0.8538542670259091
  0.5863755171171476  0.5387788230525175  0.1717794212117099
  0.7523022301404794  0.9186856128648984  0.3471389064611259
  0.4651513121263662  0.3958851677507980  0.7946990997528829
  0.3227668223425937  0.3644444753290088  0.4789768410884179
  0.6252125743296162  0.9875831958515491  0.6558639432631352
  0.6127907249098286  0.3517406592631431  0.9865823991231224
  0.7772971175047658  0.6839047252054868  0.9279494715870769
  0.0832107620789984  0.5073348686047865  0.5931717982415066
  0.8556751361504809  0.4165093397492825  0.0886959921628332
  0.2951148409099673  0.5100481589339125  0.9060827565097611
  0.6888334013519923  0.5568127681679371  0.5320248448814269
  0.9134866532090840  0.8605121720089173  0.8588094497030738
  0.0876443384078200  0.7655857783083206  0.1183401885507038
  0.0648440350004904  0.5966818928452327  0.0253156598608086
  0.2439798937551672  0.9768665278029331  0.6189955703041932
  0.3404644156954717  0.1596990426603995  0.5863494077115590
  0.7897551812712962  0.2245193174512110  0.4327320732731081
  0.4745084762874257  0.8270971936966518  0.6166502537750844
  0.5412299601785548  0.4509205945759831  0.5645740109119686
  0.9536239722006030  0.2847683203289932  0.3482684487695025
  0.2103767598918509  0.1740702487731909  0.3055363160126632
  0.6039702035115653  0.5635942660872857  0.6959488897601247
  0.1752088270280154  0.0714230282130828  0.1313503466114838
  0.3284810573889914  0.9189779958755508  0.5294962704467281
  0.4475603468942069  0.0541487226619708  0.4161489884453147
  0.6339703574536202  0.7390194719574765  0.2649582100026606
  0.1647086993653986  0.3915998130865930  0.7686216910205488
  0.0971718046927990  0.8714933045370401  0.5798490524870630
  0.1571788370249436  0.2070082671180344  0.1500822185034849
  0.5064127964210670  0.7224898286983645  0.7728769540567129
  0.2645556901806714  0.6644149453245376  0.0537238901534494
  0.7193976716258490  0.7667518369429942  0.8345767228636944
  0.3865372882687907  0.5238579653227333  0.2388012706873326
  0.1837972820094009  0.2308597737855393  0.5275493179022064
  0.5195792986806254  0.0686071095040575  0.9229939640166478
  0.5218519022314325  0.0171756993209584  0.1367003313994672
  0.7602537931287827  0.5978858104360469  0.3048086528008156
  0.5558189522534747  0.4329587463372704  0.7081091911413182
  0.4831568425140347  0.6089573880342556  0.2152792750737547
  0.9600964385124087  0.6685595866285325  0.2428360128082474
  0.6737514408893688  0.2065581410849902  0.4917137938243812
  0.4259805695313048  0.0497306547483305  0.2209111796775147
  0.3232776845723464  0.0760807409216540  0.3778050226865091
  0.5803627056974037  0.7930535624142792  0.6884057025251877
  0.2688135736793313  0.5818802502745157  0.2666096197676708
  0.5228087486226300  0.8509402509193222  0.7912520866380106
  0.6104332897532885  0.8871590092579353  0.9738440729274629
  0.8398881618023921  0.7700537754962369  0.0035958641802836
  0.8674308582272374  0.9523063859846204  0.1088154954327081
  0.0293639225036699  0.2139303978401941  0.0243212720050963
  0.4165881331686307  0.4470324897814635  0.5426772899915093
  0.5853883624360989  0.4226087375045466  0.2002245089401029
  0.0158189222601806  0.8618538403819400  0.0027046960548986
  0.7005249543418302  0.2644737324715507  0.9662291843868189
  0.3109465965596954  0.0165916987800614  0.8489635434117346
  0.8157084777585482  0.9187589105316150  0.4612044514215867
  0.9213237815159019  0.5139897902819754  0.3791360191563413
  0.1518596330773434  0.6983120362159028  0.0244986282543920
  0.3850228638190245  0.7531398313459476  0.2004552398981474
  0.4558573812342033  0.7328390337744963  0.3861962774496988
  0.8571301755328378  0.6616479313840529  0.8274253381855416
  0.2799606300792590  0.2784289178530983  0.8946824630368155
  0.6795132443934264  0.9741281458970619  0.8327878454806026
  0.7085361122962226  0.6642072757429318  0.0945728114459072
  0.0167560300429770  0.9859259365513395  0.4666359225975256
  0.2546667166988641  0.7570817752111978  0.4648586291004762
  0.5044566333462228  0.2268673532190704  0.1542686190960438
  0.4126128233523474  0.7342231524860239  0.5792349205031613
  0.5411592962679919  0.1690512872590020  0.9814567486458614
  0.4018518936884732  0.9023526053942064  0.6782822467650860
  0.3278116165367990  0.0683767872997478  0.6670770002309894
  0.2684946419232190  0.2548338339926417  0.6124354514867107
  0.9189822797761238  0.5265373916047977  0.0821994866299463
  0.7513716167002329  0.2119963715716366  0.3186079306549487
  0.9931281751863992  0.6902594056011324  0.0709307130721086
  0.6615368810359001  0.4341335589548478  0.9137992290606647
  0.0378712777294652  0.5041230696519463  0.2387056861707890
  0.2214813141463097  0.5169544710039204  0.1765751503156281
  0.1273062703640022  0.3780831198073642  0.9953838459217650
  0.2967518743211457  0.5868575635645854  0.4974004083738279
  0.0612267007110034  0.0388733059300108  0.1440341401598957
  0.0010815058587852  0.5620308014387874  0.7393020513313147
  0.2250777803427582  0.8084050490016637  0.1945673760244944
  0.5554975426843356  0.3302337978124825  0.5337030346580036
  0.5729562056516286  0.7907224598295315  0.1773542452149073
  0.1604510818057392  0.0716813433370973  0.9605150731146921
  0.9928532799521008  0.4512205115593062  0.8771346971021288
  0.4090565806392519  0.9130488007089070  0.9784485831027467
  0.3342284579050059  0.4085875668909438  0.3577513353653146
  0.1250781294446526  0.6746018610368267  0.2112117552189332
  0.1831634113105451  0.0538685674187178  0.5355997032986366
  0.5937289076669572  0.6873642649602516  0.9527334998243902
  0.7167336524028585  0.0821513281095463  0.6673556475683355
  0.0647995401643371  0.7655126655276376  0.4227926559171991
  0.8919317240428057  0.0124852124216659  0.6025374941307504
  0.9842561389700606  0.1655026949103870  0.5114624524292495
  0.1777009139637755  0.9184435743713166  0.3842866834119079
  0.4569203804102742  0.1750861185991042  0.5785065923822899
  0.0307896213317917  0.7467615507444449  0.7843751506392209
  0.8032449685840533  0.7830253231645870  0.1983507845182899
  0.9559653359914861  0.5336821618162446  0.5643291041731473
  0.0644078003491586  0.3757950888311612  0.5884725187350526
  0.1399281942276716  0.0331985678074389  0.7747338063178759
  0.0635571837826916  0.6778929888908252  0.6007191326973356
  0.4467003506040896  0.4366100015933796  0.9047393233724819
  0.1515978126186042  0.8237715520749376  0.6751294026019181
  0.8458882642331460  0.7660572142587370  0.3885879077557206
  0.6051741592021145  0.2362989350360607  0.6776836064353660
  0.1923085332836578  0.3159816313966033  0.4436129452552535
  0.8568439159200167  0.8405982925760043  0.7431983325214802
  0.1053583936347096  0.2390628602274845  0.8649287071114387
  0.5124331166705574  0.4209909067992754  0.3624489788138803
  0.5875280504320202  0.1600701538576033  0.3144195895783639
  0.9864438303525347  0.9303318447103095  0.7835120324863070
  0.5696790023264171  0.5924637259055601  0.4028502831111282
  0.3624570393515683  0.8990836029582852  0.3199766940900801
  0.2036185258074212  0.0531168877955821  0.2492555316019391
  0.7224443804250598  0.0481776321568574  0.0046247548012914
  0.8003299915962003  0.6185562220890688  0.5159940156908007
  0.2599275153455878  0.2289055619201292  0.2066276671241951
  0.8393725691591527  0.4156684280485337  0.9594253432080677
  0.3507823273751640  0.0780863070759921  0.0278199193291542
  0.9964146566512824  0.1958574940815438  0.7010322671115148
  0.3182283862951465  0.7697240440141613  0.0306264533354650
  0.7261646541859932  0.0739517934434630  0.1997232209326398
  0.7025596291364380  0.5073133768471791  0.6410311371769524
  0.9330801393049271  0.1496132364215867  0.3357952450399679
  0.9226754915512174  0.2649240595350335  0.8662107312157659
  0.6903628327585452  0.8917665342097365  0.6140027425453312
  0.1621421259739151  0.8913048696071684  0.8883761983610654
  0.6099014759654580  0.0335881705917416  0.5322817233440205
  0.8740403999304860  0.9378283328942487  0.2905814902375710
  0.3547834330661743  0.3758322881077589  0.7441177555866858
  0.7431228094999724  0.4767946116688861  0.1098863843167734
  0.8615055641009732  0.9587790855941023  0.9225014164810759
  0.8503603239975774  0.3288557070137728  0.4186744377766303
  0.5103831171773550  0.8843930722879776  0.5129808615754428
  0.1632676249870144  0.5370184714693735  0.8983069149932561
  0.1383009790700953  0.4980736857232912  0.4737155278308762
  0.6923757667338606  0.4621386824785105  0.4553682265497514
  0.2366998918630117  0.4637371370854098  0.6381624001732291
  0.8256650129957208  0.1949014171312058  0.6110263077895226
  0.7167175822804950  0.0353961503678875  0.3699874738278481
  0.3043797006354936  0.5584314402987260  0.7898961536927587
  0.5797992797066840  0.5276296730250891  0.0505688922297338
  0.6628077713196987  0.7480031201450998  0.4795609369489071
  0.0906123944509574  0.1929361036124746  0.2522205708252940
  0.6594263996803846  0.5795030707920148  0.8064193910720832
  0.4241492770446769  0.2310612657216922  0.3357086717402709
  0.5126861335310480  0.2867262599300773  0.8249890444589099
  0.8931016300132555  0.3071776726275459  0.2389154196383458
  0.9109908897102983  0.3775649499682459  0.7051729820661947
  0.7140836934220474  0.2943084063153165  0.1626231499127826
  0.4162614336051007  0.6173926218315486  0.9837455842158249
 
  0.00000000E+00  0.00000000E+00  0.00000000E+00
  0.00000000E+00  0.00000000E+00  0.00000000E+00
  0.00000000E+00  0.00000000E+00  0.00000000E+00
  0.00000000E+00  0.00000000E+00  0.00000000E+00
  0.00000000E+00  0.00000000E+00  0.00000000E+00
  0.00000000E+00  0.00000000E+00  0.00000000E+00
  0.00000000E+00  0.00000000E+00  0.00000000E+00
  0.00000000E+00  0.00000000E+00  0.00000000E+00
  0.00000000E+00  0.00000000E+00  0.00000000E+00
  0.00000000E+00  0.00000000E+00  0.00000000E+00
  0.00000000E+00  0.00000000E+00  0.00000000E+00
  0.00000000E+00  0.00000000E+00  0.00000000E+00
  0.00000000E+00  0.00000000E+00  0.00000000E+00
  0.00000000E+00  0.00000000E+00  0.00000000E+00
  0.00000000E+00  0.00000000E+00  0.00000000E+00
  0.00000000E+00  0.00000000E+00  0.00000000E+00
  0.00000000E+00  0.00000000E+00  0.00000000E+00
  0.00000000E+00  0.00000000E+00  0.00000000E+00
  0.00000000E+00  0.00000000E+00  0.00000000E+00
  0.00000000E+00  0.00000000E+00  0.00000000E+00
  0.00000000E+00  0.00000000E+00  0.00000000E+00
  0.00000000E+00  0.00000000E+00  0.00000000E+00
  0.00000000E+00  0.00000000E+00  0.00000000E+00
  0.00000000E+00  0.00000000E+00  0.00000000E+00
  0.00000000E+00  0.00000000E+00  0.00000000E+00
  0.00000000E+00  0.00000000E+00  0.00000000E+00
  0.00000000E+00  0.00000000E+00  0.00000000E+00
  0.00000000E+00  0.00000000E+00  0.00000000E+00
  0.00000000E+00  0.00000000E+00  0.00000000E+00
  0.00000000E+00  0.00000000E+00  0.00000000E+00
  0.00000000E+00  0.00000000E+00  0.00000000E+00
  0.00000000E+00  0.00000000E+00  0.00000000E+00
  0.00000000E+00  0.00000000E+00  0.00000000E+00
  0.00000000E+00  0.00000000E+00  0.00000000E+00
  0.00000000E+00  0.00000000E+00  0.00000000E+00
  0.00000000E+00  0.00000000E+00  0.00000000E+00
  0.00000000E+00  0.00000000E+00  0.00000000E+00
  0.00000000E+00  0.00000000E+00  0.00000000E+00
  0.00000000E+00  0.00000000E+00  0.00000000E+00
  0.00000000E+00  0.00000000E+00  0.00000000E+00
  0.00000000E+00  0.00000000E+00  0.00000000E+00
  0.00000000E+00  0.00000000E+00  0.00000000E+00
  0.00000000E+00  0.00000000E+00  0.00000000E+00
  0.00000000E+00  0.00000000E+00  0.00000000E+00
  0.00000000E+00  0.00000000E+00  0.00000000E+00
  0.00000000E+00  0.00000000E+00  0.00000000E+00
  0.00000000E+00  0.00000000E+00  0.00000000E+00
  0.00000000E+00  0.00000000E+00  0.00000000E+00
  0.00000000E+00  0.00000000E+00  0.00000000E+00
  0.00000000E+00  0.00000000E+00  0.00000000E+00
  0.00000000E+00  0.00000000E+00  0.00000000E+00
  0.00000000E+00  0.00000000E+00  0.00000000E+00
  0.00000000E+00  0.00000000E+00  0.00000000E+00
  0.00000000E+00  0.00000000E+00  0.00000000E+00
  0.00000000E+00  0.00000000E+00  0.00000000E+00
  0.00000000E+00  0.00000000E+00  0.00000000E+00
  0.00000000E+00  0.00000000E+00  0.00000000E+00
  0.00000000E+00  0.00000000E+00  0.00000000E+00
  0.00000000E+00  0.00000000E+00  0.00000000E+00
  0.00000000E+00  0.00000000E+00  0.00000000E+00
  0.00000000E+00  0.00000000E+00  0.00000000E+00
  0.00000000E+00  0.00000000E+00  0.00000000E+00
  0.00000000E+00  0.00000000E+00  0.00000000E+00
  0.00000000E+00  0.00000000E+00  0.00000000E+00
  0.00000000E+00  0.00000000E+00  0.00000000E+00
  0.00000000E+00  0.00000000E+00  0.00000000E+00
  0.00000000E+00  0.00000000E+00  0.00000000E+00
  0.00000000E+00  0.00000000E+00  0.00000000E+00
  0.00000000E+00  0.00000000E+00  0.00000000E+00
  0.00000000E+00  0.00000000E+00  0.00000000E+00
  0.00000000E+00  0.00000000E+00  0.00000000E+00
  0.00000000E+00  0.00000000E+00  0.00000000E+00
  0.00000000E+00  0.00000000E+00  0.00000000E+00
  0.00000000E+00  0.00000000E+00  0.00000000E+00
  0.00000000E+00  0.00000000E+00  0.00000000E+00
  0.00000000E+00  0.00000000E+00  0.00000000E+00
  0.00000000E+00  0.00000000E+00  0.00000000E+00
  0.00000000E+00  0.00000000E+00  0.00000000E+00
  0.00000000E+00  0.00000000E+00  0.00000000E+00
  0.00000000E+00  0.00000000E+00  0.00000000E+00
  0.00000000E+00  0.00000000E+00  0.00000000E+00
  0.00000000E+00  0.00000000E+00  0.00000000E+00
  0.00000000E+00  0.00000000E+00  0.00000000E+00
  0.00000000E+00  0.00000000E+00  0.00000000E+00
  0.00000000E+00  0.00000000E+00  0.00000000E+00
  0.00000000E+00  0.00000000E+00  0.00000000E+00
  0.00000000E+00  0.00000000E+00  0.00000000E+00
  0.00000000E+00  0.00000000E+00  0.00000000E+00
  0.00000000E+00  0.00000000E+00  0.00000000E+00
  0.00000000E+00  0.00000000E+00  0.00000000E+00
  0.00000000E+00  0.00000000E+00  0.00000000E+00
  0.00000000E+00  0.00000000E+00  0.00000000E+00
  0.00000000E+00  0.00000000E+00  0.00000000E+00
  0.00000000E+00  0.00000000E+00  0.00000000E+00
  0.00000000E+00  0.00000000E+00  0.00000000E+00
  0.00000000E+00  0.00000000E+00  0.00000000E+00
  0.00000000E+00  0.00000000E+00  0.00000000E+00
  0.00000000E+00  0.00000000E+00  0.00000000E+00
  0.00000000E+00  0.00000000E+00  0.00000000E+00
  0.00000000E+00  0.00000000E+00  0.00000000E+00
  0.00000000E+00  0.00000000E+00  0.00000000E+00
  0.00000000E+00  0.00000000E+00  0.00000000E+00
  0.00000000E+00  0.00000000E+00  0.00000000E+00
  0.00000000E+00  0.00000000E+00  0.00000000E+00
  0.00000000E+00  0.00000000E+00  0.00000000E+00
  0.00000000E+00  0.00000000E+00  0.00000000E+00
  0.00000000E+00  0.00000000E+00  0.00000000E+00
  0.00000000E+00  0.00000000E+00  0.00000000E+00
  0.00000000E+00  0.00000000E+00  0.00000000E+00
  0.00000000E+00  0.00000000E+00  0.00000000E+00
  0.00000000E+00  0.00000000E+00  0.00000000E+00
  0.00000000E+00  0.00000000E+00  0.00000000E+00
  0.00000000E+00  0.00000000E+00  0.00000000E+00
  0.00000000E+00  0.00000000E+00  0.00000000E+00
  0.00000000E+00  0.00000000E+00  0.00000000E+00
  0.00000000E+00  0.00000000E+00  0.00000000E+00
  0.00000000E+00  0.00000000E+00  0.00000000E+00
  0.00000000E+00  0.00000000E+00  0.00000000E+00
  0.00000000E+00  0.00000000E+00  0.00000000E+00
  0.00000000E+00  0.00000000E+00  0.00000000E+00
  0.00000000E+00  0.00000000E+00  0.00000000E+00
  0.00000000E+00  0.00000000E+00  0.00000000E+00
  0.00000000E+00  0.00000000E+00  0.00000000E+00
  0.00000000E+00  0.00000000E+00  0.00000000E+00
  0.00000000E+00  0.00000000E+00  0.00000000E+00
  0.00000000E+00  0.00000000E+00  0.00000000E+00
  0.00000000E+00  0.00000000E+00  0.00000000E+00
  0.00000000E+00  0.00000000E+00  0.00000000E+00
  0.00000000E+00  0.00000000E+00  0.00000000E+00
  0.00000000E+00  0.00000000E+00  0.00000000E+00
  0.00000000E+00  0.00000000E+00  0.00000000E+00
  0.00000000E+00  0.00000000E+00  0.00000000E+00
  0.00000000E+00  0.00000000E+00  0.00000000E+00
  0.00000000E+00  0.00000000E+00  0.00000000E+00
  0.00000000E+00  0.00000000E+00  0.00000000E+00
  0.00000000E+00  0.00000000E+00  0.00000000E+00
  0.00000000E+00  0.00000000E+00  0.00000000E+00
  0.00000000E+00  0.00000000E+00  0.00000000E+00
  0.00000000E+00  0.00000000E+00  0.00000000E+00
  0.00000000E+00  0.00000000E+00  0.00000000E+00
  0.00000000E+00  0.00000000E+00  0.00000000E+00
  0.00000000E+00  0.00000000E+00  0.00000000E+00
  0.00000000E+00  0.00000000E+00  0.00000000E+00
  0.00000000E+00  0.00000000E+00  0.00000000E+00
  0.00000000E+00  0.00000000E+00  0.00000000E+00
  0.00000000E+00  0.00000000E+00  0.00000000E+00
  0.00000000E+00  0.00000000E+00  0.00000000E+00
  0.00000000E+00  0.00000000E+00  0.00000000E+00
  0.00000000E+00  0.00000000E+00  0.00000000E+00
  0.00000000E+00  0.00000000E+00  0.00000000E+00
  0.00000000E+00  0.00000000E+00  0.00000000E+00
  0.00000000E+00  0.00000000E+00  0.00000000E+00
  0.00000000E+00  0.00000000E+00  0.00000000E+00
  0.00000000E+00  0.00000000E+00  0.00000000E+00
  0.00000000E+00  0.00000000E+00  0.00000000E+00
  0.00000000E+00  0.00000000E+00  0.00000000E+00
  0.00000000E+00  0.00000000E+00  0.00000000E+00
  0.00000000E+00  0.00000000E+00  0.00000000E+00
  0.00000000E+00  0.00000000E+00  0.00000000E+00
  0.00000000E+00  0.00000000E+00  0.00000000E+00
  0.00000000E+00  0.00000000E+00  0.00000000E+00
  0.00000000E+00  0.00000000E+00  0.00000000E+00
  0.00000000E+00  0.00000000E+00  0.00000000E+00
  0.00000000E+00  0.00000000E+00  0.00000000E+00
  0.00000000E+00  0.00000000E+00  0.00000000E+00
  0.00000000E+00  0.00000000E+00  0.00000000E+00
  0.00000000E+00  0.00000000E+00  0.00000000E+00
  0.00000000E+00  0.00000000E+00  0.00000000E+00
  0.00000000E+00  0.00000000E+00  0.00000000E+00
  0.00000000E+00  0.00000000E+00  0.00000000E+00
  0.00000000E+00  0.00000000E+00  0.00000000E+00
  0.00000000E+00  0.00000000E+00  0.00000000E+00
  0.00000000E+00  0.00000000E+00  0.00000000E+00
  0.00000000E+00  0.00000000E+00  0.00000000E+00
  0.00000000E+00  0.00000000E+00  0.00000000E+00
  0.00000000E+00  0.00000000E+00  0.00000000E+00
  0.00000000E+00  0.00000000E+00  0.00000000E+00
  0.00000000E+00  0.00000000E+00  0.00000000E+00
  0.00000000E+00  0.00000000E+00  0.00000000E+00
  0.00000000E+00  0.00000000E+00  0.00000000E+00
  0.00000000E+00  0.00000000E+00  0.00000000E+00
  0.00000000E+00  0.00000000E+00  0.00000000E+00
  0.00000000E+00  0.00000000E+00  0.00000000E+00
  0.00000000E+00  0.00000000E+00  0.00000000E+00
  0.00000000E+00  0.00000000E+00  0.00000000E+00
  0.00000000E+00  0.00000000E+00  0.00000000E+00
  0.00000000E+00  0.00000000E+00  0.00000000E+00
  0.00000000E+00  0.00000000E+00  0.00000000E+00
  0.00000000E+00  0.00000000E+00  0.00000000E+00
  0.00000000E+00  0.00000000E+00  0.00000000E+00
  0.00000000E+00  0.00000000E+00  0.00000000E+00
  0.00000000E+00  0.00000000E+00  0.00000000E+00
  0.00000000E+00  0.00000000E+00  0.00000000E+00
  0.00000000E+00  0.00000000E+00  0.00000000E+00
  0.00000000E+00  0.00000000E+00  0.00000000E+00
  0.00000000E+00  0.00000000E+00  0.00000000E+00
  0.00000000E+00  0.00000000E+00  0.00000000E+00
  0.00000000E+00  0.00000000E+00  0.00000000E+00
  0.00000000E+00  0.00000000E+00  0.00000000E+00
  0.00000000E+00  0.00000000E+00  0.00000000E+00
  0.00000000E+00  0.00000000E+00  0.00000000E+00
  0.00000000E+00  0.00000000E+00  0.00000000E+00
  0.00000000E+00  0.00000000E+00  0.00000000E+00
  0.00000000E+00  0.00000000E+00  0.00000000E+00
  0.00000000E+00  0.00000000E+00  0.00000000E+00
  0.00000000E+00  0.00000000E+00  0.00000000E+00
  0.00000000E+00  0.00000000E+00  0.00000000E+00
  0.00000000E+00  0.00000000E+00  0.00000000E+00
  0.00000000E+00  0.00000000E+00  0.00000000E+00
  0.00000000E+00  0.00000000E+00  0.00000000E+00
  0.00000000E+00  0.00000000E+00  0.00000000E+00
  0.00000000E+00  0.00000000E+00  0.00000000E+00
  0.00000000E+00  0.00000000E+00  0.00000000E+00
  0.00000000E+00  0.00000000E+00  0.00000000E+00
  0.00000000E+00  0.00000000E+00  0.00000000E+00
  0.00000000E+00  0.00000000E+00  0.00000000E+00
  0.00000000E+00  0.00000000E+00  0.00000000E+00
  0.00000000E+00  0.00000000E+00  0.00000000E+00
  0.00000000E+00  0.00000000E+00  0.00000000E+00
  0.00000000E+00  0.00000000E+00  0.00000000E+00
  0.00000000E+00  0.00000000E+00  0.00000000E+00
  0.00000000E+00  0.00000000E+00  0.00000000E+00
  0.00000000E+00  0.00000000E+00  0.00000000E+00
  0.00000000E+00  0.00000000E+00  0.00000000E+00
  0.00000000E+00  0.00000000E+00  0.00000000E+00
  0.00000000E+00  0.00000000E+00  0.00000000E+00
  0.00000000E+00  0.00000000E+00  0.00000000E+00
  0.00000000E+00  0.00000000E+00  0.00000000E+00
  0.00000000E+00  0.00000000E+00  0.00000000E+00
  0.00000000E+00  0.00000000E+00  0.00000000E+00
  0.00000000E+00  0.00000000E+00  0.00000000E+00
  0.00000000E+00  0.00000000E+00  0.00000000E+00
  0.00000000E+00  0.00000000E+00  0.00000000E+00
  0.00000000E+00  0.00000000E+00  0.00000000E+00
  0.00000000E+00  0.00000000E+00  0.00000000E+00
  0.00000000E+00  0.00000000E+00  0.00000000E+00
  0.00000000E+00  0.00000000E+00  0.00000000E+00
  0.00000000E+00  0.00000000E+00  0.00000000E+00
  0.00000000E+00  0.00000000E+00  0.00000000E+00
  0.00000000E+00  0.00000000E+00  0.00000000E+00
