Bi14 Te13 S8
1.0
  11.0246069999999996   -5.6579350000000002    0.0000000000000000
  11.0246069999999996    5.6579350000000002    0.0000000000000000
   8.1209000000000007    0.0000000000000000    9.3597629999999992
Bi Te S
14 13 8
direct
   0.3909269999999990    0.3909269999999990    0.3909269999999990 Bi
   0.1121849999999990    0.2554309999999990    0.8110309999999999 Bi
   0.6090730000000000    0.6090730000000000    0.6090730000000000 Bi
   0.5353770000000000    0.9510390000000000    0.6793159999999990 Bi
   0.0489610000000000    0.3206839999999990    0.4646229999999990 Bi
   0.2554309999999990    0.8110309999999999    0.1121849999999990 Bi
   0.8878149999999990    0.7445689999999990    0.1889690000000000 Bi
   0.4646229999999990    0.0489610000000000    0.3206839999999990 Bi
   0.9510390000000000    0.6793159999999990    0.5353770000000000 Bi
   0.7445689999999990    0.1889690000000000    0.8878149999999990 Bi
   0.3206839999999990    0.4646229999999990    0.0489610000000000 Bi
   0.8110309999999999    0.1121849999999990    0.2554309999999990 Bi
   0.6793159999999990    0.5353770000000000    0.9510390000000000 Bi
   0.1889690000000000    0.8878149999999990    0.7445689999999990 Bi
   0.4899219999999990    0.3712120000000000    0.7932469999999990 Te
   0.0617630000000000    0.9250060000000000    0.3550850000000000 Te
   0.6449150000000000    0.9382370000000000    0.0749939999999990 Te
   0.2067530000000000    0.5100780000000000    0.6287880000000000 Te
   0.3712120000000000    0.7932469999999990    0.4899219999999990 Te
   0.6287880000000000    0.2067530000000000    0.5100780000000000 Te
   0.0000000000000000    0.0000000000000000    0.0000000000000000 Te
   0.0749939999999990    0.6449150000000000    0.9382370000000000 Te
   0.7932469999999990    0.4899219999999990    0.3712120000000000 Te
   0.9382370000000000    0.0749939999999990    0.6449150000000000 Te
   0.9250060000000000    0.3550850000000000    0.0617630000000000 Te
   0.5100780000000000    0.6287880000000000    0.2067530000000000 Te
   0.3550850000000000    0.0617630000000000    0.9250060000000000 Te
   0.5719989999999990    0.2919589999999990    0.1382870000000000 S
   0.7656500000000001    0.7656500000000001    0.7656500000000001 S
   0.1382870000000000    0.5719989999999990    0.2919589999999990 S
   0.4280009999999990    0.7080409999999990    0.8617130000000000 S
   0.8617130000000000    0.4280009999999990    0.7080409999999990 S
   0.2919589999999990    0.1382870000000000    0.5719989999999990 S
   0.7080409999999990    0.8617130000000000    0.4280009999999990 S
   0.2343500000000000    0.2343500000000000    0.2343500000000000 S
