Amorphous Sb                            
  0.940000000000000     
    19.5257677405284156    0.0000000000000000    0.0000000000000000
     0.0000000000000000   19.5276774052841517    0.0000000000000000
     0.0000000000000000    0.0000000000000000   19.5276774052841517
   Ge   S 
   150   150
Direct
  0.9798551267695290  0.6538468958362456  0.7145245271953312
  0.7744534650971967  0.1571799543936017  0.4612757753814383
  0.3672065809505408  0.3598353930221103  0.7083303008999401
  0.3128138709232394  0.8199959751473930  0.4006809244182791
  0.2611585676357254  0.7523943157577415  0.1421783316109248
  0.9250250037626264  0.4922813349431190  0.1500696826157251
  0.6748474773639058  0.1093608213777545  0.8426842039638520
  0.1311540723875837  0.1750024490743566  0.9330881173680133
  0.1241933748412360  0.0134510546904647  0.2664761183439296
  0.4942674361669267  0.7735730016234662  0.6333762132332111
  0.0260632549687989  0.9959649120012101  0.8977815840656090
  0.9215055493287975  0.1972624730194507  0.8356946787714622
  0.9388946603693178  0.4193193427531918  0.6563721008920241
  0.7276506657804021  0.2326502587303021  0.9211157721699319
  0.7070523194743076  0.8894542206238567  0.9399219323183491
  0.8972295543476492  0.9280415202312693  0.8750778192810028
  0.7101755796534516  0.0151332549460001  0.2640165485628646
  0.5633472866367170  0.6199020205578331  0.0057027952670577
  0.1135077897794450  0.2138803040877614  0.5053028123316443
  0.7203312380744723  0.3269646816430349  0.2887873345901030
  0.8466178776856274  0.1020497238002446  0.3503763414519226
  0.2433202568438793  0.0050972158751134  0.3590765145135906
  0.4288565276278977  0.4142002432800783  0.4911025976140605
  0.8998966447922195  0.7224322721725658  0.3378547910519409
  0.0600356358582411  0.0774423666909996  0.7054883754351046
  0.6383215148734475  0.4524420162881929  0.7823592056254121
  0.6107853798032270  0.8645575876233399  0.8445727213235147
  0.3085903481717167  0.0526331647684953  0.9576701435583199
  0.2045557700058862  0.2119153920024141  0.1485158569535427
  0.7848323203550041  0.8482418653480253  0.1622885015811320
  0.3850007683105314  0.7164417268574785  0.8917347281264427
  0.0779018668937191  0.1692562585090082  0.2127301764409508
  0.3118232238010808  0.4316756279842046  0.1112380404451898
  0.4050982654494846  0.0779196192078215  0.4460893493335121
  0.1133912698800310  0.4852651201637668  0.3197360069037675
  0.1345767197590160  0.6184685400158447  0.1848799700705992
  0.1864983482227251  0.3720280239893449  0.4685204975608566
  0.8579443942423703  0.0289440826457647  0.7598540028536167
  0.1414334039890308  0.5583567318547190  0.6796385669284187
  0.5253861321514378  0.5474892153646398  0.5978179746733430
  0.9359721411167391  0.6775322204212146  0.0111913307110063
  0.4908621081776418  0.5611552414300297  0.8362603402343909
  0.6434021192085793  0.0328826156486919  0.5859340455378196
  0.3257075951365999  0.6585559868026876  0.5082708176093124
  0.2588331829545429  0.9704977105464700  0.8580204266842674
  0.3321645804716598  0.1821093961494040  0.0095345457316684
  0.9892500683594433  0.8293822772564032  0.1452019448175441
  0.0762807987742463  0.2575856338753749  0.7838123751725814
  0.4499471992848339  0.9391079908308518  0.1121178019705644
  0.7628939417136975  0.8726636426287242  0.5244403804531094
  0.3335565279576584  0.5393478709842847  0.8406960068191442
  0.6277740718850704  0.8447736834388138  0.6601161217344735
  0.9804800508442992  0.6029853331007062  0.4663045613757258
  0.1332835179268283  0.7581817648388539  0.4947550058481718
  0.8268191549215891  0.5802661403480398  0.7808653985438416
  0.0051345854071035  0.9751225073948199  0.0928052438490333
  0.4400348021066434  0.6483949077863587  0.6627232499255380
  0.8857739741269693  0.7222795033295638  0.8325835974162233
  0.4820647995525869  0.7844073274669984  0.9794556269276866
  0.8107098269034635  0.5900398417111581  0.1020565205866801
  0.6986294231382595  0.7578000684407243  0.0979219011722154
  0.6216167622716423  0.6489699080517941  0.7288635076167524
  0.8470117958784420  0.3084782088322192  0.3419049807772859
  0.2062148606816623  0.7992780656798368  0.8338168029924139
  0.0671127259413235  0.8527684922048423  0.6516959090009964
  0.7393249780272726  0.3524830398167424  0.7114551461499079
  0.4137075602985920  0.9002633322422177  0.3105485224900404
  0.4340225089651009  0.2255382749803097  0.5616682662630881
  0.1996319604478618  0.7457217308519914  0.9681960545892855
  0.5704621170605954  0.2554943945593321  0.3822638212546789
  0.7644517500326030  0.6841815015948250  0.4815382979403290
  0.1480248876349400  0.5498026381395325  0.5266239423541583
  0.6009531672619414  0.2215761259761468  0.1908560539767991
  0.9865239679112654  0.3686851230099079  0.4677872072184818
  0.4573092757326174  0.4068018179361502  0.2133008540151886
  0.2216409270358692  0.9696686411474945  0.7211106205992993
  0.3008350790181852  0.0493165118062658  0.1499681427317821
  0.8728390852278640  0.1045465918222270  0.0059332007699992
  0.2740258174668226  0.9540458242816702  0.5789346656008163
  0.7864798451989180  0.7950199988084020  0.2965248075149421
  0.5591087443806513  0.3434384177206104  0.6790697828397897
  0.7873546491731958  0.1757075467648183  0.6758860866549469
  0.2942202287164947  0.1556149480293074  0.8228164238263320
  0.1529081453118631  0.3509373800565462  0.1599061329689419
  0.0697688875674516  0.0669953687615227  0.4616040360136067
  0.8652969292531545  0.9564535022807736  0.1194436956298020
  0.2191671470199812  0.8493417734828062  0.2340567793413472
  0.2415469310177659  0.4912028599144363  0.2698526217164259
  0.6393071378873642  0.1888538951681779  0.6109917456522075
  0.9410783462462049  0.9910464051184672  0.3126939155671697
  0.5746602865421230  0.1600619640399210  0.9841736212863627
  0.8072240706844545  0.4648479233083769  0.4418602408114364
  0.4159251158312900  0.6442765754178987  0.2496066558409204
  0.7820534219408750  0.4736844500285831  0.2748054102643679
  0.2146498576504434  0.1718446643009688  0.6326934731858578
  0.4944127438008903  0.5684403475652419  0.3970815600056966
  0.4180280126565459  0.4629856761055374  0.9955965075919868
  0.8504143546262737  0.3775278320391437  0.8713631246335943
  0.1521426694678487  0.5876065640932850  0.8876390447723767
  0.2522690985674735  0.5950105305213322  0.0549216089565020
  0.2023661001284284  0.3446608583825138  0.6465141660852662
  0.1512299087806165  0.7389054921829584  0.6361375681493024
  0.5144472862066174  0.7371905865636095  0.4305661586238874
  0.6709497252132901  0.4270636940796926  0.5849592519912932
  0.8850318806430658  0.2282025014054633  0.1091385566835580
  0.1777193928683130  0.4100067223403493  0.8363495832203588
  0.8863063031651539  0.7514150083189539  0.6199545874677194
  0.9767361243990047  0.9019366709710229  0.5014240023161063
  0.3514282905417085  0.5318278110385711  0.6611716807249699
  0.7113512581897660  0.4942918609786144  0.9600176443377506
  0.6009111032642981  0.4720778046160718  0.3494091346248590
  0.1138001437517333  0.3755925297074796  0.9834700193284066
  0.9538220317759899  0.6699936995154451  0.2193753295825888
  0.0506497051720923  0.8342513556284354  0.3146256473858983
  0.1590523679172224  0.9478598207784209  0.0488342058775271
  0.6000156674611622  0.8439557770983684  0.2694042198447250
  0.3184739910699024  0.3375781330242325  0.2230476689673821
  0.7932452128044631  0.3435346695965926  0.5230720450719772
  0.7628413253207083  0.6448615965256962  0.9192723628638081
  0.8737418591561837  0.3875204440093172  0.0208069646610820
  0.7244233219454638  0.3470687680234439  0.1331074457225348
  0.4093546350465256  0.8593899834000267  0.7874077704953030
  0.4589888533036267  0.9258427101966943  0.5044266642219520
  0.7623285517363511  0.1762609317226439  0.1586595650038065
  0.5932543415745545  0.3441100787538575  0.0196813400457846
  0.4366033474324579  0.1198438919209710  0.0910603005639485
  0.4828603816727030  0.0123363787547155  0.6849450166526634
  0.2639048437515851  0.2178123898015335  0.3477938632917834
  0.4447331493684775  0.1048335642223162  0.8398260869557567
  0.6298880101105208  0.6055815713376256  0.2235571792103463
  0.2927853846247512  0.3390663062730143  0.9438997497432169
  0.3200629008660280  0.7180942477437082  0.7020040763179608
  0.5765051759713604  0.1269378630087669  0.4382057298380873
  0.3346485931550191  0.4377705163187526  0.3784547816468772
  0.6426162884555804  0.8232849706817910  0.4655166431676696
  0.0118095738833198  0.1966954960392691  0.3325854127946437
  0.8763600278175012  0.0167565739008568  0.6044834954923568
  0.0080159503439138  0.4336344943045151  0.2453081960264189
  0.6041171903342162  0.5043643036905539  0.1287299058455817
  0.0551924024165638  0.7656028338350107  0.8703070064055158
  0.0217993714652825  0.2637038914125172  0.0919196782696735
  0.3920581426888443  0.1240904385194291  0.6453175116178638
  0.9603182914775953  0.5017847668887526  0.8371045619003333
  0.5707200553008102  0.7790486048909258  0.1404522816335236
  0.4939308477946559  0.4118403061779118  0.8224719876868058
  0.4688764978258512  0.0939616564092821  0.2564585115430357
  0.1886797349591117  0.6702073812313202  0.3605709513991645
  0.6909542683471721  0.0209234149162229  0.0467756353617816
  0.8287636493970690  0.5788441278281178  0.5867524580778687
  0.7841487281484735  0.7798418995046040  0.7405549521802397
  0.8205769990556320  0.9834106892110359  0.0037509923765819
  0.5129877334485362  0.0431484496804375  0.3674351763889420
  0.4388599502161695  0.6070924073817033  0.9451723267464855
  0.0376225728989115  0.1074346978525850  0.8339775207848378
  0.8420333540306768  0.1060492977227281  0.8813160997961668
  0.7063764014230497  0.7360017880276961  0.3759669587435238
  0.8351840763582493  0.5460169772722958  0.9769642323752041
  0.9602727771218827  0.1288624872627722  0.4255636787759065
  0.1118892011164541  0.8818637528545411  0.5333572959347972
  0.2223324060799065  0.5107935078902001  0.7707816444791691
  0.2366441595080900  0.2386069405071065  0.4796489949483697
  0.5481498980300376  0.2753618580920584  0.5675585616777654
  0.8590828316906796  0.6246453892507183  0.4086031397965780
  0.0041764036855293  0.0172380077608462  0.5650973209652683
  0.8534445525336560  0.3467652070989169  0.1535239480610343
  0.5282999850645139  0.0888158004672286  0.5496702778710123
  0.2405870317280909  0.8171436387054002  0.6863241391100796
  0.6629313066474570  0.9167335131635863  0.3714661837107984
  0.7940491970139779  0.2821574082119760  0.8087767893427944
  0.0047548705921829  0.0524556339811931  0.2137451824242168
  0.5865109613711171  0.9162673942677585  0.5567772739681704
  0.5079645777554844  0.9340868034875871  0.2262118769374573
  0.3772963603742693  0.8140639433749595  0.1358560381542095
  0.6500640765991010  0.2567068567499214  0.7208819066112773
  0.5145577071639069  0.8557899052645142  0.3769426290093866
  0.2730051431923495  0.6833087091136878  0.8178389322265062
  0.8497441904628877  0.7841153022099445  0.4991660028294829
  0.2914742169968063  0.9637574772220650  0.0491528092978489
  0.9079285042721167  0.1463999329106187  0.7154289247495449
  0.3174252084568391  0.8604661330374939  0.8852400477297795
  0.0073756518102818  0.5915939371285883  0.1346324130621989
  0.8778273699525918  0.2719625322882722  0.4582801689376587
  0.6058619382682691  0.7165767989916828  0.5855609323154113
  0.0413118225362297  0.3144698675875490  0.2156403150635780
  0.7558972417092717  0.8866247990643544  0.6488544964116462
  0.4012048277809566  0.6715686564041550  0.3833687872025957
  0.0758475451957063  0.4768775819484263  0.9002512532669322
  0.4236516485408087  0.5015541712682725  0.1296110596398293
  0.4273346310789485  0.2085623196066525  0.4411333956320032
  0.6638593260193102  0.7596244072970713  0.7901716277490594
  0.4989562319397178  0.2209382139833288  0.2738155096933792
  0.0085937797451385  0.3895010188901654  0.0563761870830487
  0.6853983434895825  0.0630231641393312  0.4609754927649155
  0.1924150415382417  0.8464361865012715  0.3556684893246720
  0.4926188369087980  0.8767173050732220  0.8850087490342633
  0.9463918136519821  0.3792664260131661  0.7869417312339690
  0.0691082756604617  0.2879937564060144  0.4021093564231705
  0.3994500047114201  0.5296305021623150  0.5363326304787837
  0.1587007022415023  0.4887096444023767  0.1637153071880680
  0.3676991818561088  0.4130282000572448  0.8558661107887625
  0.1007597924958263  0.3298825342332849  0.5649358199530926
  0.5932520800454918  0.2709337138892766  0.9139101264210056
  0.9888490718685091  0.6777873283487458  0.5831698446624713
  0.7059810584379962  0.6439761357538725  0.0390983716092604
  0.5083823864625345  0.6760263716878328  0.1121071412664696
  0.6775721926833076  0.3831291855782382  0.3953542684354738
  0.8369455766478107  0.7458979195226563  0.9528759207141480
  0.9337622107906139  0.4017936687514014  0.3455517362584895
  0.9590907560223602  0.8279300217722450  0.8086795528160915
  0.1129569998871619  0.9041495529253160  0.1959891300888317
  0.5886207419964198  0.4179727704351572  0.2279868068080635
  0.1085214455802297  0.6760444785026259  0.7381077643597895
  0.5410152130458998  0.4458081833755380  0.9603329938803753
  0.1763887741213767  0.0852076802845449  0.1346361565428002
  0.8380836459480846  0.9693700527169904  0.4936085478591265
  0.3205309433730601  0.9423410918643710  0.4488637857272877
  0.0799805390010654  0.6066298696953470  0.3116482441656589
  0.1876307992333970  0.0943081217856147  0.7331704568160452
  0.2937560904599494  0.0886388630370857  0.5668698809049072
  0.4563875452991292  0.4566891532245143  0.6931073899928504
  0.5901073381143899  0.7290570981099342  0.9454155118465919
  0.6474435091759971  0.0092674848155770  0.9247337316817068
  0.7065001745790639  0.1530373005482662  0.0401679211840478
  0.0600958164185287  0.7442565218804654  0.2109400381562424
  0.5809678872474345  0.6290622446453572  0.5127166827063089
  0.7337307764550376  0.4822479775404920  0.1440429590172660
  0.7559702136571820  0.6492413268155687  0.6988572698357218
  0.8728028768295342  0.2605750233609324  0.9855559270847819
  0.9386871684526036  0.8766763967712699  0.9937598560170045
  0.6800045527225111  0.2066938010842296  0.3185452873996668
  0.0034361548306746  0.0721698952448814  0.0045967785982283
  0.6789194171650526  0.9192503575142738  0.1809217876132843
  0.2411924822207204  0.5785562067040515  0.4405963346794944
  0.3740035063631764  0.3260043481709426  0.3344929259584552
  0.0803685472474950  0.4710531824815948  0.4411663733473116
  0.7027201862616829  0.2513894770529723  0.5099539382506983
  0.8111185730734771  0.0548284629075500  0.1868149764853529
  0.1730186770688893  0.8159803143998106  0.0681123084310025
  0.0907764994727192  0.9478210034254620  0.7358224791238909
  0.4361284841788064  0.7929798466153972  0.5204693249914722
  0.2592487909814468  0.6216062063883679  0.2620286475006032
  0.3912423329526926  0.7836862215741107  0.2432349314238806
  0.0096844165218573  0.5293031532185939  0.7190677866409317
  0.3249864609320443  0.2147886713253122  0.1873833797113671
  0.3184453591953715  0.2113197526193393  0.7058577434592948
  0.5965678222410344  0.0861195503684817  0.1920761898260767
  0.7608431172852285  0.4723202603539344  0.8372497722391130
  0.7216995599633176  0.6886280905682585  0.2043403581281983
  0.0494317722630158  0.9656962762285635  0.3776614119077926
  0.5930498115168329  0.9345302295504944  0.7425564680329269
  0.1452091678462433  0.1465541647448723  0.3251583292145890
  0.9904119425207526  0.6518560938855832  0.8737433027653527
  0.8776756053545985  0.5543567352006930  0.2547814491632561
  0.9436076367196603  0.8698988017806997  0.6311333031058171
  0.8308389184603898  0.4896989555508287  0.6809621101254847
  0.7729725266350256  0.9167976267536925  0.3484063046364229
  0.5569616884933322  0.0481808439271423  0.0940193251445254
  0.3130896931477115  0.7039951298208202  0.0056259583434011
  0.1973999448338313  0.2416708823650254  0.8400811484702110
  0.3959944682246823  0.9932321831030027  0.7819150989162261
  0.6956246728059146  0.5571408004474502  0.3229753033217346
  0.2528400886692077  0.5211495155763652  0.9445115766277933
  0.8800322183715819  0.2055701612488921  0.2774999271436006
  0.4245259911642115  0.4993721558261022  0.3060813532580062
  0.5141318120454672  0.2249370718120678  0.0801423044067033
  0.9979764400196043  0.7518023355182853  0.4056982379957351
  0.2281234510242828  0.4542628765336200  0.5755774285791357
  0.7788970120583297  0.8954256252681048  0.8343338608682285
  0.2191715343456999  0.2398134936330574  0.0238306534550067
  0.7282815463848173  0.3667021111906186  0.9914848507420111
  0.6432328035525009  0.5157229409043347  0.6713793120939949
  0.8402669543291990  0.3111451809662921  0.6358460798826344
  0.3812311094795682  0.3420885772198784  0.0439434334386339
  0.2455808783719050  0.6388202086551971  0.6276606884111732
  0.5579069385901019  0.1104754357380644  0.7846114606192364
  0.3959234287927111  0.9299373631039561  0.6217705927352809
  0.5445359719794115  0.8711988203655193  0.0539236822073262
  0.8897653683762441  0.7359708331456879  0.1311038469002541
  0.4679547264204058  0.2862171245125200  0.7478468170754011
  0.3699788215598324  0.3346260081362182  0.5728309427492903
  0.9287676953269367  0.8726935362708850  0.2618039043654322
  0.7348801679362723  0.0592359117653977  0.7369942853823057
  0.1338433014767598  0.6431145916171979  0.0127688753829714
  0.3333159563701688  0.0974739457672385  0.3375099510173090
  0.6199517995704948  0.5713888793001921  0.8449466128583685
  0.2611563571011390  0.7759608418154474  0.5095626894127592
  0.0505800334631448  0.2797869875386231  0.9140396399907150
  0.5574293278031397  0.4477864246230674  0.5199952324699241
  0.1495193084258438  0.9366144923038047  0.9165467150125387
  0.8450610918488114  0.1355431654659449  0.5646562180335140
  0.1074620023500236  0.3778106803892672  0.7328608569893174
  0.2920279920709635  0.9538350565309037  0.2408252020198496
  0.9155983510868844  0.4984444356345702  0.5205964085083962
  0.3691961610821730  0.2384001630691157  0.9005313176070051
  0.4380288031413806  0.0509984995349383  0.9621766555296788
  0.2040936216716635  0.3409318975974083  0.2776859236381104
  0.5432080638771927  0.6547674978562921  0.2997384999771009
  0.7262057953311742  0.5271298691805821  0.5183607889632064
  0.4815647500526596  0.6759387374824473  0.7796234108189862
  0.0124878870388813  0.7911445915706098 -0.0031362298602440
 
  0.00000000E+00  0.00000000E+00  0.00000000E+00
  0.00000000E+00  0.00000000E+00  0.00000000E+00
  0.00000000E+00  0.00000000E+00  0.00000000E+00
  0.00000000E+00  0.00000000E+00  0.00000000E+00
  0.00000000E+00  0.00000000E+00  0.00000000E+00
  0.00000000E+00  0.00000000E+00  0.00000000E+00
  0.00000000E+00  0.00000000E+00  0.00000000E+00
  0.00000000E+00  0.00000000E+00  0.00000000E+00
  0.00000000E+00  0.00000000E+00  0.00000000E+00
  0.00000000E+00  0.00000000E+00  0.00000000E+00
  0.00000000E+00  0.00000000E+00  0.00000000E+00
  0.00000000E+00  0.00000000E+00  0.00000000E+00
  0.00000000E+00  0.00000000E+00  0.00000000E+00
  0.00000000E+00  0.00000000E+00  0.00000000E+00
  0.00000000E+00  0.00000000E+00  0.00000000E+00
  0.00000000E+00  0.00000000E+00  0.00000000E+00
  0.00000000E+00  0.00000000E+00  0.00000000E+00
  0.00000000E+00  0.00000000E+00  0.00000000E+00
  0.00000000E+00  0.00000000E+00  0.00000000E+00
  0.00000000E+00  0.00000000E+00  0.00000000E+00
  0.00000000E+00  0.00000000E+00  0.00000000E+00
  0.00000000E+00  0.00000000E+00  0.00000000E+00
  0.00000000E+00  0.00000000E+00  0.00000000E+00
  0.00000000E+00  0.00000000E+00  0.00000000E+00
  0.00000000E+00  0.00000000E+00  0.00000000E+00
  0.00000000E+00  0.00000000E+00  0.00000000E+00
  0.00000000E+00  0.00000000E+00  0.00000000E+00
  0.00000000E+00  0.00000000E+00  0.00000000E+00
  0.00000000E+00  0.00000000E+00  0.00000000E+00
  0.00000000E+00  0.00000000E+00  0.00000000E+00
  0.00000000E+00  0.00000000E+00  0.00000000E+00
  0.00000000E+00  0.00000000E+00  0.00000000E+00
  0.00000000E+00  0.00000000E+00  0.00000000E+00
  0.00000000E+00  0.00000000E+00  0.00000000E+00
  0.00000000E+00  0.00000000E+00  0.00000000E+00
  0.00000000E+00  0.00000000E+00  0.00000000E+00
  0.00000000E+00  0.00000000E+00  0.00000000E+00
  0.00000000E+00  0.00000000E+00  0.00000000E+00
  0.00000000E+00  0.00000000E+00  0.00000000E+00
  0.00000000E+00  0.00000000E+00  0.00000000E+00
  0.00000000E+00  0.00000000E+00  0.00000000E+00
  0.00000000E+00  0.00000000E+00  0.00000000E+00
  0.00000000E+00  0.00000000E+00  0.00000000E+00
  0.00000000E+00  0.00000000E+00  0.00000000E+00
  0.00000000E+00  0.00000000E+00  0.00000000E+00
  0.00000000E+00  0.00000000E+00  0.00000000E+00
  0.00000000E+00  0.00000000E+00  0.00000000E+00
  0.00000000E+00  0.00000000E+00  0.00000000E+00
  0.00000000E+00  0.00000000E+00  0.00000000E+00
  0.00000000E+00  0.00000000E+00  0.00000000E+00
  0.00000000E+00  0.00000000E+00  0.00000000E+00
  0.00000000E+00  0.00000000E+00  0.00000000E+00
  0.00000000E+00  0.00000000E+00  0.00000000E+00
  0.00000000E+00  0.00000000E+00  0.00000000E+00
  0.00000000E+00  0.00000000E+00  0.00000000E+00
  0.00000000E+00  0.00000000E+00  0.00000000E+00
  0.00000000E+00  0.00000000E+00  0.00000000E+00
  0.00000000E+00  0.00000000E+00  0.00000000E+00
  0.00000000E+00  0.00000000E+00  0.00000000E+00
  0.00000000E+00  0.00000000E+00  0.00000000E+00
  0.00000000E+00  0.00000000E+00  0.00000000E+00
  0.00000000E+00  0.00000000E+00  0.00000000E+00
  0.00000000E+00  0.00000000E+00  0.00000000E+00
  0.00000000E+00  0.00000000E+00  0.00000000E+00
  0.00000000E+00  0.00000000E+00  0.00000000E+00
  0.00000000E+00  0.00000000E+00  0.00000000E+00
  0.00000000E+00  0.00000000E+00  0.00000000E+00
  0.00000000E+00  0.00000000E+00  0.00000000E+00
  0.00000000E+00  0.00000000E+00  0.00000000E+00
  0.00000000E+00  0.00000000E+00  0.00000000E+00
  0.00000000E+00  0.00000000E+00  0.00000000E+00
  0.00000000E+00  0.00000000E+00  0.00000000E+00
  0.00000000E+00  0.00000000E+00  0.00000000E+00
  0.00000000E+00  0.00000000E+00  0.00000000E+00
  0.00000000E+00  0.00000000E+00  0.00000000E+00
  0.00000000E+00  0.00000000E+00  0.00000000E+00
  0.00000000E+00  0.00000000E+00  0.00000000E+00
  0.00000000E+00  0.00000000E+00  0.00000000E+00
  0.00000000E+00  0.00000000E+00  0.00000000E+00
  0.00000000E+00  0.00000000E+00  0.00000000E+00
  0.00000000E+00  0.00000000E+00  0.00000000E+00
  0.00000000E+00  0.00000000E+00  0.00000000E+00
  0.00000000E+00  0.00000000E+00  0.00000000E+00
  0.00000000E+00  0.00000000E+00  0.00000000E+00
  0.00000000E+00  0.00000000E+00  0.00000000E+00
  0.00000000E+00  0.00000000E+00  0.00000000E+00
  0.00000000E+00  0.00000000E+00  0.00000000E+00
  0.00000000E+00  0.00000000E+00  0.00000000E+00
  0.00000000E+00  0.00000000E+00  0.00000000E+00
  0.00000000E+00  0.00000000E+00  0.00000000E+00
  0.00000000E+00  0.00000000E+00  0.00000000E+00
  0.00000000E+00  0.00000000E+00  0.00000000E+00
  0.00000000E+00  0.00000000E+00  0.00000000E+00
  0.00000000E+00  0.00000000E+00  0.00000000E+00
  0.00000000E+00  0.00000000E+00  0.00000000E+00
  0.00000000E+00  0.00000000E+00  0.00000000E+00
  0.00000000E+00  0.00000000E+00  0.00000000E+00
  0.00000000E+00  0.00000000E+00  0.00000000E+00
  0.00000000E+00  0.00000000E+00  0.00000000E+00
  0.00000000E+00  0.00000000E+00  0.00000000E+00
  0.00000000E+00  0.00000000E+00  0.00000000E+00
  0.00000000E+00  0.00000000E+00  0.00000000E+00
  0.00000000E+00  0.00000000E+00  0.00000000E+00
  0.00000000E+00  0.00000000E+00  0.00000000E+00
  0.00000000E+00  0.00000000E+00  0.00000000E+00
  0.00000000E+00  0.00000000E+00  0.00000000E+00
  0.00000000E+00  0.00000000E+00  0.00000000E+00
  0.00000000E+00  0.00000000E+00  0.00000000E+00
  0.00000000E+00  0.00000000E+00  0.00000000E+00
  0.00000000E+00  0.00000000E+00  0.00000000E+00
  0.00000000E+00  0.00000000E+00  0.00000000E+00
  0.00000000E+00  0.00000000E+00  0.00000000E+00
  0.00000000E+00  0.00000000E+00  0.00000000E+00
  0.00000000E+00  0.00000000E+00  0.00000000E+00
  0.00000000E+00  0.00000000E+00  0.00000000E+00
  0.00000000E+00  0.00000000E+00  0.00000000E+00
  0.00000000E+00  0.00000000E+00  0.00000000E+00
  0.00000000E+00  0.00000000E+00  0.00000000E+00
  0.00000000E+00  0.00000000E+00  0.00000000E+00
  0.00000000E+00  0.00000000E+00  0.00000000E+00
  0.00000000E+00  0.00000000E+00  0.00000000E+00
  0.00000000E+00  0.00000000E+00  0.00000000E+00
  0.00000000E+00  0.00000000E+00  0.00000000E+00
  0.00000000E+00  0.00000000E+00  0.00000000E+00
  0.00000000E+00  0.00000000E+00  0.00000000E+00
  0.00000000E+00  0.00000000E+00  0.00000000E+00
  0.00000000E+00  0.00000000E+00  0.00000000E+00
  0.00000000E+00  0.00000000E+00  0.00000000E+00
  0.00000000E+00  0.00000000E+00  0.00000000E+00
  0.00000000E+00  0.00000000E+00  0.00000000E+00
  0.00000000E+00  0.00000000E+00  0.00000000E+00
  0.00000000E+00  0.00000000E+00  0.00000000E+00
  0.00000000E+00  0.00000000E+00  0.00000000E+00
  0.00000000E+00  0.00000000E+00  0.00000000E+00
  0.00000000E+00  0.00000000E+00  0.00000000E+00
  0.00000000E+00  0.00000000E+00  0.00000000E+00
  0.00000000E+00  0.00000000E+00  0.00000000E+00
  0.00000000E+00  0.00000000E+00  0.00000000E+00
  0.00000000E+00  0.00000000E+00  0.00000000E+00
  0.00000000E+00  0.00000000E+00  0.00000000E+00
  0.00000000E+00  0.00000000E+00  0.00000000E+00
  0.00000000E+00  0.00000000E+00  0.00000000E+00
  0.00000000E+00  0.00000000E+00  0.00000000E+00
  0.00000000E+00  0.00000000E+00  0.00000000E+00
  0.00000000E+00  0.00000000E+00  0.00000000E+00
  0.00000000E+00  0.00000000E+00  0.00000000E+00
  0.00000000E+00  0.00000000E+00  0.00000000E+00
  0.00000000E+00  0.00000000E+00  0.00000000E+00
  0.00000000E+00  0.00000000E+00  0.00000000E+00
  0.00000000E+00  0.00000000E+00  0.00000000E+00
  0.00000000E+00  0.00000000E+00  0.00000000E+00
  0.00000000E+00  0.00000000E+00  0.00000000E+00
  0.00000000E+00  0.00000000E+00  0.00000000E+00
  0.00000000E+00  0.00000000E+00  0.00000000E+00
  0.00000000E+00  0.00000000E+00  0.00000000E+00
  0.00000000E+00  0.00000000E+00  0.00000000E+00
  0.00000000E+00  0.00000000E+00  0.00000000E+00
  0.00000000E+00  0.00000000E+00  0.00000000E+00
  0.00000000E+00  0.00000000E+00  0.00000000E+00
  0.00000000E+00  0.00000000E+00  0.00000000E+00
  0.00000000E+00  0.00000000E+00  0.00000000E+00
  0.00000000E+00  0.00000000E+00  0.00000000E+00
  0.00000000E+00  0.00000000E+00  0.00000000E+00
  0.00000000E+00  0.00000000E+00  0.00000000E+00
  0.00000000E+00  0.00000000E+00  0.00000000E+00
  0.00000000E+00  0.00000000E+00  0.00000000E+00
  0.00000000E+00  0.00000000E+00  0.00000000E+00
  0.00000000E+00  0.00000000E+00  0.00000000E+00
  0.00000000E+00  0.00000000E+00  0.00000000E+00
  0.00000000E+00  0.00000000E+00  0.00000000E+00
  0.00000000E+00  0.00000000E+00  0.00000000E+00
  0.00000000E+00  0.00000000E+00  0.00000000E+00
  0.00000000E+00  0.00000000E+00  0.00000000E+00
  0.00000000E+00  0.00000000E+00  0.00000000E+00
  0.00000000E+00  0.00000000E+00  0.00000000E+00
  0.00000000E+00  0.00000000E+00  0.00000000E+00
  0.00000000E+00  0.00000000E+00  0.00000000E+00
  0.00000000E+00  0.00000000E+00  0.00000000E+00
  0.00000000E+00  0.00000000E+00  0.00000000E+00
  0.00000000E+00  0.00000000E+00  0.00000000E+00
  0.00000000E+00  0.00000000E+00  0.00000000E+00
  0.00000000E+00  0.00000000E+00  0.00000000E+00
  0.00000000E+00  0.00000000E+00  0.00000000E+00
  0.00000000E+00  0.00000000E+00  0.00000000E+00
  0.00000000E+00  0.00000000E+00  0.00000000E+00
  0.00000000E+00  0.00000000E+00  0.00000000E+00
  0.00000000E+00  0.00000000E+00  0.00000000E+00
  0.00000000E+00  0.00000000E+00  0.00000000E+00
  0.00000000E+00  0.00000000E+00  0.00000000E+00
  0.00000000E+00  0.00000000E+00  0.00000000E+00
  0.00000000E+00  0.00000000E+00  0.00000000E+00
  0.00000000E+00  0.00000000E+00  0.00000000E+00
  0.00000000E+00  0.00000000E+00  0.00000000E+00
  0.00000000E+00  0.00000000E+00  0.00000000E+00
  0.00000000E+00  0.00000000E+00  0.00000000E+00
  0.00000000E+00  0.00000000E+00  0.00000000E+00
  0.00000000E+00  0.00000000E+00  0.00000000E+00
  0.00000000E+00  0.00000000E+00  0.00000000E+00
  0.00000000E+00  0.00000000E+00  0.00000000E+00
  0.00000000E+00  0.00000000E+00  0.00000000E+00
  0.00000000E+00  0.00000000E+00  0.00000000E+00
  0.00000000E+00  0.00000000E+00  0.00000000E+00
  0.00000000E+00  0.00000000E+00  0.00000000E+00
  0.00000000E+00  0.00000000E+00  0.00000000E+00
  0.00000000E+00  0.00000000E+00  0.00000000E+00
  0.00000000E+00  0.00000000E+00  0.00000000E+00
  0.00000000E+00  0.00000000E+00  0.00000000E+00
  0.00000000E+00  0.00000000E+00  0.00000000E+00
  0.00000000E+00  0.00000000E+00  0.00000000E+00
  0.00000000E+00  0.00000000E+00  0.00000000E+00
  0.00000000E+00  0.00000000E+00  0.00000000E+00
  0.00000000E+00  0.00000000E+00  0.00000000E+00
  0.00000000E+00  0.00000000E+00  0.00000000E+00
  0.00000000E+00  0.00000000E+00  0.00000000E+00
  0.00000000E+00  0.00000000E+00  0.00000000E+00
  0.00000000E+00  0.00000000E+00  0.00000000E+00
  0.00000000E+00  0.00000000E+00  0.00000000E+00
  0.00000000E+00  0.00000000E+00  0.00000000E+00
  0.00000000E+00  0.00000000E+00  0.00000000E+00
  0.00000000E+00  0.00000000E+00  0.00000000E+00
  0.00000000E+00  0.00000000E+00  0.00000000E+00
  0.00000000E+00  0.00000000E+00  0.00000000E+00
  0.00000000E+00  0.00000000E+00  0.00000000E+00
  0.00000000E+00  0.00000000E+00  0.00000000E+00
  0.00000000E+00  0.00000000E+00  0.00000000E+00
  0.00000000E+00  0.00000000E+00  0.00000000E+00
  0.00000000E+00  0.00000000E+00  0.00000000E+00
  0.00000000E+00  0.00000000E+00  0.00000000E+00
  0.00000000E+00  0.00000000E+00  0.00000000E+00
  0.00000000E+00  0.00000000E+00  0.00000000E+00
  0.00000000E+00  0.00000000E+00  0.00000000E+00
  0.00000000E+00  0.00000000E+00  0.00000000E+00