Amorphous Sb                            
   1.00000000000000     
    21.0671579077798050    0.0000000000000000    0.0000000000000000
     0.0000000000000000   21.0671579077798050    0.0000000000000000
     0.0000000000000000    0.0000000000000000   21.0671579077798050
   Sn   Sb
    45   255
Direct
  0.7059669702117445  0.1176569252250698  0.8665972691610023
  0.8377003723033131  0.7440167642465937  0.9101141441889855
  0.9142026950626287  0.0017297244651232  0.4059966464196081
  0.3843290251173088  0.3982977731122853  0.8295101255843227
  0.6405720975530059  0.8291306742203914  0.8105920163768324
  0.5484403732466425  0.2526911282899846  0.9622616739471815
  0.5131949952773064  0.5185087189517563  0.0591466847032674
  0.8850851161801726  0.2737897928039714  0.4948986090910213
  0.6059343457564521  0.3339473963328983  0.5250256202896459
  0.1520029733444092  0.8644197377443084  0.8145381178707014
  0.2163559662787529  0.3324722598984886  0.1770816510164879
  0.2228197718938663  0.7282860256104255  0.5256719748410223
  0.4525952456672173  0.8795205565826505  0.3529790319099144
  0.7394810219283923  0.2424985221095919  0.6925236271359329
  0.2137213784377940  0.4166049079670977  0.7125929507342634
  0.2219630736401351  0.2055677706019401  0.3078628225601415
  0.4992317498336056  0.1114999581605057  0.0043257223922934
  0.0646310190670875  0.4757192957016041  0.3099993575365500
  0.0112343778659113  0.2727804207139806  0.9032722931468754
  0.5043321121903309  0.2473031170699466  0.2729095617144261
  0.0492658775982634  0.7183554946542128  0.3317378545895837
  0.5872449416315982  0.4133493432197331  0.9369638237039437
  0.5247340662614299  0.5096301304000520  0.7585027612688028
  0.0109664282645866  0.5981355657380666  0.2590501963577220
  0.1792557207054016  0.8290844497000169  0.9525528038795373
  0.8033819917000676  0.5558805306297839  0.5155653003400609
  0.8291892490787987  0.4097237836413400  0.9378727601598288
  0.8820551461052031  0.0743128833442502  0.8573964002065286
  0.2948390256126772  0.8234380780193757  0.8396513528267568
  0.6829607916403623  0.6832103018323785  0.2632607722040058
  0.0865064831496550  0.7059477619761164  0.1027909585177899
  0.1191976398716297  0.7173042763266275  0.8032012421261714
  0.8879465882515744  0.8480134285679372  0.0160370188903145
  0.1386978574443501  0.0840731256916512  0.1437720613372961
  0.7891066418394478  0.7967499788232741  0.2113040748182953
  0.0629757697293640  0.3313535423815085  0.2974933655822621
  0.3637172089047256  0.1282435210801036  0.8679072451930719
  0.2929642124332371  0.9682942807337076  0.8735945554722738
  0.5183760529381224  0.1028848881474614  0.2916673976642127
  0.4919453541723726  0.2214941965800011  0.1236048226592994
  0.4639375901457046  0.7801527144498079  0.0889988968810703
  0.6586763435077334  0.6385939061489045  0.7073234968477298
  0.2880839255208685  0.7231001968638194  0.6571169300768460
  0.3693447581218645  0.2188445841628831  0.0345601003718435
  0.4772535642377627  0.7581515222276106  0.9045402949545840
  0.0555151612522644  0.1610791587482763  0.4410156895401513
  0.5673679978221338  0.3795036387288479  0.7869176562399847
  0.7807019315344983  0.8697685516562278  0.4907753179889009
  0.3514183088545700  0.5830645821409203  0.9584926499251084
  0.3618842409472286  0.9492461530115885  0.4620196679993884
  0.7386164212610294  0.9400488721372756  0.9400715675551066
  0.2750784789840646  0.1052374298613451  0.2098029078621765
  0.3471135871173076 -0.0057184326207703  0.5956628114872665
  0.4578227491363062  0.6008592741063976  0.4680618400323994
  0.1350438854720940  0.4555993006214983  0.4748746836999263
  0.5484142830555704  0.9665792815952614  0.1025943743120823
  0.8144539700764720  0.0459907052089320  0.9880444744345416
  0.5427430834084008  0.5940908208294985  0.8676696140631093
  0.7314251921181212  0.9539747743425097  0.7643374060712240
  0.8173740871308904  0.4770377888462519  0.0603736292794411
  0.3742873089225825  0.0928814012468356  0.3132774308884592
  0.6730042361385723  0.3390837900636222  0.1075559373958644
  0.0634584800889798  0.2783682932412496  0.7301346330649587
  0.3632012063196563  0.5346530282910719  0.2990115983024422
  0.2404739462050623  0.4451382069880586  0.5660112412945247
  0.0943751740186087  0.2597667568166273  0.0274410651802499
  0.9392782913105264  0.0489923735848047  0.2625281181810201
  0.3465869179376324  0.4154071870097732  0.4865634621724111
  0.3373755176045084  0.1424976819861790  0.5986561193503859
  0.7093980311159107  0.3402272441149213  0.9689772210037395
  0.4971604489781865  0.5508598900920109  0.3324064152359332
  0.0491442163394310  0.1358670718106730  0.7328240325743625
  0.6253270882544341  0.0431166323900742  0.5897334887724657
  0.4789583898916630  0.0761612478181559  0.1530386672383288
  0.3955537633703498  0.3698257417548937  0.0118524549113680
  0.4620215959625854  0.9612676770894658  0.9737475853859712
  0.6501861703533494  0.1330733405606029  0.2249040971895017
  0.4937975704668339 -0.0058503561298866  0.6213936806906606
  0.8731127087076836  0.6157952396275893  0.3045080431115060
  0.2217756503762116  0.2384520452862082 -0.0181181921401963
  0.6429712138938314  0.5288393597958343  0.0028944134976841
  0.2429741712815980  0.9577496739783240  0.7360876602033007
  0.6820725729844989  0.5949275346208798  0.8393863008226545
  0.8340433345810019  0.4033062358789701  0.6771812584540627
  0.0117520372368596  0.1283120737517612  0.8764981174150164
  0.9249733711275108  0.7995903085570043  0.4773390606840486
  0.2042961631288617  0.0094850387621956  0.4305139133798218
  0.2007345207810495  0.3028032133863854  0.4683341203093337
  0.6673219434778007  0.5537938075809542  0.3443166529274378
  0.0977961972090991  0.5736725370058103  0.7855278149165243
  0.8025314391460645  0.9253908769073981  0.6460448471652795
  0.6136767553805559  0.0698882020295931  0.7274418171366945
  0.5602596143349824  0.9709672160742003  0.3251326567267578
  0.7477930106757120  0.8643005686969288  0.0584590957187120
  0.6575880177557594  0.2759473574622170  0.2485268011987104
  0.0710906794356994  0.8698126701067639  0.3698772329940122
  0.9574284636984634  0.3764735694004823  0.1099649822134825
  0.8016086249762070  0.7009645818830325  0.1035306406485809
  0.9412524330007820  0.9411568421692871  0.8509068484562454
  0.0769492359662129  0.1819582837274160  0.3026985045666019
  0.6479563069793456  0.9676712249163582  0.2124616875233207
  0.9888387135902325  0.5186929762856943  0.0323938280118075
  0.5100565373508235  0.6624727340726829  0.0028527772504155
  0.7625985909748788  0.1362899832103960  0.3921389590981322
  0.2080321245000130  0.1014395839873987  0.0101501972120706
  0.5805242191411453  0.7066862775040280  0.3819941581020477
  0.1985357153329162  0.4939965030383334  0.3569443452671334
  0.3600730186975744  0.9551492607852409  0.2690490285292294
  0.6378346115096979  0.4176174825140810  0.3206739327294786
  0.9082149461450639  0.5218906426058398  0.7025521381208624
  0.6284254400588951  0.8347653880261390  0.3510256355859109
  0.3400477613927240  0.6699663133025491  0.2527150498685168
  0.0385593522406598  0.8266376714318294  0.9669711111538607
  0.9256196706286945  0.4377916608250881  0.2313062516093829
  0.4293205103423317  0.5803227391224546  0.6164964615059761
  0.2131761159019168  0.1207198712735347  0.7311185676308719
  0.6394821173974095  0.0485197097826554  0.0391101375298450
  0.0789750680598605  0.9931227341850691  0.7063356286086906
  0.2523492978190349  0.5244689807240828  0.8799674702768392
  0.6183995475425320  0.1830134818574889  0.5415004408664715
  0.8075723224030736  0.3079435994782963  0.1296693656763895
 -0.0079178205843112  0.6992347679329529  0.6215182239011874
  0.4438807187492188  0.4791450829405756  0.9354381846265875
  0.2775922954371969  0.2296907968233344  0.7868220901702114
  0.0553568799435661  0.3028385417525000  0.4439563868617318
  0.9325893898815916  0.1877896624248376  0.2940653261153156
  0.7674756221694404  0.8193802923600659  0.3605564443181202
  0.1134105053922540  0.2255596289863254  0.1637879140131282
  0.9364262903641314  0.9809607011246647  0.0024349763266071
  0.0616874705677433  0.9935218524951317  0.5612303708005966
  0.7719931468749137  0.0036122450012668  0.4475034746321766
  0.1650803278714578  0.2791139107680486  0.6000750280861628
  0.6376174789003037  0.8254413693614697  0.2104354189220136
  0.1227234988053006  0.5493478319382138  0.9241398712616742
  0.2925250630112816  0.3048914821565469  0.6711018048640720
  0.0892121104652426  0.4223174098890059  0.6455827068340551
  0.2682137286603229  0.6890735355167470  0.7970244726348004
  0.3517666466771940  0.0825742178330387  0.0055082229441941
  0.0629238074873767  0.1137541490171368  0.0068497207902187
  0.2274537225141673  0.9453860852912421  0.0087608133856656
  0.8297631634505762  0.7962460359555628  0.7072964914016757
  0.9325197717509205  0.8658546645701162  0.3557913573511811
  0.2055378772001376  0.6319164480768626  0.2257084509919356
  0.9712269179319853  0.4261962968783380  0.5287244470356157
  0.7365086472686243  0.3044657162009430  0.8256837468041989
  0.9880195654054045  0.8285775489055165  0.6838052720225148
  0.7920313963136713  0.1726538190594680  0.1067260365937975
  0.1445821429517005  0.7728956598900381  0.2275451918347999
  0.1562228102666075  0.2334093473098920  0.8570991018186248
  0.4341690171523251  0.4418119793450285  0.5902269893496855
  0.3856339118482913  0.5228701140862629  0.7477132157631614
  0.8200563340536056  0.6696536280192908  0.7904037213990635
  0.9853440344961277  0.0522066310343519  0.1219921328821967
  0.3566591766844715  0.0138698358454779  0.1366603858821211
  0.5799916936308243  0.6566619036697832  0.1711532981691657
  0.7060535464335189  0.7268443344392560  0.5402352161952576
  0.0448993123403779  0.7268840467329675  0.4916706669955895
  0.4477902676912654  0.1922186156607269  0.7450035036913221
  0.2004724406980352  0.0767257906179358  0.8670796375346574
  0.3677274191838110  0.2409185532297635  0.3128224906044800
  0.8607975036630162  0.9233373911260006  0.2033414325193578
  0.4401868288915377  0.7171338741381000  0.7064303977797585
  0.1786642510448888  0.9409101772818137  0.1518287581983251
  0.8987843516669323  0.2973792388756379  0.9829453313451350
  0.6437162153956508  0.6928234299651480  0.0258012562861966
  0.9514991109439710  0.4640809135278867  0.3964513070329337
  0.6628569058645507  0.9077599728373320  0.6305958175003444
  0.3735838271711368  0.6644178140105517  0.1095678932472597
  0.2704208307464339  0.5838988696007892  0.5758608561353871
  0.5380929982233092  0.8900208966923920  0.7040076098784995
  0.6433098743208198  0.8524777675278529  0.5018934909438452
  0.4919166924419635  0.8285700291278209  0.2235240163997172
  0.3339287556160001  0.8150410637273792  0.2359008635576246
  0.7962235507668572  0.2942197972057227  0.2754739277730676
  0.3224497383343264  0.5696366501541354  0.4456065501983107
  0.4271816388059996  0.8120098110874507  0.5440735354278535
  0.3397178492167071  0.0880981184542261  0.4497836436460146
  0.0778267139554934  0.0425490029581298  0.2727775537604424
  0.3445330779127465  0.0696860656277691  0.7260581477850475
  0.0902034685978451  0.9910845075428838  0.8606531302957252
  0.7688054453372886  0.9711525405870161  0.2947222212652847
  0.6930200573568551  0.7758305772388842  0.6880725235328283
  0.9441902021073477  0.9643964952986821  0.7106295612819304
  0.1715735604248790  0.6343173044637093  0.3640069368644958
  0.2926748072738320  0.6980436524601377  0.4010853771978743
  0.0474053879571972  0.1395883141195471  0.5852592947063576
  0.1589921492118763  0.3712078055972058  0.8375500277234716
  0.3402283109813236  0.2761661500203238  0.5215084866490042
  0.4923563467251395  0.6984884910089271  0.2685221255296220
  0.5852376300218455  0.6569981127655659  0.5284121915633407
  0.2023984417728366  0.5363967776837920  0.0572237959751382
  0.0645172563525088  0.0089669657220079  0.4118850693247733
  0.2320538022037174  0.5542740309717127  0.7418022229240315
  0.9099739297786035  0.1178485899573913  0.7162908057259919
  0.1566999378803907  0.3932846150706890  0.0362941169224237
  0.5524630695483584  0.7097034394757529  0.7885539697266138
  0.9154659930001935  0.7453080541274598  0.2694905570204931
  0.0879234808835354  0.9694611513423618  0.0005051635122268
  0.4469070978265161  0.2543980233757449  0.4307364596349481
  0.8755423012022461  0.6669234592905886  0.4441008479929775
  0.9265713646266950  0.9589986614125012  0.5495419193782930
  0.2229733120083220  0.8718465496516188  0.4861673090452133
  0.7700823781464223  0.0641889282158722  0.5817643033464286
  0.6020579922820645  0.8250459169432537  0.0599270496556678
  0.2078817615949661  0.9857092437351763  0.5729838968541809
  0.0855901946052937  0.4164870112940334  0.1568493856590124
  0.4747590575129807  0.1222041609898277  0.4562041791346711
  0.6292426428197228  0.1810753727365237  0.0938073370153929
  0.6191718032152741  0.1343119973576274  0.4082729717688201
  0.3494721424907057  0.3839104268326102  0.3207171559669238
  0.7667504201793995  0.9870566694553955  0.1176180364710544
  0.9749483948235853  0.2492198175299931  0.1652043426165609
  0.3252717644372216  0.2313826685202247  0.1734072446384100
  0.9415813013022321  0.7021596517528119  0.1366582847936971
  0.3940571467590577  0.6338284806105273  0.8352602594786918
  0.7855279516889481  0.4294462203490510  0.2472658015170489
  0.9074198308226918  0.5457155029956231  0.1459898037586412
  0.9425715995381356  0.3202899632712172  0.7802595414162974
  0.2217173472956399  0.6945241566284556  0.9482518535307234
  0.0187584219430922  0.2791892149358932  0.5960408412441637
  0.9063329887867883  0.1452816439050797  0.4299994605853892
  0.0671423755787351  0.8916862867771620  0.2248982357374350
  0.0896867508615080  0.5640102748671082  0.6347147633117362
  0.2402009507191787  0.4981874493581098  0.1866359328714917
  0.5380086503135322  0.4592017577577492  0.4972338427876671
  0.8183624004571880  0.8751416443054345  0.8456539469818068
  0.6192358312052106  0.2260448699413183  0.8391570902612928
  0.0745798606189086  0.6903953429802233  0.9622055205812260
  0.8828954737806948  0.2522525738144715  0.6710124134269848
  0.7081509511323966  0.4062631933209147  0.4428276263624751
  0.4463246079963188  0.7399699214672689  0.4246182147165717
  0.0896470984508018  0.8572829062049324  0.5244760634544096
  0.2356841220457725  0.6752256389581475  0.0868325180920522
  0.5117789150013904  0.1085608711770487  0.8547342836614804
  0.4308016863871357  0.3262253091355315  0.7087762662436218
  0.0667858931724894  0.4192252570733226  0.9324633475301752
  0.3788623084938472  0.5193322248274550  0.1622955099337314
  0.6961421187370059  0.7239964182503194  0.8982907922404187
  0.5028708014398167  0.4145816784448901  0.3639005580690944
  0.1974954882921003  0.1590122430155617  0.4413934400734361
  0.2697479795763327  0.3937516166210373  0.9153114824206826
  0.7554528903584767  0.2030952736784044  0.5530928389899604
  0.9887486825969201  0.7807171948038156  0.8132325442131499
  0.4713661372507758  0.2905082495737542  0.5770391841930205
  0.3719214636519517  0.3778726973657954  0.1842407893124311
  0.1414108603139953  0.5951567919893180  0.5079533498137516
  0.2105606713924953  0.3468489366693869  0.3177241334676277
  0.6903014779396407  0.4815657140357221  0.1262832674691734
  0.8240669067600913  0.5366425525453344  0.8563139163228690
  0.1422946594974824  0.7153982485034781  0.6614046988528218
  0.0045809622922443  0.6022484596092718  0.4162582481105744
  0.9552976593731082  0.6512362534235110  0.7654434306598213
  0.4951665934808537  0.9254553284065825  0.4994461741033535
  0.8528451222773243  0.7180976696836934  0.5940443054449788
  0.3490289940556600  0.7712994478761840  0.9599528784971806
  0.4205644877084835  0.2775147402081818  0.9078136961960332
  0.7907942969084257  0.6056250321023524  0.6487386168349353
  0.5534322353373193  0.5211890985106399  0.1970634176924739
  0.8330176819820142  0.4147686648989027  0.5399982074897675
  0.6893379469919789  0.4435194226490660  0.8143328381159153
  0.7099747604669890  0.4671820375870275  0.6781184401118876
  0.7408818751054729  0.2003743044329582  0.9782670674258038
  0.5259119495924307  0.3608553655416010  0.0650823148200321
  0.7976981842845894  0.5937782971523795  0.9858181005268887
  0.9343605251898058  0.3232771013084762  0.3654995432459133
  0.6138209699995165  0.0174312040013152  0.9043395043013999
  0.9616210190340139  0.5566219644075421  0.5788319720861794
  0.5720455428999928  0.5508625463709975  0.6315902772872712
  0.4303538378088508  0.9901603917639722  0.8345640348421399
  0.3189953887024310  0.8648362560682205  0.6618070065427885
  0.6619379931083772  0.5436039771361750  0.4839942475067716
  0.4134670231890786  0.8456440684155807  0.7612661533442343
  0.7590912502342656  0.2755313064178889  0.4164505502245713
  0.6085250821590579  0.2750609439925337  0.3815614832159019
  0.7843419228553578  0.1081709081331986  0.2563680316609333
  0.7988835503841214  0.4966809386023813  0.3696332766908766
  0.0829697761471144  0.5565097406912680  0.1256921497152458
  0.1250512881595292  0.8529448497034049  0.6627517342102027
  0.5879458904702118  0.2032338877537183  0.7041016172505667
  0.5598514582605535  0.8691481870224161  0.9340784317116060
  0.7766797009124021  0.6005874275382912  0.1950700139693024
  0.9087007137307541  0.0943041743765349  0.5719898690526850
  0.5075855118215340  0.3759590797723370  0.2095878564029595
  0.7399682749176026  0.6903345705576172  0.4088034917883397
  0.9273295262186442  0.1665938292673877  0.0634432542510474
  0.6253312568123782  0.9958002034834936  0.4454835648233871
  0.0175295311825265  0.4468975021493787  0.7621265329632866
  0.3705056521646533  0.8798365306660518  0.0445573074490248
 -0.0024144421169140  0.8285246429561619  0.1057302554687032
  0.8408552538452387  0.2215484038252156  0.8813634999510830
  0.2223368040324134  0.9627813784631370  0.2888862219816837
  0.9611723392878488  0.5621702233633760  0.8728466101493181
  0.1909530086247760  0.1410422374971665  0.5838839928425698
  0.7505412681023321  0.0954982259171291  0.7315473562825444
  0.5347098110039111  0.7748793835358063  0.6213940943975227
  0.9360575339798917  0.6412462927001883  0.9841477954077089
  0.2425283208756547  0.8155375741856302  0.1314345678093530
  0.4762134729847127  0.1527588359371030  0.5995804300666870
  0.6429306735949211  0.3475377099804344  0.6614641825308817
  0.2276899877968125  0.8278240433997923  0.3296377211991154
 
  0.00000000E+00  0.00000000E+00  0.00000000E+00
  0.00000000E+00  0.00000000E+00  0.00000000E+00
  0.00000000E+00  0.00000000E+00  0.00000000E+00
  0.00000000E+00  0.00000000E+00  0.00000000E+00
  0.00000000E+00  0.00000000E+00  0.00000000E+00
  0.00000000E+00  0.00000000E+00  0.00000000E+00
  0.00000000E+00  0.00000000E+00  0.00000000E+00
  0.00000000E+00  0.00000000E+00  0.00000000E+00
  0.00000000E+00  0.00000000E+00  0.00000000E+00
  0.00000000E+00  0.00000000E+00  0.00000000E+00
  0.00000000E+00  0.00000000E+00  0.00000000E+00
  0.00000000E+00  0.00000000E+00  0.00000000E+00
  0.00000000E+00  0.00000000E+00  0.00000000E+00
  0.00000000E+00  0.00000000E+00  0.00000000E+00
  0.00000000E+00  0.00000000E+00  0.00000000E+00
  0.00000000E+00  0.00000000E+00  0.00000000E+00
  0.00000000E+00  0.00000000E+00  0.00000000E+00
  0.00000000E+00  0.00000000E+00  0.00000000E+00
  0.00000000E+00  0.00000000E+00  0.00000000E+00
  0.00000000E+00  0.00000000E+00  0.00000000E+00
  0.00000000E+00  0.00000000E+00  0.00000000E+00
  0.00000000E+00  0.00000000E+00  0.00000000E+00
  0.00000000E+00  0.00000000E+00  0.00000000E+00
  0.00000000E+00  0.00000000E+00  0.00000000E+00
  0.00000000E+00  0.00000000E+00  0.00000000E+00
  0.00000000E+00  0.00000000E+00  0.00000000E+00
  0.00000000E+00  0.00000000E+00  0.00000000E+00
  0.00000000E+00  0.00000000E+00  0.00000000E+00
  0.00000000E+00  0.00000000E+00  0.00000000E+00
  0.00000000E+00  0.00000000E+00  0.00000000E+00
  0.00000000E+00  0.00000000E+00  0.00000000E+00
  0.00000000E+00  0.00000000E+00  0.00000000E+00
  0.00000000E+00  0.00000000E+00  0.00000000E+00
  0.00000000E+00  0.00000000E+00  0.00000000E+00
  0.00000000E+00  0.00000000E+00  0.00000000E+00
  0.00000000E+00  0.00000000E+00  0.00000000E+00
  0.00000000E+00  0.00000000E+00  0.00000000E+00
  0.00000000E+00  0.00000000E+00  0.00000000E+00
  0.00000000E+00  0.00000000E+00  0.00000000E+00
  0.00000000E+00  0.00000000E+00  0.00000000E+00
  0.00000000E+00  0.00000000E+00  0.00000000E+00
  0.00000000E+00  0.00000000E+00  0.00000000E+00
  0.00000000E+00  0.00000000E+00  0.00000000E+00
  0.00000000E+00  0.00000000E+00  0.00000000E+00
  0.00000000E+00  0.00000000E+00  0.00000000E+00
  0.00000000E+00  0.00000000E+00  0.00000000E+00
  0.00000000E+00  0.00000000E+00  0.00000000E+00
  0.00000000E+00  0.00000000E+00  0.00000000E+00
  0.00000000E+00  0.00000000E+00  0.00000000E+00
  0.00000000E+00  0.00000000E+00  0.00000000E+00
  0.00000000E+00  0.00000000E+00  0.00000000E+00
  0.00000000E+00  0.00000000E+00  0.00000000E+00
  0.00000000E+00  0.00000000E+00  0.00000000E+00
  0.00000000E+00  0.00000000E+00  0.00000000E+00
  0.00000000E+00  0.00000000E+00  0.00000000E+00
  0.00000000E+00  0.00000000E+00  0.00000000E+00
  0.00000000E+00  0.00000000E+00  0.00000000E+00
  0.00000000E+00  0.00000000E+00  0.00000000E+00
  0.00000000E+00  0.00000000E+00  0.00000000E+00
  0.00000000E+00  0.00000000E+00  0.00000000E+00
  0.00000000E+00  0.00000000E+00  0.00000000E+00
  0.00000000E+00  0.00000000E+00  0.00000000E+00
  0.00000000E+00  0.00000000E+00  0.00000000E+00
  0.00000000E+00  0.00000000E+00  0.00000000E+00
  0.00000000E+00  0.00000000E+00  0.00000000E+00
  0.00000000E+00  0.00000000E+00  0.00000000E+00
  0.00000000E+00  0.00000000E+00  0.00000000E+00
  0.00000000E+00  0.00000000E+00  0.00000000E+00
  0.00000000E+00  0.00000000E+00  0.00000000E+00
  0.00000000E+00  0.00000000E+00  0.00000000E+00
  0.00000000E+00  0.00000000E+00  0.00000000E+00
  0.00000000E+00  0.00000000E+00  0.00000000E+00
  0.00000000E+00  0.00000000E+00  0.00000000E+00
  0.00000000E+00  0.00000000E+00  0.00000000E+00
  0.00000000E+00  0.00000000E+00  0.00000000E+00
  0.00000000E+00  0.00000000E+00  0.00000000E+00
  0.00000000E+00  0.00000000E+00  0.00000000E+00
  0.00000000E+00  0.00000000E+00  0.00000000E+00
  0.00000000E+00  0.00000000E+00  0.00000000E+00
  0.00000000E+00  0.00000000E+00  0.00000000E+00
  0.00000000E+00  0.00000000E+00  0.00000000E+00
  0.00000000E+00  0.00000000E+00  0.00000000E+00
  0.00000000E+00  0.00000000E+00  0.00000000E+00
  0.00000000E+00  0.00000000E+00  0.00000000E+00
  0.00000000E+00  0.00000000E+00  0.00000000E+00
  0.00000000E+00  0.00000000E+00  0.00000000E+00
  0.00000000E+00  0.00000000E+00  0.00000000E+00
  0.00000000E+00  0.00000000E+00  0.00000000E+00
  0.00000000E+00  0.00000000E+00  0.00000000E+00
  0.00000000E+00  0.00000000E+00  0.00000000E+00
  0.00000000E+00  0.00000000E+00  0.00000000E+00
  0.00000000E+00  0.00000000E+00  0.00000000E+00
  0.00000000E+00  0.00000000E+00  0.00000000E+00
  0.00000000E+00  0.00000000E+00  0.00000000E+00
  0.00000000E+00  0.00000000E+00  0.00000000E+00
  0.00000000E+00  0.00000000E+00  0.00000000E+00
  0.00000000E+00  0.00000000E+00  0.00000000E+00
  0.00000000E+00  0.00000000E+00  0.00000000E+00
  0.00000000E+00  0.00000000E+00  0.00000000E+00
  0.00000000E+00  0.00000000E+00  0.00000000E+00
  0.00000000E+00  0.00000000E+00  0.00000000E+00
  0.00000000E+00  0.00000000E+00  0.00000000E+00
  0.00000000E+00  0.00000000E+00  0.00000000E+00
  0.00000000E+00  0.00000000E+00  0.00000000E+00
  0.00000000E+00  0.00000000E+00  0.00000000E+00
  0.00000000E+00  0.00000000E+00  0.00000000E+00
  0.00000000E+00  0.00000000E+00  0.00000000E+00
  0.00000000E+00  0.00000000E+00  0.00000000E+00
  0.00000000E+00  0.00000000E+00  0.00000000E+00
  0.00000000E+00  0.00000000E+00  0.00000000E+00
  0.00000000E+00  0.00000000E+00  0.00000000E+00
  0.00000000E+00  0.00000000E+00  0.00000000E+00
  0.00000000E+00  0.00000000E+00  0.00000000E+00
  0.00000000E+00  0.00000000E+00  0.00000000E+00
  0.00000000E+00  0.00000000E+00  0.00000000E+00
  0.00000000E+00  0.00000000E+00  0.00000000E+00
  0.00000000E+00  0.00000000E+00  0.00000000E+00
  0.00000000E+00  0.00000000E+00  0.00000000E+00
  0.00000000E+00  0.00000000E+00  0.00000000E+00
  0.00000000E+00  0.00000000E+00  0.00000000E+00
  0.00000000E+00  0.00000000E+00  0.00000000E+00
  0.00000000E+00  0.00000000E+00  0.00000000E+00
  0.00000000E+00  0.00000000E+00  0.00000000E+00
  0.00000000E+00  0.00000000E+00  0.00000000E+00
  0.00000000E+00  0.00000000E+00  0.00000000E+00
  0.00000000E+00  0.00000000E+00  0.00000000E+00
  0.00000000E+00  0.00000000E+00  0.00000000E+00
  0.00000000E+00  0.00000000E+00  0.00000000E+00
  0.00000000E+00  0.00000000E+00  0.00000000E+00
  0.00000000E+00  0.00000000E+00  0.00000000E+00
  0.00000000E+00  0.00000000E+00  0.00000000E+00
  0.00000000E+00  0.00000000E+00  0.00000000E+00
  0.00000000E+00  0.00000000E+00  0.00000000E+00
  0.00000000E+00  0.00000000E+00  0.00000000E+00
  0.00000000E+00  0.00000000E+00  0.00000000E+00
  0.00000000E+00  0.00000000E+00  0.00000000E+00
  0.00000000E+00  0.00000000E+00  0.00000000E+00
  0.00000000E+00  0.00000000E+00  0.00000000E+00
  0.00000000E+00  0.00000000E+00  0.00000000E+00
  0.00000000E+00  0.00000000E+00  0.00000000E+00
  0.00000000E+00  0.00000000E+00  0.00000000E+00
  0.00000000E+00  0.00000000E+00  0.00000000E+00
  0.00000000E+00  0.00000000E+00  0.00000000E+00
  0.00000000E+00  0.00000000E+00  0.00000000E+00
  0.00000000E+00  0.00000000E+00  0.00000000E+00
  0.00000000E+00  0.00000000E+00  0.00000000E+00
  0.00000000E+00  0.00000000E+00  0.00000000E+00
  0.00000000E+00  0.00000000E+00  0.00000000E+00
  0.00000000E+00  0.00000000E+00  0.00000000E+00
  0.00000000E+00  0.00000000E+00  0.00000000E+00
  0.00000000E+00  0.00000000E+00  0.00000000E+00
  0.00000000E+00  0.00000000E+00  0.00000000E+00
  0.00000000E+00  0.00000000E+00  0.00000000E+00
  0.00000000E+00  0.00000000E+00  0.00000000E+00
  0.00000000E+00  0.00000000E+00  0.00000000E+00
  0.00000000E+00  0.00000000E+00  0.00000000E+00
  0.00000000E+00  0.00000000E+00  0.00000000E+00
  0.00000000E+00  0.00000000E+00  0.00000000E+00
  0.00000000E+00  0.00000000E+00  0.00000000E+00
  0.00000000E+00  0.00000000E+00  0.00000000E+00
  0.00000000E+00  0.00000000E+00  0.00000000E+00
  0.00000000E+00  0.00000000E+00  0.00000000E+00
  0.00000000E+00  0.00000000E+00  0.00000000E+00
  0.00000000E+00  0.00000000E+00  0.00000000E+00
  0.00000000E+00  0.00000000E+00  0.00000000E+00
  0.00000000E+00  0.00000000E+00  0.00000000E+00
  0.00000000E+00  0.00000000E+00  0.00000000E+00
  0.00000000E+00  0.00000000E+00  0.00000000E+00
  0.00000000E+00  0.00000000E+00  0.00000000E+00
  0.00000000E+00  0.00000000E+00  0.00000000E+00
  0.00000000E+00  0.00000000E+00  0.00000000E+00
  0.00000000E+00  0.00000000E+00  0.00000000E+00
  0.00000000E+00  0.00000000E+00  0.00000000E+00
  0.00000000E+00  0.00000000E+00  0.00000000E+00
  0.00000000E+00  0.00000000E+00  0.00000000E+00
  0.00000000E+00  0.00000000E+00  0.00000000E+00
  0.00000000E+00  0.00000000E+00  0.00000000E+00
  0.00000000E+00  0.00000000E+00  0.00000000E+00
  0.00000000E+00  0.00000000E+00  0.00000000E+00
  0.00000000E+00  0.00000000E+00  0.00000000E+00
  0.00000000E+00  0.00000000E+00  0.00000000E+00
  0.00000000E+00  0.00000000E+00  0.00000000E+00
  0.00000000E+00  0.00000000E+00  0.00000000E+00
  0.00000000E+00  0.00000000E+00  0.00000000E+00
  0.00000000E+00  0.00000000E+00  0.00000000E+00
  0.00000000E+00  0.00000000E+00  0.00000000E+00
  0.00000000E+00  0.00000000E+00  0.00000000E+00
  0.00000000E+00  0.00000000E+00  0.00000000E+00
  0.00000000E+00  0.00000000E+00  0.00000000E+00
  0.00000000E+00  0.00000000E+00  0.00000000E+00
  0.00000000E+00  0.00000000E+00  0.00000000E+00
  0.00000000E+00  0.00000000E+00  0.00000000E+00
  0.00000000E+00  0.00000000E+00  0.00000000E+00
  0.00000000E+00  0.00000000E+00  0.00000000E+00
  0.00000000E+00  0.00000000E+00  0.00000000E+00
  0.00000000E+00  0.00000000E+00  0.00000000E+00
  0.00000000E+00  0.00000000E+00  0.00000000E+00
  0.00000000E+00  0.00000000E+00  0.00000000E+00
  0.00000000E+00  0.00000000E+00  0.00000000E+00
  0.00000000E+00  0.00000000E+00  0.00000000E+00
  0.00000000E+00  0.00000000E+00  0.00000000E+00
  0.00000000E+00  0.00000000E+00  0.00000000E+00
  0.00000000E+00  0.00000000E+00  0.00000000E+00
  0.00000000E+00  0.00000000E+00  0.00000000E+00
  0.00000000E+00  0.00000000E+00  0.00000000E+00
  0.00000000E+00  0.00000000E+00  0.00000000E+00
  0.00000000E+00  0.00000000E+00  0.00000000E+00
  0.00000000E+00  0.00000000E+00  0.00000000E+00
  0.00000000E+00  0.00000000E+00  0.00000000E+00
  0.00000000E+00  0.00000000E+00  0.00000000E+00
  0.00000000E+00  0.00000000E+00  0.00000000E+00
  0.00000000E+00  0.00000000E+00  0.00000000E+00
  0.00000000E+00  0.00000000E+00  0.00000000E+00
  0.00000000E+00  0.00000000E+00  0.00000000E+00
  0.00000000E+00  0.00000000E+00  0.00000000E+00
  0.00000000E+00  0.00000000E+00  0.00000000E+00
  0.00000000E+00  0.00000000E+00  0.00000000E+00
  0.00000000E+00  0.00000000E+00  0.00000000E+00
  0.00000000E+00  0.00000000E+00  0.00000000E+00
  0.00000000E+00  0.00000000E+00  0.00000000E+00
  0.00000000E+00  0.00000000E+00  0.00000000E+00
  0.00000000E+00  0.00000000E+00  0.00000000E+00
  0.00000000E+00  0.00000000E+00  0.00000000E+00
  0.00000000E+00  0.00000000E+00  0.00000000E+00
  0.00000000E+00  0.00000000E+00  0.00000000E+00
  0.00000000E+00  0.00000000E+00  0.00000000E+00
  0.00000000E+00  0.00000000E+00  0.00000000E+00
  0.00000000E+00  0.00000000E+00  0.00000000E+00
  0.00000000E+00  0.00000000E+00  0.00000000E+00
  0.00000000E+00  0.00000000E+00  0.00000000E+00
  0.00000000E+00  0.00000000E+00  0.00000000E+00
  0.00000000E+00  0.00000000E+00  0.00000000E+00