Amorphous GeAsSeSi                      
   1.00000000000000     
    19.3206389350976657    0.0000000000000000    0.0000000000000000
     0.0000000000000000   19.3206389350976657    0.0000000000000000
     0.0000000000000000    0.0000000000000000   19.3206389350976657
   Si   Se
   120   120
Direct
  0.3519300581872509  0.8733188970943917  0.1314261618457954
  0.2225702433300510  0.0662534598077515  0.5096682568349346
  0.2220041405154284  0.4457642367490241  0.2396009418754578
  0.6027078518792782  0.8219765857810311  0.8382662112773525
  0.7987792638111157  0.7985381049247328  0.2019788216513957
  0.3668032849422129  0.8520860748721916  0.3256756731380278
  0.6147999783848218  0.8559893223326535  0.7193348893613370
  0.7156049358037985  0.5453500223834383  0.7874954871346873
  0.0695862854418093  0.5394138545549760  0.2086900470399730
  0.3735589308859928  0.0082690863267104  0.4215308493070829
  0.9027521043995539  0.9370585894186835  0.1386783987971125
  0.8644697854932780  0.0629243120886945  0.0472710367667294
  0.3936656104396035  0.8996434201091512  0.0081360558816485
  0.7000144830966304  0.8883017162748816  0.8737481205819980
  0.2261998264680327  0.0520156480663396  0.8072664588662281
  0.2777381957841314  0.0041188023602116  0.9085920531830078
  0.7634666015496311  0.2423964488584160  0.3709005557909108
  0.7375382029669479  0.8520202704754103  0.5453767943653667
  0.2213509651697391  0.4303068848206628  0.7646663896581452
  0.0967033612825307  0.2001842895963876  0.8690232815977413
  0.1193494175737857  0.5611560442486384  0.6850660992819998
  0.8121964922443341  0.8222877232611228  0.9953354427340018
  0.8979134569247913  0.1725672741786369  0.9082409168752876
  0.3940403749455057  0.3318826878607626  0.8063023510045891
  0.6528892061060544  0.6406479998721222  0.7436748127114504
  0.1315364507820884  0.6493458060639222  0.7755819902948985
  0.5168904281039548  0.1491224746995921  0.4341015419948347
  0.9868473798038606  0.7057017221434309  0.8694138080917592
  0.6473818754721772  0.2970536551690449  0.1885399853035599
  0.4542687106058368  0.6039424516672396  0.8618579139895477
  0.6128419735180741  0.3178588241335517  0.2997508470613897
  0.8009621552664741  0.3459770292956076  0.9515030981600946
  0.1307386978763394  0.6189899199758041  0.5725004766101960
  0.3190267800656451  0.7849427060303206  0.4548299251270713
  0.6238481244003760  0.5690695580113343  0.1656081786345218
  0.4513913017421702  0.4383594172082214  0.8188243254419257
  0.7505061116982860  0.7083186777555546  0.7110870348739560
  0.6799972154306946  0.1749181666033788  0.2035648523551526
  0.2264111772067437  0.7637088032019576  0.0616942126086057
  0.7426590222346537  0.6825566486563382  0.0844232311422412
  0.7159221616705491  0.8158192112618117  0.6667500372277374
  0.4193535042747897  0.1255308512873290  0.0090934120382387
  0.5799532722265583  0.2437056635390439  0.4840371062781269
  0.2023715208698707  0.0946573949734890  0.1817865427038339
  0.7988340307139944  0.8413509985114865  0.8174466637234654
  0.6205164323645276  0.2656877240736514  0.9191197890348202
  0.7675092565141810  0.1539074883204591  0.2895614098000876
  0.5007049222333954  0.1986934940306001  0.7303991039527087
  0.0365235666939879  0.1030416241217943  0.7041917055362299
  0.6424258935649727  0.2350667677215362  0.3813645947170798
  0.4780088221519145  0.9397293148909419  0.4411927602232704
  0.9296866258925401  0.1682693747874273  0.5728765745741041
  0.2702234062909361  0.0370598938190057  0.0318654687070597
  0.8391303763724147  0.7909615273962586  0.5031261727221462
  0.9753002082957070  0.5801345348425507  0.6155363256683473
  0.0461289275165113  0.9839417526297033  0.6471854235410719
  0.0492950697206438  0.5621137530610268  0.5112490524275874
  0.7278293845995994  0.5518795653144755  0.2290400727971074
  0.9888280919733359  0.3441745265613941  0.9411537289816181
  0.5906019785392596  0.7357269184734174  0.5646676670311488
  0.2299993355727431  0.5282688323540380  0.3575954763251821
  0.6971906837393181  0.5837236424694207  0.3482780161131676
  0.4695313507954719  0.1518025933745518  0.8894615804183659
  0.8543033168475102  0.2321702862386738  0.4502918358331680
  0.8912974973718707  0.2731310862314457  0.9791227032505735
  0.1584257267071439  0.2091819420442908  0.1720646601693387
  0.4984315281147426  0.8602423919709447  0.8926239919121217
  0.6066259336537541  0.6637954316259876  0.3335249700408794
  0.1591585435473223  0.4429439800159121  0.6606312781715596
  0.1443770705800650  0.1381804252179464  0.7623157936602520
  0.1212330522339540  0.0119382983184214  0.4585648092620554
  0.5773947297944092  0.2764230231607659  0.8031847027268235
  0.8338448550656622  0.1579948948443222  0.1189493753591591
  0.0719065695433700  0.8642756019895124  0.7463851909249235
  0.7738901720174043  0.6903610260772165  0.4847958630521466
  0.9916400131675289  0.4350242437912256  0.5695852735188154
  0.1849067383155223  0.7745755846759528  0.8732152054839684
  0.7786225217969240  0.4877043928330431  0.6979122429594021
  0.6179336883840321  0.1207178354173072  0.3532100563711761
  0.9213978449551463  0.0783077793279063  0.7531086800966456
  0.4276015070373505  0.7758051127785272  0.8393716968411746
  0.5886284460710772  0.9635712495386678  0.5696970336069430
  0.6081204849706547  0.4034271045307151  0.3836878186671472
  0.7660262845859751  0.6605889828227912  0.6026687275787668
  0.5324982165472600  0.6334140630605510  0.7732538096290199
  0.9826876740295516  0.6856740885384255  0.5600659824861647
  0.7652468821984183  0.5679873195081726  0.4510295324580439
  0.4206333517762175  0.3089902586683522  0.4161788810526380
  0.3558350807240547  0.9447875454215189  0.8281781933467135
  0.6471220627758878  0.5699004040954908  0.5073640600133171
  0.3723561277165223  0.5204101413255311  0.8400571328062100
  0.0908364170581118  0.7308406470904542  0.9344072485760462
  0.2921788924352879  0.9114402451642084  0.4400207547086014
  0.3199945724238638  0.3406312937165800  0.4818375668292025
  0.6741888959097201  0.7636124631333522  0.4848477045047465
  0.6758075590019599  0.9592202954899752  0.7210115317735714
  0.5297555431504855  0.3535611240174119  0.4593904008383182
  0.8763574113226277  0.8595998153727948  0.3090172827052352
  0.4677309458230494  0.3041346619459928  0.9892882688822522
  0.6841986199813751  0.3997187372180954  0.1336901452381487
  0.5643444972047101  0.8481323042700988  0.6074043391118199
  0.2379662946600813  0.6109263168065333  0.4985549571702826
  0.1232881969996011  0.2791874807480151  0.0434882363425706
  0.1710740645310636  0.0997318409038680  0.3086642029063870
  0.8323019324710116  0.4361605262356567  0.8707399950875273
  0.2132227527919978  0.6004807385183676  0.1679936581590606
  0.6754253546340545  0.0322523863266539  0.6203866553909224
  0.6442560348043063  0.4552711179506695  0.5404633861654384
  0.5526180749830795  0.5896231948843608  0.4245738212283308
  0.3255074863426199  0.5293890820991786  0.4442148789857905
  0.4659718255721569  0.2719450185897808  0.8722120766304499
  0.3398634375947515  0.9908471225560136  0.1195941934064276
  0.2555606350264673  0.1695199636174167  0.5733276792203881
  0.6467016667771815  0.6350631769459527  0.6148420698395900
  0.5539982553009350  0.3454798619012911  0.6973928663488508
  0.5462481640436853  0.4593644302856150  0.7438567916982296
  0.4296593477953533  0.0754691486009059  0.5050940299470735
  0.6199721252497425  0.2542577479601264  0.6523006056848469
  0.4289109470591587  0.4681818128102594  0.9344412650897086
  0.4337352841396206  0.7775286019889174  0.4881634664609238
  0.7693279017157532  0.4403251368237727  0.2099351262756649
  0.0015108700546629  0.5523570664000467  0.7228045302298692
  0.5009826619031491  0.8429756562525798  0.0145158212726991
  0.0290878590437007  0.9743499237226294  0.5210602134384856
  0.8827966248061201  0.8681135878597277  0.9061440609653828
  0.0349802995395877  0.3001933064390561  0.8365650081932886
  0.1392015016133703  0.8818373337066309  0.8499539602434691
  0.8736331636894606  0.7445225110737828  0.2702715834664061
  0.2871891228136791  0.5596871923260182  0.2467933570939975
  0.5276596586581478  0.4251830629170950  0.5578252792336719
  0.4341936970293908  0.1117984334446818  0.7757433925054582
  0.0835758512969662  0.6144344046142526  0.8849245946237356
  0.3041446305742501  0.4472984842803666  0.5318013312699632
  0.4364303013055942  0.5526886648575882  0.4031625889788291
  0.1635404355043849  0.4969152321144321  0.1316324921748735
  0.7972842048054160  0.9854456616632531  0.1113836089766919
  0.9640584069247650  0.5114405409133472  0.1845566146116095
  0.5773894977748407  0.3474921355195164  0.9994012385531065
  0.5758801621149785  0.4608657839416632  0.1456786279696556
  0.4473691576642980  0.9962292761252354  0.3324255680334744
  0.2397097921394538  0.8335151198467626  0.1588535777853358
  0.5082941082109280  0.5524222112644056  0.6818172467715586
  0.4712730077393177  0.2155250162736837  0.0706993230842254
  0.8018160868524100  0.7030653440103275  0.9756239774755254
  0.0397023513587429  0.1931231369314395  0.6193052805895501
  0.8050311062261739  0.5517210347523779  0.8688376524798235
  0.5292282845444750  0.2957287685742485  0.2145589938263590
  0.0565327832703191  0.2055257555283312  0.1155416151392968
  0.9276499898787540  0.1351890328474727  0.4570214437099006
  0.8781060308282570  0.2670532744762542  0.1038443824715939
  0.4794592552706358  0.8259143621340060  0.3872853162932905
  0.9555867908515729  0.9215041118568502  0.2428807255197953
  0.3910630860569482  0.6948288825645131  0.9098188750678925
  0.5928758243001321  0.9596452271806543  0.4504941846816882
  0.4764977184817213  0.0159726838797968  0.5979661814558626
  0.7693292293542852  0.8935040210807041  0.2582546898702374
  0.8891725878233429  0.8234160295558483  0.0995248479892709
  0.2735062767598678  0.8113846196730674  0.9558169594956294
  0.5963869703135403  0.5130142608558389  0.3386431915954672
  0.7480321083918262  0.4257114252585055  0.0310752423272285
  0.9686820944668666  0.9164635110461617  0.7150860163118775
  0.8451686119984885  0.4019938417340050  0.7571903377771922
  0.3316021027224830  0.7365871587362256  0.3459954753029055
  0.8451886630885181  0.7384231641074480  0.7830302574001955
  0.2145675485033151  0.3005908606612578  0.1184895435540506
  0.9757450680939498  0.6325918850811486  0.4506040823881808
  0.9225952972967641  0.7826390482164524  0.5917300551689989
  0.2955112644270766  0.1184945078376742  0.8788353847266520
  0.4337762618960435  0.3006941459821635  0.6936461003313251
  0.3031764961046690  0.1480367681206078  0.0357626419506005
  0.8846512996168555  0.1871693207899066  0.7952329129596348
  0.2689590735835328  0.3313259531831242  0.8155005366140035
  0.5528496643701875  0.6502383330053959  0.2220973094613493
  0.2615056204377329  0.5354883640337528  0.7919809114402601
  0.3056908559465416  0.0470876304162862  0.2254113932378146
  0.8715320085132207  0.1320308906353923  0.2313992613673496
  0.4462186719935449  0.0154035675390509  0.0631117347410184
  0.1582552246556378  0.2235481044679122  0.2891601721259525
  0.1732375718729297  0.9141590848873329  0.4045326412225004
  0.7188306804835022  0.1427160441785942  0.0936074882878176
  0.6348052810695506  0.4634409407230154  0.8254030798569151
  0.8681396180946290  0.0944842380432653  0.6406699895084664
  0.4390682893427227  0.2056534395677083  0.3578183967414449
  0.1742394052623285  0.6306240409192839  0.3919586359439616
  0.7599900967197820  0.9717618374327009  0.5530292409164573
  0.8353691107097788  0.5568369214913914  0.6142356923981190
  0.0810170701428799  0.4557999977137825  0.4854491998814463
  0.1165748945577243  0.4778489721253697  0.3031859168899222
  0.4923041558596523  0.5629842731687114  0.9676285677245355
  0.4952470644942675  0.6795231774338731  0.5239663023047260
  0.1662658620933038  0.0145889633377856  0.0932670658282908
  0.6786684982187478  0.2515456623594131  0.5493443342434444
  0.0573017278034884  0.3776468574360999  0.6659380064560166
  0.1828218055730364  0.2299248626112340  0.9502919725178876
  0.8121968635485158  0.6235884519238865  0.1629784527090270
  0.7028795299467734  0.3982838472251659  0.4534442295537829
  0.1172157064838339  0.6562169832016237  0.2099182071474373
  0.0448028777779365  0.7383718962460935  0.7568135247993327
  0.8576845940239549  0.3217704054290404  0.3554673761183377
  0.5893294525438137  0.1047833483158751  0.2346072867491074
  0.0908078816987607  0.7312349801767775  0.5659350676089904
  0.0674405562028701  0.0753491074565925  0.3696247141943202
  0.0666267202921170  0.3850789696455962  0.0238993480944823
  0.2325808781227200  0.7042935167044210  0.7866061003570923
  0.2224184033461115  0.2629313181543917  0.5041701046700172
  0.8759124932203590  0.2759728698262600  0.5602116001709415
  0.3753707111019227  0.1584969426797952  0.5786347694028499
  0.6886399638278072  0.2502287832640218  0.7473736853567549
  0.7241346301017265  0.0680939857402546  0.3688534605659134
  0.8357929616961556  0.0726485387154343  0.9330081949601865
  0.6389441340045929  0.7746925594025552  0.3660861929746492
  0.7061478234820233  0.8815928077727923  0.9941806704976097
  0.7017244767008127  0.7787243587948489  0.1444269640279973
  0.0128539249525223  0.1339266075417144  0.9277850931851037
  0.6912185926173702  0.0058664667833238  0.8349904740421447
  0.9722454753026722  0.0070065601392713  0.0740157961849927
  0.6253287153668883  0.7095890412232837  0.8672637220057107
  0.6441108767198942  0.6161430277024428  0.0556516280129089
  0.1019079004683749  0.7575453734146249  0.0519084149178065
  0.3978070741788894  0.3920496220714648  0.0281888237441393
  0.4771754198248374  0.7279755699591761  0.7364996872129465
  0.2972746593245203  0.9953795942837431  0.7285312554490561
  0.4428068862117221  0.8510382188968085  0.5832071888227852
  0.7378982222353616  0.2467293337467330  0.9386768239727610
  0.2661288977631205  0.7195020060344776  0.5428633924563040
  0.2312578710138393  0.1905259003943054  0.6881766623960480
  0.3291322280079419  0.3639375105115763  0.3625519554620764
  0.3472533380287919  0.8382321938177327  0.7748510189251362
  0.1435478524214926  0.9088043096647803  0.6665724629609546
  0.9390968960726787  0.4556575503378127  0.9258243282893764
  0.2655676935477892  0.1014509132516075  0.3987455991527926
  0.2901379410494935  0.9757764900898040  0.5548539618499874
  0.5863985671978887  0.1432309796431203  0.9180274399346751
  0.2755979581721976  0.6589091555867964  0.0839023808683060
  0.4709624717719286  0.9723576438081067  0.8657547414310245
  0.4240934949096994  0.8361812659888751  0.2143960374446546
  0.7124045151981635  0.4088144114394814  0.6365081495160330
  0.5572877005134664  0.1533046081249100  0.6366354469274761
  0.7951063282634865  0.9044426929961634  0.7091663905846394
  0.8920002975189700  0.8844212470206608  0.4298260896811811
 
  0.19992884E-02 -0.31463607E-02 -0.15657880E-02
  0.34544805E-02  0.49568411E-04  0.19772674E-02
 -0.29732927E-02 -0.42329378E-04  0.11171823E-03
 -0.29741514E-02 -0.23790417E-02 -0.31764886E-02
 -0.11637440E-02 -0.25108054E-02 -0.22072975E-03
 -0.18887916E-02  0.25740043E-02 -0.31019118E-02
 -0.20177333E-02  0.17225007E-02  0.85271005E-03
 -0.22189366E-02 -0.25524131E-02  0.99265461E-03
  0.69691349E-02  0.24005737E-02  0.41649850E-03
 -0.44461216E-02 -0.38228812E-03  0.50377708E-02
  0.36657882E-02 -0.19223508E-02 -0.12160289E-02
 -0.49286782E-03  0.30425402E-02  0.16698627E-03
 -0.44773323E-02 -0.58376326E-02  0.17923924E-02
 -0.14381178E-02  0.56005025E-03 -0.57998805E-02
  0.12542560E-02 -0.27500254E-03 -0.10660823E-02
  0.11653590E-02  0.43658608E-02 -0.29448717E-03
  0.10421754E-02  0.11625076E-03 -0.14488016E-03
 -0.53238967E-03 -0.25730524E-02 -0.57417923E-03
 -0.11144492E-02  0.12842132E-02 -0.25658670E-02
 -0.19474294E-02  0.31479401E-02  0.43522910E-02
 -0.24894401E-02 -0.59035091E-02 -0.34586166E-02
  0.43528930E-03  0.22853695E-02  0.20466704E-02
 -0.27421057E-02 -0.13925532E-02 -0.21399909E-04
 -0.15763711E-02 -0.15511327E-02 -0.10817966E-02
 -0.90341389E-03  0.22450231E-02 -0.38136590E-02
 -0.40477433E-02 -0.39625905E-03 -0.39209870E-02
 -0.18842672E-02 -0.63754021E-03  0.16034822E-02
  0.22979937E-02 -0.15026000E-02 -0.74272502E-04
  0.36056078E-02 -0.29031367E-02 -0.28386910E-02
  0.76900079E-03  0.59871589E-03 -0.18864980E-02
  0.13255003E-02 -0.73679392E-03 -0.16448341E-02
 -0.26262504E-02 -0.20131821E-02 -0.48503166E-03
  0.36189404E-02 -0.26604446E-02 -0.71696465E-04
 -0.68905546E-03  0.16434138E-02 -0.23520427E-03
 -0.16329458E-02 -0.66132165E-03  0.84995765E-03
  0.45744045E-02 -0.20926212E-02 -0.15041696E-02
  0.34343190E-02  0.19944659E-02  0.25054239E-02
  0.24074498E-02 -0.48936208E-02 -0.11901757E-02
 -0.19846862E-02  0.35547694E-02 -0.40736398E-02
  0.11043015E-02 -0.37326104E-02 -0.43524680E-02
  0.26124195E-02  0.23333184E-02  0.67044820E-03
  0.12263256E-02  0.14481411E-02 -0.77416627E-03
  0.28567597E-03 -0.96327215E-04  0.79834445E-03
  0.59870122E-02 -0.23963774E-02 -0.47567182E-02
  0.24164403E-02 -0.14333785E-02  0.19572377E-02
 -0.21795257E-03  0.28478967E-02  0.20581105E-02
 -0.21008871E-02 -0.37911726E-02 -0.93931787E-03
 -0.89984385E-03 -0.17148388E-02 -0.41225039E-03
  0.22280370E-02 -0.13385848E-02 -0.43335352E-02
  0.38056494E-02  0.12775191E-02 -0.13269344E-02
  0.48565444E-02  0.45693274E-04 -0.14685793E-02
  0.60638005E-02 -0.82486264E-03 -0.27297252E-02
  0.16085332E-03 -0.31405362E-02  0.49975796E-02
 -0.72835162E-03  0.66932178E-02  0.94548020E-03
  0.65326838E-03  0.49326375E-02  0.17295732E-02
 -0.19672728E-02 -0.43258755E-02  0.35149881E-02
 -0.46134320E-02 -0.39869713E-03 -0.27900054E-02
  0.19506472E-02 -0.53547300E-02 -0.67889904E-03
  0.21189824E-02 -0.25702191E-02  0.16206089E-02
  0.57309117E-02  0.25623293E-04 -0.13076149E-02
  0.19947419E-02 -0.20523685E-02  0.27081410E-02
 -0.11561024E-02  0.40136906E-02 -0.34136662E-03
  0.12722248E-02 -0.28423906E-03 -0.80399985E-04
  0.52379459E-03 -0.44035306E-02 -0.32801586E-02
 -0.66083533E-02  0.65025895E-05  0.38224466E-02
  0.14461728E-02 -0.21170652E-02  0.43128471E-03
 -0.48007344E-03 -0.29444324E-02  0.57049325E-03
  0.17569856E-02  0.27350101E-02  0.26288866E-02
 -0.47511665E-02 -0.20608920E-02 -0.65206539E-03
 -0.39937632E-02  0.20582204E-02  0.87351589E-02
 -0.17091458E-02 -0.10564818E-02  0.29536485E-02
 -0.17214396E-02  0.24592476E-03 -0.24370567E-02
  0.10436209E-02 -0.33449090E-02 -0.40992450E-03
  0.10223648E-02 -0.52660777E-03 -0.44418071E-02
  0.35137915E-02  0.56052076E-03  0.48762348E-03
  0.40199620E-02 -0.43589478E-03 -0.19686980E-03
  0.32720404E-02 -0.24209110E-02  0.30527495E-02
  0.10494271E-02 -0.22914916E-02  0.45845144E-03
 -0.61434682E-04 -0.54937490E-02 -0.96909297E-03
  0.22625848E-03 -0.13144740E-03 -0.21541400E-02
 -0.12839458E-02 -0.36503498E-03 -0.29989556E-02
  0.18636422E-02 -0.23511221E-02  0.27462324E-02
  0.58139545E-03 -0.41788933E-03 -0.14008890E-02
  0.22620781E-02 -0.22843326E-03  0.11471549E-02
 -0.99082847E-03 -0.87080843E-03  0.43902831E-02
  0.84074182E-03 -0.46481264E-03  0.84927213E-03
  0.23678847E-02 -0.56703671E-03 -0.16341467E-02
  0.19247039E-02 -0.16199430E-02 -0.95749457E-03
 -0.30399584E-02 -0.36766668E-02  0.21400197E-02
  0.16543168E-02 -0.13712805E-02 -0.18835544E-02
 -0.25181388E-02 -0.36963225E-03  0.44705010E-03
 -0.26640219E-02 -0.18560778E-02 -0.12376765E-02
 -0.54350761E-02 -0.18044618E-04  0.31250757E-03
  0.19003996E-02 -0.91386377E-03  0.16197815E-02
  0.28784587E-02 -0.25192617E-02 -0.13843013E-02
  0.42783285E-02  0.36859523E-02  0.52861391E-03
  0.40971174E-02 -0.17539037E-03 -0.23266366E-03
 -0.40976864E-02  0.58451887E-03 -0.28514796E-03
  0.31976936E-02 -0.36266254E-02  0.12815883E-02
 -0.35363272E-02  0.43483339E-02 -0.62862089E-03
 -0.61583491E-03  0.17994755E-02  0.23892865E-02
  0.10430510E-02  0.46040144E-02  0.10551062E-03
 -0.55127757E-02  0.71039876E-03 -0.94028600E-03
  0.52896436E-03 -0.20714621E-02  0.16054592E-02
  0.14405059E-02 -0.22259592E-02 -0.34436078E-03
 -0.24531108E-02 -0.76042478E-03  0.61430643E-02
  0.14002698E-02  0.27809110E-02 -0.32508905E-02
  0.11931209E-02  0.23435744E-02  0.25599467E-02
 -0.86574810E-03  0.45295835E-02  0.25129616E-02
 -0.15310322E-02 -0.77111293E-02  0.68505583E-02
  0.20749815E-02 -0.23261800E-02  0.68170218E-02
  0.10766589E-02  0.25332821E-02 -0.88605713E-03
 -0.28211825E-02 -0.27887271E-03  0.45293884E-03
  0.27277389E-02 -0.13258618E-02  0.26936087E-02
 -0.35965009E-02  0.47142633E-02  0.81042245E-03
 -0.49731105E-02 -0.31654345E-02  0.39620929E-02
 -0.45305475E-02 -0.22033376E-02  0.38861824E-02
 -0.50361449E-02  0.20038921E-02  0.14024654E-02
  0.15910764E-03 -0.19185709E-03 -0.26700331E-02
  0.14099791E-02 -0.11697344E-02 -0.40775923E-02
  0.65146355E-03 -0.17693618E-03  0.79845803E-03
  0.77872312E-03  0.27734234E-02  0.86192315E-03
 -0.51502985E-03 -0.22489611E-02  0.12162122E-03
  0.13513720E-02  0.56717417E-04 -0.87346489E-03
  0.78349079E-03  0.55412916E-03 -0.92119010E-03
 -0.34503728E-02  0.49119386E-04 -0.36143678E-02
 -0.88281528E-03 -0.50808034E-02  0.38921605E-03
 -0.18227769E-02  0.27462016E-02 -0.21026001E-02
 -0.16115071E-03 -0.19142883E-04 -0.61940550E-03
 -0.17584308E-02  0.27302810E-02 -0.35944567E-03
 -0.16650665E-03  0.71235404E-03  0.15470281E-02
  0.72925237E-03  0.12894048E-02 -0.37096462E-03
 -0.30026421E-03 -0.17141395E-02  0.19774423E-02
  0.17353130E-02 -0.23832040E-02 -0.17250450E-02
 -0.58405695E-03 -0.70077339E-03  0.45925521E-03
 -0.47714102E-03 -0.61162403E-03 -0.43703459E-02
 -0.29071001E-02  0.24587252E-02  0.31873187E-02
 -0.25324987E-02  0.58067176E-02 -0.83286279E-03
  0.93751355E-03 -0.20054348E-02  0.31701480E-02
 -0.25115326E-02  0.45509581E-03  0.12491471E-02
  0.47804676E-03  0.25377548E-03 -0.15876979E-02
 -0.47816531E-02 -0.63147714E-03  0.35149985E-02
  0.14453498E-02 -0.27039330E-02  0.12003748E-02
  0.27463463E-02 -0.13456967E-02  0.19669375E-02
  0.98155911E-03  0.87308726E-03  0.86230863E-03
 -0.11043779E-02 -0.32437306E-02  0.10374293E-02
  0.34197251E-02  0.26250895E-02 -0.21925710E-02
  0.24547561E-03 -0.25904382E-02  0.21611351E-02
 -0.52379344E-03  0.23039367E-02 -0.96233099E-03
  0.22389051E-02  0.15690723E-02 -0.10623404E-02
 -0.20351014E-04  0.19525117E-02 -0.22348932E-02
  0.43605084E-03  0.28976885E-02  0.90041881E-03
 -0.20272574E-03  0.26340744E-03  0.24687619E-02
  0.20272468E-02  0.15136859E-02 -0.24298053E-02
  0.17622866E-02 -0.20399353E-02 -0.53242308E-03
 -0.24871592E-02  0.52365093E-03  0.18906277E-02
 -0.82818840E-03  0.17059119E-03 -0.24647243E-02
 -0.36275106E-03  0.90314580E-03  0.41078236E-02
 -0.54985168E-02 -0.34040195E-03 -0.39596229E-03
 -0.55429676E-03  0.44547783E-02 -0.17195653E-02
  0.30788477E-02 -0.17923368E-02 -0.34633457E-03
 -0.12421477E-02 -0.71158012E-03  0.31844826E-02
 -0.16236715E-03  0.39439550E-02  0.17804478E-02
 -0.10072820E-02  0.11118495E-02 -0.24938495E-02
  0.58386830E-03 -0.42023960E-03 -0.59114173E-05
 -0.98315463E-03  0.19683055E-02 -0.14161950E-02
  0.25739296E-02  0.89844270E-03  0.20246370E-02
  0.21612461E-02 -0.82004286E-03 -0.32062395E-02
 -0.26169827E-02  0.64216980E-03  0.18666464E-02
 -0.59212569E-02  0.13445076E-02 -0.11750425E-02
 -0.10019299E-02  0.19871985E-02  0.74581247E-03
 -0.27865563E-02 -0.94537780E-03 -0.20740249E-02
 -0.18391253E-02  0.32292197E-02  0.14904838E-02
  0.24751313E-02 -0.26533938E-02 -0.38389531E-02
  0.12962710E-02 -0.25739392E-02 -0.58077208E-03
 -0.24929123E-02  0.23014815E-02  0.21411830E-02
 -0.26530161E-02 -0.14299933E-03  0.26333796E-02
  0.45763823E-02 -0.56441886E-03  0.28373481E-03
 -0.13019325E-02 -0.26105690E-02 -0.25723601E-03
 -0.10726535E-02 -0.11103349E-02  0.54340007E-03
  0.55294951E-03  0.89013229E-03 -0.90537763E-04
  0.22657300E-04  0.30821046E-02 -0.57209620E-03
  0.53200433E-03 -0.68986122E-04  0.27052981E-02
  0.25780649E-02 -0.28737312E-02 -0.66971001E-03
 -0.15646232E-02  0.14168184E-03  0.24628653E-02
 -0.12372787E-02  0.12165744E-03 -0.13328913E-02
  0.19650084E-02  0.17041140E-02 -0.45532653E-03
 -0.99020840E-03 -0.13818427E-02  0.12838861E-02
  0.24018592E-02 -0.28209118E-02  0.51271886E-03
 -0.57632158E-03 -0.16505131E-02  0.27857064E-02
 -0.10902393E-02  0.22807706E-02  0.48297396E-02
 -0.26842571E-03 -0.58709884E-02 -0.13133889E-02
 -0.43523196E-02  0.81080464E-04 -0.22678111E-02
  0.21765338E-03 -0.56535534E-03 -0.25826871E-03
 -0.21710868E-02 -0.30288144E-03 -0.34148692E-02
  0.36038642E-02  0.10329866E-02 -0.34143518E-03
  0.82752831E-04 -0.79765410E-03 -0.24747541E-02
 -0.51926562E-04 -0.22045274E-02  0.71489173E-03
 -0.21633138E-03  0.10200047E-02 -0.92170707E-04
 -0.45416728E-03  0.17406646E-02 -0.40677873E-03
  0.22987728E-02  0.22260893E-02 -0.51420264E-03
 -0.52719817E-03  0.18846925E-02  0.18232481E-02
 -0.25407396E-02 -0.30677215E-02 -0.13873031E-02
  0.62703112E-03 -0.68957063E-03 -0.22615222E-02
  0.11880686E-02 -0.16007639E-02  0.30366172E-02
  0.59080057E-03  0.14711483E-02 -0.23720045E-02
  0.22699631E-02 -0.21011492E-03  0.20009683E-02
 -0.61563328E-03  0.15846551E-02 -0.33344912E-02
  0.16493833E-02 -0.28135248E-02 -0.50717777E-03
  0.91615272E-03 -0.11505792E-02 -0.25666947E-02
 -0.73306748E-03 -0.43092368E-03 -0.13912090E-02
 -0.39421412E-03  0.15853375E-02 -0.15265689E-02
  0.25656102E-02  0.71924209E-03 -0.12462862E-02
 -0.83791054E-03  0.78414074E-03 -0.24377907E-02
  0.29667294E-02  0.24074866E-02  0.10176869E-02
 -0.10329621E-03 -0.11729445E-03 -0.12087180E-03
 -0.18519294E-02  0.45195680E-03 -0.30721719E-02
 -0.39336749E-02 -0.50531311E-03 -0.16385951E-02
  0.47645435E-02  0.25448445E-02  0.15309940E-02
  0.28320977E-03  0.25082959E-02  0.79154998E-03
 -0.98182662E-03 -0.68787060E-03  0.75987667E-03
  0.19147362E-02 -0.14060518E-02  0.19071718E-02
  0.12018801E-02  0.10088915E-02  0.20685456E-02
 -0.56481943E-03 -0.13970569E-02  0.31957193E-03
  0.59667107E-03  0.33064995E-02 -0.31663584E-03
 -0.25666524E-02 -0.82241457E-03 -0.86151898E-03
  0.90643214E-03 -0.13014373E-02  0.44663747E-03
  0.88959299E-03  0.24478971E-02  0.50735740E-03
 -0.56509851E-03  0.97679083E-03  0.42599003E-02
  0.25570815E-03 -0.10002001E-02 -0.34626913E-02
  0.11547212E-02 -0.19662478E-02 -0.16287431E-02
  0.29245467E-02 -0.11422998E-02  0.20023436E-02
 -0.25051338E-02  0.36373931E-02  0.22877003E-02
  0.35123535E-02  0.19570932E-03 -0.12886031E-02
  0.16267515E-02  0.71044186E-03  0.20429168E-02
  0.19539083E-02  0.19658532E-03 -0.24167142E-02
 -0.14234751E-02  0.14160658E-02 -0.13340882E-02
  0.16024620E-02 -0.17455917E-03  0.91186695E-03
 -0.13818182E-02  0.75813316E-03 -0.13824368E-02
  0.17259112E-03 -0.77212338E-04 -0.61458232E-03
 
           1
   3.00000000000000     
  0.10000000E+01  0.00000000E+00  0.00000000E+00  0.00000000E+00
  0.35224050E+00  0.87283035E+00  0.13118304E+00
  0.22310664E+00  0.66261157E-01  0.50997528E+00
  0.22154246E+00  0.44575766E+00  0.23961829E+00
  0.60224604E+00  0.82160718E+00  0.83777298E+00
  0.79859856E+00  0.79814824E+00  0.20194455E+00
  0.36651000E+00  0.85248575E+00  0.32519403E+00
  0.61448668E+00  0.85625678E+00  0.71946729E+00
  0.71526039E+00  0.54495370E+00  0.78764962E+00
  0.70668413E-01  0.53978660E+00  0.20875472E+00
  0.37286856E+00  0.82097268E-02  0.42231309E+00
  0.90332131E+00  0.93676010E+00  0.13848958E+00
  0.86439326E+00  0.63396741E-01  0.47296965E-01
  0.39297040E+00  0.89873699E+00  0.84143685E-02
  0.69979118E+00  0.88838868E+00  0.87284755E+00
  0.22639458E+00  0.51972947E-01  0.80710092E+00
  0.27791915E+00  0.47967086E-02  0.90854633E+00
  0.76362842E+00  0.24241450E+00  0.37087806E+00
  0.73745554E+00  0.85162074E+00  0.54528764E+00
  0.22117792E+00  0.43050629E+00  0.76426798E+00
  0.96400975E-01  0.20067308E+00  0.86969908E+00
  0.11896287E+00  0.56023938E+00  0.68452906E+00
  0.81226408E+00  0.82264258E+00  0.99565324E+00
  0.89748768E+00  0.17235105E+00  0.90823759E+00
  0.39379560E+00  0.33164184E+00  0.80613438E+00
  0.65274893E+00  0.64099659E+00  0.74308265E+00
  0.13090794E+00  0.64928428E+00  0.77497316E+00
  0.51659785E+00  0.14902348E+00  0.43435052E+00
  0.98720420E+00  0.70546841E+00  0.86940228E+00
  0.64794173E+00  0.29660287E+00  0.18809921E+00
  0.45438812E+00  0.60403542E+00  0.86156499E+00
  0.61304779E+00  0.31774442E+00  0.29949545E+00
  0.80055437E+00  0.34566443E+00  0.95142779E+00
  0.13130063E+00  0.61857682E+00  0.57248934E+00
  0.31891979E+00  0.78519789E+00  0.45479340E+00
  0.62359457E+00  0.56896687E+00  0.16574016E+00
  0.45210159E+00  0.43803449E+00  0.81859077E+00
  0.75103937E+00  0.70862837E+00  0.71147606E+00
  0.68037103E+00  0.17415831E+00  0.20338005E+00
  0.22610301E+00  0.76426077E+00  0.61061681E-01
  0.74283049E+00  0.68197707E+00  0.83747404E-01
  0.71632780E+00  0.81618152E+00  0.66685414E+00
  0.41954392E+00  0.12575571E+00  0.89732039E-02
  0.57999763E+00  0.24369071E+00  0.48416107E+00
  0.20330115E+00  0.94285299E-01  0.18104795E+00
  0.79920924E+00  0.84112843E+00  0.81775057E+00
  0.62048259E+00  0.26612993E+00  0.91943936E+00
  0.76718304E+00  0.15331882E+00  0.28941556E+00
  0.50056520E+00  0.19842722E+00  0.73033509E+00
  0.36869524E-01  0.10283378E+00  0.70351882E+00
  0.64301681E+00  0.23526513E+00  0.38115856E+00
  0.47876292E+00  0.93973641E+00  0.44096473E+00
  0.93062818E+00  0.16814129E+00  0.57245272E+00
  0.27024838E+00  0.36572249E-01  0.32641465E-01
  0.83901728E+00  0.79200081E+00  0.50327298E+00
  0.97540164E+00  0.58090045E+00  0.61580488E+00
  0.45823460E-01  0.98327006E+00  0.64773121E+00
  0.48578722E-01  0.56205185E+00  0.51081584E+00
  0.72813227E+00  0.55104811E+00  0.22893466E+00
  0.98915712E+00  0.34377544E+00  0.94140537E+00
  0.59149184E+00  0.73573090E+00  0.56446463E+00
  0.23030907E+00  0.52795015E+00  0.35801598E+00
  0.69701117E+00  0.58434687E+00  0.34822501E+00
  0.46972889E+00  0.15175846E+00  0.88944910E+00
  0.85438465E+00  0.23148653E+00  0.44978251E+00
  0.89027139E+00  0.27313210E+00  0.97971623E+00