In2O3                                   
   1.00000000000000     
     8.0443406255815990    0.0787630546323183    0.0461417093477549
     0.0786072724047620    8.1506107289866581   -0.0234287233117640
     0.0460125552601460   -0.0234890761724923    8.1252057235967001
   In   O 
    16    24
Direct
  0.1421607734053555  0.1793928805458499  0.2237087201250538
  0.8689579632935541  0.8936208374277628  0.4454117417093918
  0.8914437000158207  0.4038556814878266  0.9772472608703586
  0.1324033254866877  0.6715377644445033  0.7321196624366562
  0.3589566721824085  0.9044025391021413  0.9265932956881300
  0.3704240644381950  0.9091647473885486  0.4258211562105014
  0.3764795852818927  0.3941113150936008  0.9614070457974830
  0.8955801017449935  0.3997273052916444  0.4747241959028364
  0.4046908314531010  0.3619004374193115  0.4946595305529588
  0.1346346000281008  0.1671369654606059  0.7235927283494218
  0.1391705016868456  0.6850123233824890  0.2014778532367115
  0.8562208946138905  0.8933422990341108  0.9338918214162779
  0.6620771362206923  0.1609236432147743  0.2247965159308984
  0.6576100902933769  0.1802171046048097  0.7372789151487406
  0.6447182972111346  0.6907251421313823  0.2143925602462010
  0.6351955930429566  0.6761647466422300  0.7127006393126799
  0.3869241815702314  0.6234729095482948  0.8178048236444680
  0.4035339464911687  0.8148837411049685  0.1664911886628809
  0.1410650005724359  0.2777382769078507  0.4737619612626068
  0.7504842742524439  0.6346777126037650  0.9695630379217176
  0.1456628413338330  0.4451350435215605  0.0866267602296285
  0.1036309889387963  0.7986222510060260  0.9666527932821690
  0.0163929974658662  0.4354038162632411  0.7329463463927826
  0.2449303950490574  0.9163871572112214  0.6668520793220442
  0.7733335187804481  0.9271649720626035  0.1849782610867466
  0.4564643692710653  0.5013116072900161  0.2597213207115789
  0.9013258033002532  0.1453924028082899  0.8548429453329679
  0.3319566227159550  0.5899329687429281  0.3781656003013129
  0.6047255828549850  0.9329253385284931  0.8255725957062643
  0.8898964040703804  0.2905537027686936  0.2193643537373141
  0.4181547243501244  0.1527880605849687  0.3269151836876165
  0.6066937051198105  0.7940427525446693  0.4697459100756157
  0.7699825111042589  0.1399126568627926  0.4930903698125428
  0.8912693883470776  0.7818695104184230  0.6823123881237229
  0.3935709818241367  0.2506387363992880  0.7258685545349159
  0.9027401851168744  0.6329278988490512  0.3373127029531346
  0.2462852515910118  0.1421215421119187  0.9835938202256801
  0.6230123156192029  0.2979266090906791  0.9956124203947928
  0.1131731941547175  0.9287765708724466  0.3312831521229427
  0.6522024373722093  0.4336182681648293  0.5998028269927991
 
  0.00000000E+00  0.00000000E+00  0.00000000E+00
  0.00000000E+00  0.00000000E+00  0.00000000E+00
  0.00000000E+00  0.00000000E+00  0.00000000E+00
  0.00000000E+00  0.00000000E+00  0.00000000E+00
  0.00000000E+00  0.00000000E+00  0.00000000E+00
  0.00000000E+00  0.00000000E+00  0.00000000E+00
  0.00000000E+00  0.00000000E+00  0.00000000E+00
  0.00000000E+00  0.00000000E+00  0.00000000E+00
  0.00000000E+00  0.00000000E+00  0.00000000E+00
  0.00000000E+00  0.00000000E+00  0.00000000E+00
  0.00000000E+00  0.00000000E+00  0.00000000E+00
  0.00000000E+00  0.00000000E+00  0.00000000E+00
  0.00000000E+00  0.00000000E+00  0.00000000E+00
  0.00000000E+00  0.00000000E+00  0.00000000E+00
  0.00000000E+00  0.00000000E+00  0.00000000E+00
  0.00000000E+00  0.00000000E+00  0.00000000E+00
  0.00000000E+00  0.00000000E+00  0.00000000E+00
  0.00000000E+00  0.00000000E+00  0.00000000E+00
  0.00000000E+00  0.00000000E+00  0.00000000E+00
  0.00000000E+00  0.00000000E+00  0.00000000E+00
  0.00000000E+00  0.00000000E+00  0.00000000E+00
  0.00000000E+00  0.00000000E+00  0.00000000E+00
  0.00000000E+00  0.00000000E+00  0.00000000E+00
  0.00000000E+00  0.00000000E+00  0.00000000E+00
  0.00000000E+00  0.00000000E+00  0.00000000E+00
  0.00000000E+00  0.00000000E+00  0.00000000E+00
  0.00000000E+00  0.00000000E+00  0.00000000E+00
  0.00000000E+00  0.00000000E+00  0.00000000E+00
  0.00000000E+00  0.00000000E+00  0.00000000E+00
  0.00000000E+00  0.00000000E+00  0.00000000E+00
  0.00000000E+00  0.00000000E+00  0.00000000E+00
  0.00000000E+00  0.00000000E+00  0.00000000E+00
  0.00000000E+00  0.00000000E+00  0.00000000E+00
  0.00000000E+00  0.00000000E+00  0.00000000E+00
  0.00000000E+00  0.00000000E+00  0.00000000E+00
  0.00000000E+00  0.00000000E+00  0.00000000E+00
  0.00000000E+00  0.00000000E+00  0.00000000E+00
  0.00000000E+00  0.00000000E+00  0.00000000E+00
  0.00000000E+00  0.00000000E+00  0.00000000E+00
  0.00000000E+00  0.00000000E+00  0.00000000E+00
