Ge Se                                   
   1.00000000000000     
    20.8706398010253906    0.0000000000000000    0.0000000000000000
     0.0000000000000000   20.8706398010253906    0.0000000000000000
     0.0000000000000000    0.0000000000000000   20.8706398010253906
   Ge   Se
   150   150
Direct
  0.4334300125666494  0.9377606532748221  0.3070556140723218
  0.7147879943174608  0.4442884506812920  0.1991706110427378
  0.0732241071546159  0.7119498925010309  0.7820000876664028
  0.6386312714908868  0.1690935637837230  0.4104711436132908
  0.9161209586512055  0.7535706023854827  0.5818673990132177
  0.4423731480484212  0.1637933173724791  0.2700040809947755
  0.6573408400256968  0.6395322331131492  0.5866744817540019
  0.8140136256945537  0.2168895450365634  0.8452518158910095
  0.9692814201002052  0.6344677953121508  0.7764783987913318
  0.3675786803777875  0.0424338282017037  0.7399247947923305
  0.1338323808896797  0.3383571192042411  0.7778306193582140
  0.5174003409956135  0.8919926099532751  0.8394316455513667
  0.7239048216472853  0.1282129642019799  0.0883810941767062
  0.8224935325743205  0.0235678167113265  0.1827792014459797
  0.9408055701497948  0.9728116746170845  0.7293809821594451
  0.5999587579322286  0.3616229811234826  0.4759131879342602
  0.0147904269156749  0.4800006222830673  0.6982127466712550
  0.7925374761174815  0.7219564745138688  0.6208255017451704
  0.8202896894865037  0.0845640909700947  0.3942506423071123
  0.8963305143600991  0.9769019039764874  0.3224206932262701
  0.6090000810137498  0.8813024332308940  0.2740345584189089
  0.6193162895370046  0.1137227406563775  0.6961720924988759
  0.7364029795754166  0.4558552071255988  0.4437941188075206
  0.8333975239326423  0.3158677955804281  0.7817636340993117
  0.3574946302505262  0.6801379824128247  0.1593457631522387
  0.3549741386788698  0.4073782780371366  0.4178811005992735
  0.7614638530789991  0.3229681795751045  0.0239218828713269
  0.2825142702697769  0.4830380036622055  0.7660826645833048
  0.2766153963098533  0.2106834135187823  0.7147209266030420
  0.2859490248588889  0.8578867858828910  0.3463587012970561
  0.1706663365068253  0.6217690838009018  0.4686620308175689
  0.2205248037275269  0.2498701377881648  0.4926268728520949
  0.4867318531202775  0.0835060386415595  0.7297705137948963
  0.6951693673354740  0.3220622030217627  0.1832743338457085
  0.6099319875332931  0.7480790200443987  0.4459098714201936
  0.0331316145649283  0.4860462565163828  0.1742521615080700
  0.6266191878360172  0.2412072803979101  0.0284685305979852
  0.3195036282170559  0.3062792465482083  0.8522289294179686
  0.4610098963525883  0.4255962177586612  0.7817664233632529
  0.0667086172359565  0.0144047611555639  0.6229447839741231
  0.0929686589239031  0.9097647962318265  0.8410893135733072
  0.2186650064208763  0.5708971516800460  0.2788234512490891
  0.2218993294254580  0.9066726352596370  0.7308792726140366
  0.4568599804508042  0.8173342099183071  0.5861390085020178
  0.7428393231498708  0.0635620837836490  0.5289966255903026
  0.1097657290192651  0.0670278454861302  0.5142840449661463
  0.0276286534240314  0.1082974360416684  0.4328567804897849
  0.2822525466611100  0.0974908052531719  0.6731862750752341
  0.6478578145522799  0.3981471312022068  0.0699434507971304
  0.1494403552869440  0.5386030000309654  0.8065119997606384
  0.5923475416397438  0.0600409344403595  0.2645186837445117
  0.2379301396875190  0.8270001887724689  0.5022058140842915
  0.5011264268786219  0.9141311635176084  0.1609880915774614
 -0.0036948664244134  0.1826052337205556  0.1013348522494832
  0.2577526196695862  0.7014051514247158  0.8433917820251045
  0.3309045182024353  0.2094038803527822  0.0432998526436673
  0.1054672920442658  0.2879666915649424  0.3897990073075406
  0.7721391733577969  0.8101444170548869  0.4570219069572250
  0.5872533595023621  0.5658062261697052  0.4236740844727726
  0.6059138697361709  0.2867112940720236  0.7958875435446225
  0.9735061506170454  0.7702721139771527  0.8340202388823512
  0.3224583076135231  0.7691566224711007  0.6700337735143612
  0.9706538361443017  0.5873220311545687  0.6659192273380288
  0.7497539674390150  0.4626248746574740  0.3183562387171952
  0.0620307072103371  0.3545201074556935  0.5793679526251176
  0.5534458313173021  0.3334237639219491  0.1941393801398297
  0.9429167877583122  0.3037501250877841  0.9611721104878830
  0.0895469714124665  0.9073812775851057  0.3471981613611543
  0.8741677698751950  0.1318697084568134  0.7766321720564148
  0.3440943719663816  0.9252347652764789  0.7161344603144431
  0.1007585671874123  0.2567347574139434  0.9063360573661527
  0.1856685119257374  0.0176097948451746  0.6679789628554943
  0.8822870291901977  0.3828427893615901  0.1890857861312671
  0.4203490245709950  0.6599234678928050  0.4515676927357978
  0.2171402816030476  0.0281490067629138  0.4620283477228659
  0.8492082220370869  0.4873189720661671  0.8851413473853063
  0.9567873885614069  0.3803229753339147  0.8617619451233637
  0.9744701154002868  0.6044720101922730  0.5010980957477711
  0.2712662407465276  0.5062322632002089  0.5546049518989079
  0.6245042105261647  0.9117409836214938  0.1576842781803970
  0.1459413809225062  0.2810144726575957  0.1067378055219717
  0.1603456064983808  0.8005763762205460  0.0519430874628242
  0.2153091159191902  0.4746778565122726  0.6628689279880672
  0.2203595268380935  0.7662053973725332  0.3929254024458371
  0.2305672428161089  0.7023277614203234  0.0284593061500140
  0.1790987014371422  0.6916518631891373  0.5685740750100812
  0.7637774607944745  0.4180110976071062  0.8086684946565507
  0.4000757556479890  0.6685612184928985  0.9679459434259275
  0.8940634194973255  0.7731247526634889  0.1711570200080009
  0.9040907114679595  0.3683181702681692  0.5146776197083225
  0.8560395335145000  0.6699726778120321  0.0442928231019437
  0.1134463626931924  0.4068662630012937  0.6780220275956257
  0.5375589511116364  0.0302914658216053  0.0446909020228154
  0.0414741922052070  0.7613334686422363  0.4412044945550977
  0.0904244392852215  0.2147916289989186  0.6474045447239746
  0.2301756745055933  0.1024373199553971  0.9910946906363362
  0.6730471882834859  0.3776795618559570  0.6325045492677941
  0.2507420374439481  0.6478640013696118  0.3733721881617426
  0.4421264176462041  0.1310798152366285  0.9475591003021064
  0.4781968355567551  0.5388254654696832  0.9092094265651013
  0.6685567567230098  0.2581799925519181  0.5925236726614751
  0.3765855579389795  0.3299089882167918  0.0533020943062900
  0.1684227858462294  0.8226318484112521  0.2144202874845776
  0.4354423213771216  0.7850098361183194  0.4682869083531095
  0.9214002768218958  0.1530122438248033  0.6586351957947871
  0.8979063695278504  0.8565376456499723  0.9629738255066005
  0.6858587209901387  0.0055405080143598  0.0974172776875728
  0.7212446272728298  0.7451211861362612  0.1629232706910926
  0.7617166624685817  0.6449023805695424  0.2303240333497235
  0.2633716932835996  0.5805303517890621  0.0087979720896956
  0.6954958924142777  0.0086852075650634  0.3903924199598793
  0.7736324859214575  0.9105790086435303  0.6045988148701303
  0.8061041655240597  0.5415654509860787  0.7146839502330203
  0.2154582195771762  0.5603008328456202  0.1540089207050519
  0.3393139352725809  0.0147024160142253  0.1179947862222141
  0.4041139066344318  0.2507977132218693  0.3470234016485415
  0.7899309615434683  0.7952065915648608  0.8357643384517769
  0.3489213514855373  0.9352942668220990  0.8935492583185450
  0.2000681613388981  0.0240949934606710  0.8309333053806733
  0.4943510784360703  0.5316161922885700  0.3452447115069762
  0.6308969918803882  0.8095121239860241  0.5590769127889916
  0.2875435808632794  0.4176650887551761  0.1557448028219106
  0.6623732046732453  0.5292588775844402  0.5140846887501376
  0.6614960760146361  0.4505728062648207  0.9587259334901000
  0.7803226110837866  0.8246494180288139  0.3213209843823948
  0.3465831091345498  0.8039485341470808  0.1142186707355489
  0.8871989859005577  0.2095963626395865  0.4432248832733249
  0.7771895898701252  0.6186471012443794  0.3994922746367350
  0.1557611007245228  0.9725023631450871  0.0319150171982884
  0.3583439650014443  0.3308715861396634  0.6377301837949861
  0.8520550476697732  0.3872358913333099  0.6266390529289005
  0.0993727051893304  0.2193280269360139  0.7875332161920123
  0.9089891170330835  0.4604081541189248  0.3585039394996125
  0.3443171375251836  0.2256478091258730  0.5225912394377661
  0.5359090463575612  0.3952892208692746  0.3727352780169595
  0.9705111999443419  0.1254696640513360  0.2618288157464637
  0.8135538017670310  0.4419070322544925  0.0332551305638362
  0.2027185975240667  0.1207919005169646  0.1117843076074404
  0.5696880061886188  0.0572963237645171  0.8725795450049789
  0.3127822167457695  0.5331433064590448  0.4026159644830248
  0.7153836929972985  0.8405817096396030  0.0287510888610664
  0.3305584864564677  0.0031521824180182  0.5145475075945891
  0.3531249862513766  0.6486432177493091  0.2924528198880553
  0.3903313825847562  0.3415505451194543  0.1943287248241068
  0.6498590618886150  0.7906590014567454  0.9344128635518588
  0.7911923585833820  0.0686084494883355  0.7150865295714062
  0.1707603646571099  0.6800057110227957  0.6921582277385911
  0.5928425312829805  0.6963541778586062  0.8192304559632637
  0.1139583041997803  0.4270704275081975  0.2483609417133976
  0.2824721437518726  0.1988609942977631  0.9224192730838296
  0.7117897141269472  0.3587335651213580  0.9033746036682136
  0.5491112263706008  0.3334189655355914  0.0613267348690397
  0.5767416563666851  0.6129642110727107  0.9193940485351514
  0.8166336751227335  0.7066001166606183  0.3197857036080823
  0.0487131030844214  0.3534128331962335  0.3126684208778795
  0.9605363651572695  0.3660860141905273  0.0633968429530639
  0.5364557506653453  0.6556994272141329  0.4922073048267877
  0.7262479194539425  0.6431220269183174  0.6865392632206324
  0.7822332837656439  0.8790811961429289  0.9286956365215108
  0.5647981615245792  0.2684494460773787  0.5320146844642452
  0.5819006592252473  0.2935076583718101  0.3194448164376522
  0.4500224392258634  0.3277613801106563  0.4292251087934638
  0.7760260645052667  0.9699272053432083  0.2744702288446639
  0.1168017969583349  0.7823440820810724  0.3418689257477622
  0.2769643366967761 -0.0049398802573245  0.0074046981644780
  0.0884088328855864  0.7710595839966510  0.1349902442688390
  0.5848502330434246  0.9683651934806584  0.3487570280255857
  0.6493505853354684  0.3916195156007078  0.7482300513993970
  0.2377439033387156  0.8677206044430301  0.1128663528359442
  0.4512296633583107  0.3637805992290258  0.9647551141325477
  0.3252003688177643  0.0518047271874701  0.8496129186389838
  0.2932871285076084  0.7284047144822139  0.5525056991582611
  0.8356966128847698  0.5444972536575081  0.3078810796788617
  0.5947977914376634  0.2322125468166847  0.6896163854992150
  0.8834859482033549  0.7468488197112165  0.9092701752572908
  0.8807952320164835  0.0392886340743160  0.6398788686412321
  0.3708707103183039  0.5973379682476062  0.0650653617342219
  0.7680352155284192  0.1712720596709730  0.4712493918845412
  0.3589553332084545  0.8748286947350277  0.4391745024072803
  0.8678378554658790  0.5810437206317673  0.6176491721709452
  0.1343615532113179  0.0544734644649063  0.9382390736396519
  0.4744862785921095  0.4194343148042861  0.2165436042112376
  0.4687986794150427  0.2470290004341244  0.1808794168820795
  0.2844300814776807  0.6596691673573866  0.7284343087761206
  0.5580992692978263  0.1431080842565460  0.9924666507606639
  0.0648664699269389  0.6424424922485386  0.4206165329467777
  0.6200952727278014  0.7976124158974577  0.1263926386148332
  0.8177292231582353  0.4833611085671861  0.1469373448492289
  0.6940204824908999  0.3095112644325482  0.3035737016247415
  0.4969885037430453  0.8416270336310345  0.2566028898542806
  0.2077580098586151  0.9497494596674579  0.3707000563627710
  0.1376700780129001  0.5653555631547085  0.6863798639736413
  0.3269850024133671  0.3161667733552268  0.2908945832460026
  0.3953905451973115  0.1212208660429686  0.0820870455220230
  0.2447845047715956  0.0459442736173134  0.1855902834357717
  0.5271720569741922  0.1243588112641018  0.3433102101991245
  0.5919776543463993  0.4453735242266368  0.5645614900449839
  0.9952300865758127  0.2610080503970659  0.5896553359148166
  0.3795639243396940  0.4075846949531072  0.8825880553719502
  0.6665209493903480  0.6042038143179632  0.3455772925426314
  0.5917092207031814  0.4966122934673211  0.8770207425511605
  0.4279045096541925  0.5083685404771878  0.4455739949271528
  0.9074562056801574  0.7015285848867546  0.4745732899099631
  0.8516879267500935  0.4722057731644031  0.4681627991183220
  0.7962092854985416  0.8347961727588984  0.1888452187557446
  0.4634747103449736  0.5436497426085070  0.7915324183541511
  0.8705104699072105  0.1689169813492009  0.3234458623685917
  0.1047010869652130  0.1736844424235246  0.1588440394871987
  0.9173905094074085  0.0391614066790301  0.8282065684300399
  0.4605560108589903  0.0114090927864011  0.2105013881437333
  0.3468020443599339  0.1747706817105434  0.4165804188024282
  0.3163064079722062  0.6062046001070174  0.8999700778846725
  0.2320637702235603  0.3860459737982347  0.8251677712118664
  0.2352314191825735  0.9077698520831248  0.8508623410078973
  0.6933672480842805  0.2048402939934910  0.8542010040248897
  0.1931649586331677  0.3523529506631087  0.2040349377392078
  0.3459988182600890  0.1112050154448520  0.5749583654941719
  0.8389797104874429  0.8988412670995078  0.7221986548991994
  0.5506187269074538  0.8793510268218151  0.6091689385995960
  0.7278702345833212  0.1278764868363046  0.6337779640207020
  0.8569276326959585  0.8524985789241935  0.5319186723590708
  0.1219078802642759  0.8314380011591286  0.7531341932619197
  0.3729288725579981  0.4381307079988208  0.6961591088045569
  0.1608404160656994  0.4880498467036165  0.3350450593965385
  0.7071016743018189  0.7066537174284331  0.8744687156272888
  0.7567939147757373  0.4586570196236484  0.6161166726146785
  0.0071923224463435  0.2938988294366136  0.1435604363195554
  0.8080055848313019  0.2869647510950442  0.6714961788520187
  0.9143046356822251  0.7380959163141889  0.7379195582655237
  0.6463966222947702  0.2081356688428137  0.1434579671884883
  0.8022640609513207  0.1354648014934229  0.1759446004908463
  0.4672878741175737  0.0123709806888336  0.9464673325855032
  0.0303059824483202  0.6563627270554913  0.5967420438971518
  0.3729231592957531  0.8981544746989031  0.6061783947044598
  0.6775119590034121  0.1027824688796635  0.8035702584026886
  0.8062236903911901  0.2959777660290228  0.1479288227809323
  0.7160397101724408  0.3436403563036918  0.4673789397641500
  0.9143822994764446  0.4824822057292502  0.9897159278894897
  0.0303214446661961  0.0475657739319161  0.3347673842610012
  0.8686878220979262  0.6571221872812818  0.1703170218604531
  0.3362928054285689  0.5293605962940728  0.2825938612049378
  0.0357282150216715  0.1127356270949207  0.6852063527920745
  0.2276531021245758  0.9612562116039703  0.5685215497735673
  0.1112274429955427  0.8732120015323379  0.9727571553961228
  0.7151770246260289  0.8116571790820891  0.6509642218610053
  0.9815073554617088  0.8313729381540365  0.2219520423071487
  0.9738994191252551  0.8880145591663829  0.8464370117731252
  0.1425651750343484  0.3453318615304717  0.4879566790515106
  0.5861402027993075  0.8233403515576007  0.7668021057637774
  0.1455669593085550  0.6517464228172581  0.8604223573849145
  0.6363356657757766  0.9751660944915516  0.9967469144636963
  0.6295279537980278  0.0664446841090770  0.4822889431251267
  0.0303128981577567  0.5138260684621395  0.8129316534045552
  0.6534571551708094  0.8723500153122663  0.8455982658098603
  0.1607391820303835  0.1635011361905873  0.5596679223707489
  0.1957807987393816  0.2669981839261723  0.9712632112168478
  0.5427234883525096  0.7406364788330126  0.9241556063770175
  0.8340642512206653  0.3750252678535751  0.3090362549510668
  0.8401961892150486  0.2370699176855569  0.9628297044549324
  0.2376977530363495  0.6845685131952124  0.1508844050381335
  0.3062161192277139  0.3907488275719195  0.5275825959401824
  0.2602843320942402  0.2234587270628524  0.1370488084323418
  0.3964324591177669  0.8654262180731819  0.7994504206890154
  0.9237068490396977  0.7699345461884294  0.0594368713057721
  0.7529371135130248  0.5247193408116524  0.9703720198195130
  0.1653519571292869  0.5105565715382437  0.4967274315567574
  0.3263911911814691  0.7664690739095998  0.9981424753027243
  0.0764501729465364  0.3731948380746120  0.8844521708425822
  0.2106909271204065  0.1778631210560838  0.8072859063604028
  0.4357894497747245  0.7323740468071815  0.6612737763686358
  0.0140506077137602  0.2101817551013912  0.9753868362984472
  0.6255642875046479  0.4898832176345650  0.1401652537156001
  0.0977250962737253  0.5683364245236137  0.1316142434331821
  0.7413949065565738  0.6942564171287564  0.5135953459847349
  0.3355291610734160  0.8904924175983371  0.2478214864580872
  0.6974584602536426  0.1098584061236564  0.3205022891668795
  0.5292398966738523  0.8306026807995865  0.4208001232833388
  0.9218164839406737  0.0990206457761132  0.4829647095190660
  0.7987545547567814  0.9748915871322383  0.0808456438894901
  0.9353653709206264  0.8595126349857251  0.3230427908502101
  0.9472300468029898  0.2814867458936557  0.7957557957257370
  0.7427043316410288  0.7172046695682334  0.0488071385741974
  0.3751485552180603  0.2572687497661215  0.7552203461947637
  0.5003662467903992  0.1495458179271243  0.8287988409321140
  0.2378728508047985  0.2995415466075637  0.6513301587210256
  0.4627296097834233  0.6575632749997758  0.3368146912066889
  0.6635404976839142  0.7879797926958448  0.3119879827552989
  0.7500484336281983  0.9648401861015458  0.7512965633110981
  0.9352314888839542  0.0125025570145772  0.2120878964578032
  0.1184499666240787  0.7875653145828726  0.5381853024388247
  0.2035408389618576  0.2313683021811619  0.3760873738830342
  0.4332007059503801  0.8748131663435856  0.0742615921874627
  0.1039704403353731  0.9225092725686309  0.2307308863327790
  0.2813571089349469  0.3947017930968569  0.0405087956628691
  0.5507058323744636  0.9866964517180994  0.7669703261245064
  0.6910390275687193  0.8906897724732051  0.4933357858153252
  0.9042694523788393  0.4368526330901141  0.7215680525437590
  0.0152052709364837  0.2161213625941363  0.3861107528302665
  0.8638995916970102  0.5929483438018734  0.8250215258933077
  0.9971131760031740  0.4403474520683527  0.5381325472158059
 
  0.00000000E+00  0.00000000E+00  0.00000000E+00
  0.00000000E+00  0.00000000E+00  0.00000000E+00
  0.00000000E+00  0.00000000E+00  0.00000000E+00
  0.00000000E+00  0.00000000E+00  0.00000000E+00
  0.00000000E+00  0.00000000E+00  0.00000000E+00
  0.00000000E+00  0.00000000E+00  0.00000000E+00
  0.00000000E+00  0.00000000E+00  0.00000000E+00
  0.00000000E+00  0.00000000E+00  0.00000000E+00
  0.00000000E+00  0.00000000E+00  0.00000000E+00
  0.00000000E+00  0.00000000E+00  0.00000000E+00
  0.00000000E+00  0.00000000E+00  0.00000000E+00
  0.00000000E+00  0.00000000E+00  0.00000000E+00
  0.00000000E+00  0.00000000E+00  0.00000000E+00
  0.00000000E+00  0.00000000E+00  0.00000000E+00
  0.00000000E+00  0.00000000E+00  0.00000000E+00
  0.00000000E+00  0.00000000E+00  0.00000000E+00
  0.00000000E+00  0.00000000E+00  0.00000000E+00
  0.00000000E+00  0.00000000E+00  0.00000000E+00
  0.00000000E+00  0.00000000E+00  0.00000000E+00
  0.00000000E+00  0.00000000E+00  0.00000000E+00
  0.00000000E+00  0.00000000E+00  0.00000000E+00
  0.00000000E+00  0.00000000E+00  0.00000000E+00
  0.00000000E+00  0.00000000E+00  0.00000000E+00
  0.00000000E+00  0.00000000E+00  0.00000000E+00
  0.00000000E+00  0.00000000E+00  0.00000000E+00
  0.00000000E+00  0.00000000E+00  0.00000000E+00
  0.00000000E+00  0.00000000E+00  0.00000000E+00
  0.00000000E+00  0.00000000E+00  0.00000000E+00
  0.00000000E+00  0.00000000E+00  0.00000000E+00
  0.00000000E+00  0.00000000E+00  0.00000000E+00
  0.00000000E+00  0.00000000E+00  0.00000000E+00
  0.00000000E+00  0.00000000E+00  0.00000000E+00
  0.00000000E+00  0.00000000E+00  0.00000000E+00
  0.00000000E+00  0.00000000E+00  0.00000000E+00
  0.00000000E+00  0.00000000E+00  0.00000000E+00
  0.00000000E+00  0.00000000E+00  0.00000000E+00
  0.00000000E+00  0.00000000E+00  0.00000000E+00
  0.00000000E+00  0.00000000E+00  0.00000000E+00
  0.00000000E+00  0.00000000E+00  0.00000000E+00
  0.00000000E+00  0.00000000E+00  0.00000000E+00
  0.00000000E+00  0.00000000E+00  0.00000000E+00
  0.00000000E+00  0.00000000E+00  0.00000000E+00
  0.00000000E+00  0.00000000E+00  0.00000000E+00
  0.00000000E+00  0.00000000E+00  0.00000000E+00
  0.00000000E+00  0.00000000E+00  0.00000000E+00
  0.00000000E+00  0.00000000E+00  0.00000000E+00
  0.00000000E+00  0.00000000E+00  0.00000000E+00
  0.00000000E+00  0.00000000E+00  0.00000000E+00
  0.00000000E+00  0.00000000E+00  0.00000000E+00
  0.00000000E+00  0.00000000E+00  0.00000000E+00
  0.00000000E+00  0.00000000E+00  0.00000000E+00
  0.00000000E+00  0.00000000E+00  0.00000000E+00
  0.00000000E+00  0.00000000E+00  0.00000000E+00
  0.00000000E+00  0.00000000E+00  0.00000000E+00
  0.00000000E+00  0.00000000E+00  0.00000000E+00
  0.00000000E+00  0.00000000E+00  0.00000000E+00
  0.00000000E+00  0.00000000E+00  0.00000000E+00
  0.00000000E+00  0.00000000E+00  0.00000000E+00
  0.00000000E+00  0.00000000E+00  0.00000000E+00
  0.00000000E+00  0.00000000E+00  0.00000000E+00
  0.00000000E+00  0.00000000E+00  0.00000000E+00
  0.00000000E+00  0.00000000E+00  0.00000000E+00
  0.00000000E+00  0.00000000E+00  0.00000000E+00
  0.00000000E+00  0.00000000E+00  0.00000000E+00
  0.00000000E+00  0.00000000E+00  0.00000000E+00
  0.00000000E+00  0.00000000E+00  0.00000000E+00
  0.00000000E+00  0.00000000E+00  0.00000000E+00
  0.00000000E+00  0.00000000E+00  0.00000000E+00
  0.00000000E+00  0.00000000E+00  0.00000000E+00
  0.00000000E+00  0.00000000E+00  0.00000000E+00
  0.00000000E+00  0.00000000E+00  0.00000000E+00
  0.00000000E+00  0.00000000E+00  0.00000000E+00
  0.00000000E+00  0.00000000E+00  0.00000000E+00
  0.00000000E+00  0.00000000E+00  0.00000000E+00
  0.00000000E+00  0.00000000E+00  0.00000000E+00
  0.00000000E+00  0.00000000E+00  0.00000000E+00
  0.00000000E+00  0.00000000E+00  0.00000000E+00
  0.00000000E+00  0.00000000E+00  0.00000000E+00
  0.00000000E+00  0.00000000E+00  0.00000000E+00
  0.00000000E+00  0.00000000E+00  0.00000000E+00
  0.00000000E+00  0.00000000E+00  0.00000000E+00
  0.00000000E+00  0.00000000E+00  0.00000000E+00
  0.00000000E+00  0.00000000E+00  0.00000000E+00
  0.00000000E+00  0.00000000E+00  0.00000000E+00
  0.00000000E+00  0.00000000E+00  0.00000000E+00
  0.00000000E+00  0.00000000E+00  0.00000000E+00
  0.00000000E+00  0.00000000E+00  0.00000000E+00
  0.00000000E+00  0.00000000E+00  0.00000000E+00
  0.00000000E+00  0.00000000E+00  0.00000000E+00
  0.00000000E+00  0.00000000E+00  0.00000000E+00
  0.00000000E+00  0.00000000E+00  0.00000000E+00
  0.00000000E+00  0.00000000E+00  0.00000000E+00
  0.00000000E+00  0.00000000E+00  0.00000000E+00
  0.00000000E+00  0.00000000E+00  0.00000000E+00
  0.00000000E+00  0.00000000E+00  0.00000000E+00
  0.00000000E+00  0.00000000E+00  0.00000000E+00
  0.00000000E+00  0.00000000E+00  0.00000000E+00
  0.00000000E+00  0.00000000E+00  0.00000000E+00
  0.00000000E+00  0.00000000E+00  0.00000000E+00
  0.00000000E+00  0.00000000E+00  0.00000000E+00
  0.00000000E+00  0.00000000E+00  0.00000000E+00
  0.00000000E+00  0.00000000E+00  0.00000000E+00
  0.00000000E+00  0.00000000E+00  0.00000000E+00
  0.00000000E+00  0.00000000E+00  0.00000000E+00
  0.00000000E+00  0.00000000E+00  0.00000000E+00
  0.00000000E+00  0.00000000E+00  0.00000000E+00
  0.00000000E+00  0.00000000E+00  0.00000000E+00
  0.00000000E+00  0.00000000E+00  0.00000000E+00
  0.00000000E+00  0.00000000E+00  0.00000000E+00
  0.00000000E+00  0.00000000E+00  0.00000000E+00
  0.00000000E+00  0.00000000E+00  0.00000000E+00
  0.00000000E+00  0.00000000E+00  0.00000000E+00
  0.00000000E+00  0.00000000E+00  0.00000000E+00
  0.00000000E+00  0.00000000E+00  0.00000000E+00
  0.00000000E+00  0.00000000E+00  0.00000000E+00
  0.00000000E+00  0.00000000E+00  0.00000000E+00
  0.00000000E+00  0.00000000E+00  0.00000000E+00
  0.00000000E+00  0.00000000E+00  0.00000000E+00
  0.00000000E+00  0.00000000E+00  0.00000000E+00
  0.00000000E+00  0.00000000E+00  0.00000000E+00
  0.00000000E+00  0.00000000E+00  0.00000000E+00
  0.00000000E+00  0.00000000E+00  0.00000000E+00
  0.00000000E+00  0.00000000E+00  0.00000000E+00
  0.00000000E+00  0.00000000E+00  0.00000000E+00
  0.00000000E+00  0.00000000E+00  0.00000000E+00
  0.00000000E+00  0.00000000E+00  0.00000000E+00
  0.00000000E+00  0.00000000E+00  0.00000000E+00
  0.00000000E+00  0.00000000E+00  0.00000000E+00
  0.00000000E+00  0.00000000E+00  0.00000000E+00
  0.00000000E+00  0.00000000E+00  0.00000000E+00
  0.00000000E+00  0.00000000E+00  0.00000000E+00
  0.00000000E+00  0.00000000E+00  0.00000000E+00
  0.00000000E+00  0.00000000E+00  0.00000000E+00
  0.00000000E+00  0.00000000E+00  0.00000000E+00
  0.00000000E+00  0.00000000E+00  0.00000000E+00
  0.00000000E+00  0.00000000E+00  0.00000000E+00
  0.00000000E+00  0.00000000E+00  0.00000000E+00
  0.00000000E+00  0.00000000E+00  0.00000000E+00
  0.00000000E+00  0.00000000E+00  0.00000000E+00
  0.00000000E+00  0.00000000E+00  0.00000000E+00
  0.00000000E+00  0.00000000E+00  0.00000000E+00
  0.00000000E+00  0.00000000E+00  0.00000000E+00
  0.00000000E+00  0.00000000E+00  0.00000000E+00
  0.00000000E+00  0.00000000E+00  0.00000000E+00
  0.00000000E+00  0.00000000E+00  0.00000000E+00
  0.00000000E+00  0.00000000E+00  0.00000000E+00
  0.00000000E+00  0.00000000E+00  0.00000000E+00
  0.00000000E+00  0.00000000E+00  0.00000000E+00
  0.00000000E+00  0.00000000E+00  0.00000000E+00
  0.00000000E+00  0.00000000E+00  0.00000000E+00
  0.00000000E+00  0.00000000E+00  0.00000000E+00
  0.00000000E+00  0.00000000E+00  0.00000000E+00
  0.00000000E+00  0.00000000E+00  0.00000000E+00
  0.00000000E+00  0.00000000E+00  0.00000000E+00
  0.00000000E+00  0.00000000E+00  0.00000000E+00
  0.00000000E+00  0.00000000E+00  0.00000000E+00
  0.00000000E+00  0.00000000E+00  0.00000000E+00
  0.00000000E+00  0.00000000E+00  0.00000000E+00
  0.00000000E+00  0.00000000E+00  0.00000000E+00
  0.00000000E+00  0.00000000E+00  0.00000000E+00
  0.00000000E+00  0.00000000E+00  0.00000000E+00
  0.00000000E+00  0.00000000E+00  0.00000000E+00
  0.00000000E+00  0.00000000E+00  0.00000000E+00
  0.00000000E+00  0.00000000E+00  0.00000000E+00
  0.00000000E+00  0.00000000E+00  0.00000000E+00
  0.00000000E+00  0.00000000E+00  0.00000000E+00
  0.00000000E+00  0.00000000E+00  0.00000000E+00
  0.00000000E+00  0.00000000E+00  0.00000000E+00
  0.00000000E+00  0.00000000E+00  0.00000000E+00
  0.00000000E+00  0.00000000E+00  0.00000000E+00
  0.00000000E+00  0.00000000E+00  0.00000000E+00
  0.00000000E+00  0.00000000E+00  0.00000000E+00
  0.00000000E+00  0.00000000E+00  0.00000000E+00
  0.00000000E+00  0.00000000E+00  0.00000000E+00
  0.00000000E+00  0.00000000E+00  0.00000000E+00
  0.00000000E+00  0.00000000E+00  0.00000000E+00
  0.00000000E+00  0.00000000E+00  0.00000000E+00
  0.00000000E+00  0.00000000E+00  0.00000000E+00
  0.00000000E+00  0.00000000E+00  0.00000000E+00
  0.00000000E+00  0.00000000E+00  0.00000000E+00
  0.00000000E+00  0.00000000E+00  0.00000000E+00
  0.00000000E+00  0.00000000E+00  0.00000000E+00
  0.00000000E+00  0.00000000E+00  0.00000000E+00
  0.00000000E+00  0.00000000E+00  0.00000000E+00
  0.00000000E+00  0.00000000E+00  0.00000000E+00
  0.00000000E+00  0.00000000E+00  0.00000000E+00
  0.00000000E+00  0.00000000E+00  0.00000000E+00
  0.00000000E+00  0.00000000E+00  0.00000000E+00
  0.00000000E+00  0.00000000E+00  0.00000000E+00
  0.00000000E+00  0.00000000E+00  0.00000000E+00
  0.00000000E+00  0.00000000E+00  0.00000000E+00
  0.00000000E+00  0.00000000E+00  0.00000000E+00
  0.00000000E+00  0.00000000E+00  0.00000000E+00
  0.00000000E+00  0.00000000E+00  0.00000000E+00
  0.00000000E+00  0.00000000E+00  0.00000000E+00
  0.00000000E+00  0.00000000E+00  0.00000000E+00
  0.00000000E+00  0.00000000E+00  0.00000000E+00
  0.00000000E+00  0.00000000E+00  0.00000000E+00
  0.00000000E+00  0.00000000E+00  0.00000000E+00
  0.00000000E+00  0.00000000E+00  0.00000000E+00
  0.00000000E+00  0.00000000E+00  0.00000000E+00
  0.00000000E+00  0.00000000E+00  0.00000000E+00
  0.00000000E+00  0.00000000E+00  0.00000000E+00
  0.00000000E+00  0.00000000E+00  0.00000000E+00
  0.00000000E+00  0.00000000E+00  0.00000000E+00
  0.00000000E+00  0.00000000E+00  0.00000000E+00
  0.00000000E+00  0.00000000E+00  0.00000000E+00
  0.00000000E+00  0.00000000E+00  0.00000000E+00
  0.00000000E+00  0.00000000E+00  0.00000000E+00
  0.00000000E+00  0.00000000E+00  0.00000000E+00
  0.00000000E+00  0.00000000E+00  0.00000000E+00
  0.00000000E+00  0.00000000E+00  0.00000000E+00
  0.00000000E+00  0.00000000E+00  0.00000000E+00
  0.00000000E+00  0.00000000E+00  0.00000000E+00
  0.00000000E+00  0.00000000E+00  0.00000000E+00
  0.00000000E+00  0.00000000E+00  0.00000000E+00
  0.00000000E+00  0.00000000E+00  0.00000000E+00
  0.00000000E+00  0.00000000E+00  0.00000000E+00
  0.00000000E+00  0.00000000E+00  0.00000000E+00
  0.00000000E+00  0.00000000E+00  0.00000000E+00
  0.00000000E+00  0.00000000E+00  0.00000000E+00
  0.00000000E+00  0.00000000E+00  0.00000000E+00
  0.00000000E+00  0.00000000E+00  0.00000000E+00
  0.00000000E+00  0.00000000E+00  0.00000000E+00
  0.00000000E+00  0.00000000E+00  0.00000000E+00
  0.00000000E+00  0.00000000E+00  0.00000000E+00
  0.00000000E+00  0.00000000E+00  0.00000000E+00
  0.00000000E+00  0.00000000E+00  0.00000000E+00
  0.00000000E+00  0.00000000E+00  0.00000000E+00
  0.00000000E+00  0.00000000E+00  0.00000000E+00
  0.00000000E+00  0.00000000E+00  0.00000000E+00
  0.00000000E+00  0.00000000E+00  0.00000000E+00