In2O3 structure 14 - random placement wi
   1.00000000000000     
     8.2005967062390148   -0.0097050130742309    0.0265437886822573
    -0.0095301787561240    8.1183898868659217   -0.0643623267831838
     0.0267141273562604   -0.0641971706940139    8.0308883888682683
   In   O 
    16    24
Direct
  0.5573713446299606  0.7818385490911840  0.0845612086900367
  0.8390714719284057  0.5389944435442946  0.3380682315951141
  0.0988400168490167  0.2369845349692454  0.1304984149057406
  0.5627113877346447  0.2817261600453821  0.5802482863244696
  0.0631708303758604  0.7534292480777914  0.6206819190045016
  0.3325059392073813  0.5124835941851600  0.8540945263496378
  0.8403140338124091  0.0160163329077751  0.3382845012637949
  0.8299734960148802  0.0281540092110248  0.8441793535884362
  0.3434989319504229  0.9987939239880927  0.3675638125317154
  0.8234029421997170  0.5437440109487475  0.8430425511888431
  0.0693163850933598  0.2537705902811170  0.6018503155030184
  0.0668939366674237  0.7523022823721246  0.1181510222306149
  0.5647144488291412  0.7808154328180438  0.5844980532658208
  0.3378066000669248  0.5072717296803417  0.3623058229192046
  0.5389541979262154  0.2838540556869560  0.0697607647297083
  0.3341127904464952 -0.0021120616274248  0.8566095888698054
  0.6029075083429997  0.8955971304547269  0.3325998517274359
  0.3003671514248322  0.3885031629524013  0.6113694309987201
  0.4524654238934334  0.0381565323838721  0.6170080374177370
  0.4458156008634701  0.2466512359584172  0.3208957739230074
  0.7976492493311137  0.6620831045160019  0.0888833588231164
  0.5931142742499412  0.0361086390279894  0.9690109536220129
  0.0893712634923679  0.0140143557433632  0.7378858190229807
  0.7990903680170547  0.7885924758111368  0.7184665658001029
  0.4489863066740767  0.7504980404698078  0.8272392858079491
  0.9554590185566547 -0.0000041521375575  0.0852109386240896
  0.0936656952240602  0.6362708724354554  0.8703666585893763
  0.6020605742729849  0.5330274680724121  0.4627154865225251
  0.2984969755891781  0.8919412913545749  0.1171486982361759
  0.2896856348421867  0.2520749922896625  0.9534620668950210
  0.5948172317788292  0.4034628045368582  0.8240462909957761
  0.7893037018554606  0.3024119299059134  0.1682366682125250
  0.8755924791421734  0.3081046420364036 -0.0007482573491836
  0.4375241016738330  0.5396176100777331  0.1118980244272689
  0.1012619821313384  0.1227122689256138  0.3710830091714331
  0.8048539266562461  0.1553694100167619  0.5814079344687858
  0.0957505901551731  0.4886600047729856  0.2393760789220575
  0.9582042611726295  0.7812067527718597  0.3747422605555347
  0.3006828514647868  0.7494614069976848  0.4853938919985510
  0.9454264719393605  0.4906309886048228  0.5960039556519969
 
  0.00000000E+00  0.00000000E+00  0.00000000E+00
  0.00000000E+00  0.00000000E+00  0.00000000E+00
  0.00000000E+00  0.00000000E+00  0.00000000E+00
  0.00000000E+00  0.00000000E+00  0.00000000E+00
  0.00000000E+00  0.00000000E+00  0.00000000E+00
  0.00000000E+00  0.00000000E+00  0.00000000E+00
  0.00000000E+00  0.00000000E+00  0.00000000E+00
  0.00000000E+00  0.00000000E+00  0.00000000E+00
  0.00000000E+00  0.00000000E+00  0.00000000E+00
  0.00000000E+00  0.00000000E+00  0.00000000E+00
  0.00000000E+00  0.00000000E+00  0.00000000E+00
  0.00000000E+00  0.00000000E+00  0.00000000E+00
  0.00000000E+00  0.00000000E+00  0.00000000E+00
  0.00000000E+00  0.00000000E+00  0.00000000E+00
  0.00000000E+00  0.00000000E+00  0.00000000E+00
  0.00000000E+00  0.00000000E+00  0.00000000E+00
  0.00000000E+00  0.00000000E+00  0.00000000E+00
  0.00000000E+00  0.00000000E+00  0.00000000E+00
  0.00000000E+00  0.00000000E+00  0.00000000E+00
  0.00000000E+00  0.00000000E+00  0.00000000E+00
  0.00000000E+00  0.00000000E+00  0.00000000E+00
  0.00000000E+00  0.00000000E+00  0.00000000E+00
  0.00000000E+00  0.00000000E+00  0.00000000E+00
  0.00000000E+00  0.00000000E+00  0.00000000E+00
  0.00000000E+00  0.00000000E+00  0.00000000E+00
  0.00000000E+00  0.00000000E+00  0.00000000E+00
  0.00000000E+00  0.00000000E+00  0.00000000E+00
  0.00000000E+00  0.00000000E+00  0.00000000E+00
  0.00000000E+00  0.00000000E+00  0.00000000E+00
  0.00000000E+00  0.00000000E+00  0.00000000E+00
  0.00000000E+00  0.00000000E+00  0.00000000E+00
  0.00000000E+00  0.00000000E+00  0.00000000E+00
  0.00000000E+00  0.00000000E+00  0.00000000E+00
  0.00000000E+00  0.00000000E+00  0.00000000E+00
  0.00000000E+00  0.00000000E+00  0.00000000E+00
  0.00000000E+00  0.00000000E+00  0.00000000E+00
  0.00000000E+00  0.00000000E+00  0.00000000E+00
  0.00000000E+00  0.00000000E+00  0.00000000E+00
  0.00000000E+00  0.00000000E+00  0.00000000E+00
  0.00000000E+00  0.00000000E+00  0.00000000E+00
