Sb8 Te3
1.0
  21.6455050000000000   -2.1874840000000000    0.0000000000000000
  21.6455050000000000    2.1874840000000000    0.0000000000000000
  21.4244389999999996    0.0000000000000000    3.7823789999999988
Sb Te
8 3
direct
   0.1783890000000000    0.1783890000000000    0.1783890000000000 Sb
   0.3637189999999990    0.3637189999999990    0.3637189999999990 Sb
   0.6362810000000000    0.6362810000000000    0.6362810000000000 Sb
   0.8216110000000000    0.8216110000000000    0.8216110000000000 Sb
   0.5477010000000000    0.5477010000000000    0.5477010000000000 Sb
   0.0953610000000000    0.0953610000000000    0.0953610000000000 Sb
   0.9046390000000000    0.9046390000000000    0.9046390000000000 Sb
   0.4522990000000000    0.4522990000000000    0.4522990000000000 Sb
   0.2768350000000000    0.2768350000000000    0.2768350000000000 Te
   0.7231639999999990    0.7231649999999999    0.7231639999999990 Te
   0.0000000000000000    0.0000000000000000    0.0000000000000000 Te
