Ge3 Sb6 Te12                            
   1.00000000000000     
     2.1384674573189892   -3.7039342864091100   -0.0000000000000003
     2.1384674573189892    3.7039342864091100   -0.0000000000000001
     0.0000000000000037   -0.0000000000000046   43.8316604067350539
   Ge   Sb   Te
     3     6    12
Direct
  0.3333333333333357  0.6666666666666643  0.2822726130116862
  0.0000000000000000  0.0000000000000000  0.6156059463450220
  0.6666666666666643  0.3333333333333357  0.9489392796783577
  0.0000000000000000  0.0000000000000000  0.1315334574301741
  0.3333333333333357  0.6666666666666643  0.0394328353431041
  0.6666666666666643  0.3333333333333357  0.4648667907635101
  0.0000000000000000  0.0000000000000000  0.3727661686764397
  0.3333333333333357  0.6666666666666643  0.7982001240968380
  0.6666666666666643  0.3333333333333357  0.7060995020097686
  0.3333333333333357  0.6666666666666643  0.1708322503807721
  0.6666666666666643  0.3333333333333357  0.0850301274848145
  0.6666666666666643  0.3333333333333357  0.3327383458882557
  0.0000000000000000  0.0000000000000000  0.2498280371278553
  0.0000000000000000  0.0000000000000000  0.5041655837141078
  0.3333333333333357  0.6666666666666643  0.4183634608181501
  0.3333333333333357  0.6666666666666643  0.6660716792215919
  0.6666666666666643  0.3333333333333357  0.5831613704611837
  0.6666666666666643  0.3333333333333357  0.8374989170474364
  0.0000000000000000  0.0000000000000000  0.7516967941514858
  0.0000000000000000  0.0000000000000000 -0.0005949874450727
  0.3333333333333357  0.6666666666666643  0.9164947037945194
 
  0.00000000E+00  0.00000000E+00  0.00000000E+00
  0.00000000E+00  0.00000000E+00  0.00000000E+00
  0.00000000E+00  0.00000000E+00  0.00000000E+00
  0.00000000E+00  0.00000000E+00  0.00000000E+00
  0.00000000E+00  0.00000000E+00  0.00000000E+00
  0.00000000E+00  0.00000000E+00  0.00000000E+00
  0.00000000E+00  0.00000000E+00  0.00000000E+00
  0.00000000E+00  0.00000000E+00  0.00000000E+00
  0.00000000E+00  0.00000000E+00  0.00000000E+00
  0.00000000E+00  0.00000000E+00  0.00000000E+00
  0.00000000E+00  0.00000000E+00  0.00000000E+00
  0.00000000E+00  0.00000000E+00  0.00000000E+00
  0.00000000E+00  0.00000000E+00  0.00000000E+00
  0.00000000E+00  0.00000000E+00  0.00000000E+00
  0.00000000E+00  0.00000000E+00  0.00000000E+00
  0.00000000E+00  0.00000000E+00  0.00000000E+00
  0.00000000E+00  0.00000000E+00  0.00000000E+00
  0.00000000E+00  0.00000000E+00  0.00000000E+00
  0.00000000E+00  0.00000000E+00  0.00000000E+00
  0.00000000E+00  0.00000000E+00  0.00000000E+00
  0.00000000E+00  0.00000000E+00  0.00000000E+00
