Sb                                      
   1.00000000000000     
    18.7635986409039965    0.0000000000000000    0.0000000000000000
     0.0000000000000000   18.7635986409039965    0.0000000000000000
     0.0000000000000000    0.0000000000000000   18.7635986409039965
   Sb   C 
   205    11
Selective dynamics
Direct
  0.9181528500000000  0.0838190200000000  0.5060942899999999   T   T   T
  0.4245610000000000  0.7517424200000000  0.1714009100000000   T   T   T
  0.8929951200000000  0.9013344599999999  0.8551610100000000   T   T   T
  0.2228556200000000  0.4064895300000000  0.0315123380000000   T   T   T
  0.7321206400000000  0.0762473540000000  0.0405397960000000   T   T   T
  0.2292313900000000  0.0626948900000000  0.8223624100000000   T   T   T
  0.7423528600000000  0.0808327960000000  0.6760849600000000   T   T   T
  0.7602112000000000  0.2612553700000000  0.6669378800000000   T   T   T
  0.4224439300000000  0.7200296200000000  0.0030614782000000   T   T   T
  0.9134437200000000  0.0628287930000000  0.1754264700000000   T   T   T
  0.0701236680000000  0.9006169400000000  0.0159514090000000   T   T   T
  0.3588929500000000  0.0900676120000000  0.4998798900000000   T   T   T
  0.5720683400000000  0.0950586090000000  0.3640752300000000   T   T   T
  0.4134286000000000  0.9200545200000000  0.8256178700000000   T   T   T
  0.7600448100000000  0.4377484600000000  0.5023703600000000   T   T   T
  0.7395463900000000  0.3895920500000000  0.0172794390000000   T   T   T
  0.2473734800000000  0.0566253270000000  0.1441156600000000   T   T   T
  0.1010174900000000  0.1680455100000000  0.6446967300000001   T   T   T
  0.5750486700000000  0.0860628060000000  0.2031694500000000   T   T   T
  0.4056876100000000  0.0713048300000000  0.9915789800000000   T   T   T
  0.9305119400000000  0.7295030400000000  0.1739514200000000   T   T   T
  0.7407642100000000  0.7576440000000000  0.6816320200000000   T   T   T
  0.7433962300000000  0.4240867100000000  0.6794693600000000   T   T   T
  0.7424315900000000  0.9231174000000000  0.3459069200000000   T   T   T
  0.8991863500000000  0.4087341400000000  0.0020273274000000   T   T   T
  0.4398332200000000  0.5690241100000000  0.1620003100000000   T   T   T
  0.7466709800000000  0.7394604900000000  0.0054722265000000   T   T   T
  0.7431385600000000  0.0741475900000000  0.3700252900000000   T   T   T
  0.9008069700000000  0.3964561700000000  0.8267245600000001   T   T   T
  0.8915137300000000  0.7796855900000000  0.6485085000000000   T   T   T
  0.0850052800000000  0.5584343899999999  0.1917249500000000   T   T   T
  0.2312345600000000  0.2613709200000000  0.1720252300000000   T   T   T
  0.7493991200000000  0.4239366600000000  0.8392108000000000   T   T   T
  0.4087245400000000  0.4014960700000000  0.8347143800000000   T   T   T
  0.0565505040000000  0.2285502800000000  0.1802299100000000   T   T   T
  0.7458975000000000  0.5861349900000000  0.1734925700000000   T   T   T
  0.2305574700000000  0.2243745400000000  0.5023077500000001   T   T   T
  0.0997932380000000  0.7328798900000000  0.1736656100000000   T   T   T
  0.3990854000000000  0.5708885000000000  0.9988793400000000   T   T   T
  0.3944477400000000  0.9439596800000000  0.5009770300000000   T   T   T
  0.9182862400000000  0.5951564400000000  0.3582297500000000   T   T   T
  0.1876597700000000  0.0326383970000000  0.6634519700000000   T   T   T
  0.2165221800000000  0.8585215500000000  0.6685663200000000   T   T   T
  0.2472742000000000  0.2187690500000000  0.3461844200000000   T   T   T
  0.2593351700000000  0.6611750400000000  0.6729971600000000   T   T   T
  0.7483711199999999  0.4167169700000000  0.3389432100000000   T   T   T
  0.9233695900000000  0.5757423300000000  0.2063992800000000   T   T   T
  0.7368141000000000  0.7598297100000000  0.8526025800000000   T   T   T
  0.4244081500000000  0.7374937000000000  0.3411844200000000   T   T   T
  0.7592166900000000  0.7490675300000000  0.1794656300000000   T   T   T
  0.1142242100000000  0.7420667900000000  0.6721614600000000   T   T   T
  0.9313386900000000  0.7495121200000000  0.4942229200000000   T   T   T
  0.5768675500000000  0.2550676200000000  0.8315995600000000   T   T   T
  0.5862632000000000  0.9175966400000000  0.3430457500000000   T   T   T
  0.0531358020000000  0.0588572150000000  0.9981139000000000   T   T   T
  0.8882928100000000  0.0710994930000000  0.0141507450000000   T   T   T
  0.7459502099999999  0.5947459899999999  0.9966379300000000   T   T   T
  0.2605006500000000  0.7365387000000000  0.0154270260000000   T   T   T
  0.9147788000000000  0.9237379400000000  0.5214480900000000   T   T   T
  0.6049177900000000  0.6329800200000000  0.1833922800000000   T   T   T
  0.9097389000000000  0.4379393100000000  0.3288846700000000   T   T   T
  0.2618597400000000  0.7417555000000000  0.3423551900000000   T   T   T
  0.0987935380000000  0.3969881000000000  0.1791939400000000   T   T   T
  0.5630635500000000  0.9376415299999999  0.8653295300000000   T   T   T
  0.9140125400000000  0.9064609400000000  0.1936261000000000   T   T   T
  0.4032557300000000  0.0614125830000000  0.3503165700000000   T   T   T
  0.7542411999999999  0.9204125500000000  0.1972470400000000   T   T   T
  0.6878425700000000  0.2642498800000000  0.5132450100000000   T   T   T
  0.9010104300000000  0.0862945780000000  0.6574159900000000   T   T   T
  0.2236256800000000  0.8925153200000000  0.4929924700000000   T   T   T
  0.4140803300000000  0.9105716600000000  0.1700225000000000   T   T   T
  0.2169965000000000  0.0802277610000000  0.9891955300000000   T   T   T
  0.9368576900000000  0.9353928700000000  0.7083803100000000   T   T   T
  0.2220556900000000  0.8937192900000001  0.3315774000000000   T   T   T
  0.7565069000000000  0.5947172500000000  0.4993987700000000   T   T   T
  0.4002400100000000  0.2377610000000000  0.8193694100000000   T   T   T
  0.2071493900000000  0.0356119380000000  0.5080023700000000   T   T   T
  0.7323715800000000  0.9237698200000000  0.8436117400000001   T   T   T
  0.5782767500000000  0.7341055399999999  0.0042959383000000   T   T   T
  0.2501180700000000  0.9013150900000000  0.1545432200000000   T   T   T
  0.2179094300000000  0.2303939700000000  0.0076911696000000   T   T   T
  0.1039466100000000  0.5629525500000000  0.6997356700000000   T   T   T
  0.3955420300000000  0.5783454600000000  0.8398287600000000   T   T   T
  0.5538713500000000  0.2618237900000000  0.1682479900000000   T   T   T
  0.5634302200000000  0.9276286600000000  0.7040657400000000   T   T   T
  0.0581542690000000  0.2314444800000000  0.0081266403000000   T   T   T
  0.9326134200000000  0.0790948800000000  0.3278495700000000   T   T   T
  0.9175906500000000  0.9010440400000000  0.0312118140000000   T   T   T
  0.5815306900000000  0.9033251500000000  0.0265350670000000   T   T   T
  0.8712740500000000  0.2532917000000000  0.4982434400000000   T   T   T
  0.2556690900000000  0.9047078800000000  0.9909397000000000   T   T   T
  0.2174402900000000  0.0617178590000000  0.3055559000000000   T   T   T
  0.0835955570000000  0.7485433500000001  0.0153803130000000   T   T   T
  0.0607418820000000  0.4054588000000000  0.0062188440000000   T   T   T
  0.2463740300000000  0.3695043700000000  0.5396288500000000   T   T   T
  0.0791451010000000  0.0709408590000000  0.1648895900000000   T   T   T
  0.3305276500000000  0.1094457400000000  0.6784935100000000   T   T   T
  0.0890249480000000  0.7563073600000000  0.5118193400000000   T   T   T
  0.5682581700000000  0.5557895800000000  0.0199258530000000   T   T   T
  0.0703033220000000  0.5773779200000000  0.8626351000000000   T   T   T
  0.2558114700000000  0.4478034500000000  0.6968672200000000   T   T   T
  0.0566591470000000  0.8944250500000001  0.3946875900000000   T   T   T
  0.4142932300000000  0.4135783500000000  0.1766722100000000   T   T   T
  0.6937629800000000  0.7544009200000000  0.5231850100000000   T   T   T
  0.3886669100000000  0.2438609800000000  0.9817545100000000   T   T   T
  0.4040536400000000  0.0887818480000000  0.1479032300000000   T   T   T
  0.5614448800000000  0.0739744440000000  0.9946499800000000   T   T   T
  0.0593795290000000  0.9053817700000000  0.8577372800000000   T   T   T
  0.7365764700000000  0.1000465800000000  0.2060332900000000   T   T   T
  0.2331684300000000  0.5588883700000000  0.0380496260000000   T   T   T
  0.5865042300000000  0.2562518400000000  0.6777351500000000   T   T   T
  0.9309393700000000  0.2532894600000000  0.3466853500000000   T   T   T
  0.0908329360000000  0.5752362700000000  0.3644030800000000   T   T   T
  0.7279663400000000  0.9231522100000000  0.5072713200000000   T   T   T
  0.4110096100000000  0.2424468700000000  0.3290535600000000   T   T   T
  0.0528119760000000  0.9345596700000000  0.5798237300000000   T   T   T
  0.2207214800000000  0.8942994000000000  0.8222153200000000   T   T   T
  0.5721416400000000  0.7430981600000000  0.8577482800000000   T   T   T
  0.4018447000000000  0.9225229500000000  0.9881888800000000   T   T   T
  0.7267963000000000  0.9232472900000001  0.0045994162000000   T   T   T
  0.0962151490000000  0.1785503600000000  0.3353232500000000   T   T   T
  0.5779422100000000  0.4103626700000000  0.0030773352000000   T   T   T
  0.6977338199999999  0.1076767400000000  0.5169203500000000   T   T   T
  0.7548090900000000  0.9203938900000000  0.6636744500000000   T   T   T
  0.5095455500000000  0.7717338600000000  0.5271894900000000   T   T   T
  0.5961376500000000  0.7478803700000000  0.3585157900000000   T   T   T
  0.7576156700000000  0.7566161000000000  0.3524028400000000   T   T   T
  0.9346852000000000  0.7895464700000000  0.3431978800000000   T   T   T
  0.6725907300000000  0.0945112850000000  0.8395393400000000   T   T   T
  0.9110321500000000  0.4097315200000000  0.1597469200000000   T   T   T
  0.2291608400000000  0.2495623400000000  0.8346179500000001   T   T   T
  0.0687636490000000  0.3854761900000000  0.3561329800000000   T   T   T
  0.0690425720000000  0.0902515830000000  0.4653502700000000   T   T   T
  0.4174149300000000  0.2485866100000000  0.6642779400000000   T   T   T
  0.0617720380000000  0.0740060930000000  0.8235865000000000   T   T   T
  0.0605680760000000  0.2323775400000000  0.8396862200000000   T   T   T
  0.3986642000000000  0.9346820000000000  0.6690903100000000   T   T   T
  0.9357798300000000  0.5881583300000000  0.5207388600000000   T   T   T
  0.4633724600000000  0.0758452150000000  0.8309243700000000   T   T   T
  0.9061843500000000  0.2409479100000000  0.8374859900000000   T   T   T
  0.5187467400000000  0.0874785040000000  0.5339490099999999   T   T   T
  0.3870450300000000  0.2567844500000000  0.1613141700000000   T   T   T
  0.7323440900000000  0.5819505100000000  0.8375778200000000   T   T   T
  0.7643600500000000  0.5971484200000000  0.6759710000000000   T   T   T
  0.2329400700000000  0.4121013600000000  0.8491419800000000   T   T   T
  0.7348418900000000  0.2495069100000000  0.8274817200000000   T   T   T
  0.0744892620000000  0.4110633100000000  0.6822537900000000   T   T   T
  0.9079156300000000  0.4150417600000000  0.4909072400000000   T   T   T
  0.8930858300000000  0.2581024800000000  0.1782401100000000   T   T   T
  0.5562363800000000  0.2296585200000000  0.0155333480000000   T   T   T
  0.7565419600000000  0.4267908800000000  0.1734173200000000   T   T   T
  0.7179548500000000  0.2659992100000000  0.1905103000000000   T   T   T
  0.9196208400000000  0.5999238900000000  0.6808822900000000   T   T   T
  0.5693774600000000  0.2666160900000000  0.3644894200000000   T   T   T
  0.2251769600000000  0.7439531500000000  0.8586082600000000   T   T   T
  0.0695454190000000  0.5744295500000000  0.0330667200000000   T   T   T
  0.0974683280000000  0.4006512300000000  0.5218275900000000   T   T   T
  0.5824010400000000  0.4237497900000000  0.1643957800000000   T   T   T
  0.3655205200000000  0.7870809200000000  0.6372160600000000   T   T   T
  0.1053229900000000  0.7357108900000000  0.3551599000000000   T   T   T
  0.0864372840000000  0.5642053600000000  0.5181144100000000   T   T   T
  0.3843950700000000  0.4046091500000000  0.0095919259000000   T   T   T
  0.7365048700000000  0.2669599000000000  0.3434318000000000   T   T   T
  0.5565736900000000  0.0769780960000000  0.6810429900000000   T   T   T
  0.7570346000000000  0.6026520100000000  0.3309840200000000   T   T   T
  0.2359685400000000  0.5749569600000000  0.8313703000000000   T   T   T
  0.9104196400000000  0.5701382200000000  0.8426454100000000   T   T   T
  0.8972609900000000  0.5584382000000000  0.0216682570000000   T   T   T
  0.5679429499999999  0.9232583100000000  0.5167495300000000   T   T   T
  0.5412678800000000  0.7605199499999999  0.6752399300000000   T   T   T
  0.2588199300000000  0.5705606500000000  0.5348421799999999   T   T   T
  0.2267817700000000  0.4007295800000000  0.3564688100000000   T   T   T
  0.5805075600000000  0.9257367700000000  0.1856314500000000   T   T   T
  0.2493246700000000  0.5649381600000000  0.3810010600000000   T   T   T
  0.0899984970000000  0.9052159500000000  0.1935504200000000   T   T   T
  0.0321674960000000  0.2667385000000000  0.5102586700000000   T   T   T
  0.9034817600000000  0.7475060700000000  0.0143189730000000   T   T   T
  0.9085051300000000  0.7251477900000000  0.8370644000000000   T   T   T
  0.2258916900000000  0.2482537500000000  0.6688382899999999   T   T   T
  0.8959745600000000  0.2244973300000000  0.0148829500000000   T   T   T
  0.4195820800000000  0.7388135000000000  0.8172665700000000   T   T   T
  0.5723721800000000  0.4036953800000000  0.8457213500000000   T   T   T
  0.2656029100000000  0.4766048900000000  0.2071656000000000   T   T   T
  0.2708661900000000  0.7055939400000000  0.1954840100000000   T   T   T
  0.9036661300000000  0.0714949610000000  0.8424016600000001   T   T   T
  0.4714726600000000  0.2462620600000000  0.5042725600000000   T   T   T
  0.9141607800000000  0.4238323100000000  0.6700950200000000   T   T   T
  0.7391797500000000  0.2387583300000000  0.9864042700000000   T   T   T
  0.4157720500000000  0.9155133000000000  0.3409866200000000   T   T   T
  0.0706707440000000  0.4111297500000000  0.8418708800000000   T   T   T
  0.0619130310000000  0.7464222400000000  0.8402486300000001   T   T   T
  0.9242429599999999  0.2530301900000000  0.6678148100000000   T   T   T
  0.5683822300000000  0.5881766400000000  0.8257097600000000   T   T   T
  0.4098299700000000  0.4105500000000000  0.3493199900000000   F   F   F
  0.4210000000000000  0.5906100300000000  0.3288600100000000   F   F   F
  0.5893000400000000  0.4294100100000000  0.3294600000000000   F   F   F
  0.4098299700000000  0.5795900200000000  0.5097299800000000   F   F   F
  0.5778700100000000  0.5859400000000000  0.3337799900000000   F   F   F
  0.4100900300000000  0.4120700100000000  0.6862800100000001   F   F   F
  0.4212600000000000  0.4230700100000000  0.5054100200000000   F   F   F
  0.5893000400000000  0.5984500000000000  0.4898800000000000   F   F   F
  0.5781300100000000  0.5874400100000000  0.6707500199999999   F   F   F
  0.4212600000000000  0.5921099800000000  0.6658300200000000   F   F   F
  0.5895600300000000  0.4309099900000000  0.6664199800000000   F   F   F
  0.5781300100000000  0.4183900100000000  0.5103300200000001   F   F   F
  0.4272496600000000  0.7156756600000000  0.7029356100000000   T   T   T
  0.8674903800000000  0.8942098500000000  0.6297099600000000   T   T   T
  0.1166118100000000  0.1850357800000000  0.5256987000000000   T   T   T
  0.2116499200000000  0.3843475700000000  0.1524485300000000   T   T   T
  0.5643236000000000  0.0516063880000000  0.8803465300000000   T   T   T
  0.2200023100000000  0.5586892600000000  0.7140560800000000   T   T   T
  0.5507038700000000  0.5409106800000000  0.1385109300000000   T   T   T
  0.0977772350000000  0.8729437400000000  0.4982618200000000   T   T   T
  0.5987463800000000  0.7152359200000000  0.4750883100000000   T   T   T
  0.5772349800000000  0.3005256800000000  0.4912859200000000   T   T   T
  0.0407375730000000  0.2736387800000000  0.3883022200000000   T   T   T
 
  0.00000000E+00  0.00000000E+00  0.00000000E+00
  0.00000000E+00  0.00000000E+00  0.00000000E+00
  0.00000000E+00  0.00000000E+00  0.00000000E+00
  0.00000000E+00  0.00000000E+00  0.00000000E+00
  0.00000000E+00  0.00000000E+00  0.00000000E+00
  0.00000000E+00  0.00000000E+00  0.00000000E+00
  0.00000000E+00  0.00000000E+00  0.00000000E+00
  0.00000000E+00  0.00000000E+00  0.00000000E+00
  0.00000000E+00  0.00000000E+00  0.00000000E+00
  0.00000000E+00  0.00000000E+00  0.00000000E+00
  0.00000000E+00  0.00000000E+00  0.00000000E+00
  0.00000000E+00  0.00000000E+00  0.00000000E+00
  0.00000000E+00  0.00000000E+00  0.00000000E+00
  0.00000000E+00  0.00000000E+00  0.00000000E+00
  0.00000000E+00  0.00000000E+00  0.00000000E+00
  0.00000000E+00  0.00000000E+00  0.00000000E+00
  0.00000000E+00  0.00000000E+00  0.00000000E+00
  0.00000000E+00  0.00000000E+00  0.00000000E+00
  0.00000000E+00  0.00000000E+00  0.00000000E+00
  0.00000000E+00  0.00000000E+00  0.00000000E+00
  0.00000000E+00  0.00000000E+00  0.00000000E+00
  0.00000000E+00  0.00000000E+00  0.00000000E+00
  0.00000000E+00  0.00000000E+00  0.00000000E+00
  0.00000000E+00  0.00000000E+00  0.00000000E+00
  0.00000000E+00  0.00000000E+00  0.00000000E+00
  0.00000000E+00  0.00000000E+00  0.00000000E+00
  0.00000000E+00  0.00000000E+00  0.00000000E+00
  0.00000000E+00  0.00000000E+00  0.00000000E+00
  0.00000000E+00  0.00000000E+00  0.00000000E+00
  0.00000000E+00  0.00000000E+00  0.00000000E+00
  0.00000000E+00  0.00000000E+00  0.00000000E+00
  0.00000000E+00  0.00000000E+00  0.00000000E+00
  0.00000000E+00  0.00000000E+00  0.00000000E+00
  0.00000000E+00  0.00000000E+00  0.00000000E+00
  0.00000000E+00  0.00000000E+00  0.00000000E+00
  0.00000000E+00  0.00000000E+00  0.00000000E+00
  0.00000000E+00  0.00000000E+00  0.00000000E+00
  0.00000000E+00  0.00000000E+00  0.00000000E+00
  0.00000000E+00  0.00000000E+00  0.00000000E+00
  0.00000000E+00  0.00000000E+00  0.00000000E+00
  0.00000000E+00  0.00000000E+00  0.00000000E+00
  0.00000000E+00  0.00000000E+00  0.00000000E+00
  0.00000000E+00  0.00000000E+00  0.00000000E+00
  0.00000000E+00  0.00000000E+00  0.00000000E+00
  0.00000000E+00  0.00000000E+00  0.00000000E+00
  0.00000000E+00  0.00000000E+00  0.00000000E+00
  0.00000000E+00  0.00000000E+00  0.00000000E+00
  0.00000000E+00  0.00000000E+00  0.00000000E+00
  0.00000000E+00  0.00000000E+00  0.00000000E+00
  0.00000000E+00  0.00000000E+00  0.00000000E+00
  0.00000000E+00  0.00000000E+00  0.00000000E+00
  0.00000000E+00  0.00000000E+00  0.00000000E+00
  0.00000000E+00  0.00000000E+00  0.00000000E+00
  0.00000000E+00  0.00000000E+00  0.00000000E+00
  0.00000000E+00  0.00000000E+00  0.00000000E+00
  0.00000000E+00  0.00000000E+00  0.00000000E+00
  0.00000000E+00  0.00000000E+00  0.00000000E+00
  0.00000000E+00  0.00000000E+00  0.00000000E+00
  0.00000000E+00  0.00000000E+00  0.00000000E+00
  0.00000000E+00  0.00000000E+00  0.00000000E+00
  0.00000000E+00  0.00000000E+00  0.00000000E+00
  0.00000000E+00  0.00000000E+00  0.00000000E+00
  0.00000000E+00  0.00000000E+00  0.00000000E+00
  0.00000000E+00  0.00000000E+00  0.00000000E+00
  0.00000000E+00  0.00000000E+00  0.00000000E+00
  0.00000000E+00  0.00000000E+00  0.00000000E+00
  0.00000000E+00  0.00000000E+00  0.00000000E+00
  0.00000000E+00  0.00000000E+00  0.00000000E+00
  0.00000000E+00  0.00000000E+00  0.00000000E+00
  0.00000000E+00  0.00000000E+00  0.00000000E+00
  0.00000000E+00  0.00000000E+00  0.00000000E+00
  0.00000000E+00  0.00000000E+00  0.00000000E+00
  0.00000000E+00  0.00000000E+00  0.00000000E+00
  0.00000000E+00  0.00000000E+00  0.00000000E+00
  0.00000000E+00  0.00000000E+00  0.00000000E+00
  0.00000000E+00  0.00000000E+00  0.00000000E+00
  0.00000000E+00  0.00000000E+00  0.00000000E+00
  0.00000000E+00  0.00000000E+00  0.00000000E+00
  0.00000000E+00  0.00000000E+00  0.00000000E+00
  0.00000000E+00  0.00000000E+00  0.00000000E+00
  0.00000000E+00  0.00000000E+00  0.00000000E+00
  0.00000000E+00  0.00000000E+00  0.00000000E+00
  0.00000000E+00  0.00000000E+00  0.00000000E+00
  0.00000000E+00  0.00000000E+00  0.00000000E+00
  0.00000000E+00  0.00000000E+00  0.00000000E+00
  0.00000000E+00  0.00000000E+00  0.00000000E+00
  0.00000000E+00  0.00000000E+00  0.00000000E+00
  0.00000000E+00  0.00000000E+00  0.00000000E+00
  0.00000000E+00  0.00000000E+00  0.00000000E+00
  0.00000000E+00  0.00000000E+00  0.00000000E+00
  0.00000000E+00  0.00000000E+00  0.00000000E+00
  0.00000000E+00  0.00000000E+00  0.00000000E+00
  0.00000000E+00  0.00000000E+00  0.00000000E+00
  0.00000000E+00  0.00000000E+00  0.00000000E+00
  0.00000000E+00  0.00000000E+00  0.00000000E+00
  0.00000000E+00  0.00000000E+00  0.00000000E+00
  0.00000000E+00  0.00000000E+00  0.00000000E+00
  0.00000000E+00  0.00000000E+00  0.00000000E+00
  0.00000000E+00  0.00000000E+00  0.00000000E+00
  0.00000000E+00  0.00000000E+00  0.00000000E+00
  0.00000000E+00  0.00000000E+00  0.00000000E+00
  0.00000000E+00  0.00000000E+00  0.00000000E+00
  0.00000000E+00  0.00000000E+00  0.00000000E+00
  0.00000000E+00  0.00000000E+00  0.00000000E+00
  0.00000000E+00  0.00000000E+00  0.00000000E+00
  0.00000000E+00  0.00000000E+00  0.00000000E+00
  0.00000000E+00  0.00000000E+00  0.00000000E+00
  0.00000000E+00  0.00000000E+00  0.00000000E+00
  0.00000000E+00  0.00000000E+00  0.00000000E+00
  0.00000000E+00  0.00000000E+00  0.00000000E+00
  0.00000000E+00  0.00000000E+00  0.00000000E+00
  0.00000000E+00  0.00000000E+00  0.00000000E+00
  0.00000000E+00  0.00000000E+00  0.00000000E+00
  0.00000000E+00  0.00000000E+00  0.00000000E+00
  0.00000000E+00  0.00000000E+00  0.00000000E+00
  0.00000000E+00  0.00000000E+00  0.00000000E+00
  0.00000000E+00  0.00000000E+00  0.00000000E+00
  0.00000000E+00  0.00000000E+00  0.00000000E+00
  0.00000000E+00  0.00000000E+00  0.00000000E+00
  0.00000000E+00  0.00000000E+00  0.00000000E+00
  0.00000000E+00  0.00000000E+00  0.00000000E+00
  0.00000000E+00  0.00000000E+00  0.00000000E+00
  0.00000000E+00  0.00000000E+00  0.00000000E+00
  0.00000000E+00  0.00000000E+00  0.00000000E+00
  0.00000000E+00  0.00000000E+00  0.00000000E+00
  0.00000000E+00  0.00000000E+00  0.00000000E+00
  0.00000000E+00  0.00000000E+00  0.00000000E+00
  0.00000000E+00  0.00000000E+00  0.00000000E+00
  0.00000000E+00  0.00000000E+00  0.00000000E+00
  0.00000000E+00  0.00000000E+00  0.00000000E+00
  0.00000000E+00  0.00000000E+00  0.00000000E+00
  0.00000000E+00  0.00000000E+00  0.00000000E+00
  0.00000000E+00  0.00000000E+00  0.00000000E+00
  0.00000000E+00  0.00000000E+00  0.00000000E+00
  0.00000000E+00  0.00000000E+00  0.00000000E+00
  0.00000000E+00  0.00000000E+00  0.00000000E+00
  0.00000000E+00  0.00000000E+00  0.00000000E+00
  0.00000000E+00  0.00000000E+00  0.00000000E+00
  0.00000000E+00  0.00000000E+00  0.00000000E+00
  0.00000000E+00  0.00000000E+00  0.00000000E+00
  0.00000000E+00  0.00000000E+00  0.00000000E+00
  0.00000000E+00  0.00000000E+00  0.00000000E+00
  0.00000000E+00  0.00000000E+00  0.00000000E+00
  0.00000000E+00  0.00000000E+00  0.00000000E+00
  0.00000000E+00  0.00000000E+00  0.00000000E+00
  0.00000000E+00  0.00000000E+00  0.00000000E+00
  0.00000000E+00  0.00000000E+00  0.00000000E+00
  0.00000000E+00  0.00000000E+00  0.00000000E+00
  0.00000000E+00  0.00000000E+00  0.00000000E+00
  0.00000000E+00  0.00000000E+00  0.00000000E+00
  0.00000000E+00  0.00000000E+00  0.00000000E+00
  0.00000000E+00  0.00000000E+00  0.00000000E+00
  0.00000000E+00  0.00000000E+00  0.00000000E+00
  0.00000000E+00  0.00000000E+00  0.00000000E+00
  0.00000000E+00  0.00000000E+00  0.00000000E+00
  0.00000000E+00  0.00000000E+00  0.00000000E+00
  0.00000000E+00  0.00000000E+00  0.00000000E+00
  0.00000000E+00  0.00000000E+00  0.00000000E+00
  0.00000000E+00  0.00000000E+00  0.00000000E+00
  0.00000000E+00  0.00000000E+00  0.00000000E+00
  0.00000000E+00  0.00000000E+00  0.00000000E+00
  0.00000000E+00  0.00000000E+00  0.00000000E+00
  0.00000000E+00  0.00000000E+00  0.00000000E+00
  0.00000000E+00  0.00000000E+00  0.00000000E+00
  0.00000000E+00  0.00000000E+00  0.00000000E+00
  0.00000000E+00  0.00000000E+00  0.00000000E+00
  0.00000000E+00  0.00000000E+00  0.00000000E+00
  0.00000000E+00  0.00000000E+00  0.00000000E+00
  0.00000000E+00  0.00000000E+00  0.00000000E+00
  0.00000000E+00  0.00000000E+00  0.00000000E+00
  0.00000000E+00  0.00000000E+00  0.00000000E+00
  0.00000000E+00  0.00000000E+00  0.00000000E+00
  0.00000000E+00  0.00000000E+00  0.00000000E+00
  0.00000000E+00  0.00000000E+00  0.00000000E+00
  0.00000000E+00  0.00000000E+00  0.00000000E+00
  0.00000000E+00  0.00000000E+00  0.00000000E+00
  0.00000000E+00  0.00000000E+00  0.00000000E+00
  0.00000000E+00  0.00000000E+00  0.00000000E+00
  0.00000000E+00  0.00000000E+00  0.00000000E+00
  0.00000000E+00  0.00000000E+00  0.00000000E+00
  0.00000000E+00  0.00000000E+00  0.00000000E+00
  0.00000000E+00  0.00000000E+00  0.00000000E+00
  0.00000000E+00  0.00000000E+00  0.00000000E+00
  0.00000000E+00  0.00000000E+00  0.00000000E+00
  0.00000000E+00  0.00000000E+00  0.00000000E+00
  0.00000000E+00  0.00000000E+00  0.00000000E+00
  0.00000000E+00  0.00000000E+00  0.00000000E+00
  0.00000000E+00  0.00000000E+00  0.00000000E+00
  0.00000000E+00  0.00000000E+00  0.00000000E+00
  0.00000000E+00  0.00000000E+00  0.00000000E+00
  0.00000000E+00  0.00000000E+00  0.00000000E+00
  0.00000000E+00  0.00000000E+00  0.00000000E+00
  0.00000000E+00  0.00000000E+00  0.00000000E+00
  0.00000000E+00  0.00000000E+00  0.00000000E+00
  0.00000000E+00  0.00000000E+00  0.00000000E+00
  0.00000000E+00  0.00000000E+00  0.00000000E+00
  0.00000000E+00  0.00000000E+00  0.00000000E+00
  0.00000000E+00  0.00000000E+00  0.00000000E+00
  0.00000000E+00  0.00000000E+00  0.00000000E+00
  0.00000000E+00  0.00000000E+00  0.00000000E+00
  0.00000000E+00  0.00000000E+00  0.00000000E+00
  0.00000000E+00  0.00000000E+00  0.00000000E+00
  0.00000000E+00  0.00000000E+00  0.00000000E+00
  0.00000000E+00  0.00000000E+00  0.00000000E+00
  0.00000000E+00  0.00000000E+00  0.00000000E+00
  0.00000000E+00  0.00000000E+00  0.00000000E+00
  0.00000000E+00  0.00000000E+00  0.00000000E+00
  0.00000000E+00  0.00000000E+00  0.00000000E+00
  0.00000000E+00  0.00000000E+00  0.00000000E+00
  0.00000000E+00  0.00000000E+00  0.00000000E+00
  0.00000000E+00  0.00000000E+00  0.00000000E+00
  0.00000000E+00  0.00000000E+00  0.00000000E+00
  0.00000000E+00  0.00000000E+00  0.00000000E+00
  0.00000000E+00  0.00000000E+00  0.00000000E+00
  0.00000000E+00  0.00000000E+00  0.00000000E+00
  0.00000000E+00  0.00000000E+00  0.00000000E+00
 
           1
   4.00000000000000     
  0.10000000E+01  0.00000000E+00  0.00000000E+00  0.00000000E+00
  0.91815285E+00  0.83819020E-01  0.50609429E+00
  0.42456100E+00  0.75174242E+00  0.17140091E+00
  0.89299512E+00  0.90133446E+00  0.85516101E+00
  0.22285562E+00  0.40648953E+00  0.31512338E-01
  0.73212064E+00  0.76247354E-01  0.40539796E-01
  0.22923139E+00  0.62694890E-01  0.82236241E+00
  0.74235286E+00  0.80832796E-01  0.67608496E+00
  0.76021120E+00  0.26125537E+00  0.66693788E+00
  0.42244393E+00  0.72002962E+00  0.30614782E-02
  0.91344372E+00  0.62828793E-01  0.17542647E+00
  0.70123668E-01  0.90061694E+00  0.15951409E-01
  0.35889295E+00  0.90067612E-01  0.49987989E+00
  0.57206834E+00  0.95058609E-01  0.36407523E+00
  0.41342860E+00  0.92005452E+00  0.82561787E+00
  0.76004481E+00  0.43774846E+00  0.50237036E+00
  0.73954639E+00  0.38959205E+00  0.17279439E-01
  0.24737348E+00  0.56625327E-01  0.14411566E+00
  0.10101749E+00  0.16804551E+00  0.64469673E+00
  0.57504867E+00  0.86062806E-01  0.20316945E+00
  0.40568761E+00  0.71304830E-01  0.99157898E+00
  0.93051194E+00  0.72950304E+00  0.17395142E+00
  0.74076421E+00  0.75764400E+00  0.68163202E+00
  0.74339623E+00  0.42408671E+00  0.67946936E+00
  0.74243159E+00  0.92311740E+00  0.34590692E+00
  0.89918635E+00  0.40873414E+00  0.20273274E-02
  0.43983322E+00  0.56902411E+00  0.16200031E+00
  0.74667098E+00  0.73946049E+00  0.54722265E-02
  0.74313856E+00  0.74147590E-01  0.37002529E+00
  0.90080697E+00  0.39645617E+00  0.82672456E+00
  0.89151373E+00  0.77968559E+00  0.64850850E+00
  0.85005280E-01  0.55843439E+00  0.19172495E+00
  0.23123456E+00  0.26137092E+00  0.17202523E+00
  0.74939912E+00  0.42393666E+00  0.83921080E+00
  0.40872454E+00  0.40149607E+00  0.83471438E+00
  0.56550504E-01  0.22855028E+00  0.18022991E+00
  0.74589750E+00  0.58613499E+00  0.17349257E+00
  0.23055747E+00  0.22437454E+00  0.50230775E+00
  0.99793238E-01  0.73287989E+00  0.17366561E+00
  0.39908540E+00  0.57088850E+00  0.99887934E+00
  0.39444774E+00  0.94395968E+00  0.50097703E+00
  0.91828624E+00  0.59515644E+00  0.35822975E+00
  0.18765977E+00  0.32638397E-01  0.66345197E+00
  0.21652218E+00  0.85852155E+00  0.66856632E+00
  0.24727420E+00  0.21876905E+00  0.34618442E+00
  0.25933517E+00  0.66117504E+00  0.67299716E+00
  0.74837112E+00  0.41671697E+00  0.33894321E+00
  0.92336959E+00  0.57574233E+00  0.20639928E+00
  0.73681410E+00  0.75982971E+00  0.85260258E+00
  0.42440815E+00  0.73749370E+00  0.34118442E+00
  0.75921669E+00  0.74906753E+00  0.17946563E+00
  0.11422421E+00  0.74206679E+00  0.67216146E+00
  0.93133869E+00  0.74951212E+00  0.49422292E+00
  0.57686755E+00  0.25506762E+00  0.83159956E+00
  0.58626320E+00  0.91759664E+00  0.34304575E+00
  0.53135802E-01  0.58857215E-01  0.99811390E+00
  0.88829281E+00  0.71099493E-01  0.14150745E-01
  0.74595021E+00  0.59474599E+00  0.99663793E+00
  0.26050065E+00  0.73653870E+00  0.15427026E-01
  0.91477880E+00  0.92373794E+00  0.52144809E+00
  0.60491779E+00  0.63298002E+00  0.18339228E+00
  0.90973890E+00  0.43793931E+00  0.32888467E+00
  0.26185974E+00  0.74175550E+00  0.34235519E+00
  0.98793538E-01  0.39698810E+00  0.17919394E+00
  0.56306355E+00  0.93764153E+00  0.86532953E+00
  0.91401254E+00  0.90646094E+00  0.19362610E+00