Ge Se                                   
   1.00000000000000     
    19.7402305603027344    0.0000000000000000    0.0000000000000000
     0.0000000000000000   19.7402305603027344    0.0000000000000000
     0.0000000000000000    0.0000000000000000   19.7402305603027344
   Ge   Se
   150   150
Direct
  0.2078815839472447  0.1207353111703828  0.1197334922987752
  0.0647997581983552  0.2475263325723879  0.3100013687381323
  0.9840477803558216  0.5374311588599103  0.3492784627869938
  0.3686134406725928 -0.0072009386838076  0.3299630804955436
  0.5313061953848330  0.8748702462211034  0.7711204464076354
  0.6334103230255069  0.0640998360291037  0.6971259280604631
  0.8994624845757507  0.8631284532941871  0.8837424420547603
 -0.0089679584222060  0.9731999701168221  0.1359719574645725
  0.2571561833851118  0.4388754443651358  0.6174113779764651
  0.1179705556318559  0.4484903009080219  0.0070090062869167
  0.4448822652292761  0.0816765684808002  0.1655067988579687
  0.5491447524906296  0.2627742946853026  0.4762587820116110
  0.1684308450278818  0.3774384491225868  0.7122255229783151
  0.5659923064154940  0.0158172359018939  0.9677707524666694
 -0.0083945863779997  0.3206769203587277  0.0876723629271386
  0.0994268764123017  0.3371707849417228  0.8176253094374545
  0.7261279024858969  0.1255003825738740  0.9066145814336175
  0.0656207690747586  0.2361156425835038  0.5337540195344442
  0.5370722835747203  0.6021051780165899  0.2504814981965852
  0.3200027805538371  0.4408206214993433  0.4222717319960087
  0.3111503210157555  0.7089597623160510  0.3015999042867529
  0.0927499210344345  0.9319233403016107  0.7364765536293961
  0.7651608860326332  0.4213298397172318  0.3989169239169817
  0.5607352961806432  0.3896955716520434  0.3437172579284714
  0.6945804942460834  0.7761479121778448  0.8253574612270035
  0.3733735525197543  0.7390260304783249  0.4766171850164794
  0.4563636778069151  0.6615895713592045  0.4104073807671803
  0.0552024860167825  0.1049280799922381  0.2427340913147459
  0.2039932847273284  0.7833082860159312  0.0738537417247335
  0.7116450575444655  0.9877877422058263  0.1545335479843038
  0.7732873418918738  0.0400518631784495  0.5391524046411821
  0.2591828054846042  0.4477743526311496  0.2968207389149495
  0.7097657052316705  0.2565643360847782  0.3440332684660372
  0.2311183730934775  0.1931111286737593  0.8084117798871274
  0.9456411899518180  0.2849522093530097  0.5748383662285849
  0.3790938188019841  0.1239316341724365  0.7145176093799517
  0.1381743933985967  0.6393047529808937  0.0412127148208149
  0.5689252712675494  0.1365006290104396  0.2339121841176704
  0.8298064718271345  0.6571297528420674  0.1704723172890161
  0.5486541841021622  0.6989886778975506  0.5876062875486161
  0.7195448138811921  0.3252892346622599  0.2266368527192439
  0.5822776763224458  0.7849231572844885  0.3250493366110036
  0.8828078357452509  0.9463484102714462  0.0418642591523568
  0.3899361702065690  0.5074834461391632  0.7532785334505280
  0.7756843456707755  0.2115084267904504  0.9863096759620130
  0.6591307531960574  0.3735028911957979  0.6054613714012889
  0.9873876282454364  0.6312699583163978  0.6175087798789757
  0.2938205736887723  0.2950459046670284  0.8678246484993666
  0.3928814732888926  0.1925998070836659  0.9819380742449104
  0.2256962075478716  0.2826970754484279  0.2658054612416672
  0.9375981092733857  0.4307898093032368  0.8734869295044863
  0.6460534808634035  0.6701269754109798  0.7688302092107477
  0.9378782959631327  0.7204123648503931  0.4441816160582962
  0.3801797009937142  0.3787875006804087  0.7523858408017761
  0.1982825002210097  0.6144490048161101  0.8801244684145385
  0.5487273328575024  0.4290667646395553  0.0420374938941764
  0.5327365777624092  0.2254751938363060  0.6852843167005707
  0.0643845174149332  0.3227270736109168  0.6528183942332687
  0.4272870049696960  0.4377983957657159  0.1979056425461554
  0.8014480855445975  0.9146521693040414  0.4913720767517085
  0.8126038092265040  0.5812666114385987  0.6892537631512006
  0.2623405170764319  0.7379068236667938  0.5523132549028970
  0.7168223623674352  0.8011843904724224  0.3537877460699209
  0.4528702493294265  0.7764021552424611  0.8086231271145704
  0.7455666635685988  0.9164703289574857  0.3055762401404323
  0.1211282604868177  0.5063359552087126  0.4873164113424766
  0.2839284030486988  0.4359727969893265  0.0770816985706068
  0.6004631376480146  0.1613054008442663  0.0599895328490657
  0.8462940757136452  0.3086010527213500  0.9488122646105986
  0.3930266123885335  0.2836558036056515  0.3864136020694242
  0.4865532089308801  0.5674713499850694  0.6925670586705053
  0.8066126525604693  0.7574364586818007  0.6020917647589707
  0.7203048471931606  0.1622060433118607  0.5841494419247520
  0.4984511626312762  0.8320465543503263  0.9675728668283601
  0.4714025860252836  0.9068335180286758  0.0878766038864151
  0.8708809186940036  0.6629186139001800  0.8001544996193561
  0.4563158925250071  0.9786931372980211  0.8012312189717163
  0.7901173509355390  0.0203326464045249  0.7023296360952865
  0.7177668035267253  0.1695522619387778  0.4499791852866282
  0.9944971113778077  0.4307404219525386  0.6528832022605482
  0.1740949034295251  0.1828474794285447  0.6445650897056898
  0.0381547608337914  0.1582965159253941  0.0213257599426411
  0.2735217949907369  0.7864237199673384  0.8761301420360574
  0.0717152508240996  0.9044285428211188  0.5254174143336524
  0.5502112218331090  0.4585619360858247  0.6526882703736822
  0.4517201372120480  0.8598541209917619  0.6258612400485360
  0.3990436314253298  0.0118572215939493  0.9896471726589727
  0.8904989588141891  0.2439140787370988  0.1971051678876513
  0.2089905053499881  0.6924742629959628  0.4426535260883352
  0.6438534661983609  0.5980482261300603  0.3959514735328772
  0.5112524111464172  0.3120065177985522  0.2437713150117073
  0.5490074919629514  0.4282255722700866  0.8491007077210165
  0.7162984008892500  0.5749735288242932  0.9905285531299614
  0.9119799756172399  0.9161346460367521  0.6544000533645635
  0.1968295578809533  0.0692628931295409  0.7645065831659148
  0.1889602349183388  0.1068960935152982  0.3406140189467607
  0.9400963521200831  0.0158327922155649  0.8678461493110875
  0.0812730256263166  0.7690436793326233  0.9049372961436205
  0.0984619559297424  0.6340746693518463  0.4642018118750686
  0.6239116386999762  0.1725557918605636  0.8351604707163165
  0.0660289717410095  0.8167980337876775  0.2990464165996075
  0.0373444169484240  0.0776486956327935  0.3980239447523721
  0.8283874973412209  0.8473081918689479  0.1072877668958387
  0.0110642494050495  0.1311410664879431  0.6060210471526154
  0.0243746243276738  0.5690372085673854  0.7995535737893880
  0.6325211253886733  0.2890534680045023  0.9044819993501110
  0.2924201159107574  0.5659166855589439  0.1160909678027164
  0.8068801236348834  0.0293862459408410  0.8740563161673275
  0.5547058302925452  0.5199301640693050  0.3499764851226542
  0.5726863107601949  0.0575668529550428  0.4833462963985244
  0.4435992300664695  0.1275218258525475  0.8317763778218201
  0.2029433639300826  0.4918777983230373  0.7840082880585034
  0.1338585012641957  0.0765500276281888  0.4875510143231514
  0.8389167358465897  0.5291876859071304  0.2417788144909170
  0.3993880663995616  0.5435798915003562  0.9866798420428716
  0.6271847706115301  0.6930223641175484  0.2443957317664534
  0.9436122068365529  0.6357324785952513  0.9849311168840253
  0.9098964984463932  0.8576949767605834  0.3083206674388853
  0.1107663848291167  0.9833654120666674  0.2186717912592405
  0.3865609665969098  0.9738696166336247  0.6168294244434605
 -0.0012678147396305  0.3714392823137833  0.4589394307608821
  0.8516551211174621  0.2590142984258643  0.4900405849823740
  0.0260053280361466  0.1840358240040018  0.8092316449148045
  0.4453646714864912  0.7306126419692727  0.1362945476094843
  0.9389130376147578  0.1641080769455514  0.1091081448798630
  0.8380879831688182  0.4545414251184349  0.0935663497818500
  0.9660049819085859  0.4771017990597236  0.2139454837990877
  0.5288229598833893  0.5586430796997406  0.8502933461961028
  0.1889438176620314 -0.0023153281013881  0.0367279320933822
  0.8271564712272645  0.5129963838071430  0.4756457511720238
  0.2972038681708827  0.8400430339231554  0.7544519132244212
  0.2377838434845595  0.3125173887994058  0.0726828888778562
  0.7599563498070302  0.3884892938490324  0.7754064236182636
  0.7647508074062960  0.1076119038720083  0.1814473281941618
  0.2751722948151861  0.9052145817725608  0.2321682742117760
  0.2419761439871211  0.9357103785489227  0.6006068734766570
  0.7093474169639987  0.7056035025110573  0.1476727721610044
  0.1075304813603658  0.6345595726876385  0.2269764584816980
  0.6566318946934641  0.5562428119560480  0.5947055912019524
  0.2502212147160260  0.8742549735737739  0.3780049829460268
  0.4204480606626189  0.6696438749718009  0.9488663333487585
  0.6287255429656334  0.4924707920683628  0.1797755579036512
  0.4874594094619874  0.1105879858601055  0.3929286414824755
  0.0624335374523477  0.5251667462335110  0.6031645244553651
  0.3181650164959526  0.1142020657634896  0.4786367972704539
  0.0829156653435447  0.4411903050045996  0.2637907758444792
  0.2356756944231613  0.9355969504317063  0.8936326799317976
  0.6411968612760411  0.7669038535410982  0.9957223923043967
  0.0714337561904607  0.1041333543951670  0.7189755531184889
  0.0478010692004944  0.9482232451296723  0.9238599457625580
  0.2741974279048168  0.2257715785337725  0.1591342386662662
  0.4778423223056906  0.9367472804775763  0.3011826122317752
  0.9874578682226509  0.5987354647499584  0.1947187944323927
  0.9520166353128878  0.1376198342958338  0.8985673120662393
  0.5216057052489809  0.3452992958840500  0.9400261621226045
  0.0063548451688215  0.2019181245733778  0.4197248497969519
  0.4091420962540123  0.8748533678493133  0.8839952537121321
  0.7683378091813968  0.8483143071417149  0.7567787657969820
  0.9738766500137167  0.9863640292971798  0.4793625522345646
  0.9843656024017823  0.5008533236240561  0.4728412338184144
  0.8617619376896725  0.7776129504870992  0.7187842355555087
  0.6772821906461690  0.4702855657348098  0.0642527820848484
  0.3879690148114083  0.1166763362380679  0.2825423133830260
  0.8347523010484115  0.3200716915032057  0.3802078843154618
  0.0952325655651984  0.3656151290923803  0.3635976789574022
  0.5958068884047817  0.1402470974758282  0.5927580255851097
  0.3950786824022421  0.7698912121686334  0.0196175568129770
  0.3353717351910340  0.7981106957821725  0.1758983303182207
  0.8236374679043272  0.1721903423606733  0.2730620313534308
  0.7457494041901104  0.7363416751623540  0.9272294377341139
  0.5791847015246252  0.7016680080830222  0.4285584629936143
  0.1853826935243309  0.7665601404289335  0.3409598496437976
  0.2665752924704534  0.0935821270984206  0.6505833533445411
  0.3936632631477838  0.9453584304341887  0.1846935658959827
  0.1273005587171020  0.0048536444507021  0.5907465766870863
  0.1207225939075853  0.5607049338729398  0.7106530634357862
  0.0253742538125862  0.6586400280107249  0.3651804623966075
  0.0941015725645520  0.1792381347689655  0.1502488379368696
  0.4450451126841381  0.6289480342836229  0.5904323085129214
  0.2842489038426708  0.5408115124007744  0.6947751546318734
  0.0312090322682625  0.8548414796067109  0.8210855562184627
  0.7117042848611196  0.8314477309571734  0.4724803990646428
  0.7071252019652451  0.6607993737254445  0.6615439235964590
  0.8390575881348906  0.1439834492439049  0.4467079258060511
  0.5546445098691334  0.9388085538054985  0.5147811337730304
  0.7577883704574301  0.2809680060417765  0.5713267207386136
  0.8671724547827352  0.6376586486976369  0.5807903139409634
  0.1247930012751590  0.2249867657366861  0.8764160507952649
  0.7159779155150008  0.6309592602540488  0.3046067241572243
  0.4381865326028641  0.4744392941435353  0.5903573892210112
  0.7241947732046731  0.5980657536405902  0.4887701909440120
  0.9864137232600073  0.6780119366286455  0.7342445032560306
  0.4135141479400473  0.2189062378247697  0.6467632248182122
  0.6379782696116701  0.6524645343808756  0.0605070030333230
  0.2591085362788526  0.7013712318298342  0.1675935700931710
  0.5381544354556743  0.1386203704246478  0.9300496162276248
  0.9127059365700225  0.1926484820082819  0.6524759627354128
  0.0855892294981479  0.7365210065693981  0.0879278392742680
  0.7917946936561001  0.9331567860099665  0.9545124422803345
  0.4053263961418688  0.3997655112642287  0.0768214735779209
  0.5034671490201660  0.5396230714226595  0.1489297146581411
  0.9791414563477023  0.0170703917795907  0.7484436143080707
  0.3365615672405159  0.5275272057748142  0.2314558273719562
  0.0474245807172453  0.0309578756168453  0.0411565822526822
  0.1720200881832392  0.7259559244995482  0.8185141982245056
  0.6139045409401734  0.8632566251780722  0.8629980735107973
  0.8435568667685898  0.9521927366204581  0.3761099867607017
  0.8120939518551505  0.3176827475416859  0.1363721668635773
  0.7146261281185645  0.9879660536729868  0.8008496971779311
  0.6718538625347504  0.1885649239208713  0.1722083681438639
  0.4953839160302259  0.2050272035190402  0.1501680939710393
  0.1144658742099648  0.3181832417443078  0.0343737290398043
  0.8913683707559124  0.8416361220477701  0.5436635298966157
  0.1613134390737434  0.5555073294277766  0.1296868875590901
  0.1725049798298759  0.0452331381596499  0.9154364083305733
  0.0712444332272744  0.4415108353787714  0.8815858758047793
  0.5465486108074902  0.0151938434946023  0.0990218865122812
  0.2384069983441922  0.4408463082158453  0.9612091151413762
  0.9688541126688840  0.8660062479121152  0.9923751185322844
  0.9020015818846717  0.5592748137969934  0.8904607869520866
  0.0963539114684803  0.9371040335350248  0.3318168663839609
 -0.0039356330515257  0.8287957444194909  0.4076384998033304
  0.9282088075323782  0.0287760770458072  0.5829042290493768
  0.2252054637239465  0.0465458231221767  0.2301646138191784
  0.9707725545311297  0.4478965691876688  0.0871013917785085
  0.6606100038395166 -0.0032700718734341  0.2705189245271835
  0.3561430516133562  0.0942493633435336  0.0781550969766205
  0.8912565775128802  0.3951454772114940  0.5962487091096526
  0.8600008156389408  0.5721761826039584  0.3615348208459391
  0.9674309828434893  0.3141802624789503  0.2595246443780491
  0.6593249051935967  0.3559722335432844  0.4207181040121730
  0.5091046515851489  0.3693067078025651  0.7443584873828225
  0.2892178424783604  0.6160332367749993  0.3895298558959845
  0.1412394975890604  0.5402333165742299  0.3109936146596612
  0.9368392062319981  0.4889078624276633  0.7458549436274358
  0.7439836084773226  0.4464015877516825  0.2774097862080530
 -0.0137652063019926  0.2977393259667504  0.7788673015000291
  0.6918500774685953  0.0468923723292314  0.4374626231050716
  0.8215269786170738  0.9302821834152423  0.2054273627833227
  0.3818032459079516  0.7739643807557933  0.6874318037208745
  0.6078863436027317  0.3617293202033427  0.1686788136872403
  0.4416399222282830  0.1914081934338120  0.4810532102942483
  0.2977114991863230  0.3262746381385930  0.4609434817661036
  0.9673604315523437  0.3019994984699154  0.9602206678858913
  0.5736730833618603  0.8530488475945017  0.6600013370159379
  0.3011443437438445  0.9325241297566277  0.0047944577471167
  0.6963177045986607  0.9750287624818900  0.6240361333000501
  0.4813755981375337  0.3709527118451435  0.4383594116281406
  0.2207624824127167  0.8474438535405852  0.5058586104774460
  0.9288692407607233  0.7307428468241710  0.8934663707282469
  0.3598037469511108  0.6919345660134311  0.8388391582587242
  0.8179580565514637  0.4249225217692167  0.9693012594589147
  0.4060593736590021  0.0244663392514628  0.4486274774401934
  0.1974542743305710  0.8444544236040266  0.6808170887958820
  0.1852179105301978  0.1883208951075831  0.5073793394956616
  0.4758360595459564  0.0421881051166959  0.6760765139513506
  0.8292842449336572  0.5942941062208327  0.0564352454745845
  0.8316303697447965  0.7583461634370494  0.3255153993207836
  0.4122347348710717  0.2513998999719197  0.8521194016301940
  0.5283729631780300  0.5421096262864127  0.9777811713158261
  0.0293070364359709  0.8649176101929527  0.6433571802138573
  0.3377338752648913  0.3448186326292356  0.2694701680167987
  0.3458016383645960  0.0950528832229560  0.9053543604408171
  0.4787351293343181  0.7963942041145052  0.5221609501491230
  0.9399437482712074  0.0708936764980311  0.1968863348135387
  0.0813014544555554  0.5974703676500989  0.9429199342743065
  0.1483944177648701  0.8726265140802855  0.9687959849140964
  0.3650971208654403  0.8129965895334077  0.3770676445189614
  0.5347625225361929  0.8165123743017657  0.1509766107125434
  0.7541582712547559  0.4844199178800969  0.6294789161158136
  0.1718664850909549  0.8928508065898436  0.1531956625359504
  0.9005982766078806  0.7544171710550533  0.1336421862583568
  0.4510647949313054  0.6866384849246214  0.2874649082714630
  0.2301748511200234  0.0216886735322867  0.4286425042771304
  0.2988272874355615  0.1730032520600291  0.3570410654021373
  0.6812809443316457  0.0620682239971979  0.0050433477711645
  0.2664918887848056  0.5108693037604608  0.5146489850979327
  0.5416794276475941  0.3147292751487059  0.5937308816248373
  0.5659408855320472  0.9430231435951776  0.3927463098691006
  0.6569720084200786  0.5694167935080438  0.8341527576573577
  0.3733952238414079  0.3758787732386598  0.6220793313265796
  0.8029423049941870  0.2811084971459025  0.8372516653087262
  0.2439214476744299  0.2740902637136501  0.7031375705931966
  0.3418761606270448  0.9571256016288923  0.7410375601372274
  0.4608255317247947  0.5410070166471905  0.4240556980842923
  0.1828504980223298  0.3940286324605187  0.2019468993150709
  0.0394637156029918  0.7169235335132869  0.5411004140134877
  0.3519951092179524  0.5152133152601437  0.8720504581249315
  0.7398684270769098  0.1420199679534440  0.7082371154094221
  0.8261007007390125  0.1258000345228966  0.0675528700104492
  0.1072602443312677  0.3624030819452877  0.5302612347900895
  0.5322480473903090  0.6851245434388524  0.7253639338553413
  0.5735966432652188  0.2290556425054965  0.3239368041081501
  0.6721356472670239  0.2725573369236597  0.0230830195278405
  0.6763927816264051  0.3159342824226473  0.7154916283023566
  0.7058148669875235  0.8246662308313303  0.1073907963015872
  0.2466533686176213  0.6701740696149967  0.9910793992897506
  0.2672383350044124  0.2318228675522382  0.9806537542824190
  0.5305656812447336  0.7144758013477495  0.9050649570180518
  0.6712514330499731  0.4055572346821048  0.8742195497670749
 
  0.00000000E+00  0.00000000E+00  0.00000000E+00
  0.00000000E+00  0.00000000E+00  0.00000000E+00
  0.00000000E+00  0.00000000E+00  0.00000000E+00
  0.00000000E+00  0.00000000E+00  0.00000000E+00
  0.00000000E+00  0.00000000E+00  0.00000000E+00
  0.00000000E+00  0.00000000E+00  0.00000000E+00
  0.00000000E+00  0.00000000E+00  0.00000000E+00
  0.00000000E+00  0.00000000E+00  0.00000000E+00
  0.00000000E+00  0.00000000E+00  0.00000000E+00
  0.00000000E+00  0.00000000E+00  0.00000000E+00
  0.00000000E+00  0.00000000E+00  0.00000000E+00
  0.00000000E+00  0.00000000E+00  0.00000000E+00
  0.00000000E+00  0.00000000E+00  0.00000000E+00
  0.00000000E+00  0.00000000E+00  0.00000000E+00
  0.00000000E+00  0.00000000E+00  0.00000000E+00
  0.00000000E+00  0.00000000E+00  0.00000000E+00
  0.00000000E+00  0.00000000E+00  0.00000000E+00
  0.00000000E+00  0.00000000E+00  0.00000000E+00
  0.00000000E+00  0.00000000E+00  0.00000000E+00
  0.00000000E+00  0.00000000E+00  0.00000000E+00
  0.00000000E+00  0.00000000E+00  0.00000000E+00
  0.00000000E+00  0.00000000E+00  0.00000000E+00
  0.00000000E+00  0.00000000E+00  0.00000000E+00
  0.00000000E+00  0.00000000E+00  0.00000000E+00
  0.00000000E+00  0.00000000E+00  0.00000000E+00
  0.00000000E+00  0.00000000E+00  0.00000000E+00
  0.00000000E+00  0.00000000E+00  0.00000000E+00
  0.00000000E+00  0.00000000E+00  0.00000000E+00
  0.00000000E+00  0.00000000E+00  0.00000000E+00
  0.00000000E+00  0.00000000E+00  0.00000000E+00
  0.00000000E+00  0.00000000E+00  0.00000000E+00
  0.00000000E+00  0.00000000E+00  0.00000000E+00
  0.00000000E+00  0.00000000E+00  0.00000000E+00
  0.00000000E+00  0.00000000E+00  0.00000000E+00
  0.00000000E+00  0.00000000E+00  0.00000000E+00
  0.00000000E+00  0.00000000E+00  0.00000000E+00
  0.00000000E+00  0.00000000E+00  0.00000000E+00
  0.00000000E+00  0.00000000E+00  0.00000000E+00
  0.00000000E+00  0.00000000E+00  0.00000000E+00
  0.00000000E+00  0.00000000E+00  0.00000000E+00
  0.00000000E+00  0.00000000E+00  0.00000000E+00
  0.00000000E+00  0.00000000E+00  0.00000000E+00
  0.00000000E+00  0.00000000E+00  0.00000000E+00
  0.00000000E+00  0.00000000E+00  0.00000000E+00
  0.00000000E+00  0.00000000E+00  0.00000000E+00
  0.00000000E+00  0.00000000E+00  0.00000000E+00
  0.00000000E+00  0.00000000E+00  0.00000000E+00
  0.00000000E+00  0.00000000E+00  0.00000000E+00
  0.00000000E+00  0.00000000E+00  0.00000000E+00
  0.00000000E+00  0.00000000E+00  0.00000000E+00
  0.00000000E+00  0.00000000E+00  0.00000000E+00
  0.00000000E+00  0.00000000E+00  0.00000000E+00
  0.00000000E+00  0.00000000E+00  0.00000000E+00
  0.00000000E+00  0.00000000E+00  0.00000000E+00
  0.00000000E+00  0.00000000E+00  0.00000000E+00
  0.00000000E+00  0.00000000E+00  0.00000000E+00
  0.00000000E+00  0.00000000E+00  0.00000000E+00
  0.00000000E+00  0.00000000E+00  0.00000000E+00
  0.00000000E+00  0.00000000E+00  0.00000000E+00
  0.00000000E+00  0.00000000E+00  0.00000000E+00
  0.00000000E+00  0.00000000E+00  0.00000000E+00
  0.00000000E+00  0.00000000E+00  0.00000000E+00
  0.00000000E+00  0.00000000E+00  0.00000000E+00
  0.00000000E+00  0.00000000E+00  0.00000000E+00
  0.00000000E+00  0.00000000E+00  0.00000000E+00
  0.00000000E+00  0.00000000E+00  0.00000000E+00
  0.00000000E+00  0.00000000E+00  0.00000000E+00
  0.00000000E+00  0.00000000E+00  0.00000000E+00
  0.00000000E+00  0.00000000E+00  0.00000000E+00
  0.00000000E+00  0.00000000E+00  0.00000000E+00
  0.00000000E+00  0.00000000E+00  0.00000000E+00
  0.00000000E+00  0.00000000E+00  0.00000000E+00
  0.00000000E+00  0.00000000E+00  0.00000000E+00
  0.00000000E+00  0.00000000E+00  0.00000000E+00
  0.00000000E+00  0.00000000E+00  0.00000000E+00
  0.00000000E+00  0.00000000E+00  0.00000000E+00
  0.00000000E+00  0.00000000E+00  0.00000000E+00
  0.00000000E+00  0.00000000E+00  0.00000000E+00
  0.00000000E+00  0.00000000E+00  0.00000000E+00
  0.00000000E+00  0.00000000E+00  0.00000000E+00
  0.00000000E+00  0.00000000E+00  0.00000000E+00
  0.00000000E+00  0.00000000E+00  0.00000000E+00
  0.00000000E+00  0.00000000E+00  0.00000000E+00
  0.00000000E+00  0.00000000E+00  0.00000000E+00
  0.00000000E+00  0.00000000E+00  0.00000000E+00
  0.00000000E+00  0.00000000E+00  0.00000000E+00
  0.00000000E+00  0.00000000E+00  0.00000000E+00
  0.00000000E+00  0.00000000E+00  0.00000000E+00
  0.00000000E+00  0.00000000E+00  0.00000000E+00
  0.00000000E+00  0.00000000E+00  0.00000000E+00
  0.00000000E+00  0.00000000E+00  0.00000000E+00
  0.00000000E+00  0.00000000E+00  0.00000000E+00
  0.00000000E+00  0.00000000E+00  0.00000000E+00
  0.00000000E+00  0.00000000E+00  0.00000000E+00
  0.00000000E+00  0.00000000E+00  0.00000000E+00
  0.00000000E+00  0.00000000E+00  0.00000000E+00
  0.00000000E+00  0.00000000E+00  0.00000000E+00
  0.00000000E+00  0.00000000E+00  0.00000000E+00
  0.00000000E+00  0.00000000E+00  0.00000000E+00
  0.00000000E+00  0.00000000E+00  0.00000000E+00
  0.00000000E+00  0.00000000E+00  0.00000000E+00
  0.00000000E+00  0.00000000E+00  0.00000000E+00
  0.00000000E+00  0.00000000E+00  0.00000000E+00
  0.00000000E+00  0.00000000E+00  0.00000000E+00
  0.00000000E+00  0.00000000E+00  0.00000000E+00
  0.00000000E+00  0.00000000E+00  0.00000000E+00
  0.00000000E+00  0.00000000E+00  0.00000000E+00
  0.00000000E+00  0.00000000E+00  0.00000000E+00
  0.00000000E+00  0.00000000E+00  0.00000000E+00
  0.00000000E+00  0.00000000E+00  0.00000000E+00
  0.00000000E+00  0.00000000E+00  0.00000000E+00
  0.00000000E+00  0.00000000E+00  0.00000000E+00
  0.00000000E+00  0.00000000E+00  0.00000000E+00
  0.00000000E+00  0.00000000E+00  0.00000000E+00
  0.00000000E+00  0.00000000E+00  0.00000000E+00
  0.00000000E+00  0.00000000E+00  0.00000000E+00
  0.00000000E+00  0.00000000E+00  0.00000000E+00
  0.00000000E+00  0.00000000E+00  0.00000000E+00
  0.00000000E+00  0.00000000E+00  0.00000000E+00
  0.00000000E+00  0.00000000E+00  0.00000000E+00
  0.00000000E+00  0.00000000E+00  0.00000000E+00
  0.00000000E+00  0.00000000E+00  0.00000000E+00
  0.00000000E+00  0.00000000E+00  0.00000000E+00
  0.00000000E+00  0.00000000E+00  0.00000000E+00
  0.00000000E+00  0.00000000E+00  0.00000000E+00
  0.00000000E+00  0.00000000E+00  0.00000000E+00
  0.00000000E+00  0.00000000E+00  0.00000000E+00
  0.00000000E+00  0.00000000E+00  0.00000000E+00
  0.00000000E+00  0.00000000E+00  0.00000000E+00
  0.00000000E+00  0.00000000E+00  0.00000000E+00
  0.00000000E+00  0.00000000E+00  0.00000000E+00
  0.00000000E+00  0.00000000E+00  0.00000000E+00
  0.00000000E+00  0.00000000E+00  0.00000000E+00
  0.00000000E+00  0.00000000E+00  0.00000000E+00
  0.00000000E+00  0.00000000E+00  0.00000000E+00
  0.00000000E+00  0.00000000E+00  0.00000000E+00
  0.00000000E+00  0.00000000E+00  0.00000000E+00
  0.00000000E+00  0.00000000E+00  0.00000000E+00
  0.00000000E+00  0.00000000E+00  0.00000000E+00
  0.00000000E+00  0.00000000E+00  0.00000000E+00
  0.00000000E+00  0.00000000E+00  0.00000000E+00
  0.00000000E+00  0.00000000E+00  0.00000000E+00
  0.00000000E+00  0.00000000E+00  0.00000000E+00
  0.00000000E+00  0.00000000E+00  0.00000000E+00
  0.00000000E+00  0.00000000E+00  0.00000000E+00
  0.00000000E+00  0.00000000E+00  0.00000000E+00
  0.00000000E+00  0.00000000E+00  0.00000000E+00
  0.00000000E+00  0.00000000E+00  0.00000000E+00
  0.00000000E+00  0.00000000E+00  0.00000000E+00
  0.00000000E+00  0.00000000E+00  0.00000000E+00
  0.00000000E+00  0.00000000E+00  0.00000000E+00
  0.00000000E+00  0.00000000E+00  0.00000000E+00
  0.00000000E+00  0.00000000E+00  0.00000000E+00
  0.00000000E+00  0.00000000E+00  0.00000000E+00
  0.00000000E+00  0.00000000E+00  0.00000000E+00
  0.00000000E+00  0.00000000E+00  0.00000000E+00
  0.00000000E+00  0.00000000E+00  0.00000000E+00
  0.00000000E+00  0.00000000E+00  0.00000000E+00
  0.00000000E+00  0.00000000E+00  0.00000000E+00
  0.00000000E+00  0.00000000E+00  0.00000000E+00
  0.00000000E+00  0.00000000E+00  0.00000000E+00
  0.00000000E+00  0.00000000E+00  0.00000000E+00
  0.00000000E+00  0.00000000E+00  0.00000000E+00
  0.00000000E+00  0.00000000E+00  0.00000000E+00
  0.00000000E+00  0.00000000E+00  0.00000000E+00
  0.00000000E+00  0.00000000E+00  0.00000000E+00
  0.00000000E+00  0.00000000E+00  0.00000000E+00
  0.00000000E+00  0.00000000E+00  0.00000000E+00
  0.00000000E+00  0.00000000E+00  0.00000000E+00
  0.00000000E+00  0.00000000E+00  0.00000000E+00
  0.00000000E+00  0.00000000E+00  0.00000000E+00
  0.00000000E+00  0.00000000E+00  0.00000000E+00
  0.00000000E+00  0.00000000E+00  0.00000000E+00
  0.00000000E+00  0.00000000E+00  0.00000000E+00
  0.00000000E+00  0.00000000E+00  0.00000000E+00
  0.00000000E+00  0.00000000E+00  0.00000000E+00
  0.00000000E+00  0.00000000E+00  0.00000000E+00
  0.00000000E+00  0.00000000E+00  0.00000000E+00
  0.00000000E+00  0.00000000E+00  0.00000000E+00
  0.00000000E+00  0.00000000E+00  0.00000000E+00
  0.00000000E+00  0.00000000E+00  0.00000000E+00
  0.00000000E+00  0.00000000E+00  0.00000000E+00
  0.00000000E+00  0.00000000E+00  0.00000000E+00
  0.00000000E+00  0.00000000E+00  0.00000000E+00
  0.00000000E+00  0.00000000E+00  0.00000000E+00
  0.00000000E+00  0.00000000E+00  0.00000000E+00
  0.00000000E+00  0.00000000E+00  0.00000000E+00
  0.00000000E+00  0.00000000E+00  0.00000000E+00
  0.00000000E+00  0.00000000E+00  0.00000000E+00
  0.00000000E+00  0.00000000E+00  0.00000000E+00
  0.00000000E+00  0.00000000E+00  0.00000000E+00
  0.00000000E+00  0.00000000E+00  0.00000000E+00
  0.00000000E+00  0.00000000E+00  0.00000000E+00
  0.00000000E+00  0.00000000E+00  0.00000000E+00
  0.00000000E+00  0.00000000E+00  0.00000000E+00
  0.00000000E+00  0.00000000E+00  0.00000000E+00
  0.00000000E+00  0.00000000E+00  0.00000000E+00
  0.00000000E+00  0.00000000E+00  0.00000000E+00
  0.00000000E+00  0.00000000E+00  0.00000000E+00
  0.00000000E+00  0.00000000E+00  0.00000000E+00
  0.00000000E+00  0.00000000E+00  0.00000000E+00
  0.00000000E+00  0.00000000E+00  0.00000000E+00
  0.00000000E+00  0.00000000E+00  0.00000000E+00
  0.00000000E+00  0.00000000E+00  0.00000000E+00
  0.00000000E+00  0.00000000E+00  0.00000000E+00
  0.00000000E+00  0.00000000E+00  0.00000000E+00
  0.00000000E+00  0.00000000E+00  0.00000000E+00
  0.00000000E+00  0.00000000E+00  0.00000000E+00
  0.00000000E+00  0.00000000E+00  0.00000000E+00
  0.00000000E+00  0.00000000E+00  0.00000000E+00
  0.00000000E+00  0.00000000E+00  0.00000000E+00
  0.00000000E+00  0.00000000E+00  0.00000000E+00
  0.00000000E+00  0.00000000E+00  0.00000000E+00
  0.00000000E+00  0.00000000E+00  0.00000000E+00
  0.00000000E+00  0.00000000E+00  0.00000000E+00
  0.00000000E+00  0.00000000E+00  0.00000000E+00
  0.00000000E+00  0.00000000E+00  0.00000000E+00
  0.00000000E+00  0.00000000E+00  0.00000000E+00
  0.00000000E+00  0.00000000E+00  0.00000000E+00
  0.00000000E+00  0.00000000E+00  0.00000000E+00
  0.00000000E+00  0.00000000E+00  0.00000000E+00
  0.00000000E+00  0.00000000E+00  0.00000000E+00
  0.00000000E+00  0.00000000E+00  0.00000000E+00
  0.00000000E+00  0.00000000E+00  0.00000000E+00
  0.00000000E+00  0.00000000E+00  0.00000000E+00
  0.00000000E+00  0.00000000E+00  0.00000000E+00
  0.00000000E+00  0.00000000E+00  0.00000000E+00
  0.00000000E+00  0.00000000E+00  0.00000000E+00
  0.00000000E+00  0.00000000E+00  0.00000000E+00
  0.00000000E+00  0.00000000E+00  0.00000000E+00
  0.00000000E+00  0.00000000E+00  0.00000000E+00
  0.00000000E+00  0.00000000E+00  0.00000000E+00