Ge Se                                   
   1.00000000000000     
    20.2740058898925781    0.0000000000000000    0.0000000000000000
     0.0000000000000000   20.2740058898925781    0.0000000000000000
     0.0000000000000000    0.0000000000000000   20.2740058898925781
   Ge   Se
   150   150
Direct
  0.6336841568780107  0.9715637343564874  0.9864819329078545
  0.7709198046378080  0.0568441788083419  0.2549155382321053
  0.7994051152287209  0.3436639863607125  0.0652340378928619
  0.1817182984469472  0.2376846477404674  0.5942858982313560
  0.7120971835895983  0.5682205552480707  0.1832501882189486
  0.4127797639298269  0.2558157404762781  0.5248886198016350
  0.6554450733995693  0.9867732634722746  0.4435802681104560
  0.9228486715474017  0.5882026280077005  0.5275912878173054
  0.9035926127070019  0.0474384299127573  0.7317862685448040
  0.6641505237050289  0.3861934485956843  0.1481358320433383
  0.1092596573045733  0.6757536550166405  0.8583470615436957
  0.3963220794629528  0.1394479664232582  0.6748557284965092
  0.4222559987645337  0.7554967132200318  0.6891947328327205
  0.0671955575374726  0.1618526735493688  0.4537935934043524
  0.8350476455505158  0.5023572432081572  0.0412248878094646
  0.4493582302657525  0.3837418162555269  0.7632628869812312
  0.2956928938417875  0.1068539418302412  0.8180528792827338
  0.2619150481790622  0.9896022325043111  0.4064950527863412
  0.8590803421804993  0.4253336248645953  0.6747436841516952
  0.0276131184958004  0.6439206673365265  0.2879473736831299
  0.1908849933382922  0.0247158422348242  0.6806717028961927
  0.3425638747982265  0.7896103066846720  0.5614930624241001
  0.9327471118890255  0.6671201302882083  0.3706275343168156
  0.8089800921418512  0.2102060353308459  0.7770452937903082
  0.0135513548778580  0.1791382240055045  0.6205570438364474
  0.1151400317771096  0.5378747697797978  0.3209659665587060
  0.3138879338272363  0.9038717750065708  0.5238482603314768
  0.8994524690001756  0.5376257446840835  0.8477987154654378
  0.5767290486790487  0.6138077619339813  0.8297484384595427
  0.3276263686713035  0.6897224904660965  0.2180247910319056
  0.0234014696032630  0.1216454453603479  0.2058280701992099
  0.1998320666960823  0.4660978960330127  0.3842173388642807
  0.8349372144024477  0.3735460096796786  0.8718921812686022
  0.2991451701342124  0.2875084587289160  0.7370484973049904
  0.2308117281577426  0.4416692586865322  0.7412133892655540
  0.0045356600737670  0.1807965734934342  0.9287321197420187
  0.1273789377887651  0.8542742571057309  0.7725627101492756
  0.7282562219422505  0.9600631724322557  0.8807058408488859
  0.5781569397139491  0.8323056847817533  0.4338102461324128
  0.5410414936916523  0.6794122325057161  0.3579226268551216
  0.6735852990122119  0.1726585555194292  0.9525359318374129
  0.0474393254082132  0.3561166713722922  0.6913483842118836
  0.1778938141611806  0.2614711017046908  0.0475538202571580
  0.1664728102216084  0.4045401801995049  0.9246380195076673
  0.7518149132092083  0.5435465167574121  0.5051864892822492
  0.0191842519877042  0.0219428164968371  0.8616773756457996
  0.9189075850454367  0.8350434254511118  0.4514344859896144
  0.7921862063691910  0.6569521602133594  0.2185565306490238
  0.0555092963112277  0.7888641576179094  0.0099042629798351
  0.5819814110781559  0.4985774015782072  0.6503761259380627
  0.5912347142171125  0.9679305822239551  0.7556287830918136
  0.0984745652849332  0.6623806923754469  0.4620879256647523
  0.9503767828686409  0.9622325591345694  0.4923917661618761
  0.3359653375865989  0.3766830406962166  0.8980035719542274
  0.9269244308944005  0.9595574339731517  0.2255775366201217
  0.4787550093855668  0.4421585169035863  0.4952289231922305
  0.6423118219795683  0.5454100329122534  0.4366162763263988
  0.7937748196362830  0.7432015885534405  0.7194945650984222
  0.5744683352717999  0.8321395967744597  0.9206179030205750
  0.8828161473987119  0.2532986233530168  0.4702724275623568
  0.2215819205301824  0.3051631235976442  0.4864629174964522
  0.5862403857106357  0.1850854209236967  0.7845625802861268
  0.4599867939237694  0.7289514990476106  0.5484635122257838
  0.1693909115513332  0.5857151381149911  0.1561470028620307
  0.6790475112852046  0.2501569751567124  0.2920990006641138
  0.4590202502273793  0.7617450716374230  0.8204157164893722
  0.4498090208166232  0.9821137799454647  0.9177546229477662
  0.5508899084738971  0.2910317945671210  0.4176185234560681
  0.4542615112604281  0.0511948261742237  0.1657044491273894
  0.8439020165636563  0.5785985311783496  0.3958228708871205
  0.7257802291211876  0.6292680781228177  0.9810060479896469
  0.4003508117341265  0.4833086450644584  0.3477516204998438
  0.3686236098671146  0.9385474062216561  0.7064938898032456
  0.7120646820557287  0.7283156103947385  0.0611621649689419
  0.9789285963586295  0.4828372067874577  0.1407944910967947
  0.2076960882969062  0.4523061491682974  0.0878514272858422
  0.7944243805286005  0.9840347460993769  0.0835372125245448
  0.1196179402870613  0.1638491151719629  0.2834564048689956
  0.1036931048773188  0.2482289011974644  0.8232835097976309
  0.4050568803501796  0.2853033134278189  0.3034702431918078
  0.8931809829777725  0.7134727923442062  0.8548626184067525
  0.4349518763362045  0.2268342905875505  0.8493305007646463
  0.9679928870141906  0.3690081046122835  0.8604422622970073
  0.5155584002148090  0.4879305263506665  0.9653611060859845
  0.4526480758287366  0.7287961501012208  0.1025806751913635
  0.6644729959483162 -0.0025424610863792  0.1891965878134368
  0.3120280327326619  0.4522220769658167  0.5578925691623077
  0.7328225163887340  0.1728378484077988  0.1420890735557795
  0.3484271149392022  0.5728433219531363  0.0990603262959777
  0.6770201930980355  0.1602188468759633  0.4677911551243663
  0.0058315077671157  0.2550950052603533  0.0883006230561620
  0.5516317459648404  0.5017319068192797  0.2235807111479356
  0.4660084551711408  0.5729364636891764  0.7694759415487502
  0.2122973275647976  0.6215575517055579  0.3057391180820381
  0.8827861446290296  0.3208763268066915  0.3595063050609688
  0.7965873777069788  0.5400945468653364  0.7441906371773016
  0.0226525037782803  0.8862824018232783  0.6322385219440509
  0.9458037524980009  0.8298462827167729  0.2729904316648287
  0.8656121960078194  0.2181184670444224  0.2749106596012103
  0.6721890164619522  0.3234698911721158  0.8389564519228270
  0.1976974966230070  0.9178366123157861  0.2069193756524377
  0.5623281802179153  0.1752841850834586  0.1087712737989244
  0.0795979022306811  0.5495751095655684  0.9464830277610863
  0.8224372283390184  0.1128890413107882  0.9298489726387925
  0.5422599283051126  0.8422333789309634  0.1059865643578439
  0.7861479293078846  0.8639032520337599  0.1367992571335349
  0.3377723262132249  0.0901973658399623  0.9521925557425432
  0.6320869022433756  0.0719427730810974  0.8223125228257701
  0.9438032754750044  0.5838835561726091  0.0433369702300356
  0.2041571555051500  0.1690422368599004  0.1946557668781696
  0.1994130738858513  0.8744226356790844  0.8917268717700094
  0.4032081028071452  0.2637124158379993  0.0333213168851105
  0.3856256515198775  0.5429023774054116  0.6097883239564178
  0.1590190618142458  0.1331060081181696  0.8269001779749711
  0.9335787281593202  0.7927751320935257  0.7567837832199861
  0.0802948677871322  0.9512300118472878  0.3588599737695486
  0.5427254222590547  0.0582872262593406  0.3260467084866346
  0.3086433397989248  0.6929259263892310  0.7824489230628614
  0.0758503033136565  0.4014760983736211  0.3042202377309740
  0.8413148032492874  0.0846855705703310  0.3636909663544076
  0.0231934863823792  0.0435265296268901  0.4307968379391779
  0.6669093414611523  0.6419167645867094  0.6644972618996774
  0.5489353180673961  0.2550393715487979  0.6774394101562462
  0.7253349446218965  0.1260514164485273  0.6618103008599671
  0.3531519674898669  0.6173813345170945  0.4777821480713857
  0.2989124608295980  0.1200418446259478  0.3993520761783148
  0.3196924524063969  0.1927151512341147  0.0986540787034803
  0.2963088303164887  0.0805128264817987  0.1753206540404518
  0.8139541707634420  0.2874965437653524  0.5691589252571279
  0.3734237018324526  0.8739368520362190  0.9276108830790747
  0.8236855619945151  0.9130356181974134  0.4016446507145902
  0.2032084520797834  0.6017078490039484  0.7166356151763987
  0.3256313476337222  0.7832793348987152  0.3879007590128114
  0.8501193481213055  0.1802790804958737  0.0409239714454159
  0.7080342397271986  0.7284675808089431  0.3998808068214456
  0.1849128337430879  0.8767391359800814  0.5143860563306137
  0.3796940476213128  0.9499638633414187  0.2747918470955285
  0.8340405203699475  0.4445040884535850  0.4882310510090213
  0.6179905162027275  0.4426429220576192  0.3139873288829913
  0.9541465209603465  0.3849053660483066  0.5041119024712987
  0.1807474538250875  0.7075282354585836  0.6441693618735942
  0.2399583454287565  0.0438649801866691  0.5495577442440217
  0.9101544326006622  0.6523760655135386  0.1626704980842482
  0.0070017078961866  0.9812866942286099  0.0831044418103234
  0.2231309974654141  0.2932417547034920  0.3631980804548672
  0.7537743766408130  0.1053949137714413  0.8234832906344420
  0.4514851326081837  0.8163407312002909  0.2795962358481332
  0.8960904149312893  0.7553492267884683  0.0347989090821814
  0.3210461520159075  0.9826978451853203  0.0559843265567369
  0.1200447277131269  0.5006507632059214  0.5816773238068004
  0.3536946924242318 -0.0048342734300808  0.5937337162143833
  0.1436690447275386  0.3965275102433181  0.4652337354380098
  0.6156460493339704  0.6664483063594130  0.4642500932718511
  0.3240535530029222  0.8145989820170632  0.2646998530046384
  0.9733279758639845  0.6299294345394096  0.8171918355126823
  0.5673781691834426  0.3594508657382300  0.7411669375264713
  0.7098653216711602  0.7423295391461896  0.6265880486462019
  0.6915019074820600  0.2459763427763865  0.7374036588107024
  0.8468323675061249  0.1362801549873781  0.6623029134937777
  0.3951541930529325  0.9381768581784177  0.1485344881822180
  0.8045339474196253  0.9371799889760687  0.2798430600851478
  0.6029206209195126  0.6114136147640831  0.2080095008501017
  0.4360380711343047  0.5220433709426680  0.2369978053752999
  0.6723430968776505  0.8773112580536245  0.7627668697708969
  0.9761521904075683  0.6999500588947413  0.4811345742198356
  0.7932242323507963  0.1894231406529904  0.4129596730753473
  0.4661927992347362  0.7063518510056771  0.2270792270244356
  0.7838973306222039  0.3797115860079803  0.3951230939730918
  0.5028006777424058  0.9172953468795209  0.8283050114995069
  0.0978179302753876  0.3002671557407724  0.9316396379333035
  0.0997932088380998  0.4463473185474041  0.0235722565585742
  0.7251769029967989  0.4608739869424512  0.2343469803384360
  0.1238566585138143  0.5090244516692761  0.7167831986920504
  0.9431347628889901  0.1587456389737672  0.5154178686772042
  0.9650154099807340  0.4092137471415738  0.3740856450028069
  0.9232998855839959  0.1099720166883532  0.8524542486280050
  0.6599113878403705  0.2414427133792216  0.0605499752968777
  0.8396054888695830  0.0164029214524663  0.4684547138369838
  0.5961108649472159  0.4715006528931766  0.5257585048547335
  0.9571084252913284  0.4536627221596600  0.7702797358553981
  0.7941492624119847  0.0016731829015117  0.7736881978082888
  0.7462225078702549  0.6257144650981035  0.3289040114245404
  0.8449102018775607  0.8558737119900458  0.7050458767426326
  0.3211200533968414  0.6565597411742777  0.3589432638217939
  0.6599816890327880  0.8849712657151053  0.1428619907994674
  0.1883202209702146  0.7002256471867766  0.2147342778567629
  0.2591719012479820  0.3651564717147971  0.0030156532667379
  0.7238592072217587  0.5394497831354603  0.6299647473523452
  0.1510922755567738  0.9040997166483997  0.6592335373173185
  0.6850974451457408  0.0507732481203800  0.0740079151611541
  0.8627779728644457  0.0576842694917540  0.1530879543905888
  0.4521570472163080  0.7823115429953633  0.9450477864106985
  0.4543991029231676  0.5638365867005076  0.4319189337702355
  0.2451914702102706  0.1598262049053212  0.0018769350184464
  0.9926128755454295  0.4698927991090366  0.5831670780111762
  0.4382644777764533  0.1641501990887624  0.9669839412537431
  0.1055130239400237  0.2753187258575821  0.3340272830815378
  0.6005394328866348  0.3353839933711583  0.2467566305535396
  0.5036799797164313  0.6160554739260605  0.0837317617758398
  0.2275301620141049  0.3984296408807623  0.6238228674585509
  0.2666080974366403  0.5453340981208989  0.2258192886886915
  0.5627974882730474  0.4505630544948485  0.1153596681543568
  0.3325405902468244  0.6987990328379196  0.0882334686600070
  0.7705760028459550  0.4240763697380812  0.9642589608651428
  0.0538302933255792  0.6371296855203725  0.0304348989079248
  0.8607941645426975  0.4305579085560738  0.1393871376964453
  0.6095662874095643  0.5667594084399162  0.9338933114235330
  0.7191350262620059  0.8386020073115652  0.8669324050869779
  0.2580908314612850  0.3924974810519121  0.3083611764823533
  0.6696509164525352  0.0573896231986624  0.5383154906325321
  0.9432296279144714  0.5581188099161136  0.2393061707153611
  0.7600790436480779  0.3928366814417396  0.5749566080672761
  0.3363977441970900  0.3578562679843423  0.4824987005150621
  0.1193870887849302  0.1300831873047770  0.5635539843843581
  0.9263163914103113  0.6098849364228972  0.6471592750249886
  0.2601419911735661  0.5295134654468079  0.4765718357683972
  0.4208423580702457  0.2628224243880835  0.6765309183715488
  0.1857616440714680  0.8912240019935203  0.3841417551204191
  0.8643843185995340  0.7631610137412578  0.3365150348529127
  0.1699253413521800  0.1096745643236459  0.3799866765929766
  0.3682987584284484  0.9279606117965510  0.4180348271278738
  0.9601026341790122  0.0830987996398417  0.3351515365694022
  0.7153965284529803  0.8829899605739155  0.4533061095464777
  0.8298358786845167  0.9934969208870923  0.9642970813879016
  0.9547222396318459  0.7947491447937155  0.9304616589051192
  0.4058747377210068  0.6521538496583643  0.8488150777168334
  0.7146224885454180  0.5362347924767540  0.0648564361775642
  0.0205450061002450  0.8413929512883064  0.3755751239832054
  0.9317899530501591  0.8877001981036413  0.1199117686063406
  0.0948007383709255  0.0769122263919980  0.7396624080724480
  0.0464415645129639  0.3925502042685738  0.1863208660749413
  0.2895600579264019  0.8722668573012917  0.0130543188325949
  0.3040122382248612  0.8209441499123298  0.8393348044841544
  0.0089746537877845  0.8950315815037900  0.7589972436178926
  0.5223014643526235  0.3149830644224214  0.5360848097847352
  0.6940941009744929  0.6186643446524697  0.7816670221472408
  0.2228800998211501  0.6173459095315447  0.8375787534969378
  0.4366230627050485  0.2041339885343417  0.2077922096770096
  0.3169016290984829  0.5492221803116408  0.7138221343909255
  0.0635111300382823  0.2892844256898719  0.5842285809231665
  0.4279813083604914  0.1115705828324590  0.7942668049240296
  0.4165450513198372  0.0738602805006429  0.2850229852859164
  0.8553934080835446  0.6481119464474373  0.9758060367279097
  0.5476262035697634  0.9832661036098743  0.2254328578538261
  0.7757021876496581  0.2672989422600696  0.8958036595930270
  0.6233585653584184  0.1603631600648942  0.2189023970494129
  0.9674690132696890  0.1386036460331317  0.0426259307507509
  0.2643891654040474  0.0018362140253721  0.2753743072167001
  0.4616117649576239  0.7708332751075077  0.4138464845118598
  0.2943021656227731  0.1518260896248189  0.5198168969530770
  0.5529223395770071  0.6239805939229969  0.6416220773106996
  0.4401712201719281  0.3513492712381446  0.9595431313935098
  0.8086390723846288  0.6490071672371254  0.4960300109269623
  0.5016104366740881  0.4054833314903630  0.3749624487363923
  0.0849670110675061  0.9687542874188017  0.2398310266297183
  0.3094540145380940  0.2554756682924089  0.8589149470932468
  0.9019040911404845  0.7268738387716632  0.6507940497143736
  0.1128135331878339  0.1547325893484054  0.1141348848022276
  0.5990418857371841  0.7585866314533311  0.0307573201636667
  0.1636648486800840  0.3181624915026238  0.7462766352584549
  0.2488120417503890  0.2776876428260893  0.1561831970067414
  0.2738084018579460  0.1655073430863825  0.7061081886027789
  0.5843377390164474  0.0751452307233061  0.9347108808695721
  0.1559700134011482  0.7656102587263284  0.9367440365692413
  0.5873207218142702  0.2435612958518863  0.8952297406767146
  0.7112044411828037  0.2208377873756788  0.5788641111147873
  0.4583529114533549  0.4530351444507175  0.6525314880592634
  0.9712281402900637  0.9586881371519769  0.9648108820179828
  0.7698824166532870  0.4175219834446227  0.7720359968474177
  0.0985501108834692  0.7369428458374190  0.7434666926922748
  0.4858083921503686  0.2799617854026458  0.1272777328936389
  0.7855553598201240  0.8168896509471120  0.0170762324211331
  0.2346605389744185  0.5652035191481791  0.0405144753829536
  0.9959198448407336  0.7345997489454086  0.2048013153706300
  0.5176484887765666  0.9423695894839078  0.0248997784054285
  0.9928023717485568  0.2700306849298058  0.7751917119301337
  0.9717234191176356  0.2383249316003567  0.2093156687447670
  0.8871957905903336  0.3042406725380890  0.6631708933861131
  0.0813856987281281  0.9185444381434977 -0.0034344794375680
  0.2312530859043398  0.7601985401249250  0.5131275899098318
  0.0978577864715681  0.0946280496982263  0.9296879309882411
  0.9010257990732002  0.2913725794744359  0.0126300162138701
  0.2131080818965957  0.0063771502577539  0.1118417242177944
  0.7768350711760633  0.2772094629445004  0.2095577379499246
  0.9768661781570908  0.9980292532305801  0.6060589603634705
  0.4332001537059612  0.5802763822358026  0.9962128503196040
  0.7170670032819851  0.7445155259748565  0.1827244839997706
  0.2674728135947061  0.9894908861297790  0.7730585733934046
  0.5420464284163858  0.9561959970914332  0.4189715012090247
  0.4539945610088953  0.4798305166188027  0.8505778698013430
  0.4951483006934729  0.8242233032779742  0.6196148377833657
  0.9625327573930201  0.4950632587627536  0.9497706660710669
  0.3156492262298023  0.8242101276236476  0.6780825859767196
  0.0563439796545854  0.5509119968097936  0.4263580847962751
  0.6814228391559672  0.0615096336270279  0.3559872073668826
  0.0998695637680903  0.6331056072859477  0.5854999183911599
  0.5793542568020229  0.7384553151831394  0.8244109574807749
  0.4516921585584974  0.2175196879132181  0.3994060705330360
  0.6138842358685082  0.7821517702358457  0.3248919764480176
  0.2969606342883069  0.2133246575102038  0.3106428990018944
 
  0.00000000E+00  0.00000000E+00  0.00000000E+00
  0.00000000E+00  0.00000000E+00  0.00000000E+00
  0.00000000E+00  0.00000000E+00  0.00000000E+00
  0.00000000E+00  0.00000000E+00  0.00000000E+00
  0.00000000E+00  0.00000000E+00  0.00000000E+00
  0.00000000E+00  0.00000000E+00  0.00000000E+00
  0.00000000E+00  0.00000000E+00  0.00000000E+00
  0.00000000E+00  0.00000000E+00  0.00000000E+00
  0.00000000E+00  0.00000000E+00  0.00000000E+00
  0.00000000E+00  0.00000000E+00  0.00000000E+00
  0.00000000E+00  0.00000000E+00  0.00000000E+00
  0.00000000E+00  0.00000000E+00  0.00000000E+00
  0.00000000E+00  0.00000000E+00  0.00000000E+00
  0.00000000E+00  0.00000000E+00  0.00000000E+00
  0.00000000E+00  0.00000000E+00  0.00000000E+00
  0.00000000E+00  0.00000000E+00  0.00000000E+00
  0.00000000E+00  0.00000000E+00  0.00000000E+00
  0.00000000E+00  0.00000000E+00  0.00000000E+00
  0.00000000E+00  0.00000000E+00  0.00000000E+00
  0.00000000E+00  0.00000000E+00  0.00000000E+00
  0.00000000E+00  0.00000000E+00  0.00000000E+00
  0.00000000E+00  0.00000000E+00  0.00000000E+00
  0.00000000E+00  0.00000000E+00  0.00000000E+00
  0.00000000E+00  0.00000000E+00  0.00000000E+00
  0.00000000E+00  0.00000000E+00  0.00000000E+00
  0.00000000E+00  0.00000000E+00  0.00000000E+00
  0.00000000E+00  0.00000000E+00  0.00000000E+00
  0.00000000E+00  0.00000000E+00  0.00000000E+00
  0.00000000E+00  0.00000000E+00  0.00000000E+00
  0.00000000E+00  0.00000000E+00  0.00000000E+00
  0.00000000E+00  0.00000000E+00  0.00000000E+00
  0.00000000E+00  0.00000000E+00  0.00000000E+00
  0.00000000E+00  0.00000000E+00  0.00000000E+00
  0.00000000E+00  0.00000000E+00  0.00000000E+00
  0.00000000E+00  0.00000000E+00  0.00000000E+00
  0.00000000E+00  0.00000000E+00  0.00000000E+00
  0.00000000E+00  0.00000000E+00  0.00000000E+00
  0.00000000E+00  0.00000000E+00  0.00000000E+00
  0.00000000E+00  0.00000000E+00  0.00000000E+00
  0.00000000E+00  0.00000000E+00  0.00000000E+00
  0.00000000E+00  0.00000000E+00  0.00000000E+00
  0.00000000E+00  0.00000000E+00  0.00000000E+00
  0.00000000E+00  0.00000000E+00  0.00000000E+00
  0.00000000E+00  0.00000000E+00  0.00000000E+00
  0.00000000E+00  0.00000000E+00  0.00000000E+00
  0.00000000E+00  0.00000000E+00  0.00000000E+00
  0.00000000E+00  0.00000000E+00  0.00000000E+00
  0.00000000E+00  0.00000000E+00  0.00000000E+00
  0.00000000E+00  0.00000000E+00  0.00000000E+00
  0.00000000E+00  0.00000000E+00  0.00000000E+00
  0.00000000E+00  0.00000000E+00  0.00000000E+00
  0.00000000E+00  0.00000000E+00  0.00000000E+00
  0.00000000E+00  0.00000000E+00  0.00000000E+00
  0.00000000E+00  0.00000000E+00  0.00000000E+00
  0.00000000E+00  0.00000000E+00  0.00000000E+00
  0.00000000E+00  0.00000000E+00  0.00000000E+00
  0.00000000E+00  0.00000000E+00  0.00000000E+00
  0.00000000E+00  0.00000000E+00  0.00000000E+00
  0.00000000E+00  0.00000000E+00  0.00000000E+00
  0.00000000E+00  0.00000000E+00  0.00000000E+00
  0.00000000E+00  0.00000000E+00  0.00000000E+00
  0.00000000E+00  0.00000000E+00  0.00000000E+00
  0.00000000E+00  0.00000000E+00  0.00000000E+00
  0.00000000E+00  0.00000000E+00  0.00000000E+00
  0.00000000E+00  0.00000000E+00  0.00000000E+00
  0.00000000E+00  0.00000000E+00  0.00000000E+00
  0.00000000E+00  0.00000000E+00  0.00000000E+00
  0.00000000E+00  0.00000000E+00  0.00000000E+00
  0.00000000E+00  0.00000000E+00  0.00000000E+00
  0.00000000E+00  0.00000000E+00  0.00000000E+00
  0.00000000E+00  0.00000000E+00  0.00000000E+00
  0.00000000E+00  0.00000000E+00  0.00000000E+00
  0.00000000E+00  0.00000000E+00  0.00000000E+00
  0.00000000E+00  0.00000000E+00  0.00000000E+00
  0.00000000E+00  0.00000000E+00  0.00000000E+00
  0.00000000E+00  0.00000000E+00  0.00000000E+00
  0.00000000E+00  0.00000000E+00  0.00000000E+00
  0.00000000E+00  0.00000000E+00  0.00000000E+00
  0.00000000E+00  0.00000000E+00  0.00000000E+00
  0.00000000E+00  0.00000000E+00  0.00000000E+00
  0.00000000E+00  0.00000000E+00  0.00000000E+00
  0.00000000E+00  0.00000000E+00  0.00000000E+00
  0.00000000E+00  0.00000000E+00  0.00000000E+00
  0.00000000E+00  0.00000000E+00  0.00000000E+00
  0.00000000E+00  0.00000000E+00  0.00000000E+00
  0.00000000E+00  0.00000000E+00  0.00000000E+00
  0.00000000E+00  0.00000000E+00  0.00000000E+00
  0.00000000E+00  0.00000000E+00  0.00000000E+00
  0.00000000E+00  0.00000000E+00  0.00000000E+00
  0.00000000E+00  0.00000000E+00  0.00000000E+00
  0.00000000E+00  0.00000000E+00  0.00000000E+00
  0.00000000E+00  0.00000000E+00  0.00000000E+00
  0.00000000E+00  0.00000000E+00  0.00000000E+00
  0.00000000E+00  0.00000000E+00  0.00000000E+00
  0.00000000E+00  0.00000000E+00  0.00000000E+00
  0.00000000E+00  0.00000000E+00  0.00000000E+00
  0.00000000E+00  0.00000000E+00  0.00000000E+00
  0.00000000E+00  0.00000000E+00  0.00000000E+00
  0.00000000E+00  0.00000000E+00  0.00000000E+00
  0.00000000E+00  0.00000000E+00  0.00000000E+00
  0.00000000E+00  0.00000000E+00  0.00000000E+00
  0.00000000E+00  0.00000000E+00  0.00000000E+00
  0.00000000E+00  0.00000000E+00  0.00000000E+00
  0.00000000E+00  0.00000000E+00  0.00000000E+00
  0.00000000E+00  0.00000000E+00  0.00000000E+00
  0.00000000E+00  0.00000000E+00  0.00000000E+00
  0.00000000E+00  0.00000000E+00  0.00000000E+00
  0.00000000E+00  0.00000000E+00  0.00000000E+00
  0.00000000E+00  0.00000000E+00  0.00000000E+00
  0.00000000E+00  0.00000000E+00  0.00000000E+00
  0.00000000E+00  0.00000000E+00  0.00000000E+00
  0.00000000E+00  0.00000000E+00  0.00000000E+00
  0.00000000E+00  0.00000000E+00  0.00000000E+00
  0.00000000E+00  0.00000000E+00  0.00000000E+00
  0.00000000E+00  0.00000000E+00  0.00000000E+00
  0.00000000E+00  0.00000000E+00  0.00000000E+00
  0.00000000E+00  0.00000000E+00  0.00000000E+00
  0.00000000E+00  0.00000000E+00  0.00000000E+00
  0.00000000E+00  0.00000000E+00  0.00000000E+00
  0.00000000E+00  0.00000000E+00  0.00000000E+00
  0.00000000E+00  0.00000000E+00  0.00000000E+00
  0.00000000E+00  0.00000000E+00  0.00000000E+00
  0.00000000E+00  0.00000000E+00  0.00000000E+00
  0.00000000E+00  0.00000000E+00  0.00000000E+00
  0.00000000E+00  0.00000000E+00  0.00000000E+00
  0.00000000E+00  0.00000000E+00  0.00000000E+00
  0.00000000E+00  0.00000000E+00  0.00000000E+00
  0.00000000E+00  0.00000000E+00  0.00000000E+00
  0.00000000E+00  0.00000000E+00  0.00000000E+00
  0.00000000E+00  0.00000000E+00  0.00000000E+00
  0.00000000E+00  0.00000000E+00  0.00000000E+00
  0.00000000E+00  0.00000000E+00  0.00000000E+00
  0.00000000E+00  0.00000000E+00  0.00000000E+00
  0.00000000E+00  0.00000000E+00  0.00000000E+00
  0.00000000E+00  0.00000000E+00  0.00000000E+00
  0.00000000E+00  0.00000000E+00  0.00000000E+00
  0.00000000E+00  0.00000000E+00  0.00000000E+00
  0.00000000E+00  0.00000000E+00  0.00000000E+00
  0.00000000E+00  0.00000000E+00  0.00000000E+00
  0.00000000E+00  0.00000000E+00  0.00000000E+00
  0.00000000E+00  0.00000000E+00  0.00000000E+00
  0.00000000E+00  0.00000000E+00  0.00000000E+00
  0.00000000E+00  0.00000000E+00  0.00000000E+00
  0.00000000E+00  0.00000000E+00  0.00000000E+00
  0.00000000E+00  0.00000000E+00  0.00000000E+00
  0.00000000E+00  0.00000000E+00  0.00000000E+00
  0.00000000E+00  0.00000000E+00  0.00000000E+00
  0.00000000E+00  0.00000000E+00  0.00000000E+00
  0.00000000E+00  0.00000000E+00  0.00000000E+00
  0.00000000E+00  0.00000000E+00  0.00000000E+00
  0.00000000E+00  0.00000000E+00  0.00000000E+00
  0.00000000E+00  0.00000000E+00  0.00000000E+00
  0.00000000E+00  0.00000000E+00  0.00000000E+00
  0.00000000E+00  0.00000000E+00  0.00000000E+00
  0.00000000E+00  0.00000000E+00  0.00000000E+00
  0.00000000E+00  0.00000000E+00  0.00000000E+00
  0.00000000E+00  0.00000000E+00  0.00000000E+00
  0.00000000E+00  0.00000000E+00  0.00000000E+00
  0.00000000E+00  0.00000000E+00  0.00000000E+00
  0.00000000E+00  0.00000000E+00  0.00000000E+00
  0.00000000E+00  0.00000000E+00  0.00000000E+00
  0.00000000E+00  0.00000000E+00  0.00000000E+00
  0.00000000E+00  0.00000000E+00  0.00000000E+00
  0.00000000E+00  0.00000000E+00  0.00000000E+00
  0.00000000E+00  0.00000000E+00  0.00000000E+00
  0.00000000E+00  0.00000000E+00  0.00000000E+00
  0.00000000E+00  0.00000000E+00  0.00000000E+00
  0.00000000E+00  0.00000000E+00  0.00000000E+00
  0.00000000E+00  0.00000000E+00  0.00000000E+00
  0.00000000E+00  0.00000000E+00  0.00000000E+00
  0.00000000E+00  0.00000000E+00  0.00000000E+00
  0.00000000E+00  0.00000000E+00  0.00000000E+00
  0.00000000E+00  0.00000000E+00  0.00000000E+00
  0.00000000E+00  0.00000000E+00  0.00000000E+00
  0.00000000E+00  0.00000000E+00  0.00000000E+00
  0.00000000E+00  0.00000000E+00  0.00000000E+00
  0.00000000E+00  0.00000000E+00  0.00000000E+00
  0.00000000E+00  0.00000000E+00  0.00000000E+00
  0.00000000E+00  0.00000000E+00  0.00000000E+00
  0.00000000E+00  0.00000000E+00  0.00000000E+00
  0.00000000E+00  0.00000000E+00  0.00000000E+00
  0.00000000E+00  0.00000000E+00  0.00000000E+00
  0.00000000E+00  0.00000000E+00  0.00000000E+00
  0.00000000E+00  0.00000000E+00  0.00000000E+00
  0.00000000E+00  0.00000000E+00  0.00000000E+00
  0.00000000E+00  0.00000000E+00  0.00000000E+00
  0.00000000E+00  0.00000000E+00  0.00000000E+00
  0.00000000E+00  0.00000000E+00  0.00000000E+00
  0.00000000E+00  0.00000000E+00  0.00000000E+00
  0.00000000E+00  0.00000000E+00  0.00000000E+00
  0.00000000E+00  0.00000000E+00  0.00000000E+00
  0.00000000E+00  0.00000000E+00  0.00000000E+00
  0.00000000E+00  0.00000000E+00  0.00000000E+00
  0.00000000E+00  0.00000000E+00  0.00000000E+00
  0.00000000E+00  0.00000000E+00  0.00000000E+00
  0.00000000E+00  0.00000000E+00  0.00000000E+00
  0.00000000E+00  0.00000000E+00  0.00000000E+00
  0.00000000E+00  0.00000000E+00  0.00000000E+00
  0.00000000E+00  0.00000000E+00  0.00000000E+00
  0.00000000E+00  0.00000000E+00  0.00000000E+00
  0.00000000E+00  0.00000000E+00  0.00000000E+00
  0.00000000E+00  0.00000000E+00  0.00000000E+00
  0.00000000E+00  0.00000000E+00  0.00000000E+00
  0.00000000E+00  0.00000000E+00  0.00000000E+00
  0.00000000E+00  0.00000000E+00  0.00000000E+00
  0.00000000E+00  0.00000000E+00  0.00000000E+00
  0.00000000E+00  0.00000000E+00  0.00000000E+00
  0.00000000E+00  0.00000000E+00  0.00000000E+00
  0.00000000E+00  0.00000000E+00  0.00000000E+00
  0.00000000E+00  0.00000000E+00  0.00000000E+00
  0.00000000E+00  0.00000000E+00  0.00000000E+00
  0.00000000E+00  0.00000000E+00  0.00000000E+00
  0.00000000E+00  0.00000000E+00  0.00000000E+00
  0.00000000E+00  0.00000000E+00  0.00000000E+00
  0.00000000E+00  0.00000000E+00  0.00000000E+00
  0.00000000E+00  0.00000000E+00  0.00000000E+00
  0.00000000E+00  0.00000000E+00  0.00000000E+00
  0.00000000E+00  0.00000000E+00  0.00000000E+00
  0.00000000E+00  0.00000000E+00  0.00000000E+00
  0.00000000E+00  0.00000000E+00  0.00000000E+00
  0.00000000E+00  0.00000000E+00  0.00000000E+00
  0.00000000E+00  0.00000000E+00  0.00000000E+00
  0.00000000E+00  0.00000000E+00  0.00000000E+00
  0.00000000E+00  0.00000000E+00  0.00000000E+00
  0.00000000E+00  0.00000000E+00  0.00000000E+00
  0.00000000E+00  0.00000000E+00  0.00000000E+00
  0.00000000E+00  0.00000000E+00  0.00000000E+00
  0.00000000E+00  0.00000000E+00  0.00000000E+00
  0.00000000E+00  0.00000000E+00  0.00000000E+00
  0.00000000E+00  0.00000000E+00  0.00000000E+00
  0.00000000E+00  0.00000000E+00  0.00000000E+00
  0.00000000E+00  0.00000000E+00  0.00000000E+00