Amorphous Sb                            
1.0
       20.1278877258         0.0000000000         0.0000000000
        0.0000000000        20.1278877258         0.0000000000
        0.0000000000         0.0000000000        20.1278877258
   Ge   Se   Si
  146  150    4
Direct
     0.515639910         0.689162650         0.787657553
     0.211486419         0.426790542         0.803013889
     0.386328570         0.315587957         0.607546947
     0.825375800         0.028831121         0.650398140
     0.900182321         0.624715029         0.664918349
     0.222101696         0.710882883         0.927795440
     0.119846231         0.163442995         0.362817889
     0.330007434         0.630749582         0.805205438
     0.353936487         0.850610880         0.220728034
     0.368724752         0.016749788         0.420976735
     0.009835249         0.032402024         0.455072393
     0.606714894         0.334103784         0.850373976
     0.604112886         0.438667616         0.588229533
     0.255682775         0.016860247         0.861196781
     0.680268573         0.952019320         0.394706765
     0.039819323         0.775794551         0.082946817
     0.047334895         0.763650156         0.333423136
     0.107840151         0.456162908         0.966602639
     0.057560066         0.914725557         0.504036555
     0.149927069         0.830582755         0.200505126
     0.431491565         0.758504607         0.957520983
     0.982539532         0.159539651         0.936180695
     0.033608243         0.075562072         0.129405166
     0.552504546         0.333023195         0.187253774
     0.374888892         0.138344716         0.583140557
     0.436360789         0.753616809         0.522519642
     0.800064722         0.919907020         0.999788777
     0.758490250         0.550247612         0.604006184
     0.951605970         0.771708531         0.584946711
     0.083800085         0.353609086         0.748439231
     0.034554757         0.100284818         0.256747373
     0.900963156         0.491047550         0.484296078
     0.398366880         0.453795387         0.278057266
     0.034061582         0.543996575         0.586368133
     0.749600865         0.680520591         0.185784474
     0.447087553         0.471824661         0.919317035
     0.272971085         0.049194634         0.228630763
     0.252001860         0.373440652         0.132733450
     0.744046515         0.379760296         0.772649512
     0.841063470         0.826870852         0.379372366
     0.919962835         0.186446560         0.560516062
     0.593799045         0.853853239         0.523741117
     0.374654381         0.982480780         0.094380490
     0.350220984         0.649535053         0.213817054
     0.398848695         0.451507892         0.504389305
     0.902879328         0.773279297         0.177809880
     0.036478675         0.351343126         0.405848679
     0.990977664         0.738434787         0.802872316
     0.551451793         0.073226106         0.295960555
     0.259823000         0.437010142         0.951887033
     0.051698742         0.281455745         0.152201831
     0.626016199         0.751354094         0.808188719
     0.577112731         0.290182520         0.732179059
     0.053934408         0.579985189         0.352656781
     0.032162595         0.923019745         0.218795468
     0.190537840         0.580367551         0.454458528
     0.951215648         0.328706335         0.589749271
     0.099076046         0.060346249         0.824490444
     0.518916289         0.450255477         0.335875421
     0.686833744         0.104139217         0.152447476
     0.531782625         0.676388801         0.203999432
     0.924214214         0.656972929         0.327404052
     0.858471440         0.021631960         0.837310252
     0.561901143         0.821297266         0.006071758
     0.068908572         0.336734078         0.931285222
     0.823420492         0.862506006         0.533008459
     0.742803339         0.750604863         0.683368695
     0.823355675         0.230947160         0.155285014
     0.834415288         0.322107548         0.036971349
     0.949766176         0.408836367         0.744189036
     0.408053400         0.162043107         0.164851423
     0.359576312         0.552468916         0.433425647
     0.490566588         0.838872016         0.371310106
     0.330034275         0.446620426         0.657728889
     0.684801631         0.936821472         0.092945641
     0.247820770         0.248202469         0.175949558
     0.871428937         0.049525076         0.064759700
     0.259657830         0.856829129         0.926458735
     0.358581814         0.260255491         0.027134799
     0.645765772         0.994616221         0.882509493
     0.968835315         0.591750207         0.842912836
     0.794444750         0.483808768         0.063748708
     0.352431177         0.079770951         0.708655704
     0.597797269         0.136851843         0.030752570
     0.541946363         0.654092370         0.615641284
     0.756969755         0.335740504         0.519003090
     0.654710925         0.566270595         0.168409137
     0.522129556         0.233918454         0.349852480
     0.607628869         0.115574608         0.900463478
     0.111584817         0.119817932         0.579555730
     0.301053771         0.595199762         0.599377133
     0.758299827         0.047529047         0.482692525
     0.665248450         0.930783649         0.613992197
     0.423205004         0.962285496         0.934044581
     0.162608727         0.465688238         0.647305173
     0.159223361         0.760204675         0.468641386
     0.204972467         0.131321551         0.837506313
     0.108973759         0.427535273         0.234806535
     0.531388654         0.289850215         0.943122543
     0.236339492         0.510792007         0.083389116
     0.873873594         0.061527540         0.199804839
     0.441391961         0.842932925         0.711262308
     0.723961390         0.718291858         0.974445574
     0.988065454         0.472353667         0.012117515
     0.058622206         0.654170595         0.036510107
     0.691425317         0.172089188         0.726480625
     0.710429781         0.923909840         0.794926849
     0.111763810         0.890704656         0.682162571
     0.161337146         0.960210219         0.061170680
     0.156216141         0.960483890         0.365146866
     0.743241658         0.149510202         0.312529293
     0.743745789         0.814042705         0.293840337
     0.410246276         0.286241721         0.301673630
     0.681590306         0.592374543         0.732326366
     0.308157851         0.229686311         0.456827992
     0.082653353         0.936035710         0.797221025
     0.921155218         0.446797299         0.203019385
     0.836576135         0.216205802         0.378607594
     0.805172177         0.627502722         0.820800621
     0.954085973         0.906667418         0.950049797
     0.217888292         0.420863069         0.402079304
     0.228385117         0.703037864         0.674802683
     0.380986818         0.946821368         0.542371274
     0.552229217         0.858145082         0.782334042
     0.158084411         0.151897161         0.985423598
     0.279405154         0.812715571         0.063256712
     0.550365874         0.588123400         0.428554385
     0.895589705         0.735866703         0.896523580
     0.461629699         0.184807376         0.929324606
     0.444729413         0.508064582         0.095565103
     0.055584656         0.713789692         0.632418380
     0.175770292         0.634382359         0.202554509
     0.300337825         0.273450247         0.806046257
     0.540754927         0.073924889         0.483237782
     0.362150555         0.707410633         0.344497674
     0.310272998         0.854381061         0.720929449
     0.720589350         0.396992673         0.219767223
     0.602987593         0.454148516         0.033475989
     0.180050349         0.981133840         0.614371670
     0.909786019         0.229911535         0.756591562
     0.580611989         0.205623289         0.555130340
     0.092251217         0.231988470         0.510612245
     0.137596349         0.603582458         0.826215008
     0.533269527         0.866780507         0.178786894
     0.436945847         0.411166884         0.745594823
     0.907803988         0.439896672         0.916440171
     0.864747020         0.104402595         0.917770338
     0.858956430         0.981569174         0.512715334
     0.074847795         0.728414754         0.198196570
     0.941369266         0.459827572         0.624499778
     0.326744298         0.708189714         0.005263174
     0.125335633         0.008367454         0.247696111
     0.574744689         0.462094599         0.160267467
     0.704816916         0.050908579         0.602283420
     0.606766871         0.259908830         0.030702385
     0.131175725         0.074703710         0.462369359
     0.930504577         0.825471794         0.288950479
     0.760125929         0.038949922         0.769750379
     0.793741762         0.703399521         0.580256775
     0.291350811         0.790899343         0.615655167
     0.871790073         0.653568339         0.210966510
     0.474083917         0.115961696         0.028813407
     0.286880674         0.168169817         0.089941773
     0.377890936         0.816238708         0.428823271
     0.946928543         0.003312945         0.755536061
     0.708115232         0.218304651         0.214447384
     0.709752379         0.011482107         0.989168667
     0.565609207         0.178949635         0.681572207
     0.149153519         0.092622587         0.095847996
     0.880354806         0.493602415         0.809023000
     0.204547012         0.381695231         0.283457581
     0.326013664         0.395488405         0.849938263
     0.269416274         0.758523654         0.179187297
     0.281307396         0.974112677         0.334844321
     0.339574957         0.517932664         0.012467994
     0.401646007         0.040526892         0.207414660
     0.454652410         0.229066050         0.537589798
     0.423190458         0.354156192         0.197971429
     0.951527413         0.004799690         0.280463379
     0.417168982         0.859853631         0.112241017
     0.098461991         0.485886745         0.422005134
     0.066221858         0.498333524         0.852819865
     0.530830556         0.435914699         0.827566402
     0.303006593         0.970165766         0.650046575
     0.529832670         0.183876830         0.234393872
     0.897037187         0.534446939         0.352153668
     0.607888705         0.534525970         0.330116623
     0.341539599         0.202172360         0.912642415
     0.179019380         0.903276852         0.517902672
     0.014664077         0.216100451         0.413494842
     0.541160601         0.919478698         0.893347459
     0.606502486         0.956439943         0.727113300
     0.694949070         0.466800359         0.684324460
     0.157048360         0.835234502         0.327602174
     0.910522884         0.367412708         0.437818884
     0.546372720         0.752705156         0.446781710
     0.850716918         0.338183882         0.711276523
     0.314371504         0.651596778         0.487008674
     0.675990802         0.202050828         0.849015760
     0.301462952         0.101993983         0.485638185
     0.778177566         0.807023437         0.174386585
     0.763103761         0.518071395         0.218445490
     0.147631211         0.669654054         0.368991648
     0.031673166         0.849191542         0.867642173
     0.795038194         0.413579227         0.951959905
     0.992145694         0.076382138         0.572985015
     0.262024072         0.946187982         0.150391164
     0.553994244         0.587706260         0.725345903
     0.006892611         0.894638963         0.618559369
     0.128474418         0.281858718         0.841871881
     0.518534542         0.369692859         0.655078458
     0.282783401         0.249944351         0.577420374
     0.267169171         0.976773106         0.977100033
     0.780771709         0.139228864         0.075619551
     0.874278889         0.617921767         0.930776447
     0.899024525         0.174313311         0.237843025
     0.517985210         0.465962668         0.462207886
     0.580989139         0.346318777         0.309713574
     0.643566927         0.585745692         0.554689367
     0.686501131         0.702069449         0.297784429
     0.448243122         0.761085199         0.266072662
     0.121010991         0.773005958         0.720431857
     0.777088662         0.750713886         0.862185143
     0.586857671         0.762642841         0.127954107
     0.902496776         0.751036122         0.705858961
     0.076062389         0.247789357         0.016511831
     0.844733014         0.908570798         0.877844290
     0.697749841         0.843812785         0.994905812
     0.762477293         0.042188040         0.252060186
     0.247917664         0.523550789         0.725944985
     0.773239971         0.471085237         0.497943960
     0.408537252         0.284873152         0.737249889
     0.008081994         0.959522156         0.100827398
     0.437998173         0.602877575         0.353649052
     0.137253786         0.217492639         0.218522555
     0.035748704         0.797169474         0.465210925
     0.741408639         0.304699601         0.393357125
     0.438673775         0.719929478         0.699501081
     0.649203056         0.886690464         0.288921126
     0.382469811         0.851572046         0.885155897
     0.151482153         0.817388165         0.036805123
     0.812362963         0.166873646         0.494069305
     0.714118325         0.846517847         0.465781768
     0.013111179         0.263400886         0.684816366
     0.699760301         0.571152091         0.850734259
     0.251679837         0.326948107         0.014164850
     0.437991161         0.655378567         0.879110303
     0.068435398         0.670734667         0.913883127
     0.564359066         0.944703354         0.083336145
     0.458134232         0.371417826         0.995064537
     0.908921226         0.799048405         0.998894512
     0.639192499         0.127978129         0.372880162
     0.241488476         0.584464707         0.895065864
     0.248307157         0.484158722         0.554727366
     0.503457610         0.120425910         0.838564894
     0.412634692         0.533958680         0.606624776
     0.206361055         0.910241348         0.817964978
     0.064921588         0.062217871         0.942129348
     0.264552688         0.532431978         0.359856072
     0.955101911         0.145380200         0.062702162
     0.207200570         0.352938364         0.695783635
     0.323393485         0.203664379         0.266638436
     0.271088933         0.739955329         0.808060033
     0.841566654         0.704120182         0.411577864
     0.079966396         0.544724960         0.229255241
     0.970768355         0.575579443         0.070520305
     0.183324998         0.255045718         0.427732282
     0.248202517         0.143389154         0.722812076
     0.951386787         0.328633843         0.889927706
     0.842670341         0.352305144         0.243538048
     0.560354162         0.955037189         0.438654586
     0.689033111         0.552005580         0.045453009
     0.371043897         0.014845298         0.827665048
     0.519340631         0.544143029         0.000115360
     0.629700762         0.331592154         0.524568432
     0.621844371         0.756298370         0.625742148
     0.282932011         0.545761650         0.192762947
     0.066315175         0.349859421         0.536969963
     0.772458947         0.878983512         0.653616620
     0.437224493         0.637620738         0.126451474
     0.174495608         0.627062508         0.073852243
     0.605855502         0.719041326         0.927915977
     0.693857844         0.296833521         0.690788141
     0.468830719         0.865018322         0.588636534
     0.358160860         0.375464687         0.370711166
     0.146804927         0.671415812         0.564546126
     0.849907276         0.162281290         0.661964301
     0.007280650         0.370028386         0.261817895
     0.938830226         0.384314723         0.086556093
     0.124265444         0.384678086         0.121382670
     0.462599962         0.103089414         0.386082877
     0.944980152         0.628187942         0.545264910
     0.006849999         0.104356849         0.756202566
     0.029698073         0.610347528         0.697783292
     0.733844398         0.376776138         0.095855298
     0.460787459         0.039300812         0.574193224
     0.816511905         0.394696057         0.357411083
     0.769515039         0.519831353         0.352717286
     0.685193849         0.701635299         0.519288891
     0.731234477         0.646658615         0.400734402
