Amorphous GeTe6                         
   1.00000000000000     
    22.3228235405677253    0.0000000000000000    0.0000000000000000
     0.0000000000000000   22.3228235405677253    0.0000000000000000
     0.0000000000000000    0.0000000000000000   22.3228235405677253
   Ga   Te
    30   270
Direct
  0.5531079012548243  0.4927811392772321  0.7164682419436366
  0.1645950560615880  0.5666085585175702  0.8058362569512085
  0.2727478904292357  0.2729476522889991  0.7135751559864354
  0.5079750142135191  0.8786848838770254  0.1684197875783575
  0.4497914565802489  0.0801820775309038  0.5742495396336397
  0.5444159402204591  0.7400414296509673  0.0457582068447478
  0.4364748439646471  0.3107823829549507  0.0892447169350839
  0.8688365028115055  0.9260480579944710  0.5284067891368566
  0.7246105447205192  0.5132212809228801  0.4564028024130689
  0.9756619639595784  0.7366664915313822  0.7447517004456057
  0.9876993966648253  0.9062944482508828  0.8484142885709789
  0.6000040093901472  0.6811237583705960  0.7293404182220224
  0.6781673937226460  0.8480978981566145  0.5222571139363870
  0.1246067860422790  0.1852000592546825  0.6044056899383041
  0.7738667150771247  0.2733958260146840  0.8840295479450565
  0.9068382400417000  0.6460807007462712  0.3425417950736490
  0.3040692442741631  0.4900295313450234  0.4151938492405401
  0.1764123274377526  0.6410113509895675  0.0891056091813244
  0.1070778501895755  0.2504025264956115  0.2584124499470210
  0.7380570380499806  0.0633967774200319  0.9270585732634403
  0.3051700857081983  0.1462350213701604  0.2006825852020125
  0.9568922858578681  0.6218526938902439  0.6003953352003163
  0.4884630268344555  0.9751236877529169  0.5357836761262967
  0.3636855546497451  0.8502934143173564  0.4604010637562892
  0.4671308808588026  0.1023398043475560  0.4287427700175482
  0.6681240845429298  0.8595549389886044  0.2452886559264150
  0.3705222123140013  0.3249403219517050  0.3874977258765178
  0.2536707565603645  0.6168528340737900  0.2993881043491795
  0.7986850113338019  0.7808936636066129  0.3505251191880743
  0.7849897501744817  0.5471690613084625  0.9036680395590309
  0.2898918548031748  0.6939133951489056  0.2111562459370732
  0.9329963042363333  0.1629858295200304  0.6661932429381286
  0.2833016200136288  0.6348165473775980  0.0280100941047212
  0.5467349672524149  0.1488030891433412  0.5053763813395297
  0.6707086871216796  0.5794755970361788  0.9180335864332183
  0.4718732314799293  0.6414656073220243  0.0432605366397488
  0.3518899047618168  0.9664706190051627  0.4268047391566784
  0.8048133666444478  0.4310967366970880  0.4223030700865473
  0.1148867595824328  0.9832378911229301  0.6685051384768553
  0.1621756405823405  0.7874673850405097  0.3404108509062612
  0.6727452690162163  0.8801313843702119  0.4069032432908755
  0.4659249819440751  0.6477870759462772  0.6379848967533237
  0.1577833922868124  0.5580217337909795  0.2448959676502885
  0.5637302159716833  0.9150712976803472  0.2684744514357867
  0.0286539903415601  0.6844467369379943  0.5296602692390554
  0.2169654493621933  0.8724930413390324  0.9707508919378580
  0.5630943943180500  0.7700389827061155  0.1602190484915005
  0.7424596650872713  0.6473830410909787  0.2498254123548007
  0.4099953516721255  0.9018623025158318  0.5933903101532829
  0.2637022259531018  0.8242884334775420  0.2783660959880423
  0.4255905820691608  0.0233726505183394  0.2033770961000698
  0.1191491122646010  0.6756925659297629  0.6593777398857037
  0.6322526031861385  0.4102701663865266  0.7522203739648109
  0.8145900934325118  0.4659605968664770  0.8172172002398373
  0.5067102824971690  0.6846339008607989  0.8104483888428629
  0.3022893285348787  0.1774006695636278  0.6473246572682156
  0.6833399593077383  0.2566133357589134  0.5911695344148119
  0.6850110591041206  0.4556351672310270  0.2686889339629119
  0.5739663683201133  0.4366695515409176  0.8795189223961261
  0.8464670612648103  0.5712680591304682  0.7304857851718416
  0.1829776195602472  0.2402894514212985  0.7858642530755845
  0.4753572013319910  0.4442655557228931  0.2840458422600022
  0.9156272129197416  0.1225002382965494  0.2876224211142768
  0.7490740615998369  0.9470216542435587  0.2553951596674740
  0.6027444030851352  0.9367753707787665  0.5617515495113855
  0.4432082579368437  0.6187725896784801  0.3214078602740519
  0.2786277011216095  0.9776385003295559  0.1511344283279944
  0.8137288807163274  0.9020613009246375  0.3597411028356765
  0.9177067028373417  0.8525553589018827  0.4432012742596765
  0.3882732650973133  0.1147341629967464  0.7479402271151639
  0.6041074405143030  0.5836291065597364  0.6583166452860555
  0.6979309434088985  0.6668830207054898  0.7981203870179833
  0.6462945785680887  0.3535907844860053  0.4376216532001825
  0.0264134800673772  0.9969381639631129  0.5722798456384884
  0.3687153590420892  0.2369441748704444  0.4771940108338332
  0.5987033592705576  0.1527318444532255  0.8680782331930830
  0.0050416229222745  0.8033690096899845  0.5963088845703388
  0.8444830891541658  0.6842268354178268  0.9815421273184119
  0.5657081337912795  0.8428308461007693  0.7870315119866290
  0.2313960873663281  0.9747806239728517  0.7471293654851697
  0.6036701266736012  0.7800211739696278  0.6625973294859371
  0.6820735444611347  0.0506147797531053  0.5240142550395255
  0.9329522947921741  0.4675671990401821  0.9085991924956168
  0.5496406238708683  0.3355554371732040  0.3374567786143989
  0.4848045760903342  0.9849381440010295  0.4141044967549449
  0.1208930916028755  0.1230694020910575  0.2572979029408609
  0.4888298607023402  0.5113048679137615  0.8130671444270771
  0.0373499921872752  0.5793926112690810  0.4386637216110081
  0.8936907460037860  0.0329508337459360  0.4786796650617463
  0.4638872093525543  0.8399284405656113  0.3201777720906894
  0.8875804758579321  0.2725545593316347  0.9250797954384992
  0.5800867695543784  0.3202776500339041  0.6292362860079662
  0.8367866085913106  0.0043787046156404  0.9036038602668608
  0.0592477617821390  0.8272381101347961  0.2254469236994385
  0.6147695325411620  0.7989123811104704  0.9112049633176299
  0.3516554440366737  0.0834118919364906  0.2914240819852644
  0.9962237718269942  0.4533851756687235  0.7683644819494353
  0.9408498350561558  0.5200599520305478  0.1712618628873714
  0.2115736118305525  0.6811466144448701  0.9248321035020439
  0.1318543550843777  0.2991545153844484  0.1538093353780613
  0.9847227280541668  0.9607263134595668  0.9609010747284475
  0.0246411673786831  0.6638156913747167  0.3459028881928934
  0.0115147838887098  0.6249749429196259  0.7083117117806911
  0.4565146192406745  0.5736541248782923  0.4510010031572593
  0.8617622489493827  0.6410324596135943  0.4549603003904348
  0.8737078508877487  0.2068229124800078  0.1145864992323449
  0.5802765300808487  0.2106572062336289  0.3524812320511608
  0.9254908385488838  0.9555251386333031  0.6346319955420945
  0.0322550959001452 -0.0027628667668318  0.7842796277967359
  0.5554518145552522  0.6567322994633835  0.4946418470161005
  0.6509833776409893  0.7157775924164931  0.0001338733646198
  0.0363550118639859  0.0434533863262737  0.2007924622608634
  0.6013584664542017  0.6054732544926614  0.3623210806901295
  0.4725467010597638  0.1862573905280055  0.8796894304692113
  0.5145877431667910  0.3182313713315547  0.8911616694682685
  0.0312850858833672  0.3150394376591713  0.0153258916836127
  0.4815871895797594  0.8212085269970192  0.9858961025790819
  0.4004103005552951  0.9374666974501177  0.8058398457812864
  0.9171409095452782  0.5090029534709036  0.4341458029231951
  0.0547667822844743  0.8194171746331284  0.7167445312854307
  0.4495585399247571  0.1842984937478724  0.6504492977600447
  0.0678489097930722  0.8175443863452229  0.8596847722084994
  0.8846263019925903  0.5334130872470194  0.3099635856201580
  0.8176404943951767  0.7615872096452312  0.4671472043888474
  0.2758595127362107  0.7067210694674619  0.7046821020074949
  0.1082729837212411  0.5567834318887077  0.9118373457353014
  0.4720684107778249  0.8171161109706597  0.4965176535349194
  0.2898317513629640  0.7760932239065258  0.9026715919045096
  0.0707625203089624  0.2674989432561935  0.9028906626079272
  0.1112510564628153  0.4962436279676213  0.7199195119018351
  0.4426534964222362  0.0773125011895255  0.9419062331971475
  0.1833339132110911  0.7606998639673553  0.5257587741047182
  0.1100677687517325  0.7080120310080030  0.0140877434090147
  0.0821360759905338  0.1454822830942265  0.9210707322328027
  0.3549158986236579  0.5870829847631704  0.8817542718440569
  0.2687062353513980  0.3865236009785923  0.3631413495991049
  0.2150801343631895  0.5527248467610810  0.4621211064133566
  0.5462626077436834  0.3192323949996999  0.0439743733657497
  0.0261609079353514  0.1345640509488916  0.5499833995529341
  0.7182491596449069  0.2396818485779176  0.1174633304461800
  0.9795752804412916  0.9615541419751099  0.3909486077271617
  0.4867015575875524  0.0430067865821940  0.8068456200840917
  0.3836271605363172  0.4193147244691094  0.0946759786245772
  0.7748744066895978  0.8815724557811464  0.5839293119739396
  0.2417267602014493  0.5027472906399205  0.9866301403345564
  0.4922345479851802  0.2893631983492369  0.7693218550296778
  0.3613136695195981  0.6569960312309582  0.4388943198703936
  0.3602512146787153  0.3359387275523549  0.7703862401111561
  0.8875726380520590  0.3411109798704836  0.0418147825903725
  0.6948344651632488  0.0706645046056113  0.6687210584453729
  0.1021181927580208  0.0839613551515326  0.4530839778559858
  0.0364172872354236  0.2585969116743834  0.4800654728151367
  0.2438054457959644  0.3185619183426265  0.5208350486803665
  0.7641023023767054  0.1519052853386393  0.5312809986930543
  0.9722436436926392  0.7362633080330810  0.8650367432175192
  0.4009247368686063  0.8333169188724990  0.2008614393010074
  0.8831279485219428  0.8563541145889356  0.8159004602376745
  0.1527603650387317  0.3935122545220907  0.4740476174696027
  0.1975870690466959  0.0203071997433215  0.5656688847123615
  0.7218283331079420  0.6206521773961845  0.4022675107946057
  0.7181689727849374  0.7826826536041959  0.8383588150581448
  0.1930204516100524  0.1104816650870733  0.6687498698372810
  0.8437769035348643  0.5056787444585015  0.0005115658940679
  0.4593674484286753  0.1676485834363964  0.3288816222411552
  0.8126400876543854  0.2898706488495950  0.3735810855254304
  0.1993932257524207  0.6722196720845379  0.3896183848033170
  0.7404799981526129  0.1604368265307374  0.8543397067963375
  0.9690365562324051  0.1001281581594326  0.8821884738877511
  0.6157442872804840  0.4672092310345751  0.4721822365330355
  0.4899457626920161  0.2629042494299911  0.5461429383707590
  0.7097053738070197  0.3546747537292809  0.9410492887487297
  0.3453256668748978  0.5370741151752726  0.3085563335783648
  0.1475644019897986  0.4378683875677378  0.2931951439468976
  0.5068447023196943  0.4451453547904863  0.6093591179272568
  0.8014533171146904  0.0613894370310564  0.0326188103207413
  0.0342559127182471  0.1541136057797203  0.3708664950693250
  0.8618096614971885  0.7272564517810385  0.2682695260264735
  0.6262407834197073  0.3983000234442583  0.1727288532584074
  0.4122220283953665  0.6095706803725116  0.7559751728051557
  0.3591224827809756  0.4367661255242833  0.5060869487589675
  0.7533978682933143  0.3464418812766105  0.5231827879178018
  0.1555330839767563  0.6839291048838551  0.7834958238631979
  0.3325835855024721  0.8717215384340808  0.0935684485600663
  0.7575286654579458  0.3581608918992260  0.0554983665657300
  0.7118498372041141  0.3166417211363793  0.2964012219972172
  0.1796338294595926  0.4021915300886186  0.7707771417817918
  0.8113166977298201  0.8915004438797578  0.1239237324367893
  0.0955212995453346  0.8503639728360640  0.5218360999380216
  0.7270189055301594  0.9635127306832441  0.0635590479395269
  0.8365258570417879  0.9694651537662874  0.7791936440123940
  0.2579958120878301  0.2089019233870012  0.8929270860024561
  0.9842538785553899  0.8555126158751182  0.0322577947823163
  0.2194513114262754  0.8688307654515093  0.8186788502268486
  0.0216788484078307  0.6592306491789102  0.2037763511140293
  0.2715626724469992  0.2575523011532153  0.2339992605588146
  0.5858734691099747  0.9503491332625500  0.8804055280896271
  0.0309160927147562  0.1005524370617775  0.0890340838120456
  0.7489602498425854  0.5452186001357842  0.0969443869370551
  0.6113114662957763  0.2274931597764279  0.7635708854773736
  0.9832872043930873  0.5834009029160607  0.8815036170396710
  0.9620748610072414  0.8891564579160546  0.1759210827272736
  0.8663232144056960  0.2579604792607257  0.6016573812435912
  0.1683370212100150  0.9838131641471707  0.0208182537347983
  0.6557791692946962  0.7326312295769303  0.5539439774495603
  0.4620307135754508  0.3886931847414474  0.4289380702819756
  0.3843086901211491  0.3479998388665677  0.2628597706703171
  0.3260178823233961  0.5800183284233120  0.1478250436519231
  0.5124394937842153  0.4647805291302483  0.9918835915377695
  0.0997633104789241  0.2755903595801769  0.6821699043620877
  0.6263546953916493  0.0391138865413603  0.9644872065155673
  0.0659485273438786  0.4249279606801594  0.9564500419694283
  0.1989235828201697  0.2290144237609250  0.3326133115287624
  0.3655130127019946  0.2280833363035671  0.0344396101682920
  0.7980465626844864  0.2807845870584678  0.2076799247017468
  0.2211587914208593  0.9393744768205551  0.4582922696406346
  0.8789075531780540  0.4466371506903551  0.6153575571788753
  0.4484553811504590  0.8010230073478256  0.7971380108137229
  0.9085501424676103  0.1590669567557997  0.9770276205724986
  0.2727582782178228  0.5027581975670282  0.8238158315280544
  0.9240432088162678  0.6087032661016152  0.0435282674417070
  0.3490938666684310  0.7785986604845518  0.3625713727180052
  0.9907887240745886  0.2832906010717306  0.2745045608240003
  0.7732158515771411  0.2203670629294905  0.7024378156889435
  0.2907737436793329  0.6290529359355080  0.5394804164613974
  0.6497984628780806  0.9570898309666011  0.6995280397406605
  0.6442044894704275  0.5225034691290460  0.0311973919044552
  0.9124052660679605  0.9503531446986704  0.2850874447296667
  0.3259048121685334  0.5099583356489760  0.7049764415581166
  0.6554793410476952  0.0699591728151906  0.3998473680171782
  0.8454289779845394  0.1010635607513549  0.1818744484170425
  0.1589676172581133  0.8983454333063752  0.1878599211845003
  0.0231534370001121  0.4792126978018260  0.0845019007449276
  0.8415949600961288  0.0682237700906920  0.5919315037131631
  0.6347427103226276  0.5740441371275669  0.2412678892825050
  0.0030046571313566  0.2150736122725948  0.1302103919551535
  0.8642592600807678  0.8197474288504467  0.0322914465622038
  0.5356990859538954  0.0891537282901242  0.2379926521522343
  0.8767388937821100  0.4061544518679605  0.1679057239483149
  0.9485894505069391  0.3698585753492350  0.6897250222466583
  0.5839729554701711  0.1395560115493866  0.6749670263135485
  0.3811177647502162  0.4881010691742192  0.9739130115476619
  0.8470177727055787  0.6599165455011604  0.6319831382829844
  0.7358006396001884  0.6689558226352548  0.1243377058949717
  0.2026649479986395  0.1014944602658026  0.1577742721280468
  0.5038589258839079  0.9685067884136191  0.0913564747146426
  0.8501377189531273  0.6389400094021024  0.8589926337184645
  0.3157998585716454  0.0745819203145002  0.8993181979981727
  0.3873266529448414  0.1263646337454394  0.1121819134621791
  0.3638759135746357  0.7260083067538516  0.6120198850737724
  0.1943087603076520  0.5245257476358993  0.1203809667641335
  0.1101389853237075  0.9931950442899671  0.8993580318427246
  0.7189096966664793  0.5097382084833912  0.7408724664192139
  0.1107841998419168  0.9426940684557034  0.3012846775009305
  0.9139533914419132  0.2938452938492207  0.4806705824789899
  0.3591276057733368  0.2831308826477065  0.8880793775962661
  0.2692450425257192  0.3720794349918136  0.1208067780061600
  0.3583679582796036  0.1070639075673572  0.4808436583325074
  0.7320547460567899  0.4322221782304942  0.6237990057936230
  0.0259250605189782  0.4777131190375227  0.2908779043892171
  0.9776539644163199  0.5097250397967463  0.5642678655323328
  0.3786427403669674  0.0106366748515121  0.6621378341715864
  0.6793276529075590  0.7754398445147254  0.3334403853662239
  0.2849975862218687  0.0429138902581580  0.0394465523140658
  0.7590772128542597  0.0641024082113592  0.3347316190238764
  0.4502221511545564  0.6221540445686686  0.1671924743641758
  0.2825271027161609  0.8404665056498011  0.5512083822338120
  0.1909526184968501  0.3903135299042510  0.9457033968235005
 -0.0004814167054990  0.7102659690931072  0.0890322495384084
  0.6947101940043494  0.1375209350922477  0.2004404015340153
  0.2524894278390613  0.3001391830766877  0.0207914757893721
  0.3112758738124704  0.8360005400128739  0.7385889256949481
  0.6028536445064901  0.0419619207318396  0.1381351717554713
  0.7826749496755635  0.3244622067135179  0.7754417873866758
  0.4208228425307005  0.3577866305163195  0.6301714500595181
  0.4111612093292208  0.5386382401271236  0.5788757563983430
  0.7026478925765730  0.9576118828218347  0.8180106269195447
  0.8722238771846226  0.7679098633213055  0.6967275769278869
  0.5692147231874843  0.1988951913412553  0.0773611423589615
  0.4509709602000690  0.2625531874895375  0.1983196716436209
  0.1804229173631782  0.2093890625999533  0.5006151302646460
  0.3584758702092281  0.9509052555081826  0.9213052816147521
  0.1531067534285254  0.6901272370616727  0.1973680914701142
  0.8479016679203591  0.1449007979268698  0.7743079248086250
  0.2207101003413094  0.8074266179021984  0.0778771986406923
  0.0613144544874247  0.3643462757538575  0.5507629126856314
  0.5242632410820409  0.4709377941829715  0.1716817249988636
  0.6813468257936429  0.8155854125141738  0.1358172426417974
  0.2259512880203120  0.5832016918628858  0.6635191898964192
  0.0068513098758010  0.2203697533959963  0.7517935762483421
  0.7688121042114394  0.5373975586928726  0.5660476218638305
  0.5044347515856690  0.9863644979977351  0.6899627992242590
  0.8369493483942190  0.1615204998627239  0.3822351618703042
  0.9776022204769890  0.3818302755321804  0.3547685856874851
  0.1943361616831212  0.0625960632370315  0.8307432712140316
  0.5916998532615794  0.2145271575588434  0.2075566408856916
  0.3881341557946834  0.7312559316554913  0.9975507896260699
  0.5185394463474274  0.7442794038925223  0.4014324756563789
  0.1889046465097539  0.0223502540575472  0.3628576812311076
  0.2206546652359376  0.3612596679707847  0.6498504603580713
  0.0162627857793664  0.3633123489835606  0.1608873621505767
 
  0.00000000E+00  0.00000000E+00  0.00000000E+00
  0.00000000E+00  0.00000000E+00  0.00000000E+00
  0.00000000E+00  0.00000000E+00  0.00000000E+00
  0.00000000E+00  0.00000000E+00  0.00000000E+00
  0.00000000E+00  0.00000000E+00  0.00000000E+00
  0.00000000E+00  0.00000000E+00  0.00000000E+00
  0.00000000E+00  0.00000000E+00  0.00000000E+00
  0.00000000E+00  0.00000000E+00  0.00000000E+00
  0.00000000E+00  0.00000000E+00  0.00000000E+00
  0.00000000E+00  0.00000000E+00  0.00000000E+00
  0.00000000E+00  0.00000000E+00  0.00000000E+00
  0.00000000E+00  0.00000000E+00  0.00000000E+00
  0.00000000E+00  0.00000000E+00  0.00000000E+00
  0.00000000E+00  0.00000000E+00  0.00000000E+00
  0.00000000E+00  0.00000000E+00  0.00000000E+00
  0.00000000E+00  0.00000000E+00  0.00000000E+00
  0.00000000E+00  0.00000000E+00  0.00000000E+00
  0.00000000E+00  0.00000000E+00  0.00000000E+00
  0.00000000E+00  0.00000000E+00  0.00000000E+00
  0.00000000E+00  0.00000000E+00  0.00000000E+00
  0.00000000E+00  0.00000000E+00  0.00000000E+00
  0.00000000E+00  0.00000000E+00  0.00000000E+00
  0.00000000E+00  0.00000000E+00  0.00000000E+00
  0.00000000E+00  0.00000000E+00  0.00000000E+00
  0.00000000E+00  0.00000000E+00  0.00000000E+00
  0.00000000E+00  0.00000000E+00  0.00000000E+00
  0.00000000E+00  0.00000000E+00  0.00000000E+00
  0.00000000E+00  0.00000000E+00  0.00000000E+00
  0.00000000E+00  0.00000000E+00  0.00000000E+00
  0.00000000E+00  0.00000000E+00  0.00000000E+00
  0.00000000E+00  0.00000000E+00  0.00000000E+00
  0.00000000E+00  0.00000000E+00  0.00000000E+00
  0.00000000E+00  0.00000000E+00  0.00000000E+00
  0.00000000E+00  0.00000000E+00  0.00000000E+00
  0.00000000E+00  0.00000000E+00  0.00000000E+00
  0.00000000E+00  0.00000000E+00  0.00000000E+00
  0.00000000E+00  0.00000000E+00  0.00000000E+00
  0.00000000E+00  0.00000000E+00  0.00000000E+00
  0.00000000E+00  0.00000000E+00  0.00000000E+00
  0.00000000E+00  0.00000000E+00  0.00000000E+00
  0.00000000E+00  0.00000000E+00  0.00000000E+00
  0.00000000E+00  0.00000000E+00  0.00000000E+00
  0.00000000E+00  0.00000000E+00  0.00000000E+00
  0.00000000E+00  0.00000000E+00  0.00000000E+00
  0.00000000E+00  0.00000000E+00  0.00000000E+00
  0.00000000E+00  0.00000000E+00  0.00000000E+00
  0.00000000E+00  0.00000000E+00  0.00000000E+00
  0.00000000E+00  0.00000000E+00  0.00000000E+00
  0.00000000E+00  0.00000000E+00  0.00000000E+00
  0.00000000E+00  0.00000000E+00  0.00000000E+00
  0.00000000E+00  0.00000000E+00  0.00000000E+00
  0.00000000E+00  0.00000000E+00  0.00000000E+00
  0.00000000E+00  0.00000000E+00  0.00000000E+00
  0.00000000E+00  0.00000000E+00  0.00000000E+00
  0.00000000E+00  0.00000000E+00  0.00000000E+00
  0.00000000E+00  0.00000000E+00  0.00000000E+00
  0.00000000E+00  0.00000000E+00  0.00000000E+00
  0.00000000E+00  0.00000000E+00  0.00000000E+00
  0.00000000E+00  0.00000000E+00  0.00000000E+00
  0.00000000E+00  0.00000000E+00  0.00000000E+00
  0.00000000E+00  0.00000000E+00  0.00000000E+00
  0.00000000E+00  0.00000000E+00  0.00000000E+00
  0.00000000E+00  0.00000000E+00  0.00000000E+00
  0.00000000E+00  0.00000000E+00  0.00000000E+00
  0.00000000E+00  0.00000000E+00  0.00000000E+00
  0.00000000E+00  0.00000000E+00  0.00000000E+00
  0.00000000E+00  0.00000000E+00  0.00000000E+00
  0.00000000E+00  0.00000000E+00  0.00000000E+00
  0.00000000E+00  0.00000000E+00  0.00000000E+00
  0.00000000E+00  0.00000000E+00  0.00000000E+00
  0.00000000E+00  0.00000000E+00  0.00000000E+00
  0.00000000E+00  0.00000000E+00  0.00000000E+00
  0.00000000E+00  0.00000000E+00  0.00000000E+00
  0.00000000E+00  0.00000000E+00  0.00000000E+00
  0.00000000E+00  0.00000000E+00  0.00000000E+00
  0.00000000E+00  0.00000000E+00  0.00000000E+00
  0.00000000E+00  0.00000000E+00  0.00000000E+00
  0.00000000E+00  0.00000000E+00  0.00000000E+00
  0.00000000E+00  0.00000000E+00  0.00000000E+00
  0.00000000E+00  0.00000000E+00  0.00000000E+00
  0.00000000E+00  0.00000000E+00  0.00000000E+00
  0.00000000E+00  0.00000000E+00  0.00000000E+00
  0.00000000E+00  0.00000000E+00  0.00000000E+00
  0.00000000E+00  0.00000000E+00  0.00000000E+00
  0.00000000E+00  0.00000000E+00  0.00000000E+00
  0.00000000E+00  0.00000000E+00  0.00000000E+00
  0.00000000E+00  0.00000000E+00  0.00000000E+00
  0.00000000E+00  0.00000000E+00  0.00000000E+00
  0.00000000E+00  0.00000000E+00  0.00000000E+00
  0.00000000E+00  0.00000000E+00  0.00000000E+00
  0.00000000E+00  0.00000000E+00  0.00000000E+00
  0.00000000E+00  0.00000000E+00  0.00000000E+00
  0.00000000E+00  0.00000000E+00  0.00000000E+00
  0.00000000E+00  0.00000000E+00  0.00000000E+00
  0.00000000E+00  0.00000000E+00  0.00000000E+00
  0.00000000E+00  0.00000000E+00  0.00000000E+00
  0.00000000E+00  0.00000000E+00  0.00000000E+00
  0.00000000E+00  0.00000000E+00  0.00000000E+00
  0.00000000E+00  0.00000000E+00  0.00000000E+00
  0.00000000E+00  0.00000000E+00  0.00000000E+00
  0.00000000E+00  0.00000000E+00  0.00000000E+00
  0.00000000E+00  0.00000000E+00  0.00000000E+00
  0.00000000E+00  0.00000000E+00  0.00000000E+00
  0.00000000E+00  0.00000000E+00  0.00000000E+00
  0.00000000E+00  0.00000000E+00  0.00000000E+00
  0.00000000E+00  0.00000000E+00  0.00000000E+00
  0.00000000E+00  0.00000000E+00  0.00000000E+00
  0.00000000E+00  0.00000000E+00  0.00000000E+00
  0.00000000E+00  0.00000000E+00  0.00000000E+00
  0.00000000E+00  0.00000000E+00  0.00000000E+00
  0.00000000E+00  0.00000000E+00  0.00000000E+00
  0.00000000E+00  0.00000000E+00  0.00000000E+00
  0.00000000E+00  0.00000000E+00  0.00000000E+00
  0.00000000E+00  0.00000000E+00  0.00000000E+00
  0.00000000E+00  0.00000000E+00  0.00000000E+00
  0.00000000E+00  0.00000000E+00  0.00000000E+00
  0.00000000E+00  0.00000000E+00  0.00000000E+00
  0.00000000E+00  0.00000000E+00  0.00000000E+00
  0.00000000E+00  0.00000000E+00  0.00000000E+00
  0.00000000E+00  0.00000000E+00  0.00000000E+00
  0.00000000E+00  0.00000000E+00  0.00000000E+00
  0.00000000E+00  0.00000000E+00  0.00000000E+00
  0.00000000E+00  0.00000000E+00  0.00000000E+00
  0.00000000E+00  0.00000000E+00  0.00000000E+00
  0.00000000E+00  0.00000000E+00  0.00000000E+00
  0.00000000E+00  0.00000000E+00  0.00000000E+00
  0.00000000E+00  0.00000000E+00  0.00000000E+00
  0.00000000E+00  0.00000000E+00  0.00000000E+00
  0.00000000E+00  0.00000000E+00  0.00000000E+00
  0.00000000E+00  0.00000000E+00  0.00000000E+00
  0.00000000E+00  0.00000000E+00  0.00000000E+00
  0.00000000E+00  0.00000000E+00  0.00000000E+00
  0.00000000E+00  0.00000000E+00  0.00000000E+00
  0.00000000E+00  0.00000000E+00  0.00000000E+00
  0.00000000E+00  0.00000000E+00  0.00000000E+00
  0.00000000E+00  0.00000000E+00  0.00000000E+00
  0.00000000E+00  0.00000000E+00  0.00000000E+00
  0.00000000E+00  0.00000000E+00  0.00000000E+00
  0.00000000E+00  0.00000000E+00  0.00000000E+00
  0.00000000E+00  0.00000000E+00  0.00000000E+00
  0.00000000E+00  0.00000000E+00  0.00000000E+00
  0.00000000E+00  0.00000000E+00  0.00000000E+00
  0.00000000E+00  0.00000000E+00  0.00000000E+00
  0.00000000E+00  0.00000000E+00  0.00000000E+00
  0.00000000E+00  0.00000000E+00  0.00000000E+00
  0.00000000E+00  0.00000000E+00  0.00000000E+00
  0.00000000E+00  0.00000000E+00  0.00000000E+00
  0.00000000E+00  0.00000000E+00  0.00000000E+00
  0.00000000E+00  0.00000000E+00  0.00000000E+00
  0.00000000E+00  0.00000000E+00  0.00000000E+00
  0.00000000E+00  0.00000000E+00  0.00000000E+00
  0.00000000E+00  0.00000000E+00  0.00000000E+00
  0.00000000E+00  0.00000000E+00  0.00000000E+00
  0.00000000E+00  0.00000000E+00  0.00000000E+00
  0.00000000E+00  0.00000000E+00  0.00000000E+00
  0.00000000E+00  0.00000000E+00  0.00000000E+00
  0.00000000E+00  0.00000000E+00  0.00000000E+00
  0.00000000E+00  0.00000000E+00  0.00000000E+00
  0.00000000E+00  0.00000000E+00  0.00000000E+00
  0.00000000E+00  0.00000000E+00  0.00000000E+00
  0.00000000E+00  0.00000000E+00  0.00000000E+00
  0.00000000E+00  0.00000000E+00  0.00000000E+00
  0.00000000E+00  0.00000000E+00  0.00000000E+00
  0.00000000E+00  0.00000000E+00  0.00000000E+00
  0.00000000E+00  0.00000000E+00  0.00000000E+00
  0.00000000E+00  0.00000000E+00  0.00000000E+00
  0.00000000E+00  0.00000000E+00  0.00000000E+00
  0.00000000E+00  0.00000000E+00  0.00000000E+00
  0.00000000E+00  0.00000000E+00  0.00000000E+00
  0.00000000E+00  0.00000000E+00  0.00000000E+00
  0.00000000E+00  0.00000000E+00  0.00000000E+00
  0.00000000E+00  0.00000000E+00  0.00000000E+00
  0.00000000E+00  0.00000000E+00  0.00000000E+00
  0.00000000E+00  0.00000000E+00  0.00000000E+00
  0.00000000E+00  0.00000000E+00  0.00000000E+00
  0.00000000E+00  0.00000000E+00  0.00000000E+00
  0.00000000E+00  0.00000000E+00  0.00000000E+00
  0.00000000E+00  0.00000000E+00  0.00000000E+00
  0.00000000E+00  0.00000000E+00  0.00000000E+00
  0.00000000E+00  0.00000000E+00  0.00000000E+00
  0.00000000E+00  0.00000000E+00  0.00000000E+00
  0.00000000E+00  0.00000000E+00  0.00000000E+00
  0.00000000E+00  0.00000000E+00  0.00000000E+00
  0.00000000E+00  0.00000000E+00  0.00000000E+00
  0.00000000E+00  0.00000000E+00  0.00000000E+00
  0.00000000E+00  0.00000000E+00  0.00000000E+00
  0.00000000E+00  0.00000000E+00  0.00000000E+00
  0.00000000E+00  0.00000000E+00  0.00000000E+00
  0.00000000E+00  0.00000000E+00  0.00000000E+00
  0.00000000E+00  0.00000000E+00  0.00000000E+00
  0.00000000E+00  0.00000000E+00  0.00000000E+00
  0.00000000E+00  0.00000000E+00  0.00000000E+00
  0.00000000E+00  0.00000000E+00  0.00000000E+00
  0.00000000E+00  0.00000000E+00  0.00000000E+00
  0.00000000E+00  0.00000000E+00  0.00000000E+00
  0.00000000E+00  0.00000000E+00  0.00000000E+00
  0.00000000E+00  0.00000000E+00  0.00000000E+00
  0.00000000E+00  0.00000000E+00  0.00000000E+00
  0.00000000E+00  0.00000000E+00  0.00000000E+00
  0.00000000E+00  0.00000000E+00  0.00000000E+00
  0.00000000E+00  0.00000000E+00  0.00000000E+00
  0.00000000E+00  0.00000000E+00  0.00000000E+00
  0.00000000E+00  0.00000000E+00  0.00000000E+00
  0.00000000E+00  0.00000000E+00  0.00000000E+00
  0.00000000E+00  0.00000000E+00  0.00000000E+00
  0.00000000E+00  0.00000000E+00  0.00000000E+00
  0.00000000E+00  0.00000000E+00  0.00000000E+00
  0.00000000E+00  0.00000000E+00  0.00000000E+00
  0.00000000E+00  0.00000000E+00  0.00000000E+00
  0.00000000E+00  0.00000000E+00  0.00000000E+00
  0.00000000E+00  0.00000000E+00  0.00000000E+00
  0.00000000E+00  0.00000000E+00  0.00000000E+00
  0.00000000E+00  0.00000000E+00  0.00000000E+00
  0.00000000E+00  0.00000000E+00  0.00000000E+00
  0.00000000E+00  0.00000000E+00  0.00000000E+00
  0.00000000E+00  0.00000000E+00  0.00000000E+00
  0.00000000E+00  0.00000000E+00  0.00000000E+00
  0.00000000E+00  0.00000000E+00  0.00000000E+00
  0.00000000E+00  0.00000000E+00  0.00000000E+00
  0.00000000E+00  0.00000000E+00  0.00000000E+00
  0.00000000E+00  0.00000000E+00  0.00000000E+00
  0.00000000E+00  0.00000000E+00  0.00000000E+00
  0.00000000E+00  0.00000000E+00  0.00000000E+00
  0.00000000E+00  0.00000000E+00  0.00000000E+00
  0.00000000E+00  0.00000000E+00  0.00000000E+00
  0.00000000E+00  0.00000000E+00  0.00000000E+00
  0.00000000E+00  0.00000000E+00  0.00000000E+00
  0.00000000E+00  0.00000000E+00  0.00000000E+00
  0.00000000E+00  0.00000000E+00  0.00000000E+00
  0.00000000E+00  0.00000000E+00  0.00000000E+00
  0.00000000E+00  0.00000000E+00  0.00000000E+00
  0.00000000E+00  0.00000000E+00  0.00000000E+00