Amorphous GeAsSeSi                      
   1.00000000000000     
    19.8442949883003408    0.0000000000000000    0.0000000000000000
     0.0000000000000000   19.8442949883003408    0.0000000000000000
     0.0000000000000000    0.0000000000000000   19.8442949883003408
   Si   Te
   120   120
Direct
  0.4319354878237735  0.6552033009555838  0.7023429389347814
  0.9333713481030144  0.7038597634724187  0.0102616937122892
  0.4950007274695647  0.2693092087588128  0.7164176333972228
  0.9943750157122070  0.9389423084701949  0.6273550982814301
  0.4769983785371116  0.0503389467294899  0.3029793943534925
  0.2349338484822529  0.6072492487295047  0.5190180520812173
  0.5643199703545642  0.7436749187250395  0.3721638083571158
  0.3028827572114927  0.5559991792961535  0.6106934502940555
  0.0236609936713959  0.4551092318232991  0.8426236600734833
  0.9409545748039853  0.8760096527173207  0.7115335562975325
  0.9925550815692484  0.8589840295268182  0.5395681231196209
  0.0999252029995751  0.3755918958320739  0.0333649622180699
  0.4166539725535896  0.4525256844090285  0.0956328068338568
  0.3254702488550140  0.6035589575468304  0.7216517199918884
  0.2201637657637144  0.9078767592403135  0.5192120796372548
  0.1576761025623391  0.9917892463388849  0.5701288096257940
  0.0375207282432906  0.8725340570769801  0.0538285347017179
  0.0104608412148344  0.6414400003038434  0.8288015106654277
  0.6292871906048906  0.8371841297512684  0.0997156263703574
  0.0893168583884296  0.7790698337124077  0.8655680989579991
  0.3348988712071329  0.4177535207628517  0.2683268116469976
  0.1162889212435956  0.5660534300639971  0.7069425500077857
  0.5491377779355369  0.4611295418359101  0.9201592675566274
  0.8674539747784674  0.5429927246694785  0.7000905883025845
  0.9733831443035508  0.7363646556391792  0.1158819171543343
  0.1709180884538843  0.5580969518612232  0.4291737040646960
  0.5011718462048597  0.0996273358147715  0.1273976834575351
  0.5000319523179041  0.8543567228952044  0.2630316643402794
  0.0287166729424712  0.1071206911343186  0.6016359584236383
  0.2840317699135950  0.2040081932344552  0.2814279329656232
  0.1021527633272112  0.9722666597550379  0.6723622198843773
  0.8553207617830128  0.2574907910901184  0.1626391038592467
  0.0067745846055784  0.3789783115248441  0.1119973698683557
  0.8307620447322170  0.7323919079422277  0.9586229947112754
  0.8941039436279091  0.4274344888716010  0.7101601359009712
  0.8885633928420075  0.0592458527814802  0.7243840068842989
  0.9318907268201835  0.0403607382492196  0.6137488361648821
  0.1011053456959383  0.1657179613611278  0.9107272827803086
  0.4850890948845228  0.1499420015584397  0.2339680750563382
  0.0135747158655231  0.0464876994212075  0.3226456468418171
  0.2737200983308650  0.4510824621379332  0.0370315101378163
  0.8283865546784200  0.3314103184220004  0.3710297674960766
  0.4653192200046494  0.9608122679319326  0.2248727056088650
  0.7576063156760567  0.4294485656930730  0.1270499578799224
  0.3753137843602364  0.2451576227238859  0.6991558147603952
  0.0125588906771527  0.0057166202671739  0.4336024233471683
  0.9849766852965248  0.0509867184952078  0.7923888571913663
  0.8521628026238108  0.1614079092322409  0.7740000238015482
  0.7384836662396972  0.7967245222090874  0.9909551352199677
  0.9920181310878990  0.7270313562432493  0.9101720069197174
  0.5273707738494275  0.2637431920008026  0.5991936246036605
  0.0545954228251535  0.3239355917662150  0.5647896328638291
  0.2561220373527724  0.4252313812869650  0.7672073126395565
  0.1675432157843551  0.8796881720628043  0.4168238088911389
  0.7006794367506710  0.8828498802393133  0.2736674196624227
  0.6310988551140725  0.6977713307976924  0.6529759214714093
  0.5431106393122569  0.7557143844320576  0.5959777303388502
  0.8735171845363841  0.1939538049494211  0.5342850245725335
  0.1982501522941647  0.4343029646191696  0.8719616006138929
  0.4843465520504741  0.7456742357759912  0.8654141654655613
  0.2617919399790465  0.8033731954423051  0.5586939157058308
  0.8063159159573448  0.2697261881510201  0.5980759052288950
  0.9803884891764851  0.7492638648003983  0.5869211578773746
  0.0822620324759845  0.8953403587292772  0.8572864858512905
  0.9121425098337245  0.4976781966655668  0.8616494843502361
  0.9057787967731549  0.6012007542081218  0.7952148618460426
  0.4723906058205911  0.0862212745958666  0.5007418931953567
  0.4384863233926114  0.4523912765724825  0.2129450749666424
  0.7474318966944842  0.6875060259729467  0.7184700685172640
  0.0684294276142203  0.6825909186802812  0.5434835910032868
  0.2689006519201497  0.7183055791237439  0.3396938502028522
  0.0499528790790615  0.8926803144672468  0.4400203180917325
  0.4506496743076784  0.1089512747971350  0.6621677158322934
  0.4819708750160315  0.4032024755925916  0.8384598535052790
  0.9578968569523986  0.7593172543687607  0.7039109580992097
  0.6932773598889590  0.7088935001804271  0.8299292527352078
  0.4871745257285398  0.5590684571233954  0.2436784219032805
  0.8889978158670018  0.7755067639638983  0.8652101854296779
  0.8153218012065565  0.9763645975803897  0.7743084316938895
  0.7316077168609929  0.8894769030549963  0.0645445395146468
  0.0887086332967832  0.0657386528763466  0.5049659658840761
  0.2332279726448048  0.6038226365767856  0.3369483705977598
  0.1848171928809545  0.7175817508897731  0.5219861276866230
  0.6645269800086184  0.9013291356798684  0.3847476220871756
  0.0223264083010243  0.6665227963403216  0.4318062620075652
  0.3181392234667674  0.4623612027451899  0.4543750259268708
  0.0945671829994874  0.3835266624253140  0.9107058243922032
  0.4614388926013237  0.7484666002939970  0.3081552208864281
  0.4435707411293646  0.7698965087627034  0.6723153779656478
  0.1835371519086527  0.7616392898758692  0.4096187853934767
  0.4473158400825450  0.1820979227684977  0.5670234774227311
  0.9271153582704535  0.8244318269290203  0.0478184016337954
  0.6401817343888978  0.7362301612001297  0.2764819090484148
  0.3646936172899810  0.7804556077078625  0.3709160723536450
  0.6073544809068281  0.8345859260588760  0.2166065401047972
  0.8521707139659525  0.0718881511461380  0.5298036516825629
  0.0548732175437227  0.9471889144695358  0.2678386061464165
  0.8984353798709798  0.4337244474672277  0.2457829609156154
  0.5906021660729056  0.0760660146034698  0.3295184257508702
  0.9920221241451748  0.1327376377949966  0.8785222005175869
  0.4759104228608508  0.7983285123733922  0.9733291996365063
  0.2592546420802868  0.6665036776937210  0.8063717194676665
  0.0856547575938629  0.7296884333293904  0.3520235985486315
  0.0558028790386431  0.7277492563279567  0.7633967940270079
  0.5777171547932765  0.6704485623924555  0.8478726445393743
  0.4022668847773969  0.0574649839366859  0.0773930758182367
  0.8246517468064430  0.6166912575140334  0.1506550880486220
  0.7071163345743441  0.3083286805638409  0.5446108495150525
  0.1466028006051376  0.1419982003336776  0.4277705500855161
  0.8742767979598731  0.7386277262594633  0.5337073608388836
  0.8613562934657646  0.7122277596626514  0.7662611015492057
  0.9076561220098019  0.4339899489017958  0.0743327230913381
  0.8293235830685940  0.3341199717870211  0.2495857530714787
  0.6389113787606455  0.6204841946194113  0.2482904534728577
  0.9816456802478309  0.9326517777235750  0.8090670883834178
  0.7912798374136437  0.6771989209989581  0.5985064123043885
  0.8935633593857109  0.0281498388066273  0.4251716115850402
  0.8507681779556544  0.4981473708155734  0.1584524254260528
  0.0855137662117392  0.5545981086082801  0.8223248881273062
  0.4843716167109617  0.8208533605107614  0.7729755940211542
  0.6209267958190333  0.0591112185485357  0.9723561421872342
  0.7056295486347749  0.4981850248143705  0.0319141296973156
  0.3527157252716462  0.5508780830530089  0.0406682492939757
  0.8020964656180792  0.1026866207898891  0.8794887440157084
  0.3464631887544395  0.1235500279612304  0.7363922050059443
  0.7633923527922278  0.7686449989796186  0.2865019881815480
  0.8643970283124054  0.8697289455268002  0.5181769081666728
  0.0212034058512431  0.4096199521605511  0.7209553036401085
  0.4070280059184618  0.0271966686851740  0.4073010243483089
  0.7062182941396800  0.3718616720161142  0.2293316174841179
  0.9767298610569713  0.2236895353069989  0.6112040867250080
  0.2142879572032695  0.7592164171317807  0.8905395460403569
  0.2843350463704510  0.0113220795053831  0.5600771335734063
  0.1744506252217470  0.9594134576052841  0.3156170726822803
  0.1945471242669818  0.4732126464671648  0.6624380170682165
  0.8203375598407782  0.3366052933004396  0.0566539850641666
  0.0016813360054168  0.8361870371821193  0.3303451371507710
  0.6600844468828171  0.7198249032121549  0.0571200494555885
  0.5512080589578877  0.1432345039373955  0.7303868679228260
  0.0563848935250631  0.1987147850747653  0.0270892038062276
  0.3600936468282242  0.8507779687779095  0.9719762895862728
  0.8971063323299645  0.6895402339159569  0.4153988746877360
  0.1006962266861484  0.9549601971696627  0.9704916065942589
  0.8347601578248041  0.4009786913575911  0.8209566118746121
  0.9152009275448983  0.5289793825694890  0.9865802096800355
  0.9209837947549193  0.1165300666500222  0.9812094048572337
  0.8042720519155201  0.1488510601146989  0.1467244959459042
  0.0261152294820932  0.4500778582143466  0.2180297472543943
  0.8359651561685010  0.9220501144220241  0.3739167229648609
  0.6045460789634427  0.8298258547882895  0.7304804665563797
  0.5748030490879806  0.0009421463238706  0.1671096599699121
  0.3416993155839646  0.2516219312184535  0.5741138312515380
  0.1991526812816585  0.5690049679440520  0.8863312091134700
  0.7687277156826676  0.2418209108318745  0.7189306277841733
  0.5503093907479923  0.8936711379091211  0.0146606472776709
  0.9843078496449311  0.2634002106996702  0.1651386885681693
  0.6829224110340665  0.6435686388766308  0.5413434276825955
  0.6275195238284903  0.8512167031417054  0.5726466304869863
  0.4070199612072953  0.4144081217901264  0.3785415058556134
  0.0444299489805511  0.5425147233865445  0.4085495899581927
  0.8782293024177372  0.9092047841134224  0.8845986763251583
  0.8813054879045716  0.3765482545466039  0.5916079863024669
  0.3762240423387487  0.7806336805956914  0.4997251280749435
  0.3705115795248097  0.9505816409480753  0.1396105729519836
  0.6758599598361943  0.0255877025190157  0.4217608199571801
  0.4008560827055165  0.6560652983097862  0.2419094281807250
  0.8750266075236747  0.4533967103604671  0.3712823618455031
  0.9196305523209413  0.2696685119424347  0.4391456502083827
  0.1682806528262053  0.9037157311480568  0.7586386560198438
  0.8439598135494411  0.8845180052819516  0.1283376139118261
  0.3075952652617082  0.1435231088134504  0.0769062026228031
  0.3437479453358904  0.4353331320868822  0.5758921894308632
  0.4029467601851337  0.2483706087950703  0.2499910931870675
  0.5284790377991860  0.3551175528685689  0.5087742698884317
  0.9340155730324101  0.6661566155228198  0.2138319621467580
  0.5773425161355572  0.4684955091397361  0.6076396637168362
  0.3214894945101394  0.3644126313508677  0.1177195760639021
  0.6978643517407840  0.8009068435492690  0.4579501161335023
  0.0900863649336804  0.0931767110673469  0.7212667777198668
  0.2939116383950302  0.3787914737029456  0.9338381947683884
  0.1382641489965168  0.2669938298620859  0.4724370559185911
  0.4795521589560399  0.2521744847315933  0.4177227548063707
  0.7422072228494088  0.5570728151319914  0.7305756551143495
  0.3873382228196402  0.6611531081908192  0.8697104655644574
  0.4323529632498646  0.5946638153395736  0.5886449506701917
  0.5534074472685195  0.6097543451841895  0.7344419104591577
  0.6964255853236581  0.8300777967860002  0.8747194489974849
  0.7093772039818647  0.4214522696757318  0.6072178916939693
  0.7597258094246468  0.5812616485064397  0.2632332015137141
  0.1970887219980675  0.4342047828318325  0.4240893537337917
  0.5706911176830004  0.5811612896070288  0.1474897100229554
  0.4759022543665301  0.9459665077420316  0.7985737869316472
  0.2599260637230817  0.5222528352830594  0.2402826563706038
  0.2280903464232139  0.1266975963565369  0.1919339080309766
  0.1540899775143589  0.4899997468917209  0.0601911475541261
  0.5207377198421226  0.6877709750141977  0.4835553110182991
  0.0622240922366280  0.5601517793786469  0.5893021399410975
  0.3588667144705818  0.9789643136225898  0.8747240183865260
  0.8792610618683149  0.5835444182454241  0.5802203517794956
  0.6078751622585343  0.1820387822335315  0.2552589316139778
  0.0935747390100481  0.1471548376665633  0.3105589587375902
  0.2366287982632277  0.3246429988481468  0.2849751689689836
  0.2276795417748337  0.7781888071959943  0.2358649247050770
  0.2729343869604520  0.1427041305500392  0.4000930302747001
  0.4774787118668179  0.0007807805647216  0.5972477134757384
  0.5199996585790466  0.4062681930778857  0.0345260503615740
  0.7036265026092271  0.0284294499100466  0.7946270269457796
  0.7646748616609451  0.6331053962017074  0.9083138786763543
  0.8961349527301540  0.1010795370922617  0.3183530322633626
  0.1636075775463201  0.6883753461938829  0.7032138941628993
  0.2767993841482536  0.2970384249957190  0.7657969278740990
  0.5736356281555119  0.1672689118619669  0.0455549942951228
  0.5343192836959295  0.8745966040350983  0.3890838969864435
  0.6693260809795305  0.4109713924011385  0.9284424873111566
  0.7412842950533237  0.0141504445690175  0.0336372476516732
  0.7767747956590183  0.9839233840614097  0.2517468866591458
  0.4330038010249940  0.0726518657472611  0.9516315223953493
  0.5249509322277220  0.3638826820271925  0.2226841952815107
  0.3269749670168471  0.8844310812829693  0.3084584184212353
  0.1277249229166834  0.6641406579728266  0.2497760403532087
  0.5524149503173695  0.5878973758471164  0.9464338950458324
  0.4082668873675949  0.7388716691883895  0.0607869153369652
  0.3348219673515196  0.5907563011034120  0.4330624415732376
  0.9521658652692461  0.2316448298565745  0.8077350411215193
  0.5686553590173847  0.5669643916850985  0.3432767255067304
  0.7090141745039497  0.3117608883883380  0.4142351105045115
  0.6425807145615585  0.2119689632623513  0.5982224825804469
  0.3165006172278812  0.8080242104066889  0.6758223905970580
  0.3545203355408433  0.5040353236755925  0.7986897717022206
  0.1671129321392084  0.2672990699381626  0.6100805782009538
  0.0314652075078988  0.9688012917263878  0.1448799210684564
  0.1699062303284582  0.2769529503009304  0.0717618511200831
  0.5728132179933054  0.1473231858234173  0.4410407517019427
  0.5357084594805068  0.2853966958468372  0.8389677078082440
  0.1192899818612635  0.2773396159971427  0.8434611304309900
  0.1839645247503061  0.0810666738924433  0.8711148336469720
  0.4830215404512930  0.4189246658441804  0.7099420092260090
  0.7413942727706704  0.0357496519054052  0.5711574604020866
  0.0969848964925001  0.7645603683698358  0.0916705866959381
  0.8127838297446235  0.8751087034909238  0.6967117395076670
 
  0.00000000E+00  0.00000000E+00  0.00000000E+00
  0.00000000E+00  0.00000000E+00  0.00000000E+00
  0.00000000E+00  0.00000000E+00  0.00000000E+00
  0.00000000E+00  0.00000000E+00  0.00000000E+00
  0.00000000E+00  0.00000000E+00  0.00000000E+00
  0.00000000E+00  0.00000000E+00  0.00000000E+00
  0.00000000E+00  0.00000000E+00  0.00000000E+00
  0.00000000E+00  0.00000000E+00  0.00000000E+00
  0.00000000E+00  0.00000000E+00  0.00000000E+00
  0.00000000E+00  0.00000000E+00  0.00000000E+00
  0.00000000E+00  0.00000000E+00  0.00000000E+00
  0.00000000E+00  0.00000000E+00  0.00000000E+00
  0.00000000E+00  0.00000000E+00  0.00000000E+00
  0.00000000E+00  0.00000000E+00  0.00000000E+00
  0.00000000E+00  0.00000000E+00  0.00000000E+00
  0.00000000E+00  0.00000000E+00  0.00000000E+00
  0.00000000E+00  0.00000000E+00  0.00000000E+00
  0.00000000E+00  0.00000000E+00  0.00000000E+00
  0.00000000E+00  0.00000000E+00  0.00000000E+00
  0.00000000E+00  0.00000000E+00  0.00000000E+00
  0.00000000E+00  0.00000000E+00  0.00000000E+00
  0.00000000E+00  0.00000000E+00  0.00000000E+00
  0.00000000E+00  0.00000000E+00  0.00000000E+00
  0.00000000E+00  0.00000000E+00  0.00000000E+00
  0.00000000E+00  0.00000000E+00  0.00000000E+00
  0.00000000E+00  0.00000000E+00  0.00000000E+00
  0.00000000E+00  0.00000000E+00  0.00000000E+00
  0.00000000E+00  0.00000000E+00  0.00000000E+00
  0.00000000E+00  0.00000000E+00  0.00000000E+00
  0.00000000E+00  0.00000000E+00  0.00000000E+00
  0.00000000E+00  0.00000000E+00  0.00000000E+00
  0.00000000E+00  0.00000000E+00  0.00000000E+00
  0.00000000E+00  0.00000000E+00  0.00000000E+00
  0.00000000E+00  0.00000000E+00  0.00000000E+00
  0.00000000E+00  0.00000000E+00  0.00000000E+00
  0.00000000E+00  0.00000000E+00  0.00000000E+00
  0.00000000E+00  0.00000000E+00  0.00000000E+00
  0.00000000E+00  0.00000000E+00  0.00000000E+00
  0.00000000E+00  0.00000000E+00  0.00000000E+00
  0.00000000E+00  0.00000000E+00  0.00000000E+00
  0.00000000E+00  0.00000000E+00  0.00000000E+00
  0.00000000E+00  0.00000000E+00  0.00000000E+00
  0.00000000E+00  0.00000000E+00  0.00000000E+00
  0.00000000E+00  0.00000000E+00  0.00000000E+00
  0.00000000E+00  0.00000000E+00  0.00000000E+00
  0.00000000E+00  0.00000000E+00  0.00000000E+00
  0.00000000E+00  0.00000000E+00  0.00000000E+00
  0.00000000E+00  0.00000000E+00  0.00000000E+00
  0.00000000E+00  0.00000000E+00  0.00000000E+00
  0.00000000E+00  0.00000000E+00  0.00000000E+00
  0.00000000E+00  0.00000000E+00  0.00000000E+00
  0.00000000E+00  0.00000000E+00  0.00000000E+00
  0.00000000E+00  0.00000000E+00  0.00000000E+00
  0.00000000E+00  0.00000000E+00  0.00000000E+00
  0.00000000E+00  0.00000000E+00  0.00000000E+00
  0.00000000E+00  0.00000000E+00  0.00000000E+00
  0.00000000E+00  0.00000000E+00  0.00000000E+00
  0.00000000E+00  0.00000000E+00  0.00000000E+00
  0.00000000E+00  0.00000000E+00  0.00000000E+00
  0.00000000E+00  0.00000000E+00  0.00000000E+00
  0.00000000E+00  0.00000000E+00  0.00000000E+00
  0.00000000E+00  0.00000000E+00  0.00000000E+00
  0.00000000E+00  0.00000000E+00  0.00000000E+00
  0.00000000E+00  0.00000000E+00  0.00000000E+00
  0.00000000E+00  0.00000000E+00  0.00000000E+00
  0.00000000E+00  0.00000000E+00  0.00000000E+00
  0.00000000E+00  0.00000000E+00  0.00000000E+00
  0.00000000E+00  0.00000000E+00  0.00000000E+00
  0.00000000E+00  0.00000000E+00  0.00000000E+00
  0.00000000E+00  0.00000000E+00  0.00000000E+00
  0.00000000E+00  0.00000000E+00  0.00000000E+00
  0.00000000E+00  0.00000000E+00  0.00000000E+00
  0.00000000E+00  0.00000000E+00  0.00000000E+00
  0.00000000E+00  0.00000000E+00  0.00000000E+00
  0.00000000E+00  0.00000000E+00  0.00000000E+00
  0.00000000E+00  0.00000000E+00  0.00000000E+00
  0.00000000E+00  0.00000000E+00  0.00000000E+00
  0.00000000E+00  0.00000000E+00  0.00000000E+00
  0.00000000E+00  0.00000000E+00  0.00000000E+00
  0.00000000E+00  0.00000000E+00  0.00000000E+00
  0.00000000E+00  0.00000000E+00  0.00000000E+00
  0.00000000E+00  0.00000000E+00  0.00000000E+00
  0.00000000E+00  0.00000000E+00  0.00000000E+00
  0.00000000E+00  0.00000000E+00  0.00000000E+00
  0.00000000E+00  0.00000000E+00  0.00000000E+00
  0.00000000E+00  0.00000000E+00  0.00000000E+00
  0.00000000E+00  0.00000000E+00  0.00000000E+00
  0.00000000E+00  0.00000000E+00  0.00000000E+00
  0.00000000E+00  0.00000000E+00  0.00000000E+00
  0.00000000E+00  0.00000000E+00  0.00000000E+00
  0.00000000E+00  0.00000000E+00  0.00000000E+00
  0.00000000E+00  0.00000000E+00  0.00000000E+00
  0.00000000E+00  0.00000000E+00  0.00000000E+00
  0.00000000E+00  0.00000000E+00  0.00000000E+00
  0.00000000E+00  0.00000000E+00  0.00000000E+00
  0.00000000E+00  0.00000000E+00  0.00000000E+00
  0.00000000E+00  0.00000000E+00  0.00000000E+00
  0.00000000E+00  0.00000000E+00  0.00000000E+00
  0.00000000E+00  0.00000000E+00  0.00000000E+00
  0.00000000E+00  0.00000000E+00  0.00000000E+00
  0.00000000E+00  0.00000000E+00  0.00000000E+00
  0.00000000E+00  0.00000000E+00  0.00000000E+00
  0.00000000E+00  0.00000000E+00  0.00000000E+00
  0.00000000E+00  0.00000000E+00  0.00000000E+00
  0.00000000E+00  0.00000000E+00  0.00000000E+00
  0.00000000E+00  0.00000000E+00  0.00000000E+00
  0.00000000E+00  0.00000000E+00  0.00000000E+00
  0.00000000E+00  0.00000000E+00  0.00000000E+00
  0.00000000E+00  0.00000000E+00  0.00000000E+00
  0.00000000E+00  0.00000000E+00  0.00000000E+00
  0.00000000E+00  0.00000000E+00  0.00000000E+00
  0.00000000E+00  0.00000000E+00  0.00000000E+00
  0.00000000E+00  0.00000000E+00  0.00000000E+00
  0.00000000E+00  0.00000000E+00  0.00000000E+00
  0.00000000E+00  0.00000000E+00  0.00000000E+00
  0.00000000E+00  0.00000000E+00  0.00000000E+00
  0.00000000E+00  0.00000000E+00  0.00000000E+00
  0.00000000E+00  0.00000000E+00  0.00000000E+00
  0.00000000E+00  0.00000000E+00  0.00000000E+00
  0.00000000E+00  0.00000000E+00  0.00000000E+00
  0.00000000E+00  0.00000000E+00  0.00000000E+00
  0.00000000E+00  0.00000000E+00  0.00000000E+00
  0.00000000E+00  0.00000000E+00  0.00000000E+00
  0.00000000E+00  0.00000000E+00  0.00000000E+00
  0.00000000E+00  0.00000000E+00  0.00000000E+00
  0.00000000E+00  0.00000000E+00  0.00000000E+00
  0.00000000E+00  0.00000000E+00  0.00000000E+00
  0.00000000E+00  0.00000000E+00  0.00000000E+00
  0.00000000E+00  0.00000000E+00  0.00000000E+00
  0.00000000E+00  0.00000000E+00  0.00000000E+00
  0.00000000E+00  0.00000000E+00  0.00000000E+00
  0.00000000E+00  0.00000000E+00  0.00000000E+00
  0.00000000E+00  0.00000000E+00  0.00000000E+00
  0.00000000E+00  0.00000000E+00  0.00000000E+00
  0.00000000E+00  0.00000000E+00  0.00000000E+00
  0.00000000E+00  0.00000000E+00  0.00000000E+00
  0.00000000E+00  0.00000000E+00  0.00000000E+00
  0.00000000E+00  0.00000000E+00  0.00000000E+00
  0.00000000E+00  0.00000000E+00  0.00000000E+00
  0.00000000E+00  0.00000000E+00  0.00000000E+00
  0.00000000E+00  0.00000000E+00  0.00000000E+00
  0.00000000E+00  0.00000000E+00  0.00000000E+00
  0.00000000E+00  0.00000000E+00  0.00000000E+00
  0.00000000E+00  0.00000000E+00  0.00000000E+00
  0.00000000E+00  0.00000000E+00  0.00000000E+00
  0.00000000E+00  0.00000000E+00  0.00000000E+00
  0.00000000E+00  0.00000000E+00  0.00000000E+00
  0.00000000E+00  0.00000000E+00  0.00000000E+00
  0.00000000E+00  0.00000000E+00  0.00000000E+00
  0.00000000E+00  0.00000000E+00  0.00000000E+00
  0.00000000E+00  0.00000000E+00  0.00000000E+00
  0.00000000E+00  0.00000000E+00  0.00000000E+00
  0.00000000E+00  0.00000000E+00  0.00000000E+00
  0.00000000E+00  0.00000000E+00  0.00000000E+00
  0.00000000E+00  0.00000000E+00  0.00000000E+00
  0.00000000E+00  0.00000000E+00  0.00000000E+00
  0.00000000E+00  0.00000000E+00  0.00000000E+00
  0.00000000E+00  0.00000000E+00  0.00000000E+00
  0.00000000E+00  0.00000000E+00  0.00000000E+00
  0.00000000E+00  0.00000000E+00  0.00000000E+00
  0.00000000E+00  0.00000000E+00  0.00000000E+00
  0.00000000E+00  0.00000000E+00  0.00000000E+00
  0.00000000E+00  0.00000000E+00  0.00000000E+00
  0.00000000E+00  0.00000000E+00  0.00000000E+00
  0.00000000E+00  0.00000000E+00  0.00000000E+00
  0.00000000E+00  0.00000000E+00  0.00000000E+00
  0.00000000E+00  0.00000000E+00  0.00000000E+00
  0.00000000E+00  0.00000000E+00  0.00000000E+00
  0.00000000E+00  0.00000000E+00  0.00000000E+00
  0.00000000E+00  0.00000000E+00  0.00000000E+00
  0.00000000E+00  0.00000000E+00  0.00000000E+00
  0.00000000E+00  0.00000000E+00  0.00000000E+00
  0.00000000E+00  0.00000000E+00  0.00000000E+00
  0.00000000E+00  0.00000000E+00  0.00000000E+00
  0.00000000E+00  0.00000000E+00  0.00000000E+00
  0.00000000E+00  0.00000000E+00  0.00000000E+00
  0.00000000E+00  0.00000000E+00  0.00000000E+00
  0.00000000E+00  0.00000000E+00  0.00000000E+00
  0.00000000E+00  0.00000000E+00  0.00000000E+00
  0.00000000E+00  0.00000000E+00  0.00000000E+00
  0.00000000E+00  0.00000000E+00  0.00000000E+00
  0.00000000E+00  0.00000000E+00  0.00000000E+00
  0.00000000E+00  0.00000000E+00  0.00000000E+00
  0.00000000E+00  0.00000000E+00  0.00000000E+00
  0.00000000E+00  0.00000000E+00  0.00000000E+00
  0.00000000E+00  0.00000000E+00  0.00000000E+00
  0.00000000E+00  0.00000000E+00  0.00000000E+00
  0.00000000E+00  0.00000000E+00  0.00000000E+00
  0.00000000E+00  0.00000000E+00  0.00000000E+00
  0.00000000E+00  0.00000000E+00  0.00000000E+00
  0.00000000E+00  0.00000000E+00  0.00000000E+00
  0.00000000E+00  0.00000000E+00  0.00000000E+00
  0.00000000E+00  0.00000000E+00  0.00000000E+00
  0.00000000E+00  0.00000000E+00  0.00000000E+00
  0.00000000E+00  0.00000000E+00  0.00000000E+00
  0.00000000E+00  0.00000000E+00  0.00000000E+00
  0.00000000E+00  0.00000000E+00  0.00000000E+00
  0.00000000E+00  0.00000000E+00  0.00000000E+00
  0.00000000E+00  0.00000000E+00  0.00000000E+00
  0.00000000E+00  0.00000000E+00  0.00000000E+00
  0.00000000E+00  0.00000000E+00  0.00000000E+00
  0.00000000E+00  0.00000000E+00  0.00000000E+00
  0.00000000E+00  0.00000000E+00  0.00000000E+00
  0.00000000E+00  0.00000000E+00  0.00000000E+00
  0.00000000E+00  0.00000000E+00  0.00000000E+00
  0.00000000E+00  0.00000000E+00  0.00000000E+00
  0.00000000E+00  0.00000000E+00  0.00000000E+00
  0.00000000E+00  0.00000000E+00  0.00000000E+00
  0.00000000E+00  0.00000000E+00  0.00000000E+00
  0.00000000E+00  0.00000000E+00  0.00000000E+00
  0.00000000E+00  0.00000000E+00  0.00000000E+00
  0.00000000E+00  0.00000000E+00  0.00000000E+00
  0.00000000E+00  0.00000000E+00  0.00000000E+00
  0.00000000E+00  0.00000000E+00  0.00000000E+00
  0.00000000E+00  0.00000000E+00  0.00000000E+00
  0.00000000E+00  0.00000000E+00  0.00000000E+00
  0.00000000E+00  0.00000000E+00  0.00000000E+00
  0.00000000E+00  0.00000000E+00  0.00000000E+00
  0.00000000E+00  0.00000000E+00  0.00000000E+00
  0.00000000E+00  0.00000000E+00  0.00000000E+00
  0.00000000E+00  0.00000000E+00  0.00000000E+00
  0.00000000E+00  0.00000000E+00  0.00000000E+00
  0.00000000E+00  0.00000000E+00  0.00000000E+00
  0.00000000E+00  0.00000000E+00  0.00000000E+00
  0.00000000E+00  0.00000000E+00  0.00000000E+00
  0.00000000E+00  0.00000000E+00  0.00000000E+00
  0.00000000E+00  0.00000000E+00  0.00000000E+00
  0.00000000E+00  0.00000000E+00  0.00000000E+00
  0.00000000E+00  0.00000000E+00  0.00000000E+00
  0.00000000E+00  0.00000000E+00  0.00000000E+00
  0.00000000E+00  0.00000000E+00  0.00000000E+00
  0.00000000E+00  0.00000000E+00  0.00000000E+00
  0.00000000E+00  0.00000000E+00  0.00000000E+00
  0.00000000E+00  0.00000000E+00  0.00000000E+00
  0.00000000E+00  0.00000000E+00  0.00000000E+00
  0.00000000E+00  0.00000000E+00  0.00000000E+00
  0.00000000E+00  0.00000000E+00  0.00000000E+00
  0.00000000E+00  0.00000000E+00  0.00000000E+00
  0.00000000E+00  0.00000000E+00  0.00000000E+00
  0.00000000E+00  0.00000000E+00  0.00000000E+00
