Amorphous Sb                            
   1.00000000000000     
    20.1778869700586903    0.0000000000000000    0.0000000000000000
     0.0000000000000000   20.1778869700586903    0.0000000000000000
     0.0000000000000000    0.0000000000000000   20.1778869700586903
   Ge   Se
   150   150
Direct
  0.5154008914769055  0.6891683215140447  0.7878032893098313
  0.2115718300577835  0.4268989915734449  0.8027793809340568
  0.3864511264805108  0.3154255274686065  0.6076760523180418
  0.8254788360037416  0.0289093257593628  0.6505415490601337
  0.9003666658369148  0.6248378349054834  0.6650397380126480
  0.2222927031386414  0.7106998933752113  0.9275859538248322
  0.1195130408583456  0.1634576533216253  0.3630563566299726
  0.3297982855727259  0.6308827140331384  0.8055273534672689
  0.3534903018179300  0.8504435824285149  0.2204327229614261
  0.3685020648192941  0.0170408718903474  0.4210182331125773
  0.0099730646873417  0.0323231116143560  0.4553927225451931
  0.6062588642224936  0.3338516855959923  0.8502394336951420
  0.6041769416714298  0.4383777254214006  0.5885188096633553
  0.2554269005776978  0.0166326362107572  0.8612554086308927
  0.6801549974415696  0.9517568295314698  0.3948268427538774
  0.0403874289565517  0.7754798296573830  0.0829254221654052
  0.0475214126994574  0.7639482060773659  0.3335016194684589
  0.8166175239794143  0.3948229074645392  0.3575416678851487
  0.1075110389784053  0.4558389120284628  0.9664907091796958
  0.0575837213389013  0.9144324022693446  0.5044452184149838
  0.1498955828734590  0.8305839519441450  0.2005191544800154
  0.4311799340274950  0.7585533607923338  0.9575727917051443
  0.9824437836323929  0.1592290336933359  0.9364907792675640
  0.0338920538924634  0.0755480686556575  0.1293191424557104
  0.5522343833155908  0.3332910425587064  0.1876723526371028
  0.3749268659356866  0.1383533893307732  0.5831264247445906
  0.4367300840866307  0.7538316154392580  0.5224934266515893
  0.7995793721051631  0.9199581991900815  0.9995365837702360
  0.7582189396809248  0.5499780095886057  0.6038960331122549
  0.9519553035119940  0.7715410682524757  0.5853635470848485
  0.0837795117071494  0.3535416884992594  0.7487954236666033
  0.0347602878231118  0.1002053619753181  0.2564455188165061
  0.9008295718890834  0.4908834024624281  0.4842778642385352
  0.3987248646952453  0.4535418019944324  0.2782546655649706
  0.0338661271816503  0.5443879268369795  0.5866543466763844
  0.7498409921560147  0.6804391810553727  0.1864402207303017
  0.4474013168461193  0.4712594314016578  0.9196355389569382
  0.2729978647394433  0.0488905820411165  0.2287628729310913
  0.2515159027620690  0.3733765406085620  0.1326890552164285
  0.7441059961956149  0.3796473794484062  0.7721387057667218
  0.8410886560723512  0.8267452350989390  0.3790518480464121
  0.9197637512537382  0.1866241332680848  0.5606642272006678
  0.5941452387863734  0.8539744786844259  0.5236282442553066
  0.3743828787112549  0.9824439803970264  0.0945544161230509
  0.3503242291523680  0.6495684705688898  0.2133880208545218
  0.3990487375716039  0.4519824704742819  0.5043093209973101
  0.9026718964707260  0.7731914981249430  0.1783135661539167
  0.0361758141581363  0.3511556972156485  0.4060619526374072
  0.9906788902225484  0.7387322137767554  0.8028317623298217
  0.5513365953046422  0.0735767571621156  0.2959304529632452
  0.2599645038330696  0.4370902877101116  0.9519955613267914
  0.0521782992715089  0.2813888246822628  0.1520983135625216
  0.6255524391140751  0.7514398180527077  0.8083243994678616
  0.5774110812924973  0.2905128122994481  0.7319646293637432
  0.0542061469785209  0.5797157527482877  0.3525238091046614
  0.0322889878342781  0.9233732673405277  0.2187389181202706
  0.1905538481694758  0.5803878615545994  0.4542028286818638
  0.9514293914716907  0.3288464352581251  0.5899805889213349
  0.0989616053142996  0.0602589845599885  0.8243183983069580
  0.5189087331482709  0.4502946695716245  0.3360106510923034
  0.6873389186094063  0.1042243180911755  0.1526212867178256
  0.5312945459350923  0.6768265347375958  0.2038322485758651
  0.9240025189163001  0.6566581943813127  0.3276024652149406
  0.8585923125270317  0.0216089095463991  0.8372918295761281
  0.5621219840912594  0.8214425037269780  0.0061598081437455
  0.0689634040972834  0.3365594927935466  0.9311209769881869
  0.8229384817785449  0.8627965980277044  0.5331459551298324
  0.7426454100844360  0.7507519415258280  0.6828898592599348
  0.8233159325484906  0.2306761886251624  0.1555341539081405
  0.8345330507821146  0.3226237146229772  0.0373107108563277
  0.9496338604505645  0.4088773123036745  0.7441685771784335
  0.4078277725360514  0.1619567610247926  0.1649280374756231
  0.3595930005416416  0.5525295263702654  0.4333357846269383
  0.4904891349648095  0.8387166577303641  0.3714638174256479
  0.3300908297772739  0.4468667849897573  0.6575649219741485
  0.6846976445274928  0.9368014051306146  0.0925568377111945
  0.2477755454880227  0.2484919702776680  0.1758514943694097
  0.8713922923146878  0.0496392031802175  0.0652058887148977
  0.2596726329773310  0.8568612520324473  0.9262712744734146
  0.3583286069691029  0.2601949277375155  0.0269890713807219
  0.6457631574278272  0.9949124507758946  0.8824986772529269
  0.9688457671981495  0.5916227921068412  0.8428794080085450
  0.7943565853799581  0.4836852841348017  0.0636264869149887
  0.7699024275072629  0.5198919243981659  0.3524927038358417
  0.3521033787905643  0.0793313992133502  0.7086781471173967
  0.5976490593305405  0.1371347016023262  0.0306250590279595
  0.5423633796332643  0.6540078694052293  0.6159261621891334
  0.7569644324112026  0.3360364838496864  0.5190011729044629
  0.6548456372206397  0.5657826014343461  0.1684420410255127
  0.5219300620707000  0.2340521008088458  0.3494590089337097
  0.6076215971824426  0.1156831922783113  0.9006599588296487
  0.1112858281301368  0.1198275654967299  0.5790571154060936
  0.3010497168753100  0.5951729610231107  0.5989789814635237
  0.7585247997274659  0.0474509899230087  0.4829623422818120
  0.6653608411283436  0.9307180462982513  0.6139624214547510
  0.6853622326952203  0.7014213768633556  0.5196296942133971
  0.4232916449243596  0.9623483942121908  0.9332325528174096
  0.1629961754165950  0.4659340806120707  0.6473480162251845
  0.1589291577119769  0.7598940620770342  0.4687673731829293
  0.2048630488456587  0.1309075041964308  0.8374712964219354
  0.1088649660210414  0.4274134685136356  0.2345974250877014
  0.5312317670433758  0.2896512626136405  0.9428610054108666
  0.2366848257677005  0.5107712899518607  0.0837086499516823
  0.8738429997618823  0.0617549161003832  0.1998029773565090
  0.4415086178237242  0.8427073722384036  0.7109581016837061
  0.7236407334813726  0.7187421022758868  0.9741828179089880
  0.9881043833999024  0.4724392426514060  0.0120351235493867
  0.0589084935964510  0.6541064401416834  0.0363869696705481
  0.6910775530992479  0.1721654133912088  0.7267357831840212
  0.7101390587484212  0.9242226744021477  0.7949861455949618
  0.1118665893691838  0.8906205356057884  0.6822495743167305
  0.1616994489903814  0.9602069730895514  0.0612280374669635
  0.1565094818952217  0.9603586534439424  0.3649060169007299
  0.7430288801098484  0.1493622282460338  0.3125252002459003
  0.7438455338504687  0.8139855044714931  0.2939475250988353
  0.7312442335833621  0.6469748480230058  0.4006158557179604
  0.4101941606497461  0.2864414228933771  0.3016259741210840
  0.6814296992313610  0.5920014802398126  0.7322568399967547
  0.3078982778828305  0.2296493261259321  0.4571844823093454
  0.0827815287646416  0.9358972293530776  0.7972579212813217
  0.9213241251430703  0.4465093784307604  0.2031800872337482
  0.8361610891585152  0.2159356492090228  0.3788184482209965
  0.8049889442571374  0.6276056134869562  0.8207761365586038
  0.9539821333956552  0.9062357814835061  0.9499904036010708
  0.2179432583234157  0.4211443249611155  0.4017227330951921
  0.2282063399467473  0.7031641126659893  0.6748334466164747
  0.3812316003464318  0.9470383664954706  0.5426313673522948
  0.5521677097197943  0.8582639061201373  0.7824007615985814
  0.1578016950595036  0.1518442850591271  0.9853847474727114
  0.2790552973747288  0.8125126045435755  0.0631650684340057
  0.5500731440860505  0.5878749324211796  0.4283763583977985
  0.8954050199515849  0.7358487807781717  0.8963536666104955
  0.4616884062394037  0.1848105154664180  0.9293782078986269
  0.4446202122219833  0.5083376737703409  0.0953811195753762
  0.0556745243779812  0.7135212793953407  0.6323381211750747
  0.1755534028753187  0.6341157960983637  0.2020558912461772
  0.3007898165701944  0.2737049264492109  0.8062737489651415
  0.5405724190597736  0.0735916756544144  0.4830501972086607
  0.3625852330540691  0.7074616708244550  0.3441095007352433
  0.3105109021046331  0.8543035325853703  0.7208137400144019
  0.7210419417893954  0.3972729635017075  0.2196476278333473
  0.6029664976663901  0.4544036231874891  0.0336556664710983
  0.1801427814162072  0.9807912391321606  0.6144078701978565
  0.9099009596945001  0.2300086187205544  0.7564735947238430
  0.5801771437110501  0.2059771590687726  0.5553960789870446
  0.0923387596772156  0.2318972369254741  0.5104203037296123
  0.1372813405883681  0.6036365226849222  0.8268208669821439
  0.5331202262862725  0.8667872514534772  0.1788105372723895
  0.4370292993829774  0.4110658842667234  0.7454082690228850
  0.9080519047034371  0.4398536966862398  0.9164993026764108
  0.8649588131177485  0.1041319723848272  0.9176686872301927
  0.8587100926951176  0.9815638481795114  0.5129618993534023
  0.0749501320601974  0.7287053601443336  0.1980939190613664
  0.9418025587850007  0.4596191788137543  0.6245978581790124
  0.3265727645887828  0.7083025217160759  0.0051565346248427
  0.1252828680792797  0.0084698798595057  0.2478491391528628
  0.5747625448852737  0.4621109061241069  0.1601613050409745
  0.7054294918863340  0.0504122871336210  0.6026019273816052
  0.6063622256721340  0.2599178856880385  0.0303334633783051
  0.1309300543075578  0.0748508702947877  0.4622287130448442
  0.9303919014697880  0.8252723482046340  0.2891055134472334
  0.7605143827018697  0.0386434144776483  0.7694815860725155
  0.7937480772326648  0.7034589567011367  0.5802698679481948
  0.2910936415422785  0.7908305002254338  0.6160667390406678
  0.8717927942784298  0.6537204061600701  0.2116227992927594
  0.4742265360463074  0.1160945516694923  0.0286052331643491
  0.2868763620203825  0.1686783662518161  0.0901165997504837
  0.3782282635672031  0.8157398891318361  0.4288157494780917
  0.9468940780235439  0.0037678222465158  0.7555425425859746
  0.7082741766505569  0.2179214653754850  0.2146627667177002
  0.7094684455676785  0.0114260854082097  0.9890286119556233
  0.5654656528426375  0.1796949092728997  0.6816282442354982
  0.1491656039125922  0.0925565126702151  0.0955383540261033
  0.8805710602907916  0.4936122430306905  0.8094086401875985
  0.2042314712667129  0.3819624307806059  0.2834574464476585
  0.3258027116975925  0.3955207194336040  0.8499216447827711
  0.2692243944039528  0.7584870541687072  0.1789005660442991
  0.2813310607935962  0.9740488826156772  0.3348694348929031
  0.3395476665315409  0.5177281169361074  0.0126184990811091
  0.4012858747262850  0.0405589581282870  0.2072427928481239
  0.4546342177588956  0.2291185668283852  0.5379680166533203
  0.4233825950104389  0.3543765683792335  0.1982885427496900
  0.9517102295101197  0.0050458701476439  0.2799237472397136
  0.4170862537539866  0.8602725914840051  0.1125457450193478
  0.0990606545622733  0.4859517838039843  0.4217410880223397
  0.0659987862159879  0.4985760766398896  0.8532636039708150
  0.5304885284528739  0.4353134335061322  0.8276034677068429
  0.3030653969974680  0.9698422748518416  0.6498970491240550
  0.5291745474671068  0.1839902684003724  0.2343512036393583
  0.8968980449956411  0.5343504518412336  0.3522023080981296
  0.6074108483137149  0.5344662111166719  0.3301027000141389
  0.3418037044241892  0.2023954516910712  0.9123870416910749
  0.1789433318881477  0.9035275341157718  0.5179543407719681
  0.0147023447808181  0.2158995425683573  0.4140360337135371
  0.5412164554069584  0.9196757329825119  0.8931037773135205
  0.6065974084620367  0.9560934855673974  0.7269564166342748
  0.6948610547828306  0.4665620565266893  0.6842364189989123
  0.1568612764350917  0.8353176251255601  0.3273253793328961
  0.9104631191813425  0.3677505853799425  0.4377310760423584
  0.5461802997204079  0.7532233195725865  0.4471899878612966
  0.8508473316668882  0.3381033494897721  0.7115428027390780
  0.3144606604273160  0.6511666892807145  0.4870036443738032
  0.6756370546975802  0.2019644751958205  0.8488870505277559
  0.3015925136252259  0.1021888135600704  0.4857088842011735
  0.7782330522699441  0.8068004744206536  0.1748381090064674
  0.7632330906788376  0.5181014507827516  0.2186388000193014
  0.1472607386917375  0.6697596773147161  0.3691018632303786
  0.0314137989285942  0.8491684555803355  0.8674259391462713
  0.7955608633206739  0.4134641306564705  0.9520139986318521
  0.9919460377902743  0.0766909552492961  0.5727795604833000
  0.2620929339884327  0.9462976787199208  0.1504351455332890
  0.5539408679148834  0.5878561123005880  0.7255878021879872
  0.0072163316313439  0.8944306608827324  0.6188127111995415
  0.1283330860608983  0.2818116951173583  0.8418545526837535
  0.5186030890108283  0.3696144500646801  0.6551450421043309
  0.2831363259947623  0.2498039154851696  0.5776415209195239
  0.2671605339189111  0.9763602978083000  0.9768080109041735
  0.7810211574298946  0.1391684116116843  0.0757367947811467
  0.8746041227690695  0.6180196751294255  0.9302667485789209
  0.8988938556284425  0.1741548680498062  0.2378309573356914
  0.5180357200587388  0.4661395047144147  0.4620098468422689
  0.5806953467564155  0.3464317000180550  0.3098003908289153
  0.6439545812919382  0.5856112158771536  0.5547826655622701
  0.6867436168260964  0.7021937821795753  0.2978227042010855
  0.4481145603188449  0.7610753503090434  0.2658882292006064
  0.1209928168346490  0.7730118564646573  0.7199701042193383
  0.7771007038709218  0.7505607195781342  0.8622261057387638
  0.5863917442045687  0.7628681770980200  0.1280534136269542
  0.9026398010720099  0.7508901012674664  0.7056406786449865
  0.0758932599061963  0.2476776538742600  0.0163274134013214
  0.8448431382459725  0.9088716564675674  0.8780332706248954
  0.6972825419743269  0.8439213235702350  0.9948554840282189
  0.7625593633956609  0.0424281387513646  0.2517158452576491
  0.2483169594659100  0.5233254228296713  0.7259375551051073
  0.7735604417935008  0.4707587017914899  0.4980518920123978
  0.4086689822930026  0.2852106890130713  0.7373575952176941
  0.0085734663354742  0.9597622801080070  0.1010246427247285
  0.4379409994618837  0.6029591655701853  0.3538495626108946
  0.1375200283950657  0.2175358291830417  0.2181381080381828
  0.0359571294386331  0.7970224098205728  0.4653306098786297
  0.7418488741453810  0.3049481014619603  0.3934765536580553
  0.4388845804493312  0.7199515307596824  0.6995294335303280
  0.6495686349794354  0.8864228631718672  0.2892118281753776
  0.3822581141598029  0.8515031302775894  0.8853370705062921
  0.1515254018155130  0.8173815448717132  0.0368174540962230
  0.8126646308839657  0.1664822028887343  0.4941152567101071
  0.7141977206663949  0.8464765009193616  0.4655664239425836
  0.0129217763533064  0.2638183036476016  0.6849192489349550
  0.6997044356376760  0.5714538538501258  0.8504297677418331
  0.2518693371655247  0.3272627658589859  0.0142496619241133
  0.4377328433468772  0.6557197147389909  0.8791399627301330
  0.0684419811155043  0.6706093752272282  0.9141077074162025
  0.5645336925784009  0.9446465205523638  0.0838047392528889
  0.4583648126097395  0.3709464257765928  0.9949295895457528
  0.9086738139985696  0.7989594523437289  0.9984365070920683
  0.6390561662703698  0.1279248365828001  0.3724771076609078
  0.2412114906575531  0.5843967141776767  0.8950905183301541
  0.2485158330195013  0.4841366107206228  0.5548370171203845
  0.5036412171100778  0.1203521022876657  0.8390328807855622
  0.4124824411062030  0.5339562142244679  0.6063594626523340
  0.2062255895114275  0.9103279782654435  0.8178492698614023
  0.0650554954760784  0.0623888414062085  0.9417590367256430
  0.2647082799419410  0.5324967291521028  0.3600410510653149
  0.9552993441046143  0.1449731254169348  0.0627957289514808
  0.2067207224126259  0.3532569473966134  0.6957121033554168
  0.3235592427874713  0.2041483248787454  0.2661240673094912
  0.2711640568389423  0.7398905361556328  0.8081609171486919
  0.8413526444982877  0.7041881793876731  0.4110672464552297
  0.0802911958872352  0.5444284005268096  0.2292677692242360
  0.9713119147952523  0.5756615974356277  0.0701510101273293
  0.1831279333267219  0.2547523990515414  0.4275698792001142
  0.2485004673184970  0.1431473316094313  0.7232422534686520
  0.9517216998566107  0.3289040778409866  0.8899644286901772
  0.8427822832189207  0.3525078302704415  0.2439048796962026
  0.5603692811799960  0.9547535365024008  0.4385682436392532
  0.6891915074016780  0.5517233751008109  0.0456087847368971
  0.3703419923834531  0.0147760075938062  0.8273025790989995
  0.5193116442078214  0.5440284689941615  0.0002365887881605
  0.6299402193775661  0.3318387726312290  0.5247391748315547
  0.6220670022072139  0.7560677902009031  0.6255365858707334
  0.2830937449986989  0.5460596402004207  0.1928125919231225
  0.0661082121494099  0.3493840870719248  0.5367327191129705
  0.7721622425446976  0.8789075137985576  0.6534863907906534
  0.4371706219986863  0.6376155182285033  0.1262606870158918
  0.1743479549408540  0.6267987289441016  0.0738655308913874
  0.6055584090109885  0.7196220876449438  0.9278369756747291
  0.6939291019805305  0.2966724432684201  0.6907411624846832
  0.4688797195251090  0.8650610841678799  0.5886100304079286
  0.3580535317533212  0.3753682837710776  0.3703098803781040
  0.1466411922966679  0.6715145507311817  0.5644001651751056
  0.8501428199205060  0.1623087241243203  0.6619820366177800
  0.0074869920249819  0.3699807777923053  0.2615436648433854
  0.9388721339823852  0.3849312634388330  0.0866220923346938
  0.1241927809408677  0.3845232843780212  0.1213545979411414
  0.4628055547038026  0.1029046869175029  0.3861337321363146
  0.9446445080219871  0.6280779453626658  0.5456469501774942
  0.0068176131976285  0.1044084154197302  0.7565272223611131
  0.0297282522928748  0.6105659748038359  0.6978285621122987
  0.7340351621180468  0.3768714755093959  0.0959373951484434
  0.4606351980503356  0.0395111468908415  0.5739662478321408
 
  0.00000000E+00  0.00000000E+00  0.00000000E+00
  0.00000000E+00  0.00000000E+00  0.00000000E+00
  0.00000000E+00  0.00000000E+00  0.00000000E+00
  0.00000000E+00  0.00000000E+00  0.00000000E+00
  0.00000000E+00  0.00000000E+00  0.00000000E+00
  0.00000000E+00  0.00000000E+00  0.00000000E+00
  0.00000000E+00  0.00000000E+00  0.00000000E+00
  0.00000000E+00  0.00000000E+00  0.00000000E+00
  0.00000000E+00  0.00000000E+00  0.00000000E+00
  0.00000000E+00  0.00000000E+00  0.00000000E+00
  0.00000000E+00  0.00000000E+00  0.00000000E+00
  0.00000000E+00  0.00000000E+00  0.00000000E+00
  0.00000000E+00  0.00000000E+00  0.00000000E+00
  0.00000000E+00  0.00000000E+00  0.00000000E+00
  0.00000000E+00  0.00000000E+00  0.00000000E+00
  0.00000000E+00  0.00000000E+00  0.00000000E+00
  0.00000000E+00  0.00000000E+00  0.00000000E+00
  0.00000000E+00  0.00000000E+00  0.00000000E+00
  0.00000000E+00  0.00000000E+00  0.00000000E+00
  0.00000000E+00  0.00000000E+00  0.00000000E+00
  0.00000000E+00  0.00000000E+00  0.00000000E+00
  0.00000000E+00  0.00000000E+00  0.00000000E+00
  0.00000000E+00  0.00000000E+00  0.00000000E+00
  0.00000000E+00  0.00000000E+00  0.00000000E+00
  0.00000000E+00  0.00000000E+00  0.00000000E+00
  0.00000000E+00  0.00000000E+00  0.00000000E+00
  0.00000000E+00  0.00000000E+00  0.00000000E+00
  0.00000000E+00  0.00000000E+00  0.00000000E+00
  0.00000000E+00  0.00000000E+00  0.00000000E+00
  0.00000000E+00  0.00000000E+00  0.00000000E+00
  0.00000000E+00  0.00000000E+00  0.00000000E+00
  0.00000000E+00  0.00000000E+00  0.00000000E+00
  0.00000000E+00  0.00000000E+00  0.00000000E+00
  0.00000000E+00  0.00000000E+00  0.00000000E+00
  0.00000000E+00  0.00000000E+00  0.00000000E+00
  0.00000000E+00  0.00000000E+00  0.00000000E+00
  0.00000000E+00  0.00000000E+00  0.00000000E+00
  0.00000000E+00  0.00000000E+00  0.00000000E+00
  0.00000000E+00  0.00000000E+00  0.00000000E+00
  0.00000000E+00  0.00000000E+00  0.00000000E+00
  0.00000000E+00  0.00000000E+00  0.00000000E+00
  0.00000000E+00  0.00000000E+00  0.00000000E+00
  0.00000000E+00  0.00000000E+00  0.00000000E+00
  0.00000000E+00  0.00000000E+00  0.00000000E+00
  0.00000000E+00  0.00000000E+00  0.00000000E+00
  0.00000000E+00  0.00000000E+00  0.00000000E+00
  0.00000000E+00  0.00000000E+00  0.00000000E+00
  0.00000000E+00  0.00000000E+00  0.00000000E+00
  0.00000000E+00  0.00000000E+00  0.00000000E+00
  0.00000000E+00  0.00000000E+00  0.00000000E+00
  0.00000000E+00  0.00000000E+00  0.00000000E+00
  0.00000000E+00  0.00000000E+00  0.00000000E+00
  0.00000000E+00  0.00000000E+00  0.00000000E+00
  0.00000000E+00  0.00000000E+00  0.00000000E+00
  0.00000000E+00  0.00000000E+00  0.00000000E+00
  0.00000000E+00  0.00000000E+00  0.00000000E+00
  0.00000000E+00  0.00000000E+00  0.00000000E+00
  0.00000000E+00  0.00000000E+00  0.00000000E+00
  0.00000000E+00  0.00000000E+00  0.00000000E+00
  0.00000000E+00  0.00000000E+00  0.00000000E+00
  0.00000000E+00  0.00000000E+00  0.00000000E+00
  0.00000000E+00  0.00000000E+00  0.00000000E+00
  0.00000000E+00  0.00000000E+00  0.00000000E+00
  0.00000000E+00  0.00000000E+00  0.00000000E+00
  0.00000000E+00  0.00000000E+00  0.00000000E+00
  0.00000000E+00  0.00000000E+00  0.00000000E+00
  0.00000000E+00  0.00000000E+00  0.00000000E+00
  0.00000000E+00  0.00000000E+00  0.00000000E+00
  0.00000000E+00  0.00000000E+00  0.00000000E+00
  0.00000000E+00  0.00000000E+00  0.00000000E+00
  0.00000000E+00  0.00000000E+00  0.00000000E+00
  0.00000000E+00  0.00000000E+00  0.00000000E+00
  0.00000000E+00  0.00000000E+00  0.00000000E+00
  0.00000000E+00  0.00000000E+00  0.00000000E+00
  0.00000000E+00  0.00000000E+00  0.00000000E+00
  0.00000000E+00  0.00000000E+00  0.00000000E+00
  0.00000000E+00  0.00000000E+00  0.00000000E+00
  0.00000000E+00  0.00000000E+00  0.00000000E+00
  0.00000000E+00  0.00000000E+00  0.00000000E+00
  0.00000000E+00  0.00000000E+00  0.00000000E+00
  0.00000000E+00  0.00000000E+00  0.00000000E+00
  0.00000000E+00  0.00000000E+00  0.00000000E+00
  0.00000000E+00  0.00000000E+00  0.00000000E+00
  0.00000000E+00  0.00000000E+00  0.00000000E+00
  0.00000000E+00  0.00000000E+00  0.00000000E+00
  0.00000000E+00  0.00000000E+00  0.00000000E+00
  0.00000000E+00  0.00000000E+00  0.00000000E+00
  0.00000000E+00  0.00000000E+00  0.00000000E+00
  0.00000000E+00  0.00000000E+00  0.00000000E+00
  0.00000000E+00  0.00000000E+00  0.00000000E+00
  0.00000000E+00  0.00000000E+00  0.00000000E+00
  0.00000000E+00  0.00000000E+00  0.00000000E+00
  0.00000000E+00  0.00000000E+00  0.00000000E+00
  0.00000000E+00  0.00000000E+00  0.00000000E+00
  0.00000000E+00  0.00000000E+00  0.00000000E+00
  0.00000000E+00  0.00000000E+00  0.00000000E+00
  0.00000000E+00  0.00000000E+00  0.00000000E+00
  0.00000000E+00  0.00000000E+00  0.00000000E+00
  0.00000000E+00  0.00000000E+00  0.00000000E+00
  0.00000000E+00  0.00000000E+00  0.00000000E+00
  0.00000000E+00  0.00000000E+00  0.00000000E+00
  0.00000000E+00  0.00000000E+00  0.00000000E+00
  0.00000000E+00  0.00000000E+00  0.00000000E+00
  0.00000000E+00  0.00000000E+00  0.00000000E+00
  0.00000000E+00  0.00000000E+00  0.00000000E+00
  0.00000000E+00  0.00000000E+00  0.00000000E+00
  0.00000000E+00  0.00000000E+00  0.00000000E+00
  0.00000000E+00  0.00000000E+00  0.00000000E+00
  0.00000000E+00  0.00000000E+00  0.00000000E+00
  0.00000000E+00  0.00000000E+00  0.00000000E+00
  0.00000000E+00  0.00000000E+00  0.00000000E+00
  0.00000000E+00  0.00000000E+00  0.00000000E+00
  0.00000000E+00  0.00000000E+00  0.00000000E+00
  0.00000000E+00  0.00000000E+00  0.00000000E+00
  0.00000000E+00  0.00000000E+00  0.00000000E+00
  0.00000000E+00  0.00000000E+00  0.00000000E+00
  0.00000000E+00  0.00000000E+00  0.00000000E+00
  0.00000000E+00  0.00000000E+00  0.00000000E+00
  0.00000000E+00  0.00000000E+00  0.00000000E+00
  0.00000000E+00  0.00000000E+00  0.00000000E+00
  0.00000000E+00  0.00000000E+00  0.00000000E+00
  0.00000000E+00  0.00000000E+00  0.00000000E+00
  0.00000000E+00  0.00000000E+00  0.00000000E+00
  0.00000000E+00  0.00000000E+00  0.00000000E+00
  0.00000000E+00  0.00000000E+00  0.00000000E+00
  0.00000000E+00  0.00000000E+00  0.00000000E+00
  0.00000000E+00  0.00000000E+00  0.00000000E+00
  0.00000000E+00  0.00000000E+00  0.00000000E+00
  0.00000000E+00  0.00000000E+00  0.00000000E+00
  0.00000000E+00  0.00000000E+00  0.00000000E+00
  0.00000000E+00  0.00000000E+00  0.00000000E+00
  0.00000000E+00  0.00000000E+00  0.00000000E+00
  0.00000000E+00  0.00000000E+00  0.00000000E+00
  0.00000000E+00  0.00000000E+00  0.00000000E+00
  0.00000000E+00  0.00000000E+00  0.00000000E+00
  0.00000000E+00  0.00000000E+00  0.00000000E+00
  0.00000000E+00  0.00000000E+00  0.00000000E+00
  0.00000000E+00  0.00000000E+00  0.00000000E+00
  0.00000000E+00  0.00000000E+00  0.00000000E+00
  0.00000000E+00  0.00000000E+00  0.00000000E+00
  0.00000000E+00  0.00000000E+00  0.00000000E+00
  0.00000000E+00  0.00000000E+00  0.00000000E+00
  0.00000000E+00  0.00000000E+00  0.00000000E+00
  0.00000000E+00  0.00000000E+00  0.00000000E+00
  0.00000000E+00  0.00000000E+00  0.00000000E+00
  0.00000000E+00  0.00000000E+00  0.00000000E+00
  0.00000000E+00  0.00000000E+00  0.00000000E+00
  0.00000000E+00  0.00000000E+00  0.00000000E+00
  0.00000000E+00  0.00000000E+00  0.00000000E+00
  0.00000000E+00  0.00000000E+00  0.00000000E+00
  0.00000000E+00  0.00000000E+00  0.00000000E+00
  0.00000000E+00  0.00000000E+00  0.00000000E+00
  0.00000000E+00  0.00000000E+00  0.00000000E+00
  0.00000000E+00  0.00000000E+00  0.00000000E+00
  0.00000000E+00  0.00000000E+00  0.00000000E+00
  0.00000000E+00  0.00000000E+00  0.00000000E+00
  0.00000000E+00  0.00000000E+00  0.00000000E+00
  0.00000000E+00  0.00000000E+00  0.00000000E+00
  0.00000000E+00  0.00000000E+00  0.00000000E+00
  0.00000000E+00  0.00000000E+00  0.00000000E+00
  0.00000000E+00  0.00000000E+00  0.00000000E+00
  0.00000000E+00  0.00000000E+00  0.00000000E+00
  0.00000000E+00  0.00000000E+00  0.00000000E+00
  0.00000000E+00  0.00000000E+00  0.00000000E+00
  0.00000000E+00  0.00000000E+00  0.00000000E+00
  0.00000000E+00  0.00000000E+00  0.00000000E+00
  0.00000000E+00  0.00000000E+00  0.00000000E+00
  0.00000000E+00  0.00000000E+00  0.00000000E+00
  0.00000000E+00  0.00000000E+00  0.00000000E+00
  0.00000000E+00  0.00000000E+00  0.00000000E+00
  0.00000000E+00  0.00000000E+00  0.00000000E+00
  0.00000000E+00  0.00000000E+00  0.00000000E+00
  0.00000000E+00  0.00000000E+00  0.00000000E+00
  0.00000000E+00  0.00000000E+00  0.00000000E+00
  0.00000000E+00  0.00000000E+00  0.00000000E+00
  0.00000000E+00  0.00000000E+00  0.00000000E+00
  0.00000000E+00  0.00000000E+00  0.00000000E+00
  0.00000000E+00  0.00000000E+00  0.00000000E+00
  0.00000000E+00  0.00000000E+00  0.00000000E+00
  0.00000000E+00  0.00000000E+00  0.00000000E+00
  0.00000000E+00  0.00000000E+00  0.00000000E+00
  0.00000000E+00  0.00000000E+00  0.00000000E+00
  0.00000000E+00  0.00000000E+00  0.00000000E+00
  0.00000000E+00  0.00000000E+00  0.00000000E+00
  0.00000000E+00  0.00000000E+00  0.00000000E+00
  0.00000000E+00  0.00000000E+00  0.00000000E+00
  0.00000000E+00  0.00000000E+00  0.00000000E+00
  0.00000000E+00  0.00000000E+00  0.00000000E+00
  0.00000000E+00  0.00000000E+00  0.00000000E+00
  0.00000000E+00  0.00000000E+00  0.00000000E+00
  0.00000000E+00  0.00000000E+00  0.00000000E+00
  0.00000000E+00  0.00000000E+00  0.00000000E+00
  0.00000000E+00  0.00000000E+00  0.00000000E+00
  0.00000000E+00  0.00000000E+00  0.00000000E+00
  0.00000000E+00  0.00000000E+00  0.00000000E+00
  0.00000000E+00  0.00000000E+00  0.00000000E+00
  0.00000000E+00  0.00000000E+00  0.00000000E+00
  0.00000000E+00  0.00000000E+00  0.00000000E+00
  0.00000000E+00  0.00000000E+00  0.00000000E+00
  0.00000000E+00  0.00000000E+00  0.00000000E+00
  0.00000000E+00  0.00000000E+00  0.00000000E+00
  0.00000000E+00  0.00000000E+00  0.00000000E+00
  0.00000000E+00  0.00000000E+00  0.00000000E+00
  0.00000000E+00  0.00000000E+00  0.00000000E+00
  0.00000000E+00  0.00000000E+00  0.00000000E+00
  0.00000000E+00  0.00000000E+00  0.00000000E+00
  0.00000000E+00  0.00000000E+00  0.00000000E+00
  0.00000000E+00  0.00000000E+00  0.00000000E+00
  0.00000000E+00  0.00000000E+00  0.00000000E+00
  0.00000000E+00  0.00000000E+00  0.00000000E+00
  0.00000000E+00  0.00000000E+00  0.00000000E+00
  0.00000000E+00  0.00000000E+00  0.00000000E+00
  0.00000000E+00  0.00000000E+00  0.00000000E+00
  0.00000000E+00  0.00000000E+00  0.00000000E+00
  0.00000000E+00  0.00000000E+00  0.00000000E+00
  0.00000000E+00  0.00000000E+00  0.00000000E+00
  0.00000000E+00  0.00000000E+00  0.00000000E+00
  0.00000000E+00  0.00000000E+00  0.00000000E+00
  0.00000000E+00  0.00000000E+00  0.00000000E+00
  0.00000000E+00  0.00000000E+00  0.00000000E+00
  0.00000000E+00  0.00000000E+00  0.00000000E+00
  0.00000000E+00  0.00000000E+00  0.00000000E+00
  0.00000000E+00  0.00000000E+00  0.00000000E+00
  0.00000000E+00  0.00000000E+00  0.00000000E+00
  0.00000000E+00  0.00000000E+00  0.00000000E+00
  0.00000000E+00  0.00000000E+00  0.00000000E+00
  0.00000000E+00  0.00000000E+00  0.00000000E+00
  0.00000000E+00  0.00000000E+00  0.00000000E+00
  0.00000000E+00  0.00000000E+00  0.00000000E+00
  0.00000000E+00  0.00000000E+00  0.00000000E+00
  0.00000000E+00  0.00000000E+00  0.00000000E+00
  0.00000000E+00  0.00000000E+00  0.00000000E+00