Ni Ge Sb Te                             
   1.00000000000000     
    17.2137438798788708    0.0000000000000000    0.0000000000000000
     0.0000000000000000   17.2137438798788708    0.0000000000000000
     0.0000000000000000    0.0000000000000000   17.2137438798788708
   Ni   Ge   Sb   Te
     8    32    32    80
Direct
  0.3299665166790128  0.5833150797552586  0.8052126671043507
  0.3251538888949621  0.4308431601767351  0.6106093251198518
  0.6123423184657359  0.1734659660133889  0.7858981250312839
  0.1596993480717706  0.0240125941587943  0.1177104443918798
  0.0065697361643066  0.1375557891615365  0.5467716431188734
  0.0789717693602639  0.7776867740559809  0.0689611759728633
  0.6340716840886508  0.1549009090262950  0.6273746153457382
  0.4551931421401356  0.3571744951655538  0.2648990793574429
  0.2567436445188037  0.1190073616438811  0.1504963995713555
  0.0848395491373437  0.2030047431211326  0.9245096917673598
  0.3323059258959066  0.4224646315637963  0.2070278628389280
  0.1355864518104289  0.4001338275371278  0.0604669548344682
  0.9697661650869926  0.6847740725676036  0.2623781655770979
  0.2158486148606072  0.4261366194901703  0.5189148691809932
  0.5662193558847636  0.3345071906230922  0.3387038660234475
  0.5208664363064389  0.0939342882978180  0.5551822756175584
  0.4420061210630795  0.4474921854534042  0.3753737662787701
  0.8528912766016413  0.5406535731161080  0.9387845162731838
  0.9583761650348994  0.6932056472506275  0.8752123481402505
  0.9308973384466238  0.5719630660308838  0.5869462137342001
  0.6556374046978012  0.1601856959667496  0.0227604233032679
  0.7366119879768305  0.0881689495586885  0.5609508520225516
  0.9405996199149835  0.1041694393470184  0.4347862369053909
  0.8475786768954312  0.9032751651774288  0.9959529338473019
  0.1162302876514030  0.7297721323692058  0.9367653282851037
  0.8399146744873759  0.6018639463984677  0.7080361836217119
  0.6168529229291724  0.8825988777254083  0.1980991581434669
  0.8729793116251434  0.1450435267623091  0.7590702520171934
  0.7844687695310125  0.3097766542284185  0.8821519150009594
  0.9609729735634266  0.0285246967562496  0.6085925491493485
  0.2246392272644940  0.9821264177873770  0.3592655686070401
  0.6933839694543368  0.4980807943593069  0.9498062167472916
  0.0583213821799622  0.8459980237120732  0.6954745540436007
  0.5859568015549551  0.2933866316806138  0.0247434887485660
  0.2796160597110652  0.2466603915066096  0.7891056473702284
  0.6208678997508481  0.5789632225060087  0.6057415684163729
  0.7934683623831558  0.7134090069512530  0.4338001055767307
  0.0002321842649912  0.8491736208294405  0.9690756351378882
  0.9263093162649321  0.1403531115360750  0.0993653019405869
  0.0644864653573334  0.4137079939312283  0.4548582211947565
  0.3966787121653233  0.8637377608036056  0.4900536582428367
  0.7555284715221622  0.0165834752684785  0.2118190417755012
  0.9698752489131126  0.4812883545108664  0.0282077766960568
  0.8545995468893529  0.6976600138371636  0.0012176230195617
  0.0134091651361697  0.0840347934393180  0.8003344908366523
  0.7682216259625090  0.8473874067713304  0.3174737645757864
  0.2340088183378999  0.8162348164532837  0.5590808799317412
  0.2763970626520210  0.7012053030960439  0.7193300485671047
  0.6659799812364409  0.5028868834081045  0.2639302052743772
  0.1238177700887437  0.0673737488895637  0.4954193744468353
  0.3238718299308856  0.5357769456662776  0.9438834201698686
  0.1833751433617773  0.6131975944273612  0.8310029297746185
  0.5056466930158563  0.6516433636739372  0.9976625094249071
  0.4798669877071918  0.9146641383546636  0.0840216870265668
  0.0273621146593779  0.3330852378783084  0.6543609018378693
  0.0873017303354492  0.0332504601221818  0.2448533272106833
  0.5147775302406510  0.4637222538412506  0.1880593580524436
  0.2301060199923815  0.7835695549828663  0.0525201707393324
  0.2091465248879497  0.9486751433888653  0.9981694806689383
  0.3046630773678438  0.3661463385929692  0.9094978704454728
  0.4441725102601422  0.6055155861344821  0.4752220343282427
  0.9611435590359622  0.2652131914738969  0.3141650010229471
  0.8783522127348591  0.4760461207816862  0.1687544696365127
  0.0419161024409801  0.9372915705701174  0.4134653771330346
  0.0563588121597064  0.5382093322763822  0.2880845034805868
  0.4928411204224035  0.1342678375763225  0.8610590717976403
  0.7148413481520457  0.7546577338132189  0.8399546949074820
  0.5653709415922168  0.8532839588151352  0.5352602589240579
  0.2024309170920379  0.5819502006847858  0.2128892622924045
  0.2594903762765549  0.4347195914960364  0.3592815116108452
  0.4016622657845373  0.7066134845832611  0.8575953721699342
  0.6555952834972618  0.7460179296664147  0.0104774593879707
  0.9356122897891612  0.3144438516605110  0.9572914094931484
  0.3288440439259258  0.2908716708938552  0.3009136832494249
  0.0588565783384157  0.5076917030183243  0.6310567495907760
  0.2289498762310328  0.1357123997757768  0.8865725627240442
  0.7579150429516317  0.1750117623555963  0.1339407373659658
  0.1401930035050284  0.3644605445408141  0.8965347682218393
  0.2366056701355418  0.3058465426683627  0.6320541172294420
  0.7326805924686235  0.3604993292948245  0.0219751451772450
  0.5469334565505970  0.2706436855969860  0.6914759885056873
  0.1158425882604976  0.3727306958904963  0.2987523067011610
  0.7486660323045201  0.7205862061530183  0.2018848082433219
  0.6214231852471623  0.6458100211314894  0.4063714593643114
  0.9558104143745720  0.6746118903682696  0.4712125455212621
  0.0987413209857710  0.1556461513320411  0.0907052859133267
  0.9284927994731469  0.0624050995728514  0.2360168934491189
  0.3561539114395632  0.1402435953175410  0.0021282547019887
  0.9817340357517005  0.2861119019635237  0.4983841269991041
  0.1786176714473274  0.9424329583948705  0.6252048808200691
  0.7217162967622300  0.4447897128270605  0.7924608537310938
  0.4094430129241867  0.5945333456203175  0.2218440284853755
  0.3996272648565752  0.1557222494930817  0.7276277632071696
  0.5261888017544655  0.0762583538586348  0.1030048907300276
  0.8779427969141315  0.1748342959417724  0.6096435593215134
  0.4559832433150159  0.5124557703506170  0.7949114697832464
  0.8267844883791737  0.3485653296212168  0.3563946509925642
  0.7031801003013086  0.3391344358776945  0.2391010525781796
  0.3022329658453792  0.5658526726131990  0.5592182417862968
  0.7457729385831815  0.5575261874487301  0.1086746435454587
  0.2898469894137208  0.3410011384039333  0.0733722360266473
  0.1014911184037726  0.7128024808019895  0.6247112491589952
  0.5036874162142465  0.6945723491771452  0.6157720359774519
  0.5350100471658054  0.8544676897149597  0.9474737685414654
  0.7526222064253679  0.9136811714130919  0.8649050553260607
  0.8841893129793295  0.9871284008568268  0.7524112973606025
  0.1609663429122107  0.6001311757285009  0.3985650398424377
  0.7302363384984798  0.1400779006799575  0.8820162888100654
  0.6252904793219646  0.5868667408181421  0.7759819309764175
  0.3895659210749077  0.9825074662028810  0.9556938928449246
  0.6476277840843568  0.2515937235447229  0.5251795809515939
  0.8531647130054736  0.9641346917149382  0.4892956988030672
  0.7107677000646964  0.2603094320035340  0.7070272752869858
  0.1047275482546962  0.1448366793176728  0.6757535384153367
  0.9640841547818964  0.5501613547253470  0.8225573429970671
  0.8286142615473879  0.6160303307564107  0.3039571273033369
  0.6125315862885939  0.0084833627973420  0.4577119427933736
  0.3615354787023103  0.7303315303322753  0.4014575440705400
  0.3105392817854690  0.8415325032577826  0.8079707513988477
  0.4773832357339723  0.4411918692710317  0.6066191684442154
  0.1802168777518560  0.5562097014011299  0.0399299682783428
  0.1658721292200667  0.1491570839220392  0.3367302496389045
  0.2973432899943383  0.4652344767268493  0.7429310091932532
  0.2815868241711473  0.9696149364758303  0.1878475972857057
  0.5508387346537024  0.7494298941575402  0.7811635959149086
  0.4929682231799533  0.7145467016321794  0.1527556843612256
  0.0557822090930998  0.9187466923740115  0.0905166362705958
  0.5343954171072975  0.2705344519949287  0.1646006815209387
  0.4906283227263135  0.9652609393945853  0.6517637951895631
  0.7581036275542730  0.6756867321249335  0.5864027219098684
  0.5382009938041722  0.3025868035829959  0.8683974751322572
  0.9423764588647578  0.3074757517975700  0.1430292951528837
  0.8962972815472759  0.7464708015815003  0.7395358146504640
  0.7054841158902788  0.9452238185293538  0.0692069153751325
  0.9837125563227517  0.8480606867503123  0.5394722956586492
  0.1276480339600624  0.8695351785984712  0.8552566145820031
  0.9262396893745710  0.3231327386315553  0.7748624215922254
  0.1549740289758199  0.7378718739840657  0.1984533430860914
  0.9379989043227268  0.8344831932479538  0.2893199937895521
  0.5230256341004264  0.4713953081689741  0.0101104855138416
  0.6285447401078579  0.0499016874158524  0.7185963750774509
  0.5903821587296283  0.8025510284199107  0.3694182652593170
  0.5513732232547489  0.1919456786630537  0.4139277403046175
  0.7876454123157696  0.1134482068690093  0.4051240507858866
  0.8995725943047241  0.0498019350587350  0.9659759748464616
  0.5887407679171359  0.4568449054307818  0.4382122190571490
  0.9167705480397871  0.5120168435364340  0.4353224376080808
  0.5913446550267927  0.0312544341563441  0.2589894342414994
  0.9812653543145865  0.6709702298083019  0.1063527357901555
  0.3837843445778317  0.3461967986573487  0.5030502236355776
  0.1736471696663918  0.8308517910441972  0.3901354492991859
  0.3844225272951743  0.9926894754341460  0.3850243155421274
 
 -0.11000566E-02 -0.36810587E-02 -0.37374729E-02
 -0.20154837E-04  0.12566393E-02 -0.21214442E-02
 -0.30359251E-02  0.16335194E-02 -0.23507420E-02
 -0.65787196E-03 -0.19861270E-03  0.15495182E-02
  0.22077566E-03 -0.20738060E-02 -0.19084089E-02
  0.12128403E-02 -0.25546747E-02 -0.32068477E-02
  0.26603702E-02  0.24038942E-02  0.32170968E-02
  0.44609461E-03 -0.31489978E-02 -0.26992097E-02
  0.11468559E-02 -0.96282952E-04 -0.12382917E-02
  0.11353861E-02 -0.24609030E-02 -0.22046718E-02
  0.21376731E-02  0.33811064E-02  0.19742852E-02
  0.39948932E-03 -0.17895340E-02 -0.57547692E-03
 -0.18616416E-02 -0.24779786E-03 -0.16940441E-02
  0.35722587E-02  0.25511287E-02  0.12369452E-02
 -0.58006952E-03 -0.20100548E-02  0.10532384E-04
 -0.14600338E-02 -0.29781663E-02 -0.30032527E-02
  0.54349660E-03 -0.12895413E-02 -0.10418147E-02
  0.12712592E-03  0.25101885E-02 -0.17929736E-02
 -0.28723230E-02  0.33260225E-03 -0.42432567E-02
  0.30973367E-03  0.20475912E-02  0.94274730E-03
  0.19524153E-03  0.10941257E-02 -0.76645287E-03
  0.10539928E-02 -0.29554568E-02 -0.23397367E-02
  0.12198938E-02  0.30031781E-02  0.85667689E-03
  0.14045299E-02  0.15708592E-02 -0.13158940E-02
  0.14046857E-02 -0.84059664E-03  0.32417031E-02
  0.49376934E-03 -0.68958357E-03  0.11912436E-02
 -0.23617410E-02  0.31983442E-03  0.46956176E-02
  0.26060175E-02  0.28870969E-03 -0.46785383E-02
 -0.11682477E-02 -0.23612321E-02  0.26865786E-02
  0.11597740E-02  0.16783900E-02  0.79008434E-03
  0.21441015E-02 -0.19708086E-02  0.19907373E-02
  0.40675471E-03  0.36629938E-03  0.25151920E-03
 -0.84481667E-03 -0.29068132E-02  0.56510342E-03
  0.92611530E-03  0.34775009E-03 -0.90291262E-03
  0.33276370E-02  0.79447784E-03  0.61374453E-03
  0.57164535E-02  0.22775065E-02 -0.18084087E-03
  0.26676797E-02  0.63029287E-02  0.97620775E-03
 -0.26796372E-02  0.11092553E-02 -0.37012913E-02
  0.78444004E-03  0.17063070E-02  0.23928946E-03
  0.10265564E-02  0.33942509E-02  0.91672296E-03
  0.13167595E-02 -0.88964354E-03  0.19709349E-02
  0.10047234E-02 -0.12502569E-02 -0.14646008E-02
 -0.70531975E-03 -0.78978676E-03  0.16264366E-02
  0.19820471E-02 -0.49313271E-03 -0.19170442E-02
 -0.25417352E-02 -0.14321333E-03  0.11980426E-02
  0.97304708E-03  0.46840481E-03 -0.79037793E-03
  0.32595379E-02  0.40514318E-04  0.10205494E-02
 -0.26835928E-02  0.33129697E-03  0.73858187E-03
  0.61606279E-03 -0.16194411E-02 -0.15544307E-02
 -0.22421051E-02  0.85469561E-03  0.11029291E-02
 -0.43153590E-03 -0.38473504E-03  0.31983632E-03
  0.18676433E-02  0.13249591E-02  0.28650074E-02
 -0.14275168E-03  0.67336776E-03 -0.88047545E-04
  0.38492761E-03  0.23125322E-02  0.18625100E-02
  0.41871935E-03 -0.13461913E-02 -0.66199086E-03
  0.70128271E-03  0.99051613E-03  0.21860049E-02
  0.10390589E-02 -0.83045609E-03 -0.10190541E-02
 -0.18275227E-02  0.17830358E-03 -0.13977346E-02
 -0.17268792E-02 -0.17118090E-02  0.18211305E-02
 -0.73337314E-04 -0.29572163E-02  0.28564868E-02
 -0.13331709E-02 -0.15544315E-02 -0.80726631E-03
  0.27002099E-03  0.46729583E-03 -0.11345924E-02
  0.37879352E-04  0.14567774E-02  0.20601789E-02
 -0.13033292E-02  0.44297713E-03  0.10259779E-02
  0.12709636E-03  0.20412896E-02  0.72743941E-03
  0.11374327E-02 -0.13557792E-02 -0.55280119E-03
  0.14207414E-02 -0.60120584E-03 -0.29033201E-02
  0.23840022E-03  0.48646154E-03 -0.67639278E-03
  0.12371924E-02 -0.28408851E-02 -0.14759955E-02
  0.27092603E-03  0.15900851E-02  0.28951892E-03
  0.45627244E-04  0.44452844E-04  0.18018372E-03
  0.55857853E-04  0.88268748E-03  0.20121562E-02
  0.99632759E-03 -0.26272608E-03  0.14363396E-03
  0.12593176E-03  0.23423009E-03 -0.17302260E-02
  0.13286290E-02 -0.37762019E-05 -0.33894763E-02
  0.86629583E-03 -0.10915520E-03  0.14065769E-02
  0.55879562E-03 -0.65914175E-03  0.21829779E-02
 -0.16557803E-02  0.78284270E-03  0.28535669E-03
 -0.99842114E-03  0.39687827E-03  0.57977708E-03
 -0.17031886E-02  0.12470596E-02  0.48231561E-03
 -0.34786637E-02 -0.40065262E-03  0.15225748E-04
  0.18088770E-02 -0.19967528E-03  0.16340294E-02
 -0.10645103E-02 -0.73827770E-03 -0.22407230E-02
 -0.64907947E-03  0.16788275E-02 -0.15675826E-02
  0.54586679E-03 -0.36538592E-02  0.13811082E-02
 -0.17258448E-02  0.33865409E-03 -0.44262824E-03
 -0.15209268E-02  0.11576414E-02 -0.28729815E-04
 -0.15625363E-02  0.82375298E-03  0.27839118E-02
  0.27743721E-03 -0.21665556E-03 -0.26187276E-02
  0.14058122E-03  0.75415941E-03  0.11801913E-02
 -0.31954107E-03 -0.21223786E-03  0.12689414E-02
  0.96095292E-03  0.19813973E-02  0.15418939E-02
 -0.27167298E-02  0.11613545E-02 -0.14203052E-03
  0.91083875E-03  0.50581294E-03 -0.25635664E-02
 -0.95054086E-03  0.59910833E-03  0.19329499E-02
 -0.15444707E-03  0.77342894E-03 -0.18841797E-02
  0.57321115E-03  0.14275473E-02  0.73906023E-03
 -0.10054331E-02  0.21680826E-02  0.52788817E-03
 -0.12110397E-02  0.19415579E-02 -0.66053657E-03
  0.18790592E-02 -0.13938344E-03  0.22409403E-03
 -0.16218274E-02 -0.13618083E-02  0.11661986E-02
  0.14516896E-02 -0.20333236E-03  0.30321212E-02
  0.62735102E-03  0.23030839E-02 -0.36028098E-02
 -0.38217643E-03  0.12988562E-03 -0.55175034E-03
 -0.14040163E-02  0.35323057E-03 -0.23641322E-03
 -0.33807833E-02  0.39149844E-04 -0.18819114E-02
 -0.11493618E-02 -0.11647979E-02 -0.34916879E-03
  0.79556427E-03  0.10731307E-02 -0.29082207E-02
 -0.11931036E-02 -0.28181819E-03 -0.11952629E-02
 -0.27796741E-02  0.93265740E-04  0.25649074E-02
 -0.22627718E-03 -0.24729261E-02 -0.20679462E-02
  0.23584430E-02  0.85790895E-03 -0.15625256E-02
 -0.16155236E-02 -0.15263388E-02  0.10429303E-02
  0.87099379E-03 -0.80086385E-04  0.12210298E-02
  0.16261921E-03  0.44371928E-03  0.10288284E-02
  0.16122957E-02  0.23094348E-03 -0.77942733E-03
  0.10948224E-02 -0.92329767E-03  0.11199153E-02
 -0.82019256E-03  0.11935397E-02 -0.16642532E-02
 -0.95647073E-05 -0.23298967E-04 -0.85370559E-03
 -0.78048637E-03 -0.21111197E-02  0.53195727E-03
 -0.31085017E-03  0.59879604E-03 -0.18384160E-02
 -0.65477413E-03  0.99225245E-03  0.10347271E-02
 -0.11579683E-02  0.77391397E-03  0.18413176E-02
 -0.59131369E-03 -0.83904966E-03 -0.90498049E-03
  0.38254285E-03 -0.86042897E-03 -0.70010101E-03
 -0.11469735E-02 -0.66193938E-03  0.25886744E-02
 -0.77171984E-03 -0.42103616E-03 -0.10128250E-02
  0.14377655E-02 -0.54760487E-04  0.97650868E-03
  0.14094912E-03 -0.15656476E-02  0.49034672E-03
 -0.56546358E-03 -0.32117952E-03  0.17400274E-02
 -0.72853322E-03 -0.10876269E-02 -0.14707269E-02
  0.61243809E-03 -0.91815571E-04 -0.14131047E-02
  0.82866274E-03 -0.45918993E-03 -0.13412838E-02
 -0.78240646E-03 -0.12726765E-02 -0.15528282E-03
 -0.52433155E-03 -0.16000352E-03  0.17176037E-02
  0.27916888E-02 -0.10099619E-02 -0.89647561E-03
 -0.11713247E-02 -0.20090953E-02  0.13250045E-02
  0.67132867E-03 -0.92365398E-03 -0.47297726E-03
 -0.26385329E-02  0.99375499E-03  0.96731630E-03
  0.64347929E-03 -0.42308544E-03 -0.10960879E-02
  0.16504357E-02  0.17823823E-02 -0.57778503E-03
  0.25387728E-03 -0.15413872E-02  0.10650531E-03
  0.24181171E-02 -0.17269554E-02 -0.10346035E-02
  0.67926389E-03 -0.22888107E-03 -0.58235048E-03
 -0.16061082E-02 -0.82182950E-03  0.13881835E-02
  0.31083919E-03  0.85782217E-03 -0.28608243E-03
 -0.15840625E-02  0.17843002E-02  0.11678289E-02
 -0.39272372E-03 -0.10490506E-02  0.21407596E-03
  0.13177595E-02  0.68412058E-03  0.60887795E-03
  0.14362060E-02  0.22998127E-03  0.41905155E-03
  0.45137369E-03  0.84415049E-03  0.93629636E-03
 -0.94381930E-03 -0.14297405E-03  0.10528920E-02
 
           1
   3.00000000000000     
  0.10000000E+01  0.00000000E+00  0.00000000E+00  0.00000000E+00
  0.32977591E+00  0.58267725E+00  0.80456506E+00
  0.32515040E+00  0.43106090E+00  0.61024174E+00
  0.61181628E+00  0.17374901E+00  0.78549081E+00
  0.15958536E+00  0.23978180E-01  0.11797893E+00
  0.66079906E-02  0.13719646E+00  0.54644097E+00
  0.79181922E-01  0.77724412E+00  0.68405517E-01
  0.63453265E+00  0.15531744E+00  0.62793205E+00
  0.45527044E+00  0.35662886E+00  0.26443138E+00
  0.25694236E+00  0.11899068E+00  0.15028184E+00
  0.85036281E-01  0.20257834E+00  0.92412768E+00
  0.33267633E+00  0.42305049E+00  0.20736995E+00
  0.13565567E+00  0.39982375E+00  0.60367240E-01
  0.96944359E+00  0.68473114E+00  0.26208463E+00
  0.21646759E+00  0.42657866E+00  0.51912920E+00
  0.56611885E+00  0.33415890E+00  0.33870569E+00
  0.52061345E+00  0.93418253E-01  0.55466189E+00
  0.44210029E+00  0.44726874E+00  0.37519325E+00
  0.85291330E+00  0.54108852E+00  0.93847384E+00
  0.95787847E+00  0.69326328E+00  0.87447711E+00
  0.93095101E+00  0.57231786E+00  0.58710957E+00
  0.65567123E+00  0.16037528E+00  0.22627618E-01
  0.73679462E+00  0.87656849E-01  0.56054544E+00
  0.94081099E+00  0.10468981E+00  0.43493468E+00
  0.84782204E+00  0.90354735E+00  0.99572493E+00
  0.11647368E+00  0.72962648E+00  0.93732703E+00
  0.84000023E+00  0.60174446E+00  0.70824259E+00
  0.61644370E+00  0.88265430E+00  0.19891278E+00
  0.87343086E+00  0.14509355E+00  0.75825959E+00
  0.78426634E+00  0.30936752E+00  0.88261743E+00
  0.96117393E+00  0.28815516E-01  0.60872945E+00
  0.22501074E+00  0.98178493E+00  0.35961051E+00
  0.69345445E+00  0.49814426E+00  0.94984980E+00
  0.58174998E-01  0.84549435E+00  0.69557247E+00
  0.58611727E+00  0.29344689E+00  0.24587039E-01
  0.28019265E+00  0.24679805E+00  0.78921199E+00
  0.62185841E+00  0.57935785E+00  0.60571023E+00
  0.79393060E+00  0.71450113E+00  0.43396926E+00
  0.99976788E+00  0.84936582E+00  0.96843430E+00
  0.92644524E+00  0.14064877E+00  0.99406764E-01
  0.64664340E-01  0.41429613E+00  0.45501706E+00
  0.39690687E+00  0.86358361E+00  0.49039517E+00
  0.75570256E+00  0.16366840E-01  0.21156527E+00
  0.96975304E+00  0.48115151E+00  0.28489594E-01
  0.85494298E+00  0.69757457E+00  0.88545149E-03
  0.12968752E-01  0.84009978E-01  0.80054208E+00
  0.76839023E+00  0.84746857E+00  0.31733681E+00
  0.23457361E+00  0.81624184E+00  0.55925771E+00
  0.27593207E+00  0.70126271E+00  0.71945802E+00
  0.66608673E+00  0.50260628E+00  0.26366086E+00
  0.12342927E+00  0.67521844E-01  0.49561048E+00
  0.32379706E+00  0.53571028E+00  0.94393884E+00
  0.18369876E+00  0.61342717E+00  0.83149936E+00
  0.50562196E+00  0.65176004E+00  0.99764725E+00
  0.47993369E+00  0.91506484E+00  0.84344409E-01
  0.27434667E-01  0.33285198E+00  0.65424620E+00
  0.87423244E-01  0.33422090E-01  0.24523210E+00
  0.51495757E+00  0.46357836E+00  0.18788278E+00
  0.22978936E+00  0.78360045E+00  0.52277981E-01
  0.20884730E+00  0.94837853E+00  0.99848503E+00
  0.30465037E+00  0.36563393E+00  0.90999282E+00
  0.44394151E+00  0.60524625E+00  0.47508216E+00
  0.96119035E+00  0.26529416E+00  0.31396841E+00
  0.87835878E+00  0.47629854E+00  0.16911144E+00
  0.41690271E-01  0.93736833E+00  0.41364315E+00
  0.56380834E-01  0.53856303E+00  0.28821055E+00
  0.49303821E+00  0.13403292E+00  0.86096329E+00
  0.71508752E+00  0.75455356E+00  0.83945163E+00
  0.56541225E+00  0.85336825E+00  0.53514306E+00
  0.20264529E+00  0.58145795E+00  0.21263351E+00
  0.25953732E+00  0.43499511E+00  0.35933168E+00
  0.40167017E+00  0.70662119E+00  0.85762659E+00
  0.65560496E+00  0.74617088E+00  0.10826111E-01
  0.93578493E+00  0.31439833E+00  0.95731630E+00
  0.32886586E+00  0.29091226E+00  0.30061388E+00
  0.59086794E-01  0.50769105E+00  0.63046945E+00
  0.22909998E+00  0.13569349E+00  0.88681628E+00
  0.75801187E+00  0.17489755E+00  0.13431899E+00
  0.13990610E+00  0.36459619E+00  0.89658421E+00
  0.23643267E+00  0.30591531E+00  0.63215458E+00
  0.73238548E+00  0.36071541E+00  0.22058717E-01
  0.54633070E+00  0.27057426E+00  0.69147863E+00
  0.11615602E+00  0.37269610E+00  0.29903544E+00
  0.74848158E+00  0.72045828E+00  0.20149655E+00
  0.62131072E+00  0.64610092E+00  0.40609984E+00
  0.95590500E+00  0.67397878E+00  0.47145185E+00
  0.98442279E-01  0.15570483E+00  0.90628591E-01
  0.92822926E+00  0.62605687E-01  0.23601192E+00
  0.35588317E+00  0.14038633E+00  0.26106308E-02
  0.98178211E+00  0.28607436E+00  0.49793037E+00
  0.17864203E+00  0.94256363E+00  0.62540938E+00
  0.72166093E+00  0.44475294E+00  0.79268073E+00
  0.40960952E+00  0.59487667E+00  0.22211120E+00
  0.39915653E+00  0.15592348E+00  0.72760315E+00
  0.52634663E+00  0.76345997E-01  0.10256069E+00
  0.87777809E+00  0.17493811E+00  0.60997849E+00
  0.45595648E+00  0.51258978E+00  0.79458499E+00
  0.82688381E+00  0.34881268E+00  0.35652271E+00
  0.70300589E+00  0.33951011E+00  0.23919252E+00
  0.30202313E+00  0.56618909E+00  0.55910379E+00
  0.74609853E+00  0.55750204E+00  0.10871347E+00
  0.28956597E+00  0.34076517E+00  0.73574306E-01
  0.10174266E+00  0.71276725E+00  0.62523663E+00
  0.50379612E+00  0.69497141E+00  0.61514777E+00
  0.53494383E+00  0.85449020E+00  0.94737817E+00
  0.75237893E+00  0.91374238E+00  0.86486409E+00
  0.88360352E+00  0.98713518E+00  0.75208521E+00
  0.16076719E+00  0.59992935E+00  0.39850454E+00
  0.73037419E+00  0.14026384E+00  0.88151237E+00
  0.62508375E+00  0.58681791E+00  0.77577482E+00
  0.38908428E+00  0.98252363E+00  0.95613832E+00
  0.64758858E+00  0.25116523E+00  0.52482126E+00
  0.85357337E+00  0.96428334E+00  0.48902496E+00
  0.71048777E+00  0.26004496E+00  0.70720799E+00
  0.10487847E+00  0.14482280E+00  0.67596511E+00
  0.96411233E+00  0.55023824E+00  0.82273561E+00
  0.82889363E+00  0.61607035E+00  0.30382207E+00
  0.61272129E+00  0.83233805E-02  0.45790599E+00
  0.36139336E+00  0.73053834E+00  0.40116917E+00
  0.31053762E+00  0.84152847E+00  0.80782283E+00
  0.47724800E+00  0.44082607E+00  0.60671134E+00
  0.18016302E+00  0.55631346E+00  0.39611421E-01
  0.16575867E+00  0.14932901E+00  0.33690954E+00
  0.29714265E+00  0.46536857E+00  0.74325006E+00
  0.28148437E+00  0.96946955E+00  0.18769079E+00
  0.55090502E+00  0.74928081E+00  0.78104229E+00
  0.49276948E+00  0.71443201E+00  0.15320423E+00
  0.55648491E-01  0.91867374E+00  0.90341141E-01
  0.53464454E+00  0.27052496E+00  0.16476988E+00
  0.49065275E+00  0.96498966E+00  0.65184876E+00
  0.75800565E+00  0.67563108E+00  0.58670422E+00
  0.53807476E+00  0.30239835E+00  0.86814264E+00
  0.94248258E+00  0.30745984E+00  0.14278444E+00
  0.89644087E+00  0.74639124E+00  0.73930341E+00
  0.70534855E+00  0.94500330E+00  0.69180009E-01
  0.98362170E+00  0.84803296E+00  0.53976991E+00
  0.12813176E+00  0.86936018E+00  0.85510128E+00
  0.92603673E+00  0.32278462E+00  0.77509201E+00
  0.15509035E+00  0.73771183E+00  0.19837139E+00
  0.93754172E+00  0.83465538E+00  0.28948760E+00
  0.52313713E+00  0.47132200E+00  0.99205633E-02
  0.62883072E+00  0.50210526E-01  0.71849626E+00
  0.59042615E+00  0.80228395E+00  0.36943672E+00
  0.55179222E+00  0.19164644E+00  0.41374847E+00
  0.78776311E+00  0.11340855E+00  0.40502315E+00
  0.89929430E+00  0.49659534E-01  0.96621651E+00
  0.58879463E+00  0.45699354E+00  0.43816265E+00
  0.91649607E+00  0.51232601E+00  0.43552479E+00
  0.59127661E+00  0.31072662E-01  0.25902653E+00
  0.98149369E+00  0.67108877E+00  0.10645824E+00
  0.38403320E+00  0.34623665E+00  0.50312283E+00
  0.17372538E+00  0.83099806E+00  0.39029768E+00
  0.38425899E+00  0.99266470E+00  0.38520675E+00
 -0.20122751E-03 -0.70960251E-03 -0.66743016E-03
 -0.13766011E-04  0.23500954E-03 -0.34060581E-03
 -0.54615117E-03  0.25920439E-03 -0.42402042E-03
 -0.11789932E-03 -0.34573278E-04  0.27870529E-03
  0.27279736E-04 -0.38278612E-03 -0.34849265E-03
  0.19929733E-03 -0.40897115E-03 -0.55146442E-03
  0.47612712E-03  0.41002862E-03  0.56032013E-03
  0.84992605E-04 -0.56063440E-03 -0.45809373E-03
  0.19142281E-03 -0.34353661E-04 -0.21708361E-03
  0.18819986E-03 -0.43021585E-03 -0.38992628E-03
  0.36111342E-03  0.59295176E-03  0.33725405E-03
  0.68453047E-04 -0.31152198E-03 -0.88789498E-04
 -0.32207983E-03 -0.47017079E-04 -0.30615169E-03
  0.61767280E-03  0.43814843E-03  0.20831283E-03
 -0.10190166E-03 -0.33664791E-03  0.17617946E-05
 -0.26588052E-03 -0.51969143E-03 -0.53488470E-03
  0.10403348E-03 -0.21531824E-03 -0.17893584E-03
  0.19449373E-04  0.42764876E-03 -0.31359249E-03
 -0.51241359E-03  0.42632591E-04 -0.73905083E-03
  0.66973674E-04  0.35360203E-03  0.16657914E-03
  0.41371877E-04  0.19863309E-03 -0.12482871E-03
  0.18378740E-03 -0.50886641E-03 -0.38819371E-03
  0.20645444E-03  0.53217684E-03  0.16679282E-03
  0.24529907E-03  0.27023454E-03 -0.22386057E-03
  0.24825826E-03 -0.14587778E-03  0.56186561E-03
  0.85269850E-04 -0.11732556E-03  0.20546823E-03
 -0.41274991E-03  0.62385805E-04  0.81227471E-03
  0.46185702E-03  0.37263771E-04 -0.84282442E-03
 -0.20300050E-03 -0.39811818E-03  0.46805639E-03
  0.21091524E-03  0.31279246E-03  0.14288616E-03
  0.35484278E-03 -0.34883104E-03  0.36033103E-03
  0.65790455E-04  0.64274277E-04  0.48799885E-04
 -0.14090133E-03 -0.51174021E-03  0.10389256E-03
  0.15246629E-03  0.45397369E-04 -0.13179524E-03
  0.56514976E-03  0.13636530E-03  0.11676853E-03
  0.98667371E-03  0.37160640E-03 -0.38875408E-04
  0.46522144E-03  0.10941488E-02  0.16903220E-03
 -0.46347713E-03  0.20449147E-03 -0.62146759E-03
  0.13353387E-03  0.28928423E-03  0.51943948E-04
  0.17606598E-03  0.57333405E-03  0.15488487E-03
  0.22808860E-03 -0.16544978E-03  0.34093556E-03
  0.18097056E-03 -0.21771439E-03 -0.25236966E-03
 -0.11693165E-03 -0.13301416E-03  0.28168458E-03
  0.34632338E-03 -0.78309067E-04 -0.32559848E-03
 -0.44795049E-03 -0.30642851E-04  0.20098744E-03
  0.17268539E-03  0.89929862E-04 -0.13055959E-03
  0.56461694E-03  0.34138229E-04  0.19427885E-03
 -0.46367426E-03  0.56893280E-04  0.12756947E-03
  0.10956637E-03 -0.28332608E-03 -0.27075441E-03
 -0.39931873E-03  0.14804175E-03  0.19411492E-03
 -0.74465570E-04 -0.68628191E-04  0.49527925E-04
  0.32482518E-03  0.23159072E-03  0.49268311E-03
 -0.34840374E-04  0.12095297E-03 -0.23226270E-04
  0.69595337E-04  0.39976380E-03  0.30525266E-03
  0.56128040E-04 -0.23854078E-03 -0.11748534E-03
  0.10668952E-03  0.17552147E-03  0.37086077E-03
  0.18229642E-03 -0.14884740E-03 -0.17389994E-03
 -0.31632741E-03  0.32268915E-04 -0.23693917E-03
 -0.30195572E-03 -0.29135738E-03  0.30729143E-03
 -0.12886735E-04 -0.51912416E-03  0.50374775E-03
 -0.23331205E-03 -0.27460296E-03 -0.14338649E-03
  0.46714506E-04  0.80341566E-04 -0.19399682E-03
 -0.36826480E-05  0.25904406E-03  0.35918960E-03
 -0.22718696E-03  0.80109824E-04  0.18426459E-03
  0.21509937E-04  0.35143473E-03  0.12989680E-03
  0.19241170E-03 -0.24368177E-03 -0.95587494E-04
  0.24727548E-03 -0.99620998E-04 -0.51280555E-03
  0.42191214E-04  0.80741983E-04 -0.11276898E-03
  0.21269196E-03 -0.48555669E-03 -0.25665516E-03
  0.45144985E-04  0.26862783E-03  0.50286365E-04
  0.12784607E-04  0.43180949E-05  0.34709845E-04
  0.16475140E-04  0.15442591E-03  0.36079990E-03
  0.17065514E-03 -0.50886343E-04  0.19710959E-04
  0.16825323E-04  0.41555718E-04 -0.29780213E-03
  0.21566155E-03  0.14582498E-04 -0.58645004E-03
  0.15972064E-03 -0.12293111E-04  0.24273569E-03
  0.93303300E-04 -0.10844615E-03  0.37138959E-03
 -0.28234321E-03  0.13911197E-03  0.39826090E-04
 -0.17025870E-03  0.63390689E-04  0.10344802E-03
 -0.28979725E-03  0.21654498E-03  0.79084330E-04
 -0.60030722E-03 -0.66911314E-04  0.41301093E-05
  0.32217849E-03 -0.32992463E-04  0.28001705E-03
 -0.18292587E-03 -0.13688353E-03 -0.39587603E-03
 -0.11474460E-03  0.28663536E-03 -0.26749564E-03
  0.91317772E-04 -0.64011308E-03  0.23981333E-03
 -0.29801508E-03  0.58505363E-04 -0.69355842E-04
 -0.26029425E-03  0.19399926E-03 -0.87353719E-05
 -0.27170656E-03  0.14827353E-03  0.47477960E-03
  0.49112026E-04 -0.38299065E-04 -0.44216516E-03
  0.34596546E-04  0.10734913E-03  0.19053279E-03
 -0.52316839E-04 -0.38756984E-04  0.21867408E-03
  0.16259881E-03  0.34650881E-03  0.26854327E-03
 -0.46052825E-03  0.19637187E-03 -0.27880533E-04
  0.15910381E-03  0.80080959E-04 -0.44532808E-03
 -0.15846884E-03  0.10327730E-03  0.34137209E-03
 -0.29773331E-04  0.13817586E-03 -0.32268765E-03
  0.10179729E-03  0.24686457E-03  0.12626927E-03
 -0.17299701E-03  0.37523549E-03  0.84996407E-04
 -0.20183443E-03  0.33468088E-03 -0.11211584E-03
  0.33205711E-03 -0.21636884E-04  0.37660894E-04
 -0.28095431E-03 -0.22912075E-03  0.19656936E-03
  0.24021467E-03 -0.35614913E-04  0.52393431E-03
  0.11063825E-03  0.40725037E-03 -0.61280427E-03
 -0.75202840E-04  0.27293694E-04 -0.92455106E-04
 -0.24321257E-03  0.61336856E-04 -0.43836781E-04
 -0.58550291E-03  0.23012240E-04 -0.32350688E-03
 -0.19989879E-03 -0.19495611E-03 -0.54275068E-04
  0.14026608E-03  0.18163588E-03 -0.50389309E-03
 -0.21322833E-03 -0.44152777E-04 -0.20528353E-03
 -0.47355689E-03  0.12333667E-04  0.44731689E-03