In2O3 structure 2 - random placement wit
   1.00000000000000     
     7.9250302529801004   -0.0896007958959831    0.0005315262059376
    -0.0884643835872177    7.9235396538885432    0.0015971335885442
     0.0004239643861620    0.0013983830147879    8.0108163681179292
   In   Ga   O 
    14     2    24
Direct
  0.6830121737700835  0.6006638864566922  0.3578444264587980
  0.4394719632363761  0.8503872547014711  0.0844242278117318
  0.9651869066699963  0.8220295828797789  0.5832159686869961
  0.4640558850038168  0.3224292839702732  0.5850994539859850
  0.1809221232298154  0.1018963447440152  0.3519906401845515
  0.2146989194284226  0.5687722407718402  0.8553300203966842
  0.9616735584617672  0.3207240326390464  0.5846572668122679
  0.6867766599070776  0.1045462301174986  0.3516202248827014
  0.2200694460612983  0.0692882086992822  0.8521899346928469
  0.7186321423365647  0.5703460290303998  0.8574774502811470
  0.4365692255178161  0.3493924950787236  0.0832331532260710
  0.9368253801304526  0.8489542744295537  0.0848130300377472
  0.7141794536137852  0.0663829938311162  0.8511864129076510
  0.1860798429303971  0.6021042981833745  0.3551588666687836
  0.4600127088573795  0.8215498186591377  0.5767803183085395
  0.9406396475194044  0.3489965730674045  0.0769793757291223
  0.4283237995413227  0.5778849459410726  0.4815608206800467
  0.4683662708398703  0.4519995497009334  0.8237785858031983
  0.9288516787353746  0.0669314901744023  0.4711074001047643
  0.5682208527968091  0.8550273444023689  0.3259642931646465
  0.6853318020098815  0.8151142958078891  0.9762980813290355
  0.7155978221340075  0.3557760825131172  0.4771334028676911
  0.2323467785123361  0.8597434423920337  0.4742726829264967
  0.3432703210948511  0.8138895622402099  0.8040768227694237
  0.0749996848217032  0.5685704810406804  0.6200975072106819
  0.9725237760463505  0.5933030071218813  0.9813264046081392
  0.4299877250120696  0.2197028803175952  0.3203600397505722
  0.4721992050391980  0.1044219487034998  0.9708656033775186
  0.9333455208846135  0.7195799547154436  0.3236036651776696
  0.0569095992554817  0.3571104906944792  0.3043429007687743
  0.8334458549668725  0.3155360387773388  0.8265168841955830
  0.8336443549972895  0.1174069473753179  0.1173570267863933
  0.5669769503581472  0.0529611220716141  0.6171706943073899
  0.9712594347504903  0.9517730411094248  0.8203421000201607
  0.1687387201538992  0.3110628368076620  0.9749728300401114
  0.2145001938929612  0.2121725560488563  0.6186227827757624
  0.1864501578200061  0.9589754070865388  0.1188117252022246
  0.6938817973832695  0.4564144713776921  0.1234432807316493
  0.7080597453257380  0.7144303868101786  0.6231175457427326
  0.3260199685158338  0.6025960072094050  0.1202449763542192
 
  0.00000000E+00  0.00000000E+00  0.00000000E+00
  0.00000000E+00  0.00000000E+00  0.00000000E+00
  0.00000000E+00  0.00000000E+00  0.00000000E+00
  0.00000000E+00  0.00000000E+00  0.00000000E+00
  0.00000000E+00  0.00000000E+00  0.00000000E+00
  0.00000000E+00  0.00000000E+00  0.00000000E+00
  0.00000000E+00  0.00000000E+00  0.00000000E+00
  0.00000000E+00  0.00000000E+00  0.00000000E+00
  0.00000000E+00  0.00000000E+00  0.00000000E+00
  0.00000000E+00  0.00000000E+00  0.00000000E+00
  0.00000000E+00  0.00000000E+00  0.00000000E+00
  0.00000000E+00  0.00000000E+00  0.00000000E+00
  0.00000000E+00  0.00000000E+00  0.00000000E+00
  0.00000000E+00  0.00000000E+00  0.00000000E+00
  0.00000000E+00  0.00000000E+00  0.00000000E+00
  0.00000000E+00  0.00000000E+00  0.00000000E+00
  0.00000000E+00  0.00000000E+00  0.00000000E+00
  0.00000000E+00  0.00000000E+00  0.00000000E+00
  0.00000000E+00  0.00000000E+00  0.00000000E+00
  0.00000000E+00  0.00000000E+00  0.00000000E+00
  0.00000000E+00  0.00000000E+00  0.00000000E+00
  0.00000000E+00  0.00000000E+00  0.00000000E+00
  0.00000000E+00  0.00000000E+00  0.00000000E+00
  0.00000000E+00  0.00000000E+00  0.00000000E+00
  0.00000000E+00  0.00000000E+00  0.00000000E+00
  0.00000000E+00  0.00000000E+00  0.00000000E+00
  0.00000000E+00  0.00000000E+00  0.00000000E+00
  0.00000000E+00  0.00000000E+00  0.00000000E+00
  0.00000000E+00  0.00000000E+00  0.00000000E+00
  0.00000000E+00  0.00000000E+00  0.00000000E+00
  0.00000000E+00  0.00000000E+00  0.00000000E+00
  0.00000000E+00  0.00000000E+00  0.00000000E+00
  0.00000000E+00  0.00000000E+00  0.00000000E+00
  0.00000000E+00  0.00000000E+00  0.00000000E+00
  0.00000000E+00  0.00000000E+00  0.00000000E+00
  0.00000000E+00  0.00000000E+00  0.00000000E+00
  0.00000000E+00  0.00000000E+00  0.00000000E+00
  0.00000000E+00  0.00000000E+00  0.00000000E+00
  0.00000000E+00  0.00000000E+00  0.00000000E+00
  0.00000000E+00  0.00000000E+00  0.00000000E+00
