Ge Se                                   
   1.00000000000000     
    20.2740058898925781    0.0000000000000000    0.0000000000000000
     0.0000000000000000   20.2740058898925781    0.0000000000000000
     0.0000000000000000    0.0000000000000000   20.2740058898925781
   Ge   Se
   150   150
Direct
  0.4501064208122258  0.5292521518752835  0.3764206314563907
  0.1000420296296127  0.8061872599675866  0.3229601859937290
  0.0628162272918971  0.8560636107008435  0.0427571113381831
  0.2558471101258419  0.1578943551570191  0.6809380330078270
  0.6862795718147225  0.4548412973386675  0.3103476148311728
  0.8126483460458047  0.1697794518786253  0.8172530803925895
  0.6210549381788653  0.1380989270169337  0.5700366268435673
  0.4780855999949978  0.2606720827989975  0.2936003216938587
  0.6399120772345270  0.0920845463392581  0.7576225252819597
  0.9141960377332836  0.6353302674438694  0.7956507333661591
  0.3065429974518779  0.7277681543522476  0.6752988500652961
  0.1717618769187013  0.7277506853961313  0.1630623174638188
  0.7087931108448231  0.7869657857341608  0.5705801501982464
  0.4366783919417188  0.7133946151260915  0.3346338915271474
  0.3695133144113640  0.3424545503165817  0.7460693740777060
  0.4540686541875374  0.1764866886145100  0.5644393269187944
  0.3498829579085125  0.6462074214182394  0.9796659934052059
  0.5457922280047427  0.2487761081889630  0.9301267287202535
  0.2001952528143889  0.6572950526912464  0.5836681395697667
  0.0723085765098688  0.9190147969673959  0.4918679017700853
  0.6981386230813058  0.8885350496274782  0.9859364605075598
  0.8770939274833935  0.6287481338326941  0.6561677747638868
  0.7977558104490896  0.6740969179563407  0.4514335213740139
  0.7769876577654458  0.6375989103971307  0.0144263068023207
  0.5074318703845506  0.6204642103978841  0.1280674693470161
  0.3334492360890309  0.3944041988162823  0.3189183481642104
  0.1893525971308492  0.5288457891017657  0.5536264076426818
  0.9115295013930833  0.3954806378378493  0.1256204760854231
  0.4630767859264182  0.6563112782421001  0.9115170569702187
  0.2245389764028189  0.8001370161828447  0.7974266324073298
  0.8949600492941840  0.4312432703169051  0.3077097920088434
  0.9869561914755138  0.2592183585783516  0.2091415174061879
  0.7178286966860057  0.2595684310081197  0.7413915713647867
  0.4694610400717494  0.8078325451449757  0.7723133300012250
  0.6782222822012614  0.2750502344294929  0.2701971001418499
  0.9947722493226294  0.4273268262353156  0.8664194628780493
  0.0675161301363829  0.4733382388255620  0.2484529072665396
  0.7063521350461102  0.8161298351458584  0.1023666395403922
  0.2335246001218820  0.0383765292243936  0.8222118412848829
  0.5600880511491653  0.3488355347874617  0.6064346194089651
  0.5114047392613799  0.6265721021385957  0.7894821039112188
  0.2071149350717505  0.5428797877503513  0.8878267954795689
  0.3371302565542393  0.3164847376778042  0.4167201623794341
  0.5373780795493985  0.4837947211759897  0.6930800061119697
  0.5151967322131412  0.0014643703782227  0.0082323403049500
  0.6665759656953369  0.6112994484229617  0.6678879782621365
  0.2327988073918092  0.7694354863686428  0.3937456841696019
  0.9842194324022415  0.5931295844265279  0.9454585335941985
  0.7068578191248562  0.3170217616590278  0.5369200738231470
  0.6926210863591677  0.0699521042354405  0.4650097777076994
  0.1962560409211633  0.9573493705864848  0.9829364771215765
  0.2241057795608015  0.9996709812134554  0.6793335818850963
  0.5447258047857844  0.6399352280039707  0.0062640201323774
  0.5211372959210792  0.0866209305257897  0.8281458585392087
  0.4261349636652412  0.0096672531668673  0.7871250586998570
  0.9187048755985643  0.7970824702248649  0.1894102119464236
  0.7384761095916659  0.6359018910234013  0.1927756003661116
  0.5550407384588212  0.4373129546851118  0.9489003041837734
  0.6986217137678778  0.5422549197495172  0.0419348301459692
  0.7936331972059563  0.0565905007021570  0.6890033305473011
  0.0031337136290972  0.6735407357966494  0.6272142180606082
  0.4727841132979478  0.4901109444986389  0.0883348113582798
  0.1897692307993211  0.1731279798209187  0.9229099617764263
  0.3145324718444158  0.3716576562587335  0.1189146580753686
  0.8171390729974704  0.7329941069231651  0.6074490148647769
  0.2763264257379348  0.8975157738496833  0.7343890691160695
  0.6305861929124603  0.5827473702806998  0.1436421608793026
  0.9122188826084709  0.2308316415271960  0.6516091405250251
  0.1743646754005539  0.2857491409432527  0.3780296036150261
  0.2190278077964933  0.9060452787933500  0.2200267383521179
  0.4965982416721104  0.2046674927660490  0.7492989998454718
  0.2500374193509245  0.2282484789706132  0.2865014416172045
  0.1181570682091078  0.6316548914061642  0.4285255430302044
  0.9231104482114532  0.9264124617142997  0.3323061749438310
  0.0276649816290941  0.7962494574056080  0.7613297489128357
  0.0368996003267839  0.1768788523986089  0.5971984026983321
  0.5290976411611084  0.8110165722507219  0.0535615522582589
  0.9285984773457940  0.3372113025568382  0.7895053185066629
  0.5041959465833727  0.9914752490225069  0.2418039153508573
  0.1667179270980057  0.4055514569247620  0.9496884820219833
  0.1954963747065079  0.0714731064593579  0.5191812836207674
  0.5427016616686871  0.1117839347849809  0.1362037452504623
  0.8819010948316190  0.8773194342872870  0.0334460457037835
  0.5986111883255205  0.6345330007464298  0.3079535321628910
  0.7311642338086131  0.2337572422731498  0.0377616497416113
  0.6575409084762427  0.7246726924035727  0.8677680803075987
  0.1164496241531339  0.3307782065325995  0.1102433073230600
  0.5613477825993698  0.9770202131013832  0.5699202360624724
  0.4982667916330783  0.3566658975011023  0.1007634825947434
  0.2294263301891846  0.6406863814974315  0.2686085666096503
  0.4139093876949005  0.8211233744740909  0.9939622861411195
  0.3825006767803529  0.5726041654220140  0.5664261447983066
  0.8904181862775928  0.5331898505378803  0.2369791782274220
  0.0745634971425417  0.3502406454502847  0.6573881668324262
  0.9333978454924505  0.0507283659706204  0.4666467392561344
  0.9146493464931496  0.7366119914311469  0.0005902994222993
  0.5047654145600688  0.4077121287806520  0.4112110008057854
  0.7117509685529626  0.7018003356582270  0.3641106114320252
  0.4494246926916503  0.1925974566299331  0.1020606749403328
  0.9457767694259047  0.5575738971311353  0.4806880121458477
  0.8326412647072843  0.1696776243334881  0.1873939193963565
  0.0038251094369812  0.2932739518312246  0.9535772625000973
  0.9382516276220016  0.0947029673761506  0.2711982773252046
  0.3148982419155075  0.5378157181128103  0.6958173446244160
  0.1426372605912647  0.4110830882760439  0.5107682819198942
  0.2334801318517918  0.5395870428332685  0.4012785322158052
  0.4475750364394955  0.8669232911124070  0.6566933371143335
  0.3406745152042348  0.7792128500302624  0.1224747620879256
  0.7393630287639255  0.4227183156825447  0.0158269627179521
  0.0392469378773015  0.0933938798072518  0.7728575848678503
  0.8694918588569180  0.1044678406191366  0.9155929251916533
  0.8294776307436607  0.2921853221278568  0.3786555802017091
  0.0631578394383823  0.2202317137584160  0.3967758899350784
  0.7361260754813728  0.0147863696431472  0.9914619393463866
  0.3919557962750204  0.2063361956377321  0.8299116765959269
  0.3465121045794461  0.4566977620237438  0.9120852572342457
  0.7510439866610668  0.9087412211240036  0.6973787858738589
  0.3516437840145699  0.0316831430793911  0.1682329818630635
  0.1156071013522109  0.9314323390320780  0.6782355802395017
  0.6855336425254279  0.3954499243498617  0.1296480508202222
  0.9798910646680881  0.5015215077504820  0.7056814523667967
  0.2695389615229473  0.3839587033687692  0.6079431342548673
  0.6708002050995603  0.8512826616273443  0.8677152533498571
  0.5499679782980422  0.5122787541140710  0.4913637379033773
  0.1853783740695434  0.7032651283627018  0.7202681780816675
  0.9285567370035892  0.3118873255535632  0.3067915082895993
  0.0281503800017759  0.4723432081288408  0.5314656332269863
  0.8003425146890351  0.9778269315058665  0.3510894870040318
  0.8987188550226293  0.1528934411630303  0.0265103942034273
  0.5779619939400362  0.9132364561530792  0.8081001821228213
  0.3680382828178637  0.0033104735475860  0.5479566041410209
  0.2819887311551668  0.1392338889139282  0.4498408710581216
  0.4438160468597871  0.0664406662606538  0.3844443989225681
  0.0329910994013858  0.1263238375809266  0.4808460764878433
  0.3274675751690879  0.9069334800839925  0.3485388900789417
  0.2500974629060195  0.7179277230945331  0.9594685382937342
  0.2797295790870891  0.2376207182007164  0.1516423121582733
  0.0831149395958661  0.1162423267429062  0.9669711322721994
  0.2499618522436720  0.0322819247140416  0.2904429555074017
  0.6287731976638113  0.1691851171379639  0.2164134391185399
  0.7746804692014422  0.0106767062780122  0.1180701562506954
  0.8390159096130319  0.7781840954907580  0.7806108356439623
  0.0881600360548589  0.9343965210888854  0.8840023883305861
  0.1995428896145341  0.0631782054498728  0.1091856665609470
  0.6371193869975471  0.8376045923895390  0.4736250430335360
  0.5949131389681668  0.8306618673805772  0.3101293945834200
  0.9163717507095086  0.6356762177716817  0.3095836724833063
  0.5322990480459282  0.7443536078266462  0.1592714545834184
  0.6681188271778424  0.0732137496827008  0.2989899314423994
  0.0121862767281584  0.3722191078334092  0.0489781930218953
  0.4513635695039326  0.5086948228496766  0.9582688951732479
  0.7396874927254018  0.6119101099940494  0.5363021891064150
  0.7599866401213689  0.3403752732575001  0.2092716737464571
  0.2387425762832578  0.9639763142372360  0.5593696875150442
  0.7127719462738469  0.8259569870110326  0.3714204244383694
  0.6257860925680916  0.9638823599894693  0.4585475096976168
  0.8609377061043020  0.5466170956337422  0.5689911666782379
  0.1126872886329409  0.2964581099123151  0.9050522958242055
  0.6193385551166699  0.5134302338811665  0.5953405659621254
  0.1048693518442221  0.0349747479695139  0.4443859713410063
  0.5994168352541323  0.2270780981388043  0.8071095415539489
  0.9617900966310913  0.8123332492530011  0.3101355689760013
  0.1573622899589466  0.7325288358870807  0.4926274524407930
  0.2644676873722389  0.2929998384031620  0.6996249916212989
  0.4644138467345158  0.6085206546360311  0.4725351276660490
  0.7814229437267883  0.6176626791380855  0.8176523684205961
  0.1409011587811548  0.1102599419149684  0.6214509340314649
  0.3347173579289304  0.8216137074883889  0.4361180673172598
  0.2757934028144717  0.7543978740299195  0.2344646600307669
  0.6740747431128469  0.3462977437204557  0.6608915822725479
  0.3814260453405325  0.7213543408083325  0.7684349643101669
  0.0988280658785570  0.0204496235154608  0.0412575334347096
  0.6695427836872696  0.8144953963290149  0.6841035464381093
  0.9911892940422433  0.8781640533415356  0.9418892866849404
  0.1608903497546308  0.4083929099866381  0.3883315647757186
  0.8360635213484784  0.3158897077651730  0.7095522057317822
  0.0114028169300227  0.2638881297520541  0.7288808887435962
  0.4623725446874758  0.2899395567362788  0.6701752532237677
  0.9790755749113345  0.5019390067990770  0.1595607639827961
  0.3189618373976657  0.5458161031931255  0.8233188575570196
  0.6118129938863603  0.4732480390971361  0.1935839618517861
  0.8055949909862079  0.4120606479326696  0.3898233825887232
  0.8662246126459507  0.8264949084856354  0.6686972997002130
  0.7773850314726047  0.0465545802600715  0.2419533780541485
  0.5956053994838939  0.2518799683955351  0.5257145019492313
  0.3264363788256901  0.8419355011981438  0.6341681290447738
  0.2432155623263057  0.2748064037119278  0.4799883038092716
  0.4229007763762738  0.3522775079131009  0.4883520060797579
  0.8875174385087590  0.0723206084075017  0.1193160556200468
  0.4741160469281525  0.6004366734193809  0.2799654940726768
  0.1159844887560197  0.8160542491572116  0.8523013536032877
  0.1998068819458112  0.9291472257300484  0.3488260710128515
  0.4945100277751635  0.0701651326811685  0.5020731541356298
  0.5555602946378144  0.4157062495529047  0.8278692918606154
  0.0380338290775200  0.9625624612786083  0.7696965606007424
  0.0030881301631211  0.6608414752371132  0.4673885711344496
  0.1662131969386920  0.6587735776746726  0.9010047156613155
  0.8913089674218355  0.1280729725523813  0.7281850865535731
  0.8594998936737781  0.4387714615691749  0.0232558723364704
  0.8533519753348813  0.5748653200906659  0.3997543308330336
  0.4676054103391891  0.1068169482039991  0.2367781873652675
  0.8731118415893420  0.7508931337493436  0.5010568666251061
  0.6450019911732383  0.6908093741392918  0.5333381407485049
  0.5620148789976938  0.7273181803184201  0.7488205730924022
  0.4553982678094144  0.5805970589525913  0.6942641571814931
  0.0629922368548463  0.4637797496685820  0.9868194558514247
  0.3004113477366488  0.5017478515623495  0.5025080224796739
  0.6421699097732372  0.7614067310354002  0.2123232310267511
  0.2844273206020063  0.8166202092722585  0.9028880911775374
  0.0314847834523420  0.7279087532508228  0.0515487385600650
  0.0146536601274718  0.1919546358060700  0.0360224247383556
  0.7851846209725508  0.5582703291016884  0.7115158154091574
  0.3217155712158686  0.6818240879868327  0.5587091739706480
  0.9974365429618146  0.4839844689239001  0.3503750524115929
  0.7073649392718266  0.1536054277373964  0.6647345856623446
  0.5260966907841791  0.1247128661275312  0.6575360970912243
  0.2238458604593205  0.7828584116783119  0.0595451484181950
  0.7296070162016193  0.7180407498027179  0.7543652814929445
  0.4524125468082829  0.7896146525895134  0.2340714753389506
  0.4840673682063255  0.7792657084809278  0.8970238260355998
  0.4794202497282143  0.9516962993505231  0.3498541406887057
  0.4431874743130919  0.2812235117874735  0.0188974767280854
  0.7171631851539146  0.1518274741809833  0.1326231338190524
  0.2878270076356415  0.6550286491773463  0.3798547048537984
  0.1654397199307809  0.2204941878461142  0.1046323752053695
  0.0059435685709204  0.7090010192267400  0.1645415387601687
  0.9697227435074183  0.8928182302893717  0.1191116251317936
  0.7866537397191848  0.7157504562939678  0.1085404948788167
  0.4454574628990500  0.9864367213356218  0.6694691812504630
  0.6076149665070218  0.3047639176451469  0.1059585797442963
  0.7696067227886445  0.9918235409082570  0.5187663671136491
  0.1148205906557180  0.8041244406994750  0.6675246918732540
  0.7361986185844245  0.1360052847933986  0.9576607295372526
  0.7784764709298173  0.8850093766426497  0.8185342017134474
  0.9086965463260270  0.2609050479569177  0.8879658996139810
  0.8613350770807386  0.0537844267340759  0.5622634641948494
  0.5852287250875818  0.0054162470961288  0.8943903301573357
  0.9651233012839100  0.7070236677585910  0.8904314471111121
  0.0820386745829609  0.3421899830718402  0.2288982378952298
  0.3658654285854652  0.2207226178150918  0.3456234043761128
  0.3382846169514195  0.1239381008264786  0.5847636319328373
  0.6354304934902757  0.9702148882948407  0.7135690270524577
  0.8531558470280913  0.2498100273332327  0.0775112373437068
  0.0064025015755362  0.9950439828514988  0.2833584915725709
  0.2566067909287781  0.0597462842083587  0.9416328606215387
  0.7791795127694314  0.2170716322276505  0.5449901510445301
  0.0403700640589904  0.1740806868702265  0.2836743567144779
  0.6101982080458157  0.5516179708461806  0.7748400160321935
  0.1510441582506985  0.0161562741839987  0.2133233917761785
  0.0561239875454547  0.5587713181944878  0.6189175775789124
  0.2708046122258168  0.9611730529991149  0.0889190996299476
  0.8612822011026537  0.0856366500209731  0.3775259777101994
  0.1167734276598722  0.8351308423920614  0.2000807351731027
  0.3333188326793817  0.5137965701125182  0.3251930489532171
  0.6208395987439701  0.5631369634301961  0.9504099750333737
  0.5954589416587410  0.9146730243363166  0.0553863201617020
  0.5566472340519297  0.7289312674225883  0.3803891260313748
  0.7515093755808948  0.0595351160817401  0.8091779716681060
  0.4517077546295738  0.3856849879447708  0.2961513492562133
  0.4770005818852923  0.3427484531074683  0.8800453720606995
  0.3396168853742623  0.0998952172305607  0.7772100098558568
  0.1973180701893682  0.4148696018086255  0.0795482904698233
  0.1096011466758213  0.6776713275779258  0.3089289768357162
  0.3688492265919834  0.6584173774040636  0.0979078878161630
  0.8063876795568987  0.6956034029105922  0.2772161225137850
  0.7410943611112799  0.2162774073546743  0.3543012099079519
  0.9136757954971841  0.5255720716630137  0.8654727411154397
  0.6265073088916751  0.5418219789406535  0.3938721375234451
  0.2031967289814887  0.4755997864497061  0.6656593234798081
  0.1995767948295111  0.1308295448878170  0.3485056312386163
  0.2566511505469933  0.3714593222610532  0.2319228914587441
  0.4172305932406886  0.9397247389898098  0.9729286258345482
  0.9663517912707889  0.4063872380756663  0.6154143509283116
  0.6154598979479218  0.3551961655494793  0.3358328764296203
  0.5014432603077879  0.8687468295524994  0.5482477174819991
  0.6214109756199946  0.9839567292584519  0.2241621482538321
  0.9928833045150540  0.3160297601198678  0.4084137399505892
  0.9479598444069808  0.9299542857419425  0.4553538267836430
  0.3329038139992733  0.0183641192239534  0.4217237026661778
  0.8033941031044662  0.8922916465526711  0.1447213244112717
  0.7774444604102371  0.7139281642339412  0.9238948644055966
  0.3772594605681618  0.4351445523257809  0.6603179203279765
  0.8956022094640801  0.6155123357952093  0.0349464007386331
  0.4606861647381351  0.1509068240823908  0.9172659973016621
  0.6178088533283770  0.7383962941290960  0.0088003474154945
  0.0893988925737830  0.2755177501651147  0.5514462396145774
  0.3416335718425429  0.1384288135358887  0.0891002922417101
  0.8489090368646188  0.9883844505547756  0.9579233210611946
  0.7930003876508280  0.5320046663127087  0.1685747872948866
  0.8743305703927433  0.2604574456705393  0.4859644334795234
  0.3647854378066029  0.4832640016942875  0.1389932337332525
  0.3646777668660874  0.9108210579701534  0.8157312885564423
  0.0274814651242536  0.9519181111671671  0.6013164691510511
  0.4486610268050910  0.9532434931671432  0.1429223584394563
  0.0711555016468850  0.4561390321138461  0.7764166345136800
  0.0389205496036311  0.6685454101254962  0.7465642096251983
  0.1592211872737650  0.1396482764345350  0.8041225387918516
  0.4273609970175372  0.2827830072085362  0.1824669964234076
  0.2852417087800703  0.5400521462974552  0.9869590470733840
  0.9992813752298417  0.0716490543707238  0.8912608136863014
 
  0.00000000E+00  0.00000000E+00  0.00000000E+00
  0.00000000E+00  0.00000000E+00  0.00000000E+00
  0.00000000E+00  0.00000000E+00  0.00000000E+00
  0.00000000E+00  0.00000000E+00  0.00000000E+00
  0.00000000E+00  0.00000000E+00  0.00000000E+00
  0.00000000E+00  0.00000000E+00  0.00000000E+00
  0.00000000E+00  0.00000000E+00  0.00000000E+00
  0.00000000E+00  0.00000000E+00  0.00000000E+00
  0.00000000E+00  0.00000000E+00  0.00000000E+00
  0.00000000E+00  0.00000000E+00  0.00000000E+00
  0.00000000E+00  0.00000000E+00  0.00000000E+00
  0.00000000E+00  0.00000000E+00  0.00000000E+00
  0.00000000E+00  0.00000000E+00  0.00000000E+00
  0.00000000E+00  0.00000000E+00  0.00000000E+00
  0.00000000E+00  0.00000000E+00  0.00000000E+00
  0.00000000E+00  0.00000000E+00  0.00000000E+00
  0.00000000E+00  0.00000000E+00  0.00000000E+00
  0.00000000E+00  0.00000000E+00  0.00000000E+00
  0.00000000E+00  0.00000000E+00  0.00000000E+00
  0.00000000E+00  0.00000000E+00  0.00000000E+00
  0.00000000E+00  0.00000000E+00  0.00000000E+00
  0.00000000E+00  0.00000000E+00  0.00000000E+00
  0.00000000E+00  0.00000000E+00  0.00000000E+00
  0.00000000E+00  0.00000000E+00  0.00000000E+00
  0.00000000E+00  0.00000000E+00  0.00000000E+00
  0.00000000E+00  0.00000000E+00  0.00000000E+00
  0.00000000E+00  0.00000000E+00  0.00000000E+00
  0.00000000E+00  0.00000000E+00  0.00000000E+00
  0.00000000E+00  0.00000000E+00  0.00000000E+00
  0.00000000E+00  0.00000000E+00  0.00000000E+00
  0.00000000E+00  0.00000000E+00  0.00000000E+00
  0.00000000E+00  0.00000000E+00  0.00000000E+00
  0.00000000E+00  0.00000000E+00  0.00000000E+00
  0.00000000E+00  0.00000000E+00  0.00000000E+00
  0.00000000E+00  0.00000000E+00  0.00000000E+00
  0.00000000E+00  0.00000000E+00  0.00000000E+00
  0.00000000E+00  0.00000000E+00  0.00000000E+00
  0.00000000E+00  0.00000000E+00  0.00000000E+00
  0.00000000E+00  0.00000000E+00  0.00000000E+00
  0.00000000E+00  0.00000000E+00  0.00000000E+00
  0.00000000E+00  0.00000000E+00  0.00000000E+00
  0.00000000E+00  0.00000000E+00  0.00000000E+00
  0.00000000E+00  0.00000000E+00  0.00000000E+00
  0.00000000E+00  0.00000000E+00  0.00000000E+00
  0.00000000E+00  0.00000000E+00  0.00000000E+00
  0.00000000E+00  0.00000000E+00  0.00000000E+00
  0.00000000E+00  0.00000000E+00  0.00000000E+00
  0.00000000E+00  0.00000000E+00  0.00000000E+00
  0.00000000E+00  0.00000000E+00  0.00000000E+00
  0.00000000E+00  0.00000000E+00  0.00000000E+00
  0.00000000E+00  0.00000000E+00  0.00000000E+00
  0.00000000E+00  0.00000000E+00  0.00000000E+00
  0.00000000E+00  0.00000000E+00  0.00000000E+00
  0.00000000E+00  0.00000000E+00  0.00000000E+00
  0.00000000E+00  0.00000000E+00  0.00000000E+00
  0.00000000E+00  0.00000000E+00  0.00000000E+00
  0.00000000E+00  0.00000000E+00  0.00000000E+00
  0.00000000E+00  0.00000000E+00  0.00000000E+00
  0.00000000E+00  0.00000000E+00  0.00000000E+00
  0.00000000E+00  0.00000000E+00  0.00000000E+00
  0.00000000E+00  0.00000000E+00  0.00000000E+00
  0.00000000E+00  0.00000000E+00  0.00000000E+00
  0.00000000E+00  0.00000000E+00  0.00000000E+00
  0.00000000E+00  0.00000000E+00  0.00000000E+00
  0.00000000E+00  0.00000000E+00  0.00000000E+00
  0.00000000E+00  0.00000000E+00  0.00000000E+00
  0.00000000E+00  0.00000000E+00  0.00000000E+00
  0.00000000E+00  0.00000000E+00  0.00000000E+00
  0.00000000E+00  0.00000000E+00  0.00000000E+00
  0.00000000E+00  0.00000000E+00  0.00000000E+00
  0.00000000E+00  0.00000000E+00  0.00000000E+00
  0.00000000E+00  0.00000000E+00  0.00000000E+00
  0.00000000E+00  0.00000000E+00  0.00000000E+00
  0.00000000E+00  0.00000000E+00  0.00000000E+00
  0.00000000E+00  0.00000000E+00  0.00000000E+00
  0.00000000E+00  0.00000000E+00  0.00000000E+00
  0.00000000E+00  0.00000000E+00  0.00000000E+00
  0.00000000E+00  0.00000000E+00  0.00000000E+00
  0.00000000E+00  0.00000000E+00  0.00000000E+00
  0.00000000E+00  0.00000000E+00  0.00000000E+00
  0.00000000E+00  0.00000000E+00  0.00000000E+00
  0.00000000E+00  0.00000000E+00  0.00000000E+00
  0.00000000E+00  0.00000000E+00  0.00000000E+00
  0.00000000E+00  0.00000000E+00  0.00000000E+00
  0.00000000E+00  0.00000000E+00  0.00000000E+00
  0.00000000E+00  0.00000000E+00  0.00000000E+00
  0.00000000E+00  0.00000000E+00  0.00000000E+00
  0.00000000E+00  0.00000000E+00  0.00000000E+00
  0.00000000E+00  0.00000000E+00  0.00000000E+00
  0.00000000E+00  0.00000000E+00  0.00000000E+00
  0.00000000E+00  0.00000000E+00  0.00000000E+00
  0.00000000E+00  0.00000000E+00  0.00000000E+00
  0.00000000E+00  0.00000000E+00  0.00000000E+00
  0.00000000E+00  0.00000000E+00  0.00000000E+00
  0.00000000E+00  0.00000000E+00  0.00000000E+00
  0.00000000E+00  0.00000000E+00  0.00000000E+00
  0.00000000E+00  0.00000000E+00  0.00000000E+00
  0.00000000E+00  0.00000000E+00  0.00000000E+00
  0.00000000E+00  0.00000000E+00  0.00000000E+00
  0.00000000E+00  0.00000000E+00  0.00000000E+00
  0.00000000E+00  0.00000000E+00  0.00000000E+00
  0.00000000E+00  0.00000000E+00  0.00000000E+00
  0.00000000E+00  0.00000000E+00  0.00000000E+00
  0.00000000E+00  0.00000000E+00  0.00000000E+00
  0.00000000E+00  0.00000000E+00  0.00000000E+00
  0.00000000E+00  0.00000000E+00  0.00000000E+00
  0.00000000E+00  0.00000000E+00  0.00000000E+00
  0.00000000E+00  0.00000000E+00  0.00000000E+00
  0.00000000E+00  0.00000000E+00  0.00000000E+00
  0.00000000E+00  0.00000000E+00  0.00000000E+00
  0.00000000E+00  0.00000000E+00  0.00000000E+00
  0.00000000E+00  0.00000000E+00  0.00000000E+00
  0.00000000E+00  0.00000000E+00  0.00000000E+00
  0.00000000E+00  0.00000000E+00  0.00000000E+00
  0.00000000E+00  0.00000000E+00  0.00000000E+00
  0.00000000E+00  0.00000000E+00  0.00000000E+00
  0.00000000E+00  0.00000000E+00  0.00000000E+00
  0.00000000E+00  0.00000000E+00  0.00000000E+00
  0.00000000E+00  0.00000000E+00  0.00000000E+00
  0.00000000E+00  0.00000000E+00  0.00000000E+00
  0.00000000E+00  0.00000000E+00  0.00000000E+00
  0.00000000E+00  0.00000000E+00  0.00000000E+00
  0.00000000E+00  0.00000000E+00  0.00000000E+00
  0.00000000E+00  0.00000000E+00  0.00000000E+00
  0.00000000E+00  0.00000000E+00  0.00000000E+00
  0.00000000E+00  0.00000000E+00  0.00000000E+00
  0.00000000E+00  0.00000000E+00  0.00000000E+00
  0.00000000E+00  0.00000000E+00  0.00000000E+00
  0.00000000E+00  0.00000000E+00  0.00000000E+00
  0.00000000E+00  0.00000000E+00  0.00000000E+00
  0.00000000E+00  0.00000000E+00  0.00000000E+00
  0.00000000E+00  0.00000000E+00  0.00000000E+00
  0.00000000E+00  0.00000000E+00  0.00000000E+00
  0.00000000E+00  0.00000000E+00  0.00000000E+00
  0.00000000E+00  0.00000000E+00  0.00000000E+00
  0.00000000E+00  0.00000000E+00  0.00000000E+00
  0.00000000E+00  0.00000000E+00  0.00000000E+00
  0.00000000E+00  0.00000000E+00  0.00000000E+00
  0.00000000E+00  0.00000000E+00  0.00000000E+00
  0.00000000E+00  0.00000000E+00  0.00000000E+00
  0.00000000E+00  0.00000000E+00  0.00000000E+00
  0.00000000E+00  0.00000000E+00  0.00000000E+00
  0.00000000E+00  0.00000000E+00  0.00000000E+00
  0.00000000E+00  0.00000000E+00  0.00000000E+00
  0.00000000E+00  0.00000000E+00  0.00000000E+00
  0.00000000E+00  0.00000000E+00  0.00000000E+00
  0.00000000E+00  0.00000000E+00  0.00000000E+00
  0.00000000E+00  0.00000000E+00  0.00000000E+00
  0.00000000E+00  0.00000000E+00  0.00000000E+00
  0.00000000E+00  0.00000000E+00  0.00000000E+00
  0.00000000E+00  0.00000000E+00  0.00000000E+00
  0.00000000E+00  0.00000000E+00  0.00000000E+00
  0.00000000E+00  0.00000000E+00  0.00000000E+00
  0.00000000E+00  0.00000000E+00  0.00000000E+00
  0.00000000E+00  0.00000000E+00  0.00000000E+00
  0.00000000E+00  0.00000000E+00  0.00000000E+00
  0.00000000E+00  0.00000000E+00  0.00000000E+00
  0.00000000E+00  0.00000000E+00  0.00000000E+00
  0.00000000E+00  0.00000000E+00  0.00000000E+00
  0.00000000E+00  0.00000000E+00  0.00000000E+00
  0.00000000E+00  0.00000000E+00  0.00000000E+00
  0.00000000E+00  0.00000000E+00  0.00000000E+00
  0.00000000E+00  0.00000000E+00  0.00000000E+00
  0.00000000E+00  0.00000000E+00  0.00000000E+00
  0.00000000E+00  0.00000000E+00  0.00000000E+00
  0.00000000E+00  0.00000000E+00  0.00000000E+00
  0.00000000E+00  0.00000000E+00  0.00000000E+00
  0.00000000E+00  0.00000000E+00  0.00000000E+00
  0.00000000E+00  0.00000000E+00  0.00000000E+00
  0.00000000E+00  0.00000000E+00  0.00000000E+00
  0.00000000E+00  0.00000000E+00  0.00000000E+00
  0.00000000E+00  0.00000000E+00  0.00000000E+00
  0.00000000E+00  0.00000000E+00  0.00000000E+00
  0.00000000E+00  0.00000000E+00  0.00000000E+00
  0.00000000E+00  0.00000000E+00  0.00000000E+00
  0.00000000E+00  0.00000000E+00  0.00000000E+00
  0.00000000E+00  0.00000000E+00  0.00000000E+00
  0.00000000E+00  0.00000000E+00  0.00000000E+00
  0.00000000E+00  0.00000000E+00  0.00000000E+00
  0.00000000E+00  0.00000000E+00  0.00000000E+00
  0.00000000E+00  0.00000000E+00  0.00000000E+00
  0.00000000E+00  0.00000000E+00  0.00000000E+00
  0.00000000E+00  0.00000000E+00  0.00000000E+00
  0.00000000E+00  0.00000000E+00  0.00000000E+00
  0.00000000E+00  0.00000000E+00  0.00000000E+00
  0.00000000E+00  0.00000000E+00  0.00000000E+00
  0.00000000E+00  0.00000000E+00  0.00000000E+00
  0.00000000E+00  0.00000000E+00  0.00000000E+00
  0.00000000E+00  0.00000000E+00  0.00000000E+00
  0.00000000E+00  0.00000000E+00  0.00000000E+00
  0.00000000E+00  0.00000000E+00  0.00000000E+00
  0.00000000E+00  0.00000000E+00  0.00000000E+00
  0.00000000E+00  0.00000000E+00  0.00000000E+00
  0.00000000E+00  0.00000000E+00  0.00000000E+00
  0.00000000E+00  0.00000000E+00  0.00000000E+00
  0.00000000E+00  0.00000000E+00  0.00000000E+00
  0.00000000E+00  0.00000000E+00  0.00000000E+00
  0.00000000E+00  0.00000000E+00  0.00000000E+00
  0.00000000E+00  0.00000000E+00  0.00000000E+00
  0.00000000E+00  0.00000000E+00  0.00000000E+00
  0.00000000E+00  0.00000000E+00  0.00000000E+00
  0.00000000E+00  0.00000000E+00  0.00000000E+00
  0.00000000E+00  0.00000000E+00  0.00000000E+00
  0.00000000E+00  0.00000000E+00  0.00000000E+00
  0.00000000E+00  0.00000000E+00  0.00000000E+00
  0.00000000E+00  0.00000000E+00  0.00000000E+00
  0.00000000E+00  0.00000000E+00  0.00000000E+00
  0.00000000E+00  0.00000000E+00  0.00000000E+00
  0.00000000E+00  0.00000000E+00  0.00000000E+00
  0.00000000E+00  0.00000000E+00  0.00000000E+00
  0.00000000E+00  0.00000000E+00  0.00000000E+00
  0.00000000E+00  0.00000000E+00  0.00000000E+00
  0.00000000E+00  0.00000000E+00  0.00000000E+00
  0.00000000E+00  0.00000000E+00  0.00000000E+00
  0.00000000E+00  0.00000000E+00  0.00000000E+00
  0.00000000E+00  0.00000000E+00  0.00000000E+00
  0.00000000E+00  0.00000000E+00  0.00000000E+00
  0.00000000E+00  0.00000000E+00  0.00000000E+00
  0.00000000E+00  0.00000000E+00  0.00000000E+00
  0.00000000E+00  0.00000000E+00  0.00000000E+00
  0.00000000E+00  0.00000000E+00  0.00000000E+00
  0.00000000E+00  0.00000000E+00  0.00000000E+00
  0.00000000E+00  0.00000000E+00  0.00000000E+00
  0.00000000E+00  0.00000000E+00  0.00000000E+00
  0.00000000E+00  0.00000000E+00  0.00000000E+00
  0.00000000E+00  0.00000000E+00  0.00000000E+00
  0.00000000E+00  0.00000000E+00  0.00000000E+00
  0.00000000E+00  0.00000000E+00  0.00000000E+00
  0.00000000E+00  0.00000000E+00  0.00000000E+00
  0.00000000E+00  0.00000000E+00  0.00000000E+00
  0.00000000E+00  0.00000000E+00  0.00000000E+00
  0.00000000E+00  0.00000000E+00  0.00000000E+00