Sb                                      
   1.00000000000000     
    18.7635986409039965    0.0000000000000000    0.0000000000000000
     0.0000000000000000   18.7635986409039965    0.0000000000000000
     0.0000000000000000    0.0000000000000000   18.7635986409039965
   Sb   C 
   205    11
Selective dynamics
Direct
  0.8819588143949321  0.0770970355435018  0.5187345878037450   T   T   T
  0.4126934629605536  0.7407771078078662  0.1692356985966175   T   T   T
  0.9033960868306757  0.9193009467795885  0.8370202608435514   T   T   T
  0.2281018624209584  0.4055360116076913  0.0232883879276684   T   T   T
  0.7401108531941574  0.0700740675953244  0.0142170285752129   T   T   T
  0.2224512984093154  0.0628270995386917  0.8180658922006391   T   T   T
  0.7146178525582780  0.0706374641801595  0.6823346847995856   T   T   T
  0.7399885733950153  0.2495504559823236  0.6670161752925258   T   T   T
  0.4175451483566129  0.7303146148316989  0.0115438249142343   T   T   T
  0.9173678132512442  0.0697744925851718  0.1831001638734095   T   T   T
  0.0772273984824854  0.9088074073682336 -0.0020317874129701   T   T   T
  0.3810668919922295  0.0812599542755467  0.5057202206897454   T   T   T
  0.5720717321248028  0.0849095777884465  0.3413948194858264   T   T   T
  0.4098445414950918  0.9028893150185892  0.8348924726289247   T   T   T
  0.7491846543055152  0.4231730950118596  0.4985245539082901   T   T   T
  0.7266506254296844  0.4037877941230691  0.0083170871543669   T   T   T
  0.2496309807486402  0.0602882142447627  0.1599941678236385   T   T   T
  0.0993337968965757  0.1634062036956982  0.6410918891862689   T   T   T
  0.5800927787199652  0.0677905398043696  0.1851459394323155   T   T   T
  0.4085315944600659  0.0636598893535378  0.0012175434028759   T   T   T
  0.9250090874255217  0.7379365345235308  0.1710427257805462   T   T   T
  0.7379633265239183  0.7417986367376361  0.6741378352314038   T   T   T
  0.7440263531020421  0.4076889638770267  0.6755257231735017   T   T   T
  0.7441281731023655  0.9227739717457583  0.3415240697736682   T   T   T
  0.8995984485512265  0.4142611192506395 -0.0032284248118964   T   T   T
  0.4279512396937392  0.5672466710865223  0.1679139397407160   T   T   T
  0.7546638558441436  0.7383142887285942  0.0111221469639533   T   T   T
  0.7489477704344297  0.0802800892612071  0.3476517004068430   T   T   T
  0.8974762765413480  0.4057300553624734  0.8392812719196882   T   T   T
  0.8927817391847503  0.7787262332664631  0.6542598738044506   T   T   T
  0.0838096508423947  0.5614403562523803  0.1750941691807598   T   T   T
  0.2273003844282191  0.2651786794543758  0.1607856814764819   T   T   T
  0.7408100635798215  0.4151367650538625  0.8322011577132657   T   T   T
  0.4091767609524193  0.4060051390416858  0.8406321873380073   T   T   T
  0.0713027000541263  0.2259029436778237  0.1722203692634145   T   T   T
  0.7448261876326204  0.5788867220491061  0.1757327948867530   T   T   T
  0.2162128768549632  0.2133291498867409  0.4974409846239469   T   T   T
  0.1068560839124756  0.7392435884339994  0.1677347797573108   T   T   T
  0.4015678328260435  0.5741542939061137  0.9978986138025630   T   T   T
  0.3898536973763350  0.9275459144062117  0.5087991428938017   T   T   T
  0.9174251880987452  0.5752155108690620  0.3378405957863947   T   T   T
  0.1797065048452751  0.0278022243596420  0.6473775629297216   T   T   T
  0.2224087203984366  0.8555690887923110  0.6630856734117728   T   T   T
  0.2345235623799986  0.2274900528798026  0.3370341477650478   T   T   T
  0.2558003094755629  0.6432893917054537  0.6503742858514391   T   T   T
  0.7464883474795967  0.4129599867786807  0.3407895439010470   T   T   T
  0.9252482773489589  0.5795140222131913  0.1677930596834625   T   T   T
  0.7483690728675664  0.7506870611334375  0.8334662871631050   T   T   T
  0.4285855189215024  0.7460404954007455  0.3499822060795184   T   T   T
  0.7631309116465508  0.7494178629392010  0.1708455108665424   T   T   T
  0.1204462307297740  0.7333243872610015  0.6666950407075271   T   T   T
  0.9172753446297676  0.7469629186235176  0.4965248309023904   T   T   T
  0.5639324288752993  0.2517928031167440  0.8373153206948590   T   T   T
  0.5865332044075102  0.9148072863092428  0.3492852057022845   T   T   T
  0.0756597535044181  0.0651364514202385 -0.0022292888526355   T   T   T
  0.9003946200729128  0.0797448207387042  0.0077650394865615   T   T   T
  0.7479742275322334  0.5814808133391638  0.0011474935349582   T   T   T
  0.2539097587256983  0.7370275047272035 -0.0092580059166876   T   T   T
  0.8933134492593561  0.9160536808773754  0.5180772582508704   T   T   T
  0.6004945147807972  0.6378937357733450  0.1834981034290655   T   T   T
  0.9139441524943809  0.4189444696300367  0.3278689530202138   T   T   T
  0.2632613240932603  0.7400528927939315  0.3415802354936028   T   T   T
  0.0851373032499922  0.3983840948576998  0.1615303062605918   T   T   T
  0.5698792997323814  0.9335597203153713  0.8420929119614744   T   T   T
  0.9163421307274481  0.9114383672753520  0.1753626525676331   T   T   T
  0.4018891120769458  0.0756704173394968  0.3491314766520128   T   T   T
  0.7534264569275139  0.9076505062388943  0.1828952997582515   T   T   T
  0.6996892813301118  0.2527271793669063  0.5100075023877185   T   T   T
  0.8757294741050651  0.0839865205248292  0.6758558051884884   T   T   T
  0.2029755523531813  0.8792718273157625  0.4770899401135120   T   T   T
  0.4158644159602424  0.9018604139455493  0.1747896346582331   T   T   T
  0.2347607880187271  0.0757696855811276  0.9834949258762550   T   T   T
  0.9563960661858357  0.9499064343060980  0.6955481859844657   T   T   T
  0.2452827997382413  0.8949506061031718  0.3258261627399691   T   T   T
  0.7483708168836765  0.5801317131821994  0.5062344447533486   T   T   T
  0.3979018633444285  0.2286208755675974  0.8386685730575237   T   T   T
  0.2170911568622783  0.0340524541287641  0.4925993196760431   T   T   T
  0.7436710000974027  0.9076988395460318  0.8430788200126532   T   T   T
  0.5843062294279904  0.7387448344527930  0.0105093283938498   T   T   T
  0.2452846599374697  0.9044216937230887  0.1576083248966612   T   T   T
  0.2301550552119216  0.2308822095351723  0.0013612924239022   T   T   T
  0.1027568646484422  0.5524450187144224  0.6851418878857873   T   T   T
  0.4037005936944731  0.5645280595342494  0.8386823084229367   T   T   T
  0.5642993427296352  0.2553761575527363  0.1725043689457863   T   T   T
  0.5596023416957315  0.9142104635295147  0.6786363731627832   T   T   T
  0.0597394353064037  0.2408098269106698 -0.0070825268465898   T   T   T
  0.9141657016812232  0.0816177413684599  0.3427284714503206   T   T   T
  0.9189872382571622  0.9042677133922135  0.0179643627643563   T   T   T
  0.5852807774417859  0.8994472652217134  0.0167508643221179   T   T   T
  0.8827390777761283  0.2489161261610246  0.5068246590081381   T   T   T
  0.2493109004695599  0.8942024072132919 -0.0028711309974515   T   T   T
  0.2406660760876120  0.0709413341578605  0.3192671502632727   T   T   T
  0.0905532456685128  0.7314427760508958  0.0084379347733398   T   T   T
  0.0581800240906547  0.3974311341134705  0.0002445648256969   T   T   T
  0.2371897477338572  0.3806509675027613  0.5113375850706625   T   T   T
  0.0779131275731430  0.0685443842729772  0.1585702071210533   T   T   T
  0.3156406104102123  0.0963846748982545  0.6876715989001122   T   T   T
  0.0741359704552116  0.7599650755508269  0.4919762873518695   T   T   T
  0.5596817798202643  0.5591266082206985  0.0251029289211025   T   T   T
  0.0724566312394035  0.5656261874768937  0.8459052763927876   T   T   T
  0.2507421729702287  0.4353986305327833  0.6855635925700337   T   T   T
  0.0264035192113889  0.9004020800895343  0.3509310602848500   T   T   T
  0.4001640506358488  0.4108381432603455  0.1733818495271110   T   T   T
  0.7136463983156138  0.7503830525344330  0.5016342203029324   T   T   T
  0.3922306213193658  0.2392428082045805 -0.0016989339216382   T   T   T
  0.4097520612967415  0.0748096339590647  0.1587820646274789   T   T   T
  0.5662427702355958  0.0702056841544838 -0.0141113850288718   T   T   T
  0.0767132572684574  0.9024257406787873  0.8399824282643068   T   T   T
  0.7404027445077371  0.0828895666210198  0.1722249831458681   T   T   T
  0.2395344481510546  0.5595696245145986  0.0497287114198582   T   T   T
  0.5690031434326469  0.2502990218875923  0.6834769206961697   T   T   T
  0.9143368863921423  0.2400199492122812  0.3515279945579826   T   T   T
  0.0915952370492493  0.5715600907621833  0.3472585316145863   T   T   T
  0.7166534171163478  0.9098203518674405  0.5109586140558563   T   T   T
  0.4092771110482877  0.2485349468807701  0.3424920990556526   T   T   T
  0.0481829165219360  0.9368936039694363  0.5455699779720095   T   T   T
  0.2384405412380381  0.9038394767179376  0.8181961109312930   T   T   T
  0.5826437857486543  0.7387954030841872  0.8506614653244022   T   T   T
  0.4086536228563232  0.9051285547904129  0.9946973965764510   T   T   T
  0.7453206961424681  0.9139074416405064  0.0031104165973792   T   T   T
  0.0845447351044510  0.1776422978468256  0.3208437456009071   T   T   T
  0.5665502272362737  0.4037002836078246  0.0021595532409779   T   T   T
  0.7225986430393151  0.0889587847652692  0.5041855478643489   T   T   T
  0.7551615669292112  0.9143155878137961  0.6623290436810026   T   T   T
  0.5080924825869537  0.7693725880128074  0.5148628388538277   T   T   T
  0.5969196574370232  0.7496017245267660  0.3525513432835968   T   T   T
  0.7617650397044662  0.7484392691975740  0.3456431482763230   T   T   T
  0.9382680966766394  0.7664040654804827  0.3301816037335136   T   T   T
  0.6872976112105882  0.0781891724633229  0.8403085447159689   T   T   T
  0.9002842623727619  0.4050654039875121  0.1724439732724527   T   T   T
  0.2308891379610365  0.2394796497251697  0.8267036844464655   T   T   T
  0.0658954399228221  0.3738675681649697  0.3424436017842483   T   T   T
  0.0689725368023146  0.0739927809108612  0.4612263512452162   T   T   T
  0.4144995558072079  0.2584479322261353  0.6607903337042441   T   T   T
  0.0530871051213361  0.0767302390953576  0.8177741364373623   T   T   T
  0.0578531045563058  0.2329977628601062  0.8360067938743796   T   T   T
  0.4019387447130384  0.9252148358681396  0.6655821843861902   T   T   T
  0.9268635681604879  0.5874883659768445  0.4995119264106256   T   T   T
  0.4595708153083700  0.0782166305681120  0.8193979216511185   T   T   T
  0.8961883667477021  0.2477324801949056  0.8345711815648635   T   T   T
  0.5347115790564798  0.1018123915360352  0.5257760458820150   T   T   T
  0.4073498526184698  0.2367996268129962  0.1828692279724761   T   T   T
  0.7399693170242182  0.5723421175452745  0.8406786916607659   T   T   T
  0.7596251636522174  0.5849167015411046  0.6660342358686288   T   T   T
  0.2303057086988354  0.3975464252502761  0.8422947928393512   T   T   T
  0.7224446107740374  0.2341041316197422  0.8450981729956838   T   T   T
  0.0757880659314699  0.3943565920798414  0.6675894147478271   T   T   T
  0.9051426003041695  0.4098986122548726  0.5054038666954831   T   T   T
  0.8992871209773560  0.2475799356074442  0.1733885357638125   T   T   T
  0.5638028348993498  0.2323376107755785  0.0195270131634133   T   T   T
  0.7383047561571889  0.4193246457470212  0.1649564695980622   T   T   T
  0.7324042152846706  0.2413343950770505  0.1820417419087303   T   T   T
  0.9147847395432560  0.5766570481522841  0.6703515393090157   T   T   T
  0.5797895336944108  0.2636395340133508  0.3665157464133148   T   T   T
  0.2514405599382553  0.7300195858331407  0.8341377907141837   T   T   T
  0.0865866903228131  0.5747273091920828  0.0116687088905697   T   T   T
  0.0860671150089626  0.4182566228892302  0.5044959370924061   T   T   T
  0.5715344815861297  0.4294241658461431  0.1734012219572031   T   T   T
  0.3609295446476407  0.7802775032617097  0.6267795745002042   T   T   T
  0.0944134027650198  0.7263812731033845  0.3386029796740523   T   T   T
  0.0873127018481180  0.5738459770139857  0.5109677256014705   T   T   T
  0.3907484969655697  0.3963885364305234  0.0162511973754829   T   T   T
  0.7412809934132856  0.2560216739931157  0.3389006025825607   T   T   T
  0.5515442253507198  0.0925253406279299  0.6809849383863522   T   T   T
  0.7599120320563072  0.5895432541514860  0.3337749974319250   T   T   T
  0.2440420318968627  0.5692949902181863  0.8266624337236714   T   T   T
  0.9159195636718361  0.5843059321599114  0.8302033691755152   T   T   T
  0.9072807482173977  0.5696617178557846  0.0059541749396240   T   T   T
  0.5535581221570176  0.9201743634686351  0.5074452202359788   T   T   T
  0.5445880891714366  0.7521568085873858  0.6700860593388083   T   T   T
  0.2541138616730359  0.5548414640598941  0.5159625849620211   T   T   T
  0.2504004694669000  0.4070009562838526  0.3490310853625780   T   T   T
  0.5797186358249931  0.9077134837067524  0.1761434010017872   T   T   T
  0.2472108524335561  0.5646965193580405  0.3552760921781013   T   T   T
  0.0853789378163788  0.8940127395396097  0.1903381851834368   T   T   T
  0.0381400850244186  0.2626156619090759  0.4960845858781806   T   T   T
  0.9202776189658478  0.7482078564951545 -0.0022590229819421   T   T   T
  0.9167168501611769  0.7435063376870079  0.8344032985287406   T   T   T
  0.2397817384315182  0.2317038496314069  0.6679476610751088   T   T   T
  0.8981191223217372  0.2358153857772346  0.0143129021229360   T   T   T
  0.4188092531170314  0.7376742921342512  0.8140413822685958   T   T   T
  0.5650693074595372  0.4055529608331694  0.8459299509837706   T   T   T
  0.2545830277845272  0.4685528993118627  0.1939759213416145   T   T   T
  0.2645114454218135  0.6891495577424834  0.1942392698136892   T   T   T
  0.8960585042124839  0.0739082952837954  0.8523294613504891   T   T   T
  0.4795219550938717  0.2481825878607272  0.5112670012773272   T   T   T
  0.9198068121572227  0.4211631011711643  0.6631982350867782   T   T   T
  0.7259867231729974  0.2465241220861203  0.0028063472871348   T   T   T
  0.4009781381097141  0.9143780201465340  0.3350217925836748   T   T   T
  0.0752963381744507  0.4076761220891392  0.8323036740771442   T   T   T
  0.0863547813178256  0.7431079237525101  0.8248957237987816   T   T   T
  0.8998749655509838  0.2379766563491244  0.6769236540748799   T   T   T
  0.5831282677408224  0.5851904376793238  0.8303264008540170   T   T   T
  0.4098299700000000  0.4105500000000000  0.3493199900000000   F   F   F
  0.4210000000000000  0.5906100300000000  0.3288600100000000   F   F   F
  0.5893000400000000  0.4294100100000000  0.3294600000000000   F   F   F
  0.4098299700000000  0.5795900200000000  0.5097299800000000   F   F   F
  0.5778700100000000  0.5859400000000000  0.3337799900000000   F   F   F
  0.4100900300000000  0.4120700100000000  0.6862800100000001   F   F   F
  0.4212600000000000  0.4230700100000000  0.5054100200000000   F   F   F
  0.5893000400000000  0.5984500000000000  0.4898800000000000   F   F   F
  0.5781300100000000  0.5874400100000000  0.6707500199999999   F   F   F
  0.4212600000000000  0.5921099800000000  0.6658300200000000   F   F   F
  0.5895600300000000  0.4309099900000000  0.6664199800000000   F   F   F
  0.5781300100000000  0.4183900100000000  0.5103300200000001   F   F   F
  0.4326912408108692  0.7165537749531058  0.6970575416143753   T   T   T
  0.8720661911191485  0.8953982058261999  0.6339306826026330   T   T   T
  0.1048101332527115  0.1711182566204562  0.5215028959474164   T   T   T
  0.2015794532387581  0.3795405902102577  0.1385042169760395   T   T   T
  0.5691544848078030  0.0536205633096414  0.8660016245109587   T   T   T
  0.2201437092038655  0.5488582235104110  0.7115630135350107   T   T   T
  0.5426059142085887  0.5449077421794234  0.1426039748948126   T   T   T
  0.0834944443056919  0.8711408110783160  0.4526248450011239   T   T   T
  0.6039614975671568  0.7181530794569799  0.4693249406834593   T   T   T
  0.5857147356319465  0.2975325543822507  0.4857727127117792   T   T   T
  0.0313675619512743  0.2655995207066983  0.3777233686654097   T   T   T
 
  0.00000000E+00  0.00000000E+00  0.00000000E+00
  0.00000000E+00  0.00000000E+00  0.00000000E+00
  0.00000000E+00  0.00000000E+00  0.00000000E+00
  0.00000000E+00  0.00000000E+00  0.00000000E+00
  0.00000000E+00  0.00000000E+00  0.00000000E+00
  0.00000000E+00  0.00000000E+00  0.00000000E+00
  0.00000000E+00  0.00000000E+00  0.00000000E+00
  0.00000000E+00  0.00000000E+00  0.00000000E+00
  0.00000000E+00  0.00000000E+00  0.00000000E+00
  0.00000000E+00  0.00000000E+00  0.00000000E+00
  0.00000000E+00  0.00000000E+00  0.00000000E+00
  0.00000000E+00  0.00000000E+00  0.00000000E+00
  0.00000000E+00  0.00000000E+00  0.00000000E+00
  0.00000000E+00  0.00000000E+00  0.00000000E+00
  0.00000000E+00  0.00000000E+00  0.00000000E+00
  0.00000000E+00  0.00000000E+00  0.00000000E+00
  0.00000000E+00  0.00000000E+00  0.00000000E+00
  0.00000000E+00  0.00000000E+00  0.00000000E+00
  0.00000000E+00  0.00000000E+00  0.00000000E+00
  0.00000000E+00  0.00000000E+00  0.00000000E+00
  0.00000000E+00  0.00000000E+00  0.00000000E+00
  0.00000000E+00  0.00000000E+00  0.00000000E+00
  0.00000000E+00  0.00000000E+00  0.00000000E+00
  0.00000000E+00  0.00000000E+00  0.00000000E+00
  0.00000000E+00  0.00000000E+00  0.00000000E+00
  0.00000000E+00  0.00000000E+00  0.00000000E+00
  0.00000000E+00  0.00000000E+00  0.00000000E+00
  0.00000000E+00  0.00000000E+00  0.00000000E+00
  0.00000000E+00  0.00000000E+00  0.00000000E+00
  0.00000000E+00  0.00000000E+00  0.00000000E+00
  0.00000000E+00  0.00000000E+00  0.00000000E+00
  0.00000000E+00  0.00000000E+00  0.00000000E+00
  0.00000000E+00  0.00000000E+00  0.00000000E+00
  0.00000000E+00  0.00000000E+00  0.00000000E+00
  0.00000000E+00  0.00000000E+00  0.00000000E+00
  0.00000000E+00  0.00000000E+00  0.00000000E+00
  0.00000000E+00  0.00000000E+00  0.00000000E+00
  0.00000000E+00  0.00000000E+00  0.00000000E+00
  0.00000000E+00  0.00000000E+00  0.00000000E+00
  0.00000000E+00  0.00000000E+00  0.00000000E+00
  0.00000000E+00  0.00000000E+00  0.00000000E+00
  0.00000000E+00  0.00000000E+00  0.00000000E+00
  0.00000000E+00  0.00000000E+00  0.00000000E+00
  0.00000000E+00  0.00000000E+00  0.00000000E+00
  0.00000000E+00  0.00000000E+00  0.00000000E+00
  0.00000000E+00  0.00000000E+00  0.00000000E+00
  0.00000000E+00  0.00000000E+00  0.00000000E+00
  0.00000000E+00  0.00000000E+00  0.00000000E+00
  0.00000000E+00  0.00000000E+00  0.00000000E+00
  0.00000000E+00  0.00000000E+00  0.00000000E+00
  0.00000000E+00  0.00000000E+00  0.00000000E+00
  0.00000000E+00  0.00000000E+00  0.00000000E+00
  0.00000000E+00  0.00000000E+00  0.00000000E+00
  0.00000000E+00  0.00000000E+00  0.00000000E+00
  0.00000000E+00  0.00000000E+00  0.00000000E+00
  0.00000000E+00  0.00000000E+00  0.00000000E+00
  0.00000000E+00  0.00000000E+00  0.00000000E+00
  0.00000000E+00  0.00000000E+00  0.00000000E+00
  0.00000000E+00  0.00000000E+00  0.00000000E+00
  0.00000000E+00  0.00000000E+00  0.00000000E+00
  0.00000000E+00  0.00000000E+00  0.00000000E+00
  0.00000000E+00  0.00000000E+00  0.00000000E+00
  0.00000000E+00  0.00000000E+00  0.00000000E+00
  0.00000000E+00  0.00000000E+00  0.00000000E+00
  0.00000000E+00  0.00000000E+00  0.00000000E+00
  0.00000000E+00  0.00000000E+00  0.00000000E+00
  0.00000000E+00  0.00000000E+00  0.00000000E+00
  0.00000000E+00  0.00000000E+00  0.00000000E+00
  0.00000000E+00  0.00000000E+00  0.00000000E+00
  0.00000000E+00  0.00000000E+00  0.00000000E+00
  0.00000000E+00  0.00000000E+00  0.00000000E+00
  0.00000000E+00  0.00000000E+00  0.00000000E+00
  0.00000000E+00  0.00000000E+00  0.00000000E+00
  0.00000000E+00  0.00000000E+00  0.00000000E+00
  0.00000000E+00  0.00000000E+00  0.00000000E+00
  0.00000000E+00  0.00000000E+00  0.00000000E+00
  0.00000000E+00  0.00000000E+00  0.00000000E+00
  0.00000000E+00  0.00000000E+00  0.00000000E+00
  0.00000000E+00  0.00000000E+00  0.00000000E+00
  0.00000000E+00  0.00000000E+00  0.00000000E+00
  0.00000000E+00  0.00000000E+00  0.00000000E+00
  0.00000000E+00  0.00000000E+00  0.00000000E+00
  0.00000000E+00  0.00000000E+00  0.00000000E+00
  0.00000000E+00  0.00000000E+00  0.00000000E+00
  0.00000000E+00  0.00000000E+00  0.00000000E+00
  0.00000000E+00  0.00000000E+00  0.00000000E+00
  0.00000000E+00  0.00000000E+00  0.00000000E+00
  0.00000000E+00  0.00000000E+00  0.00000000E+00
  0.00000000E+00  0.00000000E+00  0.00000000E+00
  0.00000000E+00  0.00000000E+00  0.00000000E+00
  0.00000000E+00  0.00000000E+00  0.00000000E+00
  0.00000000E+00  0.00000000E+00  0.00000000E+00
  0.00000000E+00  0.00000000E+00  0.00000000E+00
  0.00000000E+00  0.00000000E+00  0.00000000E+00
  0.00000000E+00  0.00000000E+00  0.00000000E+00
  0.00000000E+00  0.00000000E+00  0.00000000E+00
  0.00000000E+00  0.00000000E+00  0.00000000E+00
  0.00000000E+00  0.00000000E+00  0.00000000E+00
  0.00000000E+00  0.00000000E+00  0.00000000E+00
  0.00000000E+00  0.00000000E+00  0.00000000E+00
  0.00000000E+00  0.00000000E+00  0.00000000E+00
  0.00000000E+00  0.00000000E+00  0.00000000E+00
  0.00000000E+00  0.00000000E+00  0.00000000E+00
  0.00000000E+00  0.00000000E+00  0.00000000E+00
  0.00000000E+00  0.00000000E+00  0.00000000E+00
  0.00000000E+00  0.00000000E+00  0.00000000E+00
  0.00000000E+00  0.00000000E+00  0.00000000E+00
  0.00000000E+00  0.00000000E+00  0.00000000E+00
  0.00000000E+00  0.00000000E+00  0.00000000E+00
  0.00000000E+00  0.00000000E+00  0.00000000E+00
  0.00000000E+00  0.00000000E+00  0.00000000E+00
  0.00000000E+00  0.00000000E+00  0.00000000E+00
  0.00000000E+00  0.00000000E+00  0.00000000E+00
  0.00000000E+00  0.00000000E+00  0.00000000E+00
  0.00000000E+00  0.00000000E+00  0.00000000E+00
  0.00000000E+00  0.00000000E+00  0.00000000E+00
  0.00000000E+00  0.00000000E+00  0.00000000E+00
  0.00000000E+00  0.00000000E+00  0.00000000E+00
  0.00000000E+00  0.00000000E+00  0.00000000E+00
  0.00000000E+00  0.00000000E+00  0.00000000E+00
  0.00000000E+00  0.00000000E+00  0.00000000E+00
  0.00000000E+00  0.00000000E+00  0.00000000E+00
  0.00000000E+00  0.00000000E+00  0.00000000E+00
  0.00000000E+00  0.00000000E+00  0.00000000E+00
  0.00000000E+00  0.00000000E+00  0.00000000E+00
  0.00000000E+00  0.00000000E+00  0.00000000E+00
  0.00000000E+00  0.00000000E+00  0.00000000E+00
  0.00000000E+00  0.00000000E+00  0.00000000E+00
  0.00000000E+00  0.00000000E+00  0.00000000E+00
  0.00000000E+00  0.00000000E+00  0.00000000E+00
  0.00000000E+00  0.00000000E+00  0.00000000E+00
  0.00000000E+00  0.00000000E+00  0.00000000E+00
  0.00000000E+00  0.00000000E+00  0.00000000E+00
  0.00000000E+00  0.00000000E+00  0.00000000E+00
  0.00000000E+00  0.00000000E+00  0.00000000E+00
  0.00000000E+00  0.00000000E+00  0.00000000E+00
  0.00000000E+00  0.00000000E+00  0.00000000E+00
  0.00000000E+00  0.00000000E+00  0.00000000E+00
  0.00000000E+00  0.00000000E+00  0.00000000E+00
  0.00000000E+00  0.00000000E+00  0.00000000E+00
  0.00000000E+00  0.00000000E+00  0.00000000E+00
  0.00000000E+00  0.00000000E+00  0.00000000E+00
  0.00000000E+00  0.00000000E+00  0.00000000E+00
  0.00000000E+00  0.00000000E+00  0.00000000E+00
  0.00000000E+00  0.00000000E+00  0.00000000E+00
  0.00000000E+00  0.00000000E+00  0.00000000E+00
  0.00000000E+00  0.00000000E+00  0.00000000E+00
  0.00000000E+00  0.00000000E+00  0.00000000E+00
  0.00000000E+00  0.00000000E+00  0.00000000E+00
  0.00000000E+00  0.00000000E+00  0.00000000E+00
  0.00000000E+00  0.00000000E+00  0.00000000E+00
  0.00000000E+00  0.00000000E+00  0.00000000E+00
  0.00000000E+00  0.00000000E+00  0.00000000E+00
  0.00000000E+00  0.00000000E+00  0.00000000E+00
  0.00000000E+00  0.00000000E+00  0.00000000E+00
  0.00000000E+00  0.00000000E+00  0.00000000E+00
  0.00000000E+00  0.00000000E+00  0.00000000E+00
  0.00000000E+00  0.00000000E+00  0.00000000E+00
  0.00000000E+00  0.00000000E+00  0.00000000E+00
  0.00000000E+00  0.00000000E+00  0.00000000E+00
  0.00000000E+00  0.00000000E+00  0.00000000E+00
  0.00000000E+00  0.00000000E+00  0.00000000E+00
  0.00000000E+00  0.00000000E+00  0.00000000E+00
  0.00000000E+00  0.00000000E+00  0.00000000E+00
  0.00000000E+00  0.00000000E+00  0.00000000E+00
  0.00000000E+00  0.00000000E+00  0.00000000E+00
  0.00000000E+00  0.00000000E+00  0.00000000E+00
  0.00000000E+00  0.00000000E+00  0.00000000E+00
  0.00000000E+00  0.00000000E+00  0.00000000E+00
  0.00000000E+00  0.00000000E+00  0.00000000E+00
  0.00000000E+00  0.00000000E+00  0.00000000E+00
  0.00000000E+00  0.00000000E+00  0.00000000E+00
  0.00000000E+00  0.00000000E+00  0.00000000E+00
  0.00000000E+00  0.00000000E+00  0.00000000E+00
  0.00000000E+00  0.00000000E+00  0.00000000E+00
  0.00000000E+00  0.00000000E+00  0.00000000E+00
  0.00000000E+00  0.00000000E+00  0.00000000E+00
  0.00000000E+00  0.00000000E+00  0.00000000E+00
  0.00000000E+00  0.00000000E+00  0.00000000E+00
  0.00000000E+00  0.00000000E+00  0.00000000E+00
  0.00000000E+00  0.00000000E+00  0.00000000E+00
  0.00000000E+00  0.00000000E+00  0.00000000E+00
  0.00000000E+00  0.00000000E+00  0.00000000E+00
  0.00000000E+00  0.00000000E+00  0.00000000E+00
  0.00000000E+00  0.00000000E+00  0.00000000E+00
  0.00000000E+00  0.00000000E+00  0.00000000E+00
  0.00000000E+00  0.00000000E+00  0.00000000E+00
  0.00000000E+00  0.00000000E+00  0.00000000E+00
  0.00000000E+00  0.00000000E+00  0.00000000E+00
  0.00000000E+00  0.00000000E+00  0.00000000E+00
  0.00000000E+00  0.00000000E+00  0.00000000E+00
  0.00000000E+00  0.00000000E+00  0.00000000E+00
  0.00000000E+00  0.00000000E+00  0.00000000E+00
  0.00000000E+00  0.00000000E+00  0.00000000E+00
  0.00000000E+00  0.00000000E+00  0.00000000E+00
  0.00000000E+00  0.00000000E+00  0.00000000E+00
  0.00000000E+00  0.00000000E+00  0.00000000E+00
  0.00000000E+00  0.00000000E+00  0.00000000E+00
  0.00000000E+00  0.00000000E+00  0.00000000E+00
  0.00000000E+00  0.00000000E+00  0.00000000E+00
  0.00000000E+00  0.00000000E+00  0.00000000E+00
  0.00000000E+00  0.00000000E+00  0.00000000E+00
  0.00000000E+00  0.00000000E+00  0.00000000E+00
  0.00000000E+00  0.00000000E+00  0.00000000E+00
  0.00000000E+00  0.00000000E+00  0.00000000E+00
  0.00000000E+00  0.00000000E+00  0.00000000E+00
  0.00000000E+00  0.00000000E+00  0.00000000E+00
  0.00000000E+00  0.00000000E+00  0.00000000E+00
  0.00000000E+00  0.00000000E+00  0.00000000E+00
  0.00000000E+00  0.00000000E+00  0.00000000E+00
  0.00000000E+00  0.00000000E+00  0.00000000E+00
  0.00000000E+00  0.00000000E+00  0.00000000E+00
  0.00000000E+00  0.00000000E+00  0.00000000E+00
  0.00000000E+00  0.00000000E+00  0.00000000E+00
  0.00000000E+00  0.00000000E+00  0.00000000E+00
  0.00000000E+00  0.00000000E+00  0.00000000E+00
 
           1
   4.00000000000000     
  0.10000000E+01  0.00000000E+00  0.00000000E+00  0.00000000E+00
  0.88195881E+00  0.77097036E-01  0.51873459E+00
  0.41269346E+00  0.74077711E+00  0.16923570E+00
  0.90339609E+00  0.91930095E+00  0.83702026E+00
  0.22810186E+00  0.40553601E+00  0.23288388E-01
  0.74011085E+00  0.70074068E-01  0.14217029E-01
  0.22245130E+00  0.62827100E-01  0.81806589E+00
  0.71461785E+00  0.70637464E-01  0.68233468E+00
  0.73998857E+00  0.24955046E+00  0.66701618E+00
  0.41754515E+00  0.73031461E+00  0.11543825E-01
  0.91736781E+00  0.69774493E-01  0.18310016E+00
  0.77227398E-01  0.90880741E+00 -0.20317874E-02
  0.38106689E+00  0.81259954E-01  0.50572022E+00
  0.57207173E+00  0.84909578E-01  0.34139482E+00
  0.40984454E+00  0.90288932E+00  0.83489247E+00
  0.74918465E+00  0.42317310E+00  0.49852455E+00
  0.72665063E+00  0.40378779E+00  0.83170872E-02
  0.24963098E+00  0.60288214E-01  0.15999417E+00
  0.99333797E-01  0.16340620E+00  0.64109189E+00
  0.58009278E+00  0.67790540E-01  0.18514594E+00
  0.40853159E+00  0.63659889E-01  0.12175434E-02
  0.92500909E+00  0.73793653E+00  0.17104273E+00
  0.73796333E+00  0.74179864E+00  0.67413784E+00
  0.74402635E+00  0.40768896E+00  0.67552572E+00
  0.74412817E+00  0.92277397E+00  0.34152407E+00
  0.89959845E+00  0.41426112E+00 -0.32284248E-02
  0.42795124E+00  0.56724667E+00  0.16791394E+00
  0.75466386E+00  0.73831429E+00  0.11122147E-01
  0.74894777E+00  0.80280089E-01  0.34765170E+00
  0.89747628E+00  0.40573006E+00  0.83928127E+00
  0.89278174E+00  0.77872623E+00  0.65425987E+00
  0.83809651E-01  0.56144036E+00  0.17509417E+00
  0.22730038E+00  0.26517868E+00  0.16078568E+00
  0.74081006E+00  0.41513677E+00  0.83220116E+00
  0.40917676E+00  0.40600514E+00  0.84063219E+00
  0.71302700E-01  0.22590294E+00  0.17222037E+00
  0.74482619E+00  0.57888672E+00  0.17573279E+00
  0.21621288E+00  0.21332915E+00  0.49744098E+00
  0.10685608E+00  0.73924359E+00  0.16773478E+00
  0.40156783E+00  0.57415429E+00  0.99789861E+00
  0.38985370E+00  0.92754591E+00  0.50879914E+00
  0.91742519E+00  0.57521551E+00  0.33784060E+00
  0.17970650E+00  0.27802224E-01  0.64737756E+00
  0.22240872E+00  0.85556909E+00  0.66308567E+00
  0.23452356E+00  0.22749005E+00  0.33703415E+00
  0.25580031E+00  0.64328939E+00  0.65037429E+00
  0.74648835E+00  0.41295999E+00  0.34078954E+00
  0.92524828E+00  0.57951402E+00  0.16779306E+00
  0.74836907E+00  0.75068706E+00  0.83346629E+00
  0.42858552E+00  0.74604050E+00  0.34998221E+00
  0.76313091E+00  0.74941786E+00  0.17084551E+00
  0.12044623E+00  0.73332439E+00  0.66669504E+00
  0.91727534E+00  0.74696292E+00  0.49652483E+00
  0.56393243E+00  0.25179280E+00  0.83731532E+00
  0.58653320E+00  0.91480729E+00  0.34928521E+00
  0.75659754E-01  0.65136451E-01 -0.22292889E-02
  0.90039462E+00  0.79744821E-01  0.77650395E-02
  0.74797423E+00  0.58148081E+00  0.11474935E-02
  0.25390976E+00  0.73702750E+00 -0.92580059E-02
  0.89331345E+00  0.91605368E+00  0.51807726E+00
  0.60049451E+00  0.63789374E+00  0.18349810E+00
  0.91394415E+00  0.41894447E+00  0.32786895E+00
  0.26326132E+00  0.74005289E+00  0.34158024E+00
  0.85137303E-01  0.39838409E+00  0.16153031E+00
  0.56987930E+00  0.93355972E+00  0.84209291E+00
  0.91634213E+00  0.91143837E+00  0.17536265E+00