Ge Se                                   
   1.00000000000000     
    20.2740058898925781    0.0000000000000000    0.0000000000000000
     0.0000000000000000   20.2740058898925781    0.0000000000000000
     0.0000000000000000    0.0000000000000000   20.2740058898925781
   Ge   Se
   150   150
Direct
  0.9573151802925794  0.4876833170043200 -0.0066342757910697
  0.0196289165010716  0.2629027425122079  0.0542771905632780
  0.2129284546999025  0.0846652110844719  0.4292356774822886
  0.6539773877864543  0.7220166777695247  0.6832714132646290
  0.4377101103939504  0.9140101685980606  0.4410611781876798
  0.2524490572456856  0.6082618748371355  0.0954042385017258
  0.0032669257108789  0.4523156154598324  0.2368228193541004
  0.5695045251250375  0.0083990211632246  0.7298981297414500
  0.2492720721544252  0.7626905458205410  0.5994818054915029
  0.6429857606305089  0.7663226380996567  0.2499801375568416
  0.3321514613201012  0.8506988328724028  0.5750086737403969
  0.9624990315290297  0.3779503835316149  0.5984097299871514
  0.7954249539675784  0.2484880368786755  0.8979559625345305
  0.5602707684935022  0.7697883003993299  0.4076961514266658
  0.3051517840928380  0.4836040059495869  0.4861281159429995
  0.5724285326586847  0.4691539866710630  0.6287353590752583
  0.2720403471619615  0.2273585756859524  0.9631572607032377
  0.3710670626977183  0.2056460772283505  0.4366634642254889
  0.1175687305236677  0.7231737276781481  0.9335404144573018
  0.5526704584123154  0.1727591066389395  0.1479438909852775
  0.9927855367282069  0.2856788446313133  0.9294924397837270
  0.3159177699178743  0.6556055093675408  0.4338170967318005
  0.5105112439782510  0.8684990802483401  0.2476124823613603
  0.0739232882720730  0.7552188919731735  0.1382884836096462
  0.6016243880287943  0.2319336694113742  0.3300489381753350
  0.8105021433327064  0.4146408235422123  0.9137201833454838
  0.0183478608284206  0.5759895519962930  0.2575640226673076
  0.5242556157081284  0.6574632388152336  0.5811901866980442
  0.4708209913527596  0.3202239435731102  0.7129978086809033
  0.3795374485791095  0.1515034196018484  0.1874965214866732
  0.7786349583318368  0.6494720636589586  0.3829983728058251
  0.1783418500070861  0.5119843494986950  0.1254539745525897
  0.0985326742151049  0.1885766755810244  0.2375387818517118
  0.3813109261698766  0.4543926422306998  0.3059654947364331
  0.0725994996494144  0.5247101388112575  0.6139157168950576
  0.4471892235978762  0.0079326780048514  0.5642807660548301
  0.4901194756095702  0.5989502562380705  0.2557788227255074
  0.5892639748693466  0.2497480746315738  0.8984436709384811
  0.5261226183754104  0.3157307747409792  0.0490690266021401
  0.6673925607229193  0.0852581368137954  0.4206177426205510
  0.6678257936924168  0.8831678735887301  0.0759873563029547
  0.1432133321952633  0.3907988674018843  0.6468102790066329
  0.9444902372128829  0.3958239449378374  0.7309522915177593
  0.6923504323757939  0.8622674289499070  0.5421119902504299
  0.9385983199967113  0.9887913501738552  0.8783986294417788
  0.6694067983066541  0.4062887249099163  0.9246117769620835
  0.2967863950674382  0.5766688086026505  0.6175685457534070
  0.0065397341019435  0.1916552538411553  0.7425429011488441
  0.0595201222357238  0.4682143914277530  0.8623463723055141
  0.6730010064068189  0.6828616206318100  0.0473705337787592
  0.6369310126317513  0.4664518488053916  0.2431456749441211
  0.1590934058204646  0.2649326485040430  0.3487535043517454
  0.4591355934390945  0.3419914289306180  0.3892232575906366
  0.5345941727091950  0.6366471246867511  0.8958541787671829
  0.1521282650556142  0.2078959498020563  0.7698939175665148
  0.2071359917057235  0.0148763457380377  0.2804463894481058
  0.4673354048655439  0.4816181985402064  0.9722037133287503
  0.8998218683226269  0.0493379051449301  0.3275712156027307
  0.1004225596583302  0.2287100166542066  0.5294026462428252
  0.5379425977445679  0.7905931746640538  0.9920222714195819
  0.7679651596649723  0.1881026907246031  0.3639037372587151
  0.8251330232884336  0.1692391392790447  0.7344011068399339
  0.6785710967302626  0.8360225271767767  0.7371449830526228
  0.1966740789860677  0.7778628722659984  0.1564792934800989
  0.4249211720553684  0.2737068621699872  0.1969255451793029
  0.5919348081939124  0.3231613077296343  0.5346855732492435
  0.3269073125261657  0.8578084778099070  0.7761795967891105
  0.2192505520539885  0.0556840742637093  0.9509022997105889
  0.9080978639534439  0.1980637813669934  0.9011932227841830
  0.0305492048016033  0.0303077934068128  0.1657354940318552
  0.8917719331623509  0.2696739401887815  0.0772877697047662
  0.0878796923499962  0.6389422363870175  0.1789317044008495
  0.2219696635880980  0.0190835913313213  0.1377154414080896
  0.7405363019495470  0.9919647642330751  0.3538660542835355
  0.8599196731530118  0.9255499133322797  0.6184868850982050
  0.9957883709168207  0.8309943425823428  0.4748309039340974
  0.4442977627101314  0.3253252885526728  0.9539746521687649
  0.1064243942112356  0.3733630932149205  0.2626341186200494
  0.3970840190818130  0.5788314377731371  0.8028294688101533
  0.0088923821956726  0.8597228004388902  0.2961669061240786
  0.2682349645457698  0.8443573906213784  0.2351324723813499
  0.2174622866477887  0.6963005521430055  0.8232847594311627
  0.9060918036956642  0.6603998600486412  0.3270643285381702
  0.8887640710712039  0.4576226793518731  0.1690251908252878
  0.6862446854445237  0.5662714653971751  0.4265517108964901
  0.1538539253384077  0.7865015087268939  0.5216288618391910
  0.8219144985548686  0.7025000034598747  0.9298598230617474
  0.7158023390156020  0.1474215710967439  0.5290315114898961
  0.4003209958980695  0.7058491397362813  0.8224558824583770
  0.3101287897088496  0.0216176335274795  0.6069994870321165
 -0.0006966291918824  0.1490615437464576  0.5594311454634482
  0.3625275854610179  0.2793309143898101  0.6156582980831425
  0.0209048417315365  0.7411632608370998  0.6495657613223297
  0.8698940314168500  0.0142761352191484  0.5136862696945461
  0.3414942060871399  0.5538228594279784  0.1651210161642790
  0.9478909919150880  0.2995983529477666  0.2642156059581903
  0.6932847794252772  0.5971825560770808  0.6841480343583787
  0.8275901739847586  0.5748054959890536  0.6545238014394921
  0.7704748133338004  0.3554450743689428  0.5490967242770251
  0.9508095892417506  0.5994901458765757  0.7370293734418335
  0.1012521321348399  0.2691799651107256  0.8713736092144290
  0.0662931776643993  0.9609200733301489  0.5827247575953610
  0.5282917717064790  0.4155073293424186  0.7778447024969261
  0.8220468423416883  0.9458779872177755  0.7563529230705888
  0.4986177117811252  0.5681758560067354  0.3812257455776966
  0.2975857115073243  0.6442922647092898  0.7323437318001322
  0.5584232108425915  0.9178140671256787  0.4801421090223310
  0.8943428637145333  0.9144712653392084  0.1275680981635935
  0.1001921168952539  0.0968276006159153  0.9443986391530316
  0.2386203087407159  0.1690411869223206  0.5896946307142611
  0.7206574084824007  0.2575241818812120  0.1449853313904377
  0.5067094446643565  0.5953633121292236  0.7377271130137673
  0.0595324830726093  0.6200222005964078  0.8064407976718001
  0.8222752842382898  0.8440480627694310  0.8925509113814231
  0.3345598089182485  0.2714549967483708  0.8122759018467255
  0.0628953018796670  0.8834304675170082  0.0088428894209871
  0.4178351234375059  0.3804256604076574  0.1255113827013905
  0.8575085815852417  0.5234559987638907  0.3438660570323922
  0.6429483726681964  0.0459458159064187  0.0508652349694647
  0.0366978483617926  0.8541477753430397  0.8206816704351516
  0.7963548182076641  0.1366993855103985  0.0111501043538090
  0.7516629859000858  0.3752599336778852  0.3592950965338355
  0.2784923093502933  0.8393069329993187  0.3968404065008607
  0.3153373223642065  0.9307849785302050  0.4777503967098349
  0.7448720764988792  0.6034882209528691  0.2152129012025543
  0.4929385363546706  0.0759378388207954  0.3691381242033513
  0.7048225937619783  0.2178439734926038  0.7492228554446653
  0.2573242476096303  0.8767954674374595  0.9654417110542020
  0.3522699632547047  0.1519620306208735  0.3187302744788737
  0.4480749883949071  0.7919878158680793  0.5764422693350416
  0.5858186839915611  0.4864986937409406  0.4238692702415368
  0.8083202043659814  0.7511301525041149  0.2675153910719135
  0.3666315944626535  0.7999545771032524  0.1174191008390716
  0.2446482908838305  0.3492210096797059  0.4091854455992584
  0.9739665770178768  0.1579545320760871  0.3505639410060974
  0.7176263244567572  0.0561435820975161  0.6203189625655773
  0.6319350065539479  0.4690708441654941  0.0801052977370793
  0.5129788146221854  0.9099296005405754  0.8661227090145948
  0.4122837684094847  0.0225650914828054  0.7727177629482143
  0.2943275455780723  0.3899220480498778  0.7767142143922350
  0.1877139842458252  0.7558049922531882  0.7120721773083343
  0.0919057164137090  0.4089167427829201  0.4351852365165605
  0.7256693014321027  0.9405889846740830  0.2304839724074193
  0.5054301587255690  0.4713436218340207  0.1190068561685659
  0.8195789836958617  0.6063451350057505  0.0636797813894956
  0.5095269002544665  0.9148876491401006  0.0977345633404191
  0.1894422212306755  0.0175737741654779  0.7619332403132686
  0.2358107947752130  0.2149364394820990  0.1541515862756296
  0.8837278307235444  0.2097210535386446  0.5737056756214263
  0.0982804208826274  0.4398637850843370 -0.0017440053212019
  0.2185635495243638  0.2021625838101065  0.4456545129829834
  0.9367405248404276  0.4257673858540703  0.3357344788878023
  0.0569696594883692  0.3013712160850728  0.6272687252637583
  0.1905228310917149  0.3883695077211612  0.5126915771467939
  0.9191178375240465  0.6361445963341315  0.9888350597607949
  0.9728516580133684  0.1729927008968424  0.2247924476851089
  0.6497397177818952  0.5831179788529109  0.1297804822218179
  0.8570673174454493  0.3364265680296326  0.1784596167863549
  0.1784098506038366  0.6076536201755446  0.5687423994273366
  0.6231861102674132  0.3494397359390771  0.8234518862797667
  0.9716890699441326  0.8762009221841993  0.5912286868961050
  0.9184384971469678  0.1250080715559193  0.9937832521836349
  0.3546250055030031  0.3258208077042400  0.4656990207877111
  0.1050266569714266  0.8355128522286739  0.6763541142802989
  0.5036604571512066  0.1949567722336935  0.0423377978326414
  0.4547837073705129  0.5602773233997528  0.6357343204401555
  0.7139364714830863  0.2600797886904624  0.2731167254071747
  0.5188420316360909  0.0383294154687709  0.8412567045235195
  0.2091946925726947  0.6618581971814502  0.2011794243875906
  0.1268302788521257  0.9526811830709446  0.1901161493336750
  0.2569040261422420  0.7741110698474598  0.0528140089779215
  0.6045918267367756  0.1032421169563313  0.3138234353027914
  0.6235986679932419  0.8794730870304474  0.2991621561020315
  0.8321473235136860  0.0752955595351636  0.6602000723355257
  0.1874095165974705  0.9647297353785780  0.0264917743069656
  0.3322932193420070  0.6808332893367740  0.5573693589215110
  0.8758655651817099  0.5002442474584956  0.7506643473440457
  0.6516512887395025  0.5772556818759698  0.3010635035834519
  0.2181846652529900  0.3149586543747084  0.7095125458742929
  0.9692663280540651  0.8736626257326194  0.9255965327866115
  0.6409195870538767  0.7525836083324083  0.5667869756853605
  0.2558323674447071  0.1845149840827826  0.8400779816750836
  0.4995113458735617  0.7564882318726371  0.8650688270915233
  0.9050343728097759  0.2522376975120992  0.6918499400099967
  0.9909196713305340  0.0415837406184589  0.4973345798385376
  0.6472895580977466  0.1161654862501911  0.7006314038247214
  0.9067567811449523  0.3138648331725318  0.5121507921867223
  0.5249219238745803  0.4299756209735554  0.5121783627644292
  0.0116369092964022  0.4588656254270143  0.5189023807458044
  0.4063043019785848  0.2267375708282156  0.9001259035649120
  0.8532991164065078  0.6691060666259389  0.7274993581409667
  0.7392205508243419  0.6104753113880887  0.9666864533838663
  0.5111889904665543  0.9045280375294934  0.5961226656118604
  0.4844516965748570  0.0887736020896319  0.1943569896031711
  0.1648916218563901  0.4797665178074423  0.2412232718279467
  0.2739221477297801  0.1007842898108698  0.6961052317981558
  0.5473228222667462  0.2737936654209296  0.2145217171415003
  0.4521772951306697  0.9581024324117347  0.3271887864974009
  0.6665772091544756  0.1446810045758513  0.1475203877698358
  0.9069866109720039  0.5607250192752169  0.8983634312059459
  0.7947679252007249  0.8207311020900533  0.7676250388222092
  0.8595543133323066  0.7878570457945158  0.4745935106695910
  0.1965685851970393  0.8917076537955346  0.3180277623885980
  0.7890616210039938  0.4860898283593734  0.2401657852330351
  0.4379186326383513  0.4125868332336627  0.8682915477996594
  0.1970254197070683  0.0551467284436733  0.5460629053381196
  0.8113726718070460  0.9712386064520651  0.8835174659446371
  0.1273637405808776  0.2920625734327261  0.1692177466475194
  0.4008672701552393  0.2191519742381948  0.7259398449571622
  0.0550890058934454  0.2872148365030367  0.4294211098549898
  0.8049576684217240  0.7745180416051201  0.0297202941327722
  0.2648622377831458  0.9926344752572401  0.8566551514821193
  0.7637713940724942  0.2393155640500038  0.6057768665574844
  0.2997639101923802  0.1178710249391552  0.0136696114032310
  0.3088071653811468  0.7479297743897493  0.8871586181079268
  0.7248409384578963  0.7596092797352102  0.3621119599201068
  0.3419515489720277  0.7862653694903987  0.3072786914769264
  0.0754298805486960  0.5652157712024621  0.0849143956064017
  0.5838319908956864  0.9389052584014023  0.9956732561643115
  0.2023725252132458  0.4210870640101290  0.0543985211227756
  0.0312397768002518  0.7562306119649662  0.0279962608997313
  0.4926240835478055  0.2281290379160846  0.4315794175954014
  0.7984898163539945  0.3178889530481553  0.9988323219222521
  0.7665986685836221  0.8346552878444330  0.1851052413749940
  0.6592003208812163  0.3733529943787923  0.6264759733816412
  0.8829535803254286  0.2448251702499058  0.3580658074337068
  0.6145414728146771  0.5430391143385908  0.7617676010331449
  0.0559665704716602  0.4547217537813598  0.7348729608548177
  0.7209147583925348  0.2958122097077641  0.4511449617518294
  0.9439972977558977  0.9630964346588246  0.2454981688580187
  0.1020532047660471  0.0921902571658579  0.8201602144344645
  0.4078594494544240  0.5618332982161480  0.4649504001796428
  0.7819644070448395  0.4781489267621093  0.4333016415154375
  0.6323526877022689  0.5712511729444880  0.5810174142971842
  0.9205563783356159  0.6261519907375920  0.2069629627035351
  0.0491877142279056  0.7244381514803636  0.5233348059669261
  0.4924410365594358  0.2740319439696642  0.6042147439727424
  0.9489950166812120  0.9345622598437455  0.7617325817309405
  0.4423958600513177  0.5736604355544304  0.1034509352366583
  0.4255071411335637  0.8479325492613079  0.0197184307205262
  0.1443062577947582  0.1302655707778060  0.1331765642332480
  0.3649522228591000  0.5872417811081878  0.2788091058931551
  0.2678046878187846  0.4610078979080712  0.3660796393782613
  0.9832246774649198  0.8119617531066592  0.1853823285687191
  0.1215496701307468  0.0499223711672276  0.3641822949354009
  0.9543955202270721  0.3959482880601772  0.8936687247683694
  0.7695525836237627  0.0131273214660154  0.0397215852508613
  0.2413060062823333  0.1816413133504286  0.2768188606388709
  0.3675221071642051  0.7489802316692082  0.7117024632123663
  0.9153277033024986  0.1220240287274369  0.8078164986009887
  0.3540919296180999  0.3660114808358546  0.0245248434529631
  0.5097851492666423  0.4688053196417731  0.2409015233952725
  0.5496692552282003  0.6651831113360048  0.0154041099811318
  0.8075952954366781  0.8183329427398193  0.5812966800374404
  0.6971201360073921  0.1803116497952451  0.8755511226335227
  0.4740228869560855  0.0704279142888334  0.6689291351758483
  0.8409367983908894  0.4791144863097150  0.0562468896897717
  0.0227913848980749  0.0993475031326701  0.6634018793779014
  0.5762291519155176  0.8067813163084544  0.1206055999856601
  0.4178291567937946  0.5895728481029553  0.9259167643979965
  0.5960421970407649  0.5006553735239485  0.9598683799095198
  0.0161103035304199  0.6201024536092541  0.3669598756806609
  0.6293442147936649  0.9804804344686763  0.1577908837114337
  0.7906112534353679  0.0863380494137247  0.2862824842731980
  0.3741163653643410  0.3097865265414132  0.2992930625340829
  0.7964098880557564  0.3352540783914397  0.8168906227925139
  0.1538550005686363  0.8398983859398816  0.9037056703475639
  0.2037287169662333  0.7457395934243288  0.4184705016016842
  0.5350308676257610  0.7094884004119471  0.7044697589868399
  0.2794067105224831  0.9148260274097053  0.6666699996297425
  0.8583123178563111  0.9585865513437275  0.4022279448303562
  0.2172222194241866  0.5747175941889088  0.4609588913378912
  0.6869048094178600  0.9236394495560516  0.6520139479243399
  0.0159739056060728  0.7257451291795791  0.8549326802140347
  0.8212788392334449  0.1810611466004373  0.1275703566681480
  0.1390360583983164  0.2144472063882382  0.9742041669640872
  0.9814274221553588  0.9794102873199743  0.0630620172268835
  0.8276303357704003  0.1252154957087273  0.4766515920916015
  0.6350855347839131  0.8848801750101284  0.8369515452532162
  0.5185528860479712  0.7466827800954405  0.2917140292486070
  0.7164195603151617  0.8062807685378830  0.9544216806712024
  0.3264100994459381  0.4337840221973464  0.1905795617351274
  0.4383082749883966  0.7895839305002611  0.4489916803526388
  0.5583939791055599  0.0470937729636884  0.4785473769572345
  0.5662186933212197  0.6495220609101943  0.4405054200606772
  0.6384000718481214  0.3080478413941602  0.9989069978137238
  0.3786447857140577  0.3975001409183715  0.6840396932859284
  0.1129957864360208  0.6563997464183953  0.6946807167863326
  0.3286617721341401  0.9141929608042862  0.1626750106634708
  0.4449268145384416  0.8998098763345216  0.7544161813258291
  0.3140242863814028  0.0454358241798248  0.3781365624033602
  0.9684073111792790  0.5951060482724398  0.6161441252084230
  0.3604381074691855  0.1508460701375195  0.5459945345775359
  0.8125563828126244  0.0129180076320813  0.1502226574291458
  0.1213505918609086  0.8974960117657463  0.4850044174412363
  0.8512182972027778  0.6713008726739415  0.4825830237460583
  0.0142241762404705  0.3845756653710865  0.0749711374770246
  0.1477726204195513  0.3800279121351132  0.8914063960468125
  0.6239663016429496  0.3972278899600639  0.3469961195447098
  0.9097833071523659  0.7945104973813293  0.3375557850070417
 
  0.00000000E+00  0.00000000E+00  0.00000000E+00
  0.00000000E+00  0.00000000E+00  0.00000000E+00
  0.00000000E+00  0.00000000E+00  0.00000000E+00
  0.00000000E+00  0.00000000E+00  0.00000000E+00
  0.00000000E+00  0.00000000E+00  0.00000000E+00
  0.00000000E+00  0.00000000E+00  0.00000000E+00
  0.00000000E+00  0.00000000E+00  0.00000000E+00
  0.00000000E+00  0.00000000E+00  0.00000000E+00
  0.00000000E+00  0.00000000E+00  0.00000000E+00
  0.00000000E+00  0.00000000E+00  0.00000000E+00
  0.00000000E+00  0.00000000E+00  0.00000000E+00
  0.00000000E+00  0.00000000E+00  0.00000000E+00
  0.00000000E+00  0.00000000E+00  0.00000000E+00
  0.00000000E+00  0.00000000E+00  0.00000000E+00
  0.00000000E+00  0.00000000E+00  0.00000000E+00
  0.00000000E+00  0.00000000E+00  0.00000000E+00
  0.00000000E+00  0.00000000E+00  0.00000000E+00
  0.00000000E+00  0.00000000E+00  0.00000000E+00
  0.00000000E+00  0.00000000E+00  0.00000000E+00
  0.00000000E+00  0.00000000E+00  0.00000000E+00
  0.00000000E+00  0.00000000E+00  0.00000000E+00
  0.00000000E+00  0.00000000E+00  0.00000000E+00
  0.00000000E+00  0.00000000E+00  0.00000000E+00
  0.00000000E+00  0.00000000E+00  0.00000000E+00
  0.00000000E+00  0.00000000E+00  0.00000000E+00
  0.00000000E+00  0.00000000E+00  0.00000000E+00
  0.00000000E+00  0.00000000E+00  0.00000000E+00
  0.00000000E+00  0.00000000E+00  0.00000000E+00
  0.00000000E+00  0.00000000E+00  0.00000000E+00
  0.00000000E+00  0.00000000E+00  0.00000000E+00
  0.00000000E+00  0.00000000E+00  0.00000000E+00
  0.00000000E+00  0.00000000E+00  0.00000000E+00
  0.00000000E+00  0.00000000E+00  0.00000000E+00
  0.00000000E+00  0.00000000E+00  0.00000000E+00
  0.00000000E+00  0.00000000E+00  0.00000000E+00
  0.00000000E+00  0.00000000E+00  0.00000000E+00
  0.00000000E+00  0.00000000E+00  0.00000000E+00
  0.00000000E+00  0.00000000E+00  0.00000000E+00
  0.00000000E+00  0.00000000E+00  0.00000000E+00
  0.00000000E+00  0.00000000E+00  0.00000000E+00
  0.00000000E+00  0.00000000E+00  0.00000000E+00
  0.00000000E+00  0.00000000E+00  0.00000000E+00
  0.00000000E+00  0.00000000E+00  0.00000000E+00
  0.00000000E+00  0.00000000E+00  0.00000000E+00
  0.00000000E+00  0.00000000E+00  0.00000000E+00
  0.00000000E+00  0.00000000E+00  0.00000000E+00
  0.00000000E+00  0.00000000E+00  0.00000000E+00
  0.00000000E+00  0.00000000E+00  0.00000000E+00
  0.00000000E+00  0.00000000E+00  0.00000000E+00
  0.00000000E+00  0.00000000E+00  0.00000000E+00
  0.00000000E+00  0.00000000E+00  0.00000000E+00
  0.00000000E+00  0.00000000E+00  0.00000000E+00
  0.00000000E+00  0.00000000E+00  0.00000000E+00
  0.00000000E+00  0.00000000E+00  0.00000000E+00
  0.00000000E+00  0.00000000E+00  0.00000000E+00
  0.00000000E+00  0.00000000E+00  0.00000000E+00
  0.00000000E+00  0.00000000E+00  0.00000000E+00
  0.00000000E+00  0.00000000E+00  0.00000000E+00
  0.00000000E+00  0.00000000E+00  0.00000000E+00
  0.00000000E+00  0.00000000E+00  0.00000000E+00
  0.00000000E+00  0.00000000E+00  0.00000000E+00
  0.00000000E+00  0.00000000E+00  0.00000000E+00
  0.00000000E+00  0.00000000E+00  0.00000000E+00
  0.00000000E+00  0.00000000E+00  0.00000000E+00
  0.00000000E+00  0.00000000E+00  0.00000000E+00
  0.00000000E+00  0.00000000E+00  0.00000000E+00
  0.00000000E+00  0.00000000E+00  0.00000000E+00
  0.00000000E+00  0.00000000E+00  0.00000000E+00
  0.00000000E+00  0.00000000E+00  0.00000000E+00
  0.00000000E+00  0.00000000E+00  0.00000000E+00
  0.00000000E+00  0.00000000E+00  0.00000000E+00
  0.00000000E+00  0.00000000E+00  0.00000000E+00
  0.00000000E+00  0.00000000E+00  0.00000000E+00
  0.00000000E+00  0.00000000E+00  0.00000000E+00
  0.00000000E+00  0.00000000E+00  0.00000000E+00
  0.00000000E+00  0.00000000E+00  0.00000000E+00
  0.00000000E+00  0.00000000E+00  0.00000000E+00
  0.00000000E+00  0.00000000E+00  0.00000000E+00
  0.00000000E+00  0.00000000E+00  0.00000000E+00
  0.00000000E+00  0.00000000E+00  0.00000000E+00
  0.00000000E+00  0.00000000E+00  0.00000000E+00
  0.00000000E+00  0.00000000E+00  0.00000000E+00
  0.00000000E+00  0.00000000E+00  0.00000000E+00
  0.00000000E+00  0.00000000E+00  0.00000000E+00
  0.00000000E+00  0.00000000E+00  0.00000000E+00
  0.00000000E+00  0.00000000E+00  0.00000000E+00
  0.00000000E+00  0.00000000E+00  0.00000000E+00
  0.00000000E+00  0.00000000E+00  0.00000000E+00
  0.00000000E+00  0.00000000E+00  0.00000000E+00
  0.00000000E+00  0.00000000E+00  0.00000000E+00
  0.00000000E+00  0.00000000E+00  0.00000000E+00
  0.00000000E+00  0.00000000E+00  0.00000000E+00
  0.00000000E+00  0.00000000E+00  0.00000000E+00
  0.00000000E+00  0.00000000E+00  0.00000000E+00
  0.00000000E+00  0.00000000E+00  0.00000000E+00
  0.00000000E+00  0.00000000E+00  0.00000000E+00
  0.00000000E+00  0.00000000E+00  0.00000000E+00
  0.00000000E+00  0.00000000E+00  0.00000000E+00
  0.00000000E+00  0.00000000E+00  0.00000000E+00
  0.00000000E+00  0.00000000E+00  0.00000000E+00
  0.00000000E+00  0.00000000E+00  0.00000000E+00
  0.00000000E+00  0.00000000E+00  0.00000000E+00
  0.00000000E+00  0.00000000E+00  0.00000000E+00
  0.00000000E+00  0.00000000E+00  0.00000000E+00
  0.00000000E+00  0.00000000E+00  0.00000000E+00
  0.00000000E+00  0.00000000E+00  0.00000000E+00
  0.00000000E+00  0.00000000E+00  0.00000000E+00
  0.00000000E+00  0.00000000E+00  0.00000000E+00
  0.00000000E+00  0.00000000E+00  0.00000000E+00
  0.00000000E+00  0.00000000E+00  0.00000000E+00
  0.00000000E+00  0.00000000E+00  0.00000000E+00
  0.00000000E+00  0.00000000E+00  0.00000000E+00
  0.00000000E+00  0.00000000E+00  0.00000000E+00
  0.00000000E+00  0.00000000E+00  0.00000000E+00
  0.00000000E+00  0.00000000E+00  0.00000000E+00
  0.00000000E+00  0.00000000E+00  0.00000000E+00
  0.00000000E+00  0.00000000E+00  0.00000000E+00
  0.00000000E+00  0.00000000E+00  0.00000000E+00
  0.00000000E+00  0.00000000E+00  0.00000000E+00
  0.00000000E+00  0.00000000E+00  0.00000000E+00
  0.00000000E+00  0.00000000E+00  0.00000000E+00
  0.00000000E+00  0.00000000E+00  0.00000000E+00
  0.00000000E+00  0.00000000E+00  0.00000000E+00
  0.00000000E+00  0.00000000E+00  0.00000000E+00
  0.00000000E+00  0.00000000E+00  0.00000000E+00
  0.00000000E+00  0.00000000E+00  0.00000000E+00
  0.00000000E+00  0.00000000E+00  0.00000000E+00
  0.00000000E+00  0.00000000E+00  0.00000000E+00
  0.00000000E+00  0.00000000E+00  0.00000000E+00
  0.00000000E+00  0.00000000E+00  0.00000000E+00
  0.00000000E+00  0.00000000E+00  0.00000000E+00
  0.00000000E+00  0.00000000E+00  0.00000000E+00
  0.00000000E+00  0.00000000E+00  0.00000000E+00
  0.00000000E+00  0.00000000E+00  0.00000000E+00
  0.00000000E+00  0.00000000E+00  0.00000000E+00
  0.00000000E+00  0.00000000E+00  0.00000000E+00
  0.00000000E+00  0.00000000E+00  0.00000000E+00
  0.00000000E+00  0.00000000E+00  0.00000000E+00
  0.00000000E+00  0.00000000E+00  0.00000000E+00
  0.00000000E+00  0.00000000E+00  0.00000000E+00
  0.00000000E+00  0.00000000E+00  0.00000000E+00
  0.00000000E+00  0.00000000E+00  0.00000000E+00
  0.00000000E+00  0.00000000E+00  0.00000000E+00
  0.00000000E+00  0.00000000E+00  0.00000000E+00
  0.00000000E+00  0.00000000E+00  0.00000000E+00
  0.00000000E+00  0.00000000E+00  0.00000000E+00
  0.00000000E+00  0.00000000E+00  0.00000000E+00
  0.00000000E+00  0.00000000E+00  0.00000000E+00
  0.00000000E+00  0.00000000E+00  0.00000000E+00
  0.00000000E+00  0.00000000E+00  0.00000000E+00
  0.00000000E+00  0.00000000E+00  0.00000000E+00
  0.00000000E+00  0.00000000E+00  0.00000000E+00
  0.00000000E+00  0.00000000E+00  0.00000000E+00
  0.00000000E+00  0.00000000E+00  0.00000000E+00
  0.00000000E+00  0.00000000E+00  0.00000000E+00
  0.00000000E+00  0.00000000E+00  0.00000000E+00
  0.00000000E+00  0.00000000E+00  0.00000000E+00
  0.00000000E+00  0.00000000E+00  0.00000000E+00
  0.00000000E+00  0.00000000E+00  0.00000000E+00
  0.00000000E+00  0.00000000E+00  0.00000000E+00
  0.00000000E+00  0.00000000E+00  0.00000000E+00
  0.00000000E+00  0.00000000E+00  0.00000000E+00
  0.00000000E+00  0.00000000E+00  0.00000000E+00
  0.00000000E+00  0.00000000E+00  0.00000000E+00
  0.00000000E+00  0.00000000E+00  0.00000000E+00
  0.00000000E+00  0.00000000E+00  0.00000000E+00
  0.00000000E+00  0.00000000E+00  0.00000000E+00
  0.00000000E+00  0.00000000E+00  0.00000000E+00
  0.00000000E+00  0.00000000E+00  0.00000000E+00
  0.00000000E+00  0.00000000E+00  0.00000000E+00
  0.00000000E+00  0.00000000E+00  0.00000000E+00
  0.00000000E+00  0.00000000E+00  0.00000000E+00
  0.00000000E+00  0.00000000E+00  0.00000000E+00
  0.00000000E+00  0.00000000E+00  0.00000000E+00
  0.00000000E+00  0.00000000E+00  0.00000000E+00
  0.00000000E+00  0.00000000E+00  0.00000000E+00
  0.00000000E+00  0.00000000E+00  0.00000000E+00
  0.00000000E+00  0.00000000E+00  0.00000000E+00
  0.00000000E+00  0.00000000E+00  0.00000000E+00
  0.00000000E+00  0.00000000E+00  0.00000000E+00
  0.00000000E+00  0.00000000E+00  0.00000000E+00
  0.00000000E+00  0.00000000E+00  0.00000000E+00
  0.00000000E+00  0.00000000E+00  0.00000000E+00
  0.00000000E+00  0.00000000E+00  0.00000000E+00
  0.00000000E+00  0.00000000E+00  0.00000000E+00
  0.00000000E+00  0.00000000E+00  0.00000000E+00
  0.00000000E+00  0.00000000E+00  0.00000000E+00
  0.00000000E+00  0.00000000E+00  0.00000000E+00
  0.00000000E+00  0.00000000E+00  0.00000000E+00
  0.00000000E+00  0.00000000E+00  0.00000000E+00
  0.00000000E+00  0.00000000E+00  0.00000000E+00
  0.00000000E+00  0.00000000E+00  0.00000000E+00
  0.00000000E+00  0.00000000E+00  0.00000000E+00
  0.00000000E+00  0.00000000E+00  0.00000000E+00
  0.00000000E+00  0.00000000E+00  0.00000000E+00
  0.00000000E+00  0.00000000E+00  0.00000000E+00
  0.00000000E+00  0.00000000E+00  0.00000000E+00
  0.00000000E+00  0.00000000E+00  0.00000000E+00
  0.00000000E+00  0.00000000E+00  0.00000000E+00
  0.00000000E+00  0.00000000E+00  0.00000000E+00
  0.00000000E+00  0.00000000E+00  0.00000000E+00
  0.00000000E+00  0.00000000E+00  0.00000000E+00
  0.00000000E+00  0.00000000E+00  0.00000000E+00
  0.00000000E+00  0.00000000E+00  0.00000000E+00
  0.00000000E+00  0.00000000E+00  0.00000000E+00
  0.00000000E+00  0.00000000E+00  0.00000000E+00
  0.00000000E+00  0.00000000E+00  0.00000000E+00
  0.00000000E+00  0.00000000E+00  0.00000000E+00
  0.00000000E+00  0.00000000E+00  0.00000000E+00
  0.00000000E+00  0.00000000E+00  0.00000000E+00
  0.00000000E+00  0.00000000E+00  0.00000000E+00
  0.00000000E+00  0.00000000E+00  0.00000000E+00
  0.00000000E+00  0.00000000E+00  0.00000000E+00
  0.00000000E+00  0.00000000E+00  0.00000000E+00
  0.00000000E+00  0.00000000E+00  0.00000000E+00
  0.00000000E+00  0.00000000E+00  0.00000000E+00
  0.00000000E+00  0.00000000E+00  0.00000000E+00
  0.00000000E+00  0.00000000E+00  0.00000000E+00
  0.00000000E+00  0.00000000E+00  0.00000000E+00
  0.00000000E+00  0.00000000E+00  0.00000000E+00
  0.00000000E+00  0.00000000E+00  0.00000000E+00
  0.00000000E+00  0.00000000E+00  0.00000000E+00
  0.00000000E+00  0.00000000E+00  0.00000000E+00
  0.00000000E+00  0.00000000E+00  0.00000000E+00
  0.00000000E+00  0.00000000E+00  0.00000000E+00
  0.00000000E+00  0.00000000E+00  0.00000000E+00
  0.00000000E+00  0.00000000E+00  0.00000000E+00
  0.00000000E+00  0.00000000E+00  0.00000000E+00
  0.00000000E+00  0.00000000E+00  0.00000000E+00
  0.00000000E+00  0.00000000E+00  0.00000000E+00
  0.00000000E+00  0.00000000E+00  0.00000000E+00
  0.00000000E+00  0.00000000E+00  0.00000000E+00