In2O3 structure 41 - random placement wi
   1.00000000000000     
     8.0854502812060698    0.0019659911248742   -0.0018693756106768
     0.0019835237149277    8.0143410561132598    0.0856754085610902
    -0.0019269984975172    0.0857436086140491    8.0179495853698750
   In   O 
    16    24
Direct
  0.5175096042823797  0.8835100548198985  0.1686029158390364
  0.2899504672695546  0.1011626734185407  0.8910683699937201
  0.7897653403259070  0.1313409054016534  0.4212607464962064
  0.2901246150874263  0.1037804865055944  0.3883824790981655
  0.0175706976723858  0.3535733423875946  0.1390362691778413
  0.0174351891149972  0.3509572708930936  0.6412654784175863
  0.2899058143138637  0.6015100264583392  0.3909600600825674
  0.0171121791667387  0.8511586319081462  0.1413161334283646
  0.5176991052503841  0.8811702832994028  0.6711176638381289
  0.7901939021782391  0.6335488160565451  0.4190340105732445
  0.5177556436050850  0.3814246923594041  0.1711620972907569
  0.0175652353900526  0.8537544108341530  0.6387790061763953
  0.7900632487504559  0.6311504651636615  0.9211266582586503
  0.5171443926698323  0.3836236633373123  0.6687016172397086
  0.2897058283663848  0.6037301284066844  0.8885437324914335
  0.7900686262613010  0.1338047428239072  0.9189132518751663
  0.5539598915524200  0.4955099150344276  0.9233757102774820
  0.0538234905254098  0.7388247406258228  0.8867308755040495
  0.5542145858503805  0.6357342746026288  0.2843375001678889
  0.7535185671728146  0.3857777796569928  0.5341708810032849
  0.4037303469132874  0.8474432792755998  0.9246857146113560
  0.9033066368115571  0.8875528748161564  0.3850192362296493
  0.2535222644212191  0.4892245493865637  0.1364708272783938
  0.2535555101866590  0.8494852471546841  0.2755491883677517
  0.9036040285134337  0.0975988577623883  0.6748215576360931
  0.9041255454813103  0.3875846274468663  0.8850844226878734
  0.4032366269951650  0.6375765555428479  0.6350003445536551
  0.4037837680758816  0.3475847231955406  0.4245533765005945
  0.2537147420350395  0.9890022359896878  0.6363558175980010
  0.7536811545141483  0.7460768633448643  0.6734133128758569
  0.7536010863173824  0.8857839759915984  0.0339031490514366
  0.0540187795383943  0.0988568324491784  0.0268547635892135
  0.2537538026295023  0.3491229867067909  0.7759297383905579
  0.7538703165384850  0.2460048301243117  0.1734043358794837
  0.9036758453740278  0.5976161883412424  0.1748934810317508
  0.4040609325664931  0.1375854376488882  0.1347431604909149
  0.0539369959566333  0.5986154018441359  0.5267123986606169
  0.0539226548991836  0.2385441368281974  0.3868615672410456
  0.5539111936342315  0.9953691513152690  0.4232844024998179
  0.5543177285686866  0.1357953550598761  0.7840450242711385
 
  0.00000000E+00  0.00000000E+00  0.00000000E+00
  0.00000000E+00  0.00000000E+00  0.00000000E+00
  0.00000000E+00  0.00000000E+00  0.00000000E+00
  0.00000000E+00  0.00000000E+00  0.00000000E+00
  0.00000000E+00  0.00000000E+00  0.00000000E+00
  0.00000000E+00  0.00000000E+00  0.00000000E+00
  0.00000000E+00  0.00000000E+00  0.00000000E+00
  0.00000000E+00  0.00000000E+00  0.00000000E+00
  0.00000000E+00  0.00000000E+00  0.00000000E+00
  0.00000000E+00  0.00000000E+00  0.00000000E+00
  0.00000000E+00  0.00000000E+00  0.00000000E+00
  0.00000000E+00  0.00000000E+00  0.00000000E+00
  0.00000000E+00  0.00000000E+00  0.00000000E+00
  0.00000000E+00  0.00000000E+00  0.00000000E+00
  0.00000000E+00  0.00000000E+00  0.00000000E+00
  0.00000000E+00  0.00000000E+00  0.00000000E+00
  0.00000000E+00  0.00000000E+00  0.00000000E+00
  0.00000000E+00  0.00000000E+00  0.00000000E+00
  0.00000000E+00  0.00000000E+00  0.00000000E+00
  0.00000000E+00  0.00000000E+00  0.00000000E+00
  0.00000000E+00  0.00000000E+00  0.00000000E+00
  0.00000000E+00  0.00000000E+00  0.00000000E+00
  0.00000000E+00  0.00000000E+00  0.00000000E+00
  0.00000000E+00  0.00000000E+00  0.00000000E+00
  0.00000000E+00  0.00000000E+00  0.00000000E+00
  0.00000000E+00  0.00000000E+00  0.00000000E+00
  0.00000000E+00  0.00000000E+00  0.00000000E+00
  0.00000000E+00  0.00000000E+00  0.00000000E+00
  0.00000000E+00  0.00000000E+00  0.00000000E+00
  0.00000000E+00  0.00000000E+00  0.00000000E+00
  0.00000000E+00  0.00000000E+00  0.00000000E+00
  0.00000000E+00  0.00000000E+00  0.00000000E+00
  0.00000000E+00  0.00000000E+00  0.00000000E+00
  0.00000000E+00  0.00000000E+00  0.00000000E+00
  0.00000000E+00  0.00000000E+00  0.00000000E+00
  0.00000000E+00  0.00000000E+00  0.00000000E+00
  0.00000000E+00  0.00000000E+00  0.00000000E+00
  0.00000000E+00  0.00000000E+00  0.00000000E+00
  0.00000000E+00  0.00000000E+00  0.00000000E+00
  0.00000000E+00  0.00000000E+00  0.00000000E+00
