Sb                                      
   1.00000000000000     
    18.8173007964999996    0.0000000000000000    0.0000000000000000
     0.0000000000000000   18.8173007964999996    0.0000000000000000
     0.0000000000000000    0.0000000000000000   18.8173007964999996
   Sb   C 
   205    11
Direct
  0.0420104537185783  0.9699482511701650  0.6671972583490170
  0.4687730080957835  0.7505930043366534  0.2689765704920377
  0.0071102237354864  0.9323159647628894  0.8537484719957378
  0.1363300472722898  0.3925256606020993  0.0106159491964236
  0.9086755692891573  0.9760564311687134  0.9672056485004459
  0.5764657433553676  0.8451884659926502  0.9524065730332767
  0.8809120178248883  0.0686793254006118  0.4690311097109555
  0.6739174013309347  0.3228093426149052  0.7113926335416796
  0.3154257233833625  0.6609571343180731  0.9812362557713137
  0.2603011650201603  0.2330326287592003  0.1768899196971474
  0.2916586884974000  0.7570508749274358  0.2936689325117317
  0.5405103417435049  0.1892337252057855  0.5659013446265585
  0.6460591293208192  0.0372618684113691  0.2805257647092875
  0.4212407128829395  0.7729919205189129  0.9544233384468950
  0.1884547381952281  0.3196398280162542  0.4002335389270502
  0.8170717714074378  0.5564446591037101  0.9373415308030956
  0.4568063834936569  0.1422630637853413  0.1554474935791788
  0.1504264798052504  0.9692933479844821  0.0563812118882146
  0.7663902621301065  0.1092462269602960  0.8855037809955256
  0.3153926756473472  0.0887394638052039  0.1162550053048711
  0.6626992584575038  0.7772776249292851  0.7740993203582117
  0.8909609716037136 -0.0016834633695333  0.6450127098125146
  0.7886878762578984  0.1471777548079473  0.5665163750738303
  0.6335096322699501  0.8793932172193059  0.2746742788143457
  0.9371301772584493  0.4698650976338249  0.1243818223868537
  0.4251561344603839  0.5820706594181045  0.0959574965054443
  0.7133022495083375  0.6726297565043308  0.9444153975777728
  0.8721157845423524  0.9404505174308441  0.2707801291256691
  0.9148728512248169  0.3375638484668242  0.9687719620511357
  0.8962490446404240  0.6360235299327506  0.6275142199571625
  0.9325854986473084  0.4979760083801530  0.2766424713748288
  0.1683650211439515  0.3728027956850323  0.1986729297019601
  0.7089929620049071  0.5646988433052220  0.7671840546998391
  0.1875288054398911  0.3647614034817147  0.7310203137554246
  0.1222444327731030  0.1639435301706973  0.1795448815209294
  0.7308678602241153  0.4563651123597510  0.0183505728509187
  0.2911898922601378  0.2088330607160848  0.5612953133921593
  0.1123278914317898  0.6331529697502158  0.9751761222584628
  0.3452573886507923  0.4144997943324988  0.9171539308467979
  0.5694904105060246  0.8657098210462713  0.4184211975470413
  0.9278042580688969  0.2882370342536302  0.2410288725611744
  0.1210489970554412  0.2658239255143886  0.8360760943308204
  0.2042548968676360  0.7298252527254979  0.8953405282680351
  0.0791980258799309  0.4136023974082096  0.3217395731133445
  0.3989230081022346  0.4977806114587978  0.7076169342612914
  0.7541349792579284  0.3165380110376217  0.3379345329324188
  0.0873574358238207  0.8704436543753175  0.3626588527259928
  0.8400408612583010  0.8240250256091516  0.6789183786875098
  0.7962086014511788  0.7434491999394969  0.2444493460422748
  0.9112101417677314  0.6126964216661401  0.0589558088618374
  0.0926315779133737  0.7437354923975671  0.7664313904138556
  0.1380066643515910  0.8176057557685837  0.1351475373270791
  0.6284324121050074  0.0382176915316080  0.8781048980290834
  0.7778076331153715  0.6882008330619018  0.0902653974298561
  0.9623970733387978  0.7761558979138841  0.8565637401256700
  0.7969215146173780  0.0958500041172896  0.2232768020678187
  0.5578502551207283  0.6392978911640004  0.0271769672780445
  0.3659544823823919  0.5910912975265569  0.8339427153575714
  0.0223834080909148  0.7580214849235716  0.5253755319918672
  0.6187722530744229  0.7061262786749024  0.2631170530361048
 -0.0002749981978403  0.6412944405330342  0.3087848021878917
  0.4306148986666924  0.9565292610575205  0.2999548244850774
  0.0794606274404697  0.5377565642246372  0.1374206303664961
  0.3822832871335590  0.9920860038786214  0.4433197582883472
  0.9913482488307721  0.8982568558066705  0.1740655261974003
  0.5034858951814734  0.0940550675023683  0.3055734253415044
  0.9393076303342557  0.7236508296694613  0.1828642749739464
  0.8338885283970818  0.3158303075017844  0.6378748930365943
  0.8925645502206427  0.1484270887637328  0.6847292878020061
  0.3626518251859494  0.9376406161710503  0.6602272080989646
  0.2904243832367461  0.9893629597231179  0.2380707868120982
  0.3402022466122592  0.3641896476865436  0.7690206421614149
  0.9980951443403816  0.8212127372820266  0.6657402100336967
  0.3120937617926881  0.1404540957464345  0.4165864186713547
  0.6859990067234465  0.4580644872704051  0.3197249707222648
  0.2446023433370014  0.1876512753793076  0.8877731722984393
  0.2911294305422524  0.1995936843973084  0.7283351829579395
  0.5581507177096138  0.0704652338376192  0.4601052447287790
  0.6080434990378571  0.8032156319874530  0.0987231193902378
  0.5183858953340119  0.9809155232546717  0.0065097695555662
  0.3044255868654254  0.2866932379254979 -0.0069861688237242
  0.0284757912652379  0.5611365330993944  0.6603615200400584
  0.4882933093725810  0.6366223098518921  0.6383660900726358
  0.3722329858125136  0.3907060733285120  0.1367509054436551
  0.3872181260457599  0.9521053271923998  0.8115153560702221
  0.0423124082773203  0.2882395013342091  0.1300919203821087
  0.9315725968809040  0.8203003377460876  0.3550116756882583
  0.0052895446420115  0.0187672406395104  0.0792624256538489
  0.5123750414483100  0.9128064303662673  0.6304050167182045
  0.9802211532326279  0.0748540391306119  0.3125866105015540
  0.1603254796643732  0.1304709681109698  0.0258363059569150
  0.4663368193864796  0.2686736416818471  0.4551555926378204
  0.2916655734713504  0.8534254835231524  0.1640544270671789
  0.0082626129214565  0.4617330841928093  0.9525303819439934
  0.2867162239859682  0.4213353343557590  0.4662313142308396
  0.3147051538401940  0.2641508400372455  0.3184613348268894
  0.4091843386310426  0.1103219451455902  0.6078064338991134
  0.3375045387993138  0.7126908470188315  0.5703788135828127
  0.5182486383527256  0.5442898502326003  0.9119901396213838
  0.0114185639581165  0.7544687502140183  0.0054571256848535
  0.2565874181253856  0.6023292187645293  0.4020064142946725
  0.2463826922173747  0.9171847430851989  0.4019514109605361
  0.4219093351747361  0.2065027164123602  0.9276048548095668
  0.7358380065713523  0.4697477631244935  0.4667584995191341
  0.5408248947175771  0.1657537349372503  0.0236349654288535
  0.8503183628869774  0.1778248343927223  0.3589690278970801
  0.3702957795776559  0.0134076541347173  0.9777380818349568
  0.7656847882584610  0.8789171651064239  0.1740645820169888
  0.5234374188271370  0.9237257817560307  0.1544947223274864
  0.5362610353011498  0.5511355805214101  0.2961908270837234
  0.5438922542192520  0.2990389341218801  0.8938065785991894
  0.0703407594126142  0.9646870010178361  0.5121884732018872
  0.1352411416828611  0.5552234621535522  0.2866670981133994
  0.9368295437216745  0.5983606639909641  0.4532040000832606
  0.6158079875170331  0.2464466210977928  0.3133832980323004
  0.2057529152439093  0.8984762326564324  0.5516418503230349
  0.3032103200019893  0.8741935106342984  0.9841016092826700
  0.7055753360769293  0.9281901816863281  0.9626282661778619
  0.2041229863533633  0.6641257950729254  0.0961190383715159
  0.7919311713561104  0.8051598371205952  0.9064558293148576
  0.2279186693266881  0.0531704388085975  0.5622000383152534
  0.4840777437730112  0.4197108743390779  0.0025306795920828
  0.6504308658482564  0.9564377100314302  0.5152048764100056
  0.8900970526442433  0.8927229932852621  0.4903705084373547
  0.6710923898509841  0.7438461803686277  0.4057166433065234
  0.7856274685592793  0.6078594786021252  0.4087568678531917
  0.8310481738792197  0.7483192719902960  0.4857165440887259
  0.7897188151236564  0.5577684514202993  0.2618625827238470
  0.7173954446773366  0.9913016742025454  0.7016693585287693
  0.9081039167711514  0.2700804705431015  0.4729783595278723
  0.8397204672869644  0.9394045545115149  0.7831134513726296
  0.1703153505883213  0.0807762985886215  0.3877926003156714
  0.2130464351233245  0.0642223401502401  0.7173437400156168
  0.4716026015938077  0.2599061602481043  0.6995312161238741
  0.0883769971038693  0.0714932441526894  0.8740416458211201
  0.7619731573422527  0.3470904041042522  0.8409076708686972
  0.1762493358403456  0.8707473768652381  0.7339246490458666
  0.8790725338513027  0.4098809001243425  0.4132399877635223
  0.4519135433552018  0.0981659379278691  0.7951845788537930
  0.5583502421922145  0.0502815213807515  0.6905943592298391
  0.6888579871224686  0.1470065697793972  0.4093117757547829
  0.6329844913245450  0.0661417907642814  0.1236631832152764
  0.8416604141150037  0.7029265235111758  0.7759212566892577
  0.6773752397474466  0.4695430353473218  0.6464042509180186
  0.0833857725560965  0.1473605255916903  0.7383589244429732
  0.7082273337302022  0.2389072092375923  0.9470014491711899
  0.1384039565326893  0.2790235073491036  0.5470967717929255
  0.9934188265758080  0.3184549224965431  0.6061788845908537
  0.0688561262973281  0.1945058602235601  0.3584158372972647
  0.6897868199197972  0.2103798252449933  0.1807475295075739
  0.5816052937971784  0.3022755478611104  0.0908970488252178
  0.7746244630466198  0.9678065436381994  0.4150257232552806
  0.8593399055511253  0.4755386810767377  0.7589448972592362
  0.7087978601747204  0.2912481801535706  0.4877395538247034
  0.2171132479110741  0.5039783974063738  0.9358485233483947
  0.1132332169845100  0.8656111200913222  0.9465157160586140
  0.9823279800233156  0.4540710519199259  0.5316943106276457
  0.5533187519357108  0.4533976608458383  0.1751855362259208
  0.3073529069899220  0.7854514681707988  0.7072050267555087
  0.1342094781612929  0.7499452267051818  0.2759977602309389
  0.8435420120550193  0.4730151163055136  0.6027792486403870
  0.5460907646728704  0.4019065221841542  0.7750150515618724
  0.9369601186190831  0.1457335888748076  0.1779734078058861
  0.7468208911259272  0.1411228989256320  0.7369862673694113
  0.8021770809523266  0.3250329416318499  0.1535268467549241
  0.1405958053514104  0.4956970178938839  0.8011186181921244
  0.5739850977274137  0.6506508703812196  0.7740582281155606
  0.8588848874300511  0.8157519862859651  0.0515326219813915
  0.6833748841124344  0.8106857475597482  0.6269809869698879
  0.5506567535715153  0.7459366575615293  0.5476003622259565
  0.4026316771788365  0.6115300392642440  0.2458955014882243
  0.1259522999467621  0.5656774347407212  0.4787177196206955
  0.4500456108044429  0.7912866230170269  0.1217386001150327
  0.1250878967510582  0.6666247004084175  0.5999356142194289
  0.0961587931527427  0.9806210019825763  0.2553772830803244
  0.0520013202703717  0.1551352537854868  0.5136051215815693
  0.2379687425101235  0.9473219487879472  0.8582454702750838
  0.9744225952939792  0.5710816849346280  0.8075146558955172
  0.3796196010800420  0.3376711921203252  0.5625834673187471
  0.8287028705277604  0.2150664596082539  0.0446383178759356
  0.4297502555152524  0.7288689227594563  0.8020837786356623
  0.6502687903395504  0.4711381216896971  0.8788223876017399
  0.2583715474654155  0.5117304936616787  0.1039940147286028
  0.2202965114762487  0.7386696674088856  0.4640658470935262
  0.0266804773961003  0.2188592259223854  0.9844940016535559
  0.5860907678406114  0.1956859941337097  0.7852953094849153
 -0.0114459802562315  0.3839193452226933  0.7634112985627995
  0.7783861707526486  0.0627951748021957  0.0719393771237063
  0.3886844738994835  0.8198402013089988  0.4628525518242919
  0.9001068714711243  0.2749245873356251  0.8295911734386034
  0.2373536271312853  0.6445994507616316  0.7622176444248798
  0.9403679011115313  0.1155140334684420  0.9005386237702284
  0.5555743804579854  0.8910334034285329  0.7806250605895955
  0.2915313007913783  0.4654344337843584  0.2509706848521777
  0.4761951721731003  0.2891611608694051  0.2075864929459517
  0.6563552317374673  0.5542643917640420  0.1121576391720581
  0.2816519387318165  0.5638921506590028  0.6309585709607285
  0.4668375081854738  0.6852175938485333  0.4230122921964486
  0.1815272653178896  0.4559283922007706  0.5754542984912471
  0.4056530508947681  0.5566957348169050  0.4909960900871997
  0.5598197649694845  0.3910340077835676  0.4488517396725158
  0.7242108935851065  0.6687983587892982  0.5793058867548819
  0.5896167718338952  0.5776857844186152  0.4688700945869147
  0.5263466958444283  0.4464095283530330  0.5960356049736415
  0.4415705652652134  0.4544990760205913  0.3748468933657875
  0.5112909235735962  0.5557787016041568  0.5551231875300697
  0.9275163877083972  0.6897537009977667  0.5268200357729269
  0.4013214695951987  0.1642235154290697  0.7129001193724712
  0.1544514492720740  0.4522264396932077  0.1112126176209582
  0.6224165233817652  0.9888384163384379  0.7721688376130091
  0.0307215768740015  0.4691597552502051  0.8372828246964698
  0.4574836728207969  0.4700165180058908  0.1077124930595837
  0.2906318726029095  0.8084109713952783  0.3992137571769773
  0.6355582828080569  0.6797138342565380  0.5001438367030154
  0.8105570388087967  0.2593326159012415  0.5372190944123939
  0.1292963742057250  0.0674244719996078  0.4990862588616583
 
  0.00000000E+00  0.00000000E+00  0.00000000E+00
  0.00000000E+00  0.00000000E+00  0.00000000E+00
  0.00000000E+00  0.00000000E+00  0.00000000E+00
  0.00000000E+00  0.00000000E+00  0.00000000E+00
  0.00000000E+00  0.00000000E+00  0.00000000E+00
  0.00000000E+00  0.00000000E+00  0.00000000E+00
  0.00000000E+00  0.00000000E+00  0.00000000E+00
  0.00000000E+00  0.00000000E+00  0.00000000E+00
  0.00000000E+00  0.00000000E+00  0.00000000E+00
  0.00000000E+00  0.00000000E+00  0.00000000E+00
  0.00000000E+00  0.00000000E+00  0.00000000E+00
  0.00000000E+00  0.00000000E+00  0.00000000E+00
  0.00000000E+00  0.00000000E+00  0.00000000E+00
  0.00000000E+00  0.00000000E+00  0.00000000E+00
  0.00000000E+00  0.00000000E+00  0.00000000E+00
  0.00000000E+00  0.00000000E+00  0.00000000E+00
  0.00000000E+00  0.00000000E+00  0.00000000E+00
  0.00000000E+00  0.00000000E+00  0.00000000E+00
  0.00000000E+00  0.00000000E+00  0.00000000E+00
  0.00000000E+00  0.00000000E+00  0.00000000E+00
  0.00000000E+00  0.00000000E+00  0.00000000E+00
  0.00000000E+00  0.00000000E+00  0.00000000E+00
  0.00000000E+00  0.00000000E+00  0.00000000E+00
  0.00000000E+00  0.00000000E+00  0.00000000E+00
  0.00000000E+00  0.00000000E+00  0.00000000E+00
  0.00000000E+00  0.00000000E+00  0.00000000E+00
  0.00000000E+00  0.00000000E+00  0.00000000E+00
  0.00000000E+00  0.00000000E+00  0.00000000E+00
  0.00000000E+00  0.00000000E+00  0.00000000E+00
  0.00000000E+00  0.00000000E+00  0.00000000E+00
  0.00000000E+00  0.00000000E+00  0.00000000E+00
  0.00000000E+00  0.00000000E+00  0.00000000E+00
  0.00000000E+00  0.00000000E+00  0.00000000E+00
  0.00000000E+00  0.00000000E+00  0.00000000E+00
  0.00000000E+00  0.00000000E+00  0.00000000E+00
  0.00000000E+00  0.00000000E+00  0.00000000E+00
  0.00000000E+00  0.00000000E+00  0.00000000E+00
  0.00000000E+00  0.00000000E+00  0.00000000E+00
  0.00000000E+00  0.00000000E+00  0.00000000E+00
  0.00000000E+00  0.00000000E+00  0.00000000E+00
  0.00000000E+00  0.00000000E+00  0.00000000E+00
  0.00000000E+00  0.00000000E+00  0.00000000E+00
  0.00000000E+00  0.00000000E+00  0.00000000E+00
  0.00000000E+00  0.00000000E+00  0.00000000E+00
  0.00000000E+00  0.00000000E+00  0.00000000E+00
  0.00000000E+00  0.00000000E+00  0.00000000E+00
  0.00000000E+00  0.00000000E+00  0.00000000E+00
  0.00000000E+00  0.00000000E+00  0.00000000E+00
  0.00000000E+00  0.00000000E+00  0.00000000E+00
  0.00000000E+00  0.00000000E+00  0.00000000E+00
  0.00000000E+00  0.00000000E+00  0.00000000E+00
  0.00000000E+00  0.00000000E+00  0.00000000E+00
  0.00000000E+00  0.00000000E+00  0.00000000E+00
  0.00000000E+00  0.00000000E+00  0.00000000E+00
  0.00000000E+00  0.00000000E+00  0.00000000E+00
  0.00000000E+00  0.00000000E+00  0.00000000E+00
  0.00000000E+00  0.00000000E+00  0.00000000E+00
  0.00000000E+00  0.00000000E+00  0.00000000E+00
  0.00000000E+00  0.00000000E+00  0.00000000E+00
  0.00000000E+00  0.00000000E+00  0.00000000E+00
  0.00000000E+00  0.00000000E+00  0.00000000E+00
  0.00000000E+00  0.00000000E+00  0.00000000E+00
  0.00000000E+00  0.00000000E+00  0.00000000E+00
  0.00000000E+00  0.00000000E+00  0.00000000E+00
  0.00000000E+00  0.00000000E+00  0.00000000E+00
  0.00000000E+00  0.00000000E+00  0.00000000E+00
  0.00000000E+00  0.00000000E+00  0.00000000E+00
  0.00000000E+00  0.00000000E+00  0.00000000E+00
  0.00000000E+00  0.00000000E+00  0.00000000E+00
  0.00000000E+00  0.00000000E+00  0.00000000E+00
  0.00000000E+00  0.00000000E+00  0.00000000E+00
  0.00000000E+00  0.00000000E+00  0.00000000E+00
  0.00000000E+00  0.00000000E+00  0.00000000E+00
  0.00000000E+00  0.00000000E+00  0.00000000E+00
  0.00000000E+00  0.00000000E+00  0.00000000E+00
  0.00000000E+00  0.00000000E+00  0.00000000E+00
  0.00000000E+00  0.00000000E+00  0.00000000E+00
  0.00000000E+00  0.00000000E+00  0.00000000E+00
  0.00000000E+00  0.00000000E+00  0.00000000E+00
  0.00000000E+00  0.00000000E+00  0.00000000E+00
  0.00000000E+00  0.00000000E+00  0.00000000E+00
  0.00000000E+00  0.00000000E+00  0.00000000E+00
  0.00000000E+00  0.00000000E+00  0.00000000E+00
  0.00000000E+00  0.00000000E+00  0.00000000E+00
  0.00000000E+00  0.00000000E+00  0.00000000E+00
  0.00000000E+00  0.00000000E+00  0.00000000E+00
  0.00000000E+00  0.00000000E+00  0.00000000E+00
  0.00000000E+00  0.00000000E+00  0.00000000E+00
  0.00000000E+00  0.00000000E+00  0.00000000E+00
  0.00000000E+00  0.00000000E+00  0.00000000E+00
  0.00000000E+00  0.00000000E+00  0.00000000E+00
  0.00000000E+00  0.00000000E+00  0.00000000E+00
  0.00000000E+00  0.00000000E+00  0.00000000E+00
  0.00000000E+00  0.00000000E+00  0.00000000E+00
  0.00000000E+00  0.00000000E+00  0.00000000E+00
  0.00000000E+00  0.00000000E+00  0.00000000E+00
  0.00000000E+00  0.00000000E+00  0.00000000E+00
  0.00000000E+00  0.00000000E+00  0.00000000E+00
  0.00000000E+00  0.00000000E+00  0.00000000E+00
  0.00000000E+00  0.00000000E+00  0.00000000E+00
  0.00000000E+00  0.00000000E+00  0.00000000E+00
  0.00000000E+00  0.00000000E+00  0.00000000E+00
  0.00000000E+00  0.00000000E+00  0.00000000E+00
  0.00000000E+00  0.00000000E+00  0.00000000E+00
  0.00000000E+00  0.00000000E+00  0.00000000E+00
  0.00000000E+00  0.00000000E+00  0.00000000E+00
  0.00000000E+00  0.00000000E+00  0.00000000E+00
  0.00000000E+00  0.00000000E+00  0.00000000E+00
  0.00000000E+00  0.00000000E+00  0.00000000E+00
  0.00000000E+00  0.00000000E+00  0.00000000E+00
  0.00000000E+00  0.00000000E+00  0.00000000E+00
  0.00000000E+00  0.00000000E+00  0.00000000E+00
  0.00000000E+00  0.00000000E+00  0.00000000E+00
  0.00000000E+00  0.00000000E+00  0.00000000E+00
  0.00000000E+00  0.00000000E+00  0.00000000E+00
  0.00000000E+00  0.00000000E+00  0.00000000E+00
  0.00000000E+00  0.00000000E+00  0.00000000E+00
  0.00000000E+00  0.00000000E+00  0.00000000E+00
  0.00000000E+00  0.00000000E+00  0.00000000E+00
  0.00000000E+00  0.00000000E+00  0.00000000E+00
  0.00000000E+00  0.00000000E+00  0.00000000E+00
  0.00000000E+00  0.00000000E+00  0.00000000E+00
  0.00000000E+00  0.00000000E+00  0.00000000E+00
  0.00000000E+00  0.00000000E+00  0.00000000E+00
  0.00000000E+00  0.00000000E+00  0.00000000E+00
  0.00000000E+00  0.00000000E+00  0.00000000E+00
  0.00000000E+00  0.00000000E+00  0.00000000E+00
  0.00000000E+00  0.00000000E+00  0.00000000E+00
  0.00000000E+00  0.00000000E+00  0.00000000E+00
  0.00000000E+00  0.00000000E+00  0.00000000E+00
  0.00000000E+00  0.00000000E+00  0.00000000E+00
  0.00000000E+00  0.00000000E+00  0.00000000E+00
  0.00000000E+00  0.00000000E+00  0.00000000E+00
  0.00000000E+00  0.00000000E+00  0.00000000E+00
  0.00000000E+00  0.00000000E+00  0.00000000E+00
  0.00000000E+00  0.00000000E+00  0.00000000E+00
  0.00000000E+00  0.00000000E+00  0.00000000E+00
  0.00000000E+00  0.00000000E+00  0.00000000E+00
  0.00000000E+00  0.00000000E+00  0.00000000E+00
  0.00000000E+00  0.00000000E+00  0.00000000E+00
  0.00000000E+00  0.00000000E+00  0.00000000E+00
  0.00000000E+00  0.00000000E+00  0.00000000E+00
  0.00000000E+00  0.00000000E+00  0.00000000E+00
  0.00000000E+00  0.00000000E+00  0.00000000E+00
  0.00000000E+00  0.00000000E+00  0.00000000E+00
  0.00000000E+00  0.00000000E+00  0.00000000E+00
  0.00000000E+00  0.00000000E+00  0.00000000E+00
  0.00000000E+00  0.00000000E+00  0.00000000E+00
  0.00000000E+00  0.00000000E+00  0.00000000E+00
  0.00000000E+00  0.00000000E+00  0.00000000E+00
  0.00000000E+00  0.00000000E+00  0.00000000E+00
  0.00000000E+00  0.00000000E+00  0.00000000E+00
  0.00000000E+00  0.00000000E+00  0.00000000E+00
  0.00000000E+00  0.00000000E+00  0.00000000E+00
  0.00000000E+00  0.00000000E+00  0.00000000E+00
  0.00000000E+00  0.00000000E+00  0.00000000E+00
  0.00000000E+00  0.00000000E+00  0.00000000E+00
  0.00000000E+00  0.00000000E+00  0.00000000E+00
  0.00000000E+00  0.00000000E+00  0.00000000E+00
  0.00000000E+00  0.00000000E+00  0.00000000E+00
  0.00000000E+00  0.00000000E+00  0.00000000E+00
  0.00000000E+00  0.00000000E+00  0.00000000E+00
  0.00000000E+00  0.00000000E+00  0.00000000E+00
  0.00000000E+00  0.00000000E+00  0.00000000E+00
  0.00000000E+00  0.00000000E+00  0.00000000E+00
  0.00000000E+00  0.00000000E+00  0.00000000E+00
  0.00000000E+00  0.00000000E+00  0.00000000E+00
  0.00000000E+00  0.00000000E+00  0.00000000E+00
  0.00000000E+00  0.00000000E+00  0.00000000E+00
  0.00000000E+00  0.00000000E+00  0.00000000E+00
  0.00000000E+00  0.00000000E+00  0.00000000E+00
  0.00000000E+00  0.00000000E+00  0.00000000E+00
  0.00000000E+00  0.00000000E+00  0.00000000E+00
  0.00000000E+00  0.00000000E+00  0.00000000E+00
  0.00000000E+00  0.00000000E+00  0.00000000E+00
  0.00000000E+00  0.00000000E+00  0.00000000E+00
  0.00000000E+00  0.00000000E+00  0.00000000E+00
  0.00000000E+00  0.00000000E+00  0.00000000E+00
  0.00000000E+00  0.00000000E+00  0.00000000E+00
  0.00000000E+00  0.00000000E+00  0.00000000E+00
  0.00000000E+00  0.00000000E+00  0.00000000E+00
  0.00000000E+00  0.00000000E+00  0.00000000E+00
  0.00000000E+00  0.00000000E+00  0.00000000E+00
  0.00000000E+00  0.00000000E+00  0.00000000E+00
  0.00000000E+00  0.00000000E+00  0.00000000E+00
  0.00000000E+00  0.00000000E+00  0.00000000E+00
  0.00000000E+00  0.00000000E+00  0.00000000E+00
  0.00000000E+00  0.00000000E+00  0.00000000E+00
  0.00000000E+00  0.00000000E+00  0.00000000E+00
  0.00000000E+00  0.00000000E+00  0.00000000E+00
  0.00000000E+00  0.00000000E+00  0.00000000E+00
  0.00000000E+00  0.00000000E+00  0.00000000E+00
  0.00000000E+00  0.00000000E+00  0.00000000E+00
  0.00000000E+00  0.00000000E+00  0.00000000E+00
  0.00000000E+00  0.00000000E+00  0.00000000E+00
  0.00000000E+00  0.00000000E+00  0.00000000E+00
  0.00000000E+00  0.00000000E+00  0.00000000E+00
  0.00000000E+00  0.00000000E+00  0.00000000E+00
  0.00000000E+00  0.00000000E+00  0.00000000E+00
  0.00000000E+00  0.00000000E+00  0.00000000E+00
  0.00000000E+00  0.00000000E+00  0.00000000E+00
  0.00000000E+00  0.00000000E+00  0.00000000E+00
  0.00000000E+00  0.00000000E+00  0.00000000E+00
  0.00000000E+00  0.00000000E+00  0.00000000E+00
  0.00000000E+00  0.00000000E+00  0.00000000E+00
  0.00000000E+00  0.00000000E+00  0.00000000E+00
  0.00000000E+00  0.00000000E+00  0.00000000E+00
  0.00000000E+00  0.00000000E+00  0.00000000E+00
  0.00000000E+00  0.00000000E+00  0.00000000E+00
  0.00000000E+00  0.00000000E+00  0.00000000E+00
  0.00000000E+00  0.00000000E+00  0.00000000E+00
  0.00000000E+00  0.00000000E+00  0.00000000E+00
  0.00000000E+00  0.00000000E+00  0.00000000E+00
  0.00000000E+00  0.00000000E+00  0.00000000E+00
  0.00000000E+00  0.00000000E+00  0.00000000E+00
  0.00000000E+00  0.00000000E+00  0.00000000E+00
 
           1
   3.00000000000000     
  0.10000000E+01  0.00000000E+00  0.00000000E+00  0.00000000E+00
  0.42010454E-01  0.96994825E+00  0.66719726E+00
  0.46877301E+00  0.75059300E+00  0.26897657E+00
  0.71102237E-02  0.93231596E+00  0.85374847E+00
  0.13633005E+00  0.39252566E+00  0.10615949E-01
  0.90867557E+00  0.97605643E+00  0.96720565E+00
  0.57646574E+00  0.84518847E+00  0.95240657E+00
  0.88091202E+00  0.68679325E-01  0.46903111E+00
  0.67391740E+00  0.32280934E+00  0.71139263E+00
  0.31542572E+00  0.66095713E+00  0.98123626E+00
  0.26030117E+00  0.23303263E+00  0.17688992E+00
  0.29165869E+00  0.75705087E+00  0.29366893E+00
  0.54051034E+00  0.18923373E+00  0.56590134E+00
  0.64605913E+00  0.37261868E-01  0.28052576E+00
  0.42124071E+00  0.77299192E+00  0.95442334E+00
  0.18845474E+00  0.31963983E+00  0.40023354E+00
  0.81707177E+00  0.55644466E+00  0.93734153E+00
  0.45680638E+00  0.14226306E+00  0.15544749E+00
  0.15042648E+00  0.96929335E+00  0.56381212E-01
  0.76639026E+00  0.10924623E+00  0.88550378E+00
  0.31539268E+00  0.88739464E-01  0.11625501E+00
  0.66269926E+00  0.77727762E+00  0.77409932E+00
  0.89096097E+00 -0.16834634E-02  0.64501271E+00
  0.78868788E+00  0.14717775E+00  0.56651638E+00
  0.63350963E+00  0.87939322E+00  0.27467428E+00
  0.93713018E+00  0.46986510E+00  0.12438182E+00
  0.42515613E+00  0.58207066E+00  0.95957497E-01
  0.71330225E+00  0.67262976E+00  0.94441540E+00
  0.87211578E+00  0.94045052E+00  0.27078013E+00
  0.91487285E+00  0.33756385E+00  0.96877196E+00
  0.89624904E+00  0.63602353E+00  0.62751422E+00
  0.93258550E+00  0.49797601E+00  0.27664247E+00
  0.16836502E+00  0.37280280E+00  0.19867293E+00
  0.70899296E+00  0.56469884E+00  0.76718405E+00
  0.18752881E+00  0.36476140E+00  0.73102031E+00
  0.12224443E+00  0.16394353E+00  0.17954488E+00
  0.73086786E+00  0.45636511E+00  0.18350573E-01
  0.29118989E+00  0.20883306E+00  0.56129531E+00
  0.11232789E+00  0.63315297E+00  0.97517612E+00
  0.34525739E+00  0.41449979E+00  0.91715393E+00
  0.56949041E+00  0.86570982E+00  0.41842120E+00
  0.92780426E+00  0.28823703E+00  0.24102887E+00
  0.12104900E+00  0.26582393E+00  0.83607609E+00
  0.20425490E+00  0.72982525E+00  0.89534053E+00
  0.79198026E-01  0.41360240E+00  0.32173957E+00
  0.39892301E+00  0.49778061E+00  0.70761693E+00
  0.75413498E+00  0.31653801E+00  0.33793453E+00
  0.87357436E-01  0.87044365E+00  0.36265885E+00
  0.84004086E+00  0.82402503E+00  0.67891838E+00
  0.79620860E+00  0.74344920E+00  0.24444935E+00
  0.91121014E+00  0.61269642E+00  0.58955809E-01
  0.92631578E-01  0.74373549E+00  0.76643139E+00
  0.13800666E+00  0.81760576E+00  0.13514754E+00
  0.62843241E+00  0.38217692E-01  0.87810490E+00
  0.77780763E+00  0.68820083E+00  0.90265397E-01
  0.96239707E+00  0.77615590E+00  0.85656374E+00
  0.79692151E+00  0.95850004E-01  0.22327680E+00
  0.55785026E+00  0.63929789E+00  0.27176967E-01
  0.36595448E+00  0.59109130E+00  0.83394272E+00
  0.22383408E-01  0.75802148E+00  0.52537553E+00
  0.61877225E+00  0.70612628E+00  0.26311705E+00
 -0.27499820E-03  0.64129444E+00  0.30878480E+00
  0.43061490E+00  0.95652926E+00  0.29995482E+00
  0.79460627E-01  0.53775656E+00  0.13742063E+00
  0.38228329E+00  0.99208600E+00  0.44331976E+00
  0.99134825E+00  0.89825686E+00  0.17406553E+00
  0.50348590E+00  0.94055068E-01  0.30557343E+00
  0.93930763E+00  0.72365083E+00  0.18286427E+00
  0.83388853E+00  0.31583031E+00  0.63787489E+00
  0.89256455E+00  0.14842709E+00  0.68472929E+00
  0.36265183E+00  0.93764062E+00  0.66022721E+00
  0.29042438E+00  0.98936296E+00  0.23807079E+00
  0.34020225E+00  0.36418965E+00  0.76902064E+00
  0.99809514E+00  0.82121274E+00  0.66574021E+00
  0.31209376E+00  0.14045410E+00  0.41658642E+00
  0.68599901E+00  0.45806449E+00  0.31972497E+00
  0.24460234E+00  0.18765128E+00  0.88777317E+00
  0.29112943E+00  0.19959368E+00  0.72833518E+00
  0.55815072E+00  0.70465234E-01  0.46010524E+00
  0.60804350E+00  0.80321563E+00  0.98723119E-01
  0.51838590E+00  0.98091552E+00  0.65097696E-02
  0.30442559E+00  0.28669324E+00 -0.69861688E-02
  0.28475791E-01  0.56113653E+00  0.66036152E+00
  0.48829331E+00  0.63662231E+00  0.63836609E+00
  0.37223299E+00  0.39070607E+00  0.13675091E+00
  0.38721813E+00  0.95210533E+00  0.81151536E+00
  0.42312408E-01  0.28823950E+00  0.13009192E+00
  0.93157260E+00  0.82030034E+00  0.35501168E+00
  0.52895446E-02  0.18767241E-01  0.79262426E-01
  0.51237504E+00  0.91280643E+00  0.63040502E+00
  0.98022115E+00  0.74854039E-01  0.31258661E+00
  0.16032548E+00  0.13047097E+00  0.25836306E-01
  0.46633682E+00  0.26867364E+00  0.45515559E+00
  0.29166557E+00  0.85342548E+00  0.16405443E+00
  0.82626129E-02  0.46173308E+00  0.95253038E+00
  0.28671622E+00  0.42133533E+00  0.46623131E+00
  0.31470515E+00  0.26415084E+00  0.31846133E+00
  0.40918434E+00  0.11032195E+00  0.60780643E+00
  0.33750454E+00  0.71269085E+00  0.57037881E+00
  0.51824864E+00  0.54428985E+00  0.91199014E+00
  0.11418564E-01  0.75446875E+00  0.54571257E-02
  0.25658742E+00  0.60232922E+00  0.40200641E+00
  0.24638269E+00  0.91718474E+00  0.40195141E+00
  0.42190934E+00  0.20650272E+00  0.92760485E+00
  0.73583801E+00  0.46974776E+00  0.46675850E+00
  0.54082489E+00  0.16575373E+00  0.23634965E-01
  0.85031836E+00  0.17782483E+00  0.35896903E+00
  0.37029578E+00  0.13407654E-01  0.97773808E+00
  0.76568479E+00  0.87891717E+00  0.17406458E+00
  0.52343742E+00  0.92372578E+00  0.15449472E+00
  0.53626104E+00  0.55113558E+00  0.29619083E+00
  0.54389225E+00  0.29903893E+00  0.89380658E+00
  0.70340759E-01  0.96468700E+00  0.51218847E+00
  0.13524114E+00  0.55522346E+00  0.28666710E+00
  0.93682954E+00  0.59836066E+00  0.45320400E+00
  0.61580799E+00  0.24644662E+00  0.31338330E+00
  0.20575292E+00  0.89847623E+00  0.55164185E+00
  0.30321032E+00  0.87419351E+00  0.98410161E+00
  0.70557534E+00  0.92819018E+00  0.96262827E+00
  0.20412299E+00  0.66412580E+00  0.96119038E-01