POSCAR                                  
   1.00000000000000     
    21.9268227684469004    0.0000000000000000    0.0000000000000000
     0.0000000000000000   21.9268227684469004    0.0000000000000000
     0.0000000000000000    0.0000000000000000   21.9268227684469004
   Ge   Sb   Te
    43    86   172
Direct
  0.2682856257794479  0.5902991829525926  0.9105015683309170
  0.7959202847586156  0.0731605982711866  0.0755983595680899
  0.9328447293461971  0.7850952594137743  0.7839829470640809
  0.4181380874355010  0.1747137470272590  0.5566262315804797
  0.3764830397320183  0.7617970449357488  0.2758108064820282
  0.2277523142858119  0.5110256631679712  0.2674720678887662
  0.8341966663014538  0.4905458340877527  0.5074476739045481
  0.6681338978068380  0.9982649689217222  0.1635408300675555
  0.8304521634700515  0.3850025825557852  0.9861332672633996
  0.1019343947182050  0.4003812153539935  0.1747742371493122
  0.9493952174958209  0.5536030411914233  0.1547663372025048
  0.9320858371058652  0.3117728038344030  0.4293279890583082
  0.2283732105718932  0.1860516875807267  0.9113164064116335
  0.5497425834186955  0.8045505028498631  0.3317590318046351
  0.5693087539533740  0.1949104282135452  0.7471394775604422
  0.4012028822027981  0.7732372527968417  0.5700239482105470
  0.8546160196633256  0.3700830480414450  0.5789982677283472
  0.4555738612321513  0.5735195796104073  0.0810530043595004
  0.9337591631334825  0.7582024770712059  0.3456860537252953
  0.2809125203861753  0.7827817699670712  0.0764011234826920
  0.5114090666085018  0.8799850603931580  0.6710724733254795
  0.9496395604565868  0.8931779335129147  0.2354196877163556
  0.9250819692068464  0.0496871070714890  0.3280018438295246
  0.7096298294123350  0.3315885471621335  0.8196731461700573
  0.9496644498194282  0.8575163614574166  0.8855671273071577
  0.5520785706044625  0.0040889506132301  0.4249844105643011
  0.6734361473633366  0.1606010964522021  0.3868540353209160
  0.1525944570253074  0.7771747393392924  0.4087279838316737
  0.5321837957830822  0.3560931679813442  0.8327327867313623
  0.0102563694236737  0.5983002740064450  0.7066063603550650
  0.6093024254912538  0.0481247754427175  0.7940510115410968
  0.8605241217355849  0.0069777348310247  0.6888544213733128
  0.4053418894969349  0.9166109392093075  0.2699923743724681
  0.1836539897720150  0.7378497189663257  0.9625010811110050
  0.2019895889587932  0.8967795120588195  0.1863505175116348
  0.3568385413264915  0.5921503753676732  0.3340265129791956
  0.6068493398838277  0.2810817730350334  0.6766248284629858
  0.6953279222454151  0.5781831524802216  0.2557697956269691
  0.1079523692866561  0.7319615513043963  0.5680213456051874
  0.4125651613699311  0.8519031900712765  0.9452314270711629
  0.3073335107298307  0.1303199313539172  0.7794091632394001
  0.7299276022724108  0.3989940485007116  0.6376357193925082
  0.8173357071181546  0.9212362538980409  0.7523931080502515
  0.8849969397233757  0.5090221594284500  0.3363378767872574
  0.8599044899642242  0.6810217440080297  0.2080752000148167
  0.3888545353329139  0.0579863913816396  0.9928702381017663
  0.3078481424299362  0.2535619730626447  0.3131896239950021
  0.0791421968384551  0.3666531518648601  0.6574524659695925
  0.5596060045759520  0.8367599116874770  0.4983359348546291
  0.3438099533584605  0.8348093388712916  0.7393772127352332
  0.7850814168590879  0.8823376924984859  0.9374457781894362
  0.8130373021823577  0.0690508363028453  0.9523614977662963
  0.5337614394387470  0.2921888229397785  0.5760028326083051
  0.0394248500539299  0.6464868374221608  0.8823548204613390
  0.7241458359509685  0.5665571990064596  0.5528455732541133
  0.0846518715476445  0.3680348224950049  0.3800267281974883
  0.6569758619718666  0.0441947341775533  0.3334749753646724
  0.5916351354507019  0.0423850479919498  0.6156685154163285
  0.8360221148520326  0.0896873802560927  0.2459449291936542
  0.5759382720141859  0.6128431891370393  0.1205748038538223
  0.2219506312648667  0.5017761297054689  0.6393808586268465
  0.6016106483333139  0.8478446999351159  0.8903486377580911
  0.6339450074207246  0.6083215098485022  0.8305855991383483
  0.6437727371111276  0.8236091060405379  0.0775234500548927
  0.0434474235907602  0.9156367632195916  0.8053302564957383
  0.1111655111725243  0.8958815495153777  0.0171396398041546
  0.1701077416970317  0.8032483830166209  0.7948306085829321
  0.4730556684248272  0.7635160019504702  0.4225375128686476
  0.5753055098369543  0.2290956037020513  0.0122785980007705
  0.9073429529442922  0.1120599407122395  0.7470591050795122
  0.8977319756161372  0.3453639087206920  0.2842382870896356
  0.7278772822365602  0.5335222316862430  0.0277644251122594
  0.3643011456259552  0.7350692962805931  0.9421352321540206
  0.5472667422636852  0.4230216877405428  0.5904625099515670
  0.2236806104941080  0.7182140850875939  0.3166053334457528
  0.2866696650469958  0.2496937639910568  0.5995358285020144
  0.3703944808032671  0.1420674939160188  0.1696570322191240
  0.7247345853636353  0.2786854774335121  0.3738438006862041
  0.4391004855027862  0.1741135086360406  0.9519190327804993
  0.0501119861355721  0.1518746779638337  0.4567164570604054
  0.9978569164596167  0.0366449393893804  0.8402893812659830
  0.4804071593795208  0.6332763223903943  0.7117358570240633
  0.2246249257770686  0.7291001495779824  0.6293074426817082
  0.6222286579679192  0.1017689014278247  0.0114894785053535
  0.8671509770275155  0.9509268052290839  0.8601652137243189
  0.7347515054191562  0.5314101479524813  0.6857665013473324
  0.0906807603764505  0.3511256410261078  0.0326021446746087
  0.3865123921848934  0.6026707051370678  0.8018020405513872
  0.7728092343964200  0.7791733241363232  0.8570603092323067
  0.0258676551968191  0.2408638814141625  0.6655266279722180
  0.7441987247965973  0.2705025006236280  0.1530449368771347
  0.9064029190793995  0.9703925960018500  0.4225235485786331
  0.6092891950272302  0.6217507815285087  0.5968834363731759
  0.4734682847717122  0.9154596325531228  0.8532808132893399
  0.8216887466494533  0.7392978147743163  0.4731277690736560
  0.1368622072389163  0.4450594079962243  0.8219797692940023
  0.0938945410025518  0.4363872092501805  0.5262910322096499
  0.3925887824857418  0.5292283333792129  0.1864747459158219
  0.2579023435640794  0.1239554841544685  0.6320770366287382
  0.8259971290635071  0.1491113113042014  0.4532795479529304
  0.9812224879353892  0.3685626444234767  0.8795777524561420
  0.6074540759448773  0.3641024881249393  0.1397188459231193
  0.5755534994092680  0.3887152446031574  0.3514273392050785
  0.3575839397279357  0.2983579936145292  0.8479607784217787
  0.6770065702274539  0.7369906644116316  0.5942173900451927
  0.0052795172112419  0.0394398956069093  0.9739145524546605
  0.5281406297137355  0.4640190869984288  0.9610253819887469
  0.0554583414350163  0.7053529461497874  0.2235044736320568
  0.1608142674006038  0.9141896995184609  0.8700362801073155
  0.6939015290615038  0.9474537042025805  0.7579715032237747
  0.1922841572897432  0.3131142389707517  0.4439599935002822
  0.8304670370604632  0.8049358491358427  0.7109218993954414
  0.1246598837695104  0.0624672280513221  0.1218916086407464
  0.9089976806244351  0.5386911056926889  0.9235078017715731
  0.3724937146699216  0.0649657415582013  0.6030579309766865
  0.1941568757032998  0.0833924018634592  0.3559804145313313
  0.4609795072417122  0.8568162563942979  0.0631867404131589
  0.4673910502412248  0.5346425214013240  0.2959979661650153
  0.4083850946901508  0.2672542774183870  0.1463173181908538
  0.1091553254151812  0.1848703031525885  0.9530061822562789
  0.7261932003523675  0.5105826939163077  0.8335208892522212
  0.4425337573732278  0.4837518544595526  0.8258162728646947
  0.2015214068712307  0.5830158302516364  0.4534534291832165
  0.9123581509233560  0.3567653930123931  0.1514541237928003
  0.6484308290460374  0.2707059521919640  0.5072160360471080
  0.8442028223657535  0.1766374594930999  0.6490137332450623
  0.7267420401385650  0.8266331519045003  0.2740281813670469
  0.4626429541940917  0.4541715602276018  0.4924413429584948
  0.2270999858964710  0.1016781915485943  0.4993997489359667
  0.0254770840802677  0.0066701101636206  0.2702744813186662
  0.6758074928945569  0.4164210018499633  0.9091991326839231
  0.9988351315001555  0.6978625390387282  0.6260847738316864
  0.5541400526977733  0.6166965475299797  0.4778150421226151
  0.1740066164552419  0.8903684150195179  0.3090983616845419
  0.1937546256237982  0.3747011398078761  0.7123133292989094
  0.9609126677059803  0.9640838791028307  0.6338456454391755
  0.2904359716546599  0.1194008664114574  0.0639765995686693
  0.7864511896855256  0.3976737332759464  0.1288029609333866
  0.1219088894136294  0.2300225742845704  0.0770357709489012
  0.2998402910936799  0.6139576194673284  0.2246346368168431
  0.6018117472968261  0.5743553263578148  0.9839919198139455
  0.9471239803146061  0.1623904242602518  0.3737094379466252
  0.8146973675607493  0.5473528368636784  0.2314662050983448
  0.1193397808509511  0.0233234582251275  0.5325699704408949
  0.6744629202226969  0.7512518829827479  0.9419630491927979
  0.6115291987873437  0.2548885088763622  0.8497006762152003
  0.5035588992341878  0.4175524582463259  0.0810337145655864
  0.2131112786243444  0.3599106694583363  0.0798775617426641
  0.0972200299673400  0.1263265287793865  0.8132191367792633
  0.3264913561834666  0.8410403035866587  0.1865086718845356
  0.5466558431739746  0.2405334648494076  0.1415620771085259
  0.4077388766857855  0.5087884117147576  0.9905094401281079
  0.3903596631221646  0.8923523238303745  0.6302578203944815
  0.1606467415004773  0.2567958710602530  0.5579829954947764
  0.5036145846496038  0.9586951609004205  0.5332740638846798
  0.8610963383612095  0.5092124876464303  0.7033441283227284
  0.6659355896807241  0.4327615882338606  0.5334342781968445
  0.0446255788839155  0.4737048135875745  0.9284118664050148
  0.7544642501389451  0.9844211279563824  0.2555013653620032
  0.4811797599579709  0.8202910563367326  0.2326248198366751
  0.4539388941139837  0.3106484428938919  0.7405748618905014
  0.0086725623112870  0.2214514465744268  0.7961136255127984
  0.1969150779468084  0.0134683886380407  0.7886801679962073
  0.9014279933677459  0.0457096944149948  0.1426922222991421
  0.5102681471682183  0.1206158836084167  0.4921662452382330
  0.1011629707619781  0.5395113299189059  0.6069523631462500
  0.0135426064417066  0.2664023621815548  0.5132695488101093
  0.4290730187409069  0.6361483839779348  0.5229774968769487
  0.5675126202429198  0.9202219812330628  0.0236595729741683
  0.2486234222141536  0.0380919206421143  0.1632252459404711
  0.4745666639346120  0.8118535717969239  0.7735478816717533
  0.0820361304754468  0.0116463677471874  0.4090164921028299
  0.4609045960335126  0.6672174909384734  0.8859650538844057
  0.7967279246867437  0.6788369795363000  0.5908955467665032
  0.2130312951392221  0.8613360495981941  0.6854463397849664
  0.6935874805525493  0.1432188058780804  0.5086882330723996
  0.6850139845913762  0.6892887942149366  0.1584607190763439
  0.0961655082017994  0.7671473154191940  0.0575180965047098
  0.9392859925292426  0.3179957102034241  0.9947612172004440
  0.7878058126294795  0.0235375670281978  0.4191836751002193
  0.0788965794011747  0.9398226032029271  0.1399793776541488
  0.3082163177785108  0.9170786914263489  0.9271140262440180
  0.6209355897296409  0.2837839745905941  0.2907105943417527
  0.2591127233963155  0.7869842968133611  0.5181301072867052
  0.2381019339730540  0.4862437982305837  0.0729979085712270
  0.8064055012470437  0.8598273157232984  0.5240752265164593
  0.9605523297813681  0.1737990212446379  0.1891137106852362
  0.1001989355130959  0.6703180878002492  0.4607097301800526
  0.5247372391243328  0.4196339727466510  0.2367732119313857
  0.9672497367819944  0.9206541689578004  0.0029684612772193
  0.9063689893439258  0.1570669590768085  0.9333371311220950
  0.8629614988415973  0.2337086850703510  0.1114296973355073
  0.1517147980065016  0.6084139772881406  0.3162768804167038
  0.2448338020954262  0.9002754045928328  0.0468028234116288
  0.1371498181121089  0.0366926570617186  0.9822243511140563
  0.3615624681687180  0.9628344187207841  0.8055415569751618
  0.6822824615960766  0.3012598474883903  0.0337271451863115
  0.3136547001678952  0.4357770801820331  0.8241121845312713
  0.8754940214214311  0.8746122493550154  0.3380538709276488
  0.3771112205298355  0.8424981821533534  0.3785495818078961
  0.7898297987026325  0.0256754752008366  0.5904229138147801
  0.2799776602278742  0.0763619050974535  0.8916011014443623
  0.8729994007836773  0.4926207882322841  0.0397982275074981
  0.2312123262876684  0.2293729002993532  0.7978444074680718
  0.6356402900322102  0.3890601834024738  0.7290130464693081
  0.0698653408687764  0.7721549050810694  0.9048192356590269
  0.8597443816478977  0.4249412576537895  0.8620375414386058
  0.7870331339132640  0.1815696495393659  0.7839963323576341
  0.6404308622200180  0.7294381910299050  0.2964654342953432
  0.6244647040486258  0.8821849448224093  0.1956084522427040
  0.0277264087583776  0.7973942158038837  0.7063845160265744
  0.7092985290085949  0.6538825381260578  0.7314867370632544
  0.1700289082809181  0.3752049048717782  0.2816815241634738
  0.5761304532457756  0.0733296549070671  0.2355425354400861
  0.0618506794125173  0.7941065665460474  0.3196484024861383
  0.5589770696460595  0.5347802547565254  0.7535168512371656
  0.4705539689519316  0.0695418582590562  0.0983677260703183
  0.3199506135105731  0.4205978222720206  0.1998839006141695
  0.9552472473509056  0.7795356780307073  0.1779321273811351
  0.4346938095160066  0.5518647644791209  0.6204104664280554
  0.9059748381788233  0.2927000260537654  0.6736745382413432
  0.9420985652188644  0.4174697870123880  0.4998284613842291
  0.8738763498122146  0.7706805600781276  0.9448553590787708
  0.8486993138241335  0.2547734093005432  0.8723243834822092
  0.9336537418450640  0.6611765644875818  0.7978783987134056
  0.5301161834436099  0.0776941864471972  0.9159756583098912
  0.2261229205056444  0.4349624997382985  0.5212691121055848
  0.1824958186654358  0.7701969529948879  0.1566136536149906
  0.1568597742526950  0.6158746636335048  0.9624879485534272
  0.3269205256718204  0.2066369176803350  0.4794705603448173
  0.5244242400205807  0.7669936657001484  0.6069532388669275
  0.8238814396434220  0.2866726177107601  0.4903407359323040
  0.7357681682362774  0.9670878821871305  0.0634482961278873
  0.8708976579868543  0.5866603602245714  0.4383560034682973
  0.6884001182013085  0.4997895963743793  0.3588497091115679
  0.7563222085086174  0.6571417198407841  0.0536841659358346
  0.8531951043481826  0.9134691685421179  0.1573009136571253
  0.9642186908686289  0.6233612352145986  0.2711722301000483
  0.0812638608055070  0.1213839446515774  0.2466446444530526
  0.4667953115533454  0.1094300206253151  0.2981917329211585
  0.6661496397571771  0.1232585151203441  0.7056632192400982
  0.9022835842276402  0.1023983851827477  0.5479840599574531
  0.7113468899468556  0.1339913735014949  0.1357332286082068
  0.3129141995101998  0.2521688581925885  0.9690030480040233
  0.4347697632646570  0.2683668323001613  0.2733347102257769
  0.1149471606420678  0.3125590207824485  0.9094416793717301
  0.4169650707207957  0.4308028961058098  0.7040404290545799
  0.4698438211414239  0.3436244026132660  0.4204964010995754
  0.1914627240507240  0.9029386009270414  0.5279327150296051
  0.8072929051653905  0.7134765580274944  0.3230367257243337
  0.2767861772119474  0.6335532285969898  0.0360012168119869
  0.5607762513626959  0.2095601623794573  0.4091332224340044
  0.6700011474804911  0.7522083408106348  0.4643720036729058
  0.5183246025758438  0.6407746692259664  0.2435263330071157
  0.9071142410097367  0.5508729135516665  0.5922022667624548
  0.0788451262073096  0.4969871665096786  0.4094518341972041
  0.3717592710979584  0.3996049533386393  0.3169332305012555
  0.9516892038758179  0.7457478232793473  0.4678401044818555
  0.7913159902757275  0.4229756619066354  0.3715475503222982
  0.3149943193758669  0.0071079417338526  0.5021113970389049
  0.2722900368424124  0.7322976465195543  0.8391393426998193
  0.3040309456453088  0.4932734437297851  0.3840229273048651
  0.8140850900726980  0.2424628265809524  0.2842970930507962
  0.4443012796477603 -0.0000501276434047  0.3619198713577712
  0.6124956719429098  0.9013916749060312  0.3718892014243931
  0.4547341442592965  0.3333985113398212  0.9300736509964526
  0.0079673153636036  0.2853181687617891  0.2383278265236801
  0.6872276983792203  0.6226629328014032  0.4222743882475882
  0.9016993716825298  0.8412430884930079  0.6063427330556459
  0.0268701617625696  0.0746890616801184  0.6761175975463035
  0.1979869753588491  0.5579880987882262  0.7764203137651160
  0.2712362142411790  0.2386008822676272  0.1909317146582710
  0.6830967365285689  0.9454656255926773  0.6191414941943961
  0.7087313708311381  0.1391216453240425  0.9198118392318404
  0.5431150079175467  0.7437678470173347  0.0446461568447438
  0.2483846397150815  0.4657103120044195  0.9338459618770110
  0.4199928462425416  0.1749372826062177  0.8224300882981622
  0.9959629515701198  0.4562497206427562  0.2222022758581347
  0.0244930891431942  0.4398234575274564  0.7530505965358263
  0.3775578827751836  0.3916368554492550  0.5643094063269581
  0.2680488529799223  0.6111891500096535  0.5693192374700109
  0.7849316312052693  0.7998518567128293  0.1585691353743013
  0.5134821268868915  0.0198116017677328  0.7176720508082897
  0.3946873536980074  0.6809635256127304  0.0776324571957919
  0.1119571049453172  0.9713175990916481  0.6969713886883151
  0.1147235887684232  0.6537323188944717  0.7549327149404982
  0.2677799977030901  0.9789549920675618  0.3123406208958516
  0.6574718853689647  0.5095008984952467  0.1526027840549409
  0.0749660059663551  0.8418004721707862  0.5187170687392851
  0.1475455958837608  0.5186897739249190  0.1630242750239516
  0.6488861311745667  0.8273818129892744  0.7645353980314112
  0.3002354302690410  0.6729899265649383  0.4117196695892354
  0.7194387793678023  0.2720326242927020  0.6252680265864484
  0.0456919003507160  0.5921240666920503  0.0842274268933751
  0.9622371100890834  0.6490342951989605  0.9991936259885010
  0.3231264970148818  0.1288629644679751  0.3502213670637923
  0.4029053708426260  0.9633201286283979  0.1348917018873763
  0.1303097062223644  0.2162028827809090  0.3717446217920135
  0.7842484275217140  0.5963016222710243  0.9155334900214623
  0.3588819521499871  0.7159569275287955  0.6738657804080210
  0.6762480944978826  0.9541769100363885  0.8983563778424516
 
  0.00000000E+00  0.00000000E+00  0.00000000E+00
  0.00000000E+00  0.00000000E+00  0.00000000E+00
  0.00000000E+00  0.00000000E+00  0.00000000E+00
  0.00000000E+00  0.00000000E+00  0.00000000E+00
  0.00000000E+00  0.00000000E+00  0.00000000E+00
  0.00000000E+00  0.00000000E+00  0.00000000E+00
  0.00000000E+00  0.00000000E+00  0.00000000E+00
  0.00000000E+00  0.00000000E+00  0.00000000E+00
  0.00000000E+00  0.00000000E+00  0.00000000E+00
  0.00000000E+00  0.00000000E+00  0.00000000E+00
  0.00000000E+00  0.00000000E+00  0.00000000E+00
  0.00000000E+00  0.00000000E+00  0.00000000E+00
  0.00000000E+00  0.00000000E+00  0.00000000E+00
  0.00000000E+00  0.00000000E+00  0.00000000E+00
  0.00000000E+00  0.00000000E+00  0.00000000E+00
  0.00000000E+00  0.00000000E+00  0.00000000E+00
  0.00000000E+00  0.00000000E+00  0.00000000E+00
  0.00000000E+00  0.00000000E+00  0.00000000E+00
  0.00000000E+00  0.00000000E+00  0.00000000E+00
  0.00000000E+00  0.00000000E+00  0.00000000E+00
  0.00000000E+00  0.00000000E+00  0.00000000E+00
  0.00000000E+00  0.00000000E+00  0.00000000E+00
  0.00000000E+00  0.00000000E+00  0.00000000E+00
  0.00000000E+00  0.00000000E+00  0.00000000E+00
  0.00000000E+00  0.00000000E+00  0.00000000E+00
  0.00000000E+00  0.00000000E+00  0.00000000E+00
  0.00000000E+00  0.00000000E+00  0.00000000E+00
  0.00000000E+00  0.00000000E+00  0.00000000E+00
  0.00000000E+00  0.00000000E+00  0.00000000E+00
  0.00000000E+00  0.00000000E+00  0.00000000E+00
  0.00000000E+00  0.00000000E+00  0.00000000E+00
  0.00000000E+00  0.00000000E+00  0.00000000E+00
  0.00000000E+00  0.00000000E+00  0.00000000E+00
  0.00000000E+00  0.00000000E+00  0.00000000E+00
  0.00000000E+00  0.00000000E+00  0.00000000E+00
  0.00000000E+00  0.00000000E+00  0.00000000E+00
  0.00000000E+00  0.00000000E+00  0.00000000E+00
  0.00000000E+00  0.00000000E+00  0.00000000E+00
  0.00000000E+00  0.00000000E+00  0.00000000E+00
  0.00000000E+00  0.00000000E+00  0.00000000E+00
  0.00000000E+00  0.00000000E+00  0.00000000E+00
  0.00000000E+00  0.00000000E+00  0.00000000E+00
  0.00000000E+00  0.00000000E+00  0.00000000E+00
  0.00000000E+00  0.00000000E+00  0.00000000E+00
  0.00000000E+00  0.00000000E+00  0.00000000E+00
  0.00000000E+00  0.00000000E+00  0.00000000E+00
  0.00000000E+00  0.00000000E+00  0.00000000E+00
  0.00000000E+00  0.00000000E+00  0.00000000E+00
  0.00000000E+00  0.00000000E+00  0.00000000E+00
  0.00000000E+00  0.00000000E+00  0.00000000E+00
  0.00000000E+00  0.00000000E+00  0.00000000E+00
  0.00000000E+00  0.00000000E+00  0.00000000E+00
  0.00000000E+00  0.00000000E+00  0.00000000E+00
  0.00000000E+00  0.00000000E+00  0.00000000E+00
  0.00000000E+00  0.00000000E+00  0.00000000E+00
  0.00000000E+00  0.00000000E+00  0.00000000E+00
  0.00000000E+00  0.00000000E+00  0.00000000E+00
  0.00000000E+00  0.00000000E+00  0.00000000E+00
  0.00000000E+00  0.00000000E+00  0.00000000E+00
  0.00000000E+00  0.00000000E+00  0.00000000E+00
  0.00000000E+00  0.00000000E+00  0.00000000E+00
  0.00000000E+00  0.00000000E+00  0.00000000E+00
  0.00000000E+00  0.00000000E+00  0.00000000E+00
  0.00000000E+00  0.00000000E+00  0.00000000E+00
  0.00000000E+00  0.00000000E+00  0.00000000E+00
  0.00000000E+00  0.00000000E+00  0.00000000E+00
  0.00000000E+00  0.00000000E+00  0.00000000E+00
  0.00000000E+00  0.00000000E+00  0.00000000E+00
  0.00000000E+00  0.00000000E+00  0.00000000E+00
  0.00000000E+00  0.00000000E+00  0.00000000E+00
  0.00000000E+00  0.00000000E+00  0.00000000E+00
  0.00000000E+00  0.00000000E+00  0.00000000E+00
  0.00000000E+00  0.00000000E+00  0.00000000E+00
  0.00000000E+00  0.00000000E+00  0.00000000E+00
  0.00000000E+00  0.00000000E+00  0.00000000E+00
  0.00000000E+00  0.00000000E+00  0.00000000E+00
  0.00000000E+00  0.00000000E+00  0.00000000E+00
  0.00000000E+00  0.00000000E+00  0.00000000E+00
  0.00000000E+00  0.00000000E+00  0.00000000E+00
  0.00000000E+00  0.00000000E+00  0.00000000E+00
  0.00000000E+00  0.00000000E+00  0.00000000E+00
  0.00000000E+00  0.00000000E+00  0.00000000E+00
  0.00000000E+00  0.00000000E+00  0.00000000E+00
  0.00000000E+00  0.00000000E+00  0.00000000E+00
  0.00000000E+00  0.00000000E+00  0.00000000E+00
  0.00000000E+00  0.00000000E+00  0.00000000E+00
  0.00000000E+00  0.00000000E+00  0.00000000E+00
  0.00000000E+00  0.00000000E+00  0.00000000E+00
  0.00000000E+00  0.00000000E+00  0.00000000E+00
  0.00000000E+00  0.00000000E+00  0.00000000E+00
  0.00000000E+00  0.00000000E+00  0.00000000E+00
  0.00000000E+00  0.00000000E+00  0.00000000E+00
  0.00000000E+00  0.00000000E+00  0.00000000E+00
  0.00000000E+00  0.00000000E+00  0.00000000E+00
  0.00000000E+00  0.00000000E+00  0.00000000E+00
  0.00000000E+00  0.00000000E+00  0.00000000E+00
  0.00000000E+00  0.00000000E+00  0.00000000E+00
  0.00000000E+00  0.00000000E+00  0.00000000E+00
  0.00000000E+00  0.00000000E+00  0.00000000E+00
  0.00000000E+00  0.00000000E+00  0.00000000E+00
  0.00000000E+00  0.00000000E+00  0.00000000E+00
  0.00000000E+00  0.00000000E+00  0.00000000E+00
  0.00000000E+00  0.00000000E+00  0.00000000E+00
  0.00000000E+00  0.00000000E+00  0.00000000E+00
  0.00000000E+00  0.00000000E+00  0.00000000E+00
  0.00000000E+00  0.00000000E+00  0.00000000E+00
  0.00000000E+00  0.00000000E+00  0.00000000E+00
  0.00000000E+00  0.00000000E+00  0.00000000E+00
  0.00000000E+00  0.00000000E+00  0.00000000E+00
  0.00000000E+00  0.00000000E+00  0.00000000E+00
  0.00000000E+00  0.00000000E+00  0.00000000E+00
  0.00000000E+00  0.00000000E+00  0.00000000E+00
  0.00000000E+00  0.00000000E+00  0.00000000E+00
  0.00000000E+00  0.00000000E+00  0.00000000E+00
  0.00000000E+00  0.00000000E+00  0.00000000E+00
  0.00000000E+00  0.00000000E+00  0.00000000E+00
  0.00000000E+00  0.00000000E+00  0.00000000E+00
  0.00000000E+00  0.00000000E+00  0.00000000E+00
  0.00000000E+00  0.00000000E+00  0.00000000E+00
  0.00000000E+00  0.00000000E+00  0.00000000E+00
  0.00000000E+00  0.00000000E+00  0.00000000E+00
  0.00000000E+00  0.00000000E+00  0.00000000E+00
  0.00000000E+00  0.00000000E+00  0.00000000E+00
  0.00000000E+00  0.00000000E+00  0.00000000E+00
  0.00000000E+00  0.00000000E+00  0.00000000E+00
  0.00000000E+00  0.00000000E+00  0.00000000E+00
  0.00000000E+00  0.00000000E+00  0.00000000E+00
  0.00000000E+00  0.00000000E+00  0.00000000E+00
  0.00000000E+00  0.00000000E+00  0.00000000E+00
  0.00000000E+00  0.00000000E+00  0.00000000E+00
  0.00000000E+00  0.00000000E+00  0.00000000E+00
  0.00000000E+00  0.00000000E+00  0.00000000E+00
  0.00000000E+00  0.00000000E+00  0.00000000E+00
  0.00000000E+00  0.00000000E+00  0.00000000E+00
  0.00000000E+00  0.00000000E+00  0.00000000E+00
  0.00000000E+00  0.00000000E+00  0.00000000E+00
  0.00000000E+00  0.00000000E+00  0.00000000E+00
  0.00000000E+00  0.00000000E+00  0.00000000E+00
  0.00000000E+00  0.00000000E+00  0.00000000E+00
  0.00000000E+00  0.00000000E+00  0.00000000E+00
  0.00000000E+00  0.00000000E+00  0.00000000E+00
  0.00000000E+00  0.00000000E+00  0.00000000E+00
  0.00000000E+00  0.00000000E+00  0.00000000E+00
  0.00000000E+00  0.00000000E+00  0.00000000E+00
  0.00000000E+00  0.00000000E+00  0.00000000E+00
  0.00000000E+00  0.00000000E+00  0.00000000E+00
  0.00000000E+00  0.00000000E+00  0.00000000E+00
  0.00000000E+00  0.00000000E+00  0.00000000E+00
  0.00000000E+00  0.00000000E+00  0.00000000E+00
  0.00000000E+00  0.00000000E+00  0.00000000E+00
  0.00000000E+00  0.00000000E+00  0.00000000E+00
  0.00000000E+00  0.00000000E+00  0.00000000E+00
  0.00000000E+00  0.00000000E+00  0.00000000E+00
  0.00000000E+00  0.00000000E+00  0.00000000E+00
  0.00000000E+00  0.00000000E+00  0.00000000E+00
  0.00000000E+00  0.00000000E+00  0.00000000E+00
  0.00000000E+00  0.00000000E+00  0.00000000E+00
  0.00000000E+00  0.00000000E+00  0.00000000E+00
  0.00000000E+00  0.00000000E+00  0.00000000E+00
  0.00000000E+00  0.00000000E+00  0.00000000E+00
  0.00000000E+00  0.00000000E+00  0.00000000E+00
  0.00000000E+00  0.00000000E+00  0.00000000E+00
  0.00000000E+00  0.00000000E+00  0.00000000E+00
  0.00000000E+00  0.00000000E+00  0.00000000E+00
  0.00000000E+00  0.00000000E+00  0.00000000E+00
  0.00000000E+00  0.00000000E+00  0.00000000E+00
  0.00000000E+00  0.00000000E+00  0.00000000E+00
  0.00000000E+00  0.00000000E+00  0.00000000E+00
  0.00000000E+00  0.00000000E+00  0.00000000E+00
  0.00000000E+00  0.00000000E+00  0.00000000E+00
  0.00000000E+00  0.00000000E+00  0.00000000E+00
  0.00000000E+00  0.00000000E+00  0.00000000E+00
  0.00000000E+00  0.00000000E+00  0.00000000E+00
  0.00000000E+00  0.00000000E+00  0.00000000E+00
  0.00000000E+00  0.00000000E+00  0.00000000E+00
  0.00000000E+00  0.00000000E+00  0.00000000E+00
  0.00000000E+00  0.00000000E+00  0.00000000E+00
  0.00000000E+00  0.00000000E+00  0.00000000E+00
  0.00000000E+00  0.00000000E+00  0.00000000E+00
  0.00000000E+00  0.00000000E+00  0.00000000E+00
  0.00000000E+00  0.00000000E+00  0.00000000E+00
  0.00000000E+00  0.00000000E+00  0.00000000E+00
  0.00000000E+00  0.00000000E+00  0.00000000E+00
  0.00000000E+00  0.00000000E+00  0.00000000E+00
  0.00000000E+00  0.00000000E+00  0.00000000E+00
  0.00000000E+00  0.00000000E+00  0.00000000E+00
  0.00000000E+00  0.00000000E+00  0.00000000E+00
  0.00000000E+00  0.00000000E+00  0.00000000E+00
  0.00000000E+00  0.00000000E+00  0.00000000E+00
  0.00000000E+00  0.00000000E+00  0.00000000E+00
  0.00000000E+00  0.00000000E+00  0.00000000E+00
  0.00000000E+00  0.00000000E+00  0.00000000E+00
  0.00000000E+00  0.00000000E+00  0.00000000E+00
  0.00000000E+00  0.00000000E+00  0.00000000E+00
  0.00000000E+00  0.00000000E+00  0.00000000E+00
  0.00000000E+00  0.00000000E+00  0.00000000E+00
  0.00000000E+00  0.00000000E+00  0.00000000E+00
  0.00000000E+00  0.00000000E+00  0.00000000E+00
  0.00000000E+00  0.00000000E+00  0.00000000E+00
  0.00000000E+00  0.00000000E+00  0.00000000E+00
  0.00000000E+00  0.00000000E+00  0.00000000E+00
  0.00000000E+00  0.00000000E+00  0.00000000E+00
  0.00000000E+00  0.00000000E+00  0.00000000E+00
  0.00000000E+00  0.00000000E+00  0.00000000E+00
  0.00000000E+00  0.00000000E+00  0.00000000E+00
  0.00000000E+00  0.00000000E+00  0.00000000E+00
  0.00000000E+00  0.00000000E+00  0.00000000E+00
  0.00000000E+00  0.00000000E+00  0.00000000E+00
  0.00000000E+00  0.00000000E+00  0.00000000E+00
  0.00000000E+00  0.00000000E+00  0.00000000E+00
  0.00000000E+00  0.00000000E+00  0.00000000E+00
  0.00000000E+00  0.00000000E+00  0.00000000E+00
  0.00000000E+00  0.00000000E+00  0.00000000E+00
  0.00000000E+00  0.00000000E+00  0.00000000E+00
  0.00000000E+00  0.00000000E+00  0.00000000E+00
  0.00000000E+00  0.00000000E+00  0.00000000E+00
  0.00000000E+00  0.00000000E+00  0.00000000E+00
  0.00000000E+00  0.00000000E+00  0.00000000E+00
  0.00000000E+00  0.00000000E+00  0.00000000E+00
  0.00000000E+00  0.00000000E+00  0.00000000E+00
  0.00000000E+00  0.00000000E+00  0.00000000E+00
  0.00000000E+00  0.00000000E+00  0.00000000E+00
  0.00000000E+00  0.00000000E+00  0.00000000E+00
  0.00000000E+00  0.00000000E+00  0.00000000E+00
  0.00000000E+00  0.00000000E+00  0.00000000E+00
  0.00000000E+00  0.00000000E+00  0.00000000E+00
  0.00000000E+00  0.00000000E+00  0.00000000E+00
  0.00000000E+00  0.00000000E+00  0.00000000E+00
  0.00000000E+00  0.00000000E+00  0.00000000E+00
  0.00000000E+00  0.00000000E+00  0.00000000E+00
  0.00000000E+00  0.00000000E+00  0.00000000E+00