In2O3 structure 29 - random placement wi
   1.00000000000000     
     7.9593893381576626   -0.0385305409331561    0.0278340120540617
    -0.0387602148849572    8.0191660548601256   -0.0084594310264779
     0.0275213068173837   -0.0088305087822996    8.1340607415208588
   In   Ga   O 
    14     2    24
Direct
  0.4133570622537093  0.2270664657328609  0.4498214363117938
  0.1360156248423010  0.5017849773253289  0.6823204774761038
  0.3958421685911802  0.7483912379062758  0.9566024963441464
  0.6775183955270450  0.4764916511027408  0.1959472725244993
  0.8925181469464292  0.2519988216818874  0.9624535211694791
  0.1337247044778067  0.9960359900076057  0.6844800851593433
  0.1713050771674318  0.4736387071369137  0.1883239320971342
  0.1402574894383406  0.9679816730035782  0.1967706101638598
  0.8834969924214917  0.7381259480193734  0.9602517885109449
  0.3992888775913599  0.2607915249891093  0.9483919075223994
  0.4118502065935914  0.7191075455290132  0.4509765782214998
  0.9163837441147464  0.2238827900433478  0.4586789975314858
  0.6273415732924548  0.9976211615014776  0.6584191217972801
  0.6386595783963998  0.5011276186525961  0.6790845062164124
  0.9158774491007335  0.7209368097076663  0.4738731869949362
  0.6903689235244244  0.9530047424098314  0.2197104109519117
  0.6673045831482440  0.2556959594316552  0.5608125605429919
  0.6364620391816516  0.7271952436018836  0.0886097745710259
  0.6445794201962585  0.3824336194560658  0.9208419706448581
  0.4287710434404275  0.3601292166885202  0.2158582185784184
  0.9072805610734349  0.8372641249236707  0.2440887181748010
  0.5140014724885447  0.7561919757646294  0.7155362921542334
  0.1590119870460995  0.7565480934864297  0.5575062702324729
  0.2864973004075253  0.7329339768741150  0.2108881360324304
  0.0163157712202988  0.2501591599554374  0.7231830183608849
  0.7287535405396852  0.0147808780059506  0.9117141684104269
  0.3804333093343075  0.1159288516765713  0.7188071218099950
  0.1679727336275363  0.1082003543165087  0.4236564989661318
  0.8774407056180848  0.9511415757722830  0.5686600101245460
  0.8852489839653543  0.6220325955163943  0.7175213394521762
  0.2702977751847158  0.5074331100855929  0.9197747609973916
  0.3811636344839826  0.4690074334532426  0.5657911549212784
  0.5691532629996132  0.0261823153988345  0.0129706846514424
  0.9262215775114129  0.4989998614919955  0.0768429081601454
  0.7955552285470588  0.1830176698002504  0.2184034654205433
  0.1272942579998571  0.8736594731218048  0.9304366589727522
  0.6843732535382543  0.6187477600219893  0.4288526486127537
  0.0231250244937584  0.4784458291540048  0.4211016374231988
  0.1514337926641787  0.2085877795196751  0.0723263214862087
  0.5255645145602585  0.9682698687005242  0.3924448597796655
 
  0.00000000E+00  0.00000000E+00  0.00000000E+00
  0.00000000E+00  0.00000000E+00  0.00000000E+00
  0.00000000E+00  0.00000000E+00  0.00000000E+00
  0.00000000E+00  0.00000000E+00  0.00000000E+00
  0.00000000E+00  0.00000000E+00  0.00000000E+00
  0.00000000E+00  0.00000000E+00  0.00000000E+00
  0.00000000E+00  0.00000000E+00  0.00000000E+00
  0.00000000E+00  0.00000000E+00  0.00000000E+00
  0.00000000E+00  0.00000000E+00  0.00000000E+00
  0.00000000E+00  0.00000000E+00  0.00000000E+00
  0.00000000E+00  0.00000000E+00  0.00000000E+00
  0.00000000E+00  0.00000000E+00  0.00000000E+00
  0.00000000E+00  0.00000000E+00  0.00000000E+00
  0.00000000E+00  0.00000000E+00  0.00000000E+00
  0.00000000E+00  0.00000000E+00  0.00000000E+00
  0.00000000E+00  0.00000000E+00  0.00000000E+00
  0.00000000E+00  0.00000000E+00  0.00000000E+00
  0.00000000E+00  0.00000000E+00  0.00000000E+00
  0.00000000E+00  0.00000000E+00  0.00000000E+00
  0.00000000E+00  0.00000000E+00  0.00000000E+00
  0.00000000E+00  0.00000000E+00  0.00000000E+00
  0.00000000E+00  0.00000000E+00  0.00000000E+00
  0.00000000E+00  0.00000000E+00  0.00000000E+00
  0.00000000E+00  0.00000000E+00  0.00000000E+00
  0.00000000E+00  0.00000000E+00  0.00000000E+00
  0.00000000E+00  0.00000000E+00  0.00000000E+00
  0.00000000E+00  0.00000000E+00  0.00000000E+00
  0.00000000E+00  0.00000000E+00  0.00000000E+00
  0.00000000E+00  0.00000000E+00  0.00000000E+00
  0.00000000E+00  0.00000000E+00  0.00000000E+00
  0.00000000E+00  0.00000000E+00  0.00000000E+00
  0.00000000E+00  0.00000000E+00  0.00000000E+00
  0.00000000E+00  0.00000000E+00  0.00000000E+00
  0.00000000E+00  0.00000000E+00  0.00000000E+00
  0.00000000E+00  0.00000000E+00  0.00000000E+00
  0.00000000E+00  0.00000000E+00  0.00000000E+00
  0.00000000E+00  0.00000000E+00  0.00000000E+00
  0.00000000E+00  0.00000000E+00  0.00000000E+00
  0.00000000E+00  0.00000000E+00  0.00000000E+00
  0.00000000E+00  0.00000000E+00  0.00000000E+00
