Amorphous GeAsSeSi                      
   1.00000000000000     
     20.047323354591131    0.0000000000000000    0.0000000000000000
     0.0000000000000000    20.047323354591131    0.0000000000000000
     0.0000000000000000    0.0000000000000000    20.047323354591131
   Zn   Sb
   120   180
Direct
  0.5217432139989865  0.8583320127683329  0.4764679787608115
  0.5744949048866456  0.7714739621334464  0.5967006237719704
  0.1516378628479174  0.4922090024300150  0.7603560275697607
  0.1717618079967833  0.7459003965482252  0.3816142598499775
  0.9324247147240302  0.1583454471765062  0.8825228269657988
  0.5990373105047974  0.2256858373169503  0.3747438019881419
  0.7332879188803785  0.9232987608344390  0.5955666344342286
  0.0995155122714698  0.7829104038512198  0.0160970734367189
  0.8563585753669830  0.2163820606072587  0.7974698573070815
  0.7255279949825160  0.3468883481304966  0.5441323484936710
  0.4266739156515972  0.9484019886662650  0.7041303829922951
  0.9880603346956482  0.4806970983450298  0.2948920703793559
  0.5497250761212990  0.1230462030603922  0.8207781854265024
  0.3110402495074526  0.8955172416620656  0.7150338390619884
  0.0344365281997567  0.5164718253587987  0.8185701855320522
  0.4725807429483746  0.8117657311651776  0.0690358982003776
  0.5731437220583769  0.5999493324957476  0.7722382735006789
  0.4404946495589721  0.4169291426662344  0.5584008584380163
  0.3406909271335848  0.9340088404210068  0.1018124267687785
  0.7093784439825082  0.1720016252144789  0.8050347696442316
  0.3387989173624253  0.3426063365782757  0.1758063858575096
  0.7905980292649990  0.7222762912534529  0.0602458693205079
  0.6251930797841275  0.8195045916327340  0.4012008495010830
  0.9554645860162018  0.8078349844398851  0.8620114145910091
  0.3925407930375672  0.9154071602055623  0.4869382214103603
  0.6577196481909200  0.1363262913541529  0.2139573360241463
  0.6527621729432834  0.5063358734001416  0.4742546276791540
  0.8742047725088617  0.9245492562162395  0.0369530109294791
  0.2414261179277959  0.1509930889615087  0.6196714958925652
  0.5982474776895400  0.3031806297208665  0.4969315307412535
  0.7262072247030332  0.3047323040499850  0.4260833907428023
  0.0304471782855589  0.0069743675524702  0.3304493854353812
  0.6091372524573401  0.8448330273108575  0.2671588115018557
  0.6926912566120161  0.2173160647582044  0.5096254955304966
  0.1575262856083798  0.8471074138265090  0.7579883586999544
  0.5749255262912695  0.6137494254403096  0.2146766051753105
  0.9143484253803761  0.0125119261116876  0.1122870960011957
  0.8336693610177819  0.8037283450179727  0.9515003291798476
  0.5488660519235150  0.7254262341931652  0.0009059797967686
  0.7775435857841413  0.4685595519931487  0.5523295050245000
  0.5269219069835829  0.8992435044135284  0.6103283703595019
  0.4620736968823235  0.5874313355965698  0.8956779220150421
  0.2349226218083740  0.9024624344498021  0.0154058282980250
  0.1638502869327653  0.1281931620528212  0.7387407069735075
  0.6276406085564877  0.9254221513993288  0.5163412614251666
  0.8369865631296354  0.7944646085386059  0.2524571871590182
  0.1819766416297700  0.2847576441715863  0.3993781495947910
  0.8819130366110807  0.2423982784365681  0.2895697001142077
  0.8991461297906300  0.7893993256448247  0.0724681092989547
  0.7572215831420854  0.6276803669869029  0.3815153120120715
  0.3613693221720672  0.7338145335000525  0.0966601022830051
  0.0294571593597365  0.8348987475765601  0.2472601503469668
  0.7614066954643762  0.6256165857688732  0.5156718680633054
  0.8534725041440758  0.9504874987108205  0.6319844950811512
  0.0568276752365498  0.1135548856759419  0.3990083681213258
  0.3253082853309199  0.4326254050509339  0.7630472879391027
  0.5579265401474346  0.0188889603469695  0.9807008815482382
  0.3933130134348382  0.9753317767179631  0.9229696058998961
  0.1949051662158287  0.2992190196832955  0.9519515376161055
  0.9233958532873886  0.5424347657250207  0.9201303010579436
  0.3417591896891169  0.2369213696513838  0.6558599556599822
  0.4070556526851171  0.5458023022291310  0.7859472405721452
  0.0504622036937171  0.5442244297440785  0.9473129743899343
  0.2492431683538987  0.1092594606041180  0.9319804203842408
  0.7320029371410366  0.8721797862623997  0.8684846227892462
  0.9822981169870291  0.3015201401454926  0.5292480652986563
  0.7919687692307374  0.1956554636745982  0.1903921844888423
  0.5312315698637020  0.4599718605831222  0.7326119394418684
  0.5261297643667027  0.4876324242602777  0.1832633098031815
  0.3484863967060595  0.1735982977255485  0.2992209094131228
  0.2906040941912154  0.6561961262174316  0.6189179635130136
  0.1292844887475083  0.6518515829366752  0.3054566136079609
  0.9762746591682167  0.2338511758347945  0.3927197922480938
  0.0460686686273188  0.4968271530329494  0.6851280015805770
  0.0782816638333402  0.4953208204084265  0.3883976703555754
  0.3710769161471651  0.9180697222974493  0.3614321863608403
  0.4083483430256239  0.8032713816341834  0.3890830931823234
  0.8032879732557957  0.1489614551224764  0.3618738891852659
  0.6213903509660749  0.8008513014839063  0.9033761712997451
  0.4101088084331824  0.3645991604035838  0.6834250698368817
  0.4916215776302449  0.6997559657145791  0.2973539482375730
  0.7045167481910000  0.3039679572321421  0.8940773525167044
  0.6570572453777637  0.7168006993377403  0.0742019579182292
  0.2713696685283071  0.8286444633389632  0.1220231055824168
  0.6227375223991806  0.9909152421358054  0.6304594912743090
  0.7626226319518750  0.8858869341052282  0.7123770061185235
  0.2896007868451326  0.0189685528959563  0.4314665504672583
  0.9304311171901036  0.2063573881717755  0.1731418593255431
  0.5695897485140362  0.5966031902565909  0.9781068081025154
  0.7017338814671145  0.5527729263268981  0.2687306701504427
  0.2700983478363406  0.3117404365554534  0.0623607512880519
  0.3938874715464540  0.8963289808004525  0.8210635673979231
  0.9430456892805062  0.3813561017043586  0.8524961978262723
  0.1673459911388024  0.3836868505005692  0.2200428345010892
  0.1575846912398824  0.7495517004086550  0.1419290941891182
  0.3054951430532010  0.2296075712591613  0.9683865278885078
  0.2676811010284385  0.0009419091170059  0.8482709913174393
  0.9225187558370616  0.7986476332166370  0.3410101439308092
  0.5419954979724012  0.6882703194990900  0.8763493542261441
  0.7413057124097339  0.7022586327453116  0.2733151881249655
  0.3413801298406746  0.5401323142243367  0.6738007107052213
  0.4188245763071261  0.6778740119887128  0.8115097646410807
  0.7280351985221218  0.8749328390614641  0.3268758604356481
  0.9236253187806577  0.1043101983765264  0.4215973155686845
  0.2091183469038330  0.3358660373312097  0.5159381886766006
  0.7180350268265998  0.0339241640292697  0.0063072991419496
  0.3071947098754331  0.3174907253036470  0.8616895473527192
  0.6071134874338897  0.8372735962324571  0.0343149892020783
  0.6232388850816026  0.6979292967200580  0.3195126432137827
  0.7268057105916240  0.6396959587693568  0.1628221763863910
  0.4250403960979287  0.7191863560470011  0.9566243436185786
  0.5017913441301309  0.0068947737608737  0.8601860172761050
  0.3598866112602345  0.7226264605175552  0.2933919798734156
  0.6429927632233310  0.6391509282328018  0.4369778825902663
  0.0813221691227719  0.3741158318216290  0.7707213574773332
  0.6876527225074225  0.4227730218149354  0.2866456219918275
  0.4981135673057757  0.1269503264332798  0.0574994116591351
  0.2430382989170348  0.5181861651593900  0.0189056909995178
  0.1822423020206814  0.4146765271767363  0.3906739547923675
  0.2502745408732043  0.2302386143241252  0.7563483807069362
  0.3354783333600069  0.4471861432495883  0.0876147107889619
  0.1229400756812117  0.1826633354261253  0.2978396017576273
  0.3988868594449605  0.8444281692194676  0.5946016992124707
  0.5772970137959764  0.3668831577083613  0.1229341437222308
  0.7941294401769593  0.7642531841553745  0.3960528845772541
  0.3759794765088534  0.0810401370416865  0.8067529629721538
  0.3585910723627455  0.6051748788587631  0.9892997822953264
  0.9920182272913102  0.0409761678785076  0.9452855094637049
  0.3150972945684588  0.0062049058189278  0.2342526436950307
  0.4874223234164670  0.3402115976682800  0.0044886694839038
  0.1379290006093549  0.5131985060950839  0.2584688574190577
  0.4705683300074801  0.5413416638011832  0.6321134306706560
  0.5998376264303155  0.2627780904101196  0.8096472887646703
  0.2164876954089314  0.3605512585041455  0.7262690302300682
  0.9188928326592183  0.3430507714333662  0.1714566855203661
  0.2878135341676463  0.3483873546591809  0.3119882907056681
  0.0546005164754954  0.9361296315935136  0.8553039122389922
  0.0639751450685274  0.6299298031831772  0.4231978836520421
  0.3414472236690454  0.3042484094099335  0.5116643208094070
  0.1629892231016783  0.9985748770540096  0.9427049047795766
  0.1581656235739921  0.2615309464125230  0.6188131973342081
  0.0462839964599530  0.3595291812363454  0.6408981664538632
  0.7572120142696579  0.4336202271010991  0.4146512433998517
  0.5824881303226686  0.3450308622279177  0.3164804986726193
  0.9493713647043774  0.4210558761094296  0.9951806548088108
  0.9802701667476653  0.9758398203322913  0.5812015014152950
  0.2166425651447521  0.0231195125103423  0.1154076019537786
  0.8016923307316715  0.1302424800712611  0.5029959003286841
  0.2584865400675811  0.7763090200624969  0.7008891812621865
  0.8126711716095973  0.1093112985831218  0.0621260624323035
  0.5646438974439985  0.2137292710413602  0.9603110438809764
  0.1831774957571869  0.6224637941484862  0.0783120149443502
  0.7089431781342431  0.2230213518798857  0.0217184086307410
  0.7707282425299306  0.2181506154992769  0.6886990604797123
  0.4614245785798669  0.9036056982786576  0.1719914997246395
  0.7321849638889825  0.8944004783907801  0.0024327332769855
  0.3146817766016269  0.7049730469296625  0.4315601655863159
  0.9731424370286205  0.4335487608918979  0.4789529623212951
  0.0138094134190162  0.6239647158551989  0.2282549889566271
  0.0739277592113065  0.5212189254065173  0.0812228402927584
  0.7379373232271198  0.2724005965633526  0.2990746652973253
  0.5909620227292559  0.2165004069061292  0.1330467719821407
  0.8355775953541649  0.9284523363201358  0.2471969026006848
  0.8648481769657502  0.9261909886634900  0.8557321737634410
  0.8989300739023592  0.6726564375519326  0.5151550876634498
  0.7145104283653428  0.7989761079684689  0.1751127014650195
  0.0570321729251825  0.3377813173605543  0.3368483511531604
  0.8674042403536978  0.3045983792118548  0.4640292013277731
  0.4753600185597141  0.3649892357096642  0.8197027830317158
  0.5815938262709434  0.4947024100162610  0.8796881628562628
  0.9904771157446942  0.8616711957149032  0.9823563404050261
  0.8607422452857856  0.6696184115075730  0.1904828967575152
  0.1913897786989343  0.7248781954989126  0.5297637198037376
  0.6669423518554491  0.0934291642330025  0.9036245212121646
  0.2655329197924877  0.5581336524276825  0.1848146854538439
  0.6227059818641345  0.0516607392652866  0.1006806843911344
  0.3567708963218678  0.0520898601762658  0.0227349513442592
  0.8924683261213429  0.8459357790025570  0.7212298002353940
  0.1283677323196727  0.9613035995380622  0.6905365473585013
  0.0027866155820091  0.1245795727201598  0.1014883449437334
  0.9321611132593647  0.6224301793579051  0.0495064809824666
  0.9869653927356224  0.0186864253814848  0.7346827413454315
  0.1022618540919406  0.3999101219983813  0.9072326891475673
  0.1473866318722626  0.6576760571017993  0.9159936834429715
  0.1919609750745736  0.1772574318042587  0.0580763700874934
  0.2426230188813695  0.7445251423386763  0.0108725349323468
  0.6304280031700291  0.2857522411631376  0.6475917133205551
  0.0611961313577706  0.1970009708957222  0.5081441592352505
  0.7881924240002992  0.3342784165198921  0.0791526485621276
  0.8669873455046466  0.7118141871593423  0.8211148632253323
  0.0377623025854395  0.1566486263926782  0.6970138734364356
  0.6364684494094491  0.5707841364896080  0.0958068363189107
  0.7213398410528141  0.7712697409633912  0.7873413739112124
  0.7386468854626018  0.0806378457342784  0.6514941690482295
  0.2908215100410600  0.7055165204450059  0.8339746438923472
  0.4056818109787312  0.6983828352662240  0.5494457990958131
  0.9016070580085515  0.1030813179039003  0.2710860040068254
  0.4061207751660954  0.0524172739745169  0.3642645003000484
  0.0457775499572484  0.3203977158736473  0.0463069229267180
  0.6157334567856940  0.9139163784571694  0.1447424231442306
  0.6369242932197561  0.3957189501581171  0.9783121114347445
  0.5790982910045931  0.7973199562865737  0.7342025967425473
  0.8769369645312155  0.4955694408685032  0.7937546826078733
  0.1033051836863264  0.0711184007600361  0.2060848069718576
  0.0534372089630030  0.1814197710369639  0.9778257850313812
  0.1783089331012538  0.8600841714207967  0.2770094561104228
  0.1226505529154429  0.4443433014949267  0.5191207324159935
  0.3426042735183656  0.1464627771166463  0.5176632029354709
  0.1855327847833466  0.0793674306286714  0.5146452186260226
  0.5529810388042209  0.7498048214361034  0.1824268854453513
  0.5025033388789725  0.1492239934426132  0.6808097711157710
  0.4225571275739170  0.1633308857869988  0.9300209675194772
  0.6746722662028912  0.6594192319053884  0.8684386409907855
  0.0372432604227188  0.7510610934375394  0.5301255507164845
  0.5275674455644340  0.7172369847070511  0.4340789029079311
  0.2451562603976827  0.1663355799399614  0.3884224037320942
  0.8820075568910943  0.3810452354183248  0.3204053201015765
  0.2307249553990113  0.6076248142663454  0.7305092649988059
  0.7152281350388039  0.6997994888106902  0.6262513093000922
  0.1651817112660405  0.1928718631669805  0.8640809507006993
  0.6649776978698373  0.5342658111796589  0.7019772474903118
  0.4685929729204892  0.5034561043340808  0.0494579675527311
  0.5865859262305436  0.5455602351433682  0.3407434327750966
  0.2382018400427610  0.6957051082672182  0.2398762746824931
  0.3563353936239896  0.4475305392450326  0.8923695320684578
  0.3140697988459228  0.5404701315263142  0.4815027376997267
  0.5173277530910355  0.0131548312259641  0.4951608539228575
  0.4764806664861971  0.0481883543594191  0.1660486592280351
  0.3657310567300793  0.8446748301812695  0.9707184463035770
  0.9250640840467231  0.4621114702985859  0.6163847642414761
  0.6585580712771347  0.9763340240908027  0.3885868113403595
  0.4850879864847862  0.6808657612354425  0.6949684895972421
  0.8963287535926789  0.9637312300944680  0.3785263708638002
  0.4113972665290923  0.5937210537777128  0.2564767134006421
  0.4582557946338388  0.4567417907649398  0.3025651802071526
  0.1543730145914342  0.8780162121876148  0.5677618122207434
  0.0058864511915005  0.5903393626901482  0.5862882493478352
  0.3316143087009573  0.1418802121344979  0.1610726271607281
  0.5125325359024973  0.9118438794475334  0.3397156188107385
  0.7858405763560768  0.9812949020140623  0.4796108480585667
  0.2587058219613677  0.0341588561403430  0.7059403455099839
  0.8560596936930963  0.7211325034573272  0.6536439312409340
  0.9689679041014203  0.6210082825441231  0.7428969053597624
  0.0306118313860310  0.8349330463367146  0.6657310333760074
  0.6051880147278688  0.1206340751322987  0.5787447145218031
  0.0206480115675297  0.2485771714090597  0.8154096124196012
  0.4222121974327289  0.0446351556750354  0.6046201595975756
  0.2583491788363090  0.8515104300448902  0.4312744169811623
  0.7049610297270094  0.8035548160794750  0.5258853439294925
  0.2283142883214908  0.2523509667973777  0.1950868924823972
  0.2810628327586921  0.9670729662264824  0.5622109796313347
  0.9364690332952124  0.6601787200322945  0.3508039189622370
  0.3930990533726000  0.2379182624241973  0.7856212006636568
  0.6000185459683506  0.5959282957776193  0.5728096823704013
  0.5009518953681596  0.1908495647454886  0.4645806268609695
  0.0194928466765507  0.7520842558795925  0.1435824226578022
  0.9923739520086449  0.9615785976354190  0.2065634205016172
  0.6716603600902151  0.1211466281652123  0.3439448318680433
  0.8609481946725713  0.5496583112056065  0.4288610291594016
  0.1861326088476378  0.9941018275649123  0.3303301350387139
  0.1003807212019048  0.6933206950312146  0.6666897918671063
  0.3337685420590903  0.8565804354058399  0.2380472463851083
  0.1631256471322389  0.4091915868052088  0.0795528015058381
  0.4662007925120314  0.3226220534046202  0.2238629702055851
  0.8394027800352482  0.5234144673517125  0.2582762075521182
  0.0556046890290889  0.2872861125418191  0.2003188167104562
  0.2119970476719440  0.4959545437132206  0.8904648819329901
  0.6215592760359815  0.4256785211955156  0.5974592597528848
  0.2840166868144207  0.4960091207866354  0.3406822045074031
  0.7418864149127899  0.4617430401672213  0.1613515467612147
  0.6997266851506539  0.9882250123443058  0.7812261462479927
  0.4543833484248356  0.6372567881848730  0.1209838078508099
  0.8132454485014349  0.6445947699557589  0.9508942121657653
  0.9510131174802097  0.1230830570519375  0.5776825145437238
  0.4060839362378270  0.2509495951449765  0.0759147483464673
  0.9119329239235444  0.8489926364966084  0.4689997503829125
  0.8056448726791209  0.5595187428690507  0.6583435146609363
  0.5030798618857236  0.8201177482434368  0.8613140419896106
  0.0048308834801191  0.6956594332780706  0.9448109233346014
  0.2522283896613857  0.8630514832295383  0.8677737054308556
  0.4757385997141222  0.1672587349230069  0.2563237969134993
  0.7626911038245514  0.0475961470723347  0.1893356376360685
  0.7182803545962759  0.5127435710320765  0.8478269857335208
  0.2966439202393632  0.4346441451549140  0.6032675900684880
  0.0876152106233801  0.9639108164568683  0.4614782682518035
  0.9449045059391076  0.4917087013798131  0.1407037215522241
  0.1671828827834127  0.5810457636045951  0.5720476222157356
  0.0498984093833223  0.8268459092299463  0.3887908755430884
  0.8362506929480119  0.0674103084617177  0.9230049304089265
  0.8097430318398134  0.3759794200685826  0.9373554608244765
  0.7458540559326848  0.5027033507253954  0.9945353353317481
  0.8498103699876438  0.3363250732710311  0.6141774467907030
  0.0743435104069187  0.7509685453894682  0.8101243632065370
  0.4785958067538895  0.2717638012360088  0.5983172868591166
  0.4583302588073717  0.5745633707741818  0.4832113557175728
  0.8477843807410564  0.0609276025418295  0.7661505710507647
  0.5273210705645304  0.4077503237507185  0.4481967710506129
  0.5598101285788911  0.9489020598296469  0.7482194051212495
  0.1332554399131507  0.8921896415322382  0.1328660539002888
  0.4274419892892070  0.2962756781495849  0.3855965012024025
 
  0.35782799E-02  0.14798121E-02 -0.36371926E-02
 -0.83878281E-03 -0.22494847E-03 -0.23862632E-02
 -0.12796513E-02 -0.41094899E-04  0.10797384E-02
 -0.40412484E-02  0.35603126E-03  0.46139889E-03
 -0.15577519E-02  0.11376714E-02  0.74107528E-03
 -0.25407178E-02 -0.57927396E-03  0.25466030E-02
  0.71736888E-03  0.22852324E-02 -0.88063705E-03
  0.67954919E-04 -0.31168212E-03  0.67669242E-03
 -0.42565019E-04  0.46524323E-03  0.75978413E-03
  0.74979805E-03  0.96643616E-03 -0.41299031E-02
  0.27757824E-03 -0.61962202E-03  0.12349302E-02
 -0.45399385E-03 -0.36935079E-02  0.71483779E-03
  0.71324986E-03 -0.10656704E-02 -0.10020657E-02
  0.64981942E-03 -0.18248059E-02  0.27339054E-02
  0.24796472E-02  0.20864919E-02 -0.47057957E-03
  0.75611234E-03 -0.71213418E-03  0.13693938E-02
  0.61131882E-02  0.82107779E-03 -0.12755585E-02
 -0.24126105E-02  0.17111210E-02 -0.12606075E-02
  0.13323994E-02 -0.41737076E-03 -0.19143002E-03
  0.26140231E-02  0.54601862E-03  0.48924519E-02
  0.86795179E-03  0.94225596E-03  0.31451725E-02
 -0.37707225E-03  0.14269899E-02 -0.21541838E-02
 -0.78988974E-03 -0.91613723E-04  0.12976162E-02
 -0.82083664E-03  0.19986077E-02 -0.25428335E-04
 -0.96759251E-03 -0.11901399E-02 -0.29275091E-02
  0.42436621E-02 -0.26591594E-03 -0.14184786E-02
 -0.54456730E-02 -0.17890549E-02 -0.11702775E-02
 -0.12689681E-02 -0.11164614E-02  0.21355389E-02
  0.34874285E-03  0.28703307E-03  0.43273121E-03
  0.41082224E-03  0.55517154E-03  0.20152465E-02
  0.10044187E-02 -0.11263839E-02 -0.52459561E-03
 -0.22357078E-02 -0.65416191E-03 -0.14743016E-03
  0.27455087E-02  0.63207070E-03  0.11963971E-02
  0.36619845E-03 -0.21626675E-04 -0.22328324E-02
  0.15352014E-03  0.57100662E-04 -0.16136656E-02
  0.46038486E-02 -0.20763962E-02 -0.37462063E-02
 -0.89780457E-03 -0.50261677E-03  0.22443277E-03
 -0.59490840E-02 -0.17037138E-02  0.98500857E-03
  0.37478291E-03 -0.19151859E-02  0.18770959E-02
  0.12862931E-02  0.13529968E-02 -0.17266756E-02
 -0.20875247E-02 -0.27870785E-02  0.85867611E-03
  0.10411623E-02  0.19130968E-02 -0.44033055E-04
  0.54554357E-03  0.22713698E-02 -0.16173035E-03
 -0.87942535E-03 -0.19177400E-02  0.85870491E-03
  0.12865751E-02  0.23827345E-02  0.19534659E-02
  0.29660045E-02 -0.15961360E-03 -0.11536317E-02
  0.62317931E-04 -0.91717439E-03  0.22987765E-03
 -0.10023918E-02  0.28784680E-02 -0.27464343E-02
  0.18769475E-03 -0.16965429E-02  0.11502214E-02
 -0.84571238E-03 -0.41739557E-03 -0.16578208E-02
 -0.70467346E-04  0.21065739E-02 -0.33654479E-02
 -0.10031523E-02  0.98293877E-03  0.32475584E-02
 -0.26598775E-02 -0.54382415E-02  0.20858414E-02
 -0.52507817E-03 -0.85605539E-03 -0.38671803E-03
  0.49391488E-03 -0.18942486E-04 -0.52753381E-03
  0.19771486E-02 -0.34415613E-02 -0.23950577E-03
 -0.73819744E-03 -0.10971562E-02  0.11586818E-02
  0.13921035E-02  0.17433358E-02  0.30045028E-02
 -0.15898812E-02 -0.12967534E-03  0.91105065E-03
  0.13185099E-03  0.29238965E-02 -0.34212765E-03
  0.15799599E-02 -0.10861380E-02  0.35883606E-03
  0.11913526E-02 -0.47680960E-04  0.84154709E-03
  0.11488033E-02 -0.46514252E-03 -0.23234404E-02
  0.24775364E-03  0.11887626E-02  0.71441344E-03
  0.15609926E-02 -0.13350281E-03  0.82684780E-03
  0.14123252E-02 -0.26965681E-02  0.24218239E-02
 -0.11657486E-02 -0.11967120E-02 -0.70532674E-04
 -0.29143925E-02 -0.32709059E-02  0.98591717E-03
 -0.29561516E-02 -0.15744734E-02 -0.19879378E-02
 -0.68627367E-03 -0.23088640E-03  0.90788186E-03
 -0.76190829E-03  0.60017038E-03  0.10669821E-02
  0.11368463E-02 -0.15651053E-02 -0.23115205E-02
  0.18305170E-03 -0.21413156E-02 -0.37696380E-02
 -0.21961033E-03  0.88086497E-03 -0.15020368E-02
 -0.17172948E-02 -0.50339017E-03 -0.20388387E-03
 -0.17797400E-02 -0.11666259E-02 -0.56337085E-03
 -0.34400127E-04  0.11793400E-02  0.16873905E-02
 -0.16898338E-02  0.16005837E-02  0.60090538E-03
  0.12149588E-02  0.16193478E-02 -0.30173764E-02
  0.22463855E-02  0.16493502E-02  0.84500701E-03
  0.22930673E-02  0.33158884E-02 -0.22995537E-02
 -0.12172551E-03 -0.87738035E-03 -0.64371360E-04
  0.19523572E-02  0.20602712E-02 -0.93019756E-03
 -0.26243113E-02  0.41820925E-02  0.72024067E-03
 -0.20001424E-02 -0.36963667E-06 -0.43309270E-03
 -0.17785214E-03 -0.14983119E-02 -0.22314446E-02
 -0.21907245E-03  0.19559089E-02  0.91707244E-03
 -0.17604566E-02  0.50641504E-03 -0.30745517E-02
 -0.92969456E-03  0.70974286E-03  0.21819736E-02
  0.11046297E-02  0.13097460E-02  0.12107501E-02
 -0.91508202E-03  0.19758407E-02  0.32843497E-02
  0.95934998E-03  0.40764988E-03  0.24946022E-02
 -0.61154632E-03  0.98848462E-03 -0.16960146E-02
  0.33020694E-02  0.22372230E-02 -0.83863148E-03
  0.39691234E-03 -0.31275484E-03  0.18056212E-02
 -0.87864693E-04  0.16672616E-02  0.16588461E-02
 -0.18780444E-03 -0.38502908E-03 -0.49984333E-03
  0.31759127E-02 -0.40413085E-02  0.20868919E-02
  0.19801687E-02  0.60436301E-03 -0.20068440E-02
  0.13975644E-03 -0.40033104E-02 -0.19149335E-02
  0.20585938E-03 -0.20558393E-03 -0.14302929E-02
 -0.23168926E-02  0.75174537E-03  0.25165599E-03
  0.89896854E-03  0.84873731E-03 -0.22926899E-03
 -0.28341717E-03  0.31358110E-03  0.62299404E-03
 -0.10790326E-02 -0.98589001E-03 -0.65406799E-03
  0.19723222E-03  0.38513445E-02 -0.46262523E-03
 -0.26678835E-02  0.31393001E-03  0.11703223E-03
 -0.15070052E-02  0.25867333E-02 -0.65350658E-03
 -0.23452520E-02 -0.11208759E-02 -0.22355872E-03
  0.13601129E-02 -0.11884202E-03 -0.20000636E-02
  0.10076745E-02  0.61665027E-03 -0.14576360E-02
 -0.11011959E-02 -0.15450411E-02 -0.67135513E-03
 -0.65000406E-03  0.12956496E-02 -0.12952649E-04
 -0.59857781E-03 -0.13109050E-02  0.77694618E-03
  0.35576783E-03 -0.54242429E-03  0.25148413E-02
 -0.25984754E-02  0.41367416E-03  0.97134289E-03
 -0.93912860E-03 -0.16824613E-03 -0.30582408E-02
  0.21333773E-02 -0.85914687E-03 -0.28683230E-02
 -0.90760950E-03 -0.12887461E-02  0.17434833E-02
  0.14305055E-02 -0.36550794E-03  0.16793325E-02
  0.39839635E-03  0.67930777E-05  0.19558327E-02
  0.24611622E-03  0.64960170E-04 -0.25596443E-02
  0.53831615E-03  0.43560252E-03 -0.91568059E-03
  0.58082350E-04 -0.10312465E-02 -0.11203931E-02
 -0.53434361E-03  0.16974521E-02 -0.12281654E-02
  0.41376685E-02 -0.28230979E-02 -0.19643113E-02
  0.28620297E-02 -0.15840411E-03 -0.33289008E-02
  0.40851942E-03 -0.65541565E-03  0.39054376E-03
 -0.13388649E-04  0.10111014E-02 -0.19714512E-02
 -0.11979834E-03 -0.45327240E-03 -0.44790027E-03
  0.82380221E-03  0.24123657E-02  0.77274923E-03
  0.18073442E-02 -0.36840207E-03  0.82945485E-03
 -0.11624218E-03  0.11092931E-02  0.26218783E-02
  0.14861336E-02 -0.19867467E-02  0.96231472E-03
 -0.52143644E-03 -0.10381253E-03 -0.52977756E-03
 -0.58096896E-03 -0.74032946E-03 -0.84863428E-03
 -0.25391713E-04 -0.27524742E-02 -0.30236027E-03
  0.40779986E-02 -0.11229290E-03  0.87631071E-03
 -0.11907477E-02  0.71314781E-03 -0.16608626E-03
 -0.15307720E-02  0.19578556E-02 -0.52631094E-03
 -0.95524210E-04 -0.33612045E-03  0.12197544E-02
 -0.14507614E-04  0.80017683E-03  0.16776265E-02
 -0.72071745E-03  0.13838291E-02  0.14504226E-02
 -0.12816119E-05 -0.26001457E-03  0.38446608E-02
 -0.16401296E-02  0.15840071E-02  0.13848104E-03
 -0.25524119E-02  0.20761693E-02  0.48643139E-03
  0.93943053E-04  0.55828603E-03  0.10805731E-02
 -0.16812722E-03 -0.61479963E-03  0.33406011E-04
 -0.18761369E-02  0.37683488E-03  0.18988811E-02
  0.44246100E-02  0.70130997E-03  0.66492948E-03
 -0.11771383E-02  0.31457135E-02 -0.16868432E-02
  0.34626914E-03 -0.10536506E-02 -0.22894253E-03
  0.17282827E-02 -0.13309895E-02  0.16177891E-03
 -0.27758079E-02 -0.14912096E-02  0.23754064E-02
  0.71217293E-03  0.15037633E-03 -0.65074106E-03
 -0.75667515E-03  0.12303055E-02 -0.10897591E-02
 -0.30918385E-02  0.89831546E-03  0.21028594E-02
 -0.75825193E-03 -0.32241561E-02  0.65305390E-03
  0.32030252E-03 -0.82053854E-03 -0.20719124E-02
 -0.15658649E-02 -0.18138085E-02 -0.23129391E-02
 -0.14757797E-02 -0.36829615E-02  0.51528240E-03
  0.27777506E-02 -0.25733626E-02 -0.14942265E-02
  0.92437878E-03  0.17536443E-03  0.29723272E-03
  0.68525911E-03  0.20086278E-02  0.73430978E-03
 -0.25731979E-02  0.36319462E-02 -0.76368915E-03
  0.10592061E-02  0.37484845E-02  0.46189753E-03
  0.17155619E-02  0.36843372E-03 -0.22384245E-02
  0.27060155E-03  0.28413342E-02 -0.40528726E-03
 -0.96624283E-03 -0.20670577E-02  0.27644292E-02
  0.24222875E-02 -0.15310331E-02  0.68627009E-03
 -0.15457456E-02 -0.23493930E-02  0.21702567E-02
  0.65541164E-03 -0.18461559E-02 -0.22972881E-02
 -0.22822107E-02  0.14031494E-03 -0.66342415E-03
 -0.36081042E-03  0.74682552E-03 -0.71446886E-03
 -0.71239304E-03  0.12849480E-02  0.11897534E-03
 -0.36639827E-03  0.18316145E-02  0.10885616E-02
 -0.10738039E-02  0.10732069E-02  0.66675275E-04
  0.70323807E-03  0.13029602E-02  0.26166156E-02
  0.19974548E-02 -0.17842286E-03 -0.31481574E-02
  0.25866547E-03 -0.11847928E-04 -0.14186483E-02
 -0.31577212E-03  0.19389962E-02 -0.13203937E-02
  0.92259379E-03 -0.13441692E-02  0.12436424E-02
  0.11006328E-02  0.24675738E-03  0.24082533E-02
 -0.16330409E-02 -0.15557555E-02  0.34125647E-03
  0.34185055E-03  0.93043222E-03  0.31745348E-02
 -0.10337364E-02 -0.50319117E-03 -0.27611353E-03
  0.10009741E-02  0.19390883E-02 -0.18279949E-02
 -0.32103510E-03 -0.22868556E-02  0.59502021E-03
 -0.37392711E-03  0.33023263E-03 -0.64903155E-03
  0.17756370E-03 -0.68181495E-03  0.95759617E-03
 -0.18380728E-02  0.36254299E-03 -0.83871681E-03
  0.71530626E-03  0.38038098E-03  0.10317129E-02
 -0.22706959E-02  0.64826677E-03  0.18646278E-03
  0.16884198E-02 -0.19969842E-02  0.48839293E-03
 -0.24469507E-02  0.28660005E-02 -0.68820451E-03
 -0.20731992E-02 -0.17696559E-02  0.10076040E-02
 -0.32142275E-02  0.53179538E-03 -0.10389823E-02
  0.74534148E-03 -0.11336560E-02  0.96249370E-03
 -0.19310634E-02  0.76492354E-03 -0.12154506E-02
 -0.21961028E-03  0.11475575E-02  0.21135927E-02
 -0.86765107E-03  0.22391809E-02 -0.14703289E-02
 -0.11046941E-03  0.14212631E-02 -0.23226909E-02
  0.67870480E-03  0.15140923E-02 -0.19844747E-02
 -0.11641433E-02 -0.41300234E-03  0.32527303E-03
  0.27198169E-03 -0.40420294E-03 -0.34281527E-02
  0.15276251E-02 -0.75548398E-03 -0.19434459E-02
  0.34297657E-03 -0.76942424E-03  0.11908514E-02
  0.13179174E-02  0.17721604E-02  0.10425305E-03
  0.27003019E-02 -0.15909020E-02 -0.55087681E-03
  0.14585769E-02 -0.97597784E-03  0.14503162E-02
  0.80936181E-03 -0.75554231E-03 -0.15558436E-02
 -0.35105464E-02  0.25631157E-02  0.12058021E-02
 -0.15426451E-02 -0.14332346E-02 -0.14702793E-02
 -0.21591818E-02 -0.52349527E-03  0.76722135E-03
 -0.31227647E-03 -0.24189736E-02 -0.11044759E-02
 -0.89739101E-03  0.73862331E-03  0.11819402E-02
 -0.36157379E-02  0.63956395E-03 -0.18702753E-04
 -0.82354496E-03 -0.38446497E-03  0.11813931E-03
  0.28093616E-02  0.68486639E-03 -0.30166162E-03
  0.83796023E-03 -0.31284992E-02  0.73315664E-03
  0.14757424E-02 -0.15108304E-03  0.26845593E-02
  0.13328748E-03  0.81487297E-03  0.39597568E-03
  0.79005690E-03 -0.53531913E-03 -0.21743595E-02
  0.17651862E-02  0.15825311E-02 -0.43717524E-03
  0.23229774E-02 -0.96523793E-03  0.12015157E-02
 -0.11690205E-03 -0.11107880E-02 -0.76040498E-04
  0.93519653E-03 -0.19150153E-02 -0.10636428E-02
  0.14257982E-02  0.27382345E-02 -0.44126027E-03
  0.11327021E-02  0.13561283E-03  0.19090399E-02
 -0.26010179E-02  0.75242967E-03 -0.24092588E-02
 -0.57821590E-03  0.80157818E-04  0.87502642E-03
 -0.12238609E-02  0.14891982E-02  0.83102942E-03