Amorphous Sb                            
   1.00000000000000     
    20.6413969107436444    0.0000000000000000    0.0000000000000000
     0.0000000000000000   20.6413969107436444    0.0000000000000000
     0.0000000000000000    0.0000000000000000   20.6413969107436444
   Ge   Te   Se
   150    75    75
Direct
  0.6046686416214868  0.2930229710806458  0.2740822756526526
  0.9448804635862800  0.2725517906627459  0.0532748461029229
  0.5149267102939561  0.5645805378481583  0.0096494968278407
  0.9917950031240608  0.1369345134176427  0.6008276872069871
  0.9629033276403405  0.7105043072884385  0.8191509012490670
  0.8867661306965715  0.0658113780404292  0.5916613481642941
  0.0092457523342446  0.9290746002523136  0.1963057099139718
  0.3981273004758350  0.5405601736798715  0.6874919324250328
  0.5367797385103970  0.0630923409335580  0.0134945640815687
  0.1845983281837960  0.2858377272278076  0.5452461219876881
  0.5027779803188821  0.3392414726551678  0.4117659019023776
  0.8410482529080667  0.0887011191434794  0.9412980803354856
  0.7138738631073096  0.4325387709093178  0.5703178982240757
  0.5180104412513558  0.2364124448693588  0.6790769174495423
  0.4626924339956773  0.9264523961858373  0.6381977805777410
  0.0554408917968274  0.8670732349581201  0.9204961311807978
  0.4400852765601542  0.9857111685303721  0.1471165527600036
  0.2587875757065063  0.5258188208075012  0.7275491862720642
  0.8497744555621765  0.0063611516853683  0.6967914840809399
  0.4444831469994739  0.5174641549511492  0.4976232905851745
  0.6814229400979741  0.0720728918285189  0.3939767725169929
  0.4032521969692766  0.1728167994144769  0.8385748270437574
  0.5092026928557658  0.4798291761828821  0.4017359803811758
  0.9991243656600872  0.0408133449032420  0.9919556464970611
  0.7066087176673719  0.7827337319800733  0.4524307860904173
  0.4593969890221246  0.7507715618924635  0.9298642207666248
  0.0636079976496617  0.6815696832515243  0.9774505288849937
  0.5814724986925981  0.3616892961565270  0.5388976335158659
  0.6721125952094482  0.5022739087021577  0.9016008094494410
  0.7793554523730819  0.4711357345983771  0.4730262073544225
  0.6107718368208452  0.7662143216879400  0.2941009087385709
  0.4917787920350563  0.3373769999279190  0.8259655011299500
  0.3104400149709576  0.9522017483939393  0.1091392520352201
  0.6044255257750635  0.4235193856448305  0.0606424848073672
  0.7284514912332654  0.9150093226675580  0.9394928622706686
  0.9331029764326075  0.6355275565662382  0.2841906976562214
  0.6940124904769576  0.6433466689027441  0.0717893572247021
  0.5998220278858284  0.1572458543794539  0.8901166430575245
  0.6902571956046728  0.0571596586934646  0.7766490127374794
  0.8359845220403983  0.1051356764101001  0.0650291636158613
  0.6880123684356505  0.2243881298424668  0.7433546650411387
  0.1565404215635766  0.7764958052127326  0.8154414466950612
  0.7489468429266211  0.8046296999854547  0.8030196871644577
  0.1093620209235695  0.5748774209042793  0.2881167095086781
  0.0427523276849087  0.6667143313888531  0.3362460602419546
  0.2045045028475343  0.0665417572522315  0.6586581241196470
  0.6888968309925616  0.3126663829182732  0.6017143274126511
  0.1490528973444754  0.3983234312007511  0.3928061438381718
  0.5400858747420045  0.7202609584114938  0.1389149518049067
  0.8388919095853211  0.6913835571248441  0.5463374362535092
  0.2412269411618482  0.2847887035767727  0.4083563365072180
  0.8880851946530726  0.7749489935148546  0.3784524193993377
  0.1155091744970278  0.9598213617489222  0.7298546245524733
  0.3343194593472987  0.2066717642420031  0.6589964115248037
  0.9279439194775208  0.9378736550758191  0.7642680138186648
  0.3547611819852676  0.0536453828746914  0.5545817190960349
  0.1586358054804364  0.9128191863918502  0.1864929870724126
  0.1032742381434275  0.7628017057308085  0.2866226845821842
  0.1537081215135245  0.6212273845319203  0.1301516953335380
  0.2650567700950432  0.2616187317410663  0.1706735618268951
  0.3193084599055211  0.4574798816586068  0.1518685028094566
  0.6645573712567909  0.7371302003349101  0.9697492373432368
  0.7400140915669624  0.3667904637913537  0.3091942027719625
  0.5187510156019641  0.1433958125848847  0.4883729108144337
  0.3025655046735878  0.4264380366455001  0.5684859585310917
  0.3590507579830131  0.9447077097162975  0.9901742923594625
  0.6737011335254337  0.8951962061770473  0.3088542802783110
  0.4960877776309971  0.1157982596494094  0.2166226986426594
  0.2332199628453751  0.4766458216140563  0.9832048826133430
  0.7066784101094754  0.4647033198490647  0.7345547870305467
  0.5902667463300162  0.8716609138799711  0.7297640731405437
  0.7647841810949316  0.8287246248993370  0.6799658389458330
  0.3415009501865285  0.2086388020985908  0.4042463158090186
  0.4782905025004567  0.5854410752696850  0.3353999010835267
  0.2746664152201106  0.4558229450091602  0.3794033723909607
  0.3078588618785645  0.7774646831116598  0.0284275467548127
  0.2343607555254650  0.3935685208818498  0.0746977819102241
  0.8252365441022675  0.0077173738438745  0.2189001284870358
  0.4357116383274260  0.3119028419038727  0.0269439322065281
  0.0330548095861118  0.3634419362000330  0.8091341390349598
  0.8972948412932382  0.3948273614978604  0.3513265968871764
  0.8977614960244082  0.9223535196140986  0.0628669541914348
  0.0557900612618809  0.1978900118933353  0.3424066934482326
  0.1811682186585486  0.7905980957730137  0.1897775497234022
  0.0586311300711699  0.2794960501195760  0.2475132580609198
  0.3356045085873234  0.4126785864385809  0.2741400453739402
  0.7648470327979737  0.6388780876742004  0.3545090088931246
  0.1478406228305005  0.2889524814237916  0.1647035392822360
  0.6757629006726091  0.8183756232964399  0.5869928389078254
  0.1381226686155514  0.6608384540315200  0.7763793539038630
  0.6143569521817298  0.6250350505832998  0.4288525144632800
  0.4809291102461160  0.7713915121946187  0.4157092006278233
  0.5511743665377935  0.9559740159993169  0.3173618916577041
  0.5162562065471690  0.0411360945409314  0.8794050458998512
  0.6064787426852689  0.8623829584237015  0.1527288438762113
  0.0994852639328201  0.4743889047755303  0.8114427439287653
  0.2514339541094870  0.7919383049382986  0.6541494818731408
  0.6334923711070246  0.3327985981042616  0.8983469777103323
  0.3380666984212581  0.0844051710672176  0.2642152831983893
  0.3648460564549154  0.6943718238730909  0.5533547957355722
  0.9055377165879648  0.0033651173684675  0.3756046160013042
  0.4895904728101712  0.0388839276085378  0.6950078392239689
  0.1648611136953733  0.2619991114570723  0.7308300896322493
  0.0535434606518024  0.9856221745084639  0.4995519443112002
  0.8360219913499449  0.1712259336483868  0.4804136857266528
  0.2312918439115705  0.5545914072620022  0.2945499660257198
  0.2367145522075873  0.1506910418480842  0.2266859001215593
  0.7391205801289402  0.4471693837741242  0.0863236398795735
  0.1988660071774859  0.1148635394379411  0.4489831236943971
  0.1069675924111095  0.1840119039683117  0.1170755076695045
  0.0100814520802146  0.1066521494464112  0.7286189658693374
  0.8854553414510633  0.5525357974614238  0.0661517404791425
  0.3080129840002783  0.8567978006420205  0.4865172665239612
  0.9399301695749926  0.3770428111768211  0.1670131466787979
  0.9565815548243748  0.5875205944015107  0.5337573923705605
  0.1104447972273235  0.9925375801444716  0.3265943388293877
  0.1142767459041707  0.6434859327542952  0.6518801719857308
  0.9146981005158494  0.7442820900356537  0.2165373969605469
  0.5560585063051917  0.4919948568420622  0.1941083742510799
  0.3643812877931296  0.3317744323046199  0.1355122188819280
  0.5836868575490683  0.6408441792822117  0.3107358509408655
  0.0514362502535093  0.4012448899251879  0.6112656598012975
  0.7032807383427340  0.2392252568260318  0.4601136983764107
  0.2428087519789983  0.3588607176528456  0.7420199385520192
  0.3140760264587712  0.6439824519249697  0.9376361333345216
  0.6060289969267600  0.9035130189199307  0.9213161925466125
  0.8695794266195449  0.3494915574641695  0.5563436610977632
  0.2318143210865244  0.8921763351827892  0.5817718457986700
  0.2172999591960973  0.6792346230902950  0.3780320523375025
  0.4392103932247906  0.2781276741402294  0.2199655058009427
  0.8878756681615627  0.2267534432877483  0.6632885329020439
  0.9670226539670566  0.3055394881389759  0.4310242849540202
  0.1420631302054218  0.7770857087741305  0.5117554170958698
  0.1121555593759638  0.7387382289116644  0.1001505330774322
  0.7841536924436809  0.3187886829600117  0.9747121319511223
  0.3192171602755138  0.6638877873836506  0.4438959549356127
  0.6848361844095763  0.9855006667187709  0.0736593336669671
  0.1356243377638933  0.2981855489469112  0.9668194808320507
  0.8470778739194387  0.1992214648973558  0.3472537348722113
  0.3585419509747894  0.8801355216438154  0.3005792273220322
  0.4668043837996692  0.6273778057229009  0.5461744891501965
  0.1355274786991814  0.9991747716663824  0.0356609070541793
  0.9722660341528950  0.5310696488932436  0.7366900640423353
  0.3200556054931454  0.6864170831929570  0.6702395822454363
  0.4552794182423341  0.5758299002559610  0.8707335029638372
  0.0490187729689424  0.6198354079593145  0.4494665968805336
  0.4138587927734392  0.1900629150203557  0.3045181999319766
  0.8714532032093274  0.3862644764804202  0.7820596930546344
  0.7994077677495000  0.4954511680757321  0.1928818364596196
  0.3382729268409932  0.4433107166637953  0.8388493552469427
  0.8842419094129141  0.1317546554725624  0.7613454723786361
  0.6740370689969879  0.3762369447038054  0.1941207805451342
  0.3567935144053891  0.5153695373676044  0.9549376030491104
  0.8405142602140785  0.5093740005143061  0.7643049418804182
  0.5143592669905672  0.6027251590102196  0.6627196615910407
  0.4294815031946229  0.1427053931851177  0.9711302557471200
  0.5030407688443006  0.8189857670086553  0.2313183371850798
  0.2440919306958520  0.8106501577984986  0.3821205656510500
  0.3101432932712385  0.0491918599062373  0.9235365118801653
  0.6006382526586478  0.1071507076521812  0.6885307960523832
  0.7540365792790453  0.5534909183965482  0.9886474605437101
  0.8669841941784071  0.6870311889654914  0.1059722951643280
  0.4930369379815929  0.2623612547362484  0.5464719111982532
  0.6670523827922068  0.9215057051355302  0.4379280595045856
  0.7662419571433858  0.6897918850157723  0.8602885567447558
  0.9711983501969996  0.1714206852444988  0.9597290764002935
  0.3425606658902254  0.3650562387924481  0.4562065614101911
  0.7688557673595469  0.6242004777555437  0.1879006137560495
  0.6130224394643804  0.3311282071062749  0.7113852552850659
  0.1897390443820939  0.4051661780236344  0.8858382674678325
  0.5604016204974442  0.8095589588597960  0.0366563372046613
  0.3810369498625477  0.3279805035740324  0.9026049132558356
  0.4377845153331918  0.5574440791768112  0.2187782539545253
  0.3752315422748751  0.9426883807466808  0.4192727918609833
  0.5488070476215228  0.2297943449338007  0.1678001380392757
  0.4927159710334763  0.3798356577169599  0.2806173287563141
  0.5687185477681709  0.6521101167949936  0.9266482593348258
  0.0778009508578705  0.2414716638887455  0.8222745850594748
  0.6296004970736320  0.7290288255542521  0.6707215031245894
  0.1767879391553322  0.5886273512846145  0.0048994740631727
  0.1773722799277238  0.9801395012741096  0.4431497453413158
  0.7125199546053835  0.0464819901498501  0.9528148974038402
  0.0302390458235280  0.8751588130751813  0.0715529553920717
  0.7745666234936763  0.6975344845179166  0.6627273525657813
  0.9491629105894646  0.7605171677803497  0.9944503310993298
  0.1019411632117908  0.3751537216651499  0.0799300509332852
  0.4133154742334284  0.3104590600703858  0.7196164864294659
  0.2439943121060608  0.0841815405122119  0.0376442874527854
  0.7877611613561157  0.3077367163465823  0.7079359927913842
  0.7158181511690884  0.1928176677675211  0.3321939796889026
  0.9688551908604666  0.7089383066079264  0.5954577670905010
  0.0424293606142854  0.8725699619593072  0.3233238474013405
  0.1613588628588190  0.4197023571844127  0.5224284739115674
  0.7626950456440866  0.7739151066220913  0.3212890694813240
  0.8851289555510533  0.8731489568018560  0.2043256761199075
  0.5252819488289049  0.2084810475818344  0.3696320288466381
  0.4401471710369194  0.4414221421801514  0.6032564864077656
  0.1094506947971894  0.1563996932716805  0.9897956269715209
  0.0522789874750345  0.8480297441619058  0.7825101744515734
  0.8870758707608388  0.8673491665788617  0.6590012880065359
  0.2581381234213538  0.9648625877447969  0.2617240841365742
  0.9341434591103166  0.3659713969046905  0.8932818419129873
  0.8892239888916862  0.6536059170644464  0.9212523050125156
  0.5248189829522047  0.9205546843922647  0.4421009248036469
  0.3101622668762758  0.9727700104429715  0.6552798509811097
  0.5972074982636641  0.9258620134799003  0.6053746327699443
  0.6253362105056155  0.7965130442043744  0.8488250330089997
  0.5433640843592329  0.2218856643145628  0.9950882914671482
  0.9892923380928167  0.5568567574539713  0.9920953583574530
  0.8284297137170498  0.8149277214444695  0.4956186567305707
  0.0994907192277807  0.0512903043374635  0.8278416300293827
  0.1572149951933213  0.9558319466332676  0.9106669504023799
  0.3896479865420943  0.6789154284561434  0.8293627927714056
  0.0558623216741552  0.5013624689096332  0.3816060914020269
  0.3160687563997016  0.5389174343813252  0.4751551588779392
  0.2559536057646099  0.8431683103771448  0.7739708261139739
  0.8240068333774886  0.2319393128761789  0.0881190066198982
  0.0114200584194819  0.7828966131785293  0.4844725631102023
  0.9863841881024555  0.2036899671471204  0.1628795041513271
  0.8531561226282705  0.3107446104875535  0.2566802050886210
  0.9424389100430588  0.0436672234926903  0.1158003272027557
  0.3010177586399365  0.7416948900792733  0.1852139042963330
  0.4840520526864012  0.7378901654517165  0.6942118007911446
  0.2567061517091389  0.2751544630355056  0.0222559142765775
  0.2472004462619495  0.1608009835802306  0.7530942785168691
  0.7351502446362019  0.9828660515111594  0.6911631075515317
  0.3899231825989204  0.1011856135565239  0.1485159988114191
  0.9535706451575905  0.1989083256689028  0.4968595793138633
  0.5683766807873027  0.4645886424490300  0.9462706917754886
  0.9646390366849573  0.3584757722404674  0.7101874449594732
  0.0811959674224667  0.5419205449212185  0.1777487920867316
  0.6653875113701844  0.3176656987543254  0.0188739075696631
  0.8820339747981336  0.6505725278425203  0.3957881280140185
  0.5789636537787288  0.0726630944260833  0.3275923560059866
  0.5923527366224164  0.5842204474855706  0.1039756667024037
  0.9020871763264608  0.9849205152086000  0.9417601354797398
  0.7478217666077569  0.0708067818699760  0.1404030477766582
  0.5169507780869793  0.2139100189695213  0.8151599052469791
  0.7342266995187501  0.4032441741617632  0.8771836036691241
  0.8410188720151197  0.0479330171708483  0.4769469371677175
  0.0044151779258499  0.9910938907674733  0.6801782604270201
  0.7236155999050382  0.6473745721055053  0.4712239581225433
  0.8110875294937401  0.3522507753832471  0.4407706675959560
  0.1464580043028718  0.7823393464087189  0.9338310695206360
  0.8840754289135120  0.0940345462331749  0.2916735725209207
  0.3129073052291105  0.0953622517664101  0.4053273861057036
  0.6508780708721247  0.5502273963698769  0.7985628300862757
  0.5536586708958353  0.0362507186413339  0.1385270820621258
  0.0519758237734678  0.6324796480704862  0.8541478806815661
  0.2596902376221095  0.6101572479509230  0.1901157122347854
  0.0853607774476401  0.2867138418883926  0.4227133768875078
  0.8044525349260851  0.1566932976779469  0.6006046564877821
  0.2963768486791949  0.2966667788942985  0.2942306634117529
  0.4388630355326981  0.9826050867898104  0.2732701019794916
  0.0332097004707563  0.7226580886029410  0.1930713743172774
  0.4687595364226311  0.8683849286552459  0.7436817520041572
  0.4052182338831329  0.6804004538175192  0.3620393142378475
  0.6986618024825262  0.2301942046317578  0.8670924815212402
  0.4116058057026706  0.7987944889781531  0.5191075566212930
  0.2318723898603636  0.6043601686789728  0.6365574112977370
  0.2723619822072578  0.3184216140037606  0.6275089952972337
  0.1340788022042645  0.7655293012320712  0.6378242678690214
  0.0189331533450954  0.0485217624484378  0.3980285318443038
  0.1018860141348128  0.2551727738302745  0.6301565727297600
  0.6333537292136739  0.5395642929483699  0.2768106633755565
  0.1537825695283956  0.0877490892368300  0.1673180540310355
  0.2188825259285423  0.5880261008637220  0.8234255021995338
  0.1603762256122252  0.6534959717579767  0.4864871889270930
  0.0196726906592133  0.5248052288325624  0.6218984675984629
  0.1601315881628693  0.4449327338555733  0.7059772348837754
  0.8408861202960480  0.3987049219736889  0.0465981707067087
  0.2054248173712168  0.9002399943540809  0.0712607778780168
  0.0204598511490630  0.3892802160243036  0.2582527106155581
  0.0892862262421446  0.0879379801902900  0.5568116915387264
  0.6668561010320815  0.5171405175328019  0.6349605346693252
  0.6399343007999860  0.1402379620770873  0.5008975069951944
  0.6009599340761014  0.9733761899022042  0.8130130253676242
  0.4335105506996371  0.1206487137105867  0.6284755976721499
  0.4470997440435482  0.4852852293402492  0.7866811169031962
  0.6292652363330191  0.3391847247627524  0.4285708781397801
  0.7512862822535737  0.9865138061144947  0.3119337126274360
  0.4783784463351495  0.9579954523258323  0.9721236889166747
  0.2597875410084427  0.1332924675348437  0.5695746198097780
  0.1755939481579532  0.1719051928672002  0.3293086102388401
  0.6550167786760852  0.7510472056981570  0.1798588586083909
  0.3661230176613159  0.8412064082512671  0.1191033036904869
  0.4247714720894535  0.0512908967149244  0.7998853832070481
  0.5485711561430833  0.7014017891725430  0.4985389254916086
  0.9195654623264886  0.5033979167858291  0.1780196591539607
  0.2212118875849498  0.4462057135794382  0.2302476144765890
  0.7612564618390465  0.8897670350151898  0.0512948288730612
  0.6009329166325088  0.5174926598065852  0.4704826102729314
  0.3460452940136634  0.8443579271897477  0.9296089788682025
  0.8328262953322323  0.4616051621989357  0.5880321175920002
  0.8108401509117229  0.8872851159160859  0.8594966918805937
  0.4800712327229846  0.4090625250456057  0.0789120587814764
  0.9729564035008025  0.3965813711716777  0.5103956326838102
  0.7978102619404837  0.4789492661429691  0.3143056581574086
  0.9280222017237776  0.6441679349640950  0.7229546753818070
  0.4010992300338785  0.6889188095440062  0.0194204603232961
 
  0.00000000E+00  0.00000000E+00  0.00000000E+00
  0.00000000E+00  0.00000000E+00  0.00000000E+00
  0.00000000E+00  0.00000000E+00  0.00000000E+00
  0.00000000E+00  0.00000000E+00  0.00000000E+00
  0.00000000E+00  0.00000000E+00  0.00000000E+00
  0.00000000E+00  0.00000000E+00  0.00000000E+00
  0.00000000E+00  0.00000000E+00  0.00000000E+00
  0.00000000E+00  0.00000000E+00  0.00000000E+00
  0.00000000E+00  0.00000000E+00  0.00000000E+00
  0.00000000E+00  0.00000000E+00  0.00000000E+00
  0.00000000E+00  0.00000000E+00  0.00000000E+00
  0.00000000E+00  0.00000000E+00  0.00000000E+00
  0.00000000E+00  0.00000000E+00  0.00000000E+00
  0.00000000E+00  0.00000000E+00  0.00000000E+00
  0.00000000E+00  0.00000000E+00  0.00000000E+00
  0.00000000E+00  0.00000000E+00  0.00000000E+00
  0.00000000E+00  0.00000000E+00  0.00000000E+00
  0.00000000E+00  0.00000000E+00  0.00000000E+00
  0.00000000E+00  0.00000000E+00  0.00000000E+00
  0.00000000E+00  0.00000000E+00  0.00000000E+00
  0.00000000E+00  0.00000000E+00  0.00000000E+00
  0.00000000E+00  0.00000000E+00  0.00000000E+00
  0.00000000E+00  0.00000000E+00  0.00000000E+00
  0.00000000E+00  0.00000000E+00  0.00000000E+00
  0.00000000E+00  0.00000000E+00  0.00000000E+00
  0.00000000E+00  0.00000000E+00  0.00000000E+00
  0.00000000E+00  0.00000000E+00  0.00000000E+00
  0.00000000E+00  0.00000000E+00  0.00000000E+00
  0.00000000E+00  0.00000000E+00  0.00000000E+00
  0.00000000E+00  0.00000000E+00  0.00000000E+00
  0.00000000E+00  0.00000000E+00  0.00000000E+00
  0.00000000E+00  0.00000000E+00  0.00000000E+00
  0.00000000E+00  0.00000000E+00  0.00000000E+00
  0.00000000E+00  0.00000000E+00  0.00000000E+00
  0.00000000E+00  0.00000000E+00  0.00000000E+00
  0.00000000E+00  0.00000000E+00  0.00000000E+00
  0.00000000E+00  0.00000000E+00  0.00000000E+00
  0.00000000E+00  0.00000000E+00  0.00000000E+00
  0.00000000E+00  0.00000000E+00  0.00000000E+00
  0.00000000E+00  0.00000000E+00  0.00000000E+00
  0.00000000E+00  0.00000000E+00  0.00000000E+00
  0.00000000E+00  0.00000000E+00  0.00000000E+00
  0.00000000E+00  0.00000000E+00  0.00000000E+00
  0.00000000E+00  0.00000000E+00  0.00000000E+00
  0.00000000E+00  0.00000000E+00  0.00000000E+00
  0.00000000E+00  0.00000000E+00  0.00000000E+00
  0.00000000E+00  0.00000000E+00  0.00000000E+00
  0.00000000E+00  0.00000000E+00  0.00000000E+00
  0.00000000E+00  0.00000000E+00  0.00000000E+00
  0.00000000E+00  0.00000000E+00  0.00000000E+00
  0.00000000E+00  0.00000000E+00  0.00000000E+00
  0.00000000E+00  0.00000000E+00  0.00000000E+00
  0.00000000E+00  0.00000000E+00  0.00000000E+00
  0.00000000E+00  0.00000000E+00  0.00000000E+00
  0.00000000E+00  0.00000000E+00  0.00000000E+00
  0.00000000E+00  0.00000000E+00  0.00000000E+00
  0.00000000E+00  0.00000000E+00  0.00000000E+00
  0.00000000E+00  0.00000000E+00  0.00000000E+00
  0.00000000E+00  0.00000000E+00  0.00000000E+00
  0.00000000E+00  0.00000000E+00  0.00000000E+00
  0.00000000E+00  0.00000000E+00  0.00000000E+00
  0.00000000E+00  0.00000000E+00  0.00000000E+00
  0.00000000E+00  0.00000000E+00  0.00000000E+00
  0.00000000E+00  0.00000000E+00  0.00000000E+00
  0.00000000E+00  0.00000000E+00  0.00000000E+00
  0.00000000E+00  0.00000000E+00  0.00000000E+00
  0.00000000E+00  0.00000000E+00  0.00000000E+00
  0.00000000E+00  0.00000000E+00  0.00000000E+00
  0.00000000E+00  0.00000000E+00  0.00000000E+00
  0.00000000E+00  0.00000000E+00  0.00000000E+00
  0.00000000E+00  0.00000000E+00  0.00000000E+00
  0.00000000E+00  0.00000000E+00  0.00000000E+00
  0.00000000E+00  0.00000000E+00  0.00000000E+00
  0.00000000E+00  0.00000000E+00  0.00000000E+00
  0.00000000E+00  0.00000000E+00  0.00000000E+00
  0.00000000E+00  0.00000000E+00  0.00000000E+00
  0.00000000E+00  0.00000000E+00  0.00000000E+00
  0.00000000E+00  0.00000000E+00  0.00000000E+00
  0.00000000E+00  0.00000000E+00  0.00000000E+00
  0.00000000E+00  0.00000000E+00  0.00000000E+00
  0.00000000E+00  0.00000000E+00  0.00000000E+00
  0.00000000E+00  0.00000000E+00  0.00000000E+00
  0.00000000E+00  0.00000000E+00  0.00000000E+00
  0.00000000E+00  0.00000000E+00  0.00000000E+00
  0.00000000E+00  0.00000000E+00  0.00000000E+00
  0.00000000E+00  0.00000000E+00  0.00000000E+00
  0.00000000E+00  0.00000000E+00  0.00000000E+00
  0.00000000E+00  0.00000000E+00  0.00000000E+00
  0.00000000E+00  0.00000000E+00  0.00000000E+00
  0.00000000E+00  0.00000000E+00  0.00000000E+00
  0.00000000E+00  0.00000000E+00  0.00000000E+00
  0.00000000E+00  0.00000000E+00  0.00000000E+00
  0.00000000E+00  0.00000000E+00  0.00000000E+00
  0.00000000E+00  0.00000000E+00  0.00000000E+00
  0.00000000E+00  0.00000000E+00  0.00000000E+00
  0.00000000E+00  0.00000000E+00  0.00000000E+00
  0.00000000E+00  0.00000000E+00  0.00000000E+00
  0.00000000E+00  0.00000000E+00  0.00000000E+00
  0.00000000E+00  0.00000000E+00  0.00000000E+00
  0.00000000E+00  0.00000000E+00  0.00000000E+00
  0.00000000E+00  0.00000000E+00  0.00000000E+00
  0.00000000E+00  0.00000000E+00  0.00000000E+00
  0.00000000E+00  0.00000000E+00  0.00000000E+00
  0.00000000E+00  0.00000000E+00  0.00000000E+00
  0.00000000E+00  0.00000000E+00  0.00000000E+00
  0.00000000E+00  0.00000000E+00  0.00000000E+00
  0.00000000E+00  0.00000000E+00  0.00000000E+00
  0.00000000E+00  0.00000000E+00  0.00000000E+00
  0.00000000E+00  0.00000000E+00  0.00000000E+00
  0.00000000E+00  0.00000000E+00  0.00000000E+00
  0.00000000E+00  0.00000000E+00  0.00000000E+00
  0.00000000E+00  0.00000000E+00  0.00000000E+00
  0.00000000E+00  0.00000000E+00  0.00000000E+00
  0.00000000E+00  0.00000000E+00  0.00000000E+00
  0.00000000E+00  0.00000000E+00  0.00000000E+00
  0.00000000E+00  0.00000000E+00  0.00000000E+00
  0.00000000E+00  0.00000000E+00  0.00000000E+00
  0.00000000E+00  0.00000000E+00  0.00000000E+00
  0.00000000E+00  0.00000000E+00  0.00000000E+00
  0.00000000E+00  0.00000000E+00  0.00000000E+00
  0.00000000E+00  0.00000000E+00  0.00000000E+00
  0.00000000E+00  0.00000000E+00  0.00000000E+00
  0.00000000E+00  0.00000000E+00  0.00000000E+00
  0.00000000E+00  0.00000000E+00  0.00000000E+00
  0.00000000E+00  0.00000000E+00  0.00000000E+00
  0.00000000E+00  0.00000000E+00  0.00000000E+00
  0.00000000E+00  0.00000000E+00  0.00000000E+00
  0.00000000E+00  0.00000000E+00  0.00000000E+00
  0.00000000E+00  0.00000000E+00  0.00000000E+00
  0.00000000E+00  0.00000000E+00  0.00000000E+00
  0.00000000E+00  0.00000000E+00  0.00000000E+00
  0.00000000E+00  0.00000000E+00  0.00000000E+00
  0.00000000E+00  0.00000000E+00  0.00000000E+00
  0.00000000E+00  0.00000000E+00  0.00000000E+00
  0.00000000E+00  0.00000000E+00  0.00000000E+00
  0.00000000E+00  0.00000000E+00  0.00000000E+00
  0.00000000E+00  0.00000000E+00  0.00000000E+00
  0.00000000E+00  0.00000000E+00  0.00000000E+00
  0.00000000E+00  0.00000000E+00  0.00000000E+00
  0.00000000E+00  0.00000000E+00  0.00000000E+00
  0.00000000E+00  0.00000000E+00  0.00000000E+00
  0.00000000E+00  0.00000000E+00  0.00000000E+00
  0.00000000E+00  0.00000000E+00  0.00000000E+00
  0.00000000E+00  0.00000000E+00  0.00000000E+00
  0.00000000E+00  0.00000000E+00  0.00000000E+00
  0.00000000E+00  0.00000000E+00  0.00000000E+00
  0.00000000E+00  0.00000000E+00  0.00000000E+00
  0.00000000E+00  0.00000000E+00  0.00000000E+00
  0.00000000E+00  0.00000000E+00  0.00000000E+00
  0.00000000E+00  0.00000000E+00  0.00000000E+00
  0.00000000E+00  0.00000000E+00  0.00000000E+00
  0.00000000E+00  0.00000000E+00  0.00000000E+00
  0.00000000E+00  0.00000000E+00  0.00000000E+00
  0.00000000E+00  0.00000000E+00  0.00000000E+00
  0.00000000E+00  0.00000000E+00  0.00000000E+00
  0.00000000E+00  0.00000000E+00  0.00000000E+00
  0.00000000E+00  0.00000000E+00  0.00000000E+00
  0.00000000E+00  0.00000000E+00  0.00000000E+00
  0.00000000E+00  0.00000000E+00  0.00000000E+00
  0.00000000E+00  0.00000000E+00  0.00000000E+00
  0.00000000E+00  0.00000000E+00  0.00000000E+00
  0.00000000E+00  0.00000000E+00  0.00000000E+00
  0.00000000E+00  0.00000000E+00  0.00000000E+00
  0.00000000E+00  0.00000000E+00  0.00000000E+00
  0.00000000E+00  0.00000000E+00  0.00000000E+00
  0.00000000E+00  0.00000000E+00  0.00000000E+00
  0.00000000E+00  0.00000000E+00  0.00000000E+00
  0.00000000E+00  0.00000000E+00  0.00000000E+00
  0.00000000E+00  0.00000000E+00  0.00000000E+00
  0.00000000E+00  0.00000000E+00  0.00000000E+00
  0.00000000E+00  0.00000000E+00  0.00000000E+00
  0.00000000E+00  0.00000000E+00  0.00000000E+00
  0.00000000E+00  0.00000000E+00  0.00000000E+00
  0.00000000E+00  0.00000000E+00  0.00000000E+00
  0.00000000E+00  0.00000000E+00  0.00000000E+00
  0.00000000E+00  0.00000000E+00  0.00000000E+00
  0.00000000E+00  0.00000000E+00  0.00000000E+00
  0.00000000E+00  0.00000000E+00  0.00000000E+00
  0.00000000E+00  0.00000000E+00  0.00000000E+00
  0.00000000E+00  0.00000000E+00  0.00000000E+00
  0.00000000E+00  0.00000000E+00  0.00000000E+00
  0.00000000E+00  0.00000000E+00  0.00000000E+00
  0.00000000E+00  0.00000000E+00  0.00000000E+00
  0.00000000E+00  0.00000000E+00  0.00000000E+00
  0.00000000E+00  0.00000000E+00  0.00000000E+00
  0.00000000E+00  0.00000000E+00  0.00000000E+00
  0.00000000E+00  0.00000000E+00  0.00000000E+00
  0.00000000E+00  0.00000000E+00  0.00000000E+00
  0.00000000E+00  0.00000000E+00  0.00000000E+00
  0.00000000E+00  0.00000000E+00  0.00000000E+00
  0.00000000E+00  0.00000000E+00  0.00000000E+00
  0.00000000E+00  0.00000000E+00  0.00000000E+00
  0.00000000E+00  0.00000000E+00  0.00000000E+00
  0.00000000E+00  0.00000000E+00  0.00000000E+00
  0.00000000E+00  0.00000000E+00  0.00000000E+00
  0.00000000E+00  0.00000000E+00  0.00000000E+00
  0.00000000E+00  0.00000000E+00  0.00000000E+00
  0.00000000E+00  0.00000000E+00  0.00000000E+00
  0.00000000E+00  0.00000000E+00  0.00000000E+00
  0.00000000E+00  0.00000000E+00  0.00000000E+00
  0.00000000E+00  0.00000000E+00  0.00000000E+00
  0.00000000E+00  0.00000000E+00  0.00000000E+00
  0.00000000E+00  0.00000000E+00  0.00000000E+00
  0.00000000E+00  0.00000000E+00  0.00000000E+00
  0.00000000E+00  0.00000000E+00  0.00000000E+00
  0.00000000E+00  0.00000000E+00  0.00000000E+00
  0.00000000E+00  0.00000000E+00  0.00000000E+00
  0.00000000E+00  0.00000000E+00  0.00000000E+00
  0.00000000E+00  0.00000000E+00  0.00000000E+00
  0.00000000E+00  0.00000000E+00  0.00000000E+00
  0.00000000E+00  0.00000000E+00  0.00000000E+00
  0.00000000E+00  0.00000000E+00  0.00000000E+00
  0.00000000E+00  0.00000000E+00  0.00000000E+00
  0.00000000E+00  0.00000000E+00  0.00000000E+00
  0.00000000E+00  0.00000000E+00  0.00000000E+00
  0.00000000E+00  0.00000000E+00  0.00000000E+00
  0.00000000E+00  0.00000000E+00  0.00000000E+00
  0.00000000E+00  0.00000000E+00  0.00000000E+00
  0.00000000E+00  0.00000000E+00  0.00000000E+00
  0.00000000E+00  0.00000000E+00  0.00000000E+00
  0.00000000E+00  0.00000000E+00  0.00000000E+00
  0.00000000E+00  0.00000000E+00  0.00000000E+00
  0.00000000E+00  0.00000000E+00  0.00000000E+00
  0.00000000E+00  0.00000000E+00  0.00000000E+00
  0.00000000E+00  0.00000000E+00  0.00000000E+00
  0.00000000E+00  0.00000000E+00  0.00000000E+00
  0.00000000E+00  0.00000000E+00  0.00000000E+00
  0.00000000E+00  0.00000000E+00  0.00000000E+00
  0.00000000E+00  0.00000000E+00  0.00000000E+00
  0.00000000E+00  0.00000000E+00  0.00000000E+00
  0.00000000E+00  0.00000000E+00  0.00000000E+00
  0.00000000E+00  0.00000000E+00  0.00000000E+00