Amorphous Sb                            
   1.00000000000000     
    22.2283632703415037    0.0000000000000000    0.0000000000000000
     0.0000000000000000   22.2283632703415037    0.0000000000000000
     0.0000000000000000    0.0000000000000000   22.2283632703415037
   Sb   Se   Te
   120   126    54
Direct
  0.0445533509811554  0.1693934992729681  0.6432854474824794
  0.2493194274276618  0.3219257638012277  0.0516863393198000
  0.8884185690712357  0.1363612671094248  0.6932770576832757
  0.8558912382350483  0.2544872113060338  0.5738377319305491
  0.3782760009640492  0.6602032773022004  0.0547855533609458
  0.3526041782802217  0.8911385366516247  0.7556136819817186
  0.5302390428227500  0.0822037783894219  0.9091500620656461
  0.1543372448601363  0.9080725486238296  0.1555188559522052
  0.5427843426279663  0.4636713233528020  0.8318764728155659
  0.7323034414278067  0.1956716839107860  0.0716995918927624
  0.7489917181660626  0.4738370828141200  0.7884641445519043
  0.3344484206767346  0.6192025072252422  0.4484959951501997
  0.3865807754504104  0.8706467793968442  0.0564437600366157
  0.6738692711735933  0.8071261504138618  0.3170866871043553
  0.3418612261698706  0.0883234633723214  0.2313887334371166
  0.4046389092170358  0.4738144224780542  0.5072900485128632
  0.4134742751751992  0.9424769269597564  0.1623080071522003
  0.1943349362555546  0.1169469588231602  0.5455141541059151
  0.0187654530176409  0.8223419075048198  0.0697653739448583
  0.9359491385351416  0.7360963287889762  0.6022520361387870
  0.4625512571566243  0.5058845653533980  0.9638592101186316
  0.8710081276235396  0.0318772134680677  0.0433173381729753
  0.8570474922486805  0.7326492429729989  0.1609005440199784
  0.4945735725430794  0.9662460016663240  0.9534442265914397
  0.2363355854791881  0.7821476713962697  0.8040458870668784
  0.5896803831579547  0.3665149947496422  0.5714727244198077
  0.4402058069544286  0.1041584398950585  0.0630548871889122
  0.9439133896168839  0.0966562044046939  0.2413373240882697
  0.0483731748916129  0.6554628780792205  0.4421286227875674
  0.8436757505814506  0.2360067733575368  0.9333782538557347
  0.2028706659775485 -0.0098555477538779  0.0617165227559698
  0.9926613658987790  0.3290896932868155  0.4879538349697705
  0.6787344441671836  0.1870837550386162  0.5171956707491796
  0.2105098013468079  0.6678232989024248  0.4583733331504258
  0.7233273313303445  0.0618810354840384  0.7055695296969127
  0.9300472801645042  0.9293116119143020  0.9529191510393984
  0.5319965231372435  0.7451463041294373  0.6740438448076246
  0.6517234625878424  0.7996209935845670  0.9443922879826931
  0.6617253775862932  0.6573959354208856  0.1301564913695226
  0.6490431679604265  0.0129364861783755  0.8000670515934745
  0.7586546726425457  0.4629127045355747  0.5058136687904694
  0.4265271751091587  0.4768814142379081  0.2501502470364189
  0.8850415991814620  0.8479339626894157  0.7873753765071221
  0.7585451217857510  0.5172780281687036  0.9104915525836492
  0.9277428961373519  0.1519813517352983  0.0524953398248446
  0.6274272472003890  0.2649138830665649  0.2005827373438906
  0.2138426302228917  0.6788579337805788  0.9825554960330242
  0.4034213605091864  0.0063322776958514  0.7943289715752558
  0.1130036999329704  0.9599712311855371  0.4274858959251973
  0.8271218424177792  0.8076265846066141  0.4449080022108435
  0.2009876729579074  0.4493111090450765  0.9638619822971557
  0.6977961727736361  0.6251425304838897  0.4033661659147732
  0.8758862400252141  0.2497166394892573  0.2853801689789210
  0.0121757222842026  0.9023149995245064  0.3516676425003953
  0.0878260800579695  0.6728433396275459  0.1536818422728917
  0.7100357142827400  0.9308823400297155  0.4218954818448073
  0.0101164157173985  0.9846222186113620  0.5919665727736596
  0.7411363432240740  0.0543191547382788  0.0293183595355831
  0.2680248295288688  0.3338789022252945  0.6893429302410309
  0.4516996151925179  0.7272847780928215  0.5426402690004982
  0.7762072354439136  0.0952630542041889  0.2480526387833069
  0.3565806485230701  0.6068913558395078  0.3210705795635434
  0.5817386357250021  0.5625501788257402  0.2670207198194842
  0.1603661256210951  0.6151399805030866  0.3475230478946893
  0.9736951202726448  0.8310617119834979  0.1968853507951116
  0.5243456577344739  0.3477468596349277  0.1829767062887829
  0.3004428756019259  0.0137454017266460  0.3341603153527189
  0.0693482163086223  0.8987122800300335  0.8446132761043820
  0.2434112891945993  0.1301766672935471  0.0010727582996665
  0.5506556290562763  0.1567720408752154  0.7520628221568761
  0.7763347630307124  0.9316172362050283  0.3059060500638225
  0.4170893538332641  0.3579398463047039  0.6139949930658786
  0.3684170742202747  0.6499537017727104  0.6962870186635677
  0.1835018854303943  0.5507292061688759  0.1021194626702367
  0.2119422028733058  0.7356233230566356  0.6258723333168695
  0.8502434343660719  0.5985795240675059  0.0148427440211289
  0.2936864982998791  0.3459139246980082  0.8573797641871153
  0.4145177089111130  0.2820979076532484  0.9821177557142513
  0.0561378894264347  0.5719949567923381  0.0751609957254070
  0.6779289278942416  0.4995346463121963  0.0633616206209206
  0.7771217296388145  0.4378642823524239  0.3038139299428946
  0.0280738779014331  0.4007694424557365  0.9253198923392665
  0.7122385490624836  0.2117983379802508  0.9406150519817670
  0.0625362275618127  0.7860952643887369  0.4598722252314552
  0.7384356612990718  0.9343503590872124  0.8790988517582589
  0.4724005177069119  0.3011456087392056  0.8128689529514130
  0.4825605930659536  0.7146924969628639  0.2400982089402781
  0.6894791558217004  0.7328429305580765  0.5799399214473138
  0.1327900690564567  0.3200506203755591  0.3566354187535306
  0.9491042875607146  0.4834168006193895  0.8492766761418219
  0.1035245307705794  0.9279817219578370  0.6672637735420084
  0.3758343809298119  0.8818095329074657  0.5716209137820248
  0.9383164861714315  0.4829162026300519  0.5783171737002929
  0.2856420496491462  0.4198937464611078  0.3037917161829393
  0.7395800031550078  0.3594671250566918  0.6599842242217173
  0.1458560940323115  0.0994601835157123  0.8533906524375744
  0.7481778732755566  0.0560025126860879  0.4376810286103133
  0.0435646050237436  0.4900722384880282  0.4171256135077052
  0.5848928472472107  0.3244510361573870  0.0227493828108323
  0.7651094226372662  0.7948353175619696  0.8016521384330102
  0.7300494005416179  0.2157880054826651  0.3925370053713166
  0.1814959196049079  0.3774531961251505  0.4627120388360343
  0.1526459666951266  0.1071339146031272  0.3123626691334765
  0.6957638502277066  0.9297020260133467  0.0528088084615816
  0.8797651587917368  0.9498647003352636  0.7017845757927739
  0.1480238435766286  0.4283232708949612  0.7942135798973402
  0.8038637906174432  0.5951202052013779  0.2618710383959527
  0.5472600678248302  0.6944642303726209  0.0199784338319864
  0.5563486143186118  0.9444829856704832  0.2831376998047712
  0.0727973260776758  0.6035890476212251  0.5855433103372614
  0.0406514606401009  0.7366020712749487  0.3382071771492218
  0.0504594760877117  0.2543153801692341  0.2131024528379069
  0.2632805252423306  0.0454437632712057  0.8469135660268245
  0.8031870117792833  0.7035008417095486  0.7119263305693999
  0.1020472979460449  0.6832002976250460  0.8419151907850899
  0.3045441891025260  0.4826640606451422  0.1668779553566646
  0.1059412897478578  0.0172267138133920  0.9495798548089587
  0.9684869865531801  0.9598734902733671  0.1749989596944030
  0.6763833662321398  0.8650746570931263  0.6956905092671692
  0.1423239913516466  0.1534230828964300  0.0799468649053160
  0.1533780652532295  0.7729604756932309  0.7221592206636450
  0.6232048817251115  0.9223502783393547  0.9557986141010250
  0.7444330356643970  0.7129394616192042  0.1937648587928207
  0.5140580159327381  0.4254120927645156  0.6367651257477548
  0.0157840886809285  0.3648457001829203  0.2298016588089226
  0.3859238804753230  0.2413986098415531  0.8699981145165340
  0.8980055552012043  0.5004254341417214  0.4681956932527405
  0.3035698136448823  0.2165791444575239  0.0586404347421711
  0.2667563169394165  0.1010376058530045  0.7427230027741726
  0.6263256462816982  0.6977483563524288  0.2886998571665822
  0.4416187834674168  0.6262812602484551  0.9606560507807047
  0.9177568355615455  0.7270153094586250  0.7235824863742052
  0.2532954621434697  0.4657068736077502  0.8583461762592201
  0.1597630119702124  0.1684902131384575  0.6482795746919987
  0.4586274280003806  0.0692570238436142  0.2543883979051130
  0.6776380840790269  0.3370913322071221  0.2792601752849465
  0.4944710885559094  0.8718367333626403  0.2129693810245717
  0.5318918220286031  0.1568336354748701  0.0068888550244430
  0.6610864389578756  0.4590072706958148  0.5849412404334245
  0.4949806235887800  0.3605632599554448  0.9423271103635883
  0.9261717356694126  0.8981123085411576  0.6068794709213132
  0.4987228674151690  0.2705063899834421  0.0942944919854212
  0.4563782913884691  0.8595119142016644  0.6915213033730898
  0.9455927572269239  0.7145765233422645  0.4587177221002579
  0.6054118266813054  0.9599411057237446  0.7023822105498734
  0.4595719335866814  0.7428111391660817  0.0867570300461228
  0.4130612680146583  0.4462903243821402  0.1370269455797733
  0.3014058690624311  0.2896731472450585  0.5231446922765133
  0.9365125131293190  0.3634278157406847  0.5839567293012331
  0.0712986828763053  0.4397550588592811  0.5176865271632324
  0.3639482548831380  0.1477717987335385  0.7354467724728365
  0.4911409490372799  0.6023413876114186  0.1980514830154166
  0.5712134809864394  0.4172565192174612  0.0959343154541799
  0.5660109780647382  0.2260990464585103  0.4896769387047272
  0.8825764026933333  0.7062284912751713  0.0503355601290142
  0.5452538578944298  0.4518187241426816  0.2758761716884223
  0.3510571970028414  0.4556091316696333  0.6113358463960789
  0.4651340701878329  0.0885863464374165  0.5313341950852010
  0.2079005358993531  0.3000792556581492  0.7873025914089877
  0.4306830140855961  0.3579726074903608  0.4949841292124042
  0.1234362047793675  0.1777885274003404  0.4686436865161784
  0.6233161117907701  0.8305662377990013  0.5944180993996822
  0.8553759787568124  0.9506199559871257  0.8476072729132728
  0.6945040612847571  0.1103027516932219  0.3431772094035654
  0.5472509156547147  0.7492465203705251  0.9171109846920189
  0.0547447210888317  0.7178927134543553  0.6130021638241904
  0.4024310586930694  0.6278109898440837  0.5861466549448430
  0.6929902169538105  0.8899996076410838  0.2323690160543819
  0.3206931058421561  0.7380852573774965  0.9880588970299430
  0.9915314453915839  0.8348392701315965  0.9077817870851348
  0.8002895995364396  0.6665095966507821  0.3603426674340249
  0.7395703553892446  0.0493349159433828  0.9116525440139447
  0.4567857352406012  0.6972351625803846  0.7546895289544941
  0.2563246671554236  0.8704123545003688  0.1999752106919457
  0.8549406207603396  0.9732563709497499  0.1461173830757508
  0.4301389426510357  0.4969421927132359  0.8516449655647452
  0.5762550514975323  0.8585384713291849  0.3609347753883996
  0.2524820597476410  0.3208457222253126  0.3761376779395337
  0.1928750497327202  0.2829257409363082  0.5369669511593254
  0.9056217397949861  0.6412024675452541  0.2166478381338248
  0.7434380271353886  0.3256759442441108  0.9247403322122499
  0.0730817723301200  0.8548965853586201  0.2577993196478620
  0.4138105226959988  0.7266353365630766  0.4308699209471628
  0.5767913822747180  0.5386845771747358  0.7460167565781340
  0.2148213730391149  0.1847351854882154  0.9022509006432367
  0.1958842736139264  0.0718550677466535  0.1469014580702734
  0.3572549062439707  0.3759187323602858  0.7544519768234130
  0.1512643990850420  0.7216565951508673  0.2983781026899004
  0.0893934552868706  0.2837785541887549  0.1010383293885629
  0.9371588180433132  0.2211586534645420  0.1853581028972054
  0.3422474774710429  0.3758901966920800  0.0003033166300346
  0.7850124098822997  0.4509551267129117  0.0794794876889911
  0.6253739847118760  0.3076645139102977  0.6761623173922856
  0.8890411890463115  0.6268865468628398  0.6000953303518646
  0.7724053934598387  0.9650828390582149  0.6528604983616743
  0.0579130236438291  0.1032336954715629  0.2238935354736302
  0.8342130929575491  0.8310847107370180  0.3283031359625017
  0.5041659341397872  0.9582265208947874  0.8299626265035802
  0.2582406449771372  0.5723558562152221  0.0027938835513783
  0.1424463365562330  0.7940656721010643  0.8793090915353315
  0.9042223041402861  0.1323707044024924  0.9376308568157441
  0.9383765528365980  0.9828656338453295  0.2990548188566225
  0.8090391390621704  0.9167770961563031  0.4833821703722475
  0.0171754564618702  0.9250180777582392  0.4889896810509078
  0.8735456173433220  0.5087819416123015  0.3050867191149427
  0.8528115652184548  0.5194031598901814  0.7612858119581150
  0.7756556577340703  0.2064478120159119  0.2208315252568253
  0.6948728367754987  0.5157987042524845  0.3511328385767660
  0.3942734046929532  0.3734323352826028  0.3007984875595718
  0.6557078689577404  0.0714744670067810  0.5058372476155334
  0.3167712773515399  0.7557891112679981  0.6784520996267498
  0.4154350756685100  0.0604960804388894  0.9379253994153861
  0.7883100959002697  0.7864082016191963  0.6261528646918506
  0.1153553702837551  0.0255197584485516  0.7353735069766464
  0.5834174762293559  0.6416607276277390  0.6329128362380055
  0.6955395662498904  0.0532401787538473  0.1731845478727330
  0.2036193271817585  0.6672149311572604  0.1204635638699828
  0.0215787284042036  0.8755078394843065  0.7395036993885907
  0.7154131300047738  0.6148344436857234  0.0334076541012516
  0.9131652770407400  0.2369624393156482  0.4737339521098392
  0.8020300449852069  0.3661726064696080  0.3888755977256803
  0.0648286415262363  0.3901368064256744  0.1045810776868247
  0.8568565391330352  0.2499862552057340  0.0496393153921668
  0.2542557468729654  0.1050265657982641  0.3915208807270852
  0.0962447623803993  0.4961476956712862  0.9319778817277273
  0.0200954206962993  0.0760067130883572  0.7164767788667002
  0.4725835994517302  0.2355565946199534  0.7112916782740385
  0.1440984762307231  0.0136475447401022  0.5520526254495616
  0.9913733750177515  0.3110373876257173  0.3250679508208135
  0.1444630308247266  0.5849695834058388  0.6800501820564581
  0.7364430486595930  0.5892831806236586  0.5133532550788021
  0.6332212657819344  0.7749763970138226  0.0586167453751975
  0.9411358025093148  0.4059647333100600  0.7516633332745410
  0.6709734628067604  0.5466256534169666  0.1815131027515286
  0.6890973605721135  0.3035850522422062  0.1070375266544412
  0.9069372213235587  0.1505289186229719  0.3412450515822507
  0.2504270182397277  0.5720091890130794  0.2843242123790817
  0.5755644775986395  0.5257122884934983  0.9282821501980514
  0.0147916830889315  0.9389605718198918  0.0530154284753637
  0.8105984130426631  0.1011987731654913  0.7731469199396412
  0.7786618556397594  0.2606477528896092  0.7170425458470182
  0.7795065743226711  0.8800458749279615  0.9929083112145295
  0.1348043243020833  0.8125899656340229  0.0854671544665396
  0.0567321403356447  0.0974127246890149  0.0228414889256674
  0.8879087331167272  0.2524922071987633  0.7231931258203296
  0.1806675331462126  0.5834249801565362  0.5358294361448762
  0.0888272262329221  0.5475358642804303  0.7758841405224334
  0.2200105446373207  0.8498874424023933  0.5606668556556508
  0.6255199016684870  0.2819117896799883  0.3683989543747144
  0.0415334888092373  0.3553679421927728  0.7245972549747602
  0.2230282788801960  0.9330990876234097  0.7993579570438715
  0.1808350199803889  0.8322015142226794  0.4361866377682893
  0.4917033103264484  0.1578394893170303  0.1809561390846051
  0.0813391876753776  0.5565407612729942  0.2046742523422889
  0.5106592741437804  0.1390670735147150  0.4388031083564172
  0.1821055288553433  0.9836646381841478  0.2914084341174702
  0.4286610893580985  0.0580880128626974  0.6811252952848290
  0.8518742824045044  0.5335733650564399  0.1281082824285626
  0.6495463791989833  0.1900081759768591  0.6725269708368568
  0.2894699326297330  0.8053969051629314  0.1057080322444455
  0.1757698319094319  0.3237586156363779  0.9394268021367760
  0.3318486597882693  0.9455245437956991  0.4682082210215677
  0.6748233789292847  0.5792077063686133  0.7924891158909417
  0.2266995493032575  0.6525077901539806  0.8481259219623548
  0.3349591386954880  0.1875238384175655  0.3077435458608197
  0.8237043541686240  0.6210982327978506  0.8489516524580729
  0.0341296464795071  0.2319902076002240  0.7545779234137300
  0.3267131284943090  0.9860117787917714  0.0357891059101963
  0.1317961543261324  0.4465321983749724  0.3327765054581448
  0.7042693572264702  0.7678216231512649  0.4537996498236571
  0.2989690087924654  0.4904056014488894  0.4389864633541664
  0.8486176944532722  0.6420859693898698  0.4878852011218215
  0.5643438894808340  0.6646479746722799  0.5204164630558107
  0.9478726936993737  0.6229845745171699  0.9153172108886025
  0.4682381423739919  0.9884973354072164  0.3675328836059891
  0.3580249013264066  0.7206595830515925  0.2651786093529968
  0.5077122977442154  0.0001604245259658  0.0950550572454465
  0.8148419023260857  0.4842373943983552  0.6203578346009088
  0.2925753553863762  0.9351341962292035  0.6534731421440050
  0.6619985173066140  0.4107812513848681  0.9416622376678891
  0.4199771682031423  0.8781400679833381  0.4094905384329139
  0.7497646337667795  0.3235368693769932  0.5344619207508700
  0.3500847704480898  0.1087468539719629  0.5315722596876818
  0.3343881067079277  0.2107261554127273  0.6043472283007461
  0.2001318832846850  0.4417354197772237  0.6793468905891364
  0.5766171736499490  0.2345814143723903  0.8516309047294780
  0.4066467431025138  0.2473572120680995  0.2179070266528538
  0.7892783186268201  0.7310641335767616  0.9100450671855862
  0.8628601871194578  0.4456549974049057  0.9377419845144122
  0.0659002878309274  0.0962752062130837  0.4065574399847004
  0.0646011158999616  0.6648356324671290  0.9640859949201938
  0.9382745525601791  0.4099526064554642  0.3981310680767899
  0.8191542929340921  0.1296463525626646  0.5851565412145541
  0.2382872290920579  0.3769640562184835  0.1903331701350066
  0.5269569096295380  0.6949838372124554  0.3601139483057906
  0.6199628860301136  0.7665211298806563  0.7651522229949527
  0.4823842542632255  0.9426434909008022  0.6150384773478970
  0.6239497370211331  0.1212087807458849  0.1004206725492411
  0.9702900346314856  0.4131232291977526  0.0380985854093690
 -0.0054252439015345  0.0146941657007829  0.8814683857818745
 
  0.00000000E+00  0.00000000E+00  0.00000000E+00
  0.00000000E+00  0.00000000E+00  0.00000000E+00
  0.00000000E+00  0.00000000E+00  0.00000000E+00
  0.00000000E+00  0.00000000E+00  0.00000000E+00
  0.00000000E+00  0.00000000E+00  0.00000000E+00
  0.00000000E+00  0.00000000E+00  0.00000000E+00
  0.00000000E+00  0.00000000E+00  0.00000000E+00
  0.00000000E+00  0.00000000E+00  0.00000000E+00
  0.00000000E+00  0.00000000E+00  0.00000000E+00
  0.00000000E+00  0.00000000E+00  0.00000000E+00
  0.00000000E+00  0.00000000E+00  0.00000000E+00
  0.00000000E+00  0.00000000E+00  0.00000000E+00
  0.00000000E+00  0.00000000E+00  0.00000000E+00
  0.00000000E+00  0.00000000E+00  0.00000000E+00
  0.00000000E+00  0.00000000E+00  0.00000000E+00
  0.00000000E+00  0.00000000E+00  0.00000000E+00
  0.00000000E+00  0.00000000E+00  0.00000000E+00
  0.00000000E+00  0.00000000E+00  0.00000000E+00
  0.00000000E+00  0.00000000E+00  0.00000000E+00
  0.00000000E+00  0.00000000E+00  0.00000000E+00
  0.00000000E+00  0.00000000E+00  0.00000000E+00
  0.00000000E+00  0.00000000E+00  0.00000000E+00
  0.00000000E+00  0.00000000E+00  0.00000000E+00
  0.00000000E+00  0.00000000E+00  0.00000000E+00
  0.00000000E+00  0.00000000E+00  0.00000000E+00
  0.00000000E+00  0.00000000E+00  0.00000000E+00
  0.00000000E+00  0.00000000E+00  0.00000000E+00
  0.00000000E+00  0.00000000E+00  0.00000000E+00
  0.00000000E+00  0.00000000E+00  0.00000000E+00
  0.00000000E+00  0.00000000E+00  0.00000000E+00
  0.00000000E+00  0.00000000E+00  0.00000000E+00
  0.00000000E+00  0.00000000E+00  0.00000000E+00
  0.00000000E+00  0.00000000E+00  0.00000000E+00
  0.00000000E+00  0.00000000E+00  0.00000000E+00
  0.00000000E+00  0.00000000E+00  0.00000000E+00
  0.00000000E+00  0.00000000E+00  0.00000000E+00
  0.00000000E+00  0.00000000E+00  0.00000000E+00
  0.00000000E+00  0.00000000E+00  0.00000000E+00
  0.00000000E+00  0.00000000E+00  0.00000000E+00
  0.00000000E+00  0.00000000E+00  0.00000000E+00
  0.00000000E+00  0.00000000E+00  0.00000000E+00
  0.00000000E+00  0.00000000E+00  0.00000000E+00
  0.00000000E+00  0.00000000E+00  0.00000000E+00
  0.00000000E+00  0.00000000E+00  0.00000000E+00
  0.00000000E+00  0.00000000E+00  0.00000000E+00
  0.00000000E+00  0.00000000E+00  0.00000000E+00
  0.00000000E+00  0.00000000E+00  0.00000000E+00
  0.00000000E+00  0.00000000E+00  0.00000000E+00
  0.00000000E+00  0.00000000E+00  0.00000000E+00
  0.00000000E+00  0.00000000E+00  0.00000000E+00
  0.00000000E+00  0.00000000E+00  0.00000000E+00
  0.00000000E+00  0.00000000E+00  0.00000000E+00
  0.00000000E+00  0.00000000E+00  0.00000000E+00
  0.00000000E+00  0.00000000E+00  0.00000000E+00
  0.00000000E+00  0.00000000E+00  0.00000000E+00
  0.00000000E+00  0.00000000E+00  0.00000000E+00
  0.00000000E+00  0.00000000E+00  0.00000000E+00
  0.00000000E+00  0.00000000E+00  0.00000000E+00
  0.00000000E+00  0.00000000E+00  0.00000000E+00
  0.00000000E+00  0.00000000E+00  0.00000000E+00
  0.00000000E+00  0.00000000E+00  0.00000000E+00
  0.00000000E+00  0.00000000E+00  0.00000000E+00
  0.00000000E+00  0.00000000E+00  0.00000000E+00
  0.00000000E+00  0.00000000E+00  0.00000000E+00
  0.00000000E+00  0.00000000E+00  0.00000000E+00
  0.00000000E+00  0.00000000E+00  0.00000000E+00
  0.00000000E+00  0.00000000E+00  0.00000000E+00
  0.00000000E+00  0.00000000E+00  0.00000000E+00
  0.00000000E+00  0.00000000E+00  0.00000000E+00
  0.00000000E+00  0.00000000E+00  0.00000000E+00
  0.00000000E+00  0.00000000E+00  0.00000000E+00
  0.00000000E+00  0.00000000E+00  0.00000000E+00
  0.00000000E+00  0.00000000E+00  0.00000000E+00
  0.00000000E+00  0.00000000E+00  0.00000000E+00
  0.00000000E+00  0.00000000E+00  0.00000000E+00
  0.00000000E+00  0.00000000E+00  0.00000000E+00
  0.00000000E+00  0.00000000E+00  0.00000000E+00
  0.00000000E+00  0.00000000E+00  0.00000000E+00
  0.00000000E+00  0.00000000E+00  0.00000000E+00
  0.00000000E+00  0.00000000E+00  0.00000000E+00
  0.00000000E+00  0.00000000E+00  0.00000000E+00
  0.00000000E+00  0.00000000E+00  0.00000000E+00
  0.00000000E+00  0.00000000E+00  0.00000000E+00
  0.00000000E+00  0.00000000E+00  0.00000000E+00
  0.00000000E+00  0.00000000E+00  0.00000000E+00
  0.00000000E+00  0.00000000E+00  0.00000000E+00
  0.00000000E+00  0.00000000E+00  0.00000000E+00
  0.00000000E+00  0.00000000E+00  0.00000000E+00
  0.00000000E+00  0.00000000E+00  0.00000000E+00
  0.00000000E+00  0.00000000E+00  0.00000000E+00
  0.00000000E+00  0.00000000E+00  0.00000000E+00
  0.00000000E+00  0.00000000E+00  0.00000000E+00
  0.00000000E+00  0.00000000E+00  0.00000000E+00
  0.00000000E+00  0.00000000E+00  0.00000000E+00
  0.00000000E+00  0.00000000E+00  0.00000000E+00
  0.00000000E+00  0.00000000E+00  0.00000000E+00
  0.00000000E+00  0.00000000E+00  0.00000000E+00
  0.00000000E+00  0.00000000E+00  0.00000000E+00
  0.00000000E+00  0.00000000E+00  0.00000000E+00
  0.00000000E+00  0.00000000E+00  0.00000000E+00
  0.00000000E+00  0.00000000E+00  0.00000000E+00
  0.00000000E+00  0.00000000E+00  0.00000000E+00
  0.00000000E+00  0.00000000E+00  0.00000000E+00
  0.00000000E+00  0.00000000E+00  0.00000000E+00
  0.00000000E+00  0.00000000E+00  0.00000000E+00
  0.00000000E+00  0.00000000E+00  0.00000000E+00
  0.00000000E+00  0.00000000E+00  0.00000000E+00
  0.00000000E+00  0.00000000E+00  0.00000000E+00
  0.00000000E+00  0.00000000E+00  0.00000000E+00
  0.00000000E+00  0.00000000E+00  0.00000000E+00
  0.00000000E+00  0.00000000E+00  0.00000000E+00
  0.00000000E+00  0.00000000E+00  0.00000000E+00
  0.00000000E+00  0.00000000E+00  0.00000000E+00
  0.00000000E+00  0.00000000E+00  0.00000000E+00
  0.00000000E+00  0.00000000E+00  0.00000000E+00
  0.00000000E+00  0.00000000E+00  0.00000000E+00
  0.00000000E+00  0.00000000E+00  0.00000000E+00
  0.00000000E+00  0.00000000E+00  0.00000000E+00
  0.00000000E+00  0.00000000E+00  0.00000000E+00
  0.00000000E+00  0.00000000E+00  0.00000000E+00
  0.00000000E+00  0.00000000E+00  0.00000000E+00
  0.00000000E+00  0.00000000E+00  0.00000000E+00
  0.00000000E+00  0.00000000E+00  0.00000000E+00
  0.00000000E+00  0.00000000E+00  0.00000000E+00
  0.00000000E+00  0.00000000E+00  0.00000000E+00
  0.00000000E+00  0.00000000E+00  0.00000000E+00
  0.00000000E+00  0.00000000E+00  0.00000000E+00
  0.00000000E+00  0.00000000E+00  0.00000000E+00
  0.00000000E+00  0.00000000E+00  0.00000000E+00
  0.00000000E+00  0.00000000E+00  0.00000000E+00
  0.00000000E+00  0.00000000E+00  0.00000000E+00
  0.00000000E+00  0.00000000E+00  0.00000000E+00
  0.00000000E+00  0.00000000E+00  0.00000000E+00
  0.00000000E+00  0.00000000E+00  0.00000000E+00
  0.00000000E+00  0.00000000E+00  0.00000000E+00
  0.00000000E+00  0.00000000E+00  0.00000000E+00
  0.00000000E+00  0.00000000E+00  0.00000000E+00
  0.00000000E+00  0.00000000E+00  0.00000000E+00
  0.00000000E+00  0.00000000E+00  0.00000000E+00
  0.00000000E+00  0.00000000E+00  0.00000000E+00
  0.00000000E+00  0.00000000E+00  0.00000000E+00
  0.00000000E+00  0.00000000E+00  0.00000000E+00
  0.00000000E+00  0.00000000E+00  0.00000000E+00
  0.00000000E+00  0.00000000E+00  0.00000000E+00
  0.00000000E+00  0.00000000E+00  0.00000000E+00
  0.00000000E+00  0.00000000E+00  0.00000000E+00
  0.00000000E+00  0.00000000E+00  0.00000000E+00
  0.00000000E+00  0.00000000E+00  0.00000000E+00
  0.00000000E+00  0.00000000E+00  0.00000000E+00
  0.00000000E+00  0.00000000E+00  0.00000000E+00
  0.00000000E+00  0.00000000E+00  0.00000000E+00
  0.00000000E+00  0.00000000E+00  0.00000000E+00
  0.00000000E+00  0.00000000E+00  0.00000000E+00
  0.00000000E+00  0.00000000E+00  0.00000000E+00
  0.00000000E+00  0.00000000E+00  0.00000000E+00
  0.00000000E+00  0.00000000E+00  0.00000000E+00
  0.00000000E+00  0.00000000E+00  0.00000000E+00
  0.00000000E+00  0.00000000E+00  0.00000000E+00
  0.00000000E+00  0.00000000E+00  0.00000000E+00
  0.00000000E+00  0.00000000E+00  0.00000000E+00
  0.00000000E+00  0.00000000E+00  0.00000000E+00
  0.00000000E+00  0.00000000E+00  0.00000000E+00
  0.00000000E+00  0.00000000E+00  0.00000000E+00
  0.00000000E+00  0.00000000E+00  0.00000000E+00
  0.00000000E+00  0.00000000E+00  0.00000000E+00
  0.00000000E+00  0.00000000E+00  0.00000000E+00
  0.00000000E+00  0.00000000E+00  0.00000000E+00
  0.00000000E+00  0.00000000E+00  0.00000000E+00
  0.00000000E+00  0.00000000E+00  0.00000000E+00
  0.00000000E+00  0.00000000E+00  0.00000000E+00
  0.00000000E+00  0.00000000E+00  0.00000000E+00
  0.00000000E+00  0.00000000E+00  0.00000000E+00
  0.00000000E+00  0.00000000E+00  0.00000000E+00
  0.00000000E+00  0.00000000E+00  0.00000000E+00
  0.00000000E+00  0.00000000E+00  0.00000000E+00
  0.00000000E+00  0.00000000E+00  0.00000000E+00
  0.00000000E+00  0.00000000E+00  0.00000000E+00
  0.00000000E+00  0.00000000E+00  0.00000000E+00
  0.00000000E+00  0.00000000E+00  0.00000000E+00
  0.00000000E+00  0.00000000E+00  0.00000000E+00
  0.00000000E+00  0.00000000E+00  0.00000000E+00
  0.00000000E+00  0.00000000E+00  0.00000000E+00
  0.00000000E+00  0.00000000E+00  0.00000000E+00
  0.00000000E+00  0.00000000E+00  0.00000000E+00
  0.00000000E+00  0.00000000E+00  0.00000000E+00
  0.00000000E+00  0.00000000E+00  0.00000000E+00
  0.00000000E+00  0.00000000E+00  0.00000000E+00
  0.00000000E+00  0.00000000E+00  0.00000000E+00
  0.00000000E+00  0.00000000E+00  0.00000000E+00
  0.00000000E+00  0.00000000E+00  0.00000000E+00
  0.00000000E+00  0.00000000E+00  0.00000000E+00
  0.00000000E+00  0.00000000E+00  0.00000000E+00
  0.00000000E+00  0.00000000E+00  0.00000000E+00
  0.00000000E+00  0.00000000E+00  0.00000000E+00
  0.00000000E+00  0.00000000E+00  0.00000000E+00
  0.00000000E+00  0.00000000E+00  0.00000000E+00
  0.00000000E+00  0.00000000E+00  0.00000000E+00
  0.00000000E+00  0.00000000E+00  0.00000000E+00
  0.00000000E+00  0.00000000E+00  0.00000000E+00
  0.00000000E+00  0.00000000E+00  0.00000000E+00
  0.00000000E+00  0.00000000E+00  0.00000000E+00
  0.00000000E+00  0.00000000E+00  0.00000000E+00
  0.00000000E+00  0.00000000E+00  0.00000000E+00
  0.00000000E+00  0.00000000E+00  0.00000000E+00
  0.00000000E+00  0.00000000E+00  0.00000000E+00
  0.00000000E+00  0.00000000E+00  0.00000000E+00
  0.00000000E+00  0.00000000E+00  0.00000000E+00
  0.00000000E+00  0.00000000E+00  0.00000000E+00
  0.00000000E+00  0.00000000E+00  0.00000000E+00
  0.00000000E+00  0.00000000E+00  0.00000000E+00
  0.00000000E+00  0.00000000E+00  0.00000000E+00
  0.00000000E+00  0.00000000E+00  0.00000000E+00
  0.00000000E+00  0.00000000E+00  0.00000000E+00
  0.00000000E+00  0.00000000E+00  0.00000000E+00
  0.00000000E+00  0.00000000E+00  0.00000000E+00
  0.00000000E+00  0.00000000E+00  0.00000000E+00
  0.00000000E+00  0.00000000E+00  0.00000000E+00
  0.00000000E+00  0.00000000E+00  0.00000000E+00
  0.00000000E+00  0.00000000E+00  0.00000000E+00
  0.00000000E+00  0.00000000E+00  0.00000000E+00
  0.00000000E+00  0.00000000E+00  0.00000000E+00
  0.00000000E+00  0.00000000E+00  0.00000000E+00
  0.00000000E+00  0.00000000E+00  0.00000000E+00
  0.00000000E+00  0.00000000E+00  0.00000000E+00
  0.00000000E+00  0.00000000E+00  0.00000000E+00
  0.00000000E+00  0.00000000E+00  0.00000000E+00
  0.00000000E+00  0.00000000E+00  0.00000000E+00
  0.00000000E+00  0.00000000E+00  0.00000000E+00
  0.00000000E+00  0.00000000E+00  0.00000000E+00
  0.00000000E+00  0.00000000E+00  0.00000000E+00
  0.00000000E+00  0.00000000E+00  0.00000000E+00
  0.00000000E+00  0.00000000E+00  0.00000000E+00