Ge Se                                   
   1.00000000000000     
    20.0000000000000000    0.0000000000000000    0.0000000000000000
     0.0000000000000000   20.0000000000000000    0.0000000000000000
     0.0000000000000000    0.0000000000000000   20.0000000000000000
   Ge   Se
   153   153
Direct
  0.5581500815327258  0.8024540268238080  0.0845912134970979
 -0.0254763255400473  0.9444997680589213  0.1061834583289963
  0.3860650975982932  0.3486110322932326  0.1881544784665835
  0.9616545709253080  0.0820642580360395  0.4891772281880856
  0.7320257306833367  0.4009270973322529  0.1291748821519683
  0.8801639176495317  0.8750617445278236  0.7605513250905973
  0.3913153930892633  0.6544586139875398  0.6092551676755538
  0.8201253051245149  0.6924357446667712  0.4453755376582746
  0.7112109463240956  0.1336597973765299  0.9215858413665575
  0.2027240266051023  0.2867172241543293  0.4784800676767038
  0.5292804328888845  0.7102447015353364  0.7043569916933906
  0.5939774459326503  0.6186449190654698  0.1094784657104917
  0.2427032642501816  0.5848824372046805  0.6819692484352131
  0.8828842773170146  0.8678536475196820  0.0034814342788762
  0.8354696214269527  0.0360676330220849 -0.0301424987928344
  0.9527723399159602  0.2173080747817590  0.3961845901636203
  0.1667680047235351  0.6860003381447011  0.5791348455932063
  0.8895245770584573  0.3007627040795646  0.2007257408601977
  0.9764940055661683  0.6772476281833549  0.7120229148576458
  0.3811454722591108  0.1132665878337963  0.5763694773199520
  0.8640386538070967  0.8829062296833857  0.1937037500992856
  0.5700788745865318  0.5844453175214586  0.5495191273999825
  0.2279900660545733  0.5800497229451207  0.2358955452383456
  0.3912134601335044  0.8055856985571291  0.7452271553801825
  0.7206963266877285  0.5920519681318207  0.7702772088202799
  0.4704435047881592  0.3016432512716718  0.6134992574986073
  0.6579071280297395  0.4077793365508326  0.8035286656601913
  0.5210135327845022  0.2665199241710566  0.8619482769658193
  0.3426002363739242  0.0928484489430006  0.8660047240646281
  0.2514098887675087 -0.0078457003641694  0.6455036642143053
  0.8216334430200956  0.1827171715446752  0.3633826078629444
  0.8493856985993279  0.3463397779584506  0.9031443887664606
  0.8914827076365117  0.1405782615587151  0.6283060406537466
  0.4202312502910698  0.5509142959628983  0.8910337890482839
  0.3473249346415967  0.2390368007418988  0.4432979825944638
  0.7850326462286044  0.1725141336628035  0.0950959135454142
  0.7694962516760342  0.7181031200135023  0.1962204119180006
  0.6294894222742291  0.6126208622096488  0.3141880823913353
  0.1737470216850366  0.7811577379510292  0.6823406721320406
  0.2025421074784382  0.1125292736808921  0.4805122409841751
  0.2180913166757882  0.4177258310486537  0.3107065089387734
  0.2482223396062888  0.0613935663674591  0.3389150295073516
  0.5331150856493885  0.7232060569492922  0.5084678672633629
  0.5495399109137115  0.3862041783775598  0.4667176632456443
  0.8965257526312866  0.7302190566575143  0.8636235357437383
  0.2002071413178257  0.1576925934345577  0.6017619814164493
  0.4849235620791286  0.9316451455866535  0.6089191510472852
  0.5951254821496608  0.8148954743261689  0.3802366214701703
 -0.0140844928838700  0.1352624684199448  0.0087442695677122
  0.5612957467535379  0.0328468477229191  0.4912499966890395
  0.7856112972191819  0.5491129657374682  0.8800271783442066
  0.9589691377800548  0.6910408756341574  0.2542341747014220
  0.8014541847276859  0.0540177373227162  0.2230276068572314
  0.0903203370280209  0.7246550296490500  0.8244688087321235
  0.1286005323513197  0.1743388554815375  0.1346567700710710
  0.9737824316123486  0.6887495460526029  0.1035283469505964
  0.1172756873074505  0.1625994875742538  0.8902914360630270
  0.3179839761735935  0.1731243074646001  0.6754195836475894
  0.9023812994780200  0.4453179889943803  0.7620443971833799
  0.1544583125635230  0.0268771826268677  0.8238381251736255
  0.1744894665006047  0.7878547778370447  0.4769165231660195
  0.6781394738639170  0.0718330850237072  0.6809783366386569
  0.3154856425067448  0.5895713299377050  0.3268280808914283
  0.8173175739708127  0.7766249778273954  0.6198427037236705
  0.4172476195667112  0.5013970137425056  0.4861534968161669
  0.2206885265640728  0.2220504975885262  0.3035321584230993
  0.6391894429196894  0.5918576378480523  0.9076546323461033
  0.1863503287867865  0.3642803763759781  0.0659081361021778
  0.8513644874649599  0.1035116914839636  0.7994839475880569
  0.0293088444146168  0.3883816600317600  0.8120626662080400
  0.4756714538701129  0.8037128198551268  0.9881289992063593
  0.4589055054733218  0.6777114882699382 -0.0031926062822471
  0.1782502292651744  0.4698988859755596  0.1930437974570199
  0.5965652991586174  0.9725458583700638  0.9491816479707099
  0.4028344542757731  0.0394901048055831  0.2216143661084274
  0.0366541929727996  0.3229084422878468  0.9369535658859484
  0.7665272522639038  0.3831083953878665  0.4271164375861783
  0.9539921536987185  0.5476174853973789  0.2562166610140955
  0.6676119518426689  0.3018725284399634  0.6453212447866968
  0.8101974049923809  0.9689934090491915  0.6574334793859534
  0.1989768220687155  0.8229421089105620  0.8121006757155814
  0.8039510024073259  0.9720059192889908  0.3693210771699182
  0.3954191960260082  0.8055032838567227  0.1537890583977871
  0.7219664282996380  0.6477105426528789  0.6287148122835760
  0.2092727998762987  0.9715827704480867  0.1945324098151245
  0.6955932370549196  0.3639880223597800  0.9440420079400424
  0.9179075430454067  0.3682176116960831  0.0331239922121193
  0.5754798212501017  0.9443652496314429  0.7547174782972900
  0.6556488901397143  0.7334776711359836  0.7017066603645308
  0.1856326419639524  0.7306924361557018  0.3067525084174656
  0.1253980780548573  0.8207388806210598  0.2033899711617669
  0.3318182120829477  0.8293876086652938  0.5596705981552800
  0.3751966597103208  0.5685580465702491  0.7713791775755897
  0.9930625458190715  0.9705930510804590  0.4186275463000315
  0.2270314363258371  0.7917560701182710 -0.0216865803293152
  0.3759277411079182  0.2858129281575806  0.9740411023524094
  0.2230418965419290  0.4444756700259188  0.6478514479637323
  0.7339942647638360  0.8152646251706631  0.5224465308429151
  0.2101414393134210  0.6428723406532009  0.8340601023670556
  0.8114843120154418  0.5087556258261190  0.5544668158557995
  0.3900078459784626  0.2189182367493284  0.1587973597503151
  0.0306038765471759  0.4226044760398250  0.4022167963421179
  0.0856386488355478  0.4956875779917890  0.6678737754127581
  0.4438801279686737  0.5941112570726516  0.2965237423827307
  0.5286186988166292  0.1336430592014114  0.3329070830228313
  0.8551688774798389  0.3501126986713656  0.6184891260814639
  0.9224458904263454  0.2501581722667506  0.7541120932178729
  0.2809904877961398  0.4650205651303804  0.9763949170020947
  0.3233478290612677  0.3888855339413398  0.8051948049011152
  0.7403964184203252  0.1332120651013658  0.4996549346869197
  0.1707444735463791  0.5701026339264260  0.4480756313459166
  0.9564704257853953  0.4986772446880057  0.1332610216165296
  0.1127662426262555  0.2536279150765575  0.7207078265781028
  0.3595760373806213  0.7637787204060226  0.4247291258702837
  0.0581827568719248  0.8378763455164879  0.0365750837064390
  0.4608776258830042  0.8793475978380035  0.8795748819782530
  0.4534047884942886  0.8938219897802192  0.3024474322905494
  0.2347051114700951  0.1340964788532849  0.0672981543686767
  0.0795295912772161  0.9546020221544201  0.5135982518639600
  0.3766505532991903  0.5515416455818406  0.1140127440260985
  0.6307937711340553  0.4637781208547792  0.2857086615368856
  0.7344622041538743  0.7427656908778966  0.9306912804875291
  0.8810401485155397  0.4353148053683975  0.3873625438300293
  0.4272889002714366  0.2138025454634841  0.3379038367047995
  0.9527964195147927  0.9231090607378419  0.3011439797905825
  0.5174388156388608  0.7692524404977042  0.2036561107846096
  0.9433610035784158  0.5634296771976466  0.4034426095756879
  0.0614357000062416  0.0602628285599207  0.2900691410796910
  0.9869195718030983  0.7876306203839163  0.4762313886365769
  0.4094312832247971  0.2859501311912864  0.7992325067884910
  0.9633695059894010  0.5376965722940977  0.6366854823329033
  0.5692237849528397  0.2338961368345592  0.1824404335777418
  0.1853986356371599  0.9762833880879552  0.0151307319315330
  0.1931297899201862  0.8852682612471254  0.3250589629151460
  0.3357026351400085  0.3439889398443512  0.5931229117024507
  0.7119592161485194  0.9042802990443769  0.0139167896244281
  0.4753292670937040  0.0954639579829054  0.8798729841385510
  0.4626941358565435  0.4573191133329306  0.0568758022644883
  0.8411646413565472  0.5943903040153445  0.6518710472988731
  0.6491257753874579  0.8567749684065169  0.6902497623478393
  0.6031532152310138  0.1956848222813127  0.7957312817491355
  0.7699716102724224  0.3256970652097200  0.2895742682153902
  0.0554413327710195  0.5404482278897361  0.9030642683171892
  0.9926377101280551  0.0967060944460956  0.1778046154838826
  0.0037504371461948  0.5691366182004788  0.5182728378835836
  0.0532034994622109  0.2901827830682214  0.2506689758108638
  0.4058289439017183  0.4124780641817554  0.3439889999693407
  0.9872362597693347  0.2117325943594986  0.5176537513645717
  0.2962080498902536  0.7672644974321475  0.2259660313444334
  0.1031129716740225  0.0872964266346024  0.6502963112659496
  0.7438749471970899  0.5287916738911091  0.2535219226771752
  0.6302466092119584  0.0963450684269416  0.0152414962039044
  0.1451466106948817  0.5628604567356712  0.0565861785896174
  0.8987649928866290  0.0420970477448337  0.3098408997248744
  0.1005952945524515  0.8005891882332513  0.3727594100102490
  0.5233457211568645  0.5786788595717443  0.9586846033716883
  0.9598234132947578  0.7639380499497367 -0.0019864546402231
  0.3362909927494778  0.1615921225906487  0.2617058688726921
  0.0086586351988002  0.0806388444067785  0.8937860067929949
  0.2586166395477895  0.3405279377179034 -0.0376634713195275
  0.4453880932270065  0.2120051166120186  0.7081483163984398
  0.0142865189062989  0.5779065777265519  0.0515386330312204
  0.5854563392438271  0.8734904482737511  0.8618580414497693
  0.0090013680031062  0.0238024653618678  0.5913828439530532
  0.4696988183091994  0.7243706316769063  0.8069187569404445
  0.5889660448703345  0.4669715690413703  0.0788920269772029
  0.7572025312338407  0.6408895520392016  0.3068808900627564
  0.5873669803611034  0.0768918623695690  0.8260678130638847
  0.1443678331163385  0.9910845401353343  0.3703937590636294
  0.6345080405827336  0.8671327166608268  0.5710934213731582
  0.7596639050098126  0.0361170953337490  0.8614255038245857
  0.6634591030633022  0.3500079791214329  0.2305075902013585
  0.1401199536647047  0.6291253495429229  0.9441538272329587
  0.6342939142835433  0.7165935310746312  0.0379767214863656
  0.7490979472489665  0.8990208975618554  0.7499734336543964
  0.2862632400110943  0.4890165150972101  0.3916609213431769
  0.8990063938208188  0.7109217342176489  0.5492439333291008
  0.7097476857934428  0.2284413099197931  0.8454005887118933
  0.7271977530472054  0.2676811160193730  0.3978473381111099
  0.8297844429857186  0.3398193168914486  0.7746761241834415
  0.4840239501312724  0.1426708142541406  0.1542654693700700
  0.6669307457963297  0.7065524975739551  0.8208609054588550
  0.2768212148843999  0.5226408264478818  0.8385682657514413
  0.8534875816609522  0.4672313145708408  0.2631053704813039
  0.5851573285068038  0.2895380579024525  0.5496165032068431
  0.7966818875030751  0.4940264509722980  0.7126479270713523
  0.3541707382054325  0.6252618826073594  0.9633555910289237
  0.8479475319212934  0.0607600440130524  0.5347905724112793
  0.2576390669140859  0.3385023707252955  0.7062953983966496
  0.2057797964020258  0.8596975130774082  0.1192120775375027
  0.0468497561660620  0.9332507650986190  0.2115078083042772
 -0.0029731906446553  0.6407870691127618  0.8373573040061292
  0.2116211046207058  0.0927366886561945  0.9528977940741009
  0.9843547737004482  0.2222636242326498  0.1558665793486379
  0.1125967387785405  0.8256449241409993  0.9120412280296681
  0.4723732893380389 -0.0079994045659232  0.9557926734281422
  0.4144401889917176  0.3640045584497970  0.4659010478345965
  0.2512157114137342  0.5966341089782703  0.5503127532250706
  0.2386817128849009  0.3990722241024443  0.5283319050763848
  0.9235618434572220  0.4434823798250700  0.5565992694232559
  0.1952766031506477 -0.0082469383476703  0.5266513354179521
  0.6687694191786530  0.4537508989314795  0.4066308031897742
  0.7027769664590768  0.6921269293669341  0.5133758330083082
  0.1184180387284588  0.6175122658123966  0.6814283786093973
  0.6765183799735651  0.0396852127977922  0.5552836110675083
  0.2769887037347545  0.7046366237368460  0.7026255020862162
  0.9338355729894331  0.3237688647225864  0.3398095057591896
  0.5747162171549143  0.3733823965639844  0.8982689194379392
  0.1745828432881634  0.2760783775292608  0.1966259719149151
  0.2504549850080605  0.9377654930031014  0.8354467426023632
  0.3770836792104613  0.9419355111699287  0.5476604188422785
  0.0660125320588899  0.9712694527740535  0.8972077709850163
  0.8188390284977719  0.5600374661191585  0.4386059441293105
  0.0470405782950193  0.4694548708973648  0.2851449417682158
  0.2820455372430573  0.7500384546598373  0.8683915100714161
  0.4128593499100671  0.4492574794966033  0.7308625301720439
  0.8144366228637805  0.3021047704228695  0.0896134021600336
  0.6018883370861056  0.9176313976654562  0.0749467175696131
  0.1404913237868932  0.4568407504523291 -0.0119714085680218
  0.0564272370315617  0.1878538208082806  0.3353805426152147
  0.4516943567617023  0.9268620340372969  0.7368421378363597
  0.8629604102950905  0.4757835363405704  0.0587933743927724
  0.6239895229310072  0.1598463026892272  0.2661409752585197
  0.1706030842533985  0.1000567418124895  0.2354813704000871
  0.6347958220906956  0.3550175717549153  0.0595340066936808
  0.0040342331098229  0.3855544332092253  0.1248156817507858
  0.1347976197267769  0.3493196350658342  0.3783737959455631
  0.9431951920294760  0.2548667145113242  0.8816951694747424
  0.4389737300910883  0.2108094700443680  0.5272513360091567
  0.7093383930546062  0.4947964438371280  0.9641392406745035
  0.4913260006726362  0.5085509915078550  0.3814156478776581
  0.7620175797717028  0.9346852350769491  0.2480589501296090
  0.6121038681619368  0.1823037786551879  0.6752519304042206
  0.4223721645923965  0.4970898072856205  0.2188322327294168
  0.3620337947024929  0.8110236407171342  0.0354986662193799
  0.2817355747905512  0.9091058948439569  0.9500994394678068
  0.6696955175902196  0.5400435409507663  0.6097477138704375
  0.8277121692603024  0.6512930739187067  0.9417132129794084
  0.5765499472847110  0.1462358145749620  0.4432525288909536
  0.4564768729491187  0.3365298769278428  0.0807726517012984
  0.3270406372552576  0.1001512658898989  0.4625980583351380
  0.6126701079641659  0.5300849753753089  0.7989912414855982
  0.5773081321436268  0.8655837181473633  0.2719031204413705
  0.2639564633255895  0.8650962213437178  0.4311730107872678
  0.8521937490632546  0.6946386177283358  0.7403471005231198
  0.2987733204710287  0.3270742860900558  0.3100771694751172
  0.2696731710685071  0.8657690744194141  0.6643679701001901
  0.5651920517056022  0.6972766739937643  0.3826022067017117
  0.1251319130030457  0.6281286004010733  0.2829488174126423
  0.0914202517017706  0.7397908286387186  0.1076033773830090
  0.4799991473648242  0.3081609829300377  0.2771927295365567
  0.2784657555837147  0.0213242111370652  0.0982606532366492
  0.4651589344053003  0.6520407078220344  0.1176586449466305
  0.5115288760032498  0.1887457232264464  0.9575571925509524
  0.0872230313229535  0.8431114054036110  0.5602759399544892
  0.9493744282377834  0.6865540238302054  0.3789869013651074
  0.4937023373989822  0.0602064653848485  0.6013520988886977
  0.3269395265901735  0.2168800934811717  0.8604028080191761
  0.6633972271391728  0.1999090602261718  0.0771230677968440
  0.5022406093445466  0.5994056975711426  0.6616342510337706
  0.8026795478905461  0.2094447878073469  0.2421753259955178
  0.2780870301421813  0.4361988648001309  0.1219386802771552
  0.0857152239315212  0.2200621302525380  0.0026277145990824
  0.9032226374154502  0.0032174670412981  0.7393278105375608
  0.0098819989890002  0.3308761091652304  0.6995959603362505
  0.5174130496361640  0.4689229176696099  0.5603084590586177
  0.3478966694229106  0.1790943763122797  0.0459820187771020
  0.4468545652523034  0.7737655474252439  0.6280620246142103
  0.8887828196683796  0.4792057254364663  0.8840507659174055
  0.2788123577811638  0.6594403691278429  0.1581852434988266
  0.7960640294750886  0.8362888154496817  0.0918987451504688
  0.1350346351994680  0.9788321385393463  0.7049250736719370
  0.9089033918235229  0.8891505465495537  0.4572449097359023
  0.8142346780947264  0.8397082327693161  0.9013117734190184
  0.7432493516486738  0.5654509849640533  0.1364987440769087
  0.3977847338258718  0.7547464303117497  0.3034796552705467
  0.8950633883757196  0.8728321943735412  0.6325785388821283
  0.0455300152575039  0.1461803425632935  0.7387597458811601
  0.4170775661096468  0.4367951870979805  0.9363200567015876
  0.7522047751992486  0.3936433011861010  0.5514420222743646
  0.0553732688237835  0.0483675385703646  0.0739209333180186
  0.7837986917629164  0.1456251670978424  0.6967274882791301
  0.7372440205525426  0.0238229336318303  0.0531783318548811
  0.4266631438120930  0.6529453901464349  0.4865518826323202
  0.8899331998346383  0.0433851248843004  0.1261395800745582
  0.2605069635986346  0.6802034303731734  0.3997275953993820
  0.8658446062640121  0.2411093296028438  0.5463065848931067
  0.0198887790200754  0.7903720022312122  0.7459365627197356
  0.1261583847002387  0.2539984787591030  0.5742960790917744
  0.3160057591209874  0.0703364736211436  0.7460728173626973
  0.8454730106672355  0.6341808779102909  0.1389373151225552
  0.4669629333421269  0.0267105170331131  0.3319071075733534
  0.6160834051132814  0.6888804140960659  0.2143376037594008
  0.1079982790390785  0.4841918196410323  0.7925141732089692
  0.3529067858128152  0.4689306077696527  0.6272360815821942
  0.5039245422898060  0.8423870026906272  0.4528852783499828
  0.5844135286134667  0.3623753367151670  0.7147628500286116
  0.0922984702150384  0.4824320918127827  0.5060881633036846
  0.8624857308295738  0.7774162281641396  0.2653740856768563
  0.8221543224226157  0.1639227274592620  0.9709321420850797
  0.3081082819033746  0.9642870455168764  0.2801054768205237
  0.4455985032518016  0.9163353294791938  0.1738992332361318
  0.1233649443757271  0.3046457610791914  0.8431206229755540
  0.0809427566672126  0.6632977707530077  0.4893780092236554
  0.7379736758898942  0.0879561182956060  0.3778679418916792
  0.7106408874430719  0.8408053050095936  0.4021587008282820
 
  0.00000000E+00  0.00000000E+00  0.00000000E+00
  0.00000000E+00  0.00000000E+00  0.00000000E+00
  0.00000000E+00  0.00000000E+00  0.00000000E+00
  0.00000000E+00  0.00000000E+00  0.00000000E+00
  0.00000000E+00  0.00000000E+00  0.00000000E+00
  0.00000000E+00  0.00000000E+00  0.00000000E+00
  0.00000000E+00  0.00000000E+00  0.00000000E+00
  0.00000000E+00  0.00000000E+00  0.00000000E+00
  0.00000000E+00  0.00000000E+00  0.00000000E+00
  0.00000000E+00  0.00000000E+00  0.00000000E+00
  0.00000000E+00  0.00000000E+00  0.00000000E+00
  0.00000000E+00  0.00000000E+00  0.00000000E+00
  0.00000000E+00  0.00000000E+00  0.00000000E+00
  0.00000000E+00  0.00000000E+00  0.00000000E+00
  0.00000000E+00  0.00000000E+00  0.00000000E+00
  0.00000000E+00  0.00000000E+00  0.00000000E+00
  0.00000000E+00  0.00000000E+00  0.00000000E+00
  0.00000000E+00  0.00000000E+00  0.00000000E+00
  0.00000000E+00  0.00000000E+00  0.00000000E+00
  0.00000000E+00  0.00000000E+00  0.00000000E+00
  0.00000000E+00  0.00000000E+00  0.00000000E+00
  0.00000000E+00  0.00000000E+00  0.00000000E+00
  0.00000000E+00  0.00000000E+00  0.00000000E+00
  0.00000000E+00  0.00000000E+00  0.00000000E+00
  0.00000000E+00  0.00000000E+00  0.00000000E+00
  0.00000000E+00  0.00000000E+00  0.00000000E+00
  0.00000000E+00  0.00000000E+00  0.00000000E+00
  0.00000000E+00  0.00000000E+00  0.00000000E+00
  0.00000000E+00  0.00000000E+00  0.00000000E+00
  0.00000000E+00  0.00000000E+00  0.00000000E+00
  0.00000000E+00  0.00000000E+00  0.00000000E+00
  0.00000000E+00  0.00000000E+00  0.00000000E+00
  0.00000000E+00  0.00000000E+00  0.00000000E+00
  0.00000000E+00  0.00000000E+00  0.00000000E+00
  0.00000000E+00  0.00000000E+00  0.00000000E+00
  0.00000000E+00  0.00000000E+00  0.00000000E+00
  0.00000000E+00  0.00000000E+00  0.00000000E+00
  0.00000000E+00  0.00000000E+00  0.00000000E+00
  0.00000000E+00  0.00000000E+00  0.00000000E+00
  0.00000000E+00  0.00000000E+00  0.00000000E+00
  0.00000000E+00  0.00000000E+00  0.00000000E+00
  0.00000000E+00  0.00000000E+00  0.00000000E+00
  0.00000000E+00  0.00000000E+00  0.00000000E+00
  0.00000000E+00  0.00000000E+00  0.00000000E+00
  0.00000000E+00  0.00000000E+00  0.00000000E+00
  0.00000000E+00  0.00000000E+00  0.00000000E+00
  0.00000000E+00  0.00000000E+00  0.00000000E+00
  0.00000000E+00  0.00000000E+00  0.00000000E+00
  0.00000000E+00  0.00000000E+00  0.00000000E+00
  0.00000000E+00  0.00000000E+00  0.00000000E+00
  0.00000000E+00  0.00000000E+00  0.00000000E+00
  0.00000000E+00  0.00000000E+00  0.00000000E+00
  0.00000000E+00  0.00000000E+00  0.00000000E+00
  0.00000000E+00  0.00000000E+00  0.00000000E+00
  0.00000000E+00  0.00000000E+00  0.00000000E+00
  0.00000000E+00  0.00000000E+00  0.00000000E+00
  0.00000000E+00  0.00000000E+00  0.00000000E+00
  0.00000000E+00  0.00000000E+00  0.00000000E+00
  0.00000000E+00  0.00000000E+00  0.00000000E+00
  0.00000000E+00  0.00000000E+00  0.00000000E+00
  0.00000000E+00  0.00000000E+00  0.00000000E+00
  0.00000000E+00  0.00000000E+00  0.00000000E+00
  0.00000000E+00  0.00000000E+00  0.00000000E+00
  0.00000000E+00  0.00000000E+00  0.00000000E+00
  0.00000000E+00  0.00000000E+00  0.00000000E+00
  0.00000000E+00  0.00000000E+00  0.00000000E+00
  0.00000000E+00  0.00000000E+00  0.00000000E+00
  0.00000000E+00  0.00000000E+00  0.00000000E+00
  0.00000000E+00  0.00000000E+00  0.00000000E+00
  0.00000000E+00  0.00000000E+00  0.00000000E+00
  0.00000000E+00  0.00000000E+00  0.00000000E+00
  0.00000000E+00  0.00000000E+00  0.00000000E+00
  0.00000000E+00  0.00000000E+00  0.00000000E+00
  0.00000000E+00  0.00000000E+00  0.00000000E+00
  0.00000000E+00  0.00000000E+00  0.00000000E+00
  0.00000000E+00  0.00000000E+00  0.00000000E+00
  0.00000000E+00  0.00000000E+00  0.00000000E+00
  0.00000000E+00  0.00000000E+00  0.00000000E+00
  0.00000000E+00  0.00000000E+00  0.00000000E+00
  0.00000000E+00  0.00000000E+00  0.00000000E+00
  0.00000000E+00  0.00000000E+00  0.00000000E+00
  0.00000000E+00  0.00000000E+00  0.00000000E+00
  0.00000000E+00  0.00000000E+00  0.00000000E+00
  0.00000000E+00  0.00000000E+00  0.00000000E+00
  0.00000000E+00  0.00000000E+00  0.00000000E+00
  0.00000000E+00  0.00000000E+00  0.00000000E+00
  0.00000000E+00  0.00000000E+00  0.00000000E+00
  0.00000000E+00  0.00000000E+00  0.00000000E+00
  0.00000000E+00  0.00000000E+00  0.00000000E+00
  0.00000000E+00  0.00000000E+00  0.00000000E+00
  0.00000000E+00  0.00000000E+00  0.00000000E+00
  0.00000000E+00  0.00000000E+00  0.00000000E+00
  0.00000000E+00  0.00000000E+00  0.00000000E+00
  0.00000000E+00  0.00000000E+00  0.00000000E+00
  0.00000000E+00  0.00000000E+00  0.00000000E+00
  0.00000000E+00  0.00000000E+00  0.00000000E+00
  0.00000000E+00  0.00000000E+00  0.00000000E+00
  0.00000000E+00  0.00000000E+00  0.00000000E+00
  0.00000000E+00  0.00000000E+00  0.00000000E+00
  0.00000000E+00  0.00000000E+00  0.00000000E+00
  0.00000000E+00  0.00000000E+00  0.00000000E+00
  0.00000000E+00  0.00000000E+00  0.00000000E+00
  0.00000000E+00  0.00000000E+00  0.00000000E+00
  0.00000000E+00  0.00000000E+00  0.00000000E+00
  0.00000000E+00  0.00000000E+00  0.00000000E+00
  0.00000000E+00  0.00000000E+00  0.00000000E+00
  0.00000000E+00  0.00000000E+00  0.00000000E+00
  0.00000000E+00  0.00000000E+00  0.00000000E+00
  0.00000000E+00  0.00000000E+00  0.00000000E+00
  0.00000000E+00  0.00000000E+00  0.00000000E+00
  0.00000000E+00  0.00000000E+00  0.00000000E+00
  0.00000000E+00  0.00000000E+00  0.00000000E+00
  0.00000000E+00  0.00000000E+00  0.00000000E+00
  0.00000000E+00  0.00000000E+00  0.00000000E+00
  0.00000000E+00  0.00000000E+00  0.00000000E+00
  0.00000000E+00  0.00000000E+00  0.00000000E+00
  0.00000000E+00  0.00000000E+00  0.00000000E+00
  0.00000000E+00  0.00000000E+00  0.00000000E+00
  0.00000000E+00  0.00000000E+00  0.00000000E+00
  0.00000000E+00  0.00000000E+00  0.00000000E+00
  0.00000000E+00  0.00000000E+00  0.00000000E+00
  0.00000000E+00  0.00000000E+00  0.00000000E+00
  0.00000000E+00  0.00000000E+00  0.00000000E+00
  0.00000000E+00  0.00000000E+00  0.00000000E+00
  0.00000000E+00  0.00000000E+00  0.00000000E+00
  0.00000000E+00  0.00000000E+00  0.00000000E+00
  0.00000000E+00  0.00000000E+00  0.00000000E+00
  0.00000000E+00  0.00000000E+00  0.00000000E+00
  0.00000000E+00  0.00000000E+00  0.00000000E+00
  0.00000000E+00  0.00000000E+00  0.00000000E+00
  0.00000000E+00  0.00000000E+00  0.00000000E+00
  0.00000000E+00  0.00000000E+00  0.00000000E+00
  0.00000000E+00  0.00000000E+00  0.00000000E+00
  0.00000000E+00  0.00000000E+00  0.00000000E+00
  0.00000000E+00  0.00000000E+00  0.00000000E+00
  0.00000000E+00  0.00000000E+00  0.00000000E+00
  0.00000000E+00  0.00000000E+00  0.00000000E+00
  0.00000000E+00  0.00000000E+00  0.00000000E+00
  0.00000000E+00  0.00000000E+00  0.00000000E+00
  0.00000000E+00  0.00000000E+00  0.00000000E+00
  0.00000000E+00  0.00000000E+00  0.00000000E+00
  0.00000000E+00  0.00000000E+00  0.00000000E+00
  0.00000000E+00  0.00000000E+00  0.00000000E+00
  0.00000000E+00  0.00000000E+00  0.00000000E+00
  0.00000000E+00  0.00000000E+00  0.00000000E+00
  0.00000000E+00  0.00000000E+00  0.00000000E+00
  0.00000000E+00  0.00000000E+00  0.00000000E+00
  0.00000000E+00  0.00000000E+00  0.00000000E+00
  0.00000000E+00  0.00000000E+00  0.00000000E+00
  0.00000000E+00  0.00000000E+00  0.00000000E+00
  0.00000000E+00  0.00000000E+00  0.00000000E+00
  0.00000000E+00  0.00000000E+00  0.00000000E+00
  0.00000000E+00  0.00000000E+00  0.00000000E+00
  0.00000000E+00  0.00000000E+00  0.00000000E+00
  0.00000000E+00  0.00000000E+00  0.00000000E+00
  0.00000000E+00  0.00000000E+00  0.00000000E+00
  0.00000000E+00  0.00000000E+00  0.00000000E+00
  0.00000000E+00  0.00000000E+00  0.00000000E+00
  0.00000000E+00  0.00000000E+00  0.00000000E+00
  0.00000000E+00  0.00000000E+00  0.00000000E+00
  0.00000000E+00  0.00000000E+00  0.00000000E+00
  0.00000000E+00  0.00000000E+00  0.00000000E+00
  0.00000000E+00  0.00000000E+00  0.00000000E+00
  0.00000000E+00  0.00000000E+00  0.00000000E+00
  0.00000000E+00  0.00000000E+00  0.00000000E+00
  0.00000000E+00  0.00000000E+00  0.00000000E+00
  0.00000000E+00  0.00000000E+00  0.00000000E+00
  0.00000000E+00  0.00000000E+00  0.00000000E+00
  0.00000000E+00  0.00000000E+00  0.00000000E+00
  0.00000000E+00  0.00000000E+00  0.00000000E+00
  0.00000000E+00  0.00000000E+00  0.00000000E+00
  0.00000000E+00  0.00000000E+00  0.00000000E+00
  0.00000000E+00  0.00000000E+00  0.00000000E+00
  0.00000000E+00  0.00000000E+00  0.00000000E+00
  0.00000000E+00  0.00000000E+00  0.00000000E+00
  0.00000000E+00  0.00000000E+00  0.00000000E+00
  0.00000000E+00  0.00000000E+00  0.00000000E+00
  0.00000000E+00  0.00000000E+00  0.00000000E+00
  0.00000000E+00  0.00000000E+00  0.00000000E+00
  0.00000000E+00  0.00000000E+00  0.00000000E+00
  0.00000000E+00  0.00000000E+00  0.00000000E+00
  0.00000000E+00  0.00000000E+00  0.00000000E+00
  0.00000000E+00  0.00000000E+00  0.00000000E+00
  0.00000000E+00  0.00000000E+00  0.00000000E+00
  0.00000000E+00  0.00000000E+00  0.00000000E+00
  0.00000000E+00  0.00000000E+00  0.00000000E+00
  0.00000000E+00  0.00000000E+00  0.00000000E+00
  0.00000000E+00  0.00000000E+00  0.00000000E+00
  0.00000000E+00  0.00000000E+00  0.00000000E+00
  0.00000000E+00  0.00000000E+00  0.00000000E+00
  0.00000000E+00  0.00000000E+00  0.00000000E+00
  0.00000000E+00  0.00000000E+00  0.00000000E+00
  0.00000000E+00  0.00000000E+00  0.00000000E+00
  0.00000000E+00  0.00000000E+00  0.00000000E+00
  0.00000000E+00  0.00000000E+00  0.00000000E+00
  0.00000000E+00  0.00000000E+00  0.00000000E+00
  0.00000000E+00  0.00000000E+00  0.00000000E+00
  0.00000000E+00  0.00000000E+00  0.00000000E+00
  0.00000000E+00  0.00000000E+00  0.00000000E+00
  0.00000000E+00  0.00000000E+00  0.00000000E+00
  0.00000000E+00  0.00000000E+00  0.00000000E+00
  0.00000000E+00  0.00000000E+00  0.00000000E+00
  0.00000000E+00  0.00000000E+00  0.00000000E+00
  0.00000000E+00  0.00000000E+00  0.00000000E+00
  0.00000000E+00  0.00000000E+00  0.00000000E+00
  0.00000000E+00  0.00000000E+00  0.00000000E+00
  0.00000000E+00  0.00000000E+00  0.00000000E+00
  0.00000000E+00  0.00000000E+00  0.00000000E+00
  0.00000000E+00  0.00000000E+00  0.00000000E+00
  0.00000000E+00  0.00000000E+00  0.00000000E+00
  0.00000000E+00  0.00000000E+00  0.00000000E+00
  0.00000000E+00  0.00000000E+00  0.00000000E+00
  0.00000000E+00  0.00000000E+00  0.00000000E+00
  0.00000000E+00  0.00000000E+00  0.00000000E+00
  0.00000000E+00  0.00000000E+00  0.00000000E+00
  0.00000000E+00  0.00000000E+00  0.00000000E+00
  0.00000000E+00  0.00000000E+00  0.00000000E+00
  0.00000000E+00  0.00000000E+00  0.00000000E+00
  0.00000000E+00  0.00000000E+00  0.00000000E+00
  0.00000000E+00  0.00000000E+00  0.00000000E+00
  0.00000000E+00  0.00000000E+00  0.00000000E+00
  0.00000000E+00  0.00000000E+00  0.00000000E+00
  0.00000000E+00  0.00000000E+00  0.00000000E+00
  0.00000000E+00  0.00000000E+00  0.00000000E+00
  0.00000000E+00  0.00000000E+00  0.00000000E+00