Amorphous GeAsSeSi                      
   1.00000000000000     
    18.4836188657994711    0.0000000000000000    0.0000000000000000
     0.0000000000000000   18.4836188657994711    0.0000000000000000
     0.0000000000000000    0.0000000000000000   18.4836188657994711
   Ge   N    Se
   102    36   102
Direct
  0.4005858600102966  0.8161427235015438  0.5609222590543277
  0.2569848855292687  0.0409593899489097  0.4011602610406787
  0.4606858211654959  0.0329228884952583  0.7459997577301632
  0.9370849134543319  0.4368396336770576  0.5012643436143636
  0.7767703322214493  0.9373903172672227  0.2899987346597908
  0.5453855014576380  0.0837395831599882  0.5869786579567831
  0.6360520145060750  0.2469263999882162  0.7137508768123090
  0.8293092630722678  0.6328819972618236  0.2909222368885874
  0.4516651765242194  0.3143284268066180  0.8269522926848144
  0.8973489373286171  0.2101406119043350  0.2042353180899580
  0.9632632392806996  0.7894132865734842  0.5893878335236327
  0.1898235246684513  0.4738168365001002  0.0782668906301429
  0.7682837548233967  0.0693209186038321  0.6634498474439735
  0.0701936984344622  0.1766330979579300  0.7821989413686268
  0.4389607283421306  0.1532549291736366  0.4090258884991865
  0.1810908148046045  0.9185066116207408  0.3953496873393751
  0.4403596062101181  0.5014863435330358  0.3542369894909254
  0.4703362422370402  0.9379658346078208  0.8700976961464176
  0.6471435365600654  0.0616862390994212  0.8115309549363875
  0.7913177881693108  0.5735922378388179  0.4993111843365007
  0.2865878116955869  0.6570823736960728  0.7130475851236822
  0.2473214570289363  0.8922791964651159  0.5541967180482346
  0.8213927461384930  0.7950061100466336  0.9687774749933721
  0.7020131705190059  0.8277421076442200  0.7056849079003186
  0.7831304594650533  0.0525574578461786  0.1225198147969414
  0.9758663992913489  0.1649392894928794  0.4762622345455650
  0.7654526290771881  0.9090903845261892  0.8110295506091516
  0.5870690453923242  0.6176318220354102  0.4990894627633990
  0.3674527861046537  0.8686869549397970  0.1412778844686944
  0.3238463853347542  0.5096705238071433  0.6447186909737085
  0.6708529572149182  0.3028411347048200  0.2591810924880282
  0.5905490903080596  0.8630563268389708  0.2124879432832766
  0.1987192596044806  0.0503035313848310  0.8211460285478525
  0.1975367692884094  0.4554631435292760  0.2714568570381772
  0.4791640673887781  0.1340329174436133  0.0989091419083500
  0.3639654568134728  0.0218775786806055  0.9626429421332210
  0.0884935283336103  0.0254760756454080  0.3047099837405121
  0.6650052602497523  0.7020653928929136  0.0066943170510259
  0.1033486063327871  0.4396481224371201  0.6481456215714526
  0.3735635558624882  0.3274914074426827  0.9628166457470205
  0.2696163453680066  0.5261833834629908  0.4022538332304136
  0.4881094441612409  0.6703566638790909  0.5802252457531855
  0.2610270292738973  0.3337690113157197  0.6276932941530775
  0.0728537994155241  0.4220985492321285  0.8446248974299733
  0.1168500305854143  0.6383035832153143  0.2548767914446855
  0.0240311005922519  0.9239493811589794  0.7689148104220571
  0.6586959630534240  0.9101329600389756  0.4140536629251359
  0.9380962522566976  0.3835366981767816  0.9586071847667356
  0.7299157056412641  0.2085208229829953  0.3723580356578117
  0.5910892110543418  0.8684334213952682  0.0203776367245164
  0.8380350945127067  0.3839792418384016  0.2073564735118695
  0.5908084952603684  0.0275085437276745  0.1156307497471544
  0.3240714999501635  0.8029447893069332  0.4028190918399964
  0.3643243625637779  0.9678686062333792  0.4508280001096194
  0.9425739177643281  0.3127577703125233  0.7978571857917650
  0.8091674280938543  0.4609823196313343  0.3539883965049241
  0.4712214432419631  0.6153759719412538  0.2249713550191693
  0.0008318934911164  0.1730506747310261  0.0199320543612292
  0.6045396600315213  0.3526062613855884  0.1413296584601726
  0.6891920503974059  0.9990314686153257  0.9720029862670280
  0.5027524451406956  0.7557124323734096  0.0990057721243134
  0.7186000774805510  0.1541698325064408  0.9631142645131382
  0.5436254225230259  0.2595623250300447  0.9872440876979901
  0.2605556638104164  0.3351214190145462  0.8224129520370563
  0.8366213698180781  0.9830774021464385  0.9544997888241095
  0.3092859992525361  0.1106037595141183  0.6866124568520349
  0.1326116669804189  0.5520537664962734  0.7371355538612840
  0.9405287831219814  0.6680680928454662  0.0277495659165889
  0.9907499419734359  0.0287979498308306  0.5917812765827496
  0.5092556573299942  0.4059407777956910  0.9967763207072127
  0.7682394973694775  0.1681077828619882  0.5619499018101379
  0.4044314911175698  0.8650515086456341  0.3077138960719786
  0.8047093774716233  0.4002059735181498  0.6295046664295707
  0.3179676646613537  0.7871432957184175  0.9677874960079401
  0.3092795863982452  0.6737111010253725  0.5333393509187206
  0.1942440413643738  0.7163686197523474  0.0988609289999383
  0.0034964222229313  0.3460456824124178  0.2030320064756775
  0.6104555433451125  0.4797217756620422  0.4574323348785737
  0.2737746299114878  0.9789094557010316  0.2687647805097965
  0.5332508950240764  0.0964060385929741  0.9323343169919960
  0.3309895476609835  0.2937015567217114  0.4503096334649284
  0.0878625466716834  0.6989704928733323  0.8049078808934970
  0.6981157408010181  0.7346390306779527  0.4212505274242510
  0.2100416532529380  0.6725602917245133  0.8698120891405102
  0.8965260860396912  0.9746724744093055  0.7894336616080095
  0.9183021868712758  0.0926824448783450  0.3668796199721254
  0.9595239092969815  0.4808832249866630  0.1065357926270988
  0.1843405742420172  0.3699671071257927  0.5073201313100423
  0.5617346135130100  0.4986916810524943  0.6504888863392302
  0.6083151866720434  0.7546236629834132  0.5874432152858874
  0.9198778854371104  0.5433593273995480  0.9540775598294090
  0.2453210123334333  0.2052336852534809  0.7601892494758744
  0.7553980088674931  0.3500695099451216  0.0193906145737384
  0.3247507705150930  0.6447349596108500  0.3296553634215836
  0.5689804937572820  0.9266283009238533  0.6553714715960036
  0.1441460514721553  0.4739188125161238  0.4364109942234159
  0.1868610549270857  0.6805856928902008  0.4258532160124752
  0.1592127765526991  0.1905922053921983  0.5905415561793823
  0.5279586708492817  0.5472206310625513  0.8428139849759713
  0.8249125623727213  0.7908139126105140  0.4452063115172937
  0.9783579951703323  0.7286656881755482  0.4370546744375948
  0.1322086966383066  0.1981086778564249  0.3519056241842235
  0.4071148257584584  0.7163146435818130  0.5415656599964572
  0.8387468481932342  0.6272129299505107  0.7357625347936962
  0.9076327874914619  0.7698342855110223  0.5028258347787814
  0.2355046240965854  0.8373695587889759  0.3616897176191220
  0.3373111364767037  0.9006642456559207  0.2371272313737053
  0.8705225330515874  0.6124271447482922  0.7850238183138867
  0.6330644457427035  0.7114100352000496  0.4953660016617454
  0.8447680561547022  0.7024185113409535  0.0049477333566784
  0.6848138863535831  0.9680334791113886  0.3285999015849109
  0.1909599441991923  0.4055547382442171  0.6057711435127238
  0.5447474710167450  0.3309105122076593  0.0598618737098142
  0.5063132457802586  0.1661896176939916  0.0007187227485264
  0.7747573942784679  0.0246565227941842  0.0232724970354972
  0.1673634588136195  0.1421812095603541  0.7895450724415460
  0.2688701574712875  0.3157309441703614  0.5265588226576281
  0.5286944241112231  0.0170723122816509  0.6678369493971982
  0.3400545280907052  0.8630776261896088  0.4877899303148519
  0.5558228594696690  0.8431154238440559  0.1191010205344510
  0.1574167205159112  0.7100275850280473  0.3273869360554778
  0.7513292951516057  0.9537936932000834  0.9035462733991221
  0.9903319406165771  0.3676119713571552  0.8746248656139002
  0.2956154726502752  0.7059625952469318  0.4269717346355519
  0.9742221122797389  0.4675792125366117  0.0068004670157280
  0.6651136885903405  0.8131652797016214  0.3635476646750280
  0.9237991584794732  0.4016460380533529  0.1581585731958848
  0.1558490711211319  0.9447039157270354  0.2940722015809096
  0.6190149381680216  0.9677510060419375  0.0362984303556660
  0.3561241424226929  0.3228648842744404  0.8636059058384886
  0.4769609564994777  0.3215026543878312  0.9359516351034560
  0.4097808400057170  0.1125899558654383  0.7016433408382798
  0.6408152704754014  0.0786833021759646  0.9235385822527863
  0.9395799410982592  0.8645863890779550  0.1633392259105642
  0.8859407599529568  0.8390073321790426  0.1747670107424371
  0.1980993110353602  0.2538980212426600  0.6699398211784660
  0.0601157688218109  0.5960460524109649  0.7989966460542141
  0.4638358272304418  0.0212619593811219  0.9370654346850714
  0.5948875370969874  0.7178937133976238  0.8959112198702621
  0.0725120748477347  0.8610598007158515  0.4549341726894817
  0.2721988909064138  0.9936211409050626  0.7300899448514010
  0.7445976369832601  0.4431954320906867  0.4699673315007939
  0.6536846034143472  0.2697785916850632  0.9218001778018944
  0.2081123010229213  0.7818876316535930  0.2843748278854316
  0.3046332019185907  0.3969488772096088  0.3620237477902351
  0.6435693639802870  0.6186386801778675  0.8304182076402056
  0.3716633789833365  0.5242589458820441  0.2386344174984433
  0.5197294252887241  0.8663808527590260  0.5430624408317912
  0.0449418523256728  0.1484729758145554  0.6415759689613767
  0.1619846431230290  0.2657392701604430  0.1710609936753346
  0.7536580095952382  0.4806007239324411  0.2348015827811819
  0.5874906768039612  0.6550781672246971  0.1012801502899342
  0.3952091182795975  0.7098986558315876  0.1560342946952256
  0.1065821891521178  0.0791745739268923  0.4248010159664146
  0.1540903641972566  0.7855654459529716  0.5224944262445330
  0.2670670928763606  0.1235305569356906  0.5583685107974313
  0.8041935297235373  0.9194269759571689  0.4319154485842139
  0.9925922013231525  0.2099677310382537  0.3420229441191530
  0.8182931821880870  0.1298230706823877  0.2858843025565091
  0.7763893431818848  0.2774298526771303  0.1580526421372293
  0.9719392342097599  0.4170461121546963  0.7073233897944941
  0.3321976497029175  0.9133173656670680  0.8965648635902886
  0.5801384004165112  0.4428573453403064  0.7630335403681742
  0.7329970743509493  0.1611535399032704  0.7621263904059613
  0.9225150077629215  0.3272996673595758  0.5983928526167553
  0.8807568764320327  0.8372824548239359  0.6809410940102186
  0.5033812892318210  0.4281115082213295  0.1818528908907956
  0.5323352809547086  0.1416425014420474  0.8103800245813481
  0.5728459323921339  0.8463101970852167  0.7538125627880558
  0.0776179139180817  0.7336138540145178  0.1553904603286756
  0.5106561949927529  0.7927744518633885  0.2885588144484860
  0.1090691924682436  0.9647938894748179  0.8652629279098550
  0.8220015716421877  0.4437880617640731  0.9323958273967923
  0.3701076523685319  0.3781184697480490  0.6753504842928295
  0.5758373237334615  0.3935136330565126  0.3612473932786013
  0.3086433894841600  0.7416692514995306  0.8190310538090849
  0.3997698906134883  0.2323710431095729  0.1407485160870179
  0.6907513414112700  0.4438183174681778  0.0898683770358400
  0.0710225002431775  0.9372267509916841  0.6486559517481322
  0.7899811510443887  0.7817921571408550  0.8463165841638215
  0.2720302674303948  0.1056617330067038  0.9194313899170381
  0.0998246987495956  0.2652370708093014  0.4967804205876594
  0.0561693034168092  0.5105264164412463  0.5290957696843787
  0.3198139133163401  0.8355501308202928  0.6576406581772472
  0.7226503794107645  0.1037964401841263  0.4584342971589991
  0.4517498841612470  0.2707764827777995  0.4813467170456858
  0.8756152773130076  0.3520632714125343  0.3302582839080788
  0.3864153561694185  0.4454698472567353  0.0180809951258726
  0.2411742977106464  0.8392909658966028  0.0786416807961365
  0.3717449849822650  0.0185781716918233  0.0937579878891404
  0.0901177629849822  0.4066206112697117  0.3387655080151646
  0.4152461978294041  0.0636160880016374  0.5262792734737596
  0.5402068172094509  0.4181095630255019  0.5513780785453457
  0.1148369813267432  0.2976510988942590  0.7210966501567231
  0.9033551488150944  0.0706932543656307  0.6957730802094731
  0.4675009001118333  0.1779178687847855  0.6489305451464112
  0.8994208222728172  0.5896458344274327  0.1332077311944733
  0.5657609531829880  0.4927644937063871  0.2712315124536669
  0.8609125819612663  0.2483721093635214  0.4990820802956339
  0.4588574225751945  0.6421859888596629  0.3616467303977145
  0.2521187739433315  0.0551502779824506  0.1607310789813449
  0.9207113243921877  0.1113088993204697  0.1135617879322660
  0.0608254419703522  0.2842282175634017  0.0904303283244240
  0.1139440113038513  0.8646418556209789  0.2350136647815050
  0.9055800026896028  0.2717433015793407  0.0152503654098472
  0.9095187540888280  0.0653534222548496  0.8891634932544535
  0.1332393057676798  0.1138133309676652  0.2231967028400888
  0.6791627907128213  0.2631655896041664  0.5912988737288063
  0.6729443248690602  0.1401269722906170  0.0978507692128174
  0.0466339540192194  0.5524915274647566  0.8907174749349663
  0.7050722408127038  0.8087380115738698  0.2689827548973511
  0.8785870944654089  0.5199068804522436  0.5921129008811850
  0.9815723085854507  0.7936908635829478  0.7649856895506398
  0.2390159004619728  0.3724572884013344  0.1650654239661183
  0.1491602583949562  0.6764114758238615  0.6831061659999614
  0.1936609839602308  0.2832794904477829  0.9332141097409223
  0.4624692388607946  0.9651417305983534  0.3652622097854579
  0.2299604730665235  0.6405367570223567  0.9969612462392817
  0.7743934087140402  0.6342708513630934  0.9772941336904274
  0.6231985568605484  0.1830729413709910  0.2911465817480315
  0.5924510393024502  0.4883962118924324  0.9482696452652530
  0.4539615714004343  0.8003050156190888  0.9854146938582630
  0.8442987453475899  0.4114827750830455  0.7614859771417067
  0.6547298003391162  0.5822200145259643  0.6135562381141972
  0.3162677052937274  0.2416228104806981  0.0414858960278265
  0.9149250119196712  0.8830861023991835  0.9843844511239180
  0.2494377852595726  0.5571755725236899  0.8098210460641116
  0.9668505664998518  0.9874562719791115  0.2972297873101293
  0.0796269648863416  0.4704347954705157  0.1602739204319186
  0.7240625882962138  0.8108048104508253  0.0576288524656719
  0.2359445698857148  0.6248196129410503  0.1803762243695481
  0.4512512648534238  0.5768855550426356  0.6724578761433621
  0.6886481515771453  0.9216356524376923  0.6059560030757811
  0.8916442470112664  0.5580713542718887  0.3948691359198491
  0.6185352217621631  0.9897215848750462  0.2563862854682041
  0.7034782426741730  0.6276367879186643  0.3493285420789712
  0.3073186456621770  0.1907920208512183  0.3726725154775949
  0.1693828228314811  0.4097424109308276  0.9513640705661556
  0.3511041574993183  0.5394480248384426  0.5094293668304868
  0.8886963332878040  0.7558258200954935  0.3330037608975969
 
  0.00000000E+00  0.00000000E+00  0.00000000E+00
  0.00000000E+00  0.00000000E+00  0.00000000E+00
  0.00000000E+00  0.00000000E+00  0.00000000E+00
  0.00000000E+00  0.00000000E+00  0.00000000E+00
  0.00000000E+00  0.00000000E+00  0.00000000E+00
  0.00000000E+00  0.00000000E+00  0.00000000E+00
  0.00000000E+00  0.00000000E+00  0.00000000E+00
  0.00000000E+00  0.00000000E+00  0.00000000E+00
  0.00000000E+00  0.00000000E+00  0.00000000E+00
  0.00000000E+00  0.00000000E+00  0.00000000E+00
  0.00000000E+00  0.00000000E+00  0.00000000E+00
  0.00000000E+00  0.00000000E+00  0.00000000E+00
  0.00000000E+00  0.00000000E+00  0.00000000E+00
  0.00000000E+00  0.00000000E+00  0.00000000E+00
  0.00000000E+00  0.00000000E+00  0.00000000E+00
  0.00000000E+00  0.00000000E+00  0.00000000E+00
  0.00000000E+00  0.00000000E+00  0.00000000E+00
  0.00000000E+00  0.00000000E+00  0.00000000E+00
  0.00000000E+00  0.00000000E+00  0.00000000E+00
  0.00000000E+00  0.00000000E+00  0.00000000E+00
  0.00000000E+00  0.00000000E+00  0.00000000E+00
  0.00000000E+00  0.00000000E+00  0.00000000E+00
  0.00000000E+00  0.00000000E+00  0.00000000E+00
  0.00000000E+00  0.00000000E+00  0.00000000E+00
  0.00000000E+00  0.00000000E+00  0.00000000E+00
  0.00000000E+00  0.00000000E+00  0.00000000E+00
  0.00000000E+00  0.00000000E+00  0.00000000E+00
  0.00000000E+00  0.00000000E+00  0.00000000E+00
  0.00000000E+00  0.00000000E+00  0.00000000E+00
  0.00000000E+00  0.00000000E+00  0.00000000E+00
  0.00000000E+00  0.00000000E+00  0.00000000E+00
  0.00000000E+00  0.00000000E+00  0.00000000E+00
  0.00000000E+00  0.00000000E+00  0.00000000E+00
  0.00000000E+00  0.00000000E+00  0.00000000E+00
  0.00000000E+00  0.00000000E+00  0.00000000E+00
  0.00000000E+00  0.00000000E+00  0.00000000E+00
  0.00000000E+00  0.00000000E+00  0.00000000E+00
  0.00000000E+00  0.00000000E+00  0.00000000E+00
  0.00000000E+00  0.00000000E+00  0.00000000E+00
  0.00000000E+00  0.00000000E+00  0.00000000E+00
  0.00000000E+00  0.00000000E+00  0.00000000E+00
  0.00000000E+00  0.00000000E+00  0.00000000E+00
  0.00000000E+00  0.00000000E+00  0.00000000E+00
  0.00000000E+00  0.00000000E+00  0.00000000E+00
  0.00000000E+00  0.00000000E+00  0.00000000E+00
  0.00000000E+00  0.00000000E+00  0.00000000E+00
  0.00000000E+00  0.00000000E+00  0.00000000E+00
  0.00000000E+00  0.00000000E+00  0.00000000E+00
  0.00000000E+00  0.00000000E+00  0.00000000E+00
  0.00000000E+00  0.00000000E+00  0.00000000E+00
  0.00000000E+00  0.00000000E+00  0.00000000E+00
  0.00000000E+00  0.00000000E+00  0.00000000E+00
  0.00000000E+00  0.00000000E+00  0.00000000E+00
  0.00000000E+00  0.00000000E+00  0.00000000E+00
  0.00000000E+00  0.00000000E+00  0.00000000E+00
  0.00000000E+00  0.00000000E+00  0.00000000E+00
  0.00000000E+00  0.00000000E+00  0.00000000E+00
  0.00000000E+00  0.00000000E+00  0.00000000E+00
  0.00000000E+00  0.00000000E+00  0.00000000E+00
  0.00000000E+00  0.00000000E+00  0.00000000E+00
  0.00000000E+00  0.00000000E+00  0.00000000E+00
  0.00000000E+00  0.00000000E+00  0.00000000E+00
  0.00000000E+00  0.00000000E+00  0.00000000E+00
  0.00000000E+00  0.00000000E+00  0.00000000E+00
  0.00000000E+00  0.00000000E+00  0.00000000E+00
  0.00000000E+00  0.00000000E+00  0.00000000E+00
  0.00000000E+00  0.00000000E+00  0.00000000E+00
  0.00000000E+00  0.00000000E+00  0.00000000E+00
  0.00000000E+00  0.00000000E+00  0.00000000E+00
  0.00000000E+00  0.00000000E+00  0.00000000E+00
  0.00000000E+00  0.00000000E+00  0.00000000E+00
  0.00000000E+00  0.00000000E+00  0.00000000E+00
  0.00000000E+00  0.00000000E+00  0.00000000E+00
  0.00000000E+00  0.00000000E+00  0.00000000E+00
  0.00000000E+00  0.00000000E+00  0.00000000E+00
  0.00000000E+00  0.00000000E+00  0.00000000E+00
  0.00000000E+00  0.00000000E+00  0.00000000E+00
  0.00000000E+00  0.00000000E+00  0.00000000E+00
  0.00000000E+00  0.00000000E+00  0.00000000E+00
  0.00000000E+00  0.00000000E+00  0.00000000E+00
  0.00000000E+00  0.00000000E+00  0.00000000E+00
  0.00000000E+00  0.00000000E+00  0.00000000E+00
  0.00000000E+00  0.00000000E+00  0.00000000E+00
  0.00000000E+00  0.00000000E+00  0.00000000E+00
  0.00000000E+00  0.00000000E+00  0.00000000E+00
  0.00000000E+00  0.00000000E+00  0.00000000E+00
  0.00000000E+00  0.00000000E+00  0.00000000E+00
  0.00000000E+00  0.00000000E+00  0.00000000E+00
  0.00000000E+00  0.00000000E+00  0.00000000E+00
  0.00000000E+00  0.00000000E+00  0.00000000E+00
  0.00000000E+00  0.00000000E+00  0.00000000E+00
  0.00000000E+00  0.00000000E+00  0.00000000E+00
  0.00000000E+00  0.00000000E+00  0.00000000E+00
  0.00000000E+00  0.00000000E+00  0.00000000E+00
  0.00000000E+00  0.00000000E+00  0.00000000E+00
  0.00000000E+00  0.00000000E+00  0.00000000E+00
  0.00000000E+00  0.00000000E+00  0.00000000E+00
  0.00000000E+00  0.00000000E+00  0.00000000E+00
  0.00000000E+00  0.00000000E+00  0.00000000E+00
  0.00000000E+00  0.00000000E+00  0.00000000E+00
  0.00000000E+00  0.00000000E+00  0.00000000E+00
  0.00000000E+00  0.00000000E+00  0.00000000E+00
  0.00000000E+00  0.00000000E+00  0.00000000E+00
  0.00000000E+00  0.00000000E+00  0.00000000E+00
  0.00000000E+00  0.00000000E+00  0.00000000E+00
  0.00000000E+00  0.00000000E+00  0.00000000E+00
  0.00000000E+00  0.00000000E+00  0.00000000E+00
  0.00000000E+00  0.00000000E+00  0.00000000E+00
  0.00000000E+00  0.00000000E+00  0.00000000E+00
  0.00000000E+00  0.00000000E+00  0.00000000E+00
  0.00000000E+00  0.00000000E+00  0.00000000E+00
  0.00000000E+00  0.00000000E+00  0.00000000E+00
  0.00000000E+00  0.00000000E+00  0.00000000E+00
  0.00000000E+00  0.00000000E+00  0.00000000E+00
  0.00000000E+00  0.00000000E+00  0.00000000E+00
  0.00000000E+00  0.00000000E+00  0.00000000E+00
  0.00000000E+00  0.00000000E+00  0.00000000E+00
  0.00000000E+00  0.00000000E+00  0.00000000E+00
  0.00000000E+00  0.00000000E+00  0.00000000E+00
  0.00000000E+00  0.00000000E+00  0.00000000E+00
  0.00000000E+00  0.00000000E+00  0.00000000E+00
  0.00000000E+00  0.00000000E+00  0.00000000E+00
  0.00000000E+00  0.00000000E+00  0.00000000E+00
  0.00000000E+00  0.00000000E+00  0.00000000E+00
  0.00000000E+00  0.00000000E+00  0.00000000E+00
  0.00000000E+00  0.00000000E+00  0.00000000E+00
  0.00000000E+00  0.00000000E+00  0.00000000E+00
  0.00000000E+00  0.00000000E+00  0.00000000E+00
  0.00000000E+00  0.00000000E+00  0.00000000E+00
  0.00000000E+00  0.00000000E+00  0.00000000E+00
  0.00000000E+00  0.00000000E+00  0.00000000E+00
  0.00000000E+00  0.00000000E+00  0.00000000E+00
  0.00000000E+00  0.00000000E+00  0.00000000E+00
  0.00000000E+00  0.00000000E+00  0.00000000E+00
  0.00000000E+00  0.00000000E+00  0.00000000E+00
  0.00000000E+00  0.00000000E+00  0.00000000E+00
  0.00000000E+00  0.00000000E+00  0.00000000E+00
  0.00000000E+00  0.00000000E+00  0.00000000E+00
  0.00000000E+00  0.00000000E+00  0.00000000E+00
  0.00000000E+00  0.00000000E+00  0.00000000E+00
  0.00000000E+00  0.00000000E+00  0.00000000E+00
  0.00000000E+00  0.00000000E+00  0.00000000E+00
  0.00000000E+00  0.00000000E+00  0.00000000E+00
  0.00000000E+00  0.00000000E+00  0.00000000E+00
  0.00000000E+00  0.00000000E+00  0.00000000E+00
  0.00000000E+00  0.00000000E+00  0.00000000E+00
  0.00000000E+00  0.00000000E+00  0.00000000E+00
  0.00000000E+00  0.00000000E+00  0.00000000E+00
  0.00000000E+00  0.00000000E+00  0.00000000E+00
  0.00000000E+00  0.00000000E+00  0.00000000E+00
  0.00000000E+00  0.00000000E+00  0.00000000E+00
  0.00000000E+00  0.00000000E+00  0.00000000E+00
  0.00000000E+00  0.00000000E+00  0.00000000E+00
  0.00000000E+00  0.00000000E+00  0.00000000E+00
  0.00000000E+00  0.00000000E+00  0.00000000E+00
  0.00000000E+00  0.00000000E+00  0.00000000E+00
  0.00000000E+00  0.00000000E+00  0.00000000E+00
  0.00000000E+00  0.00000000E+00  0.00000000E+00
  0.00000000E+00  0.00000000E+00  0.00000000E+00
  0.00000000E+00  0.00000000E+00  0.00000000E+00
  0.00000000E+00  0.00000000E+00  0.00000000E+00
  0.00000000E+00  0.00000000E+00  0.00000000E+00
  0.00000000E+00  0.00000000E+00  0.00000000E+00
  0.00000000E+00  0.00000000E+00  0.00000000E+00
  0.00000000E+00  0.00000000E+00  0.00000000E+00
  0.00000000E+00  0.00000000E+00  0.00000000E+00
  0.00000000E+00  0.00000000E+00  0.00000000E+00
  0.00000000E+00  0.00000000E+00  0.00000000E+00
  0.00000000E+00  0.00000000E+00  0.00000000E+00
  0.00000000E+00  0.00000000E+00  0.00000000E+00
  0.00000000E+00  0.00000000E+00  0.00000000E+00
  0.00000000E+00  0.00000000E+00  0.00000000E+00
  0.00000000E+00  0.00000000E+00  0.00000000E+00
  0.00000000E+00  0.00000000E+00  0.00000000E+00
  0.00000000E+00  0.00000000E+00  0.00000000E+00
  0.00000000E+00  0.00000000E+00  0.00000000E+00
  0.00000000E+00  0.00000000E+00  0.00000000E+00
  0.00000000E+00  0.00000000E+00  0.00000000E+00
  0.00000000E+00  0.00000000E+00  0.00000000E+00
  0.00000000E+00  0.00000000E+00  0.00000000E+00
  0.00000000E+00  0.00000000E+00  0.00000000E+00
  0.00000000E+00  0.00000000E+00  0.00000000E+00
  0.00000000E+00  0.00000000E+00  0.00000000E+00
  0.00000000E+00  0.00000000E+00  0.00000000E+00
  0.00000000E+00  0.00000000E+00  0.00000000E+00
  0.00000000E+00  0.00000000E+00  0.00000000E+00
  0.00000000E+00  0.00000000E+00  0.00000000E+00
  0.00000000E+00  0.00000000E+00  0.00000000E+00
  0.00000000E+00  0.00000000E+00  0.00000000E+00
  0.00000000E+00  0.00000000E+00  0.00000000E+00
  0.00000000E+00  0.00000000E+00  0.00000000E+00
  0.00000000E+00  0.00000000E+00  0.00000000E+00
  0.00000000E+00  0.00000000E+00  0.00000000E+00
  0.00000000E+00  0.00000000E+00  0.00000000E+00
  0.00000000E+00  0.00000000E+00  0.00000000E+00
  0.00000000E+00  0.00000000E+00  0.00000000E+00
  0.00000000E+00  0.00000000E+00  0.00000000E+00
  0.00000000E+00  0.00000000E+00  0.00000000E+00
  0.00000000E+00  0.00000000E+00  0.00000000E+00
  0.00000000E+00  0.00000000E+00  0.00000000E+00
  0.00000000E+00  0.00000000E+00  0.00000000E+00
  0.00000000E+00  0.00000000E+00  0.00000000E+00
  0.00000000E+00  0.00000000E+00  0.00000000E+00
  0.00000000E+00  0.00000000E+00  0.00000000E+00
  0.00000000E+00  0.00000000E+00  0.00000000E+00
  0.00000000E+00  0.00000000E+00  0.00000000E+00
  0.00000000E+00  0.00000000E+00  0.00000000E+00
  0.00000000E+00  0.00000000E+00  0.00000000E+00
  0.00000000E+00  0.00000000E+00  0.00000000E+00
  0.00000000E+00  0.00000000E+00  0.00000000E+00
  0.00000000E+00  0.00000000E+00  0.00000000E+00
  0.00000000E+00  0.00000000E+00  0.00000000E+00
  0.00000000E+00  0.00000000E+00  0.00000000E+00
  0.00000000E+00  0.00000000E+00  0.00000000E+00
  0.00000000E+00  0.00000000E+00  0.00000000E+00
  0.00000000E+00  0.00000000E+00  0.00000000E+00
  0.00000000E+00  0.00000000E+00  0.00000000E+00
  0.00000000E+00  0.00000000E+00  0.00000000E+00
  0.00000000E+00  0.00000000E+00  0.00000000E+00
  0.00000000E+00  0.00000000E+00  0.00000000E+00
  0.00000000E+00  0.00000000E+00  0.00000000E+00
  0.00000000E+00  0.00000000E+00  0.00000000E+00
  0.00000000E+00  0.00000000E+00  0.00000000E+00
  0.00000000E+00  0.00000000E+00  0.00000000E+00
  0.00000000E+00  0.00000000E+00  0.00000000E+00
  0.00000000E+00  0.00000000E+00  0.00000000E+00
  0.00000000E+00  0.00000000E+00  0.00000000E+00
  0.00000000E+00  0.00000000E+00  0.00000000E+00
  0.00000000E+00  0.00000000E+00  0.00000000E+00
  0.00000000E+00  0.00000000E+00  0.00000000E+00
  0.00000000E+00  0.00000000E+00  0.00000000E+00
  0.00000000E+00  0.00000000E+00  0.00000000E+00
  0.00000000E+00  0.00000000E+00  0.00000000E+00
  0.00000000E+00  0.00000000E+00  0.00000000E+00
  0.00000000E+00  0.00000000E+00  0.00000000E+00
  0.00000000E+00  0.00000000E+00  0.00000000E+00
  0.00000000E+00  0.00000000E+00  0.00000000E+00
  0.00000000E+00  0.00000000E+00  0.00000000E+00
  0.00000000E+00  0.00000000E+00  0.00000000E+00
  0.00000000E+00  0.00000000E+00  0.00000000E+00
