Amorphous Sb                            
   1.00000000000000     
    20.1278869700586895    0.0000000000000000    0.0000000000000000
     0.0000000000000000   20.1278869700586895    0.0000000000000000
     0.0000000000000000    0.0000000000000000   20.1278869700586895
   Ge   Sn   Se
   140    10   150
Direct
  0.5168421864755914  0.6871530790760746  0.7872812944747031
  0.2104611317034552  0.4244937925026666  0.8025208971103552
  0.3860607536295599  0.3135649809609561  0.6078646517853145
  0.8247808145349608  0.0273677414103788  0.6496896897379824
  0.8962933193367753  0.6266864936629721  0.6634175696621698
  0.2248606195874455  0.7045860293082403  0.9334527439097849
  0.1186383710088096  0.1627465818038037  0.3650746353137129
  0.3337811793003637  0.6310480760883751  0.8023954150140908
  0.3520006730633020  0.8543221484048736  0.2167627083087246
  0.3690869350154140  0.0118197631483406  0.4203862971193615
  0.0126455751789080  0.0305818930863728  0.4538929339064987
  0.6096431926021768  0.3314689373810736  0.8571028220060913
  0.6025346581412820  0.4426661588852329  0.5932642040791175
  0.2549402676023054  0.0142206363274273  0.8598191539646387
  0.6815078186370006  0.9527620429010034  0.3964469279089149
  0.0381598408027266  0.7781848033242398  0.0840191566812950
  0.0469306555218795  0.7638381721850662  0.3328536162283390
  0.8205060897382628  0.3959926284131836  0.3549058397383569
  0.1090291341634681  0.4570037734128106  0.9641788262055527
  0.0585367352289786  0.9124759401644620  0.5031439901127880
  0.1490623093075634  0.8317929746860465  0.2004590202660674
  0.4331583319823596  0.7567855487984486  0.9583213457810417
  0.9842376724994630  0.1601056173292867  0.9363723611681654
  0.0332239160400741  0.0760877994291726  0.1291330901988319
  0.5463062782422156  0.3281141598922941  0.1909954294224978
  0.3773186528513138  0.1367072269817328  0.5833241377189810
  0.4370788393121483  0.7526271723432071  0.5218482837317336
  0.7998045915249751  0.9208685079242457  0.9993654480422084
  0.7602360723454188  0.5541282672605946  0.6029600871608490
  0.9506959873262557  0.7725716311325044  0.5848006965675383
  0.0828402623485613  0.3536686929716393  0.7499041328889910
  0.0345353688166651  0.1014554272232024  0.2565583297288070
  0.9080061179468180  0.4946686408002032  0.4793658916480276
  0.3936757812969603  0.4521947167648672  0.2817299518972148
  0.0322251704430296  0.5432484283665590  0.5849436797539264
  0.7494492168509557  0.6830998480929101  0.1843288628754465
  0.4481955964028745  0.4727599979056311  0.9206832525648589
  0.2717073794970535  0.0479425678798550  0.2282184187378738
  0.2512891671486660  0.3724698956920802  0.1320558466505217
  0.7475918929787106  0.3818242565218440  0.7709262473953048
  0.8419589115270864  0.8270868731005363  0.3808774537852238
  0.9186782359960229  0.1845274611466102  0.5607721766380263
  0.5941882188379468  0.8527337139363327  0.5237850866416006
  0.3705215028432955  0.9830542043886042  0.0912401443497806
  0.3512629869291895  0.6514304533170513  0.2138488204347593
  0.3969986596199954  0.4532358915725144  0.5046560799704773
  0.9040613684371283  0.7767436635316398  0.1783044821274847
  0.0390275661967180  0.3517698527542501  0.4040888208849308
  0.9887016606190437  0.7397603175444419  0.8037747600547706
  0.5525558176674775  0.0724752188270836  0.2939167909072121
  0.2596779826212230  0.4366354244048452  0.9525458223553209
  0.0501259058949283  0.2816878825592414  0.1534787699188300
  0.6271620653611547  0.7497700892868301  0.8091587937619221
  0.5785952481606648  0.2890276337261995  0.7377217895476109
  0.0553300287889984  0.5828669304664873  0.3467404849195376
  0.0322567340133553  0.9237813817512579  0.2187516459432305
  0.1885983114575562  0.5815455163450775  0.4515115418690456
  0.9556640294509319  0.3320232934114332  0.5878565225949831
  0.0996183860345506  0.0580567739885358  0.8235682294076994
  0.5156624783719157  0.4499769805968943  0.3374312668396455
  0.6886894457839845  0.1018562019648556  0.1535833793571500
  0.5334101976831204  0.6775130491353358  0.2069514303609823
  0.9253363933376058  0.6601192135894459  0.3255724468557383
  0.8591242289566693  0.0210838181870827  0.8365424412617877
  0.5651491544363265  0.8267985973649409  0.0101522104647047
  0.0702503207136355  0.3355611132080175  0.9310390815233122
  0.8224989186794238  0.8620380940465918  0.5327336900114289
  0.7414534477036957  0.7497361402967270  0.6829166237447525
  0.8232792914493291  0.2317991061713102  0.1548582022454555
  0.8330661962121026  0.3227117046269086  0.0338095206580886
  0.9475257835393146  0.4117246607248710  0.7413288489516068
  0.4059263512618009  0.1609520351443474  0.1630379789984591
  0.3589210585960821  0.5542659782664378  0.4338040198107896
  0.4889975669474386  0.8388006298454421  0.3706665372510672
  0.3256439948104485  0.4462387965573539  0.6528765197983636
  0.6842679650641287  0.9482566999568928  0.0932232669942286
  0.2455597302522580  0.2478371484415192  0.1762206538252475
  0.8714008068779782  0.0497582874802125  0.0648796198520089
  0.2578394026246652  0.8535560939112108  0.9251282273637597
  0.3559127775172881  0.2585362936691062  0.0258120836104150
  0.6444074086310153  0.9945953645939627  0.8811924934896400
  0.9709786010621886  0.5965858177719866  0.8445472299569162
  0.7936587229685056  0.4815391775731062  0.0648738594809011
  0.7722329865487069  0.5219147211214659  0.3505909869635717
  0.3595279450188947  0.0837954404970569  0.7121592138525534
  0.5934623205265050  0.1328152796751374  0.0335373373395242
  0.5423032050775223  0.6526119831934247  0.6138486646178979
  0.7642419750398415  0.3456993476541400  0.5189239451005466
  0.6531508312755198  0.5678532426893118  0.1646546923220766
  0.5166709527170851  0.2299724805551546  0.3510211148071797
  0.6048631268915677  0.1141945282092234  0.9028103674244558
  0.1073227451738043  0.1132268621177108  0.5868210244002673
  0.2976603262993684  0.5966279627638633  0.5985716535307288
  0.7570385955542998  0.0479434392290167  0.4826509238020666
  0.6635919894816535  0.9304213821597388  0.6138419072432185
  0.6848750496625705  0.7014775056550320  0.5172212633501135
  0.4217192079670146  0.9599474216991650  0.9351123377046430
  0.1590199576003614  0.4650918651347595  0.6460396841430794
  0.1597649591757996  0.7604512854691542  0.4682322628566382
  0.2056092461333003  0.1293828835762511  0.8361980593385179
  0.1107906439906901  0.4274894073501121  0.2336818250425798
  0.5289336469953700  0.2872288526757140  0.9454199831807673
  0.2358394763424979  0.5100890030078240  0.0849983760158620
  0.8746788542428102  0.0622294982828081  0.1994142827695667
  0.4430700874436180  0.8412455026804450  0.7123733417233135
  0.7222161142716027  0.7177664756442184  0.9754976319466806
  0.9917817515571584  0.4743050532969300  0.0174180765303777
  0.0572744816783975  0.6567640594199654  0.0376679589458474
  0.6918269090038552  0.1710434736670466  0.7318864894527083
  0.7100748542845696  0.9231706881525734  0.7948677792202087
  0.1104062248746535  0.8865514281394091  0.6831840173503646
  0.1577500849060935  0.9574956398917442  0.0593289140173463
  0.1552205038414679  0.9612580042991311  0.3653726143145234
  0.7439375786055906  0.1510252425862222  0.3126377506621813
  0.7463827290624562  0.8146273573199400  0.2935888665164058
  0.7320149474827536  0.6471152063113919  0.3992269866083036
  0.4056990804115270  0.2838908426693774  0.3029424874498506
  0.6818060625703187  0.5914379093333925  0.7307165093588954
  0.3131199062248061  0.2256664722508709  0.4550087952068993
  0.0805988837404003  0.9340995304332592  0.7970004296774547
  0.9209559136741704  0.4456759041445665  0.2020263187522727
  0.8378492028155737  0.2171428494966830  0.3790329932006066
  0.8031739729187135  0.6297106262253788  0.8202192586567759
  0.9535403972520683  0.9063838181633088  0.9520648607375367
  0.2171715975875667  0.4208743878786814  0.4009915228542123
  0.2270109643899318  0.7030495194430399  0.6755275276662465
  0.3852310570027612  0.9473549480587727  0.5454506392760564
  0.5532253139807752  0.8564028019694634  0.7833364922364952
  0.1583257849381762  0.1507728494861629  0.9849743228718788
  0.2803782595766685  0.8127163879044967  0.0624117185626205
  0.5499740514351341  0.5873789164304564  0.4284230942990279
  0.8935051824438189  0.7371748592931431  0.8976009946901331
  0.4580863472353757  0.1829261601456617  0.9309190078695825
  0.4453282228852554  0.5088434045264018  0.0986932475012256
  0.0535565545608388  0.7120353196085014  0.6319612261074049
  0.1765428448302748  0.6352199391187165  0.2006976579769157
  0.2982051368576729  0.2692200635339433  0.8035170405919938
  0.5419450814203499  0.0729298215501972  0.4812171073739870
  0.3604517543922345  0.7086326103220432  0.3451915787458991
  0.3129172543992351  0.8520998754916127  0.7262126327565076
  0.7079089233157094  0.3988957974908735  0.2266668201453049
  0.6044038218242893  0.4438392012265795  0.0238834093691671
  0.1859393722868367  0.9850052855889262  0.6169056861571208
  0.9111084092800669  0.2261283129846575  0.7655564004349606
  0.5919623060630398  0.2072336019960187  0.5551387907075501
  0.1016767729116035  0.2362227795201204  0.5190141561599605
  0.1435891727439458  0.6083485423038578  0.8151292662925934
  0.5326547146469224  0.8748694865894144  0.1892774794941404
  0.4371668289403871  0.4187500554364166  0.7495487085217618
  0.9086412503686568  0.4472848245490839  0.9127625436831791
  0.8656617961658770  0.1056217520001540  0.9149634053953980
  0.8571337222452108  0.9805414635046048  0.5103003890339753
  0.0745746708700851  0.7292648974548730  0.1983773610453339
  0.9392785766811548  0.4598502826928373  0.6217662794574179
  0.3291865128032834  0.7064439764131416  0.0085229905748527
  0.1248315293713766  0.0094296703326566  0.2474098414087035
  0.5790754480693369  0.4563667260384747  0.1612254947170076
  0.7038920067028956  0.0503742310807461  0.6025187597290151
  0.6011089766886129  0.2562205509124315  0.0356129799400623
  0.1321926092827694  0.0747704677787246  0.4668999597201982
  0.9316782046430780  0.8272546912531298  0.2906832263673521
  0.7603447216607054  0.0377359121553642  0.7694752954545595
  0.7932419183487472  0.7034103548894074  0.5793752941182739
  0.2897593537275642  0.7924618355004712  0.6192550306729281
  0.8722820497629937  0.6570545237240567  0.2096062559889697
  0.4693865390619901  0.1124923584870386  0.0298939828865664
  0.2846158860055255  0.1682054110667875  0.0891176270303708
  0.3775086934086777  0.8161083089164880  0.4292624346068760
  0.9467812714411982  0.0008088700282558  0.7538677834609374
  0.7077960041566080  0.2180365670366051  0.2141845347119661
  0.7119948029857452  0.0134424955609110  0.9849391083704362
  0.5669258613432270  0.1768162480028658  0.6891741953967138
  0.1484179690562892  0.0919757761838525  0.0950418561864609
  0.8761235914931709  0.4997952324037770  0.7969389935714501
  0.2075052307458007  0.3829835981353470  0.2815240505607294
  0.3236579096959502  0.3907315648941177  0.8508025399445752
  0.2684461893469356  0.7602101394555497  0.1788161150085546
  0.2802106468705208  0.9724275682135824  0.3340702156685335
  0.3400243684855574  0.5150266266626466  0.0163038304235553
  0.4003671714283908  0.0393066299873837  0.2049299645551070
  0.4544327298287897  0.2277606790621258  0.5372043362804743
  0.4183848544981398  0.3536431039451159  0.2001761859273997
  0.9514288108852088  0.0053841462515939  0.2801542183019216
  0.4140224922402095  0.8607850346285215  0.1070257343738382
  0.0974344269223314  0.4892155025487024  0.4171286363359988
  0.0623440535796050  0.4971324072668450  0.8522041821755572
  0.5399549873155380  0.4386700638465723  0.8362862459972823
  0.3162108774064537  0.9702054710300310  0.6556658308420757
  0.5266687186417054  0.1835316528990481  0.2339968225080311
  0.8992387394642092  0.5368134346007389  0.3486438815326697
  0.6062693737134180  0.5324465399830850  0.3300648886608212
  0.3382862704561310  0.1993445159186107  0.9118141444986972
  0.1801516147866465  0.9004715332322770  0.5133292554254670
  0.0155160245295458  0.2187060113915924  0.4151010296051687
  0.5408898661881488  0.9182713026459484  0.8942164804410758
  0.6058161964498111  0.9553247147275786  0.7273734263921594
  0.6975331802599730  0.4669322787183714  0.6824059826496677
  0.1561457409992600  0.8366287277009264  0.3278434647209081
  0.9142483936057126  0.3696744032163196  0.4363435133562373
  0.5457653725380303  0.7524508830189144  0.4453424788859078
  0.8497963553403280  0.3393635588985779  0.7074573974526310
  0.3131991091401678  0.6534239246017315  0.4867997161958528
  0.6766055988632831  0.1998545155843081  0.8550089066100470
  0.3036560297089912  0.0977610587738823  0.4865902664185680
  0.7801026667679326  0.8106945475264127  0.1747094547294616
  0.7628448520868653  0.5257482122415386  0.2168577033717267
  0.1495253950870873  0.6709664430800664  0.3654658315632396
  0.0314040672529807  0.8486094245480926  0.8698995489610269
  0.7891885438880585  0.4133290540166822  0.9514129172870355
  0.9889875705538238  0.0719686887080926  0.5716542908504242
  0.2592160622793200  0.9454106714073118  0.1493047712810718
  0.5544546587564949  0.5858686886619274  0.7235084398294486
  0.0067432220853007  0.8936663646534543  0.6177329284500781
  0.1308299277637946  0.2811019480897217  0.8418350012777620
  0.5224062030037407  0.3652893858366483  0.6562009180816458
  0.2830599443139484  0.2480322219772551  0.5746376490934973
  0.2645273934441425  0.9737505373575593  0.9754451860244899
  0.7805127898925261  0.1389028859590689  0.0756065349042330
  0.8727111048789448  0.6183227581178542  0.9302248166233904
  0.8993409989245343  0.1749830937951187  0.2370707204846293
  0.5161618250388814  0.4660414078719235  0.4632436146516757
  0.5750485361322284  0.3435303615540358  0.3133193500124462
  0.6442606648874744  0.5855313818378061  0.5525756626866700
  0.6871497742674543  0.7037081193689830  0.2971797641744826
  0.4461989905396922  0.7618739563897439  0.2658529954578483
  0.1175007341979987  0.7697700037365578  0.7224961197034929
  0.7748774419955962  0.7530641234438521  0.8645032307999881
  0.5894647407244407  0.7639584873030879  0.1329821060125459
  0.9011593177436583  0.7528330086986726  0.7054302141251241
  0.0768174147634573  0.2465037816483536  0.0164063058653667
  0.8458915624442782  0.9081922964554513  0.8776718530252177
  0.6982397452746417  0.8437245751151115  0.0048695508379579
  0.7636098706581410  0.0431786430562111  0.2525267075284735
  0.2461980030485106  0.5220815407769808  0.7249272235581703
  0.7803388306815243  0.4781677030636038  0.4947854300559773
  0.4058977057247865  0.2813859610314533  0.7358969321410699
  0.0075810138783776  0.9596992535535956  0.1006031790635031
  0.4371992874629259  0.6045116039936788  0.3538390036805502
  0.1355740040736057  0.2171056331635253  0.2199304396843615
  0.0357946007989021  0.7950010901488050  0.4652762696720509
  0.7452496290416022  0.3075843250575455  0.3947283779575537
  0.4397568465821255  0.7186744726495689  0.6994396670178937
  0.6531456306512053  0.8895188793884730  0.2883656802779724
  0.3815557247346771  0.8490796787381175  0.8862281137777442
  0.1498029271729389  0.8181274064796051  0.0365700188797956
  0.8113097985794859  0.1671175428035259  0.4933955284006019
  0.7139676921204916  0.8457844568165712  0.4648883751919775
  0.0177993921395911  0.2643908098433631  0.6834701146550632
  0.6981497738915681  0.5720507032785074  0.8496497294212871
  0.2499580917492212  0.3261437016990187  0.0137331647324537
  0.4386662743019538  0.6533303019182310  0.8779239996055317
  0.0643776009569107  0.6721215403770024  0.9150720724756004
  0.5645378578235772  0.9512827004991115  0.0800017462807513
  0.4583752625606604  0.3718251741861227  0.9970523130193315
  0.9072589365272959  0.7989716022279908  0.0007014724977098
  0.6391245449919444  0.1271569812235387  0.3715040483199965
  0.2505514954110210  0.5820130731758437  0.8933787454581595
  0.2443430414282132  0.4856467120578544  0.5532089446877007
  0.5016362346351866  0.1205676963465449  0.8396182582629551
  0.4093851646751939  0.5354420934291151  0.6067629949794958
  0.2048903268049167  0.9080315777875639  0.8161215755410756
  0.0643598545297057  0.0609291211267183  0.9407697262512955
  0.2650776063237689  0.5322784689873608  0.3594563950907911
  0.9548710776183710  0.1456383198935279  0.0618235953145555
  0.2046480818906036  0.3527314645987010  0.6941953105972810
  0.3197081311711096  0.2016805138017260  0.2664128158867812
  0.2689137990280097  0.7377057479456824  0.8101098448652693
  0.8423293052111797  0.7041098601246544  0.4114328597540263
  0.0818552493563127  0.5445337177392898  0.2250554039607722
  0.9704340093479376  0.5779239208023117  0.0731487874171770
  0.1903241600931551  0.2540456479890273  0.4204727436345551
  0.2494527504600193  0.1390490389167812  0.7209938823118132
  0.9536503921601939  0.3253031259221413  0.8892693669383632
  0.8461672472327108  0.3506153303421511  0.2435581124557609
  0.5615317981490434  0.9542135679554289  0.4390793640014018
  0.6917733253147459  0.5537281623639443  0.0445988069153511
  0.3709463960741201  0.0125498137385693  0.8287076385682850
  0.5162392542733900  0.5461801341025874  0.0017073470525071
  0.6384308419978706  0.3451747853629355  0.5224970814510289
  0.6210616442639222  0.7550629395789470  0.6250330202058985
  0.2834578255289497  0.5475929601749505  0.1929005974599441
  0.0689905319810774  0.3628627820119415  0.5363597555884572
  0.7701167228448809  0.8776833795102281  0.6532938420549920
  0.4394305802714003  0.6383183727150407  0.1278520743836631
  0.1737341416137989  0.6276413156293648  0.0712201396283349
  0.6046694824503980  0.7222756298648338  0.9292775462648395
  0.6939609732093825  0.2951602725539526  0.6939248104193615
  0.4704560703194545  0.8635692345494410  0.5896744397042034
  0.3557962322112804  0.3725106674001387  0.3743439793938274
  0.1462803375605483  0.6713447423421200  0.5648439466764388
  0.8469789895773381  0.1576556835496103  0.6603310925205533
  0.0091144204567368  0.3705601853476215  0.2614553114795622
  0.9385863789661876  0.3839618545573480  0.0862446669473494
  0.1238552764094561  0.3834170151756729  0.1204880771672928
  0.4628595093310247  0.0987378438183093  0.3839952891364244
  0.9437370152271839  0.6284085494617166  0.5447423284657222
  0.0091923540039541  0.1004627426470572  0.7513787983328206
  0.0257360282522316  0.6087707308912108  0.6968744983933319
  0.7328742110110297  0.3732880691234191  0.0954497744449524
  0.4654308872289914  0.0397032899259562  0.5749779683071762
 
  0.00000000E+00  0.00000000E+00  0.00000000E+00
  0.00000000E+00  0.00000000E+00  0.00000000E+00
  0.00000000E+00  0.00000000E+00  0.00000000E+00
  0.00000000E+00  0.00000000E+00  0.00000000E+00
  0.00000000E+00  0.00000000E+00  0.00000000E+00
  0.00000000E+00  0.00000000E+00  0.00000000E+00
  0.00000000E+00  0.00000000E+00  0.00000000E+00
  0.00000000E+00  0.00000000E+00  0.00000000E+00
  0.00000000E+00  0.00000000E+00  0.00000000E+00
  0.00000000E+00  0.00000000E+00  0.00000000E+00
  0.00000000E+00  0.00000000E+00  0.00000000E+00
  0.00000000E+00  0.00000000E+00  0.00000000E+00
  0.00000000E+00  0.00000000E+00  0.00000000E+00
  0.00000000E+00  0.00000000E+00  0.00000000E+00
  0.00000000E+00  0.00000000E+00  0.00000000E+00
  0.00000000E+00  0.00000000E+00  0.00000000E+00
  0.00000000E+00  0.00000000E+00  0.00000000E+00
  0.00000000E+00  0.00000000E+00  0.00000000E+00
  0.00000000E+00  0.00000000E+00  0.00000000E+00
  0.00000000E+00  0.00000000E+00  0.00000000E+00
  0.00000000E+00  0.00000000E+00  0.00000000E+00
  0.00000000E+00  0.00000000E+00  0.00000000E+00
  0.00000000E+00  0.00000000E+00  0.00000000E+00
  0.00000000E+00  0.00000000E+00  0.00000000E+00
  0.00000000E+00  0.00000000E+00  0.00000000E+00
  0.00000000E+00  0.00000000E+00  0.00000000E+00
  0.00000000E+00  0.00000000E+00  0.00000000E+00
  0.00000000E+00  0.00000000E+00  0.00000000E+00
  0.00000000E+00  0.00000000E+00  0.00000000E+00
  0.00000000E+00  0.00000000E+00  0.00000000E+00
  0.00000000E+00  0.00000000E+00  0.00000000E+00
  0.00000000E+00  0.00000000E+00  0.00000000E+00
  0.00000000E+00  0.00000000E+00  0.00000000E+00
  0.00000000E+00  0.00000000E+00  0.00000000E+00
  0.00000000E+00  0.00000000E+00  0.00000000E+00
  0.00000000E+00  0.00000000E+00  0.00000000E+00
  0.00000000E+00  0.00000000E+00  0.00000000E+00
  0.00000000E+00  0.00000000E+00  0.00000000E+00
  0.00000000E+00  0.00000000E+00  0.00000000E+00
  0.00000000E+00  0.00000000E+00  0.00000000E+00
  0.00000000E+00  0.00000000E+00  0.00000000E+00
  0.00000000E+00  0.00000000E+00  0.00000000E+00
  0.00000000E+00  0.00000000E+00  0.00000000E+00
  0.00000000E+00  0.00000000E+00  0.00000000E+00
  0.00000000E+00  0.00000000E+00  0.00000000E+00
  0.00000000E+00  0.00000000E+00  0.00000000E+00
  0.00000000E+00  0.00000000E+00  0.00000000E+00
  0.00000000E+00  0.00000000E+00  0.00000000E+00
  0.00000000E+00  0.00000000E+00  0.00000000E+00
  0.00000000E+00  0.00000000E+00  0.00000000E+00
  0.00000000E+00  0.00000000E+00  0.00000000E+00
  0.00000000E+00  0.00000000E+00  0.00000000E+00
  0.00000000E+00  0.00000000E+00  0.00000000E+00
  0.00000000E+00  0.00000000E+00  0.00000000E+00
  0.00000000E+00  0.00000000E+00  0.00000000E+00
  0.00000000E+00  0.00000000E+00  0.00000000E+00
  0.00000000E+00  0.00000000E+00  0.00000000E+00
  0.00000000E+00  0.00000000E+00  0.00000000E+00
  0.00000000E+00  0.00000000E+00  0.00000000E+00
  0.00000000E+00  0.00000000E+00  0.00000000E+00
  0.00000000E+00  0.00000000E+00  0.00000000E+00
  0.00000000E+00  0.00000000E+00  0.00000000E+00
  0.00000000E+00  0.00000000E+00  0.00000000E+00
  0.00000000E+00  0.00000000E+00  0.00000000E+00
  0.00000000E+00  0.00000000E+00  0.00000000E+00
  0.00000000E+00  0.00000000E+00  0.00000000E+00
  0.00000000E+00  0.00000000E+00  0.00000000E+00
  0.00000000E+00  0.00000000E+00  0.00000000E+00
  0.00000000E+00  0.00000000E+00  0.00000000E+00
  0.00000000E+00  0.00000000E+00  0.00000000E+00
  0.00000000E+00  0.00000000E+00  0.00000000E+00
  0.00000000E+00  0.00000000E+00  0.00000000E+00
  0.00000000E+00  0.00000000E+00  0.00000000E+00
  0.00000000E+00  0.00000000E+00  0.00000000E+00
  0.00000000E+00  0.00000000E+00  0.00000000E+00
  0.00000000E+00  0.00000000E+00  0.00000000E+00
  0.00000000E+00  0.00000000E+00  0.00000000E+00
  0.00000000E+00  0.00000000E+00  0.00000000E+00
  0.00000000E+00  0.00000000E+00  0.00000000E+00
  0.00000000E+00  0.00000000E+00  0.00000000E+00
  0.00000000E+00  0.00000000E+00  0.00000000E+00
  0.00000000E+00  0.00000000E+00  0.00000000E+00
  0.00000000E+00  0.00000000E+00  0.00000000E+00
  0.00000000E+00  0.00000000E+00  0.00000000E+00
  0.00000000E+00  0.00000000E+00  0.00000000E+00
  0.00000000E+00  0.00000000E+00  0.00000000E+00
  0.00000000E+00  0.00000000E+00  0.00000000E+00
  0.00000000E+00  0.00000000E+00  0.00000000E+00
  0.00000000E+00  0.00000000E+00  0.00000000E+00
  0.00000000E+00  0.00000000E+00  0.00000000E+00
  0.00000000E+00  0.00000000E+00  0.00000000E+00
  0.00000000E+00  0.00000000E+00  0.00000000E+00
  0.00000000E+00  0.00000000E+00  0.00000000E+00
  0.00000000E+00  0.00000000E+00  0.00000000E+00
  0.00000000E+00  0.00000000E+00  0.00000000E+00
  0.00000000E+00  0.00000000E+00  0.00000000E+00
  0.00000000E+00  0.00000000E+00  0.00000000E+00
  0.00000000E+00  0.00000000E+00  0.00000000E+00
  0.00000000E+00  0.00000000E+00  0.00000000E+00
  0.00000000E+00  0.00000000E+00  0.00000000E+00
  0.00000000E+00  0.00000000E+00  0.00000000E+00
  0.00000000E+00  0.00000000E+00  0.00000000E+00
  0.00000000E+00  0.00000000E+00  0.00000000E+00
  0.00000000E+00  0.00000000E+00  0.00000000E+00
  0.00000000E+00  0.00000000E+00  0.00000000E+00
  0.00000000E+00  0.00000000E+00  0.00000000E+00
  0.00000000E+00  0.00000000E+00  0.00000000E+00
  0.00000000E+00  0.00000000E+00  0.00000000E+00
  0.00000000E+00  0.00000000E+00  0.00000000E+00
  0.00000000E+00  0.00000000E+00  0.00000000E+00
  0.00000000E+00  0.00000000E+00  0.00000000E+00
  0.00000000E+00  0.00000000E+00  0.00000000E+00
  0.00000000E+00  0.00000000E+00  0.00000000E+00
  0.00000000E+00  0.00000000E+00  0.00000000E+00
  0.00000000E+00  0.00000000E+00  0.00000000E+00
  0.00000000E+00  0.00000000E+00  0.00000000E+00
  0.00000000E+00  0.00000000E+00  0.00000000E+00
  0.00000000E+00  0.00000000E+00  0.00000000E+00
  0.00000000E+00  0.00000000E+00  0.00000000E+00
  0.00000000E+00  0.00000000E+00  0.00000000E+00
  0.00000000E+00  0.00000000E+00  0.00000000E+00
  0.00000000E+00  0.00000000E+00  0.00000000E+00
  0.00000000E+00  0.00000000E+00  0.00000000E+00
  0.00000000E+00  0.00000000E+00  0.00000000E+00
  0.00000000E+00  0.00000000E+00  0.00000000E+00
  0.00000000E+00  0.00000000E+00  0.00000000E+00
  0.00000000E+00  0.00000000E+00  0.00000000E+00
  0.00000000E+00  0.00000000E+00  0.00000000E+00
  0.00000000E+00  0.00000000E+00  0.00000000E+00
  0.00000000E+00  0.00000000E+00  0.00000000E+00
  0.00000000E+00  0.00000000E+00  0.00000000E+00
  0.00000000E+00  0.00000000E+00  0.00000000E+00
  0.00000000E+00  0.00000000E+00  0.00000000E+00
  0.00000000E+00  0.00000000E+00  0.00000000E+00
  0.00000000E+00  0.00000000E+00  0.00000000E+00
  0.00000000E+00  0.00000000E+00  0.00000000E+00
  0.00000000E+00  0.00000000E+00  0.00000000E+00
  0.00000000E+00  0.00000000E+00  0.00000000E+00
  0.00000000E+00  0.00000000E+00  0.00000000E+00
  0.00000000E+00  0.00000000E+00  0.00000000E+00
  0.00000000E+00  0.00000000E+00  0.00000000E+00
  0.00000000E+00  0.00000000E+00  0.00000000E+00
  0.00000000E+00  0.00000000E+00  0.00000000E+00
  0.00000000E+00  0.00000000E+00  0.00000000E+00
  0.00000000E+00  0.00000000E+00  0.00000000E+00
  0.00000000E+00  0.00000000E+00  0.00000000E+00
  0.00000000E+00  0.00000000E+00  0.00000000E+00
  0.00000000E+00  0.00000000E+00  0.00000000E+00
  0.00000000E+00  0.00000000E+00  0.00000000E+00
  0.00000000E+00  0.00000000E+00  0.00000000E+00
  0.00000000E+00  0.00000000E+00  0.00000000E+00
  0.00000000E+00  0.00000000E+00  0.00000000E+00
  0.00000000E+00  0.00000000E+00  0.00000000E+00
  0.00000000E+00  0.00000000E+00  0.00000000E+00
  0.00000000E+00  0.00000000E+00  0.00000000E+00
  0.00000000E+00  0.00000000E+00  0.00000000E+00
  0.00000000E+00  0.00000000E+00  0.00000000E+00
  0.00000000E+00  0.00000000E+00  0.00000000E+00
  0.00000000E+00  0.00000000E+00  0.00000000E+00
  0.00000000E+00  0.00000000E+00  0.00000000E+00
  0.00000000E+00  0.00000000E+00  0.00000000E+00
  0.00000000E+00  0.00000000E+00  0.00000000E+00
  0.00000000E+00  0.00000000E+00  0.00000000E+00
  0.00000000E+00  0.00000000E+00  0.00000000E+00
  0.00000000E+00  0.00000000E+00  0.00000000E+00
  0.00000000E+00  0.00000000E+00  0.00000000E+00
  0.00000000E+00  0.00000000E+00  0.00000000E+00
  0.00000000E+00  0.00000000E+00  0.00000000E+00
  0.00000000E+00  0.00000000E+00  0.00000000E+00
  0.00000000E+00  0.00000000E+00  0.00000000E+00
  0.00000000E+00  0.00000000E+00  0.00000000E+00
  0.00000000E+00  0.00000000E+00  0.00000000E+00
  0.00000000E+00  0.00000000E+00  0.00000000E+00
  0.00000000E+00  0.00000000E+00  0.00000000E+00
  0.00000000E+00  0.00000000E+00  0.00000000E+00
  0.00000000E+00  0.00000000E+00  0.00000000E+00
  0.00000000E+00  0.00000000E+00  0.00000000E+00
  0.00000000E+00  0.00000000E+00  0.00000000E+00
  0.00000000E+00  0.00000000E+00  0.00000000E+00
  0.00000000E+00  0.00000000E+00  0.00000000E+00
  0.00000000E+00  0.00000000E+00  0.00000000E+00
  0.00000000E+00  0.00000000E+00  0.00000000E+00
  0.00000000E+00  0.00000000E+00  0.00000000E+00
  0.00000000E+00  0.00000000E+00  0.00000000E+00
  0.00000000E+00  0.00000000E+00  0.00000000E+00
  0.00000000E+00  0.00000000E+00  0.00000000E+00
  0.00000000E+00  0.00000000E+00  0.00000000E+00
  0.00000000E+00  0.00000000E+00  0.00000000E+00
  0.00000000E+00  0.00000000E+00  0.00000000E+00
  0.00000000E+00  0.00000000E+00  0.00000000E+00
  0.00000000E+00  0.00000000E+00  0.00000000E+00
  0.00000000E+00  0.00000000E+00  0.00000000E+00
  0.00000000E+00  0.00000000E+00  0.00000000E+00
  0.00000000E+00  0.00000000E+00  0.00000000E+00
  0.00000000E+00  0.00000000E+00  0.00000000E+00
  0.00000000E+00  0.00000000E+00  0.00000000E+00
  0.00000000E+00  0.00000000E+00  0.00000000E+00
  0.00000000E+00  0.00000000E+00  0.00000000E+00
  0.00000000E+00  0.00000000E+00  0.00000000E+00
  0.00000000E+00  0.00000000E+00  0.00000000E+00
  0.00000000E+00  0.00000000E+00  0.00000000E+00
  0.00000000E+00  0.00000000E+00  0.00000000E+00
  0.00000000E+00  0.00000000E+00  0.00000000E+00
  0.00000000E+00  0.00000000E+00  0.00000000E+00
  0.00000000E+00  0.00000000E+00  0.00000000E+00
  0.00000000E+00  0.00000000E+00  0.00000000E+00
  0.00000000E+00  0.00000000E+00  0.00000000E+00
  0.00000000E+00  0.00000000E+00  0.00000000E+00
  0.00000000E+00  0.00000000E+00  0.00000000E+00
  0.00000000E+00  0.00000000E+00  0.00000000E+00
  0.00000000E+00  0.00000000E+00  0.00000000E+00
  0.00000000E+00  0.00000000E+00  0.00000000E+00
  0.00000000E+00  0.00000000E+00  0.00000000E+00
  0.00000000E+00  0.00000000E+00  0.00000000E+00
  0.00000000E+00  0.00000000E+00  0.00000000E+00
  0.00000000E+00  0.00000000E+00  0.00000000E+00
  0.00000000E+00  0.00000000E+00  0.00000000E+00
  0.00000000E+00  0.00000000E+00  0.00000000E+00
  0.00000000E+00  0.00000000E+00  0.00000000E+00
  0.00000000E+00  0.00000000E+00  0.00000000E+00
  0.00000000E+00  0.00000000E+00  0.00000000E+00
  0.00000000E+00  0.00000000E+00  0.00000000E+00
  0.00000000E+00  0.00000000E+00  0.00000000E+00
  0.00000000E+00  0.00000000E+00  0.00000000E+00
  0.00000000E+00  0.00000000E+00  0.00000000E+00
  0.00000000E+00  0.00000000E+00  0.00000000E+00
  0.00000000E+00  0.00000000E+00  0.00000000E+00
  0.00000000E+00  0.00000000E+00  0.00000000E+00
  0.00000000E+00  0.00000000E+00  0.00000000E+00
  0.00000000E+00  0.00000000E+00  0.00000000E+00
  0.00000000E+00  0.00000000E+00  0.00000000E+00
  0.00000000E+00  0.00000000E+00  0.00000000E+00