Sb                                      
   1.00000000000000     
    18.7580876959016329    0.0000000000000000    0.0000000000000000
     0.0000000000000000   18.7580876959016329    0.0000000000000000
     0.0000000000000000    0.0000000000000000   18.7580876959016329
   Sb   Si
   195    21
Direct
  0.0778099633465502  0.0852977788308276  0.6760436939732432
  0.5836629854756654  0.7649417991522158  0.3327062741923124
  0.4027755846557101  0.2575822614589059  0.8451398325787391
  0.7482536392447404  0.0900777912897255  0.0411577140252605
  0.9243844064354699  0.9324294045173875  0.5147340078150034
  0.7576010600509776  0.4123655894142402  0.8332400657967324
  0.2656125734257143  0.9286918065834064  0.1734291607825817
  0.2710583881198327  0.0972627687721197  0.3427094012284418
  0.2707236595061127  0.7640100281720925  0.3403922786984993
  0.7292013044354193  0.7554839580533514  0.0330007964872706
  0.0876724822160150  0.4317334650245486  0.5120370218492074
  0.5896670079016375  0.2788288801958874  0.1769541975210246
  0.4024676572238345  0.7573322541223656  0.6761706939309017
  0.4329459733902142  0.0958330576809470  0.1851911234051524
  0.0830088550394437  0.0810596330695279  0.0153362647841581
  0.7489545853509896  0.1139583968605773  0.8500435505209787
  0.5877672959969837  0.0959388126750512  0.0172574762696076
  0.9058911662353630  0.7634875662566275  0.0153935393457732
  0.5773931860294403  0.2549630944100751  0.6882302593638732
  0.9234811026219369  0.2646280554267946  0.5108040226330723
  0.5821136822177199  0.9224067713667409  0.3452280422860973
  0.0794241485554790  0.4210414243195852  0.0183472889030868
  0.4139942155775214  0.5891045663210115  0.1821129811639116
  0.7533662662970090  0.6031481554767636  0.0022564707764103
  0.7466404360217025  0.2472409799343861  0.1881861897831675
  0.2596659420747380  0.2625798186120773  0.1646997978751444
  0.7542696165432031  0.6001900677946533  0.6696337563613839
  0.9181725785758268  0.2748417042239052  0.1764343841459574
  0.0894817748930733  0.4357211867578638  0.1763746559623541
  0.7359983831564676  0.5863349125090799  0.8420914116635680
  0.4231653691802467  0.4328269915665415  0.8394440590482697
  0.0842588389063302  0.0920338638772652  0.3613451637979717
  0.5899544453009987  0.5992550514543374  0.1656877486489434
  0.0798771611638267  0.2489324557930226  0.8403577827891817
  0.0906460475188175  0.7635900136812643  0.1763420761713665
  0.2499374027551329  0.7552835507599327  0.1815889876870501
  0.5768260761368175  0.7579745828054220  0.5072135192712577
  0.0815061584449256  0.2435908891796823  0.5163968766004501
  0.4157842859775722  0.0872872438268381  0.0219559965832463
  0.2632540916606901  0.7630250850689243  0.0034166909421297
  0.9153802119975352  0.5919339603051262  0.3520632675009058
  0.2557009876321011  0.4350874239084508  0.6742245141830752
  0.7443135772320271  0.4237321406338860  0.3591816874104897
  0.2550608879388468  0.0860731563092917  0.1837900406256016
  0.9195950318422736  0.0948118315481029  0.6770156798892139
  0.9214995493701837  0.6054101338565003  0.1780659193305558
  0.9229600664447842  0.7612730128926345  0.6804191767539829
  0.0888259725587456  0.5966658668270081  0.6771383382801596
  0.2552852521709044  0.0950076891276207  0.0050562346376435
  0.5757828165315702  0.9196108341519100  0.6888206159372295
  0.8989586210834880  0.7626707789773036  0.1897727883051065
  0.9046881859211062  0.7453668624767891  0.8522605234254443
  0.0904153552450042  0.2626385420552408  0.0055047565317850
  0.5807765968770832  0.7413651481464024  0.8364404168955142
  0.0811022496584522  0.7531694954920045  0.6844017886229082
  0.7582891302159001  0.9339092603906111  0.3451930483839531
  0.7460435681387337  0.5927394453642070  0.1785175057476817
  0.4254826208600733  0.9422347031285915  0.3484214350947116
  0.9196812028232915  0.0967197770692233  0.0129667044186052
  0.2369842152656232  0.0894305770156115  0.5148672827808604
  0.9261331175548358  0.7667860610067102  0.3477883652952787
  0.9056128516763541  0.0852413101072241  0.8556883354188740
  0.4202688373676614  0.9295303258882935  0.6576861500337552
  0.2516629995453326  0.9211129269726261  0.3499472605056606
  0.2441635556372387  0.5884584777397300  0.0140835287230489
  0.0747869616482566  0.9137012993166131  0.8526102172965446
  0.2467082990143314  0.9096053271167309  0.6806516753582784
  0.9195956198480658  0.4357107384752009  0.3417763631492572
  0.4208645475662445  0.2637088207903996  0.0036120362011736
  0.0934528109858733  0.9342549120632095  0.3430096045252100
  0.4201611982081598  0.1046973581135805  0.4975638192155006
  0.9176816015780703  0.9367537954854058  0.1827732078606772
  0.4293432156164124  0.9322309555791242  0.0034058589035332
  0.2463086060245292  0.4201471569375226  0.1821762059657336
  0.2550851593645181  0.5996206961745595  0.5069496489833717
  0.4135302890254277  0.5907160425030110  0.8458478414261533
  0.2554450187122946  0.5970565944080729  0.1737377116524871
  0.4219016617627838  0.7671009546367010  0.8357745689897577
  0.2501718339812163  0.2526436768118814  0.0021301444804118
  0.9131808459865464  0.7557322683577410  0.5216465918522154
  0.7415204015999254  0.7568423086394011  0.3489997127859137
  0.5760598500257123  0.0879392900349306  0.5205802506288872
  0.7553840405560875  0.2658367695841884  0.3433847295229107
  0.2509936380900201  0.2557561842436157  0.3507018891965014
  0.2485889242424764  0.2538948474652383  0.6941145783013376
  0.2462547013486389  0.4208248761094530  0.5164833476507199
  0.2614610793190875  0.9201882054121523  0.0134022829788283
  0.4143664635716765  0.4220653672148843  0.0166531638124899
  0.9267159814817081  0.1001778675019696  0.3459210871886758
  0.7558065694381149  0.7652873459092656  0.5272872213638929
  0.0901574120209395  0.2767705956525737  0.3451530082345665
  0.2529196908418964  0.0980513403831415  0.6725977622443290
  0.2461584558677793  0.7519467174667268  0.8417152049103017
  0.4222613530245249  0.6011807403688001  0.0051488615719378
  0.7527365479077622  0.2621786092150747  0.6779399100245165
  0.0705385312480537  0.7531213568804211  0.0187594848379526
  0.2467488748280044  0.4109807610702360  0.8481826592674176
  0.2683064517391383  0.9322463718720331  0.5068487953096945
  0.4334534412945923  0.4317087329176433  0.1762046946856936
  0.7459908402382447  0.5764058145646713  0.5118781086809414
  0.9031002447599572  0.4315336192382070  0.1833933080114383
  0.5743735235796673  0.0894483468717912  0.8555092690831603
  0.7456377040126354  0.0909623180767011  0.3541009577747617
  0.5767465726866575  0.9341443158457032  0.8508164749868998
  0.6082997712252890  0.9324658974021410  0.1860630672912863
  0.5975223805312265  0.0885487031993729  0.1912341720487959
  0.9142107057266354  0.0899880992161138  0.5202157241812521
  0.5813982271569453  0.4277727342539179  0.8528630859007069
  0.0923431653315246  0.7681080392362720  0.5105218826618999
  0.0784222239937909  0.5994579285843482  0.2014493817168939
  0.4233243555581112  0.2632745363619018  0.3482803654070460
  0.4083430167198017  0.9246975514421297  0.8459926911499129
  0.7315573683411912  0.9231116721232283  0.8771343182327654
  0.4182881794059782  0.7591343211375530  0.0156261458002195
  0.7494522023274196  0.9323641985780380  0.0446963226597085
  0.0893838277514321  0.7542461648412175  0.8431741719155784
  0.7448011569986535  0.4255193254505397  0.0165148557775557
  0.7558843008167121  0.1007697300319858  0.5120874873077581
  0.9099268149182428  0.9177945082643081  0.6912989917004745
  0.5948214060208084  0.7561242976090754  0.1721825122685934
  0.7430223352305848  0.9221986883864023  0.5278572531835560
  0.7570654408839295  0.6002944054667479  0.3389208205377338
  0.5859222495455951  0.0964316428788968  0.6817000738037685
  0.9141292285977344  0.2570059940384743  0.3531184789085489
  0.0934994697368032  0.9245796242604961  0.0092285273379977
  0.0893688511485236  0.9279578709880780  0.6749120572887686
  0.5941170715450529  0.2698673964925051  0.8468222266635442
  0.9158098727971470  0.9240648490132675  0.3570000805838848
  0.9201275099144655  0.4311843743779481  0.0085411986133016
  0.2404899530334909  0.0907614180285652  0.8465647750063472
  0.0787590578042773  0.4351663658880494  0.3561792652951786
  0.4099980451985297  0.0875577698854703  0.6775747965175292
  0.4207349254493196  0.2626790756775590  0.6607287062839946
  0.5870410646727815  0.0995540024977197  0.3486139732912279
  0.4228792357092163  0.9226456303477010  0.1852871690920987
  0.9356088955033787  0.5899541538743608  0.8450478778596395
  0.7463798440949246  0.4184067463035818  0.6756199404854277
  0.0825612569400391  0.0937410511269240  0.8366723914624611
  0.7520836391803972  0.2665838009534663  0.0010436189421949
  0.9010029033144640  0.4214342073676549  0.5153674749806779
  0.2671438100080425  0.2624162178177057  0.5085977912284175
  0.4256655607817443  0.2513766035215900  0.1887892669319387
  0.7433533798968422  0.2585322825915927  0.5210283151861509
  0.5809445423306567  0.2515713336079311  0.0188098318107411
  0.9142537224564233  0.4172693484905821  0.8493910663492261
  0.5810887465254172  0.2570688425934407  0.3538462526471750
  0.0796663921957479  0.4216189017619635  0.6861107690208769
  0.0852453122965539  0.5962719109755735  0.9984334230246250
  0.0780806537856739  0.9225040512273879  0.1843862332014863
  0.9219639531955268  0.5978209522334678  0.5111433920699161
  0.7452445779370100  0.4376800194577756  0.1747342088673465
  0.2492688428120062  0.9327509442273304  0.8387912575248554
  0.0837276688265117  0.7483423541110955  0.3527699911987298
  0.9123597280829291  0.5858492631033736  0.6865259968593123
  0.5871699155494488  0.4388597334234031  0.0113482877526310
  0.7442703691836936  0.0827390135401906  0.6953732518144660
  0.9129575039073223  0.5898334227679152  0.0176105824065360
  0.9229550409957765  0.2597548397433346  0.8428299913424424
  0.9053565945417181  0.9226233156191330  0.0263164086228116
  0.7511773125625616  0.9221187241615326  0.6891099477760334
  0.5847966145581323  0.9300026419495763  0.5174923578447259
  0.2556929608297258  0.4334622158569233  0.3409082594565638
  0.0802961021925294  0.5884481877769246  0.5185032607515293
  0.4337537433511812  0.7663610586717620  0.1785945694829466
  0.9125330890620389  0.9247902102799449  0.8498007569701995
  0.0819213267961215  0.9268690716911173  0.5172712532803369
  0.0915066680782701  0.2639591986084827  0.6745892390487809
  0.4156253407055924  0.0998950421788468  0.8383026828263909
  0.0905311930284883  0.4393018798637431  0.8439494405618959
  0.2545841096155024  0.5961154979415964  0.8394851313007462
  0.9022101556087239  0.0947276214592662  0.1900372919946023
  0.5995297543988016  0.7609075518583455  0.6789062280233408
  0.5809801804553220  0.5933064015150509  0.0041996204603810
  0.2345598138889398  0.5919126686890006  0.3491981664687535
  0.2485192753172339  0.7574560739527136  0.5275421073276144
  0.0950690119563525  0.0960265693881427  0.1735397175002041
  0.5841837726039036  0.2654631443275964  0.5121835734342449
  0.9212633999389490  0.4292903128560798  0.6731986661327942
  0.9130238799866559  0.2553642299110880  0.0164872653929784
  0.4217012464007880  0.7759539841141048  0.4924361834043745
  0.9112861180385882  0.2521196810515032  0.6852359278124140
  0.2459280164955786  0.5934602195525622  0.6819917724751198
  0.2555727378690946  0.4307293718891052  0.0064230340177188
  0.4141676648945744  0.4206390506645819  0.3489815768605953
  0.4198868192864329  0.6112903861933995  0.3409334978294094
  0.5871371188732912  0.4340207603901060  0.3284277971245633
  0.4135376397628449  0.5858122534236824  0.5117569386766072
  0.5766159877900721  0.5912641774916111  0.3445640582640045
  0.4130288390368592  0.4212381757985288  0.6797736395279658
  0.4255829936309107  0.4282781644920312  0.5064536420570118
  0.5876359588785338  0.5994819081588755  0.5037742164651977
  0.5793316394980706  0.5888498569752358  0.6896027055790335
  0.4222655901243695  0.5997258815253990  0.6710565417924372
  0.5887342337414646  0.4315037352461286  0.6724894136329309
  0.5848875589560141  0.4227088334342467  0.5144524628202598
  0.7509321036617742  0.9134481181645960  0.2001459343915992
  0.7546701983113854  0.1050102491431913  0.1855265285286287
  0.4127856228686751  0.2501031084903410  0.5138053126874516
  0.4162228224535386  0.0875210091565509  0.3514524344258381
  0.7546568047359413  0.7836308738581133  0.2029594239025681
  0.0811289965400099  0.5859317775123373  0.8526152333564579
  0.0887532606758119  0.6021329297834188  0.3450556123420002
  0.4144389555799539  0.9210651978072258  0.5084536590794758
  0.7538554345551015  0.4298306781221965  0.5057819678107897
  0.2582057666088743  0.2650688054260594  0.8409007079938916
  0.4155979329615061  0.7561979731864554  0.3453181127831155
  0.7435081610249032  0.7446388333038170  0.6840350521641091
  0.2579321308420806  0.7640430718242505  0.6743722262637063
  0.7695798646775625  0.7245945097765253  0.8113548025301397
  0.0528996673771015  0.3010915422863555  0.2114719789314410
  0.7382363479951417  0.2601455761690485  0.8555748552230958
  0.0911506342690133  0.0987323239424223  0.5076510753809036
  0.1226274954369414  0.2290396845420453  0.1422390015368538
  0.5912371672811411  0.5965313863917032  0.8365758808806274
  0.5810212991519040  0.4247604693472609  0.1819482365406223
  0.7054159380503299  0.7875368630308008  0.8975555603450707
 
  0.00000000E+00  0.00000000E+00  0.00000000E+00
  0.00000000E+00  0.00000000E+00  0.00000000E+00
  0.00000000E+00  0.00000000E+00  0.00000000E+00
  0.00000000E+00  0.00000000E+00  0.00000000E+00
  0.00000000E+00  0.00000000E+00  0.00000000E+00
  0.00000000E+00  0.00000000E+00  0.00000000E+00
  0.00000000E+00  0.00000000E+00  0.00000000E+00
  0.00000000E+00  0.00000000E+00  0.00000000E+00
  0.00000000E+00  0.00000000E+00  0.00000000E+00
  0.00000000E+00  0.00000000E+00  0.00000000E+00
  0.00000000E+00  0.00000000E+00  0.00000000E+00
  0.00000000E+00  0.00000000E+00  0.00000000E+00
  0.00000000E+00  0.00000000E+00  0.00000000E+00
  0.00000000E+00  0.00000000E+00  0.00000000E+00
  0.00000000E+00  0.00000000E+00  0.00000000E+00
  0.00000000E+00  0.00000000E+00  0.00000000E+00
  0.00000000E+00  0.00000000E+00  0.00000000E+00
  0.00000000E+00  0.00000000E+00  0.00000000E+00
  0.00000000E+00  0.00000000E+00  0.00000000E+00
  0.00000000E+00  0.00000000E+00  0.00000000E+00
  0.00000000E+00  0.00000000E+00  0.00000000E+00
  0.00000000E+00  0.00000000E+00  0.00000000E+00
  0.00000000E+00  0.00000000E+00  0.00000000E+00
  0.00000000E+00  0.00000000E+00  0.00000000E+00
  0.00000000E+00  0.00000000E+00  0.00000000E+00
  0.00000000E+00  0.00000000E+00  0.00000000E+00
  0.00000000E+00  0.00000000E+00  0.00000000E+00
  0.00000000E+00  0.00000000E+00  0.00000000E+00
  0.00000000E+00  0.00000000E+00  0.00000000E+00
  0.00000000E+00  0.00000000E+00  0.00000000E+00
  0.00000000E+00  0.00000000E+00  0.00000000E+00
  0.00000000E+00  0.00000000E+00  0.00000000E+00
  0.00000000E+00  0.00000000E+00  0.00000000E+00
  0.00000000E+00  0.00000000E+00  0.00000000E+00
  0.00000000E+00  0.00000000E+00  0.00000000E+00
  0.00000000E+00  0.00000000E+00  0.00000000E+00
  0.00000000E+00  0.00000000E+00  0.00000000E+00
  0.00000000E+00  0.00000000E+00  0.00000000E+00
  0.00000000E+00  0.00000000E+00  0.00000000E+00
  0.00000000E+00  0.00000000E+00  0.00000000E+00
  0.00000000E+00  0.00000000E+00  0.00000000E+00
  0.00000000E+00  0.00000000E+00  0.00000000E+00
  0.00000000E+00  0.00000000E+00  0.00000000E+00
  0.00000000E+00  0.00000000E+00  0.00000000E+00
  0.00000000E+00  0.00000000E+00  0.00000000E+00
  0.00000000E+00  0.00000000E+00  0.00000000E+00
  0.00000000E+00  0.00000000E+00  0.00000000E+00
  0.00000000E+00  0.00000000E+00  0.00000000E+00
  0.00000000E+00  0.00000000E+00  0.00000000E+00
  0.00000000E+00  0.00000000E+00  0.00000000E+00
  0.00000000E+00  0.00000000E+00  0.00000000E+00
  0.00000000E+00  0.00000000E+00  0.00000000E+00
  0.00000000E+00  0.00000000E+00  0.00000000E+00
  0.00000000E+00  0.00000000E+00  0.00000000E+00
  0.00000000E+00  0.00000000E+00  0.00000000E+00
  0.00000000E+00  0.00000000E+00  0.00000000E+00
  0.00000000E+00  0.00000000E+00  0.00000000E+00
  0.00000000E+00  0.00000000E+00  0.00000000E+00
  0.00000000E+00  0.00000000E+00  0.00000000E+00
  0.00000000E+00  0.00000000E+00  0.00000000E+00
  0.00000000E+00  0.00000000E+00  0.00000000E+00
  0.00000000E+00  0.00000000E+00  0.00000000E+00
  0.00000000E+00  0.00000000E+00  0.00000000E+00
  0.00000000E+00  0.00000000E+00  0.00000000E+00
  0.00000000E+00  0.00000000E+00  0.00000000E+00
  0.00000000E+00  0.00000000E+00  0.00000000E+00
  0.00000000E+00  0.00000000E+00  0.00000000E+00
  0.00000000E+00  0.00000000E+00  0.00000000E+00
  0.00000000E+00  0.00000000E+00  0.00000000E+00
  0.00000000E+00  0.00000000E+00  0.00000000E+00
  0.00000000E+00  0.00000000E+00  0.00000000E+00
  0.00000000E+00  0.00000000E+00  0.00000000E+00
  0.00000000E+00  0.00000000E+00  0.00000000E+00
  0.00000000E+00  0.00000000E+00  0.00000000E+00
  0.00000000E+00  0.00000000E+00  0.00000000E+00
  0.00000000E+00  0.00000000E+00  0.00000000E+00
  0.00000000E+00  0.00000000E+00  0.00000000E+00
  0.00000000E+00  0.00000000E+00  0.00000000E+00
  0.00000000E+00  0.00000000E+00  0.00000000E+00
  0.00000000E+00  0.00000000E+00  0.00000000E+00
  0.00000000E+00  0.00000000E+00  0.00000000E+00
  0.00000000E+00  0.00000000E+00  0.00000000E+00
  0.00000000E+00  0.00000000E+00  0.00000000E+00
  0.00000000E+00  0.00000000E+00  0.00000000E+00
  0.00000000E+00  0.00000000E+00  0.00000000E+00
  0.00000000E+00  0.00000000E+00  0.00000000E+00
  0.00000000E+00  0.00000000E+00  0.00000000E+00
  0.00000000E+00  0.00000000E+00  0.00000000E+00
  0.00000000E+00  0.00000000E+00  0.00000000E+00
  0.00000000E+00  0.00000000E+00  0.00000000E+00
  0.00000000E+00  0.00000000E+00  0.00000000E+00
  0.00000000E+00  0.00000000E+00  0.00000000E+00
  0.00000000E+00  0.00000000E+00  0.00000000E+00
  0.00000000E+00  0.00000000E+00  0.00000000E+00
  0.00000000E+00  0.00000000E+00  0.00000000E+00
  0.00000000E+00  0.00000000E+00  0.00000000E+00
  0.00000000E+00  0.00000000E+00  0.00000000E+00
  0.00000000E+00  0.00000000E+00  0.00000000E+00
  0.00000000E+00  0.00000000E+00  0.00000000E+00
  0.00000000E+00  0.00000000E+00  0.00000000E+00
  0.00000000E+00  0.00000000E+00  0.00000000E+00
  0.00000000E+00  0.00000000E+00  0.00000000E+00
  0.00000000E+00  0.00000000E+00  0.00000000E+00
  0.00000000E+00  0.00000000E+00  0.00000000E+00
  0.00000000E+00  0.00000000E+00  0.00000000E+00
  0.00000000E+00  0.00000000E+00  0.00000000E+00
  0.00000000E+00  0.00000000E+00  0.00000000E+00
  0.00000000E+00  0.00000000E+00  0.00000000E+00
  0.00000000E+00  0.00000000E+00  0.00000000E+00
  0.00000000E+00  0.00000000E+00  0.00000000E+00
  0.00000000E+00  0.00000000E+00  0.00000000E+00
  0.00000000E+00  0.00000000E+00  0.00000000E+00
  0.00000000E+00  0.00000000E+00  0.00000000E+00
  0.00000000E+00  0.00000000E+00  0.00000000E+00
  0.00000000E+00  0.00000000E+00  0.00000000E+00
  0.00000000E+00  0.00000000E+00  0.00000000E+00
  0.00000000E+00  0.00000000E+00  0.00000000E+00
  0.00000000E+00  0.00000000E+00  0.00000000E+00
  0.00000000E+00  0.00000000E+00  0.00000000E+00
  0.00000000E+00  0.00000000E+00  0.00000000E+00
  0.00000000E+00  0.00000000E+00  0.00000000E+00
  0.00000000E+00  0.00000000E+00  0.00000000E+00
  0.00000000E+00  0.00000000E+00  0.00000000E+00
  0.00000000E+00  0.00000000E+00  0.00000000E+00
  0.00000000E+00  0.00000000E+00  0.00000000E+00
  0.00000000E+00  0.00000000E+00  0.00000000E+00
  0.00000000E+00  0.00000000E+00  0.00000000E+00
  0.00000000E+00  0.00000000E+00  0.00000000E+00
  0.00000000E+00  0.00000000E+00  0.00000000E+00
  0.00000000E+00  0.00000000E+00  0.00000000E+00
  0.00000000E+00  0.00000000E+00  0.00000000E+00
  0.00000000E+00  0.00000000E+00  0.00000000E+00
  0.00000000E+00  0.00000000E+00  0.00000000E+00
  0.00000000E+00  0.00000000E+00  0.00000000E+00
  0.00000000E+00  0.00000000E+00  0.00000000E+00
  0.00000000E+00  0.00000000E+00  0.00000000E+00
  0.00000000E+00  0.00000000E+00  0.00000000E+00
  0.00000000E+00  0.00000000E+00  0.00000000E+00
  0.00000000E+00  0.00000000E+00  0.00000000E+00
  0.00000000E+00  0.00000000E+00  0.00000000E+00
  0.00000000E+00  0.00000000E+00  0.00000000E+00
  0.00000000E+00  0.00000000E+00  0.00000000E+00
  0.00000000E+00  0.00000000E+00  0.00000000E+00
  0.00000000E+00  0.00000000E+00  0.00000000E+00
  0.00000000E+00  0.00000000E+00  0.00000000E+00
  0.00000000E+00  0.00000000E+00  0.00000000E+00
  0.00000000E+00  0.00000000E+00  0.00000000E+00
  0.00000000E+00  0.00000000E+00  0.00000000E+00
  0.00000000E+00  0.00000000E+00  0.00000000E+00
  0.00000000E+00  0.00000000E+00  0.00000000E+00
  0.00000000E+00  0.00000000E+00  0.00000000E+00
  0.00000000E+00  0.00000000E+00  0.00000000E+00
  0.00000000E+00  0.00000000E+00  0.00000000E+00
  0.00000000E+00  0.00000000E+00  0.00000000E+00
  0.00000000E+00  0.00000000E+00  0.00000000E+00
  0.00000000E+00  0.00000000E+00  0.00000000E+00
  0.00000000E+00  0.00000000E+00  0.00000000E+00
  0.00000000E+00  0.00000000E+00  0.00000000E+00
  0.00000000E+00  0.00000000E+00  0.00000000E+00
  0.00000000E+00  0.00000000E+00  0.00000000E+00
  0.00000000E+00  0.00000000E+00  0.00000000E+00
  0.00000000E+00  0.00000000E+00  0.00000000E+00
  0.00000000E+00  0.00000000E+00  0.00000000E+00
  0.00000000E+00  0.00000000E+00  0.00000000E+00
  0.00000000E+00  0.00000000E+00  0.00000000E+00
  0.00000000E+00  0.00000000E+00  0.00000000E+00
  0.00000000E+00  0.00000000E+00  0.00000000E+00
  0.00000000E+00  0.00000000E+00  0.00000000E+00
  0.00000000E+00  0.00000000E+00  0.00000000E+00
  0.00000000E+00  0.00000000E+00  0.00000000E+00
  0.00000000E+00  0.00000000E+00  0.00000000E+00
  0.00000000E+00  0.00000000E+00  0.00000000E+00
  0.00000000E+00  0.00000000E+00  0.00000000E+00
  0.00000000E+00  0.00000000E+00  0.00000000E+00
  0.00000000E+00  0.00000000E+00  0.00000000E+00
  0.00000000E+00  0.00000000E+00  0.00000000E+00
  0.00000000E+00  0.00000000E+00  0.00000000E+00
  0.00000000E+00  0.00000000E+00  0.00000000E+00
  0.00000000E+00  0.00000000E+00  0.00000000E+00
  0.00000000E+00  0.00000000E+00  0.00000000E+00
  0.00000000E+00  0.00000000E+00  0.00000000E+00
  0.00000000E+00  0.00000000E+00  0.00000000E+00
  0.00000000E+00  0.00000000E+00  0.00000000E+00
  0.00000000E+00  0.00000000E+00  0.00000000E+00
  0.00000000E+00  0.00000000E+00  0.00000000E+00
  0.00000000E+00  0.00000000E+00  0.00000000E+00
  0.00000000E+00  0.00000000E+00  0.00000000E+00
  0.00000000E+00  0.00000000E+00  0.00000000E+00
  0.00000000E+00  0.00000000E+00  0.00000000E+00
  0.00000000E+00  0.00000000E+00  0.00000000E+00
  0.00000000E+00  0.00000000E+00  0.00000000E+00
  0.00000000E+00  0.00000000E+00  0.00000000E+00
  0.00000000E+00  0.00000000E+00  0.00000000E+00
  0.00000000E+00  0.00000000E+00  0.00000000E+00
  0.00000000E+00  0.00000000E+00  0.00000000E+00
  0.00000000E+00  0.00000000E+00  0.00000000E+00
  0.00000000E+00  0.00000000E+00  0.00000000E+00
  0.00000000E+00  0.00000000E+00  0.00000000E+00
  0.00000000E+00  0.00000000E+00  0.00000000E+00
  0.00000000E+00  0.00000000E+00  0.00000000E+00
  0.00000000E+00  0.00000000E+00  0.00000000E+00
  0.00000000E+00  0.00000000E+00  0.00000000E+00
  0.00000000E+00  0.00000000E+00  0.00000000E+00
  0.00000000E+00  0.00000000E+00  0.00000000E+00
  0.00000000E+00  0.00000000E+00  0.00000000E+00
  0.00000000E+00  0.00000000E+00  0.00000000E+00
  0.00000000E+00  0.00000000E+00  0.00000000E+00
  0.00000000E+00  0.00000000E+00  0.00000000E+00
  0.00000000E+00  0.00000000E+00  0.00000000E+00
  0.00000000E+00  0.00000000E+00  0.00000000E+00
  0.00000000E+00  0.00000000E+00  0.00000000E+00
  0.00000000E+00  0.00000000E+00  0.00000000E+00
  0.00000000E+00  0.00000000E+00  0.00000000E+00
  0.00000000E+00  0.00000000E+00  0.00000000E+00
  0.00000000E+00  0.00000000E+00  0.00000000E+00
  0.00000000E+00  0.00000000E+00  0.00000000E+00
 
           1
   4.00000000000000     
  0.10000000E+01  0.00000000E+00  0.00000000E+00  0.00000000E+00
  0.77809963E-01  0.85297779E-01  0.67604369E+00
  0.58366299E+00  0.76494180E+00  0.33270627E+00
  0.40277558E+00  0.25758226E+00  0.84513983E+00
  0.74825364E+00  0.90077791E-01  0.41157714E-01
  0.92438441E+00  0.93242940E+00  0.51473401E+00
  0.75760106E+00  0.41236559E+00  0.83324007E+00
  0.26561257E+00  0.92869181E+00  0.17342916E+00
  0.27105839E+00  0.97262769E-01  0.34270940E+00
  0.27072366E+00  0.76401003E+00  0.34039228E+00
  0.72920130E+00  0.75548396E+00  0.33000796E-01
  0.87672482E-01  0.43173347E+00  0.51203702E+00
  0.58966701E+00  0.27882888E+00  0.17695420E+00
  0.40246766E+00  0.75733225E+00  0.67617069E+00
  0.43294597E+00  0.95833058E-01  0.18519112E+00
  0.83008855E-01  0.81059633E-01  0.15336265E-01
  0.74895459E+00  0.11395840E+00  0.85004355E+00
  0.58776730E+00  0.95938813E-01  0.17257476E-01
  0.90589117E+00  0.76348757E+00  0.15393539E-01
  0.57739319E+00  0.25496309E+00  0.68823026E+00
  0.92348110E+00  0.26462806E+00  0.51080402E+00
  0.58211368E+00  0.92240677E+00  0.34522804E+00
  0.79424149E-01  0.42104142E+00  0.18347289E-01
  0.41399422E+00  0.58910457E+00  0.18211298E+00
  0.75336627E+00  0.60314816E+00  0.22564708E-02
  0.74664044E+00  0.24724098E+00  0.18818619E+00
  0.25966594E+00  0.26257982E+00  0.16469980E+00
  0.75426962E+00  0.60019007E+00  0.66963376E+00
  0.91817258E+00  0.27484170E+00  0.17643438E+00
  0.89481775E-01  0.43572119E+00  0.17637466E+00
  0.73599838E+00  0.58633491E+00  0.84209141E+00
  0.42316537E+00  0.43282699E+00  0.83944406E+00
  0.84258839E-01  0.92033864E-01  0.36134516E+00
  0.58995445E+00  0.59925505E+00  0.16568775E+00
  0.79877161E-01  0.24893246E+00  0.84035778E+00
  0.90646048E-01  0.76359001E+00  0.17634208E+00
  0.24993740E+00  0.75528355E+00  0.18158899E+00
  0.57682608E+00  0.75797458E+00  0.50721352E+00
  0.81506158E-01  0.24359089E+00  0.51639688E+00
  0.41578429E+00  0.87287244E-01  0.21955997E-01
  0.26325409E+00  0.76302509E+00  0.34166909E-02
  0.91538021E+00  0.59193396E+00  0.35206327E+00
  0.25570099E+00  0.43508742E+00  0.67422451E+00
  0.74431358E+00  0.42373214E+00  0.35918169E+00
  0.25506089E+00  0.86073156E-01  0.18379004E+00
  0.91959503E+00  0.94811832E-01  0.67701568E+00
  0.92149955E+00  0.60541013E+00  0.17806592E+00
  0.92296007E+00  0.76127301E+00  0.68041918E+00
  0.88825973E-01  0.59666587E+00  0.67713834E+00
  0.25528525E+00  0.95007689E-01  0.50562346E-02
  0.57578282E+00  0.91961083E+00  0.68882062E+00
  0.89895862E+00  0.76267078E+00  0.18977279E+00
  0.90468819E+00  0.74536686E+00  0.85226052E+00
  0.90415355E-01  0.26263854E+00  0.55047565E-02
  0.58077660E+00  0.74136515E+00  0.83644042E+00
  0.81102250E-01  0.75316950E+00  0.68440179E+00
  0.75828913E+00  0.93390926E+00  0.34519305E+00
  0.74604357E+00  0.59273945E+00  0.17851751E+00
  0.42548262E+00  0.94223470E+00  0.34842144E+00
  0.91968120E+00  0.96719777E-01  0.12966704E-01
  0.23698422E+00  0.89430577E-01  0.51486728E+00
  0.92613312E+00  0.76678606E+00  0.34778837E+00
  0.90561285E+00  0.85241310E-01  0.85568834E+00
  0.42026884E+00  0.92953033E+00  0.65768615E+00
  0.25166300E+00  0.92111293E+00  0.34994726E+00
  0.24416356E+00  0.58845848E+00  0.14083529E-01
  0.74786962E-01  0.91370130E+00  0.85261022E+00
  0.24670830E+00  0.90960533E+00  0.68065168E+00
  0.91959562E+00  0.43571074E+00  0.34177636E+00
  0.42086455E+00  0.26370882E+00  0.36120362E-02
  0.93452811E-01  0.93425491E+00  0.34300960E+00
  0.42016120E+00  0.10469736E+00  0.49756382E+00
  0.91768160E+00  0.93675380E+00  0.18277321E+00
  0.42934322E+00  0.93223096E+00  0.34058589E-02
  0.24630861E+00  0.42014716E+00  0.18217621E+00
  0.25508516E+00  0.59962070E+00  0.50694965E+00
  0.41353029E+00  0.59071604E+00  0.84584784E+00
  0.25544502E+00  0.59705659E+00  0.17373771E+00
  0.42190166E+00  0.76710095E+00  0.83577457E+00
  0.25017183E+00  0.25264368E+00  0.21301445E-02
  0.91318085E+00  0.75573227E+00  0.52164659E+00
  0.74152040E+00  0.75684231E+00  0.34899971E+00
  0.57605985E+00  0.87939290E-01  0.52058025E+00
  0.75538404E+00  0.26583677E+00  0.34338473E+00
  0.25099364E+00  0.25575618E+00  0.35070189E+00
  0.24858892E+00  0.25389485E+00  0.69411458E+00
  0.24625470E+00  0.42082488E+00  0.51648335E+00
  0.26146108E+00  0.92018821E+00  0.13402283E-01
  0.41436646E+00  0.42206537E+00  0.16653164E-01
  0.92671598E+00  0.10017787E+00  0.34592109E+00
  0.75580657E+00  0.76528735E+00  0.52728722E+00
  0.90157412E-01  0.27677060E+00  0.34515301E+00
  0.25291969E+00  0.98051340E-01  0.67259776E+00
  0.24615846E+00  0.75194672E+00  0.84171520E+00
  0.42226135E+00  0.60118074E+00  0.51488616E-02
  0.75273655E+00  0.26217861E+00  0.67793991E+00
  0.70538531E-01  0.75312136E+00  0.18759485E-01
  0.24674887E+00  0.41098076E+00  0.84818266E+00
  0.26830645E+00  0.93224637E+00  0.50684880E+00
  0.43345344E+00  0.43170873E+00  0.17620469E+00
  0.74599084E+00  0.57640581E+00  0.51187811E+00
  0.90310024E+00  0.43153362E+00  0.18339331E+00
  0.57437352E+00  0.89448347E-01  0.85550927E+00
  0.74563770E+00  0.90962318E-01  0.35410096E+00
  0.57674657E+00  0.93414432E+00  0.85081647E+00
  0.60829977E+00  0.93246590E+00  0.18606307E+00
  0.59752238E+00  0.88548703E-01  0.19123417E+00
  0.91421071E+00  0.89988099E-01  0.52021572E+00
  0.58139823E+00  0.42777273E+00  0.85286309E+00
  0.92343165E-01  0.76810804E+00  0.51052188E+00
  0.78422224E-01  0.59945793E+00  0.20144938E+00
  0.42332436E+00  0.26327454E+00  0.34828037E+00
  0.40834302E+00  0.92469755E+00  0.84599269E+00
  0.73155737E+00  0.92311167E+00  0.87713432E+00
  0.41828818E+00  0.75913432E+00  0.15626146E-01
  0.74945220E+00  0.93236420E+00  0.44696323E-01
  0.89383828E-01  0.75424616E+00  0.84317417E+00
  0.74480116E+00  0.42551933E+00  0.16514856E-01
  0.75588430E+00  0.10076973E+00  0.51208749E+00
  0.90992681E+00  0.91779451E+00  0.69129899E+00