Ge Se                                   
   1.00000000000000     
    20.8706398010253906    0.0000000000000000    0.0000000000000000
     0.0000000000000000   20.8706398010253906    0.0000000000000000
     0.0000000000000000    0.0000000000000000   20.8706398010253906
   Ge   Se
   150   150
Direct
  0.1709087027860756  0.2823687554821895  0.7538162157823948
  0.3648198729414893  0.9446772271637190  0.0935747430959999
  0.4626855339881834  0.4312613218685084  0.8322974201917550
  0.9890325396180220  0.0887500789567681  0.5700438282059329
  0.4143158361354707  0.9652214106662652  0.6515530587751861
  0.2771276309689539  0.1903818839037741  0.3991539616209350
  0.0205520949501565  0.5075235376617983  0.9320966428969611
  0.2971389463931631  0.7356141312887842  0.8907890263844099
  0.2754912669431350  0.9849159985044681  0.7486358511672133
  0.1852837944133216  0.1210750966826864  0.6720948566284327
  0.7977881840343235  0.8709664016977773  0.9680882349612359
  0.7256235708946011  0.4709152661313878  0.8629647701641920
  0.6270266067346204  0.1968587055600979  0.3216172148584083
  0.2033970887239511  0.2682075842329555  0.2840542766734077
  0.5041400795423701  0.7266245817153864  0.8049513092828759
  0.6011196639232970  0.8669300864923664  0.3880254907040988
  0.3760916289251655  0.6248679515244471  0.2744769537985591
  0.4122601213099232  0.0947064886221762  0.7502425440688536
  0.7277089990582672  0.2580407773107409  0.7072381510583730
  0.3093751034729580  0.9937027302754815  0.4367125836473784
  0.9605157371520744  0.2022940657396053  0.6203504007711738
  0.6549435834837272  0.9408950514720461  0.6443071546361659
  0.2766929404483516  0.1697266476451682  0.5233035934266385
  0.2123108542313458  0.9982096968293711  0.9304640905788488
  0.8199698057043058  0.3384673048591361  0.7363413237817849
  0.4821516333078372  0.0050360051560262  0.0449936931275440
  0.3631633929642797  0.8939830526277820  0.2662148901374227
  0.9130537169651146  0.1087817306667905  0.0717222102002963
  0.3105781300582098  0.3546320425099603  0.8905658145293925
  0.7104741858675642 -0.0139235519576475  0.7920855527311557
  0.4774579221513363  0.3462569176995527  0.9512726734648885
  0.1645403219024137  0.7507579839032177  0.4318548559853032
  0.5144278706425649  0.2672983225747507  0.7297307210153698
  0.5112054993508719  0.5440674312127615  0.1814213132769145
  0.9989063076735339  0.6089280037641681  0.5155980056772522
  0.0455629629976879  0.3324135895532216  0.5660656170979541
  0.9199123393846280  0.2015704977850303  0.9780399263585672
  0.5986257367867756  0.8865860396871502  0.9005886980529199
  0.2214878367668818  0.0157423108146316  0.1801152737704151
  0.1322033439696773  0.2435240791619560  0.9117365881129489
  0.4150891797795185  0.4883815005241898  0.9308824679197868
  0.8252162759882145  0.0452155507546923  0.9062406648207431
  0.5029436315570257  0.9392408788437906  0.3889284640294818
  0.9200466960199589  0.5737375892099662  0.2785275177810770
  0.4843854964504641  0.0318596105130271  0.3143984634466792
  0.8887884959495929  0.4640011676832329  0.7562030898393822
  0.4074786431165517  0.0510404398092110  0.4829283825144636
  0.9407168135233300  0.3720931175342728  0.0752931391467966
  0.7985346033346357  0.1922624782455774  0.8392904050650981
  0.6223415087445311  0.8646417574383441  0.0337488312850749
  0.7392758321030309  0.8747902938787353  0.4824984587928173
  0.3997525669179577  0.1615673662303760  0.0567553187391769
  0.8288352651546703  0.5187068201264706  0.9161450370594236
  0.3437517338798703  0.7138865287453595  0.3629945575287422
  0.9308048416511765  0.7803790113948395  0.8495941267498855
  0.5898434047926261  0.6271688756917682  0.5500231469851393
  0.9746219543030930  0.4014367614086897  0.2652864779260612
  0.1169652691945101  0.3071195739882307  0.4385390219188659
  0.4030170387929163  0.7384535149731102  0.1661230405300363
  0.6396300176922521  0.7033318799174494  0.4635564601941933
  0.7140333047311764  0.7449421057574960  0.8241899478401419
  0.6418329884606938  0.5945001421477101  0.7480505284930680
  0.8409721537173068  0.3522868777188810  0.5947013623273454
  0.7630997616490209  0.7358508439114093  0.4630191087732943
  0.5334499836538261  0.0441145013119666  0.8412194213703763
  0.1020623932175194  0.6814596285145956  0.5179797240730099
  0.1030965377179436  0.1470114859855509  0.8232669499912992
  0.6557001988435681  0.2269397053381108  0.2025637366014780
  0.9592821895043420  0.0180917443973976  0.3886237706106995
  0.2355787247959594  0.4154708997194259  0.3659150953534784
  0.4165608045812501  0.4089968413623329  0.4767229356580202
  0.8007535284746703  0.5833847177564589  0.3005996841563981
  0.6434008758894103  0.0903759729152992  0.3908999972321567
  0.0608748596469929  0.0579215397132799  0.9911501967178887
  0.7462344521184222  0.5667529802690217  0.0765266429813080
  0.7428683171588788  0.2192603979249522  0.4558918327297455
  0.2285541322125094  0.4397012005221321  0.2224763320375382
  0.0378586893190825  0.5646218537093233  0.7477497424043631
  0.8124907766755755  0.0748480651386723  0.2716512818370704
  0.8957323552733593  0.7656608776750644  0.3745402662204168
  0.7862095788029978  0.8057074940673634  0.7210721515979039
  0.9948657478129002  0.4176357097994940  0.6387593607293863
  0.3099184059174495  0.1563864652905435  0.9738337381300932
  0.7284259188336989  0.4569384365706852  0.4807330919819331
  0.5635841049596129  0.6860872958642319  0.3664894860837921
  0.6026272533816338  0.4153055646504677  0.6762280453177205
  0.5794813392137924  0.1003380065705742  0.7314511735359734
  0.8752298481701135  0.5086203114462057  0.1868618995691214
  0.1447065513393427  0.6489950944506162  0.8577420780003661
  0.0406731035294839  0.1526224305129187  0.4209362634619005
  0.1398628195605017  0.5135952716783800  0.0381706077185146
  0.8697193909411962  0.6337646601792504  0.9502954941404550
  0.2690343178217882  0.5788022189818337  0.9678764038235765
  0.6480604389805967  0.2868039032902929  0.0703380106853712
  0.6440766483252064 -0.0119577700321716  0.9596249552007101
  0.6780755553213349  0.7199700805912561  0.0597167333467144
  0.1471809120397382  0.4565791411480888  0.4999988642298025
  0.9169002756399751  0.8979853866951395  0.3788153464946349
  0.9150890464982737  0.5397621249283632  0.0792181008888550
  0.0276125504392050  0.6405795231682962  0.2658187915260308
  0.2095946814518521  0.6065585700409621  0.7100581575890313
  0.4996887234313880  0.1561470383396172  0.2132175432854369
  0.6517166988081320  0.4674997085742797  0.0311826730303169
  0.7071167411381607  0.5804383687309815  0.4945977014130664
  0.0334662799434536  0.7193477832770576  0.8868020665098476
  0.0649840615809595  0.2328107455716046  0.6791267783763949
  0.1435743621952624  0.9962594461886740  0.5581730591568645
  0.3162324299334666  0.5768953953507381  0.0928014426403049
  0.7490632680993210  0.0769618224596040  0.5218220451523371
  0.4906141592953961  0.7763799723702896  0.0196118380238496
  0.5506866352251311  0.7652743353683277  0.9142987582649954
  0.3178022581178204  0.9173373830816318  0.5454673034264980
  0.0700635032032971  0.8798749917944517  0.9119966453332311
  0.0391129700380256  0.5526145255431832  0.1067994080981487
  0.0184418057314017  0.2375275313257214  0.7982567759605103
  0.8844946058661020  0.7998855464076474  0.5126682328654304
  0.4460474581542424  0.5724511071352615  0.4189976646039934
  0.4681299258700791  0.7966705459663594  0.5455693436364788
  0.1757181042654486  0.5072357197725347  0.6122792185853965
  0.8783460897406633  0.2325104480044904  0.7027761661244698
  0.7228867265155956  0.8164123340262412  0.2832367758370865
  0.3348924779036540  0.0892074469834005  0.3610620446215519
  0.4576320606453296  0.1855080809156107  0.8685887233827958
  0.2108888622272810  0.1604668250828630  0.0396586488122434
  0.1203300871633519  0.3958228961383577  0.1676250152688873
  0.2414528790338364  0.8627077776639565  0.2506655324041714
  0.2653552675768666  0.5808502927897297  0.4553884256120772
  0.5756264838912378  0.3279190027238519  0.4891995808868005
  0.6175280969992729  0.7578445642380611  0.6400467664697954
  0.3727198592694619  0.0132091969691836  0.2767173508047415
  0.3752493150582983  0.1733257631270188  0.1793627407293321
  0.0461228556823037  0.7547964151986766  0.3829305266433969
  0.3326375451148387  0.6385134287623756  0.8239187281582999
  0.2360052700218351  0.8058428381666956  0.6030956712507821
  0.6018292491284352  0.3156419872018704  0.8126938132989128
  0.4077069279142774  0.8346569353664582  0.7323283682174857
  0.4796369244083485  0.4993694108229699  0.0346256894471499
  0.9433779300878544  0.8993771531734129  0.0014130692465019
  0.1827818363568358  0.2390791194409670  0.6013638840675181
  0.4091915033373314  0.8648544287995207 -0.0001115031350473
  0.5604201010188427  0.5018383418109785  0.4626705615643228
  0.2025675232387777  0.2917946266349066  0.1601979578183856
  0.9712854038451255  0.7831215406655787  0.6065301981851350
  0.4784993375387946  0.5447361361593612  0.7788695370750952
  0.3649902361206856  0.2503673135254597  0.9229537924676100
  0.7025577666984912  0.5636433500573426  0.3713501787213253
  0.1117196688254371  0.0322926323736359  0.2820099967152733
  0.9731454707803351  0.0063397486246031  0.2061864306559149
  0.7101716909930250  0.3519288588503605  0.8873147689694789
  0.8203926398210722  0.6599529538171157  0.6185585156063746
  0.6498244879905697  0.1476878791934266  0.5010859701950251
  0.4848574517119805  0.3688616665123275  0.6642339529963855
  0.8238112644800344  0.4782615829462547  0.0277000075860879
  0.8903724192674715  0.4614241601243704  0.6121271593945902
  0.3527613659835088  0.4055938394043046  0.7959067901479122
  0.4669203183933918  0.3233683708760222  0.5606677289110483
  0.3972717094055661  0.6164471557757063  0.7316549659226395
  0.4912914312828846  0.0756927328930502  0.6558590798061954
  0.8585980463409102  0.9145410563213555  0.4869994785057179
  0.2006593228947684  0.8930566566696204  0.5220517366677170
  0.0147352363471324  0.0817916085130703  0.1292213639840367
  0.5676295869857263  0.0612577615115480  0.2437486551653400
  0.0857194567975477  0.1497817923460726  0.5317648744232082
  0.0283480722309916  0.2993059210256903  0.8966616306221392
  0.7102236752288121  0.9093959865860625  0.3645654753291335
  0.9201765658162462  0.0246045141899492  0.9807669707430680
  0.3495049034286984  0.5024765934022671  0.3845948959047571
  0.7582475861503425  0.5219520976964752  0.1899141023067863
  0.5916006876817981  0.9450888857600124  0.7910685309194366
  0.5534316675544715  0.5795822389948926  0.0696909012198889
  0.3254344742663368  0.4322218394960438  0.9791708908337018
  0.0621745848999887  0.9383772390196878  0.0180424611339869
  0.8061690869694148  0.1946251136167157  0.2666546618693105
  0.4544558772966309  0.5135627136874786  0.5284517407693622
  0.9047069579727710  0.7977466370128669  0.7361595079464923
  0.6213208401075939  0.4297536536583926  0.5494097806024406
  0.6802556993272666  0.9734342242275171  0.5230494599116473
  0.0102191136475900  0.8533538260750381  0.4393005505384305
  0.1955817822763163  0.6197011488555707  0.5656385952465910
  0.0433456616258812  0.4084053467721820  0.4696748046545297
  0.1074778035389748  0.0394278945846555  0.8714628838947175
  0.0920390995528995  0.5123069259236752  0.8344541471690219
  0.4344133560523274  0.8891693392503821  0.1716503330803862
  0.1705632475343304  0.1760969079800133  0.3522594294902007
  0.2385856891825960  0.1768235028607630  0.1509466109512653
  0.3845928445836316  0.6036149704385974  0.9287886492691806
  0.1318120536029277  0.3569081106324919  0.3270235338816461
  0.2282507844460588  0.0628662653115461  0.4919004312302445
  0.3718280081024282  0.5070299489058898  0.2696337081442672
  0.1810452795058455  0.0467463977432824  0.0388768079363323
  0.8797929989385703  0.9538685506069143  0.1627258873014759
  0.6427095087363580  0.5219195691882474  0.9244214057459371
  0.2123100803644011  0.1660135633094377  0.7834898350972377
  0.4916134741003347  0.1169737426112921  0.0007748684419326
 -0.0164492318868366  0.7591870600553230  0.2807228632915623
  0.5629983505399464  0.1953898087673105  0.6451038039588037
  0.6673448500450336  0.3395701977261482  0.1748915557876337
  0.2503576209328603  0.3050714825301635  0.6704245459902808
  0.5423564093886762  0.3991011944614382  0.0432751078099056
  0.8721963481851396  0.5054083954477480  0.3599447357202780
  0.7210211026646778  0.8594493304753362  0.8711736342527656
  0.6292456816203228  0.0866704251682303  0.9049466196715368
  0.6752460738648776  0.6467388543525981  0.6362510091811536
  0.6798527116177736  0.0540668934292066  0.6875598564928683
  0.8202022790553465  0.3111604304136374  0.8585424527274829
  0.4158830360597020  0.9492039028181440  0.7727521072302544
  0.1073956653858340  0.4017446290940020  0.0524152799075866
  0.3357323236149722  0.7986809239589453  0.5299742240044212
  0.2198850883795045  0.3633563917842788  0.4834012893716016
  0.0648436552293791  0.1166253598324692  0.7040947462583036
  0.2416316726598439  0.5669382980639392  0.8305386622474432
  0.6032526988112279  0.9839606800878878  0.0715261708096792
  0.9264345604917975  0.1066262663800043  0.4616236412355261
  0.7827905733626958  0.7225938436781544  0.3421925139200567
  0.9655877743183979  0.6684062458794131  0.4138517701887897
  0.3063219838220293  0.6591223326771682  0.1822776245698368
  0.2988186347453040  0.3575841218865958  0.1755058246937325
  0.2203788875636715  0.9750081568133400  0.3011190273816317
  0.5756684300329113  0.7772464384049047  0.1047440086942123
  0.0430403463363704  0.3094423927626449  0.2109467895952796
  0.4982761377878639  0.9736721294821304  0.4996006040408608
  0.9290746799883584  0.5844377697106847  0.7568027872003394
  0.2493217686923221  0.9039933844699664  0.1372397628896810
  0.6028802020294769  0.7879517860939600  0.3021003240019033
  0.2296344549727239  0.6632843905679717  0.3721516612684792
  0.3903259559721736  0.1507278454361256  0.5446886744413937
  0.6413883879103293  0.2854989406761571  0.6310477981774740
  0.6478675116305427  0.7088918301407515  0.9426043446583728
  0.3024926039743597  0.8840717028708651  0.6770744602044405
  0.5111850892469862  0.7023909623675253  0.6165873508684272
  0.0762793628052586  0.0327979240096171  0.4011630087515171
  0.4515227091814975  0.1174287206637854  0.3910994592389921
  0.8280006473351967  0.2224330999794306  0.1575803010615622
  0.6199095821057022  0.6044210988353411  0.3020044007794617
  0.9372653847929754  0.2882753538707677  0.5396729587462882
  0.3191069465431273  0.0713487638237131  0.6772645342566626
  0.0463344282366339  0.4893704791023032  0.2104747623842928
  0.0442466624240595  0.7853506966199419  0.9822062463418409
  0.3469675513679830  0.0534890181592570  0.1709752641290777
  0.8630983895786519  0.2927509301763767  0.0254413018923143
  0.8155782701554526  0.6293418214156500  0.4985461549858633
  0.8362371165865158  0.7379741418743855  0.9091321214573456
  0.1235770330778665  0.2332237742523864  0.0285693224982100
  0.4083563355913112  0.2221038288659496  0.7543996155722823
  0.1669508078615428  0.5171256273765209  0.4030132441001976
  0.8046412498441233  0.1563347149277489  0.9555606615032852
  0.6050648122181540  0.8135793126688944  0.4929076244650430
  0.9455228004563883  0.8952062746959671  0.8780227694562608
  0.1708739539855864  0.0003113521618673  0.6780688431670195
  0.4805925254244773  0.6544675751812852  0.2248258460415347
  0.4790875286458228  0.9448308982495016  0.9388871362862323
  0.8815569905380070  0.3910641190664352  0.1892052635876439
  0.7572776715871332 -0.0133154603324643  0.9926837352029727
  0.0864140779541486  0.7758893940757392  0.5866892967204695
  0.5514446428944306  0.5367485500616378  0.6852926343454503
  0.9189914971138718  0.1707221463330574  0.7993088312060129
  0.1962707979242733  0.3466814181013220  0.8727451145515632
  0.2068411120268366  0.7609567730494539  0.8154149175518647
  0.3075732804425670  0.0650071067924977  0.9049004470230996
  0.0462497133666838  0.9332673431178838  0.2512896882857957
  0.4904460078074418  0.8649877378274861  0.6457568453624231
  0.5733050839775261  0.1862238652075957  0.1267541962286947
  0.7652540212157836  0.1048195958530547  0.3968169576133465
  0.0187780450980989  0.6584597558922289  0.1472888805651058
  0.5511488781034687  0.2602530020733071  0.9096421131208093
  0.1029949233580175  0.6615723602730570  0.7378111673751137
  0.4100343989165126  0.7008006683917314  0.0534206034009149
  0.2349957785998438  0.6964039720626721  0.9779925308193901
  0.0555378532292765  0.5248488002967066  0.6354230511343290
  0.7664388632225043  0.9241030494981347  0.6981323482828516
  0.5352577929898492  0.6184097585869555  0.8499460812465688
  0.7987054939906673  0.3669953453650387  0.4829769778315895
  0.8292081294959813  0.0537506155149197  0.1419959415047531
  0.7926580379479518  0.7798016613859982  0.6007379782703968
  0.4234900577289016  0.8566423940769967  0.3612723281665670
  0.4051731936922767  0.2798399046947126  0.0308488633009220
  0.5170707143237286  0.3994625479785042  0.4055768653259407
  0.6836535490185068  0.4479135875704451  0.3734031958783193
  0.9483287448799849  0.6675719709738828  0.6075491015276672
  0.7214380059163008  0.3685484483611289  0.0041132481937496
  0.3875230120122428  0.6653628391634593  0.4629145638392637
  0.8528323503670602  0.6423625822325143  0.0693692549200566
  0.9207087497185286  0.4539624649144593  0.8869559541690513
  0.7243470011577763  0.4996440961481727  0.7513098093133247
  0.2641909208176170  0.7146691009956789  0.7275878791250490
  0.9380396607212219  0.0842684981843247  0.2890655617847359
  0.7880897829964176  0.1722449951906012  0.6583392152876314
  0.2126055377500436  0.5301042294971712  0.1385541835115074
  0.9886008982992099  0.3925420219294682  0.7497933264736347
  0.6091680345889028  0.7734933448328305  0.7621613617448709
  0.9874291110379038  0.6267499920456134  0.9522070646281384
  0.6791124523360713  0.2840999468431930  0.3782488860191344
  0.3689612552505377  0.8244643432696603  0.8924723063059383
  0.5200278115649047  0.2362573450758642  0.2968051353045223
  0.7255913791707610  0.1866044370732000  0.1126014268576232
  0.6656498975527918  0.2129709354721087  0.7973241529262118
  0.3081881167749049  0.2854293197240365  0.3371247918483203
  0.4032179488964834  0.4974060018430926  0.1284555230962319
  0.9794162478075943  0.2715133348781101  0.1231010657166990
  0.7336565388971888  0.8329996037950330  0.0677237223040034
 
  0.00000000E+00  0.00000000E+00  0.00000000E+00
  0.00000000E+00  0.00000000E+00  0.00000000E+00
  0.00000000E+00  0.00000000E+00  0.00000000E+00
  0.00000000E+00  0.00000000E+00  0.00000000E+00
  0.00000000E+00  0.00000000E+00  0.00000000E+00
  0.00000000E+00  0.00000000E+00  0.00000000E+00
  0.00000000E+00  0.00000000E+00  0.00000000E+00
  0.00000000E+00  0.00000000E+00  0.00000000E+00
  0.00000000E+00  0.00000000E+00  0.00000000E+00
  0.00000000E+00  0.00000000E+00  0.00000000E+00
  0.00000000E+00  0.00000000E+00  0.00000000E+00
  0.00000000E+00  0.00000000E+00  0.00000000E+00
  0.00000000E+00  0.00000000E+00  0.00000000E+00
  0.00000000E+00  0.00000000E+00  0.00000000E+00
  0.00000000E+00  0.00000000E+00  0.00000000E+00
  0.00000000E+00  0.00000000E+00  0.00000000E+00
  0.00000000E+00  0.00000000E+00  0.00000000E+00
  0.00000000E+00  0.00000000E+00  0.00000000E+00
  0.00000000E+00  0.00000000E+00  0.00000000E+00
  0.00000000E+00  0.00000000E+00  0.00000000E+00
  0.00000000E+00  0.00000000E+00  0.00000000E+00
  0.00000000E+00  0.00000000E+00  0.00000000E+00
  0.00000000E+00  0.00000000E+00  0.00000000E+00
  0.00000000E+00  0.00000000E+00  0.00000000E+00
  0.00000000E+00  0.00000000E+00  0.00000000E+00
  0.00000000E+00  0.00000000E+00  0.00000000E+00
  0.00000000E+00  0.00000000E+00  0.00000000E+00
  0.00000000E+00  0.00000000E+00  0.00000000E+00
  0.00000000E+00  0.00000000E+00  0.00000000E+00
  0.00000000E+00  0.00000000E+00  0.00000000E+00
  0.00000000E+00  0.00000000E+00  0.00000000E+00
  0.00000000E+00  0.00000000E+00  0.00000000E+00
  0.00000000E+00  0.00000000E+00  0.00000000E+00
  0.00000000E+00  0.00000000E+00  0.00000000E+00
  0.00000000E+00  0.00000000E+00  0.00000000E+00
  0.00000000E+00  0.00000000E+00  0.00000000E+00
  0.00000000E+00  0.00000000E+00  0.00000000E+00
  0.00000000E+00  0.00000000E+00  0.00000000E+00
  0.00000000E+00  0.00000000E+00  0.00000000E+00
  0.00000000E+00  0.00000000E+00  0.00000000E+00
  0.00000000E+00  0.00000000E+00  0.00000000E+00
  0.00000000E+00  0.00000000E+00  0.00000000E+00
  0.00000000E+00  0.00000000E+00  0.00000000E+00
  0.00000000E+00  0.00000000E+00  0.00000000E+00
  0.00000000E+00  0.00000000E+00  0.00000000E+00
  0.00000000E+00  0.00000000E+00  0.00000000E+00
  0.00000000E+00  0.00000000E+00  0.00000000E+00
  0.00000000E+00  0.00000000E+00  0.00000000E+00
  0.00000000E+00  0.00000000E+00  0.00000000E+00
  0.00000000E+00  0.00000000E+00  0.00000000E+00
  0.00000000E+00  0.00000000E+00  0.00000000E+00
  0.00000000E+00  0.00000000E+00  0.00000000E+00
  0.00000000E+00  0.00000000E+00  0.00000000E+00
  0.00000000E+00  0.00000000E+00  0.00000000E+00
  0.00000000E+00  0.00000000E+00  0.00000000E+00
  0.00000000E+00  0.00000000E+00  0.00000000E+00
  0.00000000E+00  0.00000000E+00  0.00000000E+00
  0.00000000E+00  0.00000000E+00  0.00000000E+00
  0.00000000E+00  0.00000000E+00  0.00000000E+00
  0.00000000E+00  0.00000000E+00  0.00000000E+00
  0.00000000E+00  0.00000000E+00  0.00000000E+00
  0.00000000E+00  0.00000000E+00  0.00000000E+00
  0.00000000E+00  0.00000000E+00  0.00000000E+00
  0.00000000E+00  0.00000000E+00  0.00000000E+00
  0.00000000E+00  0.00000000E+00  0.00000000E+00
  0.00000000E+00  0.00000000E+00  0.00000000E+00
  0.00000000E+00  0.00000000E+00  0.00000000E+00
  0.00000000E+00  0.00000000E+00  0.00000000E+00
  0.00000000E+00  0.00000000E+00  0.00000000E+00
  0.00000000E+00  0.00000000E+00  0.00000000E+00
  0.00000000E+00  0.00000000E+00  0.00000000E+00
  0.00000000E+00  0.00000000E+00  0.00000000E+00
  0.00000000E+00  0.00000000E+00  0.00000000E+00
  0.00000000E+00  0.00000000E+00  0.00000000E+00
  0.00000000E+00  0.00000000E+00  0.00000000E+00
  0.00000000E+00  0.00000000E+00  0.00000000E+00
  0.00000000E+00  0.00000000E+00  0.00000000E+00
  0.00000000E+00  0.00000000E+00  0.00000000E+00
  0.00000000E+00  0.00000000E+00  0.00000000E+00
  0.00000000E+00  0.00000000E+00  0.00000000E+00
  0.00000000E+00  0.00000000E+00  0.00000000E+00
  0.00000000E+00  0.00000000E+00  0.00000000E+00
  0.00000000E+00  0.00000000E+00  0.00000000E+00
  0.00000000E+00  0.00000000E+00  0.00000000E+00
  0.00000000E+00  0.00000000E+00  0.00000000E+00
  0.00000000E+00  0.00000000E+00  0.00000000E+00
  0.00000000E+00  0.00000000E+00  0.00000000E+00
  0.00000000E+00  0.00000000E+00  0.00000000E+00
  0.00000000E+00  0.00000000E+00  0.00000000E+00
  0.00000000E+00  0.00000000E+00  0.00000000E+00
  0.00000000E+00  0.00000000E+00  0.00000000E+00
  0.00000000E+00  0.00000000E+00  0.00000000E+00
  0.00000000E+00  0.00000000E+00  0.00000000E+00
  0.00000000E+00  0.00000000E+00  0.00000000E+00
  0.00000000E+00  0.00000000E+00  0.00000000E+00
  0.00000000E+00  0.00000000E+00  0.00000000E+00
  0.00000000E+00  0.00000000E+00  0.00000000E+00
  0.00000000E+00  0.00000000E+00  0.00000000E+00
  0.00000000E+00  0.00000000E+00  0.00000000E+00
  0.00000000E+00  0.00000000E+00  0.00000000E+00
  0.00000000E+00  0.00000000E+00  0.00000000E+00
  0.00000000E+00  0.00000000E+00  0.00000000E+00
  0.00000000E+00  0.00000000E+00  0.00000000E+00
  0.00000000E+00  0.00000000E+00  0.00000000E+00
  0.00000000E+00  0.00000000E+00  0.00000000E+00
  0.00000000E+00  0.00000000E+00  0.00000000E+00
  0.00000000E+00  0.00000000E+00  0.00000000E+00
  0.00000000E+00  0.00000000E+00  0.00000000E+00
  0.00000000E+00  0.00000000E+00  0.00000000E+00
  0.00000000E+00  0.00000000E+00  0.00000000E+00
  0.00000000E+00  0.00000000E+00  0.00000000E+00
  0.00000000E+00  0.00000000E+00  0.00000000E+00
  0.00000000E+00  0.00000000E+00  0.00000000E+00
  0.00000000E+00  0.00000000E+00  0.00000000E+00
  0.00000000E+00  0.00000000E+00  0.00000000E+00
  0.00000000E+00  0.00000000E+00  0.00000000E+00
  0.00000000E+00  0.00000000E+00  0.00000000E+00
  0.00000000E+00  0.00000000E+00  0.00000000E+00
  0.00000000E+00  0.00000000E+00  0.00000000E+00
  0.00000000E+00  0.00000000E+00  0.00000000E+00
  0.00000000E+00  0.00000000E+00  0.00000000E+00
  0.00000000E+00  0.00000000E+00  0.00000000E+00
  0.00000000E+00  0.00000000E+00  0.00000000E+00
  0.00000000E+00  0.00000000E+00  0.00000000E+00
  0.00000000E+00  0.00000000E+00  0.00000000E+00
  0.00000000E+00  0.00000000E+00  0.00000000E+00
  0.00000000E+00  0.00000000E+00  0.00000000E+00
  0.00000000E+00  0.00000000E+00  0.00000000E+00
  0.00000000E+00  0.00000000E+00  0.00000000E+00
  0.00000000E+00  0.00000000E+00  0.00000000E+00
  0.00000000E+00  0.00000000E+00  0.00000000E+00
  0.00000000E+00  0.00000000E+00  0.00000000E+00
  0.00000000E+00  0.00000000E+00  0.00000000E+00
  0.00000000E+00  0.00000000E+00  0.00000000E+00
  0.00000000E+00  0.00000000E+00  0.00000000E+00
  0.00000000E+00  0.00000000E+00  0.00000000E+00
  0.00000000E+00  0.00000000E+00  0.00000000E+00
  0.00000000E+00  0.00000000E+00  0.00000000E+00
  0.00000000E+00  0.00000000E+00  0.00000000E+00
  0.00000000E+00  0.00000000E+00  0.00000000E+00
  0.00000000E+00  0.00000000E+00  0.00000000E+00
  0.00000000E+00  0.00000000E+00  0.00000000E+00
  0.00000000E+00  0.00000000E+00  0.00000000E+00
  0.00000000E+00  0.00000000E+00  0.00000000E+00
  0.00000000E+00  0.00000000E+00  0.00000000E+00
  0.00000000E+00  0.00000000E+00  0.00000000E+00
  0.00000000E+00  0.00000000E+00  0.00000000E+00
  0.00000000E+00  0.00000000E+00  0.00000000E+00
  0.00000000E+00  0.00000000E+00  0.00000000E+00
  0.00000000E+00  0.00000000E+00  0.00000000E+00
  0.00000000E+00  0.00000000E+00  0.00000000E+00
  0.00000000E+00  0.00000000E+00  0.00000000E+00
  0.00000000E+00  0.00000000E+00  0.00000000E+00
  0.00000000E+00  0.00000000E+00  0.00000000E+00
  0.00000000E+00  0.00000000E+00  0.00000000E+00
  0.00000000E+00  0.00000000E+00  0.00000000E+00
  0.00000000E+00  0.00000000E+00  0.00000000E+00
  0.00000000E+00  0.00000000E+00  0.00000000E+00
  0.00000000E+00  0.00000000E+00  0.00000000E+00
  0.00000000E+00  0.00000000E+00  0.00000000E+00
  0.00000000E+00  0.00000000E+00  0.00000000E+00
  0.00000000E+00  0.00000000E+00  0.00000000E+00
  0.00000000E+00  0.00000000E+00  0.00000000E+00
  0.00000000E+00  0.00000000E+00  0.00000000E+00
  0.00000000E+00  0.00000000E+00  0.00000000E+00
  0.00000000E+00  0.00000000E+00  0.00000000E+00
  0.00000000E+00  0.00000000E+00  0.00000000E+00
  0.00000000E+00  0.00000000E+00  0.00000000E+00
  0.00000000E+00  0.00000000E+00  0.00000000E+00
  0.00000000E+00  0.00000000E+00  0.00000000E+00
  0.00000000E+00  0.00000000E+00  0.00000000E+00
  0.00000000E+00  0.00000000E+00  0.00000000E+00
  0.00000000E+00  0.00000000E+00  0.00000000E+00
  0.00000000E+00  0.00000000E+00  0.00000000E+00
  0.00000000E+00  0.00000000E+00  0.00000000E+00
  0.00000000E+00  0.00000000E+00  0.00000000E+00
  0.00000000E+00  0.00000000E+00  0.00000000E+00
  0.00000000E+00  0.00000000E+00  0.00000000E+00
  0.00000000E+00  0.00000000E+00  0.00000000E+00
  0.00000000E+00  0.00000000E+00  0.00000000E+00
  0.00000000E+00  0.00000000E+00  0.00000000E+00
  0.00000000E+00  0.00000000E+00  0.00000000E+00
  0.00000000E+00  0.00000000E+00  0.00000000E+00
  0.00000000E+00  0.00000000E+00  0.00000000E+00
  0.00000000E+00  0.00000000E+00  0.00000000E+00
  0.00000000E+00  0.00000000E+00  0.00000000E+00
  0.00000000E+00  0.00000000E+00  0.00000000E+00
  0.00000000E+00  0.00000000E+00  0.00000000E+00
  0.00000000E+00  0.00000000E+00  0.00000000E+00
  0.00000000E+00  0.00000000E+00  0.00000000E+00
  0.00000000E+00  0.00000000E+00  0.00000000E+00
  0.00000000E+00  0.00000000E+00  0.00000000E+00
  0.00000000E+00  0.00000000E+00  0.00000000E+00
  0.00000000E+00  0.00000000E+00  0.00000000E+00
  0.00000000E+00  0.00000000E+00  0.00000000E+00
  0.00000000E+00  0.00000000E+00  0.00000000E+00
  0.00000000E+00  0.00000000E+00  0.00000000E+00
  0.00000000E+00  0.00000000E+00  0.00000000E+00
  0.00000000E+00  0.00000000E+00  0.00000000E+00
  0.00000000E+00  0.00000000E+00  0.00000000E+00
  0.00000000E+00  0.00000000E+00  0.00000000E+00
  0.00000000E+00  0.00000000E+00  0.00000000E+00
  0.00000000E+00  0.00000000E+00  0.00000000E+00
  0.00000000E+00  0.00000000E+00  0.00000000E+00
  0.00000000E+00  0.00000000E+00  0.00000000E+00
  0.00000000E+00  0.00000000E+00  0.00000000E+00
  0.00000000E+00  0.00000000E+00  0.00000000E+00
  0.00000000E+00  0.00000000E+00  0.00000000E+00
  0.00000000E+00  0.00000000E+00  0.00000000E+00
  0.00000000E+00  0.00000000E+00  0.00000000E+00
  0.00000000E+00  0.00000000E+00  0.00000000E+00
  0.00000000E+00  0.00000000E+00  0.00000000E+00
  0.00000000E+00  0.00000000E+00  0.00000000E+00
  0.00000000E+00  0.00000000E+00  0.00000000E+00
  0.00000000E+00  0.00000000E+00  0.00000000E+00
  0.00000000E+00  0.00000000E+00  0.00000000E+00
  0.00000000E+00  0.00000000E+00  0.00000000E+00
  0.00000000E+00  0.00000000E+00  0.00000000E+00
  0.00000000E+00  0.00000000E+00  0.00000000E+00
  0.00000000E+00  0.00000000E+00  0.00000000E+00
  0.00000000E+00  0.00000000E+00  0.00000000E+00
  0.00000000E+00  0.00000000E+00  0.00000000E+00
  0.00000000E+00  0.00000000E+00  0.00000000E+00
  0.00000000E+00  0.00000000E+00  0.00000000E+00
  0.00000000E+00  0.00000000E+00  0.00000000E+00
  0.00000000E+00  0.00000000E+00  0.00000000E+00
  0.00000000E+00  0.00000000E+00  0.00000000E+00
  0.00000000E+00  0.00000000E+00  0.00000000E+00
  0.00000000E+00  0.00000000E+00  0.00000000E+00
  0.00000000E+00  0.00000000E+00  0.00000000E+00
  0.00000000E+00  0.00000000E+00  0.00000000E+00
  0.00000000E+00  0.00000000E+00  0.00000000E+00