Amorphous Sb                            
   1.00000000000000     
    20.5789094338048159    0.0000000000000000    0.0000000000000000
     0.0000000000000000   20.5789094338048159    0.0000000000000000
     0.0000000000000000    0.0000000000000000   20.5789094338048159
   B    Te
    75   225
Direct
  0.0540493098234622  0.3348904772945243  0.3852744517558619
  0.5519152462568646  0.3811862817548246  0.1442249260782207
  0.4512440816100998  0.5785871910498934  0.6483995210373131
  0.6381625852092548  0.3863646506979931  0.1247984174364422
  0.6548507694848690  0.6471954349026949  0.1041295986535169
  0.2725693595632233  0.9990525975895201  0.3706272669846569
  0.9817330251096399  0.6350975509059228  0.9390263505103911
  0.9231522545602792  0.5748526584219606  0.9343130348203974
  0.8998215736460251  0.6483761150814960  0.0661619244589679
  0.5391568898471450  0.3207096799193743  0.6887942247883884
  0.5766742687897095  0.3054899830176165  0.0071896373152947
  0.0699808003275419  0.7071103261246199  0.7940599114744569
  0.5688174424882468  0.4142861083120685  0.9320386159893580
  0.7402576659992050  0.5809103281022657  0.2194712027515718
  0.8892111920289710  0.7906887384071510  0.8295356511728758
  0.0576199983238232  0.7976456766635373  0.0002892008216651
  0.9875747307726976  0.7229064763051157  0.9074124208889913
  0.0864547712572389  0.5580038028389293  0.9852257157309707
  0.0520646872833659  0.6606458575376504  0.9193222246387240
  0.7849036748522072  0.6438539450046999  0.1993764303929049
  0.6685140524325182  0.5926704274879968  0.0398317588794857
  0.2494771490808768  0.9877701290962130  0.5415961600120333
  0.0341392435623657  0.4880131559697921  0.9873620537569098
  0.3951821884960812  0.4902276636927059  0.5593472161555608
  0.9267525755372462  0.4943645627438877  0.9189809025818749
  0.0169980105877955  0.5519601973119617  0.0349141479954243
  0.0693623400642351  0.7306438384208648  0.8755137905659633
  0.1182280971938914  0.4594970869815014  0.9690976569441668
  0.1168818182216104  0.7788828280465959  0.4240690026157871
  0.3843507796019214  0.5302658720446815  0.6355365401992943
  0.9286700096731205  0.7193170528108963  0.8466195283629887
  0.9433813143709164  0.5139576483867921  0.0006483668626325
  0.1062203038997398  0.6537930940691549  0.8528757086911697
  0.9499900650737345  0.6060351146391357  0.0131014445566626
  0.5594941676717785  0.6377303332597075  0.9754784347297830
  0.6007765613689459  0.3394459980855255  0.9354987016692171
  0.6450950492593728  0.4270688213000249  0.0526217667299479
  0.0252892605735090  0.4069080275036092  0.4160819192435664
  0.4733419051494266  0.3409190176509522  0.7526353790978276
  0.4437216848196318  0.4188607165794021  0.7270843588857537
  0.5236074122989974  0.5931736401732353  0.0385462765396514
  0.5553629683758560  0.3506228550409234  0.7651683030851317
  0.9112924566803711  0.7625524770029489  0.9193128263041613
  0.9849922483112040  0.5789271036262295  0.8045225112435278
  0.0354280472980456  0.3851879291750651  0.9007917608817742
  0.5973876390468190  0.4412859171406737  0.1836626650860331
  0.6503822404898867  0.0148592978435040  0.3172820594341706
  0.5848575643906100  0.4959331919612365  0.9367605422045533
  0.5079415764783390  0.4188865074545317  0.7789500945844288
  0.0025464666041499  0.4574623107318947  0.9113925363480184
  0.1102451734521395  0.3811374185858387  0.9382607831124972
  0.5785309909833736  0.4623419271878362  0.0149293376482678
  0.1536828350466343  0.7094314959586213  0.4451408811131782
  0.0447341267351606  0.5892775471438417  0.8714054385036363
  0.6655956283132365  0.4667762859276110  0.1298613250740782
  0.5795474336007326  0.3731341118227814  0.0629741962530335
  0.5900454606221399  0.5549066205539204  0.0018786936766428
  0.0663094102035507  0.5181165086380218  0.9110622761132742
  0.5341542098425287  0.3771986256290027  0.6297890136558043
  0.5474458572521834  0.5289526607740632  0.0836657489725014
  0.4951040186656381  0.4407477614133050  0.6622562845121414
  0.5965728024641750  0.5164329185675400  0.1502722191701926
  0.9820151661070589  0.5352960036107252  0.8746996694485429
  0.0947099277808383  0.4422684284352957  0.8798532275413489
  0.4609157272756781  0.3620622338600210  0.6676939483453705
  0.5756668029167348  0.3992397036356950  0.6962196723919200
  0.6312388480165945  0.5171712193516312  0.0719622531856302
  0.0021321942693594  0.7501866349568310  0.8244573106147350
  0.0518597171905688  0.6245152032050204  0.7917712240803130
  0.8194791506351995  0.6566979069319782  0.0408135686982819
  0.9790087003698416  0.7919555700817607  0.9794090327399745
  0.0425742510630976  0.6299767544496407  0.0020186298559699
  0.0161361564650813  0.2731661402642039  0.3553265047119103
  0.4676464113987366  0.5055338087841529  0.6178974353715294
  0.0449600124511691  0.4063046040996408  0.9845246498592088
  0.7830318894376957  0.5512055931039168  0.3158360071860653
  0.9154215058636943  0.0289842116292057  0.7757563516644536
  0.2431228448777620  0.2237714909847369  0.0791036870304048
  0.2185033335309482  0.8534191915458336  0.1312911879346935
  0.1761804721951686  0.5196836611050240  0.0353115800770990
  0.8085076625564196  0.0162533431146723  0.1875931995281983
  0.7160457885073744  0.7148423335045526  0.7637721821731691
  0.6432609480260301  0.8176250542239011  0.0338135141420921
  0.1990973137527535  0.6836674025232857  0.3444539779203242
  0.8818153429567213  0.9069966870653781  0.5081191319493684
  0.9981151667626477  0.3035240339368347  0.8404041430201609
  0.9918211799170721  0.6819568597561111  0.6251394536145417
  0.8417991308077528  0.0672708281243200  0.5950746368128704
  0.7893945413558344  0.8962724047182274  0.1237399332071585
  0.8421873720562536  0.7161152442630986  0.2711855076148466
  0.8962793216521994  0.6114756420279217  0.1753645451637589
  0.7082873690207275  0.3811828463642732  0.9714873545162944
  0.1472163638644280  0.8196059290134790  0.3225575547577712
  0.6313395936829865  0.4251877286430304  0.2846362553202674
  0.8099625365770624  0.7313371995791086  0.9575804635753945
  0.4833267423799793  0.6051976670291803  0.7480201714785180
  0.7982927574809848  0.8579213297119473  0.2673062822333231
  0.0785835274637590  0.8952926962352084  0.0580739358381134
  0.3653976607287964  0.8609772223340237  0.1749392077339621
  0.6709490214233648  0.4814466278640700  0.8721149190409185
  0.5438368734104277  0.0054902260185720  0.9863520629807088
  0.5596446397900688  0.7379553587834135  0.6206110474657606
  0.0578817406172962  0.0740483932943755  0.1479837368976099
  0.1000569971522295  0.2152212823498681  0.0315846720766880
  0.6640496963989901  0.0269531698140275  0.2094242412467203
  0.4330101387335946  0.8379115429111273  0.3669011218857293
  0.4299254600596417  0.9939852684540509  0.1257018983114736
  0.7532294679447290  0.3797045856596618  0.2557868028139105
  0.0709933838542205  0.1052837549153562  0.8251325384683011
  0.3181397144749833  0.5838306757532062  0.5589393616324845
  0.5939907382203350  0.9205450315271796  0.3300344454097073
  0.7729077263341750  0.4904007379534248  0.1553663213544236
  0.0636594876898653  0.4556679357615755  0.5039671122750754
  0.9263582113884149  0.1649010506988553  0.7282497582404687
  0.2039346876685239  0.1158972730728565  0.1855551766577301
  0.2008516174706749  0.3954144881760379  0.5203011934271080
  0.5186944730490816  0.2975895671828531  0.2046922685030871
  0.8831619854701152  0.3661825638016410  0.6946041092485473
  0.1690568738079823  0.0450110151363036  0.3732145808273313
  0.9550100281681323  0.0064121878322453  0.0846544780229596
  0.2928979237023020  0.2318355722083935  0.4584696715673865
  0.6188756174526604  0.5850572836409834  0.7479655679786442
  0.0058172105103296  0.0679715477137749  0.9473881142376011
  0.5457043390998424  0.1044831550853495  0.6078875639921442
  0.3128467785098341  0.1184868193461278  0.0115299813702656
  0.7118044824220777  0.3076274342662493  0.1400162457466078
  0.8411765277261185  0.0980135121334341  0.0611649874044771
  0.1593168892619156  0.0517377467642817  0.5173461771283507
  0.3370915811322596  0.5484927092044668  0.3693562480457570
  0.6519605241155070  0.9551978278067504  0.6357440768565331
  0.6956131222261828  0.8377801405727798  0.4680523051650889
  0.6569351863359540  0.8481818386071308  0.2307047197471707
  0.8095212237000402  0.8236517757252326  0.7734686121660034
  0.6714731348808936  0.0349593506122132  0.0365841198572181
  0.0062240450539706  0.6148716439668083  0.3796283621806062
  0.9590600438223352  0.9750363036365300  0.6332320459538231
  0.5892915532746565  0.2844616798394494  0.3693257331135274
  0.2232646433973904  0.1305662870287689  0.6831754179819894
  0.3253042563640774  0.9748134645997750  0.4602613576174784
  0.7169612503461691  0.2724005835004654  0.4053957154754379
  0.1057741750297146  0.3640741762117192  0.2381957942625202
  0.9220004952834675  0.7648785731830979  0.0725678330233575
  0.5164211808343689  0.6212160678600467  0.3347015209914762
  0.8071908848351182  0.1659271219002362  0.2488952999814605
  0.3770547972901863  0.3255093875911856  0.9330123871876024
  0.4120776241631164  0.2507077231636046  0.1348948079459932
  0.7474440812270752  0.2916245831755379  0.8189807504796893
  0.0897333833945303  0.9616610738995652  0.8414307778447965
  0.2002651182064263  0.1238826261010012  0.9104522781955284
  0.4785938608098234  0.6632477581016422  0.9077251619489490
  0.8904880836199920  0.3798734821003540  0.5447798393143582
  0.9226362153855324  0.2389183523266405  0.5141574452203045
  0.2175744632310157  0.4919557425185208  0.2208051070020103
  0.0248207721281664  0.5170984100586887  0.1411164821156412
  0.5660603779830206  0.9267861440093631  0.4821726955587428
  0.7355337182812471  0.9200517236583066  0.9863145028356208
  0.1292424041371533  0.4390488300324559  0.7736213318185211
  0.6404429663604472  0.2218994279468968  0.0458292577331025
  0.0886004867060920  0.0475176303895751  0.6583500359936932
  0.7467324417051520  0.7062684155761957  0.1159190261391185
  0.4201421956497119  0.5867159181600126  0.0116620343215797
  0.3334860046173851  0.9066887422103475  0.8500565938586701
  0.4913718805158046  0.4694576456994277  0.8724746213372870
  0.2215135070343585  0.7108858247068426  0.5291144900036790
  0.6003370099385770  0.7421893320012848  0.3141897717994376
  0.6920342684990806  0.5055378261132547  0.4468872603037212
  0.0966478541927275  0.8600679784686804  0.4959379887253344
  0.9054221268069488  0.2740907996567678  0.3531915334215981
  0.7843255793395248  0.6962044412056583  0.5643589759904558
  0.2934792279236675  0.6865698193392633  0.1592175237636592
  0.2448616994884876  0.0191042429476776  0.0985802060105310
  0.9750071248703556  0.8537076883807541  0.7985041366973900
  0.8231865414921979  0.8132667327095227  0.4218421119015066
  0.4390989191045860  0.9890623266146870  0.7651046504141817
  0.0999913656849021  0.6207742995233057  0.4762883316278998
  0.5572301710542753  0.7545714520313934  0.8023272721589956
  0.3905076450788676  0.8240546669936596  0.0281477191441851
  0.4990633799238341  0.1184333919788679  0.2525111978079352
  0.7712129675260548  0.0058320701925269  0.7088425991246570
  0.2595376677136467  0.0533010089510793  0.8060612594790050
  0.4271440270695454  0.6772286360258138  0.6082405026553077
  0.7693090550787126  0.5564730295697019  0.0173606951370097
  0.4653197087609166  0.0942511562597546  0.4349690499664869
  0.2629847085685827  0.9060002176684000  0.3104740855813954
  0.2637574883087994  0.7471781347709479  0.0445490705920769
  0.3216060191444536  0.2466072103759064  0.2464752731154520
  0.1795974905691093  0.1939038461466396  0.3589800836318575
  0.0130099090955451  0.7770000902612698  0.3845625458076060
  0.1065146438416042  0.6025961961316622  0.2044403219311087
  0.3460236332665129  0.4652062664421168  0.7177515729763658
  0.2156790868251397  0.6629572079345748  0.8836858438248084
  0.2934025909873614  0.2715224780334123  0.7666262030939874
  0.9053640687994123  0.5492339344334223  0.4746336479611843
  0.3225721346218165  0.3915308259616250  0.2287784535305664
  0.8727649499413742  0.0591252584573671  0.8988405078624309
  0.1344263999825284  0.7376833709271732  0.7119825072480800
  0.1524204367601288  0.9992210755042058  0.9674342199347995
  0.7070839722109714  0.8301068341177200  0.6033334945800979
  0.7816318061345747  0.5203262153750372  0.5550864799899978
  0.6343820348896851  0.6287390097533050  0.6055235560483421
  0.6037972775859894  0.1020404363469204  0.3660893194286785
  0.0547661199383099  0.4861272386301423  0.3342338907023377
  0.2227794259279708  0.8221589552510237  0.7837548059342323
  0.3207166037051334  0.7759671136275623  0.7000953639292838
  0.3423083866464935  0.5782421965244926  0.8062589808612283
  0.6617650008569445  0.6486312418089216  0.9400071638080595
  0.4499561912588099  0.6536529258352234  0.4609144818348191
  0.2533229252188096  0.3873046639224972  0.8431310666398616
  0.1945298486606297  0.3235035231071602  0.6393902533095156
  0.7468552368887887  0.1284346009764181  0.7643738260403319
  0.1937801198895693  0.5398469495677247  0.6163273317282217
  0.8872724856776958  0.2208918715004143  0.1470324496199082
  0.2056919503357973  0.8874260295183871  0.5734521445190590
  0.3623240731459400  0.3218586014435533  0.6260555307187391
  0.0367759528758758  0.5414864675128057  0.7180553551421467
  0.0299358047658120  0.2297666808227188  0.6526806683995980
  0.2037619564033068  0.5260651299528970  0.3613705837512490
  0.2565859512684096  0.5326350627333013  0.9166327976280049
  0.7647278474568620  0.6768098758314469  0.3838142508249782
  0.3082808810303773  0.8019511050576527  0.4648721629358887
  0.3913207387377431  0.7933152146424540  0.8885034954203100
  0.3742018809769838  0.8708199562102962  0.6190219331949680
  0.9204138453191477  0.7106818483816053  0.5128837672378717
  0.8961200422020580  0.4331494674430602  0.0607313460363708
  0.6601515431032714  0.9466765222114112  0.8497907544711318
  0.2113912237223844  0.3655944348471860  0.1211456300574606
  0.1447999833200943  0.9354661155386702  0.6976213833814708
  0.9605010923600386  0.2078527250934913  0.0072189785095250
  0.0896568732436872  0.7102693651559755  0.0619987347581771
  0.5370930970247656  0.0842200589510074  0.1230416957966087
  0.6748524027729023  0.4425878915581390  0.6903653119837135
  0.6767508746291608  0.1699593290521083  0.1921575780827225
  0.7481186460660677  0.9963380965242646  0.3784056715705628
  0.7394946326057170  0.3170296442344951  0.6873012534353440
  0.4261081164547680  0.2574224422115131  0.8098678173026098
  0.5109519065660327  0.2383982603885672  0.4759547544738526
  0.3227621003828205  0.0621678773350353  0.2914690179802011
  0.7464250068750646  0.3837062726730195  0.4989714481493763
  0.3950088846030563  0.2456869405885468  0.3540766498210175
  0.6355485058749829  0.6024595198358484  0.2050179264285678
  0.3302210811585501  0.7287448676226903  0.3518048010984299
  0.9353500810292013  0.0910682767242509  0.4992304052995667
  0.3091516260220679  0.0191443032781041  0.6306894369704362
  0.4506314149373362  0.9910121466073418  0.2923496267295604
  0.4964100765672251  0.7991576431360896  0.2479822151470273
  0.5560356882824439  0.6992603729553725  0.0786665238017717
  0.0195327305064268  0.3764686056922477  0.6242338984399253
  0.0005935798633819  0.8224256986498488  0.6584571695308156
  0.5240146179732154  0.8897355035809886  0.0830415531362132
  0.0481287349830501  0.2386761534290104  0.4590008968732442
  0.4320246723324804  0.1935094126872353  0.6173423952621597
  0.0126778611352184  0.3567403173797312  0.0735744874189800
  0.1883807389816683  0.2034373613375167  0.5646405507659539
  0.9945312791602220  0.9252665805160004  0.3487634581160762
  0.1732309986265518  0.9603801159296373  0.2158386668881223
  0.5090835231075606  0.9034628320282136  0.6630095142908889
  0.1219568421886064  0.2377361672067279  0.7570507205605284
  0.5947053795099674  0.2263834471882533  0.6798316618259135
  0.9134018625898108  0.3403279054127765  0.2328038125260077
  0.6030426281654758  0.2789669012103970  0.8404031911062747
  0.3736438211545218  0.9677969960343143  0.9726030622487459
  0.1753431346275682  0.2950482554665025  0.9404688394819104
  0.7069880820741450  0.0930672685316649  0.8889429460370518
  0.8583409108159725  0.8488794224658956  0.6317561632487827
  0.8973335968427252  0.0918639594848262  0.3719660488983522
  0.5460320682017259  0.8758035181775617  0.8733219778774884
  0.3095747139884507  0.4179552951191128  0.0260177180305093
  0.4005972264132138  0.4231352712502207  0.3391328317267459
  0.1710710366819517  0.3432790621285502  0.3568343698951513
  0.4792614646318611  0.4358128381885722  0.0730239940485923
  0.8861662131031854  0.6241716992914933  0.8257038999382206
  0.4376899131625467  0.6525650160705687  0.2296841561182700
  0.5593422692221487  0.3712296162524391  0.5255476548397232
  0.6852092002479151  0.0580212387669978  0.4865145978732744
  0.1392744580528669  0.8043327163055094  0.9214892882600288
  0.9396480153680152  0.8908238782466078  0.2328661967510887
  0.3572765621088705  0.1156217939223422  0.5277247734392438
  0.4782466236384010  0.2560119121733344  0.0012736059793317
  0.4771142739646351  0.9976696611434179  0.5513685358955364
  0.0651877752837385  0.2126095078286021  0.2803201494012397
  0.5177751306151958  0.7950235989085848  0.4749628574010840
  0.7938381011894354  0.2040865317444368  0.6072057487933593
  0.8265131880072754  0.6611138094394688  0.6908745287470415
  0.4940889151404406  0.5082484727363897  0.5053649754645707
  0.3846658513971617  0.0788355181843271  0.8597439431619511
  0.8558916778959819  0.5097558974334304  0.6806473338710033
  0.8779070032609807  0.3203672824799705  0.9134413498917281
  0.9148482319009710  0.4153402948379178  0.4026062212870273
  0.3425268563551257  0.5619076214084828  0.1341416699647172
  0.6712421689233826  0.2243354095364058  0.5540743424000251
  0.3583807015618875  0.4045351925850051  0.5110765312968351
  0.6382474449534058  0.6394204704461598  0.4579984892200602
  0.0138725166880179  0.0824985979694527  0.2935136954285834
  0.7526843063791333  0.2133269957137631  0.9559322700742168
  0.0216635581299334  0.7804512129508759  0.1720544377610848
  0.2306888986017105  0.6340665041810947  0.7186422986662120
  0.5391280935723566  0.0958752575804342  0.7583835794172702
  0.9214640149663881  0.8772058916251839  0.9380329767553311
  0.8401396925975629  0.4475304330942287  0.8736714705452819
  0.5398013368615139  0.1189815769113698  0.8955754544211774
 
  0.95958613E-02  0.51886275E-02  0.49365587E-02
  0.26128658E-02  0.27009685E-02  0.54076107E-02
  0.30843208E-02  0.86627332E-02  0.47461787E-02
 -0.82005865E-02 -0.40770714E-02  0.21913445E-02
  0.85956442E-02 -0.58591472E-02  0.18416405E-02
  0.57683090E-03  0.12689498E-02 -0.16807488E-02
 -0.26310380E-02  0.28885941E-02 -0.31805077E-02
  0.44157270E-03 -0.24701653E-03  0.61335672E-02
  0.23367808E-02  0.49030149E-02 -0.13823794E-02
  0.27212499E-02 -0.45536536E-02 -0.36194132E-02
  0.19322504E-03 -0.25696602E-02  0.58189032E-02
  0.43712754E-02 -0.86182238E-02  0.38719501E-02
 -0.26657283E-02  0.85685991E-03 -0.37007543E-02
 -0.78307762E-02  0.33867498E-02 -0.36056294E-02
 -0.37129358E-02 -0.81664367E-02  0.21937960E-03
  0.14502984E-02  0.62563285E-03  0.73795144E-02
 -0.26257563E-02  0.54330004E-02  0.80543388E-02
 -0.26216080E-02  0.21223706E-02 -0.25058161E-02
  0.21983177E-02  0.19436502E-02  0.10679994E-02
  0.54007105E-02  0.25155704E-02 -0.40351152E-02
  0.23446616E-02 -0.41098933E-03 -0.24951263E-02
  0.27906820E-02  0.77195942E-02 -0.41533027E-02
  0.16675719E-02  0.25755176E-02  0.42946753E-03
 -0.88330468E-02 -0.38651155E-02  0.90582786E-02
  0.32936648E-02 -0.49909576E-02 -0.40829381E-02
  0.18448237E-02 -0.41955223E-02  0.22861082E-02
  0.55838840E-02  0.92464086E-03 -0.34945451E-02
 -0.18366931E-03  0.81698454E-02 -0.67071899E-03
  0.14443539E-02 -0.60641478E-03 -0.84435072E-02
 -0.65639444E-02 -0.26995119E-02 -0.59178921E-02
 -0.52330071E-02 -0.46245349E-02 -0.45244527E-02
  0.47551092E-02 -0.25765397E-02 -0.75890981E-02
  0.17036670E-02 -0.34323122E-02  0.58078562E-02
 -0.29673782E-02 -0.51958719E-02  0.69245872E-03
 -0.24605793E-02  0.13382259E-03  0.35428833E-03
 -0.70904023E-03 -0.14634364E-02 -0.34166876E-02
  0.24820173E-02  0.16802956E-02  0.32585157E-02
 -0.11321412E-02 -0.41579352E-02 -0.11966348E-03
 -0.24007881E-02  0.24172774E-02  0.26656376E-02
 -0.13575272E-02 -0.22348779E-02  0.23466960E-02
 -0.15798252E-02 -0.66691832E-02  0.97323770E-02
  0.38853088E-03  0.14055555E-02 -0.10615127E-01
 -0.16869604E-02 -0.23701190E-02  0.37329112E-02
 -0.35856343E-02  0.11904265E-03  0.16996335E-02
 -0.12478849E-02 -0.39869683E-02 -0.80251631E-02
  0.71008050E-03  0.41371098E-03  0.34717684E-02
 -0.56309757E-02 -0.12996865E-02  0.89363722E-03
  0.61522366E-02  0.38435154E-02 -0.64654077E-02
  0.47267457E-02  0.33953458E-02  0.58921011E-02
 -0.25700438E-02 -0.61932979E-03  0.16000841E-02
 -0.65287662E-02  0.10223792E-02  0.12611989E-02
 -0.77257975E-02  0.38788370E-02  0.68111256E-02
  0.43664905E-02 -0.48217760E-02 -0.33282227E-02
  0.57456078E-02  0.38732064E-02  0.25818482E-02
  0.50373453E-02 -0.72121596E-02 -0.26552847E-02
  0.80814666E-02 -0.34586838E-02  0.43026315E-02
 -0.22509745E-02  0.87606588E-02 -0.53817807E-02
  0.23431294E-02  0.24783455E-02  0.56345208E-02
  0.55781802E-02  0.24518650E-02 -0.32844569E-02
  0.42768246E-02 -0.18830873E-02 -0.72595148E-02
 -0.45580043E-02 -0.59254896E-02 -0.36762208E-02
  0.24805968E-02  0.42122979E-02 -0.23206840E-02
 -0.94299137E-02 -0.43635265E-02  0.10744411E-02
 -0.81245281E-02  0.55467618E-03  0.34407455E-02
 -0.25485394E-02  0.20052499E-03 -0.21804915E-02
 -0.13713609E-02  0.83721270E-03  0.45710884E-02
  0.16157026E-02 -0.31005182E-02  0.10135004E-02
  0.17316469E-03 -0.26092964E-02 -0.19330836E-03
  0.47907249E-03  0.18747260E-02  0.87790423E-02
 -0.14639317E-02 -0.24619812E-02  0.33792830E-02
 -0.10679779E-02 -0.73093302E-02  0.42186706E-02
  0.63912153E-02 -0.74187743E-03 -0.78000370E-04
  0.35694188E-02  0.34461348E-02 -0.46658151E-03
  0.44251670E-02  0.24978550E-02 -0.31443757E-02
  0.55918175E-02  0.56172480E-02  0.33949190E-02
  0.27995392E-02  0.66575179E-03 -0.75686808E-03
  0.14698686E-02 -0.20677875E-02 -0.95805649E-03
 -0.14812288E-02 -0.47398339E-02 -0.23955641E-02
 -0.20294324E-02 -0.87250877E-03 -0.65368889E-03
  0.77082414E-03  0.61371690E-03 -0.24882136E-02
  0.15393716E-02 -0.19102977E-02  0.27320823E-03
  0.70979298E-03  0.18487990E-02 -0.45374158E-03
  0.40744589E-03  0.19366035E-02 -0.33098366E-02
  0.38615664E-03  0.14820365E-02  0.46376469E-04
  0.67279964E-03  0.11824182E-02  0.12928995E-02
  0.10208464E-02  0.36890332E-03 -0.13068908E-02
  0.15418498E-04  0.17738524E-02 -0.16566532E-02
  0.15398655E-02  0.13962673E-02 -0.16261497E-02
  0.41861248E-03 -0.11555155E-02 -0.45032097E-03
 -0.92591029E-03  0.20367248E-02  0.14854593E-02
 -0.61995494E-03  0.44554623E-03  0.22613236E-02
  0.26488285E-02  0.13491266E-02 -0.14731300E-02
  0.14716985E-04  0.31474589E-03 -0.21289285E-03
  0.36126753E-03 -0.26299274E-03  0.16988415E-02
 -0.23752440E-03 -0.11988850E-04  0.14341747E-02
  0.32393902E-03 -0.10418319E-02 -0.56487095E-03
  0.27886286E-03 -0.97549421E-03 -0.36826095E-03
  0.25947179E-03  0.18081395E-02  0.17189627E-02
  0.20268663E-03  0.11187389E-02  0.64759491E-03
 -0.31407148E-03 -0.13685179E-02 -0.32058222E-02
 -0.13052005E-02  0.65732447E-03 -0.16112404E-02
 -0.68801587E-03 -0.20826943E-03  0.12905025E-02
  0.87900031E-03  0.16256613E-02  0.18164627E-02
 -0.32396683E-02  0.13994891E-02  0.90248205E-03
 -0.38947530E-02  0.34334575E-02 -0.94313028E-03
  0.94309871E-04 -0.21154590E-02  0.60764261E-03
  0.10752075E-03  0.13167424E-02 -0.18890433E-02
  0.62924918E-03 -0.48047259E-03 -0.13051542E-02
  0.33205929E-03 -0.82343127E-03 -0.11891033E-02
 -0.65134627E-03 -0.33005630E-03  0.83399277E-03
  0.19507155E-02  0.12999386E-02 -0.85683710E-03
  0.57973682E-03  0.27192483E-02  0.12574816E-02
  0.74914813E-03  0.24908441E-02 -0.14158586E-02
 -0.15219187E-02 -0.10058618E-02 -0.26974305E-02
  0.76300906E-03 -0.13607832E-03  0.34678485E-02
 -0.37905775E-03 -0.12454032E-02  0.43779304E-04
 -0.22323242E-03 -0.92775396E-03 -0.22814378E-02
  0.21971703E-02  0.10962658E-02 -0.15389323E-02
 -0.72845210E-04 -0.10237725E-03 -0.20420141E-02
 -0.23169341E-03  0.24345455E-03  0.10356551E-02
 -0.56151512E-03 -0.93586609E-03 -0.59122428E-03
  0.19894010E-02  0.95143128E-03 -0.67819634E-03
  0.64990191E-05  0.17976425E-02 -0.32762911E-03
  0.11097607E-03 -0.11080987E-02  0.11412467E-02
  0.43579067E-03  0.46213596E-03  0.46832394E-03
  0.47587976E-03 -0.90566510E-03  0.11053060E-02
 -0.13596820E-02 -0.30771399E-03  0.85355891E-03
  0.17441251E-02  0.13814045E-03  0.18379988E-02
 -0.46984541E-03  0.91134774E-04 -0.24008292E-02
  0.29891026E-03  0.45663331E-03 -0.24923932E-02
  0.67745521E-03 -0.17840024E-02  0.31702179E-03
 -0.70964662E-03  0.33461105E-03 -0.76840510E-03
 -0.22755573E-02  0.44748944E-03  0.18990832E-03
  0.58495681E-04 -0.15307088E-02 -0.31677423E-03
  0.11674269E-02 -0.24917075E-03  0.24742095E-02
 -0.53975922E-03  0.10053642E-02 -0.77688433E-03
 -0.39598435E-03 -0.18432212E-03 -0.18756940E-02
 -0.24139321E-03  0.48819322E-03 -0.16860862E-03
  0.45556310E-03  0.32911431E-03 -0.69396202E-05
 -0.28359085E-02 -0.43348651E-02  0.12565656E-02
  0.44175484E-02  0.15173389E-03  0.24641931E-03
  0.31774916E-04  0.16100216E-02 -0.45117994E-03
 -0.22416737E-02  0.15374722E-02 -0.44686946E-03
  0.29458501E-02 -0.48247531E-03  0.16144216E-03
  0.22318242E-02 -0.53886962E-03  0.15843199E-02
  0.11346366E-02  0.13207239E-02  0.11757994E-02
  0.18426565E-02  0.41004262E-03 -0.66702684E-03
 -0.15091956E-02 -0.12285220E-02 -0.18728439E-02
 -0.28949813E-03  0.82135993E-03 -0.46587507E-03
 -0.27347113E-02 -0.75002613E-03  0.89652951E-04
 -0.26705825E-02 -0.17097206E-03 -0.14608118E-02
 -0.84810938E-03  0.44413400E-03  0.22333121E-02
 -0.44064360E-03  0.51843563E-03  0.80075071E-03
 -0.55432548E-03 -0.70476505E-03  0.13344698E-02
 -0.16124338E-02 -0.12302065E-02  0.20271045E-02
 -0.19101674E-03  0.90687929E-03  0.10123505E-02
 -0.19995366E-02  0.10347259E-03 -0.10780454E-02
  0.65345834E-03  0.80108881E-03 -0.11378015E-02
  0.15233181E-02 -0.83669322E-03  0.15642447E-02
  0.32424200E-02  0.91381993E-03  0.17070032E-02
 -0.19900240E-02  0.21361384E-02 -0.29514381E-03
  0.98740117E-03 -0.10470178E-02  0.13944822E-02
 -0.69438977E-03 -0.61206368E-03 -0.66484655E-03
  0.22697741E-02 -0.74534499E-04  0.44684182E-03
  0.13503118E-02  0.25530974E-03  0.32005777E-02
  0.16996720E-03  0.19368422E-02 -0.40575425E-03
 -0.21730742E-04 -0.61470371E-03  0.37664227E-03
  0.24464094E-02 -0.78443711E-03 -0.19867296E-02
  0.40973580E-04 -0.18287251E-04 -0.22768323E-02
  0.79566577E-03  0.12819315E-02  0.56238940E-03
 -0.19445622E-02 -0.17475877E-02 -0.23370972E-02
  0.47806303E-03 -0.19197195E-03 -0.29080187E-02
 -0.89227915E-03 -0.13527806E-02 -0.44334985E-03
  0.28081121E-02 -0.18136506E-02  0.20028673E-02
 -0.12723289E-02 -0.20915586E-02 -0.55865955E-03
  0.16495587E-02  0.35020268E-02  0.30754169E-02
  0.89170443E-03 -0.90294560E-03 -0.73889097E-03
 -0.11136544E-02  0.26677049E-02  0.34340857E-02
  0.73496354E-03  0.10154572E-02 -0.92471894E-04
 -0.10268457E-02  0.84867803E-03 -0.79554236E-03
 -0.21461497E-02  0.21964656E-03 -0.57486717E-04
  0.12706142E-02  0.32604478E-02 -0.26068997E-03
 -0.95063712E-03 -0.75232422E-04  0.68731432E-03
 -0.25108674E-02  0.13393522E-02  0.68514019E-03
 -0.11933987E-02 -0.59395094E-05  0.11590664E-02
 -0.59198213E-03 -0.22901434E-02  0.10843767E-02
  0.40406241E-03  0.17676631E-02  0.21280261E-02
 -0.30733825E-02 -0.48969785E-03 -0.21255746E-02
  0.83465238E-03 -0.37145603E-03  0.20544394E-03
 -0.18225288E-02  0.20667411E-02 -0.65924729E-03
 -0.50153275E-05 -0.23969881E-02  0.11778863E-02
  0.14874686E-02 -0.35109630E-03  0.52310922E-03
 -0.36325377E-02 -0.15276670E-02 -0.20600127E-02
 -0.85692125E-04  0.14283445E-02 -0.72289011E-03
 -0.16043510E-02 -0.66123020E-03  0.27713184E-02
  0.70638602E-03 -0.86252944E-03  0.58824014E-03
 -0.89921218E-03 -0.18465443E-02  0.15429216E-02
  0.11178402E-02 -0.92210693E-06  0.88484787E-03
  0.18504359E-02 -0.23335049E-03  0.17408609E-02
 -0.56828244E-03 -0.92232488E-03 -0.24459571E-02
 -0.11849889E-02  0.64838465E-03  0.10225702E-02
 -0.16085196E-02 -0.17112699E-02 -0.16922318E-03
 -0.27787255E-04 -0.60949106E-03 -0.13544534E-02
  0.45309410E-03 -0.26537722E-02 -0.93592561E-03
 -0.74043531E-03 -0.18175465E-02  0.73168508E-03
  0.82571389E-03  0.12364642E-02 -0.11370587E-02
 -0.11012098E-02  0.37309975E-03  0.23223815E-02
  0.56631271E-04 -0.60939239E-04  0.17276806E-02
 -0.77537980E-03  0.11430451E-02  0.55289429E-03
 -0.68344358E-03 -0.55227776E-03 -0.92785727E-03
  0.17684361E-02 -0.31668344E-03  0.85651113E-04
  0.99370048E-03  0.35750531E-03  0.10920702E-02
  0.87054644E-03 -0.15763905E-03 -0.15608296E-02
  0.87703246E-03 -0.50700634E-03 -0.20272000E-02
  0.78159438E-04  0.12428680E-02 -0.60104467E-03
 -0.17485088E-02  0.20533824E-03  0.58880391E-03
 -0.20511623E-02 -0.46072862E-03 -0.12724920E-02
 -0.13962627E-02  0.13641705E-03 -0.14458415E-02
 -0.53392298E-03  0.23011500E-02  0.45499617E-03
  0.10365832E-02  0.71551038E-03 -0.30038396E-02
 -0.38385648E-03  0.15919852E-03  0.12162210E-02
  0.87182426E-03 -0.31130800E-02  0.15837362E-02
  0.18415764E-02  0.69346398E-03 -0.77480848E-03
 -0.86698146E-03 -0.13363769E-03 -0.14018608E-02
  0.16616096E-02 -0.11027526E-02  0.25296845E-03
  0.30256477E-02 -0.10294645E-02 -0.12495364E-02
 -0.18536444E-02 -0.21074678E-03  0.11506680E-02
  0.39144950E-03 -0.17093327E-02 -0.73076907E-03
 -0.65053555E-03 -0.19263692E-02  0.16401614E-02
 -0.23839176E-03  0.13552631E-02  0.53795719E-03
 -0.11580925E-03  0.11833036E-02 -0.15205557E-02
 -0.20226664E-02  0.63504508E-03 -0.25829153E-02