Amorphous GeAsSeSi                      
   1.00000000000000     
    18.9580870796929517    0.0000000000000000    0.0000000000000000
     0.0000000000000000   18.9580870796929517    0.0000000000000000
     0.0000000000000000    0.0000000000000000   18.9580870796929517
   Ge   As   S 
   108    24   108
Direct
  0.1810332446351433  0.5339520670158586  0.7584838621702821
  0.0029675408582330  0.1710617361594823  0.9078653069846847
  0.5152118873095620  0.1802798111188864  0.4224316914854144
  0.2948328427047754  0.9497371609226694  0.4072935807675351
  0.9451037395996505  0.3580286733890866  0.9419175031992385
  0.2755702628187974  0.3892214275023034  0.8411554629335032
  0.6998119647875326  0.5561877572277547  0.0127689115052366
  0.2491604630778559  0.6902318605252239  0.1858731784846852
  0.4186556555564733  0.5011585914115815  0.3714142394650141
  0.8455884046039591  0.1005753707555948  0.6909872116039696
  0.9095010448801000  0.8642243829800220  0.1919078778792743
  0.9627802301271209  0.7596572940978940  0.9585995442131905
  0.0750649430780503  0.0596415989617875  0.2651109667487209
  0.8252450641865612  0.0322827725998384  0.5032405983946975
  0.4509014382979407  0.0223329672856995  0.6651240849979670
  0.4180996495168023  0.5666993161558819  0.4969913444340701
  0.0818617037636646  0.3841255884904301  0.4612604442998450
  0.8029210034079963  0.7281611341271226  0.7295908050821693
  0.3487722611918734  0.7689738267322372  0.3291448883178272
  0.0057510870120095  0.7756833396319344  0.5356386570878078
  0.0690294900184333  0.9791048330505846  0.8711115616938347
  0.9224386312690522  0.8770612147345646  0.3921028121136733
  0.5251361114967890  0.5790547021155353  0.9397068412881050
  0.7524411052325072  0.3514900213668389  0.8844577075777696
  0.1794903615707322  0.9515118365321433  0.9993437311161222
  0.2545833578857865  0.4773831408072084  0.5168386562584649
  0.3006883936250153  0.7928357281054275  0.5795736074333763
  0.6808303262003491  0.6278329770374258  0.2059244676554444
  0.4819383177520469  0.9665368769680172  0.3158975098189000
  0.9509967939981411  0.6336239209286900  0.6456899075940596
  0.9833181692835994  0.6467531186169517  0.8455730160123736
  0.6586872978421289  0.3868978341498310  0.1099593030317880
  0.9195387456050300  0.6094725249080315  0.4676431221203347
  0.9379783294678307  0.2401484390952841  0.6059692708887016
  0.4934799160863250  0.2868754509135100  0.6374008160947370
  0.4420965732498913  0.9874972442728026  0.5321298013779422
  0.9077450210021667  0.4824502069396108  0.7775537383442660
  0.3274841544788955  0.8482968782692134  0.1370117298069581
  0.9260931442947763  0.5483902588076446  0.2009507592776913
  0.9559681387082459  0.9718258936280227  0.0119277221608976
  0.1104899615452765  0.5661027218446266  0.1571169209745282
  0.5917387021776587  0.6565235002416476  0.5167168204623497
  0.9359267350880740  0.3766976547599213  0.5800061677310112
  0.7843195201210337  0.7440752241689468  0.5079353843620497
  0.8854494582299642  0.1352424191841458  0.4459960547059825
  0.1578723325006303  0.2495605256141384  0.9794338813561472
  0.0143286917468601  0.0514859870744969  0.5747679965255668
  0.6324093280475576  0.0017210120049172  0.9412822855086128
  0.8374495649436007  0.6907869067353091  0.1097114346989200
  0.6354988076866869  0.8651074718983250  0.8577729881333134
  0.2255723923740184  0.9361043051244138  0.7847390367024363
  0.8385061322773282  0.4907688549854198  0.2856230533772666
  0.9783899478254642  0.8325144243045048  0.7015544572109641
  0.8452903381825995  0.1796156264532219  0.2420257272209727
  0.0209480189147595  0.5894952162219289  0.3389125277914238
  0.4839159273768061  0.7179081247896171  0.1340603244458435
  0.6164749768542047  0.6866639549216806  0.8342153359737211
  0.1146204124857253  0.4281664826785826  0.8826688913465883
  0.4832512448339175  0.1634589276953587  0.2534377392501680
  0.4330886832590452  0.3587465723414518  0.2870191491799171
  0.3505539350057901  0.4936350058331581  0.6828516384795034
  0.2169514485262205  0.2257232307397594  0.7996982994718927
  0.3077626042540838  0.9810898448892507  0.9688238683021683
  0.7136452822835838  0.0947642391515119  0.5471335626842345
  0.1260778332155132  0.7043604483367765  0.7076953306819787
  0.2639940522993749  0.1292171575420829  0.4845128234028289
  0.6705199662051670  0.3047339106434680  0.5895470744410679
  0.6256440384502491  0.3259058335140882  0.7672996402274571
  0.6429723990196041  0.5025811490208719  0.3513074745886853
  0.7766600220135147  0.2383200039228763  0.0683158952662710
  0.6325675330859355  0.0421773218971123  0.2788801468977350
  0.4786801740513067  0.3179915047671638  0.9471666755274807
  0.8425574724908009  0.7031173438077084  0.2861407988040293
  0.5333383379492296  0.6745529334126377  0.3203489030619980
  0.4525380389669807  0.0154799859629296  0.0234071649529819
  0.5631445011748986  0.1377813240220515  0.0979844314622132
  0.6959167459499908  0.1300750441291924  0.0986805766685739
  0.7848074133641864  0.3418852225870267  0.2955304102475219
  0.1199790530721372  0.0305569649497617  0.4179548403237729
  0.4464135183576430  0.7341000041040011  0.9963025807506921
  0.0057339296376643  0.3047945636069218  0.7644168299882773
  0.7869034333355386  0.9120113038178728  0.0170981986521161
  0.1559819526494058  0.8230868416268887  0.4707898092260385
  0.6451800605845633  0.9074058862349907  0.5004021660674417
  0.0189415993674018  0.3347079001305618  0.0540039415510513
  0.2152688534209806  0.0961566435420464  0.8538623189273730
  0.5865350141451386  0.5388084462981722  0.1720535118544705
  0.7521829210551730  0.9188575451543032  0.3471564318729890
  0.4651882863154682  0.3957631904020511  0.7945811752999442
  0.3227237193829814  0.3645046485760333  0.4791826687517801
  0.6252967557389634  0.9878739660389225  0.6557411805986795
  0.6129212089857057  0.3517838032702509  0.9867170192949152
  0.7772041310564655  0.6839265171024678  0.9278981125132255
  0.0831561376042035  0.5071992127108004  0.5931757744695814
  0.8558153938332371  0.4166421013326602  0.0887323606547551
  0.2948534675691610  0.5100399093659587  0.9058496595467016
  0.6890378329334721  0.5576860424570873  0.5321844693573636
  0.9134138548019333  0.8604025083694425  0.8589439198978200
  0.0876365232855239  0.7653825797427362  0.1183130247611735
  0.0648401195651345  0.5967050962389634  0.0255735389552260
  0.2440227654062018  0.9769669139239534  0.6186355336443119
  0.3402335974039388  0.1596775798669823  0.5862162173504016
  0.7897578754692169  0.2247831408004822  0.4329628329370267
  0.4748344569183728  0.8275151150635428  0.6162986977441829
  0.5411966675554848  0.4508047976337449  0.5645321813651649
  0.9534506943021893  0.2848018413626407  0.3483676347339773
  0.2095174937057547  0.1723557976169209  0.3054864462704619
  0.6036202457707575  0.5633820873148391  0.6956772502971661
  0.1752642395168159  0.0709786812520193  0.1308489479572235
  0.3286471550016987  0.9192164248259634  0.5293284345920509
  0.4473827055536002  0.0543641699356427  0.4156577014531376
  0.6339774741758823  0.7390541440995358  0.2646933572135409
  0.1647768203507421  0.3914486061287478  0.7687408354868732
  0.0972475270659016  0.8713830646315832  0.5801175384108055
  0.1570967608045045  0.2062685954617385  0.1502686035261476
  0.5064477022948652  0.7231317365132699  0.7723087011564175
  0.2644229425660949  0.6642700505110682  0.0539380598130783
  0.7192252685459705  0.7665739955407060  0.8345590006957698
  0.3864808537415592  0.5239731822461493  0.2392404806133193
  0.1837775435556133  0.2308222680757676  0.5273616843951526
  0.5196754999560257  0.0684339808294624  0.9231505896693426
  0.5216326934184223  0.0172792467623103  0.1365830569313689
  0.7603476355033134  0.5979077319123162  0.3046616676259666
  0.5558222782453832  0.4326418631417442  0.7079838676508422
  0.4833089289089495  0.6088217661181268  0.2158128297401027
  0.9599732819734040  0.6684187796467924  0.2428259741492847
  0.6738183905343508  0.2066961113223375  0.4917533997299888
  0.4260350376564383  0.0500512837820869  0.2207401224866735
  0.3230573849101003  0.0761515681748968  0.3777976871491295
  0.5805999074700483  0.7935062825233701  0.6880804554719928
  0.2687308540465677  0.5818650861288619  0.2665950568445530
  0.5232367531740488  0.8513283195476465  0.7908445540311358
  0.6104540718766024  0.8870703734109916  0.9735576596507409
  0.8398019637283562  0.7699564909472314  0.0035888826875939
  0.8674416653935202  0.9519682421250326  0.1088006837205553
  0.0294562466924942  0.2140894539671568  0.0242250914771341
  0.4166452089755933  0.4469851751793865  0.5426797917246161
  0.5858884204959721  0.4227731343307120  0.2005109338905642
  0.0156509637461646  0.8616257895168768  0.0026019579729305
  0.7005847199129576  0.2645850398138859  0.9665045270664875
  0.3107096507395613  0.0165734663743119  0.8488771806455010
  0.8156811037240640  0.9191004349839956  0.4610001310042116
  0.9212929127775309  0.5140475071451182  0.3790431346850641
  0.1518712204586794  0.6980734292335152  0.0247254474020662
  0.3848369671064939  0.7531742698075919  0.2005677872595398
  0.4565565477126022  0.7341765009174802  0.3856835094879503
  0.8569846638767769  0.6617238406052098  0.8274275262202579
  0.2798856686616288  0.2784579822185982  0.8945912776776901
  0.6795661556184405  0.9741261186920022  0.8329686972736677
  0.7087181386337720  0.6640064555050826  0.0946601018529717
  0.0167418913743924  0.9858986483343269  0.4667755523859756
  0.2543921271761216  0.7568226402145786  0.4658813337213323
  0.5048129290640319  0.2267916516443045  0.1541979329633825
  0.4129518371280778  0.7347762754643440  0.5789838918088341
  0.5410853014532475  0.1688218545088900  0.9814210801262493
  0.4023241744391988  0.9027229605164206  0.6778069818514182
  0.3278925584939791  0.0682953290979916  0.6667311444396159
  0.2681709943714793  0.2545885269049226  0.6123088361125634
  0.9189704376610296  0.5265587015036083  0.0823794412400173
  0.7515454875387664  0.2119099441319821  0.3189338687884571
  0.9931992995365782  0.6901947007131262  0.0708963261733151
  0.6618119943854789  0.4340499188956116  0.9141209219049479
  0.0378274354220603  0.5043113195829005  0.2387815702554988
  0.2214291296544776  0.5171332940555339  0.1766650005559793
  0.1273989760270094  0.3780252938590795  0.9951903294023843
  0.2969100734215442  0.5866568352003382  0.4975117450179072
  0.0615507187033537  0.0378765658619191  0.1430653905539536
  0.0010042768306482  0.5620635876344895  0.7393318652079722
  0.2250726032360059  0.8082734109125849  0.1945040623624235
  0.5554555802393206  0.3302409142411470  0.5335976239521836
  0.5727728538739227  0.7904438858245301  0.1772552690279052
  0.1605043664235980  0.0715265352235322  0.9604698083660844
  0.9930478471071511  0.4511922004213842  0.8771686316651079
  0.4089567190460562  0.9131130562056211  0.9783361474254251
  0.3343750047320593  0.4085273531387638  0.3581160981306794
  0.1250684836083186  0.6745990025531954  0.2112130911515180
  0.1831797717290395  0.0538951575725616  0.5352807006893757
  0.5932591546566393  0.6874816102324237  0.9521722047583888
  0.7167579237656866  0.0823558868283359  0.6671490121536693
  0.0648669610179541  0.7656772440652455  0.4231316884219107
  0.8917581333112338  0.0124771267231459  0.6024224256843568
  0.9842124124461966  0.1654821469106185  0.5117936235797613
  0.1777568871362018  0.9182544799639529  0.3846858192909340
  0.4564740169593259  0.1753555161907233  0.5780497662122104
  0.0306478386548357  0.7466254457746776  0.7843090402743562
  0.8033248663455854  0.7828993507594437  0.1983888317172231
  0.9560391813914435  0.5335722154574706  0.5643859696282498
  0.0643918270115705  0.3758518620336944  0.5884819995881037
  0.1397579470921525  0.0331989028769247  0.7749284800307412
  0.0633239455511281  0.6779415545894200  0.6007593254283348
  0.4468069285820197  0.4364400321288400  0.9045164889195219
  0.1516451694292549  0.8234678589882374  0.6751269884297066
  0.8461036612387699  0.7661606869015247  0.3883541416991177
  0.6045900077603347  0.2361437728744128  0.6774153196395710
  0.1924121256508144  0.3160736570027474  0.4438053608501909
  0.8568531227912464  0.8405962907789680  0.7434332054838039
  0.1054115291428951  0.2389554072370864  0.8649890553924284
  0.5124350578355791  0.4215564308427865  0.3623717046543048
  0.5875206564866142  0.1599814057925394  0.3143876275346028
  0.9864620125462360  0.9300740516364958  0.7839134617163036
  0.5699673040059742  0.5936903581849271  0.4035117737108889
  0.3622268986361590  0.8994025675729708  0.3199173498458070
  0.2032320054781060  0.0519345223334953  0.2485807521202989
  0.7222786133833722  0.0480004471862233  0.0047800395538355
  0.8006448641327666  0.6188616258992573  0.5161626827650935
  0.2594287979848537  0.2277641350542604  0.2072665021528161
  0.8397026360550781  0.4155654501218645  0.9595356034398269
  0.3508941278272959  0.0779250036375742  0.0275647049479782
  0.9965387223999410  0.1959490311121825  0.7012810854603299
  0.3181370418055262  0.7693226045003000  0.0307834351801903
  0.7259499856045317  0.0741510351423862  0.1997607281100552
  0.7023632101529431  0.5076462092503110  0.6408307104664450
  0.9330816299798458  0.1498061060848963  0.3363989124588382
  0.9229295348648010  0.2650181685738431  0.8662704772902604
  0.6902933729885118  0.8921242998464445  0.6139177190863851
  0.1621579743431818  0.8913949831698598  0.8883640789164456
  0.6099774546412031  0.0338292230257793  0.5323074333704181
  0.8739066696159944  0.9377410900261375  0.2905463878404970
  0.3548025896525503  0.3758754311952843  0.7441776428912865
  0.7431980791425519  0.4766963396231625  0.1097745663256925
  0.8613935370615524  0.9584636678415992  0.9226414236023898
  0.8503399954977129  0.3288903492456386  0.4186682017408018
  0.5105275419056361  0.8847710486516511  0.5126876266096971
  0.1632429855330461  0.5368666979240293  0.8981651425645044
  0.1384147079979373  0.4979429950671521  0.4739662979373907
  0.6921254042140792  0.4632382399485483  0.4554010844350151
  0.2367084153576055  0.4636425330660111  0.6381877427291185
  0.8259264366268013  0.1948875339449259  0.6113293636573304
  0.7165002218048124  0.0353580422032664  0.3697943423415293
  0.3041681950718595  0.5582525216043209  0.7897886377060837
  0.5798403732927079  0.5278579945459151  0.0509324119255671
  0.6640193763796769  0.7488192248193714  0.4794399391965473
  0.0901596340889385  0.1913943076979967  0.2518065245183022
  0.6587177077158219  0.5796158589876992  0.8061310232949159
  0.4244613062977816  0.2311251923781521  0.3354509898847236
  0.5126025598060026  0.2867216550086489  0.8249280410065313
  0.8930110121563974  0.3068793029654161  0.2390340913990090
  0.9113149436546280  0.3775736926730551  0.7054299046713142
  0.7140571606527542  0.2943497705913121  0.1626940376975914
  0.4163409881249507  0.6173135149029151  0.9836089100961438
 
  0.00000000E+00  0.00000000E+00  0.00000000E+00
  0.00000000E+00  0.00000000E+00  0.00000000E+00
  0.00000000E+00  0.00000000E+00  0.00000000E+00
  0.00000000E+00  0.00000000E+00  0.00000000E+00
  0.00000000E+00  0.00000000E+00  0.00000000E+00
  0.00000000E+00  0.00000000E+00  0.00000000E+00
  0.00000000E+00  0.00000000E+00  0.00000000E+00
  0.00000000E+00  0.00000000E+00  0.00000000E+00
  0.00000000E+00  0.00000000E+00  0.00000000E+00
  0.00000000E+00  0.00000000E+00  0.00000000E+00
  0.00000000E+00  0.00000000E+00  0.00000000E+00
  0.00000000E+00  0.00000000E+00  0.00000000E+00
  0.00000000E+00  0.00000000E+00  0.00000000E+00
  0.00000000E+00  0.00000000E+00  0.00000000E+00
  0.00000000E+00  0.00000000E+00  0.00000000E+00
  0.00000000E+00  0.00000000E+00  0.00000000E+00
  0.00000000E+00  0.00000000E+00  0.00000000E+00
  0.00000000E+00  0.00000000E+00  0.00000000E+00
  0.00000000E+00  0.00000000E+00  0.00000000E+00
  0.00000000E+00  0.00000000E+00  0.00000000E+00
  0.00000000E+00  0.00000000E+00  0.00000000E+00
  0.00000000E+00  0.00000000E+00  0.00000000E+00
  0.00000000E+00  0.00000000E+00  0.00000000E+00
  0.00000000E+00  0.00000000E+00  0.00000000E+00
  0.00000000E+00  0.00000000E+00  0.00000000E+00
  0.00000000E+00  0.00000000E+00  0.00000000E+00
  0.00000000E+00  0.00000000E+00  0.00000000E+00
  0.00000000E+00  0.00000000E+00  0.00000000E+00
  0.00000000E+00  0.00000000E+00  0.00000000E+00
  0.00000000E+00  0.00000000E+00  0.00000000E+00
  0.00000000E+00  0.00000000E+00  0.00000000E+00
  0.00000000E+00  0.00000000E+00  0.00000000E+00
  0.00000000E+00  0.00000000E+00  0.00000000E+00
  0.00000000E+00  0.00000000E+00  0.00000000E+00
  0.00000000E+00  0.00000000E+00  0.00000000E+00
  0.00000000E+00  0.00000000E+00  0.00000000E+00
  0.00000000E+00  0.00000000E+00  0.00000000E+00
  0.00000000E+00  0.00000000E+00  0.00000000E+00
  0.00000000E+00  0.00000000E+00  0.00000000E+00
  0.00000000E+00  0.00000000E+00  0.00000000E+00
  0.00000000E+00  0.00000000E+00  0.00000000E+00
  0.00000000E+00  0.00000000E+00  0.00000000E+00
  0.00000000E+00  0.00000000E+00  0.00000000E+00
  0.00000000E+00  0.00000000E+00  0.00000000E+00
  0.00000000E+00  0.00000000E+00  0.00000000E+00
  0.00000000E+00  0.00000000E+00  0.00000000E+00
  0.00000000E+00  0.00000000E+00  0.00000000E+00
  0.00000000E+00  0.00000000E+00  0.00000000E+00
  0.00000000E+00  0.00000000E+00  0.00000000E+00
  0.00000000E+00  0.00000000E+00  0.00000000E+00
  0.00000000E+00  0.00000000E+00  0.00000000E+00
  0.00000000E+00  0.00000000E+00  0.00000000E+00
  0.00000000E+00  0.00000000E+00  0.00000000E+00
  0.00000000E+00  0.00000000E+00  0.00000000E+00
  0.00000000E+00  0.00000000E+00  0.00000000E+00
  0.00000000E+00  0.00000000E+00  0.00000000E+00
  0.00000000E+00  0.00000000E+00  0.00000000E+00
  0.00000000E+00  0.00000000E+00  0.00000000E+00
  0.00000000E+00  0.00000000E+00  0.00000000E+00
  0.00000000E+00  0.00000000E+00  0.00000000E+00
  0.00000000E+00  0.00000000E+00  0.00000000E+00
  0.00000000E+00  0.00000000E+00  0.00000000E+00
  0.00000000E+00  0.00000000E+00  0.00000000E+00
  0.00000000E+00  0.00000000E+00  0.00000000E+00
  0.00000000E+00  0.00000000E+00  0.00000000E+00
  0.00000000E+00  0.00000000E+00  0.00000000E+00
  0.00000000E+00  0.00000000E+00  0.00000000E+00
  0.00000000E+00  0.00000000E+00  0.00000000E+00
  0.00000000E+00  0.00000000E+00  0.00000000E+00
  0.00000000E+00  0.00000000E+00  0.00000000E+00
  0.00000000E+00  0.00000000E+00  0.00000000E+00
  0.00000000E+00  0.00000000E+00  0.00000000E+00
  0.00000000E+00  0.00000000E+00  0.00000000E+00
  0.00000000E+00  0.00000000E+00  0.00000000E+00
  0.00000000E+00  0.00000000E+00  0.00000000E+00
  0.00000000E+00  0.00000000E+00  0.00000000E+00
  0.00000000E+00  0.00000000E+00  0.00000000E+00
  0.00000000E+00  0.00000000E+00  0.00000000E+00
  0.00000000E+00  0.00000000E+00  0.00000000E+00
  0.00000000E+00  0.00000000E+00  0.00000000E+00
  0.00000000E+00  0.00000000E+00  0.00000000E+00
  0.00000000E+00  0.00000000E+00  0.00000000E+00
  0.00000000E+00  0.00000000E+00  0.00000000E+00
  0.00000000E+00  0.00000000E+00  0.00000000E+00
  0.00000000E+00  0.00000000E+00  0.00000000E+00
  0.00000000E+00  0.00000000E+00  0.00000000E+00
  0.00000000E+00  0.00000000E+00  0.00000000E+00
  0.00000000E+00  0.00000000E+00  0.00000000E+00
  0.00000000E+00  0.00000000E+00  0.00000000E+00
  0.00000000E+00  0.00000000E+00  0.00000000E+00
  0.00000000E+00  0.00000000E+00  0.00000000E+00
  0.00000000E+00  0.00000000E+00  0.00000000E+00
  0.00000000E+00  0.00000000E+00  0.00000000E+00
  0.00000000E+00  0.00000000E+00  0.00000000E+00
  0.00000000E+00  0.00000000E+00  0.00000000E+00
  0.00000000E+00  0.00000000E+00  0.00000000E+00
  0.00000000E+00  0.00000000E+00  0.00000000E+00
  0.00000000E+00  0.00000000E+00  0.00000000E+00
  0.00000000E+00  0.00000000E+00  0.00000000E+00
  0.00000000E+00  0.00000000E+00  0.00000000E+00
  0.00000000E+00  0.00000000E+00  0.00000000E+00
  0.00000000E+00  0.00000000E+00  0.00000000E+00
  0.00000000E+00  0.00000000E+00  0.00000000E+00
  0.00000000E+00  0.00000000E+00  0.00000000E+00
  0.00000000E+00  0.00000000E+00  0.00000000E+00
  0.00000000E+00  0.00000000E+00  0.00000000E+00
  0.00000000E+00  0.00000000E+00  0.00000000E+00
  0.00000000E+00  0.00000000E+00  0.00000000E+00
  0.00000000E+00  0.00000000E+00  0.00000000E+00
  0.00000000E+00  0.00000000E+00  0.00000000E+00
  0.00000000E+00  0.00000000E+00  0.00000000E+00
  0.00000000E+00  0.00000000E+00  0.00000000E+00
  0.00000000E+00  0.00000000E+00  0.00000000E+00
  0.00000000E+00  0.00000000E+00  0.00000000E+00
  0.00000000E+00  0.00000000E+00  0.00000000E+00
  0.00000000E+00  0.00000000E+00  0.00000000E+00
  0.00000000E+00  0.00000000E+00  0.00000000E+00
  0.00000000E+00  0.00000000E+00  0.00000000E+00
  0.00000000E+00  0.00000000E+00  0.00000000E+00
  0.00000000E+00  0.00000000E+00  0.00000000E+00
  0.00000000E+00  0.00000000E+00  0.00000000E+00
  0.00000000E+00  0.00000000E+00  0.00000000E+00
  0.00000000E+00  0.00000000E+00  0.00000000E+00
  0.00000000E+00  0.00000000E+00  0.00000000E+00
  0.00000000E+00  0.00000000E+00  0.00000000E+00
  0.00000000E+00  0.00000000E+00  0.00000000E+00
  0.00000000E+00  0.00000000E+00  0.00000000E+00
  0.00000000E+00  0.00000000E+00  0.00000000E+00
  0.00000000E+00  0.00000000E+00  0.00000000E+00
  0.00000000E+00  0.00000000E+00  0.00000000E+00
  0.00000000E+00  0.00000000E+00  0.00000000E+00
  0.00000000E+00  0.00000000E+00  0.00000000E+00
  0.00000000E+00  0.00000000E+00  0.00000000E+00
  0.00000000E+00  0.00000000E+00  0.00000000E+00
  0.00000000E+00  0.00000000E+00  0.00000000E+00
  0.00000000E+00  0.00000000E+00  0.00000000E+00
  0.00000000E+00  0.00000000E+00  0.00000000E+00
  0.00000000E+00  0.00000000E+00  0.00000000E+00
  0.00000000E+00  0.00000000E+00  0.00000000E+00
  0.00000000E+00  0.00000000E+00  0.00000000E+00
  0.00000000E+00  0.00000000E+00  0.00000000E+00
  0.00000000E+00  0.00000000E+00  0.00000000E+00
  0.00000000E+00  0.00000000E+00  0.00000000E+00
  0.00000000E+00  0.00000000E+00  0.00000000E+00
  0.00000000E+00  0.00000000E+00  0.00000000E+00
  0.00000000E+00  0.00000000E+00  0.00000000E+00
  0.00000000E+00  0.00000000E+00  0.00000000E+00
  0.00000000E+00  0.00000000E+00  0.00000000E+00
  0.00000000E+00  0.00000000E+00  0.00000000E+00
  0.00000000E+00  0.00000000E+00  0.00000000E+00
  0.00000000E+00  0.00000000E+00  0.00000000E+00
  0.00000000E+00  0.00000000E+00  0.00000000E+00
  0.00000000E+00  0.00000000E+00  0.00000000E+00
  0.00000000E+00  0.00000000E+00  0.00000000E+00
  0.00000000E+00  0.00000000E+00  0.00000000E+00
  0.00000000E+00  0.00000000E+00  0.00000000E+00
  0.00000000E+00  0.00000000E+00  0.00000000E+00
  0.00000000E+00  0.00000000E+00  0.00000000E+00
  0.00000000E+00  0.00000000E+00  0.00000000E+00
  0.00000000E+00  0.00000000E+00  0.00000000E+00
  0.00000000E+00  0.00000000E+00  0.00000000E+00
  0.00000000E+00  0.00000000E+00  0.00000000E+00
  0.00000000E+00  0.00000000E+00  0.00000000E+00
  0.00000000E+00  0.00000000E+00  0.00000000E+00
  0.00000000E+00  0.00000000E+00  0.00000000E+00
  0.00000000E+00  0.00000000E+00  0.00000000E+00
  0.00000000E+00  0.00000000E+00  0.00000000E+00
  0.00000000E+00  0.00000000E+00  0.00000000E+00
  0.00000000E+00  0.00000000E+00  0.00000000E+00
  0.00000000E+00  0.00000000E+00  0.00000000E+00
  0.00000000E+00  0.00000000E+00  0.00000000E+00
  0.00000000E+00  0.00000000E+00  0.00000000E+00
  0.00000000E+00  0.00000000E+00  0.00000000E+00
  0.00000000E+00  0.00000000E+00  0.00000000E+00
  0.00000000E+00  0.00000000E+00  0.00000000E+00
  0.00000000E+00  0.00000000E+00  0.00000000E+00
  0.00000000E+00  0.00000000E+00  0.00000000E+00
  0.00000000E+00  0.00000000E+00  0.00000000E+00
  0.00000000E+00  0.00000000E+00  0.00000000E+00
  0.00000000E+00  0.00000000E+00  0.00000000E+00
  0.00000000E+00  0.00000000E+00  0.00000000E+00
  0.00000000E+00  0.00000000E+00  0.00000000E+00
  0.00000000E+00  0.00000000E+00  0.00000000E+00
  0.00000000E+00  0.00000000E+00  0.00000000E+00
  0.00000000E+00  0.00000000E+00  0.00000000E+00
  0.00000000E+00  0.00000000E+00  0.00000000E+00
  0.00000000E+00  0.00000000E+00  0.00000000E+00
  0.00000000E+00  0.00000000E+00  0.00000000E+00
  0.00000000E+00  0.00000000E+00  0.00000000E+00
  0.00000000E+00  0.00000000E+00  0.00000000E+00
  0.00000000E+00  0.00000000E+00  0.00000000E+00
  0.00000000E+00  0.00000000E+00  0.00000000E+00
  0.00000000E+00  0.00000000E+00  0.00000000E+00
  0.00000000E+00  0.00000000E+00  0.00000000E+00
  0.00000000E+00  0.00000000E+00  0.00000000E+00
  0.00000000E+00  0.00000000E+00  0.00000000E+00
  0.00000000E+00  0.00000000E+00  0.00000000E+00
  0.00000000E+00  0.00000000E+00  0.00000000E+00
  0.00000000E+00  0.00000000E+00  0.00000000E+00
  0.00000000E+00  0.00000000E+00  0.00000000E+00
  0.00000000E+00  0.00000000E+00  0.00000000E+00
  0.00000000E+00  0.00000000E+00  0.00000000E+00
  0.00000000E+00  0.00000000E+00  0.00000000E+00
  0.00000000E+00  0.00000000E+00  0.00000000E+00
  0.00000000E+00  0.00000000E+00  0.00000000E+00
  0.00000000E+00  0.00000000E+00  0.00000000E+00
  0.00000000E+00  0.00000000E+00  0.00000000E+00
  0.00000000E+00  0.00000000E+00  0.00000000E+00
  0.00000000E+00  0.00000000E+00  0.00000000E+00
  0.00000000E+00  0.00000000E+00  0.00000000E+00
  0.00000000E+00  0.00000000E+00  0.00000000E+00
  0.00000000E+00  0.00000000E+00  0.00000000E+00
  0.00000000E+00  0.00000000E+00  0.00000000E+00
  0.00000000E+00  0.00000000E+00  0.00000000E+00
  0.00000000E+00  0.00000000E+00  0.00000000E+00
  0.00000000E+00  0.00000000E+00  0.00000000E+00
  0.00000000E+00  0.00000000E+00  0.00000000E+00
  0.00000000E+00  0.00000000E+00  0.00000000E+00
  0.00000000E+00  0.00000000E+00  0.00000000E+00
  0.00000000E+00  0.00000000E+00  0.00000000E+00
  0.00000000E+00  0.00000000E+00  0.00000000E+00
  0.00000000E+00  0.00000000E+00  0.00000000E+00
  0.00000000E+00  0.00000000E+00  0.00000000E+00
  0.00000000E+00  0.00000000E+00  0.00000000E+00
  0.00000000E+00  0.00000000E+00  0.00000000E+00
  0.00000000E+00  0.00000000E+00  0.00000000E+00
  0.00000000E+00  0.00000000E+00  0.00000000E+00
  0.00000000E+00  0.00000000E+00  0.00000000E+00
  0.00000000E+00  0.00000000E+00  0.00000000E+00
  0.00000000E+00  0.00000000E+00  0.00000000E+00
  0.00000000E+00  0.00000000E+00  0.00000000E+00
  0.00000000E+00  0.00000000E+00  0.00000000E+00
  0.00000000E+00  0.00000000E+00  0.00000000E+00
  0.00000000E+00  0.00000000E+00  0.00000000E+00
  0.00000000E+00  0.00000000E+00  0.00000000E+00
  0.00000000E+00  0.00000000E+00  0.00000000E+00
  0.00000000E+00  0.00000000E+00  0.00000000E+00
  0.00000000E+00  0.00000000E+00  0.00000000E+00
  0.00000000E+00  0.00000000E+00  0.00000000E+00
  0.00000000E+00  0.00000000E+00  0.00000000E+00
