Amorphous Sb                            
   1.00000000000000     
    20.8915646190562967    0.0000000000000000    0.0000000000000000
     0.0000000000000000   20.8915646190562967    0.0000000000000000
     0.0000000000000000    0.0000000000000000   20.8915646190562967
   Ge   Te
   150   150
Direct
  0.1599935928123486  0.1421090776167375  0.9062559378252573
  0.1550448458464544  0.5886491795986331  0.8535317025642186
  0.1790058507635024  0.1521023941908837  0.0326975615833831
  0.3916891295829927  0.2442455170364042  0.4071374722692909
  0.4436730806054143  0.9269962884439877  0.7702185816865637
  0.1917794236609183  0.3114474413731614  0.2890734812261826
  0.4674642195785026  0.4193985150940094  0.0954880159234932
  0.9293470451654642  0.7803527106536947  0.5356811381689042
  0.6958315530492598  0.2999207879502634  0.6916586677481504
  0.9356359393314762  0.8297108568676776  0.8755251357812455
  0.5026749133756212  0.4207801116536629  0.5912071336309097
  0.3629372968847520  0.5672512896251902  0.7357768502303443
  0.7160956383971495  0.5196962692571034  0.7091639352307340
  0.6482248955459795  0.8161356274295741  0.2390854804262048
  0.3033987183029367  0.1906310682875514  0.9037688226545839
  0.7832055015732280  0.8767630961021240  0.7262693065266461
  0.8603597639685958  0.9288331652083315  0.9100737976322435
  0.4909386808805820  0.6402001884026447  0.8791873562830190
  0.6085515249906237  0.1594613940612035  0.1001891621400333
  0.4756439424964825  0.8416502169699953  0.9662395133014385
  0.7637602626504503  0.7541027447318314  0.7169448554653357
  0.5367075867991460  0.7536778903042460  0.8998629959375890
  0.0100150936936672  0.7362328265247911  0.0232702397767923
  0.0348081473645010  0.3213132112366210  0.5735273089324480
  0.1630685818643585  0.9500139383049913  0.2876268481212847
  0.0451361798587797  0.9246079448769891  0.5091722512112042
  0.0033587544628020  0.6131923053116282  0.0353760912662864
  0.6706554908206996  0.9996533956786919  0.4995701716020946
  0.3273858797323541  0.8544581956490305  0.2990486871244826
  0.1597582825668198  0.8011615502361167  0.5319303420118899
  0.7137995339898779  0.3433856108773625  0.9242957131027651
  0.1044579622439628  0.0778863198763773  0.2897647640722809
  0.9284071588021163  0.2131554074292552  0.2480898795751827
  0.2050386197000762  0.6369091494750734  0.6178072238603534
  0.5144804024568401  0.2726760143622258  0.2628817366734779
  0.6183940918564375  0.0108342013021741  0.1101708231881346
  0.8290209082500581  0.3409589069700942  0.6166103971125168
  0.6219408155142006  0.0695911942524106  0.6888044916691030
  0.9853895049526429  0.2670586142818507  0.7683233749282650
  0.4926768073090955  0.1193595129717693  0.3190582975330614
  0.1776199319136182  0.0277501761203283  0.8252126229506089
  0.1828945302146181  0.7574855745103619  0.9616111789554580
  0.2465912703665509  0.3549535516427866  0.0839867687921085
  0.6881596861729946  0.4467423978500307  0.5506799732245682
  0.0256298855303072  0.1501368871248303  0.0392359356398941
  0.6708871037170780  0.8859790034494850  0.8802565660592165
  0.7560388745495956  0.0427121159646617  0.0261219760014271
  0.2981594563873244  0.7239884646139885  0.9251410862056773
  0.1563368995286680  0.0640661646333385  0.6544592322781213
  0.2354760793210957  0.0853000056646351  0.5452837597489548
  0.9368903182921571  0.7555516866231073  0.1822058840014265
  0.0494821626856350  0.8229150120832500  0.9355741126352939
  0.3251337715832392  0.7564221142239660  0.8069462237888416
  0.9186399328382606  0.0498614533834640  0.6767939447764704
  0.4896619337025143  0.9987540492837326  0.0666206471782189
  0.1079420848165284  0.2699242282170928  0.9059647390180245
  0.7417457825898381  0.1774578455176936  0.4852822579563991
  0.7658303925122567  0.9294520670926687  0.0984443960725159
  0.3310934368932124  0.8111799670526025  0.1088604921664640
  0.9136049728252900  0.3373522518753305  0.9671490184165563
  0.5800112402286928  0.5677636579900991  0.8257804467863608
  0.4938614378564381  0.1118532815813893  0.8249598785971983
  0.0982552964877428  0.6623490039935760  0.2461434016322173
  0.2827877943860386  0.0969484119974169  0.8234119677890561
  0.8535641248302070  0.0520947714962361  0.9419263039686570
  0.1232721369394270  0.4032351529875911  0.5890684914289892
  0.0793225967144551  0.0330554234437344  0.5581766910954542
  0.0012231504693503  0.8078856573988418  0.7676856228136515
  0.0490070102292606  0.2716284633496215  0.1324419897900881
  0.1907751462421601  0.4653431871037981  0.4217241926710855
  0.9675792845143789  0.3155604277745496  0.4674429238000357
  0.0695694604696797  0.3887202153547591  0.8759765762191094
  0.5909296715420282  0.6192971938381433  0.5971902678861341
  0.1983329002729590  0.6582261659434536  0.0387916869434690
  0.6936097513987249  0.7874818443756766  0.5978254003846146
  0.8024153640709244  0.7923898265729150  0.4186658553436970
  0.8078902228248168  0.7116481512969628  0.2170785963276884
  0.7951767881204574  0.1919940097572521  0.6762887247968195
  0.5773019129344590  0.3452407129113197  0.4417077403003447
  0.9776604720383020  0.8049206434027738  0.4069602170057323
  0.5620766099490524  0.9010493145076808  0.7176745519743477
  0.7975168808999626  0.3277382601535592  0.4435827632412170
  0.7670699805072516  0.9401945935716753  0.8279567830681174
  0.5453312220221349  0.1137729673117178  0.2029078697709892
  0.3762060676831638  0.0249700771178354  0.2986427968683572
  0.4917983641103945  0.7277815031322490  0.2626704194937588
  0.6384712019683434  0.4047275473804319  0.3208452354201157
  0.2485667076018032  0.9217349122603835  0.9359657782161861
  0.8947737892646330  0.1855287160582222  0.7551767110582546
  0.9167829764976787  0.9738154916237107  0.3476373999648104
  0.7692222734413932  0.8316672556827385  0.1988521741928011
  0.5078355878453991  0.0308430885368267  0.4314882033440810
  0.9376700005536733  0.9602474720197094  0.8150736071168723
  0.8083267662338827  0.2262741836019018  0.8294161316204409
  0.5162343432135330  0.6577140077183969  0.1404710934252620
  0.1340975708319618  0.7347661268529677  0.7374164763640536
  0.2145473942817091  0.2145658054481743  0.5659856625539277
  0.5007578321258777  0.4608930711653301  0.7731182111601385
  0.2299096196820827  0.0426443422864367  0.0706444357766287
  0.3857543472309857  0.2679315387976899  0.5334207446426689
  0.1718827830376384  0.0213517365198399  0.9561173879785372
  0.4064080123752234  0.8677947567033399  0.4832207220386096
  0.3398116535883631  0.3211452757779227  0.0037291085751576
  0.0826636052160907  0.5529941227749902  0.7534006604992953
  0.5167763015053382  0.1629583407801007  0.4875849951323161
  0.7669444691517526  0.4877733194658731  0.1681732729267580
  0.1569876089813533  0.1846896668964533  0.1605241425765271
  0.5860294194375442  0.2793538948643786  0.7617498616259653
  0.1708767395530373  0.9927647971326721  0.1663304414108708
  0.5201681651845078  0.3393720846251043  0.9445377349206723
  0.7726691675084822  0.6408967993806272  0.8068924944818576
  0.5849631162602478  0.9336638697880133  0.9571614785475759
  0.0495918287139574  0.8974944989528453  0.1475454370255065
  0.6525450057578226  0.9338223216714923  0.2883988281955467
  0.2424858811891966  0.4097938688246501  0.5510036374023315
  0.1415998446230802  0.5226188419268851  0.1549373739082043
  0.4430483028999959  0.1566984199007777  0.0048236268510067
  0.8891719964080522  0.8863665334390021  0.0475985886756902
  0.7934987391719588  0.0522108751717099  0.7879440691683257
  0.6220092138964119  0.3572457604577295  0.0216500665992427
  0.9816594002600283  0.5826082667233976  0.3993510759245424
  0.5990362627366395  0.7185622724663361  0.4589651811755857
  0.4280670430978546  0.6519478529463569  0.3861925311715169
  0.8476865052520424  0.5921958970532373  0.1940946715817944
  0.0742020113471966  0.2053318176178323  0.4300948064841918
  0.3341362719809240  0.3009511559408793  0.7822022472363770
  0.3863237409883311  0.3669834461917887  0.3853884857183303
  0.9068306580452230  0.0852810247420095  0.8281254545432333
  0.7558484539655765  0.1487548888788055  0.2137214492596584
  0.2656471269984024  0.9342123731912153  0.7608029156109666
  0.5680689156260783  0.1421628667349779  0.9840712743974578
  0.0040152810547838  0.4497412314421823  0.2485458273584698
  0.3240620703606183  0.9800637505617757  0.0201290781146355
  0.2293300138493706  0.9501835993995158  0.5428492403530214
  0.8421871399966179  0.4286779165531769  0.2739075668502622
  0.5924791831185203  0.2811803582094399  0.1120835846907084
  0.5390534601771719  0.5636834382009468  0.2227108669273790
  0.8178792777315849  0.6967087241850365  0.5202557002514752
  0.8247734151665753  0.7828112078143690  0.8416496952170789
  0.1193502576411731  0.2215369712530659  0.7608165094597652
  0.7971080115332398  0.5221836895043026  0.5180318934129104
  0.3640778944949687  0.5420364882192104  0.5536511632510042
  0.9332063108539117  0.9559838524276785  0.4722474724230281
  0.4302162082799299  0.5884258385572068  0.9917678201209483
  0.3988444999742740  0.9150268729802988  0.0916882501626759
  0.2726306065218296  0.5381672809253431  0.2644444015666920
  0.3082212394801616  0.6503437239030916  0.3486332179761362
  0.2853379859029772  0.7116459234824433  0.4577746180637519
  0.2321836091365412  0.4078531336162072  0.7479163031067984
  0.9477843484926751  0.6686890399040095  0.7736503115025997
  0.0378802117476127  0.8306928496704131  0.5966203980133855
  0.8738445019200753  0.0908738080564859  0.2073762113121873
  0.2059131850369909  0.8359409392068358  0.8274063264534348
  0.6598473228695383  0.5168861514341287  0.2527249675803986
  0.6036322885289565  0.2416009492783928  0.9020613487655851
  0.0954865349902363  0.2153385495694167  0.6229516023377855
  0.2853234169252090  0.5559423254177744  0.4436145197437469
  0.5647011597620804  0.5967723782896144  0.0326099379267148
  0.4300182612859373  0.4849658448450569  0.2040058423422124
  0.7562168430704617  0.4321661288002332  0.3772238187108385
  0.2841054427078191  0.6001309172953739  0.9592329063958260
  0.4467224622296868  0.9331081873941613  0.3685615598632879
  0.9974699821162858  0.0768483625683913  0.3685215093441059
  0.5861724092276717  0.9990202606926104  0.8011297600123228
  0.7620807372361753  0.5080715129784252  0.8285643785166741
  0.7552184733076572  0.2329942318092790  0.3524654134678755
  0.7580356202914729  0.5780724796836694  0.0710811983065227
  0.7963047637970320  0.0587406500680672  0.4841122288944533
  0.8140410315632565  0.0649659292787490  0.3380975509643065
  0.1001224952847437  0.3752333082901202  0.1963132024445002
  0.4213577159700463  0.0375636615736070  0.9532389860806205
  0.2796159668690805  0.8408210640531877  0.4416750301086410
  0.6374072382711375  0.4233361199326637  0.6720899260271622
  0.3854976354196680  0.8682620829423868  0.8738051324042644
  0.5384895138757670  0.9819522347867462  0.2122369872733714
  0.3548775238540927  0.9601874860897226  0.5813375952900444
  0.7099075464048354  0.1454730834665696  0.8121825945289984
  0.8071527395882114  0.2480526215720218  0.9540304436102574
  0.8244378549055895  0.5173532899693569  0.6474959029273819
  0.4141408178272812  0.4536342321998248  0.9840475845678540
  0.8854581965109389  0.7526100432142329  0.0562441926547095
  0.3936984020928094  0.1993563408432522  0.2813126242726298
  0.6856215979887708  0.6077578235550618  0.9030102466105916
  0.9193934614597623  0.3092006305952921  0.1137182389228997
  0.8492704457650859  0.2226158140997825  0.5594318787742125
  0.3324386590341675  0.9482706677045840  0.1981848494462284
  0.9577274682974988  0.5398872584379149  0.7650491427384694
  0.9210069846570619  0.8918618808228445  0.1837466034499968
  0.3584610357567968  0.8658678254004428  0.6892469368587228
  0.2609883717372909  0.4763557383503993  0.1289088271932357
  0.0158312951638777  0.9192749468681498  0.0217134521194851
  0.0771082472743529  0.0945311095175541  0.7596535643592688
  0.5881172603789935  0.4528071178666480  0.0991550210645045
  0.6339316043817220  0.1219791106604831  0.5472168369015193
  0.5178311147443466  0.2826302620111818  0.5504138081755201
  0.0685126827626519  0.7614421371508584  0.1387388254777804
  0.2701797087097333  0.2185107089297986  0.3693615089585265
  0.7213001330900397  0.0046417652214146  0.2010615896190728
  0.4638796534079503  0.2926966973473668  0.1231626260668364
  0.1272732434621560  0.3181397087647895  0.0317996146241200
  0.7462119796899600  0.3723306344840012  0.0894313064282173
  0.3983139642843696  0.5987363050741976  0.1263046883992516
  0.4786245175402968  0.3406307212040218  0.7219312148471886
  0.2106766827156932  0.8306086154896306  0.2401541766235198
  0.7639844903825690  0.6841914660990724  0.3387346693562847
  0.7659553389793672  0.3421819962464028  0.7938314464567497
  0.7038304538418743  0.6267364929191572  0.5184705562746075
  0.2598749001544007  0.2722670741462281  0.1824379367089222
  0.9531841679562731  0.3481996303633395  0.6701621876897832
  0.2870906045515653  0.3090120558003733  0.6230469685189846
  0.4567162174163286  0.6248067553413321  0.5077831714619876
  0.4339486930664904  0.6759219870876052  0.7708732630919357
  0.3516566734449711  0.7014498001759719  0.5702544994461505
  0.3490686154129747  0.0780662839484094  0.4777333725100874
  0.9478752671022193  0.5390093780941143  0.9480094050907653
  0.5406736428417531  0.9396675381459545  0.5258629707760818
  0.1058495356933804  0.8583773438554090  0.4154451365911527
  0.1725317706507781  0.7351515571139373  0.3283360209657360
  0.3075977353588542  0.1903882123346179  0.0337200421920087
  0.1754651375474694  0.9334043131817040  0.6633883950875017
  0.8001396064155060  0.4369662593848105  0.9862384270722302
  0.4674583999774811  0.5368650779792148  0.6564319517899051
  0.6863203760763170  0.3180905081238876  0.5192819063862899
  0.5727660608699026  0.2111149545823494  0.3721368198698229
  0.9061629408155341  0.0946410728305338  0.0503306672218855
  0.7042096487640777  0.6785601844840130  0.1459884066872590
  0.0553843412667590  0.7041427072501918  0.8461468430277179
  0.9876790997305207  0.2273083709386370  0.9350125115901449
  0.6283172300421072  0.7147954204090539  0.9842336182043070
  0.0217267797417620  0.4316178069657610  0.9911707621488972
  0.9425679193586447  0.3506695881759256  0.3137358883831141
  0.4382738857949136  0.1030918733747015  0.1292916167711411
  0.0587982875327455  0.0604657611524573  0.1677189429658839
  0.2336282347623637  0.6478604711597100  0.7655790788364598
  0.2582362279232626  0.3124892016149374  0.8965118093989020
  0.0616510004707607  0.9175433819515391  0.8196252889481244
  0.6824819343546693  0.8233457841942098  0.4685903748722637
  0.8123157593232193  0.2734076814490649  0.2265376846885943
  0.1482330947301804  0.5360442883357095  0.3069911421447102
  0.1047414790337555  0.4242506228615710  0.7165949953675721
  0.9071123825851544  0.9149217955087749  0.6949472915841923
  0.5232055508110278  0.5746164343192675  0.3495599655509594
  0.7359638048274491  0.1604389372551509  0.0818894189886592
  0.4196082459609798  0.2297936765223128  0.8636421730318489
  0.5886029491906299  0.4208211952006877  0.8696665058861441
  0.5325264936614929  0.8224896709165179  0.1853628864398971
  0.8502007910378353  0.8842129340054754  0.5362858235643131
  0.1192941331300048  0.5581162195066582  0.0205396604480512
  0.6471617138841310  0.3046165740108933  0.2273195220135307
  0.1811340352927076  0.2824768259303951  0.4581962039926069
  0.2350070560424982  0.7682498699827676  0.6355436316056924
  0.2143402260635199  0.8533288480395171  0.0415109653131225
  0.0306587015387620  0.4186982522314366  0.4144085908121085
  0.5680748328943253  0.7511452064452513  0.5951158386750066
  0.6432822728155685  0.8876169313022046  0.0659719710750366
  0.9751636592051796  0.5920343454763781  0.1607831126614485
  0.3819132475316209  0.4770733041303714  0.8284068221709830
  0.1636954829817796  0.6767415734966278  0.4878744370498609
  0.8825899374309714  0.5497465960681751  0.3162841394032583
  0.1978088876688844  0.4633501030120115  0.8634122491333187
  0.8888749736336976  0.4087152934853577  0.5222959745385225
  0.2138678822767091  0.6395870383302196  0.1692713738278684
  0.0920291887102778  0.2108414270004459  0.2967054411187391
  0.4026160447582967  0.1457849993782858  0.5824128721043067
  0.3642263487476853  0.7403431489534213  0.2347741847410845
  0.6855588936877979  0.9127370640302601  0.6453806508438689
  0.5124983862744870  0.0076706532889688  0.6386073945246693
  0.2453688747888165  0.0986133710893213  0.1999494633604897
  0.0772862478512977  0.6373341664313656  0.6549409324090973
  0.9423646559877312  0.3716054898865124  0.8360967417750800
  0.0186387177926193  0.8857694986569626  0.3088409458299068
  0.9768268269603553  0.6999513020363182  0.3333497062735447
  0.6513759489159696  0.0478571022964118  0.9468005188234798
  0.8667942857635609  0.7135504247662965  0.6443804423197292
  0.3944580486089606  0.4193583389606630  0.5093377979496054
  0.6341787474733280  0.7116760348307380  0.3152764476615673
  0.7509499862368685  0.8067816358627766  0.9458061000818745
  0.2593518108624693  0.1906649214620231  0.7385313816681531
  0.4884000432406310  0.3951462822333554  0.3124291420603029
  0.6297983871529880  0.0324146996649404  0.3751595765567899
  0.9529743114146072  0.0657134621151769  0.5462053717932562
  0.5333676406596553  0.1699892941904508  0.7115106383115588
  0.8741395483678502  0.6688427729860180  0.8871030825230051
  0.0837216124663200  0.5007397386099726  0.5163568208511293
  0.9123233664489518  0.6042861592257864  0.5099950655784156
  0.8859193174076765  0.1761484361272920  0.3729268083894297
  0.2837562359483812  0.4127086727952900  0.3234220851399812
  0.2653362857792203  0.9938484190720871  0.3610446989468912
  0.5754740943498362  0.4737866888067117  0.4921563297163090
  0.2610969958049481  0.4952516189276537  0.6500135958908828
  0.7844810692094129  0.8871865898535631  0.3188612157366109
  0.0520616773015306  0.0697244467126055  0.9369964647678302
  0.9284210853182913  0.4448894179433367  0.1375946577221825
  0.6162812447923613  0.7965192421468572  0.8049335395759059
  0.7899686096635392  0.0614127548179439  0.6553572585820788
  0.3941755477915194  0.0508024166919299  0.7607789786882222
  0.6452962377483189  0.6281064433865566  0.7189509750917438
  0.1395700239998021  0.0895031486499178  0.4562555759417251
  0.4807225352165361  0.7709457790571079  0.3919228900221938
  0.3952587620672503  0.7434861251905218  0.0119804488328015
 
  0.00000000E+00  0.00000000E+00  0.00000000E+00
  0.00000000E+00  0.00000000E+00  0.00000000E+00
  0.00000000E+00  0.00000000E+00  0.00000000E+00
  0.00000000E+00  0.00000000E+00  0.00000000E+00
  0.00000000E+00  0.00000000E+00  0.00000000E+00
  0.00000000E+00  0.00000000E+00  0.00000000E+00
  0.00000000E+00  0.00000000E+00  0.00000000E+00
  0.00000000E+00  0.00000000E+00  0.00000000E+00
  0.00000000E+00  0.00000000E+00  0.00000000E+00
  0.00000000E+00  0.00000000E+00  0.00000000E+00
  0.00000000E+00  0.00000000E+00  0.00000000E+00
  0.00000000E+00  0.00000000E+00  0.00000000E+00
  0.00000000E+00  0.00000000E+00  0.00000000E+00
  0.00000000E+00  0.00000000E+00  0.00000000E+00
  0.00000000E+00  0.00000000E+00  0.00000000E+00
  0.00000000E+00  0.00000000E+00  0.00000000E+00
  0.00000000E+00  0.00000000E+00  0.00000000E+00
  0.00000000E+00  0.00000000E+00  0.00000000E+00
  0.00000000E+00  0.00000000E+00  0.00000000E+00
  0.00000000E+00  0.00000000E+00  0.00000000E+00
  0.00000000E+00  0.00000000E+00  0.00000000E+00
  0.00000000E+00  0.00000000E+00  0.00000000E+00
  0.00000000E+00  0.00000000E+00  0.00000000E+00
  0.00000000E+00  0.00000000E+00  0.00000000E+00
  0.00000000E+00  0.00000000E+00  0.00000000E+00
  0.00000000E+00  0.00000000E+00  0.00000000E+00
  0.00000000E+00  0.00000000E+00  0.00000000E+00
  0.00000000E+00  0.00000000E+00  0.00000000E+00
  0.00000000E+00  0.00000000E+00  0.00000000E+00
  0.00000000E+00  0.00000000E+00  0.00000000E+00
  0.00000000E+00  0.00000000E+00  0.00000000E+00
  0.00000000E+00  0.00000000E+00  0.00000000E+00
  0.00000000E+00  0.00000000E+00  0.00000000E+00
  0.00000000E+00  0.00000000E+00  0.00000000E+00
  0.00000000E+00  0.00000000E+00  0.00000000E+00
  0.00000000E+00  0.00000000E+00  0.00000000E+00
  0.00000000E+00  0.00000000E+00  0.00000000E+00
  0.00000000E+00  0.00000000E+00  0.00000000E+00
  0.00000000E+00  0.00000000E+00  0.00000000E+00
  0.00000000E+00  0.00000000E+00  0.00000000E+00
  0.00000000E+00  0.00000000E+00  0.00000000E+00
  0.00000000E+00  0.00000000E+00  0.00000000E+00
  0.00000000E+00  0.00000000E+00  0.00000000E+00
  0.00000000E+00  0.00000000E+00  0.00000000E+00
  0.00000000E+00  0.00000000E+00  0.00000000E+00
  0.00000000E+00  0.00000000E+00  0.00000000E+00
  0.00000000E+00  0.00000000E+00  0.00000000E+00
  0.00000000E+00  0.00000000E+00  0.00000000E+00
  0.00000000E+00  0.00000000E+00  0.00000000E+00
  0.00000000E+00  0.00000000E+00  0.00000000E+00
  0.00000000E+00  0.00000000E+00  0.00000000E+00
  0.00000000E+00  0.00000000E+00  0.00000000E+00
  0.00000000E+00  0.00000000E+00  0.00000000E+00
  0.00000000E+00  0.00000000E+00  0.00000000E+00
  0.00000000E+00  0.00000000E+00  0.00000000E+00
  0.00000000E+00  0.00000000E+00  0.00000000E+00
  0.00000000E+00  0.00000000E+00  0.00000000E+00
  0.00000000E+00  0.00000000E+00  0.00000000E+00
  0.00000000E+00  0.00000000E+00  0.00000000E+00
  0.00000000E+00  0.00000000E+00  0.00000000E+00
  0.00000000E+00  0.00000000E+00  0.00000000E+00
  0.00000000E+00  0.00000000E+00  0.00000000E+00
  0.00000000E+00  0.00000000E+00  0.00000000E+00
  0.00000000E+00  0.00000000E+00  0.00000000E+00
  0.00000000E+00  0.00000000E+00  0.00000000E+00
  0.00000000E+00  0.00000000E+00  0.00000000E+00
  0.00000000E+00  0.00000000E+00  0.00000000E+00
  0.00000000E+00  0.00000000E+00  0.00000000E+00
  0.00000000E+00  0.00000000E+00  0.00000000E+00
  0.00000000E+00  0.00000000E+00  0.00000000E+00
  0.00000000E+00  0.00000000E+00  0.00000000E+00
  0.00000000E+00  0.00000000E+00  0.00000000E+00
  0.00000000E+00  0.00000000E+00  0.00000000E+00
  0.00000000E+00  0.00000000E+00  0.00000000E+00
  0.00000000E+00  0.00000000E+00  0.00000000E+00
  0.00000000E+00  0.00000000E+00  0.00000000E+00
  0.00000000E+00  0.00000000E+00  0.00000000E+00
  0.00000000E+00  0.00000000E+00  0.00000000E+00
  0.00000000E+00  0.00000000E+00  0.00000000E+00
  0.00000000E+00  0.00000000E+00  0.00000000E+00
  0.00000000E+00  0.00000000E+00  0.00000000E+00
  0.00000000E+00  0.00000000E+00  0.00000000E+00
  0.00000000E+00  0.00000000E+00  0.00000000E+00
  0.00000000E+00  0.00000000E+00  0.00000000E+00
  0.00000000E+00  0.00000000E+00  0.00000000E+00
  0.00000000E+00  0.00000000E+00  0.00000000E+00
  0.00000000E+00  0.00000000E+00  0.00000000E+00
  0.00000000E+00  0.00000000E+00  0.00000000E+00
  0.00000000E+00  0.00000000E+00  0.00000000E+00
  0.00000000E+00  0.00000000E+00  0.00000000E+00
  0.00000000E+00  0.00000000E+00  0.00000000E+00
  0.00000000E+00  0.00000000E+00  0.00000000E+00
  0.00000000E+00  0.00000000E+00  0.00000000E+00
  0.00000000E+00  0.00000000E+00  0.00000000E+00
  0.00000000E+00  0.00000000E+00  0.00000000E+00
  0.00000000E+00  0.00000000E+00  0.00000000E+00
  0.00000000E+00  0.00000000E+00  0.00000000E+00
  0.00000000E+00  0.00000000E+00  0.00000000E+00
  0.00000000E+00  0.00000000E+00  0.00000000E+00
  0.00000000E+00  0.00000000E+00  0.00000000E+00
  0.00000000E+00  0.00000000E+00  0.00000000E+00
  0.00000000E+00  0.00000000E+00  0.00000000E+00
  0.00000000E+00  0.00000000E+00  0.00000000E+00
  0.00000000E+00  0.00000000E+00  0.00000000E+00
  0.00000000E+00  0.00000000E+00  0.00000000E+00
  0.00000000E+00  0.00000000E+00  0.00000000E+00
  0.00000000E+00  0.00000000E+00  0.00000000E+00
  0.00000000E+00  0.00000000E+00  0.00000000E+00
  0.00000000E+00  0.00000000E+00  0.00000000E+00
  0.00000000E+00  0.00000000E+00  0.00000000E+00
  0.00000000E+00  0.00000000E+00  0.00000000E+00
  0.00000000E+00  0.00000000E+00  0.00000000E+00
  0.00000000E+00  0.00000000E+00  0.00000000E+00
  0.00000000E+00  0.00000000E+00  0.00000000E+00
  0.00000000E+00  0.00000000E+00  0.00000000E+00
  0.00000000E+00  0.00000000E+00  0.00000000E+00
  0.00000000E+00  0.00000000E+00  0.00000000E+00
  0.00000000E+00  0.00000000E+00  0.00000000E+00
  0.00000000E+00  0.00000000E+00  0.00000000E+00
  0.00000000E+00  0.00000000E+00  0.00000000E+00
  0.00000000E+00  0.00000000E+00  0.00000000E+00
  0.00000000E+00  0.00000000E+00  0.00000000E+00
  0.00000000E+00  0.00000000E+00  0.00000000E+00
  0.00000000E+00  0.00000000E+00  0.00000000E+00
  0.00000000E+00  0.00000000E+00  0.00000000E+00
  0.00000000E+00  0.00000000E+00  0.00000000E+00
  0.00000000E+00  0.00000000E+00  0.00000000E+00
  0.00000000E+00  0.00000000E+00  0.00000000E+00
  0.00000000E+00  0.00000000E+00  0.00000000E+00
  0.00000000E+00  0.00000000E+00  0.00000000E+00
  0.00000000E+00  0.00000000E+00  0.00000000E+00
  0.00000000E+00  0.00000000E+00  0.00000000E+00
  0.00000000E+00  0.00000000E+00  0.00000000E+00
  0.00000000E+00  0.00000000E+00  0.00000000E+00
  0.00000000E+00  0.00000000E+00  0.00000000E+00
  0.00000000E+00  0.00000000E+00  0.00000000E+00
  0.00000000E+00  0.00000000E+00  0.00000000E+00
  0.00000000E+00  0.00000000E+00  0.00000000E+00
  0.00000000E+00  0.00000000E+00  0.00000000E+00
  0.00000000E+00  0.00000000E+00  0.00000000E+00
  0.00000000E+00  0.00000000E+00  0.00000000E+00
  0.00000000E+00  0.00000000E+00  0.00000000E+00
  0.00000000E+00  0.00000000E+00  0.00000000E+00
  0.00000000E+00  0.00000000E+00  0.00000000E+00
  0.00000000E+00  0.00000000E+00  0.00000000E+00
  0.00000000E+00  0.00000000E+00  0.00000000E+00
  0.00000000E+00  0.00000000E+00  0.00000000E+00
  0.00000000E+00  0.00000000E+00  0.00000000E+00
  0.00000000E+00  0.00000000E+00  0.00000000E+00
  0.00000000E+00  0.00000000E+00  0.00000000E+00
  0.00000000E+00  0.00000000E+00  0.00000000E+00
  0.00000000E+00  0.00000000E+00  0.00000000E+00
  0.00000000E+00  0.00000000E+00  0.00000000E+00
  0.00000000E+00  0.00000000E+00  0.00000000E+00
  0.00000000E+00  0.00000000E+00  0.00000000E+00
  0.00000000E+00  0.00000000E+00  0.00000000E+00
  0.00000000E+00  0.00000000E+00  0.00000000E+00
  0.00000000E+00  0.00000000E+00  0.00000000E+00
  0.00000000E+00  0.00000000E+00  0.00000000E+00
  0.00000000E+00  0.00000000E+00  0.00000000E+00
  0.00000000E+00  0.00000000E+00  0.00000000E+00
  0.00000000E+00  0.00000000E+00  0.00000000E+00
  0.00000000E+00  0.00000000E+00  0.00000000E+00
  0.00000000E+00  0.00000000E+00  0.00000000E+00
  0.00000000E+00  0.00000000E+00  0.00000000E+00
  0.00000000E+00  0.00000000E+00  0.00000000E+00
  0.00000000E+00  0.00000000E+00  0.00000000E+00
  0.00000000E+00  0.00000000E+00  0.00000000E+00
  0.00000000E+00  0.00000000E+00  0.00000000E+00
  0.00000000E+00  0.00000000E+00  0.00000000E+00
  0.00000000E+00  0.00000000E+00  0.00000000E+00
  0.00000000E+00  0.00000000E+00  0.00000000E+00
  0.00000000E+00  0.00000000E+00  0.00000000E+00
  0.00000000E+00  0.00000000E+00  0.00000000E+00
  0.00000000E+00  0.00000000E+00  0.00000000E+00
  0.00000000E+00  0.00000000E+00  0.00000000E+00
  0.00000000E+00  0.00000000E+00  0.00000000E+00
  0.00000000E+00  0.00000000E+00  0.00000000E+00
  0.00000000E+00  0.00000000E+00  0.00000000E+00
  0.00000000E+00  0.00000000E+00  0.00000000E+00
  0.00000000E+00  0.00000000E+00  0.00000000E+00
  0.00000000E+00  0.00000000E+00  0.00000000E+00
  0.00000000E+00  0.00000000E+00  0.00000000E+00
  0.00000000E+00  0.00000000E+00  0.00000000E+00
  0.00000000E+00  0.00000000E+00  0.00000000E+00
  0.00000000E+00  0.00000000E+00  0.00000000E+00
  0.00000000E+00  0.00000000E+00  0.00000000E+00
  0.00000000E+00  0.00000000E+00  0.00000000E+00
  0.00000000E+00  0.00000000E+00  0.00000000E+00
  0.00000000E+00  0.00000000E+00  0.00000000E+00
  0.00000000E+00  0.00000000E+00  0.00000000E+00
  0.00000000E+00  0.00000000E+00  0.00000000E+00
  0.00000000E+00  0.00000000E+00  0.00000000E+00
  0.00000000E+00  0.00000000E+00  0.00000000E+00
  0.00000000E+00  0.00000000E+00  0.00000000E+00
  0.00000000E+00  0.00000000E+00  0.00000000E+00
  0.00000000E+00  0.00000000E+00  0.00000000E+00
  0.00000000E+00  0.00000000E+00  0.00000000E+00
  0.00000000E+00  0.00000000E+00  0.00000000E+00
  0.00000000E+00  0.00000000E+00  0.00000000E+00
  0.00000000E+00  0.00000000E+00  0.00000000E+00
  0.00000000E+00  0.00000000E+00  0.00000000E+00
  0.00000000E+00  0.00000000E+00  0.00000000E+00
  0.00000000E+00  0.00000000E+00  0.00000000E+00
  0.00000000E+00  0.00000000E+00  0.00000000E+00
  0.00000000E+00  0.00000000E+00  0.00000000E+00
  0.00000000E+00  0.00000000E+00  0.00000000E+00
  0.00000000E+00  0.00000000E+00  0.00000000E+00
  0.00000000E+00  0.00000000E+00  0.00000000E+00
  0.00000000E+00  0.00000000E+00  0.00000000E+00
  0.00000000E+00  0.00000000E+00  0.00000000E+00
  0.00000000E+00  0.00000000E+00  0.00000000E+00
  0.00000000E+00  0.00000000E+00  0.00000000E+00
  0.00000000E+00  0.00000000E+00  0.00000000E+00
  0.00000000E+00  0.00000000E+00  0.00000000E+00
  0.00000000E+00  0.00000000E+00  0.00000000E+00
  0.00000000E+00  0.00000000E+00  0.00000000E+00
  0.00000000E+00  0.00000000E+00  0.00000000E+00
  0.00000000E+00  0.00000000E+00  0.00000000E+00
  0.00000000E+00  0.00000000E+00  0.00000000E+00
  0.00000000E+00  0.00000000E+00  0.00000000E+00
  0.00000000E+00  0.00000000E+00  0.00000000E+00
  0.00000000E+00  0.00000000E+00  0.00000000E+00
  0.00000000E+00  0.00000000E+00  0.00000000E+00
  0.00000000E+00  0.00000000E+00  0.00000000E+00
  0.00000000E+00  0.00000000E+00  0.00000000E+00
  0.00000000E+00  0.00000000E+00  0.00000000E+00
  0.00000000E+00  0.00000000E+00  0.00000000E+00
  0.00000000E+00  0.00000000E+00  0.00000000E+00
  0.00000000E+00  0.00000000E+00  0.00000000E+00
  0.00000000E+00  0.00000000E+00  0.00000000E+00
  0.00000000E+00  0.00000000E+00  0.00000000E+00