Ce2 Se4
1.0
   2.1385763500000001   -3.7040689300000000    0.0000000000000000
   2.1350161800000000    3.7020659899999999    0.0000000000000000
   0.0000000000000000   -0.0000000000000000   23.8082220900000010
Ce Se
2 4
direct
   0.0000000000000000   -0.0000000000000000    0.5000000000000000 Ce
   0.0000000000000000   -0.0000000000000000    0.0000000000000000 Ce
   0.3336311999999990    0.6672644100000000    0.4394327500000000 Se
   0.6663688000000000    0.3327355900000000    0.5605672500000000 Se
   0.6663688000000000    0.3327355900000000    0.9394327500000000 Se
   0.3336311999999990    0.6672644100000000    0.0605672500000000 Se
