Ge Se                                   
   1.00000000000000     
    21.2965229350509695    0.0000000000000000    0.0000000000000000
     0.0000000000000000   21.2965229350509695    0.0000000000000000
     0.0000000000000000    0.0000000000000000   21.2965229350509695
   Ge   Se
   120   180
Direct
  0.7834779909733989  0.1426623195666005  0.6004475226128095
  0.2836141626815706  0.1883830381264724  0.7536468729430137
  0.9001938223659733  0.7373800236733081  0.9761984401253964
 -0.0153811801828395  0.4744384584013432  0.6137109974142633
  0.5102732460151049  0.2595177195671663  0.1024072214678623
  0.0367218790709912  0.0673801897441113  0.0128064240636968
  0.0419893900932114  0.3552648708433902  0.7261554687471726
  0.5312207673749240  0.5917078965239007  0.4563019369877580
  0.4812109470284529  0.7021474003342668  0.6157657942403034
  0.6666279249711530  0.8454631803480235  0.7935698042115313
  0.7952404302936412  0.0153272311085144  0.2458685173813975
  0.6518164896599642  0.8084885352682797  0.1901182984378270
  0.5218764110130379  0.8390546851002270  0.3006030614986014
  0.9680659783114414  0.1291938951333273  0.8028365385272044
  0.0814640925917352  0.8171848667380194  0.4208792909562886
  0.1524828186786902  0.0748757113853525  0.2751538577291973
  0.6725534729453722  0.3148165586732316  0.2999972503277060
  0.4776916203818067  0.3480386539431458  0.4880893699364004
  0.5426448188903938  0.9295157317129503  0.9719501297913065
  0.6181826940554799  0.0680038855882142  0.7511909485585586
  0.3645459460980121  0.2274628557691522  0.8932166076666272
  0.0491852827372540  0.7247304282315030  0.4813684166409999
  0.3864967181261330  0.1908473313046052  0.2663500253681639
  0.8620323223269013  0.9151620394008355  0.3450899952742902
  0.1021536438500120  0.0272055392546673  0.7595240278116553
  0.7695716263570423  0.9848868143744426  0.7482023227023908
  0.9227900821782933  0.3513566663246542  0.5032954684725601
  0.8127388059777436  0.3859097362353766  0.3721798984167092
  0.1722259217649860  0.7035872794978777  0.2301760538405269
  0.1147409650444244  0.3047392634728913  0.5760983675831145
  0.2013370444490515  0.2112165711523487  0.4616729735376225
  0.2914885657833229  0.9681480082576046  0.0883473742316496
  0.5055249695892325  0.7900886500179584  0.9070401846161384
  0.6711817067752505  0.5314441677719096  0.5631134362630850
  0.8901074138722836  0.3349755262654848  0.0393747869625507
  0.6779428913851420  0.1322863952498587  0.4556425431545191
  0.4407039643832365  0.9181832847637743  0.6811450237420599
  0.1737997447674926  0.3024063755449604  0.9462749761399335
  0.3798662349332865  0.4475173391686235  0.8828798061660571
  0.3730915162643786  0.5061157003885030  0.4632369159352207
  0.8559279041757811  0.0058845825871513  0.5919613614331622
  0.1581804997051782  0.7099604361338520  0.6587278654703149
  0.7190689494852950  0.7475001944641620  0.5742784351819394
  0.3049604509362012  0.0725512977028900  0.7225898204918410
  0.3936474988927494  0.9293948214468885  0.8440345747655124
  0.5573300078921425  0.2754786298119885  0.7333715712156753
  0.6855294235299102  0.9821155734234339  0.3911568327604404
  0.8429891712829480  0.0257870260870602  0.9046994197671384
  0.3586863960905461  0.3508439709644525  0.7727335143993732
  0.6871942342665055  0.2224734387998352  0.6160600730648564
  0.8345330184259805  0.5082370292905366  0.5132465496558247
  0.4266601792264761  0.3246583285679002  0.6472851466000851
  0.1730720421317724  0.5509474935889093  0.9837441280981761
  0.4344963939268740  0.8145455194624344  0.6162609548807452
  0.6334838973376802  0.4811320530731533  0.4131614750291589
  0.3797717113979812  0.1102109224635184  0.6326769170860266
  0.3972802503701303  0.0232130192042592  0.2147402354149708
  0.3578903536347464  0.6743647940959773  0.4826562947277742
  0.2183345469788697  0.8890815282425959  0.9091079178077442
  0.1054277932571307  0.8690191813915747  0.5812032769568173
  0.9519600060794909  0.2194886355973741  0.6804095259649114
  0.2898511558032588  0.7542534012955426  0.0341876633682301
  0.2402856621166027  0.4153291961038498  0.6570266543481713
  0.0645789728759321  0.6819856101420392  0.3045128799221207
  0.7893076956520815  0.1600368588580096  0.7853108112059685
  0.5649091215911347  0.2823006155368445  0.5492493306943820
  0.3050275867294671  0.0623780751488387  0.8460965140310378
  0.3743881906466413  0.1211964602090959  0.4650731751947265
  0.5244130397738543  0.1775938550932564  0.6720707704342866
  0.5249869049736764  0.9941889255777104  0.3823152872050342
  0.3065763141327517  0.3238860878625348  0.1574573829055282
  0.4105391681327083  0.3675422624942632  0.3543853816834349
  0.5252145879932431  0.4001491158527550  0.2291215654571957
  0.2317372054845344  0.4582598017112502  0.2971896475579136
  0.8651478136026852  0.3608257374080299  0.7292066966234789
  0.8643146519304939  0.6504604551080451  0.6587298055699867
  0.4199737122300564  0.1466773190161803  0.9751136467533464
  0.7919281355291875  0.6883214989752751  0.8378887564864147
  0.1104155696314005  0.1409172768409104  0.9443199274755372
  0.9371769346089206  0.6935255272100576  0.3546683575179779
  0.5342320679125301  0.1530231616971951  0.4352221589183186
  0.0881399489376117  0.9814712582906603  0.1251280346688069
  0.9596581390923341  0.5023969013600948  0.3795178787800481
  0.0969524954813101  0.3998207983376472  0.9633287389094346
  0.2477820733678845  0.0265107935903488  0.5169543542515693
  0.8373081550005377  0.7521093836178651  0.2209843566269141
  0.7698319172666500  0.4559571198708004  0.2881202536296690
  0.0762756069191857  0.5469459660854236  0.2687336820593603
  0.1965709413307438  0.8263437855498602  0.4245269441865797
  0.8807297430489778  0.4817631746214186  0.6850574982905769
  0.2894570576897307  0.8349708239174389  0.7383641561490115
  0.5476250779578382  0.0284306677039377  0.0890158408710384
  0.2910216787205042  0.6671449507520234  0.6239723717784253
  0.5052694048071171  0.9888998470786691  0.6004402400022191
  0.6998132566327110  0.3580309047180030  0.7834953657790660
  0.1954304811223332  0.6768506650765834  0.0565371334327965
  0.8897955357528717  0.1972882198051273  0.5714523635669733
  0.0036275583596610  0.2545197295934238  0.9776639944670796
  0.2970453924119282  0.8086304257583719  0.2426715639869872
  0.8721035567274655  0.5814538510318629  0.2558954952750260
  0.0563902200719577  0.0176961815919474  0.5231555923772865
  0.1621804932066648  0.1496387689700507  0.6549384072318498
  0.2142861811360252  0.6288931503196454  0.4016501474289815
  0.4478627710447032  0.8915080849904303  0.1401023120786564
  0.6329342014129088  0.8972721063344620  0.5012986279910779
  0.7040650063253132  0.9077645255444278  0.6109795509516193
  0.3297729838306352  0.1970283258259981  0.1172770886142091
  0.7461495997462585  0.5554541810592760  0.7502373490825898
  0.7227393398294376  0.3835599709560320  0.4556806794350686
  0.5047151473669441  0.4065386842602754  0.0165893048461225
  0.9608411862774292  0.9558962806907894  0.7723766954892994
  0.1393321447274110  0.9102021845108205  0.8039494605945016
  0.7870510791786328  0.9905170639707785  0.0655474948822456
  0.1221007754986389  0.3954502728226029  0.3001262790189949
  0.2051254554788332  0.2570327951167029  0.6944907098012295
  0.1438845334781369  0.3155321189904770  0.7833829607451892
  0.5155472072638742  0.3043432994174566  0.8465223108458795
  0.8187673022528037  0.8241508274614169  0.0561511255499573
  0.1899792859319803  0.1081257858290210  0.3933619216155295
  0.1340828553161996  0.8896153172487310  0.2637581508689702
  0.1734253695208180  0.4394824512713770  0.5005208810958341
  0.6144594240600518  0.7086432272630301  0.0078796490018385
  0.0201846773363358  0.1119708951487283  0.3636412085842289
  0.0669693351048733  0.1343547729155287  0.5874594391326597
  0.4505301327588706  0.7742826666229620  0.4527248602741822
  0.1810048127958926  0.2407200424068796  0.2865903120242583
  0.8805118752968211  0.5619868368525238  0.0595760559531969
  0.2574081701242785  0.7334193385970204  0.3839939473218175
  0.0278090931838336  0.0767056393289079  0.1282873266476708
  0.1134951912839181  0.4586405420316828  0.2033833326113504
  0.7307523452934183  0.5450518561089169  0.4609838267400865
  0.4217859721138762  0.7990379507790266  0.3476061702701815
  0.4121281930469390  0.0731400985970213  0.8826196349638900
  0.6270988010045205  0.3476606726005483  0.8780987287362600
  0.9794903105801948  0.3646065578859129  0.9602107730010060
  0.1474892526608985  0.0146062339813684  0.4482290121801759
  0.8249761582111504  0.7165359424766193  0.5672240963917533
  0.4367785762572875  0.5442225878142727  0.1530422915458282
  0.0176057074106451  0.4666723422277886  0.7257895593246321
  0.9103008883597582  0.6675183104048684  0.1935795441800989
  0.6673359330917464  0.5473833586109246  0.0635247107262470
  0.1903794515066581  0.8138310501415281  0.1891562557514619
  0.3113291440191347  0.8323482388221035  0.8514417138140913
  0.7291152712933919  0.8918150995801190  0.0544091161246627
  0.5655463052884850  0.9095564146666490  0.0811753006811218
  0.4930262167806720  0.4284696965636774  0.4041796028948451
  0.9413164072866175  0.9992691959605908  0.9805755732648281
  0.9547446728960706  0.5025448950685950  0.2595269976098332
  0.6706952103509763  0.2512214737127295  0.7374940877495373
  0.0314857905035839  0.8914828309853720  0.4877364527170109
  0.2895747355144404  0.2750537436928200  0.2687340737059243
  0.2292032752332529  0.8961089001470868  0.3431756309507383
  0.1946573490918262  0.3257453680366278  0.1251267724861773
  0.4448128303768527  0.1790290012370071  0.1540944358201088
  0.8838257720287274  0.8485260729437127  0.9671337066758419
  0.0801647929746988  0.4828609736922422  0.3717834086528162
  0.4850802819036102  0.8882257038319659  0.7798778811820537
  0.9740781814299717  0.0624717947852925  0.4509699986020602
  0.4495977102840901  0.1037757629281907  0.3714709846287843
  0.6764419719307561  0.4504527696596082  0.7313917820475635
  0.9593458710456552  0.4837747834585437  0.0752229777560138
  0.3270292821512251  0.9336541996456383  0.6956337626753272
  0.2883487792181231  0.6736942193880893  0.2160442155339268
  0.0333564685444789  0.2050960081898948  0.8788525316009204
  0.6072228819889697  0.8591115437469833  0.9119083907518225
  0.4239360598380607  0.0026491923236631  0.0984594548563621
  0.0485943204507168  0.0292488336045404  0.2931110852021914
  0.3510449048493111  0.7472720186694792  0.6985939505482611
  0.6747960059614390  0.8047394185377902  0.6611621314524221
  0.2751219315435716  0.5797935406392032  0.7047575333359163
  0.5547601970993219  0.0396116300294167  0.9707315597061246
  0.5139530819722801  0.7517110024276854  0.0207495067494118
  0.4678149671544539  0.4032166504628195  0.8074398569955258
  0.6770830469187528  0.7101763866514569  0.1286317794551889
  0.1121043887018852  0.4770458907541155  0.0456478650647709
  0.4648440521053576  0.2184966816277490  0.5814211249013940
  0.3400570109910850  0.7461916420027519  0.1439577456361843
  0.9210073390690735  0.2234491761043248  0.0452783879243613
  0.8978435990115443  0.9768689274350643  0.0842637997238428
  0.8297814515333914  0.0818017849990549  0.6927094713162258
  0.5547097266725366  0.5130412474246945  0.5322821941546660
  0.2686758508802696  0.5741994855774288  0.4863626309377799
  0.1796399167507585  0.8363825043318462  0.7160705786239301
  0.9187664670618360  0.3965301003576711  0.1308822985249705
  0.3918838559781668  0.2321657141311658  0.7746844725678431
  0.8691725996833972  0.8397008833148194  0.1576249724876287
  0.7943865957700453  0.3459987384446403  0.9926268853707032
  0.9267645218826004  0.3833953823393128  0.3839406108622971
  0.3217123933492484  0.3384361780236155  0.8913169659145003
  0.5322214288328717  0.8782031615788174  0.5632466005638795
  0.4256489505109436  0.3329764233548106  0.2494707012635372
  0.1947656229398683  0.4986687181969303  0.8849106982904212
  0.3825856996778199  0.5079015402368882  0.2392462701247991
  0.8016677722904542  0.3413537149982562  0.8248648924399105
  0.0020969911659912  0.3168582732044346  0.6221053445506816
  0.5738108411969802  0.5898270976135328  0.7451258002419633
  0.6566464209351263  0.4406351836200555  0.2958798984345510
  0.1442076796521231  0.4534050197501416  0.6062545670480280
  0.1147788256120892  0.9803068305781673  0.0160326838496504
  0.2202551936179790  0.5778834117030870  0.2997165250337592
  0.1830337091691079  0.9940784206458376  0.1900694212016494
  0.0979001940760386  0.3591906134685996  0.4735473222623802
  0.3230817193468090  0.4948460005981233  0.6479901611980181
  0.1066648609134250  0.2347174552124390  0.0248072531477050
  0.6924622544450719  0.7977282165624704  0.4785931945854234
  0.7415538923641063  0.0474973267309760  0.1528319610850159
  0.5830455791948536  0.1854973563882098  0.0525416220782779
  0.0103474749147207  0.0313282555991409  0.8551891588186897
  0.5970377593576223  0.5876744985296839  0.3689912400007221
  0.9002743057716363  0.9779872600618519  0.2522251245431759
  0.4060433957320015  0.6215636756449666  0.5875741095719426
  0.5818966452742940  0.3193659867632518  0.1649299483352236
  0.7488971374854191  0.9265622461433348  0.3005305712682119
  0.7757689112473062  0.6929077117305737  0.7268669654262992
  0.0347864984239266  0.8833113406112174  0.1499531186901877
  0.2038622897440159  0.0419323962697603  0.6709212741546170
  0.2469073915679216  0.3442473975856670  0.0267617264304679
  0.0439471069710296  0.8356377670327003  0.0403351762676178
  0.8549548849833739  0.5266759027184973  0.7860484669516259
  0.2150432276208136  0.4065725264037884  0.7656551186135987
  0.5613529280316450  0.6920613682914922  0.5241489522866455
  0.6558956471226605  0.9596017733223349  0.7109889783308636
  0.4667861802875347  0.0899821813257131  0.7123655661383564
  0.5847600519892093  0.0475088088035918  0.4767439990141257
  0.0168493259624240  0.5880354169722445  0.6000258033993555
  0.0919507146793866  0.6733821479690570  0.7449861557745101
  0.4110900297895768  0.2782394854858919  0.4230004841877816
  0.8598272814513660  0.7869352598687727  0.3278593909873576
  0.0352633438220243  0.8672901588077064  0.7960467152074245
  0.2877867448915634  0.4588012305207081  0.1960794453698669
  0.3185200326611344  0.4338524861355453  0.3807567047201241
  0.0155233741216900  0.0163718115106417  0.6846443129068057
  0.7668228185331745  0.0632208245254927  0.9847219377137197
  0.9538587198841076  0.3099716222561716  0.7855610517181246
  0.6444273142312488  0.6506657437063518  0.5877964156745477
  0.7128328692674932  0.0767425931020206  0.8218798655441606
  0.4200096055690076  0.4785140556672532  0.9833173562238378
  0.2148137907140355  0.8555000032270269  0.5313956785054958
  0.8370864695917272  0.2630683499514967  0.6638912613178178
  0.3971941502078604  0.0268974738854898  0.5488052045751934
  0.3123402145271878  0.1145293408665301  0.2052559550314964
  0.1196410932211935  0.6553437344775487  0.1411729533317294
  0.7781291891558267  0.1135155571164936  0.2995222951031951
  0.0485491147162384  0.8065080592154701  0.3152853992193082
  0.8159137181646824  0.9106452050273066  0.6470196047367249
  0.7980981441458928  0.5494094968681242  0.6232018420106705
  0.1150388671252011  0.1441698226308894  0.7659042431158261
  0.5934355045324825  0.8833424144543323  0.3785889128013106
  0.5075174197862968  0.9325577260895157  0.2382266035036704
  0.5478817503337210  0.3529623485777676  0.6474665948220976
  0.6212466263392863  0.1252642640380159  0.6357977385871163
  0.5900120420894535  0.5960855057244326  0.0004508481184962
  0.7238784799464635  0.5960882983074227  0.8692194679782926
  0.2592110407873159  0.1723763497500703  0.8674390563926965
  0.0863128566004879  0.2110114879479658  0.5048333292849114
  0.7836404582137707  0.5308158530127153  0.2058098125770611
  0.7352228620447225  0.7785069777657190  0.8830512360651843
  0.6712478873271747  0.2462142238690345  0.0191463830950215
  0.8788145798909893  0.2467637133142068  0.4708239299583411
  0.8674605445255573  0.1393437940273269  0.8738319951947704
  0.7504382961534329  0.0428384409184435  0.5478834434473193
  0.4353247762763882  0.3125932918446352  0.0396814690180234
  0.7732328171942340  0.0755048827609080  0.4059730862150231
  0.6130962732177487  0.0412551983801045  0.3096077400824011
  0.8233466477841292  0.5311859712509803  0.9697054922977737
  0.8477978403261869  0.6153660148534890  0.3593118970831667
  0.6214630820472559  0.1480498626455001  0.3481203952681647
  0.9417024107454990  0.6968536164356828  0.4729940904419364
  0.2456102361348309  0.1468575948783016  0.5472757749091672
  0.8053110716809194  0.7132993446283159  0.0376486035947068
  0.2726163255878369  0.3132716685312773  0.6169110456093093
  0.4380425251434557  0.8845303546221588  0.9507560927901479
  0.2395136014290517  0.0045870801159065  0.9179952267322478
  0.1366590195201424  0.1712391241921429  0.2129984749138671
  0.6854926992153937  0.2813868359678636  0.4138257932543749
  0.4271115695798253  0.6006211255195215  0.4070224210380183
  0.3680427317276256  0.8157556736004563  0.5206543885994244
  0.0890172193919428  0.4672098900722332  0.8702810102094567
  0.7880620671046973  0.3356831906705736  0.2682596942635924
  0.7736812235861530  0.8720276387809842  0.8299347216657644
  0.8110401965663273  0.3933031319462834  0.5392462610948842
  0.6072690873785686  0.6039594725667847  0.8477602983651661
  0.3285488222710722  0.9245707936913939  0.1934576509900849
  0.2941068308992699  0.0517408924026281  0.4057180923307621
  0.7364942587293883  0.4740809667669429  0.0112815743633874
  0.1069531903328416  0.5935625971555492  0.6677646722133317
  0.5337383082064185  0.6943695798419971  0.7156396042128268
  0.4026652262360300  0.3961261667055592  0.5600566639090214
  0.8985708034339500  0.6786067800707934  0.8763673387188883
  0.0982351423257502  0.6364481526850125  0.4171230744567645
  0.7276993662771686  0.7187465936379958  0.2337571099626004
  0.0635278067151509  0.7521368911222865  0.5927548721326287
  0.2619036798973119  0.5815708112016045  0.0440264548771313
  0.0079806733058359  0.7338234118955704  0.0315984745602554
  0.2522628854506311  0.8679106609287434  0.0341507444826463
  0.6643729854146786  0.2441782040488354  0.9096934530506170
  0.3146772439423555  0.1323166900347897  0.0212880182664719
  0.5590496869898204  0.7533503926938949  0.2407223617222190
  0.1254961990644970  0.6515145449273053  0.9671849326665459
  0.5134756454301804  0.4631531549772847  0.1276980326726220
 
  0.00000000E+00  0.00000000E+00  0.00000000E+00
  0.00000000E+00  0.00000000E+00  0.00000000E+00
  0.00000000E+00  0.00000000E+00  0.00000000E+00
  0.00000000E+00  0.00000000E+00  0.00000000E+00
  0.00000000E+00  0.00000000E+00  0.00000000E+00
  0.00000000E+00  0.00000000E+00  0.00000000E+00
  0.00000000E+00  0.00000000E+00  0.00000000E+00
  0.00000000E+00  0.00000000E+00  0.00000000E+00
  0.00000000E+00  0.00000000E+00  0.00000000E+00
  0.00000000E+00  0.00000000E+00  0.00000000E+00
  0.00000000E+00  0.00000000E+00  0.00000000E+00
  0.00000000E+00  0.00000000E+00  0.00000000E+00
  0.00000000E+00  0.00000000E+00  0.00000000E+00
  0.00000000E+00  0.00000000E+00  0.00000000E+00
  0.00000000E+00  0.00000000E+00  0.00000000E+00
  0.00000000E+00  0.00000000E+00  0.00000000E+00
  0.00000000E+00  0.00000000E+00  0.00000000E+00
  0.00000000E+00  0.00000000E+00  0.00000000E+00
  0.00000000E+00  0.00000000E+00  0.00000000E+00
  0.00000000E+00  0.00000000E+00  0.00000000E+00
  0.00000000E+00  0.00000000E+00  0.00000000E+00
  0.00000000E+00  0.00000000E+00  0.00000000E+00
  0.00000000E+00  0.00000000E+00  0.00000000E+00
  0.00000000E+00  0.00000000E+00  0.00000000E+00
  0.00000000E+00  0.00000000E+00  0.00000000E+00
  0.00000000E+00  0.00000000E+00  0.00000000E+00
  0.00000000E+00  0.00000000E+00  0.00000000E+00
  0.00000000E+00  0.00000000E+00  0.00000000E+00
  0.00000000E+00  0.00000000E+00  0.00000000E+00
  0.00000000E+00  0.00000000E+00  0.00000000E+00
  0.00000000E+00  0.00000000E+00  0.00000000E+00
  0.00000000E+00  0.00000000E+00  0.00000000E+00
  0.00000000E+00  0.00000000E+00  0.00000000E+00
  0.00000000E+00  0.00000000E+00  0.00000000E+00
  0.00000000E+00  0.00000000E+00  0.00000000E+00
  0.00000000E+00  0.00000000E+00  0.00000000E+00
  0.00000000E+00  0.00000000E+00  0.00000000E+00
  0.00000000E+00  0.00000000E+00  0.00000000E+00
  0.00000000E+00  0.00000000E+00  0.00000000E+00
  0.00000000E+00  0.00000000E+00  0.00000000E+00
  0.00000000E+00  0.00000000E+00  0.00000000E+00
  0.00000000E+00  0.00000000E+00  0.00000000E+00
  0.00000000E+00  0.00000000E+00  0.00000000E+00
  0.00000000E+00  0.00000000E+00  0.00000000E+00
  0.00000000E+00  0.00000000E+00  0.00000000E+00
  0.00000000E+00  0.00000000E+00  0.00000000E+00
  0.00000000E+00  0.00000000E+00  0.00000000E+00
  0.00000000E+00  0.00000000E+00  0.00000000E+00
  0.00000000E+00  0.00000000E+00  0.00000000E+00
  0.00000000E+00  0.00000000E+00  0.00000000E+00
  0.00000000E+00  0.00000000E+00  0.00000000E+00
  0.00000000E+00  0.00000000E+00  0.00000000E+00
  0.00000000E+00  0.00000000E+00  0.00000000E+00
  0.00000000E+00  0.00000000E+00  0.00000000E+00
  0.00000000E+00  0.00000000E+00  0.00000000E+00
  0.00000000E+00  0.00000000E+00  0.00000000E+00
  0.00000000E+00  0.00000000E+00  0.00000000E+00
  0.00000000E+00  0.00000000E+00  0.00000000E+00
  0.00000000E+00  0.00000000E+00  0.00000000E+00
  0.00000000E+00  0.00000000E+00  0.00000000E+00
  0.00000000E+00  0.00000000E+00  0.00000000E+00
  0.00000000E+00  0.00000000E+00  0.00000000E+00
  0.00000000E+00  0.00000000E+00  0.00000000E+00
  0.00000000E+00  0.00000000E+00  0.00000000E+00
  0.00000000E+00  0.00000000E+00  0.00000000E+00
  0.00000000E+00  0.00000000E+00  0.00000000E+00
  0.00000000E+00  0.00000000E+00  0.00000000E+00
  0.00000000E+00  0.00000000E+00  0.00000000E+00
  0.00000000E+00  0.00000000E+00  0.00000000E+00
  0.00000000E+00  0.00000000E+00  0.00000000E+00
  0.00000000E+00  0.00000000E+00  0.00000000E+00
  0.00000000E+00  0.00000000E+00  0.00000000E+00
  0.00000000E+00  0.00000000E+00  0.00000000E+00
  0.00000000E+00  0.00000000E+00  0.00000000E+00
  0.00000000E+00  0.00000000E+00  0.00000000E+00
  0.00000000E+00  0.00000000E+00  0.00000000E+00
  0.00000000E+00  0.00000000E+00  0.00000000E+00
  0.00000000E+00  0.00000000E+00  0.00000000E+00
  0.00000000E+00  0.00000000E+00  0.00000000E+00
  0.00000000E+00  0.00000000E+00  0.00000000E+00
  0.00000000E+00  0.00000000E+00  0.00000000E+00
  0.00000000E+00  0.00000000E+00  0.00000000E+00
  0.00000000E+00  0.00000000E+00  0.00000000E+00
  0.00000000E+00  0.00000000E+00  0.00000000E+00
  0.00000000E+00  0.00000000E+00  0.00000000E+00
  0.00000000E+00  0.00000000E+00  0.00000000E+00
  0.00000000E+00  0.00000000E+00  0.00000000E+00
  0.00000000E+00  0.00000000E+00  0.00000000E+00
  0.00000000E+00  0.00000000E+00  0.00000000E+00
  0.00000000E+00  0.00000000E+00  0.00000000E+00
  0.00000000E+00  0.00000000E+00  0.00000000E+00
  0.00000000E+00  0.00000000E+00  0.00000000E+00
  0.00000000E+00  0.00000000E+00  0.00000000E+00
  0.00000000E+00  0.00000000E+00  0.00000000E+00
  0.00000000E+00  0.00000000E+00  0.00000000E+00
  0.00000000E+00  0.00000000E+00  0.00000000E+00
  0.00000000E+00  0.00000000E+00  0.00000000E+00
  0.00000000E+00  0.00000000E+00  0.00000000E+00
  0.00000000E+00  0.00000000E+00  0.00000000E+00
  0.00000000E+00  0.00000000E+00  0.00000000E+00
  0.00000000E+00  0.00000000E+00  0.00000000E+00
  0.00000000E+00  0.00000000E+00  0.00000000E+00
  0.00000000E+00  0.00000000E+00  0.00000000E+00
  0.00000000E+00  0.00000000E+00  0.00000000E+00
  0.00000000E+00  0.00000000E+00  0.00000000E+00
  0.00000000E+00  0.00000000E+00  0.00000000E+00
  0.00000000E+00  0.00000000E+00  0.00000000E+00
  0.00000000E+00  0.00000000E+00  0.00000000E+00
  0.00000000E+00  0.00000000E+00  0.00000000E+00
  0.00000000E+00  0.00000000E+00  0.00000000E+00
  0.00000000E+00  0.00000000E+00  0.00000000E+00
  0.00000000E+00  0.00000000E+00  0.00000000E+00
  0.00000000E+00  0.00000000E+00  0.00000000E+00
  0.00000000E+00  0.00000000E+00  0.00000000E+00
  0.00000000E+00  0.00000000E+00  0.00000000E+00
  0.00000000E+00  0.00000000E+00  0.00000000E+00
  0.00000000E+00  0.00000000E+00  0.00000000E+00
  0.00000000E+00  0.00000000E+00  0.00000000E+00
  0.00000000E+00  0.00000000E+00  0.00000000E+00
  0.00000000E+00  0.00000000E+00  0.00000000E+00
  0.00000000E+00  0.00000000E+00  0.00000000E+00
  0.00000000E+00  0.00000000E+00  0.00000000E+00
  0.00000000E+00  0.00000000E+00  0.00000000E+00
  0.00000000E+00  0.00000000E+00  0.00000000E+00
  0.00000000E+00  0.00000000E+00  0.00000000E+00
  0.00000000E+00  0.00000000E+00  0.00000000E+00
  0.00000000E+00  0.00000000E+00  0.00000000E+00
  0.00000000E+00  0.00000000E+00  0.00000000E+00
  0.00000000E+00  0.00000000E+00  0.00000000E+00
  0.00000000E+00  0.00000000E+00  0.00000000E+00
  0.00000000E+00  0.00000000E+00  0.00000000E+00
  0.00000000E+00  0.00000000E+00  0.00000000E+00
  0.00000000E+00  0.00000000E+00  0.00000000E+00
  0.00000000E+00  0.00000000E+00  0.00000000E+00
  0.00000000E+00  0.00000000E+00  0.00000000E+00
  0.00000000E+00  0.00000000E+00  0.00000000E+00
  0.00000000E+00  0.00000000E+00  0.00000000E+00
  0.00000000E+00  0.00000000E+00  0.00000000E+00
  0.00000000E+00  0.00000000E+00  0.00000000E+00
  0.00000000E+00  0.00000000E+00  0.00000000E+00
  0.00000000E+00  0.00000000E+00  0.00000000E+00
  0.00000000E+00  0.00000000E+00  0.00000000E+00
  0.00000000E+00  0.00000000E+00  0.00000000E+00
  0.00000000E+00  0.00000000E+00  0.00000000E+00
  0.00000000E+00  0.00000000E+00  0.00000000E+00
  0.00000000E+00  0.00000000E+00  0.00000000E+00
  0.00000000E+00  0.00000000E+00  0.00000000E+00
  0.00000000E+00  0.00000000E+00  0.00000000E+00
  0.00000000E+00  0.00000000E+00  0.00000000E+00
  0.00000000E+00  0.00000000E+00  0.00000000E+00
  0.00000000E+00  0.00000000E+00  0.00000000E+00
  0.00000000E+00  0.00000000E+00  0.00000000E+00
  0.00000000E+00  0.00000000E+00  0.00000000E+00
  0.00000000E+00  0.00000000E+00  0.00000000E+00
  0.00000000E+00  0.00000000E+00  0.00000000E+00
  0.00000000E+00  0.00000000E+00  0.00000000E+00
  0.00000000E+00  0.00000000E+00  0.00000000E+00
  0.00000000E+00  0.00000000E+00  0.00000000E+00
  0.00000000E+00  0.00000000E+00  0.00000000E+00
  0.00000000E+00  0.00000000E+00  0.00000000E+00
  0.00000000E+00  0.00000000E+00  0.00000000E+00
  0.00000000E+00  0.00000000E+00  0.00000000E+00
  0.00000000E+00  0.00000000E+00  0.00000000E+00
  0.00000000E+00  0.00000000E+00  0.00000000E+00
  0.00000000E+00  0.00000000E+00  0.00000000E+00
  0.00000000E+00  0.00000000E+00  0.00000000E+00
  0.00000000E+00  0.00000000E+00  0.00000000E+00
  0.00000000E+00  0.00000000E+00  0.00000000E+00
  0.00000000E+00  0.00000000E+00  0.00000000E+00
  0.00000000E+00  0.00000000E+00  0.00000000E+00
  0.00000000E+00  0.00000000E+00  0.00000000E+00
  0.00000000E+00  0.00000000E+00  0.00000000E+00
  0.00000000E+00  0.00000000E+00  0.00000000E+00
  0.00000000E+00  0.00000000E+00  0.00000000E+00
  0.00000000E+00  0.00000000E+00  0.00000000E+00
  0.00000000E+00  0.00000000E+00  0.00000000E+00
  0.00000000E+00  0.00000000E+00  0.00000000E+00
  0.00000000E+00  0.00000000E+00  0.00000000E+00
  0.00000000E+00  0.00000000E+00  0.00000000E+00
  0.00000000E+00  0.00000000E+00  0.00000000E+00
  0.00000000E+00  0.00000000E+00  0.00000000E+00
  0.00000000E+00  0.00000000E+00  0.00000000E+00
  0.00000000E+00  0.00000000E+00  0.00000000E+00
  0.00000000E+00  0.00000000E+00  0.00000000E+00
  0.00000000E+00  0.00000000E+00  0.00000000E+00
  0.00000000E+00  0.00000000E+00  0.00000000E+00
  0.00000000E+00  0.00000000E+00  0.00000000E+00
  0.00000000E+00  0.00000000E+00  0.00000000E+00
  0.00000000E+00  0.00000000E+00  0.00000000E+00
  0.00000000E+00  0.00000000E+00  0.00000000E+00
  0.00000000E+00  0.00000000E+00  0.00000000E+00
  0.00000000E+00  0.00000000E+00  0.00000000E+00
  0.00000000E+00  0.00000000E+00  0.00000000E+00
  0.00000000E+00  0.00000000E+00  0.00000000E+00
  0.00000000E+00  0.00000000E+00  0.00000000E+00
  0.00000000E+00  0.00000000E+00  0.00000000E+00
  0.00000000E+00  0.00000000E+00  0.00000000E+00
  0.00000000E+00  0.00000000E+00  0.00000000E+00
  0.00000000E+00  0.00000000E+00  0.00000000E+00
  0.00000000E+00  0.00000000E+00  0.00000000E+00
  0.00000000E+00  0.00000000E+00  0.00000000E+00
  0.00000000E+00  0.00000000E+00  0.00000000E+00
  0.00000000E+00  0.00000000E+00  0.00000000E+00
  0.00000000E+00  0.00000000E+00  0.00000000E+00
  0.00000000E+00  0.00000000E+00  0.00000000E+00
  0.00000000E+00  0.00000000E+00  0.00000000E+00
  0.00000000E+00  0.00000000E+00  0.00000000E+00
  0.00000000E+00  0.00000000E+00  0.00000000E+00
  0.00000000E+00  0.00000000E+00  0.00000000E+00
  0.00000000E+00  0.00000000E+00  0.00000000E+00
  0.00000000E+00  0.00000000E+00  0.00000000E+00
  0.00000000E+00  0.00000000E+00  0.00000000E+00
  0.00000000E+00  0.00000000E+00  0.00000000E+00
  0.00000000E+00  0.00000000E+00  0.00000000E+00
  0.00000000E+00  0.00000000E+00  0.00000000E+00
  0.00000000E+00  0.00000000E+00  0.00000000E+00
  0.00000000E+00  0.00000000E+00  0.00000000E+00
  0.00000000E+00  0.00000000E+00  0.00000000E+00
  0.00000000E+00  0.00000000E+00  0.00000000E+00
  0.00000000E+00  0.00000000E+00  0.00000000E+00
  0.00000000E+00  0.00000000E+00  0.00000000E+00
  0.00000000E+00  0.00000000E+00  0.00000000E+00
  0.00000000E+00  0.00000000E+00  0.00000000E+00
  0.00000000E+00  0.00000000E+00  0.00000000E+00
  0.00000000E+00  0.00000000E+00  0.00000000E+00
  0.00000000E+00  0.00000000E+00  0.00000000E+00
  0.00000000E+00  0.00000000E+00  0.00000000E+00
  0.00000000E+00  0.00000000E+00  0.00000000E+00
  0.00000000E+00  0.00000000E+00  0.00000000E+00
  0.00000000E+00  0.00000000E+00  0.00000000E+00
  0.00000000E+00  0.00000000E+00  0.00000000E+00
  0.00000000E+00  0.00000000E+00  0.00000000E+00