Ge2 Sb6
1.0
   3.3499650000000001   -5.8023090000000002    0.0000000000000000
   3.3499650000000001    5.8023090000000002    0.0000000000000000
   0.0000000000000000    0.0000000000000000    5.2870480000000004
Ge Sb
2 6
direct
   0.3333330000000000    0.6666670000000000    0.7500000000000000 Ge
   0.6666670000000000    0.3333330000000000    0.2500000000000000 Ge
   0.1739720000000000    0.3479440000000000    0.2500000000000000 Sb
   0.6520560000000000    0.8260280000000000    0.2500000000000000 Sb
   0.1739720000000000    0.8260280000000000    0.2500000000000000 Sb
   0.8260280000000000    0.6520560000000000    0.7500000000000000 Sb
   0.3479440000000000    0.1739720000000000    0.7500000000000000 Sb
   0.8260280000000000    0.1739720000000000    0.7500000000000000 Sb
