Amorphous Sb                            
   1.00000000000000     
    20.1278869700586895    0.0000000000000000    0.0000000000000000
     0.0000000000000000   20.1278869700586895    0.0000000000000000
     0.0000000000000000    0.0000000000000000   20.1278869700586895
   Ge   Se
   150   150
Direct
  0.5072327746010302  0.7031620176278778  0.8313898996716623
  0.2087856152615473  0.3711529133520566  0.8261802158070239
  0.4557273455338421  0.3146988601063094  0.5207737332523332
  0.8046303445401745  0.0030665333164439  0.6170997215249120
  0.9454262382752523  0.6282505862360370  0.7707212159812297
  0.1920078231009295  0.6907447482025340  0.9527743779148304
  0.1703543048884830  0.1262260677832527  0.3498422388010055
  0.3447231447616650  0.6220567038750618  0.7593157613455475
  0.3320333972051667  0.8534741150348247  0.1923365004597927
  0.3307197177504809  0.9789170787231155  0.4468169440251363
  0.9934023838479564  0.0546282423552282  0.4291089562659067
  0.6344861383603070  0.3959252070781197  0.8239873134935040
  0.5818498540215356  0.4893482735441128  0.6857529883974764
  0.2824385328708570  0.0449886447800942  0.8508246840244933
  0.6528651059492232  0.9633964305623473  0.4073157163902241
  0.0054868617028500  0.7749522030925016  0.0766630699110767
  0.0431987660287445  0.8148301338894258  0.3025971345525383
  0.7470313524966029  0.4717521796273690  0.4160309136801393
  0.1170589329809347  0.4385012167938085  0.9801457909862068
  0.0404750479460876  0.9070637371060948  0.4818682986922069
  0.1854328191471992  0.7735557396428706  0.1118931623365032
  0.3697183938233792  0.6771019164295558  0.9227987262674429
  0.9886213168798641  0.1365482839987693  0.8471504706918510
  0.0409024692743226  0.0675134718549597  0.1388094820389692
  0.6189960118108919  0.3772124478836485  0.2681566563282992
  0.4037687934990653  0.1772479563241306  0.6120288427564405
  0.3421475350502953  0.8800389704929382  0.3642623809647929
  0.7974806955268021  0.8934375450702694  0.0139778705147572
  0.7164316969589724  0.5908117167517167  0.5853799166685161
  0.9384743263871705  0.7997458459284082  0.5934338299746412
  0.0700913073620949  0.3068343404997429  0.7573179932506605
  0.0275152322392500  0.1170775264320798  0.2635879237292099
  0.9376160679137040  0.5023056379625812  0.5010854623171704
  0.4119157137159859  0.4325943387413900  0.2890692710847095
  0.9946222367248891  0.5561673127127045  0.6176511086966073
  0.7043501855897512  0.7367989561171576  0.1316221395616201
  0.4665472451024813  0.4493903799444504  0.9894344835939615
  0.2772299130885979  0.0703747475230626  0.2195520293767573
  0.2527453610253981  0.3732916610226200  0.1283505627998280
  0.7731309802582526  0.3388755646423102  0.7680473169396650
  0.8236387972435192  0.8527449263891307  0.3607654863092731
  0.9139591675595683  0.2000805712008251  0.5761029742285557
  0.6034317980865177  0.8261247985936497  0.5583835542611868
  0.3491230316390492  0.9854800019340864  0.0825373999581741
  0.3578892454567800  0.7516445860021794  0.1065790901414206
  0.3803144543773860  0.4299171484404690  0.4882215464818422
  0.8783260714303421  0.8156624622204799  0.1197945443371649
  0.9749264121012444  0.3539560816917007  0.4243153605396078
  0.0373835243906590  0.7714121112806772  0.8637345140199411
  0.4861213870004791  0.0328750088877749  0.2960292730938053
  0.2802557019794086  0.4283650283683905  0.9400809776617374
  0.0554074946431049  0.2766599325096003  0.1602100374450912
  0.6647214642761878  0.7984956556508053  0.8926141769279540
  0.6042864413577620  0.2932773463460988  0.6994950153506030
  0.9603235822834478  0.5070591839807750  0.3333628550651145
  0.0319242015391924  0.9306543228158051  0.2379654155971628
  0.1014683962343594  0.5954375999024411  0.4406672260927144
  0.9775618001801705  0.3261653697980282  0.5843722918111847
  0.1463634639930732  0.0778357936861930  0.8144512053491898
  0.5120304426863815  0.4929108887583774  0.3514050075528147
  0.6954575798651895  0.1253271668470450  0.1296238046655524
  0.5109918227480083  0.6424754198290745  0.1444965772806632
  0.8986434598897299  0.6962056688939289  0.2535646602437830
  0.8524335248358145  0.9913210914479126  0.8090237111463334
  0.6131536886809286  0.8919653538274932  0.0263824460766593
  0.0618082430902875  0.3222275504592080  0.9596497249899211
  0.8090165536557388  0.8528232662107198  0.5222331878144769
  0.7553237710717987  0.7674972976334773  0.6839241827730884
  0.8944132696927719  0.1969025548294421  0.0933312184971961
  0.8312408326840730  0.3273468363622852  0.0762204270455358
  0.9736114496870774  0.3932429273243592  0.7627011511331296
  0.4213317470469441  0.1875099401277226  0.1813762632621378
  0.3186563625952208  0.5444707646362557  0.4240305178886020
  0.5218287673071447  0.8147130417534031  0.2728848020470033
  0.3255898500974036  0.4434554757431518  0.6359439880047788
  0.6920523947342122  0.9887812053248537  0.1696152248546882
  0.2504586872710467  0.2390624356822062  0.1721116304375562
  0.8726206923530697  0.0117194464068845  0.0867731394095793
  0.3342105136833911  0.8395547568128980  0.8321092453368917
  0.3488681143491383  0.2562409646427996  0.0203023638822772
  0.6651658016671048  0.9851314032258655  0.8960865154243022
  0.9346250836473242  0.5638539538342946  0.8893607750115076
  0.8278297253398935  0.4859917961083673  0.0882135078387460
  0.6829991784212806  0.5744744319387871  0.3641986855656982
  0.4161276713625160  0.0559276981411303  0.7461943574694642
  0.6425820548420493  0.1819527266203852  0.0176522520957877
  0.5421949526145217  0.6717468037720565  0.6543820769128808
  0.7555464366749990  0.2776272954194453  0.5159190209321408
  0.6377513777292350  0.5777873770589608  0.1860096230057175
  0.6338867227542928  0.2490702692651059  0.3859465913499070
  0.6568419609624155  0.1207244871434827  0.8995306831156853
  0.1014070407225043  0.1051589154657914  0.5628865638895801
  0.2864441840079328  0.5964910402776591  0.6221411915137970
  0.7754134296339444  0.0413851945782888  0.4439942745131111
  0.6145245453102786  0.9513236884543912  0.6109318188500494
  0.6559597351512050  0.7255020449655173  0.4919286857603709
  0.4786855324259200  0.0527680962054704  0.9589182076318077
  0.1576125959297081  0.4721572820646804  0.6944770621382818
  0.1071268882878184  0.7611816693855763  0.4973219903008080
  0.2443916888608056  0.1723209973193839  0.8493899356362229
  0.1320388924372033  0.4286709398653657  0.2248016943308346
  0.5704423587201516  0.3276632253514389  0.9312096785092857
  0.2210939906100274  0.5305865627434706  0.1052340338817454
  0.8759586483717543  0.0663356168084997  0.2091532078089321
  0.4572513087297344  0.8064826454984461  0.6857641288170750
  0.6610309035112707  0.6011498322121275  0.9736886449807931
  0.9938783730404454  0.4750195246080268  0.0000610933968690
  0.0361763406152719  0.6563666191133722  0.0304421295549068
  0.7068651480794563  0.1553828756070342  0.6999664649841694
  0.6898734061445516  0.9261600248868679  0.7744165724237360
  0.1039638873340050  0.9200016168671924  0.6731349054894366
  0.1300562954742431  0.9672371376418990  0.0100326121124549
  0.1718507841643452  0.9267058846070125  0.3490367841555813
  0.7634553332382205  0.1697636153246816  0.2862117108410627
  0.7280927661237813  0.8581552214123332  0.2742215378967726
  0.7081643228228486  0.6951549543207139  0.3791807599049393
  0.5028984588354546  0.2572552000569236  0.3528931606716081
  0.7232748388946503  0.6097164748528322  0.7219691376396901
  0.3317843039128096  0.1946037245552447  0.4715174470840607
  0.0178780166706722  0.9440254124970060  0.7650407192144815
  0.9470281077266026  0.4401082776968376  0.2159890401241849
  0.8438185450813430  0.2373217971952876  0.3627198143006246
  0.7505615500140369  0.5402232517369943  0.8476284140165711
  0.9303299093074385  0.9343413059699401  0.9517929556148855
  0.2216355349425027  0.4063767985497833  0.3726577211404489
  0.2222943089908926  0.7200650899552441  0.7008225501686189
  0.4467532496333321  0.9000410635477113  0.4973992088123120
  0.5579224513672125  0.8148542142136320  0.7620228330761725
  0.1820519080831157  0.1411234142878977  0.9951070394808339
  0.2217448773330609  0.8607310016526711  0.9021171177109738
  0.4396232151088655  0.6364696834284501  0.4638623052379581
  0.8380668086038249  0.7386716534835769  0.8942404600197197
  0.4913181308445099  0.2184504426274932  0.9288719730789361
  0.4001608644091240  0.5592459276576615  0.1283692267631754
  0.0331661465591133  0.7323537304215483  0.6574764027755687
  0.1267332506575429  0.6497867749163327  0.2857380404379993
  0.3461041116760328  0.3045571184794832  0.8197115433957055
  0.5572565300003758  0.0545209779514992  0.4700593825675133
  0.3299005254114671  0.7136759025186999  0.3107891739229225
  0.3456060792126753  0.8649093590508676  0.7039755615259776
  0.7517249849437149  0.4148286990076346  0.2796149397474135
  0.6246226327286730  0.4486045308918888  0.0661310201645372
  0.2372498686416972  0.0438645935279092  0.6703617511749730
  0.9244025570591443  0.1950920102762721  0.7424306103487938
  0.5960690516224111  0.1502314948770141  0.5509106963553947
  0.0949749033734583  0.2053748721614977  0.4729646560207699
  0.2102789659103841  0.5644534350859061  0.8220016932479998
  0.5252013823331596  0.8591414010014777  0.1537277900588502
  0.4365837184040203  0.3606756154666528  0.7105986328140510
  0.9016242636535197  0.4213619530776004  0.9251312890264143
  0.8886801920403428  0.0729348434329109  0.8791533241907350
  0.8594623964477298  0.9618339059598990  0.5011291792128444
  0.0822651881786962  0.7455511924655048  0.2080612473573028
  0.0179883363875750  0.4350773741166536  0.6525789970066517
  0.2719212764324450  0.7811333472473431  0.0023369199084386
  0.1289516085834919  0.0045204104505890  0.2469579858834117
  0.5801110324329597  0.4668765430946221  0.1885185587762079
  0.7059264670602835  0.0558149573932677  0.5560643979538858
  0.6782721673483402  0.2925877598072903  0.9998840016490541
  0.1173461519956856  0.0456964888798059  0.4471835312339825
  0.9085493645131055  0.8214550273398361  0.2454250368662762
  0.7521720898846048  0.0316490565007760  0.7545608363080148
  0.7677516462786768  0.7008522819045225  0.5485937178135306
  0.2668628086458245  0.8178417217800353  0.6324717368448226
  0.8441941777804617  0.6929306224400543  0.1402647468901925
  0.5202085203903939  0.1623317902005033  0.0420034679287304
  0.2910592456001894  0.1665132211442577  0.0801195238630615
  0.4143659215034572  0.9103777459717668  0.2768691413276293
  0.9003921160052253  0.9266015012364528  0.7266527230759025
  0.7122739632157498  0.2291723671069021  0.1903813195930524
  0.7098545233407407  0.9809813808159411  0.0104340398456976
  0.5761884677540586  0.1632464663994295  0.6769259460279284
  0.1593156077623276  0.0674602816403576  0.0964080286560636
  0.8406369414889148  0.4509205518058146  0.8203326707491301
  0.2473907061449542  0.4165369578626757  0.2533513906182292
  0.3928286691283813  0.3986199735768298  0.8867390796751019
  0.1590004689802010  0.7143034183739521  0.3980881968235365
  0.2630055878152504  0.0293200870548317  0.3504483196471774
  0.3665281338782435  0.4653497063155934  0.0643714039833448
  0.3958641076357050  0.0587426910194071  0.1907224877096916
  0.4723130205989567  0.1930293042921386  0.4986273656673557
  0.4832829187746779  0.3290714423579810  0.2498399133987674
  0.9421183742852410  0.0195400743396658  0.2973406011297192
  0.4120985498368517  0.8634937669121215  0.0767610055945923
  0.0242013681121693  0.4616449078319742  0.4279006881401173
  0.1108639485333798  0.4623049109362835  0.8525742791706474
  0.5167075260114364  0.4418995933535337  0.7739094511201730
  0.3487932554928450  0.9824910057931142  0.6559835166696312
  0.5177240767356366  0.1586596841567784  0.2563525745678465
  0.8725704267700825  0.5482352943410930  0.4065818666654000
  0.5695811087875579  0.6047879691070207  0.3243700531204540
  0.3611189116878480  0.2055644215472827  0.9064548044539987
  0.1604132761005054  0.8663392040014761  0.4885393852202058
  0.9987025565797557  0.1727349569815830  0.3876897608224613
  0.5479828631171690  0.9541147130136743  0.9315154852131704
  0.5795093729657969  0.9492742976185209  0.7291189612718789
  0.7020516706426723  0.4490748905268281  0.7239218374970905
  0.2456863629741793  0.8397139151589107  0.2950090578309245
  0.8877346827550916  0.3837742311742174  0.5172485936803156
  0.3756610367068204  0.7758065772476505  0.4235558301141856
  0.8854536173139508  0.3133572311873353  0.7048014597090795
  0.3041855441049073  0.6422329931442848  0.5013717263706203
  0.6760066196545400  0.2034764426068574  0.8202673340144615
  0.3024799210229701  0.1090268926941380  0.5553438014559459
  0.7427663085629405  0.8652545488706301  0.1559401576719934
  0.7386394862650144  0.5524571173308725  0.2592582971617400
  0.0245215471226077  0.6180682674418936  0.3401543763415713
  0.0333160936115013  0.9113564192741097  0.8757863751795618
  0.7966202256013776  0.4137051891303697  0.9840623508506742
  0.9791295996847376  0.0851388135353473  0.5597081977859416
  0.2573953427365364  0.9412532866567854  0.1480105044963556
  0.6003078293274610  0.6008215328824232  0.7418585915838356
  0.9979905332399331  0.9114417717568498  0.6018945564125469
  0.1289223976367983  0.2748981262804899  0.8600425841373925
  0.5292442038115529  0.3547250655340147  0.6150849322603676
  0.3495028748374884  0.2785267074900444  0.5757633042719585
  0.2484948534765807  0.9666722779913225  0.9576513168334498
  0.7973166599909340  0.1272737277609933  0.0607195736649423
  0.8280997780074391  0.6175073272443098  0.9234498373214214
  0.9049929683086212  0.1880263555509149  0.2196098083562689
  0.4767339896690783  0.5117990165224328  0.4781199046120590
  0.6025677778499976  0.4246721258993630  0.3863188585559954
  0.6063583739691398  0.6184490167723662  0.5402138193302847
  0.6567439068282068  0.7480477730239641  0.2676473380637217
  0.4382348900256994  0.7365868875535030  0.2251920241966316
  0.1112408483490945  0.8070395957631830  0.7281173453494472
  0.7253811411183831  0.7223265071805929  0.8093660875354450
  0.5881911632398309  0.7658356510312827  0.1081920299873170
  0.9260365756698087  0.7465773770793632  0.7872014990679929
  0.0764720196444405  0.2262410343206215  0.0336962178818818
  0.8203927581384604  0.8936577531864638  0.8841398857708312
  0.7432447124830311  0.7844381331263959  0.0055544819650073
  0.7759319553100378  0.0516580112280278  0.2733092803885049
  0.2848710137155606  0.4744206330138015  0.7737772131505478
  0.7683290821844255  0.4944761551895809  0.5365982045101382
  0.4559386389825528  0.2520790242346136  0.7752000030939504
  0.0084124162299224  0.9484060690489575  0.1224935350079056
  0.3939521405316500  0.6126339803366454  0.3517211046593346
  0.1379650312633634  0.1953086526895610  0.2090333612267186
  0.9956071985501914  0.7772075373566888  0.4760868442445381
  0.7441714677909236  0.3147594747250316  0.3868808775291233
  0.4198372593909345  0.6845368142390974  0.6790651460772477
  0.6327908182988600  0.9444310544734956  0.2841108237639661
  0.4452518384317494  0.8017074700172071  0.8796796355976724
  0.1053788010649055  0.8182089305416455  0.0236075148271385
  0.8176930321276330  0.1723352853210091  0.4835048961055541
  0.7123838012991497  0.8547930507212266  0.4218385924813614
  0.0402750742506167  0.2171303326650614  0.6792939415405431
  0.6624729796355673  0.4844931025357889  0.9089820417634353
  0.2405166701099705  0.3221163296741069  0.0004862157343355
  0.4409279906712967  0.5922104641233197  0.8425338171005098
  0.0425347009688135  0.6452374794203708  0.9139284457100065
  0.5705358898743359  0.9682776688899442  0.1174813122059213
  0.5205721620883573  0.3574510575294308  0.0414871493496998
  0.9369628154386019  0.8005997210219373  0.9678376452091333
  0.6669232906746119  0.1329110411425468  0.3584329936205731
  0.2752408800815177  0.5914108153177936  0.9221264539148528
  0.2143416960958305  0.4982977421776047  0.5854423466918276
  0.5272826425612545  0.1178104740671043  0.8702910083165807
  0.3990469357038812  0.5357675454523861  0.6476347840823963
  0.1944979199191676  0.9733868916391036  0.7834312234497411
  0.0890736493980544  0.0669357242622207  0.9279481820549276
  0.2074384399502902  0.5398207939027885  0.3724825387108734
  0.9641696558954671  0.0943097839340600  0.0450189170175595
  0.1793697976814179  0.3477394566529574  0.7066103745447548
  0.3174392027659753  0.1956763317896580  0.2689523196385838
  0.2809848998060199  0.7335592737761577  0.8135037056733625
  0.8264471420274785  0.7270187931730883  0.3649587819267950
  0.1026988622414560  0.5387168058873493  0.1888021072340655
  0.9718261506661772  0.5674723455467701  0.0706561879280162
  0.2039754755099605  0.2197026811966302  0.4312132908883677
  0.3022582759562122  0.1403185304874630  0.7394732718834618
  0.9526167936842710  0.3111501335688396  0.9012417282915702
  0.8742529370695826  0.3798498589496423  0.2888634015477278
  0.5515910364715466  0.8808123071073125  0.4342126841609852
  0.7318608557319614  0.5749061480890727  0.0896264408553857
  0.3925849081903945  0.9903599848800507  0.8457561951196494
  0.5513386585926495  0.5481792393594794  0.0298025464458174
  0.6280251083068773  0.2708359280299205  0.5149146060878043
  0.6283266803300221  0.7690422982519673  0.6730761761876590
  0.3003178174210454  0.5821116883432959  0.1859528500802694
  0.0785842621977158  0.3265253295000038  0.4980252537682348
  0.7553538954930153  0.8844588259451848  0.6339818302223772
  0.4137966600789164  0.6662361330949825  0.0454656904106896
  0.1547570664479290  0.6475041674781430  0.0709519603465021
  0.5751680867759833  0.7090092177710473  0.9418207249759384
  0.7251657541983275  0.2701492302929910  0.6614582751931926
  0.4857148563962144  0.7876391079445072  0.5664675761369117
  0.3528298838267325  0.3728469711826519  0.3818426982717344
  0.1269073449788795  0.6850149141239770  0.5870051684630683
  0.8541433641901884  0.1356526379294548  0.6574050475296752
  0.0456182334188839  0.3799843187952315  0.2804340797115341
  0.9546941387881970  0.3781933126686721  0.0796664502861761
  0.1286443336006500  0.3730802887468386  0.1187192425864286
  0.4281227244214033  0.0536307426889369  0.4090204210530243
  0.8864556524211366  0.5748499490083948  0.6751884890404104
  0.0420241544810546  0.0684350725326291  0.7410216130919545
  0.0600534763317922  0.6353694273260867  0.7281239672047749
  0.7585528009810633  0.4023214321003720  0.1484291107382510
  0.5051430391613875  0.9948914962890244  0.5698726857897082
 
  0.24767511E-03 -0.28677621E-02 -0.56937631E-02
  0.14320285E-02  0.15211982E-02  0.83255718E-03
  0.56004716E-03 -0.18044932E-02  0.18725579E-02
 -0.20619898E-02  0.92323375E-03  0.10085766E-02
  0.30344120E-02  0.25928037E-02 -0.15997197E-02
  0.23827952E-02  0.13892208E-03 -0.70190872E-03
 -0.23480723E-02 -0.38667837E-03  0.16856082E-02
 -0.40347042E-03  0.19837657E-02  0.35773097E-02
 -0.59354880E-03  0.16004063E-03 -0.86665770E-03
 -0.97228644E-03 -0.30221749E-02 -0.34282914E-03
 -0.13703999E-02 -0.19160551E-02 -0.25489526E-03
  0.19768577E-02  0.15014039E-02 -0.23216021E-02
 -0.20235787E-02 -0.15597427E-02 -0.58460112E-02
  0.77426177E-03  0.23949389E-02 -0.67510810E-03
  0.31999492E-02 -0.23254856E-02 -0.14996461E-02
 -0.12368541E-02 -0.14898652E-02  0.23211397E-02
 -0.22465741E-02 -0.89908177E-03  0.19393700E-03
  0.27233858E-03  0.61576837E-03  0.25992586E-02
  0.13381504E-02 -0.62555407E-05 -0.16526017E-02
  0.17916828E-02 -0.22056728E-02 -0.24956797E-02
 -0.17260175E-02 -0.62190513E-04 -0.69495429E-04
  0.29554166E-03  0.27078659E-02  0.50836258E-03
  0.13084632E-02 -0.11279832E-02  0.16056184E-02
 -0.12958234E-02 -0.39371426E-04  0.24286530E-02
  0.21021928E-02 -0.48507839E-03  0.89564591E-03
  0.38420082E-02  0.74625596E-03  0.25047881E-02
  0.11405070E-02  0.20248636E-02  0.31681049E-02
 -0.62760368E-03  0.83046782E-03 -0.10567297E-02
  0.28484187E-02  0.41043302E-02 -0.34875353E-02
 -0.24982733E-03  0.28208054E-02 -0.66143209E-02
  0.67825126E-03 -0.18248811E-02 -0.55197811E-02
  0.58548297E-03 -0.12028336E-02  0.52647366E-03
 -0.49609873E-03 -0.24161541E-02 -0.87232283E-03
  0.18431627E-02  0.18696002E-02 -0.19296735E-02
 -0.36916891E-02  0.32509911E-02 -0.15935030E-02
  0.15547576E-02 -0.72876497E-03  0.19896068E-02
  0.10392691E-02 -0.57208506E-03  0.25458902E-02
  0.67562840E-03  0.36431206E-02  0.15999522E-02
  0.16207200E-02 -0.71373584E-03  0.22739157E-02
  0.21377666E-02  0.10442556E-03 -0.38034341E-03
 -0.25327614E-02  0.25342465E-02 -0.38756529E-02
 -0.10557878E-02 -0.22781872E-02  0.14263728E-02
  0.44815374E-02 -0.14061627E-02  0.20236632E-03
 -0.27679902E-03  0.13010202E-02 -0.39392897E-03
 -0.83234608E-03  0.20434759E-03  0.82664538E-03
 -0.10153661E-02 -0.11882394E-02  0.41836159E-03
 -0.36192840E-03 -0.15673169E-02 -0.13710867E-02
  0.69204334E-04  0.13904953E-02 -0.16521753E-02
 -0.12910903E-02  0.91615445E-03 -0.12387029E-02
  0.50471955E-02  0.14551593E-02 -0.26679617E-02
 -0.27923623E-02  0.18498011E-03  0.76353550E-03
  0.29908107E-02 -0.16716810E-02  0.43480023E-02
 -0.28523445E-02 -0.22747633E-02  0.90479993E-05
  0.10808421E-02 -0.35023874E-02  0.91716410E-03
 -0.50964515E-03  0.19451679E-02 -0.15891856E-02
 -0.34915753E-02  0.83294967E-03 -0.42922016E-02
  0.17769317E-03 -0.38128933E-03 -0.15110371E-02
  0.25017778E-03  0.20714098E-02 -0.30620952E-02
 -0.31970594E-03 -0.19749529E-02 -0.16999341E-02
 -0.26903212E-02  0.18465196E-02 -0.30882384E-02
  0.52874096E-03 -0.47592211E-02 -0.25528645E-02
 -0.64742441E-03  0.28175352E-02 -0.23670231E-02
  0.19097203E-02  0.17448647E-02  0.51409315E-05
  0.30479656E-04  0.78115159E-03  0.31400239E-02
 -0.22782156E-03 -0.73499748E-03 -0.12910517E-02
  0.22925551E-04  0.24794035E-02 -0.13717352E-02
  0.29210649E-02 -0.39707762E-02  0.21211445E-02
 -0.14396917E-02  0.11547235E-03 -0.26870045E-02
  0.95476763E-03  0.12742260E-02  0.99230890E-03
  0.21673283E-02  0.24637522E-02  0.13995982E-02
 -0.21497965E-02  0.39453754E-03 -0.28625585E-04
 -0.57166637E-03 -0.11425430E-02 -0.75193634E-03
  0.25681147E-02 -0.15174474E-02 -0.31022834E-02
 -0.55943987E-03 -0.67616357E-04 -0.44807864E-03
 -0.27263437E-02 -0.10147471E-02  0.24515013E-03
  0.58912722E-04 -0.15114251E-02 -0.27691090E-02
  0.11545575E-02  0.50823660E-02 -0.13702387E-02
  0.19725294E-02 -0.14367964E-02  0.32099969E-02
 -0.30645097E-02 -0.42411937E-03  0.21002550E-02
  0.18701897E-02 -0.21527457E-03  0.26009526E-02
 -0.10591592E-02  0.14420350E-02  0.34043140E-02
 -0.25206751E-02 -0.12474877E-02 -0.26523752E-02
  0.53890953E-03 -0.39440460E-03 -0.18093519E-02
 -0.32942984E-02 -0.37497027E-03 -0.17990724E-02
 -0.54815239E-03 -0.36688603E-02  0.14248467E-02
 -0.42908395E-02  0.34032716E-02  0.19877802E-03
  0.14217068E-02 -0.33899666E-02 -0.66441716E-03
 -0.11867550E-02 -0.25590043E-02  0.24304656E-02
 -0.11818497E-02  0.37750323E-02  0.21178254E-03
  0.31365064E-02  0.37290904E-03 -0.27836987E-02
  0.18017531E-02 -0.35002464E-02  0.14658200E-03
 -0.30497402E-02  0.17726517E-03  0.14312534E-03
 -0.26113311E-02  0.32923893E-02  0.26050933E-02
  0.18199284E-02 -0.61276529E-03  0.11915271E-02
  0.12178220E-02 -0.10248746E-02  0.14274331E-02
 -0.19891660E-02 -0.10714640E-02 -0.23744535E-02
  0.19184594E-02 -0.14442242E-02  0.54807371E-03
  0.14102756E-02 -0.49171943E-03 -0.13288803E-02
 -0.14144467E-02 -0.38579094E-03 -0.21229092E-02
  0.11544798E-02  0.32239845E-02 -0.17657249E-02
  0.34422735E-02 -0.35117392E-03  0.10282056E-02
 -0.14295448E-02 -0.18476348E-02  0.43294519E-03
 -0.35180650E-03 -0.12397060E-02  0.10017014E-02
  0.55394058E-03  0.58576845E-03  0.24993236E-02
 -0.90698903E-03 -0.15992603E-02  0.79010370E-03
 -0.72796709E-03  0.39174180E-02  0.17302092E-02
 -0.11600365E-02  0.23115817E-03  0.22569437E-03
 -0.42101447E-03  0.49495776E-02 -0.48450354E-03
  0.29511304E-03  0.40591984E-02  0.25140421E-02
 -0.29222362E-03 -0.15094011E-02  0.20825429E-02
 -0.26876369E-02 -0.31010820E-02  0.13157442E-02
  0.24311395E-02 -0.12575745E-02 -0.12710967E-02
  0.78278346E-03  0.16626068E-03 -0.62913786E-03
 -0.21259724E-02 -0.55504695E-03  0.49813516E-02
 -0.96426322E-03  0.36935537E-02  0.17077563E-02
 -0.81343183E-04  0.18562276E-02  0.30654598E-02
  0.27864578E-02 -0.77753608E-03 -0.21881863E-02
 -0.36725718E-02  0.11688593E-02  0.92299535E-03
  0.11410644E-02  0.70736295E-03 -0.16311355E-02
  0.30368858E-03  0.26993335E-02 -0.22743869E-03
  0.19403530E-02 -0.35635473E-02  0.40435832E-02
 -0.12509917E-02 -0.13441597E-02 -0.38756869E-02
  0.48358871E-02  0.28471544E-02  0.70168976E-03
  0.33239013E-02 -0.16423820E-02 -0.24787320E-02
  0.13439922E-03 -0.16501823E-02 -0.89034681E-04
 -0.25274752E-02  0.76877835E-03 -0.32174887E-02
 -0.55266069E-03  0.11645157E-02 -0.11261686E-02
 -0.12647504E-02 -0.20530092E-02 -0.72946735E-03
  0.22525764E-02  0.13261948E-02  0.33322186E-02
  0.60456438E-03  0.83085207E-03  0.39603860E-03
  0.16429320E-02 -0.12758085E-02 -0.87988428E-03
 -0.34446887E-03  0.18835010E-02  0.13384754E-02
  0.95060524E-03 -0.38648072E-02  0.12326708E-03
  0.30015278E-03 -0.42341641E-03 -0.50954182E-02
  0.73130712E-03 -0.13239194E-02 -0.96747015E-03
  0.66917046E-03 -0.18973047E-02 -0.35875267E-02
 -0.30134587E-02  0.10602769E-02  0.18814534E-02
  0.90578487E-03 -0.31842841E-02 -0.15933368E-02
  0.31523230E-03  0.17673298E-02 -0.98158502E-03
  0.33980583E-02 -0.93664294E-03  0.22197832E-03
  0.28302976E-02  0.17056822E-02  0.18943767E-02
 -0.50067092E-02  0.14281508E-02 -0.44936663E-02
  0.14818871E-02  0.35465079E-02 -0.51608915E-03
 -0.38501815E-02 -0.47510598E-02 -0.10915761E-02
 -0.46972409E-02 -0.17252908E-02 -0.98640966E-03
 -0.14750756E-02  0.89732098E-03 -0.19356198E-02
 -0.36074328E-03 -0.41786563E-04  0.76146184E-03
 -0.27768395E-02 -0.31843592E-02  0.36054791E-02
 -0.50700543E-03  0.18946756E-02  0.13124377E-03
 -0.11344221E-02  0.27900336E-02  0.43986067E-02
 -0.36170107E-02  0.48391987E-02  0.13814412E-02
  0.17120369E-02  0.55641896E-03  0.49806363E-02
  0.16463159E-03  0.20772321E-02 -0.87210914E-03
  0.18020810E-02 -0.14547420E-02  0.16129198E-02
 -0.57768519E-04 -0.16621904E-02 -0.35961392E-02
  0.14666504E-03 -0.34499798E-02  0.94532721E-03
  0.74481837E-03 -0.90056065E-03 -0.14674366E-02
 -0.52486554E-03 -0.91973471E-03  0.12325204E-02
  0.27838454E-02 -0.10566227E-03  0.19021871E-02
 -0.65046636E-03 -0.18281221E-02 -0.65622687E-03
  0.51846421E-03  0.78977204E-03  0.14523006E-02
 -0.22952974E-02 -0.17830244E-02 -0.64534333E-04
  0.14665639E-02  0.30173637E-02 -0.82355269E-03
  0.62367213E-03 -0.26062027E-02 -0.10093401E-02
  0.19564821E-02 -0.63452900E-04  0.63452028E-02
 -0.21140293E-02  0.14223566E-02 -0.32630803E-02
  0.25490822E-02 -0.21284906E-02  0.33884334E-03
 -0.97911714E-03  0.24190235E-04  0.18779026E-02
 -0.34770353E-03 -0.33572635E-02 -0.58657288E-04
 -0.42897256E-02 -0.18952298E-02  0.25330572E-03
  0.12490712E-02  0.20711507E-03  0.37148778E-02
  0.81645112E-03 -0.14434948E-02 -0.13352830E-02
 -0.39664460E-03  0.23702199E-02 -0.18536183E-02
  0.10924773E-03 -0.17447389E-02 -0.27381591E-02
 -0.14268215E-02 -0.29116085E-02  0.12627677E-02
  0.25678735E-02  0.16127057E-03 -0.16241912E-02
  0.92712751E-03 -0.23575030E-02  0.26653287E-02
 -0.10631768E-02  0.16931690E-02 -0.27870693E-02
  0.18594522E-02 -0.77440203E-03 -0.13668332E-02
  0.70921851E-03 -0.34012782E-02 -0.10956834E-02
  0.14406564E-02  0.62007924E-03  0.11964630E-02
  0.22205177E-02 -0.24510601E-03  0.31628406E-02
  0.15043926E-02  0.14426903E-02  0.91932484E-04
  0.10590381E-02 -0.20269476E-02 -0.15671849E-03
  0.13792815E-02 -0.84740009E-03 -0.14457047E-02
  0.71746052E-03 -0.58948304E-02  0.32265200E-02
 -0.96566295E-03 -0.15202516E-02  0.96649942E-03
 -0.42247085E-03 -0.29866344E-02  0.20552863E-02
 -0.12603609E-02 -0.15094452E-02  0.56129178E-03
 -0.27180683E-02  0.37392556E-02  0.99204268E-03
  0.28945632E-02  0.80333164E-03 -0.19915830E-02
 -0.18736582E-03 -0.24769788E-02  0.25436997E-02
 -0.43778632E-03  0.55949620E-03  0.18740350E-02
 -0.35294010E-04  0.41684772E-02  0.23916548E-02
 -0.10420548E-02  0.12120863E-02  0.14161309E-02
 -0.41587586E-02  0.15365933E-02 -0.45812260E-02
  0.34103152E-02 -0.13945019E-02  0.16727094E-03
  0.72527901E-03 -0.29298293E-02 -0.32687114E-03
  0.18349216E-02 -0.27751261E-02 -0.12229671E-02
 -0.20438443E-02  0.14799635E-02 -0.12429287E-02
 -0.68306613E-04  0.72686680E-03 -0.38300154E-02
  0.99512780E-03  0.90265055E-03  0.21243923E-03
 -0.19198153E-02  0.11355869E-03 -0.22027550E-02
  0.42281731E-03  0.56821879E-03  0.14172469E-02
 -0.10555289E-02 -0.22912205E-02 -0.72489113E-03
  0.38650485E-02  0.14056309E-02 -0.13440138E-02
  0.17098629E-02  0.17369805E-02  0.38893212E-03
 -0.10741368E-02  0.18953141E-02 -0.12009431E-02
  0.54163145E-03  0.68481032E-03  0.19096448E-02
 -0.15306767E-03 -0.64724101E-03  0.45875111E-02
  0.19241026E-03  0.28764164E-02  0.10828490E-02
 -0.40623274E-02  0.27562116E-03  0.35648857E-02
  0.47627439E-03  0.32306848E-02  0.63592028E-03
 -0.30352116E-02  0.14168481E-02  0.19820799E-02
 -0.10622604E-02  0.32195229E-02  0.31729188E-02
 -0.14068604E-02  0.45932085E-03 -0.27813252E-02
 -0.73537654E-03  0.13464847E-02  0.41171260E-03
  0.75706449E-03  0.33031358E-02 -0.12853219E-03
 -0.11744728E-02 -0.43747439E-03 -0.69804942E-02
  0.80137502E-03 -0.27443779E-02 -0.13468343E-02
 -0.16976091E-02  0.14900870E-02 -0.74149656E-03
  0.50178455E-02  0.34086142E-02  0.43002019E-02
 -0.31276492E-02  0.12699657E-02  0.29890356E-03
 -0.90785013E-03  0.71496179E-03  0.21141538E-02
  0.45791335E-02 -0.19257873E-02 -0.60394819E-03
 -0.32308533E-02  0.26538381E-02  0.15561514E-02
 -0.55016433E-02 -0.69640147E-03 -0.19162309E-02
 -0.35741737E-02  0.51270168E-03  0.16532654E-03
  0.13418987E-02 -0.11556144E-02  0.27408774E-03
  0.65967686E-03  0.34967310E-03 -0.59098377E-04
 -0.26257797E-02  0.26902906E-02  0.12677454E-02
 -0.10434166E-02  0.23403636E-03 -0.54519957E-03