                                        
   1.00000000000000     
     5.8013000487999999    0.0000000000000000    0.0000000000000000
     0.0000000000000000    5.8013000487999999    0.0000000000000000
     0.0000000000000000    0.0000000000000000   19.0569992064999987
   Ge   Cr
    28    16
Direct
  0.1625293751578376  0.6882416915862458  0.1794368750756600
  0.8374706248421623  0.3117583084137547  0.1794368750756600
  0.6882416915862458  0.8374706248421623  0.8205630869243440
  0.3117583084137547  0.1625293751578376  0.8205630869243440
  0.1625293751578376  0.3117583084137547  0.6794369130756560
  0.8374706248421623  0.6882416915862458  0.6794369130756560
  0.6882416915862458  0.1625293751578376  0.3205631119243422
  0.3117583084137547  0.8374706248421623  0.3205631119243422
  0.2113696065392079  0.1594711799800379  0.1082825105781838
  0.7886303934607921  0.8405288720199594  0.1082825105781838
  0.1594711799800379  0.7886303934607921  0.8917174894218162
  0.8405288720199594  0.2113696065392079  0.8917174894218162
  0.2113696065392079  0.8405288720199594  0.6082825605781880
  0.7886303934607921  0.1594711799800379  0.6082825605781880
  0.1594711799800379  0.2113696065392079  0.3917174894218162
  0.8405288720199594  0.7886303934607921  0.3917174894218162
  0.3411153276716162  0.2370754427835202  0.5361714193656499
  0.6588846523283822  0.7629245372164783  0.5361714193656499
  0.2370754427835202  0.6588846523283822  0.4638285806343500
  0.7629245372164783  0.3411153276716162  0.4638285806343500
  0.3411153276716162  0.7629245372164783  0.0361714063656526
  0.6588846523283822  0.2370754427835202  0.0361714063656526
  0.2370754427835202  0.3411153276716162  0.9638286306343542
  0.7629245372164783  0.6588846523283822  0.9638286306343542
  0.3285932095189656  0.3285932095189656  0.2500000000000000
  0.6714067904810344  0.6714067904810344  0.2500000000000000
  0.3285932095189656  0.6714067904810344  0.7500000000000000
  0.6714067904810344  0.3285932095189656  0.7500000000000000
  0.0000000000000000  0.5000000000000000  0.0652568068932654
  0.5000000000000000  0.0000000000000000  0.9347431681067362
  0.0000000000000000  0.5000000000000000  0.5652568318932638
  0.5000000000000000  0.0000000000000000  0.4347431681067362
  0.0000000000000000  0.5000000000000000  0.3094984468829404
  0.5000000000000000  0.0000000000000000  0.6905015281170611
  0.0000000000000000  0.5000000000000000  0.8094984718829389
  0.5000000000000000  0.0000000000000000  0.1905015531170597
  0.5000000000000000  0.5000000000000000  0.1289239547793399
  0.5000000000000000  0.5000000000000000  0.8710759952206630
  0.5000000000000000  0.5000000000000000  0.6289239547793399
  0.5000000000000000  0.5000000000000000  0.3710760452206600
  0.0000000000000000  0.0000000000000000  0.0000000000000000
  0.0000000000000000  0.0000000000000000  0.5000000000000000
  0.0000000000000000  0.0000000000000000  0.2500000000000000
  0.0000000000000000  0.0000000000000000  0.7500000000000000
 
  0.00000000E+00  0.00000000E+00  0.00000000E+00
  0.00000000E+00  0.00000000E+00  0.00000000E+00
  0.00000000E+00  0.00000000E+00  0.00000000E+00
  0.00000000E+00  0.00000000E+00  0.00000000E+00
  0.00000000E+00  0.00000000E+00  0.00000000E+00
  0.00000000E+00  0.00000000E+00  0.00000000E+00
  0.00000000E+00  0.00000000E+00  0.00000000E+00
  0.00000000E+00  0.00000000E+00  0.00000000E+00
  0.00000000E+00  0.00000000E+00  0.00000000E+00
  0.00000000E+00  0.00000000E+00  0.00000000E+00
  0.00000000E+00  0.00000000E+00  0.00000000E+00
  0.00000000E+00  0.00000000E+00  0.00000000E+00
  0.00000000E+00  0.00000000E+00  0.00000000E+00
  0.00000000E+00  0.00000000E+00  0.00000000E+00
  0.00000000E+00  0.00000000E+00  0.00000000E+00
  0.00000000E+00  0.00000000E+00  0.00000000E+00
  0.00000000E+00  0.00000000E+00  0.00000000E+00
  0.00000000E+00  0.00000000E+00  0.00000000E+00
  0.00000000E+00  0.00000000E+00  0.00000000E+00
  0.00000000E+00  0.00000000E+00  0.00000000E+00
  0.00000000E+00  0.00000000E+00  0.00000000E+00
  0.00000000E+00  0.00000000E+00  0.00000000E+00
  0.00000000E+00  0.00000000E+00  0.00000000E+00
  0.00000000E+00  0.00000000E+00  0.00000000E+00
  0.00000000E+00  0.00000000E+00  0.00000000E+00
  0.00000000E+00  0.00000000E+00  0.00000000E+00
  0.00000000E+00  0.00000000E+00  0.00000000E+00
  0.00000000E+00  0.00000000E+00  0.00000000E+00
  0.00000000E+00  0.00000000E+00  0.00000000E+00
  0.00000000E+00  0.00000000E+00  0.00000000E+00
  0.00000000E+00  0.00000000E+00  0.00000000E+00
  0.00000000E+00  0.00000000E+00  0.00000000E+00
  0.00000000E+00  0.00000000E+00  0.00000000E+00
  0.00000000E+00  0.00000000E+00  0.00000000E+00
  0.00000000E+00  0.00000000E+00  0.00000000E+00
  0.00000000E+00  0.00000000E+00  0.00000000E+00
  0.00000000E+00  0.00000000E+00  0.00000000E+00
  0.00000000E+00  0.00000000E+00  0.00000000E+00
  0.00000000E+00  0.00000000E+00  0.00000000E+00
  0.00000000E+00  0.00000000E+00  0.00000000E+00
  0.00000000E+00  0.00000000E+00  0.00000000E+00
  0.00000000E+00  0.00000000E+00  0.00000000E+00
  0.00000000E+00  0.00000000E+00  0.00000000E+00
  0.00000000E+00  0.00000000E+00  0.00000000E+00
