Sb Te  C                                
   1.00000000000000     
    13.8700507291662429    0.0000000000000000    0.0000000000000000
     0.0000000000000000   19.0046200306635100    0.0000000000000000
     0.0000000000000000    0.0000000000000000   46.0679715328171682
   Sb   Te   C 
   137   205    18
Direct
  0.8410860749160195  0.9717955999418705  0.6503891893865877
  0.6420387146348728  0.0420262840380146  0.4666747364895116
  0.1225610936802108  0.0880380704603882  0.4639530397929579
  0.0845754476536877  0.9111904217665735  0.7062040982421188
  0.8470387547609203  0.6864497035340242  0.4365086326641520
  0.4666882554680700  0.0382839829678627  0.6787907101083891
  0.3745718711314600  0.2747470440944887  0.2218574092321198
  0.9035530562610499  0.1954498832258619  0.5550641924212900
  0.2993925128745782  0.7202243075030299  0.3352509143758137
  0.2022480645076923  0.2023403699946195  0.6603992293047198
  0.0126257866957185  0.1047013291685415  0.8117250404773335
  0.9611209308186074  0.1582854206295632  0.2536549541414346
  0.7612550073129225  0.6534725190402412  0.9178805641474362
  0.2556238405752656  0.1321551492895631  0.2878113910548749
  0.6541538641045905  0.8536706785176796  0.7187454328254418
  0.8870672261282216  0.0165877800019271  0.5151821050599952
  0.3525056116917608  0.4862737688349603  0.2163790245160097
  0.1090646580041196  0.3675045696189587  0.4928617333221562
  0.9419627671185578  0.4849621287480161  0.0503366382064792
  0.0593172556195579  0.8447971324507211  0.4796751548828453
  0.3580862645065817  0.3547394747933288  0.0269868136198884
  0.4828169018311091  0.1933973554396010  0.6650731282961115
  0.5867287980418696  0.6402947269972917  0.4692341137869924
  0.9649845808087641  0.1842269931152352  0.4780731389664765
  0.8364233610230393  0.5100912487699502  0.5044125597390136
  0.9156669724240576  0.3547637827997948  0.4149161614815250
  0.3579183405516632  0.6148379161034877  0.9328015461678972
  0.8878169274632236  0.8581471300507235  0.7098618490771540
  0.6063998745104582  0.1330919496382952  0.2190059681418099
  0.4226736943685960  0.9114682995165698  0.0740607631949340
  0.5516193588721611  0.2042799630293592  0.1145564662344314
  0.8989202901089364  0.0923459526481583  0.3152271140493393
  0.6485148123249052  0.6791849178625134  0.7397493498319051
  0.3451490932276615  0.3682381281942569  0.4909989235047004
  0.1491743633135283  0.3797894729502587  0.8404926094213532
  0.0913365555714754  0.7342733969226990  0.7737431771978684
  0.6984789144908595  0.8042027206531844  0.1645575356754391
  0.1471208854954844  0.0076481933823470  0.8473112947410216
  0.7650595298947069  0.0914263489566503  0.7506359247349198
  0.5856775630393671  0.9290502448724783  0.2911010275653891
  0.6888346108156141  0.5348427576589344  0.8436299410102983
  0.3943277587201682  0.1117792270954128  0.5050704060844030
  0.1750777134206097  0.5324077818720366  0.9185779880340716
  0.6280558709647446  0.8400687454175632  0.3421609136108434
  0.0465699183556625  0.5484276087727804  0.4091202157863304
  0.7927750134651164  0.2610717954532898  0.2532520124474976
  0.7850532307650557  0.6177134752533975  0.9922178116005025
  0.3797663839781207  0.2459524038222808  0.3113929834505443
  0.6372920025411256  0.1906340170418807  0.7197179749835336
  0.2949098261700964  0.9851305982039120  0.5891961737674424
  0.3289930726559198  0.2473201212642002  0.7880433383920894
  0.3954877716197726  0.8239249673229981  0.8664041145982579
  0.3379266528937122  0.3225991850492835  0.6527213897366752
  0.9261808983469099  0.2316260932866686  0.1248847609786028
  0.3509151811626368  0.3699498262364415  0.2739044168084787
  0.9567247558935007  0.1303176917659135  0.0051476842025930
  0.3274662545755760  0.9712799353982359  0.4925997304627425
  0.9724418558217360  0.8256554273872392  0.8111727201717951
  0.1036234719857955  0.1761175502879885  0.2053749575693514
  0.5705935930169338  0.1728812067160524  0.9645941686022559
  0.3430711699634191  0.4298658967232887  0.9694309355736006
  0.6621864386738102  0.6763192387773572  0.5920576655180816
  0.8933234524884229  0.9287357077365730  0.7701378575097325
  0.3053934340817328  0.7720222493820890  0.7286903785802128
  0.9414229643375006  0.6482189514593506  0.0799076455703213
  0.5105062412712212  0.2801625666313257  0.5097983995071074
  0.2396500836541757  0.3342065328352360  0.7282885023148636
  0.4294348843820552  0.6616362818769020  0.6978938823101275
  0.1604392015027959  0.9598952122043528  0.1362000329492346
  0.9902390899934338  0.4124505235801543  0.9576022658343398
  0.6573494099654127  0.3211831193677370  0.3216590767777707
  0.4462215305989776  0.4624659298237666  0.3267138563003069
  0.4089519484605876  0.5614338842285879  0.4211582183954267
  0.7288532730408290  0.5621353851062689  0.7713377635539481
  0.5741888015345926  0.7845932111513941  0.0317957300197763
  0.4725413964202536  0.3949266967719518  0.7551325735422642
  0.2394017576327889  0.1133159542268684  0.5494744691683874
  0.4179343263995351  0.1360954016946760  0.6081743767596873
  0.8377237422363787  0.9924794978526584  0.0633167215657901
  0.1080380205499005  0.7824402032472684  0.3980498055858003
  0.6994233110305721  0.8765449611875853  0.5866807001822439
  0.6328492384025775  0.3677705557623352  0.9696355098923850
  0.7960962878269211  0.2845744642460420  0.7053780129574712
  0.8369316830316038  0.9948947506822091  0.4531016676811593
  0.1659698475115661  0.8906057832618628  0.8058659350060613
  0.1083816705130741  0.3080438935887180  0.1304005507225607
  0.8286087469355476  0.9568796968645369  0.1489395435712418
  0.0853665130546194  0.4170539765048558  0.6914408109484000
  0.1735902817675223  0.4135446752788609  0.0456819083887224
  0.7468584575195680  0.3428920836627321  0.5596389412047894
  0.5878594799334890  0.6775027464224151  0.9861517784870369
  0.6138277831899970  0.1848604038037571  0.3644889835752873
  0.7049826371261800  0.3791965200861138  0.0722712255392730
  0.3873151101098712  0.0516869508263475  0.4215365980886793
  0.4228524044606028  0.0830004638826059  0.9929839238721737
  0.3438806668464741  0.2158222239848447  0.0519994195898645
  0.7614579050989341  0.1050223717015339  0.5873590039351009
  0.8845784743510521  0.7694952209984530  0.9403226210015246
  0.6868190774494816  0.5351416478855384  0.3909975600987670
  0.4214559183628714  0.7255280916728960  0.2684574462132993
  0.4944491638892859  0.5137999481283940  0.0446802931353068
  0.4423074159502506  0.4273356040039585  0.8296934777922665
  0.4508302922483070  0.6497862061121220  0.6156306373112556
  0.2309779230095450  0.9782285909466050  0.3900300490737831
  0.9689652471667598  0.6279595788099956  0.6491091429055973
  0.2875611798575767  0.8643327367004685  0.6702553812855636
  0.2307370942554537  0.4664401116544468  0.3435845319534116
  0.4496106360398817  0.7615225345092317  0.7770738852769157
  0.3667123338104720  0.2802293888410796  0.1088939735289734
  0.9010841227763543  0.3056114119839080  0.8846066875937766
  0.3025491590160266  0.1691144855234462  0.4534077114196243
  0.7754637610094206  0.8529165614461240  0.4734550117497564
  0.5771368326882779  0.3431161956919482  0.8851669202564942
  0.2840185730189969  0.6917014377837724  0.4782569518730707
  0.1349489917583029  0.0040117483582096  0.9654822982039390
  0.1313538392756506  0.9963762286265737  0.0497865392918056
  0.3196974439042365  0.2453939277877185  0.5749185173260837
  0.1366842820030817  0.6836624904700619  0.6833449343413268
  0.0551223472671414  0.2491257872216765  0.3387535890064133
  0.9364879291073777  0.5479216306612377  0.7365019405270096
  0.3014080355597676  0.8794380052853944  0.2187420987359371
  0.7726574683561225  0.3576710286900936  0.7596869960379888
  0.0104252020845820  0.1118732585186401  0.1554891842760714
  0.0360875016873548  0.7130995093577168  0.0281343680737625
  0.8815690656723795  0.7337519820176663  0.5774609506839747
  0.2072600876407819  0.5712976705104401  0.2648904045414052
  0.9559583691435828  0.2816611521562312  0.0194113637880359
  0.7352522296254119  0.5469891409481521  0.0469762100352857
  0.7257312108034251  0.0584435839014025  0.0156097033913295
  0.5579180309917382  0.0613161338161161  0.5621273514700521
  0.7278002496833095  0.5960231280501914  0.2439209477577370
  0.9303308983272998  0.5694575010958953  0.8554080708743199
  0.7209847233874191  0.2551615059461678  0.4479197854319285
  0.2020190587921821  0.6185397471450911  0.0756757596982940
  0.5010262997871952  0.1420689617289370  0.9061163313715983
  0.5917009677342786  0.6228863890515302  0.1741928004298647
  0.6068145370016244  0.2137250271541937  0.6144998270001663
  0.0017645836660613  0.5572730747776341  0.2353426392460041
  0.5471558136710325  0.4585112051454082  0.4395180306755174
  0.8743101134182840  0.8043769942669883  0.3271513580580276
  0.3234267091837136  0.7191722360448947  0.5720277289117047
  0.2713204584960763  0.3158907442322651  0.3613976726236780
  0.0194943226550848  0.5651157485122965  0.5177422843161082
  0.0219046853223614  0.2656874877828234  0.6748280769159964
  0.1073565444097855  0.2841827715239739  0.4332955194637510
  0.4438492419837812  0.8868125351699422  0.7199799912785479
  0.8690620456329066  0.5699456027404270  0.1462027384010484
  0.3870467792879053  0.0273095786753988  0.3217688034069596
  0.9841641625230608  0.1329974178464824  0.9409045763229197
  0.7882683114398049  0.7525749911266721  0.0864342077517713
  0.1874077628180868  0.7804923690977126  0.8556735433664298
  0.1491767650686320  0.1143631194049334  0.3404686487882178
  0.4333835628669594  0.5140166416234805  0.1081088892839741
  0.4103444518474639  0.8872653885316542  0.8066526792472164
  0.3043000311793457  0.0588937382269524  0.9315589199008475
  0.8973946795246690  0.3631111548828900  0.4981153361634206
  0.5319729404272177  0.4990785371876539  0.9754157880339596
  0.6385540526381105  0.3351250603451599  0.1292146003154417
  0.5744006922091972  0.7777674510547630  0.5572094623456993
  0.1012938214308574  0.2272894214068552  0.5211898814501175
  0.6071212034937917  0.5794018592864635  0.5438708771423023
  0.8482489376571265  0.0164999186606498  0.8294992105188879
  0.5091814977698038  0.7689446903225762  0.2132104407871417
  0.1643624427975498  0.8333815229109705  0.3405521894907744
  0.5834488981551236  0.0047275372283560  0.9016321717528145
  0.1632308007079006  0.1229261896590471  0.0033473637081768
  0.7969753071214328  0.6823351002773206  0.1976658042646516
  0.4502957075525779  0.0536646096461208  0.2412570931520971
  0.6864012182488317  0.0767928117451978  0.3260997370896606
  0.0560869071552866  0.8952599790833424  0.0906921139767045
  0.6801540490771990  0.9694988466035770  0.5241840450575349
  0.2625696498123292  0.8316653325708826  0.1532655669758980
  0.9771085079694996  0.4079345202985042  0.7540867768628102
  0.0787167821152769  0.5726070765466014  0.6010385418445182
  0.9584231520316775  0.9376836480158321  0.8725871053762729
  0.1790534854612338  0.2022471941108071  0.8685609292420435
  0.5856393412978699  0.0305635852080534  0.7728205081860969
  0.2167942596866199  0.1919076948286098  0.9277484277888546
  0.5420517972261475  0.0591397677256661  0.0447402880217568
  0.2367962859666272  0.1813144274614413  0.7254174631915836
  0.2212972293219935  0.8055574121342044  0.5144277195650676
  0.4379195046913115  0.8035394738734387  0.6337835325460823
  0.7695149992411362  0.7389502903278955  0.7843175897607518
  0.0883724468136769  0.9816616409660532  0.2725502960482570
  0.4217129203739299  0.0967918611594884  0.7352452753176723
  0.4553976246168845  0.2928366438326565  0.9444411406349451
  0.9645566235161009  0.7776440901191473  0.2338662330681259
  0.6823230058111850  0.8796635197450052  0.7809575894538060
  0.2451801364523181  0.7093684210469309  0.2341056291905917
  0.6829715263089926  0.7995264807955588  0.6409923122158843
  0.7593663685146763  0.6820458779183179  0.4981454248673121
  0.2976824633921242  0.5392982952843627  0.0183988055279729
  0.3958471595174207  0.5615399225361921  0.7429815982099887
  0.0507043308876911  0.6301445792294331  0.1822462713825588
  0.9128099237750850  0.4953756502781222  0.6729984841543092
  0.4792732523435185  0.1772704336779187  0.1741891564458438
  0.2650248511181082  0.4447222323821065  0.7926978579067122
  0.9900403419126854  0.9713285325130477  0.3475609069220266
  0.4136796672867871  0.1362549082564997  0.3688103761633895
  0.7925221115796167  0.1223848820627327  0.6480559142710355
  0.4396534855657840  0.5017565887760898  0.4900535765784745
  0.6149112133430468  0.8398512209596224  0.8663621261409774
  0.4677935753096801  0.3548239523121520  0.3738100348331346
  0.6598876586073452  0.3774564886611898  0.4977762993519170
  0.6087445626785841  0.0349252808040915  0.8396823160310189
  0.1199277210733600  0.2671865456805839  0.0645989928488147
  0.6986111834404923  0.9315633225556819  0.9824636648431793
  0.8579091581572206  0.3130298279941685  0.1726191110966808
  0.2551389973645353  0.4659859814023983  0.4143401584202245
  0.9776680150961686  0.1613103829556688  0.8703022988080737
  0.4033319248912619  0.6103136712372585  0.8722818493440515
  0.6092780040202959  0.6809483355449778  0.0770152032000005
  0.0313902721526377  0.5740261491818659  0.0060869311449745
  0.2343693627768605  0.1901023422125201  0.1390428593551368
  0.9281160289423617  0.6708062061818284  0.2740102551997319
  0.4232035253036792  0.8522561136827367  0.3554398024223991
  0.5796554732980623  0.7171894080747941  0.8347470439961897
  0.1483548905267963  0.5577893718740132  0.7252131225243377
  0.4458726063165480  0.8059301104281480  0.4141517240564023
  0.8382360402713245  0.2004959265402743  0.7898873018711036
  0.1648499707921062  0.0033151266595646  0.2165980303046095
  0.3816742488479282  0.2878422402672672  0.8463286640746722
  0.9596874835205207  0.7218029301033966  0.7245943687933969
  0.3001263185746061  0.5960201504350493  0.6565966659303428
  0.8943818676956036  0.9865721707261687  0.5854074339976989
  0.0507127807716188  0.3214278607672425  0.1935695749817877
  0.9304616483099463  0.6764104890413734  0.3741714875374129
  0.8246307922155433  0.0921002689533621  0.1816541076199506
  0.0042528718496539  0.8983576314447301  0.1801494959155088
  0.3808113403424851  0.5961143639110917  0.1751046010404105
  0.3823696821156177  0.6674393128213191  0.0968981516806101
  0.5877695274212638  0.5319780738284896  0.8981211621519887
  0.1524912489802475  0.4232075666369035  0.2882318048488587
  0.1388687804406540  0.5603586019924220  0.8583331635697390
  0.9161514050530434  0.5435839048878036  0.9185205501035686
  0.1358004089927902  0.8023757119372533  0.6359222335028516
  0.2245336475617793  0.8738722878893345  0.4359375431190321
  0.6550860725841917  0.9694567558625762  0.3755362038295364
  0.8901226632368012  0.4528164811260740  0.2958286356793847
  0.1311589786752453  0.2535024145625089  0.6016216409595700
  0.5764140817039626  0.3569321184239871  0.6820796553416520
  0.6469714276973307  0.6808365782554624  0.4106546436861421
  0.6810187499678626  0.4672565324554219  0.3038486930041354
  0.4739820195784744  0.7614846058866138  0.4821595519566835
  0.1313924096948479  0.5173676487627210  0.4683625374938851
  0.3114166450243988  0.0262064760534813  0.0966307884612029
  0.2997906578656617  0.6075857228966298  0.5306174647654021
  0.6734258272625457  0.3863709038945327  0.8305953718838154
  0.0354959902137699  0.1138146876952813  0.5904580816258598
  0.4775741997001300  0.5877541562744200  0.3626601788945605
  0.7620756429341787  0.6721878698032797  0.6889623600772462
  0.7237992070049524  0.1642099701857515  0.5027498653545180
  0.6058857756824488  0.8983260652946365  0.4302940025188193
  0.9832759921644710  0.9386267395545373  0.0115917788886973
  0.0900412532618433  0.7049844996547810  0.5739565968895390
  0.7876803988806095  0.4363487032417769  0.0052740654644606
  0.0217793821772655  0.6018804723751402  0.7947812205604097
  0.8559743714625081  0.0090255742272506  0.2345169211940910
  0.8353383935739688  0.9449874382359972  0.9333501930042746
  0.1915862430534417  0.4243800822909364  0.6368824879867526
  0.9602920791544753  0.4190256327827290  0.5939627966940029
  0.6786698698458670  0.4674213081427164  0.7261356720318388
  0.5345985000119713  0.5671693134214689  0.8023742373258252
  0.0241335197873760  0.0240315653666075  0.6702020904900811
  0.1068576689255787  0.2524059653080870  0.2745283065243299
  0.9353210383412019  0.3882791805132363  0.8333320334967500
  0.8501227568234595  0.5133698893652378  0.4329596909602563
  0.5137519321127562  0.2442600885095947  0.4467669910173444
  0.3217916091612710  0.6865678835098370  0.8151124000741505
  0.2639108338976327  0.0190912270125193  0.6585855323202463
  0.0501482211736964  0.6784207977743087  0.9368926266327376
  0.7131307236289427  0.3573343340190868  0.3824894384951483
  0.6643993351334700  0.9587943693764106  0.2110600707380215
  0.6668220740729978  0.2105472796309276  0.8788660666666847
  0.0958452797805361  0.9954512918541346  0.7586523111536586
  0.9108316841863598  0.8290134638437655  0.5277568702633187
  0.3834778859781922  0.7457294931215958  0.0170938881301491
  0.0604860087113423  0.7008794580586636  0.4576984233442739
  0.1318085175410897  0.9066601803893134  0.5713249906722929
  0.8531820700267579  0.7127828242909555  0.8665072855982291
  0.7947031644834294  0.2471815201245142  0.0559214278466903
  0.3322833295065739  0.4485325876764180  0.8988070412885407
  0.3676501590568895  0.8991020129585720  0.2824199586955715
  0.5540295870920909  0.2061737478001229  0.2730126361904989
  0.5914064404225677  0.5786786750148776  0.6599705873110878
  0.2677341570512778  0.6888456314236405  0.3957185584996401
  0.5304493477923766  0.4531492670884476  0.6303975303966477
  0.4551589856556043  0.5160552184949856  0.5769362657514456
  0.9021197970614784  0.8047702741121365  0.6349090106345004
  0.2744492908024199  0.7889510969676561  0.0651835068037229
  0.4533455573452146  0.8554591105705579  0.1320583112832083
  0.9834965672852156  0.1016607594912207  0.0711307758734720
  0.8993193610628439  0.7995720017346820  0.1426393790369023
  0.8041032857996885  0.5836894119961116  0.3431026060180621
  0.4230689338872810  0.5754640289112729  0.2755051209639987
  0.4673080352616883  0.9414421659927078  0.9767215110914861
  0.2203252197437939  0.4869912908885612  0.1075489378766178
  0.3118004782267252  0.3677056705241995  0.1780088802364365
  0.0836153389949820  0.3477378606559525  0.9084131016949523
  0.7955842658443378  0.0882358947028836  0.9244327181084548
  0.8429789657895095  0.3075440023059772  0.6154506861564840
  0.1272387337039075  0.4924261993807341  0.1857009634989418
  0.7948561448699889  0.4918488323592566  0.5705200608889955
  0.2913799749495105  0.0745820477350996  0.8041214624935344
  0.5670146261440883  0.9738364803970769  0.6121068459229159
  0.5559952958170309  0.2375504454519695  0.0453868699666377
  0.8653268040315741  0.3978435787353437  0.2405665122622996
  0.9504242605957736  0.2103677421771101  0.7337334402705585
  0.1483956133123757  0.6140389778540807  0.3220740356454737
  0.0506354266040027  0.0313770633916236  0.4112216550510187
  0.4023045265481835  0.0355768008850092  0.8521411875698793
  0.3835053058561450  0.7661880443956236  0.9353606530198001
  0.1252643159401474  0.2619528487123802  0.8000105886185576
  0.4349773539959828  0.9768694875641762  0.1891201457896850
  0.5452828946706108  0.3527784261912854  0.2368250496734022
  0.2376342918439603  0.4060782271386622  0.5407153734959947
  0.8546838086371509  0.2971710075008670  0.9589845546979013
  0.6479656615954623  0.9018902401457077  0.0915670413380094
  0.2704833047532589  0.9206358394923724  0.9995856752240322
  0.4317328165652293  0.9340074936136998  0.5430931909092448
  0.0134638162020380  0.4308972362865266  0.3696213344853236
  0.6883086488484653  0.9931058333942880  0.6978659269706964
  0.7274840832701670  0.4208620698321145  0.9178220708386789
  0.7256177514267541  0.1261519777950890  0.4116095412051860
  0.6629211029264060  0.8196768217700832  0.2515968546725458
  0.0914521691100865  0.6993199957885253  0.1181837426011428
  0.1514969689723901  0.3434543270009214  0.9864375701087710
  0.9778947430558548  0.4684823788643834  0.1145252245525777
  0.1679165826961351  0.7939952056751963  0.9523619117444727
  0.1326637821733966  0.8291361943182581  0.2627268613768548
  0.6076344919594322  0.0180506962492598  0.1269825667270497
  0.8141115087160941  0.9219327184717414  0.2905507936736084
  0.1438626697269823  0.8842555296294566  0.9018168681124555
  0.5454879782816471  0.3303587610500042  0.5779642703838167
  0.6652004415733754  0.5291029121028963  0.1281410902026531
  0.8516621640397661  0.7592162140739994  0.0042410832849124
  0.7538295692779099  0.1028872795646844  0.1032784316543079
  0.6404630926708034  0.6999595371967499  0.2889779656842849
  0.6089638098320945  0.7677178394693440  0.9358407618191407
  0.5787556168541790  0.2646234928173099  0.7711183172248540
  0.9728599462871461  0.2112865207206309  0.3984043759996240
  0.1222366145499303  0.9910836007074943  0.5146380215197042
  0.7865234307144781  0.2783163695648967  0.3007787076873038
  0.8723138675388090  0.1335197124238255  0.5135006328354683
  0.5658171635131880  0.5048130731465067  0.2161353308570606
  0.8958320352976071  0.8625926468109705  0.3882611800571432
  0.8499099273524059  0.2427793337435464  0.3158380080309841
  0.4268209826443822  0.7139029009930831  0.8500167625846244
  0.6179907540253207  0.5619679697764755  0.2130306752424797
  0.9116282289851003  0.8792654054409846  0.3608903651817028
  0.3623066465604939  0.3453603579457145  0.6991698126386905
  0.5055560453082739  0.4526022421354723  0.2182239008081993
  0.7330377100410883  0.9049129005405007  0.1783751983907373
  0.8492504620351738  0.8034829154220680  0.4370675857289402
  0.9148268510229546  0.2031881309165654  0.3286230643780004
  0.4502783150888699  0.3616574494627679  0.7091156043321506
  0.3249273685702080  0.3571621956642962  0.7675257955460262
  0.4926352783954035  0.3972816996058816  0.0449328365157767
  0.8733858758951510  0.8363033323255161  0.4130389587720980
  0.5641456593797565  0.3525904334948022  0.0516465114635953
 
  0.00000000E+00  0.00000000E+00  0.00000000E+00
  0.00000000E+00  0.00000000E+00  0.00000000E+00
  0.00000000E+00  0.00000000E+00  0.00000000E+00
  0.00000000E+00  0.00000000E+00  0.00000000E+00
  0.00000000E+00  0.00000000E+00  0.00000000E+00
  0.00000000E+00  0.00000000E+00  0.00000000E+00
  0.00000000E+00  0.00000000E+00  0.00000000E+00
  0.00000000E+00  0.00000000E+00  0.00000000E+00
  0.00000000E+00  0.00000000E+00  0.00000000E+00
  0.00000000E+00  0.00000000E+00  0.00000000E+00
  0.00000000E+00  0.00000000E+00  0.00000000E+00
  0.00000000E+00  0.00000000E+00  0.00000000E+00
  0.00000000E+00  0.00000000E+00  0.00000000E+00
  0.00000000E+00  0.00000000E+00  0.00000000E+00
  0.00000000E+00  0.00000000E+00  0.00000000E+00
  0.00000000E+00  0.00000000E+00  0.00000000E+00
  0.00000000E+00  0.00000000E+00  0.00000000E+00
  0.00000000E+00  0.00000000E+00  0.00000000E+00
  0.00000000E+00  0.00000000E+00  0.00000000E+00
  0.00000000E+00  0.00000000E+00  0.00000000E+00
  0.00000000E+00  0.00000000E+00  0.00000000E+00
  0.00000000E+00  0.00000000E+00  0.00000000E+00
  0.00000000E+00  0.00000000E+00  0.00000000E+00
  0.00000000E+00  0.00000000E+00  0.00000000E+00
  0.00000000E+00  0.00000000E+00  0.00000000E+00
  0.00000000E+00  0.00000000E+00  0.00000000E+00
  0.00000000E+00  0.00000000E+00  0.00000000E+00
  0.00000000E+00  0.00000000E+00  0.00000000E+00
  0.00000000E+00  0.00000000E+00  0.00000000E+00
  0.00000000E+00  0.00000000E+00  0.00000000E+00
  0.00000000E+00  0.00000000E+00  0.00000000E+00
  0.00000000E+00  0.00000000E+00  0.00000000E+00
  0.00000000E+00  0.00000000E+00  0.00000000E+00
  0.00000000E+00  0.00000000E+00  0.00000000E+00
  0.00000000E+00  0.00000000E+00  0.00000000E+00
  0.00000000E+00  0.00000000E+00  0.00000000E+00
  0.00000000E+00  0.00000000E+00  0.00000000E+00
  0.00000000E+00  0.00000000E+00  0.00000000E+00
  0.00000000E+00  0.00000000E+00  0.00000000E+00
  0.00000000E+00  0.00000000E+00  0.00000000E+00
  0.00000000E+00  0.00000000E+00  0.00000000E+00
  0.00000000E+00  0.00000000E+00  0.00000000E+00
  0.00000000E+00  0.00000000E+00  0.00000000E+00
  0.00000000E+00  0.00000000E+00  0.00000000E+00
  0.00000000E+00  0.00000000E+00  0.00000000E+00
  0.00000000E+00  0.00000000E+00  0.00000000E+00
  0.00000000E+00  0.00000000E+00  0.00000000E+00
  0.00000000E+00  0.00000000E+00  0.00000000E+00
  0.00000000E+00  0.00000000E+00  0.00000000E+00
  0.00000000E+00  0.00000000E+00  0.00000000E+00
  0.00000000E+00  0.00000000E+00  0.00000000E+00
  0.00000000E+00  0.00000000E+00  0.00000000E+00
  0.00000000E+00  0.00000000E+00  0.00000000E+00
  0.00000000E+00  0.00000000E+00  0.00000000E+00
  0.00000000E+00  0.00000000E+00  0.00000000E+00
  0.00000000E+00  0.00000000E+00  0.00000000E+00
  0.00000000E+00  0.00000000E+00  0.00000000E+00
  0.00000000E+00  0.00000000E+00  0.00000000E+00
  0.00000000E+00  0.00000000E+00  0.00000000E+00
  0.00000000E+00  0.00000000E+00  0.00000000E+00
  0.00000000E+00  0.00000000E+00  0.00000000E+00
  0.00000000E+00  0.00000000E+00  0.00000000E+00
  0.00000000E+00  0.00000000E+00  0.00000000E+00
  0.00000000E+00  0.00000000E+00  0.00000000E+00
  0.00000000E+00  0.00000000E+00  0.00000000E+00
  0.00000000E+00  0.00000000E+00  0.00000000E+00
  0.00000000E+00  0.00000000E+00  0.00000000E+00
  0.00000000E+00  0.00000000E+00  0.00000000E+00
  0.00000000E+00  0.00000000E+00  0.00000000E+00
  0.00000000E+00  0.00000000E+00  0.00000000E+00
  0.00000000E+00  0.00000000E+00  0.00000000E+00
  0.00000000E+00  0.00000000E+00  0.00000000E+00
  0.00000000E+00  0.00000000E+00  0.00000000E+00
  0.00000000E+00  0.00000000E+00  0.00000000E+00
  0.00000000E+00  0.00000000E+00  0.00000000E+00
  0.00000000E+00  0.00000000E+00  0.00000000E+00
  0.00000000E+00  0.00000000E+00  0.00000000E+00
  0.00000000E+00  0.00000000E+00  0.00000000E+00
  0.00000000E+00  0.00000000E+00  0.00000000E+00
  0.00000000E+00  0.00000000E+00  0.00000000E+00
  0.00000000E+00  0.00000000E+00  0.00000000E+00
  0.00000000E+00  0.00000000E+00  0.00000000E+00
  0.00000000E+00  0.00000000E+00  0.00000000E+00
  0.00000000E+00  0.00000000E+00  0.00000000E+00
  0.00000000E+00  0.00000000E+00  0.00000000E+00
  0.00000000E+00  0.00000000E+00  0.00000000E+00
  0.00000000E+00  0.00000000E+00  0.00000000E+00
  0.00000000E+00  0.00000000E+00  0.00000000E+00
  0.00000000E+00  0.00000000E+00  0.00000000E+00
  0.00000000E+00  0.00000000E+00  0.00000000E+00
  0.00000000E+00  0.00000000E+00  0.00000000E+00
  0.00000000E+00  0.00000000E+00  0.00000000E+00
  0.00000000E+00  0.00000000E+00  0.00000000E+00
  0.00000000E+00  0.00000000E+00  0.00000000E+00
  0.00000000E+00  0.00000000E+00  0.00000000E+00
  0.00000000E+00  0.00000000E+00  0.00000000E+00
  0.00000000E+00  0.00000000E+00  0.00000000E+00
  0.00000000E+00  0.00000000E+00  0.00000000E+00
  0.00000000E+00  0.00000000E+00  0.00000000E+00
  0.00000000E+00  0.00000000E+00  0.00000000E+00
  0.00000000E+00  0.00000000E+00  0.00000000E+00
  0.00000000E+00  0.00000000E+00  0.00000000E+00
  0.00000000E+00  0.00000000E+00  0.00000000E+00
  0.00000000E+00  0.00000000E+00  0.00000000E+00
  0.00000000E+00  0.00000000E+00  0.00000000E+00
  0.00000000E+00  0.00000000E+00  0.00000000E+00
  0.00000000E+00  0.00000000E+00  0.00000000E+00
  0.00000000E+00  0.00000000E+00  0.00000000E+00
  0.00000000E+00  0.00000000E+00  0.00000000E+00
  0.00000000E+00  0.00000000E+00  0.00000000E+00
  0.00000000E+00  0.00000000E+00  0.00000000E+00
  0.00000000E+00  0.00000000E+00  0.00000000E+00
  0.00000000E+00  0.00000000E+00  0.00000000E+00
  0.00000000E+00  0.00000000E+00  0.00000000E+00
  0.00000000E+00  0.00000000E+00  0.00000000E+00
  0.00000000E+00  0.00000000E+00  0.00000000E+00
  0.00000000E+00  0.00000000E+00  0.00000000E+00
  0.00000000E+00  0.00000000E+00  0.00000000E+00
  0.00000000E+00  0.00000000E+00  0.00000000E+00
  0.00000000E+00  0.00000000E+00  0.00000000E+00
  0.00000000E+00  0.00000000E+00  0.00000000E+00
  0.00000000E+00  0.00000000E+00  0.00000000E+00
  0.00000000E+00  0.00000000E+00  0.00000000E+00
  0.00000000E+00  0.00000000E+00  0.00000000E+00
  0.00000000E+00  0.00000000E+00  0.00000000E+00
  0.00000000E+00  0.00000000E+00  0.00000000E+00
  0.00000000E+00  0.00000000E+00  0.00000000E+00
  0.00000000E+00  0.00000000E+00  0.00000000E+00
  0.00000000E+00  0.00000000E+00  0.00000000E+00
  0.00000000E+00  0.00000000E+00  0.00000000E+00
  0.00000000E+00  0.00000000E+00  0.00000000E+00
  0.00000000E+00  0.00000000E+00  0.00000000E+00
  0.00000000E+00  0.00000000E+00  0.00000000E+00
  0.00000000E+00  0.00000000E+00  0.00000000E+00
  0.00000000E+00  0.00000000E+00  0.00000000E+00
  0.00000000E+00  0.00000000E+00  0.00000000E+00
  0.00000000E+00  0.00000000E+00  0.00000000E+00
  0.00000000E+00  0.00000000E+00  0.00000000E+00
  0.00000000E+00  0.00000000E+00  0.00000000E+00
  0.00000000E+00  0.00000000E+00  0.00000000E+00
  0.00000000E+00  0.00000000E+00  0.00000000E+00
  0.00000000E+00  0.00000000E+00  0.00000000E+00
  0.00000000E+00  0.00000000E+00  0.00000000E+00
  0.00000000E+00  0.00000000E+00  0.00000000E+00
  0.00000000E+00  0.00000000E+00  0.00000000E+00
  0.00000000E+00  0.00000000E+00  0.00000000E+00
  0.00000000E+00  0.00000000E+00  0.00000000E+00
  0.00000000E+00  0.00000000E+00  0.00000000E+00
  0.00000000E+00  0.00000000E+00  0.00000000E+00
  0.00000000E+00  0.00000000E+00  0.00000000E+00
  0.00000000E+00  0.00000000E+00  0.00000000E+00
  0.00000000E+00  0.00000000E+00  0.00000000E+00
  0.00000000E+00  0.00000000E+00  0.00000000E+00
  0.00000000E+00  0.00000000E+00  0.00000000E+00
  0.00000000E+00  0.00000000E+00  0.00000000E+00
  0.00000000E+00  0.00000000E+00  0.00000000E+00
  0.00000000E+00  0.00000000E+00  0.00000000E+00