Amorphous GeAsSeSi                      
   1.00000000000000     
    19.2205447068223911    0.0000000000000000    0.0000000000000000
     0.0000000000000000   19.2205447068223911    0.0000000000000000
     0.0000000000000000    0.0000000000000000   19.2205447068223911
   Ge   Se
   120   120
Direct
  0.8521228787221528  0.3832626955644446  0.0111787044129479
  0.7794782062959774  0.5579087547238540  0.8597766123802728
  0.2229207025550413  0.1681536865346790  0.3194010841867929
  0.6841498762207820  0.2327550211303788  0.0360690028206870
  0.1441106300450668  0.5090757598660541  0.7747852098671026
  0.0464792335940975  0.0258203878330853  0.8655140675426538
  0.2612539852849754  0.8278452805917033  0.5541879478098710
  0.5702490011679068  0.0985763827284511  0.7262548660912842
  0.6887913846955102  0.1970676318540523  0.2390715038094357
  0.2502697178113590  0.1043007850203672  0.5638312131982932
  0.0920800319928693  0.2165212641361858  0.1454120386097164
  0.7131849031333896  0.4765398389930516  0.1449318626118520
  0.7382860207413910  0.6921981185395907  0.3653958899639135
  0.0523218928258511  0.7606239093224644  0.0378452285895417
  0.7001334669588286  0.2494432721561248  0.4024928459443508
  0.3821604342079863  0.6513561153623655  0.5028244675535462
  0.7623594346865777  0.8608506650160913  0.2418713779598098
  0.1492331741263707  0.1264566953044342  0.9483708122274302
  0.5289993864021023  0.3552313629417082  0.6079820330666383
  0.0159220285102543  0.6136405796041215  0.4682168405171587
  0.6739997660035375  0.4093111665658291  0.9769916050142975
  0.0456115791634275  0.8410593863141143  0.8679525002968185
  0.4168348815809343  0.9161237190664294  0.1937301995558975
  0.9328330381522807  0.5034026021961030  0.7569327360811525
  0.9230741015861061  0.1024389705439329  0.5571451894428202
  0.4279563720516169  0.0353955056818875  0.2681636437060643
  0.8978612805631410  0.2816971125691332  0.4934470721365575
  0.4139193946137382  0.5040250766348030  0.5046922229987820
  0.4855181162481625  0.8887681869200444  0.0038891760361364
  0.1509452374121958  0.5179770575364515  0.9184040602299968
  0.6266079547107053  0.8600948415653994  0.7199329219668591
  0.5767004105998349  0.5923824425629334  0.2234126932247427
  0.3114919921845046  0.7220907889861998  0.8994383622068032
  0.0528095629423721  0.9390574989178473  0.3206512114084157
  0.7928303067306459  0.5878827942210171  0.9916981552265091
  0.1084860368020227  0.9328005748355502  0.0782264523361312
  0.7518045819130769  0.5730401255310139  0.6782318525289754
  0.2483842329739125  0.0991314583911275  0.8167076678861824
  0.1872808607780564  0.3032916331238895  0.8974207711639078
  0.3324431541738079  0.0288826918223153  0.7460601988623277
  0.8101867313496299  0.0087090516655286  0.1214371145007666
  0.4228159307308758  0.5210646106391182  0.9254412137763802
  0.0561473470267071  0.5295994755963952  0.3037442489498028
  0.9806599791190612  0.4375523470548421  0.5148933658756207
  0.7779618768265871  0.6704145023257250  0.2105153911980921
  0.6706110977460790  0.2186832370236126  0.7006887595122944
  0.8426403514532358  0.2922035816030482  0.6783380537426050
  0.2392903160915258  0.8377030216396077  0.7747442841265327
  0.1515009690455730  0.5361402482953845  0.1580423316204627
  0.0305459571003073  0.6686301315192767  0.9078054486038016
  0.5323173972342374  0.5239140221274674  0.6130249361478159
  0.4468204835592720  0.1100632323768466  0.1551230149244792
  0.7272902404579547  0.4955273689896469  0.4893211146207233
  0.4831384678734658  0.4225821278242772  0.3275307975729419
  0.3934358008116760  0.2018121564520430  0.6463301556148194
  0.8203813737033927  0.1266071890341845  0.3092966373124857
  0.4668263405648335  0.1620287330812474  0.8370287288284149
  0.9721953024550787  0.2561087012841635  0.9553589893277721
  0.3482354840430031  0.0104726463530494  0.0816060704984111
  0.2042458006241810  0.6600355926813566  0.0583293727632287
  0.4849677287318526  0.8174209603962306  0.5577262945298135
  0.6910283580499155  0.6426786667105411  0.5200458511091889
  0.3458546585187910  0.1331990783844601  0.3208417795997345
  0.4423668214704276  0.0461675886442850  0.4690979265108294
  0.4036526503183908  0.6955350642133316  0.0864009490132992
  0.8633549194566830  0.1416121141635965  0.7593731825293318
  0.8848665989227052  0.5416286528845050  0.5540079925870273
  0.9884249914888327  0.5864743277492258  0.1492857733012895
  0.7875802777269778  0.8191118299753349  0.6322520028522816
  0.0726169810215371  0.2371450724120074  0.4880900350874335
  0.2417933342566374  0.6493307075411271  0.5217860027867560
  0.4805790538589370  0.4680788410317447  0.7749205068739347
  0.6432208883884255  0.0494441897426657  0.0159828860235055
  0.2843964386868967  0.2635328510205178  0.6805704947222829
  0.6862875569163677  0.8422531322925019  0.8916276498293088
  0.9621428165698052  0.8787888445349374  0.2305996095229397
  0.0808483961348026  0.0691686146383343  0.2825699870944136
  0.2536679026103189  0.9762236366867690  0.2798468709454933
  0.4988814644412561  0.7958954521768319  0.9118627442361198
  0.4113867976201863  0.6393754985863457  0.6965020934843374
  0.9824336805916960  0.6263791302102126  0.7282546420405617
  0.5144192982940170  0.2109346140156933  0.3887066509205616
  0.4554060582815559  0.8324420369992321  0.3479025501677115
  0.9345252907828455  0.7783365716300114  0.6326593655345991
  0.9374650940113554  0.0117901089908458  0.7239589303737043
  0.7215572288355643  0.7205308177753635  0.0922822250774188
  0.4531506217557015  0.8348139439838873  0.7951787692242439
  0.3803996063278734  0.2796955554460663  0.1977185658356415
  0.0053039320922851  0.4466312463530381  0.9481801268065421
  0.2198965195059135  0.9106859846932851  0.9596968180299649
  0.6605609653811327  0.8997620513600469  0.1269217526338675
  0.3209125523044059  0.3283047761193008  0.4770845252331521
  0.5948333836819004  0.8109374794136377  0.2065705552136042
  0.0654468091599763  0.1843564578005031  0.6965718482082340
  0.8372005201888580  0.4249107508327930  0.3552235818872986
  0.7883857037764550  0.9747490960730396  0.5074605165593602
  0.4950878403115063  0.4099683008327673  0.1039741701050109
  0.0924017320351861  0.7970909837984556  0.5047915527647326
  0.4944311608763552  0.7037018635710999  0.3609256534882909
  0.5787044143823409  0.1892567770109072  0.5295264390468738
  0.1346203825053214  0.3532503860778741  0.3243351318926538
  0.9351556841224152  0.1431992397227114  0.1290130631334382
  0.7920676805772692  0.1478460064676999  0.9582877030863367
  0.9747665149225279  0.9748342192509709  0.5346527519684632
  0.2653052427684081  0.5179658797301421  0.6130033958300991
  0.3872807729731305  0.5652869244901284  0.3017626152045285
  0.8619289196008588  0.4733081368192140  0.2053210416088372
  0.6369107529057285  0.9282532272934415  0.5896076029825673
  0.9749330722919878  0.0541988303227965  0.0327569193293720
  0.6078076670424348  0.6808378632478012  0.7785687993731798
  0.3529881423800081  0.4162208465136603  0.7556799463399499
  0.3058218150267273  0.4818399316567806  0.0637967264550859
  0.5330171260486942  0.2251528410858289  0.0531668423044562
  0.3264441429520720  0.1710879072468663  0.9950382803825382
  0.7310673725155524  0.8255980812256699  0.4344783832896052
  0.7779693897564167  0.2703611498873956  0.8656017801192503
  0.1195862485213899  0.4594224439261478  0.5212288231002666
  0.4497380918984764  0.3197725994401712  0.8948159604050615
  0.2276382654006565  0.8055157698118705  0.1779093785583940
  0.0915184428196209  0.7668185681372606  0.6401435258118587
  0.4830068514537289  0.8171292430319179  0.1122763988540289
  0.9463067057371917  0.9404617523901548  0.8375101041366655
  0.6373803711481433  0.7696076472445798  0.3547649436489691
  0.7537713457893732  0.3753811983932508  0.4472160612004795
  0.8423030011733744  0.6965786870883071  0.0462321198577365
  0.1246263468554856  0.4006863540646321  0.9758495412772629
  0.1435289219337647  0.9315022116501521  0.8463258357730259
  0.0623127876429986  0.5614554909058465  0.9895674404833783
  0.8531590398310835  0.9471908270600063  0.2681789542358934
  0.7304206715101800  0.7973179718116246  0.7511108494226872
  0.9038124382573320  0.5573707116588691  0.8729788910226539
  0.7483732191764620  0.1404532753468222  0.8326784687197580
  0.0980113231028269  0.6283042951607325  0.7863750090634173
  0.6077156020399666  0.2793645757041467  0.3192562912504526
  0.8849448456660949  0.5930486360278376  0.2308376689776703
  0.6147360749871204  0.9122782929645783  0.0002956876923524
  0.6918690994428111  0.1163728080342927  0.3402700910895894
  0.9300479335274591  0.1348562110406516  0.9382147929415746
  0.1429418023869131  0.5747075320033670  0.4539440554142971
  0.6874228435257528  0.9429173512924427  0.4400279770290931
  0.5036919175218550  0.2145000132531895  0.7221235122458167
  0.5917191599612512  0.4606539853139118  0.1839888245458196
  0.0172049102078932  0.9752630830865047  0.1640551776923574
  0.9692515480563993  0.2625874102920173  0.0931574249267466
  0.1429266809989168  0.7337247260188051  0.9477207188259766
  0.8812130199281802  0.8953172377656839  0.4819648815703074
  0.3681552204136751  0.7647837247108725  0.5861725186529015
  0.0092666445172284  0.8736341139840457  0.9932084687825649
  0.3561936244695689  0.6796462204247073  0.3741305038772238
  0.2830003651646919  0.0331690066777712  0.9756927701929367
  0.2965565152147445  0.7654684560061394  0.0541795423336668
  0.3223240254449492  0.0750331403711472  0.4302709655009105
  0.5010767811051506  0.2231610553982188  0.1824334747881864
  0.5852978776902256  0.4325312766582803  0.7071659995210768
  0.2714998754082159  0.5713980568125003  0.9698696802696184
  0.5174201783611163  0.0822051954945320  0.3587405280711634
  0.5520642186840408  0.4516971296132896  0.5043923012844022
  0.5127077545407215  0.7038370491507144  0.4894580019420529
  0.0596217716130024  0.0574273907383098  0.7350798937166171
  0.2475071887613439  0.2400530701031888  0.5535134234427389
  0.4934380758030985  0.5919670628348374  0.7919356859589439
  0.1009374233758931  0.8117511059245268  0.1469397016400131
  0.7952154341799448  0.2577915854907292  0.2997896024997496
  0.0914348233356954  0.1013312157897302  0.0671785149327229
  0.8339268513041381  0.7573095628360761  0.2875972338931880
  0.6451618009820135  0.2795499256447008  0.9224386930344713
  0.2550060556464027  0.9405826014868817  0.1492013513342301
  0.5247183223291806  0.9109218262801769  0.2752682789055622
  0.1992090897077381  0.3808197106286865  0.4494727371092627
  0.3443104715027557  0.4093037364490724  0.8927931836545535
  0.9168122644970080  0.2531823092439785  0.7820400429390263
  0.2197614563396326  0.7265591346176820  0.6336320306894272
  0.7741526195014453  0.0240124339036177  0.9848735506879164
  0.8133256852873042  0.0920742797789800  0.4827219740485503
  0.6804543097827856  0.0256426866128281  0.1488455129385537
  0.9341985639715932  0.7374704385716507  0.7596503719787000
  0.3914483251727556  0.2526030010761467  0.3377210929698422
  0.4423532320442449  0.6869546008585370  0.9587327994639876
  0.4458501877213485  0.0394870711907747  0.8016332069524896
  0.1493290782884322  0.4569294441260628  0.6439896432521642
  0.5269492007484206  0.4406184231333271  0.8947713522272117
  0.3510909941618004  0.4113728144753682  0.5810794574807239
  0.0905336055504786  0.6260168520235779  0.2270983968474705
  0.6789420456587556  0.7953358754044186  0.5614358659278547
  0.5248732164213232  0.5465135668962062  0.3372926994742078
  0.7603838430374766  0.9536975649775729  0.6310017581607856
  0.2251027979884998  0.2836879417892353  0.2593872910970618
  0.0105663461283076  0.7345113088699237  0.4280089871553048
  0.2107780119906733  0.1578428062797065  0.7051073992370451
  0.3566143688516987  0.7346430990070552  0.7640446184552936
  0.7295866121370361  0.3187951984274539  0.7551766042651701
  0.5017075725524127  0.0952050499030458  0.0405713935186145
  0.7829377398053929  0.4659521377931108  0.6064670028719304
  0.4179889355865468  0.2988490190542646  0.0158955204225676
  0.9926851249539272  0.4639996851795824  0.2036748300965562
  0.5345730473923683  0.7692229481662602  0.7195158725796076
  0.4124556751936711  0.4182037526198722  0.2070379643030524
  0.4377529089270539  0.9030754221097704  0.4555507962823361
  0.8081427412246585  0.1353342958927025  0.1580179516430300
  0.3171676699590296  0.8690919220597441  0.8821641590004472
  0.0775295657014711  0.2206486131669898  0.8818201306223811
  0.8471770718419260  0.5406155971250104  0.4285243465985684
  0.3236601401611052  0.1308825923730612  0.1445320563045401
  0.0254118439234650  0.6568715846464631  0.6007703119097051
  0.6335547071180843  0.6085655154961658  0.6257591292293626
  0.7465857492306625  0.3523121992423091  0.0839101849923393
  0.6096153328917752  0.7344049508457700  0.9074740670697624
  0.5946200109447576  0.9230822352786379  0.8297637736791504
  0.9925190746559313  0.3229413818000463  0.5786454202593407
  0.2079190387457260  0.7688475946857474  0.4509727502117383
  0.7981340987418035  0.6681547602802960  0.5791341106477661
  0.1307741494797787  0.1369567234696900  0.3968388857198477
  0.6957490162174317  0.5968581889721293  0.2837138963352975
  0.3090470014363370  0.5455268380202966  0.7293158960329683
  0.6767301159241800  0.5588331300086379  0.0514861367818658
  0.0783361118826129  0.1340877358357808  0.5789855210435625
  0.7896343695267880  0.1719733845984431  0.6527244347346076
  0.9673378918523335  0.1687428017976119  0.4476622307987807
  0.9564780498664794  0.3666315574246741  0.4042083495629918
  0.2134341910475358  0.2345375714388750  0.0087471134816133
  0.7848133298981173  0.4233771050086809  0.9004305332390709
  0.1716987816925697  0.4731721979378893  0.2810654442362269
  0.1914791565745929  0.0923156509852089  0.2186071235823367
  0.9996446162132646  0.9005673956262967  0.6427501865136159
  0.7727214768915138  0.8522682075528227  0.1034362188855348
  0.3665712747109107  0.4664882443867852  0.3790795983836083
  0.0800302686166549  0.9230321537471682  0.4665397418352074
  0.4518441708885064  0.2247585710819663  0.5364712168164739
  0.6435483517666025  0.2926408795840913  0.5906175590599843
  0.0095882034337533  0.1615255793075035  0.2412759151695482
  0.3367191289395348  0.2030443943249819  0.8455754608421099
  0.3696275130743163  0.0764593681193063  0.6269640095581759
  0.3472559249090225  0.8545825856499676  0.2804554947063561
  0.5865374574056184  0.0805739929650216  0.5983296656522322
  0.4380151551151886  0.5222901223718205  0.0568433278087366
  0.1668263395114995  0.8786831073940549  0.3037041961948234
  0.2766920134204494  0.5745092111751766  0.1573118385519937
  0.0337378989304584  0.4452609073055203  0.8164434942317421
  0.8702516089577567  0.5049223051958566  0.0610414602505172
  0.2962795418182715  0.9203020810839586  0.6936259316519550
 
  0.47894311E-02  0.18553576E-02 -0.26332094E-02
 -0.16655278E-02 -0.24343019E-02 -0.80566942E-03
 -0.32028116E-02  0.21943431E-02  0.25014956E-03
  0.21667684E-02 -0.14251163E-03 -0.74446775E-03
  0.12641208E-02 -0.10553852E-02 -0.71802148E-03
 -0.75188321E-03 -0.12905370E-02  0.38617610E-02
  0.92765262E-03  0.12364059E-02  0.24258235E-02
  0.98130121E-03  0.37413064E-02 -0.18031330E-02
  0.12240364E-02  0.18096228E-02 -0.11430590E-03
  0.67714063E-03  0.76362514E-03  0.30415451E-02
  0.13023404E-02 -0.85646243E-03  0.77819810E-03
 -0.15781730E-02  0.15203855E-02  0.65236083E-03
 -0.53056957E-02 -0.16302703E-03 -0.55332545E-03
  0.19419765E-02 -0.20085683E-05 -0.66716384E-03
  0.89446828E-03  0.82107029E-03 -0.29285000E-03
 -0.10772393E-03  0.18114881E-02  0.28213095E-02
 -0.28489260E-02 -0.55407058E-03 -0.18029233E-02
 -0.22663005E-02 -0.85486368E-03 -0.17060756E-02
 -0.16804672E-02 -0.10530958E-02 -0.31501254E-03
  0.73089017E-03 -0.60117413E-03 -0.29731451E-02
 -0.26924928E-02  0.50641674E-03 -0.33400433E-03
  0.10621350E-02 -0.27093469E-02 -0.20561653E-02
 -0.19546482E-02 -0.19874269E-02  0.13891901E-02
  0.10229900E-02 -0.40504221E-03  0.26248803E-03
  0.43577124E-02  0.20594475E-02 -0.21780105E-02
  0.24279638E-02  0.21697114E-03  0.20237915E-03
  0.22762666E-02 -0.33342515E-02 -0.10050288E-02
  0.94083957E-03 -0.25521418E-03 -0.21126933E-03
 -0.33522821E-02  0.16345855E-02  0.10993622E-02
  0.89866167E-03  0.17477163E-02 -0.14550006E-02
  0.39822999E-03 -0.82894628E-03  0.18575840E-02
 -0.23462965E-02  0.18886933E-03  0.81849102E-04
  0.11730456E-02  0.13740934E-02 -0.12757832E-02
  0.22135566E-03 -0.10943827E-02 -0.82645970E-05
 -0.11431304E-02  0.79725483E-03 -0.10184604E-02
  0.66106631E-04  0.25022332E-02  0.15597052E-02
 -0.47295383E-02 -0.51350737E-02  0.74222579E-03
 -0.13001110E-03 -0.24197057E-02 -0.18014823E-02
  0.39587877E-02  0.75441611E-03  0.17828398E-02
 -0.12093964E-02  0.48083177E-03 -0.35547578E-03
 -0.20697928E-02  0.72230370E-03 -0.11866264E-02
 -0.65588312E-03  0.49800907E-03  0.87608490E-03
 -0.51198713E-03  0.50574556E-02 -0.15270600E-02
 -0.12347409E-02  0.27500512E-02 -0.48560654E-02
  0.10092982E-02  0.29459497E-02 -0.71245467E-03
 -0.13432048E-02  0.13291997E-02  0.54485842E-03
 -0.23800579E-02  0.45256499E-02  0.20616805E-02
  0.10863892E-03 -0.16639829E-04  0.17003358E-02
  0.31076863E-02  0.13191808E-02 -0.40063738E-03
  0.10763954E-02  0.24624984E-02  0.23870036E-02
 -0.10978846E-02 -0.13928503E-02  0.10333633E-02
 -0.14015304E-02 -0.21625706E-02  0.12019223E-02
  0.11477441E-02  0.79815995E-03 -0.64256665E-03
  0.20883603E-02 -0.30885861E-05 -0.22450848E-02
 -0.44124125E-03 -0.21761688E-03 -0.14700196E-02
 -0.10445322E-03 -0.77345003E-03  0.25711789E-02
 -0.30894556E-02  0.16271437E-02 -0.18374580E-02
  0.15696562E-02  0.10708343E-02 -0.56751077E-03
  0.27078425E-02 -0.18376157E-03 -0.40520647E-03
  0.34212296E-02  0.30954411E-02 -0.67317347E-03
 -0.39543400E-02 -0.12870278E-02 -0.34335909E-03
 -0.66842559E-03 -0.11965071E-02  0.59360758E-03
  0.31967469E-05 -0.32133842E-02 -0.11620958E-02
 -0.22516132E-02  0.14487228E-02  0.14416925E-02
 -0.39360761E-03 -0.30379766E-04 -0.19387350E-02
 -0.26353819E-03  0.44371917E-03 -0.12159324E-02
  0.14658750E-02  0.20272323E-03 -0.21706583E-02
 -0.14585790E-02 -0.19180477E-02  0.12704253E-02
 -0.17186875E-02  0.29316318E-03 -0.67161142E-03
  0.17847845E-02 -0.11414910E-02 -0.25070934E-02
  0.27425314E-02 -0.93129609E-03 -0.83621813E-03
  0.11425947E-02 -0.13163829E-02 -0.36100642E-02
  0.15607475E-02 -0.59477100E-03  0.29174753E-02
  0.40069018E-02  0.76873391E-03 -0.18894464E-02
  0.20698166E-02 -0.78963308E-03  0.41027416E-02
  0.37934220E-02  0.11265770E-02 -0.12439112E-02
  0.34914431E-02 -0.20217856E-02 -0.19240941E-02
 -0.70628570E-03 -0.16807316E-02 -0.12656074E-02
  0.24913931E-02  0.10001720E-02  0.18436048E-02
  0.11932397E-02 -0.33456879E-02 -0.18587260E-03
 -0.20756042E-02 -0.99905204E-03 -0.99763218E-03
 -0.68099620E-03 -0.26090489E-02  0.28747135E-02
 -0.11165609E-02  0.15659244E-02  0.34069112E-03
 -0.25625690E-02  0.16777386E-02 -0.12626322E-02
  0.13914888E-02  0.17900378E-02 -0.53038621E-03
  0.41293394E-02 -0.66304371E-03  0.43498054E-03
 -0.11934335E-02  0.95776494E-03  0.17000665E-02
  0.21279621E-03 -0.23788253E-02 -0.14739864E-02
 -0.15119257E-02  0.21038542E-02  0.10164381E-02
  0.85862031E-04 -0.16548389E-02  0.33295004E-03
  0.96363147E-03  0.24370873E-02 -0.27406683E-02
  0.14308031E-02 -0.16983593E-02  0.49119311E-03
 -0.45149488E-03  0.14694840E-02 -0.72512627E-03
 -0.10729168E-02 -0.24728394E-02 -0.13747674E-02
 -0.14295846E-02 -0.36917779E-04  0.28797364E-03
  0.10761430E-02  0.14964625E-02 -0.48444087E-03
 -0.35309789E-02 -0.70470961E-05  0.11644719E-02
  0.13870903E-02  0.87708428E-03  0.14397090E-03
  0.40572369E-03  0.19907311E-02 -0.20291777E-02
  0.15525784E-02  0.16977873E-02 -0.47772306E-02
  0.17921042E-03  0.32907454E-02 -0.19896725E-02
 -0.11991323E-02  0.10707302E-02 -0.38699258E-02
 -0.33871350E-03 -0.24153992E-02 -0.89571005E-03
  0.45715753E-03 -0.11849898E-02  0.37383746E-03
 -0.14324203E-02 -0.12738020E-02  0.71329257E-03
  0.17035429E-03 -0.26521155E-02 -0.26915558E-02
 -0.15632308E-02 -0.12670583E-03  0.24663632E-02
  0.24615291E-02 -0.56333413E-03 -0.56014978E-04
 -0.34167544E-02  0.27358913E-03 -0.90545116E-03
  0.26434351E-02  0.11498627E-02  0.65979907E-03
 -0.32092654E-03  0.17928139E-02 -0.12012522E-03
 -0.16721939E-04 -0.14638842E-02 -0.66957893E-03
  0.94174768E-03 -0.31701850E-03 -0.13502771E-02
  0.29531346E-03 -0.54241027E-03  0.31969583E-03
  0.10788160E-02 -0.48637244E-02  0.17470445E-02
  0.70921836E-04  0.84039608E-03  0.54963198E-03
  0.16632424E-02  0.12720844E-02 -0.86391432E-03
 -0.55460995E-03 -0.22286392E-03  0.18929188E-02
 -0.28583824E-02  0.40868376E-02  0.22642996E-02
 -0.55687468E-03 -0.44748508E-02 -0.13118443E-02
  0.17053617E-02  0.21546001E-02  0.30711151E-02
 -0.11490712E-03  0.27945337E-02 -0.11974843E-02
  0.13129298E-02 -0.83232304E-03  0.13385611E-02
 -0.12837364E-02 -0.30286081E-02 -0.32302998E-02
 -0.88350684E-03 -0.13178051E-02  0.48644560E-03
 -0.34545087E-03 -0.16014052E-02  0.16445560E-02
  0.14168978E-02  0.21191200E-02 -0.29146324E-03
  0.11732872E-02  0.29873651E-02  0.22339956E-02
 -0.36070634E-02 -0.47493453E-03  0.12106407E-02
 -0.81660331E-04 -0.14789095E-02 -0.39740320E-02
  0.29366538E-03 -0.22397653E-02 -0.51864114E-03
  0.16337515E-02 -0.34126078E-02 -0.54410948E-04
  0.24032941E-03 -0.23544020E-02  0.27652099E-02
 -0.12592504E-02  0.17678358E-02  0.79762695E-03
 -0.87844166E-03  0.10852281E-02 -0.16698206E-02
  0.31910051E-02 -0.42799558E-04 -0.20881533E-02
  0.19289717E-02 -0.30725394E-02 -0.72901187E-03
 -0.24202565E-02 -0.10806504E-02 -0.23573238E-02
  0.66402314E-03  0.18528704E-03  0.10297625E-02
 -0.21151680E-02 -0.83557838E-03  0.29662143E-02
  0.11768223E-02 -0.94523699E-03 -0.76357317E-03
 -0.76402176E-03  0.11725591E-02  0.66513317E-04
 -0.87638101E-03  0.10495944E-02 -0.16787782E-02
  0.28016724E-02 -0.17477886E-03 -0.53729054E-03
  0.10690120E-02 -0.13480158E-02 -0.27021835E-03
  0.41186804E-03  0.47938489E-03  0.26685923E-02
 -0.76936222E-03 -0.39566602E-02  0.35572483E-02
 -0.72598385E-03  0.29781304E-02 -0.43627754E-03
  0.41058246E-03  0.68894189E-03  0.28612308E-02
  0.16189838E-03 -0.13465421E-02 -0.24797431E-03
 -0.88812936E-03 -0.32191312E-03 -0.71652238E-03
  0.10437699E-02 -0.12967747E-02  0.13361034E-04
 -0.53909974E-03 -0.27681325E-02  0.27517266E-02
  0.31469698E-03  0.15150882E-02  0.66965923E-03
  0.23160080E-03 -0.26231076E-02  0.14245737E-02
 -0.30242432E-02  0.57361312E-03  0.13031728E-02
 -0.24619565E-02 -0.44054855E-03 -0.11433135E-02
  0.22777480E-02 -0.14439637E-02 -0.89613271E-03
 -0.42739425E-03 -0.23133251E-02 -0.24061995E-03
 -0.24995992E-02 -0.18119849E-02 -0.65104830E-03
 -0.36073944E-03  0.10442844E-02  0.63548222E-03
  0.11969755E-03 -0.32565405E-03  0.28650070E-02
  0.85251669E-03  0.14325309E-03  0.16724446E-02
  0.24357949E-02 -0.13369626E-02 -0.38711644E-02
  0.20908427E-02 -0.13382531E-02 -0.61657006E-03
 -0.19765337E-02 -0.14084200E-02  0.95160743E-03
  0.84458011E-03  0.20673569E-02 -0.18578462E-02
 -0.23989542E-02  0.26343750E-02  0.16451129E-02
 -0.12700454E-02  0.18044036E-02  0.19767647E-02
  0.38098640E-02 -0.74745912E-03 -0.17403608E-02
  0.17532737E-03  0.16270262E-02 -0.13624264E-02
 -0.89621710E-03  0.25758943E-02 -0.13982108E-02
  0.27435107E-03  0.17486118E-02  0.19421187E-02
  0.65932205E-04 -0.14779528E-02 -0.16019950E-02
 -0.37004111E-02 -0.24470698E-02  0.18703516E-02
  0.54984594E-03 -0.47033732E-03 -0.14210601E-03
  0.58531496E-03  0.18962229E-02  0.18911397E-02
  0.11043366E-02  0.11026256E-02 -0.48913432E-04
 -0.89354324E-03 -0.13149510E-02  0.55777057E-03
 -0.19753982E-02  0.14607435E-02  0.20240510E-02
  0.23432354E-02 -0.22640944E-02 -0.26782443E-02
  0.95094238E-03  0.15721489E-02  0.48372310E-02
  0.94938923E-03 -0.41714308E-02 -0.20284185E-02
 -0.24601035E-02  0.61688690E-03  0.10563907E-02
 -0.17121010E-02  0.34289211E-03  0.46476560E-03
  0.50363623E-03  0.33360081E-03 -0.96879797E-03
 -0.21958711E-02 -0.25380315E-02 -0.10963836E-02
  0.19964358E-03 -0.55733864E-03  0.37647881E-03
  0.30131467E-02 -0.36102529E-03  0.73301168E-03
 -0.12022905E-02 -0.64513838E-03 -0.46684641E-03
  0.19124264E-02  0.11759873E-03  0.89884937E-03
  0.14903150E-02  0.47080193E-03 -0.29432253E-02
  0.31908444E-03 -0.82666663E-03  0.21228081E-02
  0.16966524E-02 -0.30648536E-02  0.38636819E-03
 -0.93585679E-03 -0.23852934E-02  0.42745669E-02
  0.23899308E-02 -0.27195357E-04  0.13839450E-02
 -0.62471863E-03  0.15220842E-02 -0.47931063E-03
 -0.57332854E-03  0.35012556E-02 -0.32048108E-02
  0.25873777E-03  0.77671689E-03  0.11287009E-02
 -0.13383336E-02  0.59098975E-03  0.79639326E-03
 -0.38402734E-03  0.32533190E-02 -0.16026636E-02
 -0.26275461E-02 -0.49088602E-03  0.18389532E-02
  0.85694720E-03  0.36220888E-02 -0.22819800E-02
  0.13042792E-02  0.26621422E-02  0.56371554E-03
  0.12698686E-02 -0.27649324E-03 -0.65765608E-03
 -0.13474084E-02  0.11477314E-02  0.29991709E-02
 -0.34354664E-03 -0.40238614E-02  0.23044890E-02
  0.27741274E-02 -0.12485786E-02  0.12168584E-02
 -0.39255954E-02  0.28205902E-03  0.10028460E-02
 -0.17420042E-02  0.29137971E-02 -0.18104751E-02
  0.12435657E-02  0.99363991E-03  0.98053516E-03
 -0.21433631E-02  0.18327123E-02  0.22723666E-03
  0.14176279E-02  0.22229842E-02 -0.71419031E-03
  0.77025829E-03  0.87474080E-03  0.25601632E-02
 -0.13329521E-02 -0.27388636E-02 -0.13053722E-02
  0.37698789E-03 -0.23701791E-02  0.39237380E-03
  0.11380596E-02  0.27159151E-02 -0.37541513E-02
 -0.21887582E-02 -0.11073706E-02 -0.12790250E-02
 -0.24003467E-03  0.17042690E-02  0.18068874E-02
 -0.21195255E-02 -0.62269376E-03  0.98576260E-04
 -0.15714210E-02  0.18388023E-03 -0.87519182E-03
 -0.59461829E-03  0.64300510E-03 -0.19205319E-02
  0.64554246E-03 -0.50210486E-03 -0.70094254E-03
  0.96886583E-03  0.34248545E-02  0.18369514E-02
 -0.14723649E-03  0.33469717E-04  0.19437175E-02
  0.35705222E-03  0.44953644E-03  0.16628736E-02
 -0.76710575E-03  0.35565129E-02  0.47333649E-03
  0.88606907E-04 -0.45059711E-03 -0.27686382E-04
 -0.38010122E-02 -0.14285836E-02 -0.22407477E-02
  0.91489959E-03  0.12550806E-02 -0.96054795E-03
 -0.56565717E-03 -0.31561309E-02  0.23255470E-02
  0.18002109E-02  0.12083139E-02  0.67871923E-03
  0.14951353E-02  0.16555484E-02  0.31500050E-02
 -0.35430774E-02 -0.22088851E-02 -0.74268211E-03
  0.37956514E-03  0.14012365E-02 -0.28935948E-02
  0.19039870E-02 -0.11210430E-02  0.92663367E-04
 -0.86418265E-03 -0.37138636E-02  0.34294181E-02
  0.23262569E-02 -0.16936395E-02  0.46313841E-03
 -0.19913084E-02  0.11557811E-02 -0.11604105E-03
 -0.61734613E-03  0.15357255E-03 -0.12869207E-02
 
           1
   5.00000000000000     
  0.10000000E+01  0.00000000E+00  0.00000000E+00  0.00000000E+00
  0.85336879E+00  0.38374535E+00  0.10493706E-01
  0.77904494E+00  0.55727550E+00  0.85956703E+00
  0.22208753E+00  0.16872452E+00  0.31946616E+00
  0.68471354E+00  0.23271795E+00  0.35875338E-01
  0.14443948E+00  0.50880121E+00  0.77459842E+00
  0.46283640E-01  0.25484670E-01  0.86651866E+00
  0.26149530E+00  0.82816692E+00  0.55481900E+00
  0.57050428E+00  0.99549640E-01  0.72578580E+00
  0.68910980E+00  0.19753838E+00  0.23904177E+00
  0.25044587E+00  0.10449943E+00  0.56462244E+00
  0.92418821E-01  0.21629847E+00  0.14561448E+00
  0.71277436E+00  0.47693535E+00  0.14510157E+00
  0.73690581E+00  0.69215571E+00  0.36525195E+00
  0.52827075E-01  0.76062339E+00  0.37671674E-01
  0.70036615E+00  0.24965686E+00  0.40241666E+00
  0.38213241E+00  0.65182735E+00  0.50355840E+00
  0.76161832E+00  0.86070653E+00  0.24140237E+00
  0.14864362E+00  0.12623431E+00  0.94792700E+00
  0.52856223E+00  0.35495741E+00  0.60790009E+00
  0.16112161E-01  0.61348419E+00  0.46744341E+00
  0.67329935E+00  0.40944290E+00  0.97690472E+00
  0.45887881E-01  0.84035458E+00  0.86741761E+00
  0.41632640E+00  0.91560671E+00  0.19409158E+00
  0.93309916E+00  0.50329724E+00  0.75700102E+00
  0.92420771E+00  0.10297471E+00  0.55657861E+00
  0.42858798E+00  0.35451948E-01  0.26821629E+00
  0.89845342E+00  0.28082975E+00  0.49318563E+00
  0.41416414E+00  0.50395869E+00  0.50463726E+00
  0.48464606E+00  0.88919341E+00  0.41751623E-02
  0.15117901E+00  0.51843171E+00  0.91802556E+00
  0.62671155E+00  0.85987920E+00  0.72041615E+00
  0.57609005E+00  0.59243157E+00  0.22343399E+00
  0.31179715E+00  0.72244824E+00  0.89910648E+00
  0.52867146E-01  0.93877281E+00  0.32064906E+00
  0.79253293E+00  0.58809019E+00  0.99143321E+00
  0.10850323E+00  0.93345150E+00  0.78632191E-01
  0.75057425E+00  0.57170430E+00  0.67842493E+00
  0.24835041E+00  0.98502000E-01  0.81623903E+00
  0.18831069E+00  0.30348789E+00  0.89788456E+00
  0.33212854E+00  0.29007775E-01  0.74596773E+00
  0.80964830E+00  0.88969505E-02  0.12112843E+00
  0.42264531E+00  0.52119416E+00  0.92566912E+00
  0.56014160E-01  0.53091511E+00  0.30334700E+00
  0.98033878E+00  0.43826774E+00  0.51363012E+00
  0.77822443E+00  0.67118086E+00  0.21033005E+00
  0.67026168E+00  0.21902901E+00  0.70083050E+00
  0.84202121E+00  0.29338088E+00  0.67887438E+00
  0.23931858E+00  0.83769869E+00  0.77518661E+00
  0.15230940E+00  0.53648342E+00  0.15793811E+00
  0.30825969E-01  0.66927072E+00  0.90842640E+00
  0.53203180E+00  0.52355169E+00  0.61329375E+00
  0.44645589E+00  0.10950066E+00  0.15543568E+00
  0.72758881E+00  0.49573500E+00  0.48915396E+00
  0.48368173E+00  0.42258132E+00  0.32694677E+00
  0.39332102E+00  0.20175555E+00  0.64594775E+00
  0.82035420E+00  0.12640599E+00  0.30996550E+00
  0.46602265E+00  0.16245202E+00  0.83655074E+00
  0.97260363E+00  0.25638727E+00  0.95521136E+00
  0.34893990E+00  0.10424843E-01  0.81500661E-01
  0.20513579E+00  0.66084084E+00  0.58154255E-01
  0.48393905E+00  0.81708616E+00  0.55763697E+00
  0.69085447E+00  0.64236741E+00  0.52020027E+00
  0.34585549E+00  0.13236315E+00  0.32053947E+00
  0.44178109E+00  0.46544457E-01  0.46947297E+00
  0.40355026E+00  0.69552716E+00  0.85896610E-01