Ge Se                                   
   1.00000000000000     
    21.4839838239868293    0.0000000000000000    0.0000000000000000
     0.0000000000000000   21.4839838239868293    0.0000000000000000
     0.0000000000000000    0.0000000000000000   21.4839838239868293
   Ge   Se
   121   179
Direct
  0.2300863136735742  0.9316630118590499  0.9816321775081437
  0.0464518495762156  0.8519671819064122  0.8609530190444765
  0.6050522318077382  0.9434593325085316  0.9668364826213897
  0.0003735004041339  0.5148336605817253  0.3939917466652765
  0.8790719681672662  0.8722857798806501  0.9426880951813346
  0.3210759403394053  0.6394654884817977  0.0954634433490808
  0.0669719276582326  0.1249154122783319  0.8441603654816977
  0.9155890929284255  0.3582821088021281  0.8902360393785632
  0.7404597042287445  0.9133074295274015  0.3471683048973276
  0.0043122016204193  0.5254918748183859  0.1297025176665333
  0.7944649957694350  0.7426761258696488  0.2526056220185048
  0.1680360007140765  0.1919596244654323  0.8307269644696675
  0.3253551279822460  0.1336401245465295  0.0448843830281395
  0.1179642006842676  0.5821196356065359  0.8429518180051899
  0.1640494789305371  0.8064695864548362  0.7795966762715482
  0.3687215895024486  0.4020464806676677  0.3001258957310194
  0.2035548100459126  0.5330725406692465  0.0633092685622377
  0.9749360058392290  0.0112300657887799  0.6051077492517625
  0.4261556311770724  0.2721395584291300  0.6974009967680365
  0.2124735338150774  0.8638418071800699  0.4740556237055731
  0.1694017150868667  0.7745878388077043  0.3035228791395392
  0.0788418835545329  0.3765032698890119  0.8700720504744532
  0.2540816953289389  0.4851978505042136  0.9080252986884404
  0.3321490028230295  0.8359748856537907  0.8235464160773623
  0.0138124677347920  0.2213134978088123  0.9588112749098436
  0.6892608603825059  0.5717994095476071  0.7005721888504407
  0.1414137992213433  0.0549928338387417  0.1651122975855930
  0.1896099690423590  0.6143125851408718  0.7252034205824238
  0.1200837795820196  0.7600071566290552  0.5920256219725823
  0.3073043656794810  0.2698844328624448  0.6839769998413138
  0.8016235460934821  0.1170585411959063  0.3711319414566854
  0.5418656965812466  0.9284988660855095  0.7725537380652949
  0.0279598528666039  0.2544976049446352  0.3212817349895045
  0.3808450549040630  0.3958578499302227  0.8305152946113578
  0.2410676807047305  0.1460044048896615  0.2750206155078090
  0.5388185323668934  0.1125968549641237  0.6916871702530017
  0.4379230884884687  0.7638049470640753  0.9033855584140935
  0.5528243152956058  0.4063555131137446  0.2246912443719143
  0.2956458975547309  0.7261464477161552  0.0143590246265181
  0.0176168441797558  0.5200465310073961  0.6829499430229850
  0.5572238441777502  0.6573361091164616  0.6851524946316513
  0.0136953047317459  0.1338987698829884  0.3106831575005847
  0.1593266201897844  0.6187769220209559  0.9876577366327467
  0.5227320043592513  0.9529711958329640  0.1079241872887429
  0.4882529465467509  0.2684429112891983  0.9295439550635357
  0.2555206317017560  0.0146590741870296  0.1354873321288559
  0.7896964934663302  0.9628726079963996  0.0112296571217250
  0.6867347286838639  0.3684043778954248  0.3072140885605486
  0.2012111089778966  0.7270984261835799  0.6817839205199514
  0.7962819318583674  0.9388767088722230  0.7097787135170150
  0.9720688829513856  0.2318123373840932  0.5280450091657815
  0.0272319267831500  0.2241716713025893  0.0891535994142222
  0.8241000241566001  0.1352267554798162  0.5433116851634782
  0.5090860190715677  0.5482074790349872  0.9446974084538476
  0.0968266567938870  0.1277999524592467  0.4533998791186156
  0.6902822185832849  0.2064200780064040  0.2493853068000672
  0.7117361575542659  0.0762919680204588  0.2937199781735753
  0.4048622871717489  0.7131108944427792  0.6509626246536221
  0.7911184745495364  0.0004326745350395  0.1681893423663109
  0.0047455094092272  0.8736797519456871  0.2091169591424479
  0.3813820915052348  0.4760749074096057  0.6581523710869795
  0.1647748574891575  0.3199483861097599  0.9281367034905583
  0.8138354816959985  0.4709474571098037  0.6969893885361578
  0.6227849793444217  0.9208615695980289  0.4088898648821049
  0.4961026528539650  0.7846191216728258  0.5450151838778624
  0.0080175349079634  0.5915974207860185  0.5316385492811493
  0.9900078380534822  0.6652970088927702  0.7101445018066670
  0.8922302410636640  0.9950121187744644  0.2636437173638464
  0.8939020390257660  0.8635163859672359  0.4805513190490058
  0.3195634504136303  0.2661000258671580  0.9656675638116996
  0.6557318412972917  0.9122039000806905  0.8306152036416918
  0.3863768161060344  0.9964286357185339  0.4284077343122481
  0.1866671102523641  0.9634593652634316  0.3196397041376244
  0.7077868427609139  0.7223786131577279  0.7202465363365205
  0.4351617775544073  0.9882382877986320  0.7676909510332021
  0.4187614566627677  0.8287509280653136  0.4520944793917916
  0.9185244585877425  0.1713464529935678  0.7657548501807675
  0.9831990128010797  0.3884810967539363  0.5898736816441202
  0.4882877262258533  0.8095522150568460  0.2908361263847020
  0.6902802155791569  0.6532708453712276  0.1990250322840161
  0.2287624454943875  0.4525586943807028  0.3581013812676277
  0.9132140678974559  0.6786886398612385  0.8899653601178942
  0.5117933982024959  0.7419653301343941  0.8116305876111023
  0.2163093327614622  0.4461714799720449  0.7206749110190676
  0.6653659984354771  0.8165573816909654  0.3118168744606942
  0.6279570959356020  0.9116995284814733  0.5309656267141685
  0.2761284489283177  0.1267506698565908  0.8573889443326568
  0.0465544629842665  0.8295651760459680  0.6867358584457004
  0.4166040736917268  0.1062201087132266  0.1846798169969373
  0.9319435786104174  0.0113555679370179  0.9303420784970717
  0.7003777910068267  0.7850947593387190  0.4572186031897680
  0.7959890840386418  0.6641712129814861  0.5719176658608663
  0.8758605607551710  0.5203964706919970  0.7990739915483421
  0.9156300448061231  0.8456184003517898  0.3593929310411134
  0.0994300283483680  0.3795353745645416  0.0617541782234493
  0.5352430621565156  0.9713740689985020  0.5813810594824087
  0.2862089963047513  0.2767617283031880  0.3695437438572607
  0.3743152752438977  0.7613676670622590  0.3005188564225740
  0.9304856569838833  0.7676967151350401  0.6320229431062001
  0.2320260332439883  0.9713232107942795  0.8152743092691546
  0.3787332888381920  0.1269138586637477  0.7911320317388474
  0.0518363133314298  0.8673354193300155  0.4969264981720220
  0.0683371061369412  0.1658515458439610  0.6444848718474647
  0.1930229316209410  0.3292631812254185  0.5967743631641815
  0.5414108109300135  0.3750977887630635  0.9047021884502101
  0.9637348278598610  0.5127933834984146  0.9714762344618411
  0.3987567172354021  0.0160831287193778  0.0211727433691414
  0.4615727370375640  0.2800609656004755  0.0908668437215734
  0.7793977686595368  0.8446754433433392  0.5279433664117668
  0.8483441269744117  0.3205469551398885  0.7915834871100507
  0.1912377116427394  0.8892142862796307  0.1553759118352551
  0.9311365438063040  0.9392820343134128  0.1030152679757947
  0.8665086567912671  0.7943713198938909  0.7996974449278977
  0.0771549479303498  0.8445093091842819  0.9820788620623827
  0.9874947968538881  0.3328734181575146  0.7439465791317237
  0.6776541497273533  0.1586520226950084  0.5199157090815952
  0.2567958573924449  0.1654969148334394  0.5773169538990809
  0.3941830462493825  0.8943512874349050  0.0188542106378769
  0.3025360662330805  0.1043496294324142  0.3638588222449919
  0.3137676641854176  0.7533252962381268  0.5483401161931418
  0.3860787935063609  0.5853119366700388  0.5262765134472602
  0.7682010739561943  0.1372024566563563  0.2088731157285846
  0.0766570067978656  0.7472316140062323  0.8232255035585668
  0.3274285979158452  0.8676675820865249  0.5166217445651822
  0.9663579327484868  0.7806972699705053  0.5176708911110537
  0.0088035873630666  0.2267196636421830  0.8219780970827187
  0.5835028928811051  0.4100631702158541  0.0046128051422987
  0.9554932942802586  0.0833639577265037  0.2293306269915278
  0.2913825563884586  0.1200177117628829  0.1756145082687317
  0.2585612114001841  0.0126850841820678  0.4109356573669626
  0.5605535883146889  0.5402728640373851  0.5643618354240519
  0.0815104460450892  0.3087318733088629  0.1457860247201010
  0.7544491094425982  0.4533627378893570  0.3370608111872706
  0.6104565198085642  0.5163478088291090  0.9766996310167558
  0.3000477109899193  0.2780606344564436  0.5680226260651400
  0.9702534585049296  0.7482268135524218  0.3397647668147696
  0.5296621542884796  0.9925362778790089  0.4072003121213125
  0.8295173077211029  0.0480615807589237  0.7776299493654132
  0.5366894695763557  0.2864684168766923  0.1960831671857549
  0.9258411147588751  0.4703295279146139  0.0786948942642640
  0.9889426504809059  0.5550445528696532  0.2371031091300447
  0.4235657800143905  0.4725110834123846  0.5400208450823253
  0.3928947667316849  0.3052269670840038  0.3484362866546369
  0.3033542963491573  0.7809884664814366  0.6670389429686381
  0.1806073002846041  0.7790948614088572  0.1927048572498564
  0.0822716389142372  0.1179644897096539  0.0973166828297579
  0.2030710696002573  0.3751065641339680  0.0201276530602525
  0.0576171138971214  0.4731065914834389  0.5516311863154144
  0.2636907577596587  0.3036507561377652  0.8749921311234126
  0.7632613140848729  0.3852674953677089  0.7531209597794395
  0.8754430379447194  0.0737161831703319  0.6193936055476243
  0.0492971263189577  0.2390534316375590  0.4377737293455097
  0.5717510296726924  0.8108283406573754  0.3801587280646558
  0.6851366491234124  0.6573049245376018  0.6186790413618901
  0.2703652346943841  0.1637570129857124  0.6978882816043891
  0.8144355015564401  0.2128832308479310  0.8244552178238201
  0.5815641516342215  0.3831471288366730  0.3360758057954063
  0.2279313009686117  0.6094655491324145  0.1484415228251199
  0.2951613480493988  0.1881367503138807  0.4386851529601291
  0.2373329031579327  0.6265372802054505  0.6110220167052131
  0.2716652278746252  0.2368380412414272  0.0597932481029828
  0.0675863476822552  0.4406307275928688  0.4459256690650804
  0.5703133391132545  0.5386042142458316  0.6756597688680973
  0.1350415535428537  0.4767290143597480  0.8974216848272697
  0.2308450998194476  0.2565849792651835  0.2732540175478859
  0.5825622759315955  0.1006953405046505  0.5438021253835982
  0.8872992266530615  0.0322831343776941  0.0391076960213986
  0.8453435778935112  0.0096289102479985  0.3701211792044536
  0.8685514300433999  0.4681936935491678  0.9033562051846579
  0.1103077155474478  0.8824915535121794  0.5983311397028054
  0.2280270022079653  0.6023893858422926  0.8943041591739137
  0.3368049852355191  0.7121848252853920  0.9088669506980349
  0.4465342356785797  0.0577388844502875  0.8558320610061608
  0.2035575484432862  0.7499599801335347  0.5047777123008561
  0.7036246316374346  0.9675581157383004  0.2468765901305151
  0.4144859848519614  0.8768529528036724  0.9037297080200576
  0.8201094095177164  0.8981139232169961  0.1131142516406731
  0.7329518927829688  0.9355861641781943  0.5761459225332574
  0.3439814903091122  0.6077718416254297  0.6420990620189038
  0.0139414798282469  0.0672243321485135  0.3972780560039731
  0.5063742640665462  0.7296579574385378  0.9871525116914922
  0.7577332739856776  0.3857058970971237  0.5547357246526285
  0.6347044059379017  0.6445136172456783  0.7790221921083522
  0.1355304412900505  0.2122043919508542  0.9527142089279708
  0.0231605457238023  0.3696178204999243  0.9749808805829924
  0.2679556336169865  0.4121101157291702  0.2554461806660509
  0.0993502284680635  0.9437761327772495  0.2092330133603392
  0.8794800289248942  0.1902671986077781  0.4651118896129195
  0.3303949819453464  0.9366311665748217  0.7541306726370972
  0.3002038283219344  0.8349959150143857  0.0507779577904113
  0.6337894587633670  0.2381327902176676  0.4525556794612916
  0.0614252296852353  0.0790944744195218  0.5598529437060555
  0.9119760151063743  0.2528776393534248  0.3156659543740880
  0.8322864984836371  0.0599760804877500  0.8902905216045465
  0.5626109192157231  0.1374255254881334  0.8011217387024036
  0.3602776795153594  0.1648711236219599  0.9333782924979072
  0.5384338032636005  0.7316924391218945  0.2212728738614331
  0.4092462381787881  0.9004058874943378  0.3640600494412798
  0.3928349497675346  0.7261878159923179  0.4106058629135715
  0.1114737035087269  0.4794312845335628  0.1236554127161416
  0.4795997734463220  0.8466820817295218  0.0718279190468120
  0.3994282727635988  0.7005917228285088  0.1481749839834204
  0.0569259135942062  0.3285760737883319  0.6477790900715291
  0.4426653081663210  0.4417775429490043  0.2293092634358572
  0.9366285394205965  0.8854050878142828  0.8413389583891191
  0.6195021717643925  0.7987661232082135  0.5498795081525097
  0.8236588783901793  0.3246946624220137  0.9515282927684888
  0.6959687336416982  0.4920560012244886  0.4221536427369725
  0.7397544722743769  0.7516623319494292  0.1565234354496149
  0.9279036516594810  0.4286278223083647  0.6836175424746432
  0.1413390718662793  0.1033915151286485  0.7169584654158739
  0.1504785166946399  0.2168849470903507  0.5743192515226873
  0.4193794339203405  0.0776625811839551  0.6926585468603109
  0.4959742548263841  0.6285479997032605  0.5465736015761200
  0.9819288829002265  0.9266516575231383  0.3130264779573083
  0.2100451744482949  0.3240143250920184  0.7198358190996951
  0.9117081600365814  0.6554792791616351  0.0793922442276917
  0.7033900411804695  0.7049748168453778  0.3117955675621660
  0.6578685025496965  0.9207854300017895  0.0668907803284272
  0.0551700415829746  0.7729467998859566  0.2700863508801852
  0.8331813377176742  0.8475129677492483  0.2779848836390191
  0.6108652713604479  0.1342615917308702  0.2778879676472656
  0.7473233178854848  0.0795238232501344  0.4739797112838620
  0.8111814794749916  0.6575425715754236  0.7346563986794598
  0.4360461501968549  0.3860755556022574  0.7249737586986178
  0.4074699045274972  0.9962987178983485  0.1381200534214352
  0.4049054379897696  0.3357216405353941  0.9828704175306573
  0.7037182200120512  0.0212158997676494  0.0816131710572688
  0.8347199475888757  0.7642668623883772  0.9151936059697343
  0.2759978660563902  0.4496064204451010  0.6213044459280489
  0.4512297289395528  0.6619999453911141  0.7522289401788391
  0.6020244005475052  0.8467080409153799  0.9142362862374661
  0.9863773703120704  0.5600676791483126  0.7917756286761828
  0.4380621769702315  0.1575565116765733  0.0781394908292640
  0.0444832882188208  0.6157330086418064  0.3728171494284031
  0.5433720834575861  0.6567274386830090  0.9102827387333060
  0.8183851178120088  0.6166248089010911  0.8388496352898348
  0.4735312217343593  0.8751174289815297  0.6195067303062010
  0.8956889584664491  0.2681716508212451  0.6979098489508405
  0.2005146832184189  0.6740302149139614  0.3455021553649650
  0.9223373094247762  0.2230322234824661  0.1370318215282564
  0.9654778218460479  0.9528944111999099  0.4950966809333830
  0.7873338783669525  0.5907877487102926  0.2192496715679493
  0.0915263068057926  0.6252108389139472  0.6600760317028673
  0.7351868514135914  0.2693873034094868  0.3307163982814945
  0.0442641634425370  0.0585224793172686  0.7547002594113364
  0.3471401272839888  0.4802079260218778  0.3865995038782121
  0.1187345441542417  0.9495960583322461  0.9994026883619616
  0.5636495997580666  0.2644949713461903  0.5355299252653476
  0.0168415419701420  0.6336403478475046  0.0961055299913409
  0.5774578468751775  0.0893035114920357  0.4287864743081120
  0.8693016939551728  0.6604943391713629  0.2486755425101730
  0.6136441418759563  0.8238235673705895  0.2034604333114604
  0.6700844078195862  0.3781645021702024  0.6226640998528354
  0.6682411129698007  0.0043725339608123  0.8999598953512811
  0.9638519654267774  0.8541763215991302  0.0233166790194235
  0.6308705972654942  0.3702417159962798  0.8352521958172326
  0.5836990455286574  0.3705613818608782  0.5536996286238791
  0.1836179665997878  0.7294643387751562  0.0052666748568085
  0.3360666784434108  0.4246266819142224  0.4820697131210641
  0.3032930716424309  0.4810490057589416  0.7961679401609996
  0.2265973857558312  0.8629888057688269  0.8762190271579504
  0.8816692152891445  0.6068257409474777  0.9824926387593074
  0.9401716238891783  0.8736584141349826  0.6746407912988359
  0.8413649757166933  0.2183863915079385  0.9338960999719261
  0.5202332860946917  0.0130420555695383 -0.0001014288416774
  0.5892208020617230  0.3092546101366685  0.7530987674788258
  0.1267773458381976  0.6089471683435306  0.2974173045896243
  0.9231065338657454  0.3406346689228748  0.5138492195610068
  0.7247180993003005  0.0245432232535655  0.7466476455221600
  0.9224113810653628  0.5525815153354584  0.4625225389030011
  0.4822298878122934  0.4702858099855383  0.8640598178128805
  0.0595715287128885  0.6252393589433880  0.9348485937719503
  0.2793926875614579  0.0234255364215659  0.9092958262770007
  0.8122820649590887  0.7754062753535336  0.6163180621377180
  0.4634584102190750  0.5511638474670156  0.0475618963436594
  0.7455210338298188  0.1933144307973990  0.6013888630318777
  0.3538558025616290  0.5415742066721008  0.0465148988205632
  0.7671792566770436  0.8575324158567236  0.7896384514119129
  0.2272167593307182  0.3534755933259531  0.4244760666638773
  0.6369193603856040  0.2093113544927565  0.7588610192183511
  0.0174040564133188  0.0967029984124229  0.9435345900490560
  0.2670007143029018  0.9474514688051311  0.2318371036022804
  0.4099818690701658  0.2351588463194625  0.8057238527030197
  0.5839606469332234  0.9967176209758033  0.6861187608353295
  0.4296521081667071  0.6663099840159522  0.2500155100661086
  0.9158053598694015  0.2996678748171975  0.2149737664648852
  0.9687040951967968  0.4640808674280604  0.2986898615416310
  0.6453093298287933  0.2796925919160092  0.1663236485490368
  0.5220577797003167  0.8258969020794301  0.7170156626432884
  0.6978787088783319  0.3731488241753105  0.1928928519628478
  0.0966293374604664  0.9042779686990432  0.7666618974924966
  0.7564128634413126  0.6877561587467225  0.4665714327580301
  0.7609983531223565  0.4864952277721476  0.5101529285657209
  0.4042465336237250  0.0710212304717124  0.3380034082743832
  0.2369934526221878  0.8477584942451972  0.3552933338560946
  0.5568145162178435  0.2726797890883024  0.0262976273290282
  0.5377835652846668  0.8993131290647445  0.2380447193205585
  0.9370966786881728  0.5898564937580509  0.6294462755570576
  0.1429031125981163  0.0895876935685153  0.2774531325622846
 
  0.00000000E+00  0.00000000E+00  0.00000000E+00
  0.00000000E+00  0.00000000E+00  0.00000000E+00
  0.00000000E+00  0.00000000E+00  0.00000000E+00
  0.00000000E+00  0.00000000E+00  0.00000000E+00
  0.00000000E+00  0.00000000E+00  0.00000000E+00
  0.00000000E+00  0.00000000E+00  0.00000000E+00
  0.00000000E+00  0.00000000E+00  0.00000000E+00
  0.00000000E+00  0.00000000E+00  0.00000000E+00
  0.00000000E+00  0.00000000E+00  0.00000000E+00
  0.00000000E+00  0.00000000E+00  0.00000000E+00
  0.00000000E+00  0.00000000E+00  0.00000000E+00
  0.00000000E+00  0.00000000E+00  0.00000000E+00
  0.00000000E+00  0.00000000E+00  0.00000000E+00
  0.00000000E+00  0.00000000E+00  0.00000000E+00
  0.00000000E+00  0.00000000E+00  0.00000000E+00
  0.00000000E+00  0.00000000E+00  0.00000000E+00
  0.00000000E+00  0.00000000E+00  0.00000000E+00
  0.00000000E+00  0.00000000E+00  0.00000000E+00
  0.00000000E+00  0.00000000E+00  0.00000000E+00
  0.00000000E+00  0.00000000E+00  0.00000000E+00
  0.00000000E+00  0.00000000E+00  0.00000000E+00
  0.00000000E+00  0.00000000E+00  0.00000000E+00
  0.00000000E+00  0.00000000E+00  0.00000000E+00
  0.00000000E+00  0.00000000E+00  0.00000000E+00
  0.00000000E+00  0.00000000E+00  0.00000000E+00
  0.00000000E+00  0.00000000E+00  0.00000000E+00
  0.00000000E+00  0.00000000E+00  0.00000000E+00
  0.00000000E+00  0.00000000E+00  0.00000000E+00
  0.00000000E+00  0.00000000E+00  0.00000000E+00
  0.00000000E+00  0.00000000E+00  0.00000000E+00
  0.00000000E+00  0.00000000E+00  0.00000000E+00
  0.00000000E+00  0.00000000E+00  0.00000000E+00
  0.00000000E+00  0.00000000E+00  0.00000000E+00
  0.00000000E+00  0.00000000E+00  0.00000000E+00
  0.00000000E+00  0.00000000E+00  0.00000000E+00
  0.00000000E+00  0.00000000E+00  0.00000000E+00
  0.00000000E+00  0.00000000E+00  0.00000000E+00
  0.00000000E+00  0.00000000E+00  0.00000000E+00
  0.00000000E+00  0.00000000E+00  0.00000000E+00
  0.00000000E+00  0.00000000E+00  0.00000000E+00
  0.00000000E+00  0.00000000E+00  0.00000000E+00
  0.00000000E+00  0.00000000E+00  0.00000000E+00
  0.00000000E+00  0.00000000E+00  0.00000000E+00
  0.00000000E+00  0.00000000E+00  0.00000000E+00
  0.00000000E+00  0.00000000E+00  0.00000000E+00
  0.00000000E+00  0.00000000E+00  0.00000000E+00
  0.00000000E+00  0.00000000E+00  0.00000000E+00
  0.00000000E+00  0.00000000E+00  0.00000000E+00
  0.00000000E+00  0.00000000E+00  0.00000000E+00
  0.00000000E+00  0.00000000E+00  0.00000000E+00
  0.00000000E+00  0.00000000E+00  0.00000000E+00
  0.00000000E+00  0.00000000E+00  0.00000000E+00
  0.00000000E+00  0.00000000E+00  0.00000000E+00
  0.00000000E+00  0.00000000E+00  0.00000000E+00
  0.00000000E+00  0.00000000E+00  0.00000000E+00
  0.00000000E+00  0.00000000E+00  0.00000000E+00
  0.00000000E+00  0.00000000E+00  0.00000000E+00
  0.00000000E+00  0.00000000E+00  0.00000000E+00
  0.00000000E+00  0.00000000E+00  0.00000000E+00
  0.00000000E+00  0.00000000E+00  0.00000000E+00
  0.00000000E+00  0.00000000E+00  0.00000000E+00
  0.00000000E+00  0.00000000E+00  0.00000000E+00
  0.00000000E+00  0.00000000E+00  0.00000000E+00
  0.00000000E+00  0.00000000E+00  0.00000000E+00
  0.00000000E+00  0.00000000E+00  0.00000000E+00
  0.00000000E+00  0.00000000E+00  0.00000000E+00
  0.00000000E+00  0.00000000E+00  0.00000000E+00
  0.00000000E+00  0.00000000E+00  0.00000000E+00
  0.00000000E+00  0.00000000E+00  0.00000000E+00
  0.00000000E+00  0.00000000E+00  0.00000000E+00
  0.00000000E+00  0.00000000E+00  0.00000000E+00
  0.00000000E+00  0.00000000E+00  0.00000000E+00
  0.00000000E+00  0.00000000E+00  0.00000000E+00
  0.00000000E+00  0.00000000E+00  0.00000000E+00
  0.00000000E+00  0.00000000E+00  0.00000000E+00
  0.00000000E+00  0.00000000E+00  0.00000000E+00
  0.00000000E+00  0.00000000E+00  0.00000000E+00
  0.00000000E+00  0.00000000E+00  0.00000000E+00
  0.00000000E+00  0.00000000E+00  0.00000000E+00
  0.00000000E+00  0.00000000E+00  0.00000000E+00
  0.00000000E+00  0.00000000E+00  0.00000000E+00
  0.00000000E+00  0.00000000E+00  0.00000000E+00
  0.00000000E+00  0.00000000E+00  0.00000000E+00
  0.00000000E+00  0.00000000E+00  0.00000000E+00
  0.00000000E+00  0.00000000E+00  0.00000000E+00
  0.00000000E+00  0.00000000E+00  0.00000000E+00
  0.00000000E+00  0.00000000E+00  0.00000000E+00
  0.00000000E+00  0.00000000E+00  0.00000000E+00
  0.00000000E+00  0.00000000E+00  0.00000000E+00
  0.00000000E+00  0.00000000E+00  0.00000000E+00
  0.00000000E+00  0.00000000E+00  0.00000000E+00
  0.00000000E+00  0.00000000E+00  0.00000000E+00
  0.00000000E+00  0.00000000E+00  0.00000000E+00
  0.00000000E+00  0.00000000E+00  0.00000000E+00
  0.00000000E+00  0.00000000E+00  0.00000000E+00
  0.00000000E+00  0.00000000E+00  0.00000000E+00
  0.00000000E+00  0.00000000E+00  0.00000000E+00
  0.00000000E+00  0.00000000E+00  0.00000000E+00
  0.00000000E+00  0.00000000E+00  0.00000000E+00
  0.00000000E+00  0.00000000E+00  0.00000000E+00
  0.00000000E+00  0.00000000E+00  0.00000000E+00
  0.00000000E+00  0.00000000E+00  0.00000000E+00
  0.00000000E+00  0.00000000E+00  0.00000000E+00
  0.00000000E+00  0.00000000E+00  0.00000000E+00
  0.00000000E+00  0.00000000E+00  0.00000000E+00
  0.00000000E+00  0.00000000E+00  0.00000000E+00
  0.00000000E+00  0.00000000E+00  0.00000000E+00
  0.00000000E+00  0.00000000E+00  0.00000000E+00
  0.00000000E+00  0.00000000E+00  0.00000000E+00
  0.00000000E+00  0.00000000E+00  0.00000000E+00
  0.00000000E+00  0.00000000E+00  0.00000000E+00
  0.00000000E+00  0.00000000E+00  0.00000000E+00
  0.00000000E+00  0.00000000E+00  0.00000000E+00
  0.00000000E+00  0.00000000E+00  0.00000000E+00
  0.00000000E+00  0.00000000E+00  0.00000000E+00
  0.00000000E+00  0.00000000E+00  0.00000000E+00
  0.00000000E+00  0.00000000E+00  0.00000000E+00
  0.00000000E+00  0.00000000E+00  0.00000000E+00
  0.00000000E+00  0.00000000E+00  0.00000000E+00
  0.00000000E+00  0.00000000E+00  0.00000000E+00
  0.00000000E+00  0.00000000E+00  0.00000000E+00
  0.00000000E+00  0.00000000E+00  0.00000000E+00
  0.00000000E+00  0.00000000E+00  0.00000000E+00
  0.00000000E+00  0.00000000E+00  0.00000000E+00
  0.00000000E+00  0.00000000E+00  0.00000000E+00
  0.00000000E+00  0.00000000E+00  0.00000000E+00
  0.00000000E+00  0.00000000E+00  0.00000000E+00
  0.00000000E+00  0.00000000E+00  0.00000000E+00
  0.00000000E+00  0.00000000E+00  0.00000000E+00
  0.00000000E+00  0.00000000E+00  0.00000000E+00
  0.00000000E+00  0.00000000E+00  0.00000000E+00
  0.00000000E+00  0.00000000E+00  0.00000000E+00
  0.00000000E+00  0.00000000E+00  0.00000000E+00
  0.00000000E+00  0.00000000E+00  0.00000000E+00
  0.00000000E+00  0.00000000E+00  0.00000000E+00
  0.00000000E+00  0.00000000E+00  0.00000000E+00
  0.00000000E+00  0.00000000E+00  0.00000000E+00
  0.00000000E+00  0.00000000E+00  0.00000000E+00
  0.00000000E+00  0.00000000E+00  0.00000000E+00
  0.00000000E+00  0.00000000E+00  0.00000000E+00
  0.00000000E+00  0.00000000E+00  0.00000000E+00
  0.00000000E+00  0.00000000E+00  0.00000000E+00
  0.00000000E+00  0.00000000E+00  0.00000000E+00
  0.00000000E+00  0.00000000E+00  0.00000000E+00
  0.00000000E+00  0.00000000E+00  0.00000000E+00
  0.00000000E+00  0.00000000E+00  0.00000000E+00
  0.00000000E+00  0.00000000E+00  0.00000000E+00
  0.00000000E+00  0.00000000E+00  0.00000000E+00
  0.00000000E+00  0.00000000E+00  0.00000000E+00
  0.00000000E+00  0.00000000E+00  0.00000000E+00
  0.00000000E+00  0.00000000E+00  0.00000000E+00
  0.00000000E+00  0.00000000E+00  0.00000000E+00
  0.00000000E+00  0.00000000E+00  0.00000000E+00
  0.00000000E+00  0.00000000E+00  0.00000000E+00
  0.00000000E+00  0.00000000E+00  0.00000000E+00
  0.00000000E+00  0.00000000E+00  0.00000000E+00
  0.00000000E+00  0.00000000E+00  0.00000000E+00
  0.00000000E+00  0.00000000E+00  0.00000000E+00
  0.00000000E+00  0.00000000E+00  0.00000000E+00
  0.00000000E+00  0.00000000E+00  0.00000000E+00
  0.00000000E+00  0.00000000E+00  0.00000000E+00
  0.00000000E+00  0.00000000E+00  0.00000000E+00
  0.00000000E+00  0.00000000E+00  0.00000000E+00
  0.00000000E+00  0.00000000E+00  0.00000000E+00
  0.00000000E+00  0.00000000E+00  0.00000000E+00
  0.00000000E+00  0.00000000E+00  0.00000000E+00
  0.00000000E+00  0.00000000E+00  0.00000000E+00
  0.00000000E+00  0.00000000E+00  0.00000000E+00
  0.00000000E+00  0.00000000E+00  0.00000000E+00
  0.00000000E+00  0.00000000E+00  0.00000000E+00
  0.00000000E+00  0.00000000E+00  0.00000000E+00
  0.00000000E+00  0.00000000E+00  0.00000000E+00
  0.00000000E+00  0.00000000E+00  0.00000000E+00
  0.00000000E+00  0.00000000E+00  0.00000000E+00
  0.00000000E+00  0.00000000E+00  0.00000000E+00
  0.00000000E+00  0.00000000E+00  0.00000000E+00
  0.00000000E+00  0.00000000E+00  0.00000000E+00
  0.00000000E+00  0.00000000E+00  0.00000000E+00
  0.00000000E+00  0.00000000E+00  0.00000000E+00
  0.00000000E+00  0.00000000E+00  0.00000000E+00
  0.00000000E+00  0.00000000E+00  0.00000000E+00
  0.00000000E+00  0.00000000E+00  0.00000000E+00
  0.00000000E+00  0.00000000E+00  0.00000000E+00
  0.00000000E+00  0.00000000E+00  0.00000000E+00
  0.00000000E+00  0.00000000E+00  0.00000000E+00
  0.00000000E+00  0.00000000E+00  0.00000000E+00
  0.00000000E+00  0.00000000E+00  0.00000000E+00
  0.00000000E+00  0.00000000E+00  0.00000000E+00
  0.00000000E+00  0.00000000E+00  0.00000000E+00
  0.00000000E+00  0.00000000E+00  0.00000000E+00
  0.00000000E+00  0.00000000E+00  0.00000000E+00
  0.00000000E+00  0.00000000E+00  0.00000000E+00
  0.00000000E+00  0.00000000E+00  0.00000000E+00
  0.00000000E+00  0.00000000E+00  0.00000000E+00
  0.00000000E+00  0.00000000E+00  0.00000000E+00
  0.00000000E+00  0.00000000E+00  0.00000000E+00
  0.00000000E+00  0.00000000E+00  0.00000000E+00
  0.00000000E+00  0.00000000E+00  0.00000000E+00
  0.00000000E+00  0.00000000E+00  0.00000000E+00
  0.00000000E+00  0.00000000E+00  0.00000000E+00
  0.00000000E+00  0.00000000E+00  0.00000000E+00
  0.00000000E+00  0.00000000E+00  0.00000000E+00
  0.00000000E+00  0.00000000E+00  0.00000000E+00
  0.00000000E+00  0.00000000E+00  0.00000000E+00
  0.00000000E+00  0.00000000E+00  0.00000000E+00
  0.00000000E+00  0.00000000E+00  0.00000000E+00
  0.00000000E+00  0.00000000E+00  0.00000000E+00
  0.00000000E+00  0.00000000E+00  0.00000000E+00
  0.00000000E+00  0.00000000E+00  0.00000000E+00
  0.00000000E+00  0.00000000E+00  0.00000000E+00
  0.00000000E+00  0.00000000E+00  0.00000000E+00
  0.00000000E+00  0.00000000E+00  0.00000000E+00
  0.00000000E+00  0.00000000E+00  0.00000000E+00
  0.00000000E+00  0.00000000E+00  0.00000000E+00
  0.00000000E+00  0.00000000E+00  0.00000000E+00
  0.00000000E+00  0.00000000E+00  0.00000000E+00
  0.00000000E+00  0.00000000E+00  0.00000000E+00
  0.00000000E+00  0.00000000E+00  0.00000000E+00
  0.00000000E+00  0.00000000E+00  0.00000000E+00
  0.00000000E+00  0.00000000E+00  0.00000000E+00
  0.00000000E+00  0.00000000E+00  0.00000000E+00
  0.00000000E+00  0.00000000E+00  0.00000000E+00
  0.00000000E+00  0.00000000E+00  0.00000000E+00
  0.00000000E+00  0.00000000E+00  0.00000000E+00
  0.00000000E+00  0.00000000E+00  0.00000000E+00
  0.00000000E+00  0.00000000E+00  0.00000000E+00
  0.00000000E+00  0.00000000E+00  0.00000000E+00
  0.00000000E+00  0.00000000E+00  0.00000000E+00
  0.00000000E+00  0.00000000E+00  0.00000000E+00
  0.00000000E+00  0.00000000E+00  0.00000000E+00
  0.00000000E+00  0.00000000E+00  0.00000000E+00
  0.00000000E+00  0.00000000E+00  0.00000000E+00