Amorphous Sb                            
   1.00000000000000     
    21.9079054169074432    0.0000000000000000    0.0000000000000000
     0.0000000000000000   21.9079054169074432    0.0000000000000000
     0.0000000000000000    0.0000000000000000   21.9079054169074432
   In   Te
   180   120
Direct
  0.2139838618010911  0.6439686192186634  0.6347194806732995
  0.7592715044945957  0.0651870458744865  0.6407095128654040
  0.3796587910897541  0.2307455947211173  0.8699458782621885
  0.6955093959507518  0.0972448965937809  0.8140661866652046
  0.1472613832926915  0.7097519364011214  0.0771568170988252
  0.1453563401707522  0.9002643205451146  0.9446648153217905
  0.4830139862771549  0.6577630464463758  0.1029839255296143
  0.9245252566237446  0.9295055984767363  0.5476833617632253
  0.8804032335756428  0.7289413034472115  0.6217561555346932
  0.4305458161025135  0.8623755565668132  0.0105329168896428
  0.8692166653396018  0.3504826493367418  0.7087689706143854
  0.3570465418587905  0.5688397495103126  0.0533989340272508
  0.3275824993288107  0.9951059287879247  0.4530726951135686
  0.6740133213035188  0.4131015281395897  0.3790959773905864
  0.7823079401327244  0.3498459869801016  0.2433465823761242
  0.0450117208406460  0.7236086413355782  0.5701039684521684
  0.8358245686538690  0.7862448202040322  0.0041921177929097
  0.5407171983886242  0.9713987518260693  0.3648586247698179
  0.8418110702432956  0.1174218218877538  0.7567970035408035
  0.4834949949619040  0.1265335925333540  0.9068156861190876
  0.0995274787146433  0.4394787091342259  0.2507380841383433
  0.5815632189877840  0.8402927224838921  0.3339509563521823
  0.3806197065558882  0.7200921317249713  0.9567577868901886
  0.8455731321242346  0.9159521045650050  0.1112148389399975
  0.3916664252257376  0.5154185412410440  0.9129716463126735
  0.7199720623469764  0.3832965702484860  0.5591549296389312
  0.0170874362085225  0.5187964294358673  0.7730759829039247
  0.3038662937514778  0.3741586248088768  0.5707385017869308
  0.8198775239317804  0.1523792842771585  0.3567128109945037
  0.3450689582872055  0.3748607460259709  0.9969880419826669
  0.3057605877187635  0.2977565790487616  0.1591552631501592
  0.0113329516449423  0.4299907723174682  0.8717985575821380
  0.4249071645936454  0.9135950757270754  0.5074208083449536
  0.1045683864965736  0.0467721411346987  0.9304164323082339
  0.0569778902502741  0.0193763517994860  0.5593508596105196
  0.8318967361307539  0.7217550546533898  0.8330992949925461
  0.2105087100738474  0.6154154163506979  0.8134885722952419
  0.4524157879905649  0.9132011646442588  0.8410313342366207
  0.1673513644746400 -0.0055697442374480  0.8149787764328844
  0.9485453763515254  0.1090145297014854  0.5626666648096490
  0.3608423837059314  0.9057013723326790  0.1290947373186637
  0.0451229505533860  0.2095301472475568  0.2697920493843760
  0.8269671988264310  0.2988410942271052  0.9081438507146007
  0.0531545525163512  0.3175056671063826  0.5627933930979753
  0.3467698541658531  0.4468194023175709  0.1835283662723824
  0.6117543602912862  0.3947727352663150  0.7612326346644186
  0.9397934660520524  0.0248741705440911  0.9224388594642038
  0.4680127387492271  0.4142110505696018  0.3181104630947538
  0.1042520343073323  0.9778927635585706  0.4177234430399343
  0.1388915287491805  0.5499139169687991  0.3700946573334806
  0.6365330476595270  0.6514372511121266  0.8792662853630192
  0.3127630672504568  0.5140904606662379  0.4662068687644966
  0.6635663806245562  0.6872318213822587  0.6123473750010007
  0.9957190943717763  0.5502026730335712  0.2548760571069875
  0.2290571565011543  0.1321858895766767  0.8393501061142929
  0.5649041197835578  0.5387946142219149  0.3391620912685240
  0.8732191864254923  0.5720514080164074  0.7010420405644071
  0.5745587649932454  0.8171873361151775  0.5181725060462551
  0.2644535258357552  0.7378732887459629  0.7480784995718042
  0.2578792246339680  0.5372458192260411  0.9153249911647441
  0.9253719630839177  0.4358696147768537  0.1066501520325562
  0.3511842445659647  0.3310683313209767  0.2961526973798563
  0.2544280178532122  0.8413766523440595  0.6481644356887486
  0.5245360349908688  0.7821617254387390  0.8137400737811080
  0.0216620908472386  0.5589539077651641  0.9826334081865826
  0.6898119805715650  0.6911785278526350  0.0361171472248428
  0.4216972872620737  0.6849340284087764  0.5022343390381687
  0.5933793228131098  0.3418328500713091  0.5192482512380774
  0.5263353038600257  0.4760451615516017  0.6654104045603491
  0.6864333038202322  0.4725631116355125  0.9107713811215380
  0.4387202753438872  0.5052608165889523  0.7794758854522491
  0.5563814237318753  0.9413216164777095  0.9436702408567954
  0.7245753124858343  0.2902838445468471  0.8265999813505653
  0.7736059613106673  0.4876525157732395  0.6291146759260557
  0.0384392245352886  0.1435976018432870  0.4461031833578732
  0.7411608908085687  0.1979317671161913  0.1296418748252353
  0.0443268661136328  0.3643530779036827  0.1185031628984198
  0.5735052955312374  0.1009306842729151  0.4599087272344675
  0.7902570784786437  0.6502395701865323  0.1713480993338238
  0.6696340450257832  0.9899105449196980  0.2251893179876799
  0.1943685084110292  0.5699552879949149  0.1336173926717535
  0.6420091344922996  0.3953895162156782  0.2493074263239792
 -0.0067043201128825  0.7786807878491554  0.7880034092370563
  0.3695026663922599  0.7439700672207481  0.1057596759027990
  0.0455483622481909  0.0609656749276668  0.2358458741339531
  0.4266389652717151  0.2571809871897180  0.5113853786725485
  0.5989117942787593  0.0191246068464606  0.0484788990490213
  0.2594957788904512  0.2579784766697708  0.4416592014788536
  0.4511809188976079  0.2369473169116146  0.2094069585435946
  0.5417462156860912  0.6529452798965008  0.9796586225419391
  0.6704687233578848  0.8503442781691205  0.1639078008285936
  0.8617437424965442  0.8332617638116284  0.2812834214698355
  0.9272693980655597  0.3125495680897691  0.0118580664941046
  0.7205094672762798  0.8541759096101170  0.2987270215737791
  0.6903231485947584  0.5683883241005774  0.7478225287188327
  0.6827202539710094  0.9182031613410587  0.4440539854930898
  0.8132589108947885  0.7727780895041496  0.5223493417730177
  0.4635054196258047  0.8507143139581911  0.6213719658843542
  0.1845879451457040  0.7547881969441547  0.4304553268470206
  0.8935337216627026 -0.0028325873328660  0.1981110681423054
  0.6513194706824129  0.6309690805843352  0.2415416146218085
  0.8108924289105325  0.5925239930129107 -0.0014509360173411
  0.4826040273432426 -0.0076867437605607  0.1856142355433644
  0.3375015639138144  0.3697643829046522  0.7132838537382588
  0.7168899664953670  0.2644808339741250  0.6317165980019780
  0.1247980330527122  0.1975776171518844  0.1638340071588206
  0.0097141071284941  0.0268769454335822  0.7497934815479457
  0.7709123068577260  0.8318656467216877  0.7173353177319807
  0.6692636513741340  0.7583384288141994  0.4198186591784573
  0.7419140339158169  0.5172627608148453  0.0874833613898208
  0.4113225193059638  0.0698390803038566  0.0909092931801966
  0.5582487007360215  0.2064490294102687  0.5503785057768766
  0.0997129731583804  0.1891487012617891  0.9677663467788008
  0.2383634806060841  0.4702494208808555  0.7702641983569989
  0.2230172218398499  0.7498470415857147  0.8956293063491996
  0.2764843846503616  0.0888174967251193  0.1054776255398812
  0.4551066418389759  0.0773047614872473  0.5470918133711523
  0.5697411343060709  0.7973319065677071  0.9503478653452234
  0.1514333538318328  0.4144387812867487  0.6591235170019223
  0.9819107028757081  0.1840102828853033  0.6807230343131564
  0.4274695673467019  0.2350266835722585  0.3696974503423112
  0.1262390077506384  0.8718852206775736  0.6530352899551802
  0.0406249099030451  0.5615907445243813  0.4741808329838354
  0.3426789345206824  0.8387801166904865  0.3624514473965165
  0.8623212281045577  0.4924026169087173  0.8298506403641059
  0.0247248774260133  0.0163321092383693  0.0446448546883062
  0.0896224675394182  0.2298103310991987  0.8150142240897820
  0.8969499371912809  0.4086153459997587  0.5135816278782740
  0.8516025659667724  0.5539318097868940  0.5077874939157878
  0.8608603421969122  0.6165034817468107  0.3123919957664872
  0.7013288820725548  0.3859697283682819  0.1185917880536075
  0.5603518602028605  0.2962961783921748  0.6714260991896587
  0.4287694069451951  0.5620105877599861  0.1915137716455103
  0.8288036653096122  0.1990777946602516  0.5026926301104764
  0.1062703351209469  0.1683525009451972  0.5869064610228999
  0.1830550563391516  0.0079315589953609  0.2914349991386935
  0.5892412925504840  0.2711678970413184  0.2458552699495161
  0.2417847430476071  0.2634824350880772  0.6898108344919944
 -0.0099592538806871  0.7782850160867920  0.4639953295096138
  0.5644023492210416  0.1585375735403800  0.0284448500951210
  0.5234151352218406  0.8125594697305704  0.2186600786776653
  0.3040941169455505  0.0155581018425368  0.9044785787107891
  0.5851390918611094  0.1434930375638801  0.3012615609035117
  0.4801179576567420  0.4464560335481834  0.4557298996818597
  0.3112809553798911  0.8993993974255565  0.8242407420684864
  0.1879954954250170  0.4255917353169420  0.9342455955244438
  0.0844515820991557  0.9176978022586781  0.2459580326568674
  0.3579926088923697  0.0485914118124716  0.6427110975793645
  0.5809002388597180  0.4256630696266501  0.0645164857819884
  0.6703125766872758  0.2219403034384132  0.4089182652115721
  0.3498624848115000  0.1323925086346028  0.4518952205073895
  0.8572701175163409  0.3972339889591882  0.3418089783063313
  0.4296961517255864  0.6895856553480844  0.3657196353641930
  0.3850296726110685  0.1062857455707813  0.2335722765688122
  0.4681988366816984  0.3739120293687194  0.1569480858522725
  0.6901471028026471  0.3014995508837873 -0.0009629490577115
  0.8111162632433646  0.0929548478655385  0.9029534863253189
  0.2438089444216480  0.1167038997000261  0.3474089014515681
  0.2872076117442184  0.5725412222008200  0.3495562066936035
  0.7317703984170560  0.5044815133988433  0.2331728149263407
  0.2334436206116752  0.2796107457257082  0.8484320101738896
  0.0156366790425174  0.8175600310150343  0.0547630334748043
  0.8091680010427784  0.9671783663194304  0.3589341200175067
  0.0336328377851728  0.7042960721970769  0.3052368658836228
  0.6432629769245647  0.9608233311169603  0.6372718254918017
  0.2135851052125908  0.3083898786853692  0.3007620971656312
  0.0800488472157208  0.6398223453152041  0.8824567914309530
  0.7852041344340545  0.4056280148815115  0.9876885013301127
  0.3568770500234330  0.5011468904840156  0.6465183204192753
  0.6807621970240372  0.6013684682009237  0.3963241002733492
  0.4069753069977285  0.9514512890728845  0.2980287414836572
  0.4824514303627261  0.0098215290007193  0.7379566456857674
  0.9687514086567091  0.4320881073289170  0.6829195495237029
  0.4932232014837615  0.6238644186652583  0.7122571005135001
  0.7005580945930125  0.9742293683323197  0.9076652974187630
 -0.0194433355910233  0.7016177308384686  0.1020203806861826
  0.8755942463116657  0.9177622049831453  0.7841563213051418
  0.4240213184647433  0.1830785100744772  0.7006243237122687
  0.0269051197965752  0.3560518261311743  0.3838788815596896
  0.2296336092832321  0.7432182229755839  0.2211616234953878
  0.5464079788997550  0.3059996210549377  0.3893671299974372
  0.3736140732830722  0.7785265052527189  0.8261797499071440
  0.5890332863855404  0.5158861875299431  0.8243501588911296
  0.6619843518768838  0.0465266559138602  0.3703196237191455
  0.6430952324976845  0.5385381992533288  0.6239345228004384
  0.6003392662673220  0.7193429105105594  0.1473370460058283
  0.7228567746566451  0.2327110356384233  0.2708934459828756
  0.5787303199330139  0.0884748969193827  0.1714374312957956
  0.1453742573911288  0.0960601918668259  0.0757118171401599
  0.9103495365185504  0.6820495017375214  0.9848990357632738
  0.0411856819611043  0.3083923222912666  0.6948588094953102
  0.4286363209402488  0.0091220699636738  0.9688741784727001
  0.0668862541615641  0.4276133395301160  0.9939288522165377
  0.2715363524780869  0.8253240075357363  0.5020205710097759
  0.8485392894868116  0.2289188036895167  0.6574799299891771
  0.1797541493287379  0.0734859721177506  0.5039454057263384
  0.7525354950673169  0.4113331996050475  0.7520446972501973
  0.1944470953118318  0.2951492506023256  0.9806614206073991
  0.6268038624912730  0.5465830011568027  0.0181207621879990
  0.0805375222161156  0.8120105634319809  0.3675152391597457
 -0.0118654908212083  0.3270364173261974  0.2627004211641858
  0.7763214095315367  0.5051386694182912  0.3664712758803033
  0.7627939599556706  0.3292348343021012  0.4395955992013085
  0.4570864351384539  0.6298080780986893  0.8773823992473909
  0.1417044758082076  0.2087681419397056  0.3661468235276393
  0.2571912355602445  0.1770863889883022  0.2109317069077119
  0.6175461750052874  0.4791607943679199  0.4796446649848391
  0.1840293677742821  0.2897384688402654  0.5582554564593393
  0.4368017743059349  0.2039138800239705  0.0750084619972765
  0.1675704820216729  0.3347373991707305  0.1748009090016529
  0.1640810243786215  0.1546535000723391  0.7132505569289996
  0.7199550801021307  0.8342041727548472  0.9617073134434203
  0.2380679770130321  0.5045007667162991  0.5741305286622969
  0.9586504156320534  0.6321105779272050  0.8066366197237685
  0.9314868509741467  0.3287328299753717  0.8309733710232302
  0.2323246520953615  0.9193053501571486  0.3878937716552794
  0.2831448438498612  0.7129753914870217  0.3484434776106589
  0.4635200044105951  0.0947983162904343  0.3585387157231459
  0.8496091794517611  0.0473849696469788  0.4704599496144389
  0.1848928462146918  0.8589386493001553  0.8026558216974714
  0.7931610592106465  0.0589815791914205  0.2536228258770971
  0.8284700535407534  0.3280908902003809  0.1164448872568044
  0.0341893529786450  0.4481830498418957  0.5682195244833371
  0.2684182076793171  0.4547928227644324  0.0707668018127649
  0.5529023583300912  0.9703488268820335  0.5114745454064727
  0.8781556202180937  0.1914765335362581  0.9634481200060633
  0.4181006292728625  0.5566450645066885  0.3275265363558996
  0.9615819564517485  0.1271004374374584  0.3304941277095599
  0.3296926275878255  0.3810807678210285  0.8660429727019221
  0.9264674271564672  0.8388115995913732  0.6724940005427533
  0.7557934810548026  0.6545202778831495  0.4982340282404490
  0.3412815916583360  0.3839445887643686  0.4327757759878984
  0.3346896625394549  0.6049021112458672  0.7302911678616539
  0.5515452017434973  0.4825180054373426  0.1990437581704756
  0.0951382380895303  0.7468371286047875  0.6884299062957078
  0.0896882084224860  0.7684155385752147  0.9509870316670849
  0.5318011501912435  0.1195779008333531  0.6587155896007620
  0.9570872833276722  0.9381164268862583  0.2964082089440832
  0.2543815005658409 -0.0062900619024801  0.5717146860872555
  0.8020733007766763  0.7898854452528743  0.1312573296924094
  0.7769542245560914  0.9622177567352169  0.5408800942487267
  0.7488699700642852  0.7119482087402486  0.3071077202458753
  0.2783977317391232  0.8581395987817800  0.9729708993820546
  0.2492942206528165  0.6477579882732120 -0.0088510860313778
  0.8997169444310069  0.4877957479119885  0.9764638211353379
  0.8655922266527004  0.5211260897347787  0.1916019370956986
  0.6858806435223340  0.7807843879780765  0.8478261961193335
  0.7652358762507251  0.5972805219995669  0.8693266718410599
  0.3192092749187728  0.7323924977666927  0.5791458920054634
  0.6089416273831235  0.2631947329571671  0.1042464315182632
  0.2408394653782861  0.4913833897736635  0.2546856928317959
  0.1456944460004650  0.6568588409488955  0.5075063233567536
  0.7875363607853032  0.6833003183082669  0.7028690917237954
  0.1209404964294652  0.0050746714071561  0.6838308084706159
  0.0808252450198078  0.8886440829057600  0.5275869602645722
  0.6178768628865594  0.3438713140948430  0.8903609128030950
  0.9060702282727179  0.0199953724973451  0.6726628373007064
  0.3141622579297037  0.2491218578680730  0.0257345275688137
  0.5639650988269855  0.6922642432594266  0.3347220512501681
  0.1377070455233448  0.3810276345469115  0.8159177092516051
  0.1491861803000778  0.3986293624849138  0.3810887406006883
  0.2934995288947905 -0.0066473139936085  0.2120980291180989
  0.3613368016936243  0.1020745261288366  0.7858745147256206
  0.7088909482730380  0.8320953764856889  0.5867786849688748
  0.3898651987576504  0.8094500645618461  0.2294916478448349
  0.7222664827658136  0.9569711563719020  0.0846850844908715
  0.5716796514686588  0.0398156615575261  0.8434290168528297
  0.3119806968860398  0.6418447428083962  0.1734384485802970
  0.6943361274937885  0.1592925951317401  0.5468595683031474
  0.7356017097811595  0.9773796560667938  0.7574182748286014
  0.4498015501538564  0.2959135096565588  0.7589337299072580
  0.0202345456961415  0.9397797541043019  0.8453379264876222
  0.4570143621444274  0.4399961372546760  0.0092404979267614
  0.5048616099241277  0.7189821110880873  0.6051215022318052
  0.0237415012518735  0.2385773103328048  0.0773627245365842
  0.5400268698776982  0.8947720780868784  0.1100285995257214
  0.9716115506484143  0.2739542804578781  0.4705473996064355
  0.9524482901794117  0.6211661228186094  0.5921979650136074
  0.4258320409204043  0.5498357114421609  0.5333645631588925
  0.0877370616777413  0.9132108596249351  0.1067138620768099
  0.1306669266840975  0.5546338156267087  0.7178820173047715
  0.6787450157105834  0.1835840152907673  0.9334284450945265
  0.3576953728530980  0.9119317614845336  0.6930516473075548
  0.6617166088668061  0.2087819901356849  0.7435221457144067
  0.7184491570908755  0.0880657459399366  0.0140852625952999
  0.5528840434609990  0.8824647584058503  0.7151566390383038
  0.3376107836490672  0.1974408680216807  0.6032560496097628
  0.8785544108002971  0.8413925356867124  0.4306434968219468
  0.9578277115975908  0.4681682346746788  0.3946285822929860
  0.0354012140389014  0.5846522272731584  0.1139602314815946
  0.1344430112722947  0.6416393387596480  0.2573908047106172
  0.4688781655840508  0.8223063931769617  0.4148442416111192
  0.2496793696265004  0.8178900956780020  0.0977633395187852
  0.9165832473168225  0.8916134194860466 -0.0015304968749302
  0.9802479264232759  0.1354106738634007  0.8150918143037277
  0.4720597214722521  0.3734883054422902  0.5755963668479941
  0.6115266712456932  0.6917581946254373  0.7494064777297635
  0.9318955902876026  0.7215315164841083  0.2254040617012920
  0.9580482841339423  0.0899092842327087  0.1339692871820992
  0.9625308303562518  0.6559544612700235  0.4051438539311478
 
  0.00000000E+00  0.00000000E+00  0.00000000E+00
  0.00000000E+00  0.00000000E+00  0.00000000E+00
  0.00000000E+00  0.00000000E+00  0.00000000E+00
  0.00000000E+00  0.00000000E+00  0.00000000E+00
  0.00000000E+00  0.00000000E+00  0.00000000E+00
  0.00000000E+00  0.00000000E+00  0.00000000E+00
  0.00000000E+00  0.00000000E+00  0.00000000E+00
  0.00000000E+00  0.00000000E+00  0.00000000E+00
  0.00000000E+00  0.00000000E+00  0.00000000E+00
  0.00000000E+00  0.00000000E+00  0.00000000E+00
  0.00000000E+00  0.00000000E+00  0.00000000E+00
  0.00000000E+00  0.00000000E+00  0.00000000E+00
  0.00000000E+00  0.00000000E+00  0.00000000E+00
  0.00000000E+00  0.00000000E+00  0.00000000E+00
  0.00000000E+00  0.00000000E+00  0.00000000E+00
  0.00000000E+00  0.00000000E+00  0.00000000E+00
  0.00000000E+00  0.00000000E+00  0.00000000E+00
  0.00000000E+00  0.00000000E+00  0.00000000E+00
  0.00000000E+00  0.00000000E+00  0.00000000E+00
  0.00000000E+00  0.00000000E+00  0.00000000E+00
  0.00000000E+00  0.00000000E+00  0.00000000E+00
  0.00000000E+00  0.00000000E+00  0.00000000E+00
  0.00000000E+00  0.00000000E+00  0.00000000E+00
  0.00000000E+00  0.00000000E+00  0.00000000E+00
  0.00000000E+00  0.00000000E+00  0.00000000E+00
  0.00000000E+00  0.00000000E+00  0.00000000E+00
  0.00000000E+00  0.00000000E+00  0.00000000E+00
  0.00000000E+00  0.00000000E+00  0.00000000E+00
  0.00000000E+00  0.00000000E+00  0.00000000E+00
  0.00000000E+00  0.00000000E+00  0.00000000E+00
  0.00000000E+00  0.00000000E+00  0.00000000E+00
  0.00000000E+00  0.00000000E+00  0.00000000E+00
  0.00000000E+00  0.00000000E+00  0.00000000E+00
  0.00000000E+00  0.00000000E+00  0.00000000E+00
  0.00000000E+00  0.00000000E+00  0.00000000E+00
  0.00000000E+00  0.00000000E+00  0.00000000E+00
  0.00000000E+00  0.00000000E+00  0.00000000E+00
  0.00000000E+00  0.00000000E+00  0.00000000E+00
  0.00000000E+00  0.00000000E+00  0.00000000E+00
  0.00000000E+00  0.00000000E+00  0.00000000E+00
  0.00000000E+00  0.00000000E+00  0.00000000E+00
  0.00000000E+00  0.00000000E+00  0.00000000E+00
  0.00000000E+00  0.00000000E+00  0.00000000E+00
  0.00000000E+00  0.00000000E+00  0.00000000E+00
  0.00000000E+00  0.00000000E+00  0.00000000E+00
  0.00000000E+00  0.00000000E+00  0.00000000E+00
  0.00000000E+00  0.00000000E+00  0.00000000E+00
  0.00000000E+00  0.00000000E+00  0.00000000E+00
  0.00000000E+00  0.00000000E+00  0.00000000E+00
  0.00000000E+00  0.00000000E+00  0.00000000E+00
  0.00000000E+00  0.00000000E+00  0.00000000E+00
  0.00000000E+00  0.00000000E+00  0.00000000E+00
  0.00000000E+00  0.00000000E+00  0.00000000E+00
  0.00000000E+00  0.00000000E+00  0.00000000E+00
  0.00000000E+00  0.00000000E+00  0.00000000E+00
  0.00000000E+00  0.00000000E+00  0.00000000E+00
  0.00000000E+00  0.00000000E+00  0.00000000E+00
  0.00000000E+00  0.00000000E+00  0.00000000E+00
  0.00000000E+00  0.00000000E+00  0.00000000E+00
  0.00000000E+00  0.00000000E+00  0.00000000E+00
  0.00000000E+00  0.00000000E+00  0.00000000E+00
  0.00000000E+00  0.00000000E+00  0.00000000E+00
  0.00000000E+00  0.00000000E+00  0.00000000E+00
  0.00000000E+00  0.00000000E+00  0.00000000E+00
  0.00000000E+00  0.00000000E+00  0.00000000E+00
  0.00000000E+00  0.00000000E+00  0.00000000E+00
  0.00000000E+00  0.00000000E+00  0.00000000E+00
  0.00000000E+00  0.00000000E+00  0.00000000E+00
  0.00000000E+00  0.00000000E+00  0.00000000E+00
  0.00000000E+00  0.00000000E+00  0.00000000E+00
  0.00000000E+00  0.00000000E+00  0.00000000E+00
  0.00000000E+00  0.00000000E+00  0.00000000E+00
  0.00000000E+00  0.00000000E+00  0.00000000E+00
  0.00000000E+00  0.00000000E+00  0.00000000E+00
  0.00000000E+00  0.00000000E+00  0.00000000E+00
  0.00000000E+00  0.00000000E+00  0.00000000E+00
  0.00000000E+00  0.00000000E+00  0.00000000E+00
  0.00000000E+00  0.00000000E+00  0.00000000E+00
  0.00000000E+00  0.00000000E+00  0.00000000E+00
  0.00000000E+00  0.00000000E+00  0.00000000E+00
  0.00000000E+00  0.00000000E+00  0.00000000E+00
  0.00000000E+00  0.00000000E+00  0.00000000E+00
  0.00000000E+00  0.00000000E+00  0.00000000E+00
  0.00000000E+00  0.00000000E+00  0.00000000E+00
  0.00000000E+00  0.00000000E+00  0.00000000E+00
  0.00000000E+00  0.00000000E+00  0.00000000E+00
  0.00000000E+00  0.00000000E+00  0.00000000E+00
  0.00000000E+00  0.00000000E+00  0.00000000E+00
  0.00000000E+00  0.00000000E+00  0.00000000E+00
  0.00000000E+00  0.00000000E+00  0.00000000E+00
  0.00000000E+00  0.00000000E+00  0.00000000E+00
  0.00000000E+00  0.00000000E+00  0.00000000E+00
  0.00000000E+00  0.00000000E+00  0.00000000E+00
  0.00000000E+00  0.00000000E+00  0.00000000E+00
  0.00000000E+00  0.00000000E+00  0.00000000E+00
  0.00000000E+00  0.00000000E+00  0.00000000E+00
  0.00000000E+00  0.00000000E+00  0.00000000E+00
  0.00000000E+00  0.00000000E+00  0.00000000E+00
  0.00000000E+00  0.00000000E+00  0.00000000E+00
  0.00000000E+00  0.00000000E+00  0.00000000E+00
  0.00000000E+00  0.00000000E+00  0.00000000E+00
  0.00000000E+00  0.00000000E+00  0.00000000E+00
  0.00000000E+00  0.00000000E+00  0.00000000E+00
  0.00000000E+00  0.00000000E+00  0.00000000E+00
  0.00000000E+00  0.00000000E+00  0.00000000E+00
  0.00000000E+00  0.00000000E+00  0.00000000E+00
  0.00000000E+00  0.00000000E+00  0.00000000E+00
  0.00000000E+00  0.00000000E+00  0.00000000E+00
  0.00000000E+00  0.00000000E+00  0.00000000E+00
  0.00000000E+00  0.00000000E+00  0.00000000E+00
  0.00000000E+00  0.00000000E+00  0.00000000E+00
  0.00000000E+00  0.00000000E+00  0.00000000E+00
  0.00000000E+00  0.00000000E+00  0.00000000E+00
  0.00000000E+00  0.00000000E+00  0.00000000E+00
  0.00000000E+00  0.00000000E+00  0.00000000E+00
  0.00000000E+00  0.00000000E+00  0.00000000E+00
  0.00000000E+00  0.00000000E+00  0.00000000E+00
  0.00000000E+00  0.00000000E+00  0.00000000E+00
  0.00000000E+00  0.00000000E+00  0.00000000E+00
  0.00000000E+00  0.00000000E+00  0.00000000E+00
  0.00000000E+00  0.00000000E+00  0.00000000E+00
  0.00000000E+00  0.00000000E+00  0.00000000E+00
  0.00000000E+00  0.00000000E+00  0.00000000E+00
  0.00000000E+00  0.00000000E+00  0.00000000E+00
  0.00000000E+00  0.00000000E+00  0.00000000E+00
  0.00000000E+00  0.00000000E+00  0.00000000E+00
  0.00000000E+00  0.00000000E+00  0.00000000E+00
  0.00000000E+00  0.00000000E+00  0.00000000E+00
  0.00000000E+00  0.00000000E+00  0.00000000E+00
  0.00000000E+00  0.00000000E+00  0.00000000E+00
  0.00000000E+00  0.00000000E+00  0.00000000E+00
  0.00000000E+00  0.00000000E+00  0.00000000E+00
  0.00000000E+00  0.00000000E+00  0.00000000E+00
  0.00000000E+00  0.00000000E+00  0.00000000E+00
  0.00000000E+00  0.00000000E+00  0.00000000E+00
  0.00000000E+00  0.00000000E+00  0.00000000E+00
  0.00000000E+00  0.00000000E+00  0.00000000E+00
  0.00000000E+00  0.00000000E+00  0.00000000E+00
  0.00000000E+00  0.00000000E+00  0.00000000E+00
  0.00000000E+00  0.00000000E+00  0.00000000E+00
  0.00000000E+00  0.00000000E+00  0.00000000E+00
  0.00000000E+00  0.00000000E+00  0.00000000E+00
  0.00000000E+00  0.00000000E+00  0.00000000E+00
  0.00000000E+00  0.00000000E+00  0.00000000E+00
  0.00000000E+00  0.00000000E+00  0.00000000E+00
  0.00000000E+00  0.00000000E+00  0.00000000E+00
  0.00000000E+00  0.00000000E+00  0.00000000E+00
  0.00000000E+00  0.00000000E+00  0.00000000E+00
  0.00000000E+00  0.00000000E+00  0.00000000E+00
  0.00000000E+00  0.00000000E+00  0.00000000E+00
  0.00000000E+00  0.00000000E+00  0.00000000E+00
  0.00000000E+00  0.00000000E+00  0.00000000E+00
  0.00000000E+00  0.00000000E+00  0.00000000E+00
  0.00000000E+00  0.00000000E+00  0.00000000E+00
  0.00000000E+00  0.00000000E+00  0.00000000E+00
  0.00000000E+00  0.00000000E+00  0.00000000E+00
  0.00000000E+00  0.00000000E+00  0.00000000E+00
  0.00000000E+00  0.00000000E+00  0.00000000E+00
  0.00000000E+00  0.00000000E+00  0.00000000E+00
  0.00000000E+00  0.00000000E+00  0.00000000E+00
  0.00000000E+00  0.00000000E+00  0.00000000E+00
  0.00000000E+00  0.00000000E+00  0.00000000E+00
  0.00000000E+00  0.00000000E+00  0.00000000E+00
  0.00000000E+00  0.00000000E+00  0.00000000E+00
  0.00000000E+00  0.00000000E+00  0.00000000E+00
  0.00000000E+00  0.00000000E+00  0.00000000E+00
  0.00000000E+00  0.00000000E+00  0.00000000E+00
  0.00000000E+00  0.00000000E+00  0.00000000E+00
  0.00000000E+00  0.00000000E+00  0.00000000E+00
  0.00000000E+00  0.00000000E+00  0.00000000E+00
  0.00000000E+00  0.00000000E+00  0.00000000E+00
  0.00000000E+00  0.00000000E+00  0.00000000E+00
  0.00000000E+00  0.00000000E+00  0.00000000E+00
  0.00000000E+00  0.00000000E+00  0.00000000E+00
  0.00000000E+00  0.00000000E+00  0.00000000E+00
  0.00000000E+00  0.00000000E+00  0.00000000E+00
  0.00000000E+00  0.00000000E+00  0.00000000E+00
  0.00000000E+00  0.00000000E+00  0.00000000E+00
  0.00000000E+00  0.00000000E+00  0.00000000E+00
  0.00000000E+00  0.00000000E+00  0.00000000E+00
  0.00000000E+00  0.00000000E+00  0.00000000E+00
  0.00000000E+00  0.00000000E+00  0.00000000E+00
  0.00000000E+00  0.00000000E+00  0.00000000E+00
  0.00000000E+00  0.00000000E+00  0.00000000E+00
  0.00000000E+00  0.00000000E+00  0.00000000E+00
  0.00000000E+00  0.00000000E+00  0.00000000E+00
  0.00000000E+00  0.00000000E+00  0.00000000E+00
  0.00000000E+00  0.00000000E+00  0.00000000E+00
  0.00000000E+00  0.00000000E+00  0.00000000E+00
  0.00000000E+00  0.00000000E+00  0.00000000E+00
  0.00000000E+00  0.00000000E+00  0.00000000E+00
  0.00000000E+00  0.00000000E+00  0.00000000E+00
  0.00000000E+00  0.00000000E+00  0.00000000E+00
  0.00000000E+00  0.00000000E+00  0.00000000E+00
  0.00000000E+00  0.00000000E+00  0.00000000E+00
  0.00000000E+00  0.00000000E+00  0.00000000E+00
  0.00000000E+00  0.00000000E+00  0.00000000E+00
  0.00000000E+00  0.00000000E+00  0.00000000E+00
  0.00000000E+00  0.00000000E+00  0.00000000E+00
  0.00000000E+00  0.00000000E+00  0.00000000E+00
  0.00000000E+00  0.00000000E+00  0.00000000E+00
  0.00000000E+00  0.00000000E+00  0.00000000E+00
  0.00000000E+00  0.00000000E+00  0.00000000E+00
  0.00000000E+00  0.00000000E+00  0.00000000E+00
  0.00000000E+00  0.00000000E+00  0.00000000E+00
  0.00000000E+00  0.00000000E+00  0.00000000E+00
  0.00000000E+00  0.00000000E+00  0.00000000E+00
  0.00000000E+00  0.00000000E+00  0.00000000E+00
  0.00000000E+00  0.00000000E+00  0.00000000E+00
  0.00000000E+00  0.00000000E+00  0.00000000E+00
  0.00000000E+00  0.00000000E+00  0.00000000E+00
  0.00000000E+00  0.00000000E+00  0.00000000E+00
  0.00000000E+00  0.00000000E+00  0.00000000E+00
  0.00000000E+00  0.00000000E+00  0.00000000E+00
  0.00000000E+00  0.00000000E+00  0.00000000E+00
  0.00000000E+00  0.00000000E+00  0.00000000E+00
  0.00000000E+00  0.00000000E+00  0.00000000E+00
  0.00000000E+00  0.00000000E+00  0.00000000E+00
  0.00000000E+00  0.00000000E+00  0.00000000E+00
  0.00000000E+00  0.00000000E+00  0.00000000E+00
  0.00000000E+00  0.00000000E+00  0.00000000E+00
  0.00000000E+00  0.00000000E+00  0.00000000E+00
  0.00000000E+00  0.00000000E+00  0.00000000E+00
  0.00000000E+00  0.00000000E+00  0.00000000E+00
  0.00000000E+00  0.00000000E+00  0.00000000E+00
  0.00000000E+00  0.00000000E+00  0.00000000E+00
  0.00000000E+00  0.00000000E+00  0.00000000E+00
  0.00000000E+00  0.00000000E+00  0.00000000E+00
  0.00000000E+00  0.00000000E+00  0.00000000E+00
  0.00000000E+00  0.00000000E+00  0.00000000E+00
  0.00000000E+00  0.00000000E+00  0.00000000E+00
  0.00000000E+00  0.00000000E+00  0.00000000E+00