Ge Se                                   
   1.00000000000000     
    23.3306879044675561    0.0000000000000000    0.0000000000000000
     0.0000000000000000   23.3306879044675561    0.0000000000000000
     0.0000000000000000    0.0000000000000000   23.3306879044675561
   Ge   Se
    30   270
Direct
  0.2142764698773398  0.4559373522336427  0.3639933802028408
  0.5902401356336535  0.3065848729474953  0.5818116342535711
  0.5953148121331401  0.1904453520447232  0.9427554312185619
  0.7299483244439295  0.2510082223729594  0.5012606792750367
  0.4683914352502251  0.3771736905570505  0.6460862836011030
  0.6835016469729857  0.8007869888387112  0.5957221176114016
  0.3512209049217843  0.4370437816130018  0.3949427323245745
  0.2213224921124198  0.9897659923577045  0.0906948444132036
  0.6590490557353561  0.7268188346796675  0.2568925169884083
  0.3358684853750778  0.1189842497715931  0.9637165655244251
  0.2466148513207783  0.7924999794223677  0.6825065094731186
  0.2364236435564320  0.7042519226696677  0.3383671439971831
  0.5565801215528887  0.6765031658027113  0.6835727981831425
  0.5818016540884500  0.0472193364990550  0.6775042369294751
  0.1981800965128306  0.1231667729992852  0.8455715631478483
  0.6795199467304386  0.5586437309348656  0.6537229610921717
  0.3812934956638919 -0.0322415233049683  0.6405113711498003
  0.6735585324539622  0.3762946359264231  0.8384006648589655
  0.8181102670060405  0.0629114731090639  0.8520646346217136
  0.6641103071684960  0.1922385345255311  0.6627912391538867
  0.8662577274999139  0.6522923617974448  0.4842594483242790
  0.2605582760991010  0.9508507318332122  0.3829180227508086
  0.7869265800958494  0.6388878046428507  0.3285834781708664
  0.1798496593738774  0.8030453398894549  0.4439562105025100
  0.2723031070071658  0.3999617595448007  0.5167663579075773
  0.4150605391833009  0.2352370035087888  0.6895205187079659
  0.4831353361646965  0.0620158435644945  0.9464502143711760
  0.9094656446796130  0.5502980163459792  0.3808523340441560
  0.2763236461295814  0.8918363119010790  0.5512963922227743
  0.3567177063984758  0.1232164345902776  0.5995233551100017
 -0.0821937778704766  0.0304729326641051  0.7002087833056397
  0.2264513747829900  0.2460885014876982  0.2283215221867172
  0.4118294135191288  0.0078675352693970  0.8927564258977876
  0.0535336447398333  0.5443722676645959  0.8467111105533067
  0.5382817287947292  0.8315496352326022  0.9169057538878167
  0.7432749344598635  0.5645443110877866  0.0627178848293428
  0.2042683826058096  0.4115939219611435  0.0921210260311635
  0.2387970759584424  0.6462270880144912  0.4250383514901668
  0.2835151440818838  0.0808070733987161  0.5395545055974298
  0.5411151663837681  0.2451535016899465  0.0181695556935534
  0.0925618549278994  0.3367576236135010  0.9508211401549963
  0.0593728330613271  0.7701374770151941  0.9084082610309091
  0.8774654333257605  0.6643982215090216  0.3711893992847861
  0.7392169861899265  0.6463159848579971  0.1182876434197049
  0.8862314209586756  0.8969986478952814  0.8713530752579540
  0.9597538143881185  0.7094671978094097  0.1944291593514106
  0.6756974271897886  0.9391629359899029  0.1691057967972380
  0.9090162360591602  0.4403873482755151  0.9570575263099871
  0.6426133364177508  0.3035965538630003  0.1178350628359469
  0.9820059103281278  0.0893103160086738  0.1356124948065034
  0.1424161616611756  0.0514188433843812  0.3625483093269583
  0.6555131843753250  0.9054220915515294  0.7213770759829397
  0.5675708663687086  0.3968346189346919  0.6271284765792529
  0.0240430362482905  0.3399155890921265  0.2653178327251209
  0.2728035546425868  0.8600930986787995  0.7565917379720115
  0.2576451963556915  0.0447111730746774  0.0057961368454185
  0.0909806048356775  0.0568623920132530  0.4497346310870984
  0.7248474192173110  0.8871570449035296  0.8716726964181668
  0.5290941377012037  0.2940884650028343  0.9315748958076784
  0.6880746631785228  0.0344069909937343  0.8920466980371078
  0.5137143377156572  0.0938419942248243  0.7479872989762596
 -0.0363255420412277 -0.0276106101572501  0.6321276229308861
  0.5856574938127850  0.3720074515392862  0.3691317260825611
  0.7214978606689795  0.7247909363305908  0.5217367594284507
  0.5803840562365576  0.4274158313772646  0.8612399543936068
  0.6591183884466461  0.5196418061512746  0.5592621980692573
  0.8292383101789288  0.7696325144659371  0.5812114102925496
  0.9388136132690786  0.9589179745959878  0.4674236813362646
  0.5061563657449609  0.8854048249548323  0.6989010564637902
  0.0409176308194713  0.7729824145100503  0.4379123655512617
  0.7765970960664336  0.8552912773437805  0.5890878716095008
  0.2426711457664154  0.0127195561101944  0.7922958933039895
  0.3183254038558498  0.2023049093516019  0.6494777271609913
  0.0451570927077758  0.9566549706880771  0.2065905901532309
  0.9221831994777107  0.8650255904980150  0.5017871609159555
  0.8150030022620888  0.5071338248282150  0.3476956324823911
  0.2614924493125766  0.7979702218789191  0.3693444942707124
  0.7186094943219796  0.6823143112855492  0.7469826157923615
 -0.0139009294849070  0.9151150595121106  0.8777344298930645
  0.8437500110787467  0.8636338044711761  0.2899591135409880
  0.2367101639886005  0.7619716582750241  0.1314549819118798
  0.1449202121853511  0.7977595201255818  0.8627522737412243
  0.6410930055777126  0.6809545056357817  0.1047041038015273
  0.0215011305631949  0.2295730749147404  0.3348976712039777
  0.9830089368144863  0.4092209156676953  0.6769157457968784
  0.6915440003813486  0.2169201106080146  0.1135628671756945
  0.9763796883008995  0.8073758720402437  0.2157545567690045
  0.6667295408996424  0.3584192374878551  0.2009007593629311
  0.5241635981187620  0.6247637253313157  0.2599531611540885
  0.2660706569151640  0.0151752393536561  0.1808784314852661
  0.5766172320537747  0.9621276686830889  0.1655481949118647
  0.4147141099066914  0.4424917680015518  0.5180855799734766
  0.5126553151498152  0.5295017055663591  0.2899360790964711
  0.8806576753412196  0.2030601884203141  0.2547920506448458
  0.8305992165960481  0.1918824297151211 -0.0391903626228871
  0.4759835259645353  0.5359778060108401  0.8236993665356411
  0.7192792056899571  0.5937888991340520  0.3945313755238774
  0.4107500341624444  0.9084232092851244  0.7225451732061069
  0.5242919565867776  0.7423088920998223  0.6094141257509597
  0.5656801152731791  0.5401137953112626  0.0219167816559023
  0.2214034818749344  0.9053558561316041  0.2961746428389930
  0.5791335119487689  0.9696676186064939  0.7532137630308611
  0.1459194980406791  0.5824694616522487  0.9788148528758345
  0.1278596688983118  0.7806547320051570  0.2541961952128637
  0.1180883880251778  0.1449350702262039  0.7793278507070575
  0.4946966188621396  0.6192282429886958  0.8793812037936837
  0.9384301099532810  0.5612888560150143  0.6335570201948409
  0.8761677399055291  0.5442636327958422  0.4832540543569986
  0.5800483947417896  0.6557085570882811  0.8400598758956626
  0.7024293142150611  0.1398506748858679  0.5781350089291862
  0.2909294467631978  0.5552450912346844  0.9042616446609535
  0.7808194948508448  0.5424296065931355  0.6387533413679674
  0.3736094369221068  0.8602775350298669  0.5357343872908886
  0.4028654431587365  0.2585774835013324  0.3316179881363213
  0.0181110259718932  0.1647541784562546  0.1965658235260613
  0.5411923013162789  0.8065561416823500  0.0146497288424414
  0.1601728956837718  0.7398477081930596  0.7111733040820684
  0.5224130019096750  0.4683287411009861  0.2064282666317574
  0.2857566248316895  0.1632259010172591  0.4801733783375761
  0.9053326962442073  0.4748381952055482  0.6756393729082437
  0.6279730002998246  0.6258484086800763  0.2610922586953776
  0.1908222368779987  0.1230115249055569 -0.0034523384061491
  0.6225101626767160  0.4623432594964369  0.0521930493548445
  0.9712384150394796  0.6183959750180690  0.7114262435984909
  0.1742800915095529  0.4842988211571901  0.1555282890858419
  0.2880310980498892  0.3757207542481708  0.1410951370985883
  0.8299237982712089  0.2420323033839196  0.5459928780466692
  0.3623289651761393  0.9354518329513434  0.3951079420943049
  0.9589515252683460  0.0105275355623877  0.1925230898551117
  0.2544501925415189  0.4077532413154873  0.9525403694436901
  0.4133745280257550  0.4616602169531716  0.6175428036289446
  0.1946707545109849  0.9281227801357118  0.7633719615374976
  0.4638676196184101  0.1115815195884343  0.3793342705004649
  0.2797647015296694  0.2569996021568577  0.9126738038975082
  0.8886627031777481  0.7403133918061955  0.8372153660266545
  0.9715111990631973  0.4446858337479073  0.4010483480209707
  0.2733369358757508  0.6500756572771876  0.6313760484434060
  0.9773853490515358  0.3255607496290139  0.0637007891238854
  0.4442730525633702  0.3395380117982817  0.2848561656411622
  0.0554655569314660  0.9619380588086700  0.7404355186917516
  0.3279338264495561  0.3360579632984630  0.4418694435758761
  0.8667907400928314  0.6442728389241745  0.0173946862400541
  0.0008271922702610  0.5706710352012849  0.4794728223901255
  0.8292244290914833  0.2753579728096268  0.8213153916609278
  0.3227877907251073  0.4804816512171319  0.9652750166395208
  0.2179869017985743  0.2274700159255264  0.5233634231534953
  0.7602731766765346  0.7260289768801987  0.2784644055688977
  0.0986588600064127  0.8384835235991349  0.3839505006396827
  0.3790022109648218  0.0844376059690354  0.3311347542257729
  0.7357258334239123  0.1229718344682022  0.8895882957159508
  0.1471219414750571  0.5303564150737187  0.3363771871523762
  0.5477641556743347  0.9603535528998046  0.2625972933220831
  0.5996881490815175  0.3721073266844274  0.9424606590996142
  0.4796709279995401  0.7800787165566414  0.2481230729925268
  0.3264236014792606  0.7252547302415723  0.6749771816030422
  0.4093728473020220  0.7208113318625645  0.0380541115863843
  0.1430091795833244  0.6890379435014512  0.2948684873821967
  0.1387456394158011  0.4395946741493590  0.2388593255788053
  0.3463588307822364  0.2073516377009346  0.0233223610156517
  0.6377309376558483  0.5055304865057229  0.7333437856555151
  0.8904601440591206  0.1118892882968606  0.8088746566478355
  0.4259349120473128  0.9468969205170084  0.5497721888122657
  0.0706975701901995  0.6240809093017889  0.7067875315381479
  0.5067045255291601  0.1460684527822015  0.8948962637929411
  0.0726576694494146  0.9308139120205107  0.1134395590981552
  0.4842135418324920  0.5692454149592104  0.4378104454734837
  0.1706769400641443  0.3443456823362226  0.6184775955029810
  0.7863872189745994  0.2714868621187639  0.9140429861179247
  0.7549070521579878  0.9759690149633834  0.9616598684027532
  0.5706222792685915  0.0669049642986890  0.5042026842837579
  0.8671462373329543  0.9574721180251972  0.3199651534252234
  0.1901364148034019 -0.0123090580326356  0.2438174046415204
  0.9549835156986773  0.2268237120536210  0.0620806165622715
  0.4351132512563296  0.1489681854975273  0.5366802539007290
  0.7984878747522832  0.6992358028016431  0.8615564962661705
  0.8744188978413118  0.8310300125950352  0.7952141518075307
  0.6122235099004195  0.7981559519631514  0.3148624418092561
  0.8977576028213189  0.6011923431067836  0.9311234144726799
  0.1204298855337749  0.0140520920286965  0.0810780545990909
  0.2579291396315409  0.9010970185293208  0.0523835857518797
  0.3866889643623323 -0.0143415088170011  0.3106219747569741
  0.3991619335736550  0.0629363001004523  0.6755306592047662
  0.9312743873866270  0.2022278878504584 -0.0337261838556844
  0.0247143062198790  0.8554484573698672  0.9515383987557817
  0.5607759909935160  0.0107214897332798  0.9905719970172540
  0.6312022158464806  0.7142748001606779  0.4753132678857983
  0.1668096036372863  0.3994339014314566  0.5309153840767195
  0.5912303491893359  0.6337815030515939  0.5378874631083268
  0.6309163389757458  0.0830001172610708 -0.0154593129670618
  0.8875238540124193  0.8539727365150717  0.1990535091151007
  0.6747553120446856  0.8816768195379132  0.4498233672979529
  0.9440674565114214  0.3921103897889274  0.4812298341860063
  0.5020404611011501  0.4793549133742174  0.4803672281957476
  0.4138862927629512  0.0725949249546682  0.0300818029635328
  0.1763856819746296  0.3573803376494284  0.3669097101675902
  0.7432011296229535  0.4587175289173310  0.8516581245296421
  0.0599697314867790  0.0046875817026066  0.6479728303105681
  0.7520312373713467 -0.0028536956902987  0.8079287765455341
  0.2388591142977221  0.6187702787262462  0.9632511831834184
  0.7191862080403403  0.0926990315851501  0.2026130152970400
  0.4179758841115417  0.5246792984466410  0.0954266537110866
  0.5098797671992149  0.7105568961955960  0.0230811066136874
  0.0063459515676437  0.3352161138516441  0.3686467569297439
  0.5921399678271796  0.2822992634398093  0.4176694501038605
  0.3898121937395180  0.7119248027370625  0.1361290082914829
  0.8366465869785035  0.0308511701219276  0.9524079225646372
  0.7977506247865291  0.3469533700277009  0.2832589201501108
  0.4340247922660339  0.4481376768880646  0.1689948181917946
  0.1606636909273520  0.1068885837614547  0.6933895260110263
  0.8470759611183798  0.3302409834625168  0.5835459759883761
  0.8083108456112307  0.6576708410799005  0.7077279441344425
  0.7222360436006685  0.0201820400802559  0.1311962852532259
  0.6652726763507486  0.1083107692634600  0.7281221051384960
  0.5943415731064875  0.1232398547092899  0.8057167416847063
  0.1838126451724060  0.1661267612964532  0.1851744594447548
  0.9310833278684271  0.1879828566633751  0.3426106656347745
  0.4423163056429398  0.5720659785743464  0.7361159684132140
  0.2991861731228502  0.3488148618162198  0.8793178285747387
  0.4179631709764874  0.1609405683015590  0.0806648938310801
  0.6480552631202047  0.7642146254491969  0.1592518403955610
  0.8056302390072403  0.5616980766913220  0.2625534878857148
  0.7997861482718861  0.2038829920405531  0.7567410457581154
  0.9731650537089590  0.6655212895985568  0.5084313651300902
  0.5487488445785013  0.7261427560776700  0.7746513307996331
  0.2796997562781927  0.8525229536411022  0.1398801802738488
  0.9977352222081587  0.6952103661284943  0.1016426047751846
  0.1158668475719071  0.8123972893771358  0.7656379631375573
  0.7657508845041389  0.3806124262531106  0.1932140567281084
  0.0951138466631200  0.5581347112787488  0.5060231857011975
  0.0348440783754238  0.4350890999381752  0.2360393923411706
  0.0824025206774777  0.6198037309690114  0.9090378145516218
  0.4211693781213579  0.7675404826737549  0.3303103475748375
  0.2295497373281579  0.5984806572336843  0.7066283606190559
  0.1279455038037494  0.0959200436347467  0.9228619910117278
  0.1097142194137918  0.5462321336162179  0.7627325546020960
  0.2359340342347185  0.4364731349631146  0.7401013856600485
  0.2130402239231434  0.8191147138971113  0.5875859048185254
  0.2930969589414829  0.4375652802872698  0.3034119652716938
  0.4568094299417580  0.7965237641588783  0.6598972805627161
  0.0126026758256536  0.8235415802519883  0.5210212130927752
  0.6306459038656711  0.1486983619702708  0.5069306574239346
  0.5238853615615890  0.5771291434353801  0.6762709556508535
  0.2573199472804955  0.3662281732280824  0.6668962834032327
  0.5037183634524968  0.5734034314709821  0.0962878093580533
  0.4395660921334947  0.8461495124826667  0.8960605198092663
  0.6811140190237378  0.7958668021939190  0.3966364298372546
  0.4523603612984970  0.3679281646214239  0.7483214831842525
  0.0961565131925129  0.1986562400073369  0.1427142244207550
  0.0773153582197029  0.1547760467055411  0.4708190611402467
  0.5301228806650092  0.2880483326871340  0.4979652842293660
  0.2814467763147916  0.2770718855772167  0.1450347950107927
  0.1092773127422332  0.2360729665905709  0.9326744300255660
  0.2789537818472257  0.9689411732474239  0.6197752399136421
  0.6191916130177976  0.8600460800393820  0.5305471631814263
  0.4386680203402870  0.2936459498006447  0.5968447435949636
 -0.0332208989508953  0.3547458819767723  0.8274490615376273
  0.1467908717784933  0.5988526505497229  0.4159459697244190
  0.8571147135773934  0.7411619776536349  0.6763121142189151
  0.4106896799681126  0.8033251131023074  0.1770571399086480
  0.3078636295050339  0.2806912063142556  0.3551297775289920
  0.7191770702245579  0.4452292297721655  0.7546744195186461
  0.2097739504593340  0.9117162540465547  0.4688266844526460
  0.1378137568252194  0.7670307351290494  0.1538835502106852
  0.8368110369431111  0.3885588336785874  0.4878365106316495
  0.9282560320691955  0.7236920917396387  0.0339896529387613
  0.6678260154786305  0.8392037306198581  0.7942666042754526
  0.3073703434989496  0.6676860250341822  0.2716919609211437
  0.5342405577957045  0.1214708903483241  0.3071079070864228
  0.7343447173571684  0.4577503377688932  0.5968278838036140
  0.6933843305097817  0.4940224700566467  0.1182376471065971
  0.7371552766755861  0.2588990833954504  0.6926073743135819
  0.2649454380497895  0.4865500698973284  0.4507402725279882
  0.4994005728857273  0.0761829921246316  0.5756864515196456
  0.4868426997336448  0.3927620410678928  0.3619847093788541
  0.6911557054601897  0.3242054152979150  0.5698236572098750
 -0.0157306079883114  0.0218413422292763  0.7818663796712486
  0.0229240121305810  0.4164032268668951  0.7697781002797990
  0.0778057733985173  0.3348482042574624  0.0502694190163690
  0.8898902259794181  0.4121893952751038  0.8616216510819106
  0.6421327948475337  0.6573780913989435  0.3798110272904300
  0.1005319626530225  0.3516695283810855  0.4308215510242429
  0.7935705411936119  0.2455020369979473  0.2826429837669450
  0.6413526892956101  0.1488126513705114  0.1741713856513393
  0.9626196799427137  0.5265292283719708  0.9554103252807925
  0.7718266703327059  0.7462341163623746  0.9483771012672548
  0.1861322276353664  0.2394910235414284  0.8662565300739727
  0.3896589599669728  0.6715451090664789  0.3307275263030553
  0.2908746755947151  0.5201799018192598  0.7356292585439805
  0.5691636745948122  0.2265986885310151  0.6463619373767329
  0.9564042659099470  0.9536141284392813  0.3679971602126912
  0.4037832834704393  0.9229634569470813  0.9495189927831063
  0.5896540844457067  0.0369037991023399  0.3131503175612490
  0.3642735075320595  0.3182839890016636  0.7387170597439027
  0.1390658790488218  0.1720786766798430  0.5500586900086454
  0.6629957275350808  0.6668038815580699  0.6576760000873897
  0.6934514129680145  0.8079308419892076  0.9306624765360443
  0.7970598648626277  0.3188586775432762  0.4315933614306572
  0.4933567573956941  0.6372635324710419  0.5130655860300113
  0.2553710452161914  0.0870768824706961  0.7180418840131890
  0.2419414749303036  0.0525901513035526  0.3839449646628876
 
  0.00000000E+00  0.00000000E+00  0.00000000E+00
  0.00000000E+00  0.00000000E+00  0.00000000E+00
  0.00000000E+00  0.00000000E+00  0.00000000E+00
  0.00000000E+00  0.00000000E+00  0.00000000E+00
  0.00000000E+00  0.00000000E+00  0.00000000E+00
  0.00000000E+00  0.00000000E+00  0.00000000E+00
  0.00000000E+00  0.00000000E+00  0.00000000E+00
  0.00000000E+00  0.00000000E+00  0.00000000E+00
  0.00000000E+00  0.00000000E+00  0.00000000E+00
  0.00000000E+00  0.00000000E+00  0.00000000E+00
  0.00000000E+00  0.00000000E+00  0.00000000E+00
  0.00000000E+00  0.00000000E+00  0.00000000E+00
  0.00000000E+00  0.00000000E+00  0.00000000E+00
  0.00000000E+00  0.00000000E+00  0.00000000E+00
  0.00000000E+00  0.00000000E+00  0.00000000E+00
  0.00000000E+00  0.00000000E+00  0.00000000E+00
  0.00000000E+00  0.00000000E+00  0.00000000E+00
  0.00000000E+00  0.00000000E+00  0.00000000E+00
  0.00000000E+00  0.00000000E+00  0.00000000E+00
  0.00000000E+00  0.00000000E+00  0.00000000E+00
  0.00000000E+00  0.00000000E+00  0.00000000E+00
  0.00000000E+00  0.00000000E+00  0.00000000E+00
  0.00000000E+00  0.00000000E+00  0.00000000E+00
  0.00000000E+00  0.00000000E+00  0.00000000E+00
  0.00000000E+00  0.00000000E+00  0.00000000E+00
  0.00000000E+00  0.00000000E+00  0.00000000E+00
  0.00000000E+00  0.00000000E+00  0.00000000E+00
  0.00000000E+00  0.00000000E+00  0.00000000E+00
  0.00000000E+00  0.00000000E+00  0.00000000E+00
  0.00000000E+00  0.00000000E+00  0.00000000E+00
  0.00000000E+00  0.00000000E+00  0.00000000E+00
  0.00000000E+00  0.00000000E+00  0.00000000E+00
  0.00000000E+00  0.00000000E+00  0.00000000E+00
  0.00000000E+00  0.00000000E+00  0.00000000E+00
  0.00000000E+00  0.00000000E+00  0.00000000E+00
  0.00000000E+00  0.00000000E+00  0.00000000E+00
  0.00000000E+00  0.00000000E+00  0.00000000E+00
  0.00000000E+00  0.00000000E+00  0.00000000E+00
  0.00000000E+00  0.00000000E+00  0.00000000E+00
  0.00000000E+00  0.00000000E+00  0.00000000E+00
  0.00000000E+00  0.00000000E+00  0.00000000E+00
  0.00000000E+00  0.00000000E+00  0.00000000E+00
  0.00000000E+00  0.00000000E+00  0.00000000E+00
  0.00000000E+00  0.00000000E+00  0.00000000E+00
  0.00000000E+00  0.00000000E+00  0.00000000E+00
  0.00000000E+00  0.00000000E+00  0.00000000E+00
  0.00000000E+00  0.00000000E+00  0.00000000E+00
  0.00000000E+00  0.00000000E+00  0.00000000E+00
  0.00000000E+00  0.00000000E+00  0.00000000E+00
  0.00000000E+00  0.00000000E+00  0.00000000E+00
  0.00000000E+00  0.00000000E+00  0.00000000E+00
  0.00000000E+00  0.00000000E+00  0.00000000E+00
  0.00000000E+00  0.00000000E+00  0.00000000E+00
  0.00000000E+00  0.00000000E+00  0.00000000E+00
  0.00000000E+00  0.00000000E+00  0.00000000E+00
  0.00000000E+00  0.00000000E+00  0.00000000E+00
  0.00000000E+00  0.00000000E+00  0.00000000E+00
  0.00000000E+00  0.00000000E+00  0.00000000E+00
  0.00000000E+00  0.00000000E+00  0.00000000E+00
  0.00000000E+00  0.00000000E+00  0.00000000E+00
  0.00000000E+00  0.00000000E+00  0.00000000E+00
  0.00000000E+00  0.00000000E+00  0.00000000E+00
  0.00000000E+00  0.00000000E+00  0.00000000E+00
  0.00000000E+00  0.00000000E+00  0.00000000E+00
  0.00000000E+00  0.00000000E+00  0.00000000E+00
  0.00000000E+00  0.00000000E+00  0.00000000E+00
  0.00000000E+00  0.00000000E+00  0.00000000E+00
  0.00000000E+00  0.00000000E+00  0.00000000E+00
  0.00000000E+00  0.00000000E+00  0.00000000E+00
  0.00000000E+00  0.00000000E+00  0.00000000E+00
  0.00000000E+00  0.00000000E+00  0.00000000E+00
  0.00000000E+00  0.00000000E+00  0.00000000E+00
  0.00000000E+00  0.00000000E+00  0.00000000E+00
  0.00000000E+00  0.00000000E+00  0.00000000E+00
  0.00000000E+00  0.00000000E+00  0.00000000E+00
  0.00000000E+00  0.00000000E+00  0.00000000E+00
  0.00000000E+00  0.00000000E+00  0.00000000E+00
  0.00000000E+00  0.00000000E+00  0.00000000E+00
  0.00000000E+00  0.00000000E+00  0.00000000E+00
  0.00000000E+00  0.00000000E+00  0.00000000E+00
  0.00000000E+00  0.00000000E+00  0.00000000E+00
  0.00000000E+00  0.00000000E+00  0.00000000E+00
  0.00000000E+00  0.00000000E+00  0.00000000E+00
  0.00000000E+00  0.00000000E+00  0.00000000E+00
  0.00000000E+00  0.00000000E+00  0.00000000E+00
  0.00000000E+00  0.00000000E+00  0.00000000E+00
  0.00000000E+00  0.00000000E+00  0.00000000E+00
  0.00000000E+00  0.00000000E+00  0.00000000E+00
  0.00000000E+00  0.00000000E+00  0.00000000E+00
  0.00000000E+00  0.00000000E+00  0.00000000E+00
  0.00000000E+00  0.00000000E+00  0.00000000E+00
  0.00000000E+00  0.00000000E+00  0.00000000E+00
  0.00000000E+00  0.00000000E+00  0.00000000E+00
  0.00000000E+00  0.00000000E+00  0.00000000E+00
  0.00000000E+00  0.00000000E+00  0.00000000E+00
  0.00000000E+00  0.00000000E+00  0.00000000E+00
  0.00000000E+00  0.00000000E+00  0.00000000E+00
  0.00000000E+00  0.00000000E+00  0.00000000E+00
  0.00000000E+00  0.00000000E+00  0.00000000E+00
  0.00000000E+00  0.00000000E+00  0.00000000E+00
  0.00000000E+00  0.00000000E+00  0.00000000E+00
  0.00000000E+00  0.00000000E+00  0.00000000E+00
  0.00000000E+00  0.00000000E+00  0.00000000E+00
  0.00000000E+00  0.00000000E+00  0.00000000E+00
  0.00000000E+00  0.00000000E+00  0.00000000E+00
  0.00000000E+00  0.00000000E+00  0.00000000E+00
  0.00000000E+00  0.00000000E+00  0.00000000E+00
  0.00000000E+00  0.00000000E+00  0.00000000E+00
  0.00000000E+00  0.00000000E+00  0.00000000E+00
  0.00000000E+00  0.00000000E+00  0.00000000E+00
  0.00000000E+00  0.00000000E+00  0.00000000E+00
  0.00000000E+00  0.00000000E+00  0.00000000E+00
  0.00000000E+00  0.00000000E+00  0.00000000E+00
  0.00000000E+00  0.00000000E+00  0.00000000E+00
  0.00000000E+00  0.00000000E+00  0.00000000E+00
  0.00000000E+00  0.00000000E+00  0.00000000E+00
  0.00000000E+00  0.00000000E+00  0.00000000E+00
  0.00000000E+00  0.00000000E+00  0.00000000E+00
  0.00000000E+00  0.00000000E+00  0.00000000E+00
  0.00000000E+00  0.00000000E+00  0.00000000E+00
  0.00000000E+00  0.00000000E+00  0.00000000E+00
  0.00000000E+00  0.00000000E+00  0.00000000E+00
  0.00000000E+00  0.00000000E+00  0.00000000E+00
  0.00000000E+00  0.00000000E+00  0.00000000E+00
  0.00000000E+00  0.00000000E+00  0.00000000E+00
  0.00000000E+00  0.00000000E+00  0.00000000E+00
  0.00000000E+00  0.00000000E+00  0.00000000E+00
  0.00000000E+00  0.00000000E+00  0.00000000E+00
  0.00000000E+00  0.00000000E+00  0.00000000E+00
  0.00000000E+00  0.00000000E+00  0.00000000E+00
  0.00000000E+00  0.00000000E+00  0.00000000E+00
  0.00000000E+00  0.00000000E+00  0.00000000E+00
  0.00000000E+00  0.00000000E+00  0.00000000E+00
  0.00000000E+00  0.00000000E+00  0.00000000E+00
  0.00000000E+00  0.00000000E+00  0.00000000E+00
  0.00000000E+00  0.00000000E+00  0.00000000E+00
  0.00000000E+00  0.00000000E+00  0.00000000E+00
  0.00000000E+00  0.00000000E+00  0.00000000E+00
  0.00000000E+00  0.00000000E+00  0.00000000E+00
  0.00000000E+00  0.00000000E+00  0.00000000E+00
  0.00000000E+00  0.00000000E+00  0.00000000E+00
  0.00000000E+00  0.00000000E+00  0.00000000E+00
  0.00000000E+00  0.00000000E+00  0.00000000E+00
  0.00000000E+00  0.00000000E+00  0.00000000E+00
  0.00000000E+00  0.00000000E+00  0.00000000E+00
  0.00000000E+00  0.00000000E+00  0.00000000E+00
  0.00000000E+00  0.00000000E+00  0.00000000E+00
  0.00000000E+00  0.00000000E+00  0.00000000E+00
  0.00000000E+00  0.00000000E+00  0.00000000E+00
  0.00000000E+00  0.00000000E+00  0.00000000E+00
  0.00000000E+00  0.00000000E+00  0.00000000E+00
  0.00000000E+00  0.00000000E+00  0.00000000E+00
  0.00000000E+00  0.00000000E+00  0.00000000E+00
  0.00000000E+00  0.00000000E+00  0.00000000E+00
  0.00000000E+00  0.00000000E+00  0.00000000E+00
  0.00000000E+00  0.00000000E+00  0.00000000E+00
  0.00000000E+00  0.00000000E+00  0.00000000E+00
  0.00000000E+00  0.00000000E+00  0.00000000E+00
  0.00000000E+00  0.00000000E+00  0.00000000E+00
  0.00000000E+00  0.00000000E+00  0.00000000E+00
  0.00000000E+00  0.00000000E+00  0.00000000E+00
  0.00000000E+00  0.00000000E+00  0.00000000E+00
  0.00000000E+00  0.00000000E+00  0.00000000E+00
  0.00000000E+00  0.00000000E+00  0.00000000E+00
  0.00000000E+00  0.00000000E+00  0.00000000E+00
  0.00000000E+00  0.00000000E+00  0.00000000E+00
  0.00000000E+00  0.00000000E+00  0.00000000E+00
  0.00000000E+00  0.00000000E+00  0.00000000E+00
  0.00000000E+00  0.00000000E+00  0.00000000E+00
  0.00000000E+00  0.00000000E+00  0.00000000E+00
  0.00000000E+00  0.00000000E+00  0.00000000E+00
  0.00000000E+00  0.00000000E+00  0.00000000E+00
  0.00000000E+00  0.00000000E+00  0.00000000E+00
  0.00000000E+00  0.00000000E+00  0.00000000E+00
  0.00000000E+00  0.00000000E+00  0.00000000E+00
  0.00000000E+00  0.00000000E+00  0.00000000E+00
  0.00000000E+00  0.00000000E+00  0.00000000E+00
  0.00000000E+00  0.00000000E+00  0.00000000E+00
  0.00000000E+00  0.00000000E+00  0.00000000E+00
  0.00000000E+00  0.00000000E+00  0.00000000E+00
  0.00000000E+00  0.00000000E+00  0.00000000E+00
  0.00000000E+00  0.00000000E+00  0.00000000E+00
  0.00000000E+00  0.00000000E+00  0.00000000E+00
  0.00000000E+00  0.00000000E+00  0.00000000E+00
  0.00000000E+00  0.00000000E+00  0.00000000E+00
  0.00000000E+00  0.00000000E+00  0.00000000E+00
  0.00000000E+00  0.00000000E+00  0.00000000E+00
  0.00000000E+00  0.00000000E+00  0.00000000E+00
  0.00000000E+00  0.00000000E+00  0.00000000E+00
  0.00000000E+00  0.00000000E+00  0.00000000E+00
  0.00000000E+00  0.00000000E+00  0.00000000E+00
  0.00000000E+00  0.00000000E+00  0.00000000E+00
  0.00000000E+00  0.00000000E+00  0.00000000E+00
  0.00000000E+00  0.00000000E+00  0.00000000E+00
  0.00000000E+00  0.00000000E+00  0.00000000E+00
  0.00000000E+00  0.00000000E+00  0.00000000E+00
  0.00000000E+00  0.00000000E+00  0.00000000E+00
  0.00000000E+00  0.00000000E+00  0.00000000E+00
  0.00000000E+00  0.00000000E+00  0.00000000E+00
  0.00000000E+00  0.00000000E+00  0.00000000E+00
  0.00000000E+00  0.00000000E+00  0.00000000E+00
  0.00000000E+00  0.00000000E+00  0.00000000E+00
  0.00000000E+00  0.00000000E+00  0.00000000E+00
  0.00000000E+00  0.00000000E+00  0.00000000E+00
  0.00000000E+00  0.00000000E+00  0.00000000E+00
  0.00000000E+00  0.00000000E+00  0.00000000E+00
  0.00000000E+00  0.00000000E+00  0.00000000E+00
  0.00000000E+00  0.00000000E+00  0.00000000E+00
  0.00000000E+00  0.00000000E+00  0.00000000E+00
  0.00000000E+00  0.00000000E+00  0.00000000E+00
  0.00000000E+00  0.00000000E+00  0.00000000E+00
  0.00000000E+00  0.00000000E+00  0.00000000E+00
  0.00000000E+00  0.00000000E+00  0.00000000E+00
  0.00000000E+00  0.00000000E+00  0.00000000E+00
  0.00000000E+00  0.00000000E+00  0.00000000E+00
  0.00000000E+00  0.00000000E+00  0.00000000E+00
  0.00000000E+00  0.00000000E+00  0.00000000E+00
  0.00000000E+00  0.00000000E+00  0.00000000E+00
  0.00000000E+00  0.00000000E+00  0.00000000E+00
  0.00000000E+00  0.00000000E+00  0.00000000E+00
  0.00000000E+00  0.00000000E+00  0.00000000E+00
  0.00000000E+00  0.00000000E+00  0.00000000E+00
  0.00000000E+00  0.00000000E+00  0.00000000E+00
  0.00000000E+00  0.00000000E+00  0.00000000E+00
  0.00000000E+00  0.00000000E+00  0.00000000E+00
  0.00000000E+00  0.00000000E+00  0.00000000E+00
  0.00000000E+00  0.00000000E+00  0.00000000E+00
  0.00000000E+00  0.00000000E+00  0.00000000E+00
  0.00000000E+00  0.00000000E+00  0.00000000E+00
  0.00000000E+00  0.00000000E+00  0.00000000E+00
  0.00000000E+00  0.00000000E+00  0.00000000E+00
  0.00000000E+00  0.00000000E+00  0.00000000E+00