Sb                                      
   1.00000000000000     
    18.6673007965000032    0.0000000000000000    0.0000000000000000
     0.0000000000000000   18.6673007965000032    0.0000000000000000
     0.0000000000000000    0.0000000000000000   18.6673007965000032
   Ge   Sb   Te
    40    60   100
Direct
  0.5766161072608442  0.0200122494594817  0.1276679283450727
  0.8500278726496493  0.6843605519505362  0.7803473593870806
  0.0114759396641919  0.4651175365625341  0.2327936359028525
  0.2080147442849720  0.6048952925194901  0.1679475806749667
  0.7882811981147488  0.0094293068816778  0.6975081074030660
  0.9235363307606695  0.2001442892156077  0.7652848507310533
  0.3056262277543106  0.2416035798269540  0.5142410393368956
  0.2672431679323176  0.2970929143079514  0.0892827467806041
  0.2238059929562301  0.7993186960690570  0.9335475635594778
  0.6106725531317465  0.9001674751123775  0.2774647668533102
  0.1245006319305223  0.9531794113970111  0.1324523665809823
  0.1471048615197729  0.8500383005451703  0.5611248070140217
  0.0512472910707846  0.7209783399241819  0.0430113885838043
  0.5849113339194725  0.6723151993973131  0.2689468803678979
  0.4012460516687882  0.0715216740556411  0.0956006766391256
  0.9231194818953746  0.1591886211405242  0.1861699345792592
  0.1106518894712892  0.7547828597585854  0.7820040403638611
  0.3136225945827815  0.4094234057176960  0.4872938898089008
  0.7219798646351822  0.8350840918117862  0.5750644415764461
  0.5178914935954660  0.7983298088628246  0.1499711208757720
  0.4307842091363339  0.2784028619369504  0.5692856957428708
  0.7772920789848642  0.2895183855912917  0.1270575994458421
  0.1229931216208618  0.0763264816846406  0.9303742317854211
  0.1516551551777242  0.0802340566321421  0.5873395796577493
  0.6223112991634120  0.3270572086012227  0.8686458209998393
  0.3909542881590641  0.5813027436399937  0.5469297614647818
  0.7523254552255153  0.0646413705524522  0.0692599947024985
  0.6814658803661456  0.5681490940779748  0.1639011228023661
  0.4941008867751373  0.8402271354326469  0.5265685462991898
  0.2457283868455437  0.0886923392795252  0.9745875932696172
  0.4733266094793627  0.1206950482337033  0.4730937916691774
  0.6794810345640703  0.1784245192766527  0.0135117080247068
  0.3879416175232698  0.5261763645444951  0.7480278680062866
  0.6359680618070582  0.8900150932171358  0.7952337294632935
  0.4131346479518972  0.9499685188150799  0.7242708301718974
  0.9369931134650481  0.3812255151915860  0.4440537881966776
  0.8593716770072597  0.6440806191967275  0.2042815639827508
  0.7787575520862983  0.4299745038086230  0.7139386885901855
  0.9143238486383368  0.4947660322874160  0.6057769590747997
  0.4373128552408340  0.8387665632410940  0.8962479294358857
  0.8002732918306232  0.0742549709196910  0.5750636466861456
  0.7178240392480941  0.9015078176698934  0.0292078133312171
  0.0819482428669803  0.0215683356858259  0.7038719749731552
  0.4795695532024102  0.1944325825526127  0.1092875270234869
  0.3607120709821497  0.0283490925844761  0.9361416379180640
  0.6420808285581915  0.3172048481425173  0.0408958809146213
  0.0411368385043111  0.6091501073309032  0.9519209108504479
  0.8072356807022332  0.6846012644099297  0.0116837785364205
  0.9085560608026759  0.1559211432703667  0.5329512258106687
  0.6644606540416230  0.9860580763394139  0.4201066290096627
  0.7212334072457629  0.7236615714761250  0.9020815846224721
  0.0630867224144691  0.2515744210677678  0.7910242173426660
  0.1997656658865286  0.3264612356822006  0.4644222344689902
  0.5452806275464116  0.3098172139900448  0.4696847916371335
  0.1550207780575542  0.2754060071379989  0.6664311750920041
  0.6053522404904371  0.6765677614511496  0.4226051307492187
  0.2204053115090925  0.4456835630752676  0.6471392432345612
  0.1164121548039569  0.8342271584764257  0.3888125038311774
  0.2074284709437549  0.9051176040304765  0.8109299102937381
  0.5453644671631137  0.8418201096016931  0.6743345556239078
  0.3894131857501251  0.3053004706644767  0.7606164454030840
  0.4505986044093689  0.9295458412607310  0.2645322844380020
  0.6559152399243718  0.0241713488293903  0.7460395544972298
  0.6145042833036720  0.8201276711427649  0.9601929941634921
  0.8985383060157465  0.7603416705238041  0.1207287740501254
  0.5985905613947170  0.2926454026275773  0.7187580861136288
  0.8248213260825514  0.2809690085897137  0.8412636714826616
  0.0717371645263351  0.4675353504071333  0.4634694544858011
  0.6211714567688641  0.5359926275008799  0.7546258060859046
  0.0825683936036839  0.5927512841559118  0.8100134499609629
  0.0558442825761769  0.3226855968404093  0.1261223455894366
  0.6987911328942467  0.5054396772438139  0.4094568167454720
  0.0532296278777897  0.2958142430612748  0.5546078565694295
  0.3360973962269831  0.9625550240030830  0.4599402053555064
  0.4392732387741996  0.4170258379424160  0.0114430313918559
  0.5019857336013517  0.1704493933667948  0.6354460686627709
  0.6015730013684216  0.6903200832987506  0.0449805309014575
  0.0684781229630712  0.9586617317916900  0.8689697111751377
  0.8166034179570184  0.7878975918858918  0.3567758425564023
  0.4121880272883062  0.4121424315653120  0.6028703913554234
  0.4068110569815228  0.2364496361596573  0.2984365956561935
  0.9704649715595682  0.9656002760138412  0.4615824690484027
  0.4890718379412208  0.6957147549731525  0.8253986767031893
  0.5736690592398659  0.3975491752549403  0.2311918336751862
  0.2708579805716093  0.3017871004527551  0.8621186350554040
  0.4347148435319366  0.6007797677282013  0.1964061788557482
  0.7081772586909639  0.2696921037224456  0.5201096796746099
  0.2451892500963211  0.6931849270435054  0.8329586641926230
  0.2138627261632471  0.3809990582988325  0.2868871974562467
  0.6629276802349950  0.5905738004419674  0.5420490884928034
  0.9615468694740265  0.7893676583532790  0.6430587559568586
  0.8547108578258374  0.5967903343019821  0.4183457994246151
  0.8984596916122064  0.4313275411721165  0.9560009511005707
  0.1087062095557040  0.1804515558444439  0.3128283244350385
  0.8603383100064741  0.5130313197740074  0.1463637393528940
  0.8411931330666453  0.9740667718483758  0.8772798614998879
  0.3466751095794259  0.4761426256981863  0.2529959764495629
  0.0759907775672997  0.4321201581349789  0.8262535007513968
  0.2087675519585192  0.7093316590755487  0.0543244068816352
  0.1175141543264359  0.7668117407417021  0.2449868349038686
  0.2700057462322151  0.1691852225621346  0.6329370635798826
  0.1867227989087127  0.4082361256998017  0.1408592559539600
  0.0941105818360968  0.8528542112648799  0.9763443484469048
  0.5495017240527218  0.1068048016576183  0.0089872375217256
  0.7518187497132909  0.5853614468580253  0.7077489462381350
  0.8116734567835747  0.9643713028955511  0.4800682447538985
  0.8446785860353631  0.8464813379279265  0.9562974159726202
  0.3607724408541426  0.8618321917702577  0.5856302173680556
  0.8821357011994025  0.2816654000178984  0.9956981655511901
  0.6540315728208604  0.7367438526331711  0.6470479929098638
  0.2951606624482911  0.9718530003306144  0.2766311779552037
  0.3616475652331755  0.8046977587651000  0.7757205770267178
  0.9747029309449650  0.9899441378841721  0.2895476585151300
  0.3983540307420902  0.0534432542671738  0.6049916511683846
  0.2086683308877846  0.9497464695563577  0.6621935623511062
  0.9995525053004188  0.5887302151880316  0.1238043252932906
  0.5535927743857326  0.5487674221105209  0.3519587623172932
  0.0819842166092788  0.1587835540469213  0.4787791725670301
  0.2456160076777668  0.0738384224339174  0.1166880856963119
  0.1275399947079983  0.0069777442423755  0.2858610925305039
  0.5576686176146096  0.4954937327009961  0.1101024880718325
  0.0641760866250516  0.3203309196981954  0.3343566010881596
  0.2705750645096003  0.7424557077555441  0.5080371162037309
  0.6798081284102403  0.3487215540978496  0.3746362909395465
  0.3208333985828743  0.5370189107989339  0.1051492809146155
  0.1238896367112679  0.2908481384047057  0.9799432162191933
  0.4552083244895555  0.7051905459636403  0.4643001436817868
  0.8198619194511241  0.8660835674871232  0.2126761584438327
  0.1142265246383765  0.7261333683222526  0.6369026482503326
  0.9694591241730418  0.8115897480568652  0.4381448001840873
  0.4929474449845292  0.2800221616601085  0.9921436333516898
  0.8849099723156727  0.6104697433167737  0.9093955035469762
  0.4595724111197562  0.9226710686883366  0.0967062019502875
  0.9236934565349300  0.4060026731559997  0.8027026648565891
  0.9875521756573599  0.5862602908208235  0.4991533590310209
  0.2048293094017017  0.5838840246563705  0.9479725354678077
  0.5038180966146512  0.6194070670558811  0.6844814613836960
  0.6999187238895039  0.1954914326098022  0.8650012749550650
  0.7027891904753185  0.0122418234466748  0.2721481444000848
  0.2729556436299726  0.5932927310779844  0.6767468059989464
  0.4814386140561123  0.0820477823424176  0.2272264035545194
  0.9749641327435089  0.8067120001272986  0.7924109883202609
  0.8824367753967605  0.0712172571068239  0.9945103652033260
  0.8149825384608009  0.4234355106534802  0.5244607065307371
  0.0080355579692252  0.8563013201101590  0.1958829018241046
  0.2633426308395784  0.2287129861202420  0.2397485635240789
  0.4098140138477410  0.3724427666594619  0.3714115171233026
  0.0203594062626322  0.1735716399956759  0.9597619199993899
  0.4628335130983561  0.7605668328907259  0.2858006330795725
  0.4462539421814395  0.7059068093599499  0.0656971351381446
  0.8476163203695254  0.2317043481906734  0.4307933050051104
  0.7484588873155907  0.5492529175162609  0.0387502729774876
  0.9262733889727425  0.0611327706362467  0.7323096668539114
  0.9501981256183247  0.6703998349460007  0.3172602034040475
  0.2888125550217953  0.8430817770670826  0.3774782942303841
  0.4547503086327614  0.1772469739757586  0.7864608732720215
  0.9148201080362628  0.2735250241065245  0.6365647033721837
  0.3966947343938637  0.3589613693981641  0.1583131461328357
  0.7292409825126882  0.4308765232902033  0.8488074578135488
  0.7331995539897127  0.4400434120877379  0.2186802962079794
  0.7946340262629542  0.6917610921282371  0.5357150128815147
  0.8039081628538968  0.8676198789003449  0.7152830654168092
  0.1182471557731488  0.5139307373896577  0.3204311553752273
  0.5042612727519401  0.9642090286648727  0.8459012516110259
  0.2924627608894623  0.3992830277077387  0.9669870820646637
  0.7443081624842135  0.2477876569088876  0.6874616950949115
  0.0389374653991618  0.4614252398348815  0.9948744327674169
  0.7433732608816249  0.6680608551852728  0.2891123059993225
  0.7610216138872749  0.1605095477872578  0.1931156568440126
  0.1570295128679103  0.1246314395542168  0.7999651255187191
  0.8918982886401509  0.4614758787305248  0.3255678699801934
  0.8973837113717891  0.2980127169398817  0.2128319460015373
  0.2223374983528525  0.8418027832289922  0.1612629197019354
  0.0849445273048582  0.1752238843314437  0.1575845488953751
  0.6187399019616194  0.9526827186333564  0.6105789969888591
  0.0704367960659314  0.4577942652016652  0.6607418692805845
  0.5085277219389063  0.4947858426804038  0.5166695149213546
  0.3146186027250890  0.0250598648130425  0.8011920189384280
  0.0100468403679906  0.9355021891123655  0.6149906064973062
  0.1781014996179325  0.9952592952416208  0.4685084274364785
  0.6690586727274266  0.8409913206723845  0.4000352345575833
  0.9532825541061961  0.1476642645175268  0.3344086504767620
  0.5966048863063425  0.2579705176216409  0.1768480377062565
  0.9541968022002377  0.6066083264979953  0.7119387152307023
  0.3362157322926380  0.1465363235246831  0.4183589243667252
  0.1533669066786457  0.6862630749914728  0.4228934954093512
  0.3252407469612532  0.8800021737885071  0.9874242059387607
  0.3804786590553662  0.6078513466129677  0.8806368812762951
  0.3042531715353984  0.6646642136979454  0.2600601389970563
  0.5950096041121173  0.6080381239706659  0.9043050473340473
  0.6966096126035825  0.9991791335499334  0.9097135552876922
  0.4912671332857775  0.9793506200663035  0.4143409188830841
  0.3397566794689232  0.1962044288947961  0.9713405738552547
  0.5670687370105901  0.1922241438833953  0.3728025943023415
  0.6328875751132205  0.4296458610022903  0.6468364048318409
  0.6710880221061268  0.1247419253757894  0.5330560709111331
  0.6752077923900541  0.8115305603776991  0.1682213288526425
  0.2888382585268903  0.5383183572297898  0.4410869073378640
  0.4677170535841240  0.4190814465412868  0.8421115366453921
  0.2453334186505140  0.4496940663287151  0.7948873869156029
 
 -0.21219689E-03  0.52964628E-03  0.48906621E-03
 -0.78356734E-03 -0.47753186E-02 -0.15210962E-02
 -0.15902815E-02  0.18174645E-02  0.11827161E-02
 -0.14798206E-02 -0.30419648E-02  0.26094232E-02
  0.14451327E-02 -0.14994558E-02  0.19588638E-03
  0.13560005E-02 -0.18867382E-03 -0.14423052E-02
  0.11708491E-02 -0.15755893E-02 -0.20163773E-03
  0.67223443E-03 -0.33163015E-02  0.64582485E-03
  0.18038573E-02 -0.85321120E-03  0.97624723E-03
  0.90868758E-03  0.12084042E-02 -0.20740999E-03
  0.58521646E-03 -0.24220424E-03  0.22948490E-02
  0.71129116E-03  0.11781260E-02  0.26865956E-02
 -0.17009174E-02 -0.19285503E-02 -0.10215504E-02
  0.15059099E-02 -0.10314078E-02  0.22109507E-02
 -0.28154781E-03  0.39997297E-02  0.28182759E-02
 -0.15986257E-02 -0.28779329E-02  0.15688031E-02
 -0.96212354E-03  0.22747038E-02  0.12816101E-02
  0.16959553E-02  0.34589736E-02  0.22836990E-02
 -0.11625135E-03  0.20801957E-02 -0.54079981E-03
 -0.51050414E-03 -0.13515259E-02 -0.12405633E-02
  0.39234260E-02  0.86363965E-03  0.35057750E-03
  0.12251803E-03  0.23233556E-03  0.20289228E-03
 -0.33736882E-03  0.20471610E-02 -0.12439289E-02
  0.15565317E-02  0.53678468E-03 -0.14423963E-02
  0.20610838E-02  0.39081281E-02 -0.59311267E-02
  0.76427159E-03  0.27337760E-02 -0.24440899E-02
 -0.24773635E-02 -0.51004483E-03 -0.41497480E-03
  0.10945904E-02  0.10636727E-02  0.16604831E-02
  0.12208953E-02 -0.37242531E-03 -0.16049347E-02
  0.13427942E-02  0.92648114E-03 -0.93665820E-03
 -0.17217546E-02 -0.22505797E-02  0.40547188E-03
  0.33296254E-03 -0.22134663E-02 -0.26673244E-02
  0.10151475E-02 -0.71251189E-03 -0.35186150E-02
 -0.95096769E-03 -0.26721314E-02  0.17706079E-02
  0.69177238E-03  0.23517007E-02  0.94929826E-03
  0.31108855E-02 -0.28833755E-03 -0.15479896E-02
  0.27288006E-02 -0.87314743E-04  0.17056384E-02
  0.39326732E-03 -0.30905106E-02  0.18431576E-02
 -0.13764036E-03 -0.20829989E-03  0.60092141E-03
  0.29740228E-04 -0.21848018E-02 -0.12189360E-02
  0.12652073E-02  0.13415320E-02  0.30528838E-02
  0.12276705E-02  0.87114810E-03 -0.19511312E-02
 -0.10235830E-02  0.55662537E-03 -0.33702103E-03
  0.67331274E-03 -0.12284264E-02 -0.27637285E-02
 -0.44640637E-03  0.29691577E-03  0.15825128E-03
 -0.10230466E-02  0.41016896E-03 -0.21722538E-02
  0.76353370E-03 -0.17181887E-02  0.32362692E-03
  0.76463978E-03  0.19136479E-03 -0.20450006E-02
 -0.33589139E-03  0.67406843E-03 -0.79674043E-03
  0.15866339E-03  0.10270303E-02 -0.25623462E-03
  0.14945367E-02 -0.32824949E-02  0.22475935E-02
  0.46163000E-03  0.24228306E-02 -0.24383152E-03
  0.42173032E-02 -0.12612384E-03  0.68018848E-04
  0.15317530E-02 -0.11659081E-02  0.10739109E-02
  0.29702295E-03 -0.10570524E-02 -0.16909977E-02
  0.28731382E-02  0.20939608E-02  0.32205181E-03
  0.16251558E-02 -0.63349922E-03  0.14814002E-02
  0.29768099E-02  0.53582622E-03 -0.29645904E-02
 -0.58953696E-03 -0.72705764E-03  0.53028894E-03
  0.85940759E-04  0.16427361E-04  0.77772478E-04
  0.10654796E-02  0.28798721E-03  0.22721687E-03
 -0.11654911E-02 -0.43977326E-03 -0.52300903E-03
 -0.16819557E-02 -0.10367140E-02  0.59780260E-03
 -0.14792691E-02 -0.19715061E-03  0.11697102E-02
  0.16808423E-02 -0.80412229E-03 -0.91949669E-03
 -0.16993246E-02 -0.95377889E-03  0.65553292E-03
  0.82248377E-03 -0.47057764E-03  0.17133379E-02
 -0.30238347E-03 -0.15838601E-02 -0.65906288E-03
 -0.35615496E-02 -0.18337092E-02  0.21097480E-02
  0.35725376E-03  0.26087613E-02  0.15107324E-02
  0.69077773E-03 -0.23017893E-02 -0.25220218E-02
 -0.18384421E-02 -0.32697976E-03 -0.27397987E-02
  0.14212820E-02 -0.16027830E-03 -0.17097784E-02
 -0.35856417E-02  0.11698668E-02  0.31699706E-02
  0.19285130E-02 -0.19942168E-02 -0.46067715E-03
  0.73676398E-03 -0.82230663E-03 -0.10264338E-03
 -0.21210058E-03  0.24238142E-02  0.22448318E-02
  0.86920705E-03  0.16207647E-02 -0.11267044E-02
  0.11962374E-02  0.52694674E-03 -0.81904343E-03
  0.64738928E-03  0.69165150E-03  0.11030817E-02
  0.64336530E-03 -0.13851910E-02  0.43297040E-05
  0.82517610E-03  0.10459788E-02  0.10772539E-02
 -0.90493694E-03  0.69403890E-03 -0.48617424E-03
 -0.19157090E-02  0.28988606E-02  0.11503580E-03
  0.64479368E-05  0.16424238E-02 -0.10008827E-02
 -0.19177223E-02 -0.21431462E-02  0.89585407E-03
 -0.14351986E-02  0.76408419E-03  0.15387354E-03
  0.28591436E-02 -0.81365781E-03  0.16328353E-02
  0.13222790E-02  0.56201747E-03 -0.23158846E-03
 -0.25986461E-03  0.18979525E-02 -0.61471769E-03
 -0.12811258E-04 -0.22822588E-03 -0.21419238E-02
 -0.40458622E-03 -0.16400702E-02 -0.66721164E-03
 -0.15357796E-02  0.20296883E-02 -0.90698732E-03
  0.31469785E-03  0.13018872E-02  0.93742409E-03
  0.23516315E-02 -0.21337467E-02  0.57934948E-03
  0.66464240E-03  0.23868604E-02 -0.20211877E-02
  0.17783297E-02 -0.93632826E-05  0.25839497E-02
 -0.70107568E-03 -0.11468154E-02  0.19073812E-02
  0.19750806E-02 -0.39441078E-02 -0.19917411E-02
 -0.20684342E-03  0.13255927E-02 -0.18278122E-02
 -0.16665030E-03  0.87477694E-03  0.38420340E-02
 -0.14449940E-04 -0.98896874E-03  0.30267994E-04
  0.14340743E-03 -0.22948443E-03 -0.67628952E-03
 -0.13995302E-02 -0.33032956E-03  0.63955436E-03
 -0.16957191E-02  0.88101826E-03  0.13714164E-02
 -0.23051045E-03  0.16683597E-02 -0.58555545E-03
 -0.21883943E-02  0.77372326E-03  0.10279908E-02
  0.11756004E-02 -0.80112466E-03 -0.56252548E-03
 -0.96546488E-03 -0.40371038E-03  0.75935553E-03
  0.25457322E-03  0.11681373E-03 -0.16503821E-02
  0.93599909E-03  0.86122340E-03  0.18399525E-02
  0.13563494E-02 -0.22668997E-02  0.73897798E-04
  0.14913041E-03  0.11584521E-02 -0.70747767E-03
  0.11146774E-02  0.17056034E-03  0.12232528E-02
 -0.37872023E-03  0.26886585E-02 -0.85425347E-03
 -0.95708743E-03  0.40762634E-03 -0.70526955E-03
 -0.27693675E-02 -0.76387259E-03 -0.82946463E-03
 -0.10123806E-02  0.22123190E-03  0.19071636E-03
 -0.17184797E-02 -0.11358977E-02  0.32647090E-03
  0.43466806E-03  0.27585932E-02  0.59989344E-03
 -0.86229461E-03 -0.99638132E-04  0.17524785E-02
  0.15670215E-03  0.11983957E-02 -0.33291986E-02
  0.56640682E-04  0.11521485E-02 -0.53769143E-04
 -0.19857347E-02 -0.21281499E-02 -0.19751141E-03
 -0.15944413E-02 -0.16699890E-02  0.91201289E-03
 -0.12715145E-03  0.57743698E-03  0.65963655E-05
  0.15919733E-03  0.60421933E-04 -0.15905044E-02
  0.44118722E-03 -0.25252728E-02 -0.16995874E-02
 -0.25542013E-02  0.72887545E-03 -0.19135988E-03
  0.52292442E-03  0.10092932E-02  0.19167119E-03
  0.26070368E-03 -0.19488083E-02 -0.11050330E-02
 -0.88024182E-03 -0.32093727E-02  0.95060616E-03
 -0.18557880E-02  0.17477799E-02  0.79911254E-03
  0.14731569E-03 -0.14050480E-02 -0.13255418E-02
  0.24196269E-02  0.55488781E-03  0.11265660E-02
 -0.14702444E-02 -0.10381813E-02  0.12532256E-02
 -0.17294634E-03 -0.57204226E-03 -0.78622276E-03
 -0.64350089E-03 -0.80929143E-03  0.16402938E-02
 -0.32551338E-03 -0.70227583E-03 -0.31764488E-02
  0.13138154E-02  0.17443089E-02  0.20288326E-03
  0.16422433E-02 -0.27419552E-02 -0.52526738E-03
  0.50662729E-03 -0.61253509E-03  0.10275769E-02
  0.11116529E-02  0.97445222E-03 -0.20462299E-02
 -0.11204342E-02 -0.21896111E-03  0.64134638E-03
  0.32848334E-03 -0.22594908E-02  0.28789885E-03
  0.11472450E-02  0.44785192E-04 -0.33792626E-03
  0.10106953E-03 -0.17779215E-03  0.10209995E-02
 -0.26552038E-02  0.93765470E-03 -0.30787048E-02
  0.86192470E-03 -0.19933265E-02  0.52603534E-03
 -0.91855343E-03  0.54757778E-03 -0.30861661E-02
  0.30337438E-02  0.12018510E-02  0.13989111E-02
  0.23487214E-02 -0.12257616E-02  0.27916304E-02
  0.84023457E-04 -0.20714533E-02  0.88799476E-03
  0.17595862E-02 -0.41040372E-03 -0.14690116E-02
  0.34379127E-03  0.91207898E-03  0.42933476E-03
  0.67633771E-03 -0.28268417E-02 -0.12452705E-02
 -0.25697301E-03 -0.24031336E-03  0.12666532E-02
  0.94571996E-03 -0.10947830E-02 -0.74290210E-03
 -0.88142612E-03 -0.61908554E-03 -0.89227392E-03
 -0.13086516E-02  0.23446395E-02 -0.12322989E-02
  0.45729757E-03  0.60182326E-03 -0.23033517E-03
 -0.11281654E-02 -0.10976710E-02  0.49036832E-03
  0.16348175E-02  0.25587859E-02 -0.86079536E-03
 -0.89261485E-04  0.15340291E-02  0.59925267E-03
 -0.10321639E-02  0.15025423E-02  0.14847917E-02
  0.53596738E-03 -0.47377117E-04 -0.13114465E-02
 -0.24884738E-02  0.15595538E-02 -0.25104328E-03
  0.23315640E-02  0.14088265E-02 -0.74756343E-03
 -0.20345779E-02  0.27972315E-02 -0.19121127E-02
  0.12772554E-02 -0.20429144E-03  0.30343569E-03
  0.47696321E-04 -0.86110136E-03 -0.20337529E-02
 -0.35940082E-02  0.15546042E-03 -0.78983165E-03
  0.19157138E-02  0.18998502E-03  0.19691605E-02
 -0.11301858E-02  0.45928214E-04  0.22191910E-02
  0.11231865E-02  0.16940917E-04  0.14610977E-02
 -0.45481619E-03  0.21399525E-02  0.26428003E-02
 -0.31647184E-02  0.21677338E-02 -0.31181375E-03
  0.12143067E-03  0.16794113E-02 -0.79347031E-04
 -0.14092438E-02 -0.10737598E-02  0.55613610E-03
  0.13696718E-02 -0.15595087E-02 -0.25242140E-03
 -0.11926396E-02 -0.30825119E-03  0.10017131E-02
 -0.20323881E-02  0.68354192E-03 -0.81864679E-03
 -0.59678188E-03  0.20415842E-02  0.41787525E-03
 -0.17318445E-02  0.17932058E-02 -0.10498666E-02
 -0.25158632E-02 -0.58564538E-03  0.14570408E-02
 -0.24873410E-03  0.82391506E-03 -0.18506843E-02
 -0.26590685E-03  0.11140083E-02 -0.10409603E-02
 -0.13821163E-02 -0.38317751E-02  0.14861471E-02
 -0.11096089E-02 -0.35268858E-03 -0.92922961E-04
 -0.11093485E-02 -0.11715320E-02 -0.24552716E-03
 -0.54071994E-04 -0.71559732E-03 -0.58067881E-03
  0.71774163E-03  0.17246862E-02  0.23636071E-02
 -0.23525244E-03  0.13546132E-02  0.13406579E-02
 -0.10740534E-03 -0.15261584E-02 -0.12666217E-02
  0.29568806E-02  0.19617054E-03  0.32110729E-02
 -0.75875473E-03 -0.12244249E-02  0.44930549E-04
 -0.10160285E-02  0.19687463E-02 -0.80185073E-03
 -0.13469024E-02  0.22478190E-02  0.11029997E-02
  0.52520540E-03 -0.14984968E-02  0.33686785E-04
  0.32273390E-03  0.13385734E-03 -0.67197195E-03
 
           1
   3.00000000000000     
  0.10000000E+01  0.00000000E+00  0.00000000E+00  0.00000000E+00
  0.57658182E+00  0.20097827E-01  0.12774695E+00
  0.84990127E+00  0.68358898E+00  0.78010159E+00
  0.11218991E-01  0.46541119E+00  0.23298473E+00
  0.20777564E+00  0.60440379E+00  0.16836920E+00
  0.78851469E+00  0.91870333E-02  0.69753976E+00
  0.92375543E+00  0.20011380E+00  0.76505181E+00
  0.30581541E+00  0.24134900E+00  0.51420846E+00
  0.26735178E+00  0.29655708E+00  0.89387096E-01
  0.22409745E+00  0.79918084E+00  0.93370530E+00
  0.61081937E+00  0.90036272E+00  0.27743125E+00
  0.12459519E+00  0.95314028E+00  0.13282316E+00
  0.14721979E+00  0.85022866E+00  0.56155889E+00
  0.50972466E-01  0.72066674E+00  0.42846332E-01
  0.58515465E+00  0.67214855E+00  0.26930411E+00
  0.40120056E+00  0.72167928E-01  0.96056038E-01
  0.92286118E+00  0.15872362E+00  0.18642341E+00
  0.11049643E+00  0.75515039E+00  0.78221112E+00
  0.31389662E+00  0.40998229E+00  0.48766288E+00
  0.72196108E+00  0.83542020E+00  0.57497706E+00
  0.51780901E+00  0.79811144E+00  0.14977068E+00
  0.43141813E+00  0.27854240E+00  0.56934234E+00
  0.77731187E+00  0.28955593E+00  0.12709038E+00
  0.12293861E+00  0.76657250E-01  0.93017324E+00
  0.15190665E+00  0.80320787E-01  0.58710653E+00
  0.62264432E+00  0.32768866E+00  0.86768750E+00
  0.39107777E+00  0.58174445E+00  0.54653486E+00
  0.75192518E+00  0.64558960E-01  0.69192945E-01
  0.68164274E+00  0.56832096E+00  0.16416941E+00
  0.49429815E+00  0.84016696E+00  0.52630923E+00
  0.24594535E+00  0.88842035E-01  0.97443625E+00
  0.47304842E+00  0.12033141E+00  0.47315931E+00
  0.67953483E+00  0.17806688E+00  0.13080737E-01
  0.38810564E+00  0.52606124E+00  0.74745935E+00
  0.63581441E+00  0.88958335E+00  0.79551981E+00
  0.41324642E+00  0.95034849E+00  0.72442421E+00
  0.93749575E+00  0.38117893E+00  0.44380367E+00
  0.85981258E+00  0.64406651E+00  0.20455715E+00
  0.77882109E+00  0.42947516E+00  0.71423650E+00
  0.91430161E+00  0.49473238E+00  0.60587405E+00
  0.43731766E+00  0.83841356E+00  0.89605098E+00
  0.80047772E+00  0.74471728E-01  0.57555691E+00
  0.71802240E+00  0.90164857E+00  0.28892561E-01
  0.81782858E-01  0.21658272E-01  0.70381752E+00
  0.47967834E+00  0.19423410E+00  0.10884098E+00
  0.36063994E+00  0.28397067E-01  0.93616721E+00
  0.64191553E+00  0.31727112E+00  0.40544900E-01
  0.41260206E-01  0.60887249E+00  0.95197320E+00
  0.80735923E+00  0.68463218E+00  0.11353359E-01
  0.90850179E+00  0.15603006E+00  0.53282249E+00
  0.66448629E+00  0.98622402E+00  0.42006523E+00
  0.72147489E+00  0.72313120E+00  0.90244474E+00
  0.63161310E-01  0.25196589E+00  0.79098482E+00
  0.20044707E+00  0.32644086E+00  0.46443322E+00
  0.54552812E+00  0.30962883E+00  0.46985831E+00
  0.15506877E+00  0.27523521E+00  0.66615795E+00
  0.60581647E+00  0.67690609E+00  0.42265717E+00
  0.22066790E+00  0.44558121E+00  0.64737860E+00
  0.11689313E+00  0.83431373E+00  0.38833350E+00
  0.20733322E+00  0.90500013E+00  0.81101559E+00
  0.54537835E+00  0.84182276E+00  0.67434712E+00
  0.38958534E+00  0.30534700E+00  0.76065316E+00
  0.45041029E+00  0.92947479E+00  0.26444778E+00
  0.65564348E+00  0.24003842E-01  0.74613614E+00
  0.61426527E+00  0.82009582E+00  0.96038199E+00
  0.89880989E+00  0.76021174E+00  0.12058021E+00
  0.59831599E+00  0.29249130E+00  0.71886400E+00
  0.82495422E+00  0.28089298E+00  0.84154050E+00
  0.71688307E-01  0.46727944E+00  0.46336297E+00
  0.62059600E+00  0.53569635E+00  0.75496669E+00
  0.82626117E-01  0.59317279E+00  0.81025755E+00
  0.55955895E-01  0.32231369E+00  0.12571485E+00
  0.69849409E+00  0.50538685E+00  0.40901414E+00
  0.53459271E-01  0.29578835E+00  0.55433160E+00
  0.33551805E+00  0.96274404E+00  0.46045239E+00
  0.43958484E+00  0.41670362E+00  0.11368598E-01
  0.50210478E+00  0.17031653E+00  0.63542948E+00
  0.60153873E+00  0.69071171E+00  0.45343238E-01
  0.68618565E-01  0.95892361E+00  0.86878766E+00
  0.81679670E+00  0.78798273E+00  0.35664351E+00
  0.41229263E+00  0.41225418E+00  0.60304862E+00
  0.40691501E+00  0.23622582E+00  0.29843730E+00
  0.97059830E+00  0.96576928E+00  0.46175653E+00
  0.48892562E+00  0.69582689E+00  0.82532012E+00
  0.57335953E+00  0.39801756E+00  0.23121042E+00
  0.27085902E+00  0.30205247E+00  0.86195692E+00
  0.43440499E+00  0.60043349E+00  0.19655093E+00
  0.70794537E+00  0.26981556E+00  0.52013454E+00
  0.24565121E+00  0.69305346E+00  0.83322249E+00
  0.21407637E+00  0.38108987E+00  0.28684978E+00
  0.66288569E+00  0.59088046E+00  0.54194977E+00
  0.96154480E+00  0.78933078E+00  0.64271268E+00
  0.85464549E+00  0.59652534E+00  0.41823800E+00
  0.89821155E+00  0.43165549E+00  0.95585441E+00
  0.10875706E+00  0.18066191E+00  0.31297979E+00
  0.86071827E+00  0.51268656E+00  0.14645735E+00
  0.84130052E+00  0.97445243E+00  0.87695329E+00
  0.34696244E+00  0.47614111E+00  0.25341348E+00
  0.75877502E-01  0.43193486E+00  0.82656168E+00
  0.20908667E+00  0.70869439E+00  0.54002593E-01
  0.11748073E+00  0.76702592E+00  0.24469151E+00
  0.26997882E+00  0.16932656E+00  0.63355784E+00
  0.18672046E+00  0.40807633E+00  0.14086415E+00
  0.94133753E-01  0.85281713E+00  0.97623508E+00
  0.54927560E+00  0.10675143E+00  0.90905731E-02
  0.75154476E+00  0.58550380E+00  0.70797053E+00
  0.81163621E+00  0.96464087E+00  0.47997363E+00
  0.84432500E+00  0.84660635E+00  0.95646351E+00
  0.36096239E+00  0.86170275E+00  0.58553933E+00
  0.88197971E+00  0.28160017E+00  0.99582086E+00
  0.65407271E+00  0.73676273E+00  0.64678133E+00
  0.29531190E+00  0.97199215E+00  0.27692847E+00
  0.36186672E+00  0.80433149E+00  0.77573252E+00
  0.97472703E+00  0.99013131E+00  0.28943335E+00
  0.39853413E+00  0.53470812E-01  0.60518930E+00
  0.20860714E+00  0.95018089E+00  0.66205554E+00
  0.99939786E+00  0.58879608E+00  0.12369037E+00
  0.55314532E+00  0.54864400E+00  0.35182474E+00
  0.81820642E-01  0.15881930E+00  0.47880999E+00
  0.24533835E+00  0.73654890E-01  0.11674084E+00
  0.12761023E+00  0.74234622E-02  0.28595802E+00
  0.55752929E+00  0.49547763E+00  0.11038564E+00
  0.64201406E-01  0.32052455E+00  0.33381869E+00
  0.27058422E+00  0.74264187E+00  0.50802843E+00
  0.67948728E+00  0.34837770E+00  0.37460438E+00
  0.32057578E+00  0.53674908E+00  0.10529664E+00
  0.12386909E+00  0.29094144E+00  0.97994428E+00
  0.45523405E+00  0.70520031E+00  0.46404316E+00
  0.81993320E+00  0.86567555E+00  0.21240155E+00
  0.11381383E+00  0.72625114E+00  0.63687173E+00
  0.96954362E+00  0.81175282E+00  0.43817577E+00
  0.49298957E+00  0.27970728E+00  0.99196509E+00
  0.88476775E+00  0.60995119E+00  0.90954910E+00
  0.45927256E+00  0.92295347E+00  0.96835318E-01
  0.92371726E+00  0.40577565E+00  0.80248849E+00
  0.98794313E+00  0.58634995E+00  0.49933538E+00
  0.20459176E+00  0.58371628E+00  0.94817502E+00
  0.50379015E+00  0.61931464E+00  0.68435443E+00
  0.69981475E+00  0.19536067E+00  0.86526630E+00
  0.70273660E+00  0.12128354E-01  0.27163491E+00
  0.27316792E+00  0.59357457E+00  0.67677959E+00
  0.48170396E+00  0.81604753E-01  0.22714153E+00
  0.97504599E+00  0.80661303E+00  0.79257702E+00
  0.88261639E+00  0.71374704E-01  0.99417975E+00
  0.81480150E+00  0.42340013E+00  0.52456433E+00
  0.80886325E-02  0.85593624E+00  0.19592942E+00
  0.26352800E+00  0.22872022E+00  0.23969396E+00
  0.40983034E+00  0.37241404E+00  0.37157648E+00
  0.19930393E-01  0.17372314E+00  0.95926448E+00
  0.46297278E+00  0.76024476E+00  0.28588563E+00
  0.44610553E+00  0.70599528E+00  0.65198490E-01
  0.84810650E+00  0.23189854E+00  0.43101933E+00
  0.74883838E+00  0.54905487E+00  0.39201329E-01
  0.92628697E+00  0.60798077E-01  0.73245314E+00
  0.95048243E+00  0.67033352E+00  0.31702285E+00