GeSe                                    
   1.00000000000000     
    20.1278870000000012    0.0000000000000000    0.0000000000000000
     0.0000000000000000   20.1278870000000012    0.0000000000000000
     0.0000000000000000    0.0000000000000000   20.1278870000000012
   Ge   Se
   150   150
Direct
  0.1107470494504083  0.5790424759248158  0.8235179656366528
  0.7480200966220353  0.0996283495252231  0.6955832578773115
  0.3638376420526318  0.2362104899927291  0.8930292490703600
  0.6294636723530976  0.4587231118661754  0.6527037565773375
  0.2154202512564642  0.5405253390147191  0.1242976870680811
  0.2988241143312661  0.2060372053513087  0.0057711947781681
  0.1535506461242549  0.6058681520954750  0.3093372738948186
  0.2240998442027826  0.8142729901304078  0.2176800714813119
  0.7357025841659518  0.0142425463379689  0.8484784254429119
  0.7991001329820140  0.5033323229952470  0.3496034808386666
  0.2552823604997003  0.0241164395476347  0.2736815556843117
  0.8972918081093190  0.5968295319147656  0.4762911257325660
  0.4276274709982481  0.0383464717509775  0.8986238840439321
  0.6715073517031978  0.7814039730791738  0.4969812750709941
  0.1504975500926984  0.2007054354623345  0.8668179826918703
  0.1677266588962510  0.2519512772779869  0.2448550988421105
  0.4978905389684041  0.4827744615853327  0.1156228931622688
  0.9771203204843389  0.1693748489617343  0.2983685933989219
  0.4092747488066338  0.3733826294843643  0.2504508278934988
  0.9075099313365979  0.7880411407980452  0.6754201774617008
  0.7799401456416588  0.9259419768880699  0.5566240907918655
  0.8851747439695443  0.2270666614483613  0.9042984906518003
  0.5548372676131486  0.9135566082356217  0.9496953564261799
  0.8424601891689911  0.6273001729097156  0.2457454679878031
  0.8425716172102634  0.4011750309894593  0.7544528668084604
  0.4718754843683123  0.6234242797146687  0.7216274976825482
  0.8634828466753232  0.0118897687522262  0.9762006307857258
  0.1107283320150085  0.7064225966347314  0.5893761429763491
  0.6565172265078461  0.2436290163602101  0.5786779354385840
  0.6101548611904147  0.1749345718150007  0.4001058214368688
  0.4522297669664435  0.9253418402693455  0.5940748845169626
  0.1777060676604122  0.2890109576670819  0.7726395199809351
  0.7401777632435783  0.3950352365594263  0.1926232953654712
  0.6176370880903634  0.8396723520696732  0.1871911959175916
  0.0337175057809017  0.2488019014904429  0.3836369907947346
  0.6732458757697349  0.9349289385739510  0.0155085207390256
  0.3430988138842752  0.1143284523539583  0.3492876291146039
  0.1137297308312949  0.6020681405855118  0.4769907235008299
  0.6570675389657333  0.4089290608894166  0.4042820457255354
  0.3816547484116171  0.1382567004314869  0.2256592383531661
  0.4022451811287098  0.1042453289477725  0.7624892922963171
  0.2571468080174052  0.0296720930621665  0.8754447326579455
  0.0084892400694852  0.4009930741713242  0.3307801269178175
  0.9842494776598729  0.5363436162723670  0.5636361583338266
  0.6205000076609704  0.3246353915247150  0.2366597555365320
  0.1465657559504766  0.0257328912784871  0.0732816441907498
  0.3845180856494061  0.0646211347317839  0.1157848752467654
  0.2191381222024334  0.4001412127548017  0.8322705493719010
  0.0279818663878024  0.9319401367694311  0.5036117103116537
  0.8681131701989675  0.4204496707877741  0.1983708819862127
  0.0292317805824112  0.0812898039490684  0.0801213492405676
  0.2249669579731483  0.1983216518058013  0.4876358670768846
  0.9359848353577688  0.7446163334079409  0.8686109016990257
  0.3693660695759555  0.5710555564347579  0.4441009584401246
  0.1265054768449852  0.7646863557791579  0.8748624728095473
  0.3238294748617140  0.6668088717932875  0.8387027989069642
  0.5022776310080501  0.0192578524324875  0.0782511352530629
  0.8958670163839852  0.8468422111553250  0.0415745610245163
  0.8603063087416246  0.9923848211638252  0.7694621656511560
  0.5429090516241992  0.6530439772323132  0.0771654677934955
 -0.0119999136886107 -0.0080922062733944  0.0026258488167858
  0.3718204583144528  0.8890156720620873  0.9836810724396142
  0.8878827074950664  0.9229975076102610  0.4702923962717186
  0.8086755693914582  0.8435194141524083  0.2370984109932471
  0.4372737642342010  0.2687359847771991  0.0853123742191682
  0.4753697762030076  0.4685236424738781  0.3222878843326434
  0.7069087644838632  0.0348306431568133  0.0913068105639860
  0.4320591052619485  0.3677175451801006  0.7276830827132260
  0.4522973186624569 -0.0055082812166622  0.3387121209808456
  0.7678501939573040  0.5630786710581310  0.0425610800567451
  0.8845381142622495  0.9855376672780375  0.1418336520227619
  0.0774623163810617  0.4470463463020063  0.1933058057188468
  0.7250473351059227  0.3464330512625194  0.7501147274214310
  0.7200814953428426  0.6045638825041046  0.3249958738185248
  0.7717780957154545  0.7726238245426635  0.3975957214182400
  0.1315044879095041  0.2256378719740067  0.0532655434234652
  0.2321947836310341  0.0801723218976893  0.6233071224992541
  0.1607923894229418  0.5668875111327927  0.9411496083064539
  0.6983063123366479  0.1355731077997630  0.2466905103988235
  0.2563034219210720  0.4372680993878269  0.3493753112955904
  0.0019069421441919  0.1958906234599183  0.7257229787865108
  0.0183513673727971  0.3244226890380978  0.8358616378231253
  0.7047604236660597  0.1299549422781334  0.9244337306745375
  0.6894612790933260  0.2466828852811650  0.8198011769612833
  0.2789477906600766  0.8416155914718507  0.8040847799802163
  0.2202166005355017  0.1303997000820265  0.0734491536318161
  0.8959205763285049  0.4266317635343934  0.9775492504977134
  0.4650307229204090  0.0903652608075481  0.4942882863913389
  0.6850103486590158  0.6258092170742332  0.7314210188157451
  0.4065340704086583  0.6200461178617626  0.2165895081251946
  0.8557873190921621  0.6438834266906374  0.9991783771811632
  0.6006860918264731  0.9871544038690330  0.5680930227043098
  0.3598977501287389  0.3686561513047229  0.0383538514756613
  0.4320254386933737  0.5138585630884250  0.5945024855916532
  0.3178257120118350  0.5738974497721449  0.7277412163411106
  0.5093995458446547  0.1734246595026545  0.8476003036661840
  0.8595304636581713  0.0404365779490504  0.3204950168779094
  0.3251687873131749  0.0110619304166531  0.4416795850795397
  0.6778330886300881  0.4979963329349936  0.8855436845678751
  0.0749999906574745  0.4477410401157446  0.9496029813891321
 -0.0221317789414014  0.9506782732081172  0.7327687856220054
 -0.0312681239223246  0.8374063312976072  0.3717934124533329
  0.3303172613550155  0.7401629172810515  0.0981041908410261
 -0.0215437914758953  0.6498844488932776  0.0415877576537852
  0.4558298664826555  0.5937531010932808  0.9941002875283828
  0.4329222311499084  0.2537885198545485  0.2101734090256246
  0.9695500179647757  0.6517672998215401  0.3473408561123054
  0.2938629258313477  0.7212922048663234  0.9630092905723383
  0.2618652893470922  0.8000603544431699  0.6500957314423054
  0.8791761004278545  0.5706340550269920  0.6922969638809853
  0.3305258493994539  0.8669167790948462  0.3145737568445513
  0.4627309069970108  0.2643333839969362  0.4774914226271398
  0.1581690394863395  0.1048944205984811  0.3672277719082800
  0.4646408638033445  0.7651093060397491  0.8927776181591001
  0.0288575981341350 -0.0003581839686337  0.8795359658811797
  0.6353467965476227  0.4694786585741895  0.0728443430289685
  0.0724699804168505  0.0148193897267397  0.6692677646668185
  0.3534672944718605  0.3765275113261817  0.5521499645270125
  0.5112041443597498  0.7073528005363997  0.5232997997541506
  0.5434569359843264  0.8843848648254919  0.4319860383615248
  0.2012417881159885  0.8905027494892491  0.0769854834969154
  0.0298297631106024  0.7986369432642573  0.1831693242150200
  0.9278015137056502  0.6673878870622296  0.1598465201466165
  0.3310344276921858  0.7972839463836409  0.4867369664234363
  0.6713594664701452  0.8410925585059571  0.8428406415448715
  0.8773145092322960  0.2209386264601007  0.0811233650280713
  0.3199699624204592  0.5079942523922901  0.9781030415660028
  0.7553203135745966  0.1322130702094591  0.4832174450841760
  0.1561891922416900  0.1964026202351222  0.6262158321900841
  0.5236026409110301  0.1873841716004348  0.6443006121941307
  0.4898544464306903  0.9848380367843460  0.7553155873550036
  0.6929956471121415  0.7394010415051689  0.0693791190118271
  0.0424223734695725  0.9710529804373450  0.2550112487399628
  0.6643038359153328  0.6909844389184239  0.9029734524669691
  0.5872142603925115  0.5782297139472120  0.4785203281456201
  0.6264646591691997  0.3266699466431982  0.9050659775394939
  0.5027408156666862  0.7696896342494561  0.7026272102402655
  0.3189362886998355  0.7248610107017843  0.3252226130053805
  0.1155391076915138  0.4730763539720041  0.6771115720253916
  0.5673203723459253  0.2049783045374501  0.1113443495852367
 -0.0279681800149890  0.3120572514871938  0.1283340699566705
  0.6985570911448199  0.2534540059523423 -0.0126608358305721
  0.6609170661538759  0.6699695175463797  0.1814016643005426
  0.3160380181053870  0.3495609374587477  0.6706630368753480
  0.9328250856867559  0.5358625190540768  0.8367389794712483
  0.6558212501538672  0.6391943800430527  0.6056438897032642
  0.1546127317828261  0.8763065887926625  0.5431822691395791
  0.7920082388230305  0.2762961096094489  0.1693897902936775
  0.8297157225344221  0.2687947259513040  0.3915114694933197
  0.7886328316861949  0.4892813778978399  0.5785628617769329
  0.9017580510359950  0.2939067609956212  0.7949150291472531
  0.0370700901016738  0.0415960454880621  0.5576871022069009
  0.0664599201842034  0.4639537533606872  0.8178701527387375
  0.3131936650001760  0.4888421017889852  0.5325932346390131
  0.7987825019548686  0.8014806779485700  0.5969321824369300
  0.1636029171163721  0.0941531692003840  0.9301743679330192
  0.7387399267504371  0.5145516240999223  0.7078067250047076
  0.7914820436387332  0.1052402676009224  0.0231713244446930
  0.8620701297458544  0.7949355762444887  0.4924573653855843
  0.3852466969022176  0.4366889114013677  0.1436587048771980
  0.8257033695103289  0.6119946323458045  0.5816797576063938
  0.7605237670832393  0.0292094706128115  0.1993526873281211
  0.5508344172834323  0.2160624105606181  0.2343038480768254
  0.9770524871244477  0.5293515713605547  0.9572071888956982
  0.8041316112423533  0.9527560800447251  0.3897931949976859
  0.8627331054456810  0.6371839223170341  0.8774984959889179
  0.2800743626326597  0.8898125735714008  0.5551632779857656
  0.2996004775904842  0.1391549981071283  0.8273682130788328
  0.6317877305640255  0.9573448283148034  0.8189444043846612
  0.0826359976258243  0.2934243883865656  0.6943032847582394
  0.3535341587568866  0.3182087286339437  0.4499231816353642
  0.0691614937329241  0.8517921191271485  0.2908131007094361
  0.5865466626785815  0.7509941611595571  0.0027836662258553
  0.7048565733490593  0.7610961456856474  0.2558328570644646
  0.5223853736797788  0.2693242377696282  0.9223289140822366
  0.9270125749475481  0.4631393362415029  0.6457468308132455
  0.7083316420927711 -0.0134804626090267  0.6372988140609701
  0.5639641513819132  0.3719220887853786  0.1304330203359772
  0.6614345390472210  0.5934342355334784 -0.0045808138675935
  0.9926652408519503  0.3435956017953906  0.9596592229742529
  0.3306955162818507  0.0113201479953282 -0.0154096801103339
  0.9337930585037258  0.3251376119853794  0.2500578777642949
  0.9150622280474783  0.9430775470106233  0.2568657409434769
  0.3741842449465454  0.6367321358063494  0.6348830003926982
  0.3136866437592264  0.8587760055714621  0.1344525058614321
  0.4505760933125006  0.6391305411934564  0.8808825150650684
  0.2599508840584876  0.2392035834630215  0.6936636222834179
  0.1737265940196229  0.6878856649212139  0.9732750132495884
  0.4464952157033941  0.2227628135426138  0.7422846405853607
  0.2456441344622616  0.9332924707557099  0.3766032791162647
  0.2431002246665812  0.4423192094688281  0.7099632679712035
  0.5905817773526882  0.1125616037258299  0.5118077433159505
 -0.0046202502235675  0.9130000111681802  0.0942528428362450
  0.2542341918651527  0.2005401980477663  0.3647719906925711
  0.6625432665542687  0.4897884791927008  0.5334848233653904
  0.0233264324135882  0.8861001379436811  0.8250732075928999
  0.2604141056716667  0.1387216902118562  0.1942648109094236
  0.2622633088444970  0.8423433078507757  0.9320359180809611
  0.8563982626241783  0.4788710426917360  0.4541589425320400
  0.0291673251431961  0.6781621900648979  0.2297311984357396
  0.3519393746955250  0.5180050650911169  0.3299371246039094
  0.4265388221462767  0.7992376442043491  0.5699364018206678
  0.5311956248831704  0.0611750468034954  0.6629458632899208
  0.4147914867919855  0.1558815944393176  0.0331408885840381
  0.5381436291849535  0.8907111753108807  0.6803264862638267
  0.3007187993357746  0.2807045709066656  0.1045557830007972
  0.7043235683418044  0.2499924596938997  0.4549260039145638
  0.7156179625949968  0.8585600409166687  0.1044547633861634
  0.8691340634834447  0.0792005026279504  0.6866142146069066
  0.5962239565758437  0.0780293498175103  0.1343060073218729
  0.7520050061885130  0.5821301180893604  0.1645014164449666
  0.9577021812408536  0.8910460246189008  0.6289342954893795
  0.7634699473152605  0.6518628861233567  0.4304198549330872
  0.9636401733052385  0.0780894583787670  0.3945884363386956
  0.5895685515131148  0.4375310657836398  0.9589154758962067
  0.9113820795407974  0.0560095189724903  0.8695833319524381
  0.4822839075796579  0.5081608734183038  0.4708370678126937
  0.8679447333393056  0.7760545498993898  0.1428976958175123
  0.9526086985885863  0.4348189022231257  0.1108445099393482
  0.5210321021359317  0.9012891733179567  0.0754804765696086
  0.4668484723675387  0.3762722840101598  0.6024308733369367
  0.2550813306109651  0.7107337034816621  0.5553409545798267
 -0.0037724120543735  0.6218692044425805  0.6564136543691113
  0.6360852192543449  0.9410336169839555  0.2562041225996574
  0.8731093262194071  0.7692343635986757  0.3177500378008733
  0.6945808310312167  0.2183705433989577  0.1091093104448398
  0.0997390954418071  0.3123384802065807  0.1422099643067081
  0.3336861303373758  0.3465082853008364  0.8483709577180145
  0.1892403861299067  0.4946582617637621  0.2469155228920502
  0.2261856648271058  0.0687816145947781  0.4968856398500946
  0.0567772998584488 -0.0030366389877746  0.3809603989513755
  0.5401388997564479  0.0423608548170696  0.9620322449821413
  0.5150693448911612  0.5457035616416427  0.2226998814706329
  0.6188878237325274  0.1530479313305976  0.7913332727667679
  0.4492139091247018  0.7198378071049298  0.1354711088605527
  0.2141027044519449  0.7337584468080041  0.7882835565023770
  0.2950218530988648  0.3454121844901971  0.2749781936043628
  0.0230085858907125  0.1853798145328043  0.0199501131346028
  0.1360208818771869  0.8179278616345181  0.6524314803700367
  0.4318929706764658  0.6870301769367471  0.3208255655411558
  0.9399572882806918  0.0964754025201238  0.1615229266944799
  0.4150410176046614  0.8915273230944801  0.4084162226162690
  0.0995248700191478  0.4921437799700218  0.5464904113740352
  0.7218200891859599  0.8093361775789508  0.7316120560826389
  0.1876662616159372  0.9736052251633304  0.6661595992295513
  0.8995571178340157  0.5148187824983667  0.2742374619970431
  0.0402811706442379  0.6877049813180889  0.8208253211906583
  0.9798647742994808  0.7657412801146508  0.9895125199824889
  0.7640038929411849  0.1877736917565082  0.6086779294996930
  0.6106201683285092  0.5914933645485564  0.8239659537006581
  0.5668358736274831  0.7691345390931076  0.8150093878704129
  0.8005493765986005  0.2063618723556866  0.2704128861323194
  0.2201287867907981  0.5884697604404965  0.4140318228092727
  0.7604480472618043  0.4435593949320322  0.0413356071618304
  0.5977473415641111  0.7530762249207402  0.6053825210975863
  0.1658934839913706  0.7600032231355002  0.4842337170626114
  0.7657019656897044  0.7094751271206451  0.7803704902159627
  0.2382297719432563  0.4447227928736255  0.0373331537518234
  0.5503112310574106  0.5775383845800877  0.6349705603676457
  0.6877898891672850  0.0864826996998991  0.3606193307670124
  0.3562028236616452  0.0613753309829623  0.6421408936295677
  0.1771053477612406  0.9683542758234489  0.1820215317477067
  0.0947929922106859  0.1449100213470266  0.2605853840781637
  0.9634117660929271  0.3353936327153261  0.4309489616290146
  0.8165712706879075  0.2957397533919611 -0.0101749454616537
  0.1069286080173572  0.1205388637417341  0.7205589742020507
  0.5698020031041157  0.7634770957028302  0.4210935752828712
  0.3723929276312880  0.9542339595364178  0.6968209317168547
  0.5622532972212860  0.3552285481150974  0.3398005959379500
  0.7100077577922906  0.3536374239537190  0.6295535541043500
  0.1458331485649156  0.7852542155329991  0.1239376448586973
  0.3850860521393746  0.7707304074433734  0.7905396304930398
  0.6266557903927572  0.4018640259293350  0.7991365385495717
  0.0264031062153525  0.1967850349063390  0.8512459153134855
  0.5340804892956316  0.8996936043533124  0.3043567048770381
  0.0938633568105589  0.5218116881281023  0.0995361582021155
  0.4198393700825925  0.1843429735881608  0.5692887219134179
  0.2646600350133282  0.5409416744169050  0.8770294124261255
  0.1003286739693965  0.1759114243567612  0.4593040156262171
  0.0526617079415019  0.5567281762295323  0.3740228222657854
  0.6231807312543128  0.5300666691000088  0.3659137435801426
  0.1689602840138452  0.2868887994233866  0.9534712732258578
  0.2745423662736337  0.6955119682423901  0.2077324413433249
  0.1152687399563063  0.3277856358391320  0.3371591701108297
  0.7779081331592812  0.9298257523585440  0.9385281030569725
  0.6766602570008154  0.9057442486883258  0.4846921028410724
  0.3433033211562455  0.6038238738254017  0.0455301722332845
  0.4513319560972938  0.1666764563676880  0.3908555546686137
  0.0211956479058198  0.7370503403877694  0.4212701327351495
  0.4215144125548826  0.5055918124109590  0.7494352511837125
  0.7585080560165668  0.3899158935380455  0.3215449054754315
  0.8346483089270111  0.4592988323522255  0.8631955324608521
  0.8722329169343089  0.1683981031402119  0.4511462828851595
  0.4371389606607579  0.9136342561477200  0.8766328241436294
  0.3711393213035694  0.9675883972754044  0.2440555542032191
  0.4337900543973899  0.4760778713720464  0.9571430330330220
  0.1553016201002014  0.5885220173106915  0.7112792269406383
  0.7800969656959215  0.7402778558965593  0.9815826443150371
  0.9726549366178453  0.7183323547307606  0.5883946479902874
  0.7875868364008555  0.1734546779603158  0.8396718248474575
 
  0.00000000E+00  0.00000000E+00  0.00000000E+00
  0.00000000E+00  0.00000000E+00  0.00000000E+00
  0.00000000E+00  0.00000000E+00  0.00000000E+00
  0.00000000E+00  0.00000000E+00  0.00000000E+00
  0.00000000E+00  0.00000000E+00  0.00000000E+00
  0.00000000E+00  0.00000000E+00  0.00000000E+00
  0.00000000E+00  0.00000000E+00  0.00000000E+00
  0.00000000E+00  0.00000000E+00  0.00000000E+00
  0.00000000E+00  0.00000000E+00  0.00000000E+00
  0.00000000E+00  0.00000000E+00  0.00000000E+00
  0.00000000E+00  0.00000000E+00  0.00000000E+00
  0.00000000E+00  0.00000000E+00  0.00000000E+00
  0.00000000E+00  0.00000000E+00  0.00000000E+00
  0.00000000E+00  0.00000000E+00  0.00000000E+00
  0.00000000E+00  0.00000000E+00  0.00000000E+00
  0.00000000E+00  0.00000000E+00  0.00000000E+00
  0.00000000E+00  0.00000000E+00  0.00000000E+00
  0.00000000E+00  0.00000000E+00  0.00000000E+00
  0.00000000E+00  0.00000000E+00  0.00000000E+00
  0.00000000E+00  0.00000000E+00  0.00000000E+00
  0.00000000E+00  0.00000000E+00  0.00000000E+00
  0.00000000E+00  0.00000000E+00  0.00000000E+00
  0.00000000E+00  0.00000000E+00  0.00000000E+00
  0.00000000E+00  0.00000000E+00  0.00000000E+00
  0.00000000E+00  0.00000000E+00  0.00000000E+00
  0.00000000E+00  0.00000000E+00  0.00000000E+00
  0.00000000E+00  0.00000000E+00  0.00000000E+00
  0.00000000E+00  0.00000000E+00  0.00000000E+00
  0.00000000E+00  0.00000000E+00  0.00000000E+00
  0.00000000E+00  0.00000000E+00  0.00000000E+00
  0.00000000E+00  0.00000000E+00  0.00000000E+00
  0.00000000E+00  0.00000000E+00  0.00000000E+00
  0.00000000E+00  0.00000000E+00  0.00000000E+00
  0.00000000E+00  0.00000000E+00  0.00000000E+00
  0.00000000E+00  0.00000000E+00  0.00000000E+00
  0.00000000E+00  0.00000000E+00  0.00000000E+00
  0.00000000E+00  0.00000000E+00  0.00000000E+00
  0.00000000E+00  0.00000000E+00  0.00000000E+00
  0.00000000E+00  0.00000000E+00  0.00000000E+00
  0.00000000E+00  0.00000000E+00  0.00000000E+00
  0.00000000E+00  0.00000000E+00  0.00000000E+00
  0.00000000E+00  0.00000000E+00  0.00000000E+00
  0.00000000E+00  0.00000000E+00  0.00000000E+00
  0.00000000E+00  0.00000000E+00  0.00000000E+00
  0.00000000E+00  0.00000000E+00  0.00000000E+00
  0.00000000E+00  0.00000000E+00  0.00000000E+00
  0.00000000E+00  0.00000000E+00  0.00000000E+00
  0.00000000E+00  0.00000000E+00  0.00000000E+00
  0.00000000E+00  0.00000000E+00  0.00000000E+00
  0.00000000E+00  0.00000000E+00  0.00000000E+00
  0.00000000E+00  0.00000000E+00  0.00000000E+00
  0.00000000E+00  0.00000000E+00  0.00000000E+00
  0.00000000E+00  0.00000000E+00  0.00000000E+00
  0.00000000E+00  0.00000000E+00  0.00000000E+00
  0.00000000E+00  0.00000000E+00  0.00000000E+00
  0.00000000E+00  0.00000000E+00  0.00000000E+00
  0.00000000E+00  0.00000000E+00  0.00000000E+00
  0.00000000E+00  0.00000000E+00  0.00000000E+00
  0.00000000E+00  0.00000000E+00  0.00000000E+00
  0.00000000E+00  0.00000000E+00  0.00000000E+00
  0.00000000E+00  0.00000000E+00  0.00000000E+00
  0.00000000E+00  0.00000000E+00  0.00000000E+00
  0.00000000E+00  0.00000000E+00  0.00000000E+00
  0.00000000E+00  0.00000000E+00  0.00000000E+00
  0.00000000E+00  0.00000000E+00  0.00000000E+00
  0.00000000E+00  0.00000000E+00  0.00000000E+00
  0.00000000E+00  0.00000000E+00  0.00000000E+00
  0.00000000E+00  0.00000000E+00  0.00000000E+00
  0.00000000E+00  0.00000000E+00  0.00000000E+00
  0.00000000E+00  0.00000000E+00  0.00000000E+00
  0.00000000E+00  0.00000000E+00  0.00000000E+00
  0.00000000E+00  0.00000000E+00  0.00000000E+00
  0.00000000E+00  0.00000000E+00  0.00000000E+00
  0.00000000E+00  0.00000000E+00  0.00000000E+00
  0.00000000E+00  0.00000000E+00  0.00000000E+00
  0.00000000E+00  0.00000000E+00  0.00000000E+00
  0.00000000E+00  0.00000000E+00  0.00000000E+00
  0.00000000E+00  0.00000000E+00  0.00000000E+00
  0.00000000E+00  0.00000000E+00  0.00000000E+00
  0.00000000E+00  0.00000000E+00  0.00000000E+00
  0.00000000E+00  0.00000000E+00  0.00000000E+00
  0.00000000E+00  0.00000000E+00  0.00000000E+00
  0.00000000E+00  0.00000000E+00  0.00000000E+00
  0.00000000E+00  0.00000000E+00  0.00000000E+00
  0.00000000E+00  0.00000000E+00  0.00000000E+00
  0.00000000E+00  0.00000000E+00  0.00000000E+00
  0.00000000E+00  0.00000000E+00  0.00000000E+00
  0.00000000E+00  0.00000000E+00  0.00000000E+00
  0.00000000E+00  0.00000000E+00  0.00000000E+00
  0.00000000E+00  0.00000000E+00  0.00000000E+00
  0.00000000E+00  0.00000000E+00  0.00000000E+00
  0.00000000E+00  0.00000000E+00  0.00000000E+00
  0.00000000E+00  0.00000000E+00  0.00000000E+00
  0.00000000E+00  0.00000000E+00  0.00000000E+00
  0.00000000E+00  0.00000000E+00  0.00000000E+00
  0.00000000E+00  0.00000000E+00  0.00000000E+00
  0.00000000E+00  0.00000000E+00  0.00000000E+00
  0.00000000E+00  0.00000000E+00  0.00000000E+00
  0.00000000E+00  0.00000000E+00  0.00000000E+00
  0.00000000E+00  0.00000000E+00  0.00000000E+00
  0.00000000E+00  0.00000000E+00  0.00000000E+00
  0.00000000E+00  0.00000000E+00  0.00000000E+00
  0.00000000E+00  0.00000000E+00  0.00000000E+00
  0.00000000E+00  0.00000000E+00  0.00000000E+00
  0.00000000E+00  0.00000000E+00  0.00000000E+00
  0.00000000E+00  0.00000000E+00  0.00000000E+00
  0.00000000E+00  0.00000000E+00  0.00000000E+00
  0.00000000E+00  0.00000000E+00  0.00000000E+00
  0.00000000E+00  0.00000000E+00  0.00000000E+00
  0.00000000E+00  0.00000000E+00  0.00000000E+00
  0.00000000E+00  0.00000000E+00  0.00000000E+00
  0.00000000E+00  0.00000000E+00  0.00000000E+00
  0.00000000E+00  0.00000000E+00  0.00000000E+00
  0.00000000E+00  0.00000000E+00  0.00000000E+00
  0.00000000E+00  0.00000000E+00  0.00000000E+00
  0.00000000E+00  0.00000000E+00  0.00000000E+00
  0.00000000E+00  0.00000000E+00  0.00000000E+00
  0.00000000E+00  0.00000000E+00  0.00000000E+00
  0.00000000E+00  0.00000000E+00  0.00000000E+00
  0.00000000E+00  0.00000000E+00  0.00000000E+00
  0.00000000E+00  0.00000000E+00  0.00000000E+00
  0.00000000E+00  0.00000000E+00  0.00000000E+00
  0.00000000E+00  0.00000000E+00  0.00000000E+00
  0.00000000E+00  0.00000000E+00  0.00000000E+00
  0.00000000E+00  0.00000000E+00  0.00000000E+00
  0.00000000E+00  0.00000000E+00  0.00000000E+00
  0.00000000E+00  0.00000000E+00  0.00000000E+00
  0.00000000E+00  0.00000000E+00  0.00000000E+00
  0.00000000E+00  0.00000000E+00  0.00000000E+00
  0.00000000E+00  0.00000000E+00  0.00000000E+00
  0.00000000E+00  0.00000000E+00  0.00000000E+00
  0.00000000E+00  0.00000000E+00  0.00000000E+00
  0.00000000E+00  0.00000000E+00  0.00000000E+00
  0.00000000E+00  0.00000000E+00  0.00000000E+00
  0.00000000E+00  0.00000000E+00  0.00000000E+00
  0.00000000E+00  0.00000000E+00  0.00000000E+00
  0.00000000E+00  0.00000000E+00  0.00000000E+00
  0.00000000E+00  0.00000000E+00  0.00000000E+00
  0.00000000E+00  0.00000000E+00  0.00000000E+00
  0.00000000E+00  0.00000000E+00  0.00000000E+00
  0.00000000E+00  0.00000000E+00  0.00000000E+00
  0.00000000E+00  0.00000000E+00  0.00000000E+00
  0.00000000E+00  0.00000000E+00  0.00000000E+00
  0.00000000E+00  0.00000000E+00  0.00000000E+00
  0.00000000E+00  0.00000000E+00  0.00000000E+00
  0.00000000E+00  0.00000000E+00  0.00000000E+00
  0.00000000E+00  0.00000000E+00  0.00000000E+00
  0.00000000E+00  0.00000000E+00  0.00000000E+00
  0.00000000E+00  0.00000000E+00  0.00000000E+00
  0.00000000E+00  0.00000000E+00  0.00000000E+00
  0.00000000E+00  0.00000000E+00  0.00000000E+00
  0.00000000E+00  0.00000000E+00  0.00000000E+00
  0.00000000E+00  0.00000000E+00  0.00000000E+00
  0.00000000E+00  0.00000000E+00  0.00000000E+00
  0.00000000E+00  0.00000000E+00  0.00000000E+00
  0.00000000E+00  0.00000000E+00  0.00000000E+00
  0.00000000E+00  0.00000000E+00  0.00000000E+00
  0.00000000E+00  0.00000000E+00  0.00000000E+00
  0.00000000E+00  0.00000000E+00  0.00000000E+00
  0.00000000E+00  0.00000000E+00  0.00000000E+00
  0.00000000E+00  0.00000000E+00  0.00000000E+00
  0.00000000E+00  0.00000000E+00  0.00000000E+00
  0.00000000E+00  0.00000000E+00  0.00000000E+00
  0.00000000E+00  0.00000000E+00  0.00000000E+00
  0.00000000E+00  0.00000000E+00  0.00000000E+00
  0.00000000E+00  0.00000000E+00  0.00000000E+00
  0.00000000E+00  0.00000000E+00  0.00000000E+00
  0.00000000E+00  0.00000000E+00  0.00000000E+00
  0.00000000E+00  0.00000000E+00  0.00000000E+00
  0.00000000E+00  0.00000000E+00  0.00000000E+00
  0.00000000E+00  0.00000000E+00  0.00000000E+00
  0.00000000E+00  0.00000000E+00  0.00000000E+00
  0.00000000E+00  0.00000000E+00  0.00000000E+00
  0.00000000E+00  0.00000000E+00  0.00000000E+00
  0.00000000E+00  0.00000000E+00  0.00000000E+00
  0.00000000E+00  0.00000000E+00  0.00000000E+00
  0.00000000E+00  0.00000000E+00  0.00000000E+00
  0.00000000E+00  0.00000000E+00  0.00000000E+00
  0.00000000E+00  0.00000000E+00  0.00000000E+00
  0.00000000E+00  0.00000000E+00  0.00000000E+00
  0.00000000E+00  0.00000000E+00  0.00000000E+00
  0.00000000E+00  0.00000000E+00  0.00000000E+00
  0.00000000E+00  0.00000000E+00  0.00000000E+00
  0.00000000E+00  0.00000000E+00  0.00000000E+00
  0.00000000E+00  0.00000000E+00  0.00000000E+00
  0.00000000E+00  0.00000000E+00  0.00000000E+00
  0.00000000E+00  0.00000000E+00  0.00000000E+00
  0.00000000E+00  0.00000000E+00  0.00000000E+00
  0.00000000E+00  0.00000000E+00  0.00000000E+00
  0.00000000E+00  0.00000000E+00  0.00000000E+00
  0.00000000E+00  0.00000000E+00  0.00000000E+00
  0.00000000E+00  0.00000000E+00  0.00000000E+00
  0.00000000E+00  0.00000000E+00  0.00000000E+00
  0.00000000E+00  0.00000000E+00  0.00000000E+00
  0.00000000E+00  0.00000000E+00  0.00000000E+00
  0.00000000E+00  0.00000000E+00  0.00000000E+00
  0.00000000E+00  0.00000000E+00  0.00000000E+00
  0.00000000E+00  0.00000000E+00  0.00000000E+00
  0.00000000E+00  0.00000000E+00  0.00000000E+00
  0.00000000E+00  0.00000000E+00  0.00000000E+00
  0.00000000E+00  0.00000000E+00  0.00000000E+00
  0.00000000E+00  0.00000000E+00  0.00000000E+00
  0.00000000E+00  0.00000000E+00  0.00000000E+00
  0.00000000E+00  0.00000000E+00  0.00000000E+00
  0.00000000E+00  0.00000000E+00  0.00000000E+00
  0.00000000E+00  0.00000000E+00  0.00000000E+00
  0.00000000E+00  0.00000000E+00  0.00000000E+00
  0.00000000E+00  0.00000000E+00  0.00000000E+00
  0.00000000E+00  0.00000000E+00  0.00000000E+00
  0.00000000E+00  0.00000000E+00  0.00000000E+00
  0.00000000E+00  0.00000000E+00  0.00000000E+00
  0.00000000E+00  0.00000000E+00  0.00000000E+00
  0.00000000E+00  0.00000000E+00  0.00000000E+00
  0.00000000E+00  0.00000000E+00  0.00000000E+00
  0.00000000E+00  0.00000000E+00  0.00000000E+00
  0.00000000E+00  0.00000000E+00  0.00000000E+00
  0.00000000E+00  0.00000000E+00  0.00000000E+00
  0.00000000E+00  0.00000000E+00  0.00000000E+00
  0.00000000E+00  0.00000000E+00  0.00000000E+00
  0.00000000E+00  0.00000000E+00  0.00000000E+00
  0.00000000E+00  0.00000000E+00  0.00000000E+00
  0.00000000E+00  0.00000000E+00  0.00000000E+00
  0.00000000E+00  0.00000000E+00  0.00000000E+00
  0.00000000E+00  0.00000000E+00  0.00000000E+00
  0.00000000E+00  0.00000000E+00  0.00000000E+00
  0.00000000E+00  0.00000000E+00  0.00000000E+00
  0.00000000E+00  0.00000000E+00  0.00000000E+00
  0.00000000E+00  0.00000000E+00  0.00000000E+00
  0.00000000E+00  0.00000000E+00  0.00000000E+00
  0.00000000E+00  0.00000000E+00  0.00000000E+00
  0.00000000E+00  0.00000000E+00  0.00000000E+00
  0.00000000E+00  0.00000000E+00  0.00000000E+00