Amorphous Sb2Se3-C                      
   1.00000000000000     
    21.6428414153999995    0.0000000000000000    0.0000000000000000
     0.0000000000000000   21.6428414153999995    0.0000000000000000
     0.0000000000000000    0.0000000000000000   21.6428414153999995
   Sb   Se   C 
   108   162    30
Direct
  0.6730802321868123  0.8984482496964016  0.1327448524635859
  0.2538850512169369  0.4605703104832777  0.0290530182592813
  0.5911331137890691  0.2982450689563533  0.7807676613362833
  0.6041311862174039  0.3241687024178911  0.0037672947157607
  0.7946440284781290  0.7017859477640125  0.6122474414315011
  0.4493328657911380  0.3565475217685445  0.7323823314700100
  0.6790102188313616  0.9200513476636052  0.3923577427767320
  0.1934100623339081  0.1774991557990094  0.8882816496996382
  0.7819453712536070  0.3622660065270448  0.6949283038960392
  0.4479745212170687  0.7065272185065083  0.7043683071096181
  0.1896665591265564  0.7588629958789032  0.0243568429220851
  0.3345641009461913  0.5121753622577191  0.6979925603752963
  0.9884595045079173  0.3866076442768095  0.9416215706807196
  0.1530670460587877  0.3647963575210901  0.2066322084511563
  0.1247085185698977  0.7299603985798191  0.7924162505022400
  0.1403072869540472  0.2206617743913942  0.3163223830212727
  0.6191166556215139  0.9574361444778712  0.8342132606979052
  0.5177821002526285  0.0944092831500903  0.7465702227796943
  0.1784880752586846  0.9961831476880521  0.2822851441167166
  0.1488273057366924  0.9193513120366905  0.5351871456168007
  0.3008207086700476  0.4500945786235362  0.3245378132412916
  0.3673834282048715  0.2508654152585766  0.9805516438513414
  0.2896953658875357  0.2769011433106242  0.2544642868649657
  0.9806738258440444  0.9187484993773157  0.6887749711667503
  0.1277326632778164  0.4857403874416012  0.0744447123076956
  0.0359587834958274  0.9546850863547139  0.9995112448124476
  0.9011145912575131  0.4969581491709646  0.1072666122357736
  0.2892401211895014  0.3945060017328408  0.7553924602902248
  0.5977710144129054  0.4548624327151450  0.2406796240854648
  0.8618629275902897  0.4576092123325454  0.7354412453332165
  0.1080311979994349  0.2445652877370902  0.9683946611358908
  0.3995540211925627  0.1336097558958218  0.2879459650114161
  0.8647907919844692  0.8915802371867437  0.7576555070271842
  0.5263900854457491  0.5039922303773023  0.9062365027374326
  0.0635437883632435  0.6348915061063393  0.4277702068875913
  0.2337640719230885  0.6481320322736790  0.3786536866102008
  0.0785184897721389  0.5237117696490438  0.8757774570862478
  0.8420968448009251  0.6936174415119218  0.9772926022255630
  0.5240612205685480  0.5507302462748880  0.7369555242377440
  0.4848678509802692  0.6956529776456063  0.5356055810025449
  0.7988148164567904  0.0467345179056034  0.3315089546717617
  0.3571554178725733  0.0714264980722445  0.9007950463629038
  0.0823357473102487  0.7339501317972794  0.9479069854756085
  0.5312499993434363  0.4681195123775018  0.0854519146891653
  0.7040838815537932  0.1147902940113632  0.1887771909079020
  0.9445517805898803  0.6768719114496627  0.8462610598995060
  0.8793671450383347  0.9718799986179297  0.2199390317181435
  0.8408097846330047  0.9002616386100378  0.5106145414688957
  0.9933574620107948  0.6458614076523806  0.2609274924592890
  0.0190786801164997  0.2201936607764420  0.8631062539117952
  0.8535225456293027  0.2714122560874183  0.8232305596396748
  0.1754332142517535  0.0734837755463777  0.7378223874331687
  0.2374971141369259  0.5868719093907859  0.5497820031196362
  0.9427434961809312  0.0389365302692669  0.8495617835964583
  0.9425468979716298  0.6722038789842270  0.7085409166990368
  0.5589757115828735  0.8623114836048986  0.9107143056420822
  0.9987273573326660  0.8022898783284900  0.4119913926312538
  0.8799286592519913  0.1383577053695810  0.2065356569870621
  0.8001403752909446  0.1504941722280369  0.8069294361654059
  0.7763485473466855  0.5571613800201176  0.3826170671062247
  0.2515826783020537  0.9303669177843649  0.7930601897773154
  0.2497670395217768  0.2281511856828891  0.6831544015064126
  0.1768884413705860  0.4895235857886637  0.4801909878612622
  0.0624999963888226  0.1238275461122691  0.0124548950704251
  0.5208239686431283  0.9204095430622378  0.7073496081311023
  0.1326279895057330  0.3373962961548838  0.8374666138759511
  0.6587680122595553  0.5732603422399341  0.2574404555229940
  0.4354935726643768  0.3071140198271214  0.3689502880497360
  0.5085318797303050  0.2772294503988942  0.2584377656236799
  0.9997964882900877  0.3026429478421567  0.2292302748408923
  0.2740629282944087  0.0574131987464238  0.4702393867574547
  0.1098413577425000  0.7011151724202568  0.6222789351913397
  0.4815142559735265  0.9945170296843752  0.0934953942517589
  0.6995575586503993  0.3960940299418011  0.3731659981032813
  0.9355525529643020  0.0399800016119464  0.6610851132992640
  0.6951372375882807  0.6838924276468139  0.7674099695355697
  0.5373180033604301  0.3106545185247644  0.6413720513576857
  0.5806505545272105  0.8431758218473246  0.5322406599492998
  0.9931331607418984  0.6770084359252241  0.0776594969492446
  0.3931815379070958  0.5077082314064630  0.4589563803632304
  0.4340111324716203  0.1946932817302675  0.7018317066245128
  0.0319859454654126  0.8629727954157660  0.1059346326539777
  0.0951272408527350  0.9515773313383129  0.3774053345575226
  0.6826691763886614  0.7516640313159364  0.2375014841912653
  0.6579478083148229  0.7027001153493273  0.4327595102231189
  0.6946967461321890  0.0907702789112237  0.9357143015591091
  0.8587045150534366  0.3198669111684316  0.0996104429116614
  0.2250115712446553  0.0337792543350576  0.1145349808894116
  0.9678741331273224  0.2632939917475798  0.6615572043394965
  0.5460132558936684  0.1930455987725762  0.8624957346967111
  0.5376730416857587  0.8847937681040664  0.1494393949622416
  0.2019764968193857  0.5621906916920888  0.8443087485798038
  0.7087391375813017  0.7090943267073353  0.0701039096635930
  0.9244641798899418  0.4401438456684195  0.3008461968107715
  0.7568778923558213  0.9857310865711382  0.6390972617894151
  0.5743019476778908  0.1468939437228626  0.1757597402348764
  0.6761654048285662  0.0841353934725921  0.4433369927405025
  0.3337518700764750  0.1316034012270259  0.6386452865314741
  0.6935787891231057  0.4420880908256244  0.1133843676790610
  0.5314570274276260  0.0469796881804628  0.9409005340461856
  0.0267836694109746  0.0600441120916193  0.2029782198311173
  0.4111750771747480  0.5977333542368723  0.1610944901849219
  0.7082182612000667  0.2765692285572628  0.0902832958358342
  0.4378774012485380  0.8601421181062421  0.6156627375180588
  0.1759030565421183  0.1062194606692376  0.6002925229997708
  0.6850434960069971  0.8595268855283106  0.7678551612100813
  0.8205599557681470  0.5048110614230297  0.6196081829179717
  0.9750431871655809  0.4695760622635295  0.5138735963757699
  0.6335939287957207  0.8971392453608392  0.6635819376324771
  0.9629566192783722  0.2143617252442534  0.1533256434749481
  0.8130446906693117  0.1177110926704668  0.9223827219970093
  0.7359742839457490  0.7200729836946118  0.3404653083355225
  0.2683458840622904  0.3710941584694715  0.1721689525056352
  0.8756322748294253  0.5204440355408994  0.2218128030967449
  0.9221499948831438  0.1404475554758124  0.7831594949929551
  0.9524428313238770  0.9012587598222008  0.8529183794770658
  0.9626269507566296  0.3943199676820234  0.0990692507475310
  0.1461092271947041  0.2394297404717644  0.1969747351691579
  0.6790726021088261  0.5613977168741014  0.1365955558960235
  0.1730655947876382  0.5089936138973397  0.1920421148238574
  0.8525125481133335  0.2464723066575137  0.6895584177193501
  0.7020899496352250  0.4853664748821809  0.4526233266808979
  0.6124834034934030  0.7816321912787788  0.0452290638925295
  0.4138323226840669  0.2476594091862552  0.8678152262182212
  0.1960628994251786  0.6789427156427779  0.8826408406572107
  0.6292065712891419  0.5893964587698903  0.7975902507163694
  0.8098526577385474  0.0036787458432353  0.7494345828284115
  0.6666984881041189  0.3645376288146928  0.8705255370320505
  0.6455536177573216  0.1232795389955090  0.6225403722900035
  0.8541608023297618  0.7559778657427165  0.7069492940411486
  0.3354015820448166  0.7737427731531047  0.5277078996603627
  0.3779520962445082  0.8052770783848953  0.7052820990129484
  0.5418981055592839  0.6681067146373507  0.9346957858962723
  0.2213891230562860  0.0155943209862774  0.8658328459694322
  0.3423665428324565  0.6173349460062648  0.2618247401795050
  0.9609363221744222  0.5642257177515330  0.3767695817519192
  0.4958860354832365  0.0434792667786139  0.2109438789232880
  0.7415963548258243  0.4751825403111327  0.7355624918094741
  0.6532556090593046  0.2556957533188157  0.1933222725682054
  0.5382865615783781  0.7609721683970223  0.6331352258447137
  0.3189779117679854  0.9557901990293298  0.1747087221002167
  0.5823458959495248  0.0467656980262184  0.0561969822051297
  0.7323658488649107  0.0035368839824520  0.1402649153506202
  0.0043210685001431  0.3499136152485906  0.8237763944221209
  0.2878101284477277  0.1584649244690521  0.9769154872900274
  0.2804925316556310  0.3314149609552596  0.9486623877813184
  0.6818601081520919  0.7161846502241119  0.6504734514587555
  0.1183096646471558  0.2405719478819860  0.5820104804970224
  0.4185045547422276  0.2158394019744422  0.1997590321955226
  0.8745080950297012  0.6206428978825919  0.4175410334117262
  0.2953080302364706  0.4838605427402240  0.5877915107510548
  0.2832689959199484  0.9621608332324940  0.0293970969337751
  0.8377069525589786  0.4429858180943305  0.3842933259402934
  0.8255876722485253  0.1151250408624012  0.4769672707679728
  0.4411866222216459  0.4615795039348767  0.6681920175263028
  0.5803062978393222  0.2033765809248489  0.9765712160808749
  0.2867769514606234  0.1103800012321672  0.2399865337830779
  0.5162300216292797  0.3459264858710029  0.0847297576780602
  0.2840694872938863  0.0264097998900467  0.3541160247565180
  0.3108966843849102  0.7857059833399634  0.2245894456975222
  0.0774558534185914  0.5436588630910832  0.5341366791207034
  0.1143462113521812  0.2266242253759569  0.7807549249469692
  0.8502396918301418  0.0140321978210560  0.5581022938268937
  0.8456349867328188  0.7424187350495642  0.8660061780055858
  0.5837450539991439  0.4466774102982329  0.7695023530357766
  0.3522054097303320  0.1628969414345229  0.8180672623950143
  0.5784156979579463  0.6144921510611689  0.5505272674521430
  0.3904013415197310  0.6850040876976583  0.9756556267404795
  0.1666275873349146  0.0651696176270106  0.0036871338991965
  0.3193832769722574  0.6152846310284372  0.4616698878984846
  0.8069547651594146  0.4305001476938825  0.0586569321808235
  0.4579574363327146  0.1016516511732420  0.5296866101890378
  0.8115378903374129  0.3096983278974096  0.9457636292097157
  0.7325171922294648  0.6435739011106131  0.9709404166267243
  0.1363903843301505  0.0225914905485085  0.4681754579908947
  0.6717199736250178  0.9752263730800206  0.5035557145955444
  0.0328480208983955  0.5833014227668424  0.9750758422304923
  0.2215722390173590  0.1662152265340070  0.4456590131806957
  0.6579752355936129  0.1319252281412776  0.8274640166720797
  0.5614064769005082  0.1747528910317846  0.2963610100108384
  0.5189722664026382  0.7850601891759549  0.4514833775151225
  0.3001001841628620  0.3343188076188078  0.6506939254563398
  0.0948575462927137  0.0821980897256829  0.3092735315381414
  0.6117113161855785  0.7698304616059883  0.7996161012942538
  0.6544411066463068  0.8674016493938765  0.9846419458758993
  0.7065655377392031  0.2569255814133618  0.5645930125076380
  0.1509068371378305  0.8390957293434294  0.1048657157845706
  0.2994505431501013  0.0712324081373024  0.7404707209868250
  0.4569887735255548  0.4879948292549383  0.1882690974684489
  0.4566393216866211  0.0223556722055877  0.8210152148155535
  0.4845210062326125  0.6052826993168960  0.4373091398161184
  0.2891655375711181  0.1344752938543176  0.1290995711329878
  0.3987484759901104  0.0775208486727530  0.4428465758524951
  0.4445056996327320  0.5512986748317716  0.8284175878647329
  0.6491099020947714  0.4564556078022113  0.0038386624380709
  0.9918302248038529  0.7123494856713685  0.4913495736567694
  0.9003513678866342  0.7717260804462451  0.3365561907769764
  0.9569487282552458  0.8782735240053264  0.5088880754214559
  0.9364412963630487  0.2338204453496751  0.9885784867364646
  0.0484448553830753  0.7196867895379759  0.1721679563896567
  0.5283162960036922  0.4792321577206405  0.5042002213830212
  0.1543695256298405  0.6442948155287600  0.0542171895545424
  0.4381710902893751  0.1119814708148863  0.9820229700435075
  0.6917219518866553  0.8699244828328734  0.2512617560841809
  0.3771264417926435  0.3634646681095172  0.2764080769439298
  0.0864240663478579  0.5875004163749205  0.6610990808563871
  0.5271613883711925  0.7941043718911860  0.2699049525812502
  0.3403701841764152  0.8542728860038202  0.3919964745814939
  0.1432437707008066  0.8515772221134836  0.4341138167997416
  0.1699391175227730  0.4192756604961601  0.7520802782237627
  0.8687802612645101  0.5782330345312415  0.8672151742614264
  0.0745935752297248  0.7103138422213626  0.3280663146208292
  0.1936204534342955  0.8404919639267939  0.8656031984611001
  0.7995523481759148  0.9297445528392673  0.3748509912846732
  0.3637917028512241  0.8500319649761330  0.0724558717257881
  0.5298437929749543  0.9450162477941277  0.2535293713299699
  0.1735683032988147  0.6918593758628721  0.4713942849983679
  0.4508294636913412  0.5027324535981720  0.0010911970896031
  0.7976117197351482  0.7855160074826314  0.0447531585798733
  0.8858940135322972  0.3321461089555297  0.2591156488693366
  0.5052376397103889  0.0234802684295249  0.6487112406178213
  0.7357513548959830  0.1573975464686723  0.0776365045920107
  0.0219475117222471  0.4000919763177244  0.6097243866305090
  0.7222519460350998  0.4447091402984291  0.2632531964755336
  0.9409454139467528  0.9145092392351339  0.3140258981813444
  0.0239457382211121  0.2499442166335102  0.3357190214025859
  0.4748325535517717  0.2153188983399740  0.5386754118361028
  0.4773146900552308  0.9391837438346469  0.9643189588284035
  0.8132917343591238  0.6075463541609746  0.6861654593659997
  0.5580338577095189  0.6517586464455095  0.2476935723162283
  0.2096781891104027  0.3260283518809040  0.3365854933841010
  0.4059932868102721  0.5118524438188724  0.3389867270671183
  0.0501551195371126  0.0926360522930830  0.8933483512046511
  0.8543186507799354  0.2560945149935183  0.4262484362331093
  0.2544521347852776  0.2818397193485266  0.8535104788646609
  0.7153175583213403  0.9716678609414215  0.9058507678947501
  0.2795312214861603  0.5110301014273038  0.9195341718120589
  0.8656765695133736  0.0853256957913213  0.0971656817037901
  0.3611244812428352  0.9613527049181113  0.6176750197481854
  0.0274635091547258  0.7627383110029016  0.6881009038715060
  0.9845772381629128  0.7829185832078365  0.0153063902675266
  0.4017202602075231  0.6381807025975705  0.6212224941055018
  0.1170818585947831  0.3649846155689095  0.0891031805139920
  0.0714985928747479  0.6170708000571276  0.7705327285569564
  0.9214283937822600  0.0692794877073023  0.3372201949784123
  0.9631131471671697  0.1896171533774620  0.5639926403399513
  0.7496834347016813  0.6406123153957806  0.4790135755202639
  0.3052582246696071  0.4185859768310298  0.4403557848728387
  0.6486501545662801  0.0273558414256468  0.3392157853128247
  0.8861063967828987  0.3684155934666664  0.5588516724168722
  0.0208405906648289  0.0481055133560982  0.5742531008163354
  0.2614704985447618  0.2261043606416985  0.5284982236950831
  0.7289525627313380  0.2204402059196448  0.3373656246734756
  0.2805734147283002  0.6848216468915623  0.1982960058146685
  0.6901945112411358  0.8003706635439002  0.5012439451487194
  0.9219669934620277  0.9252227498045664  0.9565513917925488
  0.4999537660787761  0.3857796286735460  0.8839404400072313
  0.4026493152388991  0.8106404810739756  0.1685433394115863
  0.1048343493460478  0.4276402165286834  0.9494422222662064
  0.2010006229360779  0.7227403301270092  0.6995621231986536
  0.1714459506124676  0.9567442821909282  0.7050451868447651
  0.0228390064921591  0.0169167531075265  0.7527149561119976
  0.9362679413693945  0.9992376131038355  0.1104474089762471
  0.8831594475119677  0.8356669689145941  0.2022641043221530
  0.8014987196165241  0.8735563771120920  0.6340399404517075
  0.0706937944334138  0.9472736932735889  0.2092770931892923
  0.5744386693400603  0.4055834269444743  0.3469902255096144
  0.1749746189962891  0.5412375382308371  0.3701128091729913
  0.3535638404129549  0.2194877640385949  0.3667566502094645
  0.9223597214287124  0.5571558585169245  0.5711854615818146
  0.0903648317404148  0.1573152535547954  0.5890670087170573
  0.1307572890717382  0.8789462079555469  0.9062709103856817
  0.3373544479576094  0.5565053096383348  0.1133559953186691
  0.9541376083829536  0.3480191175231555  0.6047302097167944
  0.3237299027354869  0.9242114344685606  0.0961553626160872
  0.2929979811052884  0.9347279692337066  0.5759930939549189
  0.6764141447025329  0.1904151431628530  0.5940918228049538
  0.0575766439488134  0.5757715437091959  0.2388548696863954
  0.5276378245693750  0.3790782957411845  0.7964217721711687
  0.5320613092430567  0.5627030325805455  0.4969226489076276
  0.1021091995544528  0.5465097489200703  0.2183322514178629
  0.7915244887020415  0.2402759423825491  0.3814303206205147
  0.3378579388439892  0.8136832505296622  0.4591279262545446
  0.4664336814305964  0.6775333200429403  0.9561516362724529
  0.2999031499193224  0.5283646449567330  0.0807345158966274
  0.5842132279106478  0.7340425568106718  0.2578986566455432
  0.2447347037558452  0.9258721676055526  0.5462437226170139
  0.9496734402831173  0.4721165369532173  0.9142892848146704
  0.9169749153689393  0.5155431081950261  0.8961152991825198
  0.7771086405542039  0.3295017972096471  0.7917320129387236
  0.0744759142303490  0.6548752323942211  0.0123432910072325
  0.7323086989889416  0.3446888051927130  0.8269802903978171
  0.8703848939865544  0.2844653060080744  0.0015974374137038
  0.0326672267002065  0.1360649556286328  0.5805459635896568
  0.0879678839559385  0.9010070289747751  0.9373664581552318
  0.9322711582232135  0.0600292296330357  0.2465111748911966
  0.4828573165839617  0.2305739476127262  0.6219705378366830
  0.7729084751243188  0.0866209589676057  0.4199029914500166
  0.9104271346581436  0.8397963620632013  0.2828373369159063
  0.2031863857370940  0.2079511872859440  0.5950626892174841
 
  0.00000000E+00  0.00000000E+00  0.00000000E+00
  0.00000000E+00  0.00000000E+00  0.00000000E+00
  0.00000000E+00  0.00000000E+00  0.00000000E+00
  0.00000000E+00  0.00000000E+00  0.00000000E+00
  0.00000000E+00  0.00000000E+00  0.00000000E+00
  0.00000000E+00  0.00000000E+00  0.00000000E+00
  0.00000000E+00  0.00000000E+00  0.00000000E+00
  0.00000000E+00  0.00000000E+00  0.00000000E+00
  0.00000000E+00  0.00000000E+00  0.00000000E+00
  0.00000000E+00  0.00000000E+00  0.00000000E+00
  0.00000000E+00  0.00000000E+00  0.00000000E+00
  0.00000000E+00  0.00000000E+00  0.00000000E+00
  0.00000000E+00  0.00000000E+00  0.00000000E+00
  0.00000000E+00  0.00000000E+00  0.00000000E+00
  0.00000000E+00  0.00000000E+00  0.00000000E+00
  0.00000000E+00  0.00000000E+00  0.00000000E+00
  0.00000000E+00  0.00000000E+00  0.00000000E+00
  0.00000000E+00  0.00000000E+00  0.00000000E+00
  0.00000000E+00  0.00000000E+00  0.00000000E+00
  0.00000000E+00  0.00000000E+00  0.00000000E+00
  0.00000000E+00  0.00000000E+00  0.00000000E+00
  0.00000000E+00  0.00000000E+00  0.00000000E+00
  0.00000000E+00  0.00000000E+00  0.00000000E+00
  0.00000000E+00  0.00000000E+00  0.00000000E+00
  0.00000000E+00  0.00000000E+00  0.00000000E+00
  0.00000000E+00  0.00000000E+00  0.00000000E+00
  0.00000000E+00  0.00000000E+00  0.00000000E+00
  0.00000000E+00  0.00000000E+00  0.00000000E+00
  0.00000000E+00  0.00000000E+00  0.00000000E+00
  0.00000000E+00  0.00000000E+00  0.00000000E+00
  0.00000000E+00  0.00000000E+00  0.00000000E+00
  0.00000000E+00  0.00000000E+00  0.00000000E+00
  0.00000000E+00  0.00000000E+00  0.00000000E+00
  0.00000000E+00  0.00000000E+00  0.00000000E+00
  0.00000000E+00  0.00000000E+00  0.00000000E+00
  0.00000000E+00  0.00000000E+00  0.00000000E+00
  0.00000000E+00  0.00000000E+00  0.00000000E+00
  0.00000000E+00  0.00000000E+00  0.00000000E+00
  0.00000000E+00  0.00000000E+00  0.00000000E+00
  0.00000000E+00  0.00000000E+00  0.00000000E+00
  0.00000000E+00  0.00000000E+00  0.00000000E+00
  0.00000000E+00  0.00000000E+00  0.00000000E+00
  0.00000000E+00  0.00000000E+00  0.00000000E+00
  0.00000000E+00  0.00000000E+00  0.00000000E+00
  0.00000000E+00  0.00000000E+00  0.00000000E+00
  0.00000000E+00  0.00000000E+00  0.00000000E+00
  0.00000000E+00  0.00000000E+00  0.00000000E+00
  0.00000000E+00  0.00000000E+00  0.00000000E+00
  0.00000000E+00  0.00000000E+00  0.00000000E+00
  0.00000000E+00  0.00000000E+00  0.00000000E+00
  0.00000000E+00  0.00000000E+00  0.00000000E+00
  0.00000000E+00  0.00000000E+00  0.00000000E+00
  0.00000000E+00  0.00000000E+00  0.00000000E+00
  0.00000000E+00  0.00000000E+00  0.00000000E+00
  0.00000000E+00  0.00000000E+00  0.00000000E+00
  0.00000000E+00  0.00000000E+00  0.00000000E+00
  0.00000000E+00  0.00000000E+00  0.00000000E+00
  0.00000000E+00  0.00000000E+00  0.00000000E+00
  0.00000000E+00  0.00000000E+00  0.00000000E+00
  0.00000000E+00  0.00000000E+00  0.00000000E+00
  0.00000000E+00  0.00000000E+00  0.00000000E+00
  0.00000000E+00  0.00000000E+00  0.00000000E+00
  0.00000000E+00  0.00000000E+00  0.00000000E+00
  0.00000000E+00  0.00000000E+00  0.00000000E+00
  0.00000000E+00  0.00000000E+00  0.00000000E+00
  0.00000000E+00  0.00000000E+00  0.00000000E+00
  0.00000000E+00  0.00000000E+00  0.00000000E+00
  0.00000000E+00  0.00000000E+00  0.00000000E+00
  0.00000000E+00  0.00000000E+00  0.00000000E+00
  0.00000000E+00  0.00000000E+00  0.00000000E+00
  0.00000000E+00  0.00000000E+00  0.00000000E+00
  0.00000000E+00  0.00000000E+00  0.00000000E+00
  0.00000000E+00  0.00000000E+00  0.00000000E+00
  0.00000000E+00  0.00000000E+00  0.00000000E+00
  0.00000000E+00  0.00000000E+00  0.00000000E+00
  0.00000000E+00  0.00000000E+00  0.00000000E+00
  0.00000000E+00  0.00000000E+00  0.00000000E+00
  0.00000000E+00  0.00000000E+00  0.00000000E+00
  0.00000000E+00  0.00000000E+00  0.00000000E+00
  0.00000000E+00  0.00000000E+00  0.00000000E+00
  0.00000000E+00  0.00000000E+00  0.00000000E+00
  0.00000000E+00  0.00000000E+00  0.00000000E+00
  0.00000000E+00  0.00000000E+00  0.00000000E+00
  0.00000000E+00  0.00000000E+00  0.00000000E+00
  0.00000000E+00  0.00000000E+00  0.00000000E+00
  0.00000000E+00  0.00000000E+00  0.00000000E+00
  0.00000000E+00  0.00000000E+00  0.00000000E+00
  0.00000000E+00  0.00000000E+00  0.00000000E+00
  0.00000000E+00  0.00000000E+00  0.00000000E+00
  0.00000000E+00  0.00000000E+00  0.00000000E+00
  0.00000000E+00  0.00000000E+00  0.00000000E+00
  0.00000000E+00  0.00000000E+00  0.00000000E+00
  0.00000000E+00  0.00000000E+00  0.00000000E+00
  0.00000000E+00  0.00000000E+00  0.00000000E+00
  0.00000000E+00  0.00000000E+00  0.00000000E+00
  0.00000000E+00  0.00000000E+00  0.00000000E+00
  0.00000000E+00  0.00000000E+00  0.00000000E+00
  0.00000000E+00  0.00000000E+00  0.00000000E+00
  0.00000000E+00  0.00000000E+00  0.00000000E+00
  0.00000000E+00  0.00000000E+00  0.00000000E+00
  0.00000000E+00  0.00000000E+00  0.00000000E+00
  0.00000000E+00  0.00000000E+00  0.00000000E+00
  0.00000000E+00  0.00000000E+00  0.00000000E+00
  0.00000000E+00  0.00000000E+00  0.00000000E+00
  0.00000000E+00  0.00000000E+00  0.00000000E+00
  0.00000000E+00  0.00000000E+00  0.00000000E+00
  0.00000000E+00  0.00000000E+00  0.00000000E+00
  0.00000000E+00  0.00000000E+00  0.00000000E+00
  0.00000000E+00  0.00000000E+00  0.00000000E+00
  0.00000000E+00  0.00000000E+00  0.00000000E+00
  0.00000000E+00  0.00000000E+00  0.00000000E+00
  0.00000000E+00  0.00000000E+00  0.00000000E+00
  0.00000000E+00  0.00000000E+00  0.00000000E+00
  0.00000000E+00  0.00000000E+00  0.00000000E+00
  0.00000000E+00  0.00000000E+00  0.00000000E+00
  0.00000000E+00  0.00000000E+00  0.00000000E+00
  0.00000000E+00  0.00000000E+00  0.00000000E+00
  0.00000000E+00  0.00000000E+00  0.00000000E+00
  0.00000000E+00  0.00000000E+00  0.00000000E+00
  0.00000000E+00  0.00000000E+00  0.00000000E+00
  0.00000000E+00  0.00000000E+00  0.00000000E+00
  0.00000000E+00  0.00000000E+00  0.00000000E+00
  0.00000000E+00  0.00000000E+00  0.00000000E+00
  0.00000000E+00  0.00000000E+00  0.00000000E+00
  0.00000000E+00  0.00000000E+00  0.00000000E+00
  0.00000000E+00  0.00000000E+00  0.00000000E+00
  0.00000000E+00  0.00000000E+00  0.00000000E+00
  0.00000000E+00  0.00000000E+00  0.00000000E+00
  0.00000000E+00  0.00000000E+00  0.00000000E+00
  0.00000000E+00  0.00000000E+00  0.00000000E+00
  0.00000000E+00  0.00000000E+00  0.00000000E+00
  0.00000000E+00  0.00000000E+00  0.00000000E+00
  0.00000000E+00  0.00000000E+00  0.00000000E+00
  0.00000000E+00  0.00000000E+00  0.00000000E+00
  0.00000000E+00  0.00000000E+00  0.00000000E+00
  0.00000000E+00  0.00000000E+00  0.00000000E+00
  0.00000000E+00  0.00000000E+00  0.00000000E+00
  0.00000000E+00  0.00000000E+00  0.00000000E+00
  0.00000000E+00  0.00000000E+00  0.00000000E+00
  0.00000000E+00  0.00000000E+00  0.00000000E+00
  0.00000000E+00  0.00000000E+00  0.00000000E+00
  0.00000000E+00  0.00000000E+00  0.00000000E+00
  0.00000000E+00  0.00000000E+00  0.00000000E+00
  0.00000000E+00  0.00000000E+00  0.00000000E+00
  0.00000000E+00  0.00000000E+00  0.00000000E+00
  0.00000000E+00  0.00000000E+00  0.00000000E+00
  0.00000000E+00  0.00000000E+00  0.00000000E+00
  0.00000000E+00  0.00000000E+00  0.00000000E+00
  0.00000000E+00  0.00000000E+00  0.00000000E+00
  0.00000000E+00  0.00000000E+00  0.00000000E+00
  0.00000000E+00  0.00000000E+00  0.00000000E+00
  0.00000000E+00  0.00000000E+00  0.00000000E+00
  0.00000000E+00  0.00000000E+00  0.00000000E+00
  0.00000000E+00  0.00000000E+00  0.00000000E+00
  0.00000000E+00  0.00000000E+00  0.00000000E+00
  0.00000000E+00  0.00000000E+00  0.00000000E+00
  0.00000000E+00  0.00000000E+00  0.00000000E+00
  0.00000000E+00  0.00000000E+00  0.00000000E+00
  0.00000000E+00  0.00000000E+00  0.00000000E+00
  0.00000000E+00  0.00000000E+00  0.00000000E+00
  0.00000000E+00  0.00000000E+00  0.00000000E+00
  0.00000000E+00  0.00000000E+00  0.00000000E+00
  0.00000000E+00  0.00000000E+00  0.00000000E+00
  0.00000000E+00  0.00000000E+00  0.00000000E+00
  0.00000000E+00  0.00000000E+00  0.00000000E+00
  0.00000000E+00  0.00000000E+00  0.00000000E+00
  0.00000000E+00  0.00000000E+00  0.00000000E+00
  0.00000000E+00  0.00000000E+00  0.00000000E+00
  0.00000000E+00  0.00000000E+00  0.00000000E+00
  0.00000000E+00  0.00000000E+00  0.00000000E+00
  0.00000000E+00  0.00000000E+00  0.00000000E+00
  0.00000000E+00  0.00000000E+00  0.00000000E+00
  0.00000000E+00  0.00000000E+00  0.00000000E+00
  0.00000000E+00  0.00000000E+00  0.00000000E+00
  0.00000000E+00  0.00000000E+00  0.00000000E+00
  0.00000000E+00  0.00000000E+00  0.00000000E+00
  0.00000000E+00  0.00000000E+00  0.00000000E+00
  0.00000000E+00  0.00000000E+00  0.00000000E+00
  0.00000000E+00  0.00000000E+00  0.00000000E+00
  0.00000000E+00  0.00000000E+00  0.00000000E+00
  0.00000000E+00  0.00000000E+00  0.00000000E+00
  0.00000000E+00  0.00000000E+00  0.00000000E+00
  0.00000000E+00  0.00000000E+00  0.00000000E+00
  0.00000000E+00  0.00000000E+00  0.00000000E+00
  0.00000000E+00  0.00000000E+00  0.00000000E+00
  0.00000000E+00  0.00000000E+00  0.00000000E+00
  0.00000000E+00  0.00000000E+00  0.00000000E+00
  0.00000000E+00  0.00000000E+00  0.00000000E+00
  0.00000000E+00  0.00000000E+00  0.00000000E+00
  0.00000000E+00  0.00000000E+00  0.00000000E+00
  0.00000000E+00  0.00000000E+00  0.00000000E+00
  0.00000000E+00  0.00000000E+00  0.00000000E+00
  0.00000000E+00  0.00000000E+00  0.00000000E+00
  0.00000000E+00  0.00000000E+00  0.00000000E+00
  0.00000000E+00  0.00000000E+00  0.00000000E+00
  0.00000000E+00  0.00000000E+00  0.00000000E+00
  0.00000000E+00  0.00000000E+00  0.00000000E+00
  0.00000000E+00  0.00000000E+00  0.00000000E+00
  0.00000000E+00  0.00000000E+00  0.00000000E+00
  0.00000000E+00  0.00000000E+00  0.00000000E+00
  0.00000000E+00  0.00000000E+00  0.00000000E+00
  0.00000000E+00  0.00000000E+00  0.00000000E+00
  0.00000000E+00  0.00000000E+00  0.00000000E+00
  0.00000000E+00  0.00000000E+00  0.00000000E+00
  0.00000000E+00  0.00000000E+00  0.00000000E+00
  0.00000000E+00  0.00000000E+00  0.00000000E+00
  0.00000000E+00  0.00000000E+00  0.00000000E+00
  0.00000000E+00  0.00000000E+00  0.00000000E+00
  0.00000000E+00  0.00000000E+00  0.00000000E+00
  0.00000000E+00  0.00000000E+00  0.00000000E+00
  0.00000000E+00  0.00000000E+00  0.00000000E+00
  0.00000000E+00  0.00000000E+00  0.00000000E+00
  0.00000000E+00  0.00000000E+00  0.00000000E+00
  0.00000000E+00  0.00000000E+00  0.00000000E+00
  0.00000000E+00  0.00000000E+00  0.00000000E+00
  0.00000000E+00  0.00000000E+00  0.00000000E+00
  0.00000000E+00  0.00000000E+00  0.00000000E+00
  0.00000000E+00  0.00000000E+00  0.00000000E+00
  0.00000000E+00  0.00000000E+00  0.00000000E+00
  0.00000000E+00  0.00000000E+00  0.00000000E+00
  0.00000000E+00  0.00000000E+00  0.00000000E+00
  0.00000000E+00  0.00000000E+00  0.00000000E+00
  0.00000000E+00  0.00000000E+00  0.00000000E+00
  0.00000000E+00  0.00000000E+00  0.00000000E+00
  0.00000000E+00  0.00000000E+00  0.00000000E+00
  0.00000000E+00  0.00000000E+00  0.00000000E+00
  0.00000000E+00  0.00000000E+00  0.00000000E+00
  0.00000000E+00  0.00000000E+00  0.00000000E+00
  0.00000000E+00  0.00000000E+00  0.00000000E+00
  0.00000000E+00  0.00000000E+00  0.00000000E+00
  0.00000000E+00  0.00000000E+00  0.00000000E+00
  0.00000000E+00  0.00000000E+00  0.00000000E+00