Amorphous Sb                            
   1.00000000000000     
    19.2889685707823340    0.0000000000000000    0.0000000000000000
     0.0000000000000000   19.2889685707823340    0.0000000000000000
     0.0000000000000000    0.0000000000000000   19.2889685707823340
   Ga   As
   150   150
Direct
  0.3495711332380518  0.7961564977948565  0.2989269617078666
  0.8020865589752021  0.6915054424303080  0.1553729896285353
  0.1049428381806176  0.0520521154653186  0.2505807025576464
  0.0767491920362029  0.3933670840042661  0.7408872031004211
  0.5820416714776141  0.0844297813698271  0.1583658094211721
  0.3703982945642336  0.9714848583645703  0.8153201917839673
  0.2306120773293576  0.3202056008035766  0.5879754020635880
  0.5895747717787605  0.1921578405881655  0.9647424566988503
  0.6445561366138505  0.3523767916752602  0.4375203185487081
  0.0629724194599217  0.0970039064295034  0.4405107033627315
  0.4647114715258158  0.1473141879907963  0.6006177286839953
  0.1358495151586593  0.1171843513153110  0.8509113934258885
  0.8569902669520086  0.3861575179731097  0.0891573528273817
  0.3526101190979726  0.2120731192598830  0.4398467719797225
  0.3838890698131436  0.4599135474821640  0.5372317691140100
  0.4595317853885283  0.9622460359467521  0.6877724735523992
  0.7748507559120728  0.9792170407948914  0.8012236491995903
  0.8420207630776647  0.5207028925422237  0.4431487677831172
  0.2755366658849417  0.4957175410475372  0.6138944706135780
  0.2353121536481446  0.6181570343291201  0.7602105524535749
  0.3744208278667553  0.4374579891453103  0.7565018041126214
  0.0920081642195600  0.2356291930823111  0.6106166135990916
  0.7199222413046930  0.9044798026282096  0.2421541870786731
  0.3295083959139902  0.7515986120236263  0.9341750201174551
  0.3278906360911717  0.1590130319106801  0.8223650934689364
  0.2553595522385197  0.7309887158446582  0.8270164051903144
  0.2475251752708517  0.2096380385942449  0.7331481431300371
  0.9078200311325397  0.3623026937906437  0.5609055578859059
  0.6566376206280340  0.8590514438857796  0.7474946704512794
  0.3277076783868159  0.5302471517322520  0.0581342452137594
  0.2604860791768673  0.3652559282083017  0.9171039311065612
  0.8942334825095563  0.1662377837287203  0.5942797227781923
  0.9429875666623965  0.4614265884635300  0.2726205783390226
  0.4460672823352287  0.6388324124976774  0.6655306481932287
  0.7353688801389382  0.5758895791046882  0.3436002240148280
  0.4490975534085933  0.0359608483373405  0.8981550302948682
  0.5159715363874424  0.7010655137344897  0.1569455212093977
  0.9750114810878125  0.2765340304043252  0.8836216037381750
  0.3815619907526339  0.1036401132042578  0.2483511658377229
  0.2537322484149714  0.0233235908537998  0.2580567964906930
  0.0175152880006954  0.8337064683418757  0.9406469226045966
  0.1027945547334234  0.8267948831515807  0.4573099014214779
  0.6607529869021331  0.0327920024219224  0.3733987709035049
  0.2024941549879201  0.5446785976632621  0.8748246729945416
  0.2101363640583288  0.7474995639272959  0.4981210615612180
  0.5570998156317019  0.9044360955563200  0.1407739516109336
  0.0054634915167871  0.5595489485062564  0.6181581596349583
  0.0966435551998508  0.5740251469094596  0.7935656998985871
  0.4633878410440636  0.2780142326148649  0.8053297834200747
  0.9235300410238430  0.2301722636027161  0.7695192792447507
  0.7845490328817992  0.4897240522256503  0.9291649787429992
  0.8770358080491176  0.3271590646674828  0.4385943850773317
  0.0462347628711618  0.9172325448464085  0.0600142081592039
  0.2348249338307439  0.6403575674602585  0.5830287564210724
  0.3564843906632199  0.9586403866946136  0.1927021980838644
  0.3737442079885044  0.0087448780504849  0.4444100019364516
  0.6160867205518716  0.1777020108454619  0.6938365203410990
  0.1693998184872582  0.0162803437526411  0.9477025699056100
  0.1757103405640117  0.5399732227251107  0.5118712354725355
  0.6580234206070936  0.2969642189943711  0.7976952085854957
  0.0471260961339924  0.3324606858319329  0.0784361910297494
  0.0547690615589637  0.6247876987447697  0.0196006208375400
  0.9655855766294392  0.7089349898152558  0.9596952339124930
  0.9051854922795579  0.1262558941300484  0.9673489401406054
  0.0833531491368249  0.3626813377645714  0.8704523722553392
  0.0608539724448124  0.0269631645695350  0.7763119022322752
  0.2577673353409121  0.1278864684424929  0.9293295904597562
  0.1831119166819312  0.8466604831340310  0.1736875748452940
  0.1868743552792658  0.8538223797542983  0.8023709981289269
  0.1330179960360814  0.7507464666512293  0.8903751430062000
  0.2700030327877561  0.9096169568077335  0.6689771463530551
  0.5037519203097474  0.1676995860988219  0.3203209106361697
  0.7151912890399089  0.8642309247170737  0.4314033866109420
  0.5931825049431674  0.6111912067854032  0.0367210169636915
  0.4832433493957017  0.3679698128132634  0.9066368760882126
  0.7922096545449220  0.2953498034974671  0.7728199287635283
  0.8492256060380606  0.7745457857531917  0.8788632936223356
  0.1875852158773792  0.0802515606804310  0.3716504090831864
  0.9244985045739708  0.1570939699208084  0.2724005145431764
  0.9920289672150324  0.5012615635165010  0.4644665464346029
  0.4874293472634567  0.1729302549613930  0.1794036465942115
  0.7822046804622486  0.7704611725778241  0.3749830020176819
  0.8357617416084268  0.6019967873699842  0.2521396989570591
  0.6627668922595981  0.9478393312199801  0.6445998501588600
  0.0843662991395484  0.9641515220451141  0.3491826337357364
  0.1009254206888770  0.4592178006956957  0.5918686537358290
  0.8519195344108885  0.2822201868965008  0.6496616920056963
  0.8065323770759305  0.5565036014661223  0.6521916661517028
  0.3279759424380689  0.4950982526312516  0.8699637892366541
  0.3211481764167292  0.7060643191832970  0.6579601420368404
  0.5696222397014363  0.1656079356946136  0.4915345409052814
  0.8392559059718796  0.6602920914348984  0.7261390436275283
  0.0488701776846004  0.1176853439399898  0.0726625268622925
  0.4344063543771398  0.7040931481537475  0.4442496422873774
  0.3663824187066328  0.2702494886545512  0.9118443918706388
  0.6249254707898079  0.0555222710453141  0.7829852052311747
  0.2443258677384879  0.7056851128146512  0.1345032172961478
  0.0949911678634852  0.2689111447565694  0.9727195698047836
  0.3804042333406692  0.8105602392710664  0.0557186050907770
  0.3438905560671321  0.5634042285996703  0.7082121865935221
  0.5512600477663023  0.4808558318053197  0.6118357615617899
  0.0870417504119703  0.5195336652629577  0.1041443910996901
  0.7715048401002222  0.1873118080281496  0.8504152882341416
  0.4807004823895858  0.0393540263153795  0.5171251054367665
  0.1384415845202614  0.2437742571752642  0.8123650489772104
  0.6822124549746813  0.4903975587094813  0.1408156405683559
  0.4907907010980780  0.3570891528906074  0.3518758415517552
  0.1062652269430733  0.2487374668751732  0.2697566285736964
  0.5154293467521608  0.9582171692087269  0.3210310252138051
  0.4597011635524980  0.5544727190246045  0.0142555013262709
  0.7350457308895219  0.0417805132995530  0.4814909694968068
  0.0427853441504079  0.1575631359005988  0.2014232805109796
  0.7996354042686320  0.1227836861090668  0.2480175610370152
  0.1431271146537949  0.8354988120435870 -0.0001654323947565
  0.2343830526992733  0.3435649451693056  0.7888614925976707
  0.8574017925524432  0.7385868017054777  0.0394550988254219
  0.9636285840475832  0.2636118176317786  0.1561417062292257
  0.6804081318357802  0.6610056828660404  0.6964559469777769
  0.6501047583716150  0.9448674329099873  0.8568786986460016
  0.2414677898240683  0.7958102885748548  0.3764139198061800
  0.5869175911625035  0.7068567495508465  0.2921109846791160
  0.6083681009921137  0.0802886583379613  0.0318632787729853
  0.8550210262920678  0.6426795072945579  0.8535269879769303
  0.5370320760170085  0.2740333221883341  0.5895066787735436
  0.8923450053337876  0.9160145051427888  0.6942564031807689
  0.7767992058492712  0.9408486293303043  0.9418701675045189
  0.2271824458849449  0.6207291335543327  0.2337113212649465
  0.8918599022395030  0.9491029745507419  0.0101793455394083
  0.0345462253600230  0.0061999495222592  0.9581757389176254
  0.5478062225146892  0.8003011793948892  0.5786113500847681
  0.6061522705570852  0.6983583060973739  0.5076006344221002
  0.9652599142361717  0.4362894824956474  0.8547673509825179
  0.3486304024034047  0.2069916148803659  0.5697777720589521
  0.1619811366576094  0.0253427677495620  0.5843507135139513
  0.2219671266245064  0.0330119763090786  0.7721462546087520
  0.7734064990408167  0.6302470654109668  0.4778973837447774
  0.7101933327135374  0.7896402906519969  0.1024821453709884
  0.3469319636613009  0.3443860486444160  0.0923357811505668
  0.4393079718832422  0.8545519902508283  0.7778510819210768
  0.5202685754634727  0.6599646665190724  0.8506449391619163
  0.2031259515401829  0.4739026706067146  0.0616819002075129
  0.6576111272556115  0.7882379398687879  0.8866555379284666
  0.9758333616353129  0.4493901800252774  0.0718532399739053
  0.3780899290707285  0.4118148704885001  0.9795988038698809
  0.8129690944061772  0.8414529970258192  0.6229019957553075
  0.3242563790574302  0.4910712309440008  0.4255896571513680
  0.0638543846245366  0.7412588090534444  0.5510557104459539
  0.9623276141450424  0.6219352421331188  0.1354968994965292
  0.2708291849395973  0.8701305535395230  0.9878340290539834
  0.0650075822527288  0.7067070218458203  0.2094339988424850
  0.4663865482822146  0.5660152331941767  0.5611376122326881
  0.9329672467039998  0.7830470143999363  0.5745237689576980
  0.6755226323686393  0.6924648134610171  0.3884909136462796
  0.9069053069904117  0.8393495341409717  0.2118990083960681
  0.4649963496452755  0.2941778058343328  0.1231812730551326
  0.6020332024645760  0.7921233171653352  0.1889937912157852
  0.3518506625987695  0.3070532261787283  0.7303987110522273
  0.6773014278637457  0.4836251274395793  0.5802438498987973
  0.4901975443707000  0.8981496271324263  0.0287761402463264
  0.8838400493547094  0.0516453507677289  0.6696113335935713
  0.4579098493198818  0.1447413095745799  0.8201536736102246
  0.3200765828975503  0.8079446126878070  0.7381816790990613
  0.5508664241264517  0.3174178439272431  0.7177709347287694
  0.4049106397336838  0.9057196624291404  0.3588407399157361
  0.0378766284908340  0.6352618367026843  0.3752903782969927
  0.6771932041527714  0.1206388752053560  0.5746600918127589
  0.4508008398512611  0.7137865883624898  0.2704230900022279
  0.5565962924926324  0.9853270322249984  0.9531029482187838
  0.8414139607169860  0.0776983719718310  0.8627122445431685
  0.6757326239847928  0.3939761579552956  0.2334242171855364
  0.5517391850459279  0.6780036865754963  0.7271892020419882
  0.0663816828210763  0.2306179313004054  0.3935063753361818
  0.3212851657974000  0.1063119099599711  0.3707320486023098
  0.8128012333149768  0.9932815392749865  0.2759862792689218
  0.2645901060145032  0.8634784010051225  0.5468865083921189
  0.4234626237199940  0.5886464117795933  0.2869302873496858
  0.7604196222944583  0.2188385903072138  0.0871232445311410
  0.2061491330701130  0.3760143410505256  0.4691154159820328
  0.0999481750324315  0.5790352142350769  0.2193051256175618
  0.6850825523197095  0.9234336368126974  0.1181282911796920
  0.1224813627406943  0.7504916764562762  0.6701088286057431
  0.8022179243943027  0.0986547040871874  0.1173353739342692
  0.8804999950042024  0.8950499185913046  0.8218808230370385
  0.4508862954026785  0.5557624874161429  0.8809179136421146
  0.4890988371986531  0.9964468597136295  0.2017611797822500
  0.5422721057074962  0.9396414440766926  0.5881587723832216
  0.8861061635755113  0.3270435423661892  0.9657931666797899
  0.1455953769284165  0.9349822684406162  0.7068828432147496
  0.1328399456935080  0.6240451049859773  0.6704507145892594
  0.5371642012931256  0.0643171537213663  0.3959259127807404
  0.2170725104988864  0.1879465517811325  0.6102601268554066
  0.9511911936011869  0.2655886214982509  0.3471018315460711
  0.3517354410613728  0.6153429432425267  0.3909304981928962
  0.5530154654233900  0.4256591284902093  0.2573580361348162
  0.7222996756363561  0.0548041904178629  0.6919224819565133
  0.2239788006279951  0.2463404501333791  0.9789428354878145
  0.0430784539067994  0.2681187084737021  0.7236821476189365
  0.7263016598663815  0.0206217952254928  0.0443630956638020
  0.2295333702746828  0.6401615129781522  0.3617308534474089
  0.1946680366105324  0.4090429848997857  0.6787726521539235
  0.4948803705708661  0.3895327619999553  0.5364429359014746
  0.5251436244524778  0.6118598604706930  0.4552766755902931
  0.6909492175743900  0.6163928194383715  0.5755976222246454
  0.5428552164689708  0.4717242877389629  0.8488102175980139
  0.3310354284518626  0.5490555713716632  0.1978186016465531
  0.9093333824850044  0.6149706832817102  0.3731912693222147
  0.6557666359635181  0.2271223036181356  0.3991120605767118
  0.9692247791607455  0.9611598415359620  0.5410946937527891
  0.4889686544061937  0.4218964461521268  0.1485374023346002
  0.3834864879518357  0.1590810500560930  0.0852568478587886
  0.7259388912464214  0.5855997820838671  0.8605563810828876
  0.0025139505199143  0.3422683805324314  0.2565501698963980
  0.5425197009651865  0.8021585982496225  0.7116976468866616
  0.0837890450689911  0.9562630612566844  0.4845111483484825
  0.6353426468465690  0.9077743724572406  0.3387044485552634
  0.7421125985853732  0.9217844513668088  0.5416033496742200
  0.0647822000512541  0.6168933887123265  0.5039497819799285
  0.3385627873764044  0.0166194536094163  0.6924692387717433
  0.2522011473295784  0.9751611980159199  0.4816246804011509
  0.0424065356157115  0.3450822617081136  0.5536019678822225
  0.6709884413882234  0.1014266038997046  0.2592603664255805
  0.2342023111629100  0.2766054186651959  0.2661367485374783
  0.7446255024660114  0.2350047117564358  0.5677503099946103
  0.7579901001773632  0.8123830734935329  0.9694443177821095
  0.8445228187440458  0.1172001471202765  0.4760851982836788
  0.0538520960221797  0.8346948115944152  0.3363118626035542
  0.3647065801949717  0.4009913217530909  0.3376581532397728
  0.3236098056709382  0.4197375659248160  0.2127767096619614
  0.4515569283755500  0.7698451398025191  0.8809036381059591
  0.8701943732249777  0.7116134866596356  0.4491135985725507
  0.6068508925625712  0.3176072711059442  0.9283904413557355
  0.8748301371476463  0.5787392116784623  0.9664336828323997
  0.1298794688039556  0.9631974636031890  0.1509607896084777
  0.5054860381157630  0.4396124474060273  0.7295840653656627
  0.3122431909427231  0.9736927165387808  0.0648608164028789
  0.8352745750710078  0.2852796235844432  0.1683006919878440
  0.0308990744277786  0.1518917173975085  0.9399030581682988
  0.2525361156479403  0.2547118445776753  0.1048393754591394
  0.0028049698894464  0.8779981743249748  0.6350159604117394
  0.9476686660383302  0.6866217819125441  0.6609678276405401
  0.9850762071206043  0.5149336894698495  0.9576031915526358
  0.2168270112389166  0.9349043595512769  0.3631149485429098
  0.2871453657988211  0.6564590683459531  0.0192408686540826
  0.6839572021468159  0.6200221568101359  0.1362033305979904
  0.8416395916152239  0.4239322704673059  0.3576657833678398
  0.8958525786943005  0.9622594942725059  0.3700999087075367
  0.0112141139828187  0.0436143220078603  0.6324309839156993
  0.0330387206096594  0.6812816318014986  0.8386131417159984
  0.1248027002674429  0.7517754747480401  0.1001991398038235
  0.8901179361501521  0.4956279831861943  0.5652181325280660
  0.0838374369606393  0.3539759771191818  0.4321944395655973
  0.7843169939435556  0.2279130172635003  0.4435595810305215
  0.2015809195510211  0.0414620176173955  0.0764589565801114
  0.6334735811639804  0.6576267819946733  0.9166234266379462
  0.3936510537364902  0.8635766805776847  0.5560968028585436
  0.2817641900112896  0.3098810693483160  0.3822906420733256
  0.9364417382897856  0.8448182658518377  0.0818648286838714
  0.1712376297692603  0.3591476267693091  0.1194177474208238
  0.4654443211097685  0.7023893247321887  0.0396373399668863
  0.4214699968642175  0.7380729352215818  0.5725843651996145
  0.5734845183646428  0.4627562465229432  0.0611769288034994
  0.8864219122417427  0.5084823941041903  0.1667733550761985
  0.9679300618919061  0.7526325744064295  0.2852316884159983
  0.9183214855784371  0.0605480095519043  0.0769938922511041
  0.1568707670270780  0.4433312042404872  0.9413326311860813
  0.6604706570218033  0.5464357367574283  0.7577143557093617
  0.1532749524280760  0.7800466540717833  0.2810402822115800
  0.5381199885577632  0.7927179500441256  0.9734981560258366
  0.9326603619526224  0.9631448877009443  0.2453843223686472
  0.0189339290219171  0.1460935360502401  0.5556511433348204
  0.9331671558217455  0.0994375919108614  0.7766833328674329
  0.0550705549419005  0.5158406265750616  0.3247995219746887
  0.1750244572203681  0.6412455368044655  0.9587540804194118
  0.7119851913948783  0.4401091926925991  0.3503421209188952
  0.9369904148484441  0.0842055232626101  0.3869958600022005
  0.7320655707909346  0.4601216984935708  0.6954553585261048
  0.2023643995735241  0.5132794652094715  0.3896387472624024
  0.3600939326773558  0.3349819960384448  0.6066999529414425
  0.6580808853776192  0.3295725567640378  0.5654613504403864
  0.6418518568164719  0.1710163133235967  0.8435792077869368
  0.7468330903265238  0.4353888597848923  0.0407086953602728
  0.5499013150888703  0.4391176358619160  0.4320817736646771
  0.8421763850990811  0.3899805586417274  0.8614847764392531
  0.5083886242482948  0.0857757736775484  0.7168369560647982
  0.0000939767397864  0.9323856115203961  0.8538938885819287
  0.5822967176423421  0.6020510896472743  0.2134074722691600
  0.4579981554675998  0.2305661679530136  0.0075837874703904
  0.7908346638749033  0.7956442143740358  0.2460834807903204
  0.7525226551664023  0.7656005860611386  0.7178090839463478
  0.1978664770608774  0.3968566500788034  0.2401752516121584
  0.6456228544999435  0.3552135172047952  0.0440159098865737
  0.2546768391427985  0.9381145720176842  0.8780301637571051
  0.4758583529447261  0.2464790708997872  0.4178288371941614
  0.8163697776132174  0.2213606876665509  0.9712150396516663
  0.0133833996206674  0.7619299480600085  0.7400939716292088
  0.3609564632749412  0.0700139047947550  0.9943947526075083
  0.0021044864252340  0.4987452808117440  0.7445458835386338
  0.4600467773456199  0.8340486933414512  0.4480688169390927
  0.3128306026853097  0.8217303541871300  0.1710257203013323
  0.6219222337292858  0.2170385687855761  0.2757985313774373
 
  0.00000000E+00  0.00000000E+00  0.00000000E+00
  0.00000000E+00  0.00000000E+00  0.00000000E+00
  0.00000000E+00  0.00000000E+00  0.00000000E+00
  0.00000000E+00  0.00000000E+00  0.00000000E+00
  0.00000000E+00  0.00000000E+00  0.00000000E+00
  0.00000000E+00  0.00000000E+00  0.00000000E+00
  0.00000000E+00  0.00000000E+00  0.00000000E+00
  0.00000000E+00  0.00000000E+00  0.00000000E+00
  0.00000000E+00  0.00000000E+00  0.00000000E+00
  0.00000000E+00  0.00000000E+00  0.00000000E+00
  0.00000000E+00  0.00000000E+00  0.00000000E+00
  0.00000000E+00  0.00000000E+00  0.00000000E+00
  0.00000000E+00  0.00000000E+00  0.00000000E+00
  0.00000000E+00  0.00000000E+00  0.00000000E+00
  0.00000000E+00  0.00000000E+00  0.00000000E+00
  0.00000000E+00  0.00000000E+00  0.00000000E+00
  0.00000000E+00  0.00000000E+00  0.00000000E+00
  0.00000000E+00  0.00000000E+00  0.00000000E+00
  0.00000000E+00  0.00000000E+00  0.00000000E+00
  0.00000000E+00  0.00000000E+00  0.00000000E+00
  0.00000000E+00  0.00000000E+00  0.00000000E+00
  0.00000000E+00  0.00000000E+00  0.00000000E+00
  0.00000000E+00  0.00000000E+00  0.00000000E+00
  0.00000000E+00  0.00000000E+00  0.00000000E+00
  0.00000000E+00  0.00000000E+00  0.00000000E+00
  0.00000000E+00  0.00000000E+00  0.00000000E+00
  0.00000000E+00  0.00000000E+00  0.00000000E+00
  0.00000000E+00  0.00000000E+00  0.00000000E+00
  0.00000000E+00  0.00000000E+00  0.00000000E+00
  0.00000000E+00  0.00000000E+00  0.00000000E+00
  0.00000000E+00  0.00000000E+00  0.00000000E+00
  0.00000000E+00  0.00000000E+00  0.00000000E+00
  0.00000000E+00  0.00000000E+00  0.00000000E+00
  0.00000000E+00  0.00000000E+00  0.00000000E+00
  0.00000000E+00  0.00000000E+00  0.00000000E+00
  0.00000000E+00  0.00000000E+00  0.00000000E+00
  0.00000000E+00  0.00000000E+00  0.00000000E+00
  0.00000000E+00  0.00000000E+00  0.00000000E+00
  0.00000000E+00  0.00000000E+00  0.00000000E+00
  0.00000000E+00  0.00000000E+00  0.00000000E+00
  0.00000000E+00  0.00000000E+00  0.00000000E+00
  0.00000000E+00  0.00000000E+00  0.00000000E+00
  0.00000000E+00  0.00000000E+00  0.00000000E+00
  0.00000000E+00  0.00000000E+00  0.00000000E+00
  0.00000000E+00  0.00000000E+00  0.00000000E+00
  0.00000000E+00  0.00000000E+00  0.00000000E+00
  0.00000000E+00  0.00000000E+00  0.00000000E+00
  0.00000000E+00  0.00000000E+00  0.00000000E+00
  0.00000000E+00  0.00000000E+00  0.00000000E+00
  0.00000000E+00  0.00000000E+00  0.00000000E+00
  0.00000000E+00  0.00000000E+00  0.00000000E+00
  0.00000000E+00  0.00000000E+00  0.00000000E+00
  0.00000000E+00  0.00000000E+00  0.00000000E+00
  0.00000000E+00  0.00000000E+00  0.00000000E+00
  0.00000000E+00  0.00000000E+00  0.00000000E+00
  0.00000000E+00  0.00000000E+00  0.00000000E+00
  0.00000000E+00  0.00000000E+00  0.00000000E+00
  0.00000000E+00  0.00000000E+00  0.00000000E+00
  0.00000000E+00  0.00000000E+00  0.00000000E+00
  0.00000000E+00  0.00000000E+00  0.00000000E+00
  0.00000000E+00  0.00000000E+00  0.00000000E+00
  0.00000000E+00  0.00000000E+00  0.00000000E+00
  0.00000000E+00  0.00000000E+00  0.00000000E+00
  0.00000000E+00  0.00000000E+00  0.00000000E+00
  0.00000000E+00  0.00000000E+00  0.00000000E+00
  0.00000000E+00  0.00000000E+00  0.00000000E+00
  0.00000000E+00  0.00000000E+00  0.00000000E+00
  0.00000000E+00  0.00000000E+00  0.00000000E+00
  0.00000000E+00  0.00000000E+00  0.00000000E+00
  0.00000000E+00  0.00000000E+00  0.00000000E+00
  0.00000000E+00  0.00000000E+00  0.00000000E+00
  0.00000000E+00  0.00000000E+00  0.00000000E+00
  0.00000000E+00  0.00000000E+00  0.00000000E+00
  0.00000000E+00  0.00000000E+00  0.00000000E+00
  0.00000000E+00  0.00000000E+00  0.00000000E+00
  0.00000000E+00  0.00000000E+00  0.00000000E+00
  0.00000000E+00  0.00000000E+00  0.00000000E+00
  0.00000000E+00  0.00000000E+00  0.00000000E+00
  0.00000000E+00  0.00000000E+00  0.00000000E+00
  0.00000000E+00  0.00000000E+00  0.00000000E+00
  0.00000000E+00  0.00000000E+00  0.00000000E+00
  0.00000000E+00  0.00000000E+00  0.00000000E+00
  0.00000000E+00  0.00000000E+00  0.00000000E+00
  0.00000000E+00  0.00000000E+00  0.00000000E+00
  0.00000000E+00  0.00000000E+00  0.00000000E+00
  0.00000000E+00  0.00000000E+00  0.00000000E+00
  0.00000000E+00  0.00000000E+00  0.00000000E+00
  0.00000000E+00  0.00000000E+00  0.00000000E+00
  0.00000000E+00  0.00000000E+00  0.00000000E+00
  0.00000000E+00  0.00000000E+00  0.00000000E+00
  0.00000000E+00  0.00000000E+00  0.00000000E+00
  0.00000000E+00  0.00000000E+00  0.00000000E+00
  0.00000000E+00  0.00000000E+00  0.00000000E+00
  0.00000000E+00  0.00000000E+00  0.00000000E+00
  0.00000000E+00  0.00000000E+00  0.00000000E+00
  0.00000000E+00  0.00000000E+00  0.00000000E+00
  0.00000000E+00  0.00000000E+00  0.00000000E+00
  0.00000000E+00  0.00000000E+00  0.00000000E+00
  0.00000000E+00  0.00000000E+00  0.00000000E+00
  0.00000000E+00  0.00000000E+00  0.00000000E+00
  0.00000000E+00  0.00000000E+00  0.00000000E+00
  0.00000000E+00  0.00000000E+00  0.00000000E+00
  0.00000000E+00  0.00000000E+00  0.00000000E+00
  0.00000000E+00  0.00000000E+00  0.00000000E+00
  0.00000000E+00  0.00000000E+00  0.00000000E+00
  0.00000000E+00  0.00000000E+00  0.00000000E+00
  0.00000000E+00  0.00000000E+00  0.00000000E+00
  0.00000000E+00  0.00000000E+00  0.00000000E+00
  0.00000000E+00  0.00000000E+00  0.00000000E+00
  0.00000000E+00  0.00000000E+00  0.00000000E+00
  0.00000000E+00  0.00000000E+00  0.00000000E+00
  0.00000000E+00  0.00000000E+00  0.00000000E+00
  0.00000000E+00  0.00000000E+00  0.00000000E+00
  0.00000000E+00  0.00000000E+00  0.00000000E+00
  0.00000000E+00  0.00000000E+00  0.00000000E+00
  0.00000000E+00  0.00000000E+00  0.00000000E+00
  0.00000000E+00  0.00000000E+00  0.00000000E+00
  0.00000000E+00  0.00000000E+00  0.00000000E+00
  0.00000000E+00  0.00000000E+00  0.00000000E+00
  0.00000000E+00  0.00000000E+00  0.00000000E+00
  0.00000000E+00  0.00000000E+00  0.00000000E+00
  0.00000000E+00  0.00000000E+00  0.00000000E+00
  0.00000000E+00  0.00000000E+00  0.00000000E+00
  0.00000000E+00  0.00000000E+00  0.00000000E+00
  0.00000000E+00  0.00000000E+00  0.00000000E+00
  0.00000000E+00  0.00000000E+00  0.00000000E+00
  0.00000000E+00  0.00000000E+00  0.00000000E+00
  0.00000000E+00  0.00000000E+00  0.00000000E+00
  0.00000000E+00  0.00000000E+00  0.00000000E+00
  0.00000000E+00  0.00000000E+00  0.00000000E+00
  0.00000000E+00  0.00000000E+00  0.00000000E+00
  0.00000000E+00  0.00000000E+00  0.00000000E+00
  0.00000000E+00  0.00000000E+00  0.00000000E+00
  0.00000000E+00  0.00000000E+00  0.00000000E+00
  0.00000000E+00  0.00000000E+00  0.00000000E+00
  0.00000000E+00  0.00000000E+00  0.00000000E+00
  0.00000000E+00  0.00000000E+00  0.00000000E+00
  0.00000000E+00  0.00000000E+00  0.00000000E+00
  0.00000000E+00  0.00000000E+00  0.00000000E+00
  0.00000000E+00  0.00000000E+00  0.00000000E+00
  0.00000000E+00  0.00000000E+00  0.00000000E+00
  0.00000000E+00  0.00000000E+00  0.00000000E+00
  0.00000000E+00  0.00000000E+00  0.00000000E+00
  0.00000000E+00  0.00000000E+00  0.00000000E+00
  0.00000000E+00  0.00000000E+00  0.00000000E+00
  0.00000000E+00  0.00000000E+00  0.00000000E+00
  0.00000000E+00  0.00000000E+00  0.00000000E+00
  0.00000000E+00  0.00000000E+00  0.00000000E+00
  0.00000000E+00  0.00000000E+00  0.00000000E+00
  0.00000000E+00  0.00000000E+00  0.00000000E+00
  0.00000000E+00  0.00000000E+00  0.00000000E+00
  0.00000000E+00  0.00000000E+00  0.00000000E+00
  0.00000000E+00  0.00000000E+00  0.00000000E+00
  0.00000000E+00  0.00000000E+00  0.00000000E+00
  0.00000000E+00  0.00000000E+00  0.00000000E+00
  0.00000000E+00  0.00000000E+00  0.00000000E+00
  0.00000000E+00  0.00000000E+00  0.00000000E+00
  0.00000000E+00  0.00000000E+00  0.00000000E+00
  0.00000000E+00  0.00000000E+00  0.00000000E+00
  0.00000000E+00  0.00000000E+00  0.00000000E+00
  0.00000000E+00  0.00000000E+00  0.00000000E+00
  0.00000000E+00  0.00000000E+00  0.00000000E+00
  0.00000000E+00  0.00000000E+00  0.00000000E+00
  0.00000000E+00  0.00000000E+00  0.00000000E+00
  0.00000000E+00  0.00000000E+00  0.00000000E+00
  0.00000000E+00  0.00000000E+00  0.00000000E+00
  0.00000000E+00  0.00000000E+00  0.00000000E+00
  0.00000000E+00  0.00000000E+00  0.00000000E+00
  0.00000000E+00  0.00000000E+00  0.00000000E+00
  0.00000000E+00  0.00000000E+00  0.00000000E+00
  0.00000000E+00  0.00000000E+00  0.00000000E+00
  0.00000000E+00  0.00000000E+00  0.00000000E+00
  0.00000000E+00  0.00000000E+00  0.00000000E+00
  0.00000000E+00  0.00000000E+00  0.00000000E+00
  0.00000000E+00  0.00000000E+00  0.00000000E+00
  0.00000000E+00  0.00000000E+00  0.00000000E+00
  0.00000000E+00  0.00000000E+00  0.00000000E+00
  0.00000000E+00  0.00000000E+00  0.00000000E+00
  0.00000000E+00  0.00000000E+00  0.00000000E+00
  0.00000000E+00  0.00000000E+00  0.00000000E+00
  0.00000000E+00  0.00000000E+00  0.00000000E+00
  0.00000000E+00  0.00000000E+00  0.00000000E+00
  0.00000000E+00  0.00000000E+00  0.00000000E+00
  0.00000000E+00  0.00000000E+00  0.00000000E+00
  0.00000000E+00  0.00000000E+00  0.00000000E+00
  0.00000000E+00  0.00000000E+00  0.00000000E+00
  0.00000000E+00  0.00000000E+00  0.00000000E+00
  0.00000000E+00  0.00000000E+00  0.00000000E+00
  0.00000000E+00  0.00000000E+00  0.00000000E+00
  0.00000000E+00  0.00000000E+00  0.00000000E+00
  0.00000000E+00  0.00000000E+00  0.00000000E+00
  0.00000000E+00  0.00000000E+00  0.00000000E+00
  0.00000000E+00  0.00000000E+00  0.00000000E+00
  0.00000000E+00  0.00000000E+00  0.00000000E+00
  0.00000000E+00  0.00000000E+00  0.00000000E+00
  0.00000000E+00  0.00000000E+00  0.00000000E+00
  0.00000000E+00  0.00000000E+00  0.00000000E+00
  0.00000000E+00  0.00000000E+00  0.00000000E+00
  0.00000000E+00  0.00000000E+00  0.00000000E+00
  0.00000000E+00  0.00000000E+00  0.00000000E+00
  0.00000000E+00  0.00000000E+00  0.00000000E+00
  0.00000000E+00  0.00000000E+00  0.00000000E+00
  0.00000000E+00  0.00000000E+00  0.00000000E+00
  0.00000000E+00  0.00000000E+00  0.00000000E+00
  0.00000000E+00  0.00000000E+00  0.00000000E+00
  0.00000000E+00  0.00000000E+00  0.00000000E+00
  0.00000000E+00  0.00000000E+00  0.00000000E+00
  0.00000000E+00  0.00000000E+00  0.00000000E+00
  0.00000000E+00  0.00000000E+00  0.00000000E+00
  0.00000000E+00  0.00000000E+00  0.00000000E+00
  0.00000000E+00  0.00000000E+00  0.00000000E+00
  0.00000000E+00  0.00000000E+00  0.00000000E+00
  0.00000000E+00  0.00000000E+00  0.00000000E+00
  0.00000000E+00  0.00000000E+00  0.00000000E+00
  0.00000000E+00  0.00000000E+00  0.00000000E+00
  0.00000000E+00  0.00000000E+00  0.00000000E+00
  0.00000000E+00  0.00000000E+00  0.00000000E+00
  0.00000000E+00  0.00000000E+00  0.00000000E+00
  0.00000000E+00  0.00000000E+00  0.00000000E+00
  0.00000000E+00  0.00000000E+00  0.00000000E+00
  0.00000000E+00  0.00000000E+00  0.00000000E+00
  0.00000000E+00  0.00000000E+00  0.00000000E+00
  0.00000000E+00  0.00000000E+00  0.00000000E+00
  0.00000000E+00  0.00000000E+00  0.00000000E+00
  0.00000000E+00  0.00000000E+00  0.00000000E+00
  0.00000000E+00  0.00000000E+00  0.00000000E+00
  0.00000000E+00  0.00000000E+00  0.00000000E+00
  0.00000000E+00  0.00000000E+00  0.00000000E+00
  0.00000000E+00  0.00000000E+00  0.00000000E+00
  0.00000000E+00  0.00000000E+00  0.00000000E+00
  0.00000000E+00  0.00000000E+00  0.00000000E+00
  0.00000000E+00  0.00000000E+00  0.00000000E+00