Amorphous Sb                            
  0.900000000000000     
    20.1278869700586931    0.0000000000000000    0.0000000000000000
     0.0000000000000000   20.1278869700586931    0.0000000000000000
     0.0000000000000000    0.0000000000000000   20.1278869700586931
   Ge   Se
   150   150
Direct
  0.4988711942678743  0.7092340712838715  0.7756254235621634
  0.1885781020063127  0.4250551005360859  0.7871172048242464
  0.4117775212862773  0.3050177634001885  0.6435604459111762
  0.8558192640690606  0.0068948146496273  0.6582597429850282
  0.8469599728408972  0.6054457026731693  0.6321889168279331
  0.2154487844060946  0.7196050169974698  0.9101665387468636
  0.1750572438669491  0.1405469240867068  0.3121553103571080
  0.3182878742168126  0.5855947120627167  0.7858714737402466
  0.3303690954802160  0.8940343044466037  0.2560653672620152
  0.3643617831941788  0.0028380703934600  0.4173734928610490
 -0.0151812665525729  0.0225934339549450  0.4007513389601869
  0.6744072954605327  0.3051070504662526  0.8190985260302422
  0.6781624861654256  0.4331703553583198  0.5349541661684185
  0.2740367658661451  0.0266094307181933  0.8258427374656865
  0.6711183003301139  0.9793688303451057  0.4231354637895281
 -0.0035071465364201  0.8139900525471877  0.0510226058078318
  0.0494626486308495  0.7687923038681745  0.3442481577339741
  0.8078414453362937  0.4253941651655709  0.3821806153831826
  0.1010188921667166  0.5414178633640659  0.9670107444284839
  0.0313277395786027  0.9101914390452049  0.4798033852530064
  0.1407389873729879  0.8443234097128067  0.1828979346657102
  0.4344238010972622  0.6990901984237874  0.9787587428159432
  0.0028841875088393  0.1843769700910486  0.8752126835542509
  0.0425365590208623  0.0978526014820637  0.0952747967734199
  0.5895379603600504  0.2825692645318834  0.1257049912953153
  0.3534405822417083  0.1677256842264389  0.5969050854058801
  0.3863880919244745  0.7750616116449147  0.5472483742925169
  0.8409341760718169  0.9047347140975430  0.0763910589343177
  0.8264321780872956  0.4568345637087687  0.6495638235080936
  0.9209022746595512  0.7758665416217940  0.5871494894878148
  0.0669957061428015  0.3483094499691545  0.7384314408203944
  0.0141558188586054  0.1107414533212293  0.2327289883657107
  0.9446461102146743  0.4750566367866820  0.4873459534828105
  0.3297680531927771  0.4601124999077807  0.2688522734659634
  0.0624552906727717  0.5540957227932429  0.5852583134342865
  0.7531042184251192  0.7313721276737364  0.1913043938766521
  0.4439943986753917  0.4835413531391899  0.9145631231385057
  0.2355236580071813  0.0681773207833093  0.1738751326497137
  0.2635290404854770  0.3610648423893834  0.1030309150718642
  0.7313417465722909  0.4437306927666526  0.8247545436172589
  0.8767762951883793  0.8680423460184350  0.4204310997847665
  0.9237510384511641  0.1868991826583377  0.5045796447144509
  0.5577441261197719  0.8622683909866852  0.5546450613440416
  0.4016090352918881  0.9709984071647217  0.0826327997060379
  0.3606479301878777  0.6609586030028072  0.2279128788507539
  0.4197526544228791  0.3787911879686675  0.5052832370420164
  0.9283508936584872  0.7949347447149874  0.1965226293986194
  0.0418944325643064  0.2961089755375916  0.4162688335609387
  0.9574325236056854  0.7569740994371231  0.7999836881903396
  0.5300397618016157  0.0190651580035652  0.2833953630918974
  0.2587174307277733  0.4212016966592687  0.9315641669200431
  0.0298787675878936  0.2982736681271073  0.1304050692008624
  0.6344738729676048  0.7354222699121933  0.8393183212563123
  0.5751368531859391  0.2764892732647835  0.7256892529851731
  0.0670531268685665  0.5817730933671585  0.4065619334626514
  0.0099585600413379  0.9203488251347619  0.1682702596119750
  0.1969142338687385  0.5820427911158595  0.4883123895803237
  0.9184018251408002  0.2941490116139728  0.6084821308469810
  0.1001400686425455  0.0227965906209418  0.7603577888522320
  0.5032148675776364  0.4437104674106196  0.3117488691734235
  0.6412264288081008  0.0879523086556284  0.1418416377213325
  0.5454430948528379  0.6270079928659877  0.2526086683840317
  0.9532813567178893  0.6583716574669711  0.3568062539162878
  0.9131335357335130  0.0015516952376318  0.8399589614992262
  0.5670909419233851  0.8447782754445966  0.0473942265224800
  0.1140342884998787  0.3843499198708120  0.9428895870224464
  0.8025935848889785  0.8773244038236961  0.5566110103537152
  0.7050551011805427  0.7287684688266750  0.6998392174505035
  0.8026289531243470  0.3008556153449157  0.1369823021215691
  0.8127064014128061  0.2876508498433321 -0.0988094311022321
  0.9417443049958231  0.3759404460239538  0.7849140708846728
  0.4425594542058813  0.1488691715889006  0.1599024640934290
  0.3605427168901830  0.5144165928472985  0.4538939555028554
  0.4490870522205713  0.8729827034750690  0.3800620331748792
  0.3313845959617502  0.4235556028145170  0.6636444897234727
  0.6721038256567687  0.9054073957550506  0.1840802189262758
  0.2628936859207835  0.2372471798437551  0.1622908683170381
  0.8873132491274082  0.1103984363535808  0.0457778501600767
  0.2909391248626276  0.8478122050614906  0.9280124433807776
  0.4360614153437362  0.2732752668567621  0.0801973119685903
  0.7038835352662541  0.9712680519983488  0.9364406455815701
  0.9596987406838473  0.6177381396593684  0.8542761595233894
  0.7997351952778670  0.4928743346704857  0.1053436905523708
  0.7497084869910909  0.5376540124724275  0.3263492195800055
  0.4304720719092556  0.1369768748764551  0.7570229285292873
  0.6516854524007762  0.1828923149281797  0.0265736452577489
  0.5137752729639601  0.6456306752281785  0.5943331476276703
  0.7511894117683241  0.3037144462767106  0.5216135198655221
  0.6137715891821339  0.6123067245473552  0.1108407082928012
  0.5550835800347287  0.2492604649391352  0.3962515695174790
  0.6637143314217769  0.1026462229127513  0.9123363155915415
  0.0637732255022569  0.1024793543089277  0.5897298470140998
  0.3289595586133006  0.5773884749618019  0.6368736144866621
  0.8388398887961552  0.0947994006080055  0.3167147648436701
  0.6399137494357000  0.9369032113373301  0.6407138927006690
  0.6527049866413392  0.6906590817688922  0.4934214618861419
  0.4452594834316765  0.0216809857432887  0.9202853447454827
  0.1138052640775096  0.3988339437142903  0.6029960343255147
  0.1818450755111939  0.7900920037472740  0.4814110554540161
  0.1387268065437426  0.1633047086253000  0.7372930716854849
  0.1093544920812697  0.4316561453349640  0.2905295301496987
  0.4884983811739462  0.3413208306261253  0.9100242176707529
  0.2017529657677017  0.4909386493949029  0.0730748037171334
  0.8060922471218102  0.1103769974928553  0.1740149877482202
  0.4535100037017878  0.8485201397802438  0.7882179425716033
  0.7189889922415255  0.7231547100804053  0.0310011072281063
 -0.0005834517092716  0.4806601821069378  0.0454442007259619
  0.0200962103691372  0.6737117780743190  0.0771773536628422
  0.6907159252127688  0.1280102167944784  0.6787421956655294
  0.7583521498570825  0.8900261534244084  0.8333524521290333
  0.1084917117944216  0.8504031661420104  0.6397758375406566
  0.1571477842567721  0.9562765390146706 -0.0138833227518946
  0.1321135766013231  0.9748987269676779  0.3617779447511891
  0.7541547033964099  0.2107808479856403  0.3495006473825100
  0.7525662291043671  0.8350478342382216  0.3478738074226273
  0.7523268928996484  0.6462846617377653  0.4077430875524206
  0.4323570328361063  0.2669426526372172  0.2769245832723781
  0.6907301898945026  0.5794016234141272  0.7027235017435401
  0.3294446714924280  0.2165455055761945  0.4273901917914650
  0.0585747010207664  0.8878404079793666  0.7663921771096573
  0.9491996663185075  0.4567360144323719  0.2172393302524480
  0.8813682078391337  0.2758786256904590  0.3095594858122196
  0.8032766116309463  0.6311032835556309  0.8331783470435994
  0.0417633768424759  0.9753715487621748  0.9039285827772269
  0.2342359878574234  0.3878147874011116  0.4137966477776873
  0.2380815552162868  0.6879750747831308  0.6797026495549272
  0.3457429987537327  0.9564342591867879  0.5577553705993175
  0.5920752475224100  0.8773057869351781  0.8179063575683356
  0.2381485245963831  0.2036308813485906  0.9611239717071720
  0.2894797405177409  0.8035053902262154  0.0668304741860435
  0.5219706409525225  0.5528288924148645  0.4649218102271261
  0.9109301153926476  0.7753038721922294  0.9371836964552454
  0.4695237674632525  0.1999273421272428  0.9539025657934822
  0.4366841186194551  0.5169395850296030  0.1037460421597911
  0.0315063748618919  0.7283505522050644  0.6758046445892105
  0.1823115978294190  0.6365991373716595  0.2292412551160597
  0.2923990608588758  0.2699295098115238  0.8126834428308838
  0.5095277180394348  0.0953543828253257  0.5019776932398512
  0.3165439901287568  0.7017639769038668  0.3684493832625282
  0.3137707380005185  0.8645154711678663  0.7322225542220453
  0.6706803055995493  0.4285866135413886  0.2392306214484213
  0.6265781253402147  0.4548072795885815 -0.0155071304484720
  0.1443476190926104 -0.0147313315683633  0.6235492397365471
  0.8690899322569933  0.1902751707929619  0.7736677881038657
  0.6433219026000235  0.1372271694085230  0.5298103847548307
  0.1763812191124406  0.1961588906385438  0.5291925934465788
  0.1148701024031374  0.5908273899014347  0.7848021045573355
  0.4981953497207718  0.8536946132530019  0.2277250420122002
  0.4777022895598663  0.4675973287708466  0.7321259584682949
  0.8996922821670623  0.4692839841791622  0.9322952114893249
  0.8726888966738265  0.1117462992268761  0.9120817948937668
  0.8199673385394557  0.0022760019264165  0.4101639117135538
  0.0635314182172175  0.7279750706796659  0.2077845888722576
  0.9711082678856042  0.4279216475793056  0.6274606586221702
  0.2992055654851187  0.6784543874141185  0.0162177609299900
  0.1101901897621362  0.0037201505239595  0.2198844099382559
  0.5597462844167965  0.4968410273421138  0.1787713711137905
  0.7307081692012035  0.0064371217866342  0.5686958893345851
  0.6245280319425233  0.2927102189596011 -0.0551585688159539
  0.0959454456154114  0.0968696048974605  0.4523642394239100
  0.9661103397029338  0.8749640983839918  0.3129691452718659
  0.7860908761276395  0.0182474164334531  0.7825451623581942
  0.7626349350846724  0.7047902202175694  0.5753632459440673
  0.2566587398495823  0.8103573484043508  0.6176391698798089
  0.8799386518826442  0.6774742589304233  0.2441858573835996
  0.5077300684105992  0.1034859558400157  0.0430893382041381
  0.3167456630829391  0.1510667751902277  0.0713911686284268
  0.3189417457802298  0.8299669504765870  0.4277779028202019
  0.9194045442874037 -0.1164151441783333  0.7560094779776839
  0.7130040179826178  0.2219587747418190  0.2064070398898263
  0.7605151010002484  0.0272155760628141  0.0507465635434990
  0.5417214521673237  0.1617664334709428  0.6685355035934674
  0.1651051256467972  0.0783829919358326  0.0499220158072646
  0.8667953642571875  0.4942018775180977  0.7926200963997754
  0.2239592575002654  0.3660466689600350  0.2615490871201823
  0.3323522833120488  0.4385408158845303  0.8143067684494548
  0.2645392593555176  0.7662422870659455  0.1985483087757309
  0.2638501140644460  0.0040979458956300  0.3236335480388934
  0.3353398210796384  0.5135583764950455 -0.0023182093488373
  0.4060796256567065  0.0215517631564592  0.2165242007107122
  0.4525517017757599  0.2349105521126505  0.5039029409866034
  0.3973508104753137  0.3649003397971320  0.1819717134049745
  0.9103992307771935  0.0158361496035259  0.2167102171429886
  0.4296112171412735  0.8321433908259712  0.1035164405127528
  0.0917220181199909  0.4284244867171553  0.4322370425676619
  0.0382160527523324  0.4933444300170496  0.8505395091657523
  0.5725409495097443  0.4375616805003414  0.8392951494139793
  0.2722206153668477 -0.0044907560521761  0.6693332229909809
  0.5578750132658705  0.1501003202847482  0.2349952046631622
  0.9135602782419643  0.5219727632345984  0.3502276655939173
  0.6133759376369596  0.5485025370733035  0.3537699265982406
  0.3577587637886703  0.1447839618271929  0.8937041674668007
  0.1737634736581666  0.9350622604650062  0.4978750880716248
 -0.0478542633501853  0.1674878357359755  0.3671344572438040
  0.5686417233982639  0.9426258407521306  0.9361477139307316
  0.6031207913737051 -0.0014448645856392  0.7515149435362555
  0.6880687593942426  0.4412565455427948  0.6800855791450031
  0.1643460208821148  0.8432535699706898  0.3355122299113987
  0.9005410457671070  0.3404478081425272  0.4494657728433005
  0.5103408091076808  0.7706244745852581  0.4614952826790583
  0.8323526247072784  0.3219237271375519  0.7294162736197713
  0.3271523402346678  0.6445864169540293  0.4987449668918799
  0.7182733271965885  0.1748057240037365  0.8130176993542095
  0.2824504217795205  0.0945105669716297  0.4944844322393215
  0.8033654943262456  0.8664502181357007  0.2198470201743457
  0.7374715498007416  0.5788888376530691  0.1977667445457524
  0.1668144588463649  0.6805064119600983  0.3789141772935807
  0.0558387964175774  0.8356633855534548  0.8922308639392287
  0.7774479724561707  0.4119831909129084  0.9569804026470371
  0.9406506691371372  0.0529364079356621  0.5344099013417735
  0.2698258130530139  0.9390032386879306  0.1367395269011923
  0.5534989088133107  0.5883156345530537  0.7171880886357151
 -0.0185466295078119  0.9078029599047273  0.6054649344109766
  0.1223712478392623  0.2775833536842225  0.8488130156539228
  0.5351810658033639  0.3757508137263298  0.6422799464164555
  0.2784727860481238  0.2895288194607596  0.5384835239356542
  0.2922656172146265  0.9817178640728530  0.9647652310748012
  0.7909134383440289  0.2204719140947499  0.0234306444341188
  0.8652891671671558  0.6030125275711654  0.9556457579272301
  0.9125808313423742  0.2165860255373697  0.1852304456346162
  0.5422552054445511  0.4120169394867577  0.4501590162411516
  0.5768714465205995  0.3252728963230640  0.2608199419545484
  0.6340655258555681  0.5635937232603894  0.5498293190842473
  0.6854934350167136  0.7200989346082920  0.3156962405809221
  0.4556139557969518  0.7443260341745692  0.3026264459749157
  0.1380577707894741  0.7271013333124715  0.7663496631869409
  0.7649381280054321  0.7503837651807853  0.8969577229405968
  0.6023665204073313  0.7765532028142681  0.1687600220183435
  0.8561670643025102  0.7246439396084310  0.7109427538567094
  0.1520638585401764  0.2941393129314264  0.0380006324614144
  0.8618455101757828  0.9038883397617758  0.9347313813289891
  0.7101895758981457  0.8620795545371137  0.0395531678762447
  0.7097991285668399  0.0310291283842082  0.2472114509806719
  0.1808924308327409  0.5221314972397855  0.6908483958726769
  0.8012096307052712  0.5032887716642598  0.5080498439007294
  0.4313645539116033  0.2824538634443899  0.7816034361800251
 -0.0127531781749611  0.9847901715561411  0.0373215936647516
  0.4315551750654364  0.5730283768555343  0.3214526231239235
  0.1347383170512471  0.2066408452483886  0.1934158410794783
  0.0358940610986603  0.7760957050482182  0.4845788478515751
  0.7027699494726196  0.3377042773248670  0.3853545394396529
  0.4049286617373676  0.6929758285003602  0.6699910928501520
  0.6276317905738493  0.8897625653025342  0.3196341532314707
  0.4274662114588986  0.8400314069912892  0.9238607046562439
  0.1421380423693677  0.8230774439849632  0.0391326958597997
  0.7885647516673266  0.1744050867069747  0.4846677014697519
  0.6890565227824149  0.8419404662917892  0.4835690583935283
 -0.0003439956469303  0.2323099302121201  0.7096886471754611
  0.6780974379986693  0.5779605171595309  0.8468512257117939
  0.3308970314748567  0.3149710658247470 -0.0172928717108371
  0.4310914640279057  0.6101854000059868  0.8596751463275075
  0.0571678574185162  0.6705182655579209  0.9371611447245358
  0.5610412415974190  0.9722360838033504  0.1333946471622778
  0.5075716446447435  0.3869725345039881  0.0459433270098541
  0.8567543270493625  0.7423000082343565  0.0719973493840939
  0.6411181025705208  0.1292081637488952  0.3874275865052924
  0.2162557931605977  0.5732995568518575  0.8829718744248679
  0.2591703772451097  0.4616903109050622  0.5424366871042612
  0.5368550718324637  0.1220144778998613  0.8604303256607665
  0.4456311073336464  0.5126952331925971  0.5887151979733370
  0.2095472422512196  0.8936309264358884  0.8166731306108548
  0.1358331359333841  0.0989062227244792  0.8735191045852010
  0.2508209040087145  0.5269217781912963  0.3614562017931099
  0.0036112195911962  0.1994897640234420  0.0167046184798417
  0.2311786330452870  0.3301022736471890  0.6936367453538673
  0.3146188392687280  0.1827175508644998  0.2722948738222577
  0.3156754062920543  0.7315124171737579  0.8108818188090665
  0.8621593042404768  0.7202547081907796  0.4348699131256631
  0.0663396884962079  0.5603196329872271  0.2688506642045983
  0.9301601228671562  0.5710209187935514  0.1192790018890486
  0.1781670364514975  0.2492404725639434  0.3951933504327162
  0.2768995114553882  0.1583252630266279  0.7274638773517653
  0.9482885390051328  0.3220396786906781  0.9105028464963854
  0.8249841376643795  0.3949224132142815  0.2445987524779959
  0.5325350921876307  0.9626026296979262  0.4639554295547194
  0.7149988593207132  0.5669334443043085  0.0203896385622553
  0.4125827636383027 -0.0126782477355904  0.7868261857065210
  0.5268230591910096  0.5601840884338125 -0.0009245694342683
  0.6128283770157266  0.2700598614872785  0.5239308873035621
  0.5779731620071064  0.7627303805646896  0.6576829960522740
  0.2862648770598098  0.5451258251152903  0.1699567310260733
  0.0628807692905302  0.2777916077709169  0.5551347252414854
  0.7439405623439584  0.8620605657074090  0.6842283918428195
  0.4519419968139050  0.6583505845366665  0.1274913054626967
  0.1497392020191044  0.6287725446897959  0.0873192965768022
  0.5837144461445033  0.7282538979017569  0.9676159471184828
  0.7016671700150935  0.2674406392792071  0.6605767380918374
  0.4406206986196413  0.8775235193518526  0.6280450667356440
  0.3775305573358988  0.3574716977629394  0.3721172524327718
  0.1366589903490798  0.6736841238110494  0.5801810244252512
  0.8334576821432045  0.1467982299583715  0.6477935648577713
  0.0125947265467168  0.3343207953502401  0.2760121762862157
  0.9186250624940102  0.3758220049757182  0.0812588240483532
  0.0913047458611581  0.4385178838732281  0.1416976105499562
  0.4475134776311084  0.1059219816240694  0.3770061428885847
  0.9477746424229655  0.6215423337219159  0.5354672678562147
 -0.0253320302621464  0.0675764803652677  0.7312042193206173
 -0.0012531463953496  0.5952548592956568  0.7012696135546145
  0.6901978590089852  0.3847750551370512  0.1063010070528426
  0.4388169813950265  0.0488805784949768  0.6064627270814626
 
  0.00000000E+00  0.00000000E+00  0.00000000E+00
  0.00000000E+00  0.00000000E+00  0.00000000E+00
  0.00000000E+00  0.00000000E+00  0.00000000E+00
  0.00000000E+00  0.00000000E+00  0.00000000E+00
  0.00000000E+00  0.00000000E+00  0.00000000E+00
  0.00000000E+00  0.00000000E+00  0.00000000E+00
  0.00000000E+00  0.00000000E+00  0.00000000E+00
  0.00000000E+00  0.00000000E+00  0.00000000E+00
  0.00000000E+00  0.00000000E+00  0.00000000E+00
  0.00000000E+00  0.00000000E+00  0.00000000E+00
  0.00000000E+00  0.00000000E+00  0.00000000E+00
  0.00000000E+00  0.00000000E+00  0.00000000E+00
  0.00000000E+00  0.00000000E+00  0.00000000E+00
  0.00000000E+00  0.00000000E+00  0.00000000E+00
  0.00000000E+00  0.00000000E+00  0.00000000E+00
  0.00000000E+00  0.00000000E+00  0.00000000E+00
  0.00000000E+00  0.00000000E+00  0.00000000E+00
  0.00000000E+00  0.00000000E+00  0.00000000E+00
  0.00000000E+00  0.00000000E+00  0.00000000E+00
  0.00000000E+00  0.00000000E+00  0.00000000E+00
  0.00000000E+00  0.00000000E+00  0.00000000E+00
  0.00000000E+00  0.00000000E+00  0.00000000E+00
  0.00000000E+00  0.00000000E+00  0.00000000E+00
  0.00000000E+00  0.00000000E+00  0.00000000E+00
  0.00000000E+00  0.00000000E+00  0.00000000E+00
  0.00000000E+00  0.00000000E+00  0.00000000E+00
  0.00000000E+00  0.00000000E+00  0.00000000E+00
  0.00000000E+00  0.00000000E+00  0.00000000E+00
  0.00000000E+00  0.00000000E+00  0.00000000E+00
  0.00000000E+00  0.00000000E+00  0.00000000E+00
  0.00000000E+00  0.00000000E+00  0.00000000E+00
  0.00000000E+00  0.00000000E+00  0.00000000E+00
  0.00000000E+00  0.00000000E+00  0.00000000E+00
  0.00000000E+00  0.00000000E+00  0.00000000E+00
  0.00000000E+00  0.00000000E+00  0.00000000E+00
  0.00000000E+00  0.00000000E+00  0.00000000E+00
  0.00000000E+00  0.00000000E+00  0.00000000E+00
  0.00000000E+00  0.00000000E+00  0.00000000E+00
  0.00000000E+00  0.00000000E+00  0.00000000E+00
  0.00000000E+00  0.00000000E+00  0.00000000E+00
  0.00000000E+00  0.00000000E+00  0.00000000E+00
  0.00000000E+00  0.00000000E+00  0.00000000E+00
  0.00000000E+00  0.00000000E+00  0.00000000E+00
  0.00000000E+00  0.00000000E+00  0.00000000E+00
  0.00000000E+00  0.00000000E+00  0.00000000E+00
  0.00000000E+00  0.00000000E+00  0.00000000E+00
  0.00000000E+00  0.00000000E+00  0.00000000E+00
  0.00000000E+00  0.00000000E+00  0.00000000E+00
  0.00000000E+00  0.00000000E+00  0.00000000E+00
  0.00000000E+00  0.00000000E+00  0.00000000E+00
  0.00000000E+00  0.00000000E+00  0.00000000E+00
  0.00000000E+00  0.00000000E+00  0.00000000E+00
  0.00000000E+00  0.00000000E+00  0.00000000E+00
  0.00000000E+00  0.00000000E+00  0.00000000E+00
  0.00000000E+00  0.00000000E+00  0.00000000E+00
  0.00000000E+00  0.00000000E+00  0.00000000E+00
  0.00000000E+00  0.00000000E+00  0.00000000E+00
  0.00000000E+00  0.00000000E+00  0.00000000E+00
  0.00000000E+00  0.00000000E+00  0.00000000E+00
  0.00000000E+00  0.00000000E+00  0.00000000E+00
  0.00000000E+00  0.00000000E+00  0.00000000E+00
  0.00000000E+00  0.00000000E+00  0.00000000E+00
  0.00000000E+00  0.00000000E+00  0.00000000E+00
  0.00000000E+00  0.00000000E+00  0.00000000E+00
  0.00000000E+00  0.00000000E+00  0.00000000E+00
  0.00000000E+00  0.00000000E+00  0.00000000E+00
  0.00000000E+00  0.00000000E+00  0.00000000E+00
  0.00000000E+00  0.00000000E+00  0.00000000E+00
  0.00000000E+00  0.00000000E+00  0.00000000E+00
  0.00000000E+00  0.00000000E+00  0.00000000E+00
  0.00000000E+00  0.00000000E+00  0.00000000E+00
  0.00000000E+00  0.00000000E+00  0.00000000E+00
  0.00000000E+00  0.00000000E+00  0.00000000E+00
  0.00000000E+00  0.00000000E+00  0.00000000E+00
  0.00000000E+00  0.00000000E+00  0.00000000E+00
  0.00000000E+00  0.00000000E+00  0.00000000E+00
  0.00000000E+00  0.00000000E+00  0.00000000E+00
  0.00000000E+00  0.00000000E+00  0.00000000E+00
  0.00000000E+00  0.00000000E+00  0.00000000E+00
  0.00000000E+00  0.00000000E+00  0.00000000E+00
  0.00000000E+00  0.00000000E+00  0.00000000E+00
  0.00000000E+00  0.00000000E+00  0.00000000E+00
  0.00000000E+00  0.00000000E+00  0.00000000E+00
  0.00000000E+00  0.00000000E+00  0.00000000E+00
  0.00000000E+00  0.00000000E+00  0.00000000E+00
  0.00000000E+00  0.00000000E+00  0.00000000E+00
  0.00000000E+00  0.00000000E+00  0.00000000E+00
  0.00000000E+00  0.00000000E+00  0.00000000E+00
  0.00000000E+00  0.00000000E+00  0.00000000E+00
  0.00000000E+00  0.00000000E+00  0.00000000E+00
  0.00000000E+00  0.00000000E+00  0.00000000E+00
  0.00000000E+00  0.00000000E+00  0.00000000E+00
  0.00000000E+00  0.00000000E+00  0.00000000E+00
  0.00000000E+00  0.00000000E+00  0.00000000E+00
  0.00000000E+00  0.00000000E+00  0.00000000E+00
  0.00000000E+00  0.00000000E+00  0.00000000E+00
  0.00000000E+00  0.00000000E+00  0.00000000E+00
  0.00000000E+00  0.00000000E+00  0.00000000E+00
  0.00000000E+00  0.00000000E+00  0.00000000E+00
  0.00000000E+00  0.00000000E+00  0.00000000E+00
  0.00000000E+00  0.00000000E+00  0.00000000E+00
  0.00000000E+00  0.00000000E+00  0.00000000E+00
  0.00000000E+00  0.00000000E+00  0.00000000E+00
  0.00000000E+00  0.00000000E+00  0.00000000E+00
  0.00000000E+00  0.00000000E+00  0.00000000E+00
  0.00000000E+00  0.00000000E+00  0.00000000E+00
  0.00000000E+00  0.00000000E+00  0.00000000E+00
  0.00000000E+00  0.00000000E+00  0.00000000E+00
  0.00000000E+00  0.00000000E+00  0.00000000E+00
  0.00000000E+00  0.00000000E+00  0.00000000E+00
  0.00000000E+00  0.00000000E+00  0.00000000E+00
  0.00000000E+00  0.00000000E+00  0.00000000E+00
  0.00000000E+00  0.00000000E+00  0.00000000E+00
  0.00000000E+00  0.00000000E+00  0.00000000E+00
  0.00000000E+00  0.00000000E+00  0.00000000E+00
  0.00000000E+00  0.00000000E+00  0.00000000E+00
  0.00000000E+00  0.00000000E+00  0.00000000E+00
  0.00000000E+00  0.00000000E+00  0.00000000E+00
  0.00000000E+00  0.00000000E+00  0.00000000E+00
  0.00000000E+00  0.00000000E+00  0.00000000E+00
  0.00000000E+00  0.00000000E+00  0.00000000E+00
  0.00000000E+00  0.00000000E+00  0.00000000E+00
  0.00000000E+00  0.00000000E+00  0.00000000E+00
  0.00000000E+00  0.00000000E+00  0.00000000E+00
  0.00000000E+00  0.00000000E+00  0.00000000E+00
  0.00000000E+00  0.00000000E+00  0.00000000E+00
  0.00000000E+00  0.00000000E+00  0.00000000E+00
  0.00000000E+00  0.00000000E+00  0.00000000E+00
  0.00000000E+00  0.00000000E+00  0.00000000E+00
  0.00000000E+00  0.00000000E+00  0.00000000E+00
  0.00000000E+00  0.00000000E+00  0.00000000E+00
  0.00000000E+00  0.00000000E+00  0.00000000E+00
  0.00000000E+00  0.00000000E+00  0.00000000E+00
  0.00000000E+00  0.00000000E+00  0.00000000E+00
  0.00000000E+00  0.00000000E+00  0.00000000E+00
  0.00000000E+00  0.00000000E+00  0.00000000E+00
  0.00000000E+00  0.00000000E+00  0.00000000E+00
  0.00000000E+00  0.00000000E+00  0.00000000E+00
  0.00000000E+00  0.00000000E+00  0.00000000E+00
  0.00000000E+00  0.00000000E+00  0.00000000E+00
  0.00000000E+00  0.00000000E+00  0.00000000E+00
  0.00000000E+00  0.00000000E+00  0.00000000E+00
  0.00000000E+00  0.00000000E+00  0.00000000E+00
  0.00000000E+00  0.00000000E+00  0.00000000E+00
  0.00000000E+00  0.00000000E+00  0.00000000E+00
  0.00000000E+00  0.00000000E+00  0.00000000E+00
  0.00000000E+00  0.00000000E+00  0.00000000E+00
  0.00000000E+00  0.00000000E+00  0.00000000E+00
  0.00000000E+00  0.00000000E+00  0.00000000E+00
  0.00000000E+00  0.00000000E+00  0.00000000E+00
  0.00000000E+00  0.00000000E+00  0.00000000E+00
  0.00000000E+00  0.00000000E+00  0.00000000E+00
  0.00000000E+00  0.00000000E+00  0.00000000E+00
  0.00000000E+00  0.00000000E+00  0.00000000E+00
  0.00000000E+00  0.00000000E+00  0.00000000E+00
  0.00000000E+00  0.00000000E+00  0.00000000E+00
  0.00000000E+00  0.00000000E+00  0.00000000E+00
  0.00000000E+00  0.00000000E+00  0.00000000E+00
  0.00000000E+00  0.00000000E+00  0.00000000E+00
  0.00000000E+00  0.00000000E+00  0.00000000E+00
  0.00000000E+00  0.00000000E+00  0.00000000E+00
  0.00000000E+00  0.00000000E+00  0.00000000E+00
  0.00000000E+00  0.00000000E+00  0.00000000E+00
  0.00000000E+00  0.00000000E+00  0.00000000E+00
  0.00000000E+00  0.00000000E+00  0.00000000E+00
  0.00000000E+00  0.00000000E+00  0.00000000E+00
  0.00000000E+00  0.00000000E+00  0.00000000E+00
  0.00000000E+00  0.00000000E+00  0.00000000E+00
  0.00000000E+00  0.00000000E+00  0.00000000E+00
  0.00000000E+00  0.00000000E+00  0.00000000E+00
  0.00000000E+00  0.00000000E+00  0.00000000E+00
  0.00000000E+00  0.00000000E+00  0.00000000E+00
  0.00000000E+00  0.00000000E+00  0.00000000E+00
  0.00000000E+00  0.00000000E+00  0.00000000E+00
  0.00000000E+00  0.00000000E+00  0.00000000E+00
  0.00000000E+00  0.00000000E+00  0.00000000E+00
  0.00000000E+00  0.00000000E+00  0.00000000E+00
  0.00000000E+00  0.00000000E+00  0.00000000E+00
  0.00000000E+00  0.00000000E+00  0.00000000E+00
  0.00000000E+00  0.00000000E+00  0.00000000E+00
  0.00000000E+00  0.00000000E+00  0.00000000E+00
  0.00000000E+00  0.00000000E+00  0.00000000E+00
  0.00000000E+00  0.00000000E+00  0.00000000E+00
  0.00000000E+00  0.00000000E+00  0.00000000E+00
  0.00000000E+00  0.00000000E+00  0.00000000E+00
  0.00000000E+00  0.00000000E+00  0.00000000E+00
  0.00000000E+00  0.00000000E+00  0.00000000E+00
  0.00000000E+00  0.00000000E+00  0.00000000E+00
  0.00000000E+00  0.00000000E+00  0.00000000E+00
  0.00000000E+00  0.00000000E+00  0.00000000E+00
  0.00000000E+00  0.00000000E+00  0.00000000E+00
  0.00000000E+00  0.00000000E+00  0.00000000E+00
  0.00000000E+00  0.00000000E+00  0.00000000E+00
  0.00000000E+00  0.00000000E+00  0.00000000E+00
  0.00000000E+00  0.00000000E+00  0.00000000E+00
  0.00000000E+00  0.00000000E+00  0.00000000E+00
  0.00000000E+00  0.00000000E+00  0.00000000E+00
  0.00000000E+00  0.00000000E+00  0.00000000E+00
  0.00000000E+00  0.00000000E+00  0.00000000E+00
  0.00000000E+00  0.00000000E+00  0.00000000E+00
  0.00000000E+00  0.00000000E+00  0.00000000E+00
  0.00000000E+00  0.00000000E+00  0.00000000E+00
  0.00000000E+00  0.00000000E+00  0.00000000E+00
  0.00000000E+00  0.00000000E+00  0.00000000E+00
  0.00000000E+00  0.00000000E+00  0.00000000E+00
  0.00000000E+00  0.00000000E+00  0.00000000E+00
  0.00000000E+00  0.00000000E+00  0.00000000E+00
  0.00000000E+00  0.00000000E+00  0.00000000E+00
  0.00000000E+00  0.00000000E+00  0.00000000E+00
  0.00000000E+00  0.00000000E+00  0.00000000E+00
  0.00000000E+00  0.00000000E+00  0.00000000E+00
  0.00000000E+00  0.00000000E+00  0.00000000E+00
  0.00000000E+00  0.00000000E+00  0.00000000E+00
  0.00000000E+00  0.00000000E+00  0.00000000E+00
  0.00000000E+00  0.00000000E+00  0.00000000E+00
  0.00000000E+00  0.00000000E+00  0.00000000E+00
  0.00000000E+00  0.00000000E+00  0.00000000E+00
  0.00000000E+00  0.00000000E+00  0.00000000E+00
  0.00000000E+00  0.00000000E+00  0.00000000E+00
  0.00000000E+00  0.00000000E+00  0.00000000E+00
  0.00000000E+00  0.00000000E+00  0.00000000E+00
  0.00000000E+00  0.00000000E+00  0.00000000E+00
  0.00000000E+00  0.00000000E+00  0.00000000E+00
  0.00000000E+00  0.00000000E+00  0.00000000E+00
  0.00000000E+00  0.00000000E+00  0.00000000E+00
  0.00000000E+00  0.00000000E+00  0.00000000E+00
  0.00000000E+00  0.00000000E+00  0.00000000E+00
  0.00000000E+00  0.00000000E+00  0.00000000E+00
  0.00000000E+00  0.00000000E+00  0.00000000E+00
  0.00000000E+00  0.00000000E+00  0.00000000E+00
  0.00000000E+00  0.00000000E+00  0.00000000E+00
  0.00000000E+00  0.00000000E+00  0.00000000E+00