3D\Atomistic                            
   1.00000000000000     
    18.8173099491580764    0.0000000000000000    0.0000000000000000
     0.0000000000000000   18.8173099491580764    0.0000000000000000
     0.0000000000000000    0.0000000000000000   18.8173099491580764
   Sb
   216
Direct
  0.0811376126838465  0.9915794703567108  0.5314051021811298
  0.5508978629362234  0.7620076426215895  0.3705304946120373
  0.9785402127023111  0.8952211092844172  0.0230099418926334
  0.2511124536950310  0.2924591854651797  0.1080971356514974
  0.8847559771545631  0.9300533951202937  0.7812659325405957
  0.4070589623823908  0.0567837734226187  0.0494806513596691
  0.9050673701104556  0.1253992489475527  0.4514194353185714
  0.6592621874798482  0.2770203467227219  0.7291795298831316
  0.2765604341204708  0.7035296878841872  0.0822374984754830
  0.2790642306619386  0.9529223778933215  0.2368240111939428
  0.3965811798254539  0.8289941433160829  0.3789731510200758
  0.4758488755448982  0.3942254112849381  0.5035573761633712
  0.5054692997828238  0.9543442533277160  0.3651956981392617
  0.5249715502186365  0.9289507206852314  0.0335945558070603
  0.0824917859847256  0.3146545154090838  0.4658225861622500
  0.8506016496594220  0.2673973395688830  0.0607598564241896
  0.5251254564994488  0.7356549691788357  0.7283035791143646
  0.4804570191003454  0.2228632946864082  0.3042948688063459
  0.0849294360718195  0.7990626495167428  0.0744472685747350
  0.8301109973354166  0.1114516591895031  0.8638003551608826
  0.3495029736689941  0.2922026360393472  0.9802077296857640
  0.5866864336115079  0.7415949594963136  0.8760750148737823
  0.7626162822955321  0.9098337553152918  0.6017148885567772
  0.7534237425129079  0.1097194305555396  0.4714737779820620
  0.6400227177289671  0.8708458848424188  0.3180529557862977
  0.9839002169329099  0.4050180489266199  0.0236441570672466
  0.5973247441626238  0.5867523963359694  0.0250901656363013
  0.7739803362966702  0.5779062375220962  0.8826549960718942
  0.8563263684772602  0.9259651068620720  0.3834483509581517
  0.9703718180460305  0.2446750420903370  0.9439357783161088
  0.7657969915290035  0.7307966506174290  0.7116489456666498
  0.1036899197327232  0.4232666397855354  0.2641099432024169
  0.1429189492471769  0.2619707249901829  0.2298617945902615
  0.7728869185682696  0.6154323339048675  0.5785625233768259
  0.4298757078799979  0.4328874155414992  0.9587895908820021
  0.1593405371906989  0.0876779798118065  0.2278852259124574
  0.7023457943386924  0.6824016118053678  0.9753358886721788
  0.3692806489476286  0.1248909994651564  0.6368639496737564
  0.1372452651196220  0.6005414359201385  0.0812892084435350
  0.2844998737605881  0.5101811850989054  0.9708696779704755
  0.5599720103792222  0.8724106988742133  0.4975275490065652
  0.9977030422778069  0.2861279160898258  0.1499351997938496
  0.1520844691290278  0.2014288238263746  0.8893094275214990
  0.1389733544376158  0.7258274823531111  0.8501905678740097
  0.1844561642993651  0.4064260118577840  0.3981391525080036
  0.2548570120880836  0.5651666187553670  0.7972934342961593
  0.7847111231093179  0.4586981859428693  0.3794901335281114
  0.0042426082680483  0.7204916496278986  0.3662186082461577
  0.7165315574605060  0.8287021099644657  0.8351688775917218
  0.7796583233960885  0.9229319702180022  0.1700183426270301
  0.9063558258767926  0.5735798610756722  0.0233479761836393
  0.8860185110163502  0.8196157848827660  0.6805004653574648
  0.5449358565379352  0.6271276784783602  0.5869673489365945
  0.1721093573479656  0.6575403992915089  0.7010122812357222
  0.1129902472979382  0.7974179878017642  0.2644823652543326
  0.4988081873095986  0.2083176036329499  0.8950482574152928
  0.8929518726913690  0.7495082344868373  0.9106739728532860
  0.0177318859363093  0.7399816185671746  0.7321816408518231
  0.7383028339662414  0.0724285215696160  0.9910736073400627
  0.4892385368326663  0.6969971542545634  0.0600850918591571
  0.4018666145437748  0.5049880122506661  0.6051667842190278
  0.2906727161242673  0.6600189409654565  0.9309980032041566
  0.9983310068768279  0.8308913490336072  0.4677548973176042
  0.5537801384800731  0.6977931498619492  0.2078524370592583
  0.9623599785127142  0.5832041547264439  0.2692621272291393
  0.5377899520479679  0.8836387711117134  0.1898612617496811
  0.0199517723964942  0.5198599437076856  0.1293889903505543
  0.4051720004588594  0.0011791895385261  0.5441989465841686
  0.9608594414144386  0.6926363805137619  0.1568522929177236
  0.3861078034187973  0.1833143257749932  0.4340327870289795
  0.8077243961352577  0.6619374589631239  0.1105101807439578
  0.7221927815147486  0.2128521902479933  0.3575719363191980
  0.8824277447470303  0.1532670049185450  0.7008331832560590
  0.2833508873545824  0.9867360516160993  0.7123988769068439
  0.2975726030997949  0.9581639206937237  0.4096716215672283
  0.4689238416675300  0.2490770983169704  0.0925523601168419
  0.0842203292253638  0.8877960692098197  0.6620397639912796
  0.3871776810844080  0.0619062811299798  0.3056623705966765
  0.8305227462897723  0.3069234102191481  0.4247704475885766
  0.2491612930985382  0.3247153537245691  0.8660590393538121
  0.1513562282185943  0.8675088022994251  0.3937570145268007
  0.2966005002010151  0.1357160009053285  0.9488311668770277
  0.5225834990088066  0.0933553019198499  0.4717728409200923
  0.6279728325421303  0.8076006486158945  0.0456555584022922
  0.2836259680749578  0.9550074496102527  0.0727385419827630
  0.3558262554268974  0.1700306440681839  0.1705219104348979
  0.2342456270964361  0.5874045954514024  0.5477444838837890
  0.4447375705833710  0.6682631534855750  0.9041780937322401
  0.4568865596480262  0.4489828189028164  0.1448253342493278
  0.4135954827875655  0.8517834609317296  0.7079726741961161
  0.1049858787873028  0.2224350050111234  0.0365046558145669
  0.7938901073968443  0.7181063009851050  0.3220390631916132
  0.9627404034023775  0.9314776528046254  0.1877740117300928
  0.5267132418586979  0.9630544557933893  0.6565810404292325
  0.9554521588802112  0.0416995935223246  0.2891236184220786
  0.2251986907376888  0.1045516797554878  0.0908554853429481
  0.4178728849469251  0.2644969342981496  0.5667515793555119
  0.2610039135959359  0.2982433634514342  0.5405233645065814
  0.2513137326961774  0.7252870102962787  0.2578334224755880
  0.4092189247976106  0.3839299002209173  0.3625352681199193
  0.9661536503079864  0.4229411817757764  0.8599987635864826
  0.2301981851927368  0.1439322409536633  0.5267342963440926
  0.6597849918127571  0.6323803395059832  0.3543512481724027
  0.2747394458969670  0.2894444003330036  0.3388471742992616
  0.5048418636805247  0.1072192318945745  0.7031084587374014
  0.3960397863017853  0.6230565211740163  0.7530587690695875
  0.5327770895375897  0.5354951603531981  0.8911916864699424
  0.9319898015374559  0.2531912381703501  0.2927007686075649
  0.9949708392362695  0.5750332887802877  0.8373375355829421
  0.1437930437441301  0.4708544045710312  0.5810271174932387
  0.3886824919420267  0.6698690281136908  0.5640337344375052
  0.1920598272455680  0.8271241111681538  0.5675499498593098
  0.6879099208811855  0.4946289918110560  0.4961337089521309
  0.5600121200286193  0.3177752093218567  0.2001964202407829
  0.8690226228858544  0.7448624508880234  0.5252274963998275
  0.3256387562463951  0.3941844101818513  0.1984424144894616
  0.5587829349283542  0.3350204788535206  0.9438028026754303
  0.8293685284684328  0.1222693943069494  0.2250010593228535
  0.5494766109641297  0.1230683671104900  0.0537964409502807
  0.8570677088135523  0.8042621995321830  0.0483791331100849
  0.6575536825502052  0.9998828547303727  0.1154085012868959
  0.3895172927369752  0.8416612506685078  0.2208260208248518
  0.0875006686741412  0.0082206451409819  0.3573293258665489
  0.4521257729544074  0.2773911085806743  0.7589326704113166
  0.9251752219227644  0.7987915375501937  0.2651537511468340
  0.2160343349856854  0.4676460926018459  0.0919520137339630
  0.8694000275033483  0.6218494445940805  0.4281792998397825
  0.4804289956363003  0.5054820816197116  0.2842793625469769
  0.0830661786396105  0.7147849434536090  0.5605047988946928
  0.2927588927210648  0.9752968308182562  0.9102077238841262
  0.6114106259306908  0.0102481139739560  0.8944388227196863
  0.1914982455034338  0.8266982491966974  0.9602178196346126
  0.7448135203747833  0.8882815430968384  0.9742598429835214
  0.2295051166628443  0.9791302281224399  0.5676507437202400
  0.7630415706653536  0.4280663605790888  0.8992241617377302
  0.7465483186291718  0.0128255248467699  0.2933058956848925
  0.5393213219486427  0.5345244105513541  0.4582198034184219
  0.8852155142578452  0.9946418743978712  0.5282750212176395
  0.6591888001237080  0.7076306046767529  0.5187928994944494
  0.7016556999833483  0.7861264484916658  0.1935127677373787
  0.7498159461765874  0.8300666931591035  0.4445968078395794
  0.8042635590219614  0.5621603266051282  0.2381559075686539
  0.7796767500704981  0.0320657706062772  0.7230127869839447
  0.9495105882156332  0.4031372741995793  0.2955406459488072
  0.1265063917992716  0.9565956208580637  0.9047278370859441
  0.2374167582819558  0.1318192358690718  0.3766549079764336
  0.1900903269837508  0.1165331153479769  0.7112811613504084
  0.3271879592790369  0.2047865335718111  0.7953892438260212
  0.0192544549292385  0.1247970783137799  0.1665427782580992
  0.5921377942663552  0.2933123912218737  0.4220877574942860
  0.8250308739648083  0.3093974944042209  0.7491036635931009
  0.1944173288806243  0.8533984333738663  0.7791843071459824
  0.9558123187997337  0.3889148509490239  0.4559246959049591
  0.4549876945829788  0.0429331677426427  0.8678558973648829
  0.7113403172977252  0.1391315241155322  0.6179896941064682
  0.6313979495379847  0.1675950836123063  0.8157094378349558
  0.5998409438700997  0.1176322020710919  0.2996080751084370
  0.4948912482510315  0.0299614993725562  0.1845881073851163
  0.8622103989752945  0.5967936089761841  0.7596488383805705
  0.8031522335991942  0.3080214817404862  0.5870457583639459
  0.0644962578373502  0.0991645988937984  0.7940319366480828
  0.6235364280034987  0.4040435194612694  0.8221770299599642
  0.0802819685358910  0.3177582828953495  0.6721209035643856
  0.9620386542617705  0.2293481634761878  0.5596206450764434
  0.0593243544267195  0.2125843788298849  0.3548853289767729
  0.6786348227221656  0.3142111895857554  0.0984736748424578
  0.7659954037098646  0.3383726337905543  0.2358064962842208
  0.6745359694724313  0.1490037057255140  0.1709464844944943
  0.7823515974839863  0.4717401087582420  0.7230549104046690
  0.6474451873891737  0.4104756315348925  0.3166728734436680
  0.0608741016693571  0.5297291919640760  0.6965311564653437
  0.1408309161934878  0.3882781182395361  0.9879016209928793
  0.0121025882957355  0.6770475908924165  0.9663769648560000
  0.0039631051539982  0.5361360303738528  0.4444669803636609
  0.6357404424816533  0.5499193910432842  0.2243457014421428
  0.4867869470373781  0.4960891153936973  0.7298066579907133
  0.2797218627809461  0.7634244521583082  0.6739721333799132
  0.1553619380808886  0.5919043297197175  0.2574063866867733
  0.6606809899078047  0.3563002214342944  0.5767124416744212
  0.2707835359015014  0.4499393884503452  0.6920941639565203
  0.4087335226986547  0.6440230541878432  0.2467715463320857
  0.8627579305976982  0.4672215307121554  0.5816387906294953
  0.3886446221299386  0.4123484504403953  0.8061785814718692
  0.4991383664542258  0.8888216467800615  0.8818047371255848
  0.8713661221292446  0.1173390262681304  0.0662487190298691
  0.6375992726337344  0.0035516464983505  0.5443964407190994
  0.8399918505434965  0.4309908039057363  0.1244140616374981
  0.1053739234100417  0.4122747117012134  0.8002116625504697
  0.6488756296538617  0.6169320665448859  0.7964983548186516
  0.9975651462618866  0.8515879757738505  0.8610457837190285
  0.7179250079080886  0.4487309123421541  0.0410345767752932
  0.6452627606833850  0.8047612602497728  0.6260395029136288
  0.4143251814079041  0.8305022538945028  0.5478954033695514
  0.2947048158195401  0.5381036595339383  0.2643159522488948
  0.3157902171798248  0.5065171497802843  0.4139344337131739
  0.3863443064919928  0.8271693263446437  0.0413223513195913
  0.1388644455475090  0.6362049865388208  0.4245905996957737
  0.1162628755454853  0.9327712120615055  0.1674185697112124
  0.0871376480670029  0.1283634426766710  0.6013964394114246
  0.0833617112118707  0.0335270082674297  0.0356165602183478
  0.9692187238568980  0.6037272760308016  0.5811985802291507
  0.2435180387426283  0.2845516456207778  0.6992330027221501
  0.8018523339347994  0.2610699592586018  0.8941244722291852
  0.3487461851636188  0.8109237822218223  0.8886172885696976
  0.6529051615130252  0.5263246845201465  0.6674980427318675
  0.3800413933745159  0.5958636342501881  0.0934457892793881
  0.2679190549488925  0.7383315476070385  0.4176399322565664
  0.9669866983234737  0.0915907576174420  0.9312183951411050
  0.5644829991303562  0.2157808310942347  0.5743339983428815
  0.9532715968905565  0.4208300452706853  0.6927976547753811
  0.6723372179197071  0.2019773713333223  0.9671921772188854
  0.3951251855938986  0.6342104875974595  0.4088108256962616
  0.9889146881836727  0.2296895942716154  0.7762591334525190
  0.1444079760349745  0.5129403710984707  0.9074844380992750
  0.9778336079277435  0.0263544573373474  0.6782122432072393
  0.6482141729097791  0.9440799170229166  0.7571808482784220
 
 -0.22014801E-02  0.36992578E-03 -0.73847447E-03
  0.64297388E-03  0.12891591E-02 -0.18184452E-02
  0.10330578E-02 -0.64672577E-03 -0.42540125E-02
  0.76149924E-03  0.11501769E-02 -0.48813835E-03
  0.30578802E-03  0.49152705E-03 -0.99925506E-03
  0.38184485E-03 -0.16424262E-02 -0.49440383E-04
 -0.14790944E-02 -0.66541605E-03  0.53493799E-03
 -0.10860699E-02  0.21736273E-02 -0.11897469E-04
  0.27002590E-02  0.41010579E-03 -0.17708166E-02
  0.22149765E-02  0.98517181E-03 -0.92488960E-03
 -0.18586634E-02  0.82387948E-03  0.78798765E-03
  0.19208726E-02 -0.10998399E-02  0.13820825E-02
  0.84971214E-04 -0.65272628E-03  0.39503780E-03
 -0.39421911E-02 -0.18452070E-02  0.32372225E-02
  0.24679754E-02  0.31499730E-04  0.33168739E-02
 -0.20202115E-02 -0.53677032E-03  0.11729343E-02
 -0.50480105E-03  0.29996322E-02 -0.95312535E-03
  0.14070623E-02 -0.25478430E-02  0.13338126E-02
  0.21254386E-02  0.25500464E-03  0.28389871E-02
  0.12822027E-03  0.14087418E-02 -0.19132339E-02
  0.26171206E-02  0.52416860E-02 -0.28497876E-03
 -0.17801565E-02  0.42909891E-03 -0.86990026E-03
 -0.12825677E-02  0.23353781E-02  0.26822466E-03
  0.66725011E-03  0.49766115E-02  0.34946163E-03
 -0.79596196E-03  0.78427031E-04  0.10390106E-02
  0.15952721E-02 -0.63157671E-03  0.20968517E-03
  0.14133339E-02 -0.58628046E-03  0.65723152E-03
  0.49337181E-03  0.18365808E-02  0.77722573E-03
  0.15328072E-02 -0.30811414E-02 -0.14006795E-02
  0.36040910E-03  0.74134433E-03 -0.66651064E-03
 -0.19449526E-03 -0.29287548E-02 -0.92288428E-03
 -0.37233976E-03 -0.28477784E-02 -0.29193918E-03
  0.21145576E-02  0.19111195E-03  0.15125148E-02
 -0.54290096E-03 -0.64712317E-03 -0.25585916E-04
 -0.62460845E-03 -0.46858089E-03  0.13414404E-02
  0.38853747E-03 -0.11391048E-02 -0.20691641E-02
 -0.63395003E-03 -0.72417058E-03 -0.14995127E-02
 -0.99668853E-03  0.13639732E-02  0.15967794E-02
 -0.11230131E-03  0.73652835E-03 -0.29051462E-03
  0.32358730E-02  0.12329802E-04  0.23667314E-03
 -0.30246702E-03 -0.98188113E-03  0.95929120E-03
 -0.16958504E-02  0.33376803E-03  0.49122027E-04
  0.10725228E-02 -0.29977491E-02 -0.13765547E-03
  0.11609503E-02 -0.12054935E-02  0.27748288E-03
 -0.70717627E-03  0.58646249E-03  0.32205358E-03
 -0.26683593E-03  0.40440064E-03  0.11876897E-02
 -0.10378089E-02 -0.10478825E-02  0.27262931E-03
 -0.12502987E-02  0.17553917E-04 -0.20149943E-02
 -0.90426929E-03  0.24742422E-04  0.48160563E-03
 -0.76883019E-03  0.57169231E-04 -0.26122202E-02
  0.11208823E-02 -0.22668887E-02  0.30635578E-02
  0.23865480E-03 -0.12397720E-02 -0.20480848E-03
  0.33987517E-02 -0.82409592E-03 -0.14967611E-02
 -0.77993690E-03 -0.92577744E-03 -0.90996336E-03
  0.13985462E-02  0.24051213E-02 -0.14051489E-02
 -0.86475840E-03  0.32993143E-02 -0.64148907E-04
 -0.26161407E-02  0.59637002E-03  0.11502545E-02
  0.72225484E-03 -0.96816791E-03 -0.15451359E-02
  0.13753653E-03 -0.47811416E-03 -0.22574491E-02
 -0.15749954E-02  0.16185119E-02  0.23517981E-02
 -0.97085454E-03  0.35616622E-03  0.21470448E-02
 -0.12957455E-02  0.34732921E-02 -0.25790798E-03
  0.16168347E-02 -0.68832850E-03 -0.39682044E-02
  0.18028445E-02 -0.93460345E-03  0.34526278E-03
 -0.25063323E-02  0.10497556E-02  0.91568754E-03
  0.21776883E-02 -0.16715357E-03 -0.61180623E-03
 -0.73232999E-03 -0.19777574E-02  0.88658123E-03
  0.18571275E-02 -0.66566553E-03 -0.21497206E-02
 -0.14637279E-02 -0.19935572E-03  0.29516309E-02
  0.14750166E-02  0.27293272E-03 -0.14677548E-02
 -0.30609654E-02  0.82727090E-03  0.13089838E-02
 -0.19226487E-02 -0.12521547E-02 -0.60959366E-03
  0.22060572E-02  0.19251373E-02 -0.18143601E-02
 -0.10338203E-02 -0.93820492E-03 -0.89998154E-03
 -0.11582098E-02  0.54953023E-03  0.10847186E-02
  0.17933844E-02  0.66883608E-03 -0.13023505E-02
  0.25805525E-02  0.33116253E-02 -0.16562193E-03
 -0.25920563E-02  0.27237912E-03  0.16412074E-02
 -0.29127053E-03 -0.20365850E-02 -0.93701495E-03
  0.88584088E-03 -0.27135754E-02  0.21274655E-02
 -0.15896907E-02  0.14994170E-02 -0.76850789E-03
 -0.12883593E-02  0.54732543E-03  0.99648001E-03
 -0.24017657E-02  0.14337817E-02 -0.13833512E-04
  0.24620937E-02 -0.14488397E-02  0.10120008E-02
 -0.91521616E-03  0.91329406E-03  0.14372563E-02
  0.52772876E-03 -0.10757199E-02 -0.14239371E-02
 -0.24344801E-02 -0.22165379E-02 -0.24024885E-03
 -0.69827955E-03  0.15122817E-02 -0.38051072E-03
 -0.85821718E-03 -0.60617597E-03  0.73437457E-04
 -0.46212727E-03 -0.52649325E-05 -0.98723751E-03
 -0.30394257E-02 -0.86555003E-03  0.63430081E-03
  0.12777827E-02 -0.15403460E-02  0.10573508E-02
  0.23098501E-02  0.22353063E-02 -0.17479626E-02
  0.36958365E-03 -0.23244932E-02  0.15778078E-02
 -0.13690782E-02  0.24977268E-02  0.49321985E-03
 -0.18456597E-03  0.15824349E-03 -0.16495524E-02
  0.18299397E-02  0.29797472E-02  0.14453074E-02
 -0.58726475E-04  0.24034485E-02 -0.64294368E-03
  0.14752128E-02  0.45489996E-03  0.13652782E-02
 -0.32488747E-03 -0.82968393E-03 -0.13010553E-02
  0.27112905E-02 -0.92416488E-03 -0.63122991E-03
  0.34078468E-02 -0.11607337E-03  0.16886686E-02
 -0.16514263E-02 -0.83865322E-03 -0.13248725E-02
 -0.14012166E-03  0.35689614E-03  0.28901673E-02
 -0.15109307E-02  0.14465614E-02  0.13456529E-02
  0.31729442E-02  0.72625669E-03  0.37857914E-04
 -0.11256955E-02  0.15455419E-02 -0.26414809E-02
  0.10320238E-02 -0.69385405E-03  0.19880151E-02
 -0.17108414E-02 -0.14835684E-02 -0.18255010E-02
 -0.16868306E-02 -0.23270483E-02 -0.11953721E-03
  0.98166542E-03  0.15061754E-02 -0.26032132E-02
 -0.77651701E-03  0.87103236E-03  0.29913529E-02
 -0.60801792E-03 -0.13462372E-02  0.10359301E-02
 -0.74742856E-03  0.14574589E-02  0.18333357E-02
  0.34730154E-02 -0.19093801E-03  0.30525396E-02
  0.24108336E-03  0.11412853E-02  0.33252502E-02
 -0.59807052E-03  0.76507793E-03 -0.10697793E-03
 -0.20018567E-02 -0.10574100E-02 -0.62364475E-03
  0.10252753E-02 -0.16455476E-02 -0.62411846E-03
 -0.99295336E-03 -0.80233853E-03 -0.17797626E-02
 -0.65466426E-03  0.11705708E-02 -0.19913681E-02
  0.84799141E-03  0.10686719E-02  0.27617294E-02
 -0.26704012E-02  0.11090283E-02 -0.54009056E-03
  0.17647410E-02 -0.38349119E-03 -0.70310437E-03
  0.11367640E-02  0.34787043E-02 -0.15734917E-02
  0.31320493E-03 -0.35286199E-02 -0.13111926E-02
  0.13106260E-02 -0.15764410E-02  0.22182477E-02
 -0.65327139E-03  0.60667856E-03 -0.62464596E-03
 -0.17416264E-02  0.87743713E-03  0.11576110E-04
 -0.17403164E-02 -0.21283945E-02  0.24370427E-02
  0.23676021E-02  0.21709438E-02  0.13510817E-02
 -0.69048781E-03 -0.19786853E-02  0.10633712E-02
  0.26777593E-02  0.30273628E-02  0.18422709E-02
 -0.98410401E-03 -0.45181678E-03  0.38886558E-02
  0.96370901E-03  0.94010404E-03 -0.23775779E-02
 -0.13074923E-03  0.78393747E-03 -0.13426169E-03
  0.79996729E-03  0.14224659E-02 -0.13730141E-02
  0.15139352E-02 -0.22051937E-02 -0.25419983E-02
 -0.15380822E-02  0.33720664E-03  0.18776407E-03
  0.54684405E-04  0.27434399E-02  0.10849712E-02
  0.52615834E-04  0.17747429E-02  0.16089546E-03
  0.26976245E-02  0.21005033E-02  0.32844453E-02
  0.88721312E-03  0.10419141E-02 -0.69864155E-03
  0.37608070E-02  0.10681150E-02 -0.12126891E-02
  0.22948807E-02  0.11508426E-02  0.90666643E-03
 -0.73181483E-03 -0.12524494E-02 -0.13959926E-03
  0.69282734E-03  0.98282516E-03 -0.24585185E-02
  0.28347403E-02 -0.10704501E-02 -0.71882741E-03
  0.72693766E-03  0.34200796E-03  0.39676932E-02
  0.28961171E-03 -0.57129105E-03 -0.33410874E-02
 -0.15043322E-02 -0.19938106E-02  0.11402663E-02
  0.11125984E-02 -0.71790365E-03  0.41441849E-02
  0.10813879E-03 -0.96599864E-03 -0.26656938E-03
  0.83963493E-03 -0.28289128E-03  0.13470234E-02
  0.38149491E-02 -0.37167490E-03  0.15813869E-02
 -0.19200415E-02 -0.97328704E-03  0.19854946E-03
  0.73910600E-03 -0.57012357E-03  0.14428782E-02
 -0.78100895E-04  0.18235571E-02  0.49414222E-03
  0.36421689E-02 -0.27409592E-02 -0.13443946E-02
 -0.16231940E-02 -0.11843885E-02  0.30764509E-03
  0.94560275E-03 -0.40521020E-03  0.79013453E-03
 -0.15704406E-02  0.13487592E-02 -0.39438266E-04
 -0.11728030E-02 -0.17906843E-02 -0.33140471E-03
  0.65823538E-03  0.25676803E-02  0.11225312E-03
  0.31037379E-02 -0.95801983E-03  0.17931714E-02
 -0.39358822E-02  0.15496395E-02 -0.54556823E-03
 -0.65538836E-03  0.23848537E-02 -0.65660358E-03
 -0.22165757E-02 -0.13282398E-02  0.68431801E-03
  0.10936092E-02  0.60373318E-03  0.16318522E-03
  0.11238265E-02 -0.32091175E-02 -0.17524803E-02
 -0.24732250E-02 -0.22849031E-03 -0.22366660E-02
 -0.45897864E-03 -0.28252856E-02 -0.23157593E-03
  0.22454640E-02 -0.12185136E-02  0.88001156E-04
 -0.10658535E-02  0.90086444E-03  0.16270680E-03
  0.21379214E-03  0.15388839E-02  0.22947121E-02
  0.47594572E-03 -0.99601354E-04  0.84343322E-03
 -0.20110265E-03  0.14925366E-02  0.25326451E-03
  0.14457975E-02  0.42016004E-02  0.10131161E-02
 -0.24967097E-02 -0.74412038E-03  0.15726840E-02
 -0.21150027E-02  0.93986831E-03 -0.24728818E-02
 -0.64712738E-03 -0.36101869E-02 -0.18441608E-02
  0.63737199E-03 -0.17141759E-02  0.17067694E-02
  0.34555738E-02 -0.21068303E-02 -0.25401156E-02
 -0.15058811E-02 -0.19147825E-02 -0.20274715E-02
 -0.20186565E-02 -0.32137716E-02  0.27688963E-02
  0.50099707E-03  0.12045070E-02 -0.16938670E-02
 -0.94426872E-03 -0.30761620E-02  0.43436406E-02
  0.51040099E-03  0.39969241E-03  0.12159450E-02
  0.28786463E-03 -0.34499235E-02  0.91746010E-04
 -0.26322539E-02  0.45352389E-02 -0.33472475E-02
  0.85575384E-03 -0.53842315E-03 -0.20500055E-02
 -0.19519929E-02  0.53197709E-03 -0.98234431E-03
  0.21495159E-02  0.13657710E-02 -0.24846913E-02
 -0.57444814E-03  0.32017153E-03 -0.96213606E-03
  0.80632269E-03  0.71287003E-03  0.81588646E-03
 -0.23574393E-02  0.10268489E-02 -0.22393257E-02
  0.42449122E-04 -0.96119742E-04  0.71508211E-03
 -0.95273692E-03  0.13825896E-02 -0.19628685E-02
 -0.41866311E-03  0.47323451E-03 -0.21979135E-02
 -0.64639144E-03 -0.87943286E-03  0.36184310E-03
  0.66099927E-03  0.19521493E-02  0.17911396E-02
 -0.87040131E-03 -0.10685045E-03  0.12359924E-03
  0.15456327E-02 -0.23352622E-02  0.80768639E-03
  0.21786778E-03 -0.25972316E-02  0.10171148E-02
  0.62384847E-03  0.13985051E-03 -0.21155505E-02
 -0.23433617E-02 -0.24434866E-02  0.30804943E-03
 -0.17848190E-02 -0.80493427E-03 -0.17696226E-02
 -0.29796969E-03 -0.80341848E-03 -0.63123541E-03
  0.20931502E-03 -0.17706395E-02 -0.16577561E-02
 -0.24745563E-02 -0.17044257E-02 -0.38560910E-02
 -0.19794364E-03 -0.25976762E-02  0.62979528E-03
 -0.16164145E-02 -0.19232854E-02 -0.99769178E-03
 -0.22164865E-02 -0.77078634E-03  0.30261897E-03
  0.83124448E-03 -0.24494212E-03 -0.10797181E-02
 -0.29007794E-02  0.17095299E-02 -0.11897581E-03
 -0.16452027E-02  0.38594892E-02 -0.69807267E-03
 
           1
   5.00000000000000     
  0.10000000E+01  0.00000000E+00  0.00000000E+00  0.00000000E+00
  0.80552651E-01  0.99167776E+00  0.53120888E+00
  0.55106871E+00  0.76235019E+00  0.37004731E+00
  0.97881471E+00  0.89504927E+00  0.21879596E-01
  0.25131479E+00  0.29276480E+00  0.10796743E+00
  0.88483723E+00  0.93018400E+00  0.78100042E+00
  0.40716042E+00  0.56347360E-01  0.49467514E-01
  0.90467436E+00  0.12522244E+00  0.45156158E+00
  0.65897360E+00  0.27759791E+00  0.72917637E+00
  0.27727793E+00  0.70363866E+00  0.81766970E-01
  0.27965278E+00  0.95318415E+00  0.23657826E+00
  0.39608731E+00  0.82921306E+00  0.37918253E+00
  0.47635928E+00  0.39393317E+00  0.50392461E+00
  0.50549188E+00  0.95417082E+00  0.36530066E+00
  0.52392406E+00  0.92846043E+00  0.34454727E-01
  0.83147559E-01  0.31466289E+00  0.46670392E+00
  0.85006485E+00  0.26725471E+00  0.61071520E-01
  0.52499132E+00  0.73645201E+00  0.72805032E+00
  0.48083089E+00  0.22218630E+00  0.30464928E+00
  0.85494192E-01  0.79913041E+00  0.75201624E-01
  0.83014507E+00  0.11182598E+00  0.86329198E+00
  0.35019838E+00  0.29359542E+00  0.98013201E+00
  0.58621342E+00  0.74170898E+00  0.87584387E+00
  0.76227549E+00  0.91045430E+00  0.60178616E+00
  0.75360104E+00  0.11104178E+00  0.47156663E+00
  0.63981122E+00  0.87086672E+00  0.31832903E+00
  0.98432410E+00  0.40485023E+00  0.23699873E-01
  0.59770029E+00  0.58659661E+00  0.25264800E-01
  0.77411143E+00  0.57839424E+00  0.88286151E+00
  0.85673365E+00  0.92514641E+00  0.38307617E+00
  0.97046758E+00  0.24487203E+00  0.94375868E+00
  0.76574531E+00  0.73001844E+00  0.71140372E+00
  0.10359098E+00  0.42250995E+00  0.26403237E+00
  0.14348081E+00  0.26202151E+00  0.23026369E+00
  0.77274266E+00  0.61526038E+00  0.57855572E+00
  0.42970974E+00  0.43276291E+00  0.95914603E+00
  0.15944378E+00  0.87375305E-01  0.22733542E+00
  0.70217735E+00  0.68220919E+00  0.97493745E+00
  0.36901582E+00  0.12525342E+00  0.63728823E+00
  0.13721543E+00  0.60073714E+00  0.81212015E-01
  0.28535969E+00  0.51018446E+00  0.97093257E+00
  0.55989164E+00  0.87214980E+00  0.49778244E+00
  0.99725243E+00  0.28621660E+00  0.14994825E+00
  0.15236945E+00  0.20063228E+00  0.88927285E+00
  0.13928183E+00  0.72550717E+00  0.85026430E+00
  0.18426826E+00  0.40658184E+00  0.39822473E+00
  0.25478611E+00  0.56527407E+00  0.79760902E+00
  0.78443536E+00  0.45841975E+00  0.37956257E+00
  0.39103879E-02  0.72049631E+00  0.36568320E+00
  0.71629128E+00  0.82870868E+00  0.83529685E+00
  0.77945404E+00  0.92294716E+00  0.16932424E+00
  0.90665366E+00  0.57297752E+00  0.24162003E-01
  0.88608192E+00  0.81928636E+00  0.68044605E+00
  0.54583895E+00  0.62690871E+00  0.58656964E+00
  0.17190212E+00  0.65729441E+00  0.70077049E+00
  0.11336186E+00  0.79805706E+00  0.26410900E+00
  0.49857841E+00  0.20919427E+00  0.89503121E+00
  0.89225673E+00  0.74966670E+00  0.91097961E+00
  0.17923798E-01  0.73972436E+00  0.73177108E+00
  0.73833938E+00  0.72301481E-01  0.99047377E+00
  0.48882004E+00  0.69742721E+00  0.60709995E-01
  0.40160865E+00  0.50508265E+00  0.60573728E+00
  0.29032842E+00  0.66094184E+00  0.93092947E+00
  0.99876062E+00  0.83070845E+00  0.46670049E+00
  0.55425918E+00  0.69754481E+00  0.20794418E+00
  0.96169401E+00  0.58348309E+00  0.26950544E+00
  0.53836859E+00  0.88359436E+00  0.18969870E+00
  0.19757183E-01  0.51933443E+00  0.12962457E+00
  0.40566546E+00  0.10023137E-02  0.54362774E+00
  0.96047051E+00  0.69258341E+00  0.15763658E+00
  0.38649973E+00  0.18338685E+00  0.43364279E+00
  0.80691106E+00  0.66215728E+00  0.11085799E+00
  0.72168191E+00  0.21251948E+00  0.35740996E+00
  0.88301392E+00  0.15377854E+00  0.70035108E+00
  0.28307619E+00  0.98648676E+00  0.71215974E+00
  0.29726485E+00  0.95830994E+00  0.40995985E+00
  0.46940037E+00  0.24925482E+00  0.92206309E-01
  0.84906015E-01  0.88867601E+00  0.66199576E+00
  0.38648894E+00  0.61978656E-01  0.30609846E+00
  0.83044535E+00  0.30638226E+00  0.42452147E+00
  0.24939667E+00  0.32399432E+00  0.86662433E+00
  0.15093383E+00  0.86790722E+00  0.39355281E+00
  0.29625817E+00  0.13586143E+00  0.94909594E+00
  0.52194532E+00  0.93736276E-01  0.47176917E+00
  0.62862704E+00  0.80721567E+00  0.45924460E-01
  0.28338278E+00  0.95525012E+00  0.73120439E-01
  0.35596648E+00  0.16974481E+00  0.17014355E+00
  0.23359875E+00  0.58681563E+00  0.54768065E+00
  0.44455203E+00  0.66866499E+00  0.90407699E+00
  0.45665852E+00  0.44882175E+00  0.14484485E+00
  0.41347269E+00  0.85178206E+00  0.70771035E+00
  0.10417826E+00  0.22220502E+00  0.36673198E-01
  0.79422963E+00  0.71769701E+00  0.32232001E+00
  0.96335416E+00  0.93207160E+00  0.18730956E+00
  0.52681144E+00  0.96243681E+00  0.65700028E+00
  0.95508838E+00  0.42363271E-01  0.28925467E+00
  0.22514965E+00  0.10459373E+00  0.90417178E-01
  0.41835912E+00  0.26528869E+00  0.56713562E+00
  0.26098831E+00  0.29888199E+00  0.54035253E+00
  0.25170572E+00  0.72540788E+00  0.25819619E+00
  0.40913260E+00  0.38370944E+00  0.36218956E+00
  0.96687407E+00  0.42269562E+00  0.85983104E+00
  0.23110369E+00  0.14390140E+00  0.52718300E+00
  0.65934619E+00  0.63215750E+00  0.35399921E+00
  0.27470221E+00  0.28953923E+00  0.33961513E+00
  0.50444039E+00  0.10760360E+00  0.70346602E+00
  0.39688288E+00  0.62324950E+00  0.75306883E+00
  0.53247798E+00  0.53590583E+00  0.89048981E+00
  0.93226402E+00  0.25300687E+00  0.29322901E+00
  0.99451625E+00  0.57463909E+00  0.83685248E+00
  0.14334483E+00  0.47023608E+00  0.58099535E+00
  0.38894333E+00  0.67026924E+00  0.56334203E+00
  0.19185350E+00  0.82735556E+00  0.56834479E+00
  0.68774836E+00  0.49427128E+00  0.49640897E+00
  0.55981352E+00  0.31816247E+00  0.20068356E+00
  0.86994545E+00  0.74481172E+00  0.52603860E+00
  0.32570282E+00  0.39448766E+00  0.19932598E+00
  0.55862402E+00  0.33522377E+00  0.94377438E+00
  0.82883661E+00  0.12198843E+00  0.22483535E+00
  0.54974904E+00  0.12263112E+00  0.53630605E-01