Amorphous Sb                            
   1.00000000000000     
    20.0078869700586894    0.0000000000000000    0.0000000000000000
     0.0000000000000000   20.0078869700586894    0.0000000000000000
     0.0000000000000000    0.0000000000000000   20.0078869700586894
   Ge   As   Se
   135    30   135
Direct
  0.6312630951903705  0.8002579625571014  0.0422531699383195
  0.0886337447284152  0.7200068323216235  0.5968616817458483
  0.6293535095408546  0.4883560576463113  0.6563936486973921
  0.9626711001398383  0.1868877691233944  0.6220555203905221
  0.7857346778980515  0.3489829140241211  0.4012687808797533
  0.2573604186251969  0.6491679171373408  0.0808230933616326
  0.1811583214107209  0.7125216177364994  0.3801214409473812
  0.3162208492457577  0.6626095050347862  0.5757538949923318
  0.5799518243897845  0.8062600406884473  0.4052551171148821
  0.3904919820264824  0.2771886599368282  0.1314094723842676
  0.8346030796535627  0.7800665263469477  0.7208657277241801
  0.8392316698834170  0.3903452901311716  0.7556421375470043
  0.8399208437274024  0.3228989839979361  0.6308479575466194
  0.1046059476593272  0.0553834628946423  0.8167296886513776
  0.5116383196755592  0.2383281945353138  0.3833239339099929
  0.2747436275915876  0.5569174254467611  0.2078183678633885
  0.0057086885514820  0.5045984749703530  0.2840016947601043
  0.7479645332565041  0.2365076859658934  0.2417720040714991
  0.2618984058378819  0.8344228961880383  0.7616591855528788
  0.7754030083159943  0.7967228275123076  0.3077980907251681
  0.2703752500001114  0.4496604988148470  0.1165073602404967
  0.2691637609061733  0.8476592176734473  0.0091769793291040
  0.0965636625473493  0.1651364779973018  0.9231592195260697
  0.9075195486976084  0.0198952906668358  0.1442644579335351
  0.7044770069409818  0.2405685818526643  0.0272758149958049
  0.4590123843370214  0.2893468377300457  0.5681899858290235
  0.5204984014430395  0.6193863713905503  0.4112752389346769
  0.9351056392076629  0.7518363139987581  0.8145829842211390
  0.4942616127391679  0.5327837328941938  0.6134328596096721
  0.7404875671478383  0.5464419628699525  0.9579048313346571
  0.1293212811577177  0.1151246357601805  0.5819332281675298
  0.3529756636970633  0.1580452431144046  0.1108631353678446
  0.7851825993382245  0.4849865375611466  0.4105642136861024
  0.2644135397267331  0.4842785148101003  0.3160327958626110
  0.9472739638973825  0.4828352082690093  0.5295148295534869
  0.5347158130948120  0.5232369710672020  0.8460113815498571
  0.4792592230903626  0.9400225152626828  0.9525635836036965
  0.3857836692053296  0.5577175090581866  0.0609258101496512
  0.4622982346033800  0.1648258972276507  0.9238079897631220
  0.7921349137093788  0.6427612429933155  0.7796953610743879
  0.5596410816569445  0.6885888211750881  0.5616881585554808
  0.0845769312743087  0.9424158609570794  0.5515927262223270
  0.6004623462099163  0.0347458842375157  0.5881555605291421
  0.5630369540323847  0.0755311831178606  0.3624471563448119
  0.5199256830029122  0.6744899384111368  0.2091681977495105
  0.4288520496995837  0.4702247499570762  0.2975380652851063
  0.0093650582686868  0.6255075562420204  0.9064573665552569
  0.1368785020815235  0.3844300635510235  0.5465764490116932
  0.4843424645318642  0.6897048003641464  0.7482445795106037
  0.8046836300099331  0.0193012846057538  0.3250056442317230
  0.0774811180821750  0.5665108982046304  0.1337988182154649
  0.0406731223308602  0.1836739518229323  0.1046739347372382
  0.7330850585823566  0.9952913365767042  0.9706524956413194
  0.4123338122628373  0.4663095162058185  0.6987079398795260
  0.7147984414855294  0.5011580800657303  0.7583767668725082
  0.2682125141004760  0.1311131807813610  0.2442865545437201
  0.9547703091006192  0.6264743122615791  0.4869191324987789
  0.1037991081254390  0.5068991969043479  0.8486765470249483
  0.2893121388654735  0.2510164663516481  0.6354813027104524
  0.7095993245194242  0.3841935750880879  0.0677584318830610
  0.7102632772502414  0.9776754860032433  0.2163098346386423
  0.3611002488466489  0.4202464579561146  0.8105308115359495
  0.9404164905271505  0.6986785819000038  0.1095565471092341
  0.8200228234626605  0.2681512241858723  0.8643924863177846
  0.6333655394750508  0.2171106041248056  0.1918171300743745
  0.0391377346224969  0.3807258093410099  0.0611466043705669
  0.1093014353913499  0.8925135506187230  0.4441940725298498
  0.5966328215016350  0.8447085260849220  0.8221227053642195
  0.8532985561014352  0.2584101769923867  0.0563567452359529
  0.0935634866610971  0.1802470106393400  0.7333990121433676
  0.2552665078071130  0.3840742731730379  0.5978202637474994
  0.4334891136450538  0.3349274243950642  0.0224213339230795
  0.3811240292429851  0.6555826789039764  0.2313160445674304
  0.4124905500080789  0.9287973614074895  0.1604580345516928
  0.6651445928182154  0.3241831764531218  0.7384996013600263
  0.5878650424147709  0.1282386205150104  0.9423210776005507
  0.3747478760096587  0.1086215337023422  0.4505035084600256
  0.9733359648621216  0.8831126420145341  0.6693593934322126
  0.0555455693803986  0.9032086912526833  0.0675195837828236
  0.3284672185826452  0.1228036756782227  0.9611948347752721
  0.5696923319990866  0.0218557982133190  0.0881107213661626
  0.2433870696366305  0.2577455107655155  0.0162287462755127
  0.9208282715665382  0.4277142257798416  0.8592863364861837
  0.6134367067464354  0.5055069319440105  0.3770409691717878
  0.4814381529698538  0.0730147871832320  0.5492517774389001
  0.5460000069851558  0.3105151214990275  0.1534598761962944
  0.2431625338804790  0.7862551484185544  0.5357552196464650
  0.8860561875221287  0.1609192070856496  0.4029623075663327
  0.8027090176870427  0.6322774746936646  0.1856511122373279
  0.4446071465524148  0.3976169028889233  0.4513183508517490
  0.4738396626559969  0.1365442089414424  0.7523059731404624
  0.3286177559564284  0.9917817699946719  0.5732492058617646
  0.5482388079671986  0.4863664880300811  0.1462859693806564
  0.7324033898498407  0.1356540093283206  0.8077696805014428
  0.4997277538892976  0.8968000418942053  0.6482194681624003
  0.3882143219010423  0.8484706704248758  0.4625374941374551
  0.1906344708483145  0.9787351087422608  0.1070015306540320
  0.3421098465458671  0.5833100044294405  0.4588976380061890
  0.7844502741992417  0.9714620059570360  0.5268808146422184
  0.2883102876199660  0.3099516648071333  0.8385121397763952
  0.0225586568800301  0.2255211506997811  0.3161602458214003
  0.5309310473093648  0.3132467774666283  0.7033803775639554
  0.1304570238615194  0.4630612307079425  0.2796263336926041
  0.6723041559773828  0.9495625710797814  0.3753178577268418
  0.3133362350471368  0.0776757385517104  0.7683374899852743
  0.7978305418640703  0.8697035280641198  0.0763113035591080
  0.1064625421546208  0.3670219553720464  0.8622179586389143
  0.0236603828641253  0.7982677218717826  0.4111633791106637
  0.6078721910919236  0.2773011209583710  0.8555134268265372
  0.8413362302934805  0.8602589611864585  0.8742939860190504
  0.7875732785274531  0.6018494892789096  0.5848239379173348
  0.9393610627248511  0.8456375728668929  0.2277016111560109
  0.2437421328238179  0.9692528552504529  0.3279735370742973
  0.8913786221442609  0.1674718610700294  0.8032878638641671
  0.6046504476056431  0.6244956964629027  0.0502396258095596
  0.7017492742951573  0.7608649489297452  0.6624450565425589
  0.1756315744526752  0.2944872927444903  0.2504935300969788
  0.7243063964783223  0.2107777408504093  0.4775727909692900
  0.0961848691300888  0.2032778106041948  0.5050893628613432
  0.8669236608721066  0.1310043187521800  0.9916109627416320
  0.6648180579010456  0.3563327645794303  0.5197278916366659
  0.1935546825570889  0.2209560899759483  0.3753385700302064
  0.2158621633444615  0.5381836401693385  0.9343867928595616
  0.9686902916402287  0.9920263743972542  0.8514254225516260
  0.0909925231735970  0.4711604567569644  0.4386863329316421
  0.4334404748083618  0.7404568754712696  0.3275728241834644
  0.5626098826708957  0.8820591049527269  0.2295812033060549
  0.2421232553420379  0.0127802883512799  0.9331923932808839
  0.0917957643305299  0.4176252078024573  0.7341303771498805
  0.0720461485691412  0.8762332586484129  0.2447930944252169
  0.7712660756093522  0.6223135518584324  0.4115490939771840
  0.8903024570295789  0.5563944228017350  0.0380245678015662
  0.6287918505275031  0.2151001021368540  0.5739255736897637
  0.2525140665426543  0.5470941583215242  0.7279805807126682
  0.1336595615716896  0.8939681503060352  0.7939286287564937
  0.2940207156157237  0.8303715390199604  0.2581172482083293
  0.1310482666055223  0.5419571985964176  0.7302067849311933
  0.8431486478314614  0.2716383917006281  0.3227267097313878
  0.5637922473925160  0.7141028975040138  0.3247471396094330
  0.8896374573392628  0.7993512313481753  0.4018602848501952
  0.9198796022702491  0.1301727454339904  0.2109904189063597
  0.7585292081624548  0.6792550000679412  0.9701610713266243
  0.9789080401364252  0.7532789578913507  0.6534257704426899
  0.0029671955153320  0.2794062958336329  0.5470964274445234
  0.8817649777907383  0.0732075579022094  0.7084033116975157
  0.4219787221751540  0.7191920500535260  0.4504930964806522
  0.1517008002349989  0.7231096836737970  0.0308537670065092
  0.3668187391294226  0.8652084160680354  0.9296925174260704
  0.5202872196033957  0.4583582185069808  0.0202996203078032
  0.9320012650185150  0.4585469268489715  0.1088881618746643
  0.7586447839075764  0.1632668289663837  0.9293591541546083
  0.8423244085407242  0.1516927589175047  0.6235321526288856
  0.9083719912186234  0.4449237631562123  0.3437080079411520
  0.3214682981889257  0.5347546079432123  0.8337478185507274
  0.3851813396825960  0.7966290602161267  0.1761374153556309
  0.8940072154159914  0.7075393476536159  0.5751648898391603
  0.3632624170025722  0.2485715631247041  0.9466359449921071
  0.7708657591277738  0.0242280343277185  0.7459537338700304
  0.8569000064308470  0.9904886777576796  0.0275713779693290
  0.5063702857496462  0.7952022375557299  0.5057107622028795
  0.9542674635847990  0.5513667604556819  0.1842324840082147
  0.3678494185194187  0.7503016983765469  0.8576727843441914
  0.3962000196746139  0.7826888576422789  0.7348880440981658
  0.4162120571751022  0.5877061729461837  0.3400203414131606
  0.8374226396636502  0.4445007870759574  0.1895789302912459
  0.2261402611881184  0.1101807722009327  0.8565041288046875
  0.4337159499639998  0.1005899628764666  0.0357903118176778
  0.4001694300800444  0.9810800389514174  0.4701941833013784
  0.8312220812099754  0.9843562734343353  0.8422696628280011
  0.7983692086717534  0.1388469715033024  0.1844947169997957
  0.5420206406276971  0.8355142949710397  0.9385667923979681
  0.4044116691653767  0.3382317728474011  0.6657336768543156
  0.2377704961661222  0.1271713295945993  0.0600290497695656
  0.9366027507335312  0.4007351045432730  0.6213866542470151
  0.2629148483535584  0.3093859107525722  0.1301620881709397
  0.2971874774558460  0.5019447895635328  0.6217465663091933
  0.1307265389627415  0.4009687418789720  0.1764664027010022
  0.4473664881608008  0.1339938572947559  0.3453119913571095
  0.1339159753700391  0.9897032567691352  0.7166827389729085
  0.3994460377180461  0.8614818190669984  0.3270290575350710
  0.8447659876716169  0.8963723666364705  0.6830183859825003
  0.2241779810141666  0.3386680798825257  0.7119647545841039
  0.6979286670387838  0.8304645081612791  0.4167831682596821
  0.4937467352052777  0.9085087206819339  0.0743493652687882
  0.0994287753708960  0.3210325614199263  0.3538520540121483
  0.2044908742265887  0.3677521288385979  0.9272627220031160
  0.4583007128590082  0.4311582911284597  0.8846261894129657
  0.3597497050607088  0.1891292216370171  0.7351310835525441
  0.4195226378151695  0.4721199693906655  0.1761406868613144
  0.5309254939680547  0.4155750726195383  0.3497660721743295
  0.7530688941894870  0.4969576241803233  0.1120419156721419
  0.1344048794396241  0.6504036327275649  0.9419169820280803
  0.1456024280245306  0.8377597973263795  0.5984751397936278
  0.2074440322269067  0.1478997400821715  0.6697802166560642
  0.4735933635111569  0.8776618478069280  0.7698935902048077
  0.6051529524465614  0.0027812282272294  0.9218656758862499
  0.6995623757153905  0.5976407736555864  0.8474160804862640
  0.1156699674932705  0.9582671438419260  0.3400195741621649
  0.9203890711914655  0.3453895166185726  0.2726294998623705
  0.5755736872345676  0.7525668020294882  0.6691148245753249
  0.6131116443978155  0.1464818265270838  0.8177895435460235
  0.2217659648018200  0.8271294853468399  0.4166218105227434
  0.6575008689775407  0.1411041114508979  0.0960762860197062
  0.2019716656176414  0.2690288493507775  0.5003839883246330
  0.6396612628826156  0.7049961486388950  0.9553469304076547
  0.8990562320191070  0.7125992803723284  0.2285344014942173
  0.7162664840984267  0.6738034879134718  0.5124784123378584
  0.2529488816851260  0.7163745220203941  0.2717902482897077
  0.0098238472800350  0.6781528293528534  0.7417421993585386
  0.7354474180710261  0.7793377547286422  0.7945931673045074
  0.3675846471337872  0.0748117399993409  0.2007680903462959
  0.7443840646329288  0.8642447524321466  0.9586797552043512
  0.8800138277256901  0.8183866878441972  0.5271433595933851
  0.5369794861575485  0.3791538722487222  0.5520721297659164
  0.5557160490113207  0.4350436929558457  0.7434073662172661
  0.3982027962461314  0.2540135123695489  0.4711716572897988
  0.1914109599276016  0.0329745198437207  0.2177550182623031
  0.6851267744268340  0.9600698508085989  0.0896351438367088
  0.0118003698528195  0.5588496513170373  0.0145778256081259
  0.8444399485158930  0.9417033301848050  0.4180763500948116
  0.4287264811088172  0.5113609047200725  0.5119749589944126
  0.6244683758241513  0.3964690250028630  0.1914146582603987
  0.7300468393674620  0.6797791022161755  0.3074639743762859
  0.6303910591929244  0.4574074359972539  0.9712915207883720
  0.5472827443478567  0.9142115839556268  0.3568221993465770
  0.0326552980579070  0.9857760259831007  0.1578173175875262
  0.7735160848338412  0.7149395459916585  0.0913151072574344
  0.6068773915355171  0.5742030458993019  0.1940827141454147
  0.1833871251516420  0.5034510382787812  0.0491595655851969
  0.3127995452881848  0.9487396521468077  0.0746858880878385
  0.9445350185940348  0.9326420349435174  0.9645509137186076
  0.5723502472898020  0.0166398851814780  0.2158219600999355
  0.5440893921302956  0.7298233990567700  0.1020151676593559
  0.0795118870507968  0.6907748918601115  0.1301912661809078
  0.7157836682680629  0.3904123147082160  0.6408268753151859
  0.2514130512243729  0.7507041016752640  0.8547906082369899
  0.9553315347729565  0.8290074184930389  0.1043135759261512
  0.3496251768477012  0.3930670661001014  0.3455274916522809
  0.1104257203454948  0.1913647403905218  0.2164937581737925
  0.7100015147916180  0.4596414216455050  0.3068425695139796
  0.8672841463021470  0.0724772520429875  0.5324393580908173
  0.6728291524199540  0.0172277117723066  0.4808104152000234
  0.6123977070460496  0.9695978064737661  0.8041854617343396
  0.3024510909834868  0.9298361394684215  0.8440748263690044
  0.0866773813157680  0.7623674842661983  0.3091320952085275
  0.0951832986207810  0.1448409981312063  0.3928364358285042
  0.7655316383807070  0.1499011930706840  0.3721120456548184
  0.0870060430480494  0.3075184995729871  0.6261389695389326
  0.8749724440528920  0.5363522400735194  0.9166161918883339
  0.1293725342162345  0.2457659434062453  0.8380871635276841
  0.4319725007368929  0.5776154808748190  0.7917974430173303
  0.9966611886236396  0.3579526443779307  0.9243057011818520
  0.7985125927853682  0.3237955073321105  0.1582182198565414
  0.4884964365817973  0.2646778410198707  0.8177032176440182
  0.9447565870273924  0.7379768717948998  0.9339216500263736
  0.6865657304605027  0.8535295320199130  0.2186068642200027
  0.3313909235264079  0.7529969736970610  0.0733316786261562
  0.7255556875086514  0.3981502873998402  0.8277210636359277
  0.5116012329217160  0.1944696013251875  0.6315353425537918
  0.6799047772294484  0.4793339508357317  0.4883324025165299
  0.2627536712905140  0.0956476107636780  0.3754011414998397
  0.9938533176063753  0.4962690618707208  0.7848730847037908
  0.0562120978781733  0.7017855099145396  0.4810532540489940
  0.8440920435680692  0.9402989760794873  0.2210303439290231
  0.4514798568688200  0.6543826112395131  0.6275261890368263
  0.4526317061861051  0.2900078189745283  0.2342395278513152
  0.2597752936145541  0.6664048487285735  0.6893721457393103
  0.7046863364070594  0.6371642688519820  0.6745960480740599
  0.9324608619570615  0.0713034941018327  0.3212353447371375
  0.9662250323921195  0.2880050983322508  0.1105916827056266
  0.9782561055039389  0.4003499716973656  0.4440595263601573
  0.4163333209895539  0.0676086302355059  0.8562395450174982
  0.9618699793970877  0.1343782426768155  0.8966273935606400
  0.1149023053521465  0.9667229015538956  0.9016044770658710
  0.6776685443655720  0.1161728408785872  0.6410420443035206
  0.4892976792257447  0.5728292783556002  0.9910617118783731
  0.1506397235499276  0.8606174627307039  0.1487659839390244
  0.3474099970441678  0.4400801134833372  0.0176179709526167
  0.7547460812493849  0.2325556163736624  0.7303255475626363
  0.6136891251468380  0.1759179767865806  0.3004825559539521
  0.0326371657663880  0.5730912763020204  0.3762655031468632
  0.0687736134567035  0.5110719154904884  0.5593274817899506
  0.0313740161532571  0.0832785020166264  0.6403307569343905
  0.3081708944115005  0.6147808524496288  0.9696637566624713
  0.1520868685732240  0.5760803782203344  0.2393741969096748
  0.6207597162909125  0.9303713287799076  0.6534492227227575
  0.8324267584630050  0.2859207935268224  0.5061011213153969
  0.3303744666154986  0.8597127192916527  0.5873852208774633
  0.2379291920325443  0.5348278461054807  0.4220697637533738
  0.8855341710092099  0.6727888637467954  0.3951766870234372
  0.1735209253435688  0.0236243079205018  0.5181576716106917
  0.6753031517788185  0.3007002307323864  0.4040557254736742
  0.8312676986366380  0.3541958015583553  0.9719196298598254
  0.1082418527136538  0.2573462270943866  0.0223194194574889
  0.5774938101314637  0.1591350410849829  0.4683501350312363
  0.8348477934614119  0.5174538203009333  0.7367083960087494
  0.9712847609561029  0.2429132030862134  0.7361769123414024
  0.0086932908734463  0.8614160133369168  0.8044938185647539
  0.5845465820503066  0.2659272602262910  0.9786198744188467
  0.4445095213970864  0.0157137264585072  0.6559549715450620
 
 -0.16765298E-02  0.20982990E-02  0.20213645E-02
 -0.19764553E-03 -0.76497685E-03 -0.95215141E-03
  0.15644569E-02  0.10296848E-02  0.27798738E-02
 -0.44121466E-03 -0.43881370E-02 -0.18700054E-02
  0.24692257E-03  0.58294492E-03  0.14152724E-02
 -0.12214694E-02  0.18909396E-02 -0.35223519E-02
 -0.81760165E-03 -0.29034963E-02 -0.10742262E-02
 -0.39391086E-03 -0.25871620E-02 -0.22046450E-03
 -0.35367017E-02 -0.52234179E-03 -0.38770447E-03
 -0.13142201E-02 -0.59543663E-03 -0.17082168E-02
 -0.41503646E-02  0.13066494E-02  0.48974683E-03
 -0.29840853E-03 -0.45615332E-03 -0.22384245E-02
 -0.83500287E-03  0.62050381E-03  0.27057799E-02
  0.38245448E-02  0.26014021E-02  0.12362513E-02
  0.42048972E-02  0.10162480E-02 -0.92620896E-03
 -0.10920304E-02  0.40319089E-03  0.13778116E-02
  0.28442366E-02  0.38043106E-03  0.48780568E-03
  0.33220154E-03 -0.19874303E-02  0.20747737E-02
  0.43902893E-03 -0.19667572E-02  0.37416111E-02
  0.28699645E-02  0.24049788E-02  0.33117852E-02
 -0.59005750E-03  0.32645432E-03 -0.15422272E-02
 -0.28349556E-03  0.16210945E-04 -0.23204627E-02
 -0.11459711E-02  0.30998452E-02 -0.14470767E-02
  0.16927654E-02  0.24615454E-03  0.70203578E-03
 -0.10354832E-02  0.86807382E-03 -0.13410614E-02
 -0.69936321E-04 -0.36088661E-03  0.52927732E-03
 -0.14351905E-02 -0.21670151E-02  0.10731149E-02
  0.13844031E-02 -0.33632474E-02  0.45957168E-03
 -0.35633834E-02 -0.61881607E-03  0.10281477E-02
  0.19765618E-03  0.19468189E-02 -0.52813348E-02
 -0.79837733E-03  0.58227385E-03  0.79767350E-03
  0.34302330E-03  0.41194324E-03 -0.20148317E-02
 -0.12373415E-02  0.45120999E-02  0.95540041E-03
  0.11420487E-03  0.43476262E-03 -0.22544582E-03
  0.14526637E-03 -0.27769998E-02  0.86319214E-03
 -0.65858099E-03 -0.16045093E-02 -0.28011617E-02
  0.10342171E-02  0.98064408E-03  0.14198149E-02
  0.42647193E-03  0.19084996E-02  0.75678153E-03
  0.61239750E-03 -0.10719352E-03  0.10143626E-02
 -0.77620563E-03  0.25868792E-02  0.11610381E-02
  0.12737558E-03 -0.11504375E-02  0.21298544E-02
  0.44791145E-02 -0.64039047E-03 -0.18699835E-02
 -0.72743785E-03  0.26940952E-02 -0.16393988E-02
  0.14675452E-02  0.49281496E-02  0.13244242E-02
 -0.83480701E-03 -0.29916386E-02 -0.29114899E-02
 -0.15405131E-02 -0.15446860E-02  0.17030350E-02
 -0.30671322E-02  0.48123711E-05  0.59451977E-04
  0.15652573E-02  0.76656156E-03 -0.36440364E-03
  0.11978401E-02  0.98687142E-04 -0.33923907E-03
 -0.27808454E-02  0.38574374E-02  0.88778694E-03
  0.28556643E-02  0.35630850E-03 -0.38178579E-03
  0.38677273E-03  0.26281178E-03  0.17735060E-03
  0.16069522E-03 -0.31196107E-02  0.77730115E-03
 -0.21857989E-04 -0.12952578E-03  0.22740513E-02
  0.84773301E-03 -0.82420617E-03 -0.52851211E-02
 -0.10795944E-02 -0.26821333E-02  0.33658509E-02
 -0.76700501E-03 -0.32790694E-02 -0.29082801E-03
 -0.20845990E-02 -0.19682765E-02  0.19591257E-03
 -0.56308563E-03 -0.18282838E-02  0.15266552E-03
 -0.27810926E-02  0.11923541E-02 -0.38201245E-02
  0.35623910E-02 -0.20980068E-02  0.13435722E-02
 -0.12287205E-02  0.12333133E-02  0.18401586E-02
 -0.18813989E-02 -0.21142310E-02 -0.11423940E-02
  0.62584189E-03 -0.15395168E-02 -0.18911986E-02
 -0.41360892E-02  0.85376247E-03 -0.14261195E-02
 -0.12694287E-02  0.11351390E-02 -0.10836207E-02
  0.68659503E-03 -0.39778015E-02 -0.15816579E-02
  0.27141107E-02 -0.33584171E-02  0.19102976E-02
  0.11583400E-02  0.24869381E-02 -0.29799408E-02
 -0.99855197E-03 -0.14863569E-02  0.18046494E-02
  0.12165900E-02  0.17831378E-02 -0.10781253E-02
 -0.33026014E-02  0.24100259E-04  0.18118773E-02
  0.14202689E-02  0.11532282E-02  0.22182915E-02
  0.14216194E-02  0.33716563E-03  0.16373145E-02
  0.79116214E-03  0.20977012E-02 -0.47740136E-03
  0.40548008E-02  0.30093725E-02 -0.48412249E-02
  0.50476946E-03  0.93001648E-03 -0.25396772E-02
  0.28377796E-03  0.13800454E-02 -0.68668548E-03
  0.24983225E-02 -0.53898985E-03 -0.20961474E-02
  0.26642108E-02  0.45091549E-02 -0.78219226E-04
  0.37304170E-03 -0.18290493E-02  0.15507403E-02
 -0.30737142E-02 -0.23738930E-03 -0.17730515E-02
 -0.32161982E-03 -0.17918265E-02  0.25612847E-02
  0.13168550E-02  0.89612689E-03  0.38925540E-03
 -0.19556499E-03 -0.11364865E-02 -0.11211303E-02
  0.24558502E-02  0.18421224E-02 -0.22916901E-02
  0.27038158E-02  0.86270352E-03  0.69959047E-02
  0.25857743E-02 -0.15242545E-02 -0.16668505E-02
  0.21360372E-02  0.21520853E-02  0.79942418E-03
  0.27444281E-02  0.58987880E-04  0.33957762E-03
 -0.11833397E-02 -0.76645043E-03 -0.10732815E-02
 -0.86956231E-03  0.75379319E-03  0.89269832E-03
  0.57449892E-03  0.10672239E-02  0.23765222E-02
  0.88370181E-03  0.10105267E-02 -0.20875220E-02
 -0.95319851E-05 -0.40251869E-03 -0.16820727E-02
 -0.19069662E-02 -0.18334761E-02  0.46474799E-03
 -0.29009795E-03  0.82009188E-03 -0.47930874E-04
 -0.14821259E-03 -0.22333637E-02 -0.14400251E-02
 -0.16994402E-02  0.44382805E-05 -0.17490059E-02
 -0.19042243E-02  0.47716497E-03 -0.45679765E-03
  0.33387931E-03  0.16674587E-02 -0.23530725E-02
  0.71230348E-03  0.12397805E-02  0.16542328E-02
  0.54082773E-03  0.12043168E-02 -0.72095956E-03
 -0.10041065E-02 -0.10039380E-04  0.97581625E-03
 -0.12046664E-02  0.22070064E-03 -0.38687046E-02
 -0.20968687E-02 -0.18709940E-02 -0.18055436E-03
  0.10987631E-02  0.19892502E-02 -0.25585881E-02
 -0.25570371E-02  0.72205950E-03 -0.54235858E-03
  0.81510361E-03 -0.76433954E-03 -0.28901980E-03
 -0.28868389E-02 -0.32639328E-02  0.86236214E-03
 -0.11028314E-02 -0.17438381E-02  0.15548020E-02
  0.72807823E-03 -0.53496810E-03  0.23154571E-02
  0.29409606E-03 -0.10657262E-02  0.15356374E-02
 -0.17334902E-02  0.76155670E-03  0.66840074E-03
 -0.20623693E-02 -0.48200061E-03 -0.25670882E-02
  0.21347816E-03  0.10496746E-02 -0.15079963E-02
 -0.22840529E-02  0.30241623E-03  0.95476393E-03
 -0.11911397E-02 -0.11355646E-03 -0.20048794E-03
  0.10131963E-02  0.10532534E-02 -0.20485902E-02
 -0.20164502E-03 -0.14397848E-02  0.21186654E-02
 -0.10684666E-02 -0.13896876E-02 -0.15204541E-02
 -0.16807633E-02 -0.30020152E-02 -0.97287565E-03
  0.10937132E-03 -0.25819748E-02  0.76596623E-03
  0.11291329E-02  0.21260575E-02 -0.29640034E-02
  0.77585472E-03  0.83340994E-03  0.12751390E-02
  0.12163457E-02  0.10023164E-03  0.39210214E-02
  0.54255716E-03 -0.28179854E-02 -0.27211161E-03
  0.23188720E-02 -0.25790747E-03  0.24092914E-02
 -0.18686634E-02 -0.18976889E-02  0.14554050E-02
  0.43408602E-03  0.12041670E-02  0.13697773E-04
  0.15239688E-02  0.30544068E-03  0.59355789E-04
  0.20917359E-02 -0.23660069E-03  0.10988085E-02
 -0.36663278E-02  0.12031184E-02  0.30481682E-02
  0.22440898E-03  0.11254562E-03  0.17462937E-03
 -0.70822860E-03 -0.27129453E-02 -0.36098665E-03
  0.14737354E-02  0.11693073E-02  0.65620136E-03
 -0.26696088E-03 -0.12212573E-02 -0.58818924E-03
 -0.11154360E-02 -0.22265290E-02  0.16065708E-02
 -0.78861438E-03  0.12462942E-03 -0.58027292E-02
  0.26836374E-02  0.22204054E-03  0.98995835E-03
  0.97522516E-06  0.31017404E-02  0.18314776E-02
 -0.15279370E-02  0.84551484E-03  0.31868070E-03
  0.14825840E-02  0.11019328E-02  0.33213691E-03
 -0.19627237E-02 -0.37526672E-02 -0.35766355E-02
 -0.93837640E-04  0.17429680E-02  0.53361163E-03
 -0.88355470E-03  0.25171893E-02 -0.35186780E-03
 -0.95166706E-03 -0.84637449E-03 -0.92462122E-03
  0.18516993E-02  0.75594261E-03  0.21819158E-04
 -0.18210483E-02  0.26647437E-02  0.24779474E-02
 -0.22629595E-02 -0.35480738E-03  0.80026592E-03
  0.16145961E-02 -0.95034949E-03 -0.43184902E-02
 -0.32306919E-02  0.17768786E-02  0.85761228E-03
 -0.91486918E-03  0.34463102E-03 -0.14536754E-02
 -0.80438759E-03 -0.43788650E-02  0.24074708E-02
  0.15024011E-03 -0.84402631E-03 -0.95909622E-03
  0.16133546E-02 -0.18210994E-03 -0.21309985E-02
 -0.17625104E-03 -0.12432184E-02  0.35202902E-05
 -0.43513714E-02  0.29593283E-02 -0.23720986E-03
  0.59622023E-03  0.97628363E-03  0.42186335E-02
 -0.69209282E-04 -0.31318983E-04 -0.27702930E-02
 -0.35526921E-02  0.16378364E-02  0.20633891E-03
  0.40970400E-03 -0.24288206E-02  0.21916030E-03
  0.15971401E-02  0.29967307E-03  0.59916768E-03
  0.55292336E-03  0.13946827E-02  0.31364178E-02
 -0.16070675E-03  0.30480969E-03 -0.21977496E-02
 -0.65925157E-03  0.15577327E-02  0.13746162E-02
 -0.21492999E-02  0.13466178E-02  0.20103820E-02
  0.47068320E-03 -0.13803816E-02  0.82241576E-03
 -0.11793745E-02 -0.12673903E-02  0.16108336E-02
  0.22447509E-02 -0.71990207E-03  0.14629557E-02
  0.12047982E-02 -0.27519787E-03  0.28992649E-02
 -0.81932483E-04 -0.53855721E-03 -0.12708301E-02
  0.38490131E-03 -0.12366210E-02 -0.12738474E-03
 -0.14043831E-03 -0.23793140E-02 -0.47196780E-03
 -0.28800577E-02 -0.15955728E-02 -0.34317331E-02
  0.22528452E-02  0.20801975E-02  0.85178879E-03
  0.93670742E-03  0.17170516E-02  0.50151068E-03
  0.18052288E-02 -0.16830476E-02  0.11859587E-02
 -0.43993256E-03 -0.12222087E-02  0.94124304E-03
  0.37990409E-02  0.22906722E-02 -0.15626516E-02
  0.19907713E-03  0.18141702E-02 -0.17131382E-02
  0.18964626E-02  0.21045198E-02  0.73158886E-03
 -0.12534173E-02 -0.31192891E-02  0.87690900E-03
  0.78555741E-03 -0.21878437E-02 -0.31571187E-02
 -0.49920773E-04  0.15423891E-02 -0.30869885E-02
  0.46257754E-02  0.84489551E-03  0.16344401E-02
  0.42511194E-03 -0.18251622E-02 -0.28480610E-02
 -0.17719620E-02  0.67250581E-03  0.12159360E-02
  0.43401630E-04  0.12477861E-02  0.14198563E-02
  0.12369912E-02  0.31649206E-02  0.69581029E-03
 -0.87360320E-03  0.38180169E-02  0.21048972E-02
  0.12582706E-02  0.24609866E-03  0.47050861E-02
 -0.47992047E-04 -0.94486787E-04  0.25479364E-02
  0.21280926E-03 -0.20311288E-02 -0.12214816E-02
 -0.19911409E-02  0.12718253E-02 -0.18705852E-02
 -0.82916521E-03  0.60542755E-03  0.10121857E-02
  0.11486218E-02  0.77659056E-03 -0.12864252E-02
 -0.82044309E-03 -0.13751230E-02  0.33184048E-02
  0.23856248E-02 -0.23798866E-02  0.30632008E-02
  0.50379260E-03  0.26558321E-02  0.23338675E-02
  0.37052855E-02 -0.20803246E-02 -0.32846357E-03
 -0.11010438E-03  0.11685450E-02  0.18333108E-02
 -0.11658672E-02 -0.15188263E-02 -0.93987131E-03
  0.35762690E-02 -0.99332256E-03  0.15066954E-02
  0.10192809E-02 -0.25819137E-03 -0.29792681E-02
  0.15947581E-02  0.39919735E-03 -0.14633534E-02
  0.10974227E-02  0.29742774E-02 -0.12236879E-02
 -0.51994472E-03 -0.10043317E-02  0.38013823E-02
  0.13659085E-02 -0.26683259E-02  0.14612082E-02
  0.34786756E-03 -0.23919679E-03  0.87873344E-03
 -0.22758619E-02 -0.17704292E-02 -0.13302695E-03
  0.14106085E-02 -0.75377398E-03 -0.15571887E-02
  0.28045802E-02  0.64512113E-03  0.97191118E-03
  0.38423545E-03 -0.46329343E-02  0.78897234E-05
 -0.75078530E-03 -0.21104177E-02 -0.25575019E-02
 -0.13615422E-02 -0.17185429E-02 -0.13721023E-03
 -0.22533412E-02 -0.13801035E-02  0.29679356E-03
  0.17501205E-02  0.39773542E-03 -0.53104606E-03
 -0.31694129E-02 -0.36754400E-02  0.19382184E-02
  0.62872372E-02  0.34490633E-03 -0.15976494E-02
 -0.21189216E-02  0.17330174E-02  0.21922048E-02
  0.71629214E-03  0.87577302E-03 -0.48212301E-03
  0.97528311E-03  0.15940111E-03 -0.54342946E-03
 -0.12625692E-02 -0.15547170E-02  0.76581900E-03
  0.23429549E-02  0.16663856E-02  0.11384917E-02
 -0.22227600E-02  0.33855697E-02 -0.17249812E-03
 -0.30826025E-02  0.15050356E-02 -0.16061999E-02
 -0.78019942E-03  0.47867065E-04 -0.17394017E-02
 -0.99474016E-03 -0.14531685E-02 -0.13174734E-02
 -0.29631487E-02  0.12798659E-02  0.17208376E-02
 -0.35593974E-03  0.13970282E-02  0.47963125E-03
 -0.71650358E-03 -0.43562744E-03 -0.19314632E-02