Sb                                      
   1.00000000000000     
    18.2384887216611062    0.0000000000000000    0.0000000000000000
     0.0000000000000000   18.2384887216611062    0.0000000000000000
     0.0000000000000000    0.0000000000000000   18.2384887216611062
   As   Se
   100   100
Direct
  0.2268397760042831  0.1805345876310440  0.7183451991182181
  0.5609557729939212  0.2059050386843779  0.0383800336229214
  0.4445888813943171  0.6625620051961789  0.0338248559984891
  0.4329077076288357  0.5030548863045183  0.8854306756349501
  0.6469693201570550  0.7148060979778350  0.2430268767498731
  0.2748447060525336  0.4858344261233398  0.2027849706356690
  0.2606774439596222  0.8049235736464695  0.2392672628250168
  0.5169823171268675  0.6045758800954744  0.9284411784863522
  0.3396155319719014  0.2395127062013529  0.8617145313342647
  0.3501694266089075  0.4696857488752570  0.5847070482762859
  0.7750654732970901  0.9564702532030935  0.5341382775186219
  0.5617732772069317  0.0089432986657698  0.1719091480347217
  0.0867693867528416  0.5527039385776291  0.7515389854212557
  0.2149544859020693  0.0640725693835833  0.3612765934717288
  0.5160734212670519  0.2385647642499009  0.3506410591846958
  0.8653875833606648  0.7908462380466403  0.4864542740408453
  0.4428680885916236  0.8677147466333608  0.7668449536364008
  0.4055136762772023  0.9949800878032349  0.7385459519954054
  0.8827567203285724  0.6715269490757052  0.8172679014037598
  0.0601382894548905  0.4701314115822157  0.4682800962278222
  0.1883024606812072  0.5467654740248875  0.1127618984934813
  0.8605643078359293  0.9309093691948789  0.7515338711026658
  0.2470756019771940  0.9390787400793812  0.4114968694585102
  0.2241187639631335  0.3554323261417807  0.7169807193611248
  0.1905608297417132  0.8516275197408447  0.1306100872576792
  0.5106871836881055  0.4361689148452186  0.2923046546308399
  0.0461316278097641  0.3782167125823150  0.9895074442903891
  0.4415074242145351  0.9795201826884963  0.5315843953240247
  0.5206085370591396  0.8726320475838349  0.4868168558186170
  0.7222230733148933  0.3733616561542377  0.2591709988096724
  0.8033894889276851  0.2072871500050510  0.8783956816051344
  0.4542267642768536  0.5859056802711251  0.4131128382883276
  0.4065287287726136  0.4066211672344906  0.3790030152046597
  0.4909656092711643  0.4695087327234049  0.7614450533639427
  0.4544744987370350  0.5413807962350532  0.6494294566577707
  0.8799183159698245  0.9112105417561622  0.2390918609945771
  0.4621475361477039  0.0424334743965105  0.8592619230586465
  0.4794215413482874  0.5693684877163960  0.2788816185530436
  0.9656381075998723  0.1796971308002071  0.5422704227057480
  0.0481570889329959  0.3512575324442864  0.4001129539872821
  0.6662969742190512  0.7632354110067254  0.5298267245190829
  0.6962756194778379  0.4443662762362379  0.0468748741796787
  0.4184556472404779  0.1531388629620736  0.4130288299680416
  0.4220066885372376  0.3541126316155214  0.7427267182482211
  0.6568795223256529  0.4682596000113364  0.6726139281060952
  0.4114406724594772  0.7854808424122623  0.4816190427631071
  0.3113428470254505  0.5441658283310957  0.9485065399400625
  0.7776243431165781  0.6089368299678455  0.7522956852090843
  0.9714433088220105  0.8532043317594002  0.7333261396441415
  0.0093915429500768  0.6529057312640134  0.5273157828781478
  0.9492786715595116  0.9110583383093100  0.9197882046113364
  0.6142001468858709  0.5065268342374409  0.3581764000720256
  0.4242565993260428  0.7315192745709567  0.6092416011842872
  0.1290591734204511  0.5605361411154277  0.3904359443751630
  0.1947499208874888  0.6866589983852052  0.2753501996056400
  0.2281014280924509  0.6703824858734109  0.8061793243200981
  0.1635280945738131  0.7456379300828289  0.0458933093482656
  0.5064930090146760  0.8081931396990569  0.2673938326561540
  0.5836597243706834  0.1644752440452990  0.6265654647761068
  0.4090279891243682  0.1668826621038377  0.1751721851412071
  0.1788118634701661  0.3461286682226330  0.9462202597228995
  0.7853576757112535  0.7813761328610696  0.6024651733111597
  0.5353673435663708  0.1645557447586015  0.2300100377664336
  0.8495645011694251  0.2143856643984918  0.0104543981240965
  0.2335775361571635  0.1932643180532096  0.0391540040004372
  0.8103358295454228  0.7690826512038811  0.1140407952185285
  0.6162674363983811  0.2571600681059394  0.5257167055095806
  0.0084101563714611  0.3060557648776623  0.7265147880175959
  0.6720779999738085  0.6837799204178481  0.7951103915973547
  0.7031185978731358  0.3366689317925591  0.6773586364821256
  0.6787701328783626  0.4006811482429740  0.8594972842049486
  0.9020473874559443  0.0111909193419137  0.0609105934478933
  0.7464269832782335  0.8801174574917852  0.6914512616755033
  0.2497066482687416  0.9061447901892450  0.8595700916567353
  0.8066778118108573  0.6413597709281760  0.6202849241531894
  0.3091011455147310  0.3689836456563214  0.8228802779522866
  0.1191517830162212  0.6836316949866657  0.7230795375544403
  0.9989904874370694  0.5294340631759340  0.3627376054024083
  0.1068004669699363  0.6136523029724685  0.1987266824484522
  0.3580791242841244  0.5967770653704889  0.2181800870786432
  0.2275963474597447  0.1776858555080594  0.5785746495365132
  0.4695667991061896  0.2922378506236925  0.8563109097528852
  0.5964052063539000  0.7526418733351719  0.1159097533807696
  0.2634091330390902  0.4892526934781642  0.6940161462231060
  0.1250306543627033  0.8970863383742511  0.4583138588600448
  0.3394844911474522  0.6781336768414548  0.9436879965312741
  0.1061649060244676  0.0849981802891406  0.1875949725719792
  0.3069651014614436  0.2903203070754472  0.5685257348755925
  0.0161086159503796  0.4191731727785566  0.1959953522138775
  0.7467943021643322  0.0777044121571890  0.4752279209624461
  0.9445996085389368  0.6611526932065317  0.6493781892089530
  0.6190488071924563  0.0330662500028893  0.7553695068268738
  0.8846596523905532  0.5625481919825290  0.9080018620760768
  0.2095751181142376  0.4691953209060173  0.3244049538402223
  0.2513572615733537  0.3486903962710954  0.4546601375408699
  0.4773764950347612  0.0210345364195064  0.2817517707664905
  0.4240260993146663  0.2329429621783774  0.5264915532552195
  0.2474790856044393  0.9605554622597552  0.5480947270521241
  0.2770072230432419  0.5742261519646590  0.5295091178191456
  0.7738275686937328  0.5014774940585340  0.4676880950978060
  0.2635352495233860  0.3223661619646876  0.0499806009612271
  0.5137742409556836  0.0739341982879580  0.4670429134792471
  0.8440362270654447  0.3783008403832966  0.3240102979333983
  0.6989181764062806  0.7630969982352411  0.0376628263083418
  0.5571187842011796  0.9476918255440836  0.8957058212727489
  0.0309396743777768  0.5041347417170456  0.0330866836984001
  0.0621971835162043  0.8509530031014449  0.2606165697443714
  0.0629947990895658  0.1533526690153906  0.2936965139050400
  0.3676427179887725  0.7718204292441300  0.1731326838685447
  0.9255087697157052  0.6218736892446586  0.4284288915523931
  0.3760898563616308  0.3110486860162354  0.2900397046699865
  0.1482752679002317  0.5244526188608063  0.6331949175922347
  0.9503971520869499  0.1273058762231472  0.0169150474217830
  0.9500406725088339  0.3169540562483988  0.5173611730936969
  0.9615044362611016  0.8213785398259290  0.1813509086483975
  0.4822975933135325  0.3434354847140426  0.4702790675125499
  0.1244835070474011  0.3763141976845432  0.2784987994178962
  0.8681326196647987  0.1984250479497405  0.4428124491134469
  0.3652685068823445  0.0466510642084472  0.2151688774755272
  0.4162948125849795  0.5523645530827395  0.1033989251272800
  0.6739693688651442  0.1253301384150802  0.0588778159210293
  0.9688902919746241  0.3900694710720387  0.6239523639354019
  0.8724458433633444  0.1557333874448972  0.6315092485831286
  0.9906627129924672  0.7859906303802191  0.5295560164270157
  0.6927910448162891  0.8156449420672303  0.7966082894848157
  0.0176712071630121  0.5729703886406625  0.9241964900514290
  0.6416224018159156  0.6401284875286706  0.5793985455289956
  0.7779619467574506  0.8910371928090939  0.1540739198839773
  0.5057461443997369  0.9892741966051588  0.6493459417203766
  0.6868114979959827  0.5023020138427086  0.2454098023088136
  0.6730068466826751  0.0041024282206834  0.8760685958165269
  0.5485260084718036  0.4604170584009424  0.5936049279673554
  0.2110776957446276  0.5468220733367843  0.8629609471579727
  0.3223984424584572  0.0914281828370491  0.5505564290705394
  0.0887853130620826  0.0795652244949636  0.4035822703085898
  0.0191403137230779  0.9563282393020387  0.0232651009400868
  0.9163559455001078  0.2727778858856453  0.9100779138197979
  0.7743200245967046  0.4883969633490466  0.6046207375709756
  0.9589755007816407  0.5424795697249749  0.7104334712211298
  0.7639992926881334  0.3461160446822191  0.1379990290156883
  0.8199369951856852  0.4817327936794484  0.0805490208945585
  0.2598772465554120  0.6594950552976186  0.0836929628202583
  0.8297148947082036  0.7682680503253323  0.8926620095880722
  0.6733002967235748  0.9698093914056614  0.4503955424832071
  0.1813626654646399  0.9948923698025069  0.2507669175110152
  0.9452952678516482  0.1423335510873969  0.7430700992141723
  0.1217545221898035  0.7357982082944190  0.8469307750224289
  0.5041876229790461  0.7119160476426174  0.4181807594193927
  0.7202886175921250  0.6163017928960528  0.4444859087271027
  0.6378028818854773  0.2017781778949583  0.4061924065505096
  0.0587897066653014  0.3253487015985570  0.1114729101669880
  0.8449578259837907  0.0842562743518442  0.3839424751007172
  0.4340208166272461  0.9019550190006953  0.3273971816707899
  0.5452951061080142  0.1325868043746681  0.8134356675018068
  0.6740288126291887  0.0192712803052757  0.2401868342845646
  0.5831271277199619  0.6620801323880201  0.7003688906029382
  0.1303721470137660  0.2221252633876958  0.9532623308630406
  0.8809105717292312  0.4174926568526729  0.8985779127451607
  0.1955845865828181  0.8205437563578215  0.5376105537112110
  0.1872935537878817  0.1906792518545330  0.1647866018436019
  0.2194063735161151  0.9431537911147458  0.9827490836784989
  0.5884710800430355  0.2734551575201110  0.7037967301977943
  0.4420753846884935  0.6805816501216810  0.8499379124172393
  0.0573350599780937  0.6861803648833771  0.0999632454068120
  0.6955147794755376  0.1054431097870108  0.6727101785194378
  0.7726021426915537  0.6911979728903859  0.2146821803369434
  0.1109356106006700  0.3754122705749197  0.7869073451552069
  0.2693777020309156  0.2621058171611992  0.3553150773509017
  0.4663247701249347  0.3911964460546216  0.9488285085905375
  0.7123811839968681  0.1338006134715002  0.1792839304787819
  0.8026647058090504  0.3948888421190873  0.7986825524792422
  0.5812509588250876  0.8354750485614844  0.6023128160616480
  0.8510974370744435  0.0946251334341426  0.8273163257742411
  0.1956464340667665  0.0502738477507165  0.7247477404273113
  0.0427380895221603  0.9203352193365575  0.8260277143683155
  0.3240005585645989  0.6092434857979612  0.4080783148688880
  0.2380788583236040  0.0383354831477547  0.8491627562337953
  0.7039871003889075  0.3325336041646381  0.9719747527870410
  0.9430926404393958  0.7828172549088563  0.9603099984106507
  0.4576651618587775  0.1239482356741348  0.0562951329812265
  0.6891744136433360  0.5156082987266046  0.9193950976792280
  0.3574163654208178  0.8314454807454652  0.6682049937545926
  0.6355717851946494  0.8302402692075930  0.3085055484553152
  0.3035228303765933  0.8692182619581956  0.0611211333774335
  0.6759914885602001  0.4130711051812241  0.4313613148368489
  0.1384246955785216  0.2801364490593841  0.4692976204853920
  0.0958728896520071  0.7505853876994877  0.3382612736314101
  0.9277273207447578  0.3285207416438212  0.2381163114804252
  0.1203477771383064  0.0081512172262919  0.5442769618573848
  0.3015187402255748  0.6735256297290491  0.6142922800437915
  0.8742552033055517  0.9187498950747397  0.4532416505599244
  0.0654848238102943  0.2101100528341888  0.6610149032901731
  0.9236827119031332  0.0285485279209254  0.1910454029180215
  0.5295978450727148  0.8712244734101731  0.1453831995197845
  0.3604000270490175  0.1794656931148282  0.7433681987554692
  0.9420706371925291  0.9508089064232621  0.6492044238045409
  0.8345442605308691  0.6021061532855256  0.0235245794907755
  0.5563218099543974  0.2721135443813907  0.1518119666030557
  0.7413768599286925  0.2871207974720917  0.5603736894062976
  0.3772405703011898  0.8633137478298920  0.8845311308475416
 
  0.00000000E+00  0.00000000E+00  0.00000000E+00
  0.00000000E+00  0.00000000E+00  0.00000000E+00
  0.00000000E+00  0.00000000E+00  0.00000000E+00
  0.00000000E+00  0.00000000E+00  0.00000000E+00
  0.00000000E+00  0.00000000E+00  0.00000000E+00
  0.00000000E+00  0.00000000E+00  0.00000000E+00
  0.00000000E+00  0.00000000E+00  0.00000000E+00
  0.00000000E+00  0.00000000E+00  0.00000000E+00
  0.00000000E+00  0.00000000E+00  0.00000000E+00
  0.00000000E+00  0.00000000E+00  0.00000000E+00
  0.00000000E+00  0.00000000E+00  0.00000000E+00
  0.00000000E+00  0.00000000E+00  0.00000000E+00
  0.00000000E+00  0.00000000E+00  0.00000000E+00
  0.00000000E+00  0.00000000E+00  0.00000000E+00
  0.00000000E+00  0.00000000E+00  0.00000000E+00
  0.00000000E+00  0.00000000E+00  0.00000000E+00
  0.00000000E+00  0.00000000E+00  0.00000000E+00
  0.00000000E+00  0.00000000E+00  0.00000000E+00
  0.00000000E+00  0.00000000E+00  0.00000000E+00
  0.00000000E+00  0.00000000E+00  0.00000000E+00
  0.00000000E+00  0.00000000E+00  0.00000000E+00
  0.00000000E+00  0.00000000E+00  0.00000000E+00
  0.00000000E+00  0.00000000E+00  0.00000000E+00
  0.00000000E+00  0.00000000E+00  0.00000000E+00
  0.00000000E+00  0.00000000E+00  0.00000000E+00
  0.00000000E+00  0.00000000E+00  0.00000000E+00
  0.00000000E+00  0.00000000E+00  0.00000000E+00
  0.00000000E+00  0.00000000E+00  0.00000000E+00
  0.00000000E+00  0.00000000E+00  0.00000000E+00
  0.00000000E+00  0.00000000E+00  0.00000000E+00
  0.00000000E+00  0.00000000E+00  0.00000000E+00
  0.00000000E+00  0.00000000E+00  0.00000000E+00
  0.00000000E+00  0.00000000E+00  0.00000000E+00
  0.00000000E+00  0.00000000E+00  0.00000000E+00
  0.00000000E+00  0.00000000E+00  0.00000000E+00
  0.00000000E+00  0.00000000E+00  0.00000000E+00
  0.00000000E+00  0.00000000E+00  0.00000000E+00
  0.00000000E+00  0.00000000E+00  0.00000000E+00
  0.00000000E+00  0.00000000E+00  0.00000000E+00
  0.00000000E+00  0.00000000E+00  0.00000000E+00
  0.00000000E+00  0.00000000E+00  0.00000000E+00
  0.00000000E+00  0.00000000E+00  0.00000000E+00
  0.00000000E+00  0.00000000E+00  0.00000000E+00
  0.00000000E+00  0.00000000E+00  0.00000000E+00
  0.00000000E+00  0.00000000E+00  0.00000000E+00
  0.00000000E+00  0.00000000E+00  0.00000000E+00
  0.00000000E+00  0.00000000E+00  0.00000000E+00
  0.00000000E+00  0.00000000E+00  0.00000000E+00
  0.00000000E+00  0.00000000E+00  0.00000000E+00
  0.00000000E+00  0.00000000E+00  0.00000000E+00
  0.00000000E+00  0.00000000E+00  0.00000000E+00
  0.00000000E+00  0.00000000E+00  0.00000000E+00
  0.00000000E+00  0.00000000E+00  0.00000000E+00
  0.00000000E+00  0.00000000E+00  0.00000000E+00
  0.00000000E+00  0.00000000E+00  0.00000000E+00
  0.00000000E+00  0.00000000E+00  0.00000000E+00
  0.00000000E+00  0.00000000E+00  0.00000000E+00
  0.00000000E+00  0.00000000E+00  0.00000000E+00
  0.00000000E+00  0.00000000E+00  0.00000000E+00
  0.00000000E+00  0.00000000E+00  0.00000000E+00
  0.00000000E+00  0.00000000E+00  0.00000000E+00
  0.00000000E+00  0.00000000E+00  0.00000000E+00
  0.00000000E+00  0.00000000E+00  0.00000000E+00
  0.00000000E+00  0.00000000E+00  0.00000000E+00
  0.00000000E+00  0.00000000E+00  0.00000000E+00
  0.00000000E+00  0.00000000E+00  0.00000000E+00
  0.00000000E+00  0.00000000E+00  0.00000000E+00
  0.00000000E+00  0.00000000E+00  0.00000000E+00
  0.00000000E+00  0.00000000E+00  0.00000000E+00
  0.00000000E+00  0.00000000E+00  0.00000000E+00
  0.00000000E+00  0.00000000E+00  0.00000000E+00
  0.00000000E+00  0.00000000E+00  0.00000000E+00
  0.00000000E+00  0.00000000E+00  0.00000000E+00
  0.00000000E+00  0.00000000E+00  0.00000000E+00
  0.00000000E+00  0.00000000E+00  0.00000000E+00
  0.00000000E+00  0.00000000E+00  0.00000000E+00
  0.00000000E+00  0.00000000E+00  0.00000000E+00
  0.00000000E+00  0.00000000E+00  0.00000000E+00
  0.00000000E+00  0.00000000E+00  0.00000000E+00
  0.00000000E+00  0.00000000E+00  0.00000000E+00
  0.00000000E+00  0.00000000E+00  0.00000000E+00
  0.00000000E+00  0.00000000E+00  0.00000000E+00
  0.00000000E+00  0.00000000E+00  0.00000000E+00
  0.00000000E+00  0.00000000E+00  0.00000000E+00
  0.00000000E+00  0.00000000E+00  0.00000000E+00
  0.00000000E+00  0.00000000E+00  0.00000000E+00
  0.00000000E+00  0.00000000E+00  0.00000000E+00
  0.00000000E+00  0.00000000E+00  0.00000000E+00
  0.00000000E+00  0.00000000E+00  0.00000000E+00
  0.00000000E+00  0.00000000E+00  0.00000000E+00
  0.00000000E+00  0.00000000E+00  0.00000000E+00
  0.00000000E+00  0.00000000E+00  0.00000000E+00
  0.00000000E+00  0.00000000E+00  0.00000000E+00
  0.00000000E+00  0.00000000E+00  0.00000000E+00
  0.00000000E+00  0.00000000E+00  0.00000000E+00
  0.00000000E+00  0.00000000E+00  0.00000000E+00
  0.00000000E+00  0.00000000E+00  0.00000000E+00
  0.00000000E+00  0.00000000E+00  0.00000000E+00
  0.00000000E+00  0.00000000E+00  0.00000000E+00
  0.00000000E+00  0.00000000E+00  0.00000000E+00
  0.00000000E+00  0.00000000E+00  0.00000000E+00
  0.00000000E+00  0.00000000E+00  0.00000000E+00
  0.00000000E+00  0.00000000E+00  0.00000000E+00
  0.00000000E+00  0.00000000E+00  0.00000000E+00
  0.00000000E+00  0.00000000E+00  0.00000000E+00
  0.00000000E+00  0.00000000E+00  0.00000000E+00
  0.00000000E+00  0.00000000E+00  0.00000000E+00
  0.00000000E+00  0.00000000E+00  0.00000000E+00
  0.00000000E+00  0.00000000E+00  0.00000000E+00
  0.00000000E+00  0.00000000E+00  0.00000000E+00
  0.00000000E+00  0.00000000E+00  0.00000000E+00
  0.00000000E+00  0.00000000E+00  0.00000000E+00
  0.00000000E+00  0.00000000E+00  0.00000000E+00
  0.00000000E+00  0.00000000E+00  0.00000000E+00
  0.00000000E+00  0.00000000E+00  0.00000000E+00
  0.00000000E+00  0.00000000E+00  0.00000000E+00
  0.00000000E+00  0.00000000E+00  0.00000000E+00
  0.00000000E+00  0.00000000E+00  0.00000000E+00
  0.00000000E+00  0.00000000E+00  0.00000000E+00
  0.00000000E+00  0.00000000E+00  0.00000000E+00
  0.00000000E+00  0.00000000E+00  0.00000000E+00
  0.00000000E+00  0.00000000E+00  0.00000000E+00
  0.00000000E+00  0.00000000E+00  0.00000000E+00
  0.00000000E+00  0.00000000E+00  0.00000000E+00
  0.00000000E+00  0.00000000E+00  0.00000000E+00
  0.00000000E+00  0.00000000E+00  0.00000000E+00
  0.00000000E+00  0.00000000E+00  0.00000000E+00
  0.00000000E+00  0.00000000E+00  0.00000000E+00
  0.00000000E+00  0.00000000E+00  0.00000000E+00
  0.00000000E+00  0.00000000E+00  0.00000000E+00
  0.00000000E+00  0.00000000E+00  0.00000000E+00
  0.00000000E+00  0.00000000E+00  0.00000000E+00
  0.00000000E+00  0.00000000E+00  0.00000000E+00
  0.00000000E+00  0.00000000E+00  0.00000000E+00
  0.00000000E+00  0.00000000E+00  0.00000000E+00
  0.00000000E+00  0.00000000E+00  0.00000000E+00
  0.00000000E+00  0.00000000E+00  0.00000000E+00
  0.00000000E+00  0.00000000E+00  0.00000000E+00
  0.00000000E+00  0.00000000E+00  0.00000000E+00
  0.00000000E+00  0.00000000E+00  0.00000000E+00
  0.00000000E+00  0.00000000E+00  0.00000000E+00
  0.00000000E+00  0.00000000E+00  0.00000000E+00
  0.00000000E+00  0.00000000E+00  0.00000000E+00
  0.00000000E+00  0.00000000E+00  0.00000000E+00
  0.00000000E+00  0.00000000E+00  0.00000000E+00
  0.00000000E+00  0.00000000E+00  0.00000000E+00
  0.00000000E+00  0.00000000E+00  0.00000000E+00
  0.00000000E+00  0.00000000E+00  0.00000000E+00
  0.00000000E+00  0.00000000E+00  0.00000000E+00
  0.00000000E+00  0.00000000E+00  0.00000000E+00
  0.00000000E+00  0.00000000E+00  0.00000000E+00
  0.00000000E+00  0.00000000E+00  0.00000000E+00
  0.00000000E+00  0.00000000E+00  0.00000000E+00
  0.00000000E+00  0.00000000E+00  0.00000000E+00
  0.00000000E+00  0.00000000E+00  0.00000000E+00
  0.00000000E+00  0.00000000E+00  0.00000000E+00
  0.00000000E+00  0.00000000E+00  0.00000000E+00
  0.00000000E+00  0.00000000E+00  0.00000000E+00
  0.00000000E+00  0.00000000E+00  0.00000000E+00
  0.00000000E+00  0.00000000E+00  0.00000000E+00
  0.00000000E+00  0.00000000E+00  0.00000000E+00
  0.00000000E+00  0.00000000E+00  0.00000000E+00
  0.00000000E+00  0.00000000E+00  0.00000000E+00
  0.00000000E+00  0.00000000E+00  0.00000000E+00
  0.00000000E+00  0.00000000E+00  0.00000000E+00
  0.00000000E+00  0.00000000E+00  0.00000000E+00
  0.00000000E+00  0.00000000E+00  0.00000000E+00
  0.00000000E+00  0.00000000E+00  0.00000000E+00
  0.00000000E+00  0.00000000E+00  0.00000000E+00
  0.00000000E+00  0.00000000E+00  0.00000000E+00
  0.00000000E+00  0.00000000E+00  0.00000000E+00
  0.00000000E+00  0.00000000E+00  0.00000000E+00
  0.00000000E+00  0.00000000E+00  0.00000000E+00
  0.00000000E+00  0.00000000E+00  0.00000000E+00
  0.00000000E+00  0.00000000E+00  0.00000000E+00
  0.00000000E+00  0.00000000E+00  0.00000000E+00
  0.00000000E+00  0.00000000E+00  0.00000000E+00
  0.00000000E+00  0.00000000E+00  0.00000000E+00
  0.00000000E+00  0.00000000E+00  0.00000000E+00
  0.00000000E+00  0.00000000E+00  0.00000000E+00
  0.00000000E+00  0.00000000E+00  0.00000000E+00
  0.00000000E+00  0.00000000E+00  0.00000000E+00
  0.00000000E+00  0.00000000E+00  0.00000000E+00
  0.00000000E+00  0.00000000E+00  0.00000000E+00
  0.00000000E+00  0.00000000E+00  0.00000000E+00
  0.00000000E+00  0.00000000E+00  0.00000000E+00
  0.00000000E+00  0.00000000E+00  0.00000000E+00
  0.00000000E+00  0.00000000E+00  0.00000000E+00
  0.00000000E+00  0.00000000E+00  0.00000000E+00
  0.00000000E+00  0.00000000E+00  0.00000000E+00
  0.00000000E+00  0.00000000E+00  0.00000000E+00
  0.00000000E+00  0.00000000E+00  0.00000000E+00
  0.00000000E+00  0.00000000E+00  0.00000000E+00
  0.00000000E+00  0.00000000E+00  0.00000000E+00
  0.00000000E+00  0.00000000E+00  0.00000000E+00
  0.00000000E+00  0.00000000E+00  0.00000000E+00
  0.00000000E+00  0.00000000E+00  0.00000000E+00
  0.00000000E+00  0.00000000E+00  0.00000000E+00
  0.00000000E+00  0.00000000E+00  0.00000000E+00
  0.00000000E+00  0.00000000E+00  0.00000000E+00
