Amorphous GeAsSeSi                      
   1.00000000000000     
    18.6073233545911324    0.0000000000000000    0.0000000000000000
     0.0000000000000000   18.6073233545911324    0.0000000000000000
     0.0000000000000000    0.0000000000000000   18.6073233545911324
   Zn   O    Sb
   136    28   136
Direct
  0.5077120169830143  0.8418009040897861  0.4641196611232793
  0.6107628627802059  0.7861724826073315  0.5357313043259029
  0.2151874095240469  0.4823333023993744  0.7217279330200281
  0.1812661683517206  0.6564826516655510  0.4861138331248185
  0.9226854979908383  0.1330495808509177  0.7774113231623083
  0.7302635106529716  0.3227732704295450  0.3579972407069491
  0.7329511357438712  0.8891731661469622  0.5807365536358675
  0.0657463041453992  0.7631900156581930  0.0213008817755029
  0.8415243764572945  0.2204884923830783  0.8796758504323272
  0.7480913956107917  0.3398493609152130  0.5906521127842829
  0.4394901140931754  0.9400212811612434  0.6755113939154799
  0.0428449693769595  0.5371252362625544  0.2522897247669367
  0.6085141857858819  0.1063404753810416  0.8256830666107542
  0.3141368719066460  0.8945638909653908  0.6996230775883961
  0.0130475819372579  0.5250619541431889  0.8209895568234912
  0.5367238904002992  0.8340711287007784  0.0759454531202322
  0.5479326337443950  0.6198173983374468  0.7909558264175357
  0.4313307546817489  0.4185074753758530  0.5367900367846443
  0.5136056024884108  0.9553704155384287  0.1720906497482578
  0.8165084485713699  0.2506470215345604  0.7414015576928086
  0.2896900636632495  0.3137049960396036  0.1494292168404312
  0.7894993616712873  0.7265438708600226  0.0757028755181711
  0.6046495715236253  0.7666924067648005  0.3580985690225164
  0.9616399615940968  0.8733092109895723  0.8639369277653475
  0.3796839178792336  0.8844045560950606  0.4297040691109146
  0.6870580404970689  0.2243231116385516  0.1576517289511945
  0.6359038931723295  0.4913234833544339  0.4393865998742947
  0.0099877581043314  0.0428725249566778  0.9017473992686401
  0.1769771057880921  0.2218911675108375  0.6794763738345588
  0.6262827409677535  0.2554036131335061  0.4406350285998439
  0.7676985677805308  0.2804774247518825  0.4706292885168160
  0.9825169112765940  0.9952636099237375  0.3387248776067117
  0.6490420882471131  0.8598387234198469  0.2353196160464321
  0.7268117214501834  0.2011563106403537  0.5741964722075751
  0.1596055987507869  0.8399219319443139  0.7243303699048894
  0.4917546448778439  0.6220241587561016  0.1479388794169113
  0.8372870667166339  0.9967401817005940  0.1185767761534291
  0.8699330415026668  0.8323809605782376  0.9602083123952432
  0.5678553653113965  0.7075430371370296  0.0573796266708278
  0.7948652089317231  0.4303142860720383  0.4947250226484987
  0.5519346333204305  0.9129350353858536  0.5828208215057983
  0.4203677657351524  0.6097569490624567  0.8613014783200956
  0.1356903438619972  0.8818048856028357  0.9965229167793824
  0.0962720665363239  0.1215206850713029  0.8281011905962218
  0.6256842657010301  0.9159340531092216  0.4619345921072476
  0.8293989989913862  0.9092941261392271  0.2103408600578784
  0.1314891455477260  0.1940413667104877  0.3991938713892725
  0.8627689826755316  0.2432673804436156  0.3780840175898189
  0.9430404266171579  0.8407939750797980  0.1005515834049714
  0.7253337175941466  0.5943574625211329  0.4311497946648523
  0.3043613427358659  0.7902151012967669  0.1390966919278089
  0.0730966407473537  0.8442571441618670  0.1745770689903481
  0.7032161523591707  0.6672244147508316  0.5495634284630071
  0.8549112709521305  0.9400185340495090  0.5986653471478179
  0.0571672309402318  0.0831590655146601  0.3975909672321040
  0.3145065626012341  0.5189045641614752  0.8143866666969675
  0.6526816097687091  0.1316288847380880  0.0459950718543144
  0.3518123070025075  0.0289836095616807  0.9204986764727614
  0.2145352894364990  0.3849900320751926  0.9229251524729124
  0.9434510466763897  0.4808097793201277  0.9283888997693092
  0.3103050996315410  0.2609068429226608  0.6881226460486667
  0.4219903929199331  0.5605298081243671  0.7316761479194560
  0.0644047386643225  0.5582999058767515  0.0291378211518958
  0.2888639953081397  0.1474555972327002  0.9083761059667891
  0.7098540916789166  0.8909851232378231  0.9330910596668446
  0.9439550606899337  0.3350346200142603  0.4932877581163924
  0.8303710015480297  0.1930397951042105  0.1747867338480436
  0.5467762784683848  0.4974591218629075  0.7304934654469551
  0.5420595988892766  0.4687377190307211  0.1598930864524574
  0.3718782234879942  0.1744286586807017  0.3512055660466054
  0.2556010823355589  0.7360793010815370  0.6218230888789508
  0.0914066024727338  0.6724155047660735  0.3539055056103217
  0.9916461204662664  0.2142623490378352  0.3587463333092585
  0.0847945123255057  0.5385144608590894  0.7095465543535088
  0.0879441867163036  0.5090782806870584  0.3911619766365088
  0.2955554011599281  0.9274357433692915  0.3188328898169833
  0.4474137112933565  0.7841301522575832  0.3621272778813915
  0.7815260388493540  0.1457483380432162  0.4501323174487035
  0.6044848464817957  0.8231849122416600  0.9348554740839127
  0.3441473805182163  0.3906939929715401  0.7708779143729306
  0.4134726836437093  0.6787304195144934  0.2837437596903745
  0.5037257513739329  0.2845528190188512  0.8774935266120447
  0.6993511138669123  0.6607476711676931  0.0073153047850410
  0.3229519009303610  0.9496748418400148  0.1245855873182733
  0.6454241075890104  0.9550477178652503  0.6668130820984571
  0.7777979659387528  0.9193184352901583  0.7162100700424600
  0.3325286464740919  0.0400433702125076  0.4977414352735874
  0.9598326106090662  0.1737409669386918  0.2239724795478476
  0.4567159490760364  0.6102276242699012  0.9984009116470667
  0.6570410958672029  0.5407310606618064  0.2508647403932004
  0.2552090690487502  0.2613194143852564  0.0061477250000895
  0.3753765783842080  0.9436536146378270  0.8060984109105367
  0.9511347940618182  0.3057746685782955  0.9045134368126042
  0.1754604670153260  0.3444722823568512  0.2152883509010452
  0.1579252854384837  0.7036890621144771  0.1635766763429026
  0.3838263684341870  0.2016606337541946  0.9923796957471959
  0.1812058160459513  0.0399190770335397  0.9060088926162130
  0.9251366043020491  0.8133182178358186  0.2397882598905921
  0.4926683115056730  0.7078260254785903  0.9218011081231413
  0.7253091644326959  0.6919802339314840  0.3419437889961738
  0.3529476314372327  0.5824010340916820  0.6158914432124066
  0.4505492662554458  0.7462639250973391  0.7880397862505379
  0.7255131942789184  0.8369307406102099  0.3471942831018202
  0.9180647959713791  0.1008626980193616  0.4146157582786776
  0.2258887179960043  0.3263710091990130  0.5484110564492817
  0.8039851992153254  0.1425409420695040  0.0360166997856385
  0.3196563906767256  0.2855388103030710  0.8809338977817038
  0.6791400445517366  0.7949920022878405  0.0378296825300264
  0.6591408855599776  0.6761390484569592  0.2186480244054758
  0.7157186409655074  0.5780283886666822  0.1248972870784088
  0.4295005653006161  0.7251997712688629  0.0675855530884149
  0.4689961312546846  0.0359442588432559  0.8304908337754630
  0.3287180926079196  0.7065586639902675  0.3908211899282256
  0.6088197980061862  0.6252791741941423  0.3552987876626357
  0.1092259488971395  0.4153410325116995  0.7562771750051880
  0.7043850174961316  0.4175240387676096  0.2220343870271371
  0.5157136871863196  0.2055282023123310  0.1100751393318399
  0.2591045246432866  0.4991891143685034  0.0262514898412023
  0.2088709384924836  0.2695397700974878  0.3299519557797009
  0.2381126413805043  0.1710575558438986  0.7793552287467262
  0.2854821801880748  0.5004120571407278  0.1670856159095286
  0.0854486765018616  0.1358554659663282  0.2697509999708148
  0.4189421440363454  0.8608247300727836  0.5752801084867040
  0.6014646595373093  0.3640260541682552  0.0906915247786459
  0.8451930238845505  0.7793339075896418  0.3628467308306036
  0.3398393421554637  0.0760691744450940  0.7955742085038331
  0.3387009399130257  0.6659124570417135  0.9816362653651347
  0.9445529622770356  0.1519154953498549  0.9288096158016290
  0.3644551799223777  0.0339704303463614  0.2291800447166664
  0.4995049969277748  0.3747957782476340  0.9886894242441796
  0.1603396648655420  0.4719509080637610  0.2676627610293799
  0.4849675352681944  0.5472753389486267  0.6010359166184226
  0.7059612075837118  0.2493509825091569  0.8514366895692236
  0.2219811746893726  0.3457030147005021  0.7702818212965952
  0.9230222766588080  0.3197544319569399  0.1457144321649989
  0.3531997211605515  0.3018590176576239  0.2964899333725884
  0.0046000862750604  0.9633911941426200  0.8247786403273678
  0.0927647337771031  0.6172229045665243  0.4408968011027320
  0.2959311348734767  0.2711777477882302  0.4921791758067615
  0.1846288051312143  0.9392505356268313  0.9186402816868080
  0.1525032607791758  0.2676651056464034  0.5907970414473590
  0.0251805815583910  0.3825161320181579  0.5470049051066401
  0.7411138204622584  0.4810566159858334  0.4207308544733038
  0.6650018151203105  0.3351406621346723  0.2736349127466474
  0.9318097634941551  0.3772825809834774  0.9702543088128265
  0.9455439970462821  0.9129318622250070  0.6861889962161239
  0.2519622496240849  0.0548124790274733  0.0539241647154145
  0.8739663346704105  0.0405169974678092  0.6133062904641824
  0.2618932940718692  0.8030075006073255  0.7142512073230193
  0.7872281721757568  0.0875134899037347  0.1403093720601499
  0.5679817951109758  0.1885876183913740  0.0178396813806655
  0.1607611185222944  0.7036662119060971  0.0592273795394614
  0.7665275774564418  0.2312387605412603  0.0948711465477236
  0.7366830206540471  0.2659278796306799  0.6635051432791027
  0.5775243253671171  0.9278119452734382  0.0962196816368704
  0.8553426364258391  0.8036219941843042  0.0618323487849090
  0.2712057635981726  0.6252833178628205  0.4407647097198524
  0.8921263469796988  0.4172671471598622  0.4582041594590427
  0.0152432475771511  0.6244344874833159  0.2995647336106192
  0.9627992764469711  0.5364111358801538  0.0630810693698088
  0.7943242701255523  0.3978310578006380  0.2900999185393063
  0.5972323807591269  0.2765416162706711  0.1521253450814199
  0.8131326313210491  0.9762432729168898  0.2970084272853870
  0.8068775792684451  0.9189255956679873  0.9411241345290094
  0.8838400717441627  0.6138082552820107  0.4398834810146623
  0.7871410922581724  0.7664310812869269  0.2238273520018882
  0.0707673144356326  0.3388816124535771  0.3289914157655077
  0.8961677244394225  0.2272942443330609  0.5701131925331175
  0.4872574670243503  0.3752921311321559  0.7707205870538804
  0.5242214299471829  0.4937004613748875  0.9003729208736629
  0.9949625980132031  0.9194688250473534  0.9985520269727858
  0.8457391353818777  0.5982636645747393  0.1884700277344452
  0.1443523797086395  0.7851599896100740  0.5543390368856176
  0.7261875610082258  0.1252266782257430  0.9200734284484369
  0.1500701155876273  0.5550943500528683  0.1568707975993412
  0.6729301989917561  0.0689490262626651  0.1702435466718066
  0.4510032881148401  0.0179175884252554  0.0189941077188616
  0.8853782212184670  0.8304437594972087  0.7436832711924685
  0.1462922947245592  0.9801585614529743  0.7388673907075221
  0.9486812998882348  0.1407018077754692  0.0779039184367415
  0.9068595041128534  0.6258947771427860  0.0287294535516681
  0.9815731396563119  0.0053225271793492  0.7298164828396043
  0.1046760579344973  0.4697599769804068  0.9245806271627193
  0.1675402845471716  0.7113688272197206  0.8737034379246715
  0.1837470635413072  0.1317621147808132  0.0170718894389096
  0.2335782231520887  0.7596161972069605  0.0046134385986142
  0.6424463598735515  0.2869611761884558  0.7330863946119935
  0.0684773488219936  0.2376039635805028  0.5295200403396316
  0.8288801737358090  0.3174292224794524  0.0379380233735210
  0.8425992469065202  0.7171475027487495  0.8740420508873232
  0.0411705415930825  0.1774720713479105  0.6938489058667410
  0.5909526765373058  0.5554023262238645  0.0365029512661358
  0.7277642641483880  0.7930669629101009  0.7983015842121371
  0.8074586552433320  0.1013042251323404  0.6730912041712992
  0.3025831841372078  0.7545252448824781  0.8047984676683912
  0.3685657044619769  0.7330474610642486  0.5422873626827667
  0.8618874682663327  0.0795382215996752  0.2826514346128485
  0.4154708553615471  0.0216653609235362  0.3747574931102158
  0.0163827926517689  0.3782809782949561  0.0389082993628138
  0.6914696095416735  0.9170039122255828  0.1181314907410749
  0.6249642781970999  0.2958633018335947  0.9608446017104784
  0.6018162527075448  0.7859822444511435  0.6794197342887792
  0.8591873486465595  0.5056932630279539  0.7673266850259393
  0.0856491802709658  0.0641069477633266  0.1452218136972239
  0.0443114676717425  0.2354037016407093  0.9974270343694549
  0.2055460586229509  0.8346833623676110  0.2316447256332425
  0.1267688849751008  0.4041278558396423  0.4878081029375936
  0.3255525139576087  0.1823852079219653  0.5634559016257875
  0.1269193156461497  0.0945223642859860  0.5281433880600012
  0.5457237526693806  0.7568114498868586  0.2095299869880768
  0.5597566451344718  0.1651854539325433  0.6991247533018706
  0.5084136241101247  0.1435766418265746  0.9306550372328797
  0.6335776727127982  0.6829066864898498  0.8839140188058855
  0.9558406288371728  0.7693277617905564  0.4598545246210142
  0.5279004163645655  0.6921631230866795  0.4606565758960482
  0.2558299711558681  0.1161349500164897  0.4032011948452277
  0.8989121813016608  0.3460975288617165  0.2846879869664782
  0.2585244791145743  0.6181373219026709  0.7213007823247058
  0.7182388175688149  0.6727014692333964  0.6981113546833575
  0.1538001687466408  0.2554372816485191  0.8693236561779673
  0.6675230036501607  0.4356378845895828  0.6670845561014295
  0.4026140291422879  0.4965138319256870  0.0678537401383996
  0.5154155982405779  0.5461919593580998  0.2778032305197381
  0.2159614990770354  0.6609848123640153  0.2930502313233534
  0.3531527480598903  0.4254264633474570  0.9182981546361945
  0.3029612462801690  0.5324209046634059  0.4916831630226139
  0.5209719967332614  0.0377840799357257  0.5151278558645634
  0.5057339107372859  0.0956730748183735  0.1980461856038656
  0.3946845317000896  0.8570953865227636  0.0380467244038117
  0.9756155481251504  0.4653279075997054  0.6049765443381705
  0.6775876710421115  0.9751141927991565  0.3419490561155463
  0.4680360634482464  0.7045766129446492  0.6555475890170306
  0.8722659337239609  0.9187795937107320  0.3837793517214128
  0.3609982835455035  0.5259031268654485  0.3153915424621242
  0.3938506611926842  0.4075331329962437  0.2143307159646257
  0.1155214255066926  0.9520411299491995  0.5830926221198636
  0.0237215632999824  0.6043775221593914  0.5304060829131654
  0.3504810331593367  0.0992377778211850  0.0940738776944912
  0.5342573080390264  0.9222386690889247  0.3364682637841820
  0.7703460210079447  0.0008984221394521  0.4745281506563571
  0.2517344605472336  0.0676662015881057  0.6806005619046646
  0.8561481180169302  0.6670230163654778  0.6139344920742804
  0.9331370369003001  0.6522518486088711  0.7589898619564108
  0.9950268983186581  0.7920020060790964  0.6149713314342685
  0.6532995350171428  0.0846895337051526  0.5993465412643386
  0.0139810473964479  0.3157714194641442  0.7704056836516413
  0.4205534672712592  0.0737321504129587  0.6405552780052030
  0.2423699287084585  0.8253726294357152  0.4119839654695457
  0.7505638331469986  0.7858311661624103  0.4846121641886766
  0.2650684816555637  0.1919653716192596  0.2260160388322394
  0.2761382072824631  0.9212119853335928  0.5610728955111713
  0.9226632178325913  0.6749025507316303  0.2956480356925867
  0.4046413929104127  0.2039428620982703  0.7856042586599131
  0.6219695380064479  0.5579444062824283  0.5723854855567154
  0.4641371209596363  0.2046001537151995  0.4853568466670856
  0.9981109275344086  0.7148017908124562  0.1391218444305784
  0.9819784924557302  0.9595242999821306  0.2035038502073650
  0.6365248090263936  0.1174526163414662  0.4075939228499351
  0.9429978522959750  0.4720296899036962  0.3788936388976450
  0.1922551069020834  0.0255965255103209  0.2932961490687818
  0.0913757761882778  0.6761808667080750  0.6780481343006743
  0.4064939621921359  0.8783320038216473  0.2296889591691843
  0.1901720531192666  0.3800925225077797  0.0694995940614645
  0.5604882705119010  0.3346551195987075  0.2469954307401932
  0.7957185577639047  0.5047477340699605  0.3202996091788376
  0.0597426503452858  0.2676836840947576  0.1834804207191408
  0.2434873947459059  0.5824038429261652  0.9171400051033880
  0.5720294727888956  0.3493316191961466  0.5551616789868615
  0.2468298937316515  0.4173719945589316  0.3609310892667834
  0.7334353569920579  0.4329447607356604  0.0823132718817211
  0.6815725123884886  0.9830988834062583  0.8202784481139851
  0.3426062135653253  0.6489166205171534  0.1637182123029646
  0.7946680588948161  0.5736872333145219  0.9370751838868286
  0.9626194180211627  0.0882713903055518  0.5498192811097281
  0.4197307859145470  0.3063731244072830  0.0846297198789289
  0.9652836533719906  0.9140153428738390  0.5175089242379064
  0.8029815116679883  0.5153015259435113  0.6132912192196655
  0.4729423286205538  0.8510950484022154  0.8926480281774364
  0.0255599203942758  0.6453262495645664  0.9288489607063225
  0.2873936051130684  0.8937402777222478  0.9132142261333758
  0.5088591074062202  0.1935272348765771  0.3154747570700237
  0.7343497982904665  0.1767828247953876  0.2927680335717071
  0.6983779107703281  0.5437464876384426  0.7949089437247255
  0.3157484899314180  0.4020511385999663  0.6307123351745841
  0.1053222164339420  0.9384964216161895  0.4086135332981699
  0.9414195523637471  0.4854580036995835  0.1661323380241751
  0.1563085342872113  0.5231478439583396  0.5813066919344237
  0.0584827109713772  0.8141709673632382  0.3245784889845692
  0.8635311005290651  0.0060907425575678  0.9756247320383651
  0.8080212471400890  0.3667140881548883  0.8573284929510273
  0.6803590759062075  0.4412794924282113  0.9235611021040275
  0.8912663733322638  0.3658074466047371  0.6893169177257001
  0.0538669896361279  0.7727259302275988  0.7918315730047912
  0.4573575029140981  0.2804369695667658  0.6452256835315324
  0.4568540173729381  0.5320090568264668  0.4463712329626371
  0.8357917778172392  0.0180878151971440  0.8079308007544802
  0.5417274317540011  0.3890041433845348  0.4029816078544453
  0.5455857770871547  0.9260686104593040  0.7692340516157775
  0.1824789540414416  0.9455211404163452  0.1145045318113943
  0.3776161634924218  0.3183198353800989  0.4370027811150429
 
  0.12020633E-02 -0.24796940E-02 -0.33658712E-02
  0.76708121E-03  0.42612353E-02 -0.15938125E-03
 -0.12304272E-02 -0.26032266E-02  0.33704645E-03
  0.20729997E-02 -0.28092916E-02  0.11857840E-02
 -0.23667043E-02 -0.11832512E-02 -0.78377060E-03
  0.30356088E-02  0.54061832E-03  0.13442671E-02
 -0.13594596E-02  0.89448643E-03  0.19014652E-02
 -0.82870974E-03 -0.76307364E-03 -0.19280431E-03
 -0.32780513E-02  0.36183766E-03  0.29137339E-02
  0.32367786E-02  0.14689958E-02  0.14440704E-02
  0.84931411E-03  0.30060034E-02 -0.39323372E-02
 -0.25633835E-02 -0.18474010E-03  0.20150305E-02
 -0.12006969E-03 -0.26905655E-03 -0.10811439E-03
  0.11472226E-02  0.28163600E-03 -0.35363416E-03
  0.10992727E-02  0.18948188E-02  0.14587851E-04
  0.20452697E-02  0.16896819E-02  0.10253253E-02
  0.19815349E-03  0.13699269E-02 -0.12121120E-02
 -0.96142393E-04 -0.13233809E-02 -0.35027785E-02
  0.56825744E-03  0.11789791E-02  0.31489974E-03
  0.23619607E-02  0.52139509E-02  0.47440667E-02
  0.46262451E-03 -0.22755253E-02 -0.61679377E-03
 -0.18803332E-02  0.79135363E-03  0.22106558E-02
 -0.31356751E-03 -0.66179868E-02 -0.65577410E-02
 -0.15141094E-02 -0.38357099E-02  0.22064275E-02
 -0.12852098E-02 -0.16324583E-02 -0.28223953E-02
  0.30974065E-02  0.13346738E-02  0.82041026E-03
 -0.18220146E-02 -0.94060134E-03 -0.20122688E-02
  0.17606381E-02 -0.54546849E-02  0.19148312E-02
  0.17722644E-02  0.12065698E-02 -0.15995820E-02
  0.49777993E-04  0.19647128E-02  0.21733624E-03
  0.84240966E-03  0.97526608E-03 -0.14207601E-03
 -0.17186082E-02  0.24108927E-02  0.30574697E-03
 -0.76271921E-03 -0.39626224E-03 -0.66675185E-03
 -0.22651430E-03 -0.34102748E-02 -0.16325413E-02
  0.26984660E-03  0.25651657E-02  0.15949771E-02
 -0.18450475E-02 -0.33258794E-02  0.59197394E-03
  0.22606002E-02 -0.22540839E-02  0.10433577E-02
 -0.21243159E-02 -0.11535696E-02  0.26330222E-03
  0.44993145E-03 -0.15958013E-02  0.33795805E-03
  0.12478341E-02 -0.12560704E-02 -0.17631247E-03
 -0.77335927E-03 -0.10194098E-02 -0.27755826E-02
 -0.14182310E-02  0.81879699E-03 -0.17394622E-02
  0.14567209E-02 -0.67222237E-03  0.30094621E-02
 -0.47589628E-03  0.64229484E-02 -0.15981026E-02
  0.10513305E-03 -0.26124125E-02 -0.11760777E-02
  0.93068726E-03 -0.43935885E-03  0.11666880E-02
 -0.15336750E-02  0.21102734E-02 -0.17617338E-03
 -0.14204243E-02  0.11173351E-02 -0.62131728E-03
  0.27363355E-02  0.35913984E-03  0.68118598E-03
 -0.28277603E-02  0.11351914E-02  0.12889121E-02
  0.24785420E-02  0.14971051E-03 -0.11509249E-02
  0.26203651E-03  0.34717178E-03 -0.35422459E-02
 -0.16680391E-02  0.37205045E-02  0.10711472E-02
  0.33607061E-03  0.75471732E-03 -0.32499478E-03
  0.58245876E-03  0.20758328E-02  0.19230136E-02
  0.27542337E-02 -0.99361701E-03 -0.33604788E-03
 -0.66485652E-03 -0.41333508E-02  0.14647543E-02
  0.80565910E-03 -0.19208591E-02 -0.18919539E-03
 -0.15250975E-02 -0.19983227E-02 -0.18695481E-02
 -0.13379250E-02  0.38689668E-02 -0.20176761E-02
 -0.74611996E-03  0.84398065E-03  0.14073790E-02
  0.21878243E-02  0.25252482E-03  0.33063141E-03
 -0.20495496E-02 -0.40782257E-03  0.25857621E-02
  0.17484283E-03 -0.29962357E-02 -0.98182316E-03
  0.13811521E-02  0.82395546E-03  0.12744707E-02
 -0.31383846E-03 -0.30173278E-02 -0.15850635E-02
 -0.68661019E-03  0.12811793E-02  0.19698076E-02
  0.65855553E-03 -0.12008800E-02  0.94327931E-03
  0.52305111E-04 -0.21661177E-02  0.15282297E-03
  0.32935606E-03 -0.39695169E-02  0.23216774E-03
  0.98382007E-03  0.98582776E-04 -0.10701012E-02
 -0.14701789E-02  0.59827972E-03  0.20113594E-03
 -0.19859875E-02 -0.34080182E-03 -0.13048979E-02
 -0.95388125E-03  0.19289050E-03  0.12942746E-02
 -0.93434931E-03  0.17322956E-03 -0.47318476E-03
 -0.76570986E-03 -0.18514513E-03 -0.35291293E-02
 -0.20753903E-02 -0.28262331E-02 -0.16029662E-02
 -0.37777604E-03 -0.84244615E-04  0.17767506E-02
 -0.93524833E-03  0.40204998E-02 -0.10004013E-02
  0.32844973E-02  0.10472984E-02 -0.15441079E-03
 -0.32356900E-02 -0.19674955E-02  0.14363815E-02
 -0.11689020E-02 -0.10845472E-02  0.73825820E-03
 -0.25874465E-02  0.13460352E-02  0.62947292E-03
 -0.48212700E-03  0.77664861E-03  0.24216693E-02
 -0.32545732E-05 -0.15472603E-02 -0.66388179E-05
  0.15374462E-02 -0.99647835E-03 -0.66145722E-03
  0.39914968E-02  0.26944935E-02  0.70118535E-04
  0.25667086E-02 -0.54655019E-03 -0.38865928E-03
 -0.19727811E-02  0.29191398E-02  0.10691484E-02
  0.20862477E-02 -0.71919539E-03  0.76616512E-03
 -0.10200659E-02 -0.12280479E-02 -0.48414473E-02
  0.18911158E-02  0.11944585E-02  0.59265102E-04
  0.32600961E-03 -0.11620190E-02  0.16304913E-02
  0.13806279E-02 -0.70334289E-03  0.42297565E-02
 -0.15016696E-02  0.11084210E-03  0.19648476E-02
  0.12756622E-02 -0.36548634E-02 -0.24959452E-03
 -0.55211882E-02 -0.12040631E-02  0.32519986E-02
 -0.27695629E-02 -0.70211859E-03 -0.16507107E-02
  0.12928313E-02  0.10971224E-02 -0.18207313E-02
 -0.23349902E-02 -0.31612863E-03  0.97076960E-03
  0.89427839E-03  0.14004540E-02  0.12846720E-02
  0.24831609E-03  0.18541831E-02  0.81073240E-03
 -0.11309226E-02  0.21537347E-02  0.42790887E-02
  0.81472450E-03  0.40129279E-02  0.22794101E-02
 -0.17573725E-02  0.81686779E-03 -0.81098780E-03
 -0.74398380E-03  0.40659353E-03  0.22686823E-02
 -0.16357175E-02  0.27584003E-02  0.51742519E-03
  0.87799079E-03 -0.75910892E-03  0.80690099E-03
  0.46973412E-02 -0.88880529E-03 -0.10431036E-02
  0.20566725E-02 -0.84328330E-03 -0.67705584E-03
 -0.33461078E-03  0.26563663E-02  0.22927457E-02
  0.10366505E-02 -0.16334471E-02 -0.17082051E-02
 -0.15960559E-03 -0.26108196E-02  0.20425906E-02
  0.11716286E-03 -0.26557042E-02  0.18546271E-02
  0.37701879E-03  0.23309398E-04 -0.11726038E-02
 -0.32216200E-02 -0.32578590E-02 -0.21548035E-02
  0.12619402E-02  0.29617849E-02  0.49717210E-03
 -0.25893955E-02  0.17624123E-02  0.14205126E-02
  0.28869332E-02 -0.18179129E-02 -0.13164727E-02
 -0.10209015E-02  0.49994183E-04 -0.34760492E-02
 -0.21700917E-02  0.55493601E-03  0.83300456E-03
  0.15210060E-02 -0.90472566E-03 -0.30052529E-03
  0.42933397E-02 -0.19582692E-02 -0.16296228E-02
  0.28713295E-02  0.11107517E-02 -0.14469115E-02
 -0.19159020E-02 -0.18650795E-02  0.35490150E-02
 -0.81293336E-03 -0.34020552E-03 -0.47918622E-03
  0.12995999E-03 -0.42064626E-02 -0.21370608E-02
 -0.18687304E-02  0.57166686E-02 -0.14917359E-02
  0.54168872E-02  0.12909185E-02  0.43559827E-03
  0.19838885E-02  0.64960645E-03 -0.19412426E-02
 -0.24337966E-02  0.44829407E-02  0.73265289E-04
 -0.82582094E-03 -0.59400428E-03  0.23335338E-02
 -0.52724311E-02  0.51779070E-03  0.93945241E-03
  0.52390785E-03 -0.14751598E-02 -0.34700488E-02
  0.70161199E-03 -0.17227102E-02 -0.23291933E-02
 -0.24414972E-02  0.99938146E-04 -0.40317757E-02
  0.12252667E-02  0.20134427E-02  0.60168587E-02
  0.45370682E-02 -0.20033067E-02  0.40861739E-02
 -0.88270680E-03 -0.40622602E-03 -0.64424106E-02
  0.35445040E-02 -0.29282913E-02  0.37886105E-02
  0.37762349E-02 -0.20118049E-02  0.11661382E-02
  0.17668518E-03 -0.83985282E-03  0.14801517E-02
 -0.30027881E-02  0.73462507E-03  0.15271216E-03
  0.84126681E-03  0.26049168E-02 -0.15703904E-02
 -0.22399477E-02 -0.26790609E-02 -0.14449815E-03
 -0.68360718E-03 -0.22852788E-02 -0.10556938E-03
  0.91956923E-03 -0.84160278E-03 -0.57361824E-04
  0.53558254E-03  0.28839160E-02  0.20137613E-02
 -0.25467549E-02  0.37661054E-02  0.35365297E-02
 -0.27933068E-02  0.45258213E-02  0.70229320E-02
  0.52165145E-02  0.47321415E-02 -0.89319381E-03
  0.94322520E-03 -0.45773710E-03  0.12069386E-02
 -0.19604337E-02  0.17523225E-02  0.36430272E-02
  0.43391913E-02 -0.90384814E-03  0.33819171E-03
 -0.44527404E-03  0.17507963E-02 -0.56978961E-03
  0.26246683E-02 -0.23033953E-02 -0.11859307E-02
  0.11147757E-02 -0.44826700E-03  0.12996657E-02
  0.15504676E-02 -0.46266353E-02 -0.61255684E-03
 -0.40253138E-02 -0.10456173E-03  0.45735846E-02
 -0.91358477E-03 -0.48259616E-02 -0.16983819E-02
 -0.42736132E-03  0.79373409E-02 -0.28177098E-03
 -0.31883906E-02 -0.15879932E-02  0.62615669E-02
 -0.61435520E-02 -0.19811501E-02 -0.47737723E-03
  0.73230702E-02  0.46943170E-03 -0.29844493E-02
 -0.92965204E-03  0.18996450E-02 -0.14103973E-02
 -0.50156993E-03 -0.22574518E-02  0.16503783E-02
  0.11837646E-02  0.10958626E-02 -0.44988098E-04
 -0.73489488E-03  0.80893540E-03  0.11031427E-02
  0.10107416E-03  0.59568806E-03 -0.15322548E-02
  0.13035924E-02 -0.22149649E-03  0.42555528E-03
  0.22921599E-02  0.61751150E-03 -0.21025729E-02
  0.56115834E-03  0.10068359E-02  0.89948114E-03
 -0.15169423E-03 -0.89175589E-03 -0.51373903E-03
  0.13880594E-02  0.15352493E-02 -0.67389735E-03
 -0.16192106E-02  0.10732268E-02 -0.19931519E-02
 -0.36958036E-02 -0.18110601E-02  0.37023354E-02
  0.13522961E-02  0.12603427E-02  0.58845475E-04
 -0.25552032E-02 -0.44392354E-03 -0.11466224E-02
  0.60011432E-03  0.18085044E-02  0.10221093E-02
  0.12638441E-02 -0.27384799E-02  0.87462009E-03
 -0.25172345E-03 -0.14219493E-02  0.10001568E-02
  0.13848209E-02 -0.11716252E-02  0.50755796E-03
 -0.17837094E-02 -0.18612752E-02 -0.60990042E-03
  0.23197937E-04 -0.20564136E-02  0.23326012E-02
  0.11790776E-02 -0.69459709E-03 -0.10046118E-02
  0.48961472E-03  0.92348909E-03 -0.97458395E-03
  0.91184036E-03 -0.11578708E-02  0.70843144E-03
 -0.20682607E-03  0.42582848E-03 -0.67933835E-03
  0.13501253E-02  0.17536971E-03  0.16456437E-02
 -0.86123298E-04  0.17313072E-02 -0.58545830E-03
  0.55180408E-04  0.10332408E-02 -0.45252013E-03
 -0.16974553E-02 -0.10431462E-02 -0.48492111E-03
 -0.11149843E-02 -0.16622968E-02 -0.96334726E-03
 -0.21735834E-02 -0.10281647E-02 -0.27252881E-03
  0.45329050E-03  0.12603861E-02 -0.17752109E-02
 -0.48851834E-03 -0.15995192E-02  0.10621593E-02
  0.24111942E-03 -0.64723908E-04  0.12353459E-02
  0.48449832E-03 -0.16472827E-02 -0.33379628E-03
  0.64965758E-03  0.21704933E-02 -0.12861388E-02
 -0.24776703E-02  0.11856987E-02 -0.13445486E-02
 -0.24371643E-02 -0.71238074E-03  0.36593705E-03
  0.14491167E-03  0.18804717E-02 -0.12377146E-02
  0.27909693E-03  0.23006135E-02 -0.13074904E-03
 -0.30825653E-03  0.66174911E-03  0.12274108E-02
 -0.13714368E-02 -0.89889643E-03  0.39838645E-03
  0.19661252E-02 -0.29059002E-02  0.32662959E-02
  0.67655281E-03  0.22158673E-03 -0.89664599E-03
  0.13870516E-02 -0.85499982E-03 -0.90145658E-03
  0.20738941E-02 -0.12873830E-03  0.12433607E-02
  0.52862445E-03 -0.92504947E-03 -0.55484847E-03
  0.21076134E-02 -0.14864250E-02  0.28368977E-02
  0.27881847E-03  0.16429791E-03  0.12139221E-02
 -0.68458339E-03  0.10545013E-02  0.62693534E-04
  0.42623504E-03  0.66073141E-03  0.40870869E-03
 -0.27293100E-03  0.12147758E-02  0.15303140E-02
  0.14140369E-02 -0.10235813E-02  0.26274943E-02
  0.18508415E-03 -0.50892663E-04 -0.12277964E-02
 -0.13901734E-02  0.10061432E-02  0.11353466E-02
  0.11627234E-02  0.25003296E-02  0.60069956E-03
 -0.12649482E-02  0.33746314E-02  0.58163164E-03
  0.22408965E-02 -0.82512694E-03  0.23789373E-02
 -0.38333688E-03  0.22375936E-03 -0.13457556E-02
 -0.36180752E-02  0.87651917E-04 -0.45339545E-03
  0.34064196E-03 -0.11548584E-02 -0.80298575E-03
 -0.14385667E-02  0.54543171E-03  0.84579512E-03
  0.16850115E-02 -0.31852233E-02  0.21834740E-02
  0.20874576E-02 -0.13025689E-03  0.23681749E-02
 -0.35158970E-02  0.13298189E-02 -0.15661795E-02
 -0.35305633E-02  0.11046949E-02 -0.78579604E-03
  0.95998561E-03 -0.39486165E-03  0.47749526E-03
  0.14155039E-02  0.34805685E-03 -0.13272147E-02
 -0.11171843E-02  0.62744507E-03  0.19557541E-02