Bi4 Te3 S3
1.0
  20.1569350000000007   -2.1154229999999998    0.0000000000000000
  20.1569350000000007    2.1154229999999998    0.0000000000000000
  19.9349269999999983    0.0000000000000000    3.6572870000000002
Bi Te S
4 3 3
direct
   0.8031290000000000    0.8031290000000000    0.8031290000000000 Bi
   0.3059590000000000    0.3059590000000000    0.3059590000000000 Bi
   0.6984000000000000    0.6984000000000000    0.6984000000000000 Bi
   0.1953339999999990    0.1953339999999990    0.1953339999999990 Bi
   0.8921870000000000    0.8921870000000000    0.8921870000000000 Te
   0.1065479999999990    0.1065479999999990    0.1065479999999990 Te
   0.6092010000000000    0.6092010000000000    0.6092010000000000 Te
   0.0022380000000000    0.0022380000000000    0.0022380000000000 S
   0.4997500000000000    0.4997500000000000    0.4997500000000000 S
   0.3872540000000000    0.3872540000000000    0.3872540000000000 S
