Amorphous Sb                            
   1.00000000000000     
    19.8678869700586880    0.0000000000000000    0.0000000000000000
     0.0000000000000000   19.8678869700586880    0.0000000000000000
     0.0000000000000000    0.0000000000000000   19.8678869700586880
   Ge   Se
   150   150
Direct
  0.0757249985274823  0.8475657351145961  0.5913942433212415
  0.3862855143702746  0.6709844564900660  0.8786228222134268
  0.3736042986729132  0.3074139511665686  0.8411610890940234
  0.3805127895305518  0.1861487842522709  0.6257586828909234
  0.6535379887179786  0.5288261112009047  0.8258125743346769
  0.5076178715723199  0.4974298244332854  0.4383911151837236
  0.1549004088101565  0.4237510471035743  0.2897151829286149
  0.8641829781445266  0.7883850010927285  0.5965805769385346
  0.1007513183494299  0.7471147662934242  0.1066211303383998
  0.4765083444610038  0.8563439580657256  0.5962176781133367
  0.6134062467130502  0.9054636024320282  0.2011339680517604
  0.0317660543274592  0.8841868835437329  0.2305510214752912
  0.6411570880757925  0.0315939901575952  0.8565614059452864
  0.7245373759414411  0.0126564671329892  0.2842826591256014
  0.7374485823615973  0.3954023431755830  0.7657762781299461
  0.1491051993291184  0.6354715712554879  0.6044495454046055
  0.0356396778691916  0.2827279380350001  0.1626430988537401
  0.3603017813647441  0.9495263691788342  0.4632481777484805
  0.4337250234468543  0.7930177857579572  0.1518660482056284
  0.0496570802813703  0.1655256063038781  0.4485818073389208
  0.3560397560499713  0.7617984635888779  0.7287107385276494
  0.5429975264291415  0.0498715324711828  0.2961704725160989
  0.7273503622264725  0.1465139791876936  0.1175901053441279
  0.4628748042097519  0.4937906572546785  0.7557205931903616
  0.3736969632937349  0.6437304627656870  0.0538250823325659
  0.0650987288753931  0.5275619642134326  0.7320633110880360
  0.7434606286810476  0.2107636967411191  0.9434014608811501
  0.1383938830623719  0.8160408005390274  0.8125638580639923
  0.4098313129794240  0.4300272861704747  0.0080957356063286
  0.7783445195236967  0.7272347396417963  0.4272012991413935
  0.1185978288866199  0.4963563942790144  0.9286291736094444
  0.9499265634504818  0.4556718174178728  0.8304269611887510
  0.2465331264934530  0.0656127549589229  0.6278171914626710
  0.8532172547279482  0.5657184052706852  0.4592552898187258
  0.2014095507368829  0.3872887099749670  0.5273650319949130
  0.1236802779094241 -0.0023394928319028  0.9633134145171662
  0.0132666297916420  0.4388670564634100  0.4097423191218894
  0.6164499474887829  0.1583558436555302  0.8968295933973880
  0.8492603237721613  0.1521263623808444  0.3562203836395609
  0.2881141444863684  0.8699737839548628  0.2941532415106755
  0.9183974245401202  0.9617251225065504  0.5420421164510777
  0.1066399057899174  0.6375320707588076  0.7789525229727917
  0.1528743068148019  0.3294942367167931  0.7366786011053492
  0.3819500394473462  0.2629523267850781  0.1149252125267476
  0.4833937483297783  0.0441455049251874  0.0974603868377394
  0.7530416330374352  0.4548290998681460  0.5698928820772773
  0.5389064093239140  0.6687489269824713  0.3285641491145948
  0.4479194699128360  0.1316138958075678  0.7316960801407624
  0.4672854462135777  0.0228197374368692  0.8982796994002239
 -0.0031850039146507  0.0433265598783057  0.8874120409919770
  0.4264113093542598  0.1596884899498075  0.4318222878350700
  0.9152216838185245  0.3711029093062620  0.4992588729101612
  0.2286099877036602  0.3670307186211311  0.8913937467524130
  0.2016050129215552  0.2281268398442154  0.8914416087030107
  0.0362498737297862  0.0508818753376795  0.5955727883573324
  0.7490323144857580  0.2526241138722294  0.2266137476772102
  0.2953119756606620  0.2287236792868377  0.0157137501119000
  0.6958433308838926  0.9876247391763538  0.4623077498993835
  0.9643257945576720  0.7450901350291215  0.4175575113729522
  0.5785650846071487  0.5097133590675957  0.6537236603495749
  0.5663931638365707  0.7671549434145893  0.6387228626509074
  0.2143955275900118  0.6274815047924442  0.2663518851715043
  0.9779973776016325  0.8903001965976893  0.8093323948252236
  0.9359681787815610  0.0700191407079061  0.7018346715846289
  0.1417221956111855  0.0283648181904184  0.2131846308471899
  0.0569334517789998  0.7185954701226863  0.5622108221333317
  0.4407083873504823  0.3646817664395413  0.6521175729488454
  0.4547035874525978  0.4179460827021624  0.1871824092434620
  0.3799294193282843  0.3650542246551526  0.4858822990540734
  0.8509906167835538  0.8561085402831079  0.9410879323705331
  0.5586888702113141  0.3293839891644196  0.8001246176268778
  0.3688293464111277  0.9264136363262021  0.0562743759816174
  0.2163519382245518  0.8822562069472285  0.1310878466317458
 -0.0020156039442297  0.6538731201514804  0.9388005024879029
  0.3736757247498505  0.1856832977105625  0.2689875819514359
  0.2453268388869302  0.8900300933724785  0.8523125461067710
  0.8758871390919960  0.8612095993944562  0.1551958973034366
  0.1405968038603869  0.0142627873439117  0.8317091780437428
  0.3399170370152108  0.5253445295643946  0.5312279940299723
  0.2135898550670339  0.2454701345353963  0.2092197613646196
  0.7099160033184926  0.9364659050618571  0.0939067663847746
  0.0953967103242000  0.1457289409492308  0.0603855316096651
  0.2601606325116860  0.2139498259830804  0.5147634762603420
  0.8466021572739084  0.3903374957795082  0.6705772638348425
  0.2124098547991370  0.6581422167983643  0.7135523042637804
  0.6834983423035931  0.4368646555208609  0.0282070959564923
  0.7983018830213511  0.1164407280869024  0.5661686406109532
  0.5929370289620192  0.7167011440826444  0.8164024459589786
  0.7466542225813593  0.3096218193957361  0.4006258024763626
  0.8452175060866542  0.5417422150625780  0.0154787529052729
  0.9412677610598141  0.7362636981424163  0.8057667134110194
  0.3124651507409275  0.0859600400830691  0.8775509831496303
  0.5506604805297084  0.7304472724939863  0.1498758197108680
  0.8951881108662102  0.3419574311592659  0.2954392492895982
  0.7344249038920511  0.5939775897971087  0.1727477416056135
  0.0484176005439029  0.1897253607883682  0.2773944193930610
  0.0010692307152230  0.9786116223097888  0.4028185188131326
  0.1921652538266584  0.2795551608171095  0.3485719864599334
  0.5657732070264706  0.1903599909594458  0.2448302814118297
  0.3811839005330109  0.7246840785742862  0.3435407077276629
  0.5309885814050441  0.7364621450495964  0.9704364145211101
  0.1558564925292637  0.3874266249775491  0.0746523114327170
  0.1540455380091145  0.8044154586509497  0.4138257745880133
  0.5929312053043932  0.8989045799803828  0.0174604326794300
  0.6744442846171751  0.5416179312824477  0.3831049458003424
  0.8181191335006399  0.4078720515027296  0.9446832135839960
  0.4875831183701051  0.1442907272598335  0.8610106864272126
  0.1498633422007809  0.1298880153274524  0.7704803316147678
  0.6981873571248569  0.7719069198107491  0.6441268426704988
  0.9350673864946493  0.0198447988859026  0.2386072895310075
  0.3137065472430646  0.7028069307041187  0.5115888984605320
  0.0512285726222087  0.4559501936555668  0.2207500703549048
  0.3109794019616167  0.5821935724151115  0.6759221943777358
  0.2600251960653429  0.2417654632659338  0.6437006307758224
  0.9276317822387895  0.7518258693784562 -0.0133400179839455
  0.6158916197988974  0.8174119141073133  0.3863899927458575
  0.2663601124101503  0.4457621648171297  0.1669309524952875
  0.8268137001681878  0.8373379906752634  0.7734804119189732
  0.9650015077878427  0.2414001756069186  0.6522695947319417
  0.2919337579208300  0.8964491076630220  0.5628734227288489
  0.6660389545770287  0.6383790446619292  0.5546277921763832
  0.9022977059241225  0.6488729016978428  0.1388853228833559
  0.9200489531966238  0.2777563514249637  0.8622387951652798
  0.5206197796623097  0.9516627836192034  0.4639978266084672
  0.2474899967282617  0.8174233785644305  0.0196793241101897
  0.5614029509636815  0.5960461989738775  0.9769767631306082
  0.6427620129064494  0.1644030256318483  0.7625141946162461
  0.2893488445314284  0.5318845484667344  0.9776484412289597
  0.5512787010677961  0.4908871023860264  0.1303987163573380
  0.2058678930859711  0.7979983402565671  0.2256014731807716
  0.6695523550948967  0.8346792452389390  0.8312405043114737
  0.2519395349043386  0.0620327927503606  0.2898723595372562
  0.8623794072103652  0.9857186523166025  0.0070255665097956
  0.0834150521231675  0.6256623128462245  0.3080926169405877
  0.8211416535286520  0.6669560144353650  0.3170111982402863
  0.7531575728795225  0.5923715839891556  0.8788372547008275
  0.5299707298857742  0.3084389875157464  0.4175148016555340
  0.6094329808930899  0.2529698798294889  0.6145757620424693
  0.6138539982843799  0.1987907141107687  0.4221428583147818
  0.8016002055331530  0.9358430607308162  0.3847153401090642
  0.6096620854364913  0.0021688384908679  0.6629696209531476
  0.0897923113451751  0.6121534090120644  0.0818562164030389
  0.5764620310072752  0.3761509190311745  0.2644532923297778
  0.9099407694325710  0.1471789742710743  0.0838214991289578
  0.8128902514226226  0.1103466603912744  0.8308186989277946
  0.4155155106929292  0.5346600531556304  0.2882141790142005
  0.4431445473937081  0.6930085069948310  0.4530698750229326
  0.0802958767543046  0.4258372928890849  0.5609525025941580
  0.9219924257413421  0.4826042506613679  0.5927789562857285
  0.4198421534727954  0.9081490582153792  0.9369497358723694
  0.4046362584874270  0.8404905292503043  0.3054100675730827
  0.4419009278477909  0.2603054009522921  0.7445177144643507
  0.8127545540727882  0.4380506615318521  0.4529002086306296
  0.9105288908667477  0.2852557284047132  0.4022405149598050
  0.3868035022584561  0.0775861859406392  0.3374266206875200
  0.5660525157715852  0.5458990763983530  0.3105415380149959
  0.1969667268449175  0.9509944100519429  0.6161141392212132
  0.5420054569197132  0.9841079542446246  0.8009670379051187
  0.2806603510140037  0.1388502019025445  0.1889415198517388
  0.4342440840775700  0.5815596514127371  0.9571105966838798
  0.4296038583099920  0.6589083171731039  0.2495751710138984
  0.3737395069368153  0.0501629157869358  0.0371878274479742
  0.8092001597408370  0.2256750049938243  0.0555508990673334
  0.0531501925154934  0.8682592147850514  0.4681714873196657
  0.0013613659102477  0.2319951427166395  0.0468426562921123
  0.8615186031682857  0.2932484827278971  0.5911199733191881
  0.9028471229480812  0.0010121315859390  0.8093320986371642
  0.5054290907177340  0.7716800435913598  0.7456679103453331
  0.6957160314734283  0.5101348081453602  0.7106128842418190
  0.6224833330326025  0.7645184275701967  0.0559994909497952
  0.9309668228264748  0.9698983181327911  0.1130312309370131
  0.4171187099571190  0.2229872991578920  0.9267697406775224
  0.9321804813732681  0.6159208095099012  0.8459560836539954
  0.8234527770717933  0.8879282104921377  0.4996338230585723
  0.1141060062743052  0.5104999571524154  0.3734806275856214
  0.1146627952793255  0.3661405841332407  0.9564646639518858
  0.3190879555077137  0.3248695975856786  0.2069861826086507
  0.7040049156146723  0.2505535293264337  0.7019857964509542
  0.1056748193231805  0.0558172780666775  0.4831205454767176
  0.7179152272296943  0.0577457895233127  0.7558836755450524
  0.5988347929247284  0.0705258236074775  0.4130683527820465
  0.8123991111943002  0.4805276592016915  0.8376743832503298
  0.0489426462443530  0.1066744086497734  0.1759809778289287
  0.8405986814977287  0.5258192245496232  0.1397462443951612
  0.6790135199986123  0.0567464619069396  0.5659786444728551
  0.3717989963598085  0.0969806023140235  0.5303907094539485
  0.9388575284937364  0.6363656375737878  0.3426916556695830
  0.2605526798000967  0.7021865647697140  0.3552377805578130
  0.9749256328296358  0.5420853928142860  0.4894448282055217
  0.0811594273021831  0.6934747408177209  0.4403407636819228
  0.7131305860198554  0.8760034220923784  0.7167882246766072
  0.7531927941681539  0.9101707787591440  0.2128729595987769
  0.9531340645428260  0.5478009529411282  0.6943517912845185
  0.8538590031958324  0.7271141179905856  0.7140786747315957
  0.1333802002166263  0.1285893081007942  0.6478052481489451
  0.2502089509257241  0.6983554053330036  0.1691355562691227
  0.0427040804800377  0.7282357296472471  0.7278962767898725
  0.2057741074229738  0.1099276882430192  0.9461011036052270
  0.4587573258413346  0.1723986414729925  0.1672102737225520
  0.1571123251516265  0.1550942418909752  0.3423510391661468
  0.1593597709016580  0.2786272180505107  0.4776310456273429
  0.2858477444346672  0.3621819015691198  0.6157681515637151
  0.0909859302250793  0.9281775905435822  0.7530019197812347
  0.0099371970973981  0.9241877845405527  0.9311009826126693
  0.2942682705324770  0.3584648675990963  0.0022359878282914
  0.4646353243319892  0.4020095271077292  0.8520376034912273
  0.7939007412788296  0.3012923019495313  0.8671485875166939
  0.3711147963496253  0.6817419526021381  0.6248444803012695
  0.2359971793932875  0.4945397495001260  0.8703514475435407
  0.0249756206918633  0.4035152892299158  0.1122277524352406
  0.9791770218691884  0.1070444853273187  0.3535855224462099
  0.2813397053152681  0.6579680623966555  0.9540015906959477
  0.2283713968994823  0.7916586547896212  0.5367665610188929
  0.1268129136129307  0.7952213094291496 -0.0040712581698826
  0.4352298841588860  0.8408798385062157  0.4794090939437365
  0.4927012790812249  0.2770702847669862  0.2994137160332989
  0.9432499801897178  0.3834641928247038  0.9396251056592591
  0.9439406879591561  0.4566219315885707  0.2949576715230022
  0.9348380541211191  0.3502264432041270  0.7542546983780719
  0.8724440605393925  0.1739735360872887  0.7412445003653448
  0.9656019439977749  0.1501042331799302  0.5565221313124256
  0.6269539147905377  0.0363388812309778  0.1926340793242241
  0.8450298600870367  0.0126062069403742  0.6343785546082029
  0.5690599774884302  0.3791938728118919  0.6762495965038693
  0.2539049886540525  0.9254816913803207  0.3971155650920424
 -0.0029725999350385  0.5579399785686751  0.0165923914403491
  0.6774911118543988  0.6856358006301276  0.7317919325014379
  0.9347724970441178  0.6982181169275105  0.5398420274115738
  0.8244155173972881  0.0833035154540659  0.2437593116559819
  0.1800825481768738  0.5253852407523388  0.0542737744133381
  0.5214116149459639  0.6128033722220222  0.1057468885413265
  0.7533055121409429  0.0426064105475988  0.0399039948599630
  0.5631902868575765  0.9190899534552794  0.3185298632960817
  0.6675596860912796  0.4652691673716695  0.1580566029368299
  0.6908599606731015  0.2341864114178998  0.5132685388427017
  0.1431686095348033  0.5101968477843464  0.6385385613959620
  0.2183465574620223  0.7820943382864378  0.7151557370162031
  0.4007804112624099  0.5736073561003140  0.4170174019981140
  0.7746514573727236  0.7717101748247026  0.8737486435574652
  0.3755876980536417  0.4943555147660631  0.1189079880507449
  0.8381035337555386  0.6725057855674367  0.0264972859801985
  0.5437706697185388  0.6614752113419980  0.5778765228340675
  0.6519980849784496  0.2833987735226411  0.9916481564703611
  0.3664213315617040  0.5724485127800524  0.7889623200960262
  0.0804903685496285  0.3201491834096082  0.6315426471936961
  0.8272226236836893  0.0655146319151452  0.4495777276886927
  0.6639599168056374  0.6669070437104150  0.4248051920863102
  0.8095821538518579  0.7135382813982593  0.2034189784375633
  0.1168325833434437  0.6581779561316237  0.8978792548664273
  0.9080761509134353  0.0980998540800654  0.9623765187438981
  0.6221757272522196  0.7193821892176891  0.2471671856814362
  0.7391338515418031  0.8214754441575636  0.3513668389586723
  0.2945972539751722  0.9534431754617675  0.2008225752946733
  0.1085338956496287  0.9407506158781709  0.1255011255537063
  0.6230943571401949  0.1763219636682238  0.0398640984941735
  0.0388150006456319  0.5773347451148766  0.1936349056054018
  0.2610445425386799 -0.0006365755781241  0.7912180679907725
  0.5564310410392326  0.4645039764015326  0.0064577720490594
  0.5409789692621327  0.5736641439719988  0.8214786761792753
  0.6398784432292630  0.5101939413373423  0.5368996126663445
  0.9555303768759470  0.8712593956174813  0.6327768980240546
  0.3705526983715386  0.8733299607647994  0.6626624716190297
  0.7006132206954742  0.9340445713819513  0.9057745177362513
  0.9175066082250518  0.9159377674246980  0.3186876419299611
  0.5546054176631768  0.0270320372285186  0.9892679255968195
  0.0855712018597602  0.4298915690994861  0.8027783601935317
  0.4972298411028720  0.9791929311021593  0.5927368906051791
  0.0753317450789093  0.3315617186893691  0.3261917754118675
  0.7127975820849285  0.1960164104636425  0.3389135197001514
  0.6312079880353682  0.2858783540354409  0.1875280848401055
  0.6331767962550848  0.3774491910390468  0.3813775307223536
  0.2357476246059279  0.0897527887374457  0.4988737113833617
  0.7918607922103426  0.8421790315089577  0.0558497134965911
  0.1771799154198058  0.2459300936643139  0.0854283640452189
  0.4562599932329777  0.2652973326093653  0.5685894744417975
  0.6225874992806211  0.8822781360560170  0.4985736791472496
  0.3564040476123322  0.8406922048189345  0.8541059723726564
  0.0939733386291970  0.2330796096833846  0.8134483975556083
  0.0953287533799778  0.7757903231987885  0.2752495980511889
  0.4180735580540628  0.7619526828113369  0.0269896267525008
  0.5601054533491405  0.1286399560487182  0.6695003942360624
  0.9149412654601876  0.2659853146943181  0.2045440755427773
  0.4421465504166476  0.4076112212975065  0.3766115517689129
  0.7769977919322441  0.3685039589377272  0.2792873703896687
  0.2845239304140567  0.5228447904687960  0.2751553300620855
  0.7157274162218386  0.5593737060494821 -0.0023755612574593
  0.6478992672140448  0.4086374983664653  0.8599165832495832
  0.2228914890462474  0.6156928836529085  0.5074386088908953
  0.4734542738244135  0.3397528147226767  0.0821960546749047
  0.7672911047444646  0.5559245541658672  0.2938803000619749
  0.3299822050850083  0.2443293861899323  0.4170542027515812
  0.5283051206221994  0.8508704370682924  0.9118238033621501
  0.4516046378745953  0.4619756131579931  0.5592092760651368
  0.9736581305707848  0.7739567983894861  0.0994563861466780
  0.2774425418347770  0.4425234153499624  0.4473134955923949
  0.8213192271492765  0.5611743092084017  0.5886849803187716
  0.2413195352313434  0.9377432760867291  0.9689293962304458
  0.0970100607362421  0.9588116691153770  0.3107129064319881
  0.2666500397512473  0.1769008827797747  0.7898001602687920
  0.4906598003352556  0.9041261891583883  0.1129984858213986
 
  0.00000000E+00  0.00000000E+00  0.00000000E+00
  0.00000000E+00  0.00000000E+00  0.00000000E+00
  0.00000000E+00  0.00000000E+00  0.00000000E+00
  0.00000000E+00  0.00000000E+00  0.00000000E+00
  0.00000000E+00  0.00000000E+00  0.00000000E+00
  0.00000000E+00  0.00000000E+00  0.00000000E+00
  0.00000000E+00  0.00000000E+00  0.00000000E+00
  0.00000000E+00  0.00000000E+00  0.00000000E+00
  0.00000000E+00  0.00000000E+00  0.00000000E+00
  0.00000000E+00  0.00000000E+00  0.00000000E+00
  0.00000000E+00  0.00000000E+00  0.00000000E+00
  0.00000000E+00  0.00000000E+00  0.00000000E+00
  0.00000000E+00  0.00000000E+00  0.00000000E+00
  0.00000000E+00  0.00000000E+00  0.00000000E+00
  0.00000000E+00  0.00000000E+00  0.00000000E+00
  0.00000000E+00  0.00000000E+00  0.00000000E+00
  0.00000000E+00  0.00000000E+00  0.00000000E+00
  0.00000000E+00  0.00000000E+00  0.00000000E+00
  0.00000000E+00  0.00000000E+00  0.00000000E+00
  0.00000000E+00  0.00000000E+00  0.00000000E+00
  0.00000000E+00  0.00000000E+00  0.00000000E+00
  0.00000000E+00  0.00000000E+00  0.00000000E+00
  0.00000000E+00  0.00000000E+00  0.00000000E+00
  0.00000000E+00  0.00000000E+00  0.00000000E+00
  0.00000000E+00  0.00000000E+00  0.00000000E+00
  0.00000000E+00  0.00000000E+00  0.00000000E+00
  0.00000000E+00  0.00000000E+00  0.00000000E+00
  0.00000000E+00  0.00000000E+00  0.00000000E+00
  0.00000000E+00  0.00000000E+00  0.00000000E+00
  0.00000000E+00  0.00000000E+00  0.00000000E+00
  0.00000000E+00  0.00000000E+00  0.00000000E+00
  0.00000000E+00  0.00000000E+00  0.00000000E+00
  0.00000000E+00  0.00000000E+00  0.00000000E+00
  0.00000000E+00  0.00000000E+00  0.00000000E+00
  0.00000000E+00  0.00000000E+00  0.00000000E+00
  0.00000000E+00  0.00000000E+00  0.00000000E+00
  0.00000000E+00  0.00000000E+00  0.00000000E+00
  0.00000000E+00  0.00000000E+00  0.00000000E+00
  0.00000000E+00  0.00000000E+00  0.00000000E+00
  0.00000000E+00  0.00000000E+00  0.00000000E+00
  0.00000000E+00  0.00000000E+00  0.00000000E+00
  0.00000000E+00  0.00000000E+00  0.00000000E+00
  0.00000000E+00  0.00000000E+00  0.00000000E+00
  0.00000000E+00  0.00000000E+00  0.00000000E+00
  0.00000000E+00  0.00000000E+00  0.00000000E+00
  0.00000000E+00  0.00000000E+00  0.00000000E+00
  0.00000000E+00  0.00000000E+00  0.00000000E+00
  0.00000000E+00  0.00000000E+00  0.00000000E+00
  0.00000000E+00  0.00000000E+00  0.00000000E+00
  0.00000000E+00  0.00000000E+00  0.00000000E+00
  0.00000000E+00  0.00000000E+00  0.00000000E+00
  0.00000000E+00  0.00000000E+00  0.00000000E+00
  0.00000000E+00  0.00000000E+00  0.00000000E+00
  0.00000000E+00  0.00000000E+00  0.00000000E+00
  0.00000000E+00  0.00000000E+00  0.00000000E+00
  0.00000000E+00  0.00000000E+00  0.00000000E+00
  0.00000000E+00  0.00000000E+00  0.00000000E+00
  0.00000000E+00  0.00000000E+00  0.00000000E+00
  0.00000000E+00  0.00000000E+00  0.00000000E+00
  0.00000000E+00  0.00000000E+00  0.00000000E+00
  0.00000000E+00  0.00000000E+00  0.00000000E+00
  0.00000000E+00  0.00000000E+00  0.00000000E+00
  0.00000000E+00  0.00000000E+00  0.00000000E+00
  0.00000000E+00  0.00000000E+00  0.00000000E+00
  0.00000000E+00  0.00000000E+00  0.00000000E+00
  0.00000000E+00  0.00000000E+00  0.00000000E+00
  0.00000000E+00  0.00000000E+00  0.00000000E+00
  0.00000000E+00  0.00000000E+00  0.00000000E+00
  0.00000000E+00  0.00000000E+00  0.00000000E+00
  0.00000000E+00  0.00000000E+00  0.00000000E+00
  0.00000000E+00  0.00000000E+00  0.00000000E+00
  0.00000000E+00  0.00000000E+00  0.00000000E+00
  0.00000000E+00  0.00000000E+00  0.00000000E+00
  0.00000000E+00  0.00000000E+00  0.00000000E+00
  0.00000000E+00  0.00000000E+00  0.00000000E+00
  0.00000000E+00  0.00000000E+00  0.00000000E+00
  0.00000000E+00  0.00000000E+00  0.00000000E+00
  0.00000000E+00  0.00000000E+00  0.00000000E+00
  0.00000000E+00  0.00000000E+00  0.00000000E+00
  0.00000000E+00  0.00000000E+00  0.00000000E+00
  0.00000000E+00  0.00000000E+00  0.00000000E+00
  0.00000000E+00  0.00000000E+00  0.00000000E+00
  0.00000000E+00  0.00000000E+00  0.00000000E+00
  0.00000000E+00  0.00000000E+00  0.00000000E+00
  0.00000000E+00  0.00000000E+00  0.00000000E+00
  0.00000000E+00  0.00000000E+00  0.00000000E+00
  0.00000000E+00  0.00000000E+00  0.00000000E+00
  0.00000000E+00  0.00000000E+00  0.00000000E+00
  0.00000000E+00  0.00000000E+00  0.00000000E+00
  0.00000000E+00  0.00000000E+00  0.00000000E+00
  0.00000000E+00  0.00000000E+00  0.00000000E+00
  0.00000000E+00  0.00000000E+00  0.00000000E+00
  0.00000000E+00  0.00000000E+00  0.00000000E+00
  0.00000000E+00  0.00000000E+00  0.00000000E+00
  0.00000000E+00  0.00000000E+00  0.00000000E+00
  0.00000000E+00  0.00000000E+00  0.00000000E+00
  0.00000000E+00  0.00000000E+00  0.00000000E+00
  0.00000000E+00  0.00000000E+00  0.00000000E+00
  0.00000000E+00  0.00000000E+00  0.00000000E+00
  0.00000000E+00  0.00000000E+00  0.00000000E+00
  0.00000000E+00  0.00000000E+00  0.00000000E+00
  0.00000000E+00  0.00000000E+00  0.00000000E+00
  0.00000000E+00  0.00000000E+00  0.00000000E+00
  0.00000000E+00  0.00000000E+00  0.00000000E+00
  0.00000000E+00  0.00000000E+00  0.00000000E+00
  0.00000000E+00  0.00000000E+00  0.00000000E+00
  0.00000000E+00  0.00000000E+00  0.00000000E+00
  0.00000000E+00  0.00000000E+00  0.00000000E+00
  0.00000000E+00  0.00000000E+00  0.00000000E+00
  0.00000000E+00  0.00000000E+00  0.00000000E+00
  0.00000000E+00  0.00000000E+00  0.00000000E+00
  0.00000000E+00  0.00000000E+00  0.00000000E+00
  0.00000000E+00  0.00000000E+00  0.00000000E+00
  0.00000000E+00  0.00000000E+00  0.00000000E+00
  0.00000000E+00  0.00000000E+00  0.00000000E+00
  0.00000000E+00  0.00000000E+00  0.00000000E+00
  0.00000000E+00  0.00000000E+00  0.00000000E+00
  0.00000000E+00  0.00000000E+00  0.00000000E+00
  0.00000000E+00  0.00000000E+00  0.00000000E+00
  0.00000000E+00  0.00000000E+00  0.00000000E+00
  0.00000000E+00  0.00000000E+00  0.00000000E+00
  0.00000000E+00  0.00000000E+00  0.00000000E+00
  0.00000000E+00  0.00000000E+00  0.00000000E+00
  0.00000000E+00  0.00000000E+00  0.00000000E+00
  0.00000000E+00  0.00000000E+00  0.00000000E+00
  0.00000000E+00  0.00000000E+00  0.00000000E+00
  0.00000000E+00  0.00000000E+00  0.00000000E+00
  0.00000000E+00  0.00000000E+00  0.00000000E+00
  0.00000000E+00  0.00000000E+00  0.00000000E+00
  0.00000000E+00  0.00000000E+00  0.00000000E+00
  0.00000000E+00  0.00000000E+00  0.00000000E+00
  0.00000000E+00  0.00000000E+00  0.00000000E+00
  0.00000000E+00  0.00000000E+00  0.00000000E+00
  0.00000000E+00  0.00000000E+00  0.00000000E+00
  0.00000000E+00  0.00000000E+00  0.00000000E+00
  0.00000000E+00  0.00000000E+00  0.00000000E+00
  0.00000000E+00  0.00000000E+00  0.00000000E+00
  0.00000000E+00  0.00000000E+00  0.00000000E+00
  0.00000000E+00  0.00000000E+00  0.00000000E+00
  0.00000000E+00  0.00000000E+00  0.00000000E+00
  0.00000000E+00  0.00000000E+00  0.00000000E+00
  0.00000000E+00  0.00000000E+00  0.00000000E+00
  0.00000000E+00  0.00000000E+00  0.00000000E+00
  0.00000000E+00  0.00000000E+00  0.00000000E+00
  0.00000000E+00  0.00000000E+00  0.00000000E+00
  0.00000000E+00  0.00000000E+00  0.00000000E+00
  0.00000000E+00  0.00000000E+00  0.00000000E+00
  0.00000000E+00  0.00000000E+00  0.00000000E+00
  0.00000000E+00  0.00000000E+00  0.00000000E+00
  0.00000000E+00  0.00000000E+00  0.00000000E+00
  0.00000000E+00  0.00000000E+00  0.00000000E+00
  0.00000000E+00  0.00000000E+00  0.00000000E+00
  0.00000000E+00  0.00000000E+00  0.00000000E+00
  0.00000000E+00  0.00000000E+00  0.00000000E+00
  0.00000000E+00  0.00000000E+00  0.00000000E+00
  0.00000000E+00  0.00000000E+00  0.00000000E+00
  0.00000000E+00  0.00000000E+00  0.00000000E+00
  0.00000000E+00  0.00000000E+00  0.00000000E+00
  0.00000000E+00  0.00000000E+00  0.00000000E+00
  0.00000000E+00  0.00000000E+00  0.00000000E+00
  0.00000000E+00  0.00000000E+00  0.00000000E+00
  0.00000000E+00  0.00000000E+00  0.00000000E+00
  0.00000000E+00  0.00000000E+00  0.00000000E+00
  0.00000000E+00  0.00000000E+00  0.00000000E+00
  0.00000000E+00  0.00000000E+00  0.00000000E+00
  0.00000000E+00  0.00000000E+00  0.00000000E+00
  0.00000000E+00  0.00000000E+00  0.00000000E+00
  0.00000000E+00  0.00000000E+00  0.00000000E+00
  0.00000000E+00  0.00000000E+00  0.00000000E+00
  0.00000000E+00  0.00000000E+00  0.00000000E+00
  0.00000000E+00  0.00000000E+00  0.00000000E+00
  0.00000000E+00  0.00000000E+00  0.00000000E+00
  0.00000000E+00  0.00000000E+00  0.00000000E+00
  0.00000000E+00  0.00000000E+00  0.00000000E+00
  0.00000000E+00  0.00000000E+00  0.00000000E+00
  0.00000000E+00  0.00000000E+00  0.00000000E+00
  0.00000000E+00  0.00000000E+00  0.00000000E+00
  0.00000000E+00  0.00000000E+00  0.00000000E+00
  0.00000000E+00  0.00000000E+00  0.00000000E+00
  0.00000000E+00  0.00000000E+00  0.00000000E+00
  0.00000000E+00  0.00000000E+00  0.00000000E+00
  0.00000000E+00  0.00000000E+00  0.00000000E+00
  0.00000000E+00  0.00000000E+00  0.00000000E+00
  0.00000000E+00  0.00000000E+00  0.00000000E+00
  0.00000000E+00  0.00000000E+00  0.00000000E+00
  0.00000000E+00  0.00000000E+00  0.00000000E+00
  0.00000000E+00  0.00000000E+00  0.00000000E+00
  0.00000000E+00  0.00000000E+00  0.00000000E+00
  0.00000000E+00  0.00000000E+00  0.00000000E+00
  0.00000000E+00  0.00000000E+00  0.00000000E+00
  0.00000000E+00  0.00000000E+00  0.00000000E+00
  0.00000000E+00  0.00000000E+00  0.00000000E+00
  0.00000000E+00  0.00000000E+00  0.00000000E+00
  0.00000000E+00  0.00000000E+00  0.00000000E+00
  0.00000000E+00  0.00000000E+00  0.00000000E+00
  0.00000000E+00  0.00000000E+00  0.00000000E+00
  0.00000000E+00  0.00000000E+00  0.00000000E+00
  0.00000000E+00  0.00000000E+00  0.00000000E+00
  0.00000000E+00  0.00000000E+00  0.00000000E+00
  0.00000000E+00  0.00000000E+00  0.00000000E+00
  0.00000000E+00  0.00000000E+00  0.00000000E+00
  0.00000000E+00  0.00000000E+00  0.00000000E+00
  0.00000000E+00  0.00000000E+00  0.00000000E+00
  0.00000000E+00  0.00000000E+00  0.00000000E+00
  0.00000000E+00  0.00000000E+00  0.00000000E+00
  0.00000000E+00  0.00000000E+00  0.00000000E+00
  0.00000000E+00  0.00000000E+00  0.00000000E+00
  0.00000000E+00  0.00000000E+00  0.00000000E+00
  0.00000000E+00  0.00000000E+00  0.00000000E+00
  0.00000000E+00  0.00000000E+00  0.00000000E+00
  0.00000000E+00  0.00000000E+00  0.00000000E+00
  0.00000000E+00  0.00000000E+00  0.00000000E+00
  0.00000000E+00  0.00000000E+00  0.00000000E+00
  0.00000000E+00  0.00000000E+00  0.00000000E+00
  0.00000000E+00  0.00000000E+00  0.00000000E+00
  0.00000000E+00  0.00000000E+00  0.00000000E+00
  0.00000000E+00  0.00000000E+00  0.00000000E+00
  0.00000000E+00  0.00000000E+00  0.00000000E+00
  0.00000000E+00  0.00000000E+00  0.00000000E+00
  0.00000000E+00  0.00000000E+00  0.00000000E+00
  0.00000000E+00  0.00000000E+00  0.00000000E+00
  0.00000000E+00  0.00000000E+00  0.00000000E+00
  0.00000000E+00  0.00000000E+00  0.00000000E+00
  0.00000000E+00  0.00000000E+00  0.00000000E+00
  0.00000000E+00  0.00000000E+00  0.00000000E+00
  0.00000000E+00  0.00000000E+00  0.00000000E+00
  0.00000000E+00  0.00000000E+00  0.00000000E+00
  0.00000000E+00  0.00000000E+00  0.00000000E+00
  0.00000000E+00  0.00000000E+00  0.00000000E+00
  0.00000000E+00  0.00000000E+00  0.00000000E+00
  0.00000000E+00  0.00000000E+00  0.00000000E+00
  0.00000000E+00  0.00000000E+00  0.00000000E+00