Amorphous AsTe                          
   1.00000000000000     
    21.1072922372385499    0.0000000000000000    0.0000000000000000
     0.0000000000000000   21.1072922372385499    0.0000000000000000
     0.0000000000000000    0.0000000000000000   21.1072922372385499
   As   Te
   150   150
Direct
  0.4620221611155276  0.6954422096754607  0.1996589880021546
  0.9699738176730106  0.2472082179782499  0.5241086773817669
  0.3254599444926878  0.6940095895697865  0.7460675318584649
  0.1745371398393559  0.5516875788025245  0.6624293967175197
  0.8802253598117131  0.8988934444896476  0.7099701435246281
  0.3557695843619793  0.8712182441840223  0.4624516237727205
  0.2817942598585541  0.0986904849608794  0.1223874956243700
  0.3621275579196956  0.4654977843794155  0.0269288554898839
  0.8907309970160415  0.2979150385941425  0.9549708639015261
  0.2163298926556549  0.1530525615146294  0.4245867418148713
  0.8470662511781677  0.9239886141694695  0.5977898588175913
  0.9343007070158574 -0.0062501490818447  0.0986780533257964
  0.8591780127442071  0.7746567895582585  0.8386668585610718
  0.3046884568067137  0.3335705860450409  0.4686236457903538
  0.2495985198298220  0.2421310675064724  0.5241489427523148
  0.9769610360206067  0.3728802475909088 -0.0037321893223660
  0.7987026645828346  0.1920367876105817  0.6096368779023160
  0.3129183229675855  0.0888556041960973  0.4499949687474191
  0.4340481940506699  0.1220652085395899  0.8749513584360025
  0.6192245083902582  0.4331789307545477  0.7095515226277395
  0.6947536602512391  0.0830797295773912  0.8057278405020367
  0.9386913501042564  0.7978408466040664  0.2976120820256149
  0.9896368902199179  0.0666148016317969  0.1728694288194889
  0.8129223033204541  0.5061907135463425  0.6997054230950226
  0.6019888129553471  0.1388380477396900  0.7591755330739062
  0.3824920000212790  0.7699830720863651  0.4016238967431338
  0.0161492956032165  0.9566038209394757  0.9317994755177899
  0.5028990333489517  0.9533036267454661  0.7136618403737508
  0.5078727508411846  0.9499361770109470  0.0665232414788754
  0.0259333502222093  0.2938906143996838  0.2893429215720326
  0.7714848031825893  0.9407052172576940  0.6859366799446882
  0.5855791332644233  0.5404552781916869  0.5012123350250286
  0.4112652082646016  0.5011170903429035  0.9245301666994074
  0.5990661151779573  0.4247305593858847  0.4781746126026220
  0.0042993643964818  0.0897471230473323  0.7869510116048543
  0.9130473215874571  0.4609601287243124  0.6482058144017834
  0.1146096533850280  0.9834182588556248  0.5933741673015330
  0.1985430011813994  0.9179115599188511  0.6454407395049843
  0.0196521750765910  0.8389064458828437  0.3756918658857982
  0.2369450777946802  0.0145687384531358  0.5092144449559161
  0.2058314890561692  0.5070856595519213  0.0262638457894179
  0.4731051731701569  0.2979770443616853  0.2652148139854451
  0.4928852075997567  0.9714413897392687  0.4082552113536327
  0.8691762174660137  0.4015817764108244  0.4006415467642773
  0.9972662481055802  0.7510177448693334  0.9143434047919929
  0.5632847486005662  0.8172691539600222  0.3536363175390445
  0.7962720809665345  0.0525996180152094  0.4820397179589123
  0.1094285502274342  0.0286624135151903  0.9126053905860819
  0.2996959612760849  0.9536185487639575  0.5908877379905956
  0.7174298571339864  0.4119693193879679  0.0403289159578476
  0.8626289367943588  0.0359696014404145  0.8739509728675872
  0.9448631810167901  0.5747943305611323  0.1781965090829613
  0.4209651735187780  0.8801562819722040  0.1121681913475093
  0.5601135079299528  0.9919172933685947  0.5502385651063975
  0.7623114136844633  0.6453563176845786  0.0416310287861222
  0.5150376611218643  0.6818388463209200  0.6441549731397835
  0.6656201684192229  0.6485090525870055  0.6446200186735100
  0.4012078607312613  0.0827174875012437  0.1175403068802467
  0.3277236876147320  0.1793905740962518  0.9644197096214970
  0.8826676185982958  0.6688655046567484  0.2109718505571999
  0.5985782818625105  0.3107922687715438  0.0630923018596639
  0.3890188707287037  0.5963188887525981  0.0652182844663325
  0.3162622137035869  0.6693991590512799  0.6309164273617192
  0.7453145235516033  0.7992891968487635  0.0124550676327297
  0.0827190818397949  0.8946832627842904  0.5177199288859938
  0.6279774313056509  0.5872942709865824  0.3947611130272039
  0.5023432997014805  0.5619773369227965  0.6378254656383079
  0.7708000165102447  0.6443540419418127  0.5878752356549584
  0.1112857816218910  0.8181913677379610  0.2119309132254731
  0.5950118747795882  0.7510316372788891  0.9287126293640675
  0.6196616877266662  0.4400840606023939  0.2805350729383012
  0.4942721228910397  0.0818485095799166  0.9698701953968436
  0.4224440343976294  0.8225710431761606  0.8145747939586853
  0.7441227319758532  0.4703764229329843  0.8642449131702649
  0.0535645226049364  0.6077570280653560  0.1421373667937786
  0.8451439826477544  0.5582886336240734  0.0640274658135466
  0.0312555136049370  0.4364827333763222  0.2211187822194833
  0.6218859893183589  0.5407381214213073  0.6155880831493864
  0.7023018096783611  0.8027594761733717  0.9020461602006670
  0.3886812254917341  0.2370303116463338  0.3303841563888681
  0.5268382288612907  0.8854162947609402  0.9629792647199036
  0.9402054673338766  0.8801864855912607  0.2104578655194639
  0.2436245534174281  0.2019683718136798  0.6938308814377768
  0.7376535151469945  0.5073325335439985  0.1474551768773584
  0.6687946598295218  0.2345165254718423  0.2116676843162520
  0.3690793272734528  0.5526712123357281  0.7688111428800284
  0.3209020891376909  0.7134079175639134  0.8970999205206465
  0.7175648584454677  0.2189459756611911  0.4522087065135674
  0.4716594690720254  0.3970537631897411  0.9162561731472825
  0.1940980865157917  0.2533440631560203  0.0703146722209907
  0.8844739028017119  0.1856512291994716  0.9083861088664666
  0.9402118405116366  0.6869848502837728  0.8322087625738835
  0.3391167232148666  0.1642704265942919  0.5422984252147530
  0.2275066906289071  0.1700726606205686  0.9025616094528359
  0.2554273693468066  0.1169551816949799  0.6132733176696579
  0.5944256642600482  0.1996091839145166  0.6257909410341054
  0.9612050034568794  0.2378891047349843  0.1499200522232136
  0.0765881408195611  0.6513042868722582  0.4096233602029152
  0.8657717627728001  0.7810218742393327  0.7191883316106649
  0.9565635993941174  0.9875265572571450  0.8257363880487932
  0.5983195333754890  0.6936302805366835  0.5577715230135958
  0.3025264811386721  0.2059067870623288  0.0777298537368267
  0.1507870512821698  0.3118434082129650  0.6195279045447728
  0.6747756238920108  0.1996809048724410  0.8311260881463943
  0.3486846648759372  0.6668511053259486  0.4545309426967821
  0.8793999388259721  0.3484275764210945  0.6756131477799152
  0.6363345310946802  0.1808821430423649  0.9418648614331694
  0.4139171586129141  0.0124957300107204  0.0212431300836948
  0.2863305193719101  0.2959875973353831  0.3423166196400890
  0.7772170309628712  0.9790620076752646  0.1798396658657360
  0.6366151263996217  0.3459072399034513  0.1735494772905405
  0.1073430626189235  0.5506852647415771  0.8335399042551733
  0.9722644286555949  0.1369841442754297  0.9702140050822330
  0.6817608130826029  0.8388072505695062  0.3534984791490913
  0.4988683973890249  0.4209875889687668  0.4135312569381510
  0.1816400462700805 -0.0058206424211873  0.2065399231558859
  0.0471304588741981  0.4912540722941099  0.1150787336999191
  0.2387394779552081  0.9199376731994425  0.2785018263955002
  0.4334735412244488  0.1423179653961769  0.6996782124371181
  0.7220755376257747  0.6724132372881315  0.1529677231189544
  0.0775219746466673  0.5633547278669571  0.4944924466129003
  0.3217427155287791  0.0396309486261455  0.6724947464415912
  0.1432953347246275  0.1911786759742722  0.9837057965770857
  0.0916938983895566  0.7332957644906454  0.6007506146383088
  0.0547809582527994  0.1295427182642519  0.8851503539119762
  0.7993553104220421  0.8235750265070043  0.5564896200938438
  0.7474853176356272  0.3863621490631423  0.1526003261215927
  0.9308272455128414  0.0259284125983004  0.9767128007310022
  0.6636968643727547  0.9586767734343198  0.2075411006724741
  0.4815963176933282  0.5731970236289132  0.9877509262142398
  0.0782968113463177  0.9323903780623000  0.2130901515000696
  0.7379951447765283  0.1593364600473934  0.1281465869274329
  0.0301279973054957  0.1539927645986238  0.1005959263452678
  0.6114044587323403  0.6201969930631333  0.1564704299675460
  0.5536018955203562  0.9312608434553287  0.3157579537463446
  0.2173252113886063  0.2007280438626827  0.3126203871160712
  0.1522143059806757  0.0525312019002581  0.4014165866123648
  0.0434502272164935  0.3487122171629274  0.4636306657876406
  0.3683329635989093  0.6564053913972557  0.2668867236502014
  0.4637929497561470  0.1865287019933699  0.0185182363169933
  0.4039395377826860  0.9074317688180646  0.3600614892371950
  0.7831220356347545  0.5986207574967467  0.2233882272940026
  0.0096991022732336  0.6646699445645307  0.0430617172186593
  0.0001829870417915  0.8310973682004511  0.8246397180775147
  0.6615482569287289  0.5423267939791659  0.2293247318512261
  0.7716403637203462  0.0909629064812102  0.2197746293899580
  0.4983961670182009  0.0806236953022064  0.7827948930606649
  0.9832373445031865  0.7511020192062873  0.7384842443433411
  0.2437286555716640  0.3409988877457621  0.2406473019089356
 -0.0006650540630393  0.7790432297868981  0.1989839736206664
  0.5179756511981584  0.3773261043870248  0.5671969653106206
  0.9868297552535337  0.4870940117144285  0.7465518513295674
  0.2493701168204526  0.4651288627518823  0.2640466489024501
  0.3377644793743341  0.3101508020848747  0.5972271197351681
  0.7448809391998185 -0.0038357995269705  0.0587751547857649
  0.2995096479293896  0.7589351032681337  0.3041890192854001
  0.8599661553757108  0.2538551105910481  0.0711099991893126
  0.4978350612938622  0.2505855336913012  0.6905462409079018
  0.4233385747400392  0.4124798501916732  0.2427583189200025
  0.4879177690848424  0.0978340122602435  0.5487184214197594
  0.5183033496853688  0.8299016714651231  0.4705445541761192
  0.8951717319851706  0.1250022204687500  0.2380057236149559
 -0.0027642937898258  0.8477980175313770  0.6012201552456129
  0.4501019115649674  0.3778396371372363  0.0567578747792977
  0.0974711339256609  0.5005973047206613  0.9585765222176174
  0.0778295320922611  0.1816476427405196  0.5334928286487269
  0.9338101593757012  0.5887506901667987  0.9769216582844751
  0.2379855675504811  0.9097298128166798  0.4373139535385606
  0.2590669431139622  0.5200737400739104  0.4588183289854009
  0.5346533100990041  0.1570714471060930  0.4375366255232683
  0.6517679964844195  0.8709683716608460  0.0600562128450782
  0.8849277713285695  0.5858882858705317  0.4756993790851757
  0.7078765244250197  0.9577707166205616  0.4833874598981960
  0.2096688075482599  0.8226168261799877  0.8793313203448377
  0.2277673282184681  0.6065599381054976  0.7769890487860392
  0.9372796691350586  0.0599071557385431  0.6379150356869284
  0.1537488861887029  0.8343169219747318  0.0030009706784348
  0.7364230080064357  0.7218571549957308  0.3270268126963650
  0.7068999921193769  0.3820313624605775  0.6304438802145785
  0.3032215725273912  0.7685254775166218  0.0161061484013866
  0.2757283438749841  0.0410457447730229  0.9583272455507382
  0.3587123189304105  0.2974191394739630  0.9213451829235659
  0.7316120415151229  0.7875174586301574  0.6626555521562494
  0.8242835264471727  0.1189371413576500  0.0401337178600686
  0.5212894958680071  0.5078595713906037  0.3210041344656254
  0.2538324622835809  0.7949870324467571  0.7242439437866649
  0.4635400571125197  0.9240282172055470  0.5996804267188293
  0.8296481336578504  0.4510287372767369  0.9956395892255396
  0.1751805760505604  0.8105230305493699  0.5427597789463697
  0.0765560710590607  0.3734424070196798  0.9185220508820817
  0.5991420421512719  0.7466532580833527  0.0546756641706565
  0.4740130361690507  0.3952163940508228  0.7848083982276045
  0.8984895115228405  0.3487435178962143  0.8007510439361086
  0.1733548325907027  0.4560698821285761  0.7859754478652041
  0.6688548275489326  0.9848787908756829  0.3321925618701675
  0.1253689136138497  0.0837063768519977  0.2803472099008659
  0.9263559063222343  0.2908760178404955  0.3682690707369294
  0.0406814578205440  0.9377992364679757  0.0708571629472721
  0.2242984151114962  0.9212863055167518  0.0759616748603017
  0.3680439236236770  0.8967146398763773  0.7309903224837693
  0.5433090399636592  0.4795775948869227  0.0568465433899073
  0.5740038467941804  0.6808589073364987  0.2616155922082726
  0.1316447200518326  0.1984477724011317  0.1675902618201063
  0.3497470366736959  0.5482198240985752  0.6408216500606726
  0.4433431379789227  0.6363645201037780  0.3779005006807543
  0.6728562683619567  0.8342216329076950  0.2279407830542297
  0.5930021508824631  0.2745141059650957  0.5230229333715206
  0.6262015568539649  0.8147280599676030  0.5756201768445197
  0.7807915946855482  0.1306334949850528  0.3853330685134134
  0.1640544864019242  0.4484234332602102  0.1298345938350959
  0.0849109551303827  0.3600576444510550  0.7250951416890381
  0.3105546759594223  0.1452191394329966  0.2428633382363123
  0.2318561150223869  0.2899240933894933  0.8543078185963439
  0.4866861600521685  0.8274165140775493  0.2040024887213199
  0.1433901749427014  0.0713915757109330  0.0285931016957066
  0.9080039225085750  0.7590778231750251  0.5496189337750184
  0.4080229413850422  0.8913238220056894  0.9230894064139475
  0.4173957540000239  0.7267396048881536  0.5800383060925669
  0.4168526182342810  0.7251873363772448  0.0742724759349501
  0.5868915483232213  0.1796301140661609  0.2865358997408156
  0.9787902420102434  0.2729926543285600  0.6483335490803054
  0.8101249736594921  0.8906781615411151  0.4240493804845196
  0.1236337939913913  0.7870745264452187  0.3319169672011379
  0.6606953956157481  0.0541968217996217  0.9249575441074144
  0.0411244456899722  0.9556163816213388  0.3353800284450967
  0.5824463921860493  0.9507418305342584  0.8671774495782466
  0.2120264144721741  0.6970674186444801  0.0861900439517433
  0.0619178899839104  0.5917066204135707  0.7056475803264179
  0.0421868016511273  0.9632232197103974  0.6973175278795466
  0.4139367926146748  0.2731315765783641  0.4489806887471314
  0.1140364465297522  0.5772661281576994  0.3139092913810068
  0.9270113331763860  0.1907872382953539  0.7905158285813436
  0.8246466862829327  0.0581008225522241  0.7100162320414761
  0.1700552951382238  0.6294860222922010  0.5598468836618418
  0.4963464260307502  0.5436534850623451  0.7859268899690657
  0.9818829760224544  0.6012611682669355  0.5684555487449930
  0.0140491977202662  0.1751975285990369  0.3251166513333339
  0.1525031140486520  0.1301827224736471  0.7441161845693041
  0.3357183757948284  0.4590676141590890  0.3654855887682661
  0.6748137355204578  0.5270034304865552  0.7708133561731915
  0.5563154255082614  0.3221161986867873  0.3558248502901156
  0.1210709739135278  0.3313200664089048  0.3656557784489632
  0.0375403960787099  0.3224690375624861  0.0945586944627620
  0.2748655141829310  0.6202160473408769  0.1687019281660865
  0.4475221359299414  0.6944595611762540  0.9195984644062259
  0.8950725624530375  0.1366356063898358  0.5332237170065474
  0.9153771010986030  0.3935518809780312  0.1951040179955808
  0.7829199502114138  0.2542214925300692  0.2665285606892409
  0.6683398941320359  0.5656508222409156  0.0070844775313318
  0.7303878748594983  0.6511946709120401  0.4376247492244739
  0.2478939535350387  0.6296101478247431  0.3832339618093830
  0.8855417305095168 -0.0049436299512120  0.3991808124104431
  0.6148165349025433  0.9955464047495473  0.6633489842777709
  0.4722789693264822  0.0800427989235028  0.3440593514999037
  0.2771709601682132  0.8483363162508541  0.1799688263277509
  0.6174209221994771  0.3517059124547489  0.8115343062011561
  0.7636321716857235  0.3513201776681430  0.8214332904842362
  0.2471191922384254  0.3821013765694455  0.6629187536496371
  0.8009262995867675  0.2839480122745064  0.5206702064127302
  0.7377312660409531  0.3229593536254292  0.3683587158289152
  0.3301139082670179  0.0025245654228937  0.3183920854584243
  0.2195764368306407  0.0060036542939410  0.7414923345203497
  0.6429510481395211  0.0845845689000966  0.0903342328431113
  0.3435506862627937  0.4294931276610083  0.7799233194162470
  0.7750370541528382  0.5226537313590185  0.5545779439912272
  0.8502737066709276  0.5223364964411058  0.8251484107574785
  0.4607108537409982  0.5433836159035049  0.5172685381276744
  0.5921723544093912  0.4321122094103058  0.9307803233411414
  0.4275165020743228  0.9819619012303303  0.1889597740230247
  0.1008670918416645  0.2527320242480847  0.8069850698000151
  0.4930338318487708  0.6805491723146911  0.7913221352789863
  0.0951849061504531  0.6735435117123730  0.9447275108593086
  0.7075827662370837  0.1216472161880327  0.5603108682553963
  0.3448800911547582  0.2040154203267629  0.7695957940136103
  0.7570863747404173  0.7007960141692359  0.8564974282257996
  0.1329994505603181  0.4019615532982608  0.5357540595118020
  0.9549650394455741  0.6645598013770503  0.3826044540785777
  0.3558512467057673  0.0233938489294212  0.8496884712720505
  0.9755564175922588  0.4552639831744850  0.4503142603253259
  0.1288787964110566  0.7353615658234044  0.7190584696996910
  0.1131208224198115  0.8887019732618794  0.8079010849136695
  0.8345966280430064  0.8376769617911283  0.1521005538921009
  0.0416777507553706  0.0712726567769787  0.4624893297101442
  0.5481869651244977  0.2052700602567741  0.1131376679019044
  0.3466522355615104  0.3310370930233170  0.1682541904048314
  0.7912261568663649  0.9323963336348191  0.8801482979717499
  0.7080497908479759  0.2867194265947960  0.0029468153327790
  0.8394230083693128  0.8826608187718206  0.9973748514736060
  0.5228295060869942  0.2349779626319297  0.9173529407048957
  0.6928857521424449  0.2622592668995414  0.6845380581884407
  0.2646519810863381  0.4035583045485479  0.9778667591250424
  0.5421383245479977  0.8445826710849025  0.7785102541856251
  0.6183744683175756  0.6295088488726878  0.8996631472813743
  0.8476493718072353  0.4579548816322113  0.2890221521611701
  0.4490327733632908  0.5622543035620959  0.1690516687615255
  0.2710432608736565  0.6045052539314447  0.9156750751024231
  0.8432689911631008  0.6275135362338086  0.6909748829960596
  0.8789294109689261  0.7232895706385444  0.0977223695635093
  0.6951312438705201  0.4818287237937658  0.3758104355955790
  0.9871877613007597  0.5346507208495425  0.2953107982260563
 
  0.00000000E+00  0.00000000E+00  0.00000000E+00
  0.00000000E+00  0.00000000E+00  0.00000000E+00
  0.00000000E+00  0.00000000E+00  0.00000000E+00
  0.00000000E+00  0.00000000E+00  0.00000000E+00
  0.00000000E+00  0.00000000E+00  0.00000000E+00
  0.00000000E+00  0.00000000E+00  0.00000000E+00
  0.00000000E+00  0.00000000E+00  0.00000000E+00
  0.00000000E+00  0.00000000E+00  0.00000000E+00
  0.00000000E+00  0.00000000E+00  0.00000000E+00
  0.00000000E+00  0.00000000E+00  0.00000000E+00
  0.00000000E+00  0.00000000E+00  0.00000000E+00
  0.00000000E+00  0.00000000E+00  0.00000000E+00
  0.00000000E+00  0.00000000E+00  0.00000000E+00
  0.00000000E+00  0.00000000E+00  0.00000000E+00
  0.00000000E+00  0.00000000E+00  0.00000000E+00
  0.00000000E+00  0.00000000E+00  0.00000000E+00
  0.00000000E+00  0.00000000E+00  0.00000000E+00
  0.00000000E+00  0.00000000E+00  0.00000000E+00
  0.00000000E+00  0.00000000E+00  0.00000000E+00
  0.00000000E+00  0.00000000E+00  0.00000000E+00
  0.00000000E+00  0.00000000E+00  0.00000000E+00
  0.00000000E+00  0.00000000E+00  0.00000000E+00
  0.00000000E+00  0.00000000E+00  0.00000000E+00
  0.00000000E+00  0.00000000E+00  0.00000000E+00
  0.00000000E+00  0.00000000E+00  0.00000000E+00
  0.00000000E+00  0.00000000E+00  0.00000000E+00
  0.00000000E+00  0.00000000E+00  0.00000000E+00
  0.00000000E+00  0.00000000E+00  0.00000000E+00
  0.00000000E+00  0.00000000E+00  0.00000000E+00
  0.00000000E+00  0.00000000E+00  0.00000000E+00
  0.00000000E+00  0.00000000E+00  0.00000000E+00
  0.00000000E+00  0.00000000E+00  0.00000000E+00
  0.00000000E+00  0.00000000E+00  0.00000000E+00
  0.00000000E+00  0.00000000E+00  0.00000000E+00
  0.00000000E+00  0.00000000E+00  0.00000000E+00
  0.00000000E+00  0.00000000E+00  0.00000000E+00
  0.00000000E+00  0.00000000E+00  0.00000000E+00
  0.00000000E+00  0.00000000E+00  0.00000000E+00
  0.00000000E+00  0.00000000E+00  0.00000000E+00
  0.00000000E+00  0.00000000E+00  0.00000000E+00
  0.00000000E+00  0.00000000E+00  0.00000000E+00
  0.00000000E+00  0.00000000E+00  0.00000000E+00
  0.00000000E+00  0.00000000E+00  0.00000000E+00
  0.00000000E+00  0.00000000E+00  0.00000000E+00
  0.00000000E+00  0.00000000E+00  0.00000000E+00
  0.00000000E+00  0.00000000E+00  0.00000000E+00
  0.00000000E+00  0.00000000E+00  0.00000000E+00
  0.00000000E+00  0.00000000E+00  0.00000000E+00
  0.00000000E+00  0.00000000E+00  0.00000000E+00
  0.00000000E+00  0.00000000E+00  0.00000000E+00
  0.00000000E+00  0.00000000E+00  0.00000000E+00
  0.00000000E+00  0.00000000E+00  0.00000000E+00
  0.00000000E+00  0.00000000E+00  0.00000000E+00
  0.00000000E+00  0.00000000E+00  0.00000000E+00
  0.00000000E+00  0.00000000E+00  0.00000000E+00
  0.00000000E+00  0.00000000E+00  0.00000000E+00
  0.00000000E+00  0.00000000E+00  0.00000000E+00
  0.00000000E+00  0.00000000E+00  0.00000000E+00
  0.00000000E+00  0.00000000E+00  0.00000000E+00
  0.00000000E+00  0.00000000E+00  0.00000000E+00
  0.00000000E+00  0.00000000E+00  0.00000000E+00
  0.00000000E+00  0.00000000E+00  0.00000000E+00
  0.00000000E+00  0.00000000E+00  0.00000000E+00
  0.00000000E+00  0.00000000E+00  0.00000000E+00
  0.00000000E+00  0.00000000E+00  0.00000000E+00
  0.00000000E+00  0.00000000E+00  0.00000000E+00
  0.00000000E+00  0.00000000E+00  0.00000000E+00
  0.00000000E+00  0.00000000E+00  0.00000000E+00
  0.00000000E+00  0.00000000E+00  0.00000000E+00
  0.00000000E+00  0.00000000E+00  0.00000000E+00
  0.00000000E+00  0.00000000E+00  0.00000000E+00
  0.00000000E+00  0.00000000E+00  0.00000000E+00
  0.00000000E+00  0.00000000E+00  0.00000000E+00
  0.00000000E+00  0.00000000E+00  0.00000000E+00
  0.00000000E+00  0.00000000E+00  0.00000000E+00
  0.00000000E+00  0.00000000E+00  0.00000000E+00
  0.00000000E+00  0.00000000E+00  0.00000000E+00
  0.00000000E+00  0.00000000E+00  0.00000000E+00
  0.00000000E+00  0.00000000E+00  0.00000000E+00
  0.00000000E+00  0.00000000E+00  0.00000000E+00
  0.00000000E+00  0.00000000E+00  0.00000000E+00
  0.00000000E+00  0.00000000E+00  0.00000000E+00
  0.00000000E+00  0.00000000E+00  0.00000000E+00
  0.00000000E+00  0.00000000E+00  0.00000000E+00
  0.00000000E+00  0.00000000E+00  0.00000000E+00
  0.00000000E+00  0.00000000E+00  0.00000000E+00
  0.00000000E+00  0.00000000E+00  0.00000000E+00
  0.00000000E+00  0.00000000E+00  0.00000000E+00
  0.00000000E+00  0.00000000E+00  0.00000000E+00
  0.00000000E+00  0.00000000E+00  0.00000000E+00
  0.00000000E+00  0.00000000E+00  0.00000000E+00
  0.00000000E+00  0.00000000E+00  0.00000000E+00
  0.00000000E+00  0.00000000E+00  0.00000000E+00
  0.00000000E+00  0.00000000E+00  0.00000000E+00
  0.00000000E+00  0.00000000E+00  0.00000000E+00
  0.00000000E+00  0.00000000E+00  0.00000000E+00
  0.00000000E+00  0.00000000E+00  0.00000000E+00
  0.00000000E+00  0.00000000E+00  0.00000000E+00
  0.00000000E+00  0.00000000E+00  0.00000000E+00
  0.00000000E+00  0.00000000E+00  0.00000000E+00
  0.00000000E+00  0.00000000E+00  0.00000000E+00
  0.00000000E+00  0.00000000E+00  0.00000000E+00
  0.00000000E+00  0.00000000E+00  0.00000000E+00
  0.00000000E+00  0.00000000E+00  0.00000000E+00
  0.00000000E+00  0.00000000E+00  0.00000000E+00
  0.00000000E+00  0.00000000E+00  0.00000000E+00
  0.00000000E+00  0.00000000E+00  0.00000000E+00
  0.00000000E+00  0.00000000E+00  0.00000000E+00
  0.00000000E+00  0.00000000E+00  0.00000000E+00
  0.00000000E+00  0.00000000E+00  0.00000000E+00
  0.00000000E+00  0.00000000E+00  0.00000000E+00
  0.00000000E+00  0.00000000E+00  0.00000000E+00
  0.00000000E+00  0.00000000E+00  0.00000000E+00
  0.00000000E+00  0.00000000E+00  0.00000000E+00
  0.00000000E+00  0.00000000E+00  0.00000000E+00
  0.00000000E+00  0.00000000E+00  0.00000000E+00
  0.00000000E+00  0.00000000E+00  0.00000000E+00
  0.00000000E+00  0.00000000E+00  0.00000000E+00
  0.00000000E+00  0.00000000E+00  0.00000000E+00
  0.00000000E+00  0.00000000E+00  0.00000000E+00
  0.00000000E+00  0.00000000E+00  0.00000000E+00
  0.00000000E+00  0.00000000E+00  0.00000000E+00
  0.00000000E+00  0.00000000E+00  0.00000000E+00
  0.00000000E+00  0.00000000E+00  0.00000000E+00
  0.00000000E+00  0.00000000E+00  0.00000000E+00
  0.00000000E+00  0.00000000E+00  0.00000000E+00
  0.00000000E+00  0.00000000E+00  0.00000000E+00
  0.00000000E+00  0.00000000E+00  0.00000000E+00
  0.00000000E+00  0.00000000E+00  0.00000000E+00
  0.00000000E+00  0.00000000E+00  0.00000000E+00
  0.00000000E+00  0.00000000E+00  0.00000000E+00
  0.00000000E+00  0.00000000E+00  0.00000000E+00
  0.00000000E+00  0.00000000E+00  0.00000000E+00
  0.00000000E+00  0.00000000E+00  0.00000000E+00
  0.00000000E+00  0.00000000E+00  0.00000000E+00
  0.00000000E+00  0.00000000E+00  0.00000000E+00
  0.00000000E+00  0.00000000E+00  0.00000000E+00
  0.00000000E+00  0.00000000E+00  0.00000000E+00
  0.00000000E+00  0.00000000E+00  0.00000000E+00
  0.00000000E+00  0.00000000E+00  0.00000000E+00
  0.00000000E+00  0.00000000E+00  0.00000000E+00
  0.00000000E+00  0.00000000E+00  0.00000000E+00
  0.00000000E+00  0.00000000E+00  0.00000000E+00
  0.00000000E+00  0.00000000E+00  0.00000000E+00
  0.00000000E+00  0.00000000E+00  0.00000000E+00
  0.00000000E+00  0.00000000E+00  0.00000000E+00
  0.00000000E+00  0.00000000E+00  0.00000000E+00
  0.00000000E+00  0.00000000E+00  0.00000000E+00
  0.00000000E+00  0.00000000E+00  0.00000000E+00
  0.00000000E+00  0.00000000E+00  0.00000000E+00
  0.00000000E+00  0.00000000E+00  0.00000000E+00
  0.00000000E+00  0.00000000E+00  0.00000000E+00
  0.00000000E+00  0.00000000E+00  0.00000000E+00
  0.00000000E+00  0.00000000E+00  0.00000000E+00
  0.00000000E+00  0.00000000E+00  0.00000000E+00
  0.00000000E+00  0.00000000E+00  0.00000000E+00
  0.00000000E+00  0.00000000E+00  0.00000000E+00
  0.00000000E+00  0.00000000E+00  0.00000000E+00
  0.00000000E+00  0.00000000E+00  0.00000000E+00
  0.00000000E+00  0.00000000E+00  0.00000000E+00
  0.00000000E+00  0.00000000E+00  0.00000000E+00
  0.00000000E+00  0.00000000E+00  0.00000000E+00
  0.00000000E+00  0.00000000E+00  0.00000000E+00
  0.00000000E+00  0.00000000E+00  0.00000000E+00
  0.00000000E+00  0.00000000E+00  0.00000000E+00
  0.00000000E+00  0.00000000E+00  0.00000000E+00
  0.00000000E+00  0.00000000E+00  0.00000000E+00
  0.00000000E+00  0.00000000E+00  0.00000000E+00
  0.00000000E+00  0.00000000E+00  0.00000000E+00
  0.00000000E+00  0.00000000E+00  0.00000000E+00
  0.00000000E+00  0.00000000E+00  0.00000000E+00
  0.00000000E+00  0.00000000E+00  0.00000000E+00
  0.00000000E+00  0.00000000E+00  0.00000000E+00
  0.00000000E+00  0.00000000E+00  0.00000000E+00
  0.00000000E+00  0.00000000E+00  0.00000000E+00
  0.00000000E+00  0.00000000E+00  0.00000000E+00
  0.00000000E+00  0.00000000E+00  0.00000000E+00
  0.00000000E+00  0.00000000E+00  0.00000000E+00
  0.00000000E+00  0.00000000E+00  0.00000000E+00
  0.00000000E+00  0.00000000E+00  0.00000000E+00
  0.00000000E+00  0.00000000E+00  0.00000000E+00
  0.00000000E+00  0.00000000E+00  0.00000000E+00
  0.00000000E+00  0.00000000E+00  0.00000000E+00
  0.00000000E+00  0.00000000E+00  0.00000000E+00
  0.00000000E+00  0.00000000E+00  0.00000000E+00
  0.00000000E+00  0.00000000E+00  0.00000000E+00
  0.00000000E+00  0.00000000E+00  0.00000000E+00
  0.00000000E+00  0.00000000E+00  0.00000000E+00
  0.00000000E+00  0.00000000E+00  0.00000000E+00
  0.00000000E+00  0.00000000E+00  0.00000000E+00
  0.00000000E+00  0.00000000E+00  0.00000000E+00
  0.00000000E+00  0.00000000E+00  0.00000000E+00
  0.00000000E+00  0.00000000E+00  0.00000000E+00
  0.00000000E+00  0.00000000E+00  0.00000000E+00
  0.00000000E+00  0.00000000E+00  0.00000000E+00
  0.00000000E+00  0.00000000E+00  0.00000000E+00
  0.00000000E+00  0.00000000E+00  0.00000000E+00
  0.00000000E+00  0.00000000E+00  0.00000000E+00
  0.00000000E+00  0.00000000E+00  0.00000000E+00
  0.00000000E+00  0.00000000E+00  0.00000000E+00
  0.00000000E+00  0.00000000E+00  0.00000000E+00
  0.00000000E+00  0.00000000E+00  0.00000000E+00
  0.00000000E+00  0.00000000E+00  0.00000000E+00
  0.00000000E+00  0.00000000E+00  0.00000000E+00
  0.00000000E+00  0.00000000E+00  0.00000000E+00
  0.00000000E+00  0.00000000E+00  0.00000000E+00
  0.00000000E+00  0.00000000E+00  0.00000000E+00
  0.00000000E+00  0.00000000E+00  0.00000000E+00
  0.00000000E+00  0.00000000E+00  0.00000000E+00
  0.00000000E+00  0.00000000E+00  0.00000000E+00
  0.00000000E+00  0.00000000E+00  0.00000000E+00
  0.00000000E+00  0.00000000E+00  0.00000000E+00
  0.00000000E+00  0.00000000E+00  0.00000000E+00
  0.00000000E+00  0.00000000E+00  0.00000000E+00
  0.00000000E+00  0.00000000E+00  0.00000000E+00
  0.00000000E+00  0.00000000E+00  0.00000000E+00
  0.00000000E+00  0.00000000E+00  0.00000000E+00
  0.00000000E+00  0.00000000E+00  0.00000000E+00
  0.00000000E+00  0.00000000E+00  0.00000000E+00
  0.00000000E+00  0.00000000E+00  0.00000000E+00
  0.00000000E+00  0.00000000E+00  0.00000000E+00
  0.00000000E+00  0.00000000E+00  0.00000000E+00
  0.00000000E+00  0.00000000E+00  0.00000000E+00
  0.00000000E+00  0.00000000E+00  0.00000000E+00
  0.00000000E+00  0.00000000E+00  0.00000000E+00
  0.00000000E+00  0.00000000E+00  0.00000000E+00
  0.00000000E+00  0.00000000E+00  0.00000000E+00
  0.00000000E+00  0.00000000E+00  0.00000000E+00
  0.00000000E+00  0.00000000E+00  0.00000000E+00
  0.00000000E+00  0.00000000E+00  0.00000000E+00
  0.00000000E+00  0.00000000E+00  0.00000000E+00
  0.00000000E+00  0.00000000E+00  0.00000000E+00