Amorphous Sb                            
   1.00000000000000     
    18.3344780118421369    0.0000000000000000    0.0000000000000000
     0.0000000000000000   18.3344780118421369    0.0000000000000000
     0.0000000000000000    0.0000000000000000   18.3344780118421369
   Si
   300
Direct
  0.8580671799999990  0.4087515300000035  0.8225075699999991
  0.0373153959999968  0.1570758000000012  0.8637044099999969
  0.5213061800000034  0.1997086200000027  0.9925812600000015
  0.7432396000000026  0.9097014000000030  0.8811352099999965
  0.5566259599999981  0.9939404865000014  0.8770124400000014
  0.7568796500000019  0.9947776651000027  0.6757869400000018
  0.6440993399999968  0.1256015000000019  0.7370736100000030
  0.6426222999999993  0.4822904600000015  0.0961232809999970
  0.5294894600000006  0.2554974399999992  0.6936672300000026
  0.0407083939999993  0.3796046599999983  0.2784326900000025
  0.6989285900000013  0.6891645099999977  0.3230487000000011
  0.2035710700000024  0.3680724199999972  0.7524943299999975
  0.3605872500000018  0.0004755438500013  0.6536756400000030
  0.2408930799999993  0.5338893099999993  0.4985971699999965
  0.6661004500000018  0.8198896099999970  0.6012307299999975
  0.0883475110000020  0.6310824999999980  0.7559238099999988
  0.1539092699999998  0.1502802099999982  0.7479454099999998
  0.6480411100000012  0.9262677999999980  0.5272092700000002
  0.2454926099999994  0.5087943400000015  0.8962632200000016
  0.1402010600000025  0.7406545699999967  0.4154867199999970
  0.9335112799999976  0.3711914599999986  0.4418620699999991
  0.8523234000000031  0.5326630300000019  0.4668047299999998
  0.7390669400000007  0.4595938599999982  0.7882587000000001
  0.3362349499999979  0.7437341600000025  0.6456760399999979
  0.5000586800000022  0.1244982799999974  0.0980108130000019
  0.5920501700000003  0.9235023499999997  0.1555309299999976
  0.2475290400000034  0.2115696299999996  0.9610513800000007
  0.8523724799999997  0.6702354700000015  0.4212049799999988
  0.3423042900000013  0.3513296900000000  0.8719264300000020
  0.3413550100000009  0.3743203399999970  0.4933263799999992
  0.9746499299999982  0.7892619900000000  0.5392891600000027
  0.4506720999999985  0.1576957600000028  0.8921650999999997
  0.5751163500000018  0.8863968699999987  0.0324093420000011
  0.2536234900000025  0.1009664999999984  0.4779830200000035
  0.9857479200000014  0.5791312500000032  0.9095860600000023
  0.8525763100000034  0.2023690199999990  0.9675948100000014
  0.6750552499999998  0.1884720999999985  0.5513889300000017
  0.1484329700000018  0.6223314900000005  0.1884745699999968
  0.7230170599999965  0.9112826799999993  0.1325530900000018
  0.9352057600000023  0.2351012100000034  0.8704124899999997
  0.0083500313999991  0.8536664700000003  0.3264921099999967
  0.7222451000000021  0.6475944900000030  0.9243376900000015
  0.2952906100000021  0.4472044199999985  0.7929965599999989
  0.9716565399999979  0.3499360200000012  0.1746344000000022
  0.5297975200000025  0.3627028599999989  0.3775896100000011
  0.5942841199999975  0.3648262099999968  0.0878489329999965
  0.4894587200000018  0.3213188200000019  0.0230592039999991
  0.4169781499999985  0.5960871999999995  0.9433287900000025
  0.7867925500000013  0.3575367299999996  0.1792348999999973
  0.3374880499999975  0.6165922799999990  0.4397685699999982
  0.3514701300000027  0.3958739600000030  0.3402106200000006
  0.9267535400000000  0.0090618425999978  0.2171339499999974
  0.8596234500000008  0.9818387799999968  0.0050943029999999
  0.3764315199999970  0.7135854300000020  0.9730456899999993
  0.0513259479999988  0.2519177499999969  0.0219271309999982
  0.7476618299999984  0.5854509500000020  0.3940732499999982
  0.0212355950000003  0.2997519600000018  0.3794733699999995
  0.6528699599999968  0.5884501000000029  0.5963531100000026
  0.3436035599999983  0.1997405700000030  0.7297673599999968
  0.2485218400000022  0.3604009299999973  0.6371334500000003
  0.8986868000000001  0.6738065799999973  0.3012748900000020
  0.2393861299999998  0.7809740900000008  0.4890821500000015
  0.0833005630000017  0.3637771400000034  0.8902606999999989
  0.2568283700000009  0.7063915900000026  0.8093740300000007
  0.4541292700000028  0.3953792399999969  0.9203053399999988
  0.0776157439999992  0.6398218499999970  0.4669710399999971
  0.0574264810000003  0.9105214799999999  0.0655017839999985
  0.9550682499999965  0.4918181099999970  0.4024186199999988
  0.9496828099999988  0.1247581900000014  0.4568556500000014
  0.6995591200000035  0.5230536400000005  0.8948682400000010
  0.7301592099999965  0.4602366399999980  0.0015894265999989
  0.4332606999999982  0.2947238499999969  0.3265803899999966
  0.3839063799999991  0.6789418700000027  0.3259024999999980
  0.3591877300000021  0.4871768599999982  0.9567761699999977
  0.6111079000000004  0.1217954800000030  0.2882535299999986
  0.2971311299999968  0.9048658099999969  0.0674845859999991
  0.2645433799999992  0.6649923700000002  0.0194383879999975
  0.8184888199999989  0.9298965199999998  0.3544404700000001
  0.7495084000000034  0.7512051799999995  0.5273330099999995
  0.7085176200000021  0.2092410400000020  0.2815346800000000
  0.6974570499999970  0.0275067520000007  0.2774367800000022
  0.2122242000000014  0.7736091900000019  0.6189017199999967
  0.8762199600000002  0.2628064299999977  0.1909177100000008
  0.3824422699999985  0.1616143399999999  0.1277295000000009
  0.9147509399999976  0.5027710700000014  0.7556827499999983
  0.8132525299999998  0.6853149499999986  0.8426805499999972
  0.0211769889999971  0.7616447999999991  0.9324407100000016
  0.4587491999999997  0.7357255000000009  0.0699156470000020
  0.8894352800000007  0.7369361499999982  0.9393054700000008
  0.6680158799999987  0.7532155800000027  0.4286918600000007
  0.6329670599999986  0.3895230800000036  0.8263831299999964
  0.3554008300000007  0.7263574899999981  0.5089250500000020
  0.1353057399999997  0.8694100299999974  0.6599141700000004
  0.9614562599999985  0.8795885600000020  0.8984832000000011
  0.5458010500000015  0.6586277299999992  0.5863367600000018
  0.7098945299999997  0.2952670399999988  0.3761340200000021
  0.6319447199999999  0.6882548800000023  0.1112137799999999
  0.3050012799999990  0.4603710000000021  0.5826142100000027
  0.5765035200000028  0.7599994999999993  0.0186504950000028
  0.7946057199999998  0.7218080999999970  0.2418992300000014
  0.4661470300000019  0.5550956399999976  0.5923154700000026
  0.4405934799999969  0.0296544240000003  0.9199580900000015
  0.0636630229999966  0.0768746890000003  0.6594958700000007
  0.8427700700000003  0.5665648800000014  0.5911646500000032
  0.4257234800000020  0.1083480599999973  0.6868756499999975
  0.4932955000000021  0.8591556499999982  0.6935762399999987
  0.0510936510000022  0.2079037800000023  0.6277252300000029
  0.9021828699999972  0.8948230299999977  0.2677940100000029
  0.1859046200000023  0.9171001099999998  0.7683902300000014
  0.2070793800000033  0.2516476200000000  0.8066492100000033
  0.7718652599999984  0.2350801600000025  0.4757689200000002
  0.4494651199999993  0.7592365100000009  0.4168640899999971
  0.5380520499999975  0.8330913699999982  0.2338797299999982
  0.0047441111999973  0.5027333000000027  0.2740211400000021
  0.3836146800000009  0.8202968800000008  0.7433936299999999
  0.0359643629999979  0.1633527299999997  0.3718740500000024
  0.1274021199999993  0.2363436400000012  0.9150867700000020
  0.2697647600000010  0.1372004199999992  0.0689204889999999
  0.6926167000000021  0.2040964299999999  0.1511793000000026
  0.7661944500000004  0.0463600140000011  0.3830904100000012
  0.9591762000000017  0.6104005099999981  0.6108120999999969
  0.2114790099999979  0.6332344300000017  0.9058141599999985
  0.6524489999999972  0.9578530100000009  0.9606780200000031
  0.4689594499999998  0.9844569600000028  0.3818869799999973
  0.5690699800000019  0.7589261099999973  0.6648428800000019
  0.8108307600000018  0.0648258659999996  0.2244135600000021
  0.5669177300000001  0.5824912100000006  0.0736178710000033
  0.7004174400000025  0.9046362799999983  0.3166733799999975
  0.5578868999999997  0.4774855300000027  0.8847599799999983
  0.5767177600000011  0.5473052299999992  0.2781662499999982
  0.3351894099999981  0.7773114199999966  0.2399318000000008
  0.5698871700000012  0.1900689400000033  0.1859332499999979
  0.8397738800000027  0.8640464799999990  0.9529624899999973
  0.8331036100000020  0.1781225200000023  0.2813794099999996
  0.4106049999999968  0.9363963699999971  0.1226846799999990
  0.6273684900000021  0.8721036100000035  0.4139286899999988
  0.0430595289999971  0.5088209700000021  0.7352588199999985
  0.1875395400000031  0.3084168299999988  0.1575617499999993
  0.0873568180000035  0.1023791799999998  0.1633703299999993
  0.5732546200000002  0.9302901000000006  0.7669144500000016
  0.1291782600000033  0.2478305599999970  0.5332248200000009
  0.4256559199999970  0.1683424900000006  0.3494863600000002
  0.5685953899999987  0.3229615300000006  0.2030886499999980
  0.8829573599999989  0.1824313899999979  0.0889676460000004
  0.3344868100000014  0.2212936399999990  0.8595388099999965
  0.6470052700000011  0.4007011599999970  0.6148089900000002
  0.1387275299999970  0.9844204899999980  0.5901518100000018
  0.5627981399999982  0.1274178000000035  0.5180214800000016
  0.0300716539999968  0.0707097849999982  0.2741848000000005
  0.2282550700000030  0.3716920399999992  0.3584257400000013
  0.6267899400000019  0.7295998999999966  0.7808610700000003
  0.0105909520000012  0.3170039700000018  0.6881997999999996
  0.5303576000000021  0.1022418399999978  0.3913475599999998
  0.0108298629999979  0.7355298299999973  0.2723254200000014
  0.6108691000000022  0.3047570600000000  0.4611910799999990
  0.7328197599999982  0.3929720300000028  0.2951204299999972
  0.3964380700000021  0.2903067800000017  0.1124039700000026
  0.0062412222999981  0.1401647900000000  0.0707074860000034
  0.4469398900000030  0.3483871899999968  0.2123967599999972
  0.8766878100000000  0.1222803599999978  0.6273245699999990
  0.9961603499999967  0.3928793899999974  0.5764304799999991
  0.9639495199999999  0.0011616008000033  0.4920783900000032
  0.6358206000000024  0.1927306400000006  0.9367049199999968
  0.1892755499999978  0.9230799300000001  0.2341699400000010
  0.9448068000000021  0.2051768500000009  0.5556302299999984
  0.5632747000000009  0.0096834970999993  0.5735705499999995
  0.7581434200000032  0.6565509300000016  0.6142488799999981
  0.1119615200000013  0.4663688699999966  0.0786326130000035
  0.6491118000000000  0.2758340700000019  0.6481775700000014
  0.7590351300000009  0.0934929229999995  0.5915002699999974
  0.2899195700000021  0.3549711499999972  0.0933405239999985
  0.4517987799999972  0.6159485000000018  0.1211483299999969
  0.1777123600000010  0.7206419099999977  0.1013039500000019
  0.8897296900000029  0.5527082199999995  0.2328721900000019
  0.2741268099999985  0.0061822699000018  0.4000753700000033
  0.8237878999999992  0.4695879399999967  0.6694146500000002
  0.1541642800000034  0.0347166540000003  0.8100337899999985
  0.3785134700000015  0.2568634599999982  0.5395492700000020
  0.0857163229999998  0.6573063900000022  0.8839952800000006
  0.5389335400000022  0.4921453299999996  0.7559094100000010
  0.0294625370000006  0.0535284099999984  0.7861043600000031
  0.0833377290000001  0.3578654499999985  0.4828850000000031
  0.2163367100000002  0.0014084700000012  0.9181755500000008
  0.0584406939999980  0.9498331500000035  0.9445388700000024
  0.3659818499999972  0.3132880900000004  0.6677892900000018
  0.5116262900000024  0.1512780600000028  0.7730084599999998
  0.0446899709999968  0.5547007600000029  0.1499215199999995
  0.8026876500000029  0.9930048972000023  0.7973802100000000
  0.1483157799999972  0.1689159599999996  0.4367214000000033
  0.1624470300000027  0.4532480100000029  0.4324496699999969
  0.4324305199999969  0.8178169500000010  0.1663833699999984
  0.1906583199999972  0.1802184900000015  0.1634732099999994
  0.2483943100000019  0.2509748299999970  0.5754490200000006
  0.0212646430000021  0.0743021580000018  0.9597976900000020
  0.2402208399999992  0.8200815900000009  0.1566845199999989
  0.4469604499999988  0.5539515500000007  0.4645753799999994
  0.2438177800000005  0.1576445500000005  0.2763125800000026
  0.7878488599999969  0.8152789999999968  0.0649468800000008
  0.1409807000000001  0.5833656599999983  0.5641392599999975
  0.2302843000000010  0.0148021340000000  0.0460929850000014
  0.9386722300000017  0.6229676299999980  0.1278351500000028
  0.2348169300000009  0.2420067899999978  0.3751787500000034
  0.8872093800000016  0.8370893499999994  0.1493552900000026
  0.5121640699999972  0.3483803900000026  0.7888857100000024
  0.5439506399999985  0.5887945200000004  0.9471601300000003
  0.0842701110000021  0.9578558099999981  0.4643636999999998
  0.1132440700000004  0.6637402599999973  0.3092090499999998
  0.6292422200000019  0.0093430269999999  0.6840134999999989
  0.7509230599999981  0.0017037830999982  0.5023897199999965
  0.2439432199999985  0.1564285899999973  0.6605348100000015
  0.4170292599999996  0.9053033599999978  0.4723865400000022
  0.9823213600000003  0.6877917199999999  0.7128382200000019
  0.3028184499999966  0.8848334099999988  0.3042794300000011
  0.3659127999999967  0.5189951600000029  0.6816024000000027
  0.3357230900000019  0.1914232499999997  0.4382527599999975
  0.0417125720000016  0.5115722899999966  0.6069896799999981
  0.2581223500000007  0.3434876600000010  0.9721988800000005
  0.3452117400000034  0.5695524799999987  0.0629852380000031
  0.9034625500000004  0.6048502399999975  0.0069536441000011
  0.9780074600000006  0.7433050200000011  0.1470633599999971
  0.3483086499999999  0.8754597200000021  0.9470552399999974
  0.8516976499999984  0.4893604900000028  0.0308972830000016
  0.7780165200000013  0.5127358599999994  0.2929241499999975
  0.6036754300000027  0.6943531000000007  0.9060099300000033
  0.4851508599999974  0.3426682400000018  0.5100564700000021
  0.7471077599999987  0.7061211299999997  0.7347862000000021
  0.9789966199999967  0.3236528999999990  0.9478644300000028
  0.9146545999999987  0.6194905799999972  0.8073719100000005
  0.3940734199999980  0.4656152100000028  0.2372205699999981
  0.1635423299999985  0.4338242899999969  0.9608456799999985
  0.0789501289999990  0.3442327100000000  0.1022750899999991
  0.1629116699999997  0.8838553300000029  0.8945874599999968
  0.0795670859999973  0.5436978700000026  0.3773125000000022
  0.6041931700000021  0.4157849799999980  0.2861087100000006
  0.8373244599999978  0.1503351400000028  0.4047311899999997
  0.2546569399999967  0.0468710860000030  0.5942728699999975
  0.7412887899999987  0.0304855620000026  0.0224552560000006
  0.4527368199999984  0.5846815499999991  0.2477792600000015
  0.1369581800000006  0.9870645700000011  0.1310533300000003
  0.8347673399999991  0.1963589100000007  0.7250758500000032
  0.3671837099999991  0.9985676736000002  0.3069450799999984
  0.8814878600000000  0.4439617299999981  0.1502599299999972
  0.3028168399999984  0.6351114100000004  0.7106008599999996
  0.5565794700000026  0.6974554999999967  0.4611965100000006
  0.2062528000000015  0.0358988440000019  0.2992805399999980
  0.3108228299999993  0.4724630500000018  0.1405867599999979
  0.6151268400000021  0.7326953900000035  0.2311567200000013
  0.6913965800000028  0.2848876099999984  0.8703877800000015
  0.3634050799999997  0.1160314999999983  0.2500068599999992
  0.6110163600000007  0.1032732999999979  0.8521807699999968
  0.0659266119999984  0.7790525200000005  0.0577247980000024
  0.9388211300000009  0.9476789400000030  0.1023846699999993
  0.0510342589999979  0.8342546000000013  0.4464333100000033
  0.8760374000000013  0.3941824899999986  0.9500419000000022
  0.3143805599999965  0.9290403299999994  0.7534987800000010
  0.8093281000000019  0.4073635000000024  0.4650182500000000
  0.8524935100000022  0.8273423500000021  0.5394497400000020
  0.3342341399999995  0.9774810199999990  0.8716427100000033
  0.6583010399999978  0.5360106899999977  0.4763599899999988
  0.7419772000000009  0.8277246199999979  0.7024246800000000
  0.3515430400000028  0.7752703000000025  0.8634458599999988
  0.5135145499999965  0.8657794200000026  0.3580090800000022
  0.4354854500000016  0.4360143500000007  0.4279478400000016
  0.8554357000000010  0.9329414700000029  0.4733543999999981
  0.9559714399999990  0.0189348910000007  0.6190420799999998
  0.4470115299999975  0.4141404499999979  0.6949938500000030
  0.7752393000000026  0.1133244399999995  0.1142233099999999
  0.5006713200000021  0.0185978820000017  0.1766424099999995
  0.1928249899999983  0.4985427800000011  0.1766371699999993
  0.7152534100000025  0.2323602399999984  0.7488547600000004
  0.7127895599999974  0.8193607299999996  0.2228181400000011
  0.7500902700000012  0.6467926199999994  0.1454147600000013
  0.0818017699999984  0.3919135699999998  0.7665248099999999
  0.5230969500000029  0.4354753300000027  0.5926435800000007
  0.5604309000000001  0.5808417399999968  0.4060594999999978
  0.6667005199999991  0.8503632400000001  0.7991912100000036
  0.8970158699999971  0.0812054230000001  0.9338907400000025
  0.9582261500000016  0.6703337499999975  0.4992166899999972
  0.9035128299999968  0.2984094400000004  0.7625770799999998
  0.6895395100000030  0.5446003699999977  0.2021864900000026
  0.7493281499999966  0.1319060200000024  0.9400673700000013
  0.0167926339999980  0.8092810200000002  0.6604946799999993
  0.4577844700000000  0.9365252300000009  0.5939773500000030
  0.2936897700000003  0.8857444100000009  0.4348879900000000
  0.7100377100000017  0.3107301900000010  0.0840657979999975
  0.1808621500000029  0.6539798499999989  0.6663063600000001
  0.0915758710000034  0.9628864900000025  0.3254605899999987
  0.7908818800000006  0.6828979900000007  0.0283546989999977
  0.9460510799999966  0.9118424199999993  0.6889373100000000
  0.6550032000000030  0.4993698700000024  0.6937386399999994
  0.8300456500000024  0.8928316100000018  0.6456953699999985
  0.8345039399999976  0.2644086000000030  0.5869070899999969
  0.6809846900000025  0.4104059599999985  0.4924086099999982
  0.8202603299999964  0.1123357900000030  0.8332392800000008
  0.4731128499999997  0.1872413700000024  0.5944049699999994
  0.4553919000000022  0.9277867899999990  0.0036475531000022
  0.7645016499999997  0.3327654599999974  0.9697448300000033
  0.8645241099999978  0.3887285500000033  0.5799828199999979
  0.1659698100000000  0.3930361299999987  0.2503837200000021
  0.9319731399999966  0.9630099500000000  0.8033993399999986
 
  0.00000000E+00  0.00000000E+00  0.00000000E+00
  0.00000000E+00  0.00000000E+00  0.00000000E+00
  0.00000000E+00  0.00000000E+00  0.00000000E+00
  0.00000000E+00  0.00000000E+00  0.00000000E+00
  0.00000000E+00  0.00000000E+00  0.00000000E+00
  0.00000000E+00  0.00000000E+00  0.00000000E+00
  0.00000000E+00  0.00000000E+00  0.00000000E+00
  0.00000000E+00  0.00000000E+00  0.00000000E+00
  0.00000000E+00  0.00000000E+00  0.00000000E+00
  0.00000000E+00  0.00000000E+00  0.00000000E+00
  0.00000000E+00  0.00000000E+00  0.00000000E+00
  0.00000000E+00  0.00000000E+00  0.00000000E+00
  0.00000000E+00  0.00000000E+00  0.00000000E+00
  0.00000000E+00  0.00000000E+00  0.00000000E+00
  0.00000000E+00  0.00000000E+00  0.00000000E+00
  0.00000000E+00  0.00000000E+00  0.00000000E+00
  0.00000000E+00  0.00000000E+00  0.00000000E+00
  0.00000000E+00  0.00000000E+00  0.00000000E+00
  0.00000000E+00  0.00000000E+00  0.00000000E+00
  0.00000000E+00  0.00000000E+00  0.00000000E+00
  0.00000000E+00  0.00000000E+00  0.00000000E+00
  0.00000000E+00  0.00000000E+00  0.00000000E+00
  0.00000000E+00  0.00000000E+00  0.00000000E+00
  0.00000000E+00  0.00000000E+00  0.00000000E+00
  0.00000000E+00  0.00000000E+00  0.00000000E+00
  0.00000000E+00  0.00000000E+00  0.00000000E+00
  0.00000000E+00  0.00000000E+00  0.00000000E+00
  0.00000000E+00  0.00000000E+00  0.00000000E+00
  0.00000000E+00  0.00000000E+00  0.00000000E+00
  0.00000000E+00  0.00000000E+00  0.00000000E+00
  0.00000000E+00  0.00000000E+00  0.00000000E+00
  0.00000000E+00  0.00000000E+00  0.00000000E+00
  0.00000000E+00  0.00000000E+00  0.00000000E+00
  0.00000000E+00  0.00000000E+00  0.00000000E+00
  0.00000000E+00  0.00000000E+00  0.00000000E+00
  0.00000000E+00  0.00000000E+00  0.00000000E+00
  0.00000000E+00  0.00000000E+00  0.00000000E+00
  0.00000000E+00  0.00000000E+00  0.00000000E+00
  0.00000000E+00  0.00000000E+00  0.00000000E+00
  0.00000000E+00  0.00000000E+00  0.00000000E+00
  0.00000000E+00  0.00000000E+00  0.00000000E+00
  0.00000000E+00  0.00000000E+00  0.00000000E+00
  0.00000000E+00  0.00000000E+00  0.00000000E+00
  0.00000000E+00  0.00000000E+00  0.00000000E+00
  0.00000000E+00  0.00000000E+00  0.00000000E+00
  0.00000000E+00  0.00000000E+00  0.00000000E+00
  0.00000000E+00  0.00000000E+00  0.00000000E+00
  0.00000000E+00  0.00000000E+00  0.00000000E+00
  0.00000000E+00  0.00000000E+00  0.00000000E+00
  0.00000000E+00  0.00000000E+00  0.00000000E+00
  0.00000000E+00  0.00000000E+00  0.00000000E+00
  0.00000000E+00  0.00000000E+00  0.00000000E+00
  0.00000000E+00  0.00000000E+00  0.00000000E+00
  0.00000000E+00  0.00000000E+00  0.00000000E+00
  0.00000000E+00  0.00000000E+00  0.00000000E+00
  0.00000000E+00  0.00000000E+00  0.00000000E+00
  0.00000000E+00  0.00000000E+00  0.00000000E+00
  0.00000000E+00  0.00000000E+00  0.00000000E+00
  0.00000000E+00  0.00000000E+00  0.00000000E+00
  0.00000000E+00  0.00000000E+00  0.00000000E+00
  0.00000000E+00  0.00000000E+00  0.00000000E+00
  0.00000000E+00  0.00000000E+00  0.00000000E+00
  0.00000000E+00  0.00000000E+00  0.00000000E+00
  0.00000000E+00  0.00000000E+00  0.00000000E+00
  0.00000000E+00  0.00000000E+00  0.00000000E+00
  0.00000000E+00  0.00000000E+00  0.00000000E+00
  0.00000000E+00  0.00000000E+00  0.00000000E+00
  0.00000000E+00  0.00000000E+00  0.00000000E+00
  0.00000000E+00  0.00000000E+00  0.00000000E+00
  0.00000000E+00  0.00000000E+00  0.00000000E+00
  0.00000000E+00  0.00000000E+00  0.00000000E+00
  0.00000000E+00  0.00000000E+00  0.00000000E+00
  0.00000000E+00  0.00000000E+00  0.00000000E+00
  0.00000000E+00  0.00000000E+00  0.00000000E+00
  0.00000000E+00  0.00000000E+00  0.00000000E+00
  0.00000000E+00  0.00000000E+00  0.00000000E+00
  0.00000000E+00  0.00000000E+00  0.00000000E+00
  0.00000000E+00  0.00000000E+00  0.00000000E+00
  0.00000000E+00  0.00000000E+00  0.00000000E+00
  0.00000000E+00  0.00000000E+00  0.00000000E+00
  0.00000000E+00  0.00000000E+00  0.00000000E+00
  0.00000000E+00  0.00000000E+00  0.00000000E+00
  0.00000000E+00  0.00000000E+00  0.00000000E+00
  0.00000000E+00  0.00000000E+00  0.00000000E+00
  0.00000000E+00  0.00000000E+00  0.00000000E+00
  0.00000000E+00  0.00000000E+00  0.00000000E+00
  0.00000000E+00  0.00000000E+00  0.00000000E+00
  0.00000000E+00  0.00000000E+00  0.00000000E+00
  0.00000000E+00  0.00000000E+00  0.00000000E+00
  0.00000000E+00  0.00000000E+00  0.00000000E+00
  0.00000000E+00  0.00000000E+00  0.00000000E+00
  0.00000000E+00  0.00000000E+00  0.00000000E+00
  0.00000000E+00  0.00000000E+00  0.00000000E+00
  0.00000000E+00  0.00000000E+00  0.00000000E+00
  0.00000000E+00  0.00000000E+00  0.00000000E+00
  0.00000000E+00  0.00000000E+00  0.00000000E+00
  0.00000000E+00  0.00000000E+00  0.00000000E+00
  0.00000000E+00  0.00000000E+00  0.00000000E+00
  0.00000000E+00  0.00000000E+00  0.00000000E+00
  0.00000000E+00  0.00000000E+00  0.00000000E+00
  0.00000000E+00  0.00000000E+00  0.00000000E+00
  0.00000000E+00  0.00000000E+00  0.00000000E+00
  0.00000000E+00  0.00000000E+00  0.00000000E+00
  0.00000000E+00  0.00000000E+00  0.00000000E+00
  0.00000000E+00  0.00000000E+00  0.00000000E+00
  0.00000000E+00  0.00000000E+00  0.00000000E+00
  0.00000000E+00  0.00000000E+00  0.00000000E+00
  0.00000000E+00  0.00000000E+00  0.00000000E+00
  0.00000000E+00  0.00000000E+00  0.00000000E+00
  0.00000000E+00  0.00000000E+00  0.00000000E+00
  0.00000000E+00  0.00000000E+00  0.00000000E+00
  0.00000000E+00  0.00000000E+00  0.00000000E+00
  0.00000000E+00  0.00000000E+00  0.00000000E+00
  0.00000000E+00  0.00000000E+00  0.00000000E+00
  0.00000000E+00  0.00000000E+00  0.00000000E+00
  0.00000000E+00  0.00000000E+00  0.00000000E+00
  0.00000000E+00  0.00000000E+00  0.00000000E+00
  0.00000000E+00  0.00000000E+00  0.00000000E+00
  0.00000000E+00  0.00000000E+00  0.00000000E+00
  0.00000000E+00  0.00000000E+00  0.00000000E+00
  0.00000000E+00  0.00000000E+00  0.00000000E+00
  0.00000000E+00  0.00000000E+00  0.00000000E+00
  0.00000000E+00  0.00000000E+00  0.00000000E+00
  0.00000000E+00  0.00000000E+00  0.00000000E+00
  0.00000000E+00  0.00000000E+00  0.00000000E+00
  0.00000000E+00  0.00000000E+00  0.00000000E+00
  0.00000000E+00  0.00000000E+00  0.00000000E+00
  0.00000000E+00  0.00000000E+00  0.00000000E+00
  0.00000000E+00  0.00000000E+00  0.00000000E+00
  0.00000000E+00  0.00000000E+00  0.00000000E+00
  0.00000000E+00  0.00000000E+00  0.00000000E+00
  0.00000000E+00  0.00000000E+00  0.00000000E+00
  0.00000000E+00  0.00000000E+00  0.00000000E+00
  0.00000000E+00  0.00000000E+00  0.00000000E+00
  0.00000000E+00  0.00000000E+00  0.00000000E+00
  0.00000000E+00  0.00000000E+00  0.00000000E+00
  0.00000000E+00  0.00000000E+00  0.00000000E+00
  0.00000000E+00  0.00000000E+00  0.00000000E+00
  0.00000000E+00  0.00000000E+00  0.00000000E+00
  0.00000000E+00  0.00000000E+00  0.00000000E+00
  0.00000000E+00  0.00000000E+00  0.00000000E+00
  0.00000000E+00  0.00000000E+00  0.00000000E+00
  0.00000000E+00  0.00000000E+00  0.00000000E+00
  0.00000000E+00  0.00000000E+00  0.00000000E+00
  0.00000000E+00  0.00000000E+00  0.00000000E+00
  0.00000000E+00  0.00000000E+00  0.00000000E+00
  0.00000000E+00  0.00000000E+00  0.00000000E+00
  0.00000000E+00  0.00000000E+00  0.00000000E+00
  0.00000000E+00  0.00000000E+00  0.00000000E+00
  0.00000000E+00  0.00000000E+00  0.00000000E+00
  0.00000000E+00  0.00000000E+00  0.00000000E+00
  0.00000000E+00  0.00000000E+00  0.00000000E+00
  0.00000000E+00  0.00000000E+00  0.00000000E+00
  0.00000000E+00  0.00000000E+00  0.00000000E+00
  0.00000000E+00  0.00000000E+00  0.00000000E+00
  0.00000000E+00  0.00000000E+00  0.00000000E+00
  0.00000000E+00  0.00000000E+00  0.00000000E+00
  0.00000000E+00  0.00000000E+00  0.00000000E+00
  0.00000000E+00  0.00000000E+00  0.00000000E+00
  0.00000000E+00  0.00000000E+00  0.00000000E+00
  0.00000000E+00  0.00000000E+00  0.00000000E+00
  0.00000000E+00  0.00000000E+00  0.00000000E+00
  0.00000000E+00  0.00000000E+00  0.00000000E+00
  0.00000000E+00  0.00000000E+00  0.00000000E+00
  0.00000000E+00  0.00000000E+00  0.00000000E+00
  0.00000000E+00  0.00000000E+00  0.00000000E+00
  0.00000000E+00  0.00000000E+00  0.00000000E+00
  0.00000000E+00  0.00000000E+00  0.00000000E+00
  0.00000000E+00  0.00000000E+00  0.00000000E+00
  0.00000000E+00  0.00000000E+00  0.00000000E+00
  0.00000000E+00  0.00000000E+00  0.00000000E+00
  0.00000000E+00  0.00000000E+00  0.00000000E+00
  0.00000000E+00  0.00000000E+00  0.00000000E+00
  0.00000000E+00  0.00000000E+00  0.00000000E+00
  0.00000000E+00  0.00000000E+00  0.00000000E+00
  0.00000000E+00  0.00000000E+00  0.00000000E+00
  0.00000000E+00  0.00000000E+00  0.00000000E+00
  0.00000000E+00  0.00000000E+00  0.00000000E+00
  0.00000000E+00  0.00000000E+00  0.00000000E+00
  0.00000000E+00  0.00000000E+00  0.00000000E+00
  0.00000000E+00  0.00000000E+00  0.00000000E+00
  0.00000000E+00  0.00000000E+00  0.00000000E+00
  0.00000000E+00  0.00000000E+00  0.00000000E+00
  0.00000000E+00  0.00000000E+00  0.00000000E+00
  0.00000000E+00  0.00000000E+00  0.00000000E+00
  0.00000000E+00  0.00000000E+00  0.00000000E+00
  0.00000000E+00  0.00000000E+00  0.00000000E+00
  0.00000000E+00  0.00000000E+00  0.00000000E+00
  0.00000000E+00  0.00000000E+00  0.00000000E+00
  0.00000000E+00  0.00000000E+00  0.00000000E+00
  0.00000000E+00  0.00000000E+00  0.00000000E+00
  0.00000000E+00  0.00000000E+00  0.00000000E+00
  0.00000000E+00  0.00000000E+00  0.00000000E+00
  0.00000000E+00  0.00000000E+00  0.00000000E+00
  0.00000000E+00  0.00000000E+00  0.00000000E+00
  0.00000000E+00  0.00000000E+00  0.00000000E+00
  0.00000000E+00  0.00000000E+00  0.00000000E+00
  0.00000000E+00  0.00000000E+00  0.00000000E+00
  0.00000000E+00  0.00000000E+00  0.00000000E+00
  0.00000000E+00  0.00000000E+00  0.00000000E+00
  0.00000000E+00  0.00000000E+00  0.00000000E+00
  0.00000000E+00  0.00000000E+00  0.00000000E+00
  0.00000000E+00  0.00000000E+00  0.00000000E+00
  0.00000000E+00  0.00000000E+00  0.00000000E+00
  0.00000000E+00  0.00000000E+00  0.00000000E+00
  0.00000000E+00  0.00000000E+00  0.00000000E+00
  0.00000000E+00  0.00000000E+00  0.00000000E+00
  0.00000000E+00  0.00000000E+00  0.00000000E+00
  0.00000000E+00  0.00000000E+00  0.00000000E+00
  0.00000000E+00  0.00000000E+00  0.00000000E+00
  0.00000000E+00  0.00000000E+00  0.00000000E+00
  0.00000000E+00  0.00000000E+00  0.00000000E+00
  0.00000000E+00  0.00000000E+00  0.00000000E+00
  0.00000000E+00  0.00000000E+00  0.00000000E+00
  0.00000000E+00  0.00000000E+00  0.00000000E+00
  0.00000000E+00  0.00000000E+00  0.00000000E+00
  0.00000000E+00  0.00000000E+00  0.00000000E+00
  0.00000000E+00  0.00000000E+00  0.00000000E+00
  0.00000000E+00  0.00000000E+00  0.00000000E+00
  0.00000000E+00  0.00000000E+00  0.00000000E+00
  0.00000000E+00  0.00000000E+00  0.00000000E+00
  0.00000000E+00  0.00000000E+00  0.00000000E+00
  0.00000000E+00  0.00000000E+00  0.00000000E+00
  0.00000000E+00  0.00000000E+00  0.00000000E+00
  0.00000000E+00  0.00000000E+00  0.00000000E+00
  0.00000000E+00  0.00000000E+00  0.00000000E+00
  0.00000000E+00  0.00000000E+00  0.00000000E+00
  0.00000000E+00  0.00000000E+00  0.00000000E+00
  0.00000000E+00  0.00000000E+00  0.00000000E+00
  0.00000000E+00  0.00000000E+00  0.00000000E+00
  0.00000000E+00  0.00000000E+00  0.00000000E+00
  0.00000000E+00  0.00000000E+00  0.00000000E+00