Amorphous GeAsSeSi                      
   1.00000000000000     
    19.2103233545911297    0.0000000000000000    0.0000000000000000
     0.0000000000000000   19.2103233545911297    0.0000000000000000
     0.0000000000000000    0.0000000000000000   19.2103233545911297
   Ge   As   Te   Si   N 
    67    67    67    67    32
Direct
  0.4129275198927367  0.8445748222685412  0.5288387331233900
  0.5909635584191005  0.7895728217269640  0.5868903849417679
  0.1279666505140215  0.5068265352014805  0.6773007277691693
  0.2086104374116219  0.7732353010633810  0.3858314682464699
  0.0535169935289420  0.0612914248762078  0.8766562302211901
  0.5868866437715985  0.1363582017736853  0.3465389662931548
  0.7517163928888801  0.9297581778959023  0.5906980229939740
  0.0749506907414210  0.7258135363216772  0.0000496848072951
  0.9038319027742100  0.1560262023638624  0.8391966298131226
  0.7792521584480210  0.3409398225356625  0.5318537492797910
  0.4441835329318438  0.9897644464145888  0.6677847616972348
  0.0175999208736240  0.5374726948765683  0.2486575105755825
  0.5449030467801987  0.1994793970037909  0.7791687637411719
  0.2359966041666360  0.9364096899349774  0.6543306031833157
  0.9528667131238530  0.5389187761648445  0.8249620348622064
  0.4429908648708296  0.7703228277826707  0.1010857917076126
  0.4985230952766532  0.5957076411446870  0.7645696664130956
  0.4538787019585210  0.3550052258857578  0.6039099316733878
  0.3491266752927094  0.8761108639939511  0.0662187909631144
  0.7451677453555318  0.1771418848696175  0.8156208011985099
  0.3233153687370951  0.2899612629550540  0.1873270429635207
  0.6789545749545701  0.7153375466584863  0.9671807448682294
  0.6493063947406293  0.8083123879842378  0.4181181739331126
  0.0665425746134260  0.7195139294209535  0.8273147777847649
  0.3641398995896250  0.9730382007560062  0.5459355315980408
  0.6901770326556176  0.0923860601654731  0.2074716731730833
  0.5887908916593179  0.6048890492737135  0.4910370847536640
  0.7472203634498922  0.9828595093920698  0.0268924111741829
  0.2437567031617987  0.0880071741902177  0.5266855795757807
  0.5466902078473773  0.3728890267411432  0.4386844377969272
  0.7196196388780741  0.2258464052642515  0.4102509032934969
  0.0763096493676857  0.8855444513866728  0.3317453821770650
  0.6007115653400830  0.8696746035378471  0.2844638821421978
  0.8247368760972285  0.2082032765807550  0.6149666763052154
  0.9968666630541404  0.8099596285706159  0.6468342292199050
  0.5517653492650464  0.5581256658983360  0.2944306375473097
  0.0092019253602954  0.0215819198409230  0.0195068013267859
  0.8626768644816176  0.8651371563679759  0.9242346714914642
  0.4565612847282201  0.6958019837718659  0.9815627324377043
  0.6443098784868957  0.4938917877461438  0.5478364268564307
  0.5416696868498072  0.8985446980973700  0.6410221073625544
  0.3841589964767726  0.4557712736244411  0.9385091589872322
  0.1831592907033666  0.7937916251798723  0.0033641008635126
  0.2216497127606216  0.1314965868648062  0.6856482723880940
  0.6106552085538387  0.9965769431332062  0.4978786042892834
  0.8873570804139055  0.6997290149965842  0.1658040419841805
  0.1876550581345920  0.2560263843975108  0.4933530780190475
  0.9213558156259403  0.3709894434393260  0.3674357575382229
  0.7957326084429491  0.7895846550691995  0.0333519585648019
  0.8503356253789160  0.6541728504023941  0.2999559714057530
  0.3195186995987884  0.6983917522394841  0.1206567139103283
  0.0482691947680599  0.8889595627936937  0.2048911316374204
  0.7516478179832081  0.7159797028962313  0.5419915243976978
  0.8178039279905935  0.0978175253454613  0.6976275690472551
  0.0554651622506377  0.1248399753925543  0.3106071767970937
  0.2882939626504059  0.4731689092531308  0.7395507256891559
  0.4827937915911032  0.9389537376933156  0.0249805527026914
  0.3942556834225271  0.9662906418960298  0.9102470777613324
  0.1978967031937731  0.3363801481637407  0.8971391358481074
  0.8014484013692845  0.5006746679889741  0.9526554980035409
  0.3929420474127329  0.2470209627921096  0.7011318084862097
  0.4142521778194988  0.4943925241692778  0.7334566112679708
  0.0132212929296261  0.5887094375671792  0.9361381227138903
  0.2812938531769127  0.1300584100903535  0.8785532975282272
  0.7160258224256797  0.0100801233661348  0.7826352066713782
  0.9071744327550875  0.4496311304514318  0.5414480242072450
  0.7992240886994117  0.2254684853097849  0.1656291179255064
  0.5848541957447874  0.5442656264144504  0.6777560015612881
  0.4656949964689451  0.4661329178421972  0.2569890737720654
  0.4304402667622280  0.2407643754486539  0.3978815658237665
  0.2634952917141514  0.7429448399952207  0.6133484523754438
  0.1508660518441192  0.6374648031855128  0.3485062282104587
  0.9825370814080384  0.1957176417076986  0.3905250907227318
  0.9435388663438677  0.5463256518756024  0.6281701798306260
  0.0449231999954261  0.4968442945601612  0.4180508036904346
  0.3559389036492768  0.8929592291020614  0.3653699558747887
  0.4720902136525881  0.8131006478167425  0.4166222561656919
  0.8187320925351963  0.1048566212202277  0.2743087977786400
  0.6224764818898284  0.7477318039317910  0.8210693808653851
  0.3166192726603655  0.3751218967441643  0.6476053479497476
  0.4880476987611800  0.6684391914249467  0.2773851204569896
  0.6569550666239169  0.3438135236566761  0.9273566354571990
  0.5962099760552767  0.6498212160134708  0.0844968911015673
  0.2470637156273255  0.8028059172329635  0.1087808174165319
  0.6404773743132643  0.9886050560102684  0.6203617744275658
  0.8125064480393630  0.9622815746353807  0.7030878385538011
  0.3965218426523267  0.0498220986912516  0.4491524360487706
  0.9358042018066401  0.2496946334667992  0.2796752442194526
  0.5319391543719187  0.5710900934252420  0.9966831046360360
  0.6738550007941172  0.5825836535834532  0.2599593204795221
  0.2221065326001636  0.3766682023147792  0.0181555840587512
  0.4906249792463296  0.9168180186836111  0.8164326101502011
  0.8536373401786548  0.4487239438698134  0.8456901168392972
  0.1583229823657658  0.3667038778093587  0.1921291650469590
  0.1465074628174384  0.7240226604153362  0.1836565536963035
  0.3556509976763801  0.2224428809175518  0.9409942000035078
  0.2871141613551113  0.9765131823261481  0.8392755961942078
  0.9251241879129911  0.8655864315497036  0.3589267499257419
  0.5752096986721759  0.6362318876396066  0.8624286325429956
  0.7848592938300656  0.7672354095829195  0.3118658687430946
  0.3094084992073504  0.5275998253670657  0.5737850774746428
  0.4397389633217428  0.6983757848923935  0.7303075006511450
  0.7190842664855671  0.9200173379670127  0.3359552532518319
  0.8983368433568560  0.0894282286398511  0.4088969275727743
  0.2109198488786213  0.3964140710126304  0.5082268524100940
  0.7753233763010197  0.1472750139014190  0.9893721797411470
  0.3543505113494913  0.3167145925820450  0.8500517427990959
  0.5568824489453889  0.8219130691080807  0.0497171812706470
  0.6560201339945424  0.7502227098471062  0.3032662435371287
  0.6688052090900082  0.5537295107347748  0.1367317284003283
  0.4052922625619219  0.7633280989396756  0.8817683422366220
  0.4719147405262951  0.0877427891274094  0.8269036119538524
  0.3143235665659858  0.7282080797420220  0.3172935006597312
  0.7028216151649902  0.6448360935842269  0.4419691586514266
  0.0045110639909924  0.4729701078400931  0.7190100575370247
  0.7430443920503589  0.4700745453954299  0.2680272531789049
  0.4599764028526485  0.1940817321198284  0.1833703562170268
  0.2312463682349719  0.5058530651216251  0.9537108504484045
  0.2574614421243564  0.4439302967360775  0.3872760489250584
  0.2717144289768761  0.2496335514076754  0.7622817024929228
  0.3696537899873861  0.4525690064369725  0.0677001582451087
  0.2381593200096550  0.1732772104880832  0.3362539106589116
  0.3205979204495986  0.8344205576288992  0.6909410632495390
  0.4858492849494702  0.4196005387587326  0.1394839215486303
  0.8316126257477758  0.8173998784777549  0.4316821318679931
  0.3664947634151792  0.1175459506892556  0.7683171004334270
  0.3356448945889820  0.6452933597196119  0.0000713516832138
  0.1175835234280410  0.0877422071016982  0.9971723041154965
  0.3677327029149848  0.0317772764286543  0.2308563507089282
  0.5789051359057535  0.3070833470595752  0.0173188900171502
  0.1296819815000570  0.5153170230446427  0.3156590147329884
  0.4329912370477322  0.5217110563421455  0.6093039350490327
  0.6493478195904403  0.2648372345287543  0.8170840046526772
  0.2049836453800229  0.3382069963919315  0.7068785384357238
  0.9660777792370603  0.3810834113518612  0.2063969310934178
  0.3112955939665973  0.3298056785024617  0.3309274949277272
  0.0897280544025423  0.9233521041642953  0.8700339203930900
  0.0223515527826280  0.6445429170926377  0.4531230467822936
  0.3392342942783654  0.2509702352354345  0.5048222692552601
  0.1590905642795865  0.9285221174156970  0.0106347596073085
  0.1428727294044898  0.2394311996495725  0.6325974767603900
  0.0274660668553935  0.3712057313113884  0.5920576696098797
  0.7113242297201683  0.4213299375277035  0.4367233127938839
  0.6143623300841232  0.3386423422710157  0.3192152473335660
  0.9337052394818243  0.3392156900344173  0.9327206555174318
  0.0249118593511228  0.9487655081038164  0.5309684743596013
  0.2404117951292423  0.0760712655988618  0.1373347023390935
  0.8905582455330187  0.0868133670213082  0.5458824086131050
  0.2730319470488304  0.6533765252633330  0.7179420607415770
  0.9077674373941695  0.1242983244456941  0.0411738939939488
  0.5709520676128238  0.1641930293060548  0.9872588681129952
  0.1248415503016041  0.6290629242993390  0.0889355054424319
  0.7916070655238648  0.2847899852346448  0.9762655392177265
  0.8447019423004859  0.2588573410732542  0.7590655960793687
  0.4513520161551204  0.8596592936423650  0.2141339990102694
  0.7219595808605308  0.8727763418928948  0.9381047166019466
  0.2386655399474357  0.5976731082445772  0.4429597890175162
  0.7980662473438654  0.5506548772520358  0.4638477943416509
  0.0273368011840202  0.6835130844202483  0.2511007132149043
  0.0319710439617147  0.4886818610452759  0.0661028777047310
  0.8030349700257177  0.2878405004563067  0.2974722010923625
  0.6446661050080540  0.2359339020224762  0.1684821876094628
  0.8023426641332921  0.9715061152364028  0.2365348655475073
  0.8055406971444584  0.0166016592091420  0.8885893615994110
  0.8806420362310382  0.6907803938737965  0.5555793224811293
  0.7692429222520080  0.7781554840030819  0.1625715793773500
  0.0732577631449593  0.3517682552784399  0.3879207057570735
  0.9078432313997792  0.2926189529375278  0.4974647711053441
  0.5199302306760404  0.3983737586672470  0.7261598338153892
  0.5110439316367644  0.3832549599137932  0.9185839111687428
  0.8717011912266627  0.9177145748430395  0.0541161902067047
  0.8577404837187433  0.5658142214299930  0.1163765806555983
  0.1294290242720022  0.7582751913831324  0.5237596126669153
  0.5731402007629148  0.9724114534825768  0.9128582652090826
  0.2863515849244627  0.5493815942776287  0.2140646896309303
  0.5539915538969631  0.0353243347813103  0.1177844732970428
  0.3923511385983387  0.0571823792924335  0.0116433464534264
  0.9232051681525894  0.8043636937336024  0.7634681382660650
  0.1086464981707140  0.8877692576780132  0.6945707505701071
  0.0772893821217661  0.1802480708681155  0.1867276230778302
  0.8979162072016871  0.7027592841312497  0.0080335931795217
  0.9564425831585258  0.0070741059519863  0.7414335750739327
  0.0727987487118400  0.3837445128230241  0.8644057412777795
  0.1188181101934411  0.5410938830468057  0.8586093850067748
  0.2247793973692848  0.2301860075802532  0.0457270191067391
  0.2477394993929097  0.7146744832596287  0.9156770060270872
  0.6635341896520524  0.3148509215699344  0.6342252164841397
  0.0927047454887460  0.1172711126087222  0.5116619404612325
  0.8051052027310409  0.4049140044138657  0.1114711607397302
  0.8117920953026657  0.7087369856207451  0.8484014886847085
  0.0907144796356626  0.0761130961474126  0.6931376445861775
  0.6269206706428385  0.4195123098195405  0.1531053437410561
  0.6957231784248412  0.7958303684406581  0.7162424727185503
  0.7081545382305965  0.1436252131272453  0.5364720914265327
  0.2195250503514297  0.8218368812611887  0.7921716780093997
  0.3708564817581823  0.6996612240364541  0.5335025010234186
  0.9649590348992095  0.0465425810715251  0.2485587985236668
  0.4861614660272853  0.9784485017092434  0.3400135455175756
  0.0141532753687174  0.2773378401743752  0.0452352214698334
  0.6389614358800105  0.8868192040864791  0.1293196331771243
  0.6518297573731967  0.4734560914666683  0.0027500391846440
  0.5205371403466821  0.7878146452149223  0.7674581811196158
  0.8046065688367824  0.5273080060212629  0.7569300565539206
  0.1459550808710418  0.0059765235930244  0.1999249852382786
  0.1144039964992132  0.2098900775794550  0.9759060131006080
  0.2132958712323718  0.8873399400557900  0.2652613698175382
  0.0987132616899697  0.4625664589244434  0.5279218922810397
  0.3594313663933859  0.1303729895400524  0.5507591054331986
  0.1443912988167365  0.0354219441202004  0.3197593099745263
  0.4952982984553736  0.6695462469866286  0.1542199690484592
  0.5238715638823213  0.2014606073069134  0.6482468438878213
  0.4539443770522319  0.1488838188049443  0.9326027848061853
  0.6936086249056198  0.5868574856146332  0.8701760867482147
  0.0171950851171904  0.8165608081848084  0.4774774467300437
  0.5583290182524963  0.7362041694503844  0.4760948791633449
  0.2406301180937533  0.0666837450466271  0.3969999102162639
  0.9219248901622241  0.4997400322652348  0.3234881790484819
  0.1415419005619373  0.6297335486954575  0.7141843432252717
  0.7387835522875807  0.6840126867787589  0.6636444632522688
  0.1786766961907474  0.2200331112673797  0.8621595320935348
  0.6963965498387910  0.5800780725347885  0.7087152338895872
  0.4616296032970670  0.5278871613561136  0.0840190458881340
  0.5039118122686544  0.5426358247711535  0.4143824075788173
  0.2316856303896061  0.6618929983052322  0.2557685446632800
  0.2795812425494820  0.4253804707261967  0.8606540031260400
  0.3608201180401225  0.5420891979332527  0.4533541525412383
  0.5066560723976069  0.0738216308548776  0.5003171465723187
  0.4849936727378940  0.0742598776341375  0.2231199975769669
  0.3321024801944072  0.8515445270653882  0.9336323241486127
  0.7555874725735278  0.4734921671387285  0.6025366729426398
  0.7095715030350815  0.0128238823802221  0.4198330146414942
  0.4552129410045168  0.6478148619671663  0.6181507728782711
  0.9254488236796435  0.9674588582217070  0.4407340229451222
  0.4152992882448768  0.5760404148960774  0.2280541880672390
  0.4192885817835680  0.4090419508935733  0.3889654172369830
  0.1366049797239948  0.9913772651260947  0.4514409355363763
  0.0431067280962374  0.6004976556906094  0.5850950992888434
  0.3085881175512331  0.1380802027680943  0.2395266799052901
  0.5605677697784461  0.8987955371114655  0.4236241346010055
  0.8123965089799492  0.9800742565535483  0.4898703528037994
  0.3306596899131483  0.0003802516453951  0.7247923010279624
  0.8452233506947049  0.7017550453943416  0.7182698796257274
  0.8992217843455369  0.5964638683878984  0.7274225404360142
  0.9133948430769503  0.8207467298641363  0.5379337803990859
  0.6015371567148079  0.2204807186203843  0.5558271631795744
  0.1539693992861504  0.1147687387568006  0.8095665188070413
  0.4636831471885692  0.1001238399105775  0.6142737555850081
  0.2883154670730983  0.8520821933690554  0.4684340866691089
  0.7003138232499370  0.8281958142420515  0.5363460206141406
  0.1982374232784980  0.2472750138886056  0.1809911382847607
  0.2408915600640266  0.9557617097910908  0.5234286160277585
  0.9910388178291436  0.7786470205626412  0.1619829450366907
  0.4681795057752371  0.2945672288932220  0.8090657544742837
  0.5775874206420386  0.6550549113896201  0.6073205483325195
  0.5308043101132848  0.1824560012265927  0.4521979109234682
  0.9806740275019679  0.7924680435438995  0.0418899593460824
  0.0365945939320915  0.0089157284891285  0.1444224594275129
  0.7078510858935632  0.1120159146082985  0.3503770581997033
  0.9066527748552716  0.5985217551855202  0.3983684872019820
  0.2799705708005613  0.9818934193956035  0.3212239250945379
  0.0740290854536273  0.7040070554634473  0.6370337162977574
  0.3255281832166763  0.8353856725904169  0.2613148264774585
  0.1090878430561653  0.3757777663247446  0.0732092750572754
  0.5548358098025661  0.2292772783562130  0.2667274414666900
  0.8398877050760279  0.5420962336532194  0.2428211152777497
  0.0667490680284419  0.3145331940543043  0.2551765245528651
  0.3296193613866015  0.5625512687802241  0.9000340362809734
  0.5754389062801959  0.3883442734341023  0.5636810053868193
  0.3502658999048672  0.4600194681768308  0.4165006733545139
  0.7318084593251182  0.4265788114996397  0.1811293436490491
  0.7340909289583516  0.1045378446461552  0.7533964630788963
  0.4460933458086627  0.5931076876199444  0.1435760690030778
  0.7347830670394183  0.6593021172148953  0.9050537486025902
  0.0399846525930329  0.1044690582119171  0.6011479476494701
  0.3655508226084799  0.2021379323632229  0.2125538827533959
  0.0160110490131025  0.8332063574976003  0.3893910162242264
  0.7562351015224013  0.5160534306878399  0.6788084910403520
  0.4754998710380392  0.8193038428274982  0.8402327239259639
  0.0437120571326848  0.6824648963888154  0.9191828423967440
  0.2831389958511624  0.8790136028108517  0.8601921826149356
  0.5333897544502644  0.0661377887035444  0.2994562321416672
  0.7845786615880628  0.1285349692044565  0.1866019293974351
  0.7301453080038002  0.5681234062915140  0.7914174699172226
  0.2834764199298588  0.4288088201757281  0.5705850921329741
  0.0996248028277587  0.9727910047979744  0.3701732050571642
  0.0315294247546890  0.4707375592737776  0.1758061734154588
  0.1057175705406740  0.5369468374491233  0.5774009759483508
  0.1683077754966340  0.8423463721342151  0.3271717729173088
  0.7974989245957845  0.1324378963662226  0.8922391152095579
  0.7599323080656232  0.4490881167665964  0.0276481207414535
  0.7068887205656712  0.5172954046703662  0.9231396940352252
  0.8202626109715898  0.4158059823934731  0.5874776065270202
  0.1013113138213488  0.6343066884743573  0.7948538646468725
  0.4583720008535523  0.2592402694748700  0.6288908185944513
  0.4292113284676572  0.5862347602993120  0.4243315637761866
  0.8883550255997121  0.0842204101904482  0.7700752395236449
  0.4929802168795832  0.4542861894672606  0.4207817344235777
  0.5394821679340362  0.8687585431802328  0.7359905489081948
  0.1549198713200307  0.9165017394153600  0.2038383492982592
  0.4573460159133502  0.3318194328848422  0.4164217012990979
 
  0.14459169E-02 -0.89470970E-03 -0.20163556E-02
  0.63872052E-03 -0.62893479E-03  0.33452278E-02
  0.41999488E-02  0.12068543E-02  0.49882668E-02
  0.80438943E-03 -0.19392540E-02 -0.24770252E-02
  0.65825337E-03 -0.19340755E-02  0.28636695E-03
 -0.52121778E-03  0.95370580E-04  0.15986576E-02
  0.54747530E-03  0.66605530E-03 -0.19509683E-02
 -0.13675596E-02 -0.15420434E-02  0.30370738E-02
  0.52573820E-03  0.32961540E-03 -0.15086842E-03
 -0.90246641E-03  0.12759655E-02  0.23206415E-02
 -0.64607991E-04  0.24219386E-02  0.15387705E-02
 -0.42481635E-02  0.95628673E-04  0.12087241E-02
  0.13152118E-02  0.12783588E-02 -0.12274224E-02
  0.44461108E-03 -0.30141617E-02 -0.15184470E-02
 -0.18750993E-02  0.38769176E-02 -0.70379766E-03
  0.19302486E-03  0.36822074E-03 -0.93274263E-04
 -0.13294265E-02  0.10096278E-02 -0.14496434E-02
  0.60510556E-04  0.13464587E-02 -0.29380471E-03
  0.19555568E-03  0.40738426E-03  0.31343629E-03
 -0.45411567E-03 -0.21665834E-02  0.44020046E-03
 -0.22915370E-02  0.12579134E-02  0.16265545E-03
  0.43966403E-03 -0.31252608E-03  0.16232527E-03
 -0.11147403E-02  0.32182771E-02 -0.25638249E-04
  0.25683390E-03 -0.17217721E-02 -0.12945441E-02
 -0.12313430E-03 -0.35212593E-03  0.57500842E-03
  0.11762334E-02 -0.51092144E-02 -0.98429083E-03
  0.33250599E-02  0.83748961E-03 -0.14892768E-02
 -0.43057256E-02 -0.18667453E-02 -0.97553498E-04
  0.10224673E-02 -0.14953286E-02 -0.28651347E-02
  0.97353965E-03 -0.11067393E-02  0.17747186E-02
 -0.63319270E-03  0.26120961E-03  0.12971690E-02
 -0.17223540E-02 -0.24402516E-02 -0.17100909E-02
  0.38069847E-02  0.38259348E-03 -0.43702453E-03
  0.19655951E-02  0.55910016E-03  0.24477942E-02
  0.15147837E-02  0.86143661E-03  0.10879691E-03
 -0.28987488E-02 -0.12021498E-02  0.13308118E-02
 -0.23817302E-02  0.92451520E-03  0.74206227E-03
  0.16351595E-02  0.93133445E-03  0.46211006E-02
 -0.57159197E-03 -0.24531343E-02 -0.25421087E-03
  0.12879536E-02  0.16742203E-02 -0.13003944E-02
  0.77439983E-03  0.66432765E-03  0.26803388E-02
 -0.18804773E-02  0.65053232E-03  0.70952583E-03
 -0.30611003E-02 -0.58471516E-03  0.78741131E-03
  0.87695590E-05 -0.21588862E-02 -0.34091008E-02
  0.27859811E-02  0.22297351E-02 -0.26658174E-03
  0.71951292E-03  0.70572112E-03  0.67168591E-03
 -0.12567989E-03  0.15162191E-02  0.14372945E-02
 -0.30519188E-02 -0.27551706E-02 -0.32333391E-02
 -0.64287043E-03  0.29131989E-03  0.48047729E-02
  0.24221596E-02  0.59518972E-03  0.16222497E-02
  0.39412128E-03 -0.35572639E-02  0.14639996E-02
  0.22151233E-02 -0.71510152E-03  0.28565540E-02
  0.13912975E-02 -0.68181200E-03  0.67917915E-03
  0.20596142E-02 -0.14211378E-05 -0.16097867E-02
  0.10508686E-02 -0.31716577E-02 -0.56168227E-03
 -0.26679420E-02  0.16586659E-03 -0.29460647E-02
 -0.19927764E-02  0.98141239E-03  0.62794418E-02
  0.50522439E-03 -0.16530688E-02  0.15604859E-02
  0.78343957E-03 -0.35583722E-04 -0.25453303E-02
  0.88402219E-04  0.11276977E-02  0.21256718E-02
  0.10125740E-03  0.21224656E-02 -0.22866058E-02
  0.43242896E-03  0.74175566E-03 -0.11701988E-02
 -0.24443962E-03 -0.18145745E-02  0.32283661E-03
 -0.48437477E-03  0.39869363E-03 -0.37826104E-03
 -0.20487364E-02 -0.55017422E-04 -0.16518803E-02
  0.75887294E-03 -0.56537465E-03 -0.13305322E-02
 -0.38419454E-02  0.85602522E-04  0.25211679E-02
 -0.47271258E-03  0.24884499E-02  0.20703516E-02
 -0.14276879E-02 -0.76030583E-03  0.41346791E-03
  0.18953865E-02  0.22167514E-02 -0.22501344E-02
  0.12180101E-02  0.91596684E-03  0.10050221E-02
  0.64160273E-03 -0.12671896E-02 -0.34314467E-03
  0.42611713E-02  0.26233501E-02  0.29218115E-03
  0.46002708E-04 -0.33422946E-03  0.13705512E-02
 -0.10684353E-02  0.81904595E-03 -0.74573914E-03
 -0.30554929E-03 -0.15266617E-02  0.51628519E-03
  0.66075970E-04  0.28375735E-02  0.12605590E-02
  0.54365153E-03  0.37409677E-02  0.68758613E-03
  0.26021323E-03  0.11044785E-02  0.47751400E-03
  0.13140738E-02 -0.23656551E-03 -0.19461273E-02
 -0.21340849E-02 -0.20291481E-03  0.58700201E-05
 -0.10074848E-02 -0.30449435E-03  0.25681191E-02
  0.13002281E-02 -0.13290639E-02  0.29118282E-02
  0.12017041E-02 -0.45015231E-03  0.93714751E-04
  0.73486647E-03 -0.38432643E-03 -0.36188709E-02
  0.15662308E-02 -0.13627594E-02  0.28986721E-03
  0.73811065E-03  0.45904298E-02 -0.93853794E-03
 -0.33995908E-02 -0.11680444E-02  0.15343338E-02
 -0.19594699E-02  0.51148484E-02  0.10173839E-02
  0.41272767E-03 -0.10993464E-02  0.26725245E-02
 -0.67082924E-03  0.19444479E-02 -0.50609982E-02
 -0.17866499E-02 -0.38956823E-02  0.23543850E-03
 -0.21359129E-02  0.52404752E-03  0.38809695E-02
 -0.66439972E-03 -0.10167415E-02 -0.12487884E-02
 -0.27543081E-02 -0.36564587E-03  0.23044925E-02
 -0.20786810E-02  0.12558354E-02  0.58936080E-03
  0.84540405E-03 -0.13554808E-02 -0.31317655E-02
  0.31416722E-02  0.75748715E-03 -0.40024892E-03
 -0.25087878E-03  0.24934887E-02 -0.15679907E-02
 -0.12572968E-03 -0.10718225E-02 -0.30540963E-02
 -0.95907990E-03  0.11019364E-03 -0.20693921E-03
 -0.54524945E-04  0.87486483E-03 -0.27452352E-02
  0.22216087E-02  0.30468486E-02 -0.86191228E-03
  0.22347663E-02  0.14611686E-03 -0.75768430E-03
 -0.12859553E-02  0.58735972E-03 -0.26345020E-02
 -0.10883197E-02 -0.50066704E-02  0.96964342E-03
 -0.21781446E-03  0.58224603E-03 -0.13365181E-02
  0.13955542E-03 -0.30849052E-03  0.14623739E-02
 -0.13013562E-02 -0.86812197E-03  0.34823419E-02
 -0.25125966E-02 -0.86763586E-03  0.18266422E-03
 -0.88676859E-03 -0.30465899E-02 -0.15770312E-03
  0.31911186E-02  0.16695627E-02 -0.10782128E-02
 -0.48398311E-03  0.21441067E-02 -0.49701331E-02
  0.97538279E-03  0.37120845E-02 -0.30228078E-03
  0.14013769E-02 -0.19888409E-02  0.12356754E-02
 -0.73969523E-03 -0.18106343E-02  0.59893748E-03
 -0.28993010E-02 -0.24043910E-02  0.21372886E-02
 -0.64990271E-04 -0.11611057E-02 -0.24209937E-02
 -0.31050275E-02  0.13199975E-02 -0.17609139E-02
 -0.60849032E-03  0.32481208E-02  0.75960669E-03
 -0.39023176E-02 -0.81624788E-03 -0.10313222E-02
 -0.21508354E-02 -0.22569161E-02 -0.53909107E-03
 -0.37108608E-02  0.22462420E-02  0.31558170E-02
 -0.16580432E-02 -0.13316393E-02  0.12655514E-02
  0.75130132E-03 -0.96045312E-03 -0.14591963E-02
  0.24312196E-02  0.40740576E-03  0.30593206E-02
 -0.88576674E-03  0.45884704E-03 -0.23841459E-02
 -0.80232202E-03 -0.80141005E-03 -0.32556302E-02
  0.59965810E-03 -0.83694487E-03 -0.16501068E-02
  0.19361867E-03 -0.16073750E-02 -0.12701582E-02
 -0.22379996E-02  0.11030164E-02  0.96376287E-03
  0.62963677E-03 -0.61411345E-03  0.75496997E-04
 -0.55112607E-03  0.80702357E-03 -0.18556475E-02
 -0.26059252E-02  0.31140299E-02  0.25835652E-03
  0.12209987E-02 -0.17791837E-02 -0.20064794E-02
 -0.16574782E-02  0.17586827E-02  0.56337644E-03
  0.18618797E-02 -0.16820547E-02  0.82865938E-03
  0.91950342E-03  0.90419177E-04  0.29933200E-03
  0.99483691E-04 -0.24688079E-02  0.13498328E-03
 -0.38056220E-03 -0.21138065E-02  0.38449395E-02
 -0.59334307E-03  0.25240235E-02  0.85478851E-03
  0.31535004E-02  0.23265553E-02  0.15503778E-02
 -0.12522580E-02 -0.23183539E-02 -0.48315287E-03
  0.10245911E-02 -0.23114368E-02 -0.17325764E-02
 -0.56905847E-03 -0.15761379E-02 -0.95199673E-03
  0.16477528E-02  0.24696223E-02  0.37514469E-03
  0.14312198E-03  0.86242374E-03 -0.27444443E-02
  0.10089967E-02  0.20398435E-02 -0.30849545E-02
  0.12535374E-02 -0.90636294E-03  0.18199132E-02
  0.10962069E-02  0.10253826E-02  0.16357178E-04
  0.28326485E-04 -0.13521306E-02 -0.12145278E-02
  0.16645395E-02 -0.20085377E-02  0.15406273E-02
  0.28416870E-02 -0.19370810E-02  0.90464192E-03
  0.48951492E-03  0.14690877E-02 -0.20592198E-02
 -0.35531266E-03  0.15982785E-02 -0.94182553E-03
  0.30714570E-02 -0.27718832E-02 -0.23530820E-02
  0.35872854E-03  0.24485078E-02 -0.27059652E-02
  0.10357184E-02 -0.25033611E-03 -0.10263473E-03
  0.65556773E-03  0.37161432E-02  0.97793154E-03
  0.45683365E-03  0.93320096E-03  0.13386995E-02
 -0.99565402E-03 -0.93724720E-03 -0.10432483E-02
 -0.17097213E-02 -0.17307587E-02  0.80238305E-03
  0.20114584E-02  0.17926321E-02 -0.17053955E-02
  0.18060581E-03  0.40059612E-03  0.24004573E-02
 -0.18012744E-02  0.30471402E-03 -0.78231716E-03
  0.17674566E-02 -0.61831620E-03  0.75320412E-03
 -0.12898170E-02  0.34278025E-02 -0.86019866E-03
 -0.13657529E-02  0.31833096E-02 -0.28437427E-02
 -0.17451725E-02  0.19460029E-02 -0.13800472E-02
 -0.21496006E-02  0.63364448E-03  0.28254194E-03
 -0.24531751E-03 -0.19234049E-02  0.23373112E-02
 -0.27266317E-02 -0.15955701E-02  0.77409447E-03
 -0.31971751E-03  0.18881349E-03 -0.15598248E-02
 -0.52129623E-03 -0.54975485E-02  0.46461044E-03
  0.36262076E-04  0.63644216E-03 -0.92133170E-03
  0.22732501E-03  0.13464058E-02  0.25979244E-02
 -0.33662594E-02  0.66537895E-03 -0.21496567E-03
  0.46248955E-02  0.11715296E-03  0.65178630E-03
  0.26742375E-02 -0.12745082E-02  0.10495566E-02
  0.14938228E-02 -0.22908122E-03  0.14906488E-02
  0.81994374E-03 -0.35453326E-04 -0.13997078E-02
 -0.26501195E-02  0.91457571E-04  0.19900929E-02
  0.60831907E-04 -0.49254403E-03 -0.23170907E-03
  0.11906962E-02  0.33209533E-03 -0.19501999E-02
 -0.21267078E-02  0.12926776E-02  0.18359147E-02
 -0.80365684E-03  0.52273358E-03 -0.24351377E-02
 -0.84104036E-03 -0.79593393E-03 -0.10412066E-02
  0.10504669E-03  0.45574223E-03 -0.12092437E-02
  0.36410851E-03  0.22891267E-02  0.24490936E-02
  0.95849474E-03 -0.12426116E-02 -0.12972190E-02
  0.14050367E-02  0.61433302E-03 -0.12127372E-02
 -0.47157276E-03 -0.25926685E-02  0.13126083E-02
  0.36687270E-02 -0.33039197E-03 -0.92419886E-04
 -0.87416904E-03 -0.85322775E-03  0.20400957E-02
 -0.19035983E-02 -0.41010928E-03  0.21912464E-02
 -0.12158713E-02  0.57766572E-03  0.89941208E-03
 -0.10438003E-02  0.54051663E-03 -0.27884708E-02
  0.17847803E-02 -0.52395929E-02 -0.13392297E-03
 -0.83610931E-04  0.15690187E-02 -0.26886617E-02
  0.10275186E-02 -0.94386106E-03  0.52046889E-03
 -0.14158462E-02 -0.44451730E-03  0.24322468E-02
 -0.10959295E-03 -0.38445052E-03 -0.44903875E-03
  0.18669594E-02  0.10769198E-02  0.10022751E-02
  0.97529928E-04 -0.13512938E-02 -0.19712704E-02
 -0.21320724E-02 -0.13282925E-02 -0.31742813E-02
  0.26382458E-02  0.10799308E-02 -0.40802863E-02
 -0.26483180E-02 -0.32031821E-04 -0.52990279E-03
  0.17475606E-02 -0.19611627E-02 -0.16569419E-02
  0.64964498E-02 -0.50598123E-03  0.35861912E-02
  0.10816409E-02 -0.59136589E-03  0.28433099E-03
 -0.81640713E-02  0.23133704E-02  0.52041719E-03
 -0.38015921E-02  0.14045218E-02 -0.91414714E-03
  0.11198956E-02 -0.17700812E-02  0.15441663E-02
 -0.16282038E-02  0.63804004E-02  0.32294487E-02
  0.15366244E-02 -0.16137682E-02 -0.18626380E-02
  0.10814991E-01  0.16213127E-03 -0.44227291E-02
 -0.15745822E-02 -0.19493657E-02  0.51031108E-03
  0.90461260E-03  0.12464627E-02  0.33165671E-02
 -0.42825932E-02  0.29403321E-03 -0.36226071E-02
  0.32110001E-02 -0.33506975E-03 -0.42244590E-02
  0.16011447E-02 -0.18865202E-02 -0.76735308E-03
 -0.79647140E-03 -0.15054958E-02  0.22626931E-02
  0.11228689E-02  0.16259905E-03  0.14427086E-02
 -0.20886595E-02  0.55143317E-03 -0.23135290E-02
  0.28590201E-02  0.35455828E-02  0.49576062E-03
 -0.51268983E-03  0.32031757E-04 -0.78701042E-03
  0.68407055E-03 -0.19524102E-03 -0.15812877E-02
  0.35528972E-03  0.46689680E-03  0.31470219E-02
  0.13764655E-02 -0.13033244E-02  0.31474539E-02
  0.15529476E-02  0.91919058E-03 -0.22362254E-02
  0.22197013E-02  0.12645698E-02 -0.62863979E-03