Amorphous Sb                            
   1.00000000000000     
    19.9078869700586871    0.0000000000000000    0.0000000000000000
     0.0000000000000000   19.9078869700586871    0.0000000000000000
     0.0000000000000000    0.0000000000000000   19.9078869700586871
   Ga   Se
   150   150
Direct
  0.8132838873684587  0.3846675833175565  0.2523628949626323
  0.2391526124980389  0.1658450498554851  0.9275380492776176
  0.1615713076480287  0.1151506104199025  0.6395571028492634
  0.9906976657935386  0.9671329980586278  0.9373097456476230
  0.5614107980371619  0.0948030456631196  0.5814975622490423
  0.2024815066391348  0.9816812702251462  0.3950308699336047
  0.1796614027405353  0.7720437971334735  0.5201974168334756
  0.5929732851320215  0.0255831501182305  0.0317495270864054
  0.7490822548104753  0.4990796427221676  0.5478819510627344
  0.3113218545703577  0.0656824309273094  0.7610231471072534
  0.9641631802083982  0.1758967094954701  0.1891873100653975
  0.9258208386883001  0.3056861515335895  0.3932242683705043
  0.5008664791581948  0.7440154383874131  0.3327736762607549
  0.2279009093921493  0.5555770216254050  0.9403282860438883
  0.8525041866034083  0.8777910281252423  0.9677879096135745
  0.9920981600669923  0.0819963643203549  0.7138359235582394
  0.4271936338433778  0.9430546530530727  0.3586533212821342
  0.9534551968167986  0.4122996671149484  0.0252447950552976
  0.4878240197848873  0.3012571333980100  0.8960429447095520
  0.6075296677399591  0.0180355815245240  0.6685812680442296
  0.9505617189163906  0.5936099246998737  0.7115558071715774
  0.2869203485552036  0.3131222387458378  0.5860925250122920
  0.8422971064965845  0.8766266639044025  0.4461936168984486
  0.0840037342395896  0.7126270856786977  0.5822657950939747
  0.7354881220272960  0.3655543144292726  0.7630080967582297
  0.4307635574796504  0.5829250383507809  0.4244600100930196
  0.2031415079436754  0.4538207190992511  0.2462792811279149
  0.0191740879474198  0.8309907287772943  0.4612228542560918
  0.6357450268410951  0.5312408797974538  0.7680356464105191
  0.3219583833716763  0.0177910608938717  0.9506446404317009
  0.9133826759872983  0.7140150095589075  0.0164824720230791
  0.4222403026608137  0.4011620407893508  0.3814132761378698
  0.7285136230874145  0.9017133507350099  0.7888944034842066
  0.2494985794891104  0.4347254261788896  0.4086128475432185
  0.1121361472743336  0.6967337390108643  0.3840450837200317
  0.4936809788280109  0.1641944886084269  0.7454457703149301
  0.4600020863060799  0.6830873402547687  0.9254513045813472
  0.0375792129535788  0.9099445966378061  0.8337566007298242
  0.4196286996006180  0.0729536615188519  0.1384728395464555
  0.5172343073138559  0.9053011347860548  0.7644609828852710
  0.7294970880506091  0.9045184287839912  0.1849845164337883
  0.2086088812001992  0.3353384342871689  0.6763497749988800
  0.0994490203865487  0.2389389291598072  0.7598990915316562
  0.8258603361237413  0.3258146608156977  0.0041171996511742
  0.3970313999655031  0.5028866258256791  0.2920990147019575
  0.7764946905958386  0.1855907778153228  0.4637287573744840
  0.7566344148417975  0.8567130931698765  0.5931280621274019
  0.4846902460239849  0.4306506663117664  0.4912275967560313
  0.4729892502584536  0.9917825409965384  0.0507326367475695
  0.0638169876185558  0.4141359815020919  0.3465068631421326
  0.9472127110606671  0.7792844062374813  0.2834676423319010
  0.8072691704502019  0.1587027998383459  0.2939182493151657
  0.7046412922488814  0.7499675514328054  0.4336550343441711
  0.5635651134563163  0.2835322878371780  0.6119558884609515
  0.4777642792509212  0.6297716089141746  0.7302433464438063
  0.9209139352433899  0.9577740673944842  0.2335463203867578
  0.1671068617111975  0.4134014221521574  0.1378059123079824
  0.2519187084747628  0.6189364272558097  0.5075442347905151
  0.5692061055963216  0.2657104491395097  0.0185633052857311
  0.2577163356001500  0.8816533364501680  0.1239464829855436
  0.1063932156109996  0.4752267648195477  0.0500425026891265
  0.3796502753569147  0.2803237882098193  0.4127530229867057
  0.7050814240394658  0.1759408893656285  0.9739627219508212
  0.7888207696833373  0.7244675447521197  0.0358995608712071
  0.4914521245817169  0.0866034116147368  0.2427128343358116
  0.3203678437643258  0.4628485788987010  0.0542701785047614
  0.1458087188318435  0.5014769195476321  0.5682980651224866
  0.5892974978737594  0.5904962911203012  0.9724475927856914
  0.2191249681487495  0.1911271809441223  0.3902113867170239
  0.4412405547149894  0.4187697136562709  0.0609762475875998
  0.8904789427014498  0.9055784053450292  0.7637674170436818
  0.8402315524838386  0.6801266195064570  0.8277977106626067
  0.8134375014278311  0.2033361264525291  0.7285465673091358
  0.0517247058719933  0.6934549499142084  0.1983590113299941
  0.2219792217146292  0.0577725079053714  0.1070036606126033
  0.2430512264806833  0.6416546076825591  0.2152950862454990
  0.1149732273377936  0.9827391476697567  0.4848105702037271
  0.5757669326175155  0.4273806498459016  0.2256821490592631
  0.0558813284641832  0.4890937794936605  0.8947231744590569
  0.6551337026035080  0.7380758423138178  0.8717493995067483
  0.1565389340302754  0.2188888620235439  0.1850029552385107
  0.0766963698483668  0.0784753850699535  0.3185590056732092
  0.7946090968411605  0.9908902397242827  0.4804452631887978
  0.9572600671076295  0.8722007709526369  0.1138993279117496
  0.7144014201321299 -0.0186854303475958  0.3817634807409019
  0.7969881303488380  0.5215296877931421  0.9830134725835888
  0.4166045434986918  0.9046187898949801  0.8433835433318692
  0.7472387519235449  0.6303636460612920  0.1090183220427891
  0.5187101805288601  0.7796153584427127  0.5702295613453348
  0.5777381976844106  0.6172145455908925  0.4900755615971406
  0.0260457411115377  0.3683614487994754  0.2379084274932982
  0.1822561403688646  0.6881669208607254  0.8048279823277465
  0.3420753376264192  0.8934291656952250  0.6358064234764106
  0.7857036246807498  0.6973672575862189  0.5508512850620771
  0.1114804610731292  0.2054871110810997  0.5757373175839718
  0.9006950164332804  0.5662149655388056  0.2889244624980770
  0.3200898728343712  0.9293885050064966  0.2231251805456591
  0.1755282626551930  0.8390320559513372  0.2634443499752575
  0.3361116386248260  0.2755259936019805  0.2511527608796985
  0.4433205520150762  0.2454593167020846  0.5681705941129644
  0.7321312903594185  0.4473495202753364  0.1752181808970436
  0.8572680644013800  0.7413554626527866  0.2039052714230652
  0.2768180339774609  0.0455415588552484  0.5577157729650362
  0.6924459073157061  0.5426479903549477  0.9161211184059939
  0.7236490447887092  0.0888200954625146  0.1963705914953863
  0.6370191202190069  0.2328161534249896  0.3457943756606214
  0.0073744335888654  0.7646110479098784  0.9475384756508332
  0.7042071854081734  0.5571248553197363  0.4160510254901368
  0.8797529164001199  0.1096288513443659  0.0362791688635504
  0.1096141070662022  0.6027023718273473  0.7511515161395500
  0.6836127762440655  0.1654020392591289  0.6975779646918914
  0.5847345400485813  0.9885442770217864  0.3642972620508231
  0.3026748118876666  0.7421748035087214  0.6071484424872221
  0.9329434808958674  0.3583443359387052  0.7463508879779581
  0.4693847328370755  0.3212798449932135  0.7170282496507853
  0.5739797656828092  0.5798663726558039  0.1884312332011008
  0.2987221001184908  0.7096500879271663  0.0615957721338069
  0.9869373749907787  0.7415909871130352  0.7371022128948129
  0.3345192119043666  0.4449404145907050  0.8545590476225863
  0.4228898338054378  0.1925144781622968  0.0831040227183551
  0.3073952863828698  0.2322618079883033  0.8484804897915611
  0.9812860630486892  0.1586686447977873  0.8757396549938490
  0.5649660508514871  0.2433481361301105  0.8120103145208050
  0.9030923671288141  0.1683758634941560  0.5546757968820831
  0.5960457270914686  0.2730127422694558  0.4567015570440583
  0.4681666170476297  0.7297325441379756  0.1030133932875312
  0.8908467773152113  0.4191849878444027  0.4229289388570300
  0.1521207386461863  0.2603298950752413  0.4705217649802636
  0.6903824388112062  0.2348102380914293  0.1653220471876685
  0.7622735023533236  0.9732616527355357 -0.0115783512491589
  0.3437615636221812  0.7595137780328783  0.3376603065885090
  0.6382827119934543  0.0528878936465762  0.8356539201201705
  0.0765560959720849  0.1552581232472138  0.0079993424543849
  0.9447900431475197  0.5318107858579186  0.8638522296301823
  0.5030318585345305 -0.0148686252013327  0.5337451333470405
  0.5438566382343007  0.9053267603383477  0.1883505302485887
  0.4496302613477699  0.5247945890103181  0.5715801562743905
  0.6297999574730218  0.6132471880668625  0.6040196419216876
  0.9467551918912716  0.0333138488799790  0.4352353735005672
  0.6571400185021989  0.7441084455186762  0.1409929785366757
  0.1487968628452888  0.8523050135536633  0.8724779765804933
  0.1964884790055525  0.8830534472687064  0.9846938375039287
  0.4906290974697148  0.4575621766031089  0.7234789329338049
  0.0279994495113694  0.4434198671370374  0.5152296670349604
  0.3477352423885987  0.7989539426698897  0.8607012497177422
  0.8255140232670036  0.3446356811823968  0.5829038818846929
  0.6917578927416482  0.3842591123239097  0.3877233547179813
  0.2465279638744695  0.4902772042787502  0.7807771077374965
  0.4423729883604020  0.4906574851702407  0.9010721413644466
  0.4632719153379328  0.2859423292213229  0.2425795931372543
  0.7952674291838741  0.6621609714306106  0.4341170860986327
  0.9491930238594257  0.8128136211472409  0.8311674912302633
  0.4551504968666720  0.2021054628467801  0.9636871494434609
  0.6349934733832597  0.1909914308966712  0.5512384928464035
  0.6435260379173837  0.9737668017334848  0.9271868997319972
  0.8237697190900282  0.9526897777508277  0.8526752271114103
  0.7592999294764301  0.6690936188366597  0.2265657764222062
  0.3781857482031805  0.7591404035704356  0.9779093060165226
  0.5482639349507538  0.6944440862252849  0.2111758089620933
  0.7612429200774284  0.7707484493688700  0.9237251018980915
  0.8937310707920986  0.6935753049620667  0.6758961896312609
  0.4634413677518213  0.5774556611833829  0.9903580852330540
  0.2750587624715918  0.6049120051763820  0.8390616274931993
  0.0495562929254406  0.8163623440917580  0.2153273459800586
  0.7467123134601334  0.8456967816624474  0.3724410461129880
  0.4008566557946549  0.5459688648846923  0.6841033070834903
  0.2173813845975900  0.7066052599961019  0.3144514829370357
  0.4755185195475262  0.3070356474239744  0.1169010172535126
  0.5941860810816704  0.3768537163227005  0.5260401639411677
  0.3083068272502528  0.0534183152289471  0.1989744882993688
  0.5897761015647929  0.0102472514548939  0.2326621473744412
  0.7410589195939236  0.2840590040529228  0.2958329595637662
  0.6576131081071671  0.5154846124642581  0.2604060177577015
  0.4534588598983829  0.1362419887862019  0.6314822096907229
  0.1098772561662376  0.5729910640038912  0.9701771406651942
  0.2004669694893214  0.7835457686605725  0.0698595667571967
  0.8032973197077498  0.4664413947505556  0.3523020121837791
  0.0463938877679939  0.8690345953466728  0.0009308192308084
  0.9016888616757219  0.1148195386295699  0.7899369780082627
  0.7719677421808957  0.4204546033975504  0.6610315350896341
  0.2429178474504800  0.7975141429832426  0.7941492100602816
  0.8806479656546756  0.5091027791907577  0.7624974861588514
  0.7941655153523057  0.0985029105357445  0.9493194596865466
  0.6639197408988841  0.1718503185183108  0.8529884522008249
  0.3893980810897212  0.1430699694622791  0.8122953135129783
  0.3817775868317821  0.3305501804369786  0.8302362796553753
  0.8239546876582703  0.3004663239778507  0.8127364744986507
  0.2982670019096271  0.1135427035396279  0.0247293898194588
  0.5226920621588242  0.5513685172572724  0.8182672477512595
  0.2069399161267467  0.3730618015281243  0.5051248552571245
  0.1079715753860136  0.1140343777634359  0.7532502609211746
  0.8977595157459768  0.3327655896240410  0.0980837872929609
  0.8651178868147736  0.4240396157073825  0.9367674769251653
  0.0651258432715721  0.0719047311101408  0.9169409189239135
  0.6043593171514802  0.4987554755068708  0.6549340665094574
  0.9015032144255267  0.1881761262070545  0.4293290100150494
  0.0109792715037851  0.2698280542504137  0.8337575135703166
  0.3247252732781002  0.2231002058692604  0.5143441077830602
  0.5559753272801038  0.1979813458630090  0.2501087974262075
  0.5079686700844330  0.8734671014359614  0.0781587980550865
  0.6385058395294192  0.2956505742285223  0.7218924130994409
  0.9426036465193285  0.6732330404705962  0.1354536071065249
  0.7030465717525184  0.9570574467972697  0.5591199475484099
  0.9845486223217282  0.4826658235051769  0.2036765416353066
  0.1109400470250558  0.1191949345196773  0.1242264857161196
  0.2810730585379456  0.3701555447471633  0.1184325928840757
  0.0094712666842768  0.6701742453018852  0.3166801995632185
  0.2858106168161127  0.1269314476496300  0.6555136886265094
  0.1237113880393649  0.7343456972374391  0.9091633790969433
  0.9433578597607927  0.8704840124499339  0.3685819142603414
  0.4012681006542348  0.3590980562915266  0.6044520156742172
  0.5140925057416768  0.8972955615216229  0.4343494544008299
  0.2069990883242302  0.2932096531495422  0.7921794591461658
  0.6381379872695704  0.5670403073253402  0.0860203191370308
  0.5325494967409977  0.0398294081349820  0.7740553075968970
  0.7838727681545705 -0.0184800314757764  0.2662013387918352
  0.0859769336081832  0.3143212210539861  0.1431450724955448
  0.9588118072821727  0.0737087790102359  0.2849103685622119
  0.6777198760663783  0.7655001390806007  0.5562042013384688
  0.6117475354707633  0.6833409327184460  0.3905860203494021
  0.0872796902215671  0.7790346386637481  0.6876539109328476
  0.4804779018115184  0.4947941340909553  0.1817214718797373
  0.0703108465729116  0.0931851658837079  0.4416563398012234
  0.7099571036160642  0.0143423638497083  0.7391792224285638
  0.9928304043397472  0.7193553248810700  0.4995107830893067
  0.0592787736847153  0.3872733109611530  0.9664717110405225
  0.4723415248355257  0.0579726010088705  0.3654774108565147
  0.0561749503230545  0.5896009156513948  0.6389617117827938
  0.2955974643535584  0.7319523774968340  0.4792862102342940
  0.6378639411051003  0.8394350322827787  0.2343730133162806
  0.6229794237721724  0.1461058251075504  0.0583343661183520
  0.1599242774434845  0.9539331290054167  0.0886734852337227
  0.8845207999299094  0.6036509899447775  0.9484624698456995
  0.5672758584144360  0.6920584374504978  0.6778626563227590
  0.5191810728879500  0.4071839228956152  0.9569483262063346
  0.2807603715399688  0.5865278984419698  0.0456627934259316
  0.3330979659602695  0.9468833948156096  0.7498138021466242
  0.4564184310919193  0.6466815093027205  0.5263666676382214
  0.2980182077824902  0.5292636359798120  0.2166547013046730
  0.5298988847100470  0.3607981471594882  0.3178111024162661
  0.7527855391705965  0.6094372927769055  0.6304572627144667
  0.0070727402668306  0.6410968092326470  0.8159150250088022
  0.9563909470534810  0.1974385928725285 -0.0077457562363562
  0.4369430564647365  0.8819802558211723  0.2509785444253740
  0.4843786156893309  0.2192106243372921  0.4539344212318035
  0.7124584982612496  0.2974830382691201  0.9887602251027510
  0.2553897260920182  0.6332804583189562  0.6297104163687499
  0.3194753771671052  0.9107508959107677  0.0098330858666180
  0.9176361602238200  0.3037857015306243  0.2657855148812550
  0.3329655953255210  0.1890661892975586  0.3376665284189059
  0.8875660329162838  0.4454562435047295  0.5424130581692065
  0.4411635222398754  0.0045554523527666  0.9221083444558680
  0.1507901827077316  0.2377207062119348  0.9638348728636671
  0.3260196395717331  0.5199318186222380  0.4703833079647231
  0.0140105898481340  0.9292518119560295  0.5297470960776272
  0.2373702934120265  0.4581133452832030  0.6624165758515634
  0.9241555328106267 -0.0044923903732928  0.0382413247406684
  0.1198005769036405  0.4810986398416595  0.7890525557146643
  0.1576525827917665  0.4973618373555571  0.3543156802700440
  0.0869173250770075  0.3025981120967923  0.6539378661294190
  0.9942482851620849  0.9538702164434871  0.7162525087275229
  0.3411586820348379  0.7134064373275705  0.1749803640027426
  0.5748807424745750  0.7174846025258229  0.9633741634396199
  0.8098721762306408  0.8281913347570111  0.1230717699223369
  0.8399552763941660  0.1482750396618137  0.1422859830030542
  0.0470204615747080  0.3265569197346878  0.4348284126691618
  0.8982008536488689  0.2616260594960726  0.6342193197125174
  0.9841560653168701  0.4977749605008366  0.3949556507223305
  0.2704507721934539  0.0787821882727630  0.4381405616335696
  0.4119878716491797  0.6283957065267897  0.3171473709420650
  0.1519350229373199 -0.0090874955292297  0.2834681961743657
  0.8104243191702404  0.5193076911804813  0.1075717633214387
  0.8586796166694033  0.8045183661479826  0.5478712682475154
  0.2587390642310995  0.3592782844970280  0.3097939116037708
  0.2297434226795276  0.8425237811587024  0.6177591759046480
  0.7986445149811058  0.8366836189877630  0.7112842694158150
  0.7014232675020676  0.6269713086073342  0.8174600141767087
  0.3703031735051960  0.9644344097410149  0.5410651540533667
  0.6685361400132822  0.4384729105696411  0.8411291414240690
  0.1233466168578763  0.1944499500944616  0.3003650108191656
  0.9887843285497869  0.5136350279470956  0.0879116495964807
  0.2363105641281714  0.0511585972897364  0.8638844954573921
  0.2752619772052096  0.2220947273866130  0.1581006700616119
  0.7009421370956751  0.9936814756675768  0.1014813730845991
  0.4045549491575444  0.7901299777351560  0.6546705748708558
  0.4385380261455940  0.7184458859712487  0.8113007745763596
  0.6283944095614029  0.8292603306289512  0.7895604831973149
  0.2541671407870475  0.4345900494810320  0.9504329214994597
  0.1396390561784627  0.6247835953533732  0.1517490614669798
  0.5397798314511612  0.5226598707818647  0.4161852463855615
  0.3043649361091475  0.9114155018122717  0.3505087542456573
  0.1706433028254245  0.9976145530791691  0.5982507686910259
  0.7007027044982866  0.1299902376582807  0.3838987199859060
  0.7555264606233054  0.3037359376496722  0.4905662627795752
  0.1319769256554343  0.8193978344267692  0.4092913072608714
  0.5466679795014100  0.9085733029708576  0.6406884398940993
  0.0036594363091266  0.1122339296075936  0.5926801307786457
  0.6397423334354453  0.3742710789192303  0.1374230989722409
  0.7991324704193350  0.1019105160752752  0.5534889755498656
  0.1338436906579995  0.6137452023126789  0.4744983839162176
 
  0.00000000E+00  0.00000000E+00  0.00000000E+00
  0.00000000E+00  0.00000000E+00  0.00000000E+00
  0.00000000E+00  0.00000000E+00  0.00000000E+00
  0.00000000E+00  0.00000000E+00  0.00000000E+00
  0.00000000E+00  0.00000000E+00  0.00000000E+00
  0.00000000E+00  0.00000000E+00  0.00000000E+00
  0.00000000E+00  0.00000000E+00  0.00000000E+00
  0.00000000E+00  0.00000000E+00  0.00000000E+00
  0.00000000E+00  0.00000000E+00  0.00000000E+00
  0.00000000E+00  0.00000000E+00  0.00000000E+00
  0.00000000E+00  0.00000000E+00  0.00000000E+00
  0.00000000E+00  0.00000000E+00  0.00000000E+00
  0.00000000E+00  0.00000000E+00  0.00000000E+00
  0.00000000E+00  0.00000000E+00  0.00000000E+00
  0.00000000E+00  0.00000000E+00  0.00000000E+00
  0.00000000E+00  0.00000000E+00  0.00000000E+00
  0.00000000E+00  0.00000000E+00  0.00000000E+00
  0.00000000E+00  0.00000000E+00  0.00000000E+00
  0.00000000E+00  0.00000000E+00  0.00000000E+00
  0.00000000E+00  0.00000000E+00  0.00000000E+00
  0.00000000E+00  0.00000000E+00  0.00000000E+00
  0.00000000E+00  0.00000000E+00  0.00000000E+00
  0.00000000E+00  0.00000000E+00  0.00000000E+00
  0.00000000E+00  0.00000000E+00  0.00000000E+00
  0.00000000E+00  0.00000000E+00  0.00000000E+00
  0.00000000E+00  0.00000000E+00  0.00000000E+00
  0.00000000E+00  0.00000000E+00  0.00000000E+00
  0.00000000E+00  0.00000000E+00  0.00000000E+00
  0.00000000E+00  0.00000000E+00  0.00000000E+00
  0.00000000E+00  0.00000000E+00  0.00000000E+00
  0.00000000E+00  0.00000000E+00  0.00000000E+00
  0.00000000E+00  0.00000000E+00  0.00000000E+00
  0.00000000E+00  0.00000000E+00  0.00000000E+00
  0.00000000E+00  0.00000000E+00  0.00000000E+00
  0.00000000E+00  0.00000000E+00  0.00000000E+00
  0.00000000E+00  0.00000000E+00  0.00000000E+00
  0.00000000E+00  0.00000000E+00  0.00000000E+00
  0.00000000E+00  0.00000000E+00  0.00000000E+00
  0.00000000E+00  0.00000000E+00  0.00000000E+00
  0.00000000E+00  0.00000000E+00  0.00000000E+00
  0.00000000E+00  0.00000000E+00  0.00000000E+00
  0.00000000E+00  0.00000000E+00  0.00000000E+00
  0.00000000E+00  0.00000000E+00  0.00000000E+00
  0.00000000E+00  0.00000000E+00  0.00000000E+00
  0.00000000E+00  0.00000000E+00  0.00000000E+00
  0.00000000E+00  0.00000000E+00  0.00000000E+00
  0.00000000E+00  0.00000000E+00  0.00000000E+00
  0.00000000E+00  0.00000000E+00  0.00000000E+00
  0.00000000E+00  0.00000000E+00  0.00000000E+00
  0.00000000E+00  0.00000000E+00  0.00000000E+00
  0.00000000E+00  0.00000000E+00  0.00000000E+00
  0.00000000E+00  0.00000000E+00  0.00000000E+00
  0.00000000E+00  0.00000000E+00  0.00000000E+00
  0.00000000E+00  0.00000000E+00  0.00000000E+00
  0.00000000E+00  0.00000000E+00  0.00000000E+00
  0.00000000E+00  0.00000000E+00  0.00000000E+00
  0.00000000E+00  0.00000000E+00  0.00000000E+00
  0.00000000E+00  0.00000000E+00  0.00000000E+00
  0.00000000E+00  0.00000000E+00  0.00000000E+00
  0.00000000E+00  0.00000000E+00  0.00000000E+00
  0.00000000E+00  0.00000000E+00  0.00000000E+00
  0.00000000E+00  0.00000000E+00  0.00000000E+00
  0.00000000E+00  0.00000000E+00  0.00000000E+00
  0.00000000E+00  0.00000000E+00  0.00000000E+00
  0.00000000E+00  0.00000000E+00  0.00000000E+00
  0.00000000E+00  0.00000000E+00  0.00000000E+00
  0.00000000E+00  0.00000000E+00  0.00000000E+00
  0.00000000E+00  0.00000000E+00  0.00000000E+00
  0.00000000E+00  0.00000000E+00  0.00000000E+00
  0.00000000E+00  0.00000000E+00  0.00000000E+00
  0.00000000E+00  0.00000000E+00  0.00000000E+00
  0.00000000E+00  0.00000000E+00  0.00000000E+00
  0.00000000E+00  0.00000000E+00  0.00000000E+00
  0.00000000E+00  0.00000000E+00  0.00000000E+00
  0.00000000E+00  0.00000000E+00  0.00000000E+00
  0.00000000E+00  0.00000000E+00  0.00000000E+00
  0.00000000E+00  0.00000000E+00  0.00000000E+00
  0.00000000E+00  0.00000000E+00  0.00000000E+00
  0.00000000E+00  0.00000000E+00  0.00000000E+00
  0.00000000E+00  0.00000000E+00  0.00000000E+00
  0.00000000E+00  0.00000000E+00  0.00000000E+00
  0.00000000E+00  0.00000000E+00  0.00000000E+00
  0.00000000E+00  0.00000000E+00  0.00000000E+00
  0.00000000E+00  0.00000000E+00  0.00000000E+00
  0.00000000E+00  0.00000000E+00  0.00000000E+00
  0.00000000E+00  0.00000000E+00  0.00000000E+00
  0.00000000E+00  0.00000000E+00  0.00000000E+00
  0.00000000E+00  0.00000000E+00  0.00000000E+00
  0.00000000E+00  0.00000000E+00  0.00000000E+00
  0.00000000E+00  0.00000000E+00  0.00000000E+00
  0.00000000E+00  0.00000000E+00  0.00000000E+00
  0.00000000E+00  0.00000000E+00  0.00000000E+00
  0.00000000E+00  0.00000000E+00  0.00000000E+00
  0.00000000E+00  0.00000000E+00  0.00000000E+00
  0.00000000E+00  0.00000000E+00  0.00000000E+00
  0.00000000E+00  0.00000000E+00  0.00000000E+00
  0.00000000E+00  0.00000000E+00  0.00000000E+00
  0.00000000E+00  0.00000000E+00  0.00000000E+00
  0.00000000E+00  0.00000000E+00  0.00000000E+00
  0.00000000E+00  0.00000000E+00  0.00000000E+00
  0.00000000E+00  0.00000000E+00  0.00000000E+00
  0.00000000E+00  0.00000000E+00  0.00000000E+00
  0.00000000E+00  0.00000000E+00  0.00000000E+00
  0.00000000E+00  0.00000000E+00  0.00000000E+00
  0.00000000E+00  0.00000000E+00  0.00000000E+00
  0.00000000E+00  0.00000000E+00  0.00000000E+00
  0.00000000E+00  0.00000000E+00  0.00000000E+00
  0.00000000E+00  0.00000000E+00  0.00000000E+00
  0.00000000E+00  0.00000000E+00  0.00000000E+00
  0.00000000E+00  0.00000000E+00  0.00000000E+00
  0.00000000E+00  0.00000000E+00  0.00000000E+00
  0.00000000E+00  0.00000000E+00  0.00000000E+00
  0.00000000E+00  0.00000000E+00  0.00000000E+00
  0.00000000E+00  0.00000000E+00  0.00000000E+00
  0.00000000E+00  0.00000000E+00  0.00000000E+00
  0.00000000E+00  0.00000000E+00  0.00000000E+00
  0.00000000E+00  0.00000000E+00  0.00000000E+00
  0.00000000E+00  0.00000000E+00  0.00000000E+00
  0.00000000E+00  0.00000000E+00  0.00000000E+00
  0.00000000E+00  0.00000000E+00  0.00000000E+00
  0.00000000E+00  0.00000000E+00  0.00000000E+00
  0.00000000E+00  0.00000000E+00  0.00000000E+00
  0.00000000E+00  0.00000000E+00  0.00000000E+00
  0.00000000E+00  0.00000000E+00  0.00000000E+00
  0.00000000E+00  0.00000000E+00  0.00000000E+00
  0.00000000E+00  0.00000000E+00  0.00000000E+00
  0.00000000E+00  0.00000000E+00  0.00000000E+00
  0.00000000E+00  0.00000000E+00  0.00000000E+00
  0.00000000E+00  0.00000000E+00  0.00000000E+00
  0.00000000E+00  0.00000000E+00  0.00000000E+00
  0.00000000E+00  0.00000000E+00  0.00000000E+00
  0.00000000E+00  0.00000000E+00  0.00000000E+00
  0.00000000E+00  0.00000000E+00  0.00000000E+00
  0.00000000E+00  0.00000000E+00  0.00000000E+00
  0.00000000E+00  0.00000000E+00  0.00000000E+00
  0.00000000E+00  0.00000000E+00  0.00000000E+00
  0.00000000E+00  0.00000000E+00  0.00000000E+00
  0.00000000E+00  0.00000000E+00  0.00000000E+00
  0.00000000E+00  0.00000000E+00  0.00000000E+00
  0.00000000E+00  0.00000000E+00  0.00000000E+00
  0.00000000E+00  0.00000000E+00  0.00000000E+00
  0.00000000E+00  0.00000000E+00  0.00000000E+00
  0.00000000E+00  0.00000000E+00  0.00000000E+00
  0.00000000E+00  0.00000000E+00  0.00000000E+00
  0.00000000E+00  0.00000000E+00  0.00000000E+00
  0.00000000E+00  0.00000000E+00  0.00000000E+00
  0.00000000E+00  0.00000000E+00  0.00000000E+00
  0.00000000E+00  0.00000000E+00  0.00000000E+00
  0.00000000E+00  0.00000000E+00  0.00000000E+00
  0.00000000E+00  0.00000000E+00  0.00000000E+00
  0.00000000E+00  0.00000000E+00  0.00000000E+00
  0.00000000E+00  0.00000000E+00  0.00000000E+00
  0.00000000E+00  0.00000000E+00  0.00000000E+00
  0.00000000E+00  0.00000000E+00  0.00000000E+00
  0.00000000E+00  0.00000000E+00  0.00000000E+00
  0.00000000E+00  0.00000000E+00  0.00000000E+00
  0.00000000E+00  0.00000000E+00  0.00000000E+00
  0.00000000E+00  0.00000000E+00  0.00000000E+00
  0.00000000E+00  0.00000000E+00  0.00000000E+00
  0.00000000E+00  0.00000000E+00  0.00000000E+00
  0.00000000E+00  0.00000000E+00  0.00000000E+00
  0.00000000E+00  0.00000000E+00  0.00000000E+00
  0.00000000E+00  0.00000000E+00  0.00000000E+00
  0.00000000E+00  0.00000000E+00  0.00000000E+00
  0.00000000E+00  0.00000000E+00  0.00000000E+00
  0.00000000E+00  0.00000000E+00  0.00000000E+00
  0.00000000E+00  0.00000000E+00  0.00000000E+00
  0.00000000E+00  0.00000000E+00  0.00000000E+00
  0.00000000E+00  0.00000000E+00  0.00000000E+00
  0.00000000E+00  0.00000000E+00  0.00000000E+00
  0.00000000E+00  0.00000000E+00  0.00000000E+00
  0.00000000E+00  0.00000000E+00  0.00000000E+00
  0.00000000E+00  0.00000000E+00  0.00000000E+00
  0.00000000E+00  0.00000000E+00  0.00000000E+00
  0.00000000E+00  0.00000000E+00  0.00000000E+00
  0.00000000E+00  0.00000000E+00  0.00000000E+00
  0.00000000E+00  0.00000000E+00  0.00000000E+00
  0.00000000E+00  0.00000000E+00  0.00000000E+00
  0.00000000E+00  0.00000000E+00  0.00000000E+00
  0.00000000E+00  0.00000000E+00  0.00000000E+00
  0.00000000E+00  0.00000000E+00  0.00000000E+00
  0.00000000E+00  0.00000000E+00  0.00000000E+00
  0.00000000E+00  0.00000000E+00  0.00000000E+00
  0.00000000E+00  0.00000000E+00  0.00000000E+00
  0.00000000E+00  0.00000000E+00  0.00000000E+00
  0.00000000E+00  0.00000000E+00  0.00000000E+00
  0.00000000E+00  0.00000000E+00  0.00000000E+00
  0.00000000E+00  0.00000000E+00  0.00000000E+00
  0.00000000E+00  0.00000000E+00  0.00000000E+00
  0.00000000E+00  0.00000000E+00  0.00000000E+00
  0.00000000E+00  0.00000000E+00  0.00000000E+00
  0.00000000E+00  0.00000000E+00  0.00000000E+00
  0.00000000E+00  0.00000000E+00  0.00000000E+00
  0.00000000E+00  0.00000000E+00  0.00000000E+00
  0.00000000E+00  0.00000000E+00  0.00000000E+00
  0.00000000E+00  0.00000000E+00  0.00000000E+00
  0.00000000E+00  0.00000000E+00  0.00000000E+00
  0.00000000E+00  0.00000000E+00  0.00000000E+00
  0.00000000E+00  0.00000000E+00  0.00000000E+00
  0.00000000E+00  0.00000000E+00  0.00000000E+00
  0.00000000E+00  0.00000000E+00  0.00000000E+00
  0.00000000E+00  0.00000000E+00  0.00000000E+00
  0.00000000E+00  0.00000000E+00  0.00000000E+00
  0.00000000E+00  0.00000000E+00  0.00000000E+00
  0.00000000E+00  0.00000000E+00  0.00000000E+00
  0.00000000E+00  0.00000000E+00  0.00000000E+00
  0.00000000E+00  0.00000000E+00  0.00000000E+00
  0.00000000E+00  0.00000000E+00  0.00000000E+00
  0.00000000E+00  0.00000000E+00  0.00000000E+00
  0.00000000E+00  0.00000000E+00  0.00000000E+00
  0.00000000E+00  0.00000000E+00  0.00000000E+00
  0.00000000E+00  0.00000000E+00  0.00000000E+00
  0.00000000E+00  0.00000000E+00  0.00000000E+00
  0.00000000E+00  0.00000000E+00  0.00000000E+00
  0.00000000E+00  0.00000000E+00  0.00000000E+00
  0.00000000E+00  0.00000000E+00  0.00000000E+00
  0.00000000E+00  0.00000000E+00  0.00000000E+00
  0.00000000E+00  0.00000000E+00  0.00000000E+00
  0.00000000E+00  0.00000000E+00  0.00000000E+00
  0.00000000E+00  0.00000000E+00  0.00000000E+00
  0.00000000E+00  0.00000000E+00  0.00000000E+00
  0.00000000E+00  0.00000000E+00  0.00000000E+00
  0.00000000E+00  0.00000000E+00  0.00000000E+00
  0.00000000E+00  0.00000000E+00  0.00000000E+00
  0.00000000E+00  0.00000000E+00  0.00000000E+00
  0.00000000E+00  0.00000000E+00  0.00000000E+00
  0.00000000E+00  0.00000000E+00  0.00000000E+00
  0.00000000E+00  0.00000000E+00  0.00000000E+00
  0.00000000E+00  0.00000000E+00  0.00000000E+00
  0.00000000E+00  0.00000000E+00  0.00000000E+00
  0.00000000E+00  0.00000000E+00  0.00000000E+00
  0.00000000E+00  0.00000000E+00  0.00000000E+00