Ge Se                                   
   1.00000000000000     
    20.2740058898925781    0.0000000000000000    0.0000000000000000
     0.0000000000000000   20.2740058898925781    0.0000000000000000
     0.0000000000000000    0.0000000000000000   20.2740058898925781
   Ge   Se
   150   150
Direct
  0.8397133577763540  0.8345461368017340  0.2867109858211450
  0.3867507801385273  0.2302102819149567  0.3267340093530535
  0.6671666624791612  0.4020376308902556  0.5750841653592289
  0.0630705814438812  0.3741294085100435  0.9295457742338655
  0.8531004274518850  0.9997803974621533  0.4254409651323527
  0.3309903987599156  0.4026489259737716  0.1142803777589876
  0.4536902116139458  0.1294139432432431  0.8136119447319956
  0.9573434892843693  0.4478497371322021  0.9609037625360912
  0.1056372994430816  0.3811561613260110  0.3961625999077754
  0.1478015174587171  0.0115139266752351  0.4869496853395248
  0.0934759678771115  0.2582362580807285  0.9783002323180625
  0.8742209371875731  0.2194588510987217  0.2993276783235288
  0.0515609271946929  0.7706555401583728  0.8525095412976853
  0.7580754835362100  0.8288374364095006  0.3815564723483078
  0.1756949168119277  0.7608678128180983  0.6141292797988100
  0.6563781178934889  0.9247491584416494  0.9664163331101818
  0.0439770959970076  0.0062758079061140  0.6804118387934537
  0.0475390176937154  0.7612850523155288  0.3014817076513481
  0.7876889792940602  0.3636751627766301  0.5736558479781948
  0.1278998209215558  0.6415556658109764  0.6129032609443357
  0.5314898160625958  0.9005754455859858  0.9071158028166479
  0.8514880717659707  0.5208364538053871  0.5692190722335866
  0.2448017387196941  0.4718079052621604  0.0238089705061739
  0.7978959199383908  0.5990064999925480  0.8394757745285375
  0.9612157631476137  0.6508936717784977  0.7187072526054052
  0.4947679354198087  0.9288556850371990  0.1631917562752960
  0.6786150330532976  0.0602048701993780  0.6250829078225948
  0.5026157984119877  0.9356699109114857  0.2927719861971099
  0.3480582892881685  0.4972558360996260  0.7835237051524970
  0.6316820738023878  0.7254712068937934  0.7545913779244842
  0.7494529568434487  0.2531613288571322  0.4423707499763196
  0.1123695450800639  0.1003991156919213  0.5741210787546507
  0.7822801592265165  0.4821323650191047  0.9573347950936508
  0.0376273693610401  0.2163373693259629  0.8320335228973477
  0.6373538733897703  0.9990216666757377  0.4187536012436439
  0.3925030146852606  0.0857142542348512  0.2234778942864892
  0.2725949795953397  0.7840211775269026  0.1962584901826219
  0.7893489595289225  0.6904607330086776  0.9785559038787568
  0.7954783610214520  0.6761863384456532  0.5243244208097551
  0.0297992658148303  0.7012697521162323  0.1737743479977780
  0.8875665307408696  0.7370951316980552  0.8933117571729809
  0.6526127284865026  0.4093937382349750  0.7640172478614247
  0.0171404492891867  0.2055638153540542  0.6314517166900586
  0.4862298485545509  0.5125562557797494  0.4143258353405344
  0.2542528883585433  0.0394876654315297  0.6804096132718485
  0.6691358202308706  0.5201412431238666  0.7074369241309881
  0.3418241631704504  0.0615863166152195  0.0493094796017601
  0.4240763039556157  0.7986407121149313  0.5262595657472389
  0.7851600428277408  0.4186869870679715  0.2814687811484120
  0.5920907756321299  0.2350677208643717  0.8088559096792451
  0.1386437558036420  0.3025076860761047  0.5206280303934534
  0.9806792696389408  0.4021060572220350  0.2370268489162797
  0.9702697548283723  0.2721648620237147  0.4505191822094901
  0.8000576742687286  0.0861807842947329  0.1291912786314597
  0.2622803291788571  0.8674120791991058  0.9306998543206859
  0.1863210050442277  0.8549305050057470  0.3537329247663408
  0.7798407072523119  0.5710586736484871  0.2247783889191624
  0.7957958132839877  0.1092047808490619  0.9984706759664803
  0.2173475046828486  0.2951875735771665  0.2323465372842293
  0.5915216525189209  0.6087917843181501  0.7440035683340369
  0.9060219660434115  0.3830480027029992  0.4294663437256787
  0.4135625701243981  0.7373876460145397  0.1323728619307545
  0.8315464457264312  0.1865184824691184  0.7435143402063886
  0.4862826922983103  0.2943182255760348  0.8612604581524224
  0.4678370757191175  0.2137866699489877  0.4820922251223720
  0.5551382265149414  0.4463035896054706  0.8307934264488992
  0.6521693709623264  0.6989181567980438  0.0252043891884952
  0.4829433142876880  0.3983392284564431  0.1901074514959760
  0.6006724994723243  0.3061824551437269  0.9864360559839014
  0.1723190129534231  0.9454135433129807  0.7140302028602719
  0.5033120217602374  0.4098714315591394  0.4956400455922960
  0.4749477548200218  0.4695260592231705  0.0038683684532046
  0.9325454000783537  0.8224519523927896  0.4585919928478859
  0.2543929354232688  0.7265040880208389  0.8651704602394119
  0.8143433867016441  0.4515528486449583  0.6712728319089862
  0.0565074538168204  0.7942563582298590  0.5612565362132003
  0.4108345656521806  0.7163067505154714  0.8053942212813467
  0.3832917865368302  0.0240859215625591  0.4418918878898950
  0.0785695603892336  0.8235819694534143  0.7368115336657652
  0.6862757777064701  0.7228558627446660  0.2242135708212061
  0.1620621814103274  0.4836076831773468  0.7561209207682040
  0.8788689084183261  0.9675827962744634  0.6362423615137089
  0.0403108091805038  0.2223709274393428  0.2283733127821534
  0.1966957398739595  0.4187847816806780  0.2639579173713784
  0.3795740840343740  0.3321235712491557  0.6021138838762070
  0.3606065062578168  0.4833922507686097  0.2630684351281474
  0.2102407344659341  0.2274978428803820  0.6993541224628004
  0.6946591725205806  0.4650699272380550  0.1014496336970367
  0.8071421281668449  0.7459160750144065  0.2012541797466483
  0.9150775710507020  0.3540125333846404  0.7959368490065017
  0.2157435060105897  0.5464089497079172  0.3919667560701754
  0.1253310879527803  0.6689315938461675  0.4159167312725387
  0.4306909508717780  0.5974191757001108  0.7693077799770904
  0.1811637215901030  0.1094587067068176  0.8581773294220554
  0.3217287694275228  0.3781913882298724  0.4953654978397566
  0.7286276831344765  0.0016993252668058  0.2766611364576903
  0.3540296760485404  0.7053797481089461  0.2969792220497496
  0.2536712125918399  0.8535365577891696  0.4593932301465244
  0.5430533828974617  0.9347407032024293  0.5395075111186003
  0.7379382597476507  0.7156904764792458  0.8320611681634205
  0.2971117347610104  0.4629717146244872  0.6329846519801166
  0.8957191910412163  0.0458485230429844  0.9139541505581406
  0.6541988808389192  0.0117106528002537  0.0627761011578087
  0.5301222142013486  0.6256832883200119  0.4632620960382141
  0.4791628136297561  0.1387710543082648  0.1470677361546819
  0.5128699562248329  0.7471391107174981  0.6451111993004019
  0.1857113492375646  0.3023584964882531  0.8065953277389610
  0.1435895127253559  0.9858186774838202  0.3221023624883657
  0.6058916437763813  0.5252722787472877  0.2676103534908307
  0.8017957516598315  0.3347711751050397  0.9767065927783847
  0.5760871790962625  0.0141513159528586  0.6914309574486808
  0.2426295497784707  0.6070240333662014  0.9046569255201362
  0.6132471838553926  0.7464945164003893  0.3321717649356017
  0.5116986599119215  0.2100026682004383  0.6659161331355961
  0.1085416849080048  0.6429593764185313  0.0324414090098415
  0.0665331846994874  0.0999372933801226  0.9676938664133985
  0.1711049730541490  0.5419017805437107  0.5518892598355194
  0.8449410107691193  0.7536997222799542  0.0798502541727331
  0.5447733687923559  0.6305920822961966  0.0618309798396908
  0.9276348832213799  0.1006990512046713  0.1689108456187896
  0.6693888479972543  0.8053983304035626  0.8942442244132067
  0.5151507671452151  0.2510310065320311  0.1989085330514655
  0.6550610750917798  0.1663599478746534  0.2840289545667858
  0.0152632414680838  0.9564905149723870  0.1119744260767135
  0.7020476073713411  0.9094807006528356  0.7856345011521313
  0.0634813612919274  0.1056881229172220  0.2780827242982724
  0.7378875728803393  0.3674679021938587  0.8571415369507420
  0.9443401696477025  0.2314305587300822  0.0260664053280664
  0.1887562636411602  0.0024255189899876  0.0873922119305490
  0.2213004982581879  0.1905878978510600  0.4159074491423382
  0.3191408231436839  0.8898569743567890  0.6122377605327642
  0.4056358031413225  0.9715787328397099  0.9923246696689176
  0.0042167997538201  0.3934678760000452  0.6044073641909762
  0.0537904988281639  0.9491355853529484  0.8664394086030143
  0.9858218214388188  0.8342588594479068  0.0413775127235283
  0.9520349702309900  0.0798238997920251  0.5619146998551372
  0.6586324888932538  0.2420653461822013  0.6359224743951657
  0.6122965564641234  0.7595114973667663  0.1313516550405538
  0.6009365515086174  0.3521795512469339  0.6640621958359034
  0.7178397669925261  0.3089447060778170  0.2088815180456578
  0.9361484882889357  0.6134269995284569  0.4601507493063153
  0.1681365495634211  0.4467179996466086  0.9251221731147581
  0.2404278900687942  0.7593579134104047  0.7270809428486373
  0.7114959357582222  0.0649293155662534  0.8283936755842092
  0.3392638017068776  0.6671462737790463  0.5496333240705482
  0.1274106144126108  0.8406364429442306  0.0606449831803175
  0.4267059455112872  0.7339428720593091  0.9438375337803251
  0.9650097060191598  0.5692250911697343  0.0091797867020560
  0.1601003779835253  0.3254284085088273  0.0642682192170767
  0.5509292764581133  0.0352409204437336  0.1346356767641410
  0.2408963860457973  0.7376942952384624  0.5088993834738105
  0.7017340371464016  0.5463606929324172  0.8895821512030366
  0.4974913666116265  0.8162766355613584  0.0102247647015687
  0.4403581666616532  0.5201387349678157  0.1864841608300694
  0.1787769701730966  0.4360026220917987  0.6055070183503162
  0.7452466504975419  0.9767447154471114  0.1341566512296524
  0.7276429745339641  0.5250626553308777  0.3231233383961865
  0.9339978067724175  0.4400878213293709  0.7012706505557844
  0.8368824376906332  0.5799288435482239  0.0197748544235168
  0.4788552006078248  0.0929621872415183  0.6997474417937894
  0.4262009318410094  0.3290890679664216  0.4405696063044289
  0.8302261134622029  0.7827755815029747  0.7949849392878647
  0.1726775419233419  0.9770476959778875  0.8328577098182635
  0.9544602589620226  0.2372682809635194  0.7398239321727900
  0.1983005303722365  0.2429453845123462  0.9120814568819924
  0.9490809237270668  0.4645444537979131  0.5131753183117453
  0.0097085274260635  0.0671960804932112  0.8569984708892875
  0.8987390470470729  0.3764104396577181  0.0413189452534652
  0.9034043784669876  0.6283093440864675  0.5882951138203936
  0.1138709567803744  0.2888269388613907  0.6445069786891651
  0.5001273179238268  0.6142972841040617  0.6650456029422571
  0.9041028014981762  0.4544963314906312  0.3290724954213005
  0.3424231143930214  0.5434233817126710  0.8985750411456550
  0.0967341180186381  0.7977679860998066  0.4149619485439473
  0.4309208652450778  0.6359011468745948  0.0197950877316941
  0.6690721185452659  0.8973816301972022  0.3413797614021021
  0.5355736609532258  0.8317107281183382  0.4826904940564134
  0.0274629712200394  0.6475670656071486  0.3412337918992066
  0.9510370465415576  0.8413191873342569  0.3337296970796473
  0.5553682547190206  0.5129524576870850  0.0892805872968339
  0.1172515935979206  0.1536087463843927  0.7553624504884624
  0.7510318404467640  0.9601752931718437  0.8926255394783524
  0.7443422742343699  0.0587668285676344  0.3965491951883564
  0.4173914286580285  0.8801267403462845  0.0769684525410170
  0.8314266287485594  0.0466200414175333  0.5463841739377173
  0.6324162824029074  0.2181236720402353  0.1717171639299622
  0.9954033538850737  0.9587258472924276  0.5729872373154450
  0.2268593374196257  0.4176843131256192  0.3857613686835890
  0.7050960016200705  0.3446695326193279  0.0558599617064388
  0.6769982439590763  0.2627394068383424  0.8959003172490441
  0.3555321071230182  0.0042369239016935  0.6303012275244555
  0.0654029256163469  0.5843878467460399  0.6957662695779021
  0.4069976249370626  0.2128748686936603  0.5958072343818159
  0.1419205848938887  0.7267474822510209  0.1215209874828744
  0.3204062357492319  0.6662472345077788  0.1796227800420667
  0.1060164392171643  0.1831538282169305  0.4800807948946044
  0.8445630329247180  0.9527434720135233  0.2753761315205736
  0.0823392563170557  0.4572405626287406  0.2927343897540169
  0.2826075617088364  0.5567298563897509  0.5060113578815972
  0.2281428502435787  0.0349413808327697  0.4002985721404926
  0.2425516470169171  0.4073883515534931  0.8357376319066034
  0.2381372560372412  0.0826534921310937  0.0013053764087445
  0.9848788997334097  0.6681900059515158  0.8519301434046227
  0.2267350435370190  0.7459333620599793  0.3097342766033222
  0.2739438031440287  0.2962797019328747  0.0820945128018096
  0.3112764381254109  0.3510379226409128  0.6978125634062451
  0.3706030044270605  0.5175392021877201  0.3770820825225414
  0.9320008065643748  0.0712552775251751  0.6877581535165191
  0.9757887123667786  0.5254578574369120  0.1251279352498500
  0.3914827838781534  0.8110694438184183  0.2424000416563032
  0.0501282777199066  0.6747985964205228  0.5219531410098099
  0.5886995903207293  0.1699635263180141  0.5727515390611302
  0.9650646372108298  0.8357543269775647  0.9154434954516830
  0.3967662020263916  0.9995396708003952  0.3109615432579744
  0.7199929857080321  0.8263936833415357  0.0048218424981172
  0.5778686844465497  0.0336499570195699  0.2548870722719627
  0.4177633131946479  0.6908975099355104  0.4518708545823102
  0.7704385121985666  0.2426783769624379  0.5925838730726838
  0.5304523598234141  0.5670991677896922  0.8424476363038949
  0.1030277981220493  0.3123503650494754  0.1759974835730063
  0.7761703146915480  0.5763114247253256  0.7180414021671950
  0.4435498680921413  0.3642667931347674  0.0685498908149711
  0.6994043139880404  0.7336054456992471  0.4208006649874889
  0.5834682405185703  0.7244344172655772  0.9265150833580833
  0.8638807269595432  0.6508207823425494  0.2492776756488411
  0.6365676830230029  0.7461342312227259  0.6389731027363723
  0.5147456759327937  0.9172606936525938  0.6524245293375515
  0.6743346872529585  0.1153797421747385  0.0046174423089127
  0.5157080867247785  0.0068351736104049  0.9717675008646580
  0.0688945245809265  0.3432284168382296  0.8105245165566544
  0.3120633028363642  0.1677269846894802  0.2492349110573144
  0.7545913676108853  0.0068017660913071  0.7201432742533598
  0.6746704556530787  0.1753479908029050  0.7362035992419820
  0.3080877712959307  0.7539634100067403  0.9774993997406511
  0.8711435770349993  0.7175931524085826  0.4309902796668368
  0.2489597707516822  0.8943221796713985  0.0537321537407180
  0.8005914547581838  0.3134954362670115  0.7638572399457431
  0.3325651042800288  0.0055627428981424  0.1544335000810690
  0.9377993831431155  0.2899725313888482  0.5753320213413744
  0.6932017693292210  0.6180032878303265  0.1600714484156782
  0.9618832707854139  0.7112576456657536  0.0634681792534977
  0.2004739953766190  0.9118984144921214  0.5524594478741918
  0.8756448553552190  0.4659577789486704  0.8697166384539301
  0.3641270538176826  0.3634744594474881  0.2402358450137356
  0.4062515714998867  0.2355557125993784  0.7910771226709556
  0.0742665169286241  0.5863918214700163  0.1477209471578220
  0.3798834956811277  0.9083754595211317  0.8966094349818476
  0.0485605217039193  0.0747775186976938  0.1577104317515534
  0.9901700204871631  0.7649351532063378  0.6718583658716781
  0.9508501862792471  0.1017072722979790  0.0173951996361410
  0.4997454434173818  0.0341620590718890  0.4894268150741325
  0.5574057173902602  0.6351478459389597  0.3432681973361440
  0.2851109348941847  0.1178046988500085  0.7795309308287983
  0.5983548216214061  0.9812571023236458  0.8050843581113227
  0.8190915575023112  0.4731287158614066  0.1703271855838580
  0.4891807498149277  0.3941494945625124  0.6200933841497829
  0.6614491607749571  0.9582268107695242  0.5380480040850344
  0.8737526919012382  0.8696580677709207  0.0727396956259128
  0.1041803447048721  0.8960714226395723  0.1695076691571060
  0.6895285085022351  0.2783508998369157  0.3288680529461345
  0.5839403039166555  0.4265578573569186  0.9466922527116495
  0.8275047370885602  0.1384576953898531  0.8612513798682642
  0.6610555383587098  0.5216569878833255  0.5884583412761941
  0.1445153561057069  0.4427150563138014  0.0890240490427843
  0.0629965565718393  0.9697432705097953  0.4135166844117748
  0.9971789974169738  0.9153965538224043  0.7566514658735812
  0.5152639752560617  0.7775172105711619  0.7701380989124402
  0.3645557825819239  0.0523349433933902  0.8407338347211990
  0.5238123057008934  0.6846856280424163  0.1745749083840948
  0.3702909511297889  0.1558969781355160  0.4279426027226165
  0.7747253831519174  0.1276419007112679  0.2412183437163904
  0.5040724956033529  0.1950559165134464  0.3071395787436586
  0.9376943985485369  0.1062487908275855  0.2948857784466270
  0.9384970827144627  0.2240447397010357  0.1551942331208380
  0.6393098126826686  0.4089579981512799  0.1981121609764998
  0.2778464485527508  0.8777928029724293  0.7313577506524638
  0.1046478986393495  0.5257172664763488  0.4551154113526010
  0.1518657279711277  0.2694096447273466  0.3389700873825987
  0.8673864479951732  0.2036991816340219  0.4274240518180932
  0.2510649668909508  0.5215155755011551  0.2315874089739935
  0.5412624159928257  0.4432017848129490  0.3350458436775554
  0.8023159675608866  0.5626782003317530  0.4679264750292802
  0.8195410567418548  0.2242550252504003  0.0388778225539781
  0.2292230812905842  0.1265158592215911  0.5999127470263375
  0.1465850167473448  0.7517927814084473  0.9269471558440827
  0.6019590881869874  0.8775113176078690  0.1402741099308003
  0.8186837266501499  0.8831464670515743  0.4714759997796136
  0.3513414913472985  0.7207641621870380  0.6944786787781467
  0.2586859781325899  0.2700987971335138  0.5144653500568594
  0.0890336848804480  0.9816682467562359  0.0085724049946094
  0.4529318438301289  0.3957059258480058  0.8018138750999455
  0.3686549666420902  0.8754084719498536  0.4430473362370435
  0.9847172995960278  0.2952303136248631  0.3088355330316048
  0.5516909466761604  0.1401095249518249  0.8775827440442185
  0.2564802331400102  0.5564810412025452  0.7182292743292606
  0.2303657251453473  0.5967939669201883  0.0262067691242578
  0.7846242441203017  0.3755389052199902  0.4457873742338450
  0.6147527915121458  0.3703778140489788  0.4737031807644883
  0.1388795259073987  0.5518017118446892  0.8684856238016607
  0.4089716653278401  0.1581215618565537  0.0515852662752962
 
  0.00000000E+00  0.00000000E+00  0.00000000E+00
  0.00000000E+00  0.00000000E+00  0.00000000E+00
  0.00000000E+00  0.00000000E+00  0.00000000E+00
  0.00000000E+00  0.00000000E+00  0.00000000E+00
  0.00000000E+00  0.00000000E+00  0.00000000E+00
  0.00000000E+00  0.00000000E+00  0.00000000E+00
  0.00000000E+00  0.00000000E+00  0.00000000E+00
  0.00000000E+00  0.00000000E+00  0.00000000E+00
  0.00000000E+00  0.00000000E+00  0.00000000E+00
  0.00000000E+00  0.00000000E+00  0.00000000E+00
  0.00000000E+00  0.00000000E+00  0.00000000E+00
  0.00000000E+00  0.00000000E+00  0.00000000E+00
  0.00000000E+00  0.00000000E+00  0.00000000E+00
  0.00000000E+00  0.00000000E+00  0.00000000E+00
  0.00000000E+00  0.00000000E+00  0.00000000E+00
  0.00000000E+00  0.00000000E+00  0.00000000E+00
  0.00000000E+00  0.00000000E+00  0.00000000E+00
  0.00000000E+00  0.00000000E+00  0.00000000E+00
  0.00000000E+00  0.00000000E+00  0.00000000E+00
  0.00000000E+00  0.00000000E+00  0.00000000E+00
  0.00000000E+00  0.00000000E+00  0.00000000E+00
  0.00000000E+00  0.00000000E+00  0.00000000E+00
  0.00000000E+00  0.00000000E+00  0.00000000E+00
  0.00000000E+00  0.00000000E+00  0.00000000E+00
  0.00000000E+00  0.00000000E+00  0.00000000E+00
  0.00000000E+00  0.00000000E+00  0.00000000E+00
  0.00000000E+00  0.00000000E+00  0.00000000E+00
  0.00000000E+00  0.00000000E+00  0.00000000E+00
  0.00000000E+00  0.00000000E+00  0.00000000E+00
  0.00000000E+00  0.00000000E+00  0.00000000E+00
  0.00000000E+00  0.00000000E+00  0.00000000E+00
  0.00000000E+00  0.00000000E+00  0.00000000E+00
  0.00000000E+00  0.00000000E+00  0.00000000E+00
  0.00000000E+00  0.00000000E+00  0.00000000E+00
  0.00000000E+00  0.00000000E+00  0.00000000E+00
  0.00000000E+00  0.00000000E+00  0.00000000E+00
  0.00000000E+00  0.00000000E+00  0.00000000E+00
  0.00000000E+00  0.00000000E+00  0.00000000E+00
  0.00000000E+00  0.00000000E+00  0.00000000E+00
  0.00000000E+00  0.00000000E+00  0.00000000E+00
  0.00000000E+00  0.00000000E+00  0.00000000E+00
  0.00000000E+00  0.00000000E+00  0.00000000E+00
  0.00000000E+00  0.00000000E+00  0.00000000E+00
  0.00000000E+00  0.00000000E+00  0.00000000E+00
  0.00000000E+00  0.00000000E+00  0.00000000E+00
  0.00000000E+00  0.00000000E+00  0.00000000E+00
  0.00000000E+00  0.00000000E+00  0.00000000E+00
  0.00000000E+00  0.00000000E+00  0.00000000E+00
  0.00000000E+00  0.00000000E+00  0.00000000E+00
  0.00000000E+00  0.00000000E+00  0.00000000E+00
  0.00000000E+00  0.00000000E+00  0.00000000E+00
  0.00000000E+00  0.00000000E+00  0.00000000E+00
  0.00000000E+00  0.00000000E+00  0.00000000E+00
  0.00000000E+00  0.00000000E+00  0.00000000E+00
  0.00000000E+00  0.00000000E+00  0.00000000E+00
  0.00000000E+00  0.00000000E+00  0.00000000E+00
  0.00000000E+00  0.00000000E+00  0.00000000E+00
  0.00000000E+00  0.00000000E+00  0.00000000E+00
  0.00000000E+00  0.00000000E+00  0.00000000E+00
  0.00000000E+00  0.00000000E+00  0.00000000E+00
  0.00000000E+00  0.00000000E+00  0.00000000E+00
  0.00000000E+00  0.00000000E+00  0.00000000E+00
  0.00000000E+00  0.00000000E+00  0.00000000E+00
  0.00000000E+00  0.00000000E+00  0.00000000E+00
  0.00000000E+00  0.00000000E+00  0.00000000E+00
  0.00000000E+00  0.00000000E+00  0.00000000E+00
  0.00000000E+00  0.00000000E+00  0.00000000E+00
  0.00000000E+00  0.00000000E+00  0.00000000E+00
  0.00000000E+00  0.00000000E+00  0.00000000E+00
  0.00000000E+00  0.00000000E+00  0.00000000E+00
  0.00000000E+00  0.00000000E+00  0.00000000E+00
  0.00000000E+00  0.00000000E+00  0.00000000E+00
  0.00000000E+00  0.00000000E+00  0.00000000E+00
  0.00000000E+00  0.00000000E+00  0.00000000E+00
  0.00000000E+00  0.00000000E+00  0.00000000E+00
  0.00000000E+00  0.00000000E+00  0.00000000E+00
  0.00000000E+00  0.00000000E+00  0.00000000E+00
  0.00000000E+00  0.00000000E+00  0.00000000E+00
  0.00000000E+00  0.00000000E+00  0.00000000E+00
  0.00000000E+00  0.00000000E+00  0.00000000E+00
  0.00000000E+00  0.00000000E+00  0.00000000E+00
  0.00000000E+00  0.00000000E+00  0.00000000E+00
  0.00000000E+00  0.00000000E+00  0.00000000E+00
  0.00000000E+00  0.00000000E+00  0.00000000E+00
  0.00000000E+00  0.00000000E+00  0.00000000E+00
  0.00000000E+00  0.00000000E+00  0.00000000E+00
  0.00000000E+00  0.00000000E+00  0.00000000E+00
  0.00000000E+00  0.00000000E+00  0.00000000E+00
  0.00000000E+00  0.00000000E+00  0.00000000E+00
  0.00000000E+00  0.00000000E+00  0.00000000E+00
  0.00000000E+00  0.00000000E+00  0.00000000E+00
  0.00000000E+00  0.00000000E+00  0.00000000E+00
  0.00000000E+00  0.00000000E+00  0.00000000E+00
  0.00000000E+00  0.00000000E+00  0.00000000E+00
  0.00000000E+00  0.00000000E+00  0.00000000E+00
  0.00000000E+00  0.00000000E+00  0.00000000E+00
  0.00000000E+00  0.00000000E+00  0.00000000E+00
  0.00000000E+00  0.00000000E+00  0.00000000E+00
  0.00000000E+00  0.00000000E+00  0.00000000E+00
  0.00000000E+00  0.00000000E+00  0.00000000E+00
  0.00000000E+00  0.00000000E+00  0.00000000E+00
  0.00000000E+00  0.00000000E+00  0.00000000E+00
  0.00000000E+00  0.00000000E+00  0.00000000E+00
  0.00000000E+00  0.00000000E+00  0.00000000E+00
  0.00000000E+00  0.00000000E+00  0.00000000E+00
  0.00000000E+00  0.00000000E+00  0.00000000E+00
  0.00000000E+00  0.00000000E+00  0.00000000E+00
  0.00000000E+00  0.00000000E+00  0.00000000E+00
  0.00000000E+00  0.00000000E+00  0.00000000E+00
  0.00000000E+00  0.00000000E+00  0.00000000E+00
  0.00000000E+00  0.00000000E+00  0.00000000E+00
  0.00000000E+00  0.00000000E+00  0.00000000E+00
  0.00000000E+00  0.00000000E+00  0.00000000E+00
  0.00000000E+00  0.00000000E+00  0.00000000E+00
  0.00000000E+00  0.00000000E+00  0.00000000E+00
  0.00000000E+00  0.00000000E+00  0.00000000E+00
  0.00000000E+00  0.00000000E+00  0.00000000E+00
  0.00000000E+00  0.00000000E+00  0.00000000E+00
  0.00000000E+00  0.00000000E+00  0.00000000E+00
  0.00000000E+00  0.00000000E+00  0.00000000E+00
  0.00000000E+00  0.00000000E+00  0.00000000E+00
  0.00000000E+00  0.00000000E+00  0.00000000E+00
  0.00000000E+00  0.00000000E+00  0.00000000E+00
  0.00000000E+00  0.00000000E+00  0.00000000E+00
  0.00000000E+00  0.00000000E+00  0.00000000E+00
  0.00000000E+00  0.00000000E+00  0.00000000E+00
  0.00000000E+00  0.00000000E+00  0.00000000E+00
  0.00000000E+00  0.00000000E+00  0.00000000E+00
  0.00000000E+00  0.00000000E+00  0.00000000E+00
  0.00000000E+00  0.00000000E+00  0.00000000E+00
  0.00000000E+00  0.00000000E+00  0.00000000E+00
  0.00000000E+00  0.00000000E+00  0.00000000E+00
  0.00000000E+00  0.00000000E+00  0.00000000E+00
  0.00000000E+00  0.00000000E+00  0.00000000E+00
  0.00000000E+00  0.00000000E+00  0.00000000E+00
  0.00000000E+00  0.00000000E+00  0.00000000E+00
  0.00000000E+00  0.00000000E+00  0.00000000E+00
  0.00000000E+00  0.00000000E+00  0.00000000E+00
  0.00000000E+00  0.00000000E+00  0.00000000E+00
  0.00000000E+00  0.00000000E+00  0.00000000E+00
  0.00000000E+00  0.00000000E+00  0.00000000E+00
  0.00000000E+00  0.00000000E+00  0.00000000E+00
  0.00000000E+00  0.00000000E+00  0.00000000E+00
  0.00000000E+00  0.00000000E+00  0.00000000E+00
  0.00000000E+00  0.00000000E+00  0.00000000E+00
  0.00000000E+00  0.00000000E+00  0.00000000E+00
  0.00000000E+00  0.00000000E+00  0.00000000E+00
  0.00000000E+00  0.00000000E+00  0.00000000E+00
  0.00000000E+00  0.00000000E+00  0.00000000E+00
  0.00000000E+00  0.00000000E+00  0.00000000E+00
  0.00000000E+00  0.00000000E+00  0.00000000E+00
  0.00000000E+00  0.00000000E+00  0.00000000E+00
  0.00000000E+00  0.00000000E+00  0.00000000E+00
  0.00000000E+00  0.00000000E+00  0.00000000E+00
  0.00000000E+00  0.00000000E+00  0.00000000E+00
  0.00000000E+00  0.00000000E+00  0.00000000E+00
  0.00000000E+00  0.00000000E+00  0.00000000E+00
  0.00000000E+00  0.00000000E+00  0.00000000E+00
  0.00000000E+00  0.00000000E+00  0.00000000E+00
  0.00000000E+00  0.00000000E+00  0.00000000E+00
  0.00000000E+00  0.00000000E+00  0.00000000E+00
  0.00000000E+00  0.00000000E+00  0.00000000E+00
  0.00000000E+00  0.00000000E+00  0.00000000E+00
  0.00000000E+00  0.00000000E+00  0.00000000E+00
  0.00000000E+00  0.00000000E+00  0.00000000E+00
  0.00000000E+00  0.00000000E+00  0.00000000E+00
  0.00000000E+00  0.00000000E+00  0.00000000E+00
  0.00000000E+00  0.00000000E+00  0.00000000E+00
  0.00000000E+00  0.00000000E+00  0.00000000E+00
  0.00000000E+00  0.00000000E+00  0.00000000E+00
  0.00000000E+00  0.00000000E+00  0.00000000E+00
  0.00000000E+00  0.00000000E+00  0.00000000E+00
  0.00000000E+00  0.00000000E+00  0.00000000E+00
  0.00000000E+00  0.00000000E+00  0.00000000E+00
  0.00000000E+00  0.00000000E+00  0.00000000E+00
  0.00000000E+00  0.00000000E+00  0.00000000E+00
  0.00000000E+00  0.00000000E+00  0.00000000E+00
  0.00000000E+00  0.00000000E+00  0.00000000E+00
  0.00000000E+00  0.00000000E+00  0.00000000E+00
  0.00000000E+00  0.00000000E+00  0.00000000E+00
  0.00000000E+00  0.00000000E+00  0.00000000E+00
  0.00000000E+00  0.00000000E+00  0.00000000E+00
  0.00000000E+00  0.00000000E+00  0.00000000E+00
  0.00000000E+00  0.00000000E+00  0.00000000E+00
  0.00000000E+00  0.00000000E+00  0.00000000E+00
  0.00000000E+00  0.00000000E+00  0.00000000E+00
  0.00000000E+00  0.00000000E+00  0.00000000E+00
  0.00000000E+00  0.00000000E+00  0.00000000E+00
  0.00000000E+00  0.00000000E+00  0.00000000E+00
  0.00000000E+00  0.00000000E+00  0.00000000E+00
  0.00000000E+00  0.00000000E+00  0.00000000E+00
  0.00000000E+00  0.00000000E+00  0.00000000E+00
  0.00000000E+00  0.00000000E+00  0.00000000E+00
  0.00000000E+00  0.00000000E+00  0.00000000E+00
  0.00000000E+00  0.00000000E+00  0.00000000E+00
  0.00000000E+00  0.00000000E+00  0.00000000E+00
  0.00000000E+00  0.00000000E+00  0.00000000E+00
  0.00000000E+00  0.00000000E+00  0.00000000E+00
  0.00000000E+00  0.00000000E+00  0.00000000E+00
  0.00000000E+00  0.00000000E+00  0.00000000E+00
  0.00000000E+00  0.00000000E+00  0.00000000E+00
  0.00000000E+00  0.00000000E+00  0.00000000E+00
  0.00000000E+00  0.00000000E+00  0.00000000E+00
  0.00000000E+00  0.00000000E+00  0.00000000E+00
  0.00000000E+00  0.00000000E+00  0.00000000E+00
  0.00000000E+00  0.00000000E+00  0.00000000E+00
  0.00000000E+00  0.00000000E+00  0.00000000E+00
  0.00000000E+00  0.00000000E+00  0.00000000E+00
  0.00000000E+00  0.00000000E+00  0.00000000E+00
  0.00000000E+00  0.00000000E+00  0.00000000E+00
  0.00000000E+00  0.00000000E+00  0.00000000E+00
  0.00000000E+00  0.00000000E+00  0.00000000E+00
  0.00000000E+00  0.00000000E+00  0.00000000E+00
  0.00000000E+00  0.00000000E+00  0.00000000E+00
  0.00000000E+00  0.00000000E+00  0.00000000E+00
  0.00000000E+00  0.00000000E+00  0.00000000E+00
  0.00000000E+00  0.00000000E+00  0.00000000E+00
  0.00000000E+00  0.00000000E+00  0.00000000E+00
  0.00000000E+00  0.00000000E+00  0.00000000E+00
  0.00000000E+00  0.00000000E+00  0.00000000E+00
  0.00000000E+00  0.00000000E+00  0.00000000E+00
  0.00000000E+00  0.00000000E+00  0.00000000E+00
  0.00000000E+00  0.00000000E+00  0.00000000E+00
  0.00000000E+00  0.00000000E+00  0.00000000E+00
  0.00000000E+00  0.00000000E+00  0.00000000E+00
  0.00000000E+00  0.00000000E+00  0.00000000E+00
  0.00000000E+00  0.00000000E+00  0.00000000E+00
  0.00000000E+00  0.00000000E+00  0.00000000E+00
  0.00000000E+00  0.00000000E+00  0.00000000E+00
  0.00000000E+00  0.00000000E+00  0.00000000E+00
  0.00000000E+00  0.00000000E+00  0.00000000E+00
  0.00000000E+00  0.00000000E+00  0.00000000E+00