Amorphous Sb                            
   1.00000000000000     
    20.0778869700586924    0.0000000000000000    0.0000000000000000
     0.0000000000000000   20.0778869700586924    0.0000000000000000
     0.0000000000000000    0.0000000000000000   20.0778869700586924
   Ge   Se
   150   150
Direct
  0.6197123072291385  0.7244215446848133  0.7081325699454866
  0.5499050737819143  0.7952929105217691  0.8816934333967185
  0.3460124103402377  0.3154746642070742  0.2164145128977676
  0.6996380632748196  0.0412329839366032  0.5214519201979907
  0.8497956681723742  0.2947907672103082  0.7261122453509675
  0.1414695529311654  0.8984856793195927  0.0908828890608817
  0.0622887207542933  0.0132100321327868  0.3818122798388618
  0.6834029293048914  0.4100069934268837  0.6729692356778472
  0.3480202857162492  0.8803826207899437  0.4806690835340839
  0.2435430986775562  0.2732175014952385  0.3810834491338979
  0.0805906081168667  0.8070914114041869  0.3724088152615720
  0.9518818848465306  0.1907946833761172  0.0509086383990191
  0.7048856568427843  0.2351280955152799  0.6008919158442837
  0.1506430958223632  0.0299213788114216  0.7203778074392293
  0.7534811618319538  0.1427569165212483  0.3620901874345302
  0.9934049720891106  0.5993292953586691  0.2300659386555636
  0.1501461480833591  0.6571433129276101  0.3028310368256220
  0.7464692914474352  0.5892503201536642  0.3491280595367648
  0.1806909150516358  0.3908490266904988  0.8553442967622674
  0.9197252637298201  0.8177661931490067  0.2585609573415991
  0.4488128648249563  0.6545110262880603  0.9197968594032062
  0.4573266666618766  0.5131192806770015  0.8065726160683073
  0.8342583730834924  0.9362507153198953  0.6776217383673317
  0.9605914338603864  0.1606039295930442  0.1800616951950585
  0.7340588934465844  0.4061585619054295  0.2519042333182079
  0.4535433156458674  0.3205052855864237  0.4277897026709834
  0.4850967628780573  0.6144228976688665  0.5137036864965675
  0.6932171909706467  0.9604988077080672  0.9270250686962037
  0.7635203907298392  0.5887560683127302  0.6335014676885393
  0.9089601959788879  0.6248496853714933  0.5917172933706748
  0.1286341319455972  0.1242659400663250  0.1089915808317810
  0.2355218016820760  0.9562723341677520  0.3908705223159857
  0.0213078936331606  0.4266196646464293  0.4724757769285393
  0.3491584815545506  0.4983743775234948  0.2974296811619963
  0.0612141035389467  0.4596904948004158  0.6786086569233568
  0.5617937635738823  0.7252416810850358  0.1267812668976684
  0.3417818911651128  0.1168176780202178  0.0747512767155081
  0.3317945051320501  0.1872124502072421  0.1920652920461011
  0.0175732969030661  0.9669726413914107  0.8395202024561562
  0.7261142409951811  0.5156036771776619  0.8134345593672191
  0.6777876529877170  0.8301108760159149  0.2436488700796046
  0.0134946513900971  0.2822442505235906  0.6144487695149163
  0.3849312358178553  0.1836097889263264  0.6326421570988108
  0.4456002043241080  0.1294966396998886  0.3251798128297932
  0.1942461379319493  0.8284826688745640  0.2127621397588636
  0.3092289114482185  0.6286944717131175  0.4005437795826040
  0.8595400378563910  0.5971994245488333  0.0792903237056107
  0.2277803015367603  0.1713612611936667  0.5762312142586793
  0.0597861307356615  0.8123693055585561  0.9244891308283920
  0.5967868633474872  0.2513738797649323  0.1246411510230579
  0.2725152075668418  0.8142926587832242  0.8831279721998304
  0.1241562715992027  0.2807115352468308  0.0039499728781565
  0.5836035413908328 -0.0112112706160426  0.6297423566233846
  0.5619377318233510  0.2876388591109074  0.6712530776660275
  0.7364940980400911  0.4627795850029446  0.4889564196728900
  0.0313168423093890  0.8781500742914206  0.2664676795984647
  0.0763424148497326  0.7156463731592770  0.6200026262874409
  0.9118095937195172  0.5127082514479181  0.4463194794933356
  0.2436338223243721  0.3558984762490860  0.6475067069969609
  0.5687930278118323  0.5656590472197506  0.2261660739699998
  0.5439497979737923  0.9757401587420470  0.1809471818260945
  0.5272935386738190  0.5133947775259117  0.0019960888915793
  0.8321751445437933  0.8646931565467177  0.4137904877311875
  0.8055739162656557  0.1201999817595688  0.5985309154969358
  0.4923424740623625  0.9840092585268493  0.9427151482576606
  0.9693413257013875  0.4189055620414530  0.2528342711486191
  0.9159978162850411  0.9929326345983464  0.4947971080947570
  0.7996331685758179  0.5056567329465305  0.0072534093390856
  0.6699129713773978  0.9605002795569507  0.1097058582409927
  0.7427127370952286  0.2972551055674550  0.8678714234916214
  0.4688217936892848  0.3653876271700091  0.8602579657453447
  0.5199791920524328  0.3446776801517627  0.2649915889202302
  0.0765696649897429  0.4854809840631201  0.1349010278298655
  0.5782961783430660  0.1006164011251611  0.2087638266580472
  0.6237907386333676  0.3541570867429881  0.9366763666576364
  0.5442574777314572  0.1520248741894241  0.8543533650896378
  0.1362432887854383  0.0905313239783250  0.3047429923401096
  0.8742989601745011  0.9323275714735471  0.9418784859306626
  0.3222946903814055  0.5771867021710273  0.0705301139790984
  0.2116938613582462  0.4286545487094812  0.0294288210785162
  0.7545118837572331  0.8326199788764874  0.8147524267029870
  0.2508951966376862  0.5741140209214051  0.8966380188473003
  0.8587362367914838  0.6128207807390038  0.2691364293821748
  0.5621188628876398  0.6514617712173848  0.3267120609210180
  0.3994861216900001  0.0424512887881904  0.7685286340392578
  0.5142970281940162  0.1207064057313905  0.0750110525438957
  0.5436888396478305  0.5595891135797105  0.6479770177079464
  0.1202748667470609  0.3421981685061714  0.4801741550554250
  0.6756056188362795  0.6162182005369526  0.9688307576551132
  0.5918748956210121  0.2197255203224001  0.3568477180245477
  0.4274357716633182  0.1768162554626133  0.9043232802657449
  0.0727627620981783  0.9370552078375491  0.5966137583425297
  0.5608302144526273  0.4981235051075254  0.4069885799664985
  0.9198990256634116  0.2471495907745066  0.4947116976968348
  0.6540496288735013  0.9597311581137754  0.3712439014814932
  0.4115428519231415  0.0706557754102590  0.5435959300002515
  0.4507975003222334  0.8073992151259576  0.0070595332431499
  0.3748443102149701  0.6011363665055944  0.6619655296136515
  0.1979137900689335  0.8023036136407388  0.5528177820618611
  0.1871260088307235  0.3098373864521244  0.1704519939715036
  0.2692511400017556  0.4216242947885172  0.2170964823430620
  0.7271836486312719  0.1175086454928502  0.0497132847779255
  0.1901686389195702  0.6065240211973290  0.1909706939050042
  0.8861201200643306  0.9890109460225583  0.1682533316572021
  0.4501986689173601  0.8680356866057691  0.6405613524977869
  0.5720539699389290  0.8951868645079138  0.7967798504848923
  0.9136723906681173  0.3489173702786237  0.0983326734268231
  0.0319801880804542  0.7727661312275228  0.1144084093030473
  0.7539755145095625  0.1278148634340564  0.8312902235705548
  0.7101567874018985  0.8220521022635680  0.5681046335879767
  0.8898524883154266  0.8376798524201500  0.6036682003704624
  0.7976613799165895  0.7971776788624678  0.1300434518036322
  0.3577018528437018  0.8017495526163052  0.7042769910418115
  0.9485517632664288  0.1206971089114837  0.3329428849891138
  0.6052817833258767  0.8334105849434963  0.4858260347399548
  0.5030053337162915  0.0271082096850398  0.3856719309869918
  0.4656405610348166  0.4558772473715805  0.1341656860113307
  0.9015857924001834  0.4819271131503410  0.7328013577067068
  0.3052993810190147  0.3473418124766139  0.5342441548906426
  0.0203469974082493  0.7927305517661198  0.8007816407774750
  0.6669537601643818  0.6341484048626794  0.5260615812765738
  0.0933014885084128  0.2243705178699194  0.3083429310172935
  0.8723469859665799  0.4374172647640179  0.9260746441290590
  0.1799597871995997  0.9449198250144959  0.8991705151748282
  0.1034807078608739  0.6111719845417392  0.5024993082744332
  0.2389646253461762  0.7283266736364201  0.7269872411801875
  0.4986304244264056  0.8053037307381662  0.3830550958059875
  0.2580266279188007  0.1254673150830737  0.8091808040455187
  0.1461434205749098  0.2593805196837643  0.7471733834859016
  0.2759575183093843  0.9992293529121339  0.1966942562360076
  0.4168001651443992  0.7258337552587223  0.2121588457756181
  0.7006136500903166  0.6377495299635135  0.1513291474719717
  0.1133586647044792  0.1631319473297657  0.9450551471135736
  0.3440726120288632  0.3297257204114057  0.9889116736198049
  0.0192361022760022  0.6036722669275262  0.8215728810916804
  0.3317027672203892  0.6999202220353322  0.1152129136515453
  0.4157816820596817  0.4016142425425437  0.7122097113852068
  0.7064213908054989  0.3176822566065398  0.4429855697820978
  0.1447735071001477  0.0574969399053136  0.5375942271650962
  0.2842712088546842  0.9473395110460895  0.7539307475772706
  0.8445707361111834  0.3903085930030832  0.4194956444050562
  0.7876325346220718  0.2974820070036844 -0.0003991790125055
  0.9856622933232728  0.1654287463218799  0.7521968588276056
  0.9584836043249924  0.0661960304949597  0.9119332919894092
  0.6155365135210352  0.0955557397128120  0.7123911567138670
  0.4207828921138588  0.4040269566608688  0.5217278586974774
  0.1559028475149977  0.6645480471169739  0.9012778101859276
  0.3585801455387035  0.9316324787675253  0.3046410117442141
  0.2380790895638308  0.4880392737361905  0.7183270908575368
  0.9419649716738051  0.6706518546672413  0.9592323447595629
  0.1625142894367668  0.7654666880125256  0.9696652002174444
  0.8231712895533098  0.8914855207377890  0.2302753412654826
  0.0674628860123884  0.4977182963479678  0.2634893720342088
  0.9816657623703481  0.4043428868378865  0.5908962796500582
  0.3453791181135968  0.7371136477603726 -0.0007796585297717
  0.0333810969576491  0.6798546158236475  0.3168995337913830
  0.4466758759900495  0.3331200244435034  0.1482068509423539
  0.6762965453679949  0.1920037713674454  0.4539481632287129
  0.8235179570933026  0.2009126752787715  0.0726928339093228
  0.2940560969380501  0.8902897806880467  0.6419701160458955
  0.7026844992402802  0.8448208450000936  0.3905806482390121
  0.7351044518166908  0.9400278036304247  0.5990694800641586
  0.4569615821524135  0.8333567859625777  0.5252409988840331
  0.2168864687714867  0.6928491752232017  0.6122272558505261
  0.7556418301843953  0.7236179305984158  0.2270022520777390
  0.3476066423051739  0.0840768435581233  0.8948839795388912
  0.2441891175572126  0.2663135652223864  0.0348560234516840
  0.3058625404564385  0.0730142736758391  0.6128219053350277
  0.9181743553181714  0.8952849967943359  0.8290475137302131
  0.6640511043157372  0.9720584176021775  0.2373404961083861
  0.5768606764420409  0.8703713874208512  0.6695925362451641
  0.6588692775771218  0.2602243483900804  0.0144699743445396
  0.1801688969470314  0.9675940945931841  0.2745493128055775
  0.0012648304418535  0.1807933098984607  0.8874928769913524
  0.2044481267606603  0.1836894762193574  0.1990239231547490
  0.5337951421100665  0.4508438607930312  0.7237467160138588
  0.4010115801500723  0.5515758235726742  0.9769696392741248
  0.3270547803585767  0.1433308305529716  0.3070076699376780
  0.4697890739867573  0.6241469662732044  0.7333885471645771
  0.4301285171814219  0.0306759122488378  0.0980870701520079
  0.5907874440000608  0.1734085463180193  0.6156465076557212
  0.1937890386204847  0.2233032213282816  0.8633442358675981
  0.9250184604555659  0.7330952540841297  0.1692855200037739
  0.5862277425369844  0.8929815076323230  0.9570360809274868
  0.1441108063680479  0.3351944869822389  0.2889095273526941
  0.0543596042944673  0.6108594820883517  0.9483900338454818
  0.7925856556637517  0.3859896876617176  0.0871748102031864
  0.1039133597193229  0.1473539756942054  0.6997133213070674
  0.5633893652001941  0.3704336930660066  0.3963258652794232
  0.6686709379553085  0.4913884262599205  0.3313452345677355
  0.6777374846969464  0.5031220677301597  0.0256390733554527
  0.1583273016022195  0.5139106080543678  0.8282301804238327
  0.1185250379996361  0.8324951410994036  0.6490862722673237
  0.0239907625646980  0.0678490924615114  0.4870140928799659
  0.5157588966849560  0.0073656869600745  0.8155860077059259
  0.4462239207184691  0.1552765357823684  0.7432590982011936
  0.7823848764586219  0.4628938702519859  0.6082356573539538
  0.1232060597997741  0.9146140703726532  0.4363883482477997
  0.9600241419800292  0.3396849633446378  0.4045784632965337
  0.6114001814053601  0.0991955060250587  0.3284028871812614
  0.7449238789167779  0.0907338836533353  0.7081630122629543
  0.1973368834042910  0.7714085817439138  0.3310994191464737
  0.6869804621030076  0.9420403287837732  0.7980716209440546
  0.2105509048109847  0.0732446564358185  0.4324613559812724
  0.7624699037504478  0.6780477640703446  0.0480626902056310
  0.6614888150797675  0.6689554610116043  0.3988997472211708
  0.0951382521867751  0.7387430910292819  0.4926465248596004
  0.0793402184638221  0.9286191465760248  0.9692988326861931
  0.9269762784661308  0.3392339921692012  0.9714302981972009
  0.8957948169883405  0.0282039832609734  0.6169924090584419
  0.4718813265233062  0.8155220584869763  0.1312569133961263
  0.8182615705377650  0.5775390745376322  0.7481387035699051
  0.9776348741388924  0.8852983135587925  0.5290974177990425
  0.4447686554941770  0.3176320123969467  0.6175236002704706
  0.7200496228525783  0.2932049718332917  0.7191403689479247
  0.2290257520571211  0.3878557943597248  0.4434769664904124
  0.0515359983380706  0.0773238432870764  0.1997797173803698
  0.5722439211865833  0.0813277382651027  0.9687544980252735
  0.7926764943194967  0.5509804531506542  0.1797227398777422
  0.9634960489441385  0.9596152947907879  0.3323871530312834
  0.6220074132588934  0.5135272030947627  0.5203392393948433
  0.4777052862846408  0.4785000884375338  0.2602527771403698
  0.4653692295420851  0.6796216589077768  0.3980775565504974
  0.3713047064282888  0.8219817420682737  0.3656102447199059
  0.3826792224588345 -0.0008338877363273  0.4435313156090983
  0.9440137687698554  0.7361622916518286  0.6482417510799638
  0.6594735862031363  0.7497979204016834  0.8385485323236145
  0.4804568837623922  0.6286954955080883  0.1563669589875612
  0.9352784051597930  0.7041951279557577  0.8375096059260461
  0.7862527101104537  0.0054713740317167  0.0865663436356257
  0.7705012288373542  0.8605297150671486  0.9429399735711533
  0.5556931948764764  0.7631719999582133  0.2708158412184875
  0.6726504027540147  0.8362664499178073  0.1120753684725576
  0.1779730843594912  0.8709163090763834  0.8062422948732714
  0.7982522434742488  0.5726406101291998  0.4641999457752607
  0.3717546245841426  0.2813907983345372  0.8702379776813920
  0.0225334091583491  0.9032700189142474  0.1394900619217651
  0.3206867760559309  0.6171194564493105  0.2722332098935034
  0.0755124123400397  0.2960074505246957  0.1162086221088795
  0.8826109071563387  0.7639027794817856  0.3592324932018924
  0.8643345690305556  0.1011969337842259  0.2361016456251752
  0.3767836432694905  0.6638027798386197  0.5615508219917340
  0.4886619544500304  0.9401476026530592  0.2928123457981007
  0.5368404912783158  0.7109276926179628  0.9943503911079740
  0.3112099908592434  0.8741680462571387  0.1920622246305734
  0.1155445342825534  0.2287751861757459  0.4338610992825992
  0.7581253960626668  0.0208266417024949  0.4111768036690144
  0.2853554306951460  0.4233054707281609  0.9221357192228348
  0.8013085740474092  0.4029436444164552  0.8316754839887287
  0.1064826662106846  0.3968508762555047  0.9598049782696251
  0.6487698859907119  0.5969421484227049  0.7076534565478889
  0.9483871048374861  0.4692451624745724  0.1324177040850708
  0.4910131942052317  0.1906928342359764  0.2279318453748264
  0.4272983993332456  0.2023664601611799  0.0271282277447636
  0.7800215493351086  0.5865133798259075  0.9046726320935645
  0.6794142320546090  0.1623563139098096  0.1675782322489026
  0.2879990134107099  0.6116679736381703  0.7470138640147950
  0.6321189080459125  0.3406969269631007  0.5761028452307655
  0.2748128119448982  0.2335767389890288  0.6805557248128199
  0.5663234393622105  0.6984359100358835  0.5625195705475774
  0.0325234061898901 -0.0111735321855756  0.7091449685940256
  0.1555932643214830  0.0540237185991030  0.8500577739718956
  0.1796387200025846  0.5855862421626943  0.3971512766149062
  0.9672292732882980  0.7888219368989720  0.0034254912550665
  0.3616201251720538  0.4851857340789499  0.6292231403731124
  0.8132100570991641  0.3109977745056741  0.5187977091139804
  0.3726736032879303  0.8706050889864934  0.8075530104457390
  0.8179000379117709  0.7848195282552245  0.5158754840356353
  0.9659921271715999  0.2385348797390228  0.2757957166602375
  0.0687416573349709  0.6143095173181993  0.1314152997649005
  0.1440827513508963  0.2993945585946822  0.5937380738160448
  0.1963929024114853  0.0131871439410937  0.0947988165029729
  0.8403495999431245  0.2210582283960808  0.8330911210481358
  0.9739551633158616  0.0683379273232807  0.0337555636510946
  0.4854128360096344  0.1996922991350538  0.4258291682942097
  0.5437413854810275  0.5636658150391601  0.8828679856010268
  0.2781584805806094  0.9190477593984828  0.9565606827593668
  0.5638133995612563  0.2829354912052915  0.8462321461435419
  0.8677628067169482  0.1498013046219408  0.4291258364455520
  0.5909838453122421 -0.0318149466707731  0.5033546419284713
  0.2115372934196379  0.7196128919809032  0.1378569266201475
  0.1618972835883260  0.4988983170897130  0.6182638015601603
  0.9870140788529095  0.5670282284269943  0.6792624008648979
  0.5063627301569918  0.3876201842025533 -0.0170772204188142
  0.2091340109383921  0.5607079950956023  0.0204109359379703
  0.7349676955789369  0.7591866314845849  0.6693549487771220
  0.8882332241183207  0.2040431420176946  0.6430196425247376
  0.4560806019162979 -0.0061294551955287  0.6392843746458242
  0.3630428732278281  0.5148316294481489  0.4164430403056644
  0.1179493645315995  0.6979459785674847  0.7873135534105240
  0.0135275532182195  0.2905871073186277  0.7433573401213461
  0.7788130920963869  0.3170968818216273  0.3350078250193897
  0.8873590947280855  0.4961120848468243  0.3195738616204655
  0.3393358128665527  0.4634005993034195  0.1190292973569298
  0.3696515482895150  0.3398062230631904  0.3376363386535190
  0.9718108660834924  0.6224037635561726  0.4784261886389548
  0.8313486270570308  0.0566359832843957  0.9051541626311171
  0.9545811918431986  0.4911484408160514  0.8521206376315310
  0.6273053682297161  0.3583854848177663  0.1970000643562562
  0.3111760188394076  0.2289640954789231  0.4978963356059274
 
  0.00000000E+00  0.00000000E+00  0.00000000E+00
  0.00000000E+00  0.00000000E+00  0.00000000E+00
  0.00000000E+00  0.00000000E+00  0.00000000E+00
  0.00000000E+00  0.00000000E+00  0.00000000E+00
  0.00000000E+00  0.00000000E+00  0.00000000E+00
  0.00000000E+00  0.00000000E+00  0.00000000E+00
  0.00000000E+00  0.00000000E+00  0.00000000E+00
  0.00000000E+00  0.00000000E+00  0.00000000E+00
  0.00000000E+00  0.00000000E+00  0.00000000E+00
  0.00000000E+00  0.00000000E+00  0.00000000E+00
  0.00000000E+00  0.00000000E+00  0.00000000E+00
  0.00000000E+00  0.00000000E+00  0.00000000E+00
  0.00000000E+00  0.00000000E+00  0.00000000E+00
  0.00000000E+00  0.00000000E+00  0.00000000E+00
  0.00000000E+00  0.00000000E+00  0.00000000E+00
  0.00000000E+00  0.00000000E+00  0.00000000E+00
  0.00000000E+00  0.00000000E+00  0.00000000E+00
  0.00000000E+00  0.00000000E+00  0.00000000E+00
  0.00000000E+00  0.00000000E+00  0.00000000E+00
  0.00000000E+00  0.00000000E+00  0.00000000E+00
  0.00000000E+00  0.00000000E+00  0.00000000E+00
  0.00000000E+00  0.00000000E+00  0.00000000E+00
  0.00000000E+00  0.00000000E+00  0.00000000E+00
  0.00000000E+00  0.00000000E+00  0.00000000E+00
  0.00000000E+00  0.00000000E+00  0.00000000E+00
  0.00000000E+00  0.00000000E+00  0.00000000E+00
  0.00000000E+00  0.00000000E+00  0.00000000E+00
  0.00000000E+00  0.00000000E+00  0.00000000E+00
  0.00000000E+00  0.00000000E+00  0.00000000E+00
  0.00000000E+00  0.00000000E+00  0.00000000E+00
  0.00000000E+00  0.00000000E+00  0.00000000E+00
  0.00000000E+00  0.00000000E+00  0.00000000E+00
  0.00000000E+00  0.00000000E+00  0.00000000E+00
  0.00000000E+00  0.00000000E+00  0.00000000E+00
  0.00000000E+00  0.00000000E+00  0.00000000E+00
  0.00000000E+00  0.00000000E+00  0.00000000E+00
  0.00000000E+00  0.00000000E+00  0.00000000E+00
  0.00000000E+00  0.00000000E+00  0.00000000E+00
  0.00000000E+00  0.00000000E+00  0.00000000E+00
  0.00000000E+00  0.00000000E+00  0.00000000E+00
  0.00000000E+00  0.00000000E+00  0.00000000E+00
  0.00000000E+00  0.00000000E+00  0.00000000E+00
  0.00000000E+00  0.00000000E+00  0.00000000E+00
  0.00000000E+00  0.00000000E+00  0.00000000E+00
  0.00000000E+00  0.00000000E+00  0.00000000E+00
  0.00000000E+00  0.00000000E+00  0.00000000E+00
  0.00000000E+00  0.00000000E+00  0.00000000E+00
  0.00000000E+00  0.00000000E+00  0.00000000E+00
  0.00000000E+00  0.00000000E+00  0.00000000E+00
  0.00000000E+00  0.00000000E+00  0.00000000E+00
  0.00000000E+00  0.00000000E+00  0.00000000E+00
  0.00000000E+00  0.00000000E+00  0.00000000E+00
  0.00000000E+00  0.00000000E+00  0.00000000E+00
  0.00000000E+00  0.00000000E+00  0.00000000E+00
  0.00000000E+00  0.00000000E+00  0.00000000E+00
  0.00000000E+00  0.00000000E+00  0.00000000E+00
  0.00000000E+00  0.00000000E+00  0.00000000E+00
  0.00000000E+00  0.00000000E+00  0.00000000E+00
  0.00000000E+00  0.00000000E+00  0.00000000E+00
  0.00000000E+00  0.00000000E+00  0.00000000E+00
  0.00000000E+00  0.00000000E+00  0.00000000E+00
  0.00000000E+00  0.00000000E+00  0.00000000E+00
  0.00000000E+00  0.00000000E+00  0.00000000E+00
  0.00000000E+00  0.00000000E+00  0.00000000E+00
  0.00000000E+00  0.00000000E+00  0.00000000E+00
  0.00000000E+00  0.00000000E+00  0.00000000E+00
  0.00000000E+00  0.00000000E+00  0.00000000E+00
  0.00000000E+00  0.00000000E+00  0.00000000E+00
  0.00000000E+00  0.00000000E+00  0.00000000E+00
  0.00000000E+00  0.00000000E+00  0.00000000E+00
  0.00000000E+00  0.00000000E+00  0.00000000E+00
  0.00000000E+00  0.00000000E+00  0.00000000E+00
  0.00000000E+00  0.00000000E+00  0.00000000E+00
  0.00000000E+00  0.00000000E+00  0.00000000E+00
  0.00000000E+00  0.00000000E+00  0.00000000E+00
  0.00000000E+00  0.00000000E+00  0.00000000E+00
  0.00000000E+00  0.00000000E+00  0.00000000E+00
  0.00000000E+00  0.00000000E+00  0.00000000E+00
  0.00000000E+00  0.00000000E+00  0.00000000E+00
  0.00000000E+00  0.00000000E+00  0.00000000E+00
  0.00000000E+00  0.00000000E+00  0.00000000E+00
  0.00000000E+00  0.00000000E+00  0.00000000E+00
  0.00000000E+00  0.00000000E+00  0.00000000E+00
  0.00000000E+00  0.00000000E+00  0.00000000E+00
  0.00000000E+00  0.00000000E+00  0.00000000E+00
  0.00000000E+00  0.00000000E+00  0.00000000E+00
  0.00000000E+00  0.00000000E+00  0.00000000E+00
  0.00000000E+00  0.00000000E+00  0.00000000E+00
  0.00000000E+00  0.00000000E+00  0.00000000E+00
  0.00000000E+00  0.00000000E+00  0.00000000E+00
  0.00000000E+00  0.00000000E+00  0.00000000E+00
  0.00000000E+00  0.00000000E+00  0.00000000E+00
  0.00000000E+00  0.00000000E+00  0.00000000E+00
  0.00000000E+00  0.00000000E+00  0.00000000E+00
  0.00000000E+00  0.00000000E+00  0.00000000E+00
  0.00000000E+00  0.00000000E+00  0.00000000E+00
  0.00000000E+00  0.00000000E+00  0.00000000E+00
  0.00000000E+00  0.00000000E+00  0.00000000E+00
  0.00000000E+00  0.00000000E+00  0.00000000E+00
  0.00000000E+00  0.00000000E+00  0.00000000E+00
  0.00000000E+00  0.00000000E+00  0.00000000E+00
  0.00000000E+00  0.00000000E+00  0.00000000E+00
  0.00000000E+00  0.00000000E+00  0.00000000E+00
  0.00000000E+00  0.00000000E+00  0.00000000E+00
  0.00000000E+00  0.00000000E+00  0.00000000E+00
  0.00000000E+00  0.00000000E+00  0.00000000E+00
  0.00000000E+00  0.00000000E+00  0.00000000E+00
  0.00000000E+00  0.00000000E+00  0.00000000E+00
  0.00000000E+00  0.00000000E+00  0.00000000E+00
  0.00000000E+00  0.00000000E+00  0.00000000E+00
  0.00000000E+00  0.00000000E+00  0.00000000E+00
  0.00000000E+00  0.00000000E+00  0.00000000E+00
  0.00000000E+00  0.00000000E+00  0.00000000E+00
  0.00000000E+00  0.00000000E+00  0.00000000E+00
  0.00000000E+00  0.00000000E+00  0.00000000E+00
  0.00000000E+00  0.00000000E+00  0.00000000E+00
  0.00000000E+00  0.00000000E+00  0.00000000E+00
  0.00000000E+00  0.00000000E+00  0.00000000E+00
  0.00000000E+00  0.00000000E+00  0.00000000E+00
  0.00000000E+00  0.00000000E+00  0.00000000E+00
  0.00000000E+00  0.00000000E+00  0.00000000E+00
  0.00000000E+00  0.00000000E+00  0.00000000E+00
  0.00000000E+00  0.00000000E+00  0.00000000E+00
  0.00000000E+00  0.00000000E+00  0.00000000E+00
  0.00000000E+00  0.00000000E+00  0.00000000E+00
  0.00000000E+00  0.00000000E+00  0.00000000E+00
  0.00000000E+00  0.00000000E+00  0.00000000E+00
  0.00000000E+00  0.00000000E+00  0.00000000E+00
  0.00000000E+00  0.00000000E+00  0.00000000E+00
  0.00000000E+00  0.00000000E+00  0.00000000E+00
  0.00000000E+00  0.00000000E+00  0.00000000E+00
  0.00000000E+00  0.00000000E+00  0.00000000E+00
  0.00000000E+00  0.00000000E+00  0.00000000E+00
  0.00000000E+00  0.00000000E+00  0.00000000E+00
  0.00000000E+00  0.00000000E+00  0.00000000E+00
  0.00000000E+00  0.00000000E+00  0.00000000E+00
  0.00000000E+00  0.00000000E+00  0.00000000E+00
  0.00000000E+00  0.00000000E+00  0.00000000E+00
  0.00000000E+00  0.00000000E+00  0.00000000E+00
  0.00000000E+00  0.00000000E+00  0.00000000E+00
  0.00000000E+00  0.00000000E+00  0.00000000E+00
  0.00000000E+00  0.00000000E+00  0.00000000E+00
  0.00000000E+00  0.00000000E+00  0.00000000E+00
  0.00000000E+00  0.00000000E+00  0.00000000E+00
  0.00000000E+00  0.00000000E+00  0.00000000E+00
  0.00000000E+00  0.00000000E+00  0.00000000E+00
  0.00000000E+00  0.00000000E+00  0.00000000E+00
  0.00000000E+00  0.00000000E+00  0.00000000E+00
  0.00000000E+00  0.00000000E+00  0.00000000E+00
  0.00000000E+00  0.00000000E+00  0.00000000E+00
  0.00000000E+00  0.00000000E+00  0.00000000E+00
  0.00000000E+00  0.00000000E+00  0.00000000E+00
  0.00000000E+00  0.00000000E+00  0.00000000E+00
  0.00000000E+00  0.00000000E+00  0.00000000E+00
  0.00000000E+00  0.00000000E+00  0.00000000E+00
  0.00000000E+00  0.00000000E+00  0.00000000E+00
  0.00000000E+00  0.00000000E+00  0.00000000E+00
  0.00000000E+00  0.00000000E+00  0.00000000E+00
  0.00000000E+00  0.00000000E+00  0.00000000E+00
  0.00000000E+00  0.00000000E+00  0.00000000E+00
  0.00000000E+00  0.00000000E+00  0.00000000E+00
  0.00000000E+00  0.00000000E+00  0.00000000E+00
  0.00000000E+00  0.00000000E+00  0.00000000E+00
  0.00000000E+00  0.00000000E+00  0.00000000E+00
  0.00000000E+00  0.00000000E+00  0.00000000E+00
  0.00000000E+00  0.00000000E+00  0.00000000E+00
  0.00000000E+00  0.00000000E+00  0.00000000E+00
  0.00000000E+00  0.00000000E+00  0.00000000E+00
  0.00000000E+00  0.00000000E+00  0.00000000E+00
  0.00000000E+00  0.00000000E+00  0.00000000E+00
  0.00000000E+00  0.00000000E+00  0.00000000E+00
  0.00000000E+00  0.00000000E+00  0.00000000E+00
  0.00000000E+00  0.00000000E+00  0.00000000E+00
  0.00000000E+00  0.00000000E+00  0.00000000E+00
  0.00000000E+00  0.00000000E+00  0.00000000E+00
  0.00000000E+00  0.00000000E+00  0.00000000E+00
  0.00000000E+00  0.00000000E+00  0.00000000E+00
  0.00000000E+00  0.00000000E+00  0.00000000E+00
  0.00000000E+00  0.00000000E+00  0.00000000E+00
  0.00000000E+00  0.00000000E+00  0.00000000E+00
  0.00000000E+00  0.00000000E+00  0.00000000E+00
  0.00000000E+00  0.00000000E+00  0.00000000E+00
  0.00000000E+00  0.00000000E+00  0.00000000E+00
  0.00000000E+00  0.00000000E+00  0.00000000E+00
  0.00000000E+00  0.00000000E+00  0.00000000E+00
  0.00000000E+00  0.00000000E+00  0.00000000E+00
  0.00000000E+00  0.00000000E+00  0.00000000E+00
  0.00000000E+00  0.00000000E+00  0.00000000E+00
  0.00000000E+00  0.00000000E+00  0.00000000E+00
  0.00000000E+00  0.00000000E+00  0.00000000E+00
  0.00000000E+00  0.00000000E+00  0.00000000E+00
  0.00000000E+00  0.00000000E+00  0.00000000E+00
  0.00000000E+00  0.00000000E+00  0.00000000E+00
  0.00000000E+00  0.00000000E+00  0.00000000E+00
  0.00000000E+00  0.00000000E+00  0.00000000E+00
  0.00000000E+00  0.00000000E+00  0.00000000E+00
  0.00000000E+00  0.00000000E+00  0.00000000E+00
  0.00000000E+00  0.00000000E+00  0.00000000E+00
  0.00000000E+00  0.00000000E+00  0.00000000E+00
  0.00000000E+00  0.00000000E+00  0.00000000E+00
  0.00000000E+00  0.00000000E+00  0.00000000E+00
  0.00000000E+00  0.00000000E+00  0.00000000E+00
  0.00000000E+00  0.00000000E+00  0.00000000E+00
  0.00000000E+00  0.00000000E+00  0.00000000E+00
  0.00000000E+00  0.00000000E+00  0.00000000E+00
  0.00000000E+00  0.00000000E+00  0.00000000E+00
  0.00000000E+00  0.00000000E+00  0.00000000E+00
  0.00000000E+00  0.00000000E+00  0.00000000E+00
  0.00000000E+00  0.00000000E+00  0.00000000E+00
  0.00000000E+00  0.00000000E+00  0.00000000E+00
  0.00000000E+00  0.00000000E+00  0.00000000E+00
  0.00000000E+00  0.00000000E+00  0.00000000E+00
  0.00000000E+00  0.00000000E+00  0.00000000E+00
  0.00000000E+00  0.00000000E+00  0.00000000E+00
  0.00000000E+00  0.00000000E+00  0.00000000E+00
  0.00000000E+00  0.00000000E+00  0.00000000E+00
  0.00000000E+00  0.00000000E+00  0.00000000E+00
  0.00000000E+00  0.00000000E+00  0.00000000E+00
  0.00000000E+00  0.00000000E+00  0.00000000E+00
  0.00000000E+00  0.00000000E+00  0.00000000E+00
  0.00000000E+00  0.00000000E+00  0.00000000E+00
  0.00000000E+00  0.00000000E+00  0.00000000E+00
  0.00000000E+00  0.00000000E+00  0.00000000E+00
  0.00000000E+00  0.00000000E+00  0.00000000E+00
  0.00000000E+00  0.00000000E+00  0.00000000E+00
  0.00000000E+00  0.00000000E+00  0.00000000E+00
  0.00000000E+00  0.00000000E+00  0.00000000E+00
  0.00000000E+00  0.00000000E+00  0.00000000E+00
  0.00000000E+00  0.00000000E+00  0.00000000E+00
  0.00000000E+00  0.00000000E+00  0.00000000E+00
  0.00000000E+00  0.00000000E+00  0.00000000E+00
  0.00000000E+00  0.00000000E+00  0.00000000E+00