Ge Se                                   
   1.00000000000000     
    21.0182170808000208    0.0000000000000000    0.0000000000000000
     0.0000000000000000   21.0182170808000208    0.0000000000000000
     0.0000000000000000    0.0000000000000000   21.0182170808000208
   Ge   Se
   146   154
Direct
  0.7214482814803991  0.5278858312875873  0.5523124859712746
  0.0457169376430624  0.5929262504830483  0.3952666786740008
  0.8832651779150956  0.3238476109640555  0.5234743306455640
  0.7431149699210284  0.1723076312177306  0.1910175933375630
  0.5944155021852316  0.3687949013730463  0.6128646072171723
  0.8519933703192950  0.7292011512467191  0.2312381008455798
  0.4342132144030637  0.7177828908164646  0.2466099786240058
  0.6839785364618449  0.8749466305648852  0.9712448650498747
  0.9450884093648492  0.8215250272547482  0.5090485563248586
  0.3262546015253332  0.6536734909157648  0.6837092278516135
  0.2732624107975103  0.7779815547738594  0.3156645241482615
  0.8690660063193743  0.5212088904941521  0.8650438442923514
  0.9294513281799328  0.5861991816123349  0.2544868382567770
  0.6816304472102908  0.6771358830954913  0.9701140632308526
  0.3900271117289744  0.3690003003197277  0.1979998251074580
  0.8842857307564334  0.0918656371122172  0.8995124587818263
  0.3347837889505698  0.6707104736550474  0.1848992466093222
  0.1352306721715653  0.3983737257332781  0.5559923814552763
  0.9127968303223797  0.6951511029073336  0.3714362325232409
  0.9333382289535403  0.4629640496412142  0.1199833931729638
  0.3634321467265146  0.0782080500412983  0.4494095081170109
  0.0221880686964097  0.0222367424085675  0.2271762730410964
  0.2494269741643696  0.1079140308941239  0.8032382459658226
  0.1170107027800718  0.5834677972832342  0.9630872951252226
  0.3762703369570853  0.9170527990146393  0.2513905967417588
  0.8344206758033398  0.4069059696887514  0.8769176236601494
  0.3291250474832951  0.6006706122703250  0.5119356913706072
  0.8950831014512739  0.3616404384076675  0.7831249067854266
  0.8876480486598900  0.0864159133992130  0.3111425300648413
  0.3900790856564016  0.4398430353263511  0.4520651730037488
  0.8521792907071895  0.8439746775906402  0.1096848229123998
  0.6266173202845475  0.6546339906514282  0.4336021122860903
  0.5953858975296341  0.9377393160357013  0.6156169348937081
  0.3552242902892142  0.6401055218197143  0.0565629598695096
  0.0029250286949403  0.2016411358337950  0.5930309157924609
  0.1778007975930946  0.5878537085326602  0.1285800200180071
  0.6513948320854527  0.2574040264573895  0.2066857493939401
  0.7194761914311418  0.6332913630174396  0.7287637204706752
  0.6165782149294468  0.0655218060804283  0.7831167321119987
  0.3796069204995935  0.3469827259032722  0.5282686692103374
  0.3386913272377951  0.0451633488903068  0.1969894737249451
  0.5296018848113260  0.3144610579398859  0.9040446410584093
  0.5947857987229799  0.2009674592575818  0.6060761350814265
  0.9910199686037288  0.9473493869621487  0.7554529427969474
  0.8109082310005785  0.4839755856435175  0.3254917191665400
  0.7284645948278909  0.3619694001626925  0.7447636705996897
  0.0204883768697206  0.9165416084483182  0.5450483735447420
  0.8699537142221166  0.1651055052317469  0.5003571618864748
  0.6692998412970043  0.4390236554114869  0.2735410763019217
  0.1772610809978407 -0.0213397043787022  0.2564920679029064
  0.0251941778232875  0.4142429450909063  0.6609463787103509
  0.6753077443312070  0.6575808673434784  0.2195067162760398
  0.1176812067220279  0.6694649591196584  0.6520373058081654
  0.7949845427128898  0.7414801030468900  0.3843972415912643
  0.1957355690408936  0.8972781166408992  0.4239159780333894
  0.4394647932376335  0.5457683229525246  0.8700843188342164
  0.4196103548451031  0.4402417276008666  0.0302798579850083
  0.1848952780678132  0.3825857869873333  0.9238441979883474
  0.4222045693939999  0.1138077446960874  0.2489302377682220
  0.6962208941930564  0.5179858067224860  0.7799414555566532
  0.6827678176226494  0.4978851646954432  0.3969788565198067
  0.3863008192350185  0.8940482756663478  0.0150603888615654
  0.8238660681939558  0.9433198306309397  0.2984218460667908
  0.2954921332939474  0.6029235865623153  0.8413081503991060
  0.3406498665280272  0.6228640539956525  0.3328394451178701
  0.4280308042055782  0.2998452792721893  0.6305883314972638
  0.1036230560278766  0.2659730078885612  0.6797261253783263
  0.6947461238272336  0.0487255329470172  0.3435787099054980
  0.5366410095398110  0.8918395316706436  0.3295236137699089
  0.5831191892339177  0.6833548208632344  0.8265520253700759
  0.4529364177836353  0.6483371219633967  0.6954144573387154
  0.7814083916706764  0.5691259335190433  0.9334670092280031
  0.2715498894816355  0.4564172073515161  0.4227518774021416
  0.6897996226663032  0.2701798169053304  0.4749006167994845
  0.9303611338917509  0.1970004671594827  0.2028323440985853
  0.6069384665104983  0.3817316084154080  0.4700278825279453
  0.9411044656678503  0.7657736394637983  0.0684997837812129
  0.3956408111352484  0.7936815017769503  0.8581332105953002
  0.4352815579261352  0.2975354056967170  0.8255345922333274
  0.3885766536330501  0.7670007064496623  0.3471368285386922
  0.4560119846827854  0.5547471729738641  0.1898407908437770
  0.5426883045645442  0.7925183980203406  0.6732676361701853
  0.4913398573974323  0.7727849297751271  0.0413756015366014
  0.6227986112959341  0.3426230064473270  0.0538351190595264
  0.5181514345664168  0.0911497030926933  0.4865343753172074
  0.0576075096234022  0.8137663682796219  0.6745734056991216
  0.9615136774276758  0.5415801865800881  0.9390093440047769
  0.4571545150650497  0.2081772112415260  0.3244299135689521
  0.0882611645450900  0.8111788128433641  0.9596507411807184
  0.0149417234285847  0.6813486480753164  0.5245145645864757
  0.9132593858170830  0.0718519296962716  0.6313214197672192
  0.1102245352413336  0.0105411286995979  0.3596297938023024
  0.3141446144475843  0.9303768685627224  0.5702115581956296
  0.8065562539754983  0.1414637020506535  0.0324310991057626
  0.7088531128345650  0.2974920000271314  0.9008916044334861
  0.2542861756887138  0.4965744995701319  0.9739489262663352
  0.1319968040090288  0.0405393664027138  0.9237895975147639
  0.9353272038766854  0.6502902908385118 -0.0024475347720499
  0.4654931085113979  0.5376294647330268  0.4743036929649656
  0.2046038228548474  0.9048541679544939  0.9967967313609931
  0.9093141383620743  0.9659228909759938  0.5059715130431739
  0.8719913597269945  0.0599123575562402  0.4337372383269965
  0.7928761500335162  0.2130594544694721  0.8822112602082791
 -0.0075698732776061  0.4012163435756701  0.3558252330952391
  0.3899405466041334  0.1709280895140800  0.9047518394027263
  0.2099462168669659  0.0949037758176287  0.5539509714261041
  0.8502603159383416  0.3845902077673476 -0.0040896267803349
  0.2565825047135625  0.9669837145880634  0.6735860115148111
  0.4061411417708106  0.1911945995127911  0.5094116158202997
  0.6781242475499535  0.5210453188989248  0.9763716158718462
  0.4906993766545961  0.9415825201280420  0.7580519623425956
 -0.0093141514332583  0.1184887900775793  0.0378564638753748
  0.3779267675067011  0.7751275345364985  0.5437808314237906
  0.7271703704349664  0.0808617310527342  0.5437921655366340
  0.4330835954448167  0.8263024643365446  0.1865199729525049
  0.3417771690201291  0.2732769169991751  0.3484592589848240
  0.5869759475288655  0.4619241767592055  0.9095104610086691
  0.2935582925358553  0.4181897317908922  0.7933886676125499
  0.0872280702214906  0.4747101236522028  0.2571908364311285
  0.8215693208483770  0.7843221829726935  0.7373441482412029
  0.0575583588545043  0.6428624106432556  0.1289601483251728
  0.8795064111434460  0.7932937132637159  0.9372902950587696
  0.1449442171191558  0.1811249628630580  0.9377835624544717
  0.6632913402352006  0.8152377258968796  0.1441207536714798
  0.6555541396990489  0.2650182188684278  0.3397312492864196
  0.3643958068491185  0.2136177239774549  0.0803985188937250
  0.2439970915583295  0.5396905878653230  0.5823318740413685
  0.2347367680166806  0.2124253463014971  0.5927960014104293
  0.4761311844370149  0.2152440859515199  0.1334019925338853
  0.6177422576303273 -0.0674476809907068  0.1458168962076046
  0.3153308110411944  0.4157322477828596  0.2927503564036596
  0.5764111469252350  0.0714642220326199  0.3727003146068202
  0.1406699869859842  0.0599901944385977  0.0817825716093354
  0.8711847962200832  0.6122165601862053  0.6300415473763136
  0.9887426176583354  0.2480405451954558  0.8903270387496092
  0.8855000495484608  0.6901392055640051  0.7878926133345386
  0.4996689978529600  0.6177396272353933  0.2859001607035916
  0.1116320868026664  0.1129586967268572  0.7090688641305531
  0.7468440067010936  0.9624219557308451  0.1300619875973742
  0.6514760149429925  0.2593368824807464  0.7452535274737814
  0.9529638566200019  0.5001370452357342  0.5021040669425660
  0.8042128068561052  0.3991393194814921  0.1912690006190575
  0.5855704763283563  0.8125025703560553  0.4753321466295777
  0.1348904817611745  0.8401307636627673  0.7699614871536087
  0.7178025424663437  0.4092140168137288  0.8545916067002141
  0.2730345695624297 -0.0015210156945131  0.4011571289099007
  0.8881406703521799  0.5761391629612543  0.7610739970541496
  0.5273290365850765  0.0047840509118268  0.2910806113345270
  0.3824406996907654  0.6429218190087773  0.9142476819927187
  0.0276322224773908  0.7096514384708261  0.7229615003373980
  0.2950014568495566  0.8572088273795899  0.9460377737468886
  0.1981958293508261  0.3265817628578856  0.0259087185960261
  0.7212445912059134  0.2874270660185035  0.0138018959881074
  0.7596704339348204  0.0185548918275737  0.4407006909014603
  0.0020527158796847  0.7540636716557437  0.4250554748594567
  0.1408835738661061  0.8403989182321853  0.0637709859739003
  0.2278144364765580  0.6163647412658203  0.9447504538872408
  0.0304370184491594  0.1358346519756049  0.9100294757179356
  0.5842411272632037  0.9202338631297683  0.4350720800583126
  0.7251855079144772  0.4219918132112955  0.4807216742079909
  0.2550327816824569  0.4261686088328797  0.5450045120764443
  0.1555354334157635  0.0258459733648388  0.6338837568520679
  0.2605704545416735  0.3135054538535701  0.8508288136611973
  0.9488873929808184  0.5843568055309893  0.1258464992284152
  0.5897308268414783  0.5491391476487688  0.8216565987543283
  0.6652058572408979  0.1495285794765011  0.7000443875701310
  0.3541928903103621  0.2908471669796868  0.9165859765729246
  0.8045653775260556  0.6640400859043804 -0.0058839454966839
  0.9501407428902006  0.7102791472292233  0.8835121882713570
  0.5128081398322589  0.8705903988440216  0.1132132457783567
 -0.0034371458025298  0.4131298800778058  0.7766866948342925
  0.8871393191338802  0.2286185863260091  0.9501860878815998
  0.1497917256022988  0.0384222570949249  0.7967921928955255
  0.2483580967410045  0.3203264816053910  0.2973322363211160
  0.9234951042261094  0.5818939271906114  0.4093946287227107
  0.6733404335729906  0.4422792399765126  0.6794270208327385
  0.7270990952062322  0.0850298951010242  0.1116991520886053
  0.8538535426325047  0.1714220251205212  0.6170638556314912
  0.0639677632584267  0.6757268694549871  0.0095116222994698
  0.8300496162879802  0.3598537813898508  0.6891417344486006
  0.1446923213293733  0.3814204400667704  0.6763373983808681
  0.7609911845920828  0.1064440532024625  0.9174873893208066
  0.0598815303134854  0.5392999979650852  0.8760382731799345
  0.6170525949055187  0.2341473419094771  0.8584994371215199
  0.6783126949960153  0.7610870984784492  0.4113065872407962
  0.4790497585830835  0.2291586996798576  0.9659620048631903
  0.8990870291525878  0.4108351190268303  0.4395306773550969
  0.2617208843229497  0.0540847208824751  0.2939895544061992
  0.8347259211986420  0.1911808253749458  0.7762221422716465
  0.7854947011856070  0.4870804152683453  0.0253905633353039
  0.1841940243608621  0.0746033974335121  0.4362003652553512
  0.0261438245724442  0.2426910465221074  0.1588448529148498
  0.3426621237307800  0.5561213641236692  0.2261272639674386
  0.2574761778654425  0.5770023148096045  0.4183942611654691
  0.5488757344380025  0.2914940521564137  0.6976081969820664
  0.2397111555674555  0.6821876409520939  0.2598966186326548
  0.9549643054222146  0.0635096801151135  0.7375925247098069
  0.8360144717350269  0.8558200787607247  0.8349582826798974
  0.6831626228883982  0.2872736646808354  0.5974484030375135
  0.1277157658728819  0.0783475315002059  0.1956599664614875
  0.6835685635725867  0.3627642785794993  0.1594689483449131
  0.4782158532669783  0.7332305100385161  0.7817469695351235
  0.4860168626241832  0.2804516526893939  0.5115029178961061
  0.8445213197181386  0.9863841046530432  0.6025735633048653
  0.4735114896846297  0.7173319188618578  0.5989107490887450
  0.5767945778139841  0.1720722355111374  0.3078375886154827
  0.6524269224500832  0.9578826419218135  0.7206162071337273
  0.6385002157621794  0.8364757738282992  0.5848441487420262
  0.2065185432591286  0.1985725278305338  0.7109066237542228
  0.3270277484644615  0.1715121218806716  0.1886210026442300
  0.3721473033573383  0.7942206317441576  0.0904103656355248
  0.0485880143690137  0.5902847429419567  0.2697420105315922
  0.9374721248154753  0.0876572314377315  0.1691947494973200
  0.4754398834514261  0.4464010274848720  0.1470610747490591
  0.7325004827641288  0.5962609796274948  0.4455322214088451
  0.6392778084869302  0.7781302605277355  0.0310457332636345
  0.7650576352963546  0.1367812875131816  0.3036136405153048
  0.2042243029641093  0.9007389620757327  0.5390620782864756
  0.6548051916684983  0.1586411575923091  0.4840041812666173
  0.3171362000261008  0.0442497591264906  0.7356036142705563
  0.8900653506147933  0.0513650785454742  0.0115847479156680
  0.0620081170775466  0.4764490832962852  0.4184031849699341
  0.6137685572113316  0.7575530160571519  0.2293291240246628
  0.0201750011943858  0.7518768575386688  0.1549040504160721
  0.6147513258734721  0.6841344287567593  0.7131806966252530
  0.9334305322413577  0.2465575756308626  0.7787522808136477
  0.1195731221065584  0.5269265929794938  0.5696127692064814
  0.7729009730339502  0.7621630629536580  0.1407945751173184
  0.7751491038509103  0.6616980399918962  0.2955184153734595
  0.0986530963511246  0.7648031340673672  0.5739153192583349
  0.8586882276852196  0.9415762301140689  0.1801354721358601
  0.3137590592587301  0.2656769202143504  0.4700347408217617
  0.5924468583674748  0.8903141417551049  0.7880853144059821
  0.8484466894130260  0.8708853423141746  0.4713506166125239
  0.2382236220468700  0.8642131544916636  0.7214613762712805
 -0.0399037277577157  0.8792300440367131  0.6571756890977362
  0.4098201106495425  0.8819218703168999  0.3625133523869964
  0.2865099819829280  0.6987509424379854  0.5799575179828852
  0.3942735527789820  0.8982354782098034  0.7939282729377506
  0.6126298055768945  0.6058893100542579  0.3135896268359132
  0.4143594781718042  0.3728093441762462  0.3567682516167477
  0.4861731228708795  0.9148309864306847  0.6423522634448807
  0.9623846389480423  0.2364070189181153  0.4818491767829921
  0.2693303141027948  0.8663986671579548  0.2421139568310724
  0.0339967824148598  0.3370822583510615  0.2205774339645056
  0.8336600947659998  0.2384626774184989  0.1540372959308808
  0.8798502178251917 -0.0413417994649510  0.7962066532638491
  0.9615173481687831  0.4410732136879184  0.0004028666409552
  0.0010470250856276  0.0836787510997096  0.5586738236705333
  0.5920696653376532  0.2335894626895622  0.1024504115822446
  0.0488214765513554  0.0121292305577182  0.0346580249921312
  0.9200709136878138  0.2031973500539840  0.3150800681351185
  0.3782583227162976  0.1921922880643681  0.6240679766233368
  0.1565105275448307  0.7157725099704186  0.7598032089968992
  0.3191458802156538  0.0542361730662949  0.5594502879390708
  0.4181720391956308  0.1901266735751121  0.7909791312097672
  0.1370412585218166  0.9209120091716551  0.9025368541046316
  0.7926269555628440  0.9051895421034145  0.0284642461729981
  0.3950289506138639  0.3745884572541474  0.7483307274773586
  0.9217690840830614  0.4630526485384951  0.2736874056439571
  0.7651014051950791  0.3696551944424790  0.3051714703342063
  0.2803366097555908  0.7146283369582476  0.7756528460266189
  0.0588346608031533  0.5309637507314573  0.6650113675552846
  0.6089823207894040  0.0392685304611823  0.5640865902630666
  0.4656304936293165  0.6320142299097057  0.1050149117350218
  0.4724748038517820  0.8430507327645286  0.9414573331374719
  0.8415679273369767  0.5135302641422637  0.5712051785382836
  0.0237523508083287  0.0828363326648160  0.3327784883027128
  0.6456860231121726  0.6008508308335901  0.0521720268281024
  0.1978561873034146  0.7830311441371000  0.4005443306458021
  0.5888039544194739  0.3617438016551799  0.3508229541559154
  0.1480475556380922  0.1699423390922502  0.0566927552500382
  0.4484326733412619  0.0012898384035619  0.4722677110202836
  0.3450506467510177  0.4678661286172217  0.8944760980683998
  0.8076712088238495  0.2556485938575025  0.4532635767395387
  0.5004654275677134  0.5217790530377951  0.9722012293614510
  0.8461040395140080  0.8211941420563289  0.3088327733587948
  0.7071898705662071  0.9535337567229254  0.2796366143330629
  0.9175512838045981  0.7280488078212685  0.5751392703056663
  0.3297827511791650  0.5184587744138263  0.0650395357158108
  0.4772174205621893  0.2866556881608970  0.2305140774724089
  0.2717109320627298  0.5487536065263887  0.6941563005091993
  0.7646962081550057  0.7041032983652001  0.8155904994811919
  0.4986513673988499  0.1074166660488687  0.1621467034093373
  0.7658200253710092  0.5113763345314629  0.2159945162156703
  0.6310969327133209  0.9605539265524474  0.0315017215551598
  0.1039036341425090  0.2963680812484696  0.9643413164968876
  0.0773985910338389  0.9150998929254153  0.4140798291661046
  0.5833910642231382  0.5027215861513452  0.4726469111887948
  0.1909861439682159  0.5079475193180162  0.2137818868955374
  0.5001630771340729  0.0550118999504479  0.7632806302289674
  0.4433059679872012  0.5430692586148634  0.3569315135042231
  0.9775671253818697  0.8523244199219577 -0.0088425947150906
  0.2358636622639065  0.0088040132392662  0.0393301675997871
  0.4106548257565142  0.7096061028348263  0.4460287227000752
  0.0467904145657003  0.4248665648803829  0.1455305781384008
  0.1145595249195906  0.2435550676308308  0.5614229311442466
  0.3432708000426856  0.3299837027464929  0.0989691317920734
  0.1295239102052823  0.5097053947176569  0.0498603239404739
  0.7647965474291083  0.6667274762630064  0.6291819272054411
 
  0.00000000E+00  0.00000000E+00  0.00000000E+00
  0.00000000E+00  0.00000000E+00  0.00000000E+00
  0.00000000E+00  0.00000000E+00  0.00000000E+00
  0.00000000E+00  0.00000000E+00  0.00000000E+00
  0.00000000E+00  0.00000000E+00  0.00000000E+00
  0.00000000E+00  0.00000000E+00  0.00000000E+00
  0.00000000E+00  0.00000000E+00  0.00000000E+00
  0.00000000E+00  0.00000000E+00  0.00000000E+00
  0.00000000E+00  0.00000000E+00  0.00000000E+00
  0.00000000E+00  0.00000000E+00  0.00000000E+00
  0.00000000E+00  0.00000000E+00  0.00000000E+00
  0.00000000E+00  0.00000000E+00  0.00000000E+00
  0.00000000E+00  0.00000000E+00  0.00000000E+00
  0.00000000E+00  0.00000000E+00  0.00000000E+00
  0.00000000E+00  0.00000000E+00  0.00000000E+00
  0.00000000E+00  0.00000000E+00  0.00000000E+00
  0.00000000E+00  0.00000000E+00  0.00000000E+00
  0.00000000E+00  0.00000000E+00  0.00000000E+00
  0.00000000E+00  0.00000000E+00  0.00000000E+00
  0.00000000E+00  0.00000000E+00  0.00000000E+00
  0.00000000E+00  0.00000000E+00  0.00000000E+00
  0.00000000E+00  0.00000000E+00  0.00000000E+00
  0.00000000E+00  0.00000000E+00  0.00000000E+00
  0.00000000E+00  0.00000000E+00  0.00000000E+00
  0.00000000E+00  0.00000000E+00  0.00000000E+00
  0.00000000E+00  0.00000000E+00  0.00000000E+00
  0.00000000E+00  0.00000000E+00  0.00000000E+00
  0.00000000E+00  0.00000000E+00  0.00000000E+00
  0.00000000E+00  0.00000000E+00  0.00000000E+00
  0.00000000E+00  0.00000000E+00  0.00000000E+00
  0.00000000E+00  0.00000000E+00  0.00000000E+00
  0.00000000E+00  0.00000000E+00  0.00000000E+00
  0.00000000E+00  0.00000000E+00  0.00000000E+00
  0.00000000E+00  0.00000000E+00  0.00000000E+00
  0.00000000E+00  0.00000000E+00  0.00000000E+00
  0.00000000E+00  0.00000000E+00  0.00000000E+00
  0.00000000E+00  0.00000000E+00  0.00000000E+00
  0.00000000E+00  0.00000000E+00  0.00000000E+00
  0.00000000E+00  0.00000000E+00  0.00000000E+00
  0.00000000E+00  0.00000000E+00  0.00000000E+00
  0.00000000E+00  0.00000000E+00  0.00000000E+00
  0.00000000E+00  0.00000000E+00  0.00000000E+00
  0.00000000E+00  0.00000000E+00  0.00000000E+00
  0.00000000E+00  0.00000000E+00  0.00000000E+00
  0.00000000E+00  0.00000000E+00  0.00000000E+00
  0.00000000E+00  0.00000000E+00  0.00000000E+00
  0.00000000E+00  0.00000000E+00  0.00000000E+00
  0.00000000E+00  0.00000000E+00  0.00000000E+00
  0.00000000E+00  0.00000000E+00  0.00000000E+00
  0.00000000E+00  0.00000000E+00  0.00000000E+00
  0.00000000E+00  0.00000000E+00  0.00000000E+00
  0.00000000E+00  0.00000000E+00  0.00000000E+00
  0.00000000E+00  0.00000000E+00  0.00000000E+00
  0.00000000E+00  0.00000000E+00  0.00000000E+00
  0.00000000E+00  0.00000000E+00  0.00000000E+00
  0.00000000E+00  0.00000000E+00  0.00000000E+00
  0.00000000E+00  0.00000000E+00  0.00000000E+00
  0.00000000E+00  0.00000000E+00  0.00000000E+00
  0.00000000E+00  0.00000000E+00  0.00000000E+00
  0.00000000E+00  0.00000000E+00  0.00000000E+00
  0.00000000E+00  0.00000000E+00  0.00000000E+00
  0.00000000E+00  0.00000000E+00  0.00000000E+00
  0.00000000E+00  0.00000000E+00  0.00000000E+00
  0.00000000E+00  0.00000000E+00  0.00000000E+00
  0.00000000E+00  0.00000000E+00  0.00000000E+00
  0.00000000E+00  0.00000000E+00  0.00000000E+00
  0.00000000E+00  0.00000000E+00  0.00000000E+00
  0.00000000E+00  0.00000000E+00  0.00000000E+00
  0.00000000E+00  0.00000000E+00  0.00000000E+00
  0.00000000E+00  0.00000000E+00  0.00000000E+00
  0.00000000E+00  0.00000000E+00  0.00000000E+00
  0.00000000E+00  0.00000000E+00  0.00000000E+00
  0.00000000E+00  0.00000000E+00  0.00000000E+00
  0.00000000E+00  0.00000000E+00  0.00000000E+00
  0.00000000E+00  0.00000000E+00  0.00000000E+00
  0.00000000E+00  0.00000000E+00  0.00000000E+00
  0.00000000E+00  0.00000000E+00  0.00000000E+00
  0.00000000E+00  0.00000000E+00  0.00000000E+00
  0.00000000E+00  0.00000000E+00  0.00000000E+00
  0.00000000E+00  0.00000000E+00  0.00000000E+00
  0.00000000E+00  0.00000000E+00  0.00000000E+00
  0.00000000E+00  0.00000000E+00  0.00000000E+00
  0.00000000E+00  0.00000000E+00  0.00000000E+00
  0.00000000E+00  0.00000000E+00  0.00000000E+00
  0.00000000E+00  0.00000000E+00  0.00000000E+00
  0.00000000E+00  0.00000000E+00  0.00000000E+00
  0.00000000E+00  0.00000000E+00  0.00000000E+00
  0.00000000E+00  0.00000000E+00  0.00000000E+00
  0.00000000E+00  0.00000000E+00  0.00000000E+00
  0.00000000E+00  0.00000000E+00  0.00000000E+00
  0.00000000E+00  0.00000000E+00  0.00000000E+00
  0.00000000E+00  0.00000000E+00  0.00000000E+00
  0.00000000E+00  0.00000000E+00  0.00000000E+00
  0.00000000E+00  0.00000000E+00  0.00000000E+00
  0.00000000E+00  0.00000000E+00  0.00000000E+00
  0.00000000E+00  0.00000000E+00  0.00000000E+00
  0.00000000E+00  0.00000000E+00  0.00000000E+00
  0.00000000E+00  0.00000000E+00  0.00000000E+00
  0.00000000E+00  0.00000000E+00  0.00000000E+00
  0.00000000E+00  0.00000000E+00  0.00000000E+00
  0.00000000E+00  0.00000000E+00  0.00000000E+00
  0.00000000E+00  0.00000000E+00  0.00000000E+00
  0.00000000E+00  0.00000000E+00  0.00000000E+00
  0.00000000E+00  0.00000000E+00  0.00000000E+00
  0.00000000E+00  0.00000000E+00  0.00000000E+00
  0.00000000E+00  0.00000000E+00  0.00000000E+00
  0.00000000E+00  0.00000000E+00  0.00000000E+00
  0.00000000E+00  0.00000000E+00  0.00000000E+00
  0.00000000E+00  0.00000000E+00  0.00000000E+00
  0.00000000E+00  0.00000000E+00  0.00000000E+00
  0.00000000E+00  0.00000000E+00  0.00000000E+00
  0.00000000E+00  0.00000000E+00  0.00000000E+00
  0.00000000E+00  0.00000000E+00  0.00000000E+00
  0.00000000E+00  0.00000000E+00  0.00000000E+00
  0.00000000E+00  0.00000000E+00  0.00000000E+00
  0.00000000E+00  0.00000000E+00  0.00000000E+00
  0.00000000E+00  0.00000000E+00  0.00000000E+00
  0.00000000E+00  0.00000000E+00  0.00000000E+00
  0.00000000E+00  0.00000000E+00  0.00000000E+00
  0.00000000E+00  0.00000000E+00  0.00000000E+00
  0.00000000E+00  0.00000000E+00  0.00000000E+00
  0.00000000E+00  0.00000000E+00  0.00000000E+00
  0.00000000E+00  0.00000000E+00  0.00000000E+00
  0.00000000E+00  0.00000000E+00  0.00000000E+00
  0.00000000E+00  0.00000000E+00  0.00000000E+00
  0.00000000E+00  0.00000000E+00  0.00000000E+00
  0.00000000E+00  0.00000000E+00  0.00000000E+00
  0.00000000E+00  0.00000000E+00  0.00000000E+00
  0.00000000E+00  0.00000000E+00  0.00000000E+00
  0.00000000E+00  0.00000000E+00  0.00000000E+00
  0.00000000E+00  0.00000000E+00  0.00000000E+00
  0.00000000E+00  0.00000000E+00  0.00000000E+00
  0.00000000E+00  0.00000000E+00  0.00000000E+00
  0.00000000E+00  0.00000000E+00  0.00000000E+00
  0.00000000E+00  0.00000000E+00  0.00000000E+00
  0.00000000E+00  0.00000000E+00  0.00000000E+00
  0.00000000E+00  0.00000000E+00  0.00000000E+00
  0.00000000E+00  0.00000000E+00  0.00000000E+00
  0.00000000E+00  0.00000000E+00  0.00000000E+00
  0.00000000E+00  0.00000000E+00  0.00000000E+00
  0.00000000E+00  0.00000000E+00  0.00000000E+00
  0.00000000E+00  0.00000000E+00  0.00000000E+00
  0.00000000E+00  0.00000000E+00  0.00000000E+00
  0.00000000E+00  0.00000000E+00  0.00000000E+00
  0.00000000E+00  0.00000000E+00  0.00000000E+00
  0.00000000E+00  0.00000000E+00  0.00000000E+00
  0.00000000E+00  0.00000000E+00  0.00000000E+00
  0.00000000E+00  0.00000000E+00  0.00000000E+00
  0.00000000E+00  0.00000000E+00  0.00000000E+00
  0.00000000E+00  0.00000000E+00  0.00000000E+00
  0.00000000E+00  0.00000000E+00  0.00000000E+00
  0.00000000E+00  0.00000000E+00  0.00000000E+00
  0.00000000E+00  0.00000000E+00  0.00000000E+00
  0.00000000E+00  0.00000000E+00  0.00000000E+00
  0.00000000E+00  0.00000000E+00  0.00000000E+00
  0.00000000E+00  0.00000000E+00  0.00000000E+00
  0.00000000E+00  0.00000000E+00  0.00000000E+00
  0.00000000E+00  0.00000000E+00  0.00000000E+00
  0.00000000E+00  0.00000000E+00  0.00000000E+00
  0.00000000E+00  0.00000000E+00  0.00000000E+00
  0.00000000E+00  0.00000000E+00  0.00000000E+00
  0.00000000E+00  0.00000000E+00  0.00000000E+00
  0.00000000E+00  0.00000000E+00  0.00000000E+00
  0.00000000E+00  0.00000000E+00  0.00000000E+00
  0.00000000E+00  0.00000000E+00  0.00000000E+00
  0.00000000E+00  0.00000000E+00  0.00000000E+00
  0.00000000E+00  0.00000000E+00  0.00000000E+00
  0.00000000E+00  0.00000000E+00  0.00000000E+00
  0.00000000E+00  0.00000000E+00  0.00000000E+00
  0.00000000E+00  0.00000000E+00  0.00000000E+00
  0.00000000E+00  0.00000000E+00  0.00000000E+00
  0.00000000E+00  0.00000000E+00  0.00000000E+00
  0.00000000E+00  0.00000000E+00  0.00000000E+00
  0.00000000E+00  0.00000000E+00  0.00000000E+00
  0.00000000E+00  0.00000000E+00  0.00000000E+00
  0.00000000E+00  0.00000000E+00  0.00000000E+00
  0.00000000E+00  0.00000000E+00  0.00000000E+00
  0.00000000E+00  0.00000000E+00  0.00000000E+00
  0.00000000E+00  0.00000000E+00  0.00000000E+00
  0.00000000E+00  0.00000000E+00  0.00000000E+00
  0.00000000E+00  0.00000000E+00  0.00000000E+00
  0.00000000E+00  0.00000000E+00  0.00000000E+00
  0.00000000E+00  0.00000000E+00  0.00000000E+00
  0.00000000E+00  0.00000000E+00  0.00000000E+00
  0.00000000E+00  0.00000000E+00  0.00000000E+00
  0.00000000E+00  0.00000000E+00  0.00000000E+00
  0.00000000E+00  0.00000000E+00  0.00000000E+00
  0.00000000E+00  0.00000000E+00  0.00000000E+00
  0.00000000E+00  0.00000000E+00  0.00000000E+00
  0.00000000E+00  0.00000000E+00  0.00000000E+00
  0.00000000E+00  0.00000000E+00  0.00000000E+00
  0.00000000E+00  0.00000000E+00  0.00000000E+00
  0.00000000E+00  0.00000000E+00  0.00000000E+00
  0.00000000E+00  0.00000000E+00  0.00000000E+00
  0.00000000E+00  0.00000000E+00  0.00000000E+00
  0.00000000E+00  0.00000000E+00  0.00000000E+00
  0.00000000E+00  0.00000000E+00  0.00000000E+00
  0.00000000E+00  0.00000000E+00  0.00000000E+00
  0.00000000E+00  0.00000000E+00  0.00000000E+00
  0.00000000E+00  0.00000000E+00  0.00000000E+00
  0.00000000E+00  0.00000000E+00  0.00000000E+00
  0.00000000E+00  0.00000000E+00  0.00000000E+00
  0.00000000E+00  0.00000000E+00  0.00000000E+00
  0.00000000E+00  0.00000000E+00  0.00000000E+00
  0.00000000E+00  0.00000000E+00  0.00000000E+00
  0.00000000E+00  0.00000000E+00  0.00000000E+00
  0.00000000E+00  0.00000000E+00  0.00000000E+00
  0.00000000E+00  0.00000000E+00  0.00000000E+00
  0.00000000E+00  0.00000000E+00  0.00000000E+00
  0.00000000E+00  0.00000000E+00  0.00000000E+00
  0.00000000E+00  0.00000000E+00  0.00000000E+00
  0.00000000E+00  0.00000000E+00  0.00000000E+00
  0.00000000E+00  0.00000000E+00  0.00000000E+00
  0.00000000E+00  0.00000000E+00  0.00000000E+00
  0.00000000E+00  0.00000000E+00  0.00000000E+00
  0.00000000E+00  0.00000000E+00  0.00000000E+00
  0.00000000E+00  0.00000000E+00  0.00000000E+00
  0.00000000E+00  0.00000000E+00  0.00000000E+00
  0.00000000E+00  0.00000000E+00  0.00000000E+00
  0.00000000E+00  0.00000000E+00  0.00000000E+00
  0.00000000E+00  0.00000000E+00  0.00000000E+00
  0.00000000E+00  0.00000000E+00  0.00000000E+00
  0.00000000E+00  0.00000000E+00  0.00000000E+00
  0.00000000E+00  0.00000000E+00  0.00000000E+00
  0.00000000E+00  0.00000000E+00  0.00000000E+00
  0.00000000E+00  0.00000000E+00  0.00000000E+00
  0.00000000E+00  0.00000000E+00  0.00000000E+00
  0.00000000E+00  0.00000000E+00  0.00000000E+00
  0.00000000E+00  0.00000000E+00  0.00000000E+00
  0.00000000E+00  0.00000000E+00  0.00000000E+00
  0.00000000E+00  0.00000000E+00  0.00000000E+00
  0.00000000E+00  0.00000000E+00  0.00000000E+00