Bi6 Te3 Se6                             
   1.00000000000000     
     2.1403411017880156   -3.7071795338247790   -0.0000000000000003
     2.1403411017880156    3.7071795338247790   -0.0000000000000004
     0.0000000000000005   -0.0000000000000030   31.4910989693428220
   Bi   Te   Se
     6     3     6
Direct
  0.3333333333333357  0.6666666666666643  0.0678181110398571
  0.3333333333333357  0.6666666666666643  0.2655152222934786
  0.0000000000000000  0.0000000000000000  0.4011514443731928
  0.0000000000000000  0.0000000000000000  0.5988485556268069
  0.6666666666666643  0.3333333333333357  0.7344847777065217
  0.6666666666666643  0.3333333333333357  0.9321818889601426
  0.0000000000000000  0.0000000000000000  0.0000000000000000
  0.6666666666666643  0.3333333333333357  0.3333333333333357
  0.3333333333333357  0.6666666666666643  0.6666666666666643
  0.6666666666666643  0.3333333333333357  0.1157677025426298
  0.0000000000000000  0.0000000000000000  0.2175656307907060
  0.3333333333333357  0.6666666666666643  0.4491010358759587
  0.6666666666666643  0.3333333333333357  0.5508989641240412
  0.0000000000000000  0.0000000000000000  0.7824343692092945
  0.3333333333333357  0.6666666666666643  0.8842322974573698
 
  0.00000000E+00  0.00000000E+00  0.00000000E+00
  0.00000000E+00  0.00000000E+00  0.00000000E+00
  0.00000000E+00  0.00000000E+00  0.00000000E+00
  0.00000000E+00  0.00000000E+00  0.00000000E+00
  0.00000000E+00  0.00000000E+00  0.00000000E+00
  0.00000000E+00  0.00000000E+00  0.00000000E+00
  0.00000000E+00  0.00000000E+00  0.00000000E+00
  0.00000000E+00  0.00000000E+00  0.00000000E+00
  0.00000000E+00  0.00000000E+00  0.00000000E+00
  0.00000000E+00  0.00000000E+00  0.00000000E+00
  0.00000000E+00  0.00000000E+00  0.00000000E+00
  0.00000000E+00  0.00000000E+00  0.00000000E+00
  0.00000000E+00  0.00000000E+00  0.00000000E+00
  0.00000000E+00  0.00000000E+00  0.00000000E+00
  0.00000000E+00  0.00000000E+00  0.00000000E+00
