Amorphous Sb                            
   1.00000000000000     
    20.4071579077798049    0.0000000000000000    0.0000000000000000
     0.0000000000000000   20.4071579077798049    0.0000000000000000
     0.0000000000000000    0.0000000000000000   20.4071579077798049
   Ag   Sb
    45   255
Direct
  0.0773982256304431  0.4829154191869399  0.4498181081306418
  0.7604441194485317  0.9400340853799324  0.9250772730472231
  0.3579935223111958  0.4951849079779786  0.0764676889952867
  0.8157863597704643  0.3854706907008204  0.3294283199339403
  0.9494678766516380  0.9676747163171524  0.5936491151908355
  0.5381146762773439  0.2245017126863265  0.3414725965783433
  0.2154907904950941  0.7702324047983092  0.6597672604090117
  0.1144229081906045  0.6272154180911770  0.4534775005956588
  0.5094406472027407  0.1963715501851800  0.6659129408427573
  0.7178158510658167  0.5920007082103104  0.8707342796548442
  0.6229680116009861  0.9946886648371008  0.5511977344695353
  0.3386311398194906  0.2101561048215664  0.1569686585219357
  0.0338220073455684  0.5818462271970792  0.3296204989433622
  0.5137626048204096  0.2105922915726770  0.5224718068789345
  0.0085736093317232  0.7755055909538556  0.5221636377793171
  0.3268741583754613  0.3385380899295944  0.8230716386930651
  0.2917258193903525  0.4614246704357103  0.3815458024897835
  0.1526247499616472  0.5340359589189665  0.9660789934652975
  0.5780224224923386  0.5008107982367851  0.3959630071128126
  0.2821819609535703  0.8971195850030655  0.8881108498858425
  0.2740420753492360  0.2330269689552076  0.6450305772067563
  0.1827007087462477  0.5355076062653349  0.3491946639848177
  0.4315372867230812  0.5211555596667166  0.4093420798630952
  0.7972879689021466  0.5326444576604921  0.9636987512740757
  0.6494492572207491  0.2108117606979925  0.6023665328698565
  0.5079991009305916  0.0865693551711988  0.5806673710657310
  0.0674227188820617  0.1971227161350086  0.0540224689313126
  0.7936673399282200  0.1869448848313511  0.8963278080681908
  0.1938628041786020  0.0217587188371131  0.5681235123452496
  0.2263055607298750  0.5772764747379475  0.1555497903997339
  0.9363369435094324  0.8266902753872957  0.1844535127010398
  0.5937777457767766  0.8169827460216970  0.7229860322389499
  0.6081223651835057  0.5333411443176215  0.5504088066056456
  0.0801761790297082  0.5675499193786694  0.1910425390360470
  0.3372333036261464  0.0202383051431536  0.1261452707513510
  0.8051811993014358  0.8011966159751808  0.1521745717363217
  0.4032487419360296  0.3880640759732088  0.9432266963802067
  0.4630505832347852  0.5207053495023092  0.9841000018483873
  0.1185337031738213  0.3789593537813675  0.1720520373349647
  0.0580291479780895  0.9728539015416391  0.9373500905695107
  0.0370521704433266  0.8115366781580809  0.3547012397746636
  0.7683865949506394  0.4306387777754148  0.8770580781354047
  0.1892089710641584  0.3633475840527428  0.4436970755736203
  0.2915048722800644  0.1420209242362852  0.7516157162426396
  0.2122325314004241  0.7257194434851936  0.1803822908335736
  0.6796389254671391  0.4146845706993563  0.5980054003234497
  0.0637750380340293  0.0891309615465625  0.2995426672703884
  0.6246128731373810  0.5648049123750265  0.7466040920581211
  0.7506430894491057  0.2452777653591605  0.3296591036573405
  0.3094363176285417  0.6798520899632113  0.0882214700559334
  0.9547328630996530  0.9842759709731246  0.2618817910825106
  0.5656491614729547  0.5799174469828648  0.8807842624298226
  0.2185651879935693  0.0741692640908518  0.1728891340064840
  0.6760160107296170  0.1343560898580573  0.8198444699568519
  0.8308014373833191  0.9829027670155072  0.6638164456439239
  0.2068468262006904  0.1949151267069337  0.0880449002213313
  0.9037342045668583  0.8626851677808582  0.3307435904401665
  0.9530276731352114  0.6279686932596727  0.1186020135382680
  0.0648522743009661  0.4094336599949535  0.7491313511844363
  0.8477063099172147  0.0824354661128194  0.0902751101016294
  0.1737185340835340  0.2935980511903568  0.9840323019609456
  0.9129285636003103  0.5016910128799028  0.8666059870258969
  0.0789943924357894  0.4533264467306646  0.2971326883953137
  0.1755898206310090  0.7781744678645938  0.3031992969032064
  0.9216171660608733  0.3489011906717848  0.5502671443872615
  0.3800558355242442  0.4740482448834963  0.5586216213027676
  0.2911888091842577  0.6008482941968702  0.7065639310883076
  0.0400883053861575  0.3502232908918810  0.4544548871863898
  0.2426031896017869  0.9063120014999331  0.4633669692809343
  0.9040706631122755  0.7100041703792639  0.2576215943754927
  0.9652104309902109  0.2677880202450639  0.2522186294514470
  0.9941754752782029  0.4649443891403120  0.0270737637773544
  0.3887930251138196  0.2441199681592438  0.7428708073725993
  0.4892871816053446  0.5810523480817716  0.1012934706876731
  0.1274225936115015  0.6384249269171350  0.0784401067586309
  0.0572763128838311  0.0459279376167915  0.5445371370970852
  0.5234235103677431  0.3941175931211295  0.0273253547463041
  0.7937519011196182  0.7025763894993130  0.6978850607793043
  0.4851437939207905  0.5448773032268529  0.2895573250227561
  0.5282257299901275  0.0557402474891288  0.3599773962232427
  0.8327622466264790  0.1733081718044543  0.2263900429771045
  0.3834846139098382  0.4125310848286610  0.7034223256711342
  0.1821033523304089  0.7209030875016316  0.8308588606193572
  0.6648200248733717  0.5123474016107088  0.9702241369404881
  0.6424464821576409  0.9853908577494580  0.8695017284633600
  0.2041870100285630  0.6568413423003977  0.5762236882387208
  0.3663017511959161  0.7291308636048037  0.2277628865952613
  0.6111188871158205  0.9246219004585907  0.2012845638438451
  0.1821806769065215  0.3462449447781409  0.3110552116411464
  0.6802538872716560  0.4155050428441114  0.7493854510641619
  0.4540948156741558  0.9845626479983023  0.4852654493810112
  0.4098450616065168  0.1734558322296225  0.3637248679746116
  0.8632336462695871  0.4191759638307330  0.0146682559123742
  0.3315235995717538  0.7726847155906822  0.8909217453063867
  0.3311475345290114  0.3605443163079704  0.4888087960957992
  0.6381698928891959  0.6262629981948793  0.4428205862300890
  0.4275374682495899  0.9708224034413656  0.9357124394677795
  0.0908627132380599  0.4730720860757696  0.5933981011275191
  0.6337089661604555  0.1340399633270103  0.9975152780245442
  0.9002297339455503  0.5761863164680697  0.3199568910824482
  0.9457967732803658  0.3413554826121525  0.9105214739580534
  0.8583876614712569  0.2282589378366284  0.0583162994714903
  0.8171179736399197  0.4164976979169757  0.4813064852574228
  0.6608316796244644  0.7044996903276063  0.7645758655204088
  0.6220670007527956  0.6219884082330737  0.0725041919849801
  0.5308304992508213  0.4077672746228901  0.7142362890646172
  0.3158645172805636  0.1411778752069671  0.9848425678487074
  0.7049646119954374  0.4041675826638091  0.0893539779590334
  0.6871074265860055  0.5192137055082029  0.1775109954112113
  0.3137129708494069  0.4590241826741656  0.8755745356793108
  0.0562249186688064  0.9110317136216673  0.4466981424091866
  0.5733511994929511  0.3762554625751222  0.3066946399688494
  0.2121029310375097  0.5801233247428763  0.8266948713062665
  0.0955608873030110  0.8964090427306231  0.2439890846075363
  0.0802370913156086  0.2968427309532552  0.8560419551027121
  0.9287422731411101  0.5908170664776980  0.7240776250897177
  0.1439033579380533  0.0263258492258936  0.4150323638926122
  0.2604005018495089  0.2204410619975473  0.4431019790058167
  0.9552944373238763  0.2540283728108998  0.7377196522707780
  0.0429700751794590  0.6927138717316245  0.8274915751724325
  0.2586285151426959  0.6367771277320137  0.2941989995358751
  0.0021032170847226  0.1283799242525462  0.1584581350236002
  0.8065058774437529  0.1111517261129989  0.7195887453568311
  0.5105599639196132  0.5537762531130794  0.6464082426934035
  0.1501658496848101  0.8388367814917449  0.1185591538343223
  0.4019802195265211  0.8551897942877893  0.4507815807574562
  0.6971420731723060  0.6622775843112835  0.5693015575366087
  0.3353231436815474  0.5986880098634669  0.4644336788974595
  0.4056085267192359  0.5341064690170380  0.7704232838394646
  0.5282567464644351  0.2660126698041436  0.9119651580803032
  0.7624896723642888  0.2264214630937682  0.5242435684281600
  0.1349107848768001  0.0668089442294877  0.0015632923433627
  0.5021410674211633  0.4339246645775179  0.4977208903927403
  0.0944223621713308  0.1414849578602006  0.8553399282911961
  0.6230472903089672  0.8384655845338290  0.8571278472999285
  0.2582500709045919  0.4213165958977126  0.0258803182440084
  0.6291951000791941  0.3870826245397673  0.9075699647649579
  0.7125509678967930  0.2334211782821822  0.0736370418013846
  0.7703410277774512  0.3202794797723702  0.9606068093477017
  0.0589167321132792  0.4841123703835252  0.8793376209306850
  0.1587172523282525  0.8769372472277285  0.9797133025649414
  0.4845316185581868  0.7978109736537492  0.1768289599450077
  0.9297496916654053  0.4936175310461374  0.4320660392038818
  0.9110845037396637  0.9014468085247950  0.7567899493663507
  0.7613704197431287  0.6707802233107868  0.2066308226159579
  0.6284070330848766  0.7915181344261516  0.3786058232431581
  0.2422917053889622  0.4530403041468484  0.2442492779870224
  0.6402636335584972  0.2698820793038071  0.4507186718613895
  0.3237882425203802  0.0297927705057136  0.5127468533532503
  0.9688916147315797  0.2089923722584631  0.9639273638633405
  0.7025497209107399  0.8313655344271871  0.2633226935386996
  0.8226848348847720  0.5659137926190664  0.1088107907680057
  0.3881787165829773  0.1087079086086784  0.2325342901148872
  0.8203679908719028  0.0838443336731819  0.5070878975202634
  0.9321299781615062  0.6896950931834480  0.6123504567617656
  0.2052727590801156  0.3402230594333042  0.5792170791657425
  0.9908142597907824  0.4746477415226662  0.1759553421116656
  0.4742777797199505  0.2848756209992888  0.2230202965598524
  0.3077096300176218  0.8652201126470056  0.2934993570381106
  0.0183231838860410  0.9949075716467154  0.7960086392788069
  0.7877441672508718  0.9496489751903922  0.3145319081484355
  0.8345552705124699  0.2996005978051783  0.8184393537244049
  0.9044026524084190  0.9107382059931907  0.4666906246582434
  0.3124989471103484  0.0633868808614773  0.8697425810902860
  0.7775409286102636  0.3274095487870615  0.1959091927909779
  0.5169618628861841  0.1505044388276865  0.1953225390914557
  0.9039842544898258  0.1401281570006057  0.8366967832459105
  0.8931108641297485  0.7320713820074880  0.0345644481242486
  0.0787793989310904  0.6281229151749054  0.6265021449463213
  0.9818576317227306  0.8402251524890728  0.6513967605959493
  0.4410198519435133  0.7888135048809433  0.6235244545059101
  0.8024120248482595  0.4995586558952012  0.6065957445797892
  0.7175090353296933  0.9778812282269062  0.1152054320087026
  0.6710591232255876  0.4054256255271368  0.4533147471113869
  0.1976069069760448  0.1648951821552348  0.5586268701134572
  0.6172150214549610  0.8694306656993114  0.5951561122784518
  0.9427569573392959  0.4930463062185620  0.6219722803237721
  0.7210821942420667  0.8019369790627118  0.5254793773278205
  0.9074030789941206  0.8619373828586192  0.9575164324993171
  0.9792530379576302  0.9150958524030794  0.0642800935686659
  0.2129813636036190  0.5099306585301917  0.4852697887571135
  0.6047424420720945  0.8246854563843591  0.0685278408809391
  0.4679421359571418  0.3060641675344234  0.4381618839116692
  0.3106286991846988  0.8284860347326607  0.5707956232920446
  0.6231273394233061  0.7218523202868837  0.1823059322881714
  0.5499844298639879  0.2746382857452948  0.7682751875676490
  0.0083924643969004  0.6158012227300321  0.9813775450383841
  0.4018004274859897  0.1005104195253566  0.6745252254631613
  0.6970680451252529  0.2591784934268230  0.7391725041165924
  0.5396005477092510  0.6957613495240804  0.6650978406386809
  0.0853073185298732  0.1701807669446728  0.7125515431756381
  0.2099969668446912  0.9707277636784136  0.2894884939715848
  0.3350895429940444  0.9576070808359782  0.6479362159038162
  0.0843224403466340  0.7585569393852549  0.7024982302658266
  0.7116944572158339  0.9032309579698097  0.7262559632750090
  0.2256725476536568  0.2029870693853437  0.8689208534279592
  0.4731979790146033  0.9560354958578322  0.6276100933928226
  0.8600585059701266  0.9400642067498498  0.1523481114227984
  0.6647864493066016  0.0307730448244497  0.2927464437665706
  0.9166684172172390  0.4073555069739325  0.7487880174211917
  0.1942029108551211  0.2781390020596348  0.7498642445752937
  0.5828160208589175  0.7250918146140432  0.9709297610823572
  0.4660770553758177  0.8108310643137666  0.8607929466255410
  0.8811322297587700  0.1860549906023422  0.6219009682852875
  0.7419450100118993  0.8520941539793087  0.0334637737762779
  0.2864590465729797  0.5724955155374032  0.9816995566164254
  0.5871939041237426  0.6423055131541394  0.3037750691762269
  0.3127557599660066  0.7256618410680524  0.4050174016749767
  0.2558363157867591  0.9782966364813962  0.0092387292534670
  0.6368105937043809  0.2413128378954521  0.2516800581838620
  0.0633516567380252  0.3209412578591629  0.6180380196700225
  0.5962010789301514  0.1097021103182089  0.4706396275320031
  0.2581589177323858  0.3330312360737526  0.1510071695849986
  0.8976475214351938  0.7449540276097361  0.8051901421003190
  0.0731185924243452  0.5710033367437716  0.7630731798511908
  0.0797946939438185  0.6812699801694830  0.2645997846851720
  0.3689644523469187  0.8908730105941078  0.7802134599519865
  0.5581149661779350  0.9382864503825060  0.9808703955510203
  0.0558641639131482  0.1991765477057887  0.5363170432827516
  0.1781697944027602  0.0069386865416620  0.8394668063889581
  0.1064583449522840  0.9368263709580660  0.6703627213829860
  0.7901035304875305  0.7287463569342602  0.3550330933992936
  0.3360959627411733  0.7530088814426352  0.7359123993669218
  0.8224732903733593  0.6195577846661232  0.5230691316332826
  0.9711037450668731  0.0571413257543188  0.0117053298170102
  0.1835084658174516  0.1629165880959810  0.2827106263175486
  0.9493297268780937  0.0583224631210947  0.4469428279590955
  0.4021665887639482  0.4087501040256557  0.1755250853138731
  0.8535824651113404  0.4766101180773852  0.2253588646767317
  0.4427993849960035  0.0357534036940878  0.8034260388695141
  0.9581350082946264  0.3802800094368635  0.3334546565166830
  0.1990938261756591  0.7229956205358872  0.9793040648415010
  0.4661361758424377  0.6979591749973799  0.3323003566841529
  0.9878839347686207  0.6970213370049545  0.4066318161274713
  0.9135855385239560  0.3377773611447206  0.1372872030643215
  0.5486403562023552  0.3240904458613967  0.5864843292768437
  0.3851505953903431  0.8404603053647540  0.0094338538791793
  0.3944182877617882  0.6518301307442976  0.5923485906966650
  0.7659882890600905  0.0681480669579987  0.9710666785653560
  0.1045987781616414  0.2249859713138203  0.4034980276542514
  0.4121294934408987  0.9697431950178277  0.2883564781574541
  0.0346739359913358  0.7569590229990826  0.1273826600170256
  0.9745903640790708  0.0881308559691534  0.6779814395573495
  0.6008427207921202  0.0906750019768005  0.7099685764359859
  0.4084552989707371  0.6358160135962887  0.9205417460624249
  0.1303719640964116  0.8493458048419009  0.5481620314730843
  0.6977362843437981  0.1252988823064946  0.1807803414633053
  0.7003930826477069  0.4438079151381447  0.3010755306179400
  0.0943602838866273  0.0215470931974258  0.1301173344016174
  0.7592509065014268  0.9465970540820130  0.4542529152554488
  0.9702427943880251  0.1804108491649473  0.3752329385227783
  0.5486259531033479  0.4498750301002891  0.1752248977678414
  0.8585572768255806  0.0789220133045728  0.3266672344888336
  0.9954541772404022  0.5895406982690947  0.5156266675513231
  0.3913009193004418  0.2456318875757577  0.9061075392860343
  0.8694261040836400  0.2778134662386180  0.4360368186169916
  0.5481002438115402  0.9582715730827079  0.7492544142672416
  0.8068880917525388  0.8316902311489823  0.6418694933952442
  0.8664404744708011  0.7637897642868697  0.4700875292381420
  0.3867506217732984  0.3807232421415104  0.3187176480326082
  0.7576403693818167  0.7046297308152113  0.0606504743255523
  0.4527817000298096  0.9405946041281343  0.1485880737330458
  0.4951005690099702  0.8402005569580111  0.3190568723352438
  0.1116454769289515  0.2468505696949397  0.1960428568184017
  0.0551688793151148  0.3280066030446777  0.0603019414697895
  0.4874040752400453  0.6482894978320983  0.4765671581928840
  0.7245870422414922  0.7225604143775808  0.9145325890945224
  0.5284092957451074  0.7910919773513138  0.5008959248221020
  0.5861938198645875  0.0380919520711570  0.0863850253100479
  0.3600292079608108  0.5691877566275647  0.2003630881487611
  0.2122003464042127  0.4102950470627333  0.7934292989571400
  0.0306090017246031  0.8485195634725100  0.8579412745630716
  0.5936751352174087  0.3109267409795446  0.1182153340501619
  0.1814623357178685  0.7401898754774867  0.4572579028064461
  0.7247783812177216  0.1114463325502034  0.3964833948606653
  0.2864322050447632  0.0828134805756293  0.3829435063768151
  0.3826855885510211  0.1606042741316093  0.5402771350721877
  0.1451396593350557  0.4783976718138976  0.0899385705101141
  0.6050984752070320  0.9393148534326232  0.4117542880808361
  0.5485772893974611  0.1268779471398702  0.8812036706793250
  0.9014590954799419  0.0049078281702702  0.8911200616080535
  0.4022732967217378  0.3006516045222291  0.0643261575873641
  0.7040391497367861  0.0784037372210402  0.6124050834916801
  0.8699869830451183  0.6441312686905681  0.9118653401210263
  0.1877772518067370  0.0552799944814287  0.7019856972330801
  0.5070227788473674  0.4445410946817911  0.8599252747800851
  0.7762815875324031  0.8350110993506825  0.8401377598965732
  0.1770719516516335  0.8673691571388630  0.7698081594136645
  0.4326286562615917  0.0723489009928512  0.0418583795571627
  0.2407415488116738  0.4618928995283323  0.6553295681286098
  0.4492007496955490  0.7127888060455545  0.0418138410231250
  0.3153571712560222  0.2633952893562864  0.2960697284842614
  0.4034879345375956  0.2909684384404616  0.6070186945150892
  0.0381500418866366  0.7720983214360140  0.9812932428783745
  0.7746912138056409  0.5217187509677627  0.7515240342542892
  0.3087344190020131  0.8750646934425967  0.1395769618646821
  0.5014078792339051  0.2002672527876022  0.0562975173036375
  0.4684150734698541  0.6910991750128610  0.7937825585743734
  0.7626979668157419  0.5877525221886299  0.3874503978131471
  0.7875145923436515  0.3258991039887984  0.6356104112405107
 
 -0.28502522E-02  0.61961479E-03  0.11680275E-02
  0.41121832E-03 -0.18875798E-02  0.13181142E-02
  0.18989438E-02 -0.33242269E-02 -0.36968098E-02
  0.11260294E-04 -0.34396494E-03  0.80018417E-03
 -0.53106551E-03  0.79750030E-03  0.21292410E-02
 -0.82356982E-03  0.49217059E-03  0.80203703E-03
 -0.93316664E-03 -0.39763029E-03  0.39501314E-03
  0.88335878E-03  0.22048322E-03  0.94931165E-03
 -0.25103110E-02 -0.51412048E-03  0.11714041E-02
  0.27378256E-02  0.16515436E-02  0.52147043E-03
 -0.10851217E-02 -0.46400822E-03 -0.17909541E-02
 -0.13383550E-02  0.63333543E-03  0.34455993E-03
 -0.67740912E-03  0.79144960E-03  0.20402988E-02
  0.21792493E-03 -0.69943384E-03 -0.16456141E-04
  0.20633116E-03  0.73442078E-03  0.37187055E-03
  0.12970640E-02  0.21061939E-03  0.27131768E-02
  0.22380289E-03 -0.27192725E-03 -0.23410080E-02
  0.12114706E-02 -0.17427293E-02 -0.49069921E-03
 -0.32774777E-02  0.11178519E-02 -0.68097698E-03
 -0.92700131E-03  0.19741883E-02 -0.16643704E-02
 -0.21093994E-03 -0.40171359E-02 -0.43849500E-03
 -0.33446016E-02 -0.28923096E-02 -0.70075323E-03
 -0.26184597E-02 -0.31888441E-02 -0.11186470E-02
 -0.18891490E-03 -0.86888342E-03 -0.32476794E-02
 -0.57028996E-03  0.93858912E-03  0.21714541E-02
  0.35296457E-03  0.18843998E-02 -0.87131488E-05
  0.33655789E-02 -0.15163458E-02  0.13670024E-02
  0.93316300E-03 -0.46944202E-03 -0.12203070E-02
  0.21169370E-02 -0.52069931E-03  0.29991345E-03
 -0.53343222E-03  0.15739524E-02  0.20544493E-03
  0.49296946E-02  0.96379533E-03  0.37216142E-02
  0.22314173E-02  0.16064105E-02 -0.17371321E-02
  0.65517596E-03 -0.64219998E-03  0.45412152E-03
 -0.48201385E-03  0.81119980E-03 -0.20681891E-02
  0.12466449E-02 -0.28224035E-03  0.24863919E-02
  0.17165785E-02  0.50815368E-03 -0.49838405E-03
  0.79492342E-03  0.12596592E-02  0.65940320E-03
  0.30412514E-03 -0.11176205E-02 -0.23312055E-02
 -0.69264894E-03 -0.15931764E-02  0.63768528E-03
  0.56514270E-03  0.12172116E-02  0.38072670E-03
 -0.78903127E-03  0.85921741E-03  0.15626686E-02
 -0.86697865E-03 -0.17933143E-02 -0.31364424E-02
  0.20784997E-03  0.30125388E-02  0.12502067E-02
  0.39278738E-03 -0.58828303E-03  0.25556931E-03
 -0.71778770E-03 -0.17728420E-02 -0.15637364E-02
 -0.85955360E-03 -0.15538580E-02  0.13427250E-03
  0.13524118E-02 -0.14440715E-02 -0.24693425E-03
  0.23068975E-03 -0.18745174E-02 -0.53926701E-03
 -0.82671538E-03 -0.81559671E-03  0.50473251E-03
 -0.29239100E-03  0.23308410E-03 -0.45521316E-03
  0.17805737E-02  0.67605613E-03 -0.21850529E-02
 -0.13961353E-02  0.14793063E-02  0.11589000E-02
  0.55509578E-03 -0.12869824E-02 -0.11666185E-02
 -0.12030284E-02  0.28897109E-02 -0.74527526E-03
 -0.69301233E-03 -0.84933265E-03  0.18866196E-02
 -0.76337251E-03 -0.35154780E-03  0.53564050E-03
  0.16035847E-02 -0.21731917E-03  0.10760153E-02
 -0.19063339E-02  0.13570907E-02 -0.42071836E-02
  0.16556058E-02 -0.85179201E-03  0.11415988E-03
  0.93360638E-03  0.20779499E-02  0.27096795E-02
  0.61935528E-03 -0.23556208E-02  0.77891513E-03
 -0.65495361E-04  0.30515821E-02 -0.29237214E-02
  0.21990806E-03 -0.16586284E-02 -0.47386235E-03
  0.51459579E-03  0.11189552E-02  0.18910551E-02
  0.80271987E-03  0.96825559E-03 -0.76812224E-03
 -0.97963492E-03  0.59974594E-03 -0.24394580E-02
 -0.99455850E-03 -0.33674671E-03  0.13969729E-02
  0.43625271E-02  0.12888489E-02  0.34913129E-03
  0.32830307E-03 -0.17823174E-03 -0.85772866E-03
  0.14626171E-02 -0.71577858E-03  0.31094085E-03
 -0.88447186E-03 -0.67861422E-03  0.61060362E-03
 -0.12484192E-02  0.84506991E-03  0.18164680E-02
  0.72146865E-03  0.30982775E-03  0.85044897E-03
  0.23296582E-02 -0.22997615E-02  0.19839620E-02
  0.31058636E-03  0.11791149E-02 -0.18036162E-02
  0.17985088E-02 -0.13681159E-02  0.73343480E-03
  0.22833012E-03 -0.50677242E-03  0.20452246E-02
 -0.40690418E-03 -0.18599209E-02 -0.10906829E-02
  0.54470082E-03  0.10849367E-02 -0.48771208E-03
 -0.16248242E-02 -0.58940019E-03  0.17232359E-02
  0.23490906E-03  0.28275405E-02 -0.93828095E-03
 -0.73160810E-03  0.37596220E-04 -0.14592711E-02
  0.36997043E-03  0.71231110E-04  0.12399661E-02
  0.42470040E-03  0.13469759E-03  0.13516028E-02
 -0.13822423E-02  0.31276352E-03 -0.17647720E-02
 -0.14093156E-02  0.62960681E-03 -0.28373087E-02
 -0.12763047E-03 -0.10680950E-02 -0.25291216E-03
 -0.10954419E-02  0.55368804E-03  0.35025777E-03
 -0.31820483E-02  0.44712127E-02 -0.16841088E-02
  0.89492392E-03 -0.50962672E-03  0.85073091E-03
  0.83308512E-03  0.41056953E-02  0.39391929E-03
 -0.62231573E-03  0.59578217E-03  0.15235339E-02
  0.28013985E-03 -0.15852028E-02 -0.58690864E-03
 -0.34528006E-03 -0.32958017E-03 -0.11619019E-02
 -0.93819935E-03 -0.12562919E-02  0.14885489E-03
 -0.10924674E-02  0.21733975E-02  0.83187246E-03
 -0.19517546E-02  0.27834419E-04  0.13402022E-02
 -0.83168411E-03 -0.10932706E-03 -0.74831054E-03
  0.48519951E-03  0.68690731E-03  0.13708879E-02
 -0.51218191E-03  0.88660033E-03 -0.25816038E-04
  0.67981733E-03 -0.11168302E-02 -0.48473833E-03
 -0.21918162E-03 -0.21446417E-02  0.10882543E-02
 -0.78210609E-03 -0.70865269E-03  0.10725042E-02
 -0.14481884E-02  0.18839861E-02 -0.45531187E-03
  0.18490252E-05 -0.21429841E-03  0.39824516E-03
  0.10773034E-03 -0.21294916E-02  0.30026552E-02
  0.22612307E-03  0.45541645E-03 -0.98007009E-03
  0.57150168E-03 -0.11859610E-02 -0.11747213E-02
  0.20903889E-03 -0.10136415E-02  0.44847250E-03
 -0.25154469E-02 -0.14594351E-02  0.33284368E-03
  0.34128315E-04  0.13362533E-03 -0.98976194E-03
  0.79571915E-03  0.58815403E-03  0.21933078E-02
  0.10904249E-02 -0.24947698E-02  0.18101154E-02
  0.36380560E-03  0.62229795E-03 -0.87225041E-03
 -0.54437688E-03 -0.37384370E-02  0.52425107E-03
  0.12597418E-02 -0.19008767E-02 -0.13419138E-02
 -0.15807742E-02  0.31097358E-03 -0.25015247E-02
  0.19762746E-02  0.19014965E-02 -0.17640480E-02
 -0.22128262E-02 -0.83325254E-03  0.12007136E-02
 -0.13698983E-02 -0.19763876E-02  0.21250161E-02
  0.28715257E-02 -0.92581065E-03  0.17972417E-02
  0.12817753E-02  0.14428538E-02  0.35803187E-03
  0.69290596E-03  0.64016499E-03 -0.34702204E-03
 -0.77122674E-04 -0.16497384E-02  0.96894990E-03
 -0.15954517E-02  0.59710656E-03 -0.14029880E-02
 -0.48841962E-05 -0.26641715E-02 -0.59547778E-03
 -0.90600031E-03 -0.15667373E-02 -0.15260903E-03
  0.26173793E-02  0.15773692E-02  0.12994707E-02
  0.69514879E-03 -0.19842923E-02 -0.19398963E-02
  0.67510397E-03  0.21974210E-02  0.24068693E-02
  0.37585837E-03  0.17006233E-02  0.52596099E-03
 -0.11160039E-02 -0.75072994E-03  0.24355826E-02
  0.12557064E-02 -0.11596975E-03 -0.16851329E-03
 -0.26107830E-03 -0.26124703E-03 -0.38536370E-03
 -0.11972532E-02  0.12922890E-02 -0.21505851E-03
  0.80869192E-03 -0.66729216E-03  0.47700701E-03
  0.34524593E-03 -0.87901310E-03 -0.78811377E-04
  0.48013750E-03  0.14028516E-02 -0.11484936E-02
  0.56100600E-03  0.32393476E-02  0.46384100E-03
 -0.10186884E-02 -0.10393719E-02  0.20672243E-02
  0.57627728E-03 -0.15450418E-02 -0.34095182E-03
  0.14303236E-02  0.33322903E-03 -0.16934112E-02
 -0.48346421E-03 -0.14395816E-02 -0.57085679E-04
  0.52803689E-03  0.11226069E-03 -0.16303169E-02
  0.10107997E-02 -0.54649327E-03  0.37465008E-03
 -0.12805369E-03  0.23259889E-02  0.11123561E-02
  0.86864378E-03  0.25273009E-02  0.65452379E-03
 -0.59887140E-03  0.80830551E-03 -0.17948455E-03
 -0.31507128E-02 -0.79683588E-03 -0.24226924E-03
 -0.66755552E-03  0.64734657E-03 -0.28740414E-02
 -0.81014040E-04 -0.17366323E-02 -0.20495164E-02
 -0.60730294E-03  0.12470347E-02 -0.75733910E-03
 -0.93353608E-03  0.18804511E-03 -0.86027572E-03
  0.11758125E-02 -0.12423855E-03  0.67227454E-04
 -0.23922055E-03 -0.78884760E-03 -0.16194487E-02
 -0.13044847E-02 -0.39312767E-03  0.20340607E-02
  0.29937275E-03 -0.95029328E-03 -0.11201510E-02
  0.54284681E-03  0.33860533E-03  0.26080678E-02
 -0.15819794E-02 -0.22882920E-02  0.25907814E-02
  0.44994774E-03 -0.15900121E-02  0.46212162E-03
 -0.19873068E-02 -0.21648224E-02 -0.16277813E-02
  0.54689710E-04 -0.86909344E-03 -0.10515621E-02
 -0.49082005E-03  0.32621682E-02  0.23772086E-02
 -0.16339153E-02  0.13831711E-02  0.33192326E-03
 -0.94433155E-03 -0.10200702E-02 -0.69264867E-03
  0.93419529E-03 -0.23471120E-02 -0.42044094E-03
 -0.20008853E-02  0.58683685E-03  0.20664337E-02
 -0.57838162E-03  0.18806761E-02 -0.85644485E-03
  0.86497446E-03 -0.12413593E-02 -0.15796397E-02
  0.34112953E-03  0.87496003E-03 -0.53872399E-03
  0.26187455E-02  0.14768924E-02 -0.78879318E-04
 -0.20508128E-02  0.44650169E-03 -0.97984442E-03
  0.25314547E-02  0.20164769E-03  0.88322409E-03
  0.17258973E-02  0.75669700E-03 -0.18623367E-02
  0.11874111E-02  0.28018553E-02 -0.16475356E-02
 -0.11390653E-02  0.15473095E-03 -0.18897598E-02
  0.51749053E-03  0.20099152E-02 -0.25132450E-03
  0.67839037E-03 -0.32569805E-03 -0.31105005E-02
 -0.45974164E-03  0.25900870E-03 -0.16413854E-02
 -0.30336752E-03  0.11435069E-03 -0.37402405E-03
  0.61304707E-03  0.12805805E-02 -0.36855915E-03
 -0.23127434E-03 -0.19844122E-04  0.13021975E-02
 -0.34460079E-03 -0.33554028E-03  0.11145236E-02
 -0.16333469E-02  0.11354704E-02  0.42753702E-02
  0.13022760E-02  0.16012037E-02 -0.39552852E-03
  0.10271793E-02 -0.30419550E-03  0.16917122E-02
  0.17597818E-02  0.75370828E-03 -0.21824663E-02
 -0.55103338E-03 -0.12774666E-02 -0.11485739E-03
 -0.15978746E-02 -0.43296466E-02 -0.23156145E-02
  0.52430869E-03  0.19267490E-02  0.18275270E-02
 -0.16369569E-02  0.10154512E-02  0.54558346E-03
 -0.23816197E-02 -0.14025560E-02 -0.15508627E-02
 -0.40917837E-03  0.17526418E-02  0.13291686E-02
  0.20389911E-02  0.23616598E-02 -0.20894126E-03
  0.13849530E-02  0.59924474E-03 -0.14676740E-02
 -0.23208780E-02 -0.91965796E-03 -0.86955386E-03
  0.14506141E-02 -0.16169305E-02  0.41691206E-02
  0.61303017E-03 -0.75083846E-03  0.17026895E-02
 -0.13774098E-03  0.21592831E-02 -0.25286657E-02
  0.12660510E-02 -0.38741040E-03  0.79672948E-03
 -0.23589315E-02 -0.16022782E-02  0.98523669E-03
  0.63914948E-04  0.11226682E-02 -0.94129428E-03
  0.35916398E-04 -0.20164063E-03 -0.83557058E-03
 -0.30778270E-03 -0.93961603E-03 -0.15117262E-02
 -0.10435373E-02  0.79733787E-03 -0.53311674E-03
  0.15478382E-02 -0.42753615E-04 -0.33549993E-02
 -0.13343872E-02  0.15447954E-02  0.48670615E-03
  0.17656673E-02  0.55635451E-03 -0.63240134E-03
 -0.15220077E-02 -0.10440551E-02  0.29992771E-04
  0.61567908E-03  0.12044602E-02  0.21193305E-03
  0.12415340E-02  0.97535378E-03 -0.87650560E-04
 -0.53782607E-03 -0.27788729E-03  0.27445653E-04
 -0.23980237E-03  0.38572351E-02 -0.22690008E-02
  0.12415706E-02 -0.29980056E-03  0.78590053E-03
 -0.76455448E-03 -0.18404893E-02  0.91934127E-03
  0.15138345E-02  0.19728262E-02 -0.88162320E-03
  0.10560065E-02  0.11377772E-02  0.12220780E-02
  0.97624038E-03 -0.28915067E-02  0.13599949E-02
 -0.11886986E-02 -0.22951072E-02  0.13620619E-02
 -0.14484522E-02 -0.77005930E-03 -0.76952165E-04
  0.27705585E-02 -0.26388696E-03  0.35191670E-03
 -0.40972503E-03 -0.51998257E-03 -0.95597575E-03
 -0.43300653E-02  0.14640976E-02 -0.13077623E-02
 -0.10951080E-02  0.39640340E-03 -0.13399242E-03
 -0.97009381E-03 -0.44021807E-02 -0.74567601E-04
  0.59562733E-03 -0.11843621E-02 -0.62650626E-03
  0.18231722E-02 -0.72022535E-03  0.17759396E-02
  0.25296287E-02 -0.77895043E-03 -0.49725883E-03
  0.39722185E-03  0.36228913E-03  0.22578581E-02
 -0.26076033E-03 -0.75376080E-03 -0.18781973E-03
  0.12410541E-02  0.71128925E-03 -0.74672725E-03
  0.33732453E-03 -0.12900325E-02  0.24492829E-02