3D\Atomistic                            
   1.00000000000000     
    18.8173099491580764    0.0000000000000000    0.0000000000000000
     0.0000000000000000   18.8173099491580764    0.0000000000000000
     0.0000000000000000    0.0000000000000000   18.8173099491580764
   Sb
   216
Direct
  0.0938043608663233  0.9813330038879989  0.5725619838851043
  0.5737891232831391  0.7616998055875650  0.3242379507238321
  0.9454432539039860  0.0133590861822189  0.9883595882498504
  0.2418726111728716  0.3355080997656077  0.0208127113101163
  0.8650274126680908  0.9773743511557331  0.8111840419285266
  0.3969412038613521  0.9963093573847693  0.9751316158256504
  0.9582960647135317  0.1900309132110133  0.4557887744319528
  0.7419517345525903  0.2714747562453380  0.6881093118071522
  0.4061842303205324  0.7208455906778581  0.0882652969386659
  0.2910871923585219  0.0873731364536842  0.2507801651670236
  0.3414560453891627  0.7587663733500072  0.3453182034986290
  0.5189663272642764  0.3112516112141641  0.3782232203602239
  0.5278198082408578  0.0639406172758969  0.3714178846701056
  0.5200728282461140  0.8784475756285804  0.9879699650309537
  0.1150698977755453  0.2498512610245910  0.4858250064271890
  0.7753624530492400  0.3450628328623458  0.1349385697583034
  0.4656488498094484  0.7369186461465722  0.6405061857497373
  0.4413972213310441  0.2418576832779933  0.2535745390794082
  0.1408980570060503  0.9321157269633412  0.0843001289919306
  0.8238106585409906  0.1330646723970789  0.8324997459908862
  0.3374822733749409  0.1639829090402959  0.9215569289220518
  0.7251483145351584  0.7504223600543544  0.9491377975222133
  0.7611435332241909  0.9024771559417155  0.5918030719663541
  0.8096725783511837  0.1264762658871084  0.5305064747083281
  0.6745216713366894  0.9520842622826072  0.2908719399130135
  0.9359601095713332  0.3816045755054963  0.0280202519784297
  0.4757620943145311  0.5429279575063350  0.9838555132896639
  0.7995772810308807  0.5121471680274498  0.9915570895076992
  0.8532431811330899  0.9609736622124952  0.3863456765194052
  0.0419964942323150  0.3075255957600407  0.8964448729436572
  0.7280015799427884  0.7444920191479706  0.7096240084820992
  0.0729802819793639  0.4492114324103597  0.2563694274466560
  0.0981618186388829  0.2897007418838046  0.1731107785579596
  0.6996322304137170  0.6184749020296836  0.6058329964061117
  0.3890571675726394  0.3868923874686384  0.9633489450242029
  0.1468257695998687  0.0664822475061311  0.1890663936019231
  0.7005560122647546  0.6019162632689684  0.0745190937250436
  0.3494843661814849  0.1004147932837434  0.6666215481910578
  0.1723795497855181  0.6791525775451605  0.0744764511766106
  0.3123070522946108  0.5282225612489815  0.9400018119456618
  0.5576026876970032  0.8883102643958488  0.4473971622893598
  0.9445585897263868  0.3044692568898782  0.1682700308501809
  0.1542233382632676  0.1951801693148335  0.8372226849649436
  0.1374291582488431  0.7899490810921245  0.8971155283880832
  0.1473133888923946  0.3594221179943649  0.3712499149969871
  0.2863897707638525  0.4913886528947803  0.7692341042834508
  0.8335076898687431  0.4867063763696702  0.3421429237860772
  0.0397431552855928  0.7513423472291173  0.4046116935151498
  0.8266192647286547  0.8106205570359445  0.8356771848759547
  0.8155273330063750  0.9353398539670612  0.2168510470248985
  0.0064748099950968  0.5835874026482772  0.0740538775831878
  0.8726818784069060  0.7728785476753799  0.6595136503134812
  0.5363764622033569  0.6016426153119141  0.5607085819028010
  0.1554923743244712  0.6198766458579924  0.7505648507369693
  0.1509922292869653  0.7694190066794095  0.2275531913128063
  0.4859713760895959  0.1653354541230748  0.8822358712903823
  0.8563829145507127  0.6848158585050542  0.9976412970079552
  0.0320040915397221  0.7265969482665914  0.8069540169146042
  0.7797125233087900  0.0715159591361367  0.9911405459413962
  0.5548630287167544  0.6761837401428968  0.9941897165616358
  0.4301829524687797  0.4386195585318622  0.4623889650989396
  0.3718043024295607  0.6798423738795013  0.8963635583772761
  0.9676588150125772  0.8610364267723881  0.4889392119256252
  0.5574443048328037  0.7189622733294072  0.1568874773550080
  0.9906163415746460  0.5961469206745263  0.2456410567255449
  0.4278708820026432  0.8797661989628948  0.3002748595541617
  0.0796986536107042  0.4414097487431156  0.0705391333457279
  0.4253281521297123  0.9165158927068220  0.5350544340142115
  0.9684244051915161  0.7318461710180227  0.1829758910710683
  0.3967350635800086  0.1539818007115678  0.3750852568461360
  0.8234985657156295  0.7448297405240735  0.1272587712196146
  0.7704546703603894  0.2910591477612421  0.4575150590459434
  0.8846050215637318  0.1507799397989112  0.6829520332536413
  0.2997852912190884  0.9552604009226585  0.6392650888611964
  0.2837100387255498  0.9372619602412865  0.3068223537449452
  0.4348835925625198  0.2366468292359499  0.0510435845189099
  0.9938262845741269  0.8552214233937863  0.7334718500397746
  0.3312461158623139  0.0094125333705360  0.4375741933748724
  0.8435251782417966  0.4258848141636312  0.4880965362414317
  0.2944859723432934  0.2970843351969182  0.8561289554023347
  0.1756597593168269  0.8199620595490441  0.3715319048770337
  0.2750370368260689  0.0837489631902525  0.8043435784478439
  0.4816603980743528  0.1184865975460330  0.5415716679005660
  0.6499984256570331  0.8451214017702890  0.0857835386137957
  0.3654748198323487  0.0083313249395069  0.1357273338321057
  0.3232150691728045  0.2178090139026385  0.1500521884680203
  0.2092784663940308  0.5992515698832684  0.6104297192934893
  0.4723426962979587  0.5746720005339183  0.8030590819454028
  0.3838275402500574  0.4221242819903413  0.1208661763749084
  0.4005509127015522  0.8598907639444280  0.7220983891381089
  0.1120036072371140  0.2151980091875754  0.0330653764142345
  0.8164646773611026  0.7285930070120122  0.3336518963506072
  0.9723400759829117  0.9864256456016786  0.2060438537495404
  0.5170421784923388  0.9507012709807241  0.6685131322948048
  0.9485783210790426  0.0704755884655233  0.3394275024466092
  0.2445646098603095  0.1147935175622082  0.0553941734519749
  0.4469334015569288  0.2681187686922204  0.5045520606484190
  0.2851210862609461  0.2730975276205138  0.5120972483176648
  0.2692168774656875  0.8712312245275856  0.1332233182905722
  0.3599979825083320  0.4211261256271465  0.3256633440349778
  0.9725753278034797  0.4739659719599865  0.8812879625497680
  0.2401689289166150  0.1281553447175697  0.5511056296543287
  0.7320024844133103  0.6111017240542850  0.3963701450616111
  0.2725633435345401  0.2793330928284686  0.3357222804888039
  0.5277161682979190  0.1101015584140311  0.6922643609071408
  0.3654906279107335  0.6221508483982686  0.6899511269696481
  0.5733842135877349  0.4663222735125119  0.8881776253167234
  0.8710470147494586  0.2468085189037388  0.3406889323109868
  0.9968239396748698  0.6164916356813004  0.9232565829390272
  0.1720026055893976  0.4435836426497509  0.5757520027728535
  0.3890616131021579  0.5857068967332675  0.5056465637980873
  0.2744789924014043  0.7684178036733641  0.5763122564896461
  0.6302215634658872  0.5072980196809430  0.4871274766983736
  0.5523302124310753  0.3057606884997925  0.1302856659868185
  0.8557621996990267  0.7557143033430149  0.5122092566624352
  0.2505249872162237  0.3620728058415033  0.1885269562277478
  0.5396651798735567  0.3038937228613621  0.9489188607283965
  0.7972984214827729  0.1301552203618764  0.2267040882982111
  0.5124324226250051  0.1059926513489470  0.0228878735733666
  0.8624429213938717  0.8911417079858971  0.0555171490522847
  0.5859568017755449  0.9725344868345603  0.1567075209916705
  0.2928659917336562  0.7196063263464605  0.1983761485526089
  0.0795981150513638  0.0178276771513262  0.4048006210048904
  0.5032588291140591  0.2819195749709548  0.7119365090917603
  0.9440372746474869  0.8231674296975594  0.3044837338122998
  0.1985273750825788  0.5206134031683333  0.1795396801490874
  0.9407691729297847  0.6100439682728585  0.3916305482389512
  0.4942394764433261  0.4350242248234000  0.2321038174736344
  0.0709370486080397  0.8147965080147221  0.5932194042978747
  0.2781736221998879  0.9411016018574672  0.8757945322201126
  0.5979132220843506  0.9799530125352149  0.8981774444511229
  0.2883080255798177  0.7815457939051668  0.9934455480922855
  0.7339792518023012  0.9278822356625088  0.9802612681227918
  0.2325699738217698  0.9009226153661920  0.5103672328185012
  0.6924799933228564  0.3875221720618577  0.0133377452811048
  0.7223739374735564  0.0588058041339398  0.4000725749280706
  0.5483129784780763  0.5150940061852568  0.3666328614562260
  0.8812290988411451  0.9874686368291262  0.5407896708870528
  0.6420505760956892  0.7222479946389926  0.4725391421850267
  0.7038474244097014  0.7998079636283473  0.2395115780767963
  0.7455338605902024  0.8278074407969859  0.4327073120503852
  0.7869156368459189  0.5857680241168614  0.2029150332306657
  0.7348463898856078  0.9754195526396723  0.7296111883510914
  0.9469651199512633  0.3830984250717635  0.3331049046266915
  0.0447487653656143  0.9342754280531108  0.8864665148074655
  0.1681262113194699  0.1494899346486371  0.3847229273768719
  0.1624200829292688  0.0133436827469984  0.7180650831100291
  0.3195950878540980  0.2731511987089936  0.6758073628802374
  0.0018022643716811  0.0993971971847977  0.1006433396005741
  0.6814821248204131  0.3623315846228092  0.3512446364050018
  0.8328492609109991  0.2989468384309926  0.8097190792103247
  0.1496115938032248  0.8588700113011402  0.7572274463259746
  0.9931940263788027  0.3851576874191486  0.4820207218357967
  0.4562013634017135  0.0116073102298862  0.8298179793801499
  0.7013564780892925  0.1172664375930801  0.6429117384187469
  0.6416488943522706  0.1460467990082653  0.8257771552768310
  0.6209628200658064  0.1904558637417882  0.3810925221409221
  0.4974923021181810  0.0911230903400862  0.2122126840569674
  0.8248583073543859  0.6534730656376767  0.8039806875794978
  0.7366842912159133  0.4154551420542911  0.6111831207369389
  0.0368568477584109  0.0840319979515688  0.8136567382862070
  0.6278723179289442  0.2896746584741212  0.8072828741118585
  0.9831102061358354  0.3667406901241013  0.6551713910213602
  0.8899195495342469  0.2650279889077043  0.5749116977074368
  0.0645133046900021  0.1823891495728060  0.2767410249068683
  0.6166849361554236  0.1697372416719335  0.1263168882189162
  0.7042618033615261  0.2539743639357174  0.2293441125416235
  0.7349474107279521  0.0364145367493390  0.1307987557558795
  0.8292342644020003  0.4802910492625990  0.8247855234320054
  0.7042730298550846  0.4631411860424056  0.2248863478815633
  0.0504476509731880  0.4930937651129549  0.7339312023934458
  0.1668236085197834  0.4612399119745101  0.9472085400301580
  0.0725155035160035  0.7976661206793033  0.0527528069705541
  0.0648765671564684  0.5092792221650898  0.4224078647179839
  0.6290164271394845  0.6191182218657691  0.2665675044301270
  0.5321056739667155  0.4864777314153627  0.6720531533379327
  0.2823347509015071  0.7252641996469693  0.7693769379206331
  0.1253514395912573  0.6372079133072894  0.3001851297557880
  0.5613168480064515  0.3589543604109924  0.5953787576454109
  0.3202565660163646  0.4292413086271771  0.6309491837338619
  0.4408600204398424  0.5908841298931432  0.2222275785643943
  0.8511255376868310  0.5791347160214347  0.5676133516469180
  0.4487712600178545  0.4150963049605284  0.7987143117458170
  0.5747950679969794  0.6984252363296849  0.7685642817751448
  0.8646892924186378  0.1941593258999753  0.1031956174494355
  0.6516391187850343  0.9908575657415946  0.5221192621139149
  0.8864452258289284  0.5023610330983971  0.1155276825420680
  0.1569988316793414  0.4026331511758989  0.7985763262450599
  0.6533338731085264  0.6172727934906859  0.8832631022068772
  0.9263995966621692  0.8087538709632190  0.9450816329910889
  0.6018052809860752  0.4954282145048274  0.1067449865697709
  0.5891468188106856  0.8216095510884847  0.5821532291299421
  0.4055347033521706  0.7607840686078864  0.5067414410053553
  0.2965156144724762  0.5804707563929986  0.2996997330471725
  0.2327954236941566  0.4814093670873048  0.4200269958680203
  0.4628416675571361  0.8591986342513163  0.1533023431362200
  0.0762229569056249  0.6336109643905590  0.5349893733076811
  0.1091912525837883  0.9325545522070017  0.2727881903207033
  0.1102602946971808  0.1497056285728601  0.6195361855079246
  0.1650169157726455  0.0078562770282614  0.9571447891493473
  0.9409175965416404  0.6430196374823467  0.6883939189091511
  0.1585686562660835  0.2718936339790322  0.7066554873284021
  0.8059815129748990  0.2721970593133407  0.9682506380756439
  0.4834517257016873  0.7935585518535059  0.8569782237928210
  0.6874250458456429  0.5167157353658323  0.7191705450396234
  0.3302139286792400  0.5552178702533158  0.0990856590754804
  0.2183509179244065  0.6662382054721548  0.4583959064117082
  0.9406701672423642  0.1653920224416726  0.9262232684370041
  0.6186753675760510  0.2078796829324937  0.5309613183252316
  0.8687230618329899  0.4666107558316791  0.6745204472294283
  0.6720936872511293  0.1832865556725278  0.9679675963249501
  0.4686919015565299  0.6539770578807248  0.3660412009767877
  0.9810488372576827  0.2555095742311827  0.7633638645565879
  0.1576705536417143  0.6302786041590821  0.9270114357686637
  0.9522524168725909  0.0135945986239092  0.6759377729538273
  0.6196892443393401  0.8814449821012474  0.7760761452570338
 
  0.28544373E-02  0.21675277E-02 -0.40744497E-02
  0.25114243E-02 -0.32106229E-03  0.19012364E-02
  0.31082839E-03  0.20876843E-03  0.16509337E-02
  0.13376263E-02 -0.11229463E-03 -0.24794893E-02
 -0.14237349E-03  0.29881615E-02 -0.13454404E-02
 -0.23991061E-02 -0.38881779E-02  0.18696501E-02
  0.12365095E-02  0.93443144E-03 -0.19008362E-02
  0.19036752E-03 -0.71852663E-03  0.17695901E-02
 -0.16501981E-02 -0.18857377E-03  0.44595479E-03
 -0.34923387E-02  0.55607107E-03  0.29861172E-03
  0.21846742E-02  0.12152530E-02  0.41247426E-02
  0.42335302E-02  0.34464108E-03 -0.42289567E-02
  0.21057198E-02 -0.55474727E-03 -0.14089846E-03
  0.16202557E-02  0.43427077E-02 -0.22598699E-03
 -0.20345154E-02  0.29951328E-02  0.42864967E-03
 -0.42765807E-03 -0.12930744E-02 -0.62360597E-03
 -0.19286273E-03 -0.23167146E-02  0.11681881E-02
 -0.51783298E-03  0.15252813E-03  0.11299048E-02
  0.27877952E-03 -0.92616811E-03  0.59946271E-04
  0.60296178E-03 -0.34770821E-02  0.22563603E-03
 -0.13686260E-02  0.17329433E-02  0.71628311E-03
 -0.14104368E-02  0.16779954E-02 -0.30762337E-03
 -0.12586348E-02  0.50791739E-03 -0.35685029E-02
  0.20086281E-02  0.11451127E-02  0.93231187E-04
 -0.15084598E-02 -0.25395024E-02 -0.15962887E-02
 -0.14763918E-03  0.30712312E-03  0.10986588E-02
  0.11006866E-02  0.47458351E-03 -0.19979608E-04
  0.31190610E-03  0.23473156E-02  0.80222384E-03
  0.55182016E-03  0.14164724E-02 -0.20330540E-02
 -0.46102272E-03  0.52992440E-03  0.19130561E-02
 -0.21532872E-02 -0.22734267E-02  0.22384257E-02
  0.36022565E-03 -0.12400926E-02 -0.14866774E-02
 -0.18254455E-02 -0.55044882E-03  0.26064712E-02
  0.78547162E-03  0.39834459E-03  0.15870915E-02
  0.13587915E-02  0.18999246E-03  0.10770205E-02
  0.12493452E-02 -0.44604011E-02 -0.27593998E-02
 -0.43044856E-03 -0.32741792E-03  0.36550773E-02
 -0.63816399E-03 -0.49426776E-03 -0.66658266E-03
  0.20560722E-03 -0.99571937E-03 -0.86205727E-04
  0.10889678E-02  0.48289142E-03  0.16256855E-02
 -0.24556278E-02 -0.48893288E-02 -0.12132300E-02
  0.28233568E-02 -0.12297168E-02  0.18143960E-02
  0.16330229E-02 -0.95598990E-03  0.81427202E-03
 -0.31985292E-02  0.76506546E-03  0.17198900E-02
  0.31653339E-02 -0.12911084E-02 -0.12423604E-02
 -0.19950678E-02 -0.68219530E-03 -0.15160988E-02
  0.23861894E-02 -0.27357575E-02 -0.81491153E-05
  0.16402746E-02  0.13894557E-02 -0.13873817E-02
 -0.54188716E-03 -0.12638180E-03 -0.56967020E-03
 -0.40016783E-03 -0.16503710E-02  0.94463628E-03
  0.17680298E-02 -0.20643544E-02  0.32580782E-03
 -0.84126591E-04 -0.36128843E-03  0.32956405E-02
  0.61403274E-04 -0.37867644E-02 -0.11329321E-02
  0.17492817E-02 -0.24825472E-04 -0.72491982E-03
  0.88643172E-03 -0.22819898E-02 -0.14359318E-02
  0.25717143E-02  0.25597683E-02  0.64755981E-03
 -0.28653945E-05 -0.22624515E-02  0.30958301E-03
 -0.10888285E-02  0.21658685E-02  0.23082119E-02
  0.37956937E-03 -0.21380329E-02  0.22655144E-02
 -0.20866486E-02  0.18383525E-02  0.70757640E-03
  0.19887222E-03  0.71804452E-03 -0.25367524E-02
  0.21617537E-02  0.28740346E-02  0.92053381E-03
 -0.52920379E-03  0.78705858E-03 -0.55617077E-03
 -0.88587861E-03  0.42792291E-02  0.62900504E-03
 -0.24649091E-02 -0.18513879E-02  0.27053496E-02
 -0.85985646E-03 -0.30498157E-02  0.70481515E-03
  0.14379609E-02 -0.71381529E-04  0.19629607E-02
  0.25853776E-02 -0.87180729E-03 -0.58642858E-03
 -0.19881571E-02  0.11323964E-02 -0.29996693E-02
 -0.92226836E-03  0.15532414E-02 -0.14181526E-02
  0.46940970E-03 -0.44353875E-03  0.20541968E-02
 -0.18631777E-02  0.10726049E-02  0.12068355E-02
  0.20004679E-02 -0.47669804E-03 -0.18179499E-03
  0.50761327E-03 -0.17535636E-02  0.32422135E-02
  0.53465657E-03  0.24986842E-02 -0.11856077E-02
  0.27279642E-03  0.22378835E-03 -0.32988473E-03
 -0.12667137E-02  0.57958369E-03  0.10162299E-02
 -0.22348092E-02  0.76469811E-03 -0.12650842E-02
  0.29814978E-03 -0.30402252E-02 -0.16867992E-02
 -0.27421724E-03  0.13802045E-03 -0.45567469E-03
  0.64912284E-03 -0.57775729E-03  0.10531799E-02
 -0.11901143E-02 -0.24122331E-03  0.25874370E-02
 -0.77450290E-03 -0.70251405E-03  0.46026023E-03
  0.20625843E-02 -0.17548915E-02  0.68328020E-04
  0.67121741E-03  0.76265832E-03 -0.71164990E-03
 -0.46679652E-02  0.31614359E-02  0.22495491E-03
 -0.28922830E-03  0.64538881E-03  0.76661919E-04
 -0.13373648E-02  0.16316875E-02 -0.74930564E-03
  0.29571258E-02  0.57633218E-03 -0.16747299E-02
  0.44241928E-03 -0.10055874E-02  0.48100470E-03
  0.76438509E-03  0.12701189E-02  0.19584859E-02
  0.70069663E-04 -0.72613630E-03 -0.12061197E-02
 -0.11593557E-02  0.36525063E-03  0.46405823E-03
 -0.16735469E-02  0.10564723E-02 -0.15752501E-02
 -0.56178559E-03  0.16376175E-02 -0.10214682E-02
  0.10306820E-02  0.69426919E-03 -0.52767193E-03
  0.76742173E-03 -0.28418225E-03  0.31302423E-02
  0.86157287E-03 -0.69703370E-03 -0.40605046E-03
  0.94479579E-03 -0.15665439E-02 -0.48162666E-03
 -0.17682006E-03  0.14868946E-02  0.36897600E-02
 -0.17314668E-02  0.33951551E-02  0.73669413E-03
 -0.36824205E-02 -0.12159351E-02  0.70551778E-03
  0.17127629E-02  0.18778420E-02  0.85894118E-03
  0.16883373E-03  0.14304118E-02  0.12051768E-02
 -0.21971408E-02 -0.72919591E-03  0.41121609E-03
 -0.19492946E-02  0.10012210E-02  0.22018465E-04
 -0.42975748E-03  0.86329299E-03 -0.44735596E-02
  0.20343561E-02 -0.14242021E-02 -0.23101457E-02
 -0.30319368E-02 -0.34318010E-03 -0.52372922E-04
 -0.10274384E-02  0.65619846E-03 -0.10463811E-03
 -0.27170074E-02  0.13042459E-02  0.16674462E-02
  0.94769700E-03  0.34528449E-03  0.20489061E-02
 -0.18135943E-02 -0.20100726E-02 -0.17170058E-03
  0.25006514E-02 -0.21544606E-02  0.22546884E-02
 -0.12305749E-02 -0.53495578E-03 -0.19633698E-02
  0.16978470E-02 -0.39106135E-03  0.40894557E-02
 -0.11463844E-02  0.22243251E-02  0.21295011E-02
  0.21515668E-02 -0.50814098E-03  0.39384671E-02
 -0.17823165E-02  0.16707067E-02 -0.19464459E-02
 -0.20581220E-02  0.81503963E-04 -0.16220451E-02
  0.29196348E-02  0.11328933E-02 -0.20298556E-02
 -0.30276764E-02 -0.94434992E-03 -0.23624588E-02
  0.11957387E-02 -0.30962790E-02 -0.57845596E-03
 -0.76545137E-04 -0.92802372E-03 -0.13946337E-02
 -0.15089971E-02 -0.11114034E-02 -0.15177778E-02
 -0.12547515E-02  0.11225001E-03 -0.27164856E-03
 -0.13223430E-04 -0.22826728E-02 -0.16412230E-02
  0.20379398E-02 -0.28186158E-02  0.33298111E-03
 -0.68777954E-04 -0.59263855E-03 -0.12217656E-02
  0.90415122E-03 -0.16141038E-02 -0.41795247E-04
  0.19620030E-02 -0.25286771E-02 -0.14869616E-02
 -0.38211809E-03  0.11180413E-02  0.16660650E-03
 -0.19007498E-02  0.25449068E-02 -0.10679037E-02
 -0.79458847E-03 -0.62027730E-03  0.13174274E-02
 -0.58053140E-03 -0.14589673E-02  0.14264112E-03
 -0.22501981E-02  0.18829748E-02  0.34632163E-03
 -0.17303811E-04 -0.63473104E-03  0.16185340E-02
 -0.60048675E-03 -0.13108892E-02  0.22002636E-04
 -0.43521538E-03 -0.12914026E-02 -0.15930786E-02
 -0.34838710E-03  0.24049830E-02 -0.68520011E-03
  0.20664048E-02 -0.10056415E-03  0.16182825E-02
  0.89325013E-03  0.40788992E-03 -0.22797664E-02
 -0.83847557E-03 -0.49701151E-03 -0.74528779E-03
 -0.89306153E-03 -0.73666641E-03  0.24192216E-02
  0.12483525E-02 -0.23449848E-03  0.48683997E-03
  0.11678240E-02  0.13576659E-02  0.17052224E-03
  0.10811544E-02  0.18564065E-02  0.25412939E-02
  0.96286314E-03 -0.19749795E-02  0.71634857E-03
  0.54307303E-03 -0.69331784E-03  0.14663030E-02
  0.22349106E-02  0.18454702E-02  0.28140601E-02
  0.39728038E-02 -0.69513538E-03 -0.12417210E-02
 -0.12961307E-02  0.56777218E-03 -0.28424963E-02
  0.17232449E-02  0.31409583E-02 -0.18956604E-02
  0.13566438E-02  0.87956670E-03 -0.40680775E-03
 -0.41912850E-03 -0.53013088E-03 -0.33048733E-02
  0.10055601E-02 -0.87398877E-03 -0.10239649E-02
  0.86166580E-04  0.20799292E-02  0.94725131E-03
  0.25400858E-04 -0.26118132E-02  0.12888586E-02
 -0.22825148E-02 -0.19237937E-02 -0.24862964E-02
 -0.79437027E-03  0.55471715E-03  0.17940100E-02
  0.55430525E-03  0.60180074E-03 -0.16397807E-02
 -0.95139826E-03 -0.12111975E-02 -0.91884394E-03
 -0.21807090E-03 -0.18047173E-03  0.16212177E-03
  0.36410981E-03 -0.29862726E-03 -0.63350222E-03
 -0.84424817E-04 -0.93481183E-03 -0.54079787E-03
  0.87415847E-04  0.11355275E-02 -0.64874225E-04
 -0.23786021E-02 -0.54737796E-03 -0.12266625E-02
  0.10944858E-02 -0.25810893E-03  0.39115086E-04
 -0.76523992E-03  0.21974801E-03  0.16839592E-02
 -0.56281871E-04  0.19567366E-02 -0.99348649E-03
  0.17033908E-03  0.56811432E-04  0.47241769E-03
  0.36346990E-02  0.51038403E-03  0.13596232E-02
 -0.40086734E-03  0.76918461E-04 -0.37522202E-02
  0.13629435E-02 -0.49676553E-03  0.13719859E-02
 -0.65891857E-03 -0.27362197E-03 -0.21669748E-02
 -0.12243171E-02  0.11787437E-02  0.16769197E-02
  0.95196315E-03  0.21146288E-02 -0.14870347E-02
  0.22880715E-02  0.10200486E-02 -0.11855690E-02
 -0.62322506E-03 -0.37523990E-02 -0.10259951E-02
  0.27816756E-03 -0.71965146E-03  0.92725263E-03
 -0.25382493E-02  0.17789797E-02 -0.10910245E-02
 -0.53356350E-03 -0.88032906E-03  0.59601993E-03
 -0.34424768E-02  0.87869756E-03  0.13335950E-02
  0.13140553E-02  0.14856151E-02 -0.25258843E-02
  0.88242196E-03 -0.64083872E-03  0.30411732E-04
  0.24178631E-03 -0.22241268E-02 -0.22747426E-02
  0.18122304E-02 -0.68469478E-03  0.65971012E-03
  0.86376607E-04  0.62962158E-04  0.39040080E-03
  0.17620748E-03 -0.40390775E-03  0.23227572E-02
  0.51193364E-03 -0.61908967E-03  0.79046923E-03
 -0.97850270E-03  0.50453982E-03  0.20848044E-03
 -0.13997430E-02 -0.14841054E-02 -0.19939689E-03
  0.92195501E-03  0.14458988E-02 -0.21810189E-02
 -0.39073058E-03  0.38974213E-03 -0.11658892E-02
 -0.24278304E-02 -0.74008317E-03  0.20095188E-02
 -0.10132400E-02 -0.13995994E-02 -0.14976634E-02
 -0.13818769E-03 -0.39824895E-03  0.12240219E-02
 -0.36066521E-02  0.44477952E-02  0.22463828E-02
 -0.57273318E-04 -0.14588547E-02 -0.45274052E-02
 -0.11086936E-02  0.53601392E-03 -0.13093695E-03
  0.10225729E-02  0.17428242E-02 -0.16622178E-02
 -0.19900288E-02  0.34516666E-02 -0.18780491E-02
  0.26900051E-03 -0.13255080E-02  0.19474242E-02
 -0.71376503E-03  0.42168189E-03 -0.57157764E-03
  0.16501913E-02  0.17959790E-03  0.19341076E-02
 -0.57102032E-03 -0.37829560E-03 -0.12036073E-02
  0.14617764E-02 -0.18497925E-02  0.23553901E-02
 -0.16178617E-03  0.16423302E-02  0.17936523E-02
 -0.80124491E-03  0.11574118E-02 -0.37953291E-02
  0.36700903E-02 -0.14006730E-02  0.38561615E-03
 -0.20837386E-02  0.30552955E-02 -0.56686678E-03
  0.40496294E-03  0.64907327E-03 -0.34126850E-02
  0.20131433E-02  0.66709391E-03  0.95943655E-04
  0.53805455E-03  0.17736171E-02  0.24340948E-02
  0.89404752E-03  0.14153369E-02  0.17269755E-02
 -0.15683357E-02 -0.78813474E-03 -0.13172834E-02
 
           1
   2.00000000000000     
  0.10000000E+01  0.00000000E+00  0.00000000E+00  0.00000000E+00
  0.94107745E-01  0.98156338E+00  0.57212893E+00
  0.57405605E+00  0.76166568E+00  0.32444002E+00
  0.94547629E+00  0.13381275E-01  0.98853506E+00
  0.24201478E+00  0.33549616E+00  0.20549178E-01
  0.86501228E+00  0.97769195E+00  0.81104104E+00
  0.39668621E+00  0.99589610E+00  0.97533033E+00
  0.95842749E+00  0.19013023E+00  0.45558674E+00
  0.74197197E+00  0.27139839E+00  0.68829739E+00
  0.40600884E+00  0.72082555E+00  0.88312695E-01
  0.29071601E+00  0.87432239E-01  0.25081190E+00
  0.34168824E+00  0.75889554E+00  0.34575660E+00
  0.51941629E+00  0.31128824E+00  0.37777375E+00
  0.52804361E+00  0.63881656E-01  0.37140291E+00
  0.52024504E+00  0.87890914E+00  0.98794595E+00
  0.11485366E+00  0.25016960E+00  0.48587057E+00
  0.77531700E+00  0.34492540E+00  0.13487229E+00
  0.46562835E+00  0.73667241E+00  0.64063035E+00
  0.44134218E+00  0.24187389E+00  0.25369463E+00
  0.14092769E+00  0.93201729E+00  0.84306500E-01
  0.82387474E+00  0.13269511E+00  0.83252373E+00
  0.33733681E+00  0.16416710E+00  0.92163306E+00
  0.72499841E+00  0.75060071E+00  0.94910510E+00
  0.76100976E+00  0.90253114E+00  0.59142379E+00
  0.80988607E+00  0.12659797E+00  0.53051638E+00
  0.67436134E+00  0.95181435E+00  0.29070228E+00
  0.93594442E+00  0.38163722E+00  0.28137023E-01
  0.47587908E+00  0.54297840E+00  0.98385339E+00
  0.79961043E+00  0.51239665E+00  0.99164235E+00
  0.85330183E+00  0.96112421E+00  0.38612959E+00
  0.41947494E-01  0.30758192E+00  0.89664820E+00
  0.72777272E+00  0.74425039E+00  0.70986192E+00
  0.73018569E-01  0.44907963E+00  0.25621142E+00
  0.97967801E-01  0.28964224E+00  0.17338781E+00
  0.69971571E+00  0.61851724E+00  0.60600168E+00
  0.38920159E+00  0.38691258E+00  0.96346342E+00
  0.14695856E+00  0.66008173E-01  0.18877311E+00
  0.70051026E+00  0.60188146E+00  0.74907574E-01
  0.34941654E+00  0.10036226E+00  0.66655070E+00
  0.17240140E+00  0.67904675E+00  0.74467289E-01
  0.31242279E+00  0.52827389E+00  0.94017460E+00
  0.55734169E+00  0.88779060E+00  0.44726821E+00
  0.94485867E+00  0.30433856E+00  0.16846287E+00
  0.15439690E+00  0.19507856E+00  0.83730923E+00
  0.13708920E+00  0.79003040E+00  0.89729833E+00
  0.14764982E+00  0.35928489E+00  0.37111787E+00
  0.28617772E+00  0.49131615E+00  0.76907297E+00
  0.83376131E+00  0.48641561E+00  0.34214206E+00
  0.39917492E-01  0.75149003E+00  0.40446424E+00
  0.82656167E+00  0.81060712E+00  0.83561664E+00
  0.81548480E+00  0.93516444E+00  0.21695145E+00
  0.66627253E-02  0.58336799E+00  0.74088506E-01
  0.87267294E+00  0.77284015E+00  0.65986393E+00
  0.53638299E+00  0.60124014E+00  0.56058817E+00
  0.15567830E+00  0.61987401E+00  0.75048780E+00
  0.15108644E+00  0.76917647E+00  0.22740057E+00
  0.48624471E+00  0.16560752E+00  0.88230470E+00
  0.85638261E+00  0.68457539E+00  0.99767420E+00
  0.31888365E-01  0.72682715E+00  0.80719935E+00
  0.77975287E+00  0.71288718E-01  0.99138134E+00
  0.55464125E+00  0.67637913E+00  0.99426492E+00
  0.43020409E+00  0.43869588E+00  0.46211935E+00
  0.37203406E+00  0.68014784E+00  0.89646140E+00
  0.96760257E+00  0.86112008E+00  0.48888010E+00
  0.55735015E+00  0.71941709E+00  0.15695433E+00
  0.99035436E+00  0.59595015E+00  0.24592860E+00
  0.42777949E+00  0.87944205E+00  0.30034977E+00
  0.79851487E-01  0.44140216E+00  0.70747767E-01
  0.42560294E+00  0.91642323E+00  0.53499211E+00
  0.96821309E+00  0.73196653E+00  0.18265707E+00
  0.39663704E+00  0.15414689E+00  0.37493453E+00
  0.82354846E+00  0.74478260E+00  0.12747710E+00
  0.77025664E+00  0.29117315E+00  0.45764333E+00
  0.88481764E+00  0.15072927E+00  0.68293271E+00
  0.29983924E+00  0.95507402E+00  0.63960969E+00
  0.28376686E+00  0.93752753E+00  0.30669634E+00
  0.43491259E+00  0.23667061E+00  0.51008523E-01
  0.99369165E+00  0.85528302E+00  0.73357986E+00
  0.33100859E+00  0.94938094E-02  0.43743973E+00
  0.84355687E+00  0.42556168E+00  0.48791725E+00
  0.29445683E+00  0.29709900E+00  0.85608052E+00
  0.17572875E+00  0.81990065E+00  0.37164384E+00
  0.27491055E+00  0.83723325E-01  0.80461858E+00
  0.48157808E+00  0.11841193E+00  0.54162059E+00
  0.65021765E+00  0.84493488E+00  0.85790801E-01
  0.36554616E+00  0.84123842E-02  0.13565170E+00
  0.32271893E+00  0.21814503E+00  0.15007610E+00
  0.20924773E+00  0.59932017E+00  0.61043787E+00
  0.47220055E+00  0.57484542E+00  0.80297944E+00
  0.38414184E+00  0.42218554E+00  0.12068818E+00
  0.40059794E+00  0.85978388E+00  0.72214951E+00
  0.11208485E+00  0.21533300E+00  0.33273534E-01
  0.81647212E+00  0.72851583E+00  0.33352370E+00
  0.97221685E+00  0.98646447E+00  0.20609318E+00
  0.51686431E+00  0.95081356E+00  0.66834571E+00
  0.94851861E+00  0.70649643E-01  0.33931894E+00
  0.24467416E+00  0.11486731E+00  0.55338090E-01
  0.44701497E+00  0.26808856E+00  0.50488476E+00
  0.28521266E+00  0.27302344E+00  0.51205409E+00
  0.26931730E+00  0.87106472E+00  0.13317213E+00
  0.35997919E+00  0.42128416E+00  0.32605551E+00
  0.97239130E+00  0.47432683E+00  0.88136626E+00
  0.23977754E+00  0.12802611E+00  0.55118062E+00
  0.73218453E+00  0.61130131E+00  0.39646144E+00
  0.27258129E+00  0.27948512E+00  0.33585037E+00
  0.52748264E+00  0.11002406E+00  0.69230807E+00
  0.36528345E+00  0.62225726E+00  0.68995347E+00
  0.57333854E+00  0.46641403E+00  0.88770215E+00
  0.87126324E+00  0.24665715E+00  0.34044340E+00
  0.99650169E+00  0.61645516E+00  0.92325102E+00
  0.17189340E+00  0.44365339E+00  0.57574088E+00
  0.38877284E+00  0.58584552E+00  0.50582379E+00
  0.27457972E+00  0.76845450E+00  0.57653002E+00
  0.63002881E+00  0.50708438E+00  0.48710923E+00
  0.55259599E+00  0.30553170E+00  0.13052531E+00
  0.85563141E+00  0.75565745E+00  0.51200058E+00
  0.25070544E+00  0.36203124E+00  0.18896160E+00
  0.53954334E+00  0.30413014E+00  0.94914520E+00
  0.79752710E+00  0.13010121E+00  0.22712269E+00
  0.51224299E+00  0.10617022E+00  0.22680995E-01