In2O3 structure 49 - random placement wi
   1.00000000000000     
     8.0798329511802773   -0.0042310118641915    0.0013473749110901
    -0.0043637476623515    8.0137389250510527   -0.0823398697344821
     0.0012711424558191   -0.0822747605296517    8.0185376905660046
   In   O 
    16    24
Direct
  0.5591107080685936  0.7637415048437057  0.7362767078028449
  0.7867361295745002  0.0412410112978166  0.9537704894907229
  0.0590601793171701  0.7932581143182063  0.2062717995111088
  0.5591964973394464  0.2611244963381413  0.7337309568918784
  0.0591878333018185  0.7911218440812050  0.7036594365014573
  0.2869187176994986  0.0110340417421118  0.4835956346468941
  0.5591852854678602  0.2635675564344176  0.2358533609402816
  0.5591093684785118  0.7611017531841419  0.2336903252384683
  0.0591417876882310  0.2932573583607278  0.7061669281750110
  0.0592370478628250  0.2913159420298218  0.2039960123015077
  0.2864731581666409  0.0135524001306349  0.9862200844186230
  0.2867181765261274  0.5111751581082683  0.9835519441499083
  0.2869558492728703  0.5134564860283805  0.4861928848692678
  0.7864906149750952  0.0437492691959131  0.4560540568257679
  0.7865800166334975  0.5412625575845900  0.4540549176882201
  0.7864899813667914  0.5435072245915941  0.9561791008569286
  0.6730836543789331  0.5074290334376103  0.2001357681134888
  0.5226885234738322  0.1488649818908608  0.9880294481554346
  0.3231808892432082  0.8991061357871641  0.7381301503352704
  0.3231920091904915  0.7591551223061412  0.0987393369821587
  0.0231202398622991  0.9058745340461503  0.9516001549192251
  0.8229669717313712  0.2959432915750307  0.8410180744055241
  0.0227786508589203  0.0453831749720040  0.5909067223896241
  0.5229536269897487  0.6490468757789698  0.4883530410109890
  0.1730446164177464  0.7571363965070776  0.4499869976049944
  0.0231230768905172  0.4060552558614863  0.4517063888240615
  0.0227961994026511  0.5454607998018417  0.0910575975967919
  0.1730754851238150  0.5473952918610896  0.7400065906615169
  0.1729254181891611  0.0474020143375061  0.2401576774749066
  0.8231027274572051  0.7960381881148101  0.3412797921084715
  0.6730925876196626  0.7975145619510078  0.9900698283228875
  0.3234948201007449  0.3990712624827941  0.2379393954545419
  0.8230454030471649  0.1564928875977903  0.2014158807159186
  0.8231301246823735  0.6563314531547366  0.7017356161757843
  0.6730049191739705  0.0074783647434065  0.6999470751727025
  0.5230572254790605  0.0091880137622739  0.3481588709319793
  0.3233127576773102  0.2590868863875559  0.5987730922547146
  0.1725470410623317  0.2573086044720329  0.9502123549433258
  0.6727836197671874  0.2974458117083423  0.4897861055461645
  0.5230913085957312  0.5092622520654077  0.8482802531843420
 
  0.00000000E+00  0.00000000E+00  0.00000000E+00
  0.00000000E+00  0.00000000E+00  0.00000000E+00
  0.00000000E+00  0.00000000E+00  0.00000000E+00
  0.00000000E+00  0.00000000E+00  0.00000000E+00
  0.00000000E+00  0.00000000E+00  0.00000000E+00
  0.00000000E+00  0.00000000E+00  0.00000000E+00
  0.00000000E+00  0.00000000E+00  0.00000000E+00
  0.00000000E+00  0.00000000E+00  0.00000000E+00
  0.00000000E+00  0.00000000E+00  0.00000000E+00
  0.00000000E+00  0.00000000E+00  0.00000000E+00
  0.00000000E+00  0.00000000E+00  0.00000000E+00
  0.00000000E+00  0.00000000E+00  0.00000000E+00
  0.00000000E+00  0.00000000E+00  0.00000000E+00
  0.00000000E+00  0.00000000E+00  0.00000000E+00
  0.00000000E+00  0.00000000E+00  0.00000000E+00
  0.00000000E+00  0.00000000E+00  0.00000000E+00
  0.00000000E+00  0.00000000E+00  0.00000000E+00
  0.00000000E+00  0.00000000E+00  0.00000000E+00
  0.00000000E+00  0.00000000E+00  0.00000000E+00
  0.00000000E+00  0.00000000E+00  0.00000000E+00
  0.00000000E+00  0.00000000E+00  0.00000000E+00
  0.00000000E+00  0.00000000E+00  0.00000000E+00
  0.00000000E+00  0.00000000E+00  0.00000000E+00
  0.00000000E+00  0.00000000E+00  0.00000000E+00
  0.00000000E+00  0.00000000E+00  0.00000000E+00
  0.00000000E+00  0.00000000E+00  0.00000000E+00
  0.00000000E+00  0.00000000E+00  0.00000000E+00
  0.00000000E+00  0.00000000E+00  0.00000000E+00
  0.00000000E+00  0.00000000E+00  0.00000000E+00
  0.00000000E+00  0.00000000E+00  0.00000000E+00
  0.00000000E+00  0.00000000E+00  0.00000000E+00
  0.00000000E+00  0.00000000E+00  0.00000000E+00
  0.00000000E+00  0.00000000E+00  0.00000000E+00
  0.00000000E+00  0.00000000E+00  0.00000000E+00
  0.00000000E+00  0.00000000E+00  0.00000000E+00
  0.00000000E+00  0.00000000E+00  0.00000000E+00
  0.00000000E+00  0.00000000E+00  0.00000000E+00
  0.00000000E+00  0.00000000E+00  0.00000000E+00
  0.00000000E+00  0.00000000E+00  0.00000000E+00
  0.00000000E+00  0.00000000E+00  0.00000000E+00
