Ge Sb Te                                
   1.00000000000000     
    22.0027072525907137    0.0000000000000000    0.0000000000000000
     0.0000000000000000   22.0027072525907172    0.0000000000000000
     0.0000000000000000    0.0000000000000000   22.0027072525907172
   Ge   Sb   Te
    81    54   162
Direct
  0.3352976604299034  0.1456951476407403  0.1430380436051450
  0.4834011594869827  0.0218712853663194  0.9805646098422997
  0.5546254671467687  0.5454230849824352  0.2193438299900161
  0.5722997296581269  0.1821216455753546  0.0471914583941000
  0.6284416849738371  0.2160832968419854  0.3014104469750734
  0.9134320626271404  0.2115186101801145  0.0767255651991775
  0.5184248164008051  0.9737071676801528  0.1507955219496274
  0.4732982645299199  0.9870549066227362  0.4596648191330788
  0.8637884621957569  0.4191326349822331  0.4559794772499879
  0.9151379343355887  0.7940884593513134  0.1461889068552268
  0.9709765596906714  0.1629887702059847  0.8133383854195368
  0.9759470204254228  0.1690930281953461  0.4638060153186100
  0.6253554069506502  0.4045002950899715  0.3329168228074479
  0.9050673493147225  0.3705674325408672  0.1574002100764492
  0.8648865242998282  0.5951274914045324  0.9018484242565836
  0.7587765158727057  0.6731815682215618  0.6077446976392502
  0.4926311043923848  0.1311619632672850  0.1953821950493242
  0.3937862524367657  0.0160736006227912  0.2758073993385167
  0.0496357583066594  0.9881446099072672  0.6126183522029500
  0.1411184819651691  0.9561944417031850  0.0369904885062511
  0.7449779900988044  0.3968447370221670  0.1160396004217841
  0.3321013503102269  0.0256327851213399  0.8765151223387011
  0.9117228326162913  0.1984367998194243  0.2754007181486201
  0.3026090409438362  0.7937429344861168  0.9516494223404162
  0.7898537748588539  0.5160590417209148  0.6663313513602944
  0.6300809765871181  0.2861572959791466  0.8911065143795108
  0.4174247364721568  0.1161934200515748  0.0602619906888306
  0.7379622646793093  0.4113325584710106  0.3660061891433274
  0.1919971871458036  0.4011347241767324  0.9098953589927361
  0.7471805937244833  0.9315089598489850  0.4169986192112831
  0.5569077086923617  0.6210709851705982  0.0447823583614559
  0.4752931982398739  0.5194655045539077  0.8918177983274969
  0.0859809771741776  0.2959635227664366  0.5145859031178964
  0.9325456115042049  0.7664344695746067  0.9685297147555710
  0.6551025478639700  0.4373302993928643  0.4965993228333722
  0.2571510280653244  0.7447096756722308  0.7495573217801750
  0.6576921705950876  0.0787883449458745  0.3410333434713874
  0.8112404334420898  0.1993261863031296  0.1273735371389970
  0.0088112986314226  0.9050731624109234  0.8933896354865419
  0.9397551307750166  0.6938076054284082  0.3548332534715423
  0.1518867447837715  0.4554836540479709  0.6572880278901303
  0.5833620159239522  0.2993150492244014  0.6752120158386974
  0.1585404660576646  0.0239297656353244  0.5774381045262562
  0.3005133482545153  0.2140579862553371  0.9013710501316761
  0.2230929434260704  0.5126957311354857  0.1654776257508912
  0.4917936729473845  0.6448250581936068  0.5022821182416670
  0.6491795337020554  0.6980425544821210  0.2102876263434444
  0.2879358925921250  0.2683212482023489  0.0133145274009935
  0.9782158538195751  0.3416161828383958  0.4067199324623255
  0.8764221416100790  0.5037382357523124  0.0577846452313777
  0.7146912753862492  0.4022938730107523  0.7798263566307236
  0.8761101679647497  0.9184904852618720  0.9963856144250636
  0.8254594320728994  0.9429096656545061  0.3271316296255387
  0.6333274928673930  0.8890980196529702  0.2731072769549149
  0.8715523443424513  0.2604126459939217  0.5951298138513137
  0.7384023757826756  0.3102152200617425  0.5760229678109495
  0.1199307026719796  0.4056941651865245  0.0828837344199893
  0.7475289637336689  0.1329015540472097  0.4841829158091197
  0.0180133193773746  0.2441067188819691  0.2449346172900449
  0.6072544790679413  0.6431518002057143  0.4990909376910026
  0.0042489825633220  0.7070453208676539  0.8914356837573811
  0.0640654763054264  0.9400696551948324  0.2122327915754008
  0.0054924123943952  0.0850874451863360  0.9932988565828603
  0.2450589992445475  0.3155023735771980  0.6165300397300176
  0.4331357031083317  0.6828600455041376  0.6705248458798635
  0.8244208118190882  0.0526824987673458  0.6504074895808618
  0.5483224427408130  0.3720772320492791  0.8152741765183462
  0.8737476101622013  0.0346097329596975  0.3997670348657188
  0.3068022545885319  0.9251227663347921  0.7969484811443307
  0.7099973955184455  0.6345106614929367  0.0092266517132644
  0.6308177643098009  0.7132223497193776  0.8320781242166601
  0.5045187477249246  0.8323011509276967  0.5284635143535825
  0.7631366825405156  0.7705366470172285  0.4395419712322519
  0.4471872880941229  0.5984354975888413  0.0712384374827482
  0.9852927991310650  0.4329128213721045  0.5727481427732489
  0.9083851970195718  0.8402964682574836  0.4695939629034998
  0.2148969130337516  0.6430122969306143  0.0498132305679874
  0.9550814813883739  0.0634097963704697  0.7526811664273018
  0.5474019749063987  0.9404633291242629  0.3746174559710108
  0.6133565378142279  0.0134595954461759  0.0835329995494752
  0.2301006289496343  0.2508869626259639  0.3992707084350047
  0.2683527089093752  0.9835834277985964  0.0376587942653939
  0.8165999168616767  0.2566398086830791  0.3329077934988308
  0.2001459271657009  0.4854606051544662  0.5477890062518760
  0.7709725504115731  0.7780464509005027  0.7853731906482530
  0.7375371618151000  0.9796935729915096  0.1053667127297315
  0.8405484153899652  0.5903810975444873  0.5428909357212249
  0.4162875732536444  0.2597476298908584  0.7106444912105464
  0.3231605003127502  0.5857619176032449  0.4529580414901204
  0.1277812609476406  0.8063028488265493  0.9434515079731546
  0.1440697900028814  0.1344629641059112  0.1570814742567549
  0.4467756102340020  0.5364736595126226  0.5456216214343543
  0.7073319847245617  0.8516556851478775  0.0935780730225282
  0.4709044705595634  0.8921840388435965  0.8686237079961104
  0.1692929441214389  0.8019382353976021  0.6777219874518938
  0.2293272282286661  0.0861080886930300  0.3022686170912107
  0.2032390556674216  0.9111604713788255  0.1853768253964306
  0.6508991448309633  0.4617632884560363  0.9399231322928165
  0.3484825927307412  0.6160261002421757  0.3269108183897191
  0.5427384092090075  0.5247652095796289  0.6398698916977181
  0.1647239834136681  0.9588049945471616  0.3701036859819602
  0.4332834843291985  0.5611423986223051  0.1872515031140537
  0.5927452915994889  0.3010054725968127  0.3893738081534290
  0.7052322046305474  0.2928221946103063  0.7167738567462872
  0.1891651902254550  0.0459537804114747  0.7568914488105065
  0.4955208585183932  0.8106323485095337  0.0291790252302306
  0.3825361570421027  0.6975320274907094  0.9316290147774630
  0.4509428785092904  0.2484299294492076  0.0329788435165554
  0.6090320404056728  0.8742056494268121  0.8094438348197980
  0.3378100037002396  0.8941525525377748  0.4230598935396434
  0.8594331991020294  0.3083434635746310  0.7134769330388342
  0.1955407670015553  0.3694931098008255  0.2543389165815433
  0.9892750719240954  0.3387826139871139  0.7162210422832053
  0.9072198994443388  0.2599278326160454  0.9647225948564409
  0.2757330031883467  0.9246960585984381  0.2952672610437994
  0.5200933828823161  0.4704895695891643  0.3483158066543748
  0.0532849422596617  0.5715682363029713  0.0114454977499802
  0.3103847422779017  0.8785314074494096  0.1132722347533102
  0.2149377254446832  0.6301462458762793  0.7786314550740175
  0.0756662639768929  0.6039753733967754  0.8828930358990528
  0.4717975534124610  0.2396126968400590  0.5167952949536215
  0.0610906670024419  0.6085270478882562  0.3200136544643598
  0.3362877424623493  0.4963625314302618  0.7218676066344504
  0.7479461465676098  0.6463595384501813  0.1384344237119349
  0.4065019149800636  0.8736008794670242  0.2438039742714802
  0.2466935493826260  0.7865115775579026  0.3014676304532777
  0.6302707161136705  0.1255887074896056  0.6363727004461449
  0.3838864210288837  0.3708547122854521  0.8914702106048888
  0.9352821280113756  0.9636725222500648  0.5722347545808880
  0.6043403052084984  0.6029827248652954  0.3793088320062531
  0.0770726461897671  0.6220534842642780  0.6033002334068647
  0.4131456153877347  0.3413829977856520  0.4468467965520631
  0.1838093454509704  0.7774169122906710  0.4715414245941363
  0.9295461378408514  0.6152535132926731  0.1924942169928825
  0.3790357910494356  0.7365443775629372  0.7711571758965470
  0.3182066140233619  0.1065340154458730  0.9844661282522068
  0.3585446089541491  0.5972598058043326  0.6297441677045159
  0.6588211533605133  0.3985166843059478  0.6177227672990959
  0.0508395049206390  0.2368350156565862  0.7625018558243690
  0.2105909776649389  0.4747004503837932  0.7612068148750097
  0.1986647145414480  0.6250215478824672  0.4400881767305334
  0.3945296335775832  0.7081985885327822  0.0611589104388680
  0.0611434167877316  0.2462142590141506  0.4056636110070627
  0.5128587220608589  0.4037338725124798  0.9314101838980280
  0.5057538313328451  0.6609800731260738  0.2247269801470766
  0.4364213575287780  0.4076171217604428  0.7634037177641708
  0.5753187840648963  0.5885224837012120  0.9299801394674975
  0.2051954453079173  0.6056595817774706  0.6062337400555462
  0.8149474583552636  0.5376675370234895  0.1672855807049925
  0.4064317468409768  0.9108162308981311  0.5356276711656168
  0.0241254689617106  0.8645294584804767  0.6162174081147639
  0.2601480865015528  0.3212444817878561  0.8414759460292158
  0.4854216148579066  0.6605601212351306  0.3807643619952377
  0.6750641243586738  0.2490263745490038  0.0118542720240209
  0.7881887616107366  0.7046457807113254  0.9442801401102390
  0.8753408164797921  0.9087740404913646  0.1675678980751815
  0.8470503182128740  0.3843775310344634  0.5881103922430262
  0.0792497587147589  0.4142656565551888  0.4903967060324111
  0.6094800837808588  0.2755268856407457  0.1859256213239957
  0.0732836282052771  0.3519959924923558  0.8978461876229382
  0.0203972519515620  0.8516480491633531  0.0095832551661624
  0.1939169931304545  0.5042045975315483  0.0476862883645532
  0.7202837158985170  0.3155101457481322  0.4448000150193869
  0.0916220761407527  0.6939728910389052  0.7108925904981497
  0.2089447834103319  0.9080723226576697  0.4818728418170465
  0.9541427463391614  0.5381173085868310  0.8216887176063935
  0.9691897454697563  0.3991565296226692  0.8346107188732165
  0.7147294590987150  0.8071653941492579  0.2176651901669869
  0.2574846612534691  0.2382447941788833  0.1289390043752080
  0.2622286827852652  0.6256567085560618  0.1707385029441586
  0.4562398057034602  0.0325444579493090  0.8573171665061813
  0.1604379211240635  0.7887651071113920  0.1833065156905646
  0.3417797170647688  0.5931867932520367  0.8098992044826638
  0.8141131209540239  0.4723917393121200  0.7785811911665580
  0.6011798700189912  0.7334937911035138  0.0553754074483468
  0.5685859255189789  0.1732899299884699  0.7414618430252906
  0.6674987842100950 -0.0172427196744643  0.7621400388617623
  0.1490813099892987  0.9342971793345315  0.9165020905134674
  0.5971415245601519  0.0794834536587851  0.9777777306489386
  0.2963144689047303  0.2230404947936682  0.6758394921989119
  0.9677984585330607  0.9528998122637645  0.4479786383076409
  0.2503009448287162  0.0540863484192005  0.1506919553855981
  0.3597583238934794  0.1384819847327505  0.2633983315241474
  0.1575095594492535  0.1188833053523496  0.6572820943445642
  0.7909623681791562  0.8743347142896449  0.5165819809746841
  0.8148456570847110  0.1804642852168893  0.9278883985968960
  0.7169172707616868  0.9806624493276959  0.2649816746567725
  0.7575558119000595  0.9595971269877926  0.9796538587591149
  0.1721341892850816  0.3194842106283871  0.0020699072694264
  0.0374080856529998  0.9773460737815240  0.7344841831818503
  0.9319819128608913  0.1209990474497641  0.6502949762258197
  0.7258790452370252  0.9380336119843130  0.6610634586861530
  0.2157275698879230  0.6394430859953704  0.3092225325587768
  0.8589075449648504  0.8200781548822010  0.3556460978044176
  0.5999330536444943  0.9501410428979341  0.5609199481635179
  0.8463262793331191  0.1185962948944057  0.2090751446268413
  0.5647300314635560  0.9202435082496883  0.9823599511044832
  0.4069818622946529  0.8653328068870497  0.7500118827588140
  0.8580068219169692  0.2019895872022222  0.7985346800992507
  0.7442825630685275  0.6507945438144194  0.8238682511870296
  0.5240954907741597  0.0165001434164726  0.2670476414834716
  0.0656481953164333  0.7920218321586058  0.8283404980588727
  0.1352530923440990  0.3374150567661301  0.6650560937772124
  0.2495289865957642  0.7694190383451959  0.5837042793348577
  0.0513213199779319  0.7911477708144620  0.5131305100802392
  0.6175881009783366  0.4746808051845347  0.7964702999631229
  0.8345634261810134  0.8979141560281426  0.7178686775404871
  0.5200233157974482  0.8519891166719377  0.1640455055831752
  0.9299511450033431  0.6192595464848454  0.0128535719547883
  0.1982960162086914  0.2475838702287117  0.5242684729926664
  0.4022698066231419 -0.0035797032673389  0.1234143945414822
  0.6251144677972891  0.5505368161029520  0.1154866699575299
  0.0028056086362138  0.2456560947978248  0.5871122478632006
  0.8427165534795755  0.7113620026937695  0.2136790665561918
  0.8429935133514601  0.0178686277472739  0.7779860935296412
  0.0996144252889783  0.6831118347950599  0.0621260934994758
  0.7597745583822608  0.5242495487668730  0.9796105522611781
  0.9208965834332418  0.6695020736213458  0.8114558967284100
  0.4748809000894703  0.2609838814161959  0.1660334262272654
  0.6891799036086449  0.6830106837500312  0.3295913662709475
  0.9599926460364335  0.1115855708813915  0.3482478927368523
  0.2239051802543889  0.7866619962127512  0.0634394283739399
 -0.0055618864555303  0.3591958760244051  0.2836110205607769
  0.8673218273555505  0.6996963108833377  0.4776553060006666
  0.2417811498514769  0.9434382945175019  0.6925247019766392
  0.6794190836196856  0.0262274447971729  0.4577112819967453
  0.6400246614955971  0.3725064839270363  0.0484308102160536
  0.3343864875819700  0.4939460347726409  0.3638724385169764
  0.9478434738763272  0.9723767186486655  0.2511063473471249
  0.4198910536207482  0.2462223363868007  0.8850743431036195
  0.2997140172347469  0.1115130341577659  0.7909974237740308
  0.6816855950823891  0.8087439238532539  0.8977843775353976
  0.6112141538453747  0.4029673710070571  0.2129860190832030
  0.7536391866610785  0.1565537780334500  0.6548170011645731
  0.7023798077392581  0.6113856022850289  0.7008166189585594
  0.3523916310478121  0.2288201868588013  0.4307424117310452
  0.0182606793147160  0.1852976380455756  0.9260736468632580
  0.8838683196360467  0.2563976435807890  0.4448215480033352
  0.9441949192085147  0.5140788737134366  0.4856160962438651
  0.8266487617410350  0.8028293192825106  0.0590941702318858
  0.9436576135075999  0.0137781563884940  0.9197600001021558
  0.6154831522438171  0.1264636450344353  0.1517975119589337
  0.6543570482570564  0.7884649245482671  0.7234566903926785
  0.6540745372337580  0.8549150090567093  0.3936243126242071
  0.4604907386390653  0.8503849409231524  0.3613867433883785
  0.9945353656457117  0.2859113801401009  0.1264876415933780
  0.8583290592371489  0.0824027716719894  0.5137832697969668
  0.7302705050595595  0.3613356461240078  0.8944216132716075
  0.2314243415700648  0.0929101111439921  0.4361673459949123
  0.3741054679508140  0.8935562786022382  0.9619748091369950
  0.1924655188306877  0.6602944068535647  0.9060808763306715
  0.4429878495938191  0.3301699063030865  0.6034359143963974
  0.7636326402541417  0.5008630270533465  0.4416793506580814
  0.9330048046078679  0.5677022275087158  0.3146028034513509
  0.6712889011190999  0.7358167348787016  0.5417667404255093
  0.7539749611742170  0.2894472863243890  0.1858418223757912
  0.8918965685581050  0.5886911598836058  0.6612994266467889
  0.0418670243514130  0.5085439380981042  0.6638067624693512
  0.4262454509975931  0.7332486996164104  0.5566979454371848
  0.5253387049558765  0.4463344226094532  0.4747036108285250
  0.3067467385702226  0.4165102678425702  0.5831794617209928
  0.5085493286859480  0.1889775003706070  0.3076354146643251
  0.0932726039003327  0.8680466784423876  0.3140045157475599
  0.2211042567853241  0.3735002863296480  0.3802536156112469
  0.2461828807398617  0.8236714988088571  0.8424637281468367
  0.6092038001842603  0.2365134137488980  0.5685300064493183
  0.1096833063851506  0.0810769646325029  0.4757097341177342
  0.0970376501385748  0.0551870756140708  0.2547199569076066
  0.8272964248849685  0.7584770049603333  0.6655553608941318
  0.8430193545060916  0.3681084091570134  0.0426723596490610
  0.7594288936127144  0.1303288539735873  0.0438266719094609
  0.3789473322777927  0.0390367017256305  0.4017220160185780
  0.5460767293952264  0.6434553557850434  0.6906066522881666
  0.1318609915521512  0.4820594108590853  0.2379199004723104
  0.8465103276158137  0.3936412865240533  0.3145981426524765
  0.2993127603893225  0.4252837245987964  0.1956532763453470
  0.9454667412107699  0.0973762073189216  0.0974190804281747
  0.5471981347985833  0.1238347802814093  0.4124264811622206
  0.3938886459416218  0.5363141485659022  0.9850421830836578
  0.1834643832415555  0.2026317141303772  0.2720501399773002
  0.9775212448412899  0.4703013606521360  0.1291165127221298
  0.6471031975648882  0.5488623474842755  0.5641316461518632
  0.0367429054639301  0.6671128636975423  0.4331925970820576
  0.3702116645572276  0.3565330775492132  0.0328440160005100
  0.1248925662147908  0.0778641770549480  0.0178796458442039
  0.6882183042407682  0.2059080942828678  0.8148038372308661
  0.5341936151300288  0.8749821209290924  0.6404399579892740
  0.3509235155778928  0.7562221978119854  0.2296780390799472
  0.8883273414373662  0.8531044931757890  0.8877976222471564
  0.0220891848026376  0.7079391251353735  0.2476157274438032
  0.5242984388288472  0.0536185604460023  0.5500848273674493
  0.4717075629829645  0.3488973449366668  0.3289714965869315
  0.4933489792928359  0.7582426481055002  0.8991752094064663
  0.3156562668300399  0.7636072772085932  0.4192185681560960
  0.4602204241780881  0.1469550462250860  0.6663533574999490
  0.7757715257472473  0.1266356448272372  0.3620821609343198
  0.0237509035576727  0.4199770019803550  0.0044650416527177
 
  0.00000000E+00  0.00000000E+00  0.00000000E+00
  0.00000000E+00  0.00000000E+00  0.00000000E+00
  0.00000000E+00  0.00000000E+00  0.00000000E+00
  0.00000000E+00  0.00000000E+00  0.00000000E+00
  0.00000000E+00  0.00000000E+00  0.00000000E+00
  0.00000000E+00  0.00000000E+00  0.00000000E+00
  0.00000000E+00  0.00000000E+00  0.00000000E+00
  0.00000000E+00  0.00000000E+00  0.00000000E+00
  0.00000000E+00  0.00000000E+00  0.00000000E+00
  0.00000000E+00  0.00000000E+00  0.00000000E+00
  0.00000000E+00  0.00000000E+00  0.00000000E+00
  0.00000000E+00  0.00000000E+00  0.00000000E+00
  0.00000000E+00  0.00000000E+00  0.00000000E+00
  0.00000000E+00  0.00000000E+00  0.00000000E+00
  0.00000000E+00  0.00000000E+00  0.00000000E+00
  0.00000000E+00  0.00000000E+00  0.00000000E+00
  0.00000000E+00  0.00000000E+00  0.00000000E+00
  0.00000000E+00  0.00000000E+00  0.00000000E+00
  0.00000000E+00  0.00000000E+00  0.00000000E+00
  0.00000000E+00  0.00000000E+00  0.00000000E+00
  0.00000000E+00  0.00000000E+00  0.00000000E+00
  0.00000000E+00  0.00000000E+00  0.00000000E+00
  0.00000000E+00  0.00000000E+00  0.00000000E+00
  0.00000000E+00  0.00000000E+00  0.00000000E+00
  0.00000000E+00  0.00000000E+00  0.00000000E+00
  0.00000000E+00  0.00000000E+00  0.00000000E+00
  0.00000000E+00  0.00000000E+00  0.00000000E+00
  0.00000000E+00  0.00000000E+00  0.00000000E+00
  0.00000000E+00  0.00000000E+00  0.00000000E+00
  0.00000000E+00  0.00000000E+00  0.00000000E+00
  0.00000000E+00  0.00000000E+00  0.00000000E+00
  0.00000000E+00  0.00000000E+00  0.00000000E+00
  0.00000000E+00  0.00000000E+00  0.00000000E+00
  0.00000000E+00  0.00000000E+00  0.00000000E+00
  0.00000000E+00  0.00000000E+00  0.00000000E+00
  0.00000000E+00  0.00000000E+00  0.00000000E+00
  0.00000000E+00  0.00000000E+00  0.00000000E+00
  0.00000000E+00  0.00000000E+00  0.00000000E+00
  0.00000000E+00  0.00000000E+00  0.00000000E+00
  0.00000000E+00  0.00000000E+00  0.00000000E+00
  0.00000000E+00  0.00000000E+00  0.00000000E+00
  0.00000000E+00  0.00000000E+00  0.00000000E+00
  0.00000000E+00  0.00000000E+00  0.00000000E+00
  0.00000000E+00  0.00000000E+00  0.00000000E+00
  0.00000000E+00  0.00000000E+00  0.00000000E+00
  0.00000000E+00  0.00000000E+00  0.00000000E+00
  0.00000000E+00  0.00000000E+00  0.00000000E+00
  0.00000000E+00  0.00000000E+00  0.00000000E+00
  0.00000000E+00  0.00000000E+00  0.00000000E+00
  0.00000000E+00  0.00000000E+00  0.00000000E+00
  0.00000000E+00  0.00000000E+00  0.00000000E+00
  0.00000000E+00  0.00000000E+00  0.00000000E+00
  0.00000000E+00  0.00000000E+00  0.00000000E+00
  0.00000000E+00  0.00000000E+00  0.00000000E+00
  0.00000000E+00  0.00000000E+00  0.00000000E+00
  0.00000000E+00  0.00000000E+00  0.00000000E+00
  0.00000000E+00  0.00000000E+00  0.00000000E+00
  0.00000000E+00  0.00000000E+00  0.00000000E+00
  0.00000000E+00  0.00000000E+00  0.00000000E+00
  0.00000000E+00  0.00000000E+00  0.00000000E+00
  0.00000000E+00  0.00000000E+00  0.00000000E+00
  0.00000000E+00  0.00000000E+00  0.00000000E+00
  0.00000000E+00  0.00000000E+00  0.00000000E+00
  0.00000000E+00  0.00000000E+00  0.00000000E+00
  0.00000000E+00  0.00000000E+00  0.00000000E+00
  0.00000000E+00  0.00000000E+00  0.00000000E+00
  0.00000000E+00  0.00000000E+00  0.00000000E+00
  0.00000000E+00  0.00000000E+00  0.00000000E+00
  0.00000000E+00  0.00000000E+00  0.00000000E+00
  0.00000000E+00  0.00000000E+00  0.00000000E+00
  0.00000000E+00  0.00000000E+00  0.00000000E+00
  0.00000000E+00  0.00000000E+00  0.00000000E+00
  0.00000000E+00  0.00000000E+00  0.00000000E+00
  0.00000000E+00  0.00000000E+00  0.00000000E+00
  0.00000000E+00  0.00000000E+00  0.00000000E+00
  0.00000000E+00  0.00000000E+00  0.00000000E+00
  0.00000000E+00  0.00000000E+00  0.00000000E+00
  0.00000000E+00  0.00000000E+00  0.00000000E+00
  0.00000000E+00  0.00000000E+00  0.00000000E+00
  0.00000000E+00  0.00000000E+00  0.00000000E+00
  0.00000000E+00  0.00000000E+00  0.00000000E+00
  0.00000000E+00  0.00000000E+00  0.00000000E+00
  0.00000000E+00  0.00000000E+00  0.00000000E+00
  0.00000000E+00  0.00000000E+00  0.00000000E+00
  0.00000000E+00  0.00000000E+00  0.00000000E+00
  0.00000000E+00  0.00000000E+00  0.00000000E+00
  0.00000000E+00  0.00000000E+00  0.00000000E+00
  0.00000000E+00  0.00000000E+00  0.00000000E+00
  0.00000000E+00  0.00000000E+00  0.00000000E+00
  0.00000000E+00  0.00000000E+00  0.00000000E+00
  0.00000000E+00  0.00000000E+00  0.00000000E+00
  0.00000000E+00  0.00000000E+00  0.00000000E+00
  0.00000000E+00  0.00000000E+00  0.00000000E+00
  0.00000000E+00  0.00000000E+00  0.00000000E+00
  0.00000000E+00  0.00000000E+00  0.00000000E+00
  0.00000000E+00  0.00000000E+00  0.00000000E+00
  0.00000000E+00  0.00000000E+00  0.00000000E+00
  0.00000000E+00  0.00000000E+00  0.00000000E+00
  0.00000000E+00  0.00000000E+00  0.00000000E+00
  0.00000000E+00  0.00000000E+00  0.00000000E+00
  0.00000000E+00  0.00000000E+00  0.00000000E+00
  0.00000000E+00  0.00000000E+00  0.00000000E+00
  0.00000000E+00  0.00000000E+00  0.00000000E+00
  0.00000000E+00  0.00000000E+00  0.00000000E+00
  0.00000000E+00  0.00000000E+00  0.00000000E+00
  0.00000000E+00  0.00000000E+00  0.00000000E+00
  0.00000000E+00  0.00000000E+00  0.00000000E+00
  0.00000000E+00  0.00000000E+00  0.00000000E+00
  0.00000000E+00  0.00000000E+00  0.00000000E+00
  0.00000000E+00  0.00000000E+00  0.00000000E+00
  0.00000000E+00  0.00000000E+00  0.00000000E+00
  0.00000000E+00  0.00000000E+00  0.00000000E+00
  0.00000000E+00  0.00000000E+00  0.00000000E+00
  0.00000000E+00  0.00000000E+00  0.00000000E+00
  0.00000000E+00  0.00000000E+00  0.00000000E+00
  0.00000000E+00  0.00000000E+00  0.00000000E+00
  0.00000000E+00  0.00000000E+00  0.00000000E+00
  0.00000000E+00  0.00000000E+00  0.00000000E+00
  0.00000000E+00  0.00000000E+00  0.00000000E+00
  0.00000000E+00  0.00000000E+00  0.00000000E+00
  0.00000000E+00  0.00000000E+00  0.00000000E+00
  0.00000000E+00  0.00000000E+00  0.00000000E+00
  0.00000000E+00  0.00000000E+00  0.00000000E+00
  0.00000000E+00  0.00000000E+00  0.00000000E+00
  0.00000000E+00  0.00000000E+00  0.00000000E+00
  0.00000000E+00  0.00000000E+00  0.00000000E+00
  0.00000000E+00  0.00000000E+00  0.00000000E+00
  0.00000000E+00  0.00000000E+00  0.00000000E+00
  0.00000000E+00  0.00000000E+00  0.00000000E+00
  0.00000000E+00  0.00000000E+00  0.00000000E+00
  0.00000000E+00  0.00000000E+00  0.00000000E+00
  0.00000000E+00  0.00000000E+00  0.00000000E+00
  0.00000000E+00  0.00000000E+00  0.00000000E+00
  0.00000000E+00  0.00000000E+00  0.00000000E+00
  0.00000000E+00  0.00000000E+00  0.00000000E+00
  0.00000000E+00  0.00000000E+00  0.00000000E+00
  0.00000000E+00  0.00000000E+00  0.00000000E+00
  0.00000000E+00  0.00000000E+00  0.00000000E+00
  0.00000000E+00  0.00000000E+00  0.00000000E+00
  0.00000000E+00  0.00000000E+00  0.00000000E+00
  0.00000000E+00  0.00000000E+00  0.00000000E+00
  0.00000000E+00  0.00000000E+00  0.00000000E+00
  0.00000000E+00  0.00000000E+00  0.00000000E+00
  0.00000000E+00  0.00000000E+00  0.00000000E+00
  0.00000000E+00  0.00000000E+00  0.00000000E+00
  0.00000000E+00  0.00000000E+00  0.00000000E+00
  0.00000000E+00  0.00000000E+00  0.00000000E+00
  0.00000000E+00  0.00000000E+00  0.00000000E+00
  0.00000000E+00  0.00000000E+00  0.00000000E+00
  0.00000000E+00  0.00000000E+00  0.00000000E+00
  0.00000000E+00  0.00000000E+00  0.00000000E+00
  0.00000000E+00  0.00000000E+00  0.00000000E+00
  0.00000000E+00  0.00000000E+00  0.00000000E+00
  0.00000000E+00  0.00000000E+00  0.00000000E+00
  0.00000000E+00  0.00000000E+00  0.00000000E+00
  0.00000000E+00  0.00000000E+00  0.00000000E+00
  0.00000000E+00  0.00000000E+00  0.00000000E+00
  0.00000000E+00  0.00000000E+00  0.00000000E+00
  0.00000000E+00  0.00000000E+00  0.00000000E+00
  0.00000000E+00  0.00000000E+00  0.00000000E+00
  0.00000000E+00  0.00000000E+00  0.00000000E+00
  0.00000000E+00  0.00000000E+00  0.00000000E+00
  0.00000000E+00  0.00000000E+00  0.00000000E+00
  0.00000000E+00  0.00000000E+00  0.00000000E+00
  0.00000000E+00  0.00000000E+00  0.00000000E+00
  0.00000000E+00  0.00000000E+00  0.00000000E+00
  0.00000000E+00  0.00000000E+00  0.00000000E+00
  0.00000000E+00  0.00000000E+00  0.00000000E+00
  0.00000000E+00  0.00000000E+00  0.00000000E+00
  0.00000000E+00  0.00000000E+00  0.00000000E+00
  0.00000000E+00  0.00000000E+00  0.00000000E+00
  0.00000000E+00  0.00000000E+00  0.00000000E+00
  0.00000000E+00  0.00000000E+00  0.00000000E+00
  0.00000000E+00  0.00000000E+00  0.00000000E+00
  0.00000000E+00  0.00000000E+00  0.00000000E+00
  0.00000000E+00  0.00000000E+00  0.00000000E+00
  0.00000000E+00  0.00000000E+00  0.00000000E+00
  0.00000000E+00  0.00000000E+00  0.00000000E+00
  0.00000000E+00  0.00000000E+00  0.00000000E+00
  0.00000000E+00  0.00000000E+00  0.00000000E+00
  0.00000000E+00  0.00000000E+00  0.00000000E+00
  0.00000000E+00  0.00000000E+00  0.00000000E+00
  0.00000000E+00  0.00000000E+00  0.00000000E+00
  0.00000000E+00  0.00000000E+00  0.00000000E+00
  0.00000000E+00  0.00000000E+00  0.00000000E+00
  0.00000000E+00  0.00000000E+00  0.00000000E+00
  0.00000000E+00  0.00000000E+00  0.00000000E+00
  0.00000000E+00  0.00000000E+00  0.00000000E+00
  0.00000000E+00  0.00000000E+00  0.00000000E+00
  0.00000000E+00  0.00000000E+00  0.00000000E+00
  0.00000000E+00  0.00000000E+00  0.00000000E+00
  0.00000000E+00  0.00000000E+00  0.00000000E+00
  0.00000000E+00  0.00000000E+00  0.00000000E+00
  0.00000000E+00  0.00000000E+00  0.00000000E+00
  0.00000000E+00  0.00000000E+00  0.00000000E+00
  0.00000000E+00  0.00000000E+00  0.00000000E+00
  0.00000000E+00  0.00000000E+00  0.00000000E+00
  0.00000000E+00  0.00000000E+00  0.00000000E+00
  0.00000000E+00  0.00000000E+00  0.00000000E+00
  0.00000000E+00  0.00000000E+00  0.00000000E+00
  0.00000000E+00  0.00000000E+00  0.00000000E+00
  0.00000000E+00  0.00000000E+00  0.00000000E+00
  0.00000000E+00  0.00000000E+00  0.00000000E+00
  0.00000000E+00  0.00000000E+00  0.00000000E+00
  0.00000000E+00  0.00000000E+00  0.00000000E+00
  0.00000000E+00  0.00000000E+00  0.00000000E+00
  0.00000000E+00  0.00000000E+00  0.00000000E+00
  0.00000000E+00  0.00000000E+00  0.00000000E+00
  0.00000000E+00  0.00000000E+00  0.00000000E+00
  0.00000000E+00  0.00000000E+00  0.00000000E+00
  0.00000000E+00  0.00000000E+00  0.00000000E+00
  0.00000000E+00  0.00000000E+00  0.00000000E+00
  0.00000000E+00  0.00000000E+00  0.00000000E+00
  0.00000000E+00  0.00000000E+00  0.00000000E+00
  0.00000000E+00  0.00000000E+00  0.00000000E+00
  0.00000000E+00  0.00000000E+00  0.00000000E+00
  0.00000000E+00  0.00000000E+00  0.00000000E+00
  0.00000000E+00  0.00000000E+00  0.00000000E+00
  0.00000000E+00  0.00000000E+00  0.00000000E+00
  0.00000000E+00  0.00000000E+00  0.00000000E+00
  0.00000000E+00  0.00000000E+00  0.00000000E+00
  0.00000000E+00  0.00000000E+00  0.00000000E+00
  0.00000000E+00  0.00000000E+00  0.00000000E+00
  0.00000000E+00  0.00000000E+00  0.00000000E+00
  0.00000000E+00  0.00000000E+00  0.00000000E+00
  0.00000000E+00  0.00000000E+00  0.00000000E+00
  0.00000000E+00  0.00000000E+00  0.00000000E+00
  0.00000000E+00  0.00000000E+00  0.00000000E+00
  0.00000000E+00  0.00000000E+00  0.00000000E+00
  0.00000000E+00  0.00000000E+00  0.00000000E+00
  0.00000000E+00  0.00000000E+00  0.00000000E+00
  0.00000000E+00  0.00000000E+00  0.00000000E+00
  0.00000000E+00  0.00000000E+00  0.00000000E+00
  0.00000000E+00  0.00000000E+00  0.00000000E+00
  0.00000000E+00  0.00000000E+00  0.00000000E+00
  0.00000000E+00  0.00000000E+00  0.00000000E+00