POSCAR file written by OVITO Basic 3.10.4
1
22.6638 0.0 0.0
0.0 22.6638 0.0
0.0 0.0 22.6638
Sb Te 
120 180 
Direct
0.3070195642 0.3136764355 0.3019996647
0.2420009001 0.5747579841 0.6081769165
0.3824799901 0.2989185397 0.0779525058
0.7842418306 0.9890706766 0.9096621043
0.1039026995 0.0109264995 0.1372726551
0.5100689205 0.5795718282 0.1697782367
0.1431979633 0.7291628059 0.5328453304
0.7033992534 0.5719164483 0.2695435011
0.0229334886 0.6949981909 0.7861656033
0.8091449801 0.1280672261 0.6914506835
0.2698325082 0.9583785596 0.3288239395
0.8946999179 0.4847818989 0.8160811514
0.4760102013 0.6884194177 0.7195968902
0.6073694614 0.3956512147 0.0946152013
0.947131549 0.1000820692 0.5290904438
0.6282573973 0.7253814453 0.2938981989
0.1254635145 0.0131965955 0.6720894113
0.5379989234 0.0281745338 0.1700632727
0.2007867171 0.9349403013 0.0408284136
6.3060475295e-05 0.4123593572 0.5503975503
0.9937698003 0.6352862274 0.8997034919
0.0159371773 0.5444982748 0.2876472613
0.7290304362 0.2931207476 0.052988025
0.2809193516 0.0957191645 0.1193908347
0.1460933295 0.8026456287 0.7414775986
0.2464926447 0.1956026792 0.6149365949
0.7986833629 0.686495645 0.1262647923
0.3200262092 0.8768167739 0.4873189845
0.5550657877 0.1665056169 0.0828087082
0.7155419656 0.1229233403 0.2324552811
0.2379900987 0.7649643926 0.3690237295
0.1038916687 0.7984230359 0.9432531173
0.0110314687 0.9442503022 0.397659704
0.9812211544 0.619053292 0.1108618149
0.3763027383 0.664306074 0.3026628368
0.2170840724 0.3447956653 0.1407548602
0.9336695523 0.0258906715 0.3469007845
0.7156169751 0.451861559 0.3833178902
0.1393667434 0.3463095333 0.3129748762
0.7748744694 0.3423781537 0.274262039
0.0112842507 0.2932345856 0.1196723409
0.2810901085 0.5335248281 0.9665987169
0.5534641146 0.1833871637 0.649745409
0.2911991811 0.2621621264 0.5088114085
0.9864232829 0.50068391 0.1701126907
0.6608688746 0.8425859741 0.5359736673
0.6857058393 0.3206836453 0.177113282
0.8243895551 0.6119494524 0.3228364175
0.8416020261 0.8299226079 0.3191622764
0.4069476434 0.5977858965 0.6535532435
0.0940574837 0.8355792056 0.2242311528
0.6293031177 0.6429063087 0.1858898331
0.2300920411 0.4487023359 0.3122428719
0.2739778854 0.8223334128 0.7207749804
0.4183173166 0.8188300285 0.6547180967
0.1795938898 0.195594737 0.7709077913
0.5006530238 0.6093241204 0.8313698497
0.6943363425 0.2555599679 0.3763384781
0.6643237233 0.4051866854 0.8754533662
0.7387728448 0.5911321138 0.7748921187
0.1472727433 0.0973962884 0.2975643979
0.3064830258 0.9980144548 0.8254661619
0.5004500569 0.489432487 0.4702609448
0.1568541021 0.5613401107 0.8857914383
0.5116264704 0.4015637272 0.619503349
0.4182864303 0.0882716049 0.2444051748
0.7826225081 0.9527616728 0.2159011287
0.5758831264 0.4344902444 0.290845754
0.2799909989 0.0853497648 0.4650455793
0.8785861153 0.9490067862 0.5118250249
0.1470057978 0.6373776684 0.9930373547
0.6310415729 0.9433413638 0.4017516921
0.903273061 0.2947952241 0.8680494886
0.8662139624 0.3869143745 0.0982134505
0.8963324773 0.148886771 0.0251431799
0.5336571978 0.133142721 0.5315216336
0.2272403569 0.1142412129 0.8552361034
0.5488002894 0.9726215374 0.3005943399
0.4399046056 0.4912459517 0.0673046885
0.8737237356 0.4838597234 0.4580785217
0.703584571 0.2676642928 0.6234612024
0.087920384 0.2612143595 0.557324897
0.0454028009 0.1928899831 0.93366514
0.8779860394 0.5285036049 0.6546783858
0.6040116838 0.1559010404 0.3666838747
0.1039507938 0.859988175 0.0921098845
0.0108258103 0.6811170236 0.2749715405
0.9203663993 0.8262692046 0.0038881035
0.939365861 0.2981891827 0.5830487385
0.5614327694 0.9744791253 0.5676011966
0.446434402 0.8039737379 0.5248855002
0.2760071127 0.1118731192 0.9890265534
0.0672495345 0.7618007572 0.3824115991
0.0070606871 0.5966519295 0.4395123501
0.060751948 0.8564980277 0.5674820639
0.6094344285 0.0613158429 0.9216150866
0.0061503808 0.2295281462 0.8119423927
0.1707793927 0.471822907 0.6407486829
0.5246295855 0.2168422771 0.9682709872
0.5614592434 0.8395414714 0.652657542
0.1059526646 0.4333395106 0.1505771318
0.7277596873 0.8298917216 0.9395467662
0.3507214148 0.2111150822 0.8298652477
0.6138335142 0.5848180799 0.7723020853
0.922303409 0.9928255632 0.6810464265
0.6383130808 0.7105736902 0.8074682975
0.9832817092 0.2604651471 0.4231033631
0.7503949029 0.6886576832 0.6997767365
0.4081800051 0.220249914 0.3680146313
0.4188057607 0.513453172 0.9082722227
0.4167385875 0.7002312057 0.9098209479
0.3771843204 0.3590077569 0.5021443888
0.6685066052 0.5184743953 0.0871557285
0.0150078539 0.8803025088 0.9213238733
0.4901781696 0.4201960836 0.9652220722
0.8127101369 0.6791932509 0.5210556041
0.5285300788 0.8447391876 0.9128786876
0.494846407 0.0733054475 0.7344531808
0.2781435593 0.1913174313 0.3853391752
0.8791950158 0.7727433175 0.8882844007
0.5087584606 0.7456163574 0.0640258915
0.6934318164 0.9513409049 0.9821830408
0.3761536018 0.6900166786 0.5212673956
0.6680344867 0.7434366699 0.0907500066
0.2745682542 0.6456772474 0.233927232
0.018325347 0.1566158367 0.6495777407
0.7743979386 0.5861153028 0.4442944255
0.9325620593 0.8248440244 0.5943663463
0.7285009575 0.9579505643 0.5089481905
0.4851745956 0.3015915248 0.5157255182
0.724256303 0.5351176766 0.9820418465
0.3365737431 0.8444567989 0.3613176078
0.1358404151 0.1385769377 0.5543024559
0.6222478137 0.3774618555 0.6874619437
0.9247478358 0.5703191874 0.5274049365
0.0330135723 0.5518050812 0.8033207141
0.5900996302 0.8527916766 0.2416007024
0.8087390464 0.191953247 0.9369611451
0.4643043091 0.2285962636 0.7877010916
0.4328607736 0.6793829808 0.1778761726
0.7848286695 0.4354684563 0.5407301512
0.7578914392 0.7780292802 0.469484376
0.1937539159 0.5491047397 0.0724891677
0.8140426583 0.3378162532 0.6203063917
0.3533343923 0.9979923932 0.4114217386
0.827928238 0.0739597949 0.248928688
0.1152714902 0.2739805328 0.8491559227
0.5948031663 0.4830390314 0.9266936701
0.1428957192 0.6564212533 0.3445344558
0.3173218966 0.0934454946 0.593241204
0.170137841 0.3110180111 0.6440799866
0.0960103778 0.3614349756 0.4832817092
0.6664857614 0.014147451 0.1695818883
0.0608490191 0.9001491365 0.6905770436
0.615333704 0.4273846398 0.5679144715
0.8089773118 0.8673920525 0.8496589275
0.7998085052 0.8086199137 0.0645544878
0.1307794809 0.9219989587 0.8214730098
0.7447250682 0.7014269452 0.8710939913
0.6065178831 0.3237991864 0.9682577502
0.9980012178 0.1303025088 0.3214443297
0.4529205164 0.0415383563 0.6015187215
0.048674097 0.092477431 0.7459958171
0.5998067403 0.3196476319 0.8048297285
0.1929288116 0.4730054095 0.7677662175
0.3012773674 0.6027938828 0.1176444374
0.4111777372 0.3689306295 0.3779242669
0.6883091097 0.844006742 0.6529664046
0.9716375895 0.8155296111 0.8129572269
0.3923357954 0.0600896584 0.0992516701
0.7724344549 0.431778872 0.1804953274
0.324810932 0.5097909441 0.4706404045
0.5846239377 0.3100353868 0.2701956424
0.0061712511 0.7404936507 0.013497207
0.8092552882 0.3667152022 0.4121502131
0.6794359287 0.0635912777 0.3455894422
0.2594534015 0.3883060211 0.6019114182
0.7835888068 0.3997136403 0.0073701674
0.3430126457 0.915905541 0.6163750121
0.2651144115 0.6792859097 0.9806166662
0.9239977409 0.2875188627 0.3127498478
0.872333854 0.0511180826 0.774772986
0.71773489 0.1584297426 0.0797324367
0.6350479619 0.8450789365 0.8382530732
0.4865821266 0.3988625032 0.1403520151
0.4277226237 0.1832164068 0.1214580079
0.1583767947 0.8408607559 0.4316659166
0.6148395238 0.0188629444 0.711213477
0.8853987416 0.978631121 0.9940786629
0.4016179987 0.1981596202 0.5122794942
0.9268128028 0.3738053636 0.7324543986
0.4163467733 0.8037751833 0.9988130852
0.4529381657 0.5170139165 0.7477475092
0.4007055304 0.2516841836 0.248848825
0.3203253647 0.4839788561 0.7629347241
0.879812741 0.5865918337 0.8901816995
0.8782684281 0.2209161747 0.4861408943
0.6081195563 0.5908850237 0.3410063626
0.2488285283 0.9532735022 0.7132166715
0.6873031001 0.058654771 0.823882138
0.0150528155 0.9828095906 0.5285962636
0.8284488921 0.5571704657 0.1859224843
0.8330774186 0.2714721274 0.1309325885
0.2811262895 0.3039097592 0.7646908285
0.6857808488 0.8586777151 0.156876605
0.8106098712 0.0558851561 0.0627820577
0.7796221287 0.463920437 0.7603446907
0.2333893698 0.5751771548 0.4081349994
0.4138476337 0.2916011437 0.9567107016
0.6289324826 0.2439679136 0.5182361299
0.265992905 0.2529942022 0.0645743432
0.6685507285 0.1675226573 0.9618201714
0.195108499 0.2648986489 0.2273586071
0.95420009 0.099849981 0.9234373759
0.7628641269 0.9293190021 0.3399597596
0.8526372453 0.0565209718 0.4328726868
0.3604285248 0.3895529435 0.8352129828
0.4772897749 0.3723718 0.8013616428
0.2565147945 0.9724362199 0.1438911392
0.4201629912 0.5498018867 0.3876746177
0.5159196604 0.9383289651 0.4605670717
0.9494612554 0.2697310248 0.9807622729
0.491673947 0.9659898164 0.8872386802
0.9906635251 0.4003909318 0.4246715026
0.1158084699 0.0738803731 0.877050627
0.2102710049 0.8739178778 0.9000300038
0.566731969 0.6971514044 0.915892304
0.4235035607 0.480996126 0.5673452819
0.299160335 0.6995561203 0.8654859291
0.7282009195 0.1853969767 0.4804975335
0.0071503014 0.5517300717 0.0111591172
0.4982041846 0.6184002683 0.5143488735
0.8066652547 0.8350982624 0.5805734255
0.2684461564 0.8196551329 0.011004377
0.5463823366 0.1301251335 0.250199437
0.6161499837 0.5808072786 0.469060793
0.0336476231 0.3606800272 0.2263468615
0.0046077445 0.5275726048 0.6747323926
0.8928908656 0.5062566736 0.3100817162
0.5806793212 0.8506472877 0.02630693
0.2223687113 0.8048076669 0.2297906794
0.1174997132 0.3198228011 0.0586380042
0.2795162329 0.7659174543 0.5643184285
0.992221075 0.0934282865 0.1097997688
0.5775906953 0.6357539336 0.6699670841
0.8366293384 0.0337154405 0.6053309683
0.1059050115 0.4659103945 0.9443164871
0.1828422418 0.5986992473 0.7231267484
0.8703174225 0.6659651074 0.667354989
0.2763036208 0.0839166424 0.2752424571
0.7481578553 0.7246445874 0.2747897528
0.9581049956 0.4104907385 0.8967560603
0.1069436723 0.7111825907 0.6571272249
0.1576699406 0.5764876146 0.5129766412
0.4849848657 0.7672499757 0.2621510956
0.3402805355 0.683336422 0.7165215012
0.8735119442 0.879702433 0.6975132149
0.9012919281 0.8976870604 0.2338204538
0.6708936718 0.1310031857 0.6656474201
0.0899575535 0.6558917745 0.1669587624
0.1403140691 0.2105375092 0.3676929729
0.4201546078 0.606870869 0.9980276917
0.8413858223 0.5886082652 0.0594441356
0.1300232088 0.7006018408 0.8534226387
0.5551054986 0.7450515801 0.5615077789
0.5185008692 0.8458599176 0.3536123686
0.0110515006 0.9600861285 0.0751255306
0.4474404116 0.9556429195 0.7779410337
0.3390900908 0.435133561 0.0073835809
0.4066025997 0.933391576 0.0660374694
0.354486891 0.858033516 0.810031857
0.7979641543 0.2177626876 0.3022004253
0.3104272011 0.9902840653 0.9576505264
0.7043346659 0.6576743529 0.5891818671
0.9304088458 0.8487632259 0.410119221
0.208419153 0.7704312604 0.107989834
0.5828722456 0.6078680539 0.0576575861
0.3088736223 0.408269134 0.2140395697
0.9341372585 0.6901446359 0.3709126448
0.1551152057 0.5282962257 0.2596413664
0.4327976774 0.879812741 0.1816319417
0.0277060334 0.7087028654 0.4877999276
0.0407234003 0.4071351671 0.6841791756
0.5081319108 0.048151678 0.0232386008
0.4386369453 0.0872810385 0.3723400312
0.5254899884 0.1426186253 0.8544860085
0.1493783037 0.0699066353 0.0053669729
0.0855469956 0.9579858629 0.2572154714
0.4487641084 0.4667399112 0.2737144698
0.2144305015 0.4228236218 0.9034495539
0.0427195792 0.1267470592 0.4437296482
1.4856687758e-04 0.1881171736 0.1839417926
0.641529664 0.0619940169 0.5298493633
0.6035439776 0.3873339864 0.4023376486
0.1842802178 0.0093128249 0.4174807402
0.1338385443 0.1350378136 0.1760075539
0.3516281471 0.1119066529 0.7499624953
0.4196427784 0.9643219584 0.269495848
0.9221975132 0.7113987946 0.1893323273
0.9071294311 0.2072176775 0.7007209735
