Amorphous Sb                            
   1.00000000000000     
    22.6413554274211286    0.0000000000000000    0.0000000000000000
     0.0000000000000000   22.6413554274211286    0.0000000000000000
     0.0000000000000000    0.0000000000000000   22.6413554274211286
   Te
   300
Direct
  0.7211070597217666  0.4677618595258767  0.9529998185553380
  0.2088580730036260  0.3392218161945411  0.0840237895977176
  0.2771036040124292  0.0675328499347985  0.4821187513855716
  0.9332059285209225  0.2398269327961161  0.8127073131976127
  0.0716976362496319  0.2766179923312230  0.5282274016080755
  0.7502237796051181  0.8107591305387459  0.2920906414595902
  0.6470109576253416  0.4690052419098661  0.4537736766606541
  0.7292416753510492  0.4865639070972494  0.3155516384759498
  0.0285470719852773  0.1186896176338977  0.4495543798491505
  0.2050253169456540  0.1701484439359096  0.5064783762488616
  0.9669129928395171  0.4862197934814920  0.1145477554382154
  0.4977668514632745  0.8746584131752050  0.8673604568599796
  0.2495468750344708  0.4822264807468849  0.6946101701070350
  0.6264940832625546  0.5205523560979358  0.8848815201858991
  0.8009012694847650  0.6471173425442784  0.3901803242018776
  0.0864130129614308  0.0249674264322362  0.3925639501882036
  0.2618595589588157  0.6280097325972634  0.0567782801205139
 -0.0010197703391139  0.8892224292315718  0.8136750914792529
  0.1440389543030720  0.4424088706637109  0.0552789185363336
  0.7826732598568005  0.2138616580182646  0.4639604141922817
  0.2428948949444056  0.8791407348212265  0.7470086781080544
  0.3629511866384303  0.8621264851960522  0.3805178243631768
  0.6755007507431582  0.0905852263662543  0.5822852867792255
  0.8746150159456564  0.1476691943259607  0.5533714182498255
  0.6871825567999158  0.6563085822718526  0.8429734954065995
  0.7283418230887433  0.3494253869454209  0.7571781896166643
  0.5177457054678154  0.6127832411109074  0.4267980932304144
  0.2902364239398439  0.7604688057117758  0.8965787595677287
  0.4857191106532153  0.9908338031443689  0.7532784621130096
  0.1943152971172011  0.1727592697304641  0.9797005506017618
  0.7633876037114740  0.9577285543114971  0.8810142458518487
  0.5171618464594608  0.3814781088682314  0.3694743540923037
  0.7774374126758209  0.8930467582624927  0.7020038008996795
  0.2143777973702067  0.9735157312661622  0.3126124211610187
  0.1406599134823525  0.4004743065731207  0.9283002071314578
  0.7050656411182601  0.7817316626191749  0.7053796823158238
  0.0404447029404066  0.6442782315937182  0.7892028756387514
  0.9050147464860493  0.8301099030020958  0.3445735861213587
  0.6886413198371789  0.0926813387176808  0.0917092679677702
  0.2842933396807792  0.8641216464948356  0.1335189613420146
  0.3865959727409340  0.7384612236199714  0.0259801632361178
  0.3156394238267526  0.3682657804249044  0.0278425998720648
  0.9244597163295341  0.0141040487236705  0.3302300843515109
  0.0044006613366971  0.0013801866546102  0.8787550059761320
  0.9846071445917246  0.5247830217847249  0.2934098444227314
  0.5871868984564745  0.9430825156647076  0.8158304206154459
  0.8379230135219535  0.4337583192835849  0.8885607895822872
  0.9947283537889121  0.4641709252839580  0.4344778765525999
  0.1525812631499849  0.6063337721463478  0.4237771878765790
  0.6595697748698436  0.9067158083399671  0.0880097081550506
  0.5870529406131779  0.0687986807499328  0.6632007026091763
  0.5309153204505623  0.9857792550370582  0.1457587762850236
  0.8281236929586442  0.3260563091130996  0.1284839849070769
  0.1884754769482297  0.1777156252023457  0.7044688669489929
  0.9163276575230043  0.6357963773158312  0.7015060625248494
  0.2442454663943817  0.1219385558860282  0.8644189892388129
  0.3309172220407229  0.9676606386709047  0.8821869011174611
  0.2327185757594633  0.1831604939086691  0.2485687963578068
  0.1147708013618792  0.2628242769824663  0.9491911867269831
  0.3215962347436310  0.9823018750353851  0.1381930592414739
  0.9290386683978559  0.8128469438593973  0.2196822591334778
  0.7056003333086895  0.7299001485713100  0.3846541764747242
  0.8174202173935394  0.0913103433886287  0.9669114803549876
  0.4470509323025680  0.2420089803389314  0.1271604827087039
  0.3425330098439593  0.6206911369687701  0.4670439435329907
  0.0651828145269262  0.5751049484367523  0.2066169600495295
  0.2043195154192840  0.8109169129128220  0.0325692699768979
  0.3710545972867643  0.9175518661440286  0.7639029512434822
  0.8500941548630391  0.3097241914173338  0.5141140797649111
  0.1256083625459074  0.9478174171365672  0.4868275892267057
  0.5835053512203248  0.2364614924214860  0.5746614108975049
  0.4458032419685462  0.0301022795023192  0.4791561503175623
  0.6112490515280452  0.1416216098820305  0.4479305522725369
  0.1621956793379898  0.3621599326821679  0.7025784869764670
  0.0576572570374254  0.9361454684315661  0.0044146110219295
  0.1949061258354994  0.0011729722552125  0.7447095885636619
  0.1483756969605501  0.2925250322272300  0.2791916674420839
  0.8570268533582035  0.1926112684958249  0.3656470201009456
  0.5281143553937649  0.2490301788242962  0.0278153522131440
  0.8042971847209276  0.0443236487154423  0.0850930216500776
  0.9552938081549973  0.3927369841686709  0.8572490291660266
  0.3537746165665165  0.6548181262247775  0.3335514213529349
  0.9302046516130865  0.1482455062502603  0.1250210324875285
  0.4951820098016139  0.1036283410204937  0.1316071545787456
  0.3954532044234275  0.8418916946823575  0.6535571708364131
  0.4359307035014861  0.0867752851351010  0.5958145316653967
  0.1355793044701340  0.1053812336256976  0.1805367129624883
  0.8883812170261138  0.4545291720780907  0.0169546180138201
  0.2055789747617945  0.8025699555177398  0.3849136312117040
  0.6241549461079413  0.3306397266090799  0.4013593246689915
  0.7936670532850928  0.9897558083653765  0.4780718082117221
  0.8625077115656302  0.9055719635890047  0.5403143685067064
  0.8389363872633733  0.8764232761504744  0.8096573613805625
  0.0370447523606172  0.0610070576332250  0.2495892132686629
  0.9749592039720754  0.1674972565538800  0.2373378269566861
  0.3627559507405801  0.0981249311588739  0.3044581484168660
  0.6108325992847081  0.6846273981525102  0.4846578028345958
  0.9264991023989813  0.7964731420543832  0.7437661903521117
  0.0802028034541871  0.8121216841583933  0.4368860090798025
  0.6090046381906946  0.6570100519284330  0.6803523913802841
  0.3601170193380556  0.2088249643113163  0.7322808886055328
  0.6584089585619640  0.1327770853471371  0.2632041416068545
  0.7357271673028877  0.3499053730448447  0.9101095214348142
  0.7447596053331915  0.3441287209929360  0.6316144982673783
  0.0594528834909781  0.3815863643817590  0.3052928647365479
  0.5395226514156239  0.1926054771131637  0.6846633964424467
  0.5868535866359968  0.1354158258963724  0.8645994852419018
  0.4422208586217931  0.5459081492700675  0.2809841999827772
  0.1041161797261671  0.4919797367158860  0.3679629416952526
  0.8593032226540432  0.7464938010611049  0.9353449829647744
  0.3902715060380255  0.5349841603612279  0.9841203963173446
  0.1259758755401070  0.5528680492612252  0.7585217200610520
  0.1015460831861630  0.8116004327361156  0.8708080992569773
  0.1233986743399712  0.6204041583050176  0.0863204713566638
  0.2807559673742690  0.4994522879286745  0.0315232162258361
  0.0512150000749241  0.5630314872092946  0.0067368744052650
  0.5805190901287757  0.7968569848238357  0.3785509979829950
  0.6689515380066974  0.7091150253065114  0.0087339550838772
  0.4022675198298713  0.7020929267179369  0.9022661334132357
  0.6591166507164674  0.3864358166762181  0.1277899679562986
  0.5545667647667771  0.5268469104400507  0.0046216801867971
  0.0191713343172411  0.9026067985705201  0.2007802568865825
  0.5514658956341100  0.3867265344903406  0.0422572013938385
  0.6398573467238549  0.6496720143738068  0.1387141000679168
  0.7497514973147743  0.0127316838594343  0.7479280074241454
  0.0887624873614217  0.7593905634911166  0.7064837767902907
  0.6555106772890825  0.8075295930120696  0.2027495344969684
  0.6502605473843422  0.5930958054020689  0.5768372302091084
  0.4924252606737898  0.3792554378250865  0.6220964586696707
  0.9901296361153806  0.9132693435944585  0.3731689348162369
  0.9262452670264765  0.9429390527053237  0.1287023107286652
  0.9041393440742053  0.6985912757970333  0.8220028139909993
  0.4839295851200631  0.9159257740786410  0.6003541881645094
  0.3252850096396825  0.5933375054194964  0.1582191991836411
  0.2574317824295840  0.2726173938023882  0.7806724847851015
  0.9675616043490859  0.2126202577515524  0.9313508380310005
  0.7032765764505828  0.5422145460075728  0.1391112499061413
  0.5794830920469572  0.7987468528138777  0.0788748469104957
  0.4926787159331220  0.6985601266353151  0.0752606172117597
  0.7504745579442076  0.2147998588597713  0.1187070128252996
  0.9718189401144081  0.7570240180407009  0.0888257171365885
  0.7756779049980753  0.1705025806343624  0.2323073194077129
  0.1301947565962101  0.7805473169817380  0.2199035241033698
  0.9567707569182102  0.7631109148479790  0.4641591689920528
  0.0007988960183798  0.4151427499319124  0.9712481972774908
  0.4047863851504171  0.7825158622187218  0.4673516508221135
  0.6591943242083137  0.9758074580489110  0.3573081721181205
  0.7493198245923909  0.7678081762250974  0.8260359616688520
  0.2759603484817379  0.4718553067197518  0.8401444551989036
  0.8883982738828287  0.5307962584878572  0.2072667898520130
  0.5365618061639266  0.7460870657490708  0.7641593877802592
  0.4796264642116099  0.9133664262431858  0.9911695992171220
  0.7528786965679015  0.2041348066267823  0.8616326584227115
  0.6205181969438319  0.9569387407514962  0.9791065585481502
  0.4358487781318739  0.2108042999318860  0.5534528119678425
  0.7469798007488203  0.5744673185463880  0.7701787211805905
  0.8036706452296376  0.4028148272178944  0.4487989647239433
  0.6130037128037826  0.3147774389009949  0.9427689881556848
  0.6537614901083735  0.2048928503829909  0.7829555703309292
  0.6901333593034570  0.1313819865327070  0.9683164221875942
  0.4565466402809595  0.4887429044067707  0.6672409262524859
  0.3373591574159595  0.5790663573523230  0.8677257566480006
  0.5780963807759785  0.8715370098268670  0.2785844346036896
  0.8023451165376818  0.5801636840950353  0.0762154293615023
  0.1167291907920974  0.4321050363004033  0.2002062824014179
  0.2071815898844084  0.5043033744313287  0.5759475655424466
  0.1629603560803615  0.5245853745329914  0.8891515193363463
  0.5978138091314177  0.8538021785486669  0.6549174245886902
 -0.0026795890788353  0.0253816188178763  0.0688895166400841
  0.3260543678149995  0.0569337859009137  0.0129569739931395
  0.9929998831390828  0.9278455213687944  0.6897395421127817
  0.5485795982358075  0.0530577195317822  0.3079043400339203
  0.3234280588571755  0.2768310425229383  0.4201247282083611
  0.3545137863668861  0.6997180737546297  0.2108284077921293
  0.3863458145508503  0.9765172019259832  0.2806607998436883
  0.9066736693899314  0.0792770471727693  0.4513377200196430
  0.4324253567434290  0.9154800452091338  0.1170707638651181
  0.0178169754403709  0.3583857737574749  0.1348396860700753
  0.7052125892909713  0.2214729420487224  0.6015450379896644
  0.5637130877112692  0.7721191295675048  0.8897117012968556
  0.6185295709146538  0.4051366855087069  0.7646563867716364
  0.5053751034014512  0.4680414235898626  0.8446428046476606
  0.3373931672413890  0.2403546911680189  0.2955833513250470
  0.3934499793918044  0.4223531935389171  0.7941944830692502
  0.4774905406035475  0.1383537189883663  0.2556160831696641
  0.6325009244842713  0.4040775342876390  0.5957781383316065
  0.2630681064749558  0.5448142350721568  0.4121836743665614
  0.5091505412531790  0.8597754472074234  0.4860101997359382
  0.4691514734600196  0.3069183333985822  0.7183778926433799
  0.7620578286087729  0.4065071958048027  0.2047681907003385
  0.4603417921389183  0.5419822745972712  0.0946003153650386
  0.7502790120192425  0.6182314176783399  0.9640753423142111
  0.2361109985766135  0.0941175481279553  0.3566031740844745
  0.0894356024790522  0.2504496578878065  0.6707943034220213
  0.9111227024358842  0.1285063558187253  0.7641213044697840
  0.8439214101305998  0.4996805431224266  0.6069850828987086
  0.4656845517834850  0.7187664188586725  0.3517834011861335
  0.6704198598045547  0.0063898039969380  0.2292302392145210
  0.0446550466410271  0.7064556618559907  0.3809246602118110
  0.4999306470834716  0.6749180788619831  0.2351008120218897
  0.2871882096761576  0.5998296146193275  0.7141922464639289
  0.5851332317809320  0.2193000829082904  0.3556341342574117
  0.8047408603306195  0.9797819816442848  0.3452560784359460
  0.2879737776259092  0.4160659940823094  0.2632530734086658
  0.2102571950418913  0.8146336772575736  0.5762147984205612
  0.7879166053999868  0.9773956835186911  0.2097054667808083
  0.2472874847908542  0.7055683917211477  0.6332158442850685
  0.2284872895525571  0.6466000665207416  0.9131435633840342
  0.9284655566244345  0.4107772855625474  0.5714168411689901
  0.4051240409730977  0.3344314652591634  0.8846845142495467
  0.2590044177602826  0.2299756517476060  0.5955575964910520
  0.1324567046461172  0.3170140292040334  0.8209287666988411
  0.7895018552247045  0.0595603101639315  0.6370459902894221
  0.4164187077311349  0.1889818249300209  0.4352975973754767
  0.4784669943421793  0.4247336266172025  0.1457209793421235
  0.0846642106663087  0.2069534505801786  0.3520286460386565
  0.1575169251817598  0.6933510414888705  0.3141486018482237
  0.1382884668798326  0.3829282984850979  0.5389367860595430
  0.7790700914436025  0.5976365354004888  0.2767951771835037
  0.8109028039362840  0.2926906654984493  0.3010343078231578
  0.0205750299549167  0.2920176964455498  0.4126013221424124
  0.9559373957784766  0.6503679825666709  0.9804970472795085
  0.2848518635919203  0.9092813010147480  0.6116182071949117
  0.3427179436508216  0.1389378518189576  0.1034997410824196
  0.1026914220256381  0.8707759151152181  0.6495138390116207
  0.9944752251767052  0.5329917774996317  0.8287562901133060
  0.1889283806542387  0.9938074321277970  0.1841111614722775
  0.4621357994234740  0.4224004685282478  0.4708148458513732
  0.7059727323590574  0.7497989420486555  0.5617661872649246
  0.6298797680307824  0.2744548436755886  0.1729276780859153
  0.5162419455164826  0.5902041005478812  0.8297167154143668
  0.1338034826960675  0.7285052863599131  0.9633120516250876
  0.9730307529571715  0.6966646025491660  0.5706435259928268
  0.3448671104413901  0.3213173742775291  0.5470156581102847
  0.9677848401605139  0.9704214992114425  0.5583667691691673
  0.4252976362847301  0.0655208239090799  0.8479144751451455
  0.8445290136337614  0.2723308034602479  0.6826688157998141
  0.2174169580744446  0.3737945308639525  0.4334675914265085
  0.8128594636422427  0.6801511854479246  0.5360360697803257
  0.8222212138022567  0.7271935747543498  0.2230872039529536
  0.0900933573165706  0.5511001400941549  0.6336975382335845
  0.8743431977729756  0.5665149287248799  0.5000433283482100
  0.9956324429732070  0.5745330643652558  0.4990753003568504
  0.4022492295659815  0.5412919424157699  0.5607527629607125
  0.6205178756855996  0.6545569171631805  0.2650349277477491
  0.0101251604855251  0.6876953484984365  0.2185245613896064
  0.3644634476310198  0.8720991253416457  0.9580168119465293
  0.5127720211729225  0.7108900394220437  0.6288694524441689
  0.2016290802394272  0.8851060452016086  0.8695076946054998
  0.1024696273839168  0.0573910533720717  0.9311559255976809
  0.6202079477679797  0.5433677159900520  0.3490851647939925
  0.8580606390582677  0.2075336079757636  0.9862550892193737
  0.4764239022774659  0.1783353247825327  0.8160943594840333
  0.5586238784067171  0.1265767855408077  0.0038821503812260
  0.8965645706173305  0.5760067047182110  0.8976037798528942
  0.3123048165520705  0.0594718566410046  0.6085603482661067
  0.7791931063211054  0.1450108669521579  0.7502602060084649
  0.2006150832243045  0.5050639777561668  0.2646926641132112
  0.7100457316137561  0.0813800439180977  0.4025310305170403
  0.1030721147664654  0.1458940462678857  0.8365660641282556
  0.9202967727126306  0.3196481116969010  0.2122869018918400
  0.0340727802800099  0.1834822373674466  0.0577725896001722
  0.3750682784176652  0.4546820079197083  0.3396635939031403
  0.1813186154209740  0.9958383364642787  0.6195271498318782
  0.9365687344421585  0.0671775497909057  0.6348497118932740
  0.5434367185061371  0.4812938623360603  0.2409590704053487
  0.7785603560832487  0.8646355488579355  0.0546465435431341
  0.0968946308800831  0.6927569764643854  0.6028560326478563
  0.7932524187896597  0.6310731677432254  0.6625302011599884
  0.6749844154147165  0.8716702848601867  0.9036943061870480
  0.6735186925699871  0.9262470680791354  0.5915452203830024
  0.9092280619401149  0.6529031961633004  0.1450589314285217
  0.0424424783751110  0.0661337493254137  0.7620346343299802
  0.4629500535789033  0.9420945096860054  0.3747934302878032
  0.9344895566507240  0.3562243011085811  0.6846016688100738
  0.2409141059694623  0.9200682044410778  0.4374134594309991
  0.5611107382749129  0.9857081681113107  0.5044652180558290
  0.9119163209992945  0.8326031260535663  0.0102304427609502
  0.2668208250513944  0.7402373167904071  0.7541970858448416
  0.7529210487644189  0.7517622694942275  0.0959208660808308
  0.2312185612097895  0.8438297182043214  0.2594770807151349
  0.1063352570892001  0.8592979692839210  0.0962245419778442
  0.7290958615352693  0.8547176489596550  0.5009883545153720
  0.2888754309615342  0.3156368725745602  0.9140064795751580
  0.9220359642562190  0.5114178688202169  0.7189090979955455
  0.2998221706380947  0.4386353132336817  0.5031854205500984
  0.5143426574908050  0.3039222136044828  0.2139364058058580
  0.2970803275994223  0.0958434236777330  0.7442387405414594
  0.0887137571271207  0.2502446047585831  0.1482868298236644
  0.2297793593443650  0.1953917824762745  0.1126483952557733
  0.5441122542927632  0.5133883251227123  0.5098717357513478
  0.8726674989370032  0.3911549704106485  0.3486354801860159
  0.5489524926295848  0.3215365195417337  0.8316398031118889
  0.0834865702135094  0.1206234814870098  0.6491834522426922
  0.0651690236152100  0.4240942550295248  0.6484350325178676
  0.5254590468644534  0.6388768832893347  0.9537609620626851
  0.4074485778788350  0.6343031492888156  0.6672375889216993
  0.3527355460140463  0.1443094692764914  0.9239890756336961
  0.4013064068773956  0.7250074709518579  0.7620754984189133
  0.6726753239237963  0.4980594635346541  0.6680000748785657
 
  0.00000000E+00  0.00000000E+00  0.00000000E+00
  0.00000000E+00  0.00000000E+00  0.00000000E+00
  0.00000000E+00  0.00000000E+00  0.00000000E+00
  0.00000000E+00  0.00000000E+00  0.00000000E+00
  0.00000000E+00  0.00000000E+00  0.00000000E+00
  0.00000000E+00  0.00000000E+00  0.00000000E+00
  0.00000000E+00  0.00000000E+00  0.00000000E+00
  0.00000000E+00  0.00000000E+00  0.00000000E+00
  0.00000000E+00  0.00000000E+00  0.00000000E+00
  0.00000000E+00  0.00000000E+00  0.00000000E+00
  0.00000000E+00  0.00000000E+00  0.00000000E+00
  0.00000000E+00  0.00000000E+00  0.00000000E+00
  0.00000000E+00  0.00000000E+00  0.00000000E+00
  0.00000000E+00  0.00000000E+00  0.00000000E+00
  0.00000000E+00  0.00000000E+00  0.00000000E+00
  0.00000000E+00  0.00000000E+00  0.00000000E+00
  0.00000000E+00  0.00000000E+00  0.00000000E+00
  0.00000000E+00  0.00000000E+00  0.00000000E+00
  0.00000000E+00  0.00000000E+00  0.00000000E+00
  0.00000000E+00  0.00000000E+00  0.00000000E+00
  0.00000000E+00  0.00000000E+00  0.00000000E+00
  0.00000000E+00  0.00000000E+00  0.00000000E+00
  0.00000000E+00  0.00000000E+00  0.00000000E+00
  0.00000000E+00  0.00000000E+00  0.00000000E+00
  0.00000000E+00  0.00000000E+00  0.00000000E+00
  0.00000000E+00  0.00000000E+00  0.00000000E+00
  0.00000000E+00  0.00000000E+00  0.00000000E+00
  0.00000000E+00  0.00000000E+00  0.00000000E+00
  0.00000000E+00  0.00000000E+00  0.00000000E+00
  0.00000000E+00  0.00000000E+00  0.00000000E+00
  0.00000000E+00  0.00000000E+00  0.00000000E+00
  0.00000000E+00  0.00000000E+00  0.00000000E+00
  0.00000000E+00  0.00000000E+00  0.00000000E+00
  0.00000000E+00  0.00000000E+00  0.00000000E+00
  0.00000000E+00  0.00000000E+00  0.00000000E+00
  0.00000000E+00  0.00000000E+00  0.00000000E+00
  0.00000000E+00  0.00000000E+00  0.00000000E+00
  0.00000000E+00  0.00000000E+00  0.00000000E+00
  0.00000000E+00  0.00000000E+00  0.00000000E+00
  0.00000000E+00  0.00000000E+00  0.00000000E+00
  0.00000000E+00  0.00000000E+00  0.00000000E+00
  0.00000000E+00  0.00000000E+00  0.00000000E+00
  0.00000000E+00  0.00000000E+00  0.00000000E+00
  0.00000000E+00  0.00000000E+00  0.00000000E+00
  0.00000000E+00  0.00000000E+00  0.00000000E+00
  0.00000000E+00  0.00000000E+00  0.00000000E+00
  0.00000000E+00  0.00000000E+00  0.00000000E+00
  0.00000000E+00  0.00000000E+00  0.00000000E+00
  0.00000000E+00  0.00000000E+00  0.00000000E+00
  0.00000000E+00  0.00000000E+00  0.00000000E+00
  0.00000000E+00  0.00000000E+00  0.00000000E+00
  0.00000000E+00  0.00000000E+00  0.00000000E+00
  0.00000000E+00  0.00000000E+00  0.00000000E+00
  0.00000000E+00  0.00000000E+00  0.00000000E+00
  0.00000000E+00  0.00000000E+00  0.00000000E+00
  0.00000000E+00  0.00000000E+00  0.00000000E+00
  0.00000000E+00  0.00000000E+00  0.00000000E+00
  0.00000000E+00  0.00000000E+00  0.00000000E+00
  0.00000000E+00  0.00000000E+00  0.00000000E+00
  0.00000000E+00  0.00000000E+00  0.00000000E+00
  0.00000000E+00  0.00000000E+00  0.00000000E+00
  0.00000000E+00  0.00000000E+00  0.00000000E+00
  0.00000000E+00  0.00000000E+00  0.00000000E+00
  0.00000000E+00  0.00000000E+00  0.00000000E+00
  0.00000000E+00  0.00000000E+00  0.00000000E+00
  0.00000000E+00  0.00000000E+00  0.00000000E+00
  0.00000000E+00  0.00000000E+00  0.00000000E+00
  0.00000000E+00  0.00000000E+00  0.00000000E+00
  0.00000000E+00  0.00000000E+00  0.00000000E+00
  0.00000000E+00  0.00000000E+00  0.00000000E+00
  0.00000000E+00  0.00000000E+00  0.00000000E+00
  0.00000000E+00  0.00000000E+00  0.00000000E+00
  0.00000000E+00  0.00000000E+00  0.00000000E+00
  0.00000000E+00  0.00000000E+00  0.00000000E+00
  0.00000000E+00  0.00000000E+00  0.00000000E+00
  0.00000000E+00  0.00000000E+00  0.00000000E+00
  0.00000000E+00  0.00000000E+00  0.00000000E+00
  0.00000000E+00  0.00000000E+00  0.00000000E+00
  0.00000000E+00  0.00000000E+00  0.00000000E+00
  0.00000000E+00  0.00000000E+00  0.00000000E+00
  0.00000000E+00  0.00000000E+00  0.00000000E+00
  0.00000000E+00  0.00000000E+00  0.00000000E+00
  0.00000000E+00  0.00000000E+00  0.00000000E+00
  0.00000000E+00  0.00000000E+00  0.00000000E+00
  0.00000000E+00  0.00000000E+00  0.00000000E+00
  0.00000000E+00  0.00000000E+00  0.00000000E+00
  0.00000000E+00  0.00000000E+00  0.00000000E+00
  0.00000000E+00  0.00000000E+00  0.00000000E+00
  0.00000000E+00  0.00000000E+00  0.00000000E+00
  0.00000000E+00  0.00000000E+00  0.00000000E+00
  0.00000000E+00  0.00000000E+00  0.00000000E+00
  0.00000000E+00  0.00000000E+00  0.00000000E+00
  0.00000000E+00  0.00000000E+00  0.00000000E+00
  0.00000000E+00  0.00000000E+00  0.00000000E+00
  0.00000000E+00  0.00000000E+00  0.00000000E+00
  0.00000000E+00  0.00000000E+00  0.00000000E+00
  0.00000000E+00  0.00000000E+00  0.00000000E+00
  0.00000000E+00  0.00000000E+00  0.00000000E+00
  0.00000000E+00  0.00000000E+00  0.00000000E+00
  0.00000000E+00  0.00000000E+00  0.00000000E+00
  0.00000000E+00  0.00000000E+00  0.00000000E+00
  0.00000000E+00  0.00000000E+00  0.00000000E+00
  0.00000000E+00  0.00000000E+00  0.00000000E+00
  0.00000000E+00  0.00000000E+00  0.00000000E+00
  0.00000000E+00  0.00000000E+00  0.00000000E+00
  0.00000000E+00  0.00000000E+00  0.00000000E+00
  0.00000000E+00  0.00000000E+00  0.00000000E+00
  0.00000000E+00  0.00000000E+00  0.00000000E+00
  0.00000000E+00  0.00000000E+00  0.00000000E+00
  0.00000000E+00  0.00000000E+00  0.00000000E+00
  0.00000000E+00  0.00000000E+00  0.00000000E+00
  0.00000000E+00  0.00000000E+00  0.00000000E+00
  0.00000000E+00  0.00000000E+00  0.00000000E+00
  0.00000000E+00  0.00000000E+00  0.00000000E+00
  0.00000000E+00  0.00000000E+00  0.00000000E+00
  0.00000000E+00  0.00000000E+00  0.00000000E+00
  0.00000000E+00  0.00000000E+00  0.00000000E+00
  0.00000000E+00  0.00000000E+00  0.00000000E+00
  0.00000000E+00  0.00000000E+00  0.00000000E+00
  0.00000000E+00  0.00000000E+00  0.00000000E+00
  0.00000000E+00  0.00000000E+00  0.00000000E+00
  0.00000000E+00  0.00000000E+00  0.00000000E+00
  0.00000000E+00  0.00000000E+00  0.00000000E+00
  0.00000000E+00  0.00000000E+00  0.00000000E+00
  0.00000000E+00  0.00000000E+00  0.00000000E+00
  0.00000000E+00  0.00000000E+00  0.00000000E+00
  0.00000000E+00  0.00000000E+00  0.00000000E+00
  0.00000000E+00  0.00000000E+00  0.00000000E+00
  0.00000000E+00  0.00000000E+00  0.00000000E+00
  0.00000000E+00  0.00000000E+00  0.00000000E+00
  0.00000000E+00  0.00000000E+00  0.00000000E+00
  0.00000000E+00  0.00000000E+00  0.00000000E+00
  0.00000000E+00  0.00000000E+00  0.00000000E+00
  0.00000000E+00  0.00000000E+00  0.00000000E+00
  0.00000000E+00  0.00000000E+00  0.00000000E+00
  0.00000000E+00  0.00000000E+00  0.00000000E+00
  0.00000000E+00  0.00000000E+00  0.00000000E+00
  0.00000000E+00  0.00000000E+00  0.00000000E+00
  0.00000000E+00  0.00000000E+00  0.00000000E+00
  0.00000000E+00  0.00000000E+00  0.00000000E+00
  0.00000000E+00  0.00000000E+00  0.00000000E+00
  0.00000000E+00  0.00000000E+00  0.00000000E+00
  0.00000000E+00  0.00000000E+00  0.00000000E+00
  0.00000000E+00  0.00000000E+00  0.00000000E+00
  0.00000000E+00  0.00000000E+00  0.00000000E+00
  0.00000000E+00  0.00000000E+00  0.00000000E+00
  0.00000000E+00  0.00000000E+00  0.00000000E+00
  0.00000000E+00  0.00000000E+00  0.00000000E+00
  0.00000000E+00  0.00000000E+00  0.00000000E+00
  0.00000000E+00  0.00000000E+00  0.00000000E+00
  0.00000000E+00  0.00000000E+00  0.00000000E+00
  0.00000000E+00  0.00000000E+00  0.00000000E+00
  0.00000000E+00  0.00000000E+00  0.00000000E+00
  0.00000000E+00  0.00000000E+00  0.00000000E+00
  0.00000000E+00  0.00000000E+00  0.00000000E+00
  0.00000000E+00  0.00000000E+00  0.00000000E+00
  0.00000000E+00  0.00000000E+00  0.00000000E+00
  0.00000000E+00  0.00000000E+00  0.00000000E+00
  0.00000000E+00  0.00000000E+00  0.00000000E+00
  0.00000000E+00  0.00000000E+00  0.00000000E+00
  0.00000000E+00  0.00000000E+00  0.00000000E+00
  0.00000000E+00  0.00000000E+00  0.00000000E+00
  0.00000000E+00  0.00000000E+00  0.00000000E+00
  0.00000000E+00  0.00000000E+00  0.00000000E+00
  0.00000000E+00  0.00000000E+00  0.00000000E+00
  0.00000000E+00  0.00000000E+00  0.00000000E+00
  0.00000000E+00  0.00000000E+00  0.00000000E+00
  0.00000000E+00  0.00000000E+00  0.00000000E+00
  0.00000000E+00  0.00000000E+00  0.00000000E+00
  0.00000000E+00  0.00000000E+00  0.00000000E+00
  0.00000000E+00  0.00000000E+00  0.00000000E+00
  0.00000000E+00  0.00000000E+00  0.00000000E+00
  0.00000000E+00  0.00000000E+00  0.00000000E+00
  0.00000000E+00  0.00000000E+00  0.00000000E+00
  0.00000000E+00  0.00000000E+00  0.00000000E+00
  0.00000000E+00  0.00000000E+00  0.00000000E+00
  0.00000000E+00  0.00000000E+00  0.00000000E+00
  0.00000000E+00  0.00000000E+00  0.00000000E+00
  0.00000000E+00  0.00000000E+00  0.00000000E+00
  0.00000000E+00  0.00000000E+00  0.00000000E+00
  0.00000000E+00  0.00000000E+00  0.00000000E+00
  0.00000000E+00  0.00000000E+00  0.00000000E+00
  0.00000000E+00  0.00000000E+00  0.00000000E+00
  0.00000000E+00  0.00000000E+00  0.00000000E+00
  0.00000000E+00  0.00000000E+00  0.00000000E+00
  0.00000000E+00  0.00000000E+00  0.00000000E+00
  0.00000000E+00  0.00000000E+00  0.00000000E+00
  0.00000000E+00  0.00000000E+00  0.00000000E+00
  0.00000000E+00  0.00000000E+00  0.00000000E+00
  0.00000000E+00  0.00000000E+00  0.00000000E+00
  0.00000000E+00  0.00000000E+00  0.00000000E+00
  0.00000000E+00  0.00000000E+00  0.00000000E+00
  0.00000000E+00  0.00000000E+00  0.00000000E+00
  0.00000000E+00  0.00000000E+00  0.00000000E+00
  0.00000000E+00  0.00000000E+00  0.00000000E+00
  0.00000000E+00  0.00000000E+00  0.00000000E+00
  0.00000000E+00  0.00000000E+00  0.00000000E+00
  0.00000000E+00  0.00000000E+00  0.00000000E+00
  0.00000000E+00  0.00000000E+00  0.00000000E+00
  0.00000000E+00  0.00000000E+00  0.00000000E+00
  0.00000000E+00  0.00000000E+00  0.00000000E+00
  0.00000000E+00  0.00000000E+00  0.00000000E+00
  0.00000000E+00  0.00000000E+00  0.00000000E+00
  0.00000000E+00  0.00000000E+00  0.00000000E+00
  0.00000000E+00  0.00000000E+00  0.00000000E+00
  0.00000000E+00  0.00000000E+00  0.00000000E+00
  0.00000000E+00  0.00000000E+00  0.00000000E+00
  0.00000000E+00  0.00000000E+00  0.00000000E+00
  0.00000000E+00  0.00000000E+00  0.00000000E+00
  0.00000000E+00  0.00000000E+00  0.00000000E+00
  0.00000000E+00  0.00000000E+00  0.00000000E+00
  0.00000000E+00  0.00000000E+00  0.00000000E+00
  0.00000000E+00  0.00000000E+00  0.00000000E+00
  0.00000000E+00  0.00000000E+00  0.00000000E+00
  0.00000000E+00  0.00000000E+00  0.00000000E+00
  0.00000000E+00  0.00000000E+00  0.00000000E+00
  0.00000000E+00  0.00000000E+00  0.00000000E+00
  0.00000000E+00  0.00000000E+00  0.00000000E+00
  0.00000000E+00  0.00000000E+00  0.00000000E+00
  0.00000000E+00  0.00000000E+00  0.00000000E+00
  0.00000000E+00  0.00000000E+00  0.00000000E+00
  0.00000000E+00  0.00000000E+00  0.00000000E+00
  0.00000000E+00  0.00000000E+00  0.00000000E+00
  0.00000000E+00  0.00000000E+00  0.00000000E+00
  0.00000000E+00  0.00000000E+00  0.00000000E+00
  0.00000000E+00  0.00000000E+00  0.00000000E+00
  0.00000000E+00  0.00000000E+00  0.00000000E+00
  0.00000000E+00  0.00000000E+00  0.00000000E+00
  0.00000000E+00  0.00000000E+00  0.00000000E+00
  0.00000000E+00  0.00000000E+00  0.00000000E+00
  0.00000000E+00  0.00000000E+00  0.00000000E+00
  0.00000000E+00  0.00000000E+00  0.00000000E+00