Amorphous Sb                            
  0.935000000000000     
    20.1278869700586895    0.0000000000000000    0.0000000000000000
     0.0000000000000000   20.1278869700586895    0.0000000000000000
     0.0000000000000000    0.0000000000000000   20.1278869700586895
   Ge   Se
   150   150
Direct
  0.5191780358008053  0.7050561735571806  0.7923665655339074
  0.2076028712082373  0.4284935009374353  0.7963735867036449
  0.3803846723099114  0.3237082194010984  0.6162048574086023
  0.8204705985019470  0.0451826522837295  0.6292996648908532
  0.8864753395854004  0.6244154234917269  0.6643034591015831
  0.2401127719453779  0.6936047963949792  0.9708905409351846
  0.1244005775026315  0.1439296996697506  0.3490993857436729
  0.3548823313815659  0.6106585924284248  0.7959642197369060
  0.3497224659952435  0.8895778519783298  0.2254551513917255
  0.3740924023130937  0.0010225819282975  0.4223547782550311
  0.0035548708251987  0.0469433586243353  0.4430953703336288
  0.6390876550218157  0.3698545484005171  0.8672936250511026
  0.6291192031750804  0.4233828263214966  0.5784940259773416
  0.2793087791437211  0.0055842861839404  0.8320480556171220
  0.6705585081945973  0.9501888546693924  0.4175666885294863
  0.0145848606225180  0.7677446870806928  0.1006702335148157
  0.0495204487740237  0.7460980532845356  0.3414519902384544
  0.7924795376172554  0.4218067660742645  0.3959650656065460
  0.1462595123985239  0.4912566746940374  0.9569009460577772
  0.0468868093191149  0.9233764718852626  0.4950913238656344
  0.1497118838838031  0.8404910850833787  0.1931187061399623
  0.4541067087225418  0.7439870267774087  0.9832561526645103
 -0.0067010550631225  0.1957972619041763  0.9390648916745036
  0.0143249006563325  0.0780572932177177  0.1317538762867791
  0.5683055119065691  0.3053541858172594  0.1790024693754129
  0.3695059843671388  0.1419288397258686  0.5881853013860912
  0.3742245198695699  0.7631136885935225  0.5623734096778514
  0.7812326086394150  0.9430122627267065  0.0431278944093496
  0.7761152728616689  0.5447914018630456  0.5527605587800329
  0.9386068992812634  0.7820068072285297  0.5825899569603592
  0.0820105661915242  0.3333762375275793  0.7613178000840420
  0.0082441122740161  0.0955928106339648  0.2677663831237668
  0.9017750431175298  0.5007007521894183  0.4303939082154695
  0.3841612539789240  0.4410963462365058  0.2482603185118958
  0.0361549125630069  0.5506312357539495  0.5740033774160705
  0.7021021557589959  0.7568985308445139  0.1452378492143760
  0.4374991630829463  0.4829007319688863  0.9302576949917765
  0.2655006955146771  0.0529820406084330  0.2249671164381183
  0.2694036257686621  0.3546922116696903  0.1066310002106069
  0.7628463371895460  0.3966189562097031  0.7712501468398176
  0.8538334810924442  0.8005807318271297  0.4012091939717133
  0.9425479546538024  0.1970792169546514  0.5564736713930466
  0.5600484169105572  0.8521101633027206  0.5459578490176250
  0.3652851838314162  0.9935489653110954  0.0745216627994872
  0.3731516605996291  0.6573380041308591  0.2278455467734641
  0.4012569957527527  0.4228496656328913  0.5003802643875572
  0.8908485687641343  0.8161120185017332  0.1630513349443356
  0.0801838034912980  0.3595273158093703  0.4134859046719787
  0.9818753228765105  0.7474096717251348  0.8084837225188657
  0.5438992978819651  0.0609301061925759  0.3003605287328423
  0.2675045699373818  0.4230757483897533  0.9337302833737103
  0.0396674983978512  0.2698070974897563  0.1500592088741347
  0.6291418734046414  0.6737283376726587  0.8812086360713210
  0.5906008174854266  0.3349747702434354  0.7458188174878828
  0.0396652578441604  0.5879777398798346  0.3330984225228675
  0.0191974492357312  0.9109369341206203  0.2144100241907456
  0.1886964153906432  0.5702049135696503  0.4599851963318298
  0.9519053128318892  0.3447483876214698  0.5630457907766534
  0.0938055988199144  0.0663607846954573  0.8202926787415862
  0.5160340147811711  0.4267576764413515  0.3268971671547318
  0.6773544241919786  0.1355178291935710  0.1155646361989054
  0.5431417209269767  0.6951904494249885  0.2888673455394754
  0.9273484852956975  0.6710180667295000  0.2645580435307241
  0.8419700886794401  0.0151971116694833  0.8264464748546586
  0.5627776044735846  0.8467622125372026  0.0515812306299357
  0.1267177145641833  0.3273856050226723  0.9463260611790791
  0.8172762746292693  0.8508036570688903  0.5308714020135923
  0.7340565345643728  0.7627764056823017  0.6923983088895016
  0.8284166426103192  0.2693473008904850  0.1458310790505531
  0.8679492418115515  0.3027083213583285 -0.0464586856757136
  0.9644000388948670  0.4321571839127371  0.7171272420689878
  0.4133371385011467  0.1603938954629743  0.1575399196215908
  0.3643185530883468  0.5242516587118087  0.4132174178541231
  0.4443288292846282  0.8511006367320056  0.3976402840719034
  0.3297686083163161  0.4439632998812272  0.6728499104426197
  0.7015489941580942  0.0058391970268414  0.1418853132305668
  0.2461041485356668  0.2286034567932771  0.1604384133016430
  0.8459583101408505  0.0796480178518799  0.0230384565249373
  0.2403137203888470  0.8451203168181808  0.9393367110662391
  0.3788395782946617  0.2115071068983825  0.0172957681900038
  0.6270551739028331  0.9779703308812396  0.8789484612105615
  0.9836712254832047  0.6096296342578963  0.8574876940205336
  0.8220141379746180  0.4686061528671728  0.0660837114324946
  0.7221204710739821  0.5200781978913080  0.3432140038111454
  0.3536586280023198  0.1283179501052622  0.7215622258956554
  0.6040802437225083  0.1639175467096654  0.0096453330891634
  0.5026872466848125  0.6504051377278237  0.6119678240288356
  0.7737098189776382  0.2628534757010405  0.5143791344324643
  0.6585189052237549  0.5832203755711631  0.1557079044809135
  0.5500550980972471  0.2456906279226095  0.4075710152221474
  0.7046917434173855  0.1416857869774279  0.9048772255903783
  0.1035245532711351  0.1114342481891565  0.6124590328072148
  0.2958786307093702  0.5905693603361263  0.5789322900543884
  0.7631809015053943  0.0539199615012890  0.4399406099739444
  0.6588183141881742  0.9508304191872525  0.5891687878272707
  0.6604482443197978  0.6966243616838518  0.5084970738437513
  0.4325549090975951  0.9471593566384822  0.9388873602653067
  0.1403450309054734  0.4546381139269902  0.6303600316220973
  0.1690909503954827  0.7791750927383690  0.4761261234096436
  0.2151598963233263  0.1304135261843402  0.8369860299950401
  0.1323257818650880  0.4131509206671944  0.2293948025351725
  0.5357945968548655  0.2972433712858067  0.9200143463536473
  0.2104909902264252  0.5084573405616069  0.0943049687684777
  0.8500628793368634  0.0470319502357595  0.1937829214843997
  0.4296940631662799  0.8583012949542815  0.7649516922610660
  0.7419333826245766  0.7069625826369889  0.0074236958089911
  0.0149444041844438  0.4548487735998082  0.0048207404143379
  0.0557747358400790  0.6525926250810181  0.0444427651952434
  0.7020192174732186  0.1984535582371798  0.7168554960534953
  0.6933849863983557  0.9248835248021550  0.7717625579361065
  0.1019495980256242  0.8900909989600931  0.6911208823772699
  0.0860384458538790  0.9468697613681194  0.0075703000385800
  0.1411350967606634  0.9629610206755383  0.3731609624810865
  0.7517016265923153  0.1528790628782853  0.3130205623120678
  0.7423674277586892  0.8093587565373044  0.3188731494974802
  0.7370710498632893  0.6389343416524873  0.4033274212436305
  0.4402022667796958  0.2620075664099217  0.2905612777531565
  0.6945161356886151  0.6140941628596114  0.7255987601808087
  0.3353014482990413  0.2200855922137304  0.4386748688367669
  0.0424908391142292  0.9471935473702238  0.7927937966969119
  0.9464310023019240  0.4371815311587746  0.1927866228191339
  0.8960247240431121  0.2532908845313750  0.3584306192032550
  0.8119953769648566  0.6319916464814889  0.8235876859177655
  0.9165535462449639  0.9268341630247960  0.9548014356909549
  0.2347175765572075  0.3841981412101506  0.3998099683179089
  0.2247642789113197  0.6816712516092652  0.6692478063393233
  0.3582429358436297  0.9575459641697082  0.5607523093517075
  0.5756322081705425  0.8379982290072598  0.7575151970695285
  0.1683715947767382  0.1148165923201304  0.9838088619481781
  0.3035526516684726  0.8055996613517327  0.0731780174217461
  0.5356291884701582  0.5694443627353074  0.4479148679430027
  0.8744192281068655  0.7502323558279370  0.8994443235207316
  0.4907503174427215  0.1671454770209628  0.8960050385898060
  0.4695202118058507  0.5099353773046527  0.1508158379538486
  0.0423021544364812  0.7158505429132628  0.6386821228114583
  0.2024560425097789  0.6374563045356392  0.2322835750036669
  0.2850653179417149  0.2743029643589968  0.8014846813455689
  0.5275741249665222  0.0924582380304057  0.4818880614293132
  0.3095129873277573  0.7165475442405141  0.3633230368101136
  0.3010693936888769  0.8244676363114271  0.7439285431794775
  0.7261770439930169  0.4029647294424349  0.2257033058309601
  0.6147515096203299  0.4525899695344222  0.0289681705385135
  0.1695834999002848  0.9885342228265360  0.6306235028824363
  0.8958769334801508  0.2385549072499233  0.7650579709433083
  0.5735500645485990  0.1766207998789646  0.5912634630555085
  0.1376442257134321  0.2187755721829543  0.5117680946243434
  0.1538217332984677  0.6167895104529044  0.8148447937866747
  0.5288128490715437  0.9090793107178525  0.2328523988868465
  0.4677616020717871  0.4968101940534401  0.7628491327894503
  0.9207832543868688  0.4611863564676565  0.9020622497172149
  0.8552141821166255  0.1207704426330793  0.8941057253961281
  0.8562721381476777  0.9647258248537017  0.4700345795530680
  0.0820452004732377  0.7171686799089880  0.2091044327308754
  0.9229932989150155  0.4777080995146257  0.5938002931367020
  0.3549342532652701  0.6812993569689931  0.0472514657081863
  0.1138446950563096  0.0029828768908418  0.2478096655737603
  0.5933952559558525  0.4577813373543256  0.1667284512825808
  0.7049360553133119  0.0814058366130696  0.5631840242816760
  0.5948974207605140  0.2896771737080788  0.0368304210577049
  0.1333420330487336  0.0779404253813817  0.4758588068016795
  0.9353586374335595  0.8155115725459178  0.2980236759942017
  0.7432347319753896  0.0517155551464101  0.7514904318763163
  0.7756124489292942  0.7010906391806467  0.5798606410478525
  0.2551704901240558  0.8056097893777719  0.6235191357927812
  0.8629442277149344  0.6875302880311812  0.1509545655762975
  0.4808020558825419  0.1081356894390549  0.0143859969190526
  0.2805764751806969  0.1320981352935228  0.0700231802460299
  0.3179763060592291  0.8236670415951549  0.4487012110989752
  0.9266062477778135 -0.0202513984728436  0.7395745024657919
  0.7055371024077413  0.2261218099122853  0.2054036808588083
  0.6837092879934870  0.0211943424756344 -0.0134714277394747
  0.5606105768718502  0.2115219213561209  0.7303370133260794
  0.1339271450274791  0.0441721790216582  0.0912748816418741
  0.8772716401318313  0.5078211139806295  0.7880768087122678
  0.2396032294331043  0.3604659536261017  0.2648521545486078
  0.3433626162276499  0.4079966009841428  0.8247719133707643
  0.2688299255157744  0.7750466893274948  0.1992955554038777
  0.2739331567003528  0.9708312787488634  0.3356910167294288
  0.3283423065393609  0.4840410358408859  0.0299638981843159
  0.4040107713374853  0.0334624707743259  0.2046803139086965
  0.4561289076455718  0.2355275088666713  0.5453052373568085
  0.4291102866568433  0.3282121812507235  0.1714853646390631
  0.9283240951743167 -0.0106777283390250  0.2851702968841306
  0.4200587896118088  0.8648535343022312  0.1032159587681549
  0.0692490325435270  0.5095493765371930  0.4377707636054165
  0.0804844484248068  0.4980771092887640  0.8412462251910985
  0.5556092540674565  0.4763339768140814  0.8635793924836164
  0.2910866623072491  0.9881189610359283  0.6733491375499939
  0.5331528565024670  0.1715170095900171  0.2136978218863801
  0.9247872953301898  0.5240107080462311  0.2988925149014822
  0.5961355764325812  0.5396064765286048  0.3250235515847550
  0.3577716075145141  0.1661977246558665  0.8844976289280400
  0.1776510765101396  0.9197160427427457  0.5189844671439581
  0.0351125241292436  0.2227814160107264  0.4159199167040423
  0.5477717657285144  0.8808453772552840  0.9090667233705039
  0.5832664398173431  0.9673861177219091  0.7009143026185128
  0.7285079792996194  0.4994668380859391  0.6722555980389978
  0.1554940861901055  0.8345034912279028  0.3388927277503470
  0.9439106025243774  0.3718096925769386  0.4300310109185435
  0.5087580968416949  0.7561508673340788  0.4666416466375459
  0.8624880360132268  0.3479038468463715  0.6936605625746775
  0.3561713304079726  0.6412446854610394  0.4679017833894112
  0.7461920339485585  0.2585694874424467  0.8313850108598372
  0.2974295564717225  0.0913023285487675  0.4914311554658000
  0.7666754460289205  0.8602785712113653  0.2002737166473265
  0.7681816431600140  0.5338966621891826  0.2200236104962189
  0.1716424605627959  0.6742733504213091  0.3788953329865237
  0.0182792042851205  0.8603543778950100  0.8833053684100143
  0.8003002720662635  0.4212952071657269  0.9384734772193672
  0.9805314649219214  0.0677546345802763  0.5735132399354067
  0.2554966228171944  0.9447795321317506  0.1400240658710050
  0.5593053149210109  0.5954515796809994  0.7230445806542835
 -0.0056945132236149  0.9068895863907145  0.6158941588290868
  0.1185210658627126  0.2387086929166572  0.8478428717019659
  0.5109512510637412  0.4059222567726794  0.6736708227782395
  0.2781589991023094  0.2657952444354650  0.5546053553899182
  0.2562624438642562  0.9798933215725522  0.9623419418705119
  0.7658021604870223  0.1869786481911772  0.0295574317278163
  0.8712362233673084  0.6253815422969179  0.9478640582182872
  0.8833746820847912  0.1680730340838414  0.2424741177998349
  0.5297063758042924  0.4330164486388411  0.4627484178218351
  0.6045666794607996  0.3315417992245182  0.3182685806040144
  0.6315377855922695  0.5647183450819373  0.5436936171852141
  0.6993697823528910  0.6916115193447685  0.2879959335498500
  0.4304133094451062  0.7762088431895742  0.2882522058938627
  0.1113462977567899  0.7669272096741554  0.7391892474046619
  0.7383215098288608  0.7532402114237554  0.8680621783726956
  0.5753385545914020  0.7876698665425023  0.1826077283691227
  0.8871960775858012  0.7611913518618496  0.7127882072155175
  0.0956462955743558  0.2249986597031917  0.0255751945670279
  0.8040876138959699  0.9068392879040393  0.8786470431406463
  0.6977948709631787  0.8383050189168049  0.0298999776360569
  0.7373159010243342  0.0240045510684462  0.2699539096282926
  0.2335998808940472  0.5374019375076053  0.7214614848417420
  0.7568357948337620  0.4127054063653630  0.5205748750595391
  0.3979600029944170  0.2593735838442142  0.7322788322924868
 -0.0278785739193942  0.9587424101114402  0.0928893280139268
  0.4350774991486433  0.5702893425292506  0.3157339816727124
  0.1316162503149691  0.1892969264728498  0.2085831242800174
  0.0284939695206526  0.7955463144110401  0.4723852896208446
  0.7641966322441922  0.2939799565925558  0.3795249829565256
  0.4102136598610963  0.6998911997035053  0.7004514313244306
  0.6254308184812764  0.8711187635160912  0.3231422528955781
  0.3761692294648128  0.8284549658486814  0.9063528899438443
  0.1290926929120004  0.8246159261345722  0.0530190679330885
  0.8590703757877186  0.1602176805113904  0.4566370677164424
  0.6940403140929277  0.8331117539432984  0.4783470103497119
  0.0231317689611027  0.2372639593693929  0.6900010158802515
  0.7015502473869606  0.5616177176605323  0.8531134985538232
  0.2568458463497144  0.3008255430876826 -0.0204736199674793
  0.4541778374223923  0.6438424018858293  0.8895457002785958
  0.0824759845522272  0.6855209375552437  0.9212776672865632
  0.5742743214640762  0.9728937246915553  0.1236151327915423
  0.4354799885842058  0.3559491021918132 -0.0287618098608046
  0.8900967339634610  0.8087154628750551  0.0135257735247751
  0.6275619617779340  0.1378338390007195  0.3761381037432102
  0.2477939568653941  0.5771747667716325  0.9048431847477731
  0.2539233530555215  0.4599400873895839  0.5542072100125903
  0.5684494515282310  0.0846381679483768  0.8317795820603688
  0.4147319625716321  0.5327069896587121  0.6054393153079417
  0.2099325618196785  0.8948816859832466  0.8067849177494446
  0.0296674473657171  0.0680650230714714  0.9315555414160573
  0.2495053311903229  0.5150549605760636  0.3541519211280189
  0.9411190296309959  0.1630997705611272  0.0653248119055641
  0.2049652563928425  0.3412927568300954  0.6917156602127223
  0.3245134884877428  0.1922943567247122  0.2629162640296064
  0.2713208270293209  0.7176145243619899  0.8158881966610076
  0.8631952537968142  0.6671058588611536  0.3890723896208154
  0.1033466730396250  0.5378585845071486  0.2220916052172352
  0.9758069665792467  0.5573034600043116  0.0753396776173339
  0.2075066539039361  0.2397314224589728  0.3957538742692674
  0.2265592057012514  0.1664709065359276  0.7111281844294477
  0.9635693035039425  0.3421400658573749  0.8636717608850688
  0.8553070762551823  0.3590371520608159  0.2502072072216779
  0.5442115068247352  0.9679011976303245  0.4413810644422874
  0.7151578849907267  0.5503308831760727  0.0374757658048378
  0.4114320085358743 -0.0148985843787877  0.8091683233609768
  0.5087626332057303  0.5400190586123890  0.0283746242209680
  0.6320950456447186  0.2730098376242091  0.5156813829616670
  0.5986870915679676  0.7614393019520180  0.6429111605025549
  0.3026530400329184  0.5416408550568151  0.1854607971714375
  0.0876353809875522  0.3510743608821374  0.5531655761847710
  0.7692015590020085  0.8953909346298300  0.6519240841342472
  0.4951620677006743  0.6403290070742631  0.1684489852702611
  0.1826689346171284  0.6405210302477239  0.0851366257025536
  0.6076143323242190  0.6853795411931262  0.0076462125600139
  0.6969510667424402  0.3279714662374924  0.6685036251139134
  0.4387424073806553  0.8675261600053568  0.6208996464597075
  0.3697975688068215  0.3552593407058612  0.3821060275806400
  0.1369075925261135  0.6667926963137486  0.5654444112744015
  0.8402093547528455  0.1811136096285542  0.6473271690402288
  0.0275394712484606  0.3556846174760959  0.2713910763434403
  0.9423549194983472  0.3547085690783248  0.0582621775390766
  0.1269905878382996  0.3707861133714366  0.1082635148065732
  0.4417775055411982  0.1083357570029659  0.3742554082890736
  0.9411584213222973  0.6419687595298689  0.5398181771333331
  0.0026172175398547  0.1145753507716059  0.7376467065183752
  0.0188504052232305  0.6053165804697046  0.7074677181431651
  0.7386447041372924  0.3698682130720478  0.0966993495415165
  0.4595638207416805  0.0433275892140291  0.5902189392333292
 
  0.00000000E+00  0.00000000E+00  0.00000000E+00
  0.00000000E+00  0.00000000E+00  0.00000000E+00
  0.00000000E+00  0.00000000E+00  0.00000000E+00
  0.00000000E+00  0.00000000E+00  0.00000000E+00
  0.00000000E+00  0.00000000E+00  0.00000000E+00
  0.00000000E+00  0.00000000E+00  0.00000000E+00
  0.00000000E+00  0.00000000E+00  0.00000000E+00
  0.00000000E+00  0.00000000E+00  0.00000000E+00
  0.00000000E+00  0.00000000E+00  0.00000000E+00
  0.00000000E+00  0.00000000E+00  0.00000000E+00
  0.00000000E+00  0.00000000E+00  0.00000000E+00
  0.00000000E+00  0.00000000E+00  0.00000000E+00
  0.00000000E+00  0.00000000E+00  0.00000000E+00
  0.00000000E+00  0.00000000E+00  0.00000000E+00
  0.00000000E+00  0.00000000E+00  0.00000000E+00
  0.00000000E+00  0.00000000E+00  0.00000000E+00
  0.00000000E+00  0.00000000E+00  0.00000000E+00
  0.00000000E+00  0.00000000E+00  0.00000000E+00
  0.00000000E+00  0.00000000E+00  0.00000000E+00
  0.00000000E+00  0.00000000E+00  0.00000000E+00
  0.00000000E+00  0.00000000E+00  0.00000000E+00
  0.00000000E+00  0.00000000E+00  0.00000000E+00
  0.00000000E+00  0.00000000E+00  0.00000000E+00
  0.00000000E+00  0.00000000E+00  0.00000000E+00
  0.00000000E+00  0.00000000E+00  0.00000000E+00
  0.00000000E+00  0.00000000E+00  0.00000000E+00
  0.00000000E+00  0.00000000E+00  0.00000000E+00
  0.00000000E+00  0.00000000E+00  0.00000000E+00
  0.00000000E+00  0.00000000E+00  0.00000000E+00
  0.00000000E+00  0.00000000E+00  0.00000000E+00
  0.00000000E+00  0.00000000E+00  0.00000000E+00
  0.00000000E+00  0.00000000E+00  0.00000000E+00
  0.00000000E+00  0.00000000E+00  0.00000000E+00
  0.00000000E+00  0.00000000E+00  0.00000000E+00
  0.00000000E+00  0.00000000E+00  0.00000000E+00
  0.00000000E+00  0.00000000E+00  0.00000000E+00
  0.00000000E+00  0.00000000E+00  0.00000000E+00
  0.00000000E+00  0.00000000E+00  0.00000000E+00
  0.00000000E+00  0.00000000E+00  0.00000000E+00
  0.00000000E+00  0.00000000E+00  0.00000000E+00
  0.00000000E+00  0.00000000E+00  0.00000000E+00
  0.00000000E+00  0.00000000E+00  0.00000000E+00
  0.00000000E+00  0.00000000E+00  0.00000000E+00
  0.00000000E+00  0.00000000E+00  0.00000000E+00
  0.00000000E+00  0.00000000E+00  0.00000000E+00
  0.00000000E+00  0.00000000E+00  0.00000000E+00
  0.00000000E+00  0.00000000E+00  0.00000000E+00
  0.00000000E+00  0.00000000E+00  0.00000000E+00
  0.00000000E+00  0.00000000E+00  0.00000000E+00
  0.00000000E+00  0.00000000E+00  0.00000000E+00
  0.00000000E+00  0.00000000E+00  0.00000000E+00
  0.00000000E+00  0.00000000E+00  0.00000000E+00
  0.00000000E+00  0.00000000E+00  0.00000000E+00
  0.00000000E+00  0.00000000E+00  0.00000000E+00
  0.00000000E+00  0.00000000E+00  0.00000000E+00
  0.00000000E+00  0.00000000E+00  0.00000000E+00
  0.00000000E+00  0.00000000E+00  0.00000000E+00
  0.00000000E+00  0.00000000E+00  0.00000000E+00
  0.00000000E+00  0.00000000E+00  0.00000000E+00
  0.00000000E+00  0.00000000E+00  0.00000000E+00
  0.00000000E+00  0.00000000E+00  0.00000000E+00
  0.00000000E+00  0.00000000E+00  0.00000000E+00
  0.00000000E+00  0.00000000E+00  0.00000000E+00
  0.00000000E+00  0.00000000E+00  0.00000000E+00
  0.00000000E+00  0.00000000E+00  0.00000000E+00
  0.00000000E+00  0.00000000E+00  0.00000000E+00
  0.00000000E+00  0.00000000E+00  0.00000000E+00
  0.00000000E+00  0.00000000E+00  0.00000000E+00
  0.00000000E+00  0.00000000E+00  0.00000000E+00
  0.00000000E+00  0.00000000E+00  0.00000000E+00
  0.00000000E+00  0.00000000E+00  0.00000000E+00
  0.00000000E+00  0.00000000E+00  0.00000000E+00
  0.00000000E+00  0.00000000E+00  0.00000000E+00
  0.00000000E+00  0.00000000E+00  0.00000000E+00
  0.00000000E+00  0.00000000E+00  0.00000000E+00
  0.00000000E+00  0.00000000E+00  0.00000000E+00
  0.00000000E+00  0.00000000E+00  0.00000000E+00
  0.00000000E+00  0.00000000E+00  0.00000000E+00
  0.00000000E+00  0.00000000E+00  0.00000000E+00
  0.00000000E+00  0.00000000E+00  0.00000000E+00
  0.00000000E+00  0.00000000E+00  0.00000000E+00
  0.00000000E+00  0.00000000E+00  0.00000000E+00
  0.00000000E+00  0.00000000E+00  0.00000000E+00
  0.00000000E+00  0.00000000E+00  0.00000000E+00
  0.00000000E+00  0.00000000E+00  0.00000000E+00
  0.00000000E+00  0.00000000E+00  0.00000000E+00
  0.00000000E+00  0.00000000E+00  0.00000000E+00
  0.00000000E+00  0.00000000E+00  0.00000000E+00
  0.00000000E+00  0.00000000E+00  0.00000000E+00
  0.00000000E+00  0.00000000E+00  0.00000000E+00
  0.00000000E+00  0.00000000E+00  0.00000000E+00
  0.00000000E+00  0.00000000E+00  0.00000000E+00
  0.00000000E+00  0.00000000E+00  0.00000000E+00
  0.00000000E+00  0.00000000E+00  0.00000000E+00
  0.00000000E+00  0.00000000E+00  0.00000000E+00
  0.00000000E+00  0.00000000E+00  0.00000000E+00
  0.00000000E+00  0.00000000E+00  0.00000000E+00
  0.00000000E+00  0.00000000E+00  0.00000000E+00
  0.00000000E+00  0.00000000E+00  0.00000000E+00
  0.00000000E+00  0.00000000E+00  0.00000000E+00
  0.00000000E+00  0.00000000E+00  0.00000000E+00
  0.00000000E+00  0.00000000E+00  0.00000000E+00
  0.00000000E+00  0.00000000E+00  0.00000000E+00
  0.00000000E+00  0.00000000E+00  0.00000000E+00
  0.00000000E+00  0.00000000E+00  0.00000000E+00
  0.00000000E+00  0.00000000E+00  0.00000000E+00
  0.00000000E+00  0.00000000E+00  0.00000000E+00
  0.00000000E+00  0.00000000E+00  0.00000000E+00
  0.00000000E+00  0.00000000E+00  0.00000000E+00
  0.00000000E+00  0.00000000E+00  0.00000000E+00
  0.00000000E+00  0.00000000E+00  0.00000000E+00
  0.00000000E+00  0.00000000E+00  0.00000000E+00
  0.00000000E+00  0.00000000E+00  0.00000000E+00
  0.00000000E+00  0.00000000E+00  0.00000000E+00
  0.00000000E+00  0.00000000E+00  0.00000000E+00
  0.00000000E+00  0.00000000E+00  0.00000000E+00
  0.00000000E+00  0.00000000E+00  0.00000000E+00
  0.00000000E+00  0.00000000E+00  0.00000000E+00
  0.00000000E+00  0.00000000E+00  0.00000000E+00
  0.00000000E+00  0.00000000E+00  0.00000000E+00
  0.00000000E+00  0.00000000E+00  0.00000000E+00
  0.00000000E+00  0.00000000E+00  0.00000000E+00
  0.00000000E+00  0.00000000E+00  0.00000000E+00
  0.00000000E+00  0.00000000E+00  0.00000000E+00
  0.00000000E+00  0.00000000E+00  0.00000000E+00
  0.00000000E+00  0.00000000E+00  0.00000000E+00
  0.00000000E+00  0.00000000E+00  0.00000000E+00
  0.00000000E+00  0.00000000E+00  0.00000000E+00
  0.00000000E+00  0.00000000E+00  0.00000000E+00
  0.00000000E+00  0.00000000E+00  0.00000000E+00
  0.00000000E+00  0.00000000E+00  0.00000000E+00
  0.00000000E+00  0.00000000E+00  0.00000000E+00
  0.00000000E+00  0.00000000E+00  0.00000000E+00
  0.00000000E+00  0.00000000E+00  0.00000000E+00
  0.00000000E+00  0.00000000E+00  0.00000000E+00
  0.00000000E+00  0.00000000E+00  0.00000000E+00
  0.00000000E+00  0.00000000E+00  0.00000000E+00
  0.00000000E+00  0.00000000E+00  0.00000000E+00
  0.00000000E+00  0.00000000E+00  0.00000000E+00
  0.00000000E+00  0.00000000E+00  0.00000000E+00
  0.00000000E+00  0.00000000E+00  0.00000000E+00
  0.00000000E+00  0.00000000E+00  0.00000000E+00
  0.00000000E+00  0.00000000E+00  0.00000000E+00
  0.00000000E+00  0.00000000E+00  0.00000000E+00
  0.00000000E+00  0.00000000E+00  0.00000000E+00
  0.00000000E+00  0.00000000E+00  0.00000000E+00
  0.00000000E+00  0.00000000E+00  0.00000000E+00
  0.00000000E+00  0.00000000E+00  0.00000000E+00
  0.00000000E+00  0.00000000E+00  0.00000000E+00
  0.00000000E+00  0.00000000E+00  0.00000000E+00
  0.00000000E+00  0.00000000E+00  0.00000000E+00
  0.00000000E+00  0.00000000E+00  0.00000000E+00
  0.00000000E+00  0.00000000E+00  0.00000000E+00
  0.00000000E+00  0.00000000E+00  0.00000000E+00
  0.00000000E+00  0.00000000E+00  0.00000000E+00
  0.00000000E+00  0.00000000E+00  0.00000000E+00
  0.00000000E+00  0.00000000E+00  0.00000000E+00
  0.00000000E+00  0.00000000E+00  0.00000000E+00
  0.00000000E+00  0.00000000E+00  0.00000000E+00
  0.00000000E+00  0.00000000E+00  0.00000000E+00
  0.00000000E+00  0.00000000E+00  0.00000000E+00
  0.00000000E+00  0.00000000E+00  0.00000000E+00
  0.00000000E+00  0.00000000E+00  0.00000000E+00
  0.00000000E+00  0.00000000E+00  0.00000000E+00
  0.00000000E+00  0.00000000E+00  0.00000000E+00
  0.00000000E+00  0.00000000E+00  0.00000000E+00
  0.00000000E+00  0.00000000E+00  0.00000000E+00
  0.00000000E+00  0.00000000E+00  0.00000000E+00
  0.00000000E+00  0.00000000E+00  0.00000000E+00
  0.00000000E+00  0.00000000E+00  0.00000000E+00
  0.00000000E+00  0.00000000E+00  0.00000000E+00
  0.00000000E+00  0.00000000E+00  0.00000000E+00
  0.00000000E+00  0.00000000E+00  0.00000000E+00
  0.00000000E+00  0.00000000E+00  0.00000000E+00
  0.00000000E+00  0.00000000E+00  0.00000000E+00
  0.00000000E+00  0.00000000E+00  0.00000000E+00
  0.00000000E+00  0.00000000E+00  0.00000000E+00
  0.00000000E+00  0.00000000E+00  0.00000000E+00
  0.00000000E+00  0.00000000E+00  0.00000000E+00
  0.00000000E+00  0.00000000E+00  0.00000000E+00
  0.00000000E+00  0.00000000E+00  0.00000000E+00
  0.00000000E+00  0.00000000E+00  0.00000000E+00
  0.00000000E+00  0.00000000E+00  0.00000000E+00
  0.00000000E+00  0.00000000E+00  0.00000000E+00
  0.00000000E+00  0.00000000E+00  0.00000000E+00
  0.00000000E+00  0.00000000E+00  0.00000000E+00
  0.00000000E+00  0.00000000E+00  0.00000000E+00
  0.00000000E+00  0.00000000E+00  0.00000000E+00
  0.00000000E+00  0.00000000E+00  0.00000000E+00
  0.00000000E+00  0.00000000E+00  0.00000000E+00
  0.00000000E+00  0.00000000E+00  0.00000000E+00
  0.00000000E+00  0.00000000E+00  0.00000000E+00
  0.00000000E+00  0.00000000E+00  0.00000000E+00
  0.00000000E+00  0.00000000E+00  0.00000000E+00
  0.00000000E+00  0.00000000E+00  0.00000000E+00
  0.00000000E+00  0.00000000E+00  0.00000000E+00
  0.00000000E+00  0.00000000E+00  0.00000000E+00
  0.00000000E+00  0.00000000E+00  0.00000000E+00
  0.00000000E+00  0.00000000E+00  0.00000000E+00
  0.00000000E+00  0.00000000E+00  0.00000000E+00
  0.00000000E+00  0.00000000E+00  0.00000000E+00
  0.00000000E+00  0.00000000E+00  0.00000000E+00
  0.00000000E+00  0.00000000E+00  0.00000000E+00
  0.00000000E+00  0.00000000E+00  0.00000000E+00
  0.00000000E+00  0.00000000E+00  0.00000000E+00
  0.00000000E+00  0.00000000E+00  0.00000000E+00
  0.00000000E+00  0.00000000E+00  0.00000000E+00
  0.00000000E+00  0.00000000E+00  0.00000000E+00
  0.00000000E+00  0.00000000E+00  0.00000000E+00
  0.00000000E+00  0.00000000E+00  0.00000000E+00
  0.00000000E+00  0.00000000E+00  0.00000000E+00
  0.00000000E+00  0.00000000E+00  0.00000000E+00
  0.00000000E+00  0.00000000E+00  0.00000000E+00
  0.00000000E+00  0.00000000E+00  0.00000000E+00
  0.00000000E+00  0.00000000E+00  0.00000000E+00
  0.00000000E+00  0.00000000E+00  0.00000000E+00
  0.00000000E+00  0.00000000E+00  0.00000000E+00
  0.00000000E+00  0.00000000E+00  0.00000000E+00
  0.00000000E+00  0.00000000E+00  0.00000000E+00
  0.00000000E+00  0.00000000E+00  0.00000000E+00
  0.00000000E+00  0.00000000E+00  0.00000000E+00
  0.00000000E+00  0.00000000E+00  0.00000000E+00
  0.00000000E+00  0.00000000E+00  0.00000000E+00
  0.00000000E+00  0.00000000E+00  0.00000000E+00
  0.00000000E+00  0.00000000E+00  0.00000000E+00
  0.00000000E+00  0.00000000E+00  0.00000000E+00
  0.00000000E+00  0.00000000E+00  0.00000000E+00
  0.00000000E+00  0.00000000E+00  0.00000000E+00
  0.00000000E+00  0.00000000E+00  0.00000000E+00
  0.00000000E+00  0.00000000E+00  0.00000000E+00
  0.00000000E+00  0.00000000E+00  0.00000000E+00
  0.00000000E+00  0.00000000E+00  0.00000000E+00