Sb                                      
   1.00000000000000     
    18.9152530952553874    0.0000000000000000    0.0000000000000000
     0.0000000000000000   18.9152530952553874    0.0000000000000000
     0.0000000000000000    0.0000000000000000   18.9152530952553874
   Sb   Sn
   195    21
Direct
  0.1082054100000000  0.0572839950000000  0.4574028500000000
  0.6368395100000001  0.6661909400000000  0.2809457900000000
  0.0812047050000000  0.3402140700000000  0.1330966000000000
  0.9697861500000000  0.9603723500000000  0.0084263406000000
  0.8390486600000000  0.4226092000000000  0.2255833100000000
  0.5618223200000000  0.1420016900000000  0.5744863600000000
  0.2143203500000000  0.8243641700000000  0.1707932200000000
  0.4308655500000000  0.3573366600000000  0.1567955000000000
  0.1130345000000000  0.0574146100000000  0.1950700300000000
  0.6507030100000000  0.8763822300000000  0.9542720099999999
  0.0232032320000000  0.1017503600000000  0.3282230800000000
  0.9077417800000001  0.7422432400000000  0.0330304590000000
  0.2563605000000000  0.8678375400000000  0.5157602800000000
  0.3069934300000000  0.5449119900000000  0.1049230500000000
  0.2987340600000000  0.9612870800000000  0.1846906600000000
  0.0051290049000000  0.1989425600000000  0.0064984640000000
  0.5469359800000000  0.2442306000000000  0.1456871900000000
  0.8765323600000000  0.4616989800000000  0.8971760300000000
  0.9434564000000000  0.6109089599999999  0.2916642700000000
  0.7826120600000001  0.2742493100000000  0.6107983600000000
  0.7178516400000000  0.2694102000000000  0.2899339000000000
  0.0249346280000000  0.3164912200000000  0.9023554800000000
  0.6501744699999999  0.5501548300000000  0.9529141200000000
  0.7992404900000000  0.9251786900000000  0.9842175000000000
  0.7990878600000000  0.0695239270000000  0.0698963940000000
  0.7447490400000000  0.4976530100000000  0.5778898400000000
  0.6504394200000000  0.6243449700000000  0.6331736700000000
  0.8710100400000000  0.3246347200000000  0.0881419320000000
  0.0902353690000000  0.2943567800000000  0.4140270600000000
  0.6925297500000001  0.2710171400000000  0.7753156500000000
  0.3519529900000000  0.3519336300000000  0.8988198200000000
  0.2406434100000000  0.0994345260000000  0.2752565400000000
  0.8053566800000000  0.6007275800000000  0.0900645160000000
  0.5760002300000000  0.8431504600000000  0.5975646000000000
  0.0831600350000000  0.6164233900000000  0.0892185560000000
  0.2378020700000000  0.6396281400000000  0.0002806993400000
  0.8621581100000000  0.8531439300000000  0.5074116300000000
  0.8413391400000000  0.1849382000000000  0.2785557400000000
  0.0023116471000000  0.1789207000000000  0.7664480800000000
  0.0648257060000000  0.7536423300000000  0.0204771560000000
  0.0716683050000000  0.4037852900000000  0.5428401800000000
  0.0153349250000000  0.3023020800000000  0.6460968900000000
  0.7170852300000000  0.6503837099999999  0.4146550600000000
  0.4527723500000000  0.7021700900000000  0.3418184600000000
  0.2046935200000000  0.0354528800000000  0.6093245200000000
  0.9387783200000001  0.7601590499999999  0.2119281700000000
  0.1211075600000000  0.9111789800000000  0.2645712700000000
  0.1218944000000000  0.8889096000000000  0.6114260000000000
  0.2296040700000000  0.7528635000000000  0.4037757600000000
  0.5175504900000000  0.2679272700000000  0.9300413300000000
  0.6826276400000000  0.3677426200000000  0.1315491900000000
  0.1093802100000000  0.7303531599999999  0.7191185600000000
  0.6376624500000000  0.0538115260000000  0.9195477000000000
  0.1945094300000000  0.8364470000000001  0.9618305800000000
  0.2261279500000000  0.2107476200000000  0.4215430300000000
  0.5520425100000000  0.5591153500000000  0.0993271800000000
  0.0822478930000000  0.6951190700000000  0.2868008200000000
  0.3787459100000000  0.9108893200000000  0.3234549200000000
  0.8404826200000000  0.8549434800000000  0.1202433100000000
  0.3201419300000000  0.9870883300000000  0.7054064700000000
  0.9256358800000000  0.8508711900000000  0.3426862500000000
  0.8573004100000000  0.5642554300000000  0.4797553700000000
  0.6528012000000000  0.7860437200000000  0.7161455700000000
  0.3123363000000000  0.7775250300000000  0.2746893200000000
  0.1866916700000000  0.4258709000000000  0.4131846300000000
  0.9579810800000000  0.8215189000000001  0.6276787600000000
  0.4013632200000000  0.1428895000000000  0.3725505900000000
  0.8505434400000000  0.5354133400000000  0.6980688500000000
  0.3600919500000000  0.1433768500000000  0.1751187100000000
  0.2471191700000000  0.9746999000000000  0.3841144900000000
  0.5557853200000000  0.9931803500000000  0.4239522500000000
  0.4792918800000000  0.1585464100000000  0.0392766820000000
  0.5689883300000000  0.0925154100000000  0.3065772200000000
  0.9554611900000000  0.3468332700000000  0.2970269800000000
  0.9593288000000000  0.7085408200000000  0.7721234700000000
  0.4457785200000000  0.6828851900000000  0.9647827500000000
  0.2313019500000000  0.3865665500000000  0.2674961100000000
  0.5868428000000000  0.8408090100000000  0.3688572400000000
  0.1503646100000000  0.1978542900000000  0.1013806900000000
  0.9759456800000000  0.2328472300000000  0.1996292300000000
  0.1265623300000000  0.9702541300000000  0.9972222600000000
  0.7787286700000000  0.9461543500000000  0.6255246200000000
  0.8931325500000000  0.1240905000000000  0.5205214900000000
  0.9883049500000000  0.0876168320000000  0.8911575700000000
  0.3593863600000000  0.1766067000000000  0.5960782999999999
  0.3973247700000000  0.5076818400000001  0.4982545300000000
  0.2716794800000000  0.0637395660000000  0.0669797120000000
  0.0631198360000000  0.5299681400000000  0.6499555400000000
  0.1902115900000000  0.3575729100000000  0.9122615100000000
  0.5276071700000000  0.4919945600000000  0.6586078600000000
  0.3129730600000000  0.3338426400000000  0.4478534800000000
  0.7391422500000000  0.8616952700000000  0.3597980100000000
  0.2830403100000000  0.8280219500000000  0.7438527800000000
  0.4045173300000000  0.4875047900000000  0.7537219400000000
  0.9186127300000000  0.2410705700000000  0.4048393900000000
  0.1128320000000000  0.3677836200000000  0.7571133500000000
  0.2323040000000000  0.3693381400000000  0.6326420000000000
  0.3188111300000000  0.7519263700000000  0.6078460500000000
  0.6777627000000001  0.3938266900000000  0.9355977100000000
  0.7790026200000000  0.6556673200000001  0.7888713600000000
  0.1151233000000000  0.4780845200000000  0.2209101900000000
  0.5054763900000000  0.5240211100000000  0.9064757500000000
  0.7419664200000000  0.2140588200000000  0.0782609440000000
  0.3387397000000000  0.2053131800000000  0.9701429700000000
  0.7719007600000000  0.9650282500000000  0.2398587800000000
  0.7236384400000000  0.0808988810000000  0.3380350900000000
  0.2087541000000000  0.2170539200000000  0.5857844900000000
  0.4403296800000000  0.3749086500000000  0.5907799500000001
  0.0536846150000000  0.1726725900000000  0.5496905500000000
  0.9388860999999999  0.5400791600000000  0.1491607100000000
  0.2106055000000000  0.4089335100000000  0.0678123200000000
  0.5115758900000000  0.8396256000000000  0.2200489700000000
  0.8350573700000000  0.1168061000000000  0.9199574600000000
  0.4064886200000000  0.8793629600000000  0.1112943200000000
  0.8022984500000000  0.9816396500000000  0.8183997300000000
  0.4452885600000000  0.9581276000000000  0.5296145200000000
  0.5447665300000000  0.4047472200000000  0.8105222100000000
  0.8693515200000000  0.9991742800000000  0.4296170500000000
  0.8300152500000000  0.8228226000000000  0.7162542600000000
  0.7165699900000000  0.7593080700000000  0.1137324800000000
  0.8917898600000000  0.7200909300000000  0.4216097800000000
  0.6890188000000000  0.5488548200000000  0.1853470100000000
  0.6545457600000000  0.2247085700000000  0.4234359600000000
  0.9267451700000000  0.9879162800000000  0.2602686000000000
  0.9781132600000000  0.8269805800000000  0.8771375500000000
  0.9507708400000000  0.9561697400000000  0.7907375600000000
  0.1403592400000000  0.0273333050000000  0.8506832500000000
  0.3084298600000000  0.2745492200000000  0.0980383530000000
  0.6501341800000000  0.1175238800000000  0.7694157200000000
  0.0651108470000000  0.0808111770000000  0.6728296000000000
  0.7963695700000000  0.5287170700000000  0.3373469100000000
  0.6593215800000000  0.7169554800000000  0.9474340100000000
  0.4910887100000000  0.9423913500000000  0.7889921200000000
  0.5861457500000000  0.3445295600000000  0.4793250700000000
  0.5919031900000000  0.0293170090000000  0.0951956220000000
  0.8697882900000000  0.2778412800000000  0.9282098900000000
  0.7647188700000001  0.4322967000000000  0.7948196700000000
  0.9245649600000000  0.0194653510000000  0.6388050600000000
  0.8029039300000000  0.0973304440000000  0.7070196500000000
  0.8937313900000000  0.3872584000000000  0.6325217600000000
  0.3270341800000000  0.0519648000000000  0.4944618800000000
  0.3750199700000000  0.4754681400000000  0.2569182100000000
  0.6816479300000000  0.1293084300000000  0.1891493600000000
  0.5523296700000000  0.3831190800000000  0.0407982950000000
  0.8463251400000000  0.2435790300000000  0.7627113400000000
  0.5901542100000000  0.4173631900000000  0.2594895000000000
  0.1253233500000000  0.6214721300000000  0.4215713200000000
  0.1912147000000000  0.5227637300000000  0.7857434400000000
  0.1197146100000000  0.5051648600000000  0.9813581000000000
  0.0300548820000000  0.5026904800000001  0.3597285800000000
  0.4425859100000000  0.3976546300000000  0.3766615200000000
  0.4267690200000000  0.8318678000000000  0.9050675700000000
  0.0099643421000000  0.9477163500000000  0.5169592100000000
  0.7873284400000000  0.6952810800000000  0.6236776900000000
  0.1608386200000000  0.6336945899999999  0.5940713200000000
  0.7321857000000001  0.1363552900000000  0.5457149600000000
  0.4346239900000000  0.6221425900000001  0.1929808400000000
  0.3181856500000000  0.9497375600000000  0.9751312000000000
  0.9904339700000000  0.4150266900000000  0.0202619160000000
  0.5338091000000000  0.7149551600000000  0.4954341700000000
  0.3408548400000000  0.6535161300000000  0.4370390500000000
  0.0650218070000000  0.8471817699999999  0.3979696500000000
  0.1935745500000000  0.6123652500000000  0.2080206500000000
  0.5556706000000000  0.7111493000000000  0.0740295680000000
  0.0171644800000000  0.7349638500000000  0.5080436400000000
  0.9220713800000000  0.4177670100000000  0.4905609100000000
  0.4907437000000000  0.1699912100000000  0.7834149000000000
  0.2947835100000000  0.0547581540000000  0.8502157600000000
  0.8337793400000000  0.7892207000000000  0.9046493900000000
  0.3548724900000000  0.3412637100000000  0.7204569100000000
  0.9477077000000000  0.0728770590000000  0.1191777900000000
  0.3303756100000000  0.6999435300000000  0.8356982800000000
  0.6625219800000000  0.5503460999999999  0.7897564300000000
  0.3079453100000000  0.5396759100000000  0.8956850400000000
  0.2898461700000000  0.5885927900000000  0.6850450500000000
  0.1689322700000000  0.2007606000000000  0.9241100100000000
  0.4673115400000000  0.0525650720000000  0.6679684800000000
  0.9932690300000000  0.4934007200000000  0.7944072800000000
  0.4756490200000000  0.0572622560000000  0.8905404400000000
  0.2534708300000000  0.5006306400000000  0.5576320700000000
  0.1530629900000000  0.2156278300000000  0.7636568300000000
  0.0047654767000000  0.6154781400000000  0.8930097900000000
  0.7114297700000000  0.9972706600000000  0.4723195900000000
  0.3545768200000000  0.2655533700000000  0.2912297100000000
  0.2508459900000000  0.5576550200000000  0.3471698600000000
  0.7878774200000001  0.3152720800000000  0.4512914800000000
  0.6205629100000000  0.5515271700000000  0.4827990500000000
  0.5271993500000000  0.5429259300000000  0.3382799300000000
  0.4478903700000000  0.6204826000000000  0.5995814699999999
  0.4565070000000000  0.2381667000000000  0.4775769200000000
  0.7744502000000000  0.7329519700000000  0.2527615400000000
  0.4586974400000000  0.6561574500000000  0.7574801100000000
  0.1507812900000000  0.6565677800000000  0.8361642700000000
  0.5470837400000000  0.2693155700000000  0.6660940400000001
  0.6570973200000000  0.3667072200000000  0.6199299800000000
  0.8242219400000000  0.6088222800000000  0.9283951400000000
  0.4998999500000000  0.9311005800000000  0.0016960405000000
  0.5279392899999999  0.2670305300000000  0.3059827500000000
  0.4714254700000000  0.0199798280000000  0.2011532400000000
  0.6448440700000000  0.8980535500000000  0.1553163900000000
  0.1355017100000000  0.8667805100000000  0.8133317700000000
  0.7878921100000000  0.4515872900000000  0.0356803290000000
  0.7079699500000000  0.7938286700000000  0.5143538200000000
  0.6912336200000000  0.4315194700000000  0.3852096200000000
  0.3255886000000000  0.1795034200000000  0.7553900600000000
  0.3562108800000000  0.7165930500000000  0.0874270360000000
  0.0276327520000000  0.8704572400000000  0.1407499800000000
  0.4467699800000000  0.8026271200000000  0.7033915100000000
  0.4044868400000000  0.8071983900000000  0.4545662000000000
  0.1415871700000000  0.2407249300000000  0.2728226200000000
  0.6259527300000000  0.0050456887000000  0.6468313500000000
  0.9496401200000000  0.6276069100000000  0.6098195900000000
  0.6630234800000000  0.2263804000000000  0.9346905700000000
  0.6489854000000000  0.9216902100000000  0.8019879900000000
  0.4035840000000000  0.4557910300000000  0.0044893614000000
  0.5601989400000000  0.7559266800000000  0.8443049200000000
 
  0.00000000E+00  0.00000000E+00  0.00000000E+00
  0.00000000E+00  0.00000000E+00  0.00000000E+00
  0.00000000E+00  0.00000000E+00  0.00000000E+00
  0.00000000E+00  0.00000000E+00  0.00000000E+00
  0.00000000E+00  0.00000000E+00  0.00000000E+00
  0.00000000E+00  0.00000000E+00  0.00000000E+00
  0.00000000E+00  0.00000000E+00  0.00000000E+00
  0.00000000E+00  0.00000000E+00  0.00000000E+00
  0.00000000E+00  0.00000000E+00  0.00000000E+00
  0.00000000E+00  0.00000000E+00  0.00000000E+00
  0.00000000E+00  0.00000000E+00  0.00000000E+00
  0.00000000E+00  0.00000000E+00  0.00000000E+00
  0.00000000E+00  0.00000000E+00  0.00000000E+00
  0.00000000E+00  0.00000000E+00  0.00000000E+00
  0.00000000E+00  0.00000000E+00  0.00000000E+00
  0.00000000E+00  0.00000000E+00  0.00000000E+00
  0.00000000E+00  0.00000000E+00  0.00000000E+00
  0.00000000E+00  0.00000000E+00  0.00000000E+00
  0.00000000E+00  0.00000000E+00  0.00000000E+00
  0.00000000E+00  0.00000000E+00  0.00000000E+00
  0.00000000E+00  0.00000000E+00  0.00000000E+00
  0.00000000E+00  0.00000000E+00  0.00000000E+00
  0.00000000E+00  0.00000000E+00  0.00000000E+00
  0.00000000E+00  0.00000000E+00  0.00000000E+00
  0.00000000E+00  0.00000000E+00  0.00000000E+00
  0.00000000E+00  0.00000000E+00  0.00000000E+00
  0.00000000E+00  0.00000000E+00  0.00000000E+00
  0.00000000E+00  0.00000000E+00  0.00000000E+00
  0.00000000E+00  0.00000000E+00  0.00000000E+00
  0.00000000E+00  0.00000000E+00  0.00000000E+00
  0.00000000E+00  0.00000000E+00  0.00000000E+00
  0.00000000E+00  0.00000000E+00  0.00000000E+00
  0.00000000E+00  0.00000000E+00  0.00000000E+00
  0.00000000E+00  0.00000000E+00  0.00000000E+00
  0.00000000E+00  0.00000000E+00  0.00000000E+00
  0.00000000E+00  0.00000000E+00  0.00000000E+00
  0.00000000E+00  0.00000000E+00  0.00000000E+00
  0.00000000E+00  0.00000000E+00  0.00000000E+00
  0.00000000E+00  0.00000000E+00  0.00000000E+00
  0.00000000E+00  0.00000000E+00  0.00000000E+00
  0.00000000E+00  0.00000000E+00  0.00000000E+00
  0.00000000E+00  0.00000000E+00  0.00000000E+00
  0.00000000E+00  0.00000000E+00  0.00000000E+00
  0.00000000E+00  0.00000000E+00  0.00000000E+00
  0.00000000E+00  0.00000000E+00  0.00000000E+00
  0.00000000E+00  0.00000000E+00  0.00000000E+00
  0.00000000E+00  0.00000000E+00  0.00000000E+00
  0.00000000E+00  0.00000000E+00  0.00000000E+00
  0.00000000E+00  0.00000000E+00  0.00000000E+00
  0.00000000E+00  0.00000000E+00  0.00000000E+00
  0.00000000E+00  0.00000000E+00  0.00000000E+00
  0.00000000E+00  0.00000000E+00  0.00000000E+00
  0.00000000E+00  0.00000000E+00  0.00000000E+00
  0.00000000E+00  0.00000000E+00  0.00000000E+00
  0.00000000E+00  0.00000000E+00  0.00000000E+00
  0.00000000E+00  0.00000000E+00  0.00000000E+00
  0.00000000E+00  0.00000000E+00  0.00000000E+00
  0.00000000E+00  0.00000000E+00  0.00000000E+00
  0.00000000E+00  0.00000000E+00  0.00000000E+00
  0.00000000E+00  0.00000000E+00  0.00000000E+00
  0.00000000E+00  0.00000000E+00  0.00000000E+00
  0.00000000E+00  0.00000000E+00  0.00000000E+00
  0.00000000E+00  0.00000000E+00  0.00000000E+00
  0.00000000E+00  0.00000000E+00  0.00000000E+00
  0.00000000E+00  0.00000000E+00  0.00000000E+00
  0.00000000E+00  0.00000000E+00  0.00000000E+00
  0.00000000E+00  0.00000000E+00  0.00000000E+00
  0.00000000E+00  0.00000000E+00  0.00000000E+00
  0.00000000E+00  0.00000000E+00  0.00000000E+00
  0.00000000E+00  0.00000000E+00  0.00000000E+00
  0.00000000E+00  0.00000000E+00  0.00000000E+00
  0.00000000E+00  0.00000000E+00  0.00000000E+00
  0.00000000E+00  0.00000000E+00  0.00000000E+00
  0.00000000E+00  0.00000000E+00  0.00000000E+00
  0.00000000E+00  0.00000000E+00  0.00000000E+00
  0.00000000E+00  0.00000000E+00  0.00000000E+00
  0.00000000E+00  0.00000000E+00  0.00000000E+00
  0.00000000E+00  0.00000000E+00  0.00000000E+00
  0.00000000E+00  0.00000000E+00  0.00000000E+00
  0.00000000E+00  0.00000000E+00  0.00000000E+00
  0.00000000E+00  0.00000000E+00  0.00000000E+00
  0.00000000E+00  0.00000000E+00  0.00000000E+00
  0.00000000E+00  0.00000000E+00  0.00000000E+00
  0.00000000E+00  0.00000000E+00  0.00000000E+00
  0.00000000E+00  0.00000000E+00  0.00000000E+00
  0.00000000E+00  0.00000000E+00  0.00000000E+00
  0.00000000E+00  0.00000000E+00  0.00000000E+00
  0.00000000E+00  0.00000000E+00  0.00000000E+00
  0.00000000E+00  0.00000000E+00  0.00000000E+00
  0.00000000E+00  0.00000000E+00  0.00000000E+00
  0.00000000E+00  0.00000000E+00  0.00000000E+00
  0.00000000E+00  0.00000000E+00  0.00000000E+00
  0.00000000E+00  0.00000000E+00  0.00000000E+00
  0.00000000E+00  0.00000000E+00  0.00000000E+00
  0.00000000E+00  0.00000000E+00  0.00000000E+00
  0.00000000E+00  0.00000000E+00  0.00000000E+00
  0.00000000E+00  0.00000000E+00  0.00000000E+00
  0.00000000E+00  0.00000000E+00  0.00000000E+00
  0.00000000E+00  0.00000000E+00  0.00000000E+00
  0.00000000E+00  0.00000000E+00  0.00000000E+00
  0.00000000E+00  0.00000000E+00  0.00000000E+00
  0.00000000E+00  0.00000000E+00  0.00000000E+00
  0.00000000E+00  0.00000000E+00  0.00000000E+00
  0.00000000E+00  0.00000000E+00  0.00000000E+00
  0.00000000E+00  0.00000000E+00  0.00000000E+00
  0.00000000E+00  0.00000000E+00  0.00000000E+00
  0.00000000E+00  0.00000000E+00  0.00000000E+00
  0.00000000E+00  0.00000000E+00  0.00000000E+00
  0.00000000E+00  0.00000000E+00  0.00000000E+00
  0.00000000E+00  0.00000000E+00  0.00000000E+00
  0.00000000E+00  0.00000000E+00  0.00000000E+00
  0.00000000E+00  0.00000000E+00  0.00000000E+00
  0.00000000E+00  0.00000000E+00  0.00000000E+00
  0.00000000E+00  0.00000000E+00  0.00000000E+00
  0.00000000E+00  0.00000000E+00  0.00000000E+00
  0.00000000E+00  0.00000000E+00  0.00000000E+00
  0.00000000E+00  0.00000000E+00  0.00000000E+00
  0.00000000E+00  0.00000000E+00  0.00000000E+00
  0.00000000E+00  0.00000000E+00  0.00000000E+00
  0.00000000E+00  0.00000000E+00  0.00000000E+00
  0.00000000E+00  0.00000000E+00  0.00000000E+00
  0.00000000E+00  0.00000000E+00  0.00000000E+00
  0.00000000E+00  0.00000000E+00  0.00000000E+00
  0.00000000E+00  0.00000000E+00  0.00000000E+00
  0.00000000E+00  0.00000000E+00  0.00000000E+00
  0.00000000E+00  0.00000000E+00  0.00000000E+00
  0.00000000E+00  0.00000000E+00  0.00000000E+00
  0.00000000E+00  0.00000000E+00  0.00000000E+00
  0.00000000E+00  0.00000000E+00  0.00000000E+00
  0.00000000E+00  0.00000000E+00  0.00000000E+00
  0.00000000E+00  0.00000000E+00  0.00000000E+00
  0.00000000E+00  0.00000000E+00  0.00000000E+00
  0.00000000E+00  0.00000000E+00  0.00000000E+00
  0.00000000E+00  0.00000000E+00  0.00000000E+00
  0.00000000E+00  0.00000000E+00  0.00000000E+00
  0.00000000E+00  0.00000000E+00  0.00000000E+00
  0.00000000E+00  0.00000000E+00  0.00000000E+00
  0.00000000E+00  0.00000000E+00  0.00000000E+00
  0.00000000E+00  0.00000000E+00  0.00000000E+00
  0.00000000E+00  0.00000000E+00  0.00000000E+00
  0.00000000E+00  0.00000000E+00  0.00000000E+00
  0.00000000E+00  0.00000000E+00  0.00000000E+00
  0.00000000E+00  0.00000000E+00  0.00000000E+00
  0.00000000E+00  0.00000000E+00  0.00000000E+00
  0.00000000E+00  0.00000000E+00  0.00000000E+00
  0.00000000E+00  0.00000000E+00  0.00000000E+00
  0.00000000E+00  0.00000000E+00  0.00000000E+00
  0.00000000E+00  0.00000000E+00  0.00000000E+00
  0.00000000E+00  0.00000000E+00  0.00000000E+00
  0.00000000E+00  0.00000000E+00  0.00000000E+00
  0.00000000E+00  0.00000000E+00  0.00000000E+00
  0.00000000E+00  0.00000000E+00  0.00000000E+00
  0.00000000E+00  0.00000000E+00  0.00000000E+00
  0.00000000E+00  0.00000000E+00  0.00000000E+00
  0.00000000E+00  0.00000000E+00  0.00000000E+00
  0.00000000E+00  0.00000000E+00  0.00000000E+00
  0.00000000E+00  0.00000000E+00  0.00000000E+00
  0.00000000E+00  0.00000000E+00  0.00000000E+00
  0.00000000E+00  0.00000000E+00  0.00000000E+00
  0.00000000E+00  0.00000000E+00  0.00000000E+00
  0.00000000E+00  0.00000000E+00  0.00000000E+00
  0.00000000E+00  0.00000000E+00  0.00000000E+00
  0.00000000E+00  0.00000000E+00  0.00000000E+00
  0.00000000E+00  0.00000000E+00  0.00000000E+00
  0.00000000E+00  0.00000000E+00  0.00000000E+00
  0.00000000E+00  0.00000000E+00  0.00000000E+00
  0.00000000E+00  0.00000000E+00  0.00000000E+00
  0.00000000E+00  0.00000000E+00  0.00000000E+00
  0.00000000E+00  0.00000000E+00  0.00000000E+00
  0.00000000E+00  0.00000000E+00  0.00000000E+00
  0.00000000E+00  0.00000000E+00  0.00000000E+00
  0.00000000E+00  0.00000000E+00  0.00000000E+00
  0.00000000E+00  0.00000000E+00  0.00000000E+00
  0.00000000E+00  0.00000000E+00  0.00000000E+00
  0.00000000E+00  0.00000000E+00  0.00000000E+00
  0.00000000E+00  0.00000000E+00  0.00000000E+00
  0.00000000E+00  0.00000000E+00  0.00000000E+00
  0.00000000E+00  0.00000000E+00  0.00000000E+00
  0.00000000E+00  0.00000000E+00  0.00000000E+00
  0.00000000E+00  0.00000000E+00  0.00000000E+00
  0.00000000E+00  0.00000000E+00  0.00000000E+00
  0.00000000E+00  0.00000000E+00  0.00000000E+00
  0.00000000E+00  0.00000000E+00  0.00000000E+00
  0.00000000E+00  0.00000000E+00  0.00000000E+00
  0.00000000E+00  0.00000000E+00  0.00000000E+00
  0.00000000E+00  0.00000000E+00  0.00000000E+00
  0.00000000E+00  0.00000000E+00  0.00000000E+00
  0.00000000E+00  0.00000000E+00  0.00000000E+00
  0.00000000E+00  0.00000000E+00  0.00000000E+00
  0.00000000E+00  0.00000000E+00  0.00000000E+00
  0.00000000E+00  0.00000000E+00  0.00000000E+00
  0.00000000E+00  0.00000000E+00  0.00000000E+00
  0.00000000E+00  0.00000000E+00  0.00000000E+00
  0.00000000E+00  0.00000000E+00  0.00000000E+00
  0.00000000E+00  0.00000000E+00  0.00000000E+00
  0.00000000E+00  0.00000000E+00  0.00000000E+00
  0.00000000E+00  0.00000000E+00  0.00000000E+00
  0.00000000E+00  0.00000000E+00  0.00000000E+00
  0.00000000E+00  0.00000000E+00  0.00000000E+00
  0.00000000E+00  0.00000000E+00  0.00000000E+00
  0.00000000E+00  0.00000000E+00  0.00000000E+00
  0.00000000E+00  0.00000000E+00  0.00000000E+00
  0.00000000E+00  0.00000000E+00  0.00000000E+00
  0.00000000E+00  0.00000000E+00  0.00000000E+00
  0.00000000E+00  0.00000000E+00  0.00000000E+00
  0.00000000E+00  0.00000000E+00  0.00000000E+00
  0.00000000E+00  0.00000000E+00  0.00000000E+00
  0.00000000E+00  0.00000000E+00  0.00000000E+00
  0.00000000E+00  0.00000000E+00  0.00000000E+00
  0.00000000E+00  0.00000000E+00  0.00000000E+00
  0.00000000E+00  0.00000000E+00  0.00000000E+00
  0.00000000E+00  0.00000000E+00  0.00000000E+00
  0.00000000E+00  0.00000000E+00  0.00000000E+00
  0.00000000E+00  0.00000000E+00  0.00000000E+00
  0.00000000E+00  0.00000000E+00  0.00000000E+00
  0.00000000E+00  0.00000000E+00  0.00000000E+00
 
           1
   4.00000000000000     
  0.10000000E+01  0.00000000E+00  0.00000000E+00  0.00000000E+00
  0.10820541E+00  0.57283995E-01  0.45740285E+00
  0.63683951E+00  0.66619094E+00  0.28094579E+00
  0.81204705E-01  0.34021407E+00  0.13309660E+00
  0.96978615E+00  0.96037235E+00  0.84263406E-02
  0.83904866E+00  0.42260920E+00  0.22558331E+00
  0.56182232E+00  0.14200169E+00  0.57448636E+00
  0.21432035E+00  0.82436417E+00  0.17079322E+00
  0.43086555E+00  0.35733666E+00  0.15679550E+00
  0.11303450E+00  0.57414610E-01  0.19507003E+00
  0.65070301E+00  0.87638223E+00  0.95427201E+00
  0.23203232E-01  0.10175036E+00  0.32822308E+00
  0.90774178E+00  0.74224324E+00  0.33030459E-01
  0.25636050E+00  0.86783754E+00  0.51576028E+00
  0.30699343E+00  0.54491199E+00  0.10492305E+00
  0.29873406E+00  0.96128708E+00  0.18469066E+00
  0.51290049E-02  0.19894256E+00  0.64984640E-02
  0.54693598E+00  0.24423060E+00  0.14568719E+00
  0.87653236E+00  0.46169898E+00  0.89717603E+00
  0.94345640E+00  0.61090896E+00  0.29166427E+00
  0.78261206E+00  0.27424931E+00  0.61079836E+00
  0.71785164E+00  0.26941020E+00  0.28993390E+00
  0.24934628E-01  0.31649122E+00  0.90235548E+00
  0.65017447E+00  0.55015483E+00  0.95291412E+00
  0.79924049E+00  0.92517869E+00  0.98421750E+00
  0.79908786E+00  0.69523927E-01  0.69896394E-01
  0.74474904E+00  0.49765301E+00  0.57788984E+00
  0.65043942E+00  0.62434497E+00  0.63317367E+00
  0.87101004E+00  0.32463472E+00  0.88141932E-01
  0.90235369E-01  0.29435678E+00  0.41402706E+00
  0.69252975E+00  0.27101714E+00  0.77531565E+00
  0.35195299E+00  0.35193363E+00  0.89881982E+00
  0.24064341E+00  0.99434526E-01  0.27525654E+00
  0.80535668E+00  0.60072758E+00  0.90064516E-01
  0.57600023E+00  0.84315046E+00  0.59756460E+00
  0.83160035E-01  0.61642339E+00  0.89218556E-01
  0.23780207E+00  0.63962814E+00  0.28069934E-03
  0.86215811E+00  0.85314393E+00  0.50741163E+00
  0.84133914E+00  0.18493820E+00  0.27855574E+00
  0.23116471E-02  0.17892070E+00  0.76644808E+00
  0.64825706E-01  0.75364233E+00  0.20477156E-01
  0.71668305E-01  0.40378529E+00  0.54284018E+00
  0.15334925E-01  0.30230208E+00  0.64609689E+00
  0.71708523E+00  0.65038371E+00  0.41465506E+00
  0.45277235E+00  0.70217009E+00  0.34181846E+00
  0.20469352E+00  0.35452880E-01  0.60932452E+00
  0.93877832E+00  0.76015905E+00  0.21192817E+00
  0.12110756E+00  0.91117898E+00  0.26457127E+00
  0.12189440E+00  0.88890960E+00  0.61142600E+00
  0.22960407E+00  0.75286350E+00  0.40377576E+00
  0.51755049E+00  0.26792727E+00  0.93004133E+00
  0.68262764E+00  0.36774262E+00  0.13154919E+00
  0.10938021E+00  0.73035316E+00  0.71911856E+00
  0.63766245E+00  0.53811526E-01  0.91954770E+00
  0.19450943E+00  0.83644700E+00  0.96183058E+00
  0.22612795E+00  0.21074762E+00  0.42154303E+00
  0.55204251E+00  0.55911535E+00  0.99327180E-01
  0.82247893E-01  0.69511907E+00  0.28680082E+00
  0.37874591E+00  0.91088932E+00  0.32345492E+00
  0.84048262E+00  0.85494348E+00  0.12024331E+00
  0.32014193E+00  0.98708833E+00  0.70540647E+00
  0.92563588E+00  0.85087119E+00  0.34268625E+00
  0.85730041E+00  0.56425543E+00  0.47975537E+00
  0.65280120E+00  0.78604372E+00  0.71614557E+00
  0.31233630E+00  0.77752503E+00  0.27468932E+00
  0.18669167E+00  0.42587090E+00  0.41318463E+00
  0.95798108E+00  0.82151890E+00  0.62767876E+00
  0.40136322E+00  0.14288950E+00  0.37255059E+00
  0.85054344E+00  0.53541334E+00  0.69806885E+00
  0.36009195E+00  0.14337685E+00  0.17511871E+00
  0.24711917E+00  0.97469990E+00  0.38411449E+00
  0.55578532E+00  0.99318035E+00  0.42395225E+00
  0.47929188E+00  0.15854641E+00  0.39276682E-01
  0.56898833E+00  0.92515410E-01  0.30657722E+00
  0.95546119E+00  0.34683327E+00  0.29702698E+00
  0.95932880E+00  0.70854082E+00  0.77212347E+00
  0.44577852E+00  0.68288519E+00  0.96478275E+00
  0.23130195E+00  0.38656655E+00  0.26749611E+00
  0.58684280E+00  0.84080901E+00  0.36885724E+00
  0.15036461E+00  0.19785429E+00  0.10138069E+00
  0.97594568E+00  0.23284723E+00  0.19962923E+00
  0.12656233E+00  0.97025413E+00  0.99722226E+00
  0.77872867E+00  0.94615435E+00  0.62552462E+00
  0.89313255E+00  0.12409050E+00  0.52052149E+00
  0.98830495E+00  0.87616832E-01  0.89115757E+00
  0.35938636E+00  0.17660670E+00  0.59607830E+00
  0.39732477E+00  0.50768184E+00  0.49825453E+00
  0.27167948E+00  0.63739566E-01  0.66979712E-01
  0.63119836E-01  0.52996814E+00  0.64995554E+00
  0.19021159E+00  0.35757291E+00  0.91226151E+00
  0.52760717E+00  0.49199456E+00  0.65860786E+00
  0.31297306E+00  0.33384264E+00  0.44785348E+00
  0.73914225E+00  0.86169527E+00  0.35979801E+00
  0.28304031E+00  0.82802195E+00  0.74385278E+00
  0.40451733E+00  0.48750479E+00  0.75372194E+00
  0.91861273E+00  0.24107057E+00  0.40483939E+00
  0.11283200E+00  0.36778362E+00  0.75711335E+00
  0.23230400E+00  0.36933814E+00  0.63264200E+00
  0.31881113E+00  0.75192637E+00  0.60784605E+00
  0.67776270E+00  0.39382669E+00  0.93559771E+00
  0.77900262E+00  0.65566732E+00  0.78887136E+00
  0.11512330E+00  0.47808452E+00  0.22091019E+00
  0.50547639E+00  0.52402111E+00  0.90647575E+00
  0.74196642E+00  0.21405882E+00  0.78260944E-01
  0.33873970E+00  0.20531318E+00  0.97014297E+00
  0.77190076E+00  0.96502825E+00  0.23985878E+00
  0.72363844E+00  0.80898881E-01  0.33803509E+00
  0.20875410E+00  0.21705392E+00  0.58578449E+00
  0.44032968E+00  0.37490865E+00  0.59077995E+00
  0.53684615E-01  0.17267259E+00  0.54969055E+00
  0.93888610E+00  0.54007916E+00  0.14916071E+00
  0.21060550E+00  0.40893351E+00  0.67812320E-01
  0.51157589E+00  0.83962560E+00  0.22004897E+00
  0.83505737E+00  0.11680610E+00  0.91995746E+00
  0.40648862E+00  0.87936296E+00  0.11129432E+00
  0.80229845E+00  0.98163965E+00  0.81839973E+00
  0.44528856E+00  0.95812760E+00  0.52961452E+00
  0.54476653E+00  0.40474722E+00  0.81052221E+00
  0.86935152E+00  0.99917428E+00  0.42961705E+00
  0.83001525E+00  0.82282260E+00  0.71625426E+00