Sb                                      
   1.00000000000000     
    18.5673007965000018    0.0000000000000000    0.0000000000000000
     0.0000000000000000   18.5673007965000018    0.0000000000000000
     0.0000000000000000    0.0000000000000000   18.5673007965000018
   Ge   Sb   Te
    50    50   100
Direct
  0.5908685492313125  0.0062730436602424  0.1285614518169640
  0.8122276044467007  0.6949549107396241  0.7833611467982490
  0.0246420427449316  0.4447820530704619  0.2401645773775380
  0.1620557983734115  0.6616261795776804  0.1897187884223121
  0.7930218037904750  0.0601407091127502  0.6866081170152967
  0.9472118180363445  0.2258772383149097  0.7600116392699596
  0.3286592284815668  0.2379176764805647  0.5061922872199506
  0.2329596371702347  0.2524843783486536  0.1294215574265718
  0.2019420823349825  0.8247420406366472  0.9000334023764711
  0.6136627014354935  0.8940654666929497  0.2808061221110278
  0.1329980479610330  0.9454762857460443  0.1226180101620165
  0.1191136577845971  0.8491978492487294  0.5772315858748210
  0.0317903473567353  0.7086752896383257  0.0583074169765553
  0.5897027955908161  0.6868681271310144  0.2751459461377153
  0.4035949769475927  0.0757639135529885  0.0752545182113954
  0.9046187638978377  0.1637155279683339  0.1749636973566330
  0.0942783883054040  0.7556625475150277  0.7989971135221454
  0.3011210387110699  0.4172501881350184  0.5438426186116583
  0.7381096134545656  0.8617716969646325  0.5903474621739999
  0.5194891439027467  0.7911650553757240  0.1328963777933913
  0.4569373882260343  0.2806696054085845  0.5564460004402768
  0.7846406207597371  0.3154441333649036  0.1155501385604705
  0.1072346997480291  0.0894180587241941  0.9175596361741015
  0.1809313733981131  0.0869205854885416  0.5930670932375863
  0.5874413956719841  0.2765091144307767  0.8359910779017389
  0.3801467647503388  0.6146050568899675  0.5383023043928518
  0.7355189364327210  0.0846705770004767  0.0769744068080711
  0.6559875560338166  0.5551287099110832  0.1538752024441478
  0.4868423248778351  0.8372064472872275  0.5404891913911987
  0.2341436646165026  0.0677911402284340  0.9602868447905906
  0.4832511434455725  0.0863317294245528  0.4894187294481522
  0.6807227538313554  0.1916627463344713  0.0082298391901886
  0.3929046289969620  0.5309386585687546  0.7421165920667104
  0.6659713537039571  0.9210533161899231  0.7811115786959889
  0.4374355095545763  0.9238524461859862  0.7571447229229198
  0.9344275327373431  0.3905136274310750  0.4817891100847387
  0.8728928895601801  0.6276142786470341  0.2042335002186027
  0.7722174883136823  0.4290884019924778  0.7150598959236116
  0.9529802700759410  0.4965489326133262  0.6173155981758320
  0.4514978876098094  0.8441562463409775  0.9384263802457701
  0.8186151785786314  0.1031025676154960  0.5556601504778772
  0.7207437508296397  0.8768247557129104  0.0224933433767231
  0.0729735272507825  0.0236188328233307  0.6922082849544301
  0.4546812149270729  0.2187979684336004  0.0963535674958395
  0.3596717428569622  0.0079587397936691  0.9399161741175260
  0.6265133385532060  0.3222887972942345  0.0542667511000235
  0.0107226623285178  0.6106256313174603  0.9551985148335276
  0.7870513938929141  0.6529690279551359  0.0159686726712579
  0.9407825055174648  0.1661074784730814  0.5165453278164072
  0.6865015802056655  0.0115947985709429  0.4327812101937852
  0.7050243244867866  0.6940423866513467  0.9033589206005516
  0.0886501564673017  0.2426301162656229  0.7536123439205286
  0.2491144965514842  0.3295445264120856  0.4492712350425794
  0.5331752250489572  0.2948336355038615  0.4453337070352992
  0.1653955621883334  0.2880016123628323  0.6520022887532525
  0.6083432907490889  0.7101747983449170  0.4145187908507280
  0.2157418045587179  0.4155340341475554  0.6581834270909486
  0.1260692710219216  0.8272115155927673  0.4230447382381136
  0.1914066399624368  0.9309854529910531  0.8124907798150319
  0.5608921565258120  0.8460884484873574  0.6683401822927937
  0.3853189108560171  0.3258546694375655  0.7467431580712580
  0.4489452876261986  0.9411794394849063  0.2667552991423902
  0.6400309801273729  0.0565138924213722  0.7209516723244697
  0.6134523223894891  0.8028984433047721  0.9425282243781561
  0.8795952363219767  0.7362276428655354  0.0927481592279878
  0.6265329672131619  0.2620705214226777  0.6825930455958723
  0.8088949861948154  0.2719230794425154  0.8301615837011204
  0.0976820213246149  0.4831736706022363  0.4933031961664160
  0.6161000499315364  0.5064603233163433  0.7666950031739889
  0.0700156244398190  0.6062090015310998  0.8216868381404147
  0.0201891068715856  0.2910743293052628  0.0674671828963786
  0.6902127288425696  0.5471179500452604  0.3871568762095269
  0.1083836895553592  0.3076032768665555  0.5138381934508708
  0.3362072819765704  0.9367393000751880  0.4552160703441884
  0.3919106811310452  0.4206222687897410  0.0085420599526206
  0.5083641079684335  0.1597721728524746  0.6443600183788317
  0.6023977102171035  0.6833210136565426  0.0470308362240730
  0.0524397823655872  0.9721469568131733  0.8484177668210143
  0.8282275843679395  0.7653375039134783  0.3490921305398991
  0.4261589212186875  0.4163428346744873  0.6089776264111673
  0.4368148771554032  0.2109974686151507  0.3016501462661038
  0.9977266313962783  0.9723590845130688  0.4635126400266190
  0.4986219572521693  0.6704033597405413  0.8552124462936581
  0.5457193116756127  0.4160795714420741  0.2383733262954329
  0.2664455597117580  0.2901263770499019  0.8524290905264857
  0.4044315506444777  0.6129891531534267  0.1726728712251232
  0.7381375910360839  0.3101059840520196  0.5252004701290460
  0.2423811508868675  0.6816487480241510  0.8451951161874222
  0.2128786388171792  0.3814956474837963  0.3106693798850125
  0.6715726652591009  0.6343537919625786  0.5224265244517120
  0.9568837897281780  0.7495099003736000  0.6474538014630314
  0.8719418496512649  0.5762377842818366  0.4261219430003594
  0.8627448649803867  0.4387134474190171  0.9325201250884977
  0.1079122702671549  0.1690643902113091  0.2939629502425031
  0.8782844294562102  0.4944197631274866  0.1635797755989122
  0.8551438080484002  0.9864750978604772  0.9004616423576607
  0.3423841440394380  0.4820736914897083  0.2300100163514064
  0.0784320703004449  0.4417518530764104  0.8281395110779486
  0.1837680338815752  0.7330316996977869  0.0544752678941599
  0.1439091689479208  0.7836028084133229  0.2641872671483784
  0.2825254089712455  0.2061808255346778  0.6447236635581287
  0.1343459308799680  0.3864345816182507  0.1324475171253086
  0.0712499139371709  0.8558221101968090  0.9632551945203901
  0.5619571553651060  0.1012993927802964  0.0247148474373500
  0.7472887760704991  0.5716614935309446  0.7070710361174468
  0.8282800350273803  0.9891924988828660  0.4661456040922765
  0.8451536084258171  0.8253628899459410  0.9554725701475162
  0.3557489035978754  0.8651887768566512  0.5968485576307435
  0.8631934232615674  0.2887777304648009  0.9889206082134403
  0.6645474607120720  0.7437777545958276  0.6554842443615078
  0.3000155679572292  0.9818420449087468  0.2968037540338351
  0.3724372891773535  0.7960189411825677  0.8182565391421551
  0.9734813095150133  0.9773450065057248  0.2741953691977232
  0.3893780089443671  0.0579589862492699  0.6110894920114968
  0.2003852164761630  0.9363654220241719  0.6671293016786484
  0.0399058397488300  0.5872826555228389  0.1461650819458924
  0.5414764218946914  0.5530112467143352  0.3271822822736224
  0.1172996173347560  0.1586046987429075  0.4744465339308618
  0.2503533910935069  0.0730319645718117  0.1035563882096183
  0.1284837025451431  0.9839621377451357  0.2709993044797535
  0.5336534748806736  0.4952160860906438  0.1014461861300433
  0.0622617374207066  0.3193036494379183  0.3316626334935344
  0.2656491147384587  0.7465020064472557  0.5349591282041070
  0.6511736438584190  0.3658783013168966  0.4032602242377314
  0.2972648543884085  0.5321064111196250  0.0875866743283366
  0.0949738306989835  0.2927699099097585  0.8941787986892047
  0.4739662217250282  0.7155603763120089  0.4669999406017233
  0.8328321914888791  0.8465483119817823  0.1972861047958613
  0.1063010497508576  0.7181136680391457  0.6543465117588453
  0.9677447145951171  0.8222625324819610  0.4452707746217081
  0.4939807618914951  0.2998190995454471  0.9746190909143528
  0.8638095121971282  0.6069235688638736  0.8991324649864209
  0.4554631609584021  0.9198023038943077  0.1014197842697002
  0.9296632697145828  0.3970524805285849  0.7803990646347055
  0.9994655631410416  0.6026641097197772  0.5117888394347551
  0.1838168776876966  0.5984085532001964  0.9584704780428169
  0.5215009642290139  0.6119358794186422  0.7057562084912230
  0.6875579791870221  0.1704343514856720  0.8592874775680224
  0.6927870455265286  0.0122650586843843  0.2833990117218384
  0.3075297365680466  0.6427073732495518  0.6639706170123324
  0.4824014903367090  0.0848718742381183  0.2162356500978350
  0.9448192532818672  0.7974099663289884  0.7969954566971379
  0.8792809658304889  0.0655172901989393  0.0337165161471078
  0.8132299712522959  0.4567469924013162  0.5357013686876271
  0.0214468646967461  0.8318179361029289  0.1779700038854195
  0.2598499390782745  0.2273296274416088  0.2747236251375222
  0.4230814300411198  0.3587051052604149  0.3786009164849090
  0.9853156521487171  0.1716958268940416  0.9272421725722841
  0.4536427684933029  0.7531903302036129  0.2544633998688607
  0.4524784452514163  0.7108001463911419  0.0239514941209518
  0.8637620685484647  0.2685023737611809  0.4301979097052490
  0.7646791320418186  0.5123556101733071  0.0591720184771397
  0.9131711301470338  0.0750744713318677  0.7570785257619549
  0.9538215969053581  0.6707668823421656  0.3153968810447477
  0.2772554787465072  0.8088735143515187  0.3946297177577288
  0.4633762254210184  0.1971169582050407  0.7966375879596626
  0.9560186888359149  0.2802860677302198  0.6171172041211406
  0.3669799048766051  0.3445445067168483  0.1474712810903923
  0.7166451887266722  0.3963399422266138  0.8580444687896271
  0.7079623933858772  0.4380613942081248  0.2338072508855034
  0.8113255661453256  0.7123210610283424  0.5206386262892359
  0.7975039793750934  0.9184812091904228  0.7203062890920656
  0.1271829677980858  0.5113973459990976  0.3299388712571373
  0.5080195683803305  0.9949978790988826  0.8737222166689371
  0.2473024743845617  0.3874232339633409  0.9760129679706357
  0.7760000707238982  0.2290254497494381  0.6769702086215234
  0.0183354601325399  0.4599787166848914  0.9705648398594932
  0.7415660447718138  0.6476927774297631  0.2896506942451917
  0.7574335732988307  0.1858411344961503  0.1869570559746893
  0.1755042836990620  0.1344153847815828  0.7919762684087045
  0.9015414403429215  0.4488316957403071  0.3433694905417353
  0.9188992295888158  0.3086803770585356  0.1953351629671237
  0.2396518855980886  0.8501289318671710  0.1603508155198934
  0.0877071867388790  0.1665454164678651  0.1336167670517391
  0.6241509574956298  0.9720963458278880  0.6000045319946602
  0.1160448746972332  0.5142875562089366  0.6482614213763246
  0.4980374181364592  0.5245342458640585  0.5301377008349487
  0.3172017334810623  0.0078883341664766  0.7957010838391330
  0.9865899288288094  0.9190124756338309  0.6156361055373650
  0.1740411428550179  0.9864297083461697  0.4746965269383385
  0.6817266074727458  0.8334787661640236  0.4047766522585140
  0.9414402839772028  0.1186621050688497  0.3250344929565563
  0.5717546270584736  0.2553869929861137  0.1697526868629109
  0.9326205151421737  0.6119227162888784  0.7281042393938157
  0.3533546616573605  0.1305288679892023  0.4203874347346219
  0.1525903948831182  0.6761180846016097  0.4402077309105756
  0.3011848393104191  0.8819628626188762  0.9878228448291342
  0.3778164236930986  0.5726985759658855  0.8850489718142522
  0.2800482221394563  0.6219493640251060  0.2699699099862718
  0.6115737859485523  0.5726408502427730  0.9206632680427697
  0.7017735685449695  0.9866841762394776  0.9188462823125914
  0.5039138373066392  0.9470750740268120  0.4352374630771320
  0.3074937453524348  0.1939818543387813  0.9666911861781432
  0.5650112880554775  0.1693886521868691  0.3726637415692032
  0.6252326255630509  0.4052886908496065  0.6424416543517206
  0.6966110293839002  0.1514491942824172  0.5004723586018034
  0.6903985041499258  0.8062292124851266  0.1720936789852153
  0.2871017617557942  0.5293631538324215  0.4560468881046033
  0.4833190095552881  0.4268535366858960  0.8266069249519222
  0.2634490273386373  0.4530756626297825  0.7930601845636753
 
  0.22098828E-02  0.46565743E-03  0.33193820E-02
 -0.17143676E-02  0.59884921E-03  0.89110171E-03
 -0.22145291E-03 -0.13844520E-03  0.74060644E-03
  0.10098537E-02 -0.61133690E-03  0.56626600E-04
 -0.13028597E-03  0.50556094E-03 -0.69108535E-03
 -0.25257751E-02  0.60382091E-03  0.42741380E-02
  0.17076230E-02 -0.95052719E-03  0.22939184E-02
  0.43445789E-02 -0.47170220E-03 -0.15446457E-02
 -0.20599819E-02  0.14751990E-02  0.12598496E-02
 -0.84992570E-03 -0.19309282E-02  0.12784893E-02
  0.32507268E-03  0.40131696E-03 -0.21478525E-03
 -0.36175070E-03 -0.40978393E-02  0.81624687E-03
  0.18104198E-02 -0.23503559E-02  0.10059187E-02
  0.17941632E-02  0.16727687E-03 -0.27520845E-03
  0.30655530E-03 -0.34369360E-02  0.99193126E-04
  0.53178555E-03 -0.25082427E-02 -0.60279257E-03
  0.13143784E-02  0.93125104E-03 -0.10822764E-03
  0.84153125E-03  0.69609068E-03 -0.13911858E-02
  0.29879018E-02 -0.40872296E-03 -0.28272850E-02
  0.26791714E-03 -0.91044924E-03  0.15772441E-02
 -0.23030008E-02 -0.11234416E-02 -0.14303071E-02
 -0.11371759E-02  0.36975894E-02 -0.56629363E-03
  0.97536861E-03 -0.47710529E-03  0.31929826E-03
 -0.60475883E-03  0.14640461E-02  0.42921060E-03
 -0.64340356E-03 -0.15467294E-02 -0.16606021E-02
  0.62334267E-04 -0.13277424E-02 -0.10424463E-02
  0.14330938E-02 -0.53900939E-03 -0.33383552E-02
 -0.85476869E-03 -0.24139129E-02  0.63457447E-03
  0.18760772E-02 -0.16019916E-02  0.37497784E-02
  0.18411317E-02  0.15382562E-02  0.20466670E-02
 -0.43541774E-03 -0.96189513E-04 -0.82665398E-03
 -0.21564500E-02  0.47092822E-03 -0.21829077E-02
  0.62369266E-03  0.19919849E-02 -0.36728024E-03
  0.24829486E-02 -0.72302637E-04 -0.11245683E-02
 -0.19841899E-02  0.14429248E-02  0.52475097E-03
 -0.18132035E-03  0.10741695E-03  0.11310216E-02
 -0.26999966E-02  0.23167288E-02 -0.45159802E-03
 -0.20168246E-02 -0.79926884E-03  0.31318356E-05
  0.18217538E-02 -0.26319533E-02 -0.17574946E-02
 -0.13150039E-03 -0.23588179E-03 -0.86162253E-03
 -0.19750073E-03  0.18001103E-02  0.22340764E-02
  0.23874671E-03 -0.16417729E-02 -0.37726095E-02
 -0.51411864E-03 -0.55070439E-03 -0.19820553E-02
 -0.10493022E-02 -0.73513714E-03  0.81459862E-03
 -0.39938840E-03 -0.18129654E-02 -0.29759395E-02
  0.27726188E-02  0.21192975E-02 -0.13511747E-02
 -0.56696539E-03 -0.27714207E-02  0.34388506E-03
  0.67533767E-03 -0.69706758E-03  0.52915220E-03
 -0.28659877E-02  0.67532715E-03 -0.17815735E-02
 -0.73983402E-03 -0.50973159E-03  0.17351191E-02
  0.36714971E-02  0.83553894E-03  0.29905271E-02
 -0.74408658E-03 -0.75172629E-03  0.39189505E-02
  0.25856376E-02  0.16940326E-02 -0.26020736E-02
  0.30371437E-03  0.20931659E-02  0.14219979E-02
  0.13994791E-02  0.12825408E-02 -0.89462150E-03
 -0.16347806E-02 -0.18293821E-02 -0.11743757E-02
 -0.32983531E-03 -0.17881896E-02 -0.28457019E-02
 -0.17032859E-02  0.10532568E-03 -0.14814827E-02
  0.14772404E-03  0.52217733E-03 -0.44924846E-05
 -0.21578723E-04  0.72703567E-03  0.82873631E-03
  0.42947384E-03  0.27455621E-03 -0.10478780E-02
  0.15794715E-03 -0.13336825E-03 -0.10723377E-02
  0.17240154E-02  0.63719161E-03 -0.21008157E-02
  0.41215038E-03 -0.13660977E-03  0.25120542E-02
 -0.55808187E-03  0.75738673E-04  0.43727942E-03
  0.30752806E-02  0.10830144E-02  0.23794864E-03
  0.74768938E-03 -0.10736613E-02 -0.72868004E-03
 -0.48745557E-03 -0.98575955E-03  0.14229680E-02
  0.94370939E-03 -0.22991667E-03  0.29840772E-02
  0.37885164E-03  0.16192053E-02 -0.23286083E-02
 -0.49243513E-03 -0.43297440E-03 -0.17527708E-02
 -0.11804218E-02 -0.15038367E-02  0.39590782E-02
  0.15580797E-02  0.18071931E-02  0.38418523E-03
 -0.10477365E-02 -0.83942517E-03  0.12169119E-02
  0.16841894E-02 -0.26091539E-02  0.43069893E-04
  0.19272949E-04 -0.99873362E-03  0.37446431E-03
  0.62778705E-03  0.16534658E-03  0.23557325E-03
  0.35088210E-04  0.28125400E-02  0.92816206E-03
  0.14896531E-02  0.11538885E-02 -0.46282129E-03
 -0.18100284E-02 -0.26597863E-03  0.30969375E-03
  0.55479642E-03  0.33287709E-02 -0.22805575E-02
 -0.11979802E-02  0.87811373E-03  0.85616586E-03
 -0.42873289E-03 -0.69791340E-03  0.34156635E-04
  0.10824991E-02 -0.40642339E-03 -0.14405641E-02
 -0.18442974E-03 -0.12598160E-02 -0.17371147E-02
 -0.23484014E-02 -0.12287116E-02  0.24226407E-02
 -0.94153333E-03 -0.27613785E-02  0.14585774E-02
 -0.15038504E-02 -0.19668238E-02  0.83019826E-03
 -0.12732209E-02 -0.24120148E-02  0.57880577E-03
 -0.95793304E-04 -0.20753272E-02 -0.34885605E-03
 -0.17822931E-02  0.51090693E-03 -0.10316160E-02
  0.19130083E-02  0.22838454E-02 -0.66083071E-03
 -0.35037414E-03  0.20627080E-03  0.39112103E-02
  0.56093421E-03 -0.14679470E-02 -0.25582930E-03
  0.23275848E-03  0.16300981E-02  0.86075577E-03
 -0.25530751E-02 -0.10746740E-02  0.45880268E-03
 -0.21784678E-02 -0.33111553E-03  0.29416357E-03
  0.23022112E-03 -0.59746593E-03 -0.34215365E-02
 -0.56178364E-03  0.19073546E-02  0.21450147E-02
 -0.11300073E-02  0.50130934E-03  0.27232652E-02
 -0.27686777E-03  0.13772058E-03  0.14880921E-02
 -0.18546322E-02 -0.81202171E-03 -0.84544831E-03
 -0.17351258E-02 -0.30952321E-03 -0.86411223E-03
 -0.73159516E-03 -0.16097259E-03  0.63640779E-03
  0.52872304E-03 -0.25704087E-02 -0.37404422E-02
  0.14284347E-02  0.39557463E-03  0.40561827E-03
  0.59893891E-03  0.12156845E-02  0.58751721E-03
  0.11993264E-02 -0.45828155E-03  0.33786686E-02
 -0.28220059E-02  0.94245033E-03  0.46762113E-04
  0.68749243E-03  0.30602212E-02 -0.97564769E-03
 -0.15083097E-02  0.14068234E-02 -0.88532358E-03
  0.18651888E-02 -0.57071509E-03  0.14663506E-03
 -0.14861214E-02  0.10673337E-03  0.24667204E-02
  0.20619523E-02  0.98848383E-03 -0.56265401E-03
 -0.15952116E-02 -0.11600313E-02  0.15725135E-02
 -0.31399090E-03 -0.34371233E-03 -0.30956159E-02
 -0.71387778E-03 -0.43730559E-03 -0.21225598E-02
  0.74734053E-03 -0.56793652E-03 -0.27451406E-02
  0.12550943E-03  0.16759377E-03 -0.35003438E-03
 -0.77757557E-04  0.31970632E-03 -0.17736952E-02
 -0.17957083E-02  0.97708601E-03 -0.55396030E-03
 -0.17667054E-02 -0.82487808E-03  0.16233402E-03
  0.20450451E-02 -0.81769465E-03 -0.15731130E-02
 -0.21991302E-02  0.52492522E-03 -0.12314376E-02
 -0.25194160E-02 -0.54421990E-03 -0.89918375E-03
  0.95120172E-03 -0.23588494E-03  0.10812216E-02
 -0.10205757E-02  0.71590561E-03 -0.10810951E-02
 -0.27946856E-03 -0.13670405E-02 -0.17807698E-02
  0.29815933E-02  0.72989982E-03  0.32245185E-03
  0.13640900E-02  0.72652610E-03  0.21401751E-02
  0.31154294E-02 -0.19861894E-02 -0.13466142E-02
  0.10647178E-02 -0.56819109E-04 -0.12087183E-02
 -0.47691296E-03  0.33500411E-02  0.67780572E-03
 -0.51836441E-03 -0.81321728E-03 -0.15343722E-03
 -0.57076638E-03 -0.64176095E-03  0.97515014E-03
 -0.98072116E-03 -0.24780179E-02 -0.65157936E-03
  0.49157118E-03 -0.80403751E-05 -0.79080410E-03
  0.19774618E-02  0.10685737E-02 -0.18783130E-02
 -0.12284536E-02  0.69590352E-03  0.23465275E-03
 -0.14650563E-02 -0.10980458E-02  0.25490115E-02
 -0.20143899E-02 -0.16378871E-03  0.78565015E-03
  0.63404568E-03 -0.85869415E-04 -0.10932757E-03
  0.21180792E-02  0.74589131E-03  0.12307581E-02
  0.76925385E-03  0.26782838E-02 -0.70949434E-03
  0.76950983E-03  0.60704054E-03  0.10399136E-02
 -0.96625357E-03 -0.13373932E-02 -0.17652313E-02
 -0.38046899E-03 -0.69636943E-03  0.52511412E-08
 -0.24679433E-03  0.16477653E-02  0.69805931E-03
  0.13216033E-02  0.13398819E-02  0.77052642E-03
  0.59441715E-03  0.14837446E-02 -0.12924332E-02
 -0.50313096E-03 -0.58189209E-03 -0.10942922E-02
 -0.99338194E-04  0.33274143E-02  0.79932298E-03
 -0.17153098E-03  0.10362972E-02  0.22146391E-02
  0.17783522E-02  0.22453940E-02 -0.21990490E-02
 -0.77275849E-03 -0.14702465E-02  0.19768408E-02
 -0.14590894E-02 -0.84578427E-03 -0.28763406E-02
  0.63643937E-03  0.78755367E-03 -0.26923489E-02
  0.11627324E-02 -0.50853301E-03  0.18027850E-02
 -0.12890489E-02 -0.18928113E-02 -0.10329070E-02
 -0.19370347E-04  0.46860032E-02  0.29818592E-02
  0.17478051E-02 -0.20931101E-02  0.11461392E-02
 -0.66502039E-03 -0.22941243E-04  0.20274350E-03
  0.14778414E-02 -0.16250196E-02 -0.11645940E-02
  0.18517411E-02 -0.15927248E-03 -0.99157901E-03
  0.94385790E-03  0.87225755E-03 -0.16538236E-02
  0.52991978E-03  0.22314801E-02 -0.15946264E-02
  0.29918477E-03 -0.14097719E-02  0.13847371E-02
  0.21678828E-02  0.27609234E-03 -0.12677557E-02
 -0.24030984E-02 -0.15615452E-02 -0.21133815E-03
 -0.10614641E-02 -0.97325768E-03  0.73435737E-03
  0.14376329E-02  0.52454953E-03  0.30564502E-02
 -0.14066859E-02  0.11538937E-02 -0.24873529E-03
  0.23257536E-02  0.86967663E-03 -0.17073182E-02
 -0.27443816E-02 -0.15245474E-02 -0.15309056E-03
  0.13791830E-02 -0.18467279E-03 -0.30660091E-02
 -0.34175634E-03 -0.10985757E-02  0.13202397E-02
 -0.27833581E-02 -0.21643874E-02 -0.60104176E-03
 -0.75031135E-03 -0.12879765E-02  0.22460769E-03
  0.39627546E-03  0.11987651E-02  0.30669709E-02
  0.38106194E-03 -0.95976843E-03  0.46300100E-03
  0.13185798E-02  0.27599855E-03 -0.72003554E-03
  0.71341180E-03  0.77709578E-03  0.18206367E-02
 -0.65181554E-03 -0.11361466E-03 -0.13061475E-02
  0.41514431E-03 -0.31830140E-03  0.21550137E-03
  0.33796055E-04  0.19451772E-02 -0.19473414E-02
  0.60192695E-03  0.20656047E-02  0.55995475E-03
  0.48420107E-03 -0.18999904E-02 -0.83388295E-03
  0.31172476E-03  0.22522445E-02 -0.17913006E-02
  0.15145304E-02  0.10778310E-02  0.84431024E-03
 -0.17362126E-02 -0.61668950E-03  0.42184917E-03
  0.34050902E-03  0.18879954E-02  0.16810312E-02
 -0.12591252E-02  0.13249106E-02  0.14727699E-02
  0.10449787E-02 -0.60520300E-03 -0.11689877E-02
 -0.14312593E-02  0.34545592E-03  0.21988235E-02
 -0.40387343E-02  0.45848154E-03 -0.56887792E-03
  0.17383228E-02 -0.62069421E-03  0.13377290E-02
 -0.19033392E-02 -0.34035013E-02  0.54988720E-03
  0.19100351E-02  0.85462518E-03  0.51600426E-04
  0.21885566E-02  0.69770879E-03  0.24956951E-02
 -0.28852509E-02  0.11405208E-02  0.15994990E-02
 
           1
   3.00000000000000     
  0.10000000E+01  0.00000000E+00  0.00000000E+00  0.00000000E+00
  0.59122754E+00  0.63486894E-02  0.12910068E+00
  0.81194911E+00  0.69505219E+00  0.78350591E+00
  0.24606068E-01  0.44475956E+00  0.24028489E+00
  0.16221985E+00  0.66152687E+00  0.18972799E+00
  0.79300064E+00  0.60222837E-01  0.68649585E+00
  0.94680151E+00  0.22597533E+00  0.76070597E+00
  0.32893663E+00  0.23776326E+00  0.50656493E+00
  0.23366541E+00  0.25240775E+00  0.12917063E+00
  0.20160744E+00  0.82498169E+00  0.90023806E+00
  0.61352463E+00  0.89375179E+00  0.28101381E+00
  0.13305086E+00  0.94554148E+00  0.12258312E+00
  0.11905489E+00  0.84853216E+00  0.57736418E+00
  0.32084449E-01  0.70829348E+00  0.58470828E-01
  0.58999426E+00  0.68689530E+00  0.27510124E+00
  0.40364478E+00  0.75205586E-01  0.75270632E-01
  0.90470515E+00  0.16330807E+00  0.17486577E+00
  0.94491908E-01  0.75581383E+00  0.79897953E+00
  0.30125774E+00  0.41736327E+00  0.54361662E+00
  0.73859500E+00  0.86170530E+00  0.58988817E+00
  0.51953267E+00  0.79101715E+00  0.13315260E+00
  0.45656327E+00  0.28048710E+00  0.55621365E+00
  0.78445589E+00  0.31604480E+00  0.11545814E+00
  0.10739315E+00  0.89340553E-01  0.91761151E+00
  0.18083313E+00  0.87158419E-01  0.59313682E+00
  0.58733688E+00  0.27625785E+00  0.83572131E+00
  0.38015689E+00  0.61438937E+00  0.53813296E+00
  0.73575174E+00  0.84583015E-01  0.76432093E-01
  0.65584870E+00  0.55473657E+00  0.15397829E+00
  0.48714709E+00  0.83694620E+00  0.54109834E+00
  0.23444276E+00  0.68041029E-01  0.96061932E+00
  0.48318041E+00  0.86316104E-01  0.48928444E+00
  0.68037244E+00  0.19173925E+00  0.78752274E-02
  0.39300595E+00  0.53126226E+00  0.74205693E+00
  0.66637471E+00  0.92104157E+00  0.78092889E+00
  0.43711318E+00  0.92408685E+00  0.75722997E+00
  0.93439808E+00  0.39053108E+00  0.48197284E+00
  0.87245428E+00  0.62799063E+00  0.20416014E+00
  0.77188986E+00  0.42895856E+00  0.71506040E+00
  0.95327621E+00  0.49612137E+00  0.61703009E+00
  0.45147653E+00  0.84411793E+00  0.93828641E+00
  0.81858309E+00  0.10339499E+00  0.55602307E+00
  0.72078254E+00  0.87655805E+00  0.21880486E-01
  0.72890009E-01  0.23529371E-01  0.69188630E+00
  0.45451076E+00  0.21867855E+00  0.96485898E-01
  0.35960686E+00  0.76642248E-02  0.93943273E+00
  0.62696375E+00  0.32263308E+00  0.54047254E-01
  0.10630559E-01  0.61017542E+00  0.95525438E+00
  0.78716110E+00  0.65285579E+00  0.16054633E-01
  0.94031693E+00  0.16621718E+00  0.51625591E+00
  0.68638139E+00  0.11511993E-01  0.43306308E+00
  0.70562076E+00  0.69417812E+00  0.90384473E+00
  0.88529280E-01  0.24250800E+00  0.75424897E+00
  0.24953453E+00  0.32981972E+00  0.44884853E+00
  0.53322456E+00  0.29517367E+00  0.44556471E+00
  0.16562291E+00  0.28820996E+00  0.65185696E+00
  0.60807772E+00  0.70987762E+00  0.41432801E+00
  0.21568822E+00  0.41524354E+00  0.65772114E+00
  0.12579257E+00  0.82722863E+00  0.42280407E+00
  0.19143064E+00  0.93107028E+00  0.81249005E+00
  0.56088865E+00  0.84620655E+00  0.66847481E+00
  0.38538868E+00  0.32589927E+00  0.74657293E+00
  0.44897095E+00  0.94115777E+00  0.26658110E+00
  0.64031105E+00  0.56617404E-01  0.72061040E+00
  0.61351928E+00  0.80287625E+00  0.94293631E+00
  0.87950458E+00  0.73623995E+00  0.92819195E-01
  0.62703254E+00  0.26224646E+00  0.68263170E+00
  0.80901645E+00  0.27174866E+00  0.83004321E+00
  0.97602835E-01  0.48301353E+00  0.49353436E+00
  0.61625335E+00  0.50642297E+00  0.76717976E+00
  0.70077169E-01  0.60647204E+00  0.82130856E+00
  0.20109111E-01  0.29100399E+00  0.67182447E-01
  0.69002097E+00  0.54687365E+00  0.38780003E+00
  0.10863680E+00  0.30789685E+00  0.51390060E+00
  0.33603708E+00  0.93660294E+00  0.45541376E+00
  0.39218428E+00  0.42019841E+00  0.85490566E-02
  0.50836724E+00  0.15960993E+00  0.64442085E+00
  0.60249969E+00  0.68334787E+00  0.47069105E-01
  0.52445482E-01  0.97260385E+00  0.84856855E+00
  0.82846958E+00  0.76552495E+00  0.34901695E+00
  0.42586488E+00  0.41629963E+00  0.60902794E+00
  0.43690500E+00  0.21153823E+00  0.30127967E+00
  0.99753202E+00  0.97250173E+00  0.46365172E+00
  0.49855231E+00  0.67028998E+00  0.85521800E+00
  0.54589516E+00  0.41601355E+00  0.23813931E+00
  0.26641560E+00  0.28992172E+00  0.85214690E+00
  0.40405005E+00  0.61278955E+00  0.17306643E+00
  0.73798464E+00  0.30965740E+00  0.52543742E+00
  0.24213685E+00  0.68132924E+00  0.84532998E+00
  0.21267180E+00  0.38110382E+00  0.31076341E+00
  0.67155710E+00  0.63401666E+00  0.52236985E+00
  0.95659426E+00  0.74959290E+00  0.64728622E+00
  0.87225262E+00  0.57660879E+00  0.42601459E+00
  0.86268795E+00  0.43874696E+00  0.93315550E+00
  0.10800339E+00  0.16882592E+00  0.29392139E+00
  0.87832224E+00  0.49468457E+00  0.16371960E+00
  0.85472906E+00  0.98630052E+00  0.90053617E+00
  0.34203025E+00  0.48201990E+00  0.23005780E+00
  0.78469470E-01  0.44165480E+00  0.82758368E+00
  0.18367677E+00  0.73334155E+00  0.54823724E-01
  0.14372560E+00  0.78368425E+00  0.26462966E+00
  0.28248043E+00  0.20620320E+00  0.64496540E+00
  0.13404465E+00  0.38630267E+00  0.13231017E+00
  0.70968044E-01  0.85577183E+00  0.96311482E+00
  0.56183831E+00  0.10127324E+00  0.24818231E-01
  0.74737467E+00  0.57124393E+00  0.70646340E+00
  0.82851208E+00  0.98925676E+00  0.46621150E+00
  0.84525091E+00  0.82556038E+00  0.95556801E+00
  0.35594373E+00  0.86511433E+00  0.59739742E+00
  0.86273499E+00  0.28893083E+00  0.98892820E+00
  0.66465914E+00  0.74427489E+00  0.65532575E+00
  0.29977054E+00  0.98207058E+00  0.29665993E+00
  0.37274029E+00  0.79592623E+00  0.81828036E+00
  0.97323989E+00  0.97736235E+00  0.27459609E+00
  0.38971297E+00  0.58119565E-01  0.61099809E+00
  0.20012608E+00  0.93617698E+00  0.66738476E+00
  0.39854832E-01  0.58722682E+00  0.14566220E+00
  0.54136045E+00  0.55294021E+00  0.32683747E+00
  0.11742102E+00  0.15851244E+00  0.47400059E+00
  0.25037378E+00  0.73059190E-01  0.10349953E+00
  0.12847107E+00  0.98401407E+00  0.27071117E+00
  0.53336176E+00  0.49537481E+00  0.10135620E+00
  0.61974737E-01  0.31916965E+00  0.33168900E+00
  0.26598133E+00  0.74636917E+00  0.53470358E+00
  0.65081640E+00  0.36596358E+00  0.40306018E+00
  0.29685558E+00  0.53201800E+00  0.87440603E-01
  0.95128353E-01  0.29273159E+00  0.89435444E+00
  0.47380043E+00  0.71567667E+00  0.46682432E+00
  0.83278679E+00  0.84632624E+00  0.19699682E+00
  0.10678541E+00  0.71823224E+00  0.65439889E+00
  0.96796631E+00  0.82238056E+00  0.44561844E+00
  0.49448686E+00  0.29949644E+00  0.97440033E+00
  0.86398247E+00  0.60691434E+00  0.89893611E+00
  0.45538569E+00  0.92034652E+00  0.10152989E+00
  0.92957906E+00  0.39692037E+00  0.78037414E+00
  0.99937284E+00  0.60255986E+00  0.51194725E+00
  0.18365756E+00  0.59800600E+00  0.95836463E+00
  0.52158082E+00  0.61193457E+00  0.70562774E+00
  0.68787922E+00  0.17060794E+00  0.85898235E+00
  0.69258748E+00  0.12378108E-01  0.28343713E+00
  0.30729174E+00  0.64252900E+00  0.66438470E+00
  0.48207425E+00  0.84845267E-01  0.21636328E+00
  0.94492225E+00  0.79739602E+00  0.79697770E+00
  0.87962505E+00  0.65638460E-01  0.33916452E-01
  0.81335494E+00  0.45718208E+00  0.53558611E+00
  0.21571871E-01  0.83191655E+00  0.17813894E+00
  0.25969297E+00  0.22711237E+00  0.27443686E+00
  0.42301962E+00  0.35859198E+00  0.37860092E+00
  0.98527556E+00  0.17196351E+00  0.92735557E+00
  0.45385746E+00  0.75340799E+00  0.25458857E+00
  0.45257501E+00  0.71104118E+00  0.23741539E-01
  0.86368034E+00  0.26840785E+00  0.43002014E+00
  0.76466299E+00  0.51289615E+00  0.59301868E-01
  0.91314327E+00  0.75242817E-01  0.75743829E+00
  0.95411049E+00  0.67113165E+00  0.31503965E+00