Cd3 Pb9 Se12                            
   1.00000000000000     
     1.9127714677692571   -3.3130173654444488    0.0000000000000000
     1.9127714677692571    3.3130173654444488    0.0000000000000000
     0.0000000000000001   -0.0000000000000012   37.2805256713001754
   Cd   Pb   Se
     3     9    12
Direct
  0.0000000000000000  0.0000000000000000  0.0000000000000000
  0.6666666666666643  0.3333333333333357  0.3333333333333357
  0.3333333333333357  0.6666666666666643  0.6666666666666643
  0.6666666666666643  0.3333333333333357  0.0873719118946887
  0.3333333333333357  0.6666666666666643  0.1666666666666643
  0.0000000000000000  0.0000000000000000  0.2459614214386469
  0.3333333333333357  0.6666666666666643  0.4207052452280176
  0.0000000000000000  0.0000000000000000  0.5000000000000000
  0.6666666666666643  0.3333333333333357  0.5792947547719829
  0.0000000000000000  0.0000000000000000  0.7540385785613528
  0.6666666666666643  0.3333333333333357  0.8333333333333357
  0.3333333333333357  0.6666666666666643  0.9126280881053115
  0.6666666666666643  0.3333333333333357  0.2069675859561031
  0.3333333333333357  0.6666666666666643  0.2836437156339079
  0.3333333333333357  0.6666666666666643  0.0496896176994208
  0.0000000000000000  0.0000000000000000  0.1263657473772325
  0.3333333333333357  0.6666666666666643  0.5403009192894387
  0.0000000000000000  0.0000000000000000  0.6169770489672437
  0.0000000000000000  0.0000000000000000  0.3830229510327564
  0.6666666666666643  0.3333333333333357  0.4596990807105611
  0.0000000000000000  0.0000000000000000  0.8736342526227673
  0.6666666666666643  0.3333333333333357  0.9503103823005794
  0.6666666666666643  0.3333333333333357  0.7163562843660920
  0.3333333333333357  0.6666666666666643  0.7930324140438970
 
  0.00000000E+00  0.00000000E+00  0.00000000E+00
  0.00000000E+00  0.00000000E+00  0.00000000E+00
  0.00000000E+00  0.00000000E+00  0.00000000E+00
  0.00000000E+00  0.00000000E+00  0.00000000E+00
  0.00000000E+00  0.00000000E+00  0.00000000E+00
  0.00000000E+00  0.00000000E+00  0.00000000E+00
  0.00000000E+00  0.00000000E+00  0.00000000E+00
  0.00000000E+00  0.00000000E+00  0.00000000E+00
  0.00000000E+00  0.00000000E+00  0.00000000E+00
  0.00000000E+00  0.00000000E+00  0.00000000E+00
  0.00000000E+00  0.00000000E+00  0.00000000E+00
  0.00000000E+00  0.00000000E+00  0.00000000E+00
  0.00000000E+00  0.00000000E+00  0.00000000E+00
  0.00000000E+00  0.00000000E+00  0.00000000E+00
  0.00000000E+00  0.00000000E+00  0.00000000E+00
  0.00000000E+00  0.00000000E+00  0.00000000E+00
  0.00000000E+00  0.00000000E+00  0.00000000E+00
  0.00000000E+00  0.00000000E+00  0.00000000E+00
  0.00000000E+00  0.00000000E+00  0.00000000E+00
  0.00000000E+00  0.00000000E+00  0.00000000E+00
  0.00000000E+00  0.00000000E+00  0.00000000E+00
  0.00000000E+00  0.00000000E+00  0.00000000E+00
  0.00000000E+00  0.00000000E+00  0.00000000E+00
  0.00000000E+00  0.00000000E+00  0.00000000E+00
