GST                                     
   1.00000000000000     
    20.8630022150895478    0.0000000000000000    0.0000000000000000
     0.0000000000000000   20.8630221508954641    0.0000000000000000
     0.0000000000000000    0.0000000000000000   20.8630221508954641
   Ge   Sb   Se
    68    68   170
Direct
  0.2503688228474218  0.5223673557329217  0.9354320784412682
  0.6645670014045543  0.1809735944649960  0.7468717566387957
  0.0582586751043109  0.4056942901587626  0.9829385695486531
  0.1258319996615477  0.2934791357360095  0.2647878069441993
  0.4572953159895292  0.5015443591207439  0.7176445845190119
  0.2981055898377530  0.7128654155744309  0.6984164225860782
  0.9784454554164491  0.9645494658465157  0.5512248575754426
  0.8154323653153333  0.1741861984455574  0.6526196584593158
  0.6524142965961857  0.8088768730410009  0.4749265119323049
  0.8844430979129547  0.2268233293506997  0.1845335974885162
  0.2585049520697088  0.8335838775015391  0.6919798737836605
  0.2376580790162692  0.3543898947681848  0.9385134621731352
  0.8388296912643229  0.1363410893785754  0.9962255004942966
  0.5577928110189911  0.7989699885861427  0.9376468848845850
  0.9073356948539855  0.9971970381722604  0.1776852683506307
  0.6696061653894188  0.8542609060490780  0.2103477322493714
  0.1009017482417050  0.6024507631660381  0.5214783431885981
  0.0429074384248658  0.7033076089260257  0.3349546736998606
  0.8146872213424756  0.4241285392374087  0.1493570677507224
  0.6864842538049671  0.0374566977836540  0.1605613245087696
  0.8861703403262124  0.9879774016403160  0.7069343059873663
  0.9886421270578317  0.6690532154492674  0.6592925297900021
  0.7686791400502955  0.1935515339288387  0.8841916476810578
  0.3103945628303263  0.8776547126442941  0.0289746022309706
  0.4974464381790359  0.0201112860032913  0.6259779887200493
  0.3283132288349614  0.0942718624796966  0.5735255380118863
  0.0420312467190250  0.2102378261682518  0.3231839159527790
  0.2643742529892760  0.7136755216797412  0.9204775547941072
  0.8866233230326374  0.1911813757993732  0.3783105160860039
  0.4775303520427655  0.7476476735883479  0.6437356059479327
  0.7799859897849403  0.5287712220982023  0.5167004482072696
  0.5697852212841159  0.4409486636919356  0.7044531647059176
  0.9928961723785894  0.2529855710914424  0.5838835570143500
  0.8366794426920261  0.2868934391572909  0.6941389116650618
  0.5609426991337441  0.6360254507971671  0.7899328732459771
  0.0082416876843670  0.1862644787091590  0.0566077246962972
  0.5557884960665063  0.7736640499380871  0.2299133851677727
  0.0970976313044063  0.6832071252549292  0.8343569869635800
  0.0081941828078244  0.6034654992142892  0.9800095732949240
  0.1895179490556173  0.6425119015090854  0.9963720511945745
  0.7306730951321588  0.6732092768330289  0.0445883910832934
  0.9437475786098961  0.8377870913985501  0.6925614288803971
  0.6820797818758951  0.6546323823721055  0.5712464006558676
  0.7229621432429270  0.2506257561941843  0.5485734011736527
  0.7101331193298820  0.5456681460908567  0.7231321752296264
  0.1283660897651731  0.0840306935561963  0.6364295074919880
  0.4582192898903185  0.8710797439353538  0.9430689835434627
  0.1217444060247116  0.8706290106390235  0.8491743449804137
  0.5399426282117988  0.6255449203545226  0.1652695332729227
  0.6548855784987300  0.7762079592954954  0.6978174568656609
  0.1583098089879208  0.7938823897445456  0.0992527895433690
  0.1512868391666696  0.2797344078665411  0.6711025337607689
  0.1015052284793412  0.2383348783791365  0.9295493858688345
  0.5793094650084966  0.4601168636893442  0.2356561409345891
  0.9663503619351802  0.8186987992877423  0.5609740003998364
  0.4787575690002212  0.7504441066703060  0.0772734694012669
  0.3549398975212566  0.1531633072453291  0.3369147501195787
  0.7179370829309241  0.5653268961261888  0.1050173862047971
  0.5970294177201964  0.4546914954710013  0.4321258243418178
  0.5138109038174911  0.0157734367660286  0.1441841817434387
  0.9019810432560398  0.7861533669172082  0.4128724365379284
  0.7103203473912718  0.9590949716105667  0.0675800254424464
  0.1616884331539148  0.6452357636080007  0.1841401536654987
  0.9617078972912092  0.1300479404910970  0.7412711025383611
  0.0657796728499174  0.7534122830956173  0.6194003838820109
  0.0115291406036788  0.8684964645042212  0.1123618057017961
  0.1207942181018247  0.4546431106647276  0.3418826829286365
  0.6128411480251050  0.2232000692465810  0.8914122789686799
  0.4418984682115649  0.1915424911264341  0.7860107734521508
  0.9665987578549756  0.9646775436033150  0.9523595531556396
  0.2873279539153073  0.3530484753947570  0.3461379150729807
  0.4380429836576265  0.3738741050162381  0.9689405991512992
  0.1721336775322013  0.9597293592023310  0.1444468775897616
  0.9119359889152630  0.3136877059151805  0.9265635298980589
  0.8060333550016694  0.4867654407112978  0.3418849343260268
  0.2782257295516914  0.5681394065117782  0.6397802205976069
  0.8622362289993140  0.7351183412349555  0.0980471248914374
  0.4780933640576726  0.7978582562702866  0.4140110521009132
  0.6139047663614904  0.1707262912933295  0.4190394242347935
  0.0212665337671017  0.0053423279932043  0.3106414235647720
  0.5221047929506021  0.5750865057542469  0.5554820523707023
  0.2517939649099601  0.7622452228905994  0.5195785079597901
  0.1046195261801841  0.5276274753871205  0.6895600445633850
  0.1887937826761970  0.3734345200680996  0.7577756077210523
  0.5254026864849907  0.2523974135968954  0.6214557855856117
  0.7138784215005093  0.1949227523307152  0.0404354873778544
  0.5873697550126803  0.9362991408046254  0.7748338950581627
  0.4870656484183973  0.6168737322097022  0.3355813910004874
  0.2471235382678948  0.2836860795767944  0.0483136565650046
  0.1883281337582953  0.6044130444850233  0.3719352281730727
  0.7019106889247249  0.4232114288471179  0.5343122404040580
  0.8185744207813345  0.7679568313404163  0.8165926263265989
  0.3020568779181830  0.6828092181104627  0.3264580442482768
  0.0777967927113935  0.8155696018163253  0.2782107696923419
  0.6871934123442250  0.9972211040281660  0.6437684628571501
  0.4179922492132140  0.5625005592599396  0.0138277483965453
  0.7463597660097969  0.3055080009480481  0.3138167106382699
  0.3530181579585370  0.1004342821178281  0.1878413639393267
  0.2906076733562359  0.5448044834054668  0.7810965248161631
  0.3760664597569814  0.1840162142247224  0.9455471678232646
  0.3614659244547638  0.7366338462507213  0.1591560152908988
  0.8342212281905330  0.6010435596370269  0.9185719571075152
  0.9396224105558961  0.7852427251683045  0.9591348372713344
  0.3190140616860593  0.4631561521643151  0.2027665468170343
  0.5612626002160641  0.0315927835790514  0.9773277206268749
  0.7486181612196302  0.9622625159794662  0.9401300904222314
  0.7279787892178261  0.9574656154017835  0.7754485580690493
  0.7461060500414073  0.1205628143781127  0.2489810567835307
  0.6602283921727478  0.7041436645888842  0.8813073418920249
  0.9408771941058814  0.3859030726809980  0.4466211634544525
  0.3261967094404089  0.8533963740970955  0.2429414286256895
  0.2428269880906643  0.1458524346969310  0.7577555327614933
  0.1481662412243923  0.4894766194709517  0.1693526113473262
  0.7799625672453254  0.4297088075073003  0.8460286618458979
  0.5007120375578080  0.0240466782785581  0.4902267172207030
  0.0621899304536866  0.0944450384121167  0.8666116587616179
  0.0481931435296459  0.1149649814179183  0.4874741705106588
  0.1356540156416611  0.8588334637810395  0.3998916508613835
  0.4658705272773147  0.9219833766156657  0.3498119158399350
  0.2703685773142274  0.9794764794107922  0.4334003540966351
  0.4319904365935027  0.8640279476910872  0.7835933243517099
  0.2171471292576130  0.4624582741743554  0.4833761273053750
  0.8120091576779760  0.0484413316351650  0.5102402822756853
  0.0000928063083286  0.4866436577884061  0.6014087000276815
  0.6775422445678054  0.9544146100666864  0.3712220330399325
  0.9094414098088012  0.5087653659612872  0.1753539064059682
  0.2845725973250233  0.9682111517014202  0.8775597588136247
  0.8457784013219117  0.9045620494302236  0.3725311441392076
  0.8134893609380347  0.4262479586913636  0.6395069824583824
  0.4879557955110365  0.1870369965098522  0.1561316906085110
  0.6546267774172871  0.6504793385131947  0.3874409338955666
  0.3616844695225432  0.3819442288287749  0.6299869213959149
  0.1998447446012155  0.0392959042779775  0.0248414513272735
  0.2096137947628450  0.2063729810694571  0.4047441403330310
  0.5522550422369443  0.6141185608792911  0.9971460493451548
  0.4255717634560779  0.5934525007119561  0.8088512991374461
  0.1144856350707142  0.6989118278133052  0.4340786909821219
  0.2486484962651049  0.1831968554382688  0.9697324413144078
  0.2055744068711153  0.9072514224020847  0.7652726080265592
  0.5786366720672093  0.8255878788390109  0.3400032518697910
  0.5315867139008136  0.3681241883044846  0.1687715810144795
  0.3475437862237651  0.9208197947147012  0.7029981950435472
  0.8472185380995045  0.0383893877492114  0.9233556829113418
  0.2720816031113356  0.7591052151307128  0.0624570795841839
  0.8706481656042645  0.1515362585570175  0.5544176939401543
  0.9047686488224657  0.3369759007258821  0.5552470337971924
  0.7353006174998155  0.2018220238149525  0.4375709528699286
  0.2635148740278759  0.8265598607730233  0.4101039460532070
  0.7895600691468431  0.6942263437604121  0.1980521254174802
  0.2376467577968340  0.1282331305207517  0.1186819972470185
  0.3995677013597854  0.5307422005971905  0.6164806744731494
  0.6020292615008103  0.0972116326589646  0.1046252556159933
  0.3747879245171709  0.2240912848747065  0.2007637072285096
  0.8407927406031488  0.1006710489018893  0.7424544225834472
  0.7775686382940279  0.3817176607881414  0.4118406330503920
  0.6043283389639652  0.5328951639207580  0.1187603828347657
  0.5816074210901435  0.3501453172621258  0.9903441010217993
  0.3261334799651054  0.4102620569989516  0.4565359510385038
  0.3421095879272417  0.2526120697629762  0.4077930359152311
  0.4566914951966658  0.9067550987506254  0.6530138175999720
  0.8151594203821756  0.5390945460274408  0.7983892719533345
  0.8690910990213516  0.2892483090333715  0.3006167841771157
  0.9879043763600497  0.2472196448418532  0.4244888034606219
  0.7654760489695098  0.8455461212920755  0.7278294877510331
  0.3556642295921130  0.1065583525903202  0.8250973306166988
  0.4202857521484044  0.0980754688781321  0.6560376889543981
  0.6440489954413720  0.5322827500414118  0.3512161368302502
  0.4039141264462496  0.6768534718851890  0.5745131459514830
  0.4701269465594429  0.9776472869224793  0.8992782925920154
  0.5906347273244529  0.2750041643198420  0.7282910142073266
  0.5791496874994918  0.0561244369851714  0.7044400368899865
  0.0430100481294651  0.4521097785007827  0.4873464364102975
  0.3258091474950024  0.2755645619402681  0.6912421631629589
  0.3216921743512451  0.0135922712473959  0.9936623671808316
  0.2458699194849107  0.0547617605537768  0.6704402488652864
  0.5214697637776402  0.4032234942203798  0.3483761596651243
  0.4468138401216996  0.7233341607831651  0.2727222227546829
  0.6046669143968390  0.8920416839382964  0.6559926988514434
  0.0418557202498502  0.8540346579666604  0.9866450622144047
  0.4686127242746582  0.5203984521099593  0.9048477706304158
  0.3035061011203219  0.6344125276828815  0.2075736957850146
  0.1924261239505833  0.0665536574340358  0.2074934787266448
  0.0008158782477890  0.2678587892973258  0.1563435793532922
  0.9083320108265780  0.9227433222110750  0.0820632812675137
  0.0476755343058223  0.0619040571810156  0.9891655018753875
  0.5901784823718629  0.2909735715392274  0.2286644493153324
  0.3823769069675312  0.3766863821133196  0.2628096196816593
  0.0669055895342733  0.1739496741886817  0.1592769938427497
  0.4332998139124955  0.8670723887230610  0.0590958843958195
  0.8776399481409645  0.5091022507202894  0.4544551714843036
  0.9775535829015326  0.6897252493193869  0.8869019137592634
  0.3529377543066354  0.9800345356613148  0.5302276542299235
  0.0279326591862548  0.3176633762291003  0.8758303187945975
  0.9336291862715118  0.9104469924253985  0.2784569716965710
  0.1072352725257167  0.1198058698808975  0.3727549706320678
  0.8198840712346414  0.9638674481065461  0.6067551774230686
  0.6018870457862328  0.9251496598198072  0.0318365772709017
  0.1898795721481246  0.9203087150733558  0.9444482421008193
  0.9338957014924411  0.6834674670622928  0.3615499112903681
  0.1088985432295929  0.1807874175178330  0.7203464407681871
  0.8142663263621064  0.5563462235210996  0.6238481714861365
  0.9764051804940489  0.7571668959329266  0.1450562123692604
  0.7018862002147985  0.1508083060766549  0.6282439438597112
  0.9213420891063351  0.0169410006568293  0.4564818966100575
  0.5174475964692751  0.1482008744199236  0.8773142144022255
  0.8848681349476246  0.3684227472377630  0.8154527678910248
  0.7375506293936647  0.4133639255108135  0.2382090836438135
  0.1907241771722999  0.0750595006835297  0.8517947869536725
  0.7482990359293099  0.7857227373388584  0.9216186283031310
  0.8985270276007792  0.1900088132941790  0.8994166440991723
  0.6129452528270513  0.7056670532863252  0.0636270090396800
  0.2495570160367807  0.5844927982900364  0.4870275509353112
  0.9833068119761336  0.0394670295948179  0.6546049981051592
  0.7526929463224830  0.2617795092204522  0.7837449650091227
  0.9082436705924861  0.1216726050711307  0.0901836480316533
  0.1614884678371089  0.4394776865595043  0.9181134710770973
  0.5649137804293832  0.6649299122789701  0.6738768712119749
  0.4692221732684879  0.7107272441204076  0.9579021010104605
  0.1363860888030223  0.3400661667300323  0.3785078856380457
  0.1476904270599817  0.9572058737865632  0.3174378232126280
  0.1480110329219364  0.6648487181944985  0.6149326481903675
  0.2273427193532100  0.3899805263283614  0.1518424113365319
  0.6262064188833087  0.0565193252815753  0.4765827682494386
  0.2981846156692656  0.9307024914388713  0.1449327865564718
  0.2471689336804052  0.2410027475904013  0.6132615343877289
  0.5754475600132063  0.3372887120954479  0.8744158961636923
  0.2427743239652276  0.6661371929489741  0.7967009016715221
  0.7479902888347080  0.4598584558507314  0.0609376503795750
  0.3266721263419882  0.4242114247895554  0.9111262353464092
  0.7093746360838993  0.5958098946570246  0.9472477038930924
  0.5851037643122611  0.2396256322269356  0.0175747652637057
  0.7795708967556503  0.5813018029825403  0.2077099858803239
  0.2214533157770120  0.2148191771736453  0.2798677857316357
  0.2887395106123191  0.1082166156696857  0.4319376419511347
  0.3760619861389095  0.7851859272349705  0.5409591512849810
  0.7777486005911481  0.0281876772745004  0.3471849919719369
  0.1516236577813010  0.1603918927340938  0.5446239880087183
  0.2220994549718973  0.4553551307421575  0.6150706920642905
  0.4919477107029701  0.5077897307986134  0.4543231589277393
  0.2362571050074187  0.4891720348455400  0.3031682902124325
  0.9023279392963806  0.8602926964986018  0.8651457413917661
  0.7345631462509032  0.2265934985087363  0.1582232215433906
  0.8680727881956322  0.4872491630080713  0.9631782850654673
  0.8675685306732062  0.3310441274588969  0.1086200329703216
  0.8888970598089545  0.7289286691459433  0.6828386984637524
  0.9514388231874503  0.1398680583523736  0.2871521019914816
  0.4289192394997963  0.0989894262087505  0.0798045157743618
  0.3839850891809146  0.2776866008717404  0.8606647661937902
  0.6068267267814096  0.2803127807178420  0.5294292383629933
  0.2042405970361657  0.8556638252235543  0.5906008372859809
  0.5698108811466530  0.8033596326005314  0.8144744434273610
  0.7550644451259804  0.2867464804349924  0.9628719770699065
  0.9975898531885965  0.8481061414429482  0.4472002262904186
  0.7237753202727921  0.9088037564514879  0.4801001239374333
  0.0773283526043954  0.6139944549615399  0.2694286542212332
  0.5350365254270247  0.2921599553890398  0.3320190356799662
  0.6215363906608841  0.9650346045190487  0.2241232124471716
  0.4828375323603666  0.0890739092076270  0.2397869342500647
  0.5439650084580775  0.8607849514274090  0.5034705608555905
  0.6319762134188454  0.1409025060873837  0.2931724499783119
  0.1175910382236997  0.3004907252658108  0.0335381414268925
  0.3729990781797786  0.5992754911969661  0.3862857461847367
  0.3508699410057711  0.8455803065955512  0.8933520739205100
  0.0828672599350733  0.3334254999640112  0.5967244292823307
  0.8782359633561235  0.6200148726402764  0.0499250448595680
  0.9193531482924598  0.4604677080601059  0.2936095603233592
  0.4784080925172994  0.5369426706562199  0.2364906480184815
  0.6640072890063579  0.0498290688495759  0.9045984233730591
  0.4310724385258679  0.4534756212572467  0.0730675214863643
  0.7157163125383740  0.6792710715033835  0.7717029846280482
  0.7071015349851688  0.7707483231311103  0.5833919645804243
  0.0037706024377705  0.5877271851530937  0.7418090227612238
  0.0871574377352461  0.9963140158130664  0.5107649063569176
  0.5820585384815752  0.6727589473080458  0.4937766456273501
  0.1969463769916759  0.2813653084904459  0.8515714472475283
  0.4573080829682178  0.1420206625417307  0.5015001197987904
  0.6055972242882032  0.5253218906591294  0.7937651098321382
  0.0276370434331703  0.0104119107144519  0.1860518583461994
  0.0172720488603673  0.9823324988714837  0.8325239547193273
  0.1811844132257927  0.7656941344910541  0.2219895128893058
  0.1064657915309225  0.6856311185111278  0.0718105373010255
  0.4465425186738269  0.8888356859399058  0.2287385283880376
  0.9768661348204448  0.6053616590453328  0.5574872035748404
  0.7187532948466685  0.4182278768488913  0.7270259152395386
  0.9506828768094572  0.2485357904603037  0.7064476919783153
  0.2387293954364206  0.5502778330084499  0.0529710423497784
  0.8759504293142155  0.7564385888454248  0.5239230540127321
  0.6176492571333392  0.6708713996806939  0.2478433979847682
  0.3940801970548487  0.2810036172115826  0.0400760369003865
  0.1171430618674581  0.5890305688420374  0.9139433086898132
  0.0613735727811438  0.4984731825633123  0.0751869723584467
  0.0644999130994480  0.4285265114334191  0.2395135898991615
  0.1559414996451765  0.7647855375646941  0.9080702446852532
  0.7426134835375785  0.8603169277766054  0.1169972928115574
  0.6230873038342580  0.5027758546792700  0.6087020368129722
  0.0745306678627705  0.4239506972312806  0.7587931864767685
  0.9709214871285813  0.5072235735374997  0.9107621866974001
  0.9707527315542958  0.4203879710792922  0.0994050385110502
  0.4673568181533717  0.1274357098653580  0.3857676624901726
  0.7421651216033504  0.8515522199017207  0.3135189799847178
  0.4064394142969804  0.7407253635063158  0.7480062113187146
  0.3761758986544237  0.4215245143205502  0.7495791687946044
  0.7579854601259498  0.6360216491098123  0.4703878260329846
  0.0561002203266002  0.8124177582376453  0.7213729401379101
  0.3443836781075709  0.9714601330732932  0.3315714529521792
  0.4867362352312211  0.3701689545929274  0.6017393455908319
 
  0.00000000E+00  0.00000000E+00  0.00000000E+00
  0.00000000E+00  0.00000000E+00  0.00000000E+00
  0.00000000E+00  0.00000000E+00  0.00000000E+00
  0.00000000E+00  0.00000000E+00  0.00000000E+00
  0.00000000E+00  0.00000000E+00  0.00000000E+00
  0.00000000E+00  0.00000000E+00  0.00000000E+00
  0.00000000E+00  0.00000000E+00  0.00000000E+00
  0.00000000E+00  0.00000000E+00  0.00000000E+00
  0.00000000E+00  0.00000000E+00  0.00000000E+00
  0.00000000E+00  0.00000000E+00  0.00000000E+00
  0.00000000E+00  0.00000000E+00  0.00000000E+00
  0.00000000E+00  0.00000000E+00  0.00000000E+00
  0.00000000E+00  0.00000000E+00  0.00000000E+00
  0.00000000E+00  0.00000000E+00  0.00000000E+00
  0.00000000E+00  0.00000000E+00  0.00000000E+00
  0.00000000E+00  0.00000000E+00  0.00000000E+00
  0.00000000E+00  0.00000000E+00  0.00000000E+00
  0.00000000E+00  0.00000000E+00  0.00000000E+00
  0.00000000E+00  0.00000000E+00  0.00000000E+00
  0.00000000E+00  0.00000000E+00  0.00000000E+00
  0.00000000E+00  0.00000000E+00  0.00000000E+00
  0.00000000E+00  0.00000000E+00  0.00000000E+00
  0.00000000E+00  0.00000000E+00  0.00000000E+00
  0.00000000E+00  0.00000000E+00  0.00000000E+00
  0.00000000E+00  0.00000000E+00  0.00000000E+00
  0.00000000E+00  0.00000000E+00  0.00000000E+00
  0.00000000E+00  0.00000000E+00  0.00000000E+00
  0.00000000E+00  0.00000000E+00  0.00000000E+00
  0.00000000E+00  0.00000000E+00  0.00000000E+00
  0.00000000E+00  0.00000000E+00  0.00000000E+00
  0.00000000E+00  0.00000000E+00  0.00000000E+00
  0.00000000E+00  0.00000000E+00  0.00000000E+00
  0.00000000E+00  0.00000000E+00  0.00000000E+00
  0.00000000E+00  0.00000000E+00  0.00000000E+00
  0.00000000E+00  0.00000000E+00  0.00000000E+00
  0.00000000E+00  0.00000000E+00  0.00000000E+00
  0.00000000E+00  0.00000000E+00  0.00000000E+00
  0.00000000E+00  0.00000000E+00  0.00000000E+00
  0.00000000E+00  0.00000000E+00  0.00000000E+00
  0.00000000E+00  0.00000000E+00  0.00000000E+00
  0.00000000E+00  0.00000000E+00  0.00000000E+00
  0.00000000E+00  0.00000000E+00  0.00000000E+00
  0.00000000E+00  0.00000000E+00  0.00000000E+00
  0.00000000E+00  0.00000000E+00  0.00000000E+00
  0.00000000E+00  0.00000000E+00  0.00000000E+00
  0.00000000E+00  0.00000000E+00  0.00000000E+00
  0.00000000E+00  0.00000000E+00  0.00000000E+00
  0.00000000E+00  0.00000000E+00  0.00000000E+00
  0.00000000E+00  0.00000000E+00  0.00000000E+00
  0.00000000E+00  0.00000000E+00  0.00000000E+00
  0.00000000E+00  0.00000000E+00  0.00000000E+00
  0.00000000E+00  0.00000000E+00  0.00000000E+00
  0.00000000E+00  0.00000000E+00  0.00000000E+00
  0.00000000E+00  0.00000000E+00  0.00000000E+00
  0.00000000E+00  0.00000000E+00  0.00000000E+00
  0.00000000E+00  0.00000000E+00  0.00000000E+00
  0.00000000E+00  0.00000000E+00  0.00000000E+00
  0.00000000E+00  0.00000000E+00  0.00000000E+00
  0.00000000E+00  0.00000000E+00  0.00000000E+00
  0.00000000E+00  0.00000000E+00  0.00000000E+00
  0.00000000E+00  0.00000000E+00  0.00000000E+00
  0.00000000E+00  0.00000000E+00  0.00000000E+00
  0.00000000E+00  0.00000000E+00  0.00000000E+00
  0.00000000E+00  0.00000000E+00  0.00000000E+00
  0.00000000E+00  0.00000000E+00  0.00000000E+00
  0.00000000E+00  0.00000000E+00  0.00000000E+00
  0.00000000E+00  0.00000000E+00  0.00000000E+00
  0.00000000E+00  0.00000000E+00  0.00000000E+00
  0.00000000E+00  0.00000000E+00  0.00000000E+00
  0.00000000E+00  0.00000000E+00  0.00000000E+00
  0.00000000E+00  0.00000000E+00  0.00000000E+00
  0.00000000E+00  0.00000000E+00  0.00000000E+00
  0.00000000E+00  0.00000000E+00  0.00000000E+00
  0.00000000E+00  0.00000000E+00  0.00000000E+00
  0.00000000E+00  0.00000000E+00  0.00000000E+00
  0.00000000E+00  0.00000000E+00  0.00000000E+00
  0.00000000E+00  0.00000000E+00  0.00000000E+00
  0.00000000E+00  0.00000000E+00  0.00000000E+00
  0.00000000E+00  0.00000000E+00  0.00000000E+00
  0.00000000E+00  0.00000000E+00  0.00000000E+00
  0.00000000E+00  0.00000000E+00  0.00000000E+00
  0.00000000E+00  0.00000000E+00  0.00000000E+00
  0.00000000E+00  0.00000000E+00  0.00000000E+00
  0.00000000E+00  0.00000000E+00  0.00000000E+00
  0.00000000E+00  0.00000000E+00  0.00000000E+00
  0.00000000E+00  0.00000000E+00  0.00000000E+00
  0.00000000E+00  0.00000000E+00  0.00000000E+00
  0.00000000E+00  0.00000000E+00  0.00000000E+00
  0.00000000E+00  0.00000000E+00  0.00000000E+00
  0.00000000E+00  0.00000000E+00  0.00000000E+00
  0.00000000E+00  0.00000000E+00  0.00000000E+00
  0.00000000E+00  0.00000000E+00  0.00000000E+00
  0.00000000E+00  0.00000000E+00  0.00000000E+00
  0.00000000E+00  0.00000000E+00  0.00000000E+00
  0.00000000E+00  0.00000000E+00  0.00000000E+00
  0.00000000E+00  0.00000000E+00  0.00000000E+00
  0.00000000E+00  0.00000000E+00  0.00000000E+00
  0.00000000E+00  0.00000000E+00  0.00000000E+00
  0.00000000E+00  0.00000000E+00  0.00000000E+00
  0.00000000E+00  0.00000000E+00  0.00000000E+00
  0.00000000E+00  0.00000000E+00  0.00000000E+00
  0.00000000E+00  0.00000000E+00  0.00000000E+00
  0.00000000E+00  0.00000000E+00  0.00000000E+00
  0.00000000E+00  0.00000000E+00  0.00000000E+00
  0.00000000E+00  0.00000000E+00  0.00000000E+00
  0.00000000E+00  0.00000000E+00  0.00000000E+00
  0.00000000E+00  0.00000000E+00  0.00000000E+00
  0.00000000E+00  0.00000000E+00  0.00000000E+00
  0.00000000E+00  0.00000000E+00  0.00000000E+00
  0.00000000E+00  0.00000000E+00  0.00000000E+00
  0.00000000E+00  0.00000000E+00  0.00000000E+00
  0.00000000E+00  0.00000000E+00  0.00000000E+00
  0.00000000E+00  0.00000000E+00  0.00000000E+00
  0.00000000E+00  0.00000000E+00  0.00000000E+00
  0.00000000E+00  0.00000000E+00  0.00000000E+00
  0.00000000E+00  0.00000000E+00  0.00000000E+00
  0.00000000E+00  0.00000000E+00  0.00000000E+00
  0.00000000E+00  0.00000000E+00  0.00000000E+00
  0.00000000E+00  0.00000000E+00  0.00000000E+00
  0.00000000E+00  0.00000000E+00  0.00000000E+00
  0.00000000E+00  0.00000000E+00  0.00000000E+00
  0.00000000E+00  0.00000000E+00  0.00000000E+00
  0.00000000E+00  0.00000000E+00  0.00000000E+00
  0.00000000E+00  0.00000000E+00  0.00000000E+00
  0.00000000E+00  0.00000000E+00  0.00000000E+00
  0.00000000E+00  0.00000000E+00  0.00000000E+00
  0.00000000E+00  0.00000000E+00  0.00000000E+00
  0.00000000E+00  0.00000000E+00  0.00000000E+00
  0.00000000E+00  0.00000000E+00  0.00000000E+00
  0.00000000E+00  0.00000000E+00  0.00000000E+00
  0.00000000E+00  0.00000000E+00  0.00000000E+00
  0.00000000E+00  0.00000000E+00  0.00000000E+00
  0.00000000E+00  0.00000000E+00  0.00000000E+00
  0.00000000E+00  0.00000000E+00  0.00000000E+00
  0.00000000E+00  0.00000000E+00  0.00000000E+00
  0.00000000E+00  0.00000000E+00  0.00000000E+00
  0.00000000E+00  0.00000000E+00  0.00000000E+00
  0.00000000E+00  0.00000000E+00  0.00000000E+00
  0.00000000E+00  0.00000000E+00  0.00000000E+00
  0.00000000E+00  0.00000000E+00  0.00000000E+00
  0.00000000E+00  0.00000000E+00  0.00000000E+00
  0.00000000E+00  0.00000000E+00  0.00000000E+00
  0.00000000E+00  0.00000000E+00  0.00000000E+00
  0.00000000E+00  0.00000000E+00  0.00000000E+00
  0.00000000E+00  0.00000000E+00  0.00000000E+00
  0.00000000E+00  0.00000000E+00  0.00000000E+00
  0.00000000E+00  0.00000000E+00  0.00000000E+00
  0.00000000E+00  0.00000000E+00  0.00000000E+00
  0.00000000E+00  0.00000000E+00  0.00000000E+00
  0.00000000E+00  0.00000000E+00  0.00000000E+00
  0.00000000E+00  0.00000000E+00  0.00000000E+00
  0.00000000E+00  0.00000000E+00  0.00000000E+00
  0.00000000E+00  0.00000000E+00  0.00000000E+00
  0.00000000E+00  0.00000000E+00  0.00000000E+00
  0.00000000E+00  0.00000000E+00  0.00000000E+00
  0.00000000E+00  0.00000000E+00  0.00000000E+00
  0.00000000E+00  0.00000000E+00  0.00000000E+00
  0.00000000E+00  0.00000000E+00  0.00000000E+00
  0.00000000E+00  0.00000000E+00  0.00000000E+00
  0.00000000E+00  0.00000000E+00  0.00000000E+00
  0.00000000E+00  0.00000000E+00  0.00000000E+00
  0.00000000E+00  0.00000000E+00  0.00000000E+00
  0.00000000E+00  0.00000000E+00  0.00000000E+00
  0.00000000E+00  0.00000000E+00  0.00000000E+00
  0.00000000E+00  0.00000000E+00  0.00000000E+00
  0.00000000E+00  0.00000000E+00  0.00000000E+00
  0.00000000E+00  0.00000000E+00  0.00000000E+00
  0.00000000E+00  0.00000000E+00  0.00000000E+00
  0.00000000E+00  0.00000000E+00  0.00000000E+00
  0.00000000E+00  0.00000000E+00  0.00000000E+00
  0.00000000E+00  0.00000000E+00  0.00000000E+00
  0.00000000E+00  0.00000000E+00  0.00000000E+00
  0.00000000E+00  0.00000000E+00  0.00000000E+00
  0.00000000E+00  0.00000000E+00  0.00000000E+00
  0.00000000E+00  0.00000000E+00  0.00000000E+00
  0.00000000E+00  0.00000000E+00  0.00000000E+00
  0.00000000E+00  0.00000000E+00  0.00000000E+00
  0.00000000E+00  0.00000000E+00  0.00000000E+00
  0.00000000E+00  0.00000000E+00  0.00000000E+00
  0.00000000E+00  0.00000000E+00  0.00000000E+00
  0.00000000E+00  0.00000000E+00  0.00000000E+00
  0.00000000E+00  0.00000000E+00  0.00000000E+00
  0.00000000E+00  0.00000000E+00  0.00000000E+00
  0.00000000E+00  0.00000000E+00  0.00000000E+00
  0.00000000E+00  0.00000000E+00  0.00000000E+00
  0.00000000E+00  0.00000000E+00  0.00000000E+00
  0.00000000E+00  0.00000000E+00  0.00000000E+00
  0.00000000E+00  0.00000000E+00  0.00000000E+00
  0.00000000E+00  0.00000000E+00  0.00000000E+00
  0.00000000E+00  0.00000000E+00  0.00000000E+00
  0.00000000E+00  0.00000000E+00  0.00000000E+00
  0.00000000E+00  0.00000000E+00  0.00000000E+00
  0.00000000E+00  0.00000000E+00  0.00000000E+00
  0.00000000E+00  0.00000000E+00  0.00000000E+00
  0.00000000E+00  0.00000000E+00  0.00000000E+00
  0.00000000E+00  0.00000000E+00  0.00000000E+00
  0.00000000E+00  0.00000000E+00  0.00000000E+00
  0.00000000E+00  0.00000000E+00  0.00000000E+00
  0.00000000E+00  0.00000000E+00  0.00000000E+00
  0.00000000E+00  0.00000000E+00  0.00000000E+00
  0.00000000E+00  0.00000000E+00  0.00000000E+00
  0.00000000E+00  0.00000000E+00  0.00000000E+00
  0.00000000E+00  0.00000000E+00  0.00000000E+00
  0.00000000E+00  0.00000000E+00  0.00000000E+00
  0.00000000E+00  0.00000000E+00  0.00000000E+00
  0.00000000E+00  0.00000000E+00  0.00000000E+00
  0.00000000E+00  0.00000000E+00  0.00000000E+00
  0.00000000E+00  0.00000000E+00  0.00000000E+00
  0.00000000E+00  0.00000000E+00  0.00000000E+00
  0.00000000E+00  0.00000000E+00  0.00000000E+00
  0.00000000E+00  0.00000000E+00  0.00000000E+00
  0.00000000E+00  0.00000000E+00  0.00000000E+00
  0.00000000E+00  0.00000000E+00  0.00000000E+00
  0.00000000E+00  0.00000000E+00  0.00000000E+00
  0.00000000E+00  0.00000000E+00  0.00000000E+00
  0.00000000E+00  0.00000000E+00  0.00000000E+00
  0.00000000E+00  0.00000000E+00  0.00000000E+00
  0.00000000E+00  0.00000000E+00  0.00000000E+00
  0.00000000E+00  0.00000000E+00  0.00000000E+00
  0.00000000E+00  0.00000000E+00  0.00000000E+00
  0.00000000E+00  0.00000000E+00  0.00000000E+00
  0.00000000E+00  0.00000000E+00  0.00000000E+00
  0.00000000E+00  0.00000000E+00  0.00000000E+00
  0.00000000E+00  0.00000000E+00  0.00000000E+00