Ge Se                                   
   1.00000000000000     
    20.8706398010253906    0.0000000000000000    0.0000000000000000
     0.0000000000000000   20.8706398010253906    0.0000000000000000
     0.0000000000000000    0.0000000000000000   20.8706398010253906
   Ge   Se
   150   150
Direct
  0.9938174685390418  0.2970344614403299  0.1511398381558011
  0.7580286498950178  0.2398866181546477  0.3277613218236632
  0.6516454446371982  0.7336599644699849  0.5853627425457062
  0.9773437035751147  0.2068850508776578  0.5163406731958212
  0.0309122929020945  0.8892081990063021  0.8697157027486747
  0.9480637083208940  0.5445159694253990  0.0413733478162603
  0.7720758149564684  0.4523526039155789  0.6958868722719597
  0.0084249125807956  0.6276151894851550  0.3402751942632568
  0.2285322934417379  0.1861828839919780  0.5089370163603075
  0.6807503774580276  0.7777551910602805  0.9861877630001772
  0.3210465821573877  0.5632345369360529  0.5729460872414989
  0.3988911044442000  0.5038981942267932  0.3135137958012170
  0.6406276475643833  0.3106676311197445  0.2895601546096106
  0.7690314634983618  0.3851094908867959  0.5282167740523670
  0.9027987762583669  0.7237041543913326  0.3518417291932960
  0.9302268750716747  0.2010153032324405  0.3149543483170936
  0.4332763353852671  0.8163812647066581  0.7759638736157042
  0.3605712564240954  0.6411317558553086  0.7515790283496627
  0.3247732346214864  0.8920179148110563  0.1298778909798964
  0.5484301902235547  0.6521889016419350  0.1002131958095381
  0.1879788587661054  0.6197100964944015  0.4407387101102498
  0.4106151909025942  0.3509888224856037  0.4149595063397978
  0.9610554742024275  0.7932200089460480  0.6382995037708337
  0.0410510506407352  0.3764363959845944  0.5547015987667356
  0.9066412813013311  0.1341022110401469  0.7114654546486300
  0.9056023207131948  0.3585147149932471  0.3733493455805489
  0.2000528066166801  0.8442847457534538  0.8468042004116291
  0.9774734094486932  0.4618904762174639  0.4145131780136224
  0.5920456396293965  0.5347837481057274  0.5986645378889580
  0.4778532598448727  0.0092612871084491  0.6542896807990914
  0.2836795925712896  0.9533906051654724  0.3280623188204093
  0.6566213411504270  0.0603919688245852  0.2584929465000490
  0.4068238135929307  0.4998827882544836  0.6685387755400884
  0.1793455156372826  0.0576826171444192  0.8516293635484218
  0.5612700110182431  0.9188605283968387  0.1575078724139237
  0.2469176421533976  0.0169731352067973  0.6191483358053335
  0.1916268338803232  0.1109889798104820  0.4180894585972018
  0.8581138804630695  0.4328667470450290  0.8710251624350920
  0.9357389053425781  0.6279770321135424  0.8957589793386090
  0.4508079524695656  0.8764166548255328  0.2747274183565607
  0.3902787430777659  0.3629665043238980  0.1358652374710675
  0.8849134811780670  0.9681748507294109  0.5659473603708333
  0.7769054381129659  0.6761843255560634  0.1127458287539678
  0.5171386501123352  0.8362077640077065  0.0366418288541478
  0.8734139610379976  0.6959342402341722  0.9809168688815683
  0.0406401217598014  0.0530238480317014  0.6368107441670798
  0.6248577191627225  0.4293412119172169  0.4378986847082058
  0.2150117269144148  0.9871428100526578  0.1396882823974534
  0.2006891669580745  0.4607783808644573  0.7305195090869850
  0.4748382208662036  0.8451354650460781  0.5961682775084532
  0.9719816337596531  0.1896144268512120  0.0195205356006839
  0.9494156208643407  0.8449418984445891  0.1713479628464617
  0.3844146759996839  0.1020796472129909  0.0751001210313994
  0.3231346404153622  0.8857016858373493  0.6853384928753343
  0.5848789829718792  0.5270045589763843  0.9312303512399159
  0.0714219173616379  0.3310580436803877  0.9521057998302125
  0.8110895274078536  0.7427857669294076  0.5445006965321807
  0.5662534430991253  0.7652805062583332  0.7227742889120783
  0.3911844865340847  0.0150634061072117  0.9818592888108341
  0.2418675621993279  0.6168028333722418  0.7725050336035422
  0.1204275505755083  0.3809218005907816  0.8499787886563421
  0.4151741381319019  0.4666473652708581  0.9766161219414249
  0.6865600567553429  0.0164945049662264  0.6222651537496197
  0.6676756326912514  0.6357511708353875  0.4754142409409218
  0.8596600959805505  0.9512182180655780  0.7166565136111106
  0.6759365629033015  0.2515764377567835  0.5505922307957037
  0.6089569160070719  0.1352823648670156  0.3459444114219862
  0.9459299456113329  0.0257861641168105  0.0680445499311720
  0.6833008584240196  0.3644088168970281  0.9380185607220163
  0.2071567006265871  0.7965097167458046  0.3794582244087141
  0.5459598483357324  0.0509147245635874  0.0338254848059010
  0.7416999298779720  0.0460981978157912  0.3459449321556085
  0.4030852084935500  0.6794749490196081  0.1490032314006954
  0.7329558942966159  0.8983533922440761  0.4977444940632311
  0.1618492991138450  0.8869308721706466  0.0082922406111367
  0.9636797167167800  0.0945597739951148  0.3995521002069604
  0.8627789446902745  0.7907038915883108  0.8155934151313043
  0.0383691859237211  0.6973526683036927  0.1531902695752290
  0.8576678507632181  0.0734444192261860  0.3247637144883542
  0.6492164261470024  0.2222405570797845  0.0071472096811627
  0.2145493139163610  0.3088439176501357  0.8813368018350016
  0.1174527696167541  0.6351257631079512  0.2801499165077306
  0.3203820065350614  0.9181249185285003  0.0092791356749625
  0.0564619048620497  0.5788970743779808  0.4668137820732886
  0.2910389389557766  0.3870868847178734  0.2745833841247186
  0.6594572026337358  0.0614951295913242  0.9686724464501759
  0.1159041311552005  0.1096385602402153  0.2625748145001500
  0.0873496105703178  0.6080175612442501  0.6900884426692473
  0.8711971648076441  0.8568714388749427  0.0728588377940188
  0.0098648387062378  0.2253816607743122  0.7144167392739122
  0.1865718942105371  0.4581146764131296  0.9994169247072908
  0.7379577883932058  0.3291244894456395  0.1600675126826818
  0.1659916586573663  0.8253745278479208  0.5727997827192957
  0.6174310497116108  0.9082926385504438  0.6014111818557489
  0.6304098467065622  0.0816095117008272  0.1325618113688893
  0.6503904907762176  0.6261159296539432  0.6534737399089174
  0.4845235480655791  0.1223309816672095  0.8929937496393719
  0.3958566910124998  0.4800035855429269  0.1834067458096929
  0.1260703681088502  0.0020603351625762  0.5656498781378057
  0.9178046674933540  0.3523892950435029  0.0738284896523242
  0.5538441276824302  0.0952216035096867  0.5291570532524141
  0.9166382710879296  0.5378965489164117  0.6077758756793524
  0.0734050501224582  0.7369990774491653  0.5423130287798242
  0.4033157858992116  0.9249451831438816  0.4377868701510577
  0.6142744312162203  0.2839384013841024  0.6960351139749664
  0.1042225919596604  0.1986991472869629  0.5147770830065410
  0.9284004494190947  0.0219775671027205  0.2305565734005049
  0.3094216157824350  0.3810860584527149  0.8517613833412502
  0.7798295205257048  0.9249267564426531  0.8096725010367479
  0.4899977253369714  0.2158506086512459  0.6496296414192646
  0.7630782984871055  0.5729897387696508  0.8002688534578534
  0.6521861678278904  0.1328846337686081  0.5950649054679056
  0.5909327000442088  0.4693874945728703  0.0897227295795552
  0.8607400799655682  0.8856083330809504  0.3607409288583031
  0.1032230809316620  0.6893865355887583  0.8148520717342523
  0.3214561056813067  0.1655171777397124  0.9156787728496814
  0.7038022277514068  0.4428329082810558  0.1321652259635188
  0.2960828126275510  0.7116218248508888  0.2688267639762105
  0.4222340709386729  0.7575173994787773  0.4503930512255599
  0.7931290486616241  0.0300485045724980  0.1319842068215374
  0.5113587328139251  0.6786277555104185  0.9864511943346116
  0.7408007510094804  0.4365509340901381  0.3316173495070990
  0.1081450764570426  0.5477699153553240  0.0556265820758126
  0.2658830922045467  0.5853951962247881  0.1226710212641540
  0.0127801059602307  0.4173620021970494  0.0248222755328669
  0.2186210593677672  0.5040588586972549  0.2108720307287222
  0.0517324797169612  0.8363538802796473  0.2754379275434424
  0.8003910922813754  0.3231506319256603  0.0535684229957400
  0.0435635934892125  0.9338307661386149  0.4201309624713657
  0.1635925286142449  0.5015190681667022  0.8413695378361179
  0.8909850634104005  0.6666482505689070  0.6940399095221491
  0.2094747248111173  0.1629861906343964  0.7047365563148889
  0.1022403343488093  0.4200820030615758  0.6633261862261469
  0.1226750624723589  0.3268011516092944  0.4135264669202642
  0.3221564103975694  0.2626213109045751  0.4733629746334822
  0.5328187343980701  0.5338971286762564  0.7878147965293583
  0.6132463870616195  0.5104233413499413  0.2894429666561552
  0.4678554924927881  0.2076058806244435  0.4477310340099021
  0.7624625547002479  0.0325913498697979  0.7145624220988287
  0.8932701385100672  0.4368743857438800  0.2514857821053549
  0.7200982396436402  0.8816914849633531  0.1925255382071987
  0.6303327453928561  0.8665789500678266  0.3228403816817557
  0.5355833070330812  0.3653563518879971  0.2276340248859698
  0.7290611887459080  0.7731515738298476  0.4064678945301995
  0.5303253388071693  0.7619865821640797  0.3859546665365692
  0.7445436619474962  0.5555646045556731  0.1732772280861380
  0.4559217663853358  0.3071378211287558  0.9578022575086114
  0.1870113678226273  0.3348780589302008  0.1521339915222186
  0.0263528923747181  0.0160029834209084  0.7514416946891289
  0.5192117419817631  0.4950891350946073  0.4412353728662877
  0.8691496546001203  0.5390963669942851  0.9447245740536370
  0.2273113940475644  0.1952880907822030  0.8532330765441193
  0.9022182258807149  0.1041263599924604  0.1417505996510774
  0.2833275886590905  0.9523011201808869  0.4537725904810230
  0.8698496652787849  0.4436878748528649  0.1320441077818920
  0.5290895206869198  0.4725204405650866  0.6768164443168687
  0.9384137266579831  0.5529671658856840  0.4874244565844324
  0.2337043879793247  0.0492749843556886  0.7377326388071466
  0.0306485322247313  0.2288965618236329  0.9196955595322593
  0.7722284749991255  0.0120169915001827  0.5366994367367528
  0.2925647362321248  0.3878274477145371  0.7355198724329771
 -0.0033454966683568  0.9571339440110626  0.1507462029765708
  0.1396595177498579  0.8896645609539241  0.3424046580660783
  0.2189030172204212  0.0679855223765052  0.3120297295920321
  0.7394441374646259  0.4258159005244518  0.8527603310464659
  0.9651643775351318  0.2756345903469135  0.6149518167781743
  0.7511577671019750  0.4288244406923732  0.0223711736308684
  0.6660878904696473  0.9655684647508175  0.1071533995757390
  0.3631260547136840  0.1805164709796443  0.4007115305857974
  0.4906128114907329  0.3042646492534008  0.1383157623875859
  0.0234972068208955  0.0306598094252560  0.3117106578389212
  0.3572341790610600  0.0606761863401302  0.8784070891280600
  0.0725297150790838  0.8974603904998364  0.5464614965322651
  0.4074432561075237  0.4646593872796272  0.4547860071565832
  0.1100196271456335  0.6273053128982667  0.5713599265026228
  0.0901182464865160  0.4619381282155048  0.4647115130501654
  0.5916649287818705  0.7315463473024736  0.9088637063800103
  0.5957921853706265  0.6372639859822309  0.7561719274439954
  0.8439356835871156  0.6694686983210018  0.8188849503867690
  0.1216634325400067  0.7233500604093314  0.4288628670216197
  0.7858684917779859  0.6715952683004297  0.4468936528532959
  0.8910305822966528  0.8104921295593139  0.9668334803436684
  0.5250088791609419  0.9825419170775724  0.5447976170156542
  0.2990383926152620  0.1714555886960105  0.0256284606823447
  0.6224123869508782  0.1579256821562051  0.9067459539647225
  0.2282652727895855 -0.0059694805416172  0.0213486600535223
  0.4879282316668339  0.0103494738735389  0.1278145495758059
  0.8036234689698560  0.7861613632742188  0.3082608004057215
  0.0937888924149289  0.0536542302202072  0.4632220907644049
  0.0695886019005375  0.0932967906988054  0.8247720464183149
  0.4809577661291370  0.1503939503787278  0.0138928303962576
  0.8219193325728800  0.1642796487541576  0.2539432527330151
  0.2267893982379798  0.6138157731826807  0.3225603834972873
  0.3111307086896070  0.2971598782146925  0.1936288205955239
  0.7040365977823511  0.1348477826222135  0.4162844775637582
  0.4068674337322051  0.2296414307680194  0.8719847224281291
  0.9311927352865050  0.0835377815375173  0.6022105866274037
  0.3835368528979656  0.5580270671214741  0.0930318320207334
  0.2891352958416203  0.3530655076035678  0.3947227962890232
  0.0356658388173498  0.6201652592404835 -0.0018136507593179
  0.3957715831952940  0.6466626517060652  0.2657754075495298
  0.0068137906743499  0.0743750314566757  0.9876076638699919
  0.5327809639357733  0.9030913681412408  0.6933968691306939
  0.6531922743310000  0.4425241297302059  0.5534428438351406
  0.7580989193706538  0.2637991227162293  0.9596873270687172
  0.4509284739344621  0.1399730166968658  0.5633101520025764
  0.3826398008647432  0.7884531374872920  0.6628623519837957
  0.4079196466697400  0.5359824313175583  0.7857943052149942
  0.8155446537745049  0.9500714750265209  0.2243545735857364
  0.1454071095460203  0.3135583056520794  0.5348364324499590
  0.2809945012178722  0.1422912573435455  0.6036920286673370
  0.5309018350125395  0.7326012555373471  0.6092770136496840
  0.9225707632554961  0.9876884298876566  0.4508273623207567
  0.2496039738794453  0.8427147140616008  0.4880449463124427
  0.0651183258893678  0.3490110337072698  0.7516836337990994
  0.8528142475173619  0.4292217630407881  0.6067002279892064
  0.5316524556573399  0.7864877797197343  0.2699469000361607
  0.3218855044129259 -0.0025072324572403  0.1832137428372616
  0.4048036221674368  0.6216563202315606  0.6374466004182048
  0.7582924763780899  0.5801433494894005  0.6749815277296027
  0.2406834468987772  0.4384859803088220  0.1074738678093319
  0.7283239906921547  0.9346060622647895  0.3812854880109846
  0.0447340171712320  0.9034356639222832  0.7496802831720468
  0.0584693845237040  0.3950182657255552  0.1324201734439190
  0.6322008589269822  0.6959534597520619  0.3753454902304977
  0.5213134249968489  0.0936588811336717  0.4138720026500370
  0.5189966375276146  0.4818618132423635  0.1832933827521588
  0.6266776354475805  0.5733971575505385  0.0449725164893079
  0.5618500803527939  0.2886456237328878  0.5831950140397426
  0.0528738794379435  0.2083712897348681  0.1099741478846400
 -0.0005442507416107  0.3078279303777756  0.4459474669595131
  0.4312630905968565  0.7599265444912189  0.0007030599866231
  0.1271840046553305  0.7421381158954418  0.2334203157668730
  0.0310264314033516  0.8023518954343374  0.0987641567972556
  0.3362363420056593  0.8976614637665865  0.7967444864399266
  0.4046605199576121  0.8224730261857123  0.1730816372925233
  0.4986041564330830 -0.0136681871532536  0.9434446473590762
  0.7468933836151610  0.8224184239866333  0.8397177149599930
  0.7161381585268023  0.1279418214506155  0.0567097798872595
  0.2605138744521363  0.8269898078820541  0.9624064922793834
  0.8194884111449249  0.4343904852164808  0.4287869348506261
  0.6063569946792975  0.7583671932432889  0.0868881922394256
  0.5253357346653779  0.5832706795216449  0.5178500240961363
  0.7906643178928116  0.1452232681836961  0.7116996062668107
  0.2807330274017299  0.7027535304786419  0.1433890318475669
 -0.0030745532551348  0.5136418008865231  0.3081396429468768
  0.3750273417880339  0.8274441908480221  0.3614858255928031
  0.6508570701680852  0.6034685942876813  0.2255974756046240
  0.9878348881943189  0.2986412737200692  0.2684004140436473
  0.6595687301612043  0.2495778400999421  0.1861909033236331
  0.0934432761618611  0.1584834352962543  0.6489018534374251
  0.4282972165856281  0.3935751536577815  0.8720035066129940
  0.2085730069334860  0.8702626252030025  0.1481524244989898
  0.8074909285213283  0.5235371268900706  0.2746176702733924
  0.0162577078048046  0.5099899035816143  0.6806341286479552
  0.5098536747784210  0.5583456195547808  0.3415469334800143
  0.4110992427832542  0.7104036538913243  0.8268240452696803
  0.8064450485371600  0.3345824777967112  0.2554663851317764
  0.5856329404251178  0.1526876117399866  0.6914817846851289
  0.8531700865897266  0.2446509516962741  0.4026886902962228
  0.4369190964408625  0.3835529908875402  0.2959232900566084
  0.6760765513266583  0.5316077392294974  0.3979864364903600
  0.7645364855970288  0.8153050613179774  0.1011236825829631
  0.7024002304506120  0.0066220654142617  0.8157437219052941
  0.9256001520568158  0.7034578250173422  0.5619922870045536
  0.9490896670868946  0.6847494636853209  0.2456724786528724
  0.6752671110066023  0.8015082521769107  0.6805407720233014
  0.1174491191482493  0.2000694486268923  0.3871312688763199
  0.9135455588261135  0.0355152301261497  0.7848513095669231
  0.5805921069552997  0.9708788605952352  0.2743640869579971
  0.3699576507917823  0.9616038223865274  0.6113480097372281
  0.8491481837502003  0.7836738920053044  0.6911056790277659
  0.8477977361776650  0.9708124746926249  0.0328549139046730
  0.5648177192069487  0.8658492932764064  0.4255177217599102
  0.7553271183939133  0.6703807489146181  0.9927009467123752
  0.5644041291812641  0.8416701714893848  0.9227707545441275
  0.1387961984110292  0.9449631645463158  0.8935863497566984
  0.2123669351516326  0.5940897804137381  0.0161265608961352
  0.0107067139619828  0.7047132195533168  0.7176659762550420
  0.2697612662394407  0.4820120590656073  0.8991110474115327
  0.9795306491255673  0.8212872956073948  0.3750042944138713
  0.2326428677040559  0.5593591877185223  0.6654659097324577
  0.3615765001372090  0.3570415663235207  0.0200321340448200
  0.1844028501731142  0.3189757706654592  0.9943750965397131
  0.1973141492501103  0.7263694645643028  0.7519619338572051
  0.5551139673142036  0.2361054497144767  0.3285034431896073
  0.2870012968605757  0.6672702350969358  0.5042906571450624
  0.1131421905039971  0.5594502426758342  0.1850225426610737
  0.1358862013280594  0.0662082665591773  0.1511593445155659
  0.4821744423507126  0.5863257102218150  0.9177852870538056
  0.8600534293149507  0.5027704998239294  0.7696523958367287
  0.3655289082308452  0.6557480255320109  0.4191688656607950
  0.7239824234703822  0.2891117696175947  0.6527874153422969
  0.5367182368885682  0.4260097887360186 -0.0061467942883935
  0.1705137222224489  0.3848929963767577  0.2621604923827676
  0.8448048289893194  0.8480763036686129  0.4843700534550312
  0.3789453620029221  0.0156849850069548  0.3628525710592696
  0.8960838839114832  0.6621400126074675  0.0919882242401419
  0.2071616811258242  0.8897047768467875  0.6677731701421127
  0.0953354318404017  0.7857541268978960  0.8909578543812104
 
  0.00000000E+00  0.00000000E+00  0.00000000E+00
  0.00000000E+00  0.00000000E+00  0.00000000E+00
  0.00000000E+00  0.00000000E+00  0.00000000E+00
  0.00000000E+00  0.00000000E+00  0.00000000E+00
  0.00000000E+00  0.00000000E+00  0.00000000E+00
  0.00000000E+00  0.00000000E+00  0.00000000E+00
  0.00000000E+00  0.00000000E+00  0.00000000E+00
  0.00000000E+00  0.00000000E+00  0.00000000E+00
  0.00000000E+00  0.00000000E+00  0.00000000E+00
  0.00000000E+00  0.00000000E+00  0.00000000E+00
  0.00000000E+00  0.00000000E+00  0.00000000E+00
  0.00000000E+00  0.00000000E+00  0.00000000E+00
  0.00000000E+00  0.00000000E+00  0.00000000E+00
  0.00000000E+00  0.00000000E+00  0.00000000E+00
  0.00000000E+00  0.00000000E+00  0.00000000E+00
  0.00000000E+00  0.00000000E+00  0.00000000E+00
  0.00000000E+00  0.00000000E+00  0.00000000E+00
  0.00000000E+00  0.00000000E+00  0.00000000E+00
  0.00000000E+00  0.00000000E+00  0.00000000E+00
  0.00000000E+00  0.00000000E+00  0.00000000E+00
  0.00000000E+00  0.00000000E+00  0.00000000E+00
  0.00000000E+00  0.00000000E+00  0.00000000E+00
  0.00000000E+00  0.00000000E+00  0.00000000E+00
  0.00000000E+00  0.00000000E+00  0.00000000E+00
  0.00000000E+00  0.00000000E+00  0.00000000E+00
  0.00000000E+00  0.00000000E+00  0.00000000E+00
  0.00000000E+00  0.00000000E+00  0.00000000E+00
  0.00000000E+00  0.00000000E+00  0.00000000E+00
  0.00000000E+00  0.00000000E+00  0.00000000E+00
  0.00000000E+00  0.00000000E+00  0.00000000E+00
  0.00000000E+00  0.00000000E+00  0.00000000E+00
  0.00000000E+00  0.00000000E+00  0.00000000E+00
  0.00000000E+00  0.00000000E+00  0.00000000E+00
  0.00000000E+00  0.00000000E+00  0.00000000E+00
  0.00000000E+00  0.00000000E+00  0.00000000E+00
  0.00000000E+00  0.00000000E+00  0.00000000E+00
  0.00000000E+00  0.00000000E+00  0.00000000E+00
  0.00000000E+00  0.00000000E+00  0.00000000E+00
  0.00000000E+00  0.00000000E+00  0.00000000E+00
  0.00000000E+00  0.00000000E+00  0.00000000E+00
  0.00000000E+00  0.00000000E+00  0.00000000E+00
  0.00000000E+00  0.00000000E+00  0.00000000E+00
  0.00000000E+00  0.00000000E+00  0.00000000E+00
  0.00000000E+00  0.00000000E+00  0.00000000E+00
  0.00000000E+00  0.00000000E+00  0.00000000E+00
  0.00000000E+00  0.00000000E+00  0.00000000E+00
  0.00000000E+00  0.00000000E+00  0.00000000E+00
  0.00000000E+00  0.00000000E+00  0.00000000E+00
  0.00000000E+00  0.00000000E+00  0.00000000E+00
  0.00000000E+00  0.00000000E+00  0.00000000E+00
  0.00000000E+00  0.00000000E+00  0.00000000E+00
  0.00000000E+00  0.00000000E+00  0.00000000E+00
  0.00000000E+00  0.00000000E+00  0.00000000E+00
  0.00000000E+00  0.00000000E+00  0.00000000E+00
  0.00000000E+00  0.00000000E+00  0.00000000E+00
  0.00000000E+00  0.00000000E+00  0.00000000E+00
  0.00000000E+00  0.00000000E+00  0.00000000E+00
  0.00000000E+00  0.00000000E+00  0.00000000E+00
  0.00000000E+00  0.00000000E+00  0.00000000E+00
  0.00000000E+00  0.00000000E+00  0.00000000E+00
  0.00000000E+00  0.00000000E+00  0.00000000E+00
  0.00000000E+00  0.00000000E+00  0.00000000E+00
  0.00000000E+00  0.00000000E+00  0.00000000E+00
  0.00000000E+00  0.00000000E+00  0.00000000E+00
  0.00000000E+00  0.00000000E+00  0.00000000E+00
  0.00000000E+00  0.00000000E+00  0.00000000E+00
  0.00000000E+00  0.00000000E+00  0.00000000E+00
  0.00000000E+00  0.00000000E+00  0.00000000E+00
  0.00000000E+00  0.00000000E+00  0.00000000E+00
  0.00000000E+00  0.00000000E+00  0.00000000E+00
  0.00000000E+00  0.00000000E+00  0.00000000E+00
  0.00000000E+00  0.00000000E+00  0.00000000E+00
  0.00000000E+00  0.00000000E+00  0.00000000E+00
  0.00000000E+00  0.00000000E+00  0.00000000E+00
  0.00000000E+00  0.00000000E+00  0.00000000E+00
  0.00000000E+00  0.00000000E+00  0.00000000E+00
  0.00000000E+00  0.00000000E+00  0.00000000E+00
  0.00000000E+00  0.00000000E+00  0.00000000E+00
  0.00000000E+00  0.00000000E+00  0.00000000E+00
  0.00000000E+00  0.00000000E+00  0.00000000E+00
  0.00000000E+00  0.00000000E+00  0.00000000E+00
  0.00000000E+00  0.00000000E+00  0.00000000E+00
  0.00000000E+00  0.00000000E+00  0.00000000E+00
  0.00000000E+00  0.00000000E+00  0.00000000E+00
  0.00000000E+00  0.00000000E+00  0.00000000E+00
  0.00000000E+00  0.00000000E+00  0.00000000E+00
  0.00000000E+00  0.00000000E+00  0.00000000E+00
  0.00000000E+00  0.00000000E+00  0.00000000E+00
  0.00000000E+00  0.00000000E+00  0.00000000E+00
  0.00000000E+00  0.00000000E+00  0.00000000E+00
  0.00000000E+00  0.00000000E+00  0.00000000E+00
  0.00000000E+00  0.00000000E+00  0.00000000E+00
  0.00000000E+00  0.00000000E+00  0.00000000E+00
  0.00000000E+00  0.00000000E+00  0.00000000E+00
  0.00000000E+00  0.00000000E+00  0.00000000E+00
  0.00000000E+00  0.00000000E+00  0.00000000E+00
  0.00000000E+00  0.00000000E+00  0.00000000E+00
  0.00000000E+00  0.00000000E+00  0.00000000E+00
  0.00000000E+00  0.00000000E+00  0.00000000E+00
  0.00000000E+00  0.00000000E+00  0.00000000E+00
  0.00000000E+00  0.00000000E+00  0.00000000E+00
  0.00000000E+00  0.00000000E+00  0.00000000E+00
  0.00000000E+00  0.00000000E+00  0.00000000E+00
  0.00000000E+00  0.00000000E+00  0.00000000E+00
  0.00000000E+00  0.00000000E+00  0.00000000E+00
  0.00000000E+00  0.00000000E+00  0.00000000E+00
  0.00000000E+00  0.00000000E+00  0.00000000E+00
  0.00000000E+00  0.00000000E+00  0.00000000E+00
  0.00000000E+00  0.00000000E+00  0.00000000E+00
  0.00000000E+00  0.00000000E+00  0.00000000E+00
  0.00000000E+00  0.00000000E+00  0.00000000E+00
  0.00000000E+00  0.00000000E+00  0.00000000E+00
  0.00000000E+00  0.00000000E+00  0.00000000E+00
  0.00000000E+00  0.00000000E+00  0.00000000E+00
  0.00000000E+00  0.00000000E+00  0.00000000E+00
  0.00000000E+00  0.00000000E+00  0.00000000E+00
  0.00000000E+00  0.00000000E+00  0.00000000E+00
  0.00000000E+00  0.00000000E+00  0.00000000E+00
  0.00000000E+00  0.00000000E+00  0.00000000E+00
  0.00000000E+00  0.00000000E+00  0.00000000E+00
  0.00000000E+00  0.00000000E+00  0.00000000E+00
  0.00000000E+00  0.00000000E+00  0.00000000E+00
  0.00000000E+00  0.00000000E+00  0.00000000E+00
  0.00000000E+00  0.00000000E+00  0.00000000E+00
  0.00000000E+00  0.00000000E+00  0.00000000E+00
  0.00000000E+00  0.00000000E+00  0.00000000E+00
  0.00000000E+00  0.00000000E+00  0.00000000E+00
  0.00000000E+00  0.00000000E+00  0.00000000E+00
  0.00000000E+00  0.00000000E+00  0.00000000E+00
  0.00000000E+00  0.00000000E+00  0.00000000E+00
  0.00000000E+00  0.00000000E+00  0.00000000E+00
  0.00000000E+00  0.00000000E+00  0.00000000E+00
  0.00000000E+00  0.00000000E+00  0.00000000E+00
  0.00000000E+00  0.00000000E+00  0.00000000E+00
  0.00000000E+00  0.00000000E+00  0.00000000E+00
  0.00000000E+00  0.00000000E+00  0.00000000E+00
  0.00000000E+00  0.00000000E+00  0.00000000E+00
  0.00000000E+00  0.00000000E+00  0.00000000E+00
  0.00000000E+00  0.00000000E+00  0.00000000E+00
  0.00000000E+00  0.00000000E+00  0.00000000E+00
  0.00000000E+00  0.00000000E+00  0.00000000E+00
  0.00000000E+00  0.00000000E+00  0.00000000E+00
  0.00000000E+00  0.00000000E+00  0.00000000E+00
  0.00000000E+00  0.00000000E+00  0.00000000E+00
  0.00000000E+00  0.00000000E+00  0.00000000E+00
  0.00000000E+00  0.00000000E+00  0.00000000E+00
  0.00000000E+00  0.00000000E+00  0.00000000E+00
  0.00000000E+00  0.00000000E+00  0.00000000E+00
  0.00000000E+00  0.00000000E+00  0.00000000E+00
  0.00000000E+00  0.00000000E+00  0.00000000E+00
  0.00000000E+00  0.00000000E+00  0.00000000E+00
  0.00000000E+00  0.00000000E+00  0.00000000E+00
  0.00000000E+00  0.00000000E+00  0.00000000E+00
  0.00000000E+00  0.00000000E+00  0.00000000E+00
  0.00000000E+00  0.00000000E+00  0.00000000E+00
  0.00000000E+00  0.00000000E+00  0.00000000E+00
  0.00000000E+00  0.00000000E+00  0.00000000E+00
  0.00000000E+00  0.00000000E+00  0.00000000E+00
  0.00000000E+00  0.00000000E+00  0.00000000E+00
  0.00000000E+00  0.00000000E+00  0.00000000E+00
  0.00000000E+00  0.00000000E+00  0.00000000E+00
  0.00000000E+00  0.00000000E+00  0.00000000E+00
  0.00000000E+00  0.00000000E+00  0.00000000E+00
  0.00000000E+00  0.00000000E+00  0.00000000E+00
  0.00000000E+00  0.00000000E+00  0.00000000E+00
  0.00000000E+00  0.00000000E+00  0.00000000E+00
  0.00000000E+00  0.00000000E+00  0.00000000E+00
  0.00000000E+00  0.00000000E+00  0.00000000E+00
  0.00000000E+00  0.00000000E+00  0.00000000E+00
  0.00000000E+00  0.00000000E+00  0.00000000E+00
  0.00000000E+00  0.00000000E+00  0.00000000E+00
  0.00000000E+00  0.00000000E+00  0.00000000E+00
  0.00000000E+00  0.00000000E+00  0.00000000E+00
  0.00000000E+00  0.00000000E+00  0.00000000E+00
  0.00000000E+00  0.00000000E+00  0.00000000E+00
  0.00000000E+00  0.00000000E+00  0.00000000E+00
  0.00000000E+00  0.00000000E+00  0.00000000E+00
  0.00000000E+00  0.00000000E+00  0.00000000E+00
  0.00000000E+00  0.00000000E+00  0.00000000E+00
  0.00000000E+00  0.00000000E+00  0.00000000E+00
  0.00000000E+00  0.00000000E+00  0.00000000E+00
  0.00000000E+00  0.00000000E+00  0.00000000E+00
  0.00000000E+00  0.00000000E+00  0.00000000E+00
  0.00000000E+00  0.00000000E+00  0.00000000E+00
  0.00000000E+00  0.00000000E+00  0.00000000E+00
  0.00000000E+00  0.00000000E+00  0.00000000E+00
  0.00000000E+00  0.00000000E+00  0.00000000E+00
  0.00000000E+00  0.00000000E+00  0.00000000E+00
  0.00000000E+00  0.00000000E+00  0.00000000E+00
  0.00000000E+00  0.00000000E+00  0.00000000E+00
  0.00000000E+00  0.00000000E+00  0.00000000E+00
  0.00000000E+00  0.00000000E+00  0.00000000E+00
  0.00000000E+00  0.00000000E+00  0.00000000E+00
  0.00000000E+00  0.00000000E+00  0.00000000E+00
  0.00000000E+00  0.00000000E+00  0.00000000E+00
  0.00000000E+00  0.00000000E+00  0.00000000E+00
  0.00000000E+00  0.00000000E+00  0.00000000E+00
  0.00000000E+00  0.00000000E+00  0.00000000E+00
  0.00000000E+00  0.00000000E+00  0.00000000E+00
  0.00000000E+00  0.00000000E+00  0.00000000E+00
  0.00000000E+00  0.00000000E+00  0.00000000E+00
  0.00000000E+00  0.00000000E+00  0.00000000E+00
  0.00000000E+00  0.00000000E+00  0.00000000E+00
  0.00000000E+00  0.00000000E+00  0.00000000E+00
  0.00000000E+00  0.00000000E+00  0.00000000E+00
  0.00000000E+00  0.00000000E+00  0.00000000E+00
  0.00000000E+00  0.00000000E+00  0.00000000E+00
  0.00000000E+00  0.00000000E+00  0.00000000E+00
  0.00000000E+00  0.00000000E+00  0.00000000E+00
  0.00000000E+00  0.00000000E+00  0.00000000E+00
  0.00000000E+00  0.00000000E+00  0.00000000E+00
  0.00000000E+00  0.00000000E+00  0.00000000E+00
  0.00000000E+00  0.00000000E+00  0.00000000E+00
  0.00000000E+00  0.00000000E+00  0.00000000E+00
  0.00000000E+00  0.00000000E+00  0.00000000E+00
  0.00000000E+00  0.00000000E+00  0.00000000E+00
  0.00000000E+00  0.00000000E+00  0.00000000E+00
  0.00000000E+00  0.00000000E+00  0.00000000E+00
  0.00000000E+00  0.00000000E+00  0.00000000E+00
  0.00000000E+00  0.00000000E+00  0.00000000E+00
  0.00000000E+00  0.00000000E+00  0.00000000E+00
  0.00000000E+00  0.00000000E+00  0.00000000E+00
  0.00000000E+00  0.00000000E+00  0.00000000E+00
  0.00000000E+00  0.00000000E+00  0.00000000E+00
  0.00000000E+00  0.00000000E+00  0.00000000E+00
  0.00000000E+00  0.00000000E+00  0.00000000E+00
  0.00000000E+00  0.00000000E+00  0.00000000E+00
  0.00000000E+00  0.00000000E+00  0.00000000E+00
  0.00000000E+00  0.00000000E+00  0.00000000E+00
  0.00000000E+00  0.00000000E+00  0.00000000E+00
  0.00000000E+00  0.00000000E+00  0.00000000E+00
  0.00000000E+00  0.00000000E+00  0.00000000E+00