Amorphous Sb                            
   1.00000000000000     
    19.2499996185000022    0.0000000000000000    0.0000000000000000
     0.0000000000000000   19.2499996185000022    0.0000000000000000
     0.0000000000000000    0.0000000000000000   19.2499996185000022
   Ga   As
   150   150
Direct
  0.3489536088520934  0.7961445937951901  0.2976844702394554
  0.8011943157925029  0.6943461032146493  0.1584020792947461
  0.1075321041825832  0.0531557950153722  0.2508845684036772
  0.0749030172696836  0.3927790243296887  0.7402876883779982
  0.5793749057322032  0.0851747916188364  0.1558451628827678
  0.3658659096209926 -0.0271744681562281  0.8145681667144536
  0.2294396295293460  0.3206193764118508  0.5894560250422777
  0.5929861226600642  0.1890327756852200  0.9651402328109810
  0.6428788013828471  0.3555381702117881  0.4376724121419690
  0.0622956299600945  0.0972735194836421  0.4411171119901336
  0.4608941191384771  0.1478652942315507  0.6024797020385818
  0.1270326741445909  0.1157492562079518  0.8509475778250809
  0.8553600748635505  0.3818874898656434  0.0859306188723464
  0.3471600128491438  0.2092158489985546  0.4372909795912659
  0.3818898467328351  0.4599129554635270  0.5414524603930442
  0.4581985650945871  0.9648710069672025  0.6862536614739393
  0.7741710553360013  0.9780026190609125  0.7919083203098507
  0.8420036327678021  0.5216873947424840  0.4444045169318054
  0.2756957887713789  0.4987781830197097  0.6188824851316983
  0.2367479844429622  0.6183195137840150  0.7594279800540015
  0.3755091552350759  0.4372582607976355  0.7602055489778279
  0.0907127653649380  0.2375276373209876  0.6099735763117203
  0.7210517788343854  0.9059967181347872  0.2385207784862959
  0.3293016923201253  0.7540130799714404  0.9324226800750152
  0.3269754492290022  0.1591447169375603  0.8230410873752958
  0.2559690137441139  0.7329659016322905  0.8245348486422811
  0.2465535859416601  0.2095912950992008  0.7337639766448425
  0.9067977344896408  0.3643680801325010  0.5623987550348831
  0.6551957675430440  0.8661886470702301  0.7393641778075248
  0.3475915437265529  0.5367166080001162  0.0576011198873526
  0.2590349948876607  0.3648766041878059  0.9227446286281653
  0.8929061327845620  0.1695814886206879  0.5942990955613965
  0.9444428619496098  0.4633148511572260  0.2739190997533547
  0.4476018989104478  0.6407633854341338  0.6638283193028915
  0.7362761349609624  0.5771433169962261  0.3435282348487707
  0.4445419768789288  0.0364698269481755  0.8994457342105542
  0.5169995418181833  0.7040801808666044  0.1560392682286675
  0.9757527227552559  0.2734005524885064  0.8859219709222926
  0.3953498835268496  0.1055989470199677  0.2391165760302829
  0.2532415540090451  0.0228586922450343  0.2600740393498744
  0.0098965788519384  0.8234036875325110  0.9381559012237323
  0.1002488464514237  0.8262438204299287  0.4564233801827458
  0.6616188388648555  0.0349940769139948  0.3707139015801224
  0.2043207392355035  0.5418607451233243  0.8728442721440116
  0.2088059567737511  0.7497912559925785  0.4993939644628236
  0.5597453037870159  0.9029231222651614  0.1380306863094175
  0.0047535137547199  0.5606398429495373  0.6182095853179143
  0.0971105868029118  0.5720374026831901  0.7929485507180665
  0.4601437126673019  0.2780621068246341  0.8074321697534854
  0.9219004646232685  0.2317597561941370  0.7708302386776522
  0.7826098038902999  0.4882283667805991 -0.0713427804631305
  0.8765819234130681  0.3281269749701296  0.4399926881165913
  0.0447151041151303  0.9080049944323241  0.0613124264393341
  0.2357118226832123  0.6423341601729942  0.5833411028667662
  0.3555000418471961 -0.0387768466707364  0.1904031822140484
  0.3717584914567752  0.0115580548255493  0.4380670684719702
  0.6173000147575407  0.1754398335881962  0.6970541258390868
  0.1617995586134992  0.0144297608690642  0.9479158580437973
  0.1762913538550609  0.5423598801425901  0.5129268138091244
  0.6569634962967256  0.2956354952720153  0.8028515998659320
  0.0485613715628742  0.3331516484116164  0.0817726336065596
  0.0727163091482484  0.6041389152240539  0.0302954140145752
 -0.0243186594163608  0.6873684950459995  0.9730028960271464
  0.9035291407265464  0.1233527007198266  0.9678385512616792
  0.0841963771826153  0.3603921603076689  0.8707912576766748
  0.0572861467525577  0.0260396664271508  0.7749495968692872
  0.2484745954253010  0.1264404868955733  0.9242256776301521
  0.1810572923932384  0.8444125953162144  0.1731147615107548
  0.1820615189313791  0.8539797079184390  0.7991720238534392
  0.1340594517881604  0.7478949275559698  0.8889407677855362
  0.2684531538325487  0.9125028722739575  0.6669023442226177
  0.5021639057195395  0.1685607597904161  0.3246072891678942
  0.7162835780420431  0.8680505050562453  0.4297055536099167
  0.6027449398284337  0.6169435057625481  0.0330671849037647
  0.4797139186430108  0.3680927923043050  0.9097104268618508
  0.7897749573147104  0.2943299629753154  0.7725583271173326
  0.8711913888583377  0.7719787360737946  0.8872534738944939
  0.1864260237054925  0.0793481634266052  0.3749221516016898
  0.9250794272052193  0.1571427328108801  0.2739006779272871
 -0.0072846077375147  0.5004917092226908  0.4653390947273498
  0.5058568558963260  0.1904675595587055  0.1875172424067271
  0.7832603586508442  0.7723892214637709  0.3764699947053916
  0.8383137185702280  0.6058763472864657  0.2540395392714734
  0.6614777606835480  0.9530986653269159  0.6364396125011490
  0.0821216493915267  0.9622863958314645  0.3471348091047245
  0.1023251177691940  0.4612612477576703  0.5927743109431765
  0.8507497862398147  0.2846202115879330  0.6508888851187481
  0.8060669923368790  0.5553465818833292  0.6540278064887235
  0.3307063625951749  0.4951714165507726  0.8735565877742208
  0.3225795067531100  0.7065621985873849  0.6584444254517230
  0.5621771259686371  0.1683108684461626  0.4930529893049961
  0.8401177109327702  0.6580990084728828  0.7280744855712108
  0.0516247383646775  0.1140246666709714  0.0726491313378454
  0.4358355333632752  0.7053604356007885  0.4424231826059225
  0.3659562967363702  0.2675038374224228  0.9185396235599412
  0.6251415572816141  0.0489500344297598  0.7827195872183993
  0.2461629347836833  0.7052590405137242  0.1333576299419854
  0.0946671295642433  0.2683267359689149 -0.0251456226949158
  0.3766533973469841  0.8160511130850939  0.0538618337181141
  0.3485267737870326  0.5645253907480928  0.7118585170357424
  0.5503663844705862  0.4802788589595497  0.6119160163958500
  0.0909428982180129  0.4936145477439572  0.1116135941935649
  0.7711681405061982  0.1833680596377328  0.8477619529432603
  0.4772940117063809  0.0415294067872739  0.5143963530560064
  0.1379239928211117  0.2419842136539580  0.8126244822221791
  0.6818467872191261  0.4902776857594496  0.1414169395828920
  0.4905530525416895  0.3570802746268761  0.3522444554086106
  0.1046334282131293  0.2501492151566960  0.2703606075493963
  0.5156112294728360  0.9591272333442854  0.3192139576927449
  0.4740501645379684  0.5674791879121055  0.0141731663565152
  0.7349245266763621  0.0449789468056036  0.4790371581934793
  0.0421024034689862  0.1576594534681828  0.2013112654062590
  0.7989313711022854  0.1260191109987018  0.2489222857908673
  0.1389775642586112  0.8311844158318122  0.9968615320375811
  0.2324197368681439  0.3444799724477121  0.7929136437037209
  0.8638936477196134  0.7329317319568692  0.0432855814424195
  0.9618426251587255  0.2619541228273993  0.1562581198092479
  0.6787713787018871  0.6607042725867989  0.7004444077310528
  0.6573371754391609  0.9376406354355864  0.8612673658683619
  0.2407699555270069  0.7921492307211664  0.3754863383860622
  0.5893506119944306  0.7077151699966292  0.2909159875937941
  0.6085369731091979  0.0766767754808747  0.0309895620691957
  0.8591618053742526  0.6424049298307588  0.8554601177576042
  0.5367642716756437  0.2737109626346636  0.5940872186286167
  0.8835244452095710  0.9200781598066129  0.6971546444943758
  0.7882366147970914  0.9356056713623810  0.9363233634527561
  0.2288796937384720  0.6185295232089449  0.2316516428504160
  0.8965446760091054  0.9514493095594149  0.0137900083717265
  0.0286824240239240 -0.0053559273687243  0.9566284793428568
  0.5471488877830010  0.8021170751711909  0.5762515162388860
  0.6076545637276551  0.6993910752115600  0.5083561019572687
  0.9651744405211120  0.4332609854281728  0.8543895042342334
  0.3442193333687193  0.2046794673536431  0.5680838679147475
  0.1599305632375806  0.0251567244389627  0.5819123710833352
  0.2190033919262240  0.0371372416736180  0.7686263369602068
  0.7745531228551131  0.6320667992883576  0.4792602146887193
  0.7145174451953751  0.7903531298309746  0.0962686729618766
  0.3366886916269987  0.3427795108540073  0.0945165013197417
  0.4375305830943835  0.8579696583074606  0.7777335990548961
  0.5208532252599857  0.6633986283564807  0.8499141543092786
  0.2196612919899256  0.4822515766939260  0.0544146597084609
  0.6878127643215740  0.7832883116770035  0.8613476471702687
  0.9695574552307041  0.4482944550796522  0.0731214505307751
  0.3753540586918349  0.4120545320818152 -0.0162160599561929
  0.8102802514681532  0.8391927485676332  0.6249966090654098
  0.3255528292869243  0.4908714192448516  0.4277562937594805
  0.0641218235476765  0.7423475814502151  0.5532558863501658
  0.9557249312857147  0.6249766824918175  0.1302141957453377
  0.2659911213021515  0.8702166014852745 -0.0155464958224156
  0.0652727927663810  0.6992755688694697  0.2057335306068978
  0.4666496403709187  0.5666716163034632  0.5604868728492833
  0.9325055899895677  0.7823419502349962  0.5754821329199561
  0.6769127776186151  0.6929763173293205  0.3889759827384294
  0.9077333142445533  0.8396741413051690  0.2150273878576002
  0.4589108334870586  0.2972147477607324  0.1263487702085002
  0.6072974743592089  0.7916902918763332  0.1860706964974650
  0.3499839353873810  0.3077946485816141  0.7321780953397983
  0.6767355929624522  0.4852095446133619  0.5806093969570355
  0.4903254338422192  0.8976664450315555  0.0276953190509401
  0.8822147619912617  0.0551191522109077  0.6700001867808918
  0.4567225888299856  0.1445802358623919  0.8215156138418518
  0.3189637463892537  0.8105088276460878  0.7358285308362490
  0.5507028498970133  0.3164699922916467  0.7217360282213064
  0.4045791776109808  0.9063647011451789  0.3558524641129513
  0.0395143112349235  0.6353726389403795  0.3750042130936728
  0.6750913434010929  0.1242727660938737  0.5707265388513989
  0.4527111759288795  0.7162159895959633  0.2703383225850702
  0.5543807386880796 -0.0151716380082564  0.9509428497417317
  0.8411777357693093  0.0730631750500968  0.8623994458512707
  0.6760361139732525  0.3937838503919580  0.2338237111621547
  0.5513299000714377  0.6822531836245106  0.7264622957999776
  0.0668612989521540  0.2320559470670093  0.3951798074294384
  0.3206679006450616  0.1064404200674452  0.3597930286214654
  0.8130711491395641 -0.0047433714371782  0.2733455002276572
  0.2648279892919043  0.8654170946174351  0.5450536592748449
  0.4275476595420438  0.5901271965809688  0.2861901926739869
  0.7578188241152297  0.2170977948863483  0.0854204569377806
  0.2059202010673012  0.3769899145226638  0.4702731473228866
  0.1033698418255506  0.5708004941739442  0.2185069181108711
  0.6876042011943201  0.9230450525761138  0.1132143062870073
  0.1230362971784698  0.7517889694933312  0.6722701869192894
  0.7990381515786816  0.0974675579881158  0.1180430986295910
  0.8840348809710409  0.8921577233623738  0.8253400758777161
  0.4535380738727165  0.5580832377137998  0.8824589585190155
  0.4904188537494535 -0.0046631698022474  0.1988341487073951
  0.5396319991907754  0.9418263703957036  0.5845367630559155
  0.8836751830738843  0.3240616700084876 -0.0354894954587399
  0.1428625019561570  0.9366052982039135  0.7024334485168222
  0.1337579926324439  0.6250112491621737  0.6711255614862469
  0.5377648460491958  0.0643112786697544  0.3950536507235050
  0.2146729989866829  0.1875024978318729  0.6114015269865876
  0.9512294915294052  0.2661039945184291  0.3488090137592360
  0.3547109986087137  0.6145793330566603  0.3901666170048054
  0.5533865924916775  0.4262169080475391  0.2584791279512801
  0.7180731601580634  0.0614330559157857  0.6847904196623295
  0.2240408172020210  0.2428341895476953 -0.0191344611646349
  0.0423696580865775  0.2673874324811564  0.7244373270925629
  0.7286997456614994  0.0204930852725130  0.0391884361141003
  0.2330992274853551  0.6404617748478343  0.3593066422858789
  0.1945467792135637  0.4098761556071376  0.6811005383816559
  0.4926000960527119  0.3880489986042571  0.5375735781796320
  0.5267737273463780  0.6130735051187333  0.4552944560925155
  0.6924480537761791  0.6189774438744897  0.5782625473527417
  0.5431046174681851  0.4706162054116924  0.8516909936332426
  0.3352710812552916  0.5495925914154404  0.1972705367590870
  0.9106471929540630  0.6152153178212673  0.3743477261691629
  0.6515000621667880  0.2291109386451202  0.4007711977401995
  0.9671780108923919  0.9613769027758325  0.5426309940912478
  0.4882830511668613  0.4231341185772252  0.1496387679436124
  0.3752696720093696  0.1567342264646182  0.0889409040039130
  0.7276030194943164  0.5868661980718718  0.8610149579480494
  0.0005589338685523  0.3421763951860934  0.2558811319571327
  0.5410361380798577  0.8063527326399705  0.7094065124048666
  0.0808172669591096  0.9556683049476882  0.4836133346127595
  0.6364230789223017  0.9097924813501247  0.3357402187618874
  0.7459695440763522  0.9255472914472128  0.5394924735726246
  0.0645340588635985  0.6180695954343863  0.5046293056431492
  0.3374273409324315  0.0195757099119480  0.6904594244673123
  0.2512678601938633  0.9767150181028386  0.4787210874245340
  0.0415901807851267  0.3479234021335377  0.5551164380926473
  0.6694354662200357  0.1034912300273540  0.2565691779855542
  0.2321127885469690  0.2803587077780393  0.2630803553892276
  0.7439950619919166  0.2383366330737580  0.5664148929289697
  0.7664509159790401  0.8067517770018874  0.9652745910125198
  0.8440740300741717  0.1202678353849091  0.4761988355941495
  0.0521208753483107  0.8308836574666071  0.3345394734452147
  0.3642776932502903  0.4001736047305043  0.3394090924247818
  0.3230451973140293  0.4205655765732779  0.2150376240662384
  0.4512463201654334  0.7720990715231493  0.8798777556660282
  0.8721077700365186  0.7130190912517003  0.4497347757288624
  0.6029646759897588  0.3151144367406966  0.9316815869489538
  0.8764292292985403  0.5753553332521469 -0.0331821373243583
  0.1250283565028840  0.9605553284924294  0.1515602766463995
  0.5060820121338847  0.4391346680671163  0.7314631476346271
  0.3081465951721197  0.9731309202375882  0.0628051458291631
  0.8327147023820425  0.2833914897856902  0.1670869789971040
  0.0286755760227948  0.1520359150094831  0.9404764389695972
  0.2632114224894839  0.2344276107501809  0.1035605761397998
 -0.0044576295284245  0.8797999427413842  0.6400309314699176
  0.9478134826115949  0.6860004689177442  0.6618708998916647
  0.9870008908235780  0.5108117542266557 -0.0419469946082316
  0.2149065252685683  0.9323855963640129  0.3619661498705274
  0.2913919158755536  0.6575907649819785  0.0176022224455010
  0.6862874653325617  0.6197491867031992  0.1377280366415354
  0.8423847188697098  0.4249132538904500  0.3585840896938285
  0.8912385349076273  0.9629049975204591  0.3713810261008814
  0.0094074487809648  0.0455309640152679  0.6327347784785959
  0.0336455424216670  0.6781790813732310  0.8399923620008877
  0.1255122330109552  0.7480146325313085  0.0987642734121314
  0.8895792833249581  0.4971514701134306  0.5664353787154401
  0.0835316954827261  0.3560022324128079  0.4333546171760756
  0.7831088262480814  0.2302633437765424  0.4416823224170611
  0.1957781286016265  0.0389937389342901  0.0759697097644113
  0.6374425740700089  0.6671825866533233  0.9119283432387182
  0.3940223469142076  0.8657082722830911  0.5538300404704239
  0.2788394902399490  0.3097093263816724  0.3812678871609140
  0.9321619393417202  0.8443319745170930  0.0856532582294335
  0.1716584584874423  0.3749016728411869  0.1201370623990833
  0.4620875720719833  0.7108939590131540  0.0407238502223671
  0.4207164749832175  0.7399131774994337  0.5706793346884226
  0.5743701552795416  0.4624391786388572  0.0630396516898595
  0.8868293884256598  0.5117797080889722  0.1686967337938900
  0.9674466796784162  0.7460316942035606  0.2820492457953451
  0.9171255706967139  0.0632447471831872  0.0804115505761108
  0.1536325975545093  0.4447761422799262  0.9437344922950180
  0.6589740674670123  0.5459091910798765  0.7610081272669091
  0.1522271157903054  0.7758293237476765  0.2798976115737956
  0.5391633383998817  0.7924766502624853 -0.0274538932879100
  0.9347013136562188 -0.0360502718462146  0.2489269113824692
  0.0173447194114120  0.1477215334192148  0.5552366934964086
  0.9331556091165822  0.1004915880130291  0.7777428715071332
  0.0574959039970060  0.5149578788649418  0.3278442029074181
  0.1797082283194413  0.6390681496617429  0.9570240268190191
  0.7124874004377896  0.4410862301919536  0.3505643881613151
  0.9358328859551243  0.0840628540443522  0.3880701149815711
  0.7298363424638573  0.4599821710866850  0.6965232708758954
  0.2036359493398177  0.5148557576758194  0.3908869087504141
  0.3597231846364836  0.3320428427759082  0.6075367321306883
  0.6561690142964134  0.3320399706122369  0.5655863258045177
  0.6417010652388371  0.1668835621278466  0.8427339687053286
  0.7459152872443866  0.4347399153549110  0.0409069099920898
  0.5465447050206990  0.4406861970739550  0.4334263634204536
  0.8408656660364389  0.3888478291313007  0.8607995722609766
  0.5080472159309579  0.0868813923728724  0.7175723234413210
  0.0061916787442541  0.9236276780471689  0.8474421175759626
  0.5812115768964379  0.6029180436354945  0.2113161564537432
  0.4568165323231753  0.2271834609762488  0.0146943902387858
  0.7909377169052226  0.7971926325647084  0.2476702930571562
  0.7514035759068600  0.7627590490094104  0.7310060441674672
  0.1968610405697528  0.4025385753445929  0.2434585273314978
  0.6445141307034395  0.3540665614402879  0.0466893657443083
  0.2486567012368431  0.9396612585741266  0.8752039413343725
  0.4710413564310647  0.2477434232654641  0.4204258180512052
  0.8141352976036998  0.2183502006570643 -0.0305863166469637
  0.0132920856664563  0.7609997833445880  0.7422026318118292
  0.3510972754471657  0.0720125940662117  0.9918682027476219
  0.0005999399314520  0.4979888154889743  0.7442379170541111
  0.4603643820228345  0.8357143533606862  0.4458317115012064
  0.3115464404845514  0.8230317485803859  0.1701837465320835
  0.6223538906952673  0.2200722808767756  0.2754895996440493
 
  0.00000000E+00  0.00000000E+00  0.00000000E+00
  0.00000000E+00  0.00000000E+00  0.00000000E+00
  0.00000000E+00  0.00000000E+00  0.00000000E+00
  0.00000000E+00  0.00000000E+00  0.00000000E+00
  0.00000000E+00  0.00000000E+00  0.00000000E+00
  0.00000000E+00  0.00000000E+00  0.00000000E+00
  0.00000000E+00  0.00000000E+00  0.00000000E+00
  0.00000000E+00  0.00000000E+00  0.00000000E+00
  0.00000000E+00  0.00000000E+00  0.00000000E+00
  0.00000000E+00  0.00000000E+00  0.00000000E+00
  0.00000000E+00  0.00000000E+00  0.00000000E+00
  0.00000000E+00  0.00000000E+00  0.00000000E+00
  0.00000000E+00  0.00000000E+00  0.00000000E+00
  0.00000000E+00  0.00000000E+00  0.00000000E+00
  0.00000000E+00  0.00000000E+00  0.00000000E+00
  0.00000000E+00  0.00000000E+00  0.00000000E+00
  0.00000000E+00  0.00000000E+00  0.00000000E+00
  0.00000000E+00  0.00000000E+00  0.00000000E+00
  0.00000000E+00  0.00000000E+00  0.00000000E+00
  0.00000000E+00  0.00000000E+00  0.00000000E+00
  0.00000000E+00  0.00000000E+00  0.00000000E+00
  0.00000000E+00  0.00000000E+00  0.00000000E+00
  0.00000000E+00  0.00000000E+00  0.00000000E+00
  0.00000000E+00  0.00000000E+00  0.00000000E+00
  0.00000000E+00  0.00000000E+00  0.00000000E+00
  0.00000000E+00  0.00000000E+00  0.00000000E+00
  0.00000000E+00  0.00000000E+00  0.00000000E+00
  0.00000000E+00  0.00000000E+00  0.00000000E+00
  0.00000000E+00  0.00000000E+00  0.00000000E+00
  0.00000000E+00  0.00000000E+00  0.00000000E+00
  0.00000000E+00  0.00000000E+00  0.00000000E+00
  0.00000000E+00  0.00000000E+00  0.00000000E+00
  0.00000000E+00  0.00000000E+00  0.00000000E+00
  0.00000000E+00  0.00000000E+00  0.00000000E+00
  0.00000000E+00  0.00000000E+00  0.00000000E+00
  0.00000000E+00  0.00000000E+00  0.00000000E+00
  0.00000000E+00  0.00000000E+00  0.00000000E+00
  0.00000000E+00  0.00000000E+00  0.00000000E+00
  0.00000000E+00  0.00000000E+00  0.00000000E+00
  0.00000000E+00  0.00000000E+00  0.00000000E+00
  0.00000000E+00  0.00000000E+00  0.00000000E+00
  0.00000000E+00  0.00000000E+00  0.00000000E+00
  0.00000000E+00  0.00000000E+00  0.00000000E+00
  0.00000000E+00  0.00000000E+00  0.00000000E+00
  0.00000000E+00  0.00000000E+00  0.00000000E+00
  0.00000000E+00  0.00000000E+00  0.00000000E+00
  0.00000000E+00  0.00000000E+00  0.00000000E+00
  0.00000000E+00  0.00000000E+00  0.00000000E+00
  0.00000000E+00  0.00000000E+00  0.00000000E+00
  0.00000000E+00  0.00000000E+00  0.00000000E+00
  0.00000000E+00  0.00000000E+00  0.00000000E+00
  0.00000000E+00  0.00000000E+00  0.00000000E+00
  0.00000000E+00  0.00000000E+00  0.00000000E+00
  0.00000000E+00  0.00000000E+00  0.00000000E+00
  0.00000000E+00  0.00000000E+00  0.00000000E+00
  0.00000000E+00  0.00000000E+00  0.00000000E+00
  0.00000000E+00  0.00000000E+00  0.00000000E+00
  0.00000000E+00  0.00000000E+00  0.00000000E+00
  0.00000000E+00  0.00000000E+00  0.00000000E+00
  0.00000000E+00  0.00000000E+00  0.00000000E+00
  0.00000000E+00  0.00000000E+00  0.00000000E+00
  0.00000000E+00  0.00000000E+00  0.00000000E+00
  0.00000000E+00  0.00000000E+00  0.00000000E+00
  0.00000000E+00  0.00000000E+00  0.00000000E+00
  0.00000000E+00  0.00000000E+00  0.00000000E+00
  0.00000000E+00  0.00000000E+00  0.00000000E+00
  0.00000000E+00  0.00000000E+00  0.00000000E+00
  0.00000000E+00  0.00000000E+00  0.00000000E+00
  0.00000000E+00  0.00000000E+00  0.00000000E+00
  0.00000000E+00  0.00000000E+00  0.00000000E+00
  0.00000000E+00  0.00000000E+00  0.00000000E+00
  0.00000000E+00  0.00000000E+00  0.00000000E+00
  0.00000000E+00  0.00000000E+00  0.00000000E+00
  0.00000000E+00  0.00000000E+00  0.00000000E+00
  0.00000000E+00  0.00000000E+00  0.00000000E+00
  0.00000000E+00  0.00000000E+00  0.00000000E+00
  0.00000000E+00  0.00000000E+00  0.00000000E+00
  0.00000000E+00  0.00000000E+00  0.00000000E+00
  0.00000000E+00  0.00000000E+00  0.00000000E+00
  0.00000000E+00  0.00000000E+00  0.00000000E+00
  0.00000000E+00  0.00000000E+00  0.00000000E+00
  0.00000000E+00  0.00000000E+00  0.00000000E+00
  0.00000000E+00  0.00000000E+00  0.00000000E+00
  0.00000000E+00  0.00000000E+00  0.00000000E+00
  0.00000000E+00  0.00000000E+00  0.00000000E+00
  0.00000000E+00  0.00000000E+00  0.00000000E+00
  0.00000000E+00  0.00000000E+00  0.00000000E+00
  0.00000000E+00  0.00000000E+00  0.00000000E+00
  0.00000000E+00  0.00000000E+00  0.00000000E+00
  0.00000000E+00  0.00000000E+00  0.00000000E+00
  0.00000000E+00  0.00000000E+00  0.00000000E+00
  0.00000000E+00  0.00000000E+00  0.00000000E+00
  0.00000000E+00  0.00000000E+00  0.00000000E+00
  0.00000000E+00  0.00000000E+00  0.00000000E+00
  0.00000000E+00  0.00000000E+00  0.00000000E+00
  0.00000000E+00  0.00000000E+00  0.00000000E+00
  0.00000000E+00  0.00000000E+00  0.00000000E+00
  0.00000000E+00  0.00000000E+00  0.00000000E+00
  0.00000000E+00  0.00000000E+00  0.00000000E+00
  0.00000000E+00  0.00000000E+00  0.00000000E+00
  0.00000000E+00  0.00000000E+00  0.00000000E+00
  0.00000000E+00  0.00000000E+00  0.00000000E+00
  0.00000000E+00  0.00000000E+00  0.00000000E+00
  0.00000000E+00  0.00000000E+00  0.00000000E+00
  0.00000000E+00  0.00000000E+00  0.00000000E+00
  0.00000000E+00  0.00000000E+00  0.00000000E+00
  0.00000000E+00  0.00000000E+00  0.00000000E+00
  0.00000000E+00  0.00000000E+00  0.00000000E+00
  0.00000000E+00  0.00000000E+00  0.00000000E+00
  0.00000000E+00  0.00000000E+00  0.00000000E+00
  0.00000000E+00  0.00000000E+00  0.00000000E+00
  0.00000000E+00  0.00000000E+00  0.00000000E+00
  0.00000000E+00  0.00000000E+00  0.00000000E+00
  0.00000000E+00  0.00000000E+00  0.00000000E+00
  0.00000000E+00  0.00000000E+00  0.00000000E+00
  0.00000000E+00  0.00000000E+00  0.00000000E+00
  0.00000000E+00  0.00000000E+00  0.00000000E+00
  0.00000000E+00  0.00000000E+00  0.00000000E+00
  0.00000000E+00  0.00000000E+00  0.00000000E+00
  0.00000000E+00  0.00000000E+00  0.00000000E+00
  0.00000000E+00  0.00000000E+00  0.00000000E+00
  0.00000000E+00  0.00000000E+00  0.00000000E+00
  0.00000000E+00  0.00000000E+00  0.00000000E+00
  0.00000000E+00  0.00000000E+00  0.00000000E+00
  0.00000000E+00  0.00000000E+00  0.00000000E+00
  0.00000000E+00  0.00000000E+00  0.00000000E+00
  0.00000000E+00  0.00000000E+00  0.00000000E+00
  0.00000000E+00  0.00000000E+00  0.00000000E+00
  0.00000000E+00  0.00000000E+00  0.00000000E+00
  0.00000000E+00  0.00000000E+00  0.00000000E+00
  0.00000000E+00  0.00000000E+00  0.00000000E+00
  0.00000000E+00  0.00000000E+00  0.00000000E+00
  0.00000000E+00  0.00000000E+00  0.00000000E+00
  0.00000000E+00  0.00000000E+00  0.00000000E+00
  0.00000000E+00  0.00000000E+00  0.00000000E+00
  0.00000000E+00  0.00000000E+00  0.00000000E+00
  0.00000000E+00  0.00000000E+00  0.00000000E+00
  0.00000000E+00  0.00000000E+00  0.00000000E+00
  0.00000000E+00  0.00000000E+00  0.00000000E+00
  0.00000000E+00  0.00000000E+00  0.00000000E+00
  0.00000000E+00  0.00000000E+00  0.00000000E+00
  0.00000000E+00  0.00000000E+00  0.00000000E+00
  0.00000000E+00  0.00000000E+00  0.00000000E+00
  0.00000000E+00  0.00000000E+00  0.00000000E+00
  0.00000000E+00  0.00000000E+00  0.00000000E+00
  0.00000000E+00  0.00000000E+00  0.00000000E+00
  0.00000000E+00  0.00000000E+00  0.00000000E+00
  0.00000000E+00  0.00000000E+00  0.00000000E+00
  0.00000000E+00  0.00000000E+00  0.00000000E+00
  0.00000000E+00  0.00000000E+00  0.00000000E+00
  0.00000000E+00  0.00000000E+00  0.00000000E+00
  0.00000000E+00  0.00000000E+00  0.00000000E+00
  0.00000000E+00  0.00000000E+00  0.00000000E+00
  0.00000000E+00  0.00000000E+00  0.00000000E+00
  0.00000000E+00  0.00000000E+00  0.00000000E+00
  0.00000000E+00  0.00000000E+00  0.00000000E+00
  0.00000000E+00  0.00000000E+00  0.00000000E+00
  0.00000000E+00  0.00000000E+00  0.00000000E+00
  0.00000000E+00  0.00000000E+00  0.00000000E+00
  0.00000000E+00  0.00000000E+00  0.00000000E+00
  0.00000000E+00  0.00000000E+00  0.00000000E+00
  0.00000000E+00  0.00000000E+00  0.00000000E+00
  0.00000000E+00  0.00000000E+00  0.00000000E+00
  0.00000000E+00  0.00000000E+00  0.00000000E+00
  0.00000000E+00  0.00000000E+00  0.00000000E+00
  0.00000000E+00  0.00000000E+00  0.00000000E+00
  0.00000000E+00  0.00000000E+00  0.00000000E+00
  0.00000000E+00  0.00000000E+00  0.00000000E+00
  0.00000000E+00  0.00000000E+00  0.00000000E+00
  0.00000000E+00  0.00000000E+00  0.00000000E+00
  0.00000000E+00  0.00000000E+00  0.00000000E+00
  0.00000000E+00  0.00000000E+00  0.00000000E+00
  0.00000000E+00  0.00000000E+00  0.00000000E+00
  0.00000000E+00  0.00000000E+00  0.00000000E+00
  0.00000000E+00  0.00000000E+00  0.00000000E+00
  0.00000000E+00  0.00000000E+00  0.00000000E+00
  0.00000000E+00  0.00000000E+00  0.00000000E+00
  0.00000000E+00  0.00000000E+00  0.00000000E+00
  0.00000000E+00  0.00000000E+00  0.00000000E+00
  0.00000000E+00  0.00000000E+00  0.00000000E+00
  0.00000000E+00  0.00000000E+00  0.00000000E+00
  0.00000000E+00  0.00000000E+00  0.00000000E+00
  0.00000000E+00  0.00000000E+00  0.00000000E+00
  0.00000000E+00  0.00000000E+00  0.00000000E+00
  0.00000000E+00  0.00000000E+00  0.00000000E+00
  0.00000000E+00  0.00000000E+00  0.00000000E+00
  0.00000000E+00  0.00000000E+00  0.00000000E+00
  0.00000000E+00  0.00000000E+00  0.00000000E+00
  0.00000000E+00  0.00000000E+00  0.00000000E+00
  0.00000000E+00  0.00000000E+00  0.00000000E+00
  0.00000000E+00  0.00000000E+00  0.00000000E+00
  0.00000000E+00  0.00000000E+00  0.00000000E+00
  0.00000000E+00  0.00000000E+00  0.00000000E+00
  0.00000000E+00  0.00000000E+00  0.00000000E+00
  0.00000000E+00  0.00000000E+00  0.00000000E+00
  0.00000000E+00  0.00000000E+00  0.00000000E+00
  0.00000000E+00  0.00000000E+00  0.00000000E+00
  0.00000000E+00  0.00000000E+00  0.00000000E+00
  0.00000000E+00  0.00000000E+00  0.00000000E+00
  0.00000000E+00  0.00000000E+00  0.00000000E+00
  0.00000000E+00  0.00000000E+00  0.00000000E+00
  0.00000000E+00  0.00000000E+00  0.00000000E+00
  0.00000000E+00  0.00000000E+00  0.00000000E+00
  0.00000000E+00  0.00000000E+00  0.00000000E+00
  0.00000000E+00  0.00000000E+00  0.00000000E+00
  0.00000000E+00  0.00000000E+00  0.00000000E+00
  0.00000000E+00  0.00000000E+00  0.00000000E+00
  0.00000000E+00  0.00000000E+00  0.00000000E+00
  0.00000000E+00  0.00000000E+00  0.00000000E+00
  0.00000000E+00  0.00000000E+00  0.00000000E+00
  0.00000000E+00  0.00000000E+00  0.00000000E+00
  0.00000000E+00  0.00000000E+00  0.00000000E+00
  0.00000000E+00  0.00000000E+00  0.00000000E+00
  0.00000000E+00  0.00000000E+00  0.00000000E+00
  0.00000000E+00  0.00000000E+00  0.00000000E+00
  0.00000000E+00  0.00000000E+00  0.00000000E+00
  0.00000000E+00  0.00000000E+00  0.00000000E+00
  0.00000000E+00  0.00000000E+00  0.00000000E+00
  0.00000000E+00  0.00000000E+00  0.00000000E+00
  0.00000000E+00  0.00000000E+00  0.00000000E+00
  0.00000000E+00  0.00000000E+00  0.00000000E+00
  0.00000000E+00  0.00000000E+00  0.00000000E+00
  0.00000000E+00  0.00000000E+00  0.00000000E+00
  0.00000000E+00  0.00000000E+00  0.00000000E+00
  0.00000000E+00  0.00000000E+00  0.00000000E+00
  0.00000000E+00  0.00000000E+00  0.00000000E+00
  0.00000000E+00  0.00000000E+00  0.00000000E+00
  0.00000000E+00  0.00000000E+00  0.00000000E+00
  0.00000000E+00  0.00000000E+00  0.00000000E+00
  0.00000000E+00  0.00000000E+00  0.00000000E+00
  0.00000000E+00  0.00000000E+00  0.00000000E+00
  0.00000000E+00  0.00000000E+00  0.00000000E+00