Bond                                    
   1.00000000000000     
     6.3212902773061277   -0.0000000000000002    0.0000000000000000
    -0.0000000000000001    3.0793731875407371    0.0000000000000000
     0.0000000000000000   -0.0000000000000000    3.0793731875407384
   Sb
     2
Direct
  0.2500000000000000  0.5000000000000000  0.5000000000000000
  0.7500000000000000  0.5000000000000000  0.5000000000000000
 
  0.00000000E+00  0.00000000E+00  0.00000000E+00
  0.00000000E+00  0.00000000E+00  0.00000000E+00
