Sb4 Te2
1.0
  -3.9639989999999998    3.9639989999999998    3.0710910000000000
   3.9639989999999998   -3.9639989999999998    3.0710910000000000
   3.9639989999999998    3.9639989999999998   -3.0710910000000000
Sb Te
4 2
direct
   0.1250000000000000    0.8750000000000000    0.2500000000000000 Sb
   0.6250000000000000    0.8750000000000000    0.7500000000000000 Sb
   0.1250000000000000    0.3750000000000000    0.2500000000000000 Sb
   0.1250000000000000    0.8750000000000000    0.7500000000000000 Sb
   0.7500000000000000    0.2500000000000000    0.5000000000000000 Te
   0.5000000000000000    0.5000000000000000    0.0000000000000000 Te
