Lead antimony selenide (3.6/4.4/10)     
   1.00000000000000     
    23.5253174907285647    0.0000000000000000    0.0000000000000000
     0.0000000000000000   20.1100292935262353    0.0000000000000000
     0.0000000000000000    0.0000000000000000    4.3068101811874522
   Sb   Se   Ge
    16    40    16
Direct
  0.4226687886148406  0.5440430035307219  0.7500000000000000
  0.5773312413851617  0.4559569964692786  0.2500000000000000
  0.0773312113851594  0.0440430035307215  0.2500000000000000
  0.9226687586148383  0.9559569964692781  0.7500000000000000
  0.0299495153029080  0.7793811329088292  0.2500000000000000
  0.9700504956970963  0.2206188670911708  0.7500000000000000
  0.4700504956970964  0.2793811329088292  0.7500000000000000
  0.5299495043029037  0.7206188670911708  0.2500000000000000
  0.1598717087629861  0.6942528677596796  0.7500000000000000
  0.8401283062370114  0.3057471322403205  0.2500000000000000
  0.3401283062370116  0.1942528677596797  0.2500000000000000
  0.6598716937629886  0.8057471322403204  0.7500000000000000
  0.2916869926646024  0.5986235539886232  0.2500000000000000
  0.7083129773353951  0.4013764460113766  0.7500000000000000
  0.2083130073353976  0.0986235539886236  0.7500000000000000
  0.7916870226646049  0.9013764460113768  0.2500000000000000
  0.3581899005838551  0.6528910191707660  0.7500000000000000
  0.6418101294161404  0.3471089808292345  0.2500000000000000
  0.1418100994161450  0.1528910191707655  0.2500000000000000
  0.8581898705838596  0.8471089808292340  0.7500000000000000
  0.2190965815640451  0.5456033647658691  0.7500000000000000
  0.7809034184359551  0.4543966352341308  0.2500000000000000
  0.2809034184359549  0.0456033647658690  0.2500000000000000
  0.7190965815640449  0.9543966352341309  0.7500000000000000
  0.0777927558551921  0.4509226258395541  0.7500000000000000
  0.9222072671448056  0.5490774041604484  0.2500000000000000
  0.4222072371448109  0.9509225958395516  0.2500000000000000
  0.5777927328551944  0.0490773741604459  0.7500000000000000
  0.0713714977074102  0.6336015522419972  0.2500000000000000
  0.9286285022925893  0.3663984477580030  0.7500000000000000
  0.4286285022925900  0.1336015522419967  0.7500000000000000
  0.5713714977074107  0.8663984477580028  0.2500000000000000
  0.0959401829452889  0.8088882712124976  0.7500000000000000
  0.9040598320547083  0.1911117287875019  0.2500000000000000
  0.4040598320547087  0.3088882712124980  0.2500000000000000
  0.5959401679452917  0.6911117287875024  0.7500000000000000
  0.0532697339514827  0.2929565027349937  0.2500000000000000
  0.9467302480485160  0.7070434672650040  0.7500000000000000
  0.4467302770485218  0.7929565327349960  0.7500000000000000
  0.5532697519514840  0.2070434972650062  0.2500000000000000
  0.2068339799461740  0.3831717543154110  0.2500000000000000
  0.7931660350538239  0.6168282456845892  0.7500000000000000
  0.2931660350538237  0.8831717543154108  0.7500000000000000
  0.7068339649461761  0.1168282456845893  0.2500000000000000
  0.3555910972016705  0.4866248641785573  0.2500000000000000
  0.6444089027983300  0.5133751358214430  0.7500000000000000
  0.1444089027983297  0.9866248641785570  0.7500000000000000
  0.8555910972016700  0.0133751358214429  0.2500000000000000
  0.4956048765135877  0.5905298972155200  0.2500000000000000
  0.5043951234864129  0.4094701027844804  0.7500000000000000
  0.0043951234864125  0.0905298972155196  0.7500000000000000
 -0.0043951234864125  0.9094701027844800  0.2500000000000000
  0.2177510536694429  0.7321794727118986  0.2500000000000000
  0.7822489763305592  0.2678205272881017  0.7500000000000000
  0.2822489463305572  0.2321794727118985  0.7500000000000000
  0.7177510236694407  0.7678205272881014  0.2500000000000000
  0.2611089712578663  0.4281092632651634  0.7500000000000000
  0.7388909997421356  0.5718907077348377  0.2500000000000000
  0.2388910287421341  0.9281092922651623  0.2500000000000000
  0.7611090002578644  0.0718907367348367  0.7500000000000000
  0.1124423623261076  0.3315775197721250  0.7500000000000000
  0.8875576076738896  0.6684224502278728  0.2500000000000000
  0.3875576376738923  0.8315775497721272  0.2500000000000000
  0.6124423923261104  0.1684224802278748  0.7500000000000000
  0.0140556765444934  0.6050737287237240  0.7500000000000000
  0.9859443494555085  0.3949262712762765  0.2500000000000000
  0.4859443194555065  0.1050737287237234  0.2500000000000000
  0.5140556505444915  0.8949262712762760  0.7500000000000000
  0.1385763891331313  0.4841352719291160  0.2500000000000000
  0.8614235958668710  0.5158647580708865  0.7500000000000000
  0.3614235958668712  0.9841352419291135  0.7500000000000000
  0.6385764041331290  0.0158647280708840  0.2500000000000000
 
  0.00000000E+00  0.00000000E+00  0.00000000E+00
  0.00000000E+00  0.00000000E+00  0.00000000E+00
  0.00000000E+00  0.00000000E+00  0.00000000E+00
  0.00000000E+00  0.00000000E+00  0.00000000E+00
  0.00000000E+00  0.00000000E+00  0.00000000E+00
  0.00000000E+00  0.00000000E+00  0.00000000E+00
  0.00000000E+00  0.00000000E+00  0.00000000E+00
  0.00000000E+00  0.00000000E+00  0.00000000E+00
  0.00000000E+00  0.00000000E+00  0.00000000E+00
  0.00000000E+00  0.00000000E+00  0.00000000E+00
  0.00000000E+00  0.00000000E+00  0.00000000E+00
  0.00000000E+00  0.00000000E+00  0.00000000E+00
  0.00000000E+00  0.00000000E+00  0.00000000E+00
  0.00000000E+00  0.00000000E+00  0.00000000E+00
  0.00000000E+00  0.00000000E+00  0.00000000E+00
  0.00000000E+00  0.00000000E+00  0.00000000E+00
  0.00000000E+00  0.00000000E+00  0.00000000E+00
  0.00000000E+00  0.00000000E+00  0.00000000E+00
  0.00000000E+00  0.00000000E+00  0.00000000E+00
  0.00000000E+00  0.00000000E+00  0.00000000E+00
  0.00000000E+00  0.00000000E+00  0.00000000E+00
  0.00000000E+00  0.00000000E+00  0.00000000E+00
  0.00000000E+00  0.00000000E+00  0.00000000E+00
  0.00000000E+00  0.00000000E+00  0.00000000E+00
  0.00000000E+00  0.00000000E+00  0.00000000E+00
  0.00000000E+00  0.00000000E+00  0.00000000E+00
  0.00000000E+00  0.00000000E+00  0.00000000E+00
  0.00000000E+00  0.00000000E+00  0.00000000E+00
  0.00000000E+00  0.00000000E+00  0.00000000E+00
  0.00000000E+00  0.00000000E+00  0.00000000E+00
  0.00000000E+00  0.00000000E+00  0.00000000E+00
  0.00000000E+00  0.00000000E+00  0.00000000E+00
  0.00000000E+00  0.00000000E+00  0.00000000E+00
  0.00000000E+00  0.00000000E+00  0.00000000E+00
  0.00000000E+00  0.00000000E+00  0.00000000E+00
  0.00000000E+00  0.00000000E+00  0.00000000E+00
  0.00000000E+00  0.00000000E+00  0.00000000E+00
  0.00000000E+00  0.00000000E+00  0.00000000E+00
  0.00000000E+00  0.00000000E+00  0.00000000E+00
  0.00000000E+00  0.00000000E+00  0.00000000E+00
  0.00000000E+00  0.00000000E+00  0.00000000E+00
  0.00000000E+00  0.00000000E+00  0.00000000E+00
  0.00000000E+00  0.00000000E+00  0.00000000E+00
  0.00000000E+00  0.00000000E+00  0.00000000E+00
  0.00000000E+00  0.00000000E+00  0.00000000E+00
  0.00000000E+00  0.00000000E+00  0.00000000E+00
  0.00000000E+00  0.00000000E+00  0.00000000E+00
  0.00000000E+00  0.00000000E+00  0.00000000E+00
  0.00000000E+00  0.00000000E+00  0.00000000E+00
  0.00000000E+00  0.00000000E+00  0.00000000E+00
  0.00000000E+00  0.00000000E+00  0.00000000E+00
  0.00000000E+00  0.00000000E+00  0.00000000E+00
  0.00000000E+00  0.00000000E+00  0.00000000E+00
  0.00000000E+00  0.00000000E+00  0.00000000E+00
  0.00000000E+00  0.00000000E+00  0.00000000E+00
  0.00000000E+00  0.00000000E+00  0.00000000E+00
  0.00000000E+00  0.00000000E+00  0.00000000E+00
  0.00000000E+00  0.00000000E+00  0.00000000E+00
  0.00000000E+00  0.00000000E+00  0.00000000E+00
  0.00000000E+00  0.00000000E+00  0.00000000E+00
  0.00000000E+00  0.00000000E+00  0.00000000E+00
  0.00000000E+00  0.00000000E+00  0.00000000E+00
  0.00000000E+00  0.00000000E+00  0.00000000E+00
  0.00000000E+00  0.00000000E+00  0.00000000E+00
  0.00000000E+00  0.00000000E+00  0.00000000E+00
  0.00000000E+00  0.00000000E+00  0.00000000E+00
  0.00000000E+00  0.00000000E+00  0.00000000E+00
  0.00000000E+00  0.00000000E+00  0.00000000E+00
  0.00000000E+00  0.00000000E+00  0.00000000E+00
  0.00000000E+00  0.00000000E+00  0.00000000E+00
  0.00000000E+00  0.00000000E+00  0.00000000E+00
  0.00000000E+00  0.00000000E+00  0.00000000E+00
