Amorphous Sb                            
  0.990000000000000     
    20.1278869700586895    0.0000000000000000    0.0000000000000000
     0.0000000000000000   20.1278869700586895    0.0000000000000000
     0.0000000000000000    0.0000000000000000   20.1278869700586895
   Ge   Se
   150   150
Direct
  0.5168435510919520  0.6860619622197225  0.7905954837523939
  0.2120623757356265  0.4309336958828873  0.8013222443561155
  0.3868475044556310  0.3217322737226083  0.6000483856346480
  0.8309685397670892  0.0268971103316407  0.6551127798459607
  0.9002310525637677  0.6198502624385896  0.6695563614576278
  0.2201694364103972  0.7159969968915741  0.9237811688547892
  0.1154511952092362  0.1610679167368178  0.3649442923701677
  0.3348994266409545  0.6350281820379626  0.8018418612135323
  0.3565140829228148  0.8485352458336167  0.2244003988581155
  0.3603089298845263  0.0182554875898451  0.4248468261512444
  0.0053627504394333  0.0313879367722904  0.4568884983323213
  0.6051526481037400  0.3376906972762456  0.8446648798146146
  0.6109718163148862  0.4443330468396018  0.5903493509626038
  0.2566398453572535  0.0160178338438214  0.8571979051648250
  0.6775171032582711  0.9704304488072122  0.3864978037016064
  0.0384572622062949  0.7761342122977466  0.0835316754648059
  0.0428371735755893  0.7630003342402721  0.3368700173542735
  0.8152466287064600  0.3898744746374019  0.3592399793600575
  0.1080036423676160  0.4608272101415615  0.9670613668495291
  0.0529156349582731  0.9136631793873636  0.5074165303209411
  0.1430409334547502  0.8337741419225644  0.2040002398807116
  0.4306909297444056  0.7573537345942508  0.9612038999528171
  0.0014652204623387  0.1658291747440074  0.9389347120847368
  0.0309517005518166  0.0753697196863537  0.1292221329760930
  0.5627075181574553  0.3280931963990132  0.1821569914864064
  0.3732970663237399  0.1443039911391330  0.5770240398176965
  0.4154871087053122  0.7616887255034169  0.5484881062369091
  0.8008812487517822  0.9159894650486397  0.0123270076339053
  0.7510732070882984  0.5782142244306193  0.6060553226543811
  0.9489914032587524  0.7660257277142744  0.5868647649193306
  0.0836856413256782  0.3543208983411516  0.7448526188792014
  0.0335489302379614  0.1024431957012075  0.2574236594019382
  0.9016215545063012  0.4912590295426369  0.4805649205755971
  0.4137755325027239  0.4546006476817508  0.2588502698264046
  0.0295007333477715  0.5403177039637227  0.5844197005370894
  0.7460568894026340  0.6872012876403222  0.1790471882140271
  0.4475910648205284  0.4768722675622152  0.9193005513150307
  0.2691533744291966  0.0477962784806584  0.2274428489951295
  0.2523485960953410  0.3775166694217098  0.1334699287134644
  0.7396018289900869  0.3707138292936047  0.7782743745838157
  0.8378757340415581  0.8327908354011910  0.3792061404737732
  0.9182522396002043  0.1832679844311583  0.5633045727387518
  0.5929887072342555  0.8495402744115210  0.5408880297668470
  0.3778465617053045  0.9775138062477944  0.0934266752323162
  0.3474179961558788  0.6520221006709638  0.2068390056042433
  0.4007261921240853  0.4462441060693154  0.4995616811706566
  0.9041705596781530  0.7767103074317558  0.1772004058050925
  0.0368860926602880  0.3475668426990843  0.4077717490986634
  0.9904614968978870  0.7357045819991960  0.8047371547890874
  0.5361304054517718  0.0578002370223465  0.2853567925929869
  0.2606801136240044  0.4438098394071890  0.9496126603116488
  0.0493677968073827  0.2818200786099299  0.1504763587354175
  0.6254763880365469  0.7514123254183708  0.8180715952107087
  0.5740702852450214  0.2914670671932765  0.7265867764964263
  0.0514713407409141  0.5797943529942587  0.3561703860786360
  0.0351819459082824  0.9244792944135237  0.2201988041031408
  0.1917663608750010  0.5809088887365481  0.4541091276106765
  0.9487493926421211  0.3266824438467201  0.5906212425651339
  0.1007318350924979  0.0581657981313777  0.8264766757258036
  0.5261606101516629  0.4445047644346357  0.3307575994998754
  0.6904694689969103  0.0941540254260848  0.1454462385346374
  0.5319614765593026  0.6759175242718042  0.2070520507903180
  0.9238052677609523  0.6552112214844091  0.3232808517954133
  0.8590895482510122  0.0234387891707354  0.8424203330290642
  0.5548367683691414  0.8138645592341889  0.0131584760240599
  0.0735912747687035  0.3390044112884809  0.9314072279389369
  0.8232150172073530  0.8521074525301713  0.5357477460328068
  0.7367880025264123  0.7453619013622114  0.6859986591280310
  0.8242465984211974  0.2298903769597818  0.1563489807261243
  0.8335137199054149  0.3173235451013853  0.0367466589227941
  0.9489790711890085  0.4069355604774259  0.7450776312039764
  0.4108565272744270  0.1595128096622942  0.1680370497975068
  0.3611452732546924  0.5475376859477654  0.4276056693453042
  0.5074364757836919  0.8373193814439748  0.3866429743345471
  0.3310629073819398  0.4479762468085091  0.6563309094345711
  0.6809644182263114  0.9397419042108422  0.1010462694425183
  0.2458644652977925  0.2510851627879913  0.1768894226346204
  0.8722185937863254  0.0585010811063329  0.0348060435146280
  0.2736212110544743  0.8624574376755851  0.9359796135052159
  0.3606633269996364  0.2630616713154408  0.0269390658414876
  0.6509376872458272  0.9896647602762886  0.8875140827523438
  0.9655358521218715  0.5906725950690532  0.8429941002021337
  0.7949673436571393  0.4815287752359603  0.0626134164373257
  0.7630196870620791  0.5142991613861663  0.3586847472237041
  0.3516923896234903  0.0848336500393803  0.7057658169713779
  0.6030308243536120  0.1393420073655872  0.0340760776010220
  0.5398957028931968  0.6678643413078896  0.6132802589509544
  0.7599404451393289  0.3393068765628027  0.5183565119631928
  0.6579223773253859  0.5665967366326877  0.1614562616261802
  0.5164642619389117  0.2307565493782600  0.3481352806652276
  0.6132566727019788  0.1106497364712888  0.9052413591054527
  0.1108921132989172  0.1180611450113070  0.5852348976402101
  0.3062770904833522  0.5957913452962208  0.5916906472288971
  0.7607623507533579  0.0380241691495953  0.4851945643373739
  0.6686410705764707  0.9276728255456631  0.6200263550418843
  0.6794133956671068  0.7107209198579106  0.4887348129712339
  0.4411860770062903  0.0093206835562420  0.9179678007316123
  0.1626295405760780  0.4667614828099312  0.6436159844940031
  0.1590629265238138  0.7605769423374020  0.4705196046928600
  0.2049897018672630  0.1324886489150067  0.8389335294139280
  0.1064773032997519  0.4273148269573896  0.2356049745078440
  0.5336711858921060  0.2928447076305379  0.9408845261971626
  0.2356843650176425  0.5148413255639619  0.0819092087456551
  0.8806966848974696  0.0556236375845849  0.1901222767213124
  0.4348019641795170  0.8469222409555703  0.7270013500061633
  0.7248560803245017  0.7221142101280716  0.9815179127244567
  0.9861555847299689  0.4717001976498820  0.0122719131437760
  0.0553281032001372  0.6531805783698108  0.0382323139141929
  0.6829064173804530  0.1652748899985266  0.7234808318989286
  0.7148351549004917  0.9206321860621574  0.7968515740531710
  0.1117748603541648  0.8884637244974823  0.6852673828330473
  0.1617633581637696  0.9644528943552186  0.0530117212864626
  0.1552239571248139  0.9611896096127209  0.3697825887396547
  0.7481120172487499  0.1352768688270111  0.3080714215928684
  0.7403981859397373  0.8242517155241931  0.2896059149163959
  0.7338275628874735  0.6479991697456163  0.3884289090976930
  0.4103301110587966  0.2870993141583691  0.2972858204660427
  0.6784827346139567  0.5800397302297793  0.7258237414362995
  0.3058613206092913  0.2378235263223127  0.4493095766628769
  0.0840985248376063  0.9334025943302975  0.8009357372527548
  0.9188140245420857  0.4461512721883420  0.2043174874318643
  0.8374661946777974  0.2070852457804225  0.3790805811648027
  0.8033395347588231  0.6301070825755966  0.8191115384141275
  0.9576298326870540  0.9068659633434250  0.9567889831765303
  0.2163098202435947  0.4201861574048895  0.4031792395051254
  0.2359771932005554  0.7000936819644592  0.6683127338866359
  0.3771152289867624  0.9389412701170105  0.5382052651302182
  0.5513648607406652  0.8589182266324001  0.7879213353810666
  0.1791203292193387  0.1529793959452235  0.9956150419909495
  0.2767853998366624  0.8121605417325671  0.0653233870810681
  0.5488250444473248  0.5838246202511375  0.4248062962822212
  0.8950219801144249  0.7350119744460406  0.8993017053654380
  0.4621974461268571  0.1866712362047799  0.9345416341799585
  0.4400380882423668  0.5136179843031101  0.0986336392167828
  0.0563873147592413  0.7121747100509661  0.6357508125358062
  0.1722419796578305  0.6363928799184777  0.2071711747439262
  0.3001112074008354  0.2762453112659085  0.8026838193583915
  0.5339375267146198  0.0781459225343239  0.4795175515565026
  0.3657658315664637  0.6916162345798775  0.3302991985400037
  0.3020806388699911  0.8589788702591149  0.7161149709382029
  0.7208067213815603  0.4008196858774560  0.2207670955320807
  0.6023202460368193  0.4518541032297063  0.0320461915341964
  0.1726798289574176  0.9837001989696209  0.6180598087535396
  0.9126911278952977  0.2265570709964735  0.7616270159026718
  0.5783370419700842  0.2077071372022284  0.5509196905466445
  0.0933351870718903  0.2319661916223294  0.5140282638692677
  0.1360326504348751  0.6048025182239928  0.8243693181397336
  0.5334665627907708  0.8692976083321047  0.1842165954016351
  0.4372560049371380  0.4159428921697180  0.7439394828305800
  0.9060401334633313  0.4369467631852542  0.9164878912289738
  0.8684248293667102  0.1169334005603790  0.9131211792059100
  0.8616159002159351  0.9713061916080092  0.5113146331284497
  0.0714863574144340  0.7273978773323867  0.2010192996879230
  0.9358886652333606  0.4585969121107843  0.6257948900364602
  0.3227761303830906  0.7079113754666641  0.0052118205281199
  0.1275000089490278  0.0103811736855295  0.2505922054172823
  0.5766112566338237  0.4591954446541837  0.1603664526143530
  0.7086909213447868  0.0468336972692126  0.6045819084068570
  0.6108092337135699  0.2632205991449412  0.0287019633667612
  0.1288459200152460  0.0737300504932698  0.4655856881656972
  0.9300843676977133  0.8299755134738868  0.2900360429111270
  0.7620553952570992  0.0378940288548223  0.7705876441737317
  0.7805896376383085  0.7022074511029621  0.5749054379967709
  0.2934167004280233  0.7951757036635436  0.6032356190756551
  0.8688362393804946  0.6564538788905181  0.2069404176957833
  0.4786157531350534  0.1169224537976249  0.0349156340458993
  0.2834008199712589  0.1718300114211379  0.0857208906733817
  0.3930415525654318  0.8330142767388549  0.4426843723599170
  0.9478964212997366 -0.0000168746282107  0.7604650352654116
  0.7072821536194728  0.2075784632998506  0.2136366885204503
  0.7122871828734980  0.0119807127634980  0.9951532991346315
  0.5558894461162556  0.1789610915658878  0.6781637215005122
  0.1501435736564265  0.0899194630580716  0.1016346722585005
  0.8773648004740553  0.4917246868611068  0.8085662902266333
  0.2041210779422541  0.3823232919059941  0.2827223476378945
  0.3283630616307550  0.4013953249333090  0.8485059498099722
  0.2696521175827741  0.7554004391011395  0.1833088487468686
  0.2804199359807808  0.9719659643285187  0.3344235120435117
  0.3406126360357632  0.5268449006023337  0.0106612460639819
  0.4014805266319905  0.0365340383864301  0.2085840524738759
  0.4547986880809861  0.2353362413554750  0.5261578173007738
  0.4310243899607395  0.3421707230194044  0.1873682078224795
  0.9546758421373730  0.0036880835994782  0.2827480162067672
  0.4167465718160577  0.8539963876308511  0.1134632339723354
  0.0996285717503525  0.4844293162947191  0.4247251910276882
  0.0652100640375609  0.4977325543687198  0.8507253993047313
  0.5331394341490816  0.4415948006439246  0.8265720082482430
  0.2953963853008392  0.9788452805300797  0.6487308278586206
  0.5295759541938301  0.1756983275781878  0.2321060341008088
  0.8958656675832625  0.5316151985147932  0.3495646190503678
  0.6148534631181751  0.5316328398421670  0.3284719812817371
  0.3422008316279684  0.2020258920382296  0.9118248855144218
  0.1758122614821401  0.9049353101434173  0.5201674489994049
  0.0103039763968784  0.2139374352358360  0.4187146381457308
  0.5420479327379123  0.9250165891729536  0.8989260991063013
  0.6077719726981330  0.9568346234289741  0.7312018142533584
  0.6975627071582376  0.4570784514067847  0.6888268249424020
  0.1540780029061159  0.8351991829889311  0.3310315944216048
  0.9112646975648421  0.3645249313525941  0.4408959475480350
  0.5517938190595314  0.7403086767228299  0.4639353969300901
  0.8510609539874571  0.3326333008912202  0.7149978274696274
  0.3219413813679006  0.6520797250525717  0.4796363761413647
  0.6700722674252433  0.2005221985683390  0.8462076170533006
  0.2951373354795275  0.1111920281073275  0.4803400694340152
  0.7797869789552783  0.8137754868208330  0.1702214376033752
  0.7657914835503833  0.5200969198626266  0.2114410050297096
  0.1469636856689941  0.6704035046444877  0.3693248383320714
  0.0327743722238377  0.8469057687419864  0.8723712226781705
  0.7929137301937754  0.4072998072393928  0.9495040303664675
  0.9901480734336490  0.0733633382556027  0.5773524270992810
  0.2612819565332468  0.9449036991847350  0.1477037542685053
  0.5505605935873176  0.5881180708430273  0.7181188119874232
  0.0049382736911676  0.8932074766877113  0.6234966061096294
  0.1326227791886231  0.2848633732524990  0.8400630366983864
  0.5190756475118197  0.3755631400909271  0.6506446958103772
  0.2799944728963999  0.2616888875962807  0.5702463930961733
  0.2747833111161195  0.9882196462723094  0.9762236502611032
  0.7816261162894883  0.1417754610877571  0.0704956344109841
  0.8706634400353406  0.6162368790894019  0.9319820616855896
  0.8998470126265264  0.1702839729776525  0.2377952889465032
  0.5210189087386803  0.4597554019831369  0.4579722472785620
  0.5855011620781966  0.3367291497591341  0.3089551624137913
  0.6353515762246955  0.5993012577722039  0.5483258991030132
  0.6831890637598046  0.7107451345229948  0.2918824410687408
  0.4546893707155097  0.7618720432217575  0.2742213489727486
  0.1270797587220087  0.7690469757562979  0.7217582250368926
  0.7758678551776190  0.7523216428439621  0.8641930689632920
  0.5901824294873196  0.7637022939444472  0.1327560648620172
  0.8995949243627652  0.7467052403121749  0.7085868957429328
  0.0880962688859621  0.2474960897054830  0.0163742849966996
  0.8446939160505408  0.9117611409162468  0.8879005263847202
  0.6952646163217160  0.8463832522940944 -0.0038614754342297
  0.7699556456151875  0.0303362087835911  0.2452826479810001
  0.2472527090667735  0.5281107795554011  0.7217563866859713
  0.7731567849607300  0.4757182005959087  0.4937557643375640
  0.4088327068877241  0.2889674768493242  0.7333913119678962
  0.0119077513120790  0.9567669058510374  0.1005523488188420
  0.4394793099125171  0.5866672114063791  0.3398460921626010
  0.1354435243185512  0.2181676957031385  0.2196777533238122
  0.0333888852577394  0.7944351955573185  0.4690583059563890
  0.7423154838968566  0.2956429428367195  0.3947729304708511
  0.4321647396271129  0.7227566947280740  0.7100202582760873
  0.6438642495835958  0.8965000594636179  0.2794369719322183
  0.3926938679551710  0.8579427257681563  0.8966318806428702
  0.1494419122776653  0.8166183067570646  0.0357853422245863
  0.8110916219871287  0.1579976010263729  0.4955945690178505
  0.7099123700992978  0.8417094119113270  0.4720894618443739
  0.0150397461849120  0.2595147887442270  0.6856229504030159
  0.6955212020571198  0.5740052154277647  0.8463964019675130
  0.2553190276427143  0.3326853142603985  0.0130745699763400
  0.4391173336969751  0.6502091151397397  0.8825282694699081
  0.0659607966006837  0.6695494457657544  0.9148180543895064
  0.5602559363694006  0.9497176237528275  0.0888000282171022
  0.4586816018437884  0.3732490905425842  0.9938882292813855
  0.9070494181665416  0.7975374512678021  0.0036448861336720
  0.6402175423577263  0.0972686252436157  0.3612019143941539
  0.2404320446904177  0.5872679151461507  0.8928130429226415
  0.2503108556340319  0.4839005178809623  0.5508456202847373
  0.5011978132000043  0.1075325485590855  0.8486328840598327
  0.4162925258258375  0.5322810366792570  0.6007447799496217
  0.2072224302904432  0.9056821194205408  0.8255696042978704
  0.0664242066116736  0.0560930658932852  0.9437941822055769
  0.2618207489800556  0.5319245838448848  0.3575026208907211
  0.9582001470138902  0.1504040087618251  0.0595263213934779
  0.2105215571702679  0.3547586808410035  0.6941762868397843
  0.3216650258730052  0.2034342431998559  0.2679377579391115
  0.2751458393515130  0.7446336015928061  0.8065713859498020
  0.8421592936828894  0.7076769433537974  0.4068649321163557
  0.0753279179598562  0.5453453939214360  0.2311317274601496
  0.9667928372874913  0.5743227935396372  0.0732897403622000
  0.1784996157931419  0.2579787830537041  0.4234105830165211
  0.2488083550885935  0.1534087227209680  0.7245106969642746
  0.9544867931196320  0.3253303834598300  0.8924684693145557
  0.8420162314353242  0.3490854149337325  0.2435480193877730
  0.5662299770696662  0.9571010425758053  0.4488849084571139
  0.6903947996886227  0.5501782669937063  0.0376083759620855
  0.3685601634005685  0.0001205912663990  0.8081419889189719
  0.5200480145566926  0.5461976334106087  0.0044646996785493
  0.6328651621160668  0.3369288889185612  0.5241640933669522
  0.6129604300030058  0.7675446201843654  0.6520276467277305
  0.2862197015539145  0.5452917711390579  0.1930438109519955
  0.0660106658051538  0.3507543324110339  0.5402313369775129
  0.7754242206519900  0.8725432703272635  0.6592728432451385
  0.4374579437776297  0.6461583075622558  0.1222707791216841
  0.1730941519531869  0.6293940028237874  0.0768128062008428
  0.6033076146944738  0.7141333978425392  0.9394057491811549
  0.6935491268860062  0.2902267606197553  0.6888582503819314
  0.4678812887197518  0.8688221011647065  0.6052706193304956
  0.3625568929853557  0.3842182568345421  0.3565563689622194
  0.1473646225920185  0.6679086735588625  0.5660977631757640
  0.8477265872513559  0.1596466427933628  0.6668353148690536
  0.0055640439316533  0.3672246821472072  0.2624998316071885
  0.9380430684133042  0.3820474159237028  0.0862770627875935
  0.1233340895938721  0.3867834459458416  0.1203317440552627
  0.4535659567575159  0.0974812116197913  0.3791053861689724
  0.9392990831129717  0.6285634968035130  0.5467251878311065
  0.0091465015018280  0.1014189725384658  0.7550827739273959
  0.0296077412305088  0.6056804051788900  0.6985859745709975
  0.7327384705847384  0.3739424350513524  0.0962523114530143
  0.4547089662091556  0.0411760323075497  0.5687494766155526
 
  0.00000000E+00  0.00000000E+00  0.00000000E+00
  0.00000000E+00  0.00000000E+00  0.00000000E+00
  0.00000000E+00  0.00000000E+00  0.00000000E+00
  0.00000000E+00  0.00000000E+00  0.00000000E+00
  0.00000000E+00  0.00000000E+00  0.00000000E+00
  0.00000000E+00  0.00000000E+00  0.00000000E+00
  0.00000000E+00  0.00000000E+00  0.00000000E+00
  0.00000000E+00  0.00000000E+00  0.00000000E+00
  0.00000000E+00  0.00000000E+00  0.00000000E+00
  0.00000000E+00  0.00000000E+00  0.00000000E+00
  0.00000000E+00  0.00000000E+00  0.00000000E+00
  0.00000000E+00  0.00000000E+00  0.00000000E+00
  0.00000000E+00  0.00000000E+00  0.00000000E+00
  0.00000000E+00  0.00000000E+00  0.00000000E+00
  0.00000000E+00  0.00000000E+00  0.00000000E+00
  0.00000000E+00  0.00000000E+00  0.00000000E+00
  0.00000000E+00  0.00000000E+00  0.00000000E+00
  0.00000000E+00  0.00000000E+00  0.00000000E+00
  0.00000000E+00  0.00000000E+00  0.00000000E+00
  0.00000000E+00  0.00000000E+00  0.00000000E+00
  0.00000000E+00  0.00000000E+00  0.00000000E+00
  0.00000000E+00  0.00000000E+00  0.00000000E+00
  0.00000000E+00  0.00000000E+00  0.00000000E+00
  0.00000000E+00  0.00000000E+00  0.00000000E+00
  0.00000000E+00  0.00000000E+00  0.00000000E+00
  0.00000000E+00  0.00000000E+00  0.00000000E+00
  0.00000000E+00  0.00000000E+00  0.00000000E+00
  0.00000000E+00  0.00000000E+00  0.00000000E+00
  0.00000000E+00  0.00000000E+00  0.00000000E+00
  0.00000000E+00  0.00000000E+00  0.00000000E+00
  0.00000000E+00  0.00000000E+00  0.00000000E+00
  0.00000000E+00  0.00000000E+00  0.00000000E+00
  0.00000000E+00  0.00000000E+00  0.00000000E+00
  0.00000000E+00  0.00000000E+00  0.00000000E+00
  0.00000000E+00  0.00000000E+00  0.00000000E+00
  0.00000000E+00  0.00000000E+00  0.00000000E+00
  0.00000000E+00  0.00000000E+00  0.00000000E+00
  0.00000000E+00  0.00000000E+00  0.00000000E+00
  0.00000000E+00  0.00000000E+00  0.00000000E+00
  0.00000000E+00  0.00000000E+00  0.00000000E+00
  0.00000000E+00  0.00000000E+00  0.00000000E+00
  0.00000000E+00  0.00000000E+00  0.00000000E+00
  0.00000000E+00  0.00000000E+00  0.00000000E+00
  0.00000000E+00  0.00000000E+00  0.00000000E+00
  0.00000000E+00  0.00000000E+00  0.00000000E+00
  0.00000000E+00  0.00000000E+00  0.00000000E+00
  0.00000000E+00  0.00000000E+00  0.00000000E+00
  0.00000000E+00  0.00000000E+00  0.00000000E+00
  0.00000000E+00  0.00000000E+00  0.00000000E+00
  0.00000000E+00  0.00000000E+00  0.00000000E+00
  0.00000000E+00  0.00000000E+00  0.00000000E+00
  0.00000000E+00  0.00000000E+00  0.00000000E+00
  0.00000000E+00  0.00000000E+00  0.00000000E+00
  0.00000000E+00  0.00000000E+00  0.00000000E+00
  0.00000000E+00  0.00000000E+00  0.00000000E+00
  0.00000000E+00  0.00000000E+00  0.00000000E+00
  0.00000000E+00  0.00000000E+00  0.00000000E+00
  0.00000000E+00  0.00000000E+00  0.00000000E+00
  0.00000000E+00  0.00000000E+00  0.00000000E+00
  0.00000000E+00  0.00000000E+00  0.00000000E+00
  0.00000000E+00  0.00000000E+00  0.00000000E+00
  0.00000000E+00  0.00000000E+00  0.00000000E+00
  0.00000000E+00  0.00000000E+00  0.00000000E+00
  0.00000000E+00  0.00000000E+00  0.00000000E+00
  0.00000000E+00  0.00000000E+00  0.00000000E+00
  0.00000000E+00  0.00000000E+00  0.00000000E+00
  0.00000000E+00  0.00000000E+00  0.00000000E+00
  0.00000000E+00  0.00000000E+00  0.00000000E+00
  0.00000000E+00  0.00000000E+00  0.00000000E+00
  0.00000000E+00  0.00000000E+00  0.00000000E+00
  0.00000000E+00  0.00000000E+00  0.00000000E+00
  0.00000000E+00  0.00000000E+00  0.00000000E+00
  0.00000000E+00  0.00000000E+00  0.00000000E+00
  0.00000000E+00  0.00000000E+00  0.00000000E+00
  0.00000000E+00  0.00000000E+00  0.00000000E+00
  0.00000000E+00  0.00000000E+00  0.00000000E+00
  0.00000000E+00  0.00000000E+00  0.00000000E+00
  0.00000000E+00  0.00000000E+00  0.00000000E+00
  0.00000000E+00  0.00000000E+00  0.00000000E+00
  0.00000000E+00  0.00000000E+00  0.00000000E+00
  0.00000000E+00  0.00000000E+00  0.00000000E+00
  0.00000000E+00  0.00000000E+00  0.00000000E+00
  0.00000000E+00  0.00000000E+00  0.00000000E+00
  0.00000000E+00  0.00000000E+00  0.00000000E+00
  0.00000000E+00  0.00000000E+00  0.00000000E+00
  0.00000000E+00  0.00000000E+00  0.00000000E+00
  0.00000000E+00  0.00000000E+00  0.00000000E+00
  0.00000000E+00  0.00000000E+00  0.00000000E+00
  0.00000000E+00  0.00000000E+00  0.00000000E+00
  0.00000000E+00  0.00000000E+00  0.00000000E+00
  0.00000000E+00  0.00000000E+00  0.00000000E+00
  0.00000000E+00  0.00000000E+00  0.00000000E+00
  0.00000000E+00  0.00000000E+00  0.00000000E+00
  0.00000000E+00  0.00000000E+00  0.00000000E+00
  0.00000000E+00  0.00000000E+00  0.00000000E+00
  0.00000000E+00  0.00000000E+00  0.00000000E+00
  0.00000000E+00  0.00000000E+00  0.00000000E+00
  0.00000000E+00  0.00000000E+00  0.00000000E+00
  0.00000000E+00  0.00000000E+00  0.00000000E+00
  0.00000000E+00  0.00000000E+00  0.00000000E+00
  0.00000000E+00  0.00000000E+00  0.00000000E+00
  0.00000000E+00  0.00000000E+00  0.00000000E+00
  0.00000000E+00  0.00000000E+00  0.00000000E+00
  0.00000000E+00  0.00000000E+00  0.00000000E+00
  0.00000000E+00  0.00000000E+00  0.00000000E+00
  0.00000000E+00  0.00000000E+00  0.00000000E+00
  0.00000000E+00  0.00000000E+00  0.00000000E+00
  0.00000000E+00  0.00000000E+00  0.00000000E+00
  0.00000000E+00  0.00000000E+00  0.00000000E+00
  0.00000000E+00  0.00000000E+00  0.00000000E+00
  0.00000000E+00  0.00000000E+00  0.00000000E+00
  0.00000000E+00  0.00000000E+00  0.00000000E+00
  0.00000000E+00  0.00000000E+00  0.00000000E+00
  0.00000000E+00  0.00000000E+00  0.00000000E+00
  0.00000000E+00  0.00000000E+00  0.00000000E+00
  0.00000000E+00  0.00000000E+00  0.00000000E+00
  0.00000000E+00  0.00000000E+00  0.00000000E+00
  0.00000000E+00  0.00000000E+00  0.00000000E+00
  0.00000000E+00  0.00000000E+00  0.00000000E+00
  0.00000000E+00  0.00000000E+00  0.00000000E+00
  0.00000000E+00  0.00000000E+00  0.00000000E+00
  0.00000000E+00  0.00000000E+00  0.00000000E+00
  0.00000000E+00  0.00000000E+00  0.00000000E+00
  0.00000000E+00  0.00000000E+00  0.00000000E+00
  0.00000000E+00  0.00000000E+00  0.00000000E+00
  0.00000000E+00  0.00000000E+00  0.00000000E+00
  0.00000000E+00  0.00000000E+00  0.00000000E+00
  0.00000000E+00  0.00000000E+00  0.00000000E+00
  0.00000000E+00  0.00000000E+00  0.00000000E+00
  0.00000000E+00  0.00000000E+00  0.00000000E+00
  0.00000000E+00  0.00000000E+00  0.00000000E+00
  0.00000000E+00  0.00000000E+00  0.00000000E+00
  0.00000000E+00  0.00000000E+00  0.00000000E+00
  0.00000000E+00  0.00000000E+00  0.00000000E+00
  0.00000000E+00  0.00000000E+00  0.00000000E+00
  0.00000000E+00  0.00000000E+00  0.00000000E+00
  0.00000000E+00  0.00000000E+00  0.00000000E+00
  0.00000000E+00  0.00000000E+00  0.00000000E+00
  0.00000000E+00  0.00000000E+00  0.00000000E+00
  0.00000000E+00  0.00000000E+00  0.00000000E+00
  0.00000000E+00  0.00000000E+00  0.00000000E+00
  0.00000000E+00  0.00000000E+00  0.00000000E+00
  0.00000000E+00  0.00000000E+00  0.00000000E+00
  0.00000000E+00  0.00000000E+00  0.00000000E+00
  0.00000000E+00  0.00000000E+00  0.00000000E+00
  0.00000000E+00  0.00000000E+00  0.00000000E+00
  0.00000000E+00  0.00000000E+00  0.00000000E+00
  0.00000000E+00  0.00000000E+00  0.00000000E+00
  0.00000000E+00  0.00000000E+00  0.00000000E+00
  0.00000000E+00  0.00000000E+00  0.00000000E+00
  0.00000000E+00  0.00000000E+00  0.00000000E+00
  0.00000000E+00  0.00000000E+00  0.00000000E+00
  0.00000000E+00  0.00000000E+00  0.00000000E+00
  0.00000000E+00  0.00000000E+00  0.00000000E+00
  0.00000000E+00  0.00000000E+00  0.00000000E+00
  0.00000000E+00  0.00000000E+00  0.00000000E+00
  0.00000000E+00  0.00000000E+00  0.00000000E+00
  0.00000000E+00  0.00000000E+00  0.00000000E+00
  0.00000000E+00  0.00000000E+00  0.00000000E+00
  0.00000000E+00  0.00000000E+00  0.00000000E+00
  0.00000000E+00  0.00000000E+00  0.00000000E+00
  0.00000000E+00  0.00000000E+00  0.00000000E+00
  0.00000000E+00  0.00000000E+00  0.00000000E+00
  0.00000000E+00  0.00000000E+00  0.00000000E+00
  0.00000000E+00  0.00000000E+00  0.00000000E+00
  0.00000000E+00  0.00000000E+00  0.00000000E+00
  0.00000000E+00  0.00000000E+00  0.00000000E+00
  0.00000000E+00  0.00000000E+00  0.00000000E+00
  0.00000000E+00  0.00000000E+00  0.00000000E+00
  0.00000000E+00  0.00000000E+00  0.00000000E+00
  0.00000000E+00  0.00000000E+00  0.00000000E+00
  0.00000000E+00  0.00000000E+00  0.00000000E+00
  0.00000000E+00  0.00000000E+00  0.00000000E+00
  0.00000000E+00  0.00000000E+00  0.00000000E+00
  0.00000000E+00  0.00000000E+00  0.00000000E+00
  0.00000000E+00  0.00000000E+00  0.00000000E+00
  0.00000000E+00  0.00000000E+00  0.00000000E+00
  0.00000000E+00  0.00000000E+00  0.00000000E+00
  0.00000000E+00  0.00000000E+00  0.00000000E+00
  0.00000000E+00  0.00000000E+00  0.00000000E+00
  0.00000000E+00  0.00000000E+00  0.00000000E+00
  0.00000000E+00  0.00000000E+00  0.00000000E+00
  0.00000000E+00  0.00000000E+00  0.00000000E+00
  0.00000000E+00  0.00000000E+00  0.00000000E+00
  0.00000000E+00  0.00000000E+00  0.00000000E+00
  0.00000000E+00  0.00000000E+00  0.00000000E+00
  0.00000000E+00  0.00000000E+00  0.00000000E+00
  0.00000000E+00  0.00000000E+00  0.00000000E+00
  0.00000000E+00  0.00000000E+00  0.00000000E+00
  0.00000000E+00  0.00000000E+00  0.00000000E+00
  0.00000000E+00  0.00000000E+00  0.00000000E+00
  0.00000000E+00  0.00000000E+00  0.00000000E+00
  0.00000000E+00  0.00000000E+00  0.00000000E+00
  0.00000000E+00  0.00000000E+00  0.00000000E+00
  0.00000000E+00  0.00000000E+00  0.00000000E+00
  0.00000000E+00  0.00000000E+00  0.00000000E+00
  0.00000000E+00  0.00000000E+00  0.00000000E+00
  0.00000000E+00  0.00000000E+00  0.00000000E+00
  0.00000000E+00  0.00000000E+00  0.00000000E+00
  0.00000000E+00  0.00000000E+00  0.00000000E+00
  0.00000000E+00  0.00000000E+00  0.00000000E+00
  0.00000000E+00  0.00000000E+00  0.00000000E+00
  0.00000000E+00  0.00000000E+00  0.00000000E+00
  0.00000000E+00  0.00000000E+00  0.00000000E+00
  0.00000000E+00  0.00000000E+00  0.00000000E+00
  0.00000000E+00  0.00000000E+00  0.00000000E+00
  0.00000000E+00  0.00000000E+00  0.00000000E+00
  0.00000000E+00  0.00000000E+00  0.00000000E+00
  0.00000000E+00  0.00000000E+00  0.00000000E+00
  0.00000000E+00  0.00000000E+00  0.00000000E+00
  0.00000000E+00  0.00000000E+00  0.00000000E+00
  0.00000000E+00  0.00000000E+00  0.00000000E+00
  0.00000000E+00  0.00000000E+00  0.00000000E+00
  0.00000000E+00  0.00000000E+00  0.00000000E+00
  0.00000000E+00  0.00000000E+00  0.00000000E+00
  0.00000000E+00  0.00000000E+00  0.00000000E+00
  0.00000000E+00  0.00000000E+00  0.00000000E+00
  0.00000000E+00  0.00000000E+00  0.00000000E+00
  0.00000000E+00  0.00000000E+00  0.00000000E+00
  0.00000000E+00  0.00000000E+00  0.00000000E+00
  0.00000000E+00  0.00000000E+00  0.00000000E+00
  0.00000000E+00  0.00000000E+00  0.00000000E+00
  0.00000000E+00  0.00000000E+00  0.00000000E+00
  0.00000000E+00  0.00000000E+00  0.00000000E+00
  0.00000000E+00  0.00000000E+00  0.00000000E+00
  0.00000000E+00  0.00000000E+00  0.00000000E+00
  0.00000000E+00  0.00000000E+00  0.00000000E+00
  0.00000000E+00  0.00000000E+00  0.00000000E+00
  0.00000000E+00  0.00000000E+00  0.00000000E+00
  0.00000000E+00  0.00000000E+00  0.00000000E+00
  0.00000000E+00  0.00000000E+00  0.00000000E+00
  0.00000000E+00  0.00000000E+00  0.00000000E+00