Ge1 Sb2 Te4
1.0
  14.9091109999999993   -2.1409639999999999    0.0000000000000000
  14.9091109999999993    2.1409639999999999    0.0000000000000000
  14.6016669999999991    0.0000000000000000    3.6954919999999989
Ge Sb Te
1 2 4
direct
   0.3814110000000000    0.3814110000000000    0.3814110000000000 Ge
   0.8708939999999999    0.8708939999999999    0.8708939999999999 Sb
   0.6275729999999990    0.6275729999999990    0.6275729999999990 Sb
   0.4988979999999991    0.4988979999999991    0.4988979999999991 Te
   0.2497450000000000    0.2497450000000000    0.2497450000000000 Te
   0.0000260000000000    0.0000260000000000    0.0000260000000000 Te
   0.7464520000000000    0.7464520000000000    0.7464520000000000 Te
