Amorphous Sb                            
   1.00000000000000     
    22.8119198510770396    0.0000000000000000    0.0000000000000000
     0.0000000000000000   22.8119198510770396    0.0000000000000000
     0.0000000000000000    0.0000000000000000   22.8119198510770396
   In   Te
    60   240
Direct
  0.1596233968065219  0.5761719656358975  0.1460460733221679
  0.4130074509079394  0.2573024060086325  0.3051365776971545
  0.1595535647006814  0.1040487560420196  0.1051327831903016
  0.4977015682131279  0.8088837397708464  0.6872516568416904
  0.9779830216628355  0.0375346622759047  0.1506876678945785
  0.3685332526188977  0.5782313986020173  0.1248114909337598
  0.8962828383229595  0.0118866781962181  0.5167771064513383
  0.4786767663340181  0.2046099489032428  0.9028586787896057
  0.9684607963158867  0.7814616675927849  0.1815625769535385
  0.2007323670604604  0.9165167075275584  0.1098806503366988
  0.3080228585945888  0.7228272066805860  0.2832061101894968
  0.7572954420241680  0.4790764952774929  0.6912524983419124
  0.5064488035255719  0.0881244409550932  0.7608952617456363
  0.6115321267992414  0.6109440800391049  0.0306991794832200
  0.2888210195853178  0.6728311877699615  0.9206672285016781
  0.9886032120127766  0.5382138941154349  0.3507405750240795
  0.1954588755837607  0.9411535983599087  0.5267141826325804
  0.6133354475858989  0.5516148345301942  0.2058798284373707
  0.6970561992053486  0.5325081361781246  0.9105997350312125
  0.6112766345719395  0.0674779222348854  0.2822911075114613
  0.7430816529390100  0.5389529157849960  0.0888964072344097
  0.1265430429230743  0.9260003178456667  0.2123983288481883
  0.8887798697113504  0.3378922235349011  0.9712675307530920
  0.4385422625921378  0.0364828054528205  0.0079426102953514
  0.1575045281623582  0.8792303705995299  0.7251986657607679
  0.9279184649448023  0.1435844967123655  0.0206292098684122
  0.2287244862573809  0.0580659340739603  0.6629478334943069
  0.6154056841926930  0.5538809857748752  0.3814045361323725
  0.9066261212632817  0.3862711824865321  0.4035763327169642
  0.4472836900084105  0.9836929151818362  0.2977544979416436
  0.3501490086265935  0.8540666449675511  0.5322527734054390
  0.3153905113268813  0.9560130195202201  0.1431157848332953
  0.5683863563644650  0.3370041433670462  0.7674493918695781
  0.0617226894102547  0.9798742354157093  0.0029763805039682
  0.0273743725870686  0.0759950535609458  0.4054075898938505
  0.1942542171937074  0.7292230110725282  0.0603438176704956
  0.7461257779111592  0.9304689757363807  0.4378154318676725
  0.8118572671458757  0.7888129241404832  0.1467258875843522
  0.2658502305348414  0.9847672903690761  0.8327171213199065
  0.1294605924637064  0.3159209597681431  0.7342255783502667
  0.3474602680320811  0.7965226497080627  0.1434278390223695
  0.2422355897928093  0.7002754845980182  0.6394640795771227
  0.0073994102867777  0.4910081240546555  0.0110887551921152
  0.2012720527902497  0.4936687596229233  0.9946751831496616
  0.1218357533668858  0.4914119094066028  0.7603857026719417
  0.5447100143472700  0.8005398782904125  0.9364959969952330
  0.0575545381207508  0.2820756089401487  0.9620492680551369
  0.4497962010389571  0.8021314201743940  0.8436892863958272
  0.0441446374797066  0.3286572275861136  0.0771334872520418
  0.7049143283099278  0.8097560142028101  0.5900804190314507
  0.9874283417591522  0.2121987003142851  0.1921366618790196
  0.4676375343604403  0.0188818272617341  0.5601273433767612
  0.2703027447720535  0.4102987157756970  0.4040346442603304
  0.3430403918754457  0.2183583916562122  0.1556751381719189
 -0.0011041875077711  0.6417615963493032  0.6794732455738661
  0.5851946583729507  0.1989645700822669  0.3832405431613665
  0.3207079882213768  0.2859665119215077  0.8857068521071899
  0.4526109707370324  0.6205440512893067  0.5969174802126027
  0.8706212644895460  0.3913755577697207  0.5970308968012690
  0.6990077236836980  0.1487506254939964  0.7201786763741754
  0.4659615916275118  0.6679700830470208  0.4152457776430067
  0.6874978880842224  0.2027778199319274  0.4545055679613640
  0.9074807738042299  0.4949712038508373  0.0844285478352493
  0.5936549639109319  0.8208165105859110  0.5382337579330563
  0.3863482493359877  0.7683544993493675  0.3740011808403122
  0.0917228676847326  0.4128845535918267  0.6628974132084590
  0.1696302677513076  0.6966725899016141  0.1876147672113345
  0.4458524788248752  0.4229342725978149  0.7684436863667256
  0.0525685955699500  0.0237895743233567  0.2507491905216567
  0.1796090006387995  0.8483995905163669  0.9281929490168241
  0.6918523076433326  0.3754526800700951  0.4216340604000977
  0.3442554878193435  0.5088874959557623  0.4375420616819053
  0.1250703444295438  0.0026224719404098  0.7127156307804102
  0.7730453144578812  0.3469188241936570  0.9279005439645631
  0.7412148627750377  0.0987901459944284  0.0181977486131040
  0.7443097477579876  0.1930743293134105  0.2714677124065941
  0.0579488473703139  0.9150982774605042  0.8885474460083305
  0.9511394960236050  0.2013502016433849  0.7796584142796250
 -0.0002775372288957  0.8086774294094961  0.9265627259337040
  0.3762010785103854  0.7499189304853408  0.9618168579188340
  0.3592330484000572  0.6479683178989868  0.4827361268260814
  0.6158446278364943  0.1930852429225507  0.2591428113084657
  0.1061328500563164  0.2217415313849600  0.4635185022705032
  0.4519546116437161  0.5454456804037101  0.9221765856065299
  0.4952433338628369  0.1821127217182598  0.6505650123915243
  0.2834132093691691  0.5650436223781826  0.8638467804117583
  0.7034572049428200  0.5605684155323798  0.2910501019420245
  0.5834851597901214  0.1400489715290286  0.9123418474684636
  0.7298522615219728  0.9931316494845502  0.9123621040389193
  0.5990050806592105  0.1864920901227325  0.7797336349950650
  0.2750018220660254  0.4125191246871767  0.6978495157052896
  0.0294998247592857  0.7224577353729335  0.8487964467137534
  0.0369053685989137  0.6010025307177239  0.9626481636415701
  0.9614923754707070  0.3660756052363143  0.5150699833333438
  0.5322403103402186  0.0808308680694248  0.3847015695919155
  0.7143337225483134  0.8299624912334657 -0.0015040429104039
  0.2449034599930128  0.8602286903602545  0.8088384930755881
  0.8819725247142536  0.2222649506102477  0.1218867357227493
  0.9425422884843775  0.2297169864658034  0.9321400795688155
  0.4332230732052140  0.3007842049287537  0.1834240356954899
  0.1583020894257879  0.5151581068938170  0.2536810246852367
  0.9636637660418031  0.7141547781427275  0.5807777054372121
  0.4269843538298819  0.9238675179229346  0.4597154278556623
  0.6505284038501615  0.4882007238294337  0.0209224650314546
  0.5442568625782525  0.3611156898768541  0.2796623629187474
  0.4071076336965389  0.3668015399942373  0.6651715574289927
  0.0799970257132573  0.6426592481757408  0.0720394033987135
  0.4343692195208790  0.9332040872842008  0.8530204586131481
  0.2985846383207294  0.1432751199128320  0.9299407898193894
  0.7803725362337478  0.4662551993655451  0.1830730474327093
  0.6663380847939772  0.6552228834281248  0.9281549596040862
  0.2442457888211836  0.6518665756404712  0.3599569892243019
  0.4410989361170846  0.2716731977674146  0.8055941036858586
  0.8514951761383506  0.0452615364309611  0.0392903668564500
  0.1918431111057917  0.3837244887130635  0.5848038342913523
  0.0773980543327454  0.8042805467128108  0.2397905529202960
  0.5078033699210750  0.2982299933006822  0.3863868924788286
  0.6964972553438225  0.6783535312344787  0.7048152579818956
  0.9229104360542366  0.9273587743619494  0.4279804677395800
  0.3636378808454361  0.3801797084227871  0.3234531669139464
  0.1333238759793231  0.6453882423776943  0.3024646185374500
  0.0329681333362033  0.3503987488229480  0.8559509558161696
  0.0679288824651368  0.1825508311591778  0.3558606012447241
  0.5293487412774248  0.5717444185470340  0.4716964665424599
  0.7343988784198181  0.8091600014400199  0.7122174745552482
  0.6596940912442956  0.9544838283031055  0.0064191464093799
  0.4543635216138780  0.5264901778638819  0.0442831694408023
  0.1251003647841553  0.7861872464900662  0.4552417284405648
  0.0816662153361487  0.8297871823591231  0.5842534130084430
  0.4818146974658940  0.8387640688597583  0.3394603898483298
  0.8219046604652706  0.5270747267575080  0.9101526409909294
  0.8649778101633711  0.7947543960729336  0.0307240463805128
  0.9376942824512084  0.5366269838039299  0.7054103140007336
  0.4074642205617607  0.0980249601924254  0.8988335344471219
  0.5645313153939726  0.8568864807128823  0.7838784528921157
  0.9296895834498783  0.3741254823862198  0.7061072254684090
  0.5423549315758008  0.7763535479101797  0.0589879989988929
  0.9254006780611294  0.1497570775975752  0.2798998423320116
  0.5449602668654018  0.4284426256143658  0.9108679190636629
  0.1513341553891100  0.4150289964086064  0.3702213354378314
  0.5232101639919869  0.6817904010023983  0.7941578665117554
  0.9280661251139894  0.0232732901569220  0.3500664429598484
  0.4776601944170839  0.1492436481351767  0.2735217601228553
  0.2501563512289477  0.5919149784723458  0.5499126989795105
  0.3930822919897033  0.3300080748837359  0.5172570462240504
  0.8240641949917107  0.3444056891060853  0.8158050581474875
  0.0691475565143866  0.3020425098771013  0.1955415156161153
  0.9206118328856477  0.6944243835528536  0.2682069971931378
  0.0162834491278544  0.0790470772408003  0.9348930407852104
  0.7222240256885605  0.0197019613281841  0.2951077728760266
  0.7850367730570269  0.6455884083972802  0.3859407704437806
  0.0183928828866411  0.5512110967329782  0.8014730476619748
  0.8887118112170179  0.5640263888366112  0.4251004162380574
  0.3121036191773831  0.3844536612900927  0.2054039598778062
  0.8856373664808100  0.8689860797868169  0.2050142527257823
  0.2904246902587948  0.4133217111846095  0.8219217381535712
  0.6607870913442350  0.9253739412109544  0.6973587299683839
  0.3040358360770767  0.2390919367424660  0.0330941979176647
  0.8656003222604992  0.8647913663270881  0.8685544882709624
  0.1512235027777755  0.0330684071769125  0.8343161563538487
  0.5061339023049869  0.5807428087504394  0.2608291408146053
  0.9420002716301608  0.7364559903369707  0.7576840473986817
  0.4949562896970816  0.2080292627764167  0.0916272366709409
  0.7676253169942201  0.3137359955132334  0.5835812848528377
  0.1563837509568358  0.9074348279950647  0.3408300100097978
  0.7740748531255587  0.7137879441462863  0.9808294828164158
  0.8298482261266745  0.1920081805451154  0.8106340107620028
  0.6251852407082052  0.7660548393065690  0.8426021923028990
  0.6029310678380535  0.9285620291053671  0.1470556806298386
  0.9014537869307007  0.9352339536481313  0.7749141279991705
  0.6037319127337994  0.6822050156664893  0.2994524999402463
  0.7321930266767597  0.2899801004344362  0.0598121450335786
  0.2419570458206859  0.2905662943933993  0.6770033055340402
  0.2418130807681301  0.1072542052973379  0.3684137723655245
  0.7141087633379809  0.9291407350554030  0.2056908585973180
  0.2569691628506346  0.8253244463848897  0.2294359018702877
  0.3215380958180367  0.0259090005207207  0.2497909709296876
  0.0176634617133679  0.8621919632255085  0.3353260348412819
  0.1982226195731221  0.1289533512301755  0.4876253653993518
  0.7043117981953925  0.8274063666698986  0.2955998174811409
  0.3436807694250139  0.0045738578115947  0.4123637061014179
  0.4997150606539794  0.6598065144664245  0.0568395949679613
  0.4857080004460083  0.6677401102593290  0.9145234009359710
  0.5605836226814024  0.7264181187328813  0.6211395005811210
  0.5830995080488802  0.4327024503713232  0.1671025735710223
  0.8353832893085318  0.5094170047639823  0.6002938795123429
  0.4821514122566163  0.5177384311108945  0.6961588332557260
  0.1874499043092915  0.1706026549144212  0.6226593499164655
  0.4215596046015400  0.2115786577632542  0.4829607420192701
  0.9459578004930735  0.9821632053442497  0.9008766009777981
  0.8197643515158567  0.6744946566638463  0.1998268520324634
  0.8505039036557185  0.8849284477946295  0.6690684167640321
  0.7123610589765600  0.5497700798529169  0.4751799651298638
  0.7699757423566037  0.3083430908182443  0.3068510315470812
  0.3304175791264478  0.0619263900470108  0.0711132242453385
  0.1594326852257159  0.5741049667022282  0.9060440787038354
  0.8003677265244736  0.7457492089470710  0.4637262637775880
  0.6881652237820307  0.7314551534010881  0.3852383182801594
  0.7758957232674547  0.6226657798036694  0.7857536255136145
  0.9338752071769352 -0.0320694463432820  0.6297256933708330
  0.2629660592004881  0.3597888351069020  0.0808559258968868
  0.3978815825155343  0.1049898686271801  0.1706234402770746
  0.1155664013278811  0.6035282050746463  0.6454943152740642
  0.7419564532453408  0.8807648220544504  0.8621168904470834
  0.3921205533659741  0.4679983532619338  0.5397209420262759
  0.1902580006572769  0.3967036888107753  0.2229387971199040
  0.7636808680841400  0.2095283578424493  0.9689801657874446
  0.0331313903172188  0.1373820829353468  0.0959436671398838
  0.7570579484930284  0.1234182777000412  0.3904651716520242
  0.9908333518998995  0.4195050053525917  0.3209525925236597
  0.1160551939220653  0.4729054174047906  0.4727940834902039
  0.5971886279978613  0.3155122230991426  0.9144204218091696
  0.8651523317562768  0.7502907181161949  0.6401717156264267
  0.0483311473341320  0.8281483658876723  0.7053693410683493
  0.5481397685131821  0.9341795000320220  0.9341884655088269
  0.2905971508413507  0.9241102413294161  0.3259741647587234
  0.1107579282076143  0.2160340509193485  0.8098809120906602
  0.8433121711218101  0.5868334707267158  0.0284060934922141
  0.3726671203352250  0.7350907076749561  0.5718164762408385
  0.9607130781138117  0.7255316752514165  0.0709091948061319
  0.0070502757011827  0.7677047410624730  0.4095244652353134
  0.6592565553844383  0.5540719202697270  0.7078395170942344
  0.2951233020228913  0.4141730652353659  0.9750481502605218
  0.6124104533647385  0.2895621117615510  0.0337075256203640
  0.2610382033324197  0.2118448758507143  0.7806682012150966
  0.3315334237246640  0.8946349762652358  0.6500522789252695
  0.4130551094790377  0.6505356643704353  0.7394727716254492
  0.5470322854283478  0.1072422878144106  0.0313937139858575
  0.7900026021579153  0.0700306615899016  0.7538670248887618
  0.4789534309031271  0.9210262396473254  0.0462653415306295
  0.8345812375230647  0.4664793273384673  0.7923566712521889
  0.6768063621727743  0.6366958124654245  0.1349693728942651
  0.1654904279774674  0.3985532935320085  0.8397863207131864
  0.2988141693736909  0.8211162259593050  0.0323587688055712
  0.2584434952884722  0.5888743198060100  0.0632937695845434
  0.3395998644014985  0.9477173434240870  0.9286115320154019
  0.8576456442657554  0.2723677313731995  0.3858263378534968
  0.2332205594769630  0.2195076703463243  0.2149150098527542
  0.6154347115518376  0.4889416131212534  0.8279460943194412
  0.2797099491093578  0.0313512765435866  0.5516510196273600
  0.7743364702617310  0.0421435148544922  0.4914159951060151
  0.0754602947778916  0.2112107770994006  0.6643415192372789
  0.7524196596424055 -0.0027725973014713  0.6550683087197463
  0.2171428004664912  0.8480446818541250  0.6201782146931997
  0.2500967129467598  0.8504337811767776  0.4572764310461872
  0.0016627540670714  0.6057671628357785  0.2435823821582925
  0.7996609356950997  0.8659257482643113  0.5323663190791328
  0.1818846173989080  0.0135455671190957  0.0232085581063806
  0.5250083290660374  0.3337167279148129  0.6333270260766947
  0.7489651057643252  0.6894831746946763  0.5693768872735819
  0.9739394730012617  0.9382661348719337  0.0797404221410713
  0.3749449614199820  0.1659541528227459  0.7599965104226574
  0.2724101953378351  0.3228402072087151  0.4952906230638524
  0.6521895387566568  0.4443744972342787  0.5150165476109396
  0.5429433369976998  0.7796340037571978  0.2525370253452841
  0.9646400367226330  0.2315901676759844  0.5089432304891289
  0.9893404244970174  0.0990573909279311  0.5233429414092244
  0.4671627539656891  0.9301949290666977  0.6735274431812045
  0.5687711754249859  0.0131475097716460  0.6611379390627518
  0.8125890115241301  0.4694175227944598  0.4030185054550796
  0.3930803989597741  0.1539843083737556  0.5849845593685326
  0.3288805725009460  0.0395034711395477  0.7362093648055449
  0.6911327626251329  0.8075347319354068  0.1202328672844819
  0.3296750105039949  0.5435300110273104  0.6247394113065817
  0.1594065938122280  0.2224926516581668  0.9263291811553253
  0.9475467458640257  0.2559432382680948  0.6723474820363529
  0.1714942445182681  0.7197859500352702  0.9234031785168237
  0.6369431023134046  0.6373778172625142  0.5220065281377507
  0.6963692842851156  0.3693620092235849  0.6749652558302730
  0.5957657520783144  0.0267913067268241  0.4832313463754336
  0.1963721978366836  0.5918567137889472  0.7412652746400908
  0.8347596862203120  0.1459649080813333  0.6274883931804311
  0.8405544716941279  0.2113565075293815  0.5222368670059672
  0.8427470178985144  0.7105303320757899  0.8321999552223145
  0.6968513307979702  0.3808043570288467  0.1670760058611077
  0.0823308630976206  0.9607757242058337  0.5761126542396872
  0.6383462734371628  0.4326990430919450  0.3260633743280634
  0.0801247731618595  0.5802527015112947  0.4268337380560126
  0.1475207585614950  0.0136452731946025  0.4123853707216310
  0.4237221477993422  0.8944064666526208  0.1642639415187690
  0.9550968945868026  0.4291045657850270  0.9113746925638452
  0.1852783746354006  0.2238270922510732  0.0838753375453734
  0.1252790151138841  0.7020082966970749  0.5514635083077374
  0.1529198035733144  0.0986191344090930  0.2284078726535111
  0.5415279161630572  0.0291258071412256  0.1877628488761661
  0.1072090265397462  0.4474997569060210  0.0713470427646729
  0.5796737549422135  0.1740878638659704  0.5589232383627460
  0.1213153745197498  0.8423686779911685  0.0462950232835882
  0.8707917649785540  0.0920255339038366  0.1821291307841885
  0.7896668897626885  0.2442279600520820  0.6979595792459181
  0.4347477714438170  0.4993124482696815  0.1992343224219095
  0.3909861477526295  0.6883527197183310  0.1896493995164409
  0.6205781876300031  0.9151960832253817  0.4375104837822635
  0.6655691289159517  0.0944769282372689  0.6114744201323927
  0.8067042236212220  0.8745082967173572  0.3452692356011235
  0.5792349618519371  0.4491146592122315  0.6535509934025097
  0.2914205704018814  0.2191807518031845  0.3336190632765576
  0.3817593892985712  0.7707326535538453  0.7321298198844614
  0.9125607174415419  0.3444302754723566  0.0936734625840975
  0.4353462323664803  0.2706931121201219  0.0025117980338433
 
  0.00000000E+00  0.00000000E+00  0.00000000E+00
  0.00000000E+00  0.00000000E+00  0.00000000E+00
  0.00000000E+00  0.00000000E+00  0.00000000E+00
  0.00000000E+00  0.00000000E+00  0.00000000E+00
  0.00000000E+00  0.00000000E+00  0.00000000E+00
  0.00000000E+00  0.00000000E+00  0.00000000E+00
  0.00000000E+00  0.00000000E+00  0.00000000E+00
  0.00000000E+00  0.00000000E+00  0.00000000E+00
  0.00000000E+00  0.00000000E+00  0.00000000E+00
  0.00000000E+00  0.00000000E+00  0.00000000E+00
  0.00000000E+00  0.00000000E+00  0.00000000E+00
  0.00000000E+00  0.00000000E+00  0.00000000E+00
  0.00000000E+00  0.00000000E+00  0.00000000E+00
  0.00000000E+00  0.00000000E+00  0.00000000E+00
  0.00000000E+00  0.00000000E+00  0.00000000E+00
  0.00000000E+00  0.00000000E+00  0.00000000E+00
  0.00000000E+00  0.00000000E+00  0.00000000E+00
  0.00000000E+00  0.00000000E+00  0.00000000E+00
  0.00000000E+00  0.00000000E+00  0.00000000E+00
  0.00000000E+00  0.00000000E+00  0.00000000E+00
  0.00000000E+00  0.00000000E+00  0.00000000E+00
  0.00000000E+00  0.00000000E+00  0.00000000E+00
  0.00000000E+00  0.00000000E+00  0.00000000E+00
  0.00000000E+00  0.00000000E+00  0.00000000E+00
  0.00000000E+00  0.00000000E+00  0.00000000E+00
  0.00000000E+00  0.00000000E+00  0.00000000E+00
  0.00000000E+00  0.00000000E+00  0.00000000E+00
  0.00000000E+00  0.00000000E+00  0.00000000E+00
  0.00000000E+00  0.00000000E+00  0.00000000E+00
  0.00000000E+00  0.00000000E+00  0.00000000E+00
  0.00000000E+00  0.00000000E+00  0.00000000E+00
  0.00000000E+00  0.00000000E+00  0.00000000E+00
  0.00000000E+00  0.00000000E+00  0.00000000E+00
  0.00000000E+00  0.00000000E+00  0.00000000E+00
  0.00000000E+00  0.00000000E+00  0.00000000E+00
  0.00000000E+00  0.00000000E+00  0.00000000E+00
  0.00000000E+00  0.00000000E+00  0.00000000E+00
  0.00000000E+00  0.00000000E+00  0.00000000E+00
  0.00000000E+00  0.00000000E+00  0.00000000E+00
  0.00000000E+00  0.00000000E+00  0.00000000E+00
  0.00000000E+00  0.00000000E+00  0.00000000E+00
  0.00000000E+00  0.00000000E+00  0.00000000E+00
  0.00000000E+00  0.00000000E+00  0.00000000E+00
  0.00000000E+00  0.00000000E+00  0.00000000E+00
  0.00000000E+00  0.00000000E+00  0.00000000E+00
  0.00000000E+00  0.00000000E+00  0.00000000E+00
  0.00000000E+00  0.00000000E+00  0.00000000E+00
  0.00000000E+00  0.00000000E+00  0.00000000E+00
  0.00000000E+00  0.00000000E+00  0.00000000E+00
  0.00000000E+00  0.00000000E+00  0.00000000E+00
  0.00000000E+00  0.00000000E+00  0.00000000E+00
  0.00000000E+00  0.00000000E+00  0.00000000E+00
  0.00000000E+00  0.00000000E+00  0.00000000E+00
  0.00000000E+00  0.00000000E+00  0.00000000E+00
  0.00000000E+00  0.00000000E+00  0.00000000E+00
  0.00000000E+00  0.00000000E+00  0.00000000E+00
  0.00000000E+00  0.00000000E+00  0.00000000E+00
  0.00000000E+00  0.00000000E+00  0.00000000E+00
  0.00000000E+00  0.00000000E+00  0.00000000E+00
  0.00000000E+00  0.00000000E+00  0.00000000E+00
  0.00000000E+00  0.00000000E+00  0.00000000E+00
  0.00000000E+00  0.00000000E+00  0.00000000E+00
  0.00000000E+00  0.00000000E+00  0.00000000E+00
  0.00000000E+00  0.00000000E+00  0.00000000E+00
  0.00000000E+00  0.00000000E+00  0.00000000E+00
  0.00000000E+00  0.00000000E+00  0.00000000E+00
  0.00000000E+00  0.00000000E+00  0.00000000E+00
  0.00000000E+00  0.00000000E+00  0.00000000E+00
  0.00000000E+00  0.00000000E+00  0.00000000E+00
  0.00000000E+00  0.00000000E+00  0.00000000E+00
  0.00000000E+00  0.00000000E+00  0.00000000E+00
  0.00000000E+00  0.00000000E+00  0.00000000E+00
  0.00000000E+00  0.00000000E+00  0.00000000E+00
  0.00000000E+00  0.00000000E+00  0.00000000E+00
  0.00000000E+00  0.00000000E+00  0.00000000E+00
  0.00000000E+00  0.00000000E+00  0.00000000E+00
  0.00000000E+00  0.00000000E+00  0.00000000E+00
  0.00000000E+00  0.00000000E+00  0.00000000E+00
  0.00000000E+00  0.00000000E+00  0.00000000E+00
  0.00000000E+00  0.00000000E+00  0.00000000E+00
  0.00000000E+00  0.00000000E+00  0.00000000E+00
  0.00000000E+00  0.00000000E+00  0.00000000E+00
  0.00000000E+00  0.00000000E+00  0.00000000E+00
  0.00000000E+00  0.00000000E+00  0.00000000E+00
  0.00000000E+00  0.00000000E+00  0.00000000E+00
  0.00000000E+00  0.00000000E+00  0.00000000E+00
  0.00000000E+00  0.00000000E+00  0.00000000E+00
  0.00000000E+00  0.00000000E+00  0.00000000E+00
  0.00000000E+00  0.00000000E+00  0.00000000E+00
  0.00000000E+00  0.00000000E+00  0.00000000E+00
  0.00000000E+00  0.00000000E+00  0.00000000E+00
  0.00000000E+00  0.00000000E+00  0.00000000E+00
  0.00000000E+00  0.00000000E+00  0.00000000E+00
  0.00000000E+00  0.00000000E+00  0.00000000E+00
  0.00000000E+00  0.00000000E+00  0.00000000E+00
  0.00000000E+00  0.00000000E+00  0.00000000E+00
  0.00000000E+00  0.00000000E+00  0.00000000E+00
  0.00000000E+00  0.00000000E+00  0.00000000E+00
  0.00000000E+00  0.00000000E+00  0.00000000E+00
  0.00000000E+00  0.00000000E+00  0.00000000E+00
  0.00000000E+00  0.00000000E+00  0.00000000E+00
  0.00000000E+00  0.00000000E+00  0.00000000E+00
  0.00000000E+00  0.00000000E+00  0.00000000E+00
  0.00000000E+00  0.00000000E+00  0.00000000E+00
  0.00000000E+00  0.00000000E+00  0.00000000E+00
  0.00000000E+00  0.00000000E+00  0.00000000E+00
  0.00000000E+00  0.00000000E+00  0.00000000E+00
  0.00000000E+00  0.00000000E+00  0.00000000E+00
  0.00000000E+00  0.00000000E+00  0.00000000E+00
  0.00000000E+00  0.00000000E+00  0.00000000E+00
  0.00000000E+00  0.00000000E+00  0.00000000E+00
  0.00000000E+00  0.00000000E+00  0.00000000E+00
  0.00000000E+00  0.00000000E+00  0.00000000E+00
  0.00000000E+00  0.00000000E+00  0.00000000E+00
  0.00000000E+00  0.00000000E+00  0.00000000E+00
  0.00000000E+00  0.00000000E+00  0.00000000E+00
  0.00000000E+00  0.00000000E+00  0.00000000E+00
  0.00000000E+00  0.00000000E+00  0.00000000E+00
  0.00000000E+00  0.00000000E+00  0.00000000E+00
  0.00000000E+00  0.00000000E+00  0.00000000E+00
  0.00000000E+00  0.00000000E+00  0.00000000E+00
  0.00000000E+00  0.00000000E+00  0.00000000E+00
  0.00000000E+00  0.00000000E+00  0.00000000E+00
  0.00000000E+00  0.00000000E+00  0.00000000E+00
  0.00000000E+00  0.00000000E+00  0.00000000E+00
  0.00000000E+00  0.00000000E+00  0.00000000E+00
  0.00000000E+00  0.00000000E+00  0.00000000E+00
  0.00000000E+00  0.00000000E+00  0.00000000E+00
  0.00000000E+00  0.00000000E+00  0.00000000E+00
  0.00000000E+00  0.00000000E+00  0.00000000E+00
  0.00000000E+00  0.00000000E+00  0.00000000E+00
  0.00000000E+00  0.00000000E+00  0.00000000E+00
  0.00000000E+00  0.00000000E+00  0.00000000E+00
  0.00000000E+00  0.00000000E+00  0.00000000E+00
  0.00000000E+00  0.00000000E+00  0.00000000E+00
  0.00000000E+00  0.00000000E+00  0.00000000E+00
  0.00000000E+00  0.00000000E+00  0.00000000E+00
  0.00000000E+00  0.00000000E+00  0.00000000E+00
  0.00000000E+00  0.00000000E+00  0.00000000E+00
  0.00000000E+00  0.00000000E+00  0.00000000E+00
  0.00000000E+00  0.00000000E+00  0.00000000E+00
  0.00000000E+00  0.00000000E+00  0.00000000E+00
  0.00000000E+00  0.00000000E+00  0.00000000E+00
  0.00000000E+00  0.00000000E+00  0.00000000E+00
  0.00000000E+00  0.00000000E+00  0.00000000E+00
  0.00000000E+00  0.00000000E+00  0.00000000E+00
  0.00000000E+00  0.00000000E+00  0.00000000E+00
  0.00000000E+00  0.00000000E+00  0.00000000E+00
  0.00000000E+00  0.00000000E+00  0.00000000E+00
  0.00000000E+00  0.00000000E+00  0.00000000E+00
  0.00000000E+00  0.00000000E+00  0.00000000E+00
  0.00000000E+00  0.00000000E+00  0.00000000E+00
  0.00000000E+00  0.00000000E+00  0.00000000E+00
  0.00000000E+00  0.00000000E+00  0.00000000E+00
  0.00000000E+00  0.00000000E+00  0.00000000E+00
  0.00000000E+00  0.00000000E+00  0.00000000E+00
  0.00000000E+00  0.00000000E+00  0.00000000E+00
  0.00000000E+00  0.00000000E+00  0.00000000E+00
  0.00000000E+00  0.00000000E+00  0.00000000E+00
  0.00000000E+00  0.00000000E+00  0.00000000E+00
  0.00000000E+00  0.00000000E+00  0.00000000E+00
  0.00000000E+00  0.00000000E+00  0.00000000E+00
  0.00000000E+00  0.00000000E+00  0.00000000E+00
  0.00000000E+00  0.00000000E+00  0.00000000E+00
  0.00000000E+00  0.00000000E+00  0.00000000E+00
  0.00000000E+00  0.00000000E+00  0.00000000E+00
  0.00000000E+00  0.00000000E+00  0.00000000E+00
  0.00000000E+00  0.00000000E+00  0.00000000E+00
  0.00000000E+00  0.00000000E+00  0.00000000E+00
  0.00000000E+00  0.00000000E+00  0.00000000E+00
  0.00000000E+00  0.00000000E+00  0.00000000E+00
  0.00000000E+00  0.00000000E+00  0.00000000E+00
  0.00000000E+00  0.00000000E+00  0.00000000E+00
  0.00000000E+00  0.00000000E+00  0.00000000E+00
  0.00000000E+00  0.00000000E+00  0.00000000E+00
  0.00000000E+00  0.00000000E+00  0.00000000E+00
  0.00000000E+00  0.00000000E+00  0.00000000E+00
  0.00000000E+00  0.00000000E+00  0.00000000E+00
  0.00000000E+00  0.00000000E+00  0.00000000E+00
  0.00000000E+00  0.00000000E+00  0.00000000E+00
  0.00000000E+00  0.00000000E+00  0.00000000E+00
  0.00000000E+00  0.00000000E+00  0.00000000E+00
  0.00000000E+00  0.00000000E+00  0.00000000E+00
  0.00000000E+00  0.00000000E+00  0.00000000E+00
  0.00000000E+00  0.00000000E+00  0.00000000E+00
  0.00000000E+00  0.00000000E+00  0.00000000E+00
  0.00000000E+00  0.00000000E+00  0.00000000E+00
  0.00000000E+00  0.00000000E+00  0.00000000E+00
  0.00000000E+00  0.00000000E+00  0.00000000E+00
  0.00000000E+00  0.00000000E+00  0.00000000E+00
  0.00000000E+00  0.00000000E+00  0.00000000E+00
  0.00000000E+00  0.00000000E+00  0.00000000E+00
  0.00000000E+00  0.00000000E+00  0.00000000E+00
  0.00000000E+00  0.00000000E+00  0.00000000E+00
  0.00000000E+00  0.00000000E+00  0.00000000E+00
  0.00000000E+00  0.00000000E+00  0.00000000E+00
  0.00000000E+00  0.00000000E+00  0.00000000E+00
  0.00000000E+00  0.00000000E+00  0.00000000E+00
  0.00000000E+00  0.00000000E+00  0.00000000E+00
  0.00000000E+00  0.00000000E+00  0.00000000E+00
  0.00000000E+00  0.00000000E+00  0.00000000E+00
  0.00000000E+00  0.00000000E+00  0.00000000E+00
  0.00000000E+00  0.00000000E+00  0.00000000E+00
  0.00000000E+00  0.00000000E+00  0.00000000E+00
  0.00000000E+00  0.00000000E+00  0.00000000E+00
  0.00000000E+00  0.00000000E+00  0.00000000E+00
  0.00000000E+00  0.00000000E+00  0.00000000E+00
  0.00000000E+00  0.00000000E+00  0.00000000E+00
  0.00000000E+00  0.00000000E+00  0.00000000E+00
  0.00000000E+00  0.00000000E+00  0.00000000E+00
  0.00000000E+00  0.00000000E+00  0.00000000E+00
  0.00000000E+00  0.00000000E+00  0.00000000E+00
  0.00000000E+00  0.00000000E+00  0.00000000E+00
  0.00000000E+00  0.00000000E+00  0.00000000E+00
  0.00000000E+00  0.00000000E+00  0.00000000E+00
  0.00000000E+00  0.00000000E+00  0.00000000E+00
  0.00000000E+00  0.00000000E+00  0.00000000E+00
  0.00000000E+00  0.00000000E+00  0.00000000E+00
  0.00000000E+00  0.00000000E+00  0.00000000E+00
  0.00000000E+00  0.00000000E+00  0.00000000E+00
  0.00000000E+00  0.00000000E+00  0.00000000E+00
  0.00000000E+00  0.00000000E+00  0.00000000E+00
  0.00000000E+00  0.00000000E+00  0.00000000E+00
  0.00000000E+00  0.00000000E+00  0.00000000E+00
  0.00000000E+00  0.00000000E+00  0.00000000E+00
  0.00000000E+00  0.00000000E+00  0.00000000E+00
  0.00000000E+00  0.00000000E+00  0.00000000E+00
  0.00000000E+00  0.00000000E+00  0.00000000E+00
  0.00000000E+00  0.00000000E+00  0.00000000E+00
  0.00000000E+00  0.00000000E+00  0.00000000E+00
  0.00000000E+00  0.00000000E+00  0.00000000E+00
  0.00000000E+00  0.00000000E+00  0.00000000E+00