Sb6 Te3 Se6                             
   1.00000000000000     
     2.0803054785903563   -3.6031947841823819   -0.0000000000000002
     2.0803054785903590    3.6031947841823819    0.0000000000000002
    -0.0000000000000001    0.0000000000000013   30.9785010838389638
   Sb   Te   Se
     6     3     6
Direct
  0.3333333333333357  0.6666666666666643  0.2662969737622284
  0.3333333333333357  0.6666666666666643  0.0670363595711075
  0.0000000000000000  0.0000000000000000  0.5996303070955634
  0.0000000000000000  0.0000000000000000  0.4003696929044359
  0.6666666666666643  0.3333333333333357  0.9329636404288920
  0.6666666666666643  0.3333333333333357  0.7337030262377723
  0.0000000000000000  0.0000000000000000  0.0000000000000000
  0.6666666666666643  0.3333333333333357  0.3333333333333357
  0.3333333333333357  0.6666666666666643  0.6666666666666643
  0.0000000000000000  0.0000000000000000  0.2177453247973555
  0.6666666666666643  0.3333333333333357  0.1155880085359730
  0.6666666666666643  0.3333333333333357  0.5510786581306915
  0.3333333333333357  0.6666666666666643  0.4489213418693084
  0.3333333333333357  0.6666666666666643  0.8844119914640272
  0.0000000000000000  0.0000000000000000  0.7822546752026442
 
  0.00000000E+00  0.00000000E+00  0.00000000E+00
  0.00000000E+00  0.00000000E+00  0.00000000E+00
  0.00000000E+00  0.00000000E+00  0.00000000E+00
  0.00000000E+00  0.00000000E+00  0.00000000E+00
  0.00000000E+00  0.00000000E+00  0.00000000E+00
  0.00000000E+00  0.00000000E+00  0.00000000E+00
  0.00000000E+00  0.00000000E+00  0.00000000E+00
  0.00000000E+00  0.00000000E+00  0.00000000E+00
  0.00000000E+00  0.00000000E+00  0.00000000E+00
  0.00000000E+00  0.00000000E+00  0.00000000E+00
  0.00000000E+00  0.00000000E+00  0.00000000E+00
  0.00000000E+00  0.00000000E+00  0.00000000E+00
  0.00000000E+00  0.00000000E+00  0.00000000E+00
  0.00000000E+00  0.00000000E+00  0.00000000E+00
  0.00000000E+00  0.00000000E+00  0.00000000E+00
