Bi4 Te7 Pb1                             
   1.00000000000000     
     2.2374114605738895   -3.8753103271508649   -0.0000000000000001
     2.2374114605738895    3.8753103271508649    0.0000000000000001
     0.0000000000000000   -0.0000000000000014   25.0202283556770801
   Bi   Te   Pb
     4     7     1
Direct
  0.3333333333333357  0.6666666666666643  0.8397248879723762
  0.6666666666666643  0.3333333333333357  0.4186141041415715
  0.6666666666666643  0.3333333333333357  0.1602751120276242
  0.3333333333333357  0.6666666666666643  0.5813858958584278
  0.6666666666666643  0.3333333333333357  0.6499171025673177
  0.3333333333333357  0.6666666666666643  0.0787548346665883
  0.0000000000000000  0.0000000000000000  0.2281155445327946
  0.3333333333333357  0.6666666666666643  0.3500828974326827
  0.6666666666666643  0.3333333333333357  0.9212451653334112
  0.0000000000000000  0.0000000000000000  0.5000000000000000
  0.0000000000000000  0.0000000000000000  0.7718844554672056
  0.0000000000000000  0.0000000000000000  0.0000000000000000
 
  0.00000000E+00  0.00000000E+00  0.00000000E+00
  0.00000000E+00  0.00000000E+00  0.00000000E+00
  0.00000000E+00  0.00000000E+00  0.00000000E+00
  0.00000000E+00  0.00000000E+00  0.00000000E+00
  0.00000000E+00  0.00000000E+00  0.00000000E+00
  0.00000000E+00  0.00000000E+00  0.00000000E+00
  0.00000000E+00  0.00000000E+00  0.00000000E+00
  0.00000000E+00  0.00000000E+00  0.00000000E+00
  0.00000000E+00  0.00000000E+00  0.00000000E+00
  0.00000000E+00  0.00000000E+00  0.00000000E+00
  0.00000000E+00  0.00000000E+00  0.00000000E+00
  0.00000000E+00  0.00000000E+00  0.00000000E+00
