Amorphous Sb                            
   1.00000000000000     
    20.1278869700586895    0.0000000000000000    0.0000000000000000
     0.0000000000000000   20.1278869700586895    0.0000000000000000
     0.0000000000000000    0.0000000000000000   20.1278869700586895
   Ge   Se
   150   150
Direct
  0.5199226567239651  0.8145363736046369  0.7151265073517551
  0.1890736490310831  0.3922624762699373  0.7978055459811764
  0.3849202584768677  0.3249278904238396  0.6453261954391114
  0.8431426494136159  0.0295141240778305  0.6417830007067206
  0.8911862550163446  0.6173433654626203  0.6732431091509908
  0.2473000173287297  0.7026214427393552  0.9322744324477616
  0.1829070710139743  0.0946480453579344  0.2715505647874134
  0.3962948259894525  0.6436511830156505  0.7938481437780978
  0.3352511936729509  0.9048232890290508  0.2823605024108526
  0.4303495834308925  0.0028513789099751  0.4210272636655870
 -0.0098104409149431  0.0292622868090107  0.4260271845692263
  0.5868032963971460  0.3071581195051510  0.8644935528925737
  0.6802090746853102  0.4594279883467142  0.4794959317318491
  0.2928952477090090  0.9811651559704547  0.8397857371424986
  0.7125647595166995  0.9912740155875652  0.4573436851419200
  0.0337852774138771  0.7933258831428849  0.0589329846518294
  0.0376532139782086  0.7818341887083636  0.3480154828239155
  0.8153203174539577  0.4141355600864053  0.3460466841248543
  0.1357118119857346  0.5266843584704173  0.9414225536121716
  0.0438598129794939  0.9140369112265400  0.4995607640861237
  0.1609231906494825  0.8559820322586644  0.1574508142823288
  0.4641090022079825  0.6895009947282769  0.0026224178186549
  0.9611472543222350  0.2059489670760261  0.8960431716140060
  0.0680745289623742  0.1411034981766472  0.0925428494842511
  0.5406703320020408  0.3133233092746920  0.1684751209786699
  0.3359285236599042  0.1573681672847305  0.5896056633424372
  0.4169728964323748  0.7758503927869540  0.5631656559505627
  0.8516595811039340  0.8754925124872689  0.0536305865874729
  0.8128357738214275  0.4337584660793835  0.5917106060339732
  0.9589296120591475  0.7652286602535094  0.6172036110927941
  0.0503736031812077  0.3318004049532948  0.7222650621797405
  0.9954376568068876  0.1101761221638619  0.2376846049651191
  0.9203704791531226  0.5087985159457407  0.4550037684340107
  0.3082292650877583  0.4756210774343373  0.2590756372060077
  0.0136934129213369  0.5676604229227414  0.5831778960480362
  0.7533794273914893  0.7023560681290166  0.1978491301516679
  0.4104747833218956  0.4967075216696423  0.9553977173489239
  0.2339989753421868  0.0501198606911553  0.1589686346616009
  0.2720799238444130  0.3498865916308155  0.1247655706926431
  0.7703395932692684  0.3983621858969724  0.7758250516744252
  0.8404417072509509  0.8621832490202777  0.3880207587417531
  0.9147354189813611  0.1782440222849493  0.5430083429685391
  0.5908469561454236  0.8731584102508134  0.5387177312354607
  0.4251710282424996  0.9310631768313077  0.0852137025497615
  0.4097652138599702  0.6764853645622919  0.2994785766053272
  0.3835249988581735  0.4305136161124856  0.4996699730321643
  0.9383906034954330  0.8124546660713619  0.1995000528566021
  0.0643049153452225  0.2646199537609831  0.3643813492686165
  0.9680128962103811  0.7361649295853611  0.7992022187425901
  0.5540887461340608  0.0852522234603753  0.3326646141596453
  0.2594244219916106  0.3955060613322376  0.9438183838438993
  0.0222418563062741  0.3107643516477234  0.1288799819824291
  0.5920093880813426  0.6917715425376356  0.8327711381181864
  0.5717463236043325  0.2895601991677814  0.7364349032540530
  0.0630830627223149  0.5957136585759399  0.3240721381837777
  0.0618882238835091  0.9563694575826418  0.1421853035923899
  0.1158914752805187  0.5849234242078429  0.4807059868728603
  0.9692607754528277  0.2905242269515051  0.5735605171551846
  0.0742444593850992  0.0225024137720944  0.8150061461822066
  0.5220909507191177  0.4290664938805860  0.3453376769875569
  0.6626540152410498  0.1065870920542628  0.1176370632224579
  0.5680448970098548  0.6619847932463621  0.2504117429167088
  0.9519164246664050  0.6710272256913578  0.3353389542052912
  0.9045238984859205  0.0205758078951192  0.8166814390227825
  0.5867281709908102  0.8343425075854205 -0.0062306332617720
  0.0674753751004821  0.3633817361801253  0.9195921053773005
  0.8096639366386592  0.8005470338812876  0.5285611303308005
  0.7046166241270507  0.7535639110087442  0.6895928095535426
  0.7897971856311854  0.2620013360798120  0.1337841161582560
  0.8574357220295454  0.2954998591607427  0.9722342116864507
  0.9421133533260088  0.4239446895634116  0.7439823841806018
  0.4306626088178684  0.0609263460174198  0.1994010758859450
  0.3664655451849916  0.5386676706400637  0.4255459249349183
  0.5375790871556322  0.8099017541985933  0.4072728704029419
  0.3584149391444082  0.5187692116801865  0.7532764035840446
  0.6830039417979631  0.8948709596431020  0.1219413973153181
  0.2531678753563598  0.2250343850986677  0.1692858522141147
  0.8405972510511559  0.1222799001583293  0.9896745263636597
  0.3090331255439411  0.8450398658497481  0.9645906478953437
  0.4212614616898138  0.2689387940798038  0.0476889774965025
  0.6761489814177857  0.0004518391571214  0.9225547857985126
  0.9547425691902949  0.6117629291046889  0.8472912508804500
  0.7805002039547216  0.4695042666496038  0.0724377309541689
  0.7789752872137545  0.5429906859845264  0.3358115186391061
  0.3381660570444378  0.1148922887546037  0.7134470807919929
  0.5639986107298559  0.1421284089303715  0.0411800787277273
  0.4912444287916942  0.6197636090503453  0.6193893375013204
  0.7752293653341685  0.3100080137185945  0.4994613188744747
  0.6437317540447599  0.5736031264243366  0.1698470583913603
  0.5599809982752147  0.2550922392026309  0.4353409213060325
  0.5895212934046467  0.0987379272872787  0.9244789719129084
  0.1573014737713018  0.0790493226589940  0.5354373170175473
  0.2803670073856619  0.5973900466663629  0.5943374370660087
  0.8360933019409779  0.0803542119528082  0.3341765032410218
  0.6617891525218087  0.9396160435642409  0.6251298435735155
  0.6663909485370531  0.6620279109022453  0.4929345460483485
  0.4422870598522785  0.9744074051662832  0.9362210735809229
  0.1353151934015723  0.4918217201815869  0.6333533173595317
  0.1613556534274813  0.7775834212473208  0.4642539642149773
  0.2160166727924903  0.0876935278033011  0.8398409280911067
  0.1091241981569549  0.4293340137614700  0.2136489343365872
  0.4653388197136127  0.3456575947664966  0.8890440685389082
  0.2000787536560832  0.5214174600112697  0.0962090433022795
  0.8195478390992631  0.0801370550959391  0.1711898523906628
  0.4289492143037182  0.8108210881213435  0.8362898436131208
  0.7476601622767349  0.7237570022357735  0.9882751174068442
  0.9890157852243608  0.4789351669002274 -0.0070605266930430
  0.0436684400423014  0.6606390423137399  0.0363199746438395
  0.6607788651691459  0.1495839832834140  0.7414676773281518
  0.7709284814681329  0.9172563088973020  0.7849779498541287
  0.0900103089567998  0.8667589788744579  0.6859432710385883
  0.1181622943692750  0.9154760429717511  0.9504456258888524
  0.1793370922138185  0.9466642157217224  0.4033467542039759
  0.7299057910622817  0.1970092880523717  0.3117490699135813
  0.7383688029013791  0.8510135784011611  0.3020725092515207
  0.7483021747837619  0.6562670825318794  0.3947962905398478
  0.4227947079083286  0.2367843719864739  0.2752889088353406
  0.6803529557199466  0.5847324206932611  0.7086503496037634
  0.3189601817716945  0.2505098229981940  0.4522888415785070
  0.0319372736479236  0.9012471880601254  0.7945002261760347
  0.9159094920676414  0.4581390481973859  0.1775960385039232
  0.8649855104471300  0.2086301000028801  0.3448906007996463
  0.7943819474698064  0.6482228785111787  0.8229194005446075
 -0.0020768486048797  0.9590943739207241  0.9852468090697371
  0.2112347194822837  0.4217344653291499  0.4017271189949957
  0.2526549570400142  0.7110605111163477  0.6585105101549109
  0.3469524029016774  0.9864907052155850  0.5306266824220303
  0.6326716028745523  0.8747764725655717  0.7876088658392445
  0.2005208872938576  0.1258688911243606  0.9861593636429639
  0.3279619646459508  0.7925738591032518  0.0819088827004730
  0.5354233643573019  0.5518573524470389  0.4547348626458172
  0.8964797005121840  0.7949735864698392  0.8997197729987436
  0.4310492376431167  0.1743979283386563  0.9369283014425017
  0.4388648880177848  0.5205008413571861  0.1488587798494967
  0.0742729271621129  0.7323679487046990  0.6806631590694255
  0.1840804620636375  0.6608261826488496  0.1917937788644474
  0.2839374478682544  0.2555418875322638  0.8004058144715356
  0.5254893210689751  0.1036600370771606  0.5114829108981046
  0.3270691294209212  0.7349667421304570  0.3974986818562526
  0.3399769985393229  0.8722355874624692  0.6917658509351190
  0.6953633763134390  0.3793307627027410  0.2225062126991157
  0.6014929922352799  0.4525484283651574  0.0469494542697617
  0.1750892907914423 -0.0351740709181942  0.7195389734913046
  0.9459791706810020  0.1826365416837932  0.7370392843686533
  0.6535543324577703  0.1977657186371020  0.5994388696839982
  0.1550203930222396  0.2051585242440015  0.4972903481149810
  0.1494364039979530  0.6052658937003463  0.7921174673732969
  0.5722474362686052  0.8740425251309873  0.1959259508320412
  0.4824444270106985  0.4670585430751770  0.7478298893008494
  0.8748236937296624  0.4922257351378603  0.9205814134148605
  0.8349909900561452  0.1963144705683278  0.8849216606798997
  0.8365856273002219  0.9953733155865722  0.4238405665547034
  0.0656799087378773  0.7705566795431101  0.1815216841176936
  0.9325980294037900  0.4751457864156706  0.6222175630163412
  0.3365140982183378  0.6789399069522987  0.0240559775156282
  0.0793889338324893  0.0134120592955208  0.2538669007012364
  0.5519882173452697  0.4486181118952118  0.1657754216237291
  0.7223083337756427  0.0361117400000469  0.5794202849485728
  0.5559409188427532  0.2649510211687948  0.0411234605161334
  0.1203195203917216  0.0532519968741986  0.4151685390293448
  0.9488626238059316  0.8664960867890247  0.3158740114742447
  0.7867437310591466  0.0378988567905524  0.7570342491661279
  0.7499089930964281  0.7008059031604053  0.5789460461574433
  0.2955144984087833  0.8089539580832900  0.5862893506653648
  0.9081654699293866  0.6945676351871561  0.2243223650191005
  0.4468041882669190  0.1069424107089566  0.0455763020162586
  0.2851836390308054  0.1367316687796440  0.0859145720400533
  0.4116405490891364  0.8232989419135599  0.4401148853756947
  0.9077730023906285  0.9028932020299273  0.7659079363452309
  0.6842820584654468  0.2516229305882028  0.2073499278920901
  0.6988881470034706  0.0041492205910933  0.0521000343350748
  0.5480367306286172  0.1827634254572594  0.6818239968031519
  0.1433604399448111  0.0272805002774773  0.0734462572638891
  0.8482099891790220  0.5002468722889263  0.7998873127133005
  0.2065505453116496  0.3894548692624062  0.2728237355446288
  0.3516111554338688  0.3753777541261694  0.8520726738445018
  0.2590857147376980  0.7693206503019844  0.1808451855023090
  0.2782310280358286 -0.0069819392230141  0.3545543224859875
  0.3037631406433091  0.4795589697389183  0.0267130430867843
  0.4446256818751883  0.9696016304564182  0.3000515264570162
  0.4161611844229637  0.2458000827654717  0.5477670680481610
  0.4104262031687397  0.3156702669425832  0.1704725282257348
  0.9025025355114938  0.0205087208577969  0.2506519264835302
  0.4341976781226447  0.8179711730917902  0.1368940869306789
  0.0712712351576155  0.4992474168477961  0.3977707255700508
  0.0879114378877537  0.4655530113029917  0.8400627699351018
  0.5379823095455019  0.4429592164935852  0.8522261693774650
  0.2855299036788183  0.9826808323795038  0.6600143179480563
  0.5121659090197729  0.1557703786526503  0.2288489642584480
  0.9032998312482549  0.5529450393587111  0.3336700443415595
  0.6281565800051888  0.5102831704395850  0.3733235028355315
  0.3049405420298856  0.1676086358677980  0.8957188118189466
  0.1699253786709714  0.9083292849425535  0.5191533704987566
  0.9897426902985655  0.1531981488090721  0.3627140267014712
  0.5811203956251901  0.9178252020370112  0.8963054507099796
  0.6039883981064423  0.9765306859743573  0.7265800951124960
  0.7187681948463515  0.4663287500812527  0.6787412559080807
  0.1509292293480156  0.8495764454468829  0.3393015481564298
  0.9091169745475975  0.3897551625371773  0.4156602985671636
  0.5551763642744874  0.6981234500589357  0.4665821347542988
  0.8585279035786778  0.3399787614795060  0.7054913503381257
  0.3618006842987830  0.6476783415179578  0.4808672707459373
  0.6447637244742586  0.1882695885120108  0.8617215842560947
  0.2827435085115248  0.0933446569371318  0.4954378648479949
  0.7834808885351580  0.8621269523058197  0.1890769126364603
  0.7655337677165446  0.5715318172732086  0.2143819629536414
  0.1521048775528799  0.6636000328749232  0.3838223738851945
  0.0567251555797166  0.8257522638756976  0.8856003759277460
  0.7753368211559931  0.4328187592955207  0.9531180248985565
  0.9771206853626623  0.0736735922977524  0.5421342024984989
  0.3103967636010873  0.9517572623686597  0.1603503269305732
  0.5525278522683685  0.5664319321622239  0.7190809086612849
 -0.0009199214059349  0.9072231782422328  0.6153437868959103
  0.1162137425082559  0.2894324945549479  0.8231237223038289
  0.5090211669692408  0.3728608410236041  0.6664036749822276
  0.2466687412683838  0.2615600044407396  0.5569140839677406
  0.3094735407601766  0.9735583763190371  0.9635940227544231
  0.7380480570386170  0.1834577708775345  0.0456037244274165
  0.8552015004607402  0.6171057939408435  0.9325915536508919
  0.8699200456485344  0.1900215662859340  0.2023657513359440
  0.5071175945914395  0.4199298882916669  0.4725991963364237
  0.5631951432196032  0.3153963727716977  0.3235162142487617
  0.6298032691552632  0.5613706243961784  0.5493695841785359
  0.6936557867168804  0.7288488955108487  0.3099468635599951
  0.5013411221388989  0.7627593092007455  0.2953940555896644
  0.1670697364993781  0.7293218292721528  0.7629133569168363
  0.7723508934330825  0.7694746555748373  0.8717652074807960
  0.6320807502283253  0.7046130038422878  0.1479581525413136
  0.8760811487274784  0.7429572972287097  0.7114155440706365
  0.1185268357780265  0.2142699585289683  0.0060318156193848
  0.8858762174600373  0.9174117827058467  0.9374719410842380
  0.7229138947211490  0.8494103941230348  0.0130962298850664
  0.7308089636210696  0.0751266439570549  0.2694740197484962
  0.2246913785538935  0.5461839355168486  0.7045032315689159
  0.7941477055505156  0.5246726299411937  0.4937257221592381
  0.3920764937679254  0.2348767620795721  0.7382277110305302
  0.9556668220525353  0.0037987217832272  0.0911661787671510
  0.4429217432287729  0.5609744986535353  0.3325487250449149
  0.1355853105278013  0.1913564845037672  0.1971982019937405
  0.0332126172084392  0.7893295506504810  0.4741043137638843
  0.7274714763348864  0.3441023489509850  0.3871460756109328
  0.4401231659773372  0.7091890307839911  0.6977988987621212
  0.6349464322252373  0.9120903715414940  0.3002947393555002
  0.4384268189363487  0.8263376845646550  0.9590478417639940
  0.1566829141599377  0.8239363013923167  0.0309489900909291
  0.8143561939104185  0.1859834810831368  0.4717891878595393
  0.7073009781340170  0.8605166240290958  0.4756119786808558
  0.0388409411376556  0.2225162677339727  0.6559780740988508
  0.6776520146541039  0.5937581507746662  0.8390544208310273
  0.2813917544573928  0.2966796992145415  0.0148831197717994
  0.4828779021233284  0.6364850837276763  0.8814390445566029
  0.0640249373571232  0.6342307944829535  0.9163219072272799
  0.5251576873734978  0.9833492549445679  0.1446897991158738
  0.4604583769791956  0.3874098289842276  0.0033340926484737
  0.8851475342270917  0.7588422834338221  0.0208080724022629
  0.6383253476409264  0.1634450974559250  0.3924138269273868
  0.2392621285781027  0.5828030162199859  0.8816464641221837
  0.2126692026650398  0.5061518680512104  0.5303652451332640
  0.4826137843476651  0.0854651706063131  0.8634045961250337
  0.3897464846999524  0.5381288207663992  0.6312041921305991
  0.2186980449400870  0.8903904641310275  0.8105755298701052
  0.0147769744112121  0.0618427676834059  0.9195678736327343
  0.2609495005070068  0.5339157353645719  0.3613915469872950
  0.9353230696908307  0.2016416442074269  0.0234608837133581
  0.1596521826323732  0.3725111987406222  0.6715071205430411
  0.3131354123966431  0.1701378614109864  0.2599396205690248
  0.3212845437143915  0.7363932289593854  0.8283068495092074
  0.8407373695420690  0.7298833155317076  0.4219181259429398
  0.0898747520224112  0.5476371675756203  0.2092687298872834
  0.9668080517814683  0.5726854138875802  0.0710385980743686
  0.1834921001919069  0.2257397401332172  0.3810853594080544
  0.2192886914914080  0.1495946391139944  0.7328311713333557
  0.9462011580408904  0.3401973698749882  0.8852267878026816
  0.8302215886996097  0.3724507556880018  0.2304478799771826
  0.5525264862195483  0.9924158329810345  0.4572480969881514
  0.6841919098517599  0.5542634117990319  0.0539665860124142
  0.4070862764303854  0.9365019580381065  0.8125300589718576
  0.4862617019963446  0.5583793420697127  0.0378943391344661
  0.6461818631122012  0.3000037715367829  0.5252387309654761
  0.5978482901242091  0.7713086011848497  0.6275138524523131
  0.2813545047560432  0.5735156379885619  0.1788807310724489
  0.0667400851100081  0.2918378231690398  0.4911934593015176
  0.7580657914688881  0.8711912474736853  0.6651082277304018
  0.4556946947241380  0.6467167445592569  0.1842376648651936
  0.1663157413375521  0.6421448871055920  0.0650224588482460
  0.6140418892451874  0.7194746854429929  0.9546644726827529
  0.6906024079022341  0.2713869034961057  0.7038298774161973
  0.4559945447105507  0.8833749919151634  0.6279855868650771
  0.3334865505686311  0.3689624339868579  0.4010234284217152
  0.1491930820521271  0.7002204369443791  0.5848069333920397
  0.8520766244545808  0.1592570541727176  0.6490822142296153
  0.0045940041868663  0.3759672548275371  0.2419861030844940
  0.9347089513014089  0.3902538881752993  0.0697088572223540
  0.1281054233152508  0.3796981135028609  0.1053038366042255
  0.4554080781361038  0.1266587191534115  0.4066109055205889
  0.9239366425273016  0.6550440364019170  0.5560373024876192
  0.9887292463810945  0.0616330978181399  0.7276141600481431
  0.0210611592582797  0.6125389090761048  0.7046452142596370
  0.7001209984727279  0.3744309370582070  0.0956480155728053
  0.4325405154983955  0.0597924273562082  0.5865991627814925
 
  0.00000000E+00  0.00000000E+00  0.00000000E+00
  0.00000000E+00  0.00000000E+00  0.00000000E+00
  0.00000000E+00  0.00000000E+00  0.00000000E+00
  0.00000000E+00  0.00000000E+00  0.00000000E+00
  0.00000000E+00  0.00000000E+00  0.00000000E+00
  0.00000000E+00  0.00000000E+00  0.00000000E+00
  0.00000000E+00  0.00000000E+00  0.00000000E+00
  0.00000000E+00  0.00000000E+00  0.00000000E+00
  0.00000000E+00  0.00000000E+00  0.00000000E+00
  0.00000000E+00  0.00000000E+00  0.00000000E+00
  0.00000000E+00  0.00000000E+00  0.00000000E+00
  0.00000000E+00  0.00000000E+00  0.00000000E+00
  0.00000000E+00  0.00000000E+00  0.00000000E+00
  0.00000000E+00  0.00000000E+00  0.00000000E+00
  0.00000000E+00  0.00000000E+00  0.00000000E+00
  0.00000000E+00  0.00000000E+00  0.00000000E+00
  0.00000000E+00  0.00000000E+00  0.00000000E+00
  0.00000000E+00  0.00000000E+00  0.00000000E+00
  0.00000000E+00  0.00000000E+00  0.00000000E+00
  0.00000000E+00  0.00000000E+00  0.00000000E+00
  0.00000000E+00  0.00000000E+00  0.00000000E+00
  0.00000000E+00  0.00000000E+00  0.00000000E+00
  0.00000000E+00  0.00000000E+00  0.00000000E+00
  0.00000000E+00  0.00000000E+00  0.00000000E+00
  0.00000000E+00  0.00000000E+00  0.00000000E+00
  0.00000000E+00  0.00000000E+00  0.00000000E+00
  0.00000000E+00  0.00000000E+00  0.00000000E+00
  0.00000000E+00  0.00000000E+00  0.00000000E+00
  0.00000000E+00  0.00000000E+00  0.00000000E+00
  0.00000000E+00  0.00000000E+00  0.00000000E+00
  0.00000000E+00  0.00000000E+00  0.00000000E+00
  0.00000000E+00  0.00000000E+00  0.00000000E+00
  0.00000000E+00  0.00000000E+00  0.00000000E+00
  0.00000000E+00  0.00000000E+00  0.00000000E+00
  0.00000000E+00  0.00000000E+00  0.00000000E+00
  0.00000000E+00  0.00000000E+00  0.00000000E+00
  0.00000000E+00  0.00000000E+00  0.00000000E+00
  0.00000000E+00  0.00000000E+00  0.00000000E+00
  0.00000000E+00  0.00000000E+00  0.00000000E+00
  0.00000000E+00  0.00000000E+00  0.00000000E+00
  0.00000000E+00  0.00000000E+00  0.00000000E+00
  0.00000000E+00  0.00000000E+00  0.00000000E+00
  0.00000000E+00  0.00000000E+00  0.00000000E+00
  0.00000000E+00  0.00000000E+00  0.00000000E+00
  0.00000000E+00  0.00000000E+00  0.00000000E+00
  0.00000000E+00  0.00000000E+00  0.00000000E+00
  0.00000000E+00  0.00000000E+00  0.00000000E+00
  0.00000000E+00  0.00000000E+00  0.00000000E+00
  0.00000000E+00  0.00000000E+00  0.00000000E+00
  0.00000000E+00  0.00000000E+00  0.00000000E+00
  0.00000000E+00  0.00000000E+00  0.00000000E+00
  0.00000000E+00  0.00000000E+00  0.00000000E+00
  0.00000000E+00  0.00000000E+00  0.00000000E+00
  0.00000000E+00  0.00000000E+00  0.00000000E+00
  0.00000000E+00  0.00000000E+00  0.00000000E+00
  0.00000000E+00  0.00000000E+00  0.00000000E+00
  0.00000000E+00  0.00000000E+00  0.00000000E+00
  0.00000000E+00  0.00000000E+00  0.00000000E+00
  0.00000000E+00  0.00000000E+00  0.00000000E+00
  0.00000000E+00  0.00000000E+00  0.00000000E+00
  0.00000000E+00  0.00000000E+00  0.00000000E+00
  0.00000000E+00  0.00000000E+00  0.00000000E+00
  0.00000000E+00  0.00000000E+00  0.00000000E+00
  0.00000000E+00  0.00000000E+00  0.00000000E+00
  0.00000000E+00  0.00000000E+00  0.00000000E+00
  0.00000000E+00  0.00000000E+00  0.00000000E+00
  0.00000000E+00  0.00000000E+00  0.00000000E+00
  0.00000000E+00  0.00000000E+00  0.00000000E+00
  0.00000000E+00  0.00000000E+00  0.00000000E+00
  0.00000000E+00  0.00000000E+00  0.00000000E+00
  0.00000000E+00  0.00000000E+00  0.00000000E+00
  0.00000000E+00  0.00000000E+00  0.00000000E+00
  0.00000000E+00  0.00000000E+00  0.00000000E+00
  0.00000000E+00  0.00000000E+00  0.00000000E+00
  0.00000000E+00  0.00000000E+00  0.00000000E+00
  0.00000000E+00  0.00000000E+00  0.00000000E+00
  0.00000000E+00  0.00000000E+00  0.00000000E+00
  0.00000000E+00  0.00000000E+00  0.00000000E+00
  0.00000000E+00  0.00000000E+00  0.00000000E+00
  0.00000000E+00  0.00000000E+00  0.00000000E+00
  0.00000000E+00  0.00000000E+00  0.00000000E+00
  0.00000000E+00  0.00000000E+00  0.00000000E+00
  0.00000000E+00  0.00000000E+00  0.00000000E+00
  0.00000000E+00  0.00000000E+00  0.00000000E+00
  0.00000000E+00  0.00000000E+00  0.00000000E+00
  0.00000000E+00  0.00000000E+00  0.00000000E+00
  0.00000000E+00  0.00000000E+00  0.00000000E+00
  0.00000000E+00  0.00000000E+00  0.00000000E+00
  0.00000000E+00  0.00000000E+00  0.00000000E+00
  0.00000000E+00  0.00000000E+00  0.00000000E+00
  0.00000000E+00  0.00000000E+00  0.00000000E+00
  0.00000000E+00  0.00000000E+00  0.00000000E+00
  0.00000000E+00  0.00000000E+00  0.00000000E+00
  0.00000000E+00  0.00000000E+00  0.00000000E+00
  0.00000000E+00  0.00000000E+00  0.00000000E+00
  0.00000000E+00  0.00000000E+00  0.00000000E+00
  0.00000000E+00  0.00000000E+00  0.00000000E+00
  0.00000000E+00  0.00000000E+00  0.00000000E+00
  0.00000000E+00  0.00000000E+00  0.00000000E+00
  0.00000000E+00  0.00000000E+00  0.00000000E+00
  0.00000000E+00  0.00000000E+00  0.00000000E+00
  0.00000000E+00  0.00000000E+00  0.00000000E+00
  0.00000000E+00  0.00000000E+00  0.00000000E+00
  0.00000000E+00  0.00000000E+00  0.00000000E+00
  0.00000000E+00  0.00000000E+00  0.00000000E+00
  0.00000000E+00  0.00000000E+00  0.00000000E+00
  0.00000000E+00  0.00000000E+00  0.00000000E+00
  0.00000000E+00  0.00000000E+00  0.00000000E+00
  0.00000000E+00  0.00000000E+00  0.00000000E+00
  0.00000000E+00  0.00000000E+00  0.00000000E+00
  0.00000000E+00  0.00000000E+00  0.00000000E+00
  0.00000000E+00  0.00000000E+00  0.00000000E+00
  0.00000000E+00  0.00000000E+00  0.00000000E+00
  0.00000000E+00  0.00000000E+00  0.00000000E+00
  0.00000000E+00  0.00000000E+00  0.00000000E+00
  0.00000000E+00  0.00000000E+00  0.00000000E+00
  0.00000000E+00  0.00000000E+00  0.00000000E+00
  0.00000000E+00  0.00000000E+00  0.00000000E+00
  0.00000000E+00  0.00000000E+00  0.00000000E+00
  0.00000000E+00  0.00000000E+00  0.00000000E+00
  0.00000000E+00  0.00000000E+00  0.00000000E+00
  0.00000000E+00  0.00000000E+00  0.00000000E+00
  0.00000000E+00  0.00000000E+00  0.00000000E+00
  0.00000000E+00  0.00000000E+00  0.00000000E+00
  0.00000000E+00  0.00000000E+00  0.00000000E+00
  0.00000000E+00  0.00000000E+00  0.00000000E+00
  0.00000000E+00  0.00000000E+00  0.00000000E+00
  0.00000000E+00  0.00000000E+00  0.00000000E+00
  0.00000000E+00  0.00000000E+00  0.00000000E+00
  0.00000000E+00  0.00000000E+00  0.00000000E+00
  0.00000000E+00  0.00000000E+00  0.00000000E+00
  0.00000000E+00  0.00000000E+00  0.00000000E+00
  0.00000000E+00  0.00000000E+00  0.00000000E+00
  0.00000000E+00  0.00000000E+00  0.00000000E+00
  0.00000000E+00  0.00000000E+00  0.00000000E+00
  0.00000000E+00  0.00000000E+00  0.00000000E+00
  0.00000000E+00  0.00000000E+00  0.00000000E+00
  0.00000000E+00  0.00000000E+00  0.00000000E+00
  0.00000000E+00  0.00000000E+00  0.00000000E+00
  0.00000000E+00  0.00000000E+00  0.00000000E+00
  0.00000000E+00  0.00000000E+00  0.00000000E+00
  0.00000000E+00  0.00000000E+00  0.00000000E+00
  0.00000000E+00  0.00000000E+00  0.00000000E+00
  0.00000000E+00  0.00000000E+00  0.00000000E+00
  0.00000000E+00  0.00000000E+00  0.00000000E+00
  0.00000000E+00  0.00000000E+00  0.00000000E+00
  0.00000000E+00  0.00000000E+00  0.00000000E+00
  0.00000000E+00  0.00000000E+00  0.00000000E+00
  0.00000000E+00  0.00000000E+00  0.00000000E+00
  0.00000000E+00  0.00000000E+00  0.00000000E+00
  0.00000000E+00  0.00000000E+00  0.00000000E+00
  0.00000000E+00  0.00000000E+00  0.00000000E+00
  0.00000000E+00  0.00000000E+00  0.00000000E+00
  0.00000000E+00  0.00000000E+00  0.00000000E+00
  0.00000000E+00  0.00000000E+00  0.00000000E+00
  0.00000000E+00  0.00000000E+00  0.00000000E+00
  0.00000000E+00  0.00000000E+00  0.00000000E+00
  0.00000000E+00  0.00000000E+00  0.00000000E+00
  0.00000000E+00  0.00000000E+00  0.00000000E+00
  0.00000000E+00  0.00000000E+00  0.00000000E+00
  0.00000000E+00  0.00000000E+00  0.00000000E+00
  0.00000000E+00  0.00000000E+00  0.00000000E+00
  0.00000000E+00  0.00000000E+00  0.00000000E+00
  0.00000000E+00  0.00000000E+00  0.00000000E+00
  0.00000000E+00  0.00000000E+00  0.00000000E+00
  0.00000000E+00  0.00000000E+00  0.00000000E+00
  0.00000000E+00  0.00000000E+00  0.00000000E+00
  0.00000000E+00  0.00000000E+00  0.00000000E+00
  0.00000000E+00  0.00000000E+00  0.00000000E+00
  0.00000000E+00  0.00000000E+00  0.00000000E+00
  0.00000000E+00  0.00000000E+00  0.00000000E+00
  0.00000000E+00  0.00000000E+00  0.00000000E+00
  0.00000000E+00  0.00000000E+00  0.00000000E+00
  0.00000000E+00  0.00000000E+00  0.00000000E+00
  0.00000000E+00  0.00000000E+00  0.00000000E+00
  0.00000000E+00  0.00000000E+00  0.00000000E+00
  0.00000000E+00  0.00000000E+00  0.00000000E+00
  0.00000000E+00  0.00000000E+00  0.00000000E+00
  0.00000000E+00  0.00000000E+00  0.00000000E+00
  0.00000000E+00  0.00000000E+00  0.00000000E+00
  0.00000000E+00  0.00000000E+00  0.00000000E+00
  0.00000000E+00  0.00000000E+00  0.00000000E+00
  0.00000000E+00  0.00000000E+00  0.00000000E+00
  0.00000000E+00  0.00000000E+00  0.00000000E+00
  0.00000000E+00  0.00000000E+00  0.00000000E+00
  0.00000000E+00  0.00000000E+00  0.00000000E+00
  0.00000000E+00  0.00000000E+00  0.00000000E+00
  0.00000000E+00  0.00000000E+00  0.00000000E+00
  0.00000000E+00  0.00000000E+00  0.00000000E+00
  0.00000000E+00  0.00000000E+00  0.00000000E+00
  0.00000000E+00  0.00000000E+00  0.00000000E+00
  0.00000000E+00  0.00000000E+00  0.00000000E+00
  0.00000000E+00  0.00000000E+00  0.00000000E+00
  0.00000000E+00  0.00000000E+00  0.00000000E+00
  0.00000000E+00  0.00000000E+00  0.00000000E+00
  0.00000000E+00  0.00000000E+00  0.00000000E+00
  0.00000000E+00  0.00000000E+00  0.00000000E+00
  0.00000000E+00  0.00000000E+00  0.00000000E+00
  0.00000000E+00  0.00000000E+00  0.00000000E+00
  0.00000000E+00  0.00000000E+00  0.00000000E+00
  0.00000000E+00  0.00000000E+00  0.00000000E+00
  0.00000000E+00  0.00000000E+00  0.00000000E+00
  0.00000000E+00  0.00000000E+00  0.00000000E+00
  0.00000000E+00  0.00000000E+00  0.00000000E+00
  0.00000000E+00  0.00000000E+00  0.00000000E+00
  0.00000000E+00  0.00000000E+00  0.00000000E+00
  0.00000000E+00  0.00000000E+00  0.00000000E+00
  0.00000000E+00  0.00000000E+00  0.00000000E+00
  0.00000000E+00  0.00000000E+00  0.00000000E+00
  0.00000000E+00  0.00000000E+00  0.00000000E+00
  0.00000000E+00  0.00000000E+00  0.00000000E+00
  0.00000000E+00  0.00000000E+00  0.00000000E+00
  0.00000000E+00  0.00000000E+00  0.00000000E+00
  0.00000000E+00  0.00000000E+00  0.00000000E+00
  0.00000000E+00  0.00000000E+00  0.00000000E+00
  0.00000000E+00  0.00000000E+00  0.00000000E+00
  0.00000000E+00  0.00000000E+00  0.00000000E+00
  0.00000000E+00  0.00000000E+00  0.00000000E+00
  0.00000000E+00  0.00000000E+00  0.00000000E+00
  0.00000000E+00  0.00000000E+00  0.00000000E+00
  0.00000000E+00  0.00000000E+00  0.00000000E+00
  0.00000000E+00  0.00000000E+00  0.00000000E+00
  0.00000000E+00  0.00000000E+00  0.00000000E+00
  0.00000000E+00  0.00000000E+00  0.00000000E+00
  0.00000000E+00  0.00000000E+00  0.00000000E+00
  0.00000000E+00  0.00000000E+00  0.00000000E+00
  0.00000000E+00  0.00000000E+00  0.00000000E+00
  0.00000000E+00  0.00000000E+00  0.00000000E+00
  0.00000000E+00  0.00000000E+00  0.00000000E+00
  0.00000000E+00  0.00000000E+00  0.00000000E+00
  0.00000000E+00  0.00000000E+00  0.00000000E+00
  0.00000000E+00  0.00000000E+00  0.00000000E+00