Bond                                    
   1.00000000000000     
     5.9710099875139244    0.0000000000000000    0.0000000000000000
    -0.0000000000000000    3.3119844093817123   -0.0000000000000000
    -0.0000000000000000   -0.0000000000000000    3.3119844093817115
   Cd   Sb
     1     1
Direct
  0.2500000000000000  0.5000000000000000  0.5000000000000000
  0.7500000000000000  0.5000000000000000  0.5000000000000000
 
  0.00000000E+00  0.00000000E+00  0.00000000E+00
  0.00000000E+00  0.00000000E+00  0.00000000E+00
