In2O3 structure 47 - random placement wi
   1.00000000000000     
     8.0140842771340317    0.0336072531977159   -0.0753014584555471
     0.0337853988542406    8.1012815836055978    0.0236978665012125
    -0.0757792157155133    0.0239667645509774    7.9888486601649387
   In   Ga   O 
    14     2    24
Direct
  0.5935614117916472  0.1844514309819729  0.5929304958243407
  0.0954708413562528  0.1732739924673510  0.1107801431034616
  0.5837725583080413  0.6683968093798995  0.1299736405908760
  0.8348301878505993  0.9338421857535621  0.8770543643731727
  0.5893765020249830  0.1839692382184666  0.0928765024055167
  0.8149979538488239  0.9429579693463097  0.3770897850171195
  0.3532314382274464  0.4489027592451791  0.3511335091035050
  0.5844288817235039  0.6701620033460429  0.6230500103534524
  0.0695513828098200  0.6569804231654857  0.1311643001838547
  0.8528878407946081  0.4376051972982467  0.3577571727729776
  0.3152872045360553  0.9410018397341702  0.3820233592948270
  0.0773014915749783  0.6592581310266610  0.6351930264017227
  0.0989417426598820  0.1699692725075934  0.6016332628728307
  0.3066132280336902  0.9043481162875437  0.9018770015460618
  0.8367601612909539  0.4415469610324081  0.8499449094945035
  0.3694212872946991  0.4757480491707966  0.8508275615841185
  0.8285924287669886  0.6911731376800603  0.7541958419534467
  0.1945101189489122  0.9087509543690118  0.6491930458689907
  0.6958047083389829  0.9189594657232192  0.1135164777899789
  0.5645733015261598  0.9104106707613795  0.4985288117531752
  0.4396131795575826  0.1322505699697700  0.8275073576227996
  0.9510962699322647  0.7012287830170791  0.3848519647327961
  0.3473840363661012  0.2076709963273231  0.4732025686315424
  0.8214814643273058  0.5415703702448482  0.0775935877641274
  0.6126884995098010  0.4114285775179738  0.7475391604927353
  0.0634328240481281  0.9066666907375804  0.0133000959397975
  0.4579087060381042  0.4202680820438474  0.0826107541319487
  0.1018503633617343  0.4031545260727967  0.2477061356090360
  0.8557792661714601  0.2140560058030161  0.9624393758502947
  0.8391881105949750  0.0563665095749215  0.6385163634453548
  0.1436192444076951  0.5589108190038417  0.8914189801440315
  0.3288693666031222  0.5552090912856755  0.6049776498534527
  0.2843640298330428  0.2388064164773027  0.8292700304249649
  0.3484217243972338  0.0570098706039559  0.1329735777266023
  0.4798462510639254  0.7085638995736190  0.8775935285918521
  0.0587566025046371  0.0539943007565782  0.3524189503291240
  0.9593514031183332  0.4013405871876117  0.6236162151546338
  0.7122608342201389  0.2075263469890416  0.3393700913733610
  0.6100298376118118  0.5534886260178524  0.3812485265352450
  0.3209655856166691  0.7094176793831508  0.2412880791139713
 
  0.00000000E+00  0.00000000E+00  0.00000000E+00
  0.00000000E+00  0.00000000E+00  0.00000000E+00
  0.00000000E+00  0.00000000E+00  0.00000000E+00
  0.00000000E+00  0.00000000E+00  0.00000000E+00
  0.00000000E+00  0.00000000E+00  0.00000000E+00
  0.00000000E+00  0.00000000E+00  0.00000000E+00
  0.00000000E+00  0.00000000E+00  0.00000000E+00
  0.00000000E+00  0.00000000E+00  0.00000000E+00
  0.00000000E+00  0.00000000E+00  0.00000000E+00
  0.00000000E+00  0.00000000E+00  0.00000000E+00
  0.00000000E+00  0.00000000E+00  0.00000000E+00
  0.00000000E+00  0.00000000E+00  0.00000000E+00
  0.00000000E+00  0.00000000E+00  0.00000000E+00
  0.00000000E+00  0.00000000E+00  0.00000000E+00
  0.00000000E+00  0.00000000E+00  0.00000000E+00
  0.00000000E+00  0.00000000E+00  0.00000000E+00
  0.00000000E+00  0.00000000E+00  0.00000000E+00
  0.00000000E+00  0.00000000E+00  0.00000000E+00
  0.00000000E+00  0.00000000E+00  0.00000000E+00
  0.00000000E+00  0.00000000E+00  0.00000000E+00
  0.00000000E+00  0.00000000E+00  0.00000000E+00
  0.00000000E+00  0.00000000E+00  0.00000000E+00
  0.00000000E+00  0.00000000E+00  0.00000000E+00
  0.00000000E+00  0.00000000E+00  0.00000000E+00
  0.00000000E+00  0.00000000E+00  0.00000000E+00
  0.00000000E+00  0.00000000E+00  0.00000000E+00
  0.00000000E+00  0.00000000E+00  0.00000000E+00
  0.00000000E+00  0.00000000E+00  0.00000000E+00
  0.00000000E+00  0.00000000E+00  0.00000000E+00
  0.00000000E+00  0.00000000E+00  0.00000000E+00
  0.00000000E+00  0.00000000E+00  0.00000000E+00
  0.00000000E+00  0.00000000E+00  0.00000000E+00
  0.00000000E+00  0.00000000E+00  0.00000000E+00
  0.00000000E+00  0.00000000E+00  0.00000000E+00
  0.00000000E+00  0.00000000E+00  0.00000000E+00
  0.00000000E+00  0.00000000E+00  0.00000000E+00
  0.00000000E+00  0.00000000E+00  0.00000000E+00
  0.00000000E+00  0.00000000E+00  0.00000000E+00
  0.00000000E+00  0.00000000E+00  0.00000000E+00
  0.00000000E+00  0.00000000E+00  0.00000000E+00
