Sb                                      
   1.00000000000000     
    19.4273007964999991    0.0000000000000000    0.0000000000000000
     0.0000000000000000   19.4273007964999991    0.0000000000000000
     0.0000000000000000    0.0000000000000000   19.4273007964999991
   Sb   Te
    66   132
Direct
  0.0946877296976183  0.1606545430280306  0.3786501109742701
  0.2845242711855605  0.1567998138874955  0.6858850158199132
  0.1262268188061313  0.3939009713237596  0.0014726844691424
  0.2265586277830067  0.8038159929817965  0.8046878848555181
  0.9000361972154920  0.0643211968369215  0.7693023438015985
  0.3124723911451355  0.9391982192587633  0.4337270996634786
  0.3517067815912256  0.7142503560754747  0.6892070904770904
  0.7003984320758363  0.4257337518485613  0.4179579369745738
  0.3577697055900728  0.7448090361980775  0.3641911091044534
  0.9017103571439762  0.2315635787247459  0.2837911370250978
  0.2226340940356692  0.0611977429673303  0.2298890129498048
  0.5582833331606594  0.2644443818387145  0.6595390517837387
  0.0574249209294138  0.0658321577405943  0.9173921860082714
  0.6326917790451247  0.0586719482991356  0.9230281204224866
  0.6597830881613262  0.1380533425155477  0.3524933635976240
  0.2607027586714068  0.5539627012834245  0.3408363193482487
  0.0507167472810508  0.9497326684117766  0.5846505324815183
  0.8517483977597706  0.1409432720685260  0.9177949263162901
  0.1586773823211800  0.3665086012579479  0.7213049921819277
  0.6536967299335856  0.0679908385504362  0.6742088122400034
  0.4474698079242714  0.3939642637976561  0.3851163006181366
  0.5250452937394670  0.6588815270271908  0.0056488276268141
  0.6273011911936734  0.0750263181713677  0.2207005972934724
  0.8308485898678271  0.2992938402895220  0.0932528460264948
  0.9727140393507057  0.5336562127562843  0.9348467075440468
  0.5178140467423660  0.6063047489260782  0.3872966976360246
  0.2257081247575812  0.2412972306929930  0.8785740010292571
  0.5411640004914631  0.6899231688039364  0.6291380124123762
  0.7187981115918873  0.2719832000052662  0.7139485009883089
  0.3025524968233029  0.8720462681100187  0.9703906224705392
  0.6530553731372137  0.6324849106100388  0.9304052979627571
  0.9202506933257126  0.5203254691088617  0.1830567574747022
  0.2551523466690426  0.2717655964118464  0.1250983458761468
  0.0860577876844388  0.2820096803857126  0.2214960127120591
  0.1746929471618799  0.7594436449418751  0.1086622898121590
  0.0840724998582587  0.7821524419742190  0.3099755661641908
  0.1484879704528410  0.6042401417104344  0.0235777053430439
  0.5061621443994682  0.6809247399177849  0.7760626089636347
  0.1558632001586560  0.3985441694535368  0.4521126944288980
  0.5116486561139908  0.2904953428182324  0.2549639726708790
  0.6297702050553085  0.7165560565543316  0.2025288860473538
  0.4392777590899897  0.4899201804724242  0.1859912665949608
  0.1329747546645521  0.7199089009498749  0.6299809090494293
  0.8183477343130932  0.3885656012980689  0.8699681430515653
  0.6327780895449564  0.3168786035308742  0.8760483642646051
  0.2541606927039055  0.8727099925450474  0.1662192409616026
  0.9622825425234183  0.2548454237512630  0.6520061498649454
  0.9286082582491915  0.4773161881983157  0.6852657020883584
  0.4246801299748455  0.0731379424019494  0.5897940916755928
  0.7304126727869402  0.5968879095811062  0.1447671429492132
  0.6520700868524116  0.7421188392945695  0.4786981772935590
  0.1494604303954716  0.4530149689705922  0.3119053896463342
  0.2973755093724364  0.6611129734910719  0.9319732986041345
  0.6518373610929444  0.5900556365633065  0.6550201418832984
  0.9059816298121603  0.3840981287501037  0.4488373590468910
  0.4014604219685154  0.2034358633494620  0.5166379653753452
  0.0465405982722729  0.6007833241626841  0.1970324337359770
  0.9281551678134221  0.7784532382778053  0.7344334941369510
  0.0300288560605608  0.9912227226436059  0.7900166804262483
  0.5996696360808116  0.9080490621733972  0.7845215322550345
  0.4106517274165213  0.4486367177649555  0.9639692620461986
  0.5459236612597778  0.4627016334570726  0.5738865683855607
  0.7803137006802316  0.7816560040129943  0.7808739164034364
  0.8516825386593325  0.9365638948922097  0.9097426333642034
  0.7870614455339151  0.4685668881761984  0.0819325324497058
  0.6981499264484796  0.8435804902840474  0.2514647213113790
  0.9062973117044137  0.5102087057933176  0.3319088094070679
  0.0282677222722683  0.1419996324953914  0.2454352758498146
  0.2455592739706276  0.3736812755882184  0.6029050038762875
  0.0697465375803787  0.1939075979044276  0.5662521767808073
  0.4343691759735648  0.9157517640345318  0.7827964359307700
  0.9386209478383876  0.0362264474008214  0.9970006428542675
  0.5133771793314068  0.8009938719827403  0.2262712550819188
  0.6000079519932271  0.4496640829542002  0.9362388686378935
  0.9943024895491561  0.9577781055493162  0.4457395152885013
  0.8210846873414894  0.1753209740760866  0.1719184530461604
  0.9740200857875365  0.5420981924331016  0.5180091521352921
  0.9425069806597932  0.0775184309968111  0.6267733409678584
  0.3996529308488661  0.9790220391303990  0.9377426354264387
  0.3328098592830173  0.4190956258849212  0.2955576919996759
  0.2295979219242312  0.2036883320689711  0.2633459791460098
  0.2838757484666061  0.0661216644955545  0.3636145001989206
  0.9108784547931634  0.8216093586406643  0.3108695603735541
  0.4355784770732569  0.8792794220239131  0.6390062148333868
  0.5419534385353657  0.3733747791630648  0.7633288778028557
  0.3420629161156512  0.0471908770459635  0.1456526782059626
  0.9145280574125820  0.2616771058379044  0.9780883437499739
  0.2393621124122376  0.6508000204910829  0.7559590090994917
  0.2027843958810962  0.9492934274658040  0.8632138725972709
  0.1127984192536502  0.9199515822331534  0.9750110527524853
  0.6007311448679431  0.7588568768402126  0.8696958544073681
  0.7414702109674067  0.4573826166342769  0.7629536931421796
  0.7379176226274140  0.3921607936965543  0.2114028545109292
  0.3153688834715851  0.4683722144604445  0.8500741366693489
  0.0483562456512203  0.8320013819551519  0.1312361088424794
  0.8124046720277391  0.7905101066252627  0.9340371747856651
  0.5110976842643709  0.2591917459460120  0.9389867274574613
  0.0988859806492997  0.9139351265066935  0.2435414189960738
  0.4426308083571868  0.0003422913928119  0.4647874434900032
  0.7283164625379115  0.9554692051192504  0.5919844178427951
  0.1112981519521412  0.8359003065094583  0.7151183271304546
  0.6852409678115805  0.2719938733838774  0.0341699473769026
  0.8092594660881787  0.0067416434953458  0.2578852906361888
  0.9344808286243165  0.6919115076599027  0.8770712564930108
  0.7891120668146883  0.7962515010083848  0.4932337354037841
  0.8114024979072454  0.5312174756047483  0.9422837460313715
  0.2187785927635417  0.9781485965763039  0.0653908220017456
  0.5232962259920342  0.1111233930680697  0.0033409329632406
  0.5533765068055558  0.5667769122602166  0.1179927903627984
  0.5195795747179730  0.0371859576304630  0.7828648252790984
  0.8072421611485723  0.1128225832649363  0.3601262146727109
  0.2695227677983425  0.3152751754818013  0.4123935167136992
  0.1715543866598637  0.8110174550436398  0.4252880388433269
  0.5019884900904756  0.0900866099698305  0.2969202692444100
  0.2546047800895010  0.2081177727810868  0.5176827872930829
  0.5464804196942694  0.4695293890890184  0.3053264149130541
  0.8086147779465520  0.4857268293735828  0.4953596704232766
  0.1521689269343867  0.2129355991685244  0.7281695069013239
  0.0251278595032431  0.3857161066369414  0.6189848101491151
  0.0333871668543821  0.5837595626667209  0.7151464678125805
  0.6503444417643109  0.2321609390403410  0.2353034893258368
  0.7602562683365264  0.9286311734222039  0.7631070802205784
  0.0087292659472311  0.6445227947883154  0.0449975781996059
  0.2830185869054205  0.8790076530180002  0.6530396137923944
  0.8872389192791843  0.6766938103106455  0.3341615952037671
  0.8402251705911112  0.6095635561474708  0.8031582771116064
  0.3829631370471347  0.8810975085467376  0.3160194649514310
  0.4377575106247917  0.1755021866244348  0.2019864553679867
  0.3783708049794470  0.7733072998190309  0.8847617517812623
  0.4651101696462661  0.7361870264177242  0.4672215470250691
  0.0961670553557212  0.3152023964734667  0.8797047882645970
  0.5624918776269681  0.1189311775149378  0.5673618352817726
  0.9219320941293745  0.8551350936286184  0.6037161782189528
  0.4434708690280402  0.5824778914684288  0.9064469721467603
  0.9554803302118913  0.4179685727911675  0.8215592136038481
  0.3410855707127851  0.6686916044698208  0.0772707180000367
  0.1944319847330931  0.6568095620281653  0.4449883800515622
  0.6282440305133647  0.5523712840782480  0.4889600344891818
  0.7641799557874123  0.9477746876185194  0.0608053143154947
  0.4351998921342997  0.6695095477462090  0.2618857737834901
  0.6458314332227175  0.4168547648703012  0.0707810699643474
  0.4301576560333302  0.5914418096795657  0.6545414541185579
  0.0529769942812877  0.8080891056221091  0.5263530117500821
  0.5711003013522458  0.8615866609645977  0.4517668303847202
  0.9831163521947914  0.4189567158368703  0.0310650066333693
  0.4512425278987280  0.2470310718589843  0.8016312480713239
  0.7919569049189761  0.3786156206023676  0.6421649013058897
  0.5103132184805474  0.9621185970727737  0.0308822196357710
  0.3267634232410757  0.5049645101327087  0.0731288749420997
  0.7344237357108199  0.1218358068426610  0.0132872650670706
  0.7401241187729894  0.7110186402710141  0.6367847281877914
  0.1101590182164927  0.5468871471160526  0.5984587081853974
  0.9494364248783214  0.3432711164110742  0.1937158597024293
  0.1475240818406292  0.5093799398077508  0.1428037737069587
  0.8632427752784082  0.6579081648084539  0.1690979951836908
  0.9750225881417336  0.8731732979584521  0.8551784842144343
  0.2136560149625097  0.0279673451995563  0.6905654707935156
  0.3279130256964109  0.1701140011578275  0.0506068272869982
  0.9078878225739615  0.6678888511136734  0.4855148484899061
  0.8405666734267925  0.0369049367805090  0.5307355492429195
  0.3740712498462173  0.8179561271034075  0.0947724447651552
  0.9540530982803261  0.9819962499673522  0.2619531269018935
  0.9883835624625732  0.1703947151166716  0.8253023612883510
  0.8389214507336078  0.2504926612230420  0.7920023158382108
  0.7480060551289611  0.5066023583883847  0.2978169356792009
  0.2935201399096741  0.3405239216449090  0.7876156916963666
  0.1825582090861104  0.0215725255038635  0.5414791825710665
  0.5996282278682088  0.9221069885027049  0.1768815757921303
  0.5964678021974592  0.5657066153515231  0.7919325318903034
  0.1229260125974818  0.0024063410414428  0.3936905202178735
  0.8013677146407545  0.8947321968162356  0.3851525594013836
  0.8183881298923268  0.8584689104749543  0.1670029851560741
  0.5954545720147024  0.8686803481246628  0.6441848864416002
  0.4233917990576188  0.4907081377719891  0.4958121646161189
  0.3086110114074714  0.3099290506294636  0.9826711862943895
  0.6964675144960353  0.7132037951592878  0.0557688510701411
  0.6846907941126190  0.8683523743259514  0.9687815778333757
  0.2690501840015713  0.7549889613028142  0.5683454437902569
  0.3496897880795800  0.1320040282779544  0.8158975999091709
  0.6414915795597622  0.1539667244267022  0.8116453815273559
  0.2536056220328504  0.5190749466337508  0.4816238279777423
  0.1245392193129220  0.5191617650319671  0.9046450984234866
  0.9743600154764778  0.1516319288462213  0.4636042607414481
  0.6744714666961400  0.9705868246844958  0.4534447945956686
  0.6518726441230740  0.6663663792835521  0.3492981278319363
  0.1993743610262797  0.7124054500748969  0.2480991072977332
  0.1213289393757222  0.2484827709909041  0.0706671227808258
  0.4125853968182156  0.2872887795332133  0.6370798145753795
  0.0457516444170807  0.3117606486869136  0.3704507807327246
  0.4712674593223269  0.3560948096106387  0.1302479266769794
  0.7971413398937912  0.3110866097705269  0.3782854814669179
  0.8633509654221143  0.2717216270601099  0.5451560746355710
  0.7445605557473058  0.1662661589593952  0.6136757201897041
  0.5967448973321083  0.3339649661750173  0.5289350079247370
  0.0528505780676340  0.5574201425090166  0.3480886454773895
  0.1694678582387965  0.7462294521200548  0.9317770408479973
  0.2421077375540150  0.5048576164641219  0.6755761224717034
  0.8753707410785978  0.6507018591282687  0.6570262981874677
 
  0.00000000E+00  0.00000000E+00  0.00000000E+00
  0.00000000E+00  0.00000000E+00  0.00000000E+00
  0.00000000E+00  0.00000000E+00  0.00000000E+00
  0.00000000E+00  0.00000000E+00  0.00000000E+00
  0.00000000E+00  0.00000000E+00  0.00000000E+00
  0.00000000E+00  0.00000000E+00  0.00000000E+00
  0.00000000E+00  0.00000000E+00  0.00000000E+00
  0.00000000E+00  0.00000000E+00  0.00000000E+00
  0.00000000E+00  0.00000000E+00  0.00000000E+00
  0.00000000E+00  0.00000000E+00  0.00000000E+00
  0.00000000E+00  0.00000000E+00  0.00000000E+00
  0.00000000E+00  0.00000000E+00  0.00000000E+00
  0.00000000E+00  0.00000000E+00  0.00000000E+00
  0.00000000E+00  0.00000000E+00  0.00000000E+00
  0.00000000E+00  0.00000000E+00  0.00000000E+00
  0.00000000E+00  0.00000000E+00  0.00000000E+00
  0.00000000E+00  0.00000000E+00  0.00000000E+00
  0.00000000E+00  0.00000000E+00  0.00000000E+00
  0.00000000E+00  0.00000000E+00  0.00000000E+00
  0.00000000E+00  0.00000000E+00  0.00000000E+00
  0.00000000E+00  0.00000000E+00  0.00000000E+00
  0.00000000E+00  0.00000000E+00  0.00000000E+00
  0.00000000E+00  0.00000000E+00  0.00000000E+00
  0.00000000E+00  0.00000000E+00  0.00000000E+00
  0.00000000E+00  0.00000000E+00  0.00000000E+00
  0.00000000E+00  0.00000000E+00  0.00000000E+00
  0.00000000E+00  0.00000000E+00  0.00000000E+00
  0.00000000E+00  0.00000000E+00  0.00000000E+00
  0.00000000E+00  0.00000000E+00  0.00000000E+00
  0.00000000E+00  0.00000000E+00  0.00000000E+00
  0.00000000E+00  0.00000000E+00  0.00000000E+00
  0.00000000E+00  0.00000000E+00  0.00000000E+00
  0.00000000E+00  0.00000000E+00  0.00000000E+00
  0.00000000E+00  0.00000000E+00  0.00000000E+00
  0.00000000E+00  0.00000000E+00  0.00000000E+00
  0.00000000E+00  0.00000000E+00  0.00000000E+00
  0.00000000E+00  0.00000000E+00  0.00000000E+00
  0.00000000E+00  0.00000000E+00  0.00000000E+00
  0.00000000E+00  0.00000000E+00  0.00000000E+00
  0.00000000E+00  0.00000000E+00  0.00000000E+00
  0.00000000E+00  0.00000000E+00  0.00000000E+00
  0.00000000E+00  0.00000000E+00  0.00000000E+00
  0.00000000E+00  0.00000000E+00  0.00000000E+00
  0.00000000E+00  0.00000000E+00  0.00000000E+00
  0.00000000E+00  0.00000000E+00  0.00000000E+00
  0.00000000E+00  0.00000000E+00  0.00000000E+00
  0.00000000E+00  0.00000000E+00  0.00000000E+00
  0.00000000E+00  0.00000000E+00  0.00000000E+00
  0.00000000E+00  0.00000000E+00  0.00000000E+00
  0.00000000E+00  0.00000000E+00  0.00000000E+00
  0.00000000E+00  0.00000000E+00  0.00000000E+00
  0.00000000E+00  0.00000000E+00  0.00000000E+00
  0.00000000E+00  0.00000000E+00  0.00000000E+00
  0.00000000E+00  0.00000000E+00  0.00000000E+00
  0.00000000E+00  0.00000000E+00  0.00000000E+00
  0.00000000E+00  0.00000000E+00  0.00000000E+00
  0.00000000E+00  0.00000000E+00  0.00000000E+00
  0.00000000E+00  0.00000000E+00  0.00000000E+00
  0.00000000E+00  0.00000000E+00  0.00000000E+00
  0.00000000E+00  0.00000000E+00  0.00000000E+00
  0.00000000E+00  0.00000000E+00  0.00000000E+00
  0.00000000E+00  0.00000000E+00  0.00000000E+00
  0.00000000E+00  0.00000000E+00  0.00000000E+00
  0.00000000E+00  0.00000000E+00  0.00000000E+00
  0.00000000E+00  0.00000000E+00  0.00000000E+00
  0.00000000E+00  0.00000000E+00  0.00000000E+00
  0.00000000E+00  0.00000000E+00  0.00000000E+00
  0.00000000E+00  0.00000000E+00  0.00000000E+00
  0.00000000E+00  0.00000000E+00  0.00000000E+00
  0.00000000E+00  0.00000000E+00  0.00000000E+00
  0.00000000E+00  0.00000000E+00  0.00000000E+00
  0.00000000E+00  0.00000000E+00  0.00000000E+00
  0.00000000E+00  0.00000000E+00  0.00000000E+00
  0.00000000E+00  0.00000000E+00  0.00000000E+00
  0.00000000E+00  0.00000000E+00  0.00000000E+00
  0.00000000E+00  0.00000000E+00  0.00000000E+00
  0.00000000E+00  0.00000000E+00  0.00000000E+00
  0.00000000E+00  0.00000000E+00  0.00000000E+00
  0.00000000E+00  0.00000000E+00  0.00000000E+00
  0.00000000E+00  0.00000000E+00  0.00000000E+00
  0.00000000E+00  0.00000000E+00  0.00000000E+00
  0.00000000E+00  0.00000000E+00  0.00000000E+00
  0.00000000E+00  0.00000000E+00  0.00000000E+00
  0.00000000E+00  0.00000000E+00  0.00000000E+00
  0.00000000E+00  0.00000000E+00  0.00000000E+00
  0.00000000E+00  0.00000000E+00  0.00000000E+00
  0.00000000E+00  0.00000000E+00  0.00000000E+00
  0.00000000E+00  0.00000000E+00  0.00000000E+00
  0.00000000E+00  0.00000000E+00  0.00000000E+00
  0.00000000E+00  0.00000000E+00  0.00000000E+00
  0.00000000E+00  0.00000000E+00  0.00000000E+00
  0.00000000E+00  0.00000000E+00  0.00000000E+00
  0.00000000E+00  0.00000000E+00  0.00000000E+00
  0.00000000E+00  0.00000000E+00  0.00000000E+00
  0.00000000E+00  0.00000000E+00  0.00000000E+00
  0.00000000E+00  0.00000000E+00  0.00000000E+00
  0.00000000E+00  0.00000000E+00  0.00000000E+00
  0.00000000E+00  0.00000000E+00  0.00000000E+00
  0.00000000E+00  0.00000000E+00  0.00000000E+00
  0.00000000E+00  0.00000000E+00  0.00000000E+00
  0.00000000E+00  0.00000000E+00  0.00000000E+00
  0.00000000E+00  0.00000000E+00  0.00000000E+00
  0.00000000E+00  0.00000000E+00  0.00000000E+00
  0.00000000E+00  0.00000000E+00  0.00000000E+00
  0.00000000E+00  0.00000000E+00  0.00000000E+00
  0.00000000E+00  0.00000000E+00  0.00000000E+00
  0.00000000E+00  0.00000000E+00  0.00000000E+00
  0.00000000E+00  0.00000000E+00  0.00000000E+00
  0.00000000E+00  0.00000000E+00  0.00000000E+00
  0.00000000E+00  0.00000000E+00  0.00000000E+00
  0.00000000E+00  0.00000000E+00  0.00000000E+00
  0.00000000E+00  0.00000000E+00  0.00000000E+00
  0.00000000E+00  0.00000000E+00  0.00000000E+00
  0.00000000E+00  0.00000000E+00  0.00000000E+00
  0.00000000E+00  0.00000000E+00  0.00000000E+00
  0.00000000E+00  0.00000000E+00  0.00000000E+00
  0.00000000E+00  0.00000000E+00  0.00000000E+00
  0.00000000E+00  0.00000000E+00  0.00000000E+00
  0.00000000E+00  0.00000000E+00  0.00000000E+00
  0.00000000E+00  0.00000000E+00  0.00000000E+00
  0.00000000E+00  0.00000000E+00  0.00000000E+00
  0.00000000E+00  0.00000000E+00  0.00000000E+00
  0.00000000E+00  0.00000000E+00  0.00000000E+00
  0.00000000E+00  0.00000000E+00  0.00000000E+00
  0.00000000E+00  0.00000000E+00  0.00000000E+00
  0.00000000E+00  0.00000000E+00  0.00000000E+00
  0.00000000E+00  0.00000000E+00  0.00000000E+00
  0.00000000E+00  0.00000000E+00  0.00000000E+00
  0.00000000E+00  0.00000000E+00  0.00000000E+00
  0.00000000E+00  0.00000000E+00  0.00000000E+00
  0.00000000E+00  0.00000000E+00  0.00000000E+00
  0.00000000E+00  0.00000000E+00  0.00000000E+00
  0.00000000E+00  0.00000000E+00  0.00000000E+00
  0.00000000E+00  0.00000000E+00  0.00000000E+00
  0.00000000E+00  0.00000000E+00  0.00000000E+00
  0.00000000E+00  0.00000000E+00  0.00000000E+00
  0.00000000E+00  0.00000000E+00  0.00000000E+00
  0.00000000E+00  0.00000000E+00  0.00000000E+00
  0.00000000E+00  0.00000000E+00  0.00000000E+00
  0.00000000E+00  0.00000000E+00  0.00000000E+00
  0.00000000E+00  0.00000000E+00  0.00000000E+00
  0.00000000E+00  0.00000000E+00  0.00000000E+00
  0.00000000E+00  0.00000000E+00  0.00000000E+00
  0.00000000E+00  0.00000000E+00  0.00000000E+00
  0.00000000E+00  0.00000000E+00  0.00000000E+00
  0.00000000E+00  0.00000000E+00  0.00000000E+00
  0.00000000E+00  0.00000000E+00  0.00000000E+00
  0.00000000E+00  0.00000000E+00  0.00000000E+00
  0.00000000E+00  0.00000000E+00  0.00000000E+00
  0.00000000E+00  0.00000000E+00  0.00000000E+00
  0.00000000E+00  0.00000000E+00  0.00000000E+00
  0.00000000E+00  0.00000000E+00  0.00000000E+00
  0.00000000E+00  0.00000000E+00  0.00000000E+00
  0.00000000E+00  0.00000000E+00  0.00000000E+00
  0.00000000E+00  0.00000000E+00  0.00000000E+00
  0.00000000E+00  0.00000000E+00  0.00000000E+00
  0.00000000E+00  0.00000000E+00  0.00000000E+00
  0.00000000E+00  0.00000000E+00  0.00000000E+00
  0.00000000E+00  0.00000000E+00  0.00000000E+00
  0.00000000E+00  0.00000000E+00  0.00000000E+00
  0.00000000E+00  0.00000000E+00  0.00000000E+00
  0.00000000E+00  0.00000000E+00  0.00000000E+00
  0.00000000E+00  0.00000000E+00  0.00000000E+00
  0.00000000E+00  0.00000000E+00  0.00000000E+00
  0.00000000E+00  0.00000000E+00  0.00000000E+00
  0.00000000E+00  0.00000000E+00  0.00000000E+00
  0.00000000E+00  0.00000000E+00  0.00000000E+00
  0.00000000E+00  0.00000000E+00  0.00000000E+00
  0.00000000E+00  0.00000000E+00  0.00000000E+00
  0.00000000E+00  0.00000000E+00  0.00000000E+00
  0.00000000E+00  0.00000000E+00  0.00000000E+00
  0.00000000E+00  0.00000000E+00  0.00000000E+00
  0.00000000E+00  0.00000000E+00  0.00000000E+00
  0.00000000E+00  0.00000000E+00  0.00000000E+00
  0.00000000E+00  0.00000000E+00  0.00000000E+00
  0.00000000E+00  0.00000000E+00  0.00000000E+00
  0.00000000E+00  0.00000000E+00  0.00000000E+00
  0.00000000E+00  0.00000000E+00  0.00000000E+00
  0.00000000E+00  0.00000000E+00  0.00000000E+00
  0.00000000E+00  0.00000000E+00  0.00000000E+00
  0.00000000E+00  0.00000000E+00  0.00000000E+00
  0.00000000E+00  0.00000000E+00  0.00000000E+00
  0.00000000E+00  0.00000000E+00  0.00000000E+00
  0.00000000E+00  0.00000000E+00  0.00000000E+00
  0.00000000E+00  0.00000000E+00  0.00000000E+00
  0.00000000E+00  0.00000000E+00  0.00000000E+00
  0.00000000E+00  0.00000000E+00  0.00000000E+00
  0.00000000E+00  0.00000000E+00  0.00000000E+00
  0.00000000E+00  0.00000000E+00  0.00000000E+00
  0.00000000E+00  0.00000000E+00  0.00000000E+00
  0.00000000E+00  0.00000000E+00  0.00000000E+00
  0.00000000E+00  0.00000000E+00  0.00000000E+00
  0.00000000E+00  0.00000000E+00  0.00000000E+00
  0.00000000E+00  0.00000000E+00  0.00000000E+00
  0.00000000E+00  0.00000000E+00  0.00000000E+00
  0.00000000E+00  0.00000000E+00  0.00000000E+00
  0.00000000E+00  0.00000000E+00  0.00000000E+00
  0.00000000E+00  0.00000000E+00  0.00000000E+00
