Te3
1.0
   2.1482025999999999    3.8202876100000003    0.0037275400000000
  -2.1482025999999999    3.8202876100000003    0.0037275400000000
   0.0000000000000000    0.0884598200000000    5.9761798099999996
Te
3
direct
   0.3094466100000000    0.3094466100000000    0.6611905100000001 Te
   0.6905533900000000    0.6905533900000000    0.3388094900000000 Te
  -0.0000000000000000   -0.0000000000000000   -0.0000000000000000 Te
