In2O3 structure 27 - random placement wi
   1.00000000000000     
     8.0726368884873434    0.0524009573921693    0.0083632222362014
     0.0522695994635523    8.0371691204489721   -0.0411229465427242
     0.0085510332219547   -0.0416218045253718    8.1154625164550183
   In   Ga   O 
    14     2    24
Direct
  0.3624361900783271  0.5035789082894766  0.3352398425234142
  0.9053547331569902  0.0230957627953003  0.7883406062056864
  0.4061266647800537  0.0266330482144781  0.8034650709952302
  0.8856973004973128  0.5126984344735703  0.3085344347254946
  0.6325591465677007  0.7846532959468249  0.0535614589532614
  0.1187681430596186  0.7409942780938863  0.5727478294690869
  0.1247039749945387  0.7429870916836379  0.0571744000070993
  0.9229903009300742  0.0273763838364900  0.3051950897740099
  0.8642948613437298  0.5171263496454799  0.8025686751103080
  0.4133354606745598  0.0181874711061951  0.3058807991650809
  0.6187660006568407  0.7488689204929955  0.5362044339531806
  0.1339562657224747  0.2417317643617025  0.5786739135387222
  0.1315994420377251  0.2420237320555785  0.0688686154306453
  0.3490589146093726  0.5176897069958812  0.8214599884315845
  0.6418559261928323  0.1997229841117658  0.0904726477149325
  0.6240465176899335  0.2519047951979587  0.5416295790186751
  0.8622467627641015  0.6383621192950102  0.0632813803361785
  0.3783096176033922  0.6424026260096056  0.5803853480287842
  0.1118704999560904  0.4759289120713461  0.4530906101612473
  0.6658225020257618  0.0229766870811901  0.9000454653781631
  0.2377313545361730  0.4910916727531003  0.0972386899656144
  0.6669226532038550  0.3552267584532700  0.9043814506537373
  0.8453645366744169  0.7752320139217588  0.6749727506622136
  0.1622447708334178  0.9869111307161731  0.6786057896838500
  0.3856539377117727  0.7876144554279918  0.9377990715938296
  0.3945098695734330  0.2850957462380421  0.6783535607033215
  0.5880440634926885  0.5244820161911150  0.9241296574939071
  0.8700124086530323  0.2753405653970447  0.1817417900416913
  0.8527707070271049  0.1491668138358619  0.5445758174143833
  0.5267328199053409  0.0086557637983944  0.5529174776065204
  0.0253535122674222  0.9901440178715717  0.0356636581723109
  0.6741028103051789  0.9952421254048431  0.2233869465454674
  0.1734286720638778  0.1340259444741463  0.3299219307188324
  0.5292926495264538  0.2900123306210673  0.3224898683577635
  0.0177656088652185  0.2836151613208173  0.8222270418062223
  0.3921741143935122  0.1432198116320080  0.0522625092153959
  0.4969741578898166  0.7344902695121647  0.2874432142474532
  0.1071250932349272  0.6263071202126085  0.8105726184247786
  0.7303963613776077  0.4813288191928535  0.5445239309620078
  0.0235769556837653  0.7742794410083320  0.3265092387701856
 
  0.00000000E+00  0.00000000E+00  0.00000000E+00
  0.00000000E+00  0.00000000E+00  0.00000000E+00
  0.00000000E+00  0.00000000E+00  0.00000000E+00
  0.00000000E+00  0.00000000E+00  0.00000000E+00
  0.00000000E+00  0.00000000E+00  0.00000000E+00
  0.00000000E+00  0.00000000E+00  0.00000000E+00
  0.00000000E+00  0.00000000E+00  0.00000000E+00
  0.00000000E+00  0.00000000E+00  0.00000000E+00
  0.00000000E+00  0.00000000E+00  0.00000000E+00
  0.00000000E+00  0.00000000E+00  0.00000000E+00
  0.00000000E+00  0.00000000E+00  0.00000000E+00
  0.00000000E+00  0.00000000E+00  0.00000000E+00
  0.00000000E+00  0.00000000E+00  0.00000000E+00
  0.00000000E+00  0.00000000E+00  0.00000000E+00
  0.00000000E+00  0.00000000E+00  0.00000000E+00
  0.00000000E+00  0.00000000E+00  0.00000000E+00
  0.00000000E+00  0.00000000E+00  0.00000000E+00
  0.00000000E+00  0.00000000E+00  0.00000000E+00
  0.00000000E+00  0.00000000E+00  0.00000000E+00
  0.00000000E+00  0.00000000E+00  0.00000000E+00
  0.00000000E+00  0.00000000E+00  0.00000000E+00
  0.00000000E+00  0.00000000E+00  0.00000000E+00
  0.00000000E+00  0.00000000E+00  0.00000000E+00
  0.00000000E+00  0.00000000E+00  0.00000000E+00
  0.00000000E+00  0.00000000E+00  0.00000000E+00
  0.00000000E+00  0.00000000E+00  0.00000000E+00
  0.00000000E+00  0.00000000E+00  0.00000000E+00
  0.00000000E+00  0.00000000E+00  0.00000000E+00
  0.00000000E+00  0.00000000E+00  0.00000000E+00
  0.00000000E+00  0.00000000E+00  0.00000000E+00
  0.00000000E+00  0.00000000E+00  0.00000000E+00
  0.00000000E+00  0.00000000E+00  0.00000000E+00
  0.00000000E+00  0.00000000E+00  0.00000000E+00
  0.00000000E+00  0.00000000E+00  0.00000000E+00
  0.00000000E+00  0.00000000E+00  0.00000000E+00
  0.00000000E+00  0.00000000E+00  0.00000000E+00
  0.00000000E+00  0.00000000E+00  0.00000000E+00
  0.00000000E+00  0.00000000E+00  0.00000000E+00
  0.00000000E+00  0.00000000E+00  0.00000000E+00
  0.00000000E+00  0.00000000E+00  0.00000000E+00
