Amorphous Sb                            
   1.00000000000000     
    20.8243376076287738    0.0000000000000000    0.0000000000000000
     0.0000000000000000   20.8243376076287738    0.0000000000000000
     0.0000000000000000    0.0000000000000000   20.8243376076287738
   Pb   S 
   150   150
Direct
  0.3646105084155321  0.9102842777802761  0.6967743164611850
  0.3170311631027377  0.9743428117749341  0.0714795532263913
  0.8665411438833074  0.2035088312875540  0.7662101473179206
  0.5700830922250297  0.8971524779245023  0.9728067422781104
  0.1246991914541089  0.4677483986567544  0.4311744445612213
  0.0756177876317699  0.7327860345597947  0.1684866196116240
  0.8805141285053731  0.5616925982709378  0.3032363637871938
  0.2319644403149828  0.6614714057006552  0.6895785975232220
  0.7566045170218475  0.3838236498356113  0.4206495146910400
  0.5827433148214026  0.6662681747818646  0.7002241485547253
  0.3811924115540919  0.4475239471547819  0.1648144175521805
  0.7476405059644767  0.2541130209006441  0.5933132441672907
  0.2253945758562663  0.7897403387911025  0.5688129458825998
  0.0116699860149680  0.6317846951204038  0.9991907728584764
  0.1908934997229648  0.4854212462368288  0.1696830756408216
  0.1548937022343083  0.7395625189422868  0.9597130713315376
  0.8554392734236234  0.0799566012480016  0.6232787997861592
  0.3996799850268887  0.2359861356808365  0.9243917447029403
  0.8273825446599081  0.8159178840443831  0.0183064763378271
  0.5185327171498839  0.2538543937686654  0.6000218089571770
  0.5066102053806246  0.0271874831585500  0.0849277259926761
  0.8240993411725674  0.2366901656761853  0.0588189838192827
  0.9169075920172332  0.8820285775314279  0.4532536543468825
  0.6731316825460034  0.2183669714502577  0.3937241125250092
  0.2953411246703810  0.7949248909767402  0.8279362640987962
  0.1700955413755847  0.1086498461635692  0.4492868549752946
  0.9618601629589959  0.8492636781864223  0.8576273692045411
  0.2391220171941712  0.6868929913754070  0.3024746236029101
  0.3320999490138596  0.1450317505546727  0.7773487127260631
  0.6499596477808625  0.4131680762886052  0.9816145516003388
  0.7314840199682309  0.8573035349190559  0.8633684561315491
  0.0087697743481717  0.3876977499389213  0.8312066748103371
  0.9738174059447452  0.7208730170669665  0.3183491477437512
  0.3419231342802209  0.9425130983750443  0.9059946079142948
  0.8731323998812712  0.6668319170811733  0.1368272859651297
  0.6422370573913627  0.1598015666847276  0.0169657521600600
  0.7939024214950465  0.1198305501937584  0.9091847837770500
  0.2153829323495871  0.8799862347201310  0.9928679127047327
  0.4879090994316723  0.4455844151521966  0.9425584422026653
  0.0173404033941731  0.2175954675414641  0.6288062097250339
  0.8056380340335115  0.8998060675886456  0.2450021063433095
  0.3739049864043955  0.7041187260764932  0.4425560946016716
  0.7834696856872684  0.8985683053703183  0.5604233973540749
  0.7704095484574286  0.5125501308389834  0.5411841938584921
  0.7653584360136546  0.0851939585915594  0.2027560734870161
  0.0462591769821287  0.1598995867027171  0.3546629265663958
  0.6489909719019088  0.7676240233982944  0.0881102375075281
  0.6424914828699493  0.6456262565434983  0.9183967310799833
  0.0713175452814227  0.7194953910817342  0.7738265327283689
  0.0333689804717077  0.0185583890637414  0.5272271664324389
  0.4967616650372396  0.1501326292947875  0.7725923130575104
  0.9339870828928326  0.1062308329497013  0.1601765974382206
  0.5406502210512137  0.9153391090593304  0.5493412320459661
  0.6526247445563367  0.8593443469546932  0.7036682774513181
  0.3115539250746256  0.6347554809623213  0.9099852937479570
  0.9694177500323299  0.5220439387231807  0.5453742871660074
  0.6911372125168452  0.5429231562865350  0.3550352629383213
  0.6120648888241843  0.1058578755392086  0.5651324195198971
  0.3279281662570485  0.0221669874313313  0.2950258247915046
  0.6049454913118586  0.8719638117474409  0.2479262746022885
  0.0140791986676338  0.7650255510560094  0.5932693002665083
  0.1704555177136158  0.9542177024189852  0.1865905790703261
  0.4885780438178451  0.5145303399623280  0.4182499629246475
  0.3081993694203053  0.4768227408196257  0.0079349210065407
  0.0295810752801223  0.0195023465612362  0.9348627179201754
  0.0626974568633740  0.5523034854733337  0.2960955667327230
  0.6811718313994871  0.9692098146478891  0.0915830883559758
  0.2232944572689254  0.2943982962198320  0.9314740465425538
  0.4088929828751585  0.3871740839249019  0.3818184122340478
  0.3697013547106443  0.0848086341400831  0.5951323895077568
  0.2370874131988625  0.4079173563382611  0.7581237087004673
  0.9908869340393545  0.2935417862297766  0.0849263600896408
  0.1900622434127566  0.0107561854340412  0.6498002850503378
  0.0982781861016708  0.6580914629313175  0.4553729675119315
  0.5352358685090650  0.7891795110067955  0.8257966227398648
  0.7630047462160603  0.6859129455825849  0.6114321288502843
  0.9950631176600525  0.8775125623403754  0.1051866903787455
  0.8607534220390746  0.9851714085090071  0.7959201363966214
  0.5313977125779291  0.3562996947635354  0.2680682276299783
  0.4102312693421833  0.7198207351542047  0.6330578963582287
  0.2617693330927641  0.3412444732254716  0.3349706016576730
  0.9861185251540137  0.9329111128124835  0.6866071173689314
  0.4391132603705483  0.4809776596384582  0.6188890202928067
  0.9453042265636797  0.4189979894080376  0.4096107191178899
  0.2619765113006260  0.7908050472946432  0.1348486820117281
  0.6055409907164164  0.5093109399448399  0.1723040439436791
  0.1175804451421181  0.8247343248931066  0.3502376902499321
  0.4372680916380356  0.8639999918397628  0.2172887432812731
  0.0942522537219738  0.4430817695527046  0.9842022250716551
  0.1873469458846474  0.0435385113127606  0.8429237686732559
  0.0774352243494169  0.4283878856646180  0.6529434727262133
  0.8341383347020983  0.7631853145352006  0.7421500256945904
  0.7705336070887943  0.4021409959836476  0.1413669567007110
  0.7498428737917737  0.7669066793390448  0.4256022868043095
  0.9165564724113375  0.2723342080072470  0.2588983532040911
  0.1215624782164062  0.2881290185233453  0.5069356124746540
  0.0181960983729627  0.9670480717462409  0.2815085222550041
  0.6357953658942522  0.2749825261558624  0.7854885954560337
  0.5805827632574238  0.4714251640308402  0.7598148553768497
  0.5125842746804741  0.9743410664047218  0.7606483229529019
  0.4568847236638632  0.9266402525111778  0.3978018892294807
  0.3292037288744027  0.6225922469030575  0.1230144425803631
  0.2903551650983705  0.8667689297735552  0.3574487159675054
  0.7664909985111331  0.5125131264534540  0.7964997156344902
  0.6046794617012226  0.0758479128837940  0.2869101453295388
  0.6651082969937779  0.0760276938162954  0.7888151666970664
  0.1293836864620674  0.5697152548250953  0.8374409600678786
  0.6639958835719350  0.2486290046266519  0.1903784468109439
  0.1402085698299149  0.8654733830074063  0.7515690686623699
  0.0882439048416361  0.1191813632389830  0.0931262392632232
  0.2764841322602283  0.2446441991777105  0.6382708730833074
  0.1859911849461856  0.6004573585757832  0.0371270009782534
  0.7570150596807764  0.5661431697535032  0.0418776297890074
  0.9017995892997560  0.4576585317106889  0.9545119782013776
  0.8659517740662074  0.0003185144028493  0.0193578433928393
  0.2323433986816119  0.9724203285937282  0.4705895029467418
  0.8538606300051296  0.0553324753823498  0.3832491217920374
  0.6061779588462263  0.4006569909320442  0.5781937523642092
  0.6796954621741625  0.9963880900168164  0.4342171989501366
  0.7760386573262046  0.3364086296309043  0.8662900129555766
  0.3970102719661860  0.3047420656626514  0.0870411370099667
  0.4415822162642577  0.5884552471587647  0.8146117777569848
  0.4672608613566618  0.0921527598707621  0.4283495958958047
  0.0446806175393514  0.1031969702010416  0.7698081637828971
  0.3475767240722452  0.1213465321904280  0.1344478843977781
  0.3380670032377296  0.3695558643584766  0.5286156251352173
  0.9424501301479036  0.4928551686115618  0.1502970265141966
  0.4269476429325242  0.3293433199733083  0.7547891767691347
  0.8794643012684424  0.6438357592331624  0.8837798828807881
  0.2366516298698408  0.1120513507657723  0.9944733868420197
  0.1514469141424647  0.2468378322737399  0.7818135954402068
  0.0801808993025710  0.3423618477070973  0.2591941760922195
  0.6201277461728538  0.6144743065284656  0.5203202977790083
  0.9856418529197339  0.2037148710235094  0.9157203117745981
  0.5121279120593397  0.6170387654170117  0.0532150253259060
  0.1819805623331535  0.2866108796863767  0.1090173406672288
  0.7210066149937576  0.6795738322589281  0.2487447681433975
  0.5156374131700880  0.2864802357579390  0.4269937056615251
  0.8978228947774264  0.6758938105249644  0.4661568953541204
  0.2488032069536687  0.5470196093509468  0.5498294554351930
  0.4147621387626912  0.7879203213460034  0.9822447114461276
  0.3143912053898906  0.1982517574466056  0.4131739213362408
  0.5530301668288755  0.7682881605913722  0.4185984239779648
  0.4983366948484518  0.1965658929618848  0.1837671447130655
  0.3197182445526106  0.5168324308192177  0.3590115496758935
  0.8889765393422919  0.3530965955358271  0.6515555067091676
  0.9295125327288679  0.2405415543129873  0.4609392024006176
  0.2047279093876147  0.1412389207280398  0.2684972135778219
  0.5250955411947399  0.6346878868376200  0.2630707629983732
  0.9709752958477497  0.5976958075625003  0.7172313833101143
  0.0721365050917793  0.5432671429766075  0.0748319773479078
  0.4211424236837712  0.5541627852360224  0.9714793401901669
  0.2069863092329196  0.6957811408277264  0.8395394013439945
  0.8967503572871353  0.5790623518136067  0.0416441722740461
  0.8598363859130645  0.2382858848947155  0.9061797117627675
  0.0473817517621889  0.2868575598545519  0.3919913576549589
  0.2929139803083570  0.9674870345563733  0.5846988976234030
  0.6055184480252918  0.9037136531276015  0.8349640398253115
  0.0184828024766241  0.5089521030356279  0.8900688611192219
  0.4641495352324517  0.4518481389520574  0.8151703303786368
  0.7943687509742919  0.9718814914898005  0.9049125350859993
  0.0989579603396091  0.5148370703538406  0.5552627997084202
  0.7066113336347426  0.2895215302950616  0.0698683778817227
  0.5703263205928336  0.9018758383432299  0.1181725662773705
  0.6889966864073195  0.9681967859582913  0.2511424043237387
  0.1743811035327327  0.4304803519243603  0.2931534530556252
  0.8618619735974641  0.4286855040397691  0.8312778036393249
  0.7652292770905998  0.7081246306276038  0.0576291238605633
  0.0171837878099544  0.8319103256421592  0.2468892090897305
  0.1756567305144998  0.3232319744288225  0.6724748694695276
  0.8697467261113294  0.0184455046438750  0.2587080541699742
  0.2191469393564714  0.8111874272222542  0.2635123163678565
  0.3371315934511237  0.1510549969352468  0.2708532161509313
  0.4558335907014772  0.9871241062366870  0.2837483419279604
  0.7683469571607005  0.2933681171517186  0.7413585790558833
  0.6517938848663343  0.7598633160752815  0.5996940138455233
  0.6623306227467944  0.5805139290086302  0.6405752206598867
  0.8163425396483214  0.5343572525543456  0.1853038779087546
  0.7905958114955259  0.0865802763653577  0.7465063122379805
  0.7667326322924658  0.1155812903339882  0.0410762360372902
  0.1642038890026944  0.5162527804543421  0.7259266310900234
  0.6354226463325872  0.6839159625092226  0.3509349523768549
  0.4809507741902881  0.5460732607785324  0.1607261209484513
  0.4412665376552560  0.6032595543372546  0.6829235620274644
  0.7881570836635223  0.9114039749058249  0.4263499762789580
  0.2965482990821537  0.2757886035208909  0.8245882999781360
  0.0331754985866633  0.7460910071946194  0.8918743149351962
  0.6658912855872460  0.3440676363223510  0.3012002211618098
  0.5079052818949369  0.8775118013846648  0.6740054169084371
  0.8316491906047986  0.2010693343879884  0.1897983221679490
  0.3004818224071711  0.6744924720840932  0.5688214238340824
  0.9687397450959246  0.1168074378557896  0.0239621618185550
  0.2090444761033023  0.5176160145625345  0.9274283379480439
  0.4140459637453752  0.8105682266888550  0.3465877001455443
  0.6608605179026974  0.4219084105942298  0.8500290482722307
  0.6040665933243604  0.0297881243820854  0.0001308925858122
  0.8418522665635511  0.7041436825193857  0.3423455334660500
  0.7234199574356811  0.1193589244857872  0.3201844154753996
  0.1640213165370689 -0.0041354667254811  0.9670873375041170
  0.3221789841778251  0.9147097256072656  0.1839439768883002
  0.1478898047235875  0.9715898175282934  0.3154275883675672
  0.8936092366973912  0.3599923432582495  0.1430172669968008
  0.3865124044576895  0.3567606401141872  0.2554715099208870
  0.4161593663676590  0.6070686259481801  0.3613765445167558
  0.4842042160429137  0.3692638704334507  0.5340053882694161
  0.9628176983443478  0.9161617775414619  0.9785582396051555
  0.2097051857205077  0.5691295924075416  0.4276266362754990
  0.6735562351632911  0.1676333635841774  0.8795687200525666
  0.4584200739012131  0.7435583035545127  0.1034837867097709
  0.7271009532544173  0.4228570066626003  0.2905792539258960
  0.3404341363139998  0.4075354769992049  0.6573227414414212
  0.3986574806143094  0.7209561096440695  0.8544098852419033
  0.3060904908747478  0.5332449838498527  0.2239111488919541
  0.6530030307022743  0.9803908833091621  0.5680246165010804
  0.1330389129114805  0.7069310058169034  0.6121581442588400
  0.7469114009895639  0.6421327743821196  0.4909099649077874
  0.5540195812803425  0.2259143314122379  0.3017815733763929
  0.2917205093805371  0.7163540002023938  0.0094202547940540
  0.6232769816298894  0.6365908472469500  0.1662452276887973
  0.9787250787494670  0.6185895305567455  0.2202093326074007
  0.6356759986575813  0.2863983485301426  0.5266519355400591
  0.0288074784032259  0.1933963028610928  0.1898951409908380
  0.2399340352395331  0.9478320876969764  0.7619719566124465
  0.3663806090858168  0.4976265564786949  0.5072633699185054
  0.3108124493719224  0.0687038893412895  0.8909145518202688
  0.5447790059127805  0.7586229860794418  0.9560156140367311
  0.9963503016924237  0.5834314933823640  0.4073689952744228
  0.7837005144264282  0.8892130095371246  0.7363403100276484
  0.2266380368292407  0.1391432320690671  0.7017922689780841
  0.4269714768493993  0.8963782788929973  0.8214535380720684
  0.9515595618026442  0.4796899615368527  0.6735581630516592
  0.8514336768157679  0.6178515137099747  0.7583477396603352
  0.2291801940271023  0.7789681919873990  0.4294216190353558
  0.7521394984742076  0.1032345562872844  0.5251847560815642
  0.7822952642397236  0.1866797310188041  0.4780882036327828
  0.8872855700119207  0.2106831843252406  0.6216569085190398
  0.2140074443114332  0.6676808274468135  0.1692631656914432
  0.9684672515705532  0.7886416944237434  0.7247365032839674
  0.8463835593365469  0.7708276517754266  0.8727004217138506
  0.2182050034851621  0.0801506498350573  0.1527682058216013
  0.7753441319223338  0.4344344913956031  0.0118323653282280
  0.4174393630460305  0.2075212640001143  0.6825676436049133
  0.1123630450805465  0.6876947316196119  0.3244426272225350
  0.7006677145230688  0.8653902544305279  0.0071366399756041
  0.8335509226617709  0.4939499385475481  0.4260028775795380
  0.5842103336949861  0.9022797379948335  0.3949754900977313
  0.9868388450026948  0.3523903269639208  0.9570980660668882
  0.5521207159381115  0.3086559308481863  0.1445020015505039
  0.7948699350154513  0.3737504402004707  0.5626760801651663
  0.9753187389535043  0.7391756396381481  0.0785803498439938
  0.2110884442268747  0.3791293468955061  0.4686978425573460
  0.6436010363819292  0.8118387914630182  0.5149074630689785
  0.5016805140879770  0.2595142713167579  0.8455752372169911
  0.2876486766418664  0.7817025165156765  0.6995051082283599
  0.5980930026618332  0.1148346528167051  0.4326323666504779
  0.0458001137724876  0.0090462527098987  0.1487417028262368
  0.9707506789501033  0.4529099973537456  0.2850380411167946
  0.0054894830459006  0.7628550542955108  0.4504126351753022
  0.2305591699754546  0.2001951925124937  0.5190967213149282
  0.3915267392542655  0.7321482064822481  0.1770723022680564
  0.4847785892249507  0.0419653130476819  0.5482884993648154
  0.6100449641841117  0.1657807054315097  0.7074476684863297
  0.4787133517302730  0.7116832669828587  0.5171558645822448
  0.9099587057547818  0.9503447427971331  0.5668024192898272
  0.5551054188506311  0.3426662256976537  0.6939346187244508
  0.1023574976800267  0.8975364960877428  0.6303823706448857
  0.4264509640190043  0.2042734106790690  0.4812112679240827
  0.3180192686883260  0.0618851173963009  0.4266447000157772
  0.0788976557940114  0.3788244913465305  0.1251731959295263
  0.1937544260954663  0.2678679196698008  0.2370470445482477
  0.5737586560272795  0.5985189437633079  0.8156130601898809
  0.3974785863477221  0.0375531607237432  0.7132787051649930
  0.5722158585073172  0.5160804512834508  0.3037147693215922
  0.1408823968008132  0.3628501833241041  0.8518223415066926
  0.8643169793545663  0.3221293021450382  0.3769752592235921
  0.1336330539752790  0.8335798783694669  0.0892602823892413
  0.6051012932691134  0.1215411402204517  0.1573274859209528
  0.4377041547207572  0.1219798738101832  0.0085776314563602
  0.6654470086188845  0.7483204687634012  0.7729381467882531
  0.8347626387909343  0.7791968418627030  0.5343961457778115
  0.9505757081635945  0.6439998105502787  0.5969881858199335
  0.4832705857448897  0.2069716685469432  0.0355095775773044
  0.0462321115850080  0.1448332860937349  0.4916686036894568
  0.4273742294989939  0.9386371678473278  0.0073228877335982
  0.9188215497322231  0.1663080473091411  0.3485667648071513
  0.3835432250387364  0.3652134555520878  0.9698097917740861
  0.9755197758797599  0.9959462976817249  0.4079368482422858
  0.9919358720185781  0.0679118918734214  0.6574264689320661
  0.7063520074503542  0.8014221050218460  0.2049739592009043
  0.6165814526822045  0.5418518269855760  0.0023254782523447
  0.0595359923783168  0.9525833060228783  0.8065612667975317
  0.6573882755259445  0.4909304659010265  0.4726761930429895
  0.3012980105603865  0.2208312473854540  0.0615712284380054
  0.9440908778024065  0.0914002623216235  0.8488513999974755
  0.7637899753728692  0.5864756517872525  0.9051305201470543
  0.2585074322832170  0.3917704960261774  0.1056028910444596
  0.1537900476713652  0.1810795856067635  0.9198522101677760
  0.0117782462197237  0.2384833620512680  0.7645531026263828
  0.9972223632129422  0.3402944691242621  0.5706409044009907
  0.8497582301390199  0.9058280545094417  0.1183635146499199
 
  0.00000000E+00  0.00000000E+00  0.00000000E+00
  0.00000000E+00  0.00000000E+00  0.00000000E+00
  0.00000000E+00  0.00000000E+00  0.00000000E+00
  0.00000000E+00  0.00000000E+00  0.00000000E+00
  0.00000000E+00  0.00000000E+00  0.00000000E+00
  0.00000000E+00  0.00000000E+00  0.00000000E+00
  0.00000000E+00  0.00000000E+00  0.00000000E+00
  0.00000000E+00  0.00000000E+00  0.00000000E+00
  0.00000000E+00  0.00000000E+00  0.00000000E+00
  0.00000000E+00  0.00000000E+00  0.00000000E+00
  0.00000000E+00  0.00000000E+00  0.00000000E+00
  0.00000000E+00  0.00000000E+00  0.00000000E+00
  0.00000000E+00  0.00000000E+00  0.00000000E+00
  0.00000000E+00  0.00000000E+00  0.00000000E+00
  0.00000000E+00  0.00000000E+00  0.00000000E+00
  0.00000000E+00  0.00000000E+00  0.00000000E+00
  0.00000000E+00  0.00000000E+00  0.00000000E+00
  0.00000000E+00  0.00000000E+00  0.00000000E+00
  0.00000000E+00  0.00000000E+00  0.00000000E+00
  0.00000000E+00  0.00000000E+00  0.00000000E+00
  0.00000000E+00  0.00000000E+00  0.00000000E+00
  0.00000000E+00  0.00000000E+00  0.00000000E+00
  0.00000000E+00  0.00000000E+00  0.00000000E+00
  0.00000000E+00  0.00000000E+00  0.00000000E+00
  0.00000000E+00  0.00000000E+00  0.00000000E+00
  0.00000000E+00  0.00000000E+00  0.00000000E+00
  0.00000000E+00  0.00000000E+00  0.00000000E+00
  0.00000000E+00  0.00000000E+00  0.00000000E+00
  0.00000000E+00  0.00000000E+00  0.00000000E+00
  0.00000000E+00  0.00000000E+00  0.00000000E+00
  0.00000000E+00  0.00000000E+00  0.00000000E+00
  0.00000000E+00  0.00000000E+00  0.00000000E+00
  0.00000000E+00  0.00000000E+00  0.00000000E+00
  0.00000000E+00  0.00000000E+00  0.00000000E+00
  0.00000000E+00  0.00000000E+00  0.00000000E+00
  0.00000000E+00  0.00000000E+00  0.00000000E+00
  0.00000000E+00  0.00000000E+00  0.00000000E+00
  0.00000000E+00  0.00000000E+00  0.00000000E+00
  0.00000000E+00  0.00000000E+00  0.00000000E+00
  0.00000000E+00  0.00000000E+00  0.00000000E+00
  0.00000000E+00  0.00000000E+00  0.00000000E+00
  0.00000000E+00  0.00000000E+00  0.00000000E+00
  0.00000000E+00  0.00000000E+00  0.00000000E+00
  0.00000000E+00  0.00000000E+00  0.00000000E+00
  0.00000000E+00  0.00000000E+00  0.00000000E+00
  0.00000000E+00  0.00000000E+00  0.00000000E+00
  0.00000000E+00  0.00000000E+00  0.00000000E+00
  0.00000000E+00  0.00000000E+00  0.00000000E+00
  0.00000000E+00  0.00000000E+00  0.00000000E+00
  0.00000000E+00  0.00000000E+00  0.00000000E+00
  0.00000000E+00  0.00000000E+00  0.00000000E+00
  0.00000000E+00  0.00000000E+00  0.00000000E+00
  0.00000000E+00  0.00000000E+00  0.00000000E+00
  0.00000000E+00  0.00000000E+00  0.00000000E+00
  0.00000000E+00  0.00000000E+00  0.00000000E+00
  0.00000000E+00  0.00000000E+00  0.00000000E+00
  0.00000000E+00  0.00000000E+00  0.00000000E+00
  0.00000000E+00  0.00000000E+00  0.00000000E+00
  0.00000000E+00  0.00000000E+00  0.00000000E+00
  0.00000000E+00  0.00000000E+00  0.00000000E+00
  0.00000000E+00  0.00000000E+00  0.00000000E+00
  0.00000000E+00  0.00000000E+00  0.00000000E+00
  0.00000000E+00  0.00000000E+00  0.00000000E+00
  0.00000000E+00  0.00000000E+00  0.00000000E+00
  0.00000000E+00  0.00000000E+00  0.00000000E+00
  0.00000000E+00  0.00000000E+00  0.00000000E+00
  0.00000000E+00  0.00000000E+00  0.00000000E+00
  0.00000000E+00  0.00000000E+00  0.00000000E+00
  0.00000000E+00  0.00000000E+00  0.00000000E+00
  0.00000000E+00  0.00000000E+00  0.00000000E+00
  0.00000000E+00  0.00000000E+00  0.00000000E+00
  0.00000000E+00  0.00000000E+00  0.00000000E+00
  0.00000000E+00  0.00000000E+00  0.00000000E+00
  0.00000000E+00  0.00000000E+00  0.00000000E+00
  0.00000000E+00  0.00000000E+00  0.00000000E+00
  0.00000000E+00  0.00000000E+00  0.00000000E+00
  0.00000000E+00  0.00000000E+00  0.00000000E+00
  0.00000000E+00  0.00000000E+00  0.00000000E+00
  0.00000000E+00  0.00000000E+00  0.00000000E+00
  0.00000000E+00  0.00000000E+00  0.00000000E+00
  0.00000000E+00  0.00000000E+00  0.00000000E+00
  0.00000000E+00  0.00000000E+00  0.00000000E+00
  0.00000000E+00  0.00000000E+00  0.00000000E+00
  0.00000000E+00  0.00000000E+00  0.00000000E+00
  0.00000000E+00  0.00000000E+00  0.00000000E+00
  0.00000000E+00  0.00000000E+00  0.00000000E+00
  0.00000000E+00  0.00000000E+00  0.00000000E+00
  0.00000000E+00  0.00000000E+00  0.00000000E+00
  0.00000000E+00  0.00000000E+00  0.00000000E+00
  0.00000000E+00  0.00000000E+00  0.00000000E+00
  0.00000000E+00  0.00000000E+00  0.00000000E+00
  0.00000000E+00  0.00000000E+00  0.00000000E+00
  0.00000000E+00  0.00000000E+00  0.00000000E+00
  0.00000000E+00  0.00000000E+00  0.00000000E+00
  0.00000000E+00  0.00000000E+00  0.00000000E+00
  0.00000000E+00  0.00000000E+00  0.00000000E+00
  0.00000000E+00  0.00000000E+00  0.00000000E+00
  0.00000000E+00  0.00000000E+00  0.00000000E+00
  0.00000000E+00  0.00000000E+00  0.00000000E+00
  0.00000000E+00  0.00000000E+00  0.00000000E+00
  0.00000000E+00  0.00000000E+00  0.00000000E+00
  0.00000000E+00  0.00000000E+00  0.00000000E+00
  0.00000000E+00  0.00000000E+00  0.00000000E+00
  0.00000000E+00  0.00000000E+00  0.00000000E+00
  0.00000000E+00  0.00000000E+00  0.00000000E+00
  0.00000000E+00  0.00000000E+00  0.00000000E+00
  0.00000000E+00  0.00000000E+00  0.00000000E+00
  0.00000000E+00  0.00000000E+00  0.00000000E+00
  0.00000000E+00  0.00000000E+00  0.00000000E+00
  0.00000000E+00  0.00000000E+00  0.00000000E+00
  0.00000000E+00  0.00000000E+00  0.00000000E+00
  0.00000000E+00  0.00000000E+00  0.00000000E+00
  0.00000000E+00  0.00000000E+00  0.00000000E+00
  0.00000000E+00  0.00000000E+00  0.00000000E+00
  0.00000000E+00  0.00000000E+00  0.00000000E+00
  0.00000000E+00  0.00000000E+00  0.00000000E+00
  0.00000000E+00  0.00000000E+00  0.00000000E+00
  0.00000000E+00  0.00000000E+00  0.00000000E+00
  0.00000000E+00  0.00000000E+00  0.00000000E+00
  0.00000000E+00  0.00000000E+00  0.00000000E+00
  0.00000000E+00  0.00000000E+00  0.00000000E+00
  0.00000000E+00  0.00000000E+00  0.00000000E+00
  0.00000000E+00  0.00000000E+00  0.00000000E+00
  0.00000000E+00  0.00000000E+00  0.00000000E+00
  0.00000000E+00  0.00000000E+00  0.00000000E+00
  0.00000000E+00  0.00000000E+00  0.00000000E+00
  0.00000000E+00  0.00000000E+00  0.00000000E+00
  0.00000000E+00  0.00000000E+00  0.00000000E+00
  0.00000000E+00  0.00000000E+00  0.00000000E+00
  0.00000000E+00  0.00000000E+00  0.00000000E+00
  0.00000000E+00  0.00000000E+00  0.00000000E+00
  0.00000000E+00  0.00000000E+00  0.00000000E+00
  0.00000000E+00  0.00000000E+00  0.00000000E+00
  0.00000000E+00  0.00000000E+00  0.00000000E+00
  0.00000000E+00  0.00000000E+00  0.00000000E+00
  0.00000000E+00  0.00000000E+00  0.00000000E+00
  0.00000000E+00  0.00000000E+00  0.00000000E+00
  0.00000000E+00  0.00000000E+00  0.00000000E+00
  0.00000000E+00  0.00000000E+00  0.00000000E+00
  0.00000000E+00  0.00000000E+00  0.00000000E+00
  0.00000000E+00  0.00000000E+00  0.00000000E+00
  0.00000000E+00  0.00000000E+00  0.00000000E+00
  0.00000000E+00  0.00000000E+00  0.00000000E+00
  0.00000000E+00  0.00000000E+00  0.00000000E+00
  0.00000000E+00  0.00000000E+00  0.00000000E+00
  0.00000000E+00  0.00000000E+00  0.00000000E+00
  0.00000000E+00  0.00000000E+00  0.00000000E+00
  0.00000000E+00  0.00000000E+00  0.00000000E+00
  0.00000000E+00  0.00000000E+00  0.00000000E+00
  0.00000000E+00  0.00000000E+00  0.00000000E+00
  0.00000000E+00  0.00000000E+00  0.00000000E+00
  0.00000000E+00  0.00000000E+00  0.00000000E+00
  0.00000000E+00  0.00000000E+00  0.00000000E+00
  0.00000000E+00  0.00000000E+00  0.00000000E+00
  0.00000000E+00  0.00000000E+00  0.00000000E+00
  0.00000000E+00  0.00000000E+00  0.00000000E+00
  0.00000000E+00  0.00000000E+00  0.00000000E+00
  0.00000000E+00  0.00000000E+00  0.00000000E+00
  0.00000000E+00  0.00000000E+00  0.00000000E+00
  0.00000000E+00  0.00000000E+00  0.00000000E+00
  0.00000000E+00  0.00000000E+00  0.00000000E+00
  0.00000000E+00  0.00000000E+00  0.00000000E+00
  0.00000000E+00  0.00000000E+00  0.00000000E+00
  0.00000000E+00  0.00000000E+00  0.00000000E+00
  0.00000000E+00  0.00000000E+00  0.00000000E+00
  0.00000000E+00  0.00000000E+00  0.00000000E+00
  0.00000000E+00  0.00000000E+00  0.00000000E+00
  0.00000000E+00  0.00000000E+00  0.00000000E+00
  0.00000000E+00  0.00000000E+00  0.00000000E+00
  0.00000000E+00  0.00000000E+00  0.00000000E+00
  0.00000000E+00  0.00000000E+00  0.00000000E+00
  0.00000000E+00  0.00000000E+00  0.00000000E+00
  0.00000000E+00  0.00000000E+00  0.00000000E+00
  0.00000000E+00  0.00000000E+00  0.00000000E+00
  0.00000000E+00  0.00000000E+00  0.00000000E+00
  0.00000000E+00  0.00000000E+00  0.00000000E+00
  0.00000000E+00  0.00000000E+00  0.00000000E+00
  0.00000000E+00  0.00000000E+00  0.00000000E+00
  0.00000000E+00  0.00000000E+00  0.00000000E+00
  0.00000000E+00  0.00000000E+00  0.00000000E+00
  0.00000000E+00  0.00000000E+00  0.00000000E+00
  0.00000000E+00  0.00000000E+00  0.00000000E+00
  0.00000000E+00  0.00000000E+00  0.00000000E+00
  0.00000000E+00  0.00000000E+00  0.00000000E+00
  0.00000000E+00  0.00000000E+00  0.00000000E+00
  0.00000000E+00  0.00000000E+00  0.00000000E+00
  0.00000000E+00  0.00000000E+00  0.00000000E+00
  0.00000000E+00  0.00000000E+00  0.00000000E+00
  0.00000000E+00  0.00000000E+00  0.00000000E+00
  0.00000000E+00  0.00000000E+00  0.00000000E+00
  0.00000000E+00  0.00000000E+00  0.00000000E+00
  0.00000000E+00  0.00000000E+00  0.00000000E+00
  0.00000000E+00  0.00000000E+00  0.00000000E+00
  0.00000000E+00  0.00000000E+00  0.00000000E+00
  0.00000000E+00  0.00000000E+00  0.00000000E+00
  0.00000000E+00  0.00000000E+00  0.00000000E+00
  0.00000000E+00  0.00000000E+00  0.00000000E+00
  0.00000000E+00  0.00000000E+00  0.00000000E+00
  0.00000000E+00  0.00000000E+00  0.00000000E+00
  0.00000000E+00  0.00000000E+00  0.00000000E+00
  0.00000000E+00  0.00000000E+00  0.00000000E+00
  0.00000000E+00  0.00000000E+00  0.00000000E+00
  0.00000000E+00  0.00000000E+00  0.00000000E+00
  0.00000000E+00  0.00000000E+00  0.00000000E+00
  0.00000000E+00  0.00000000E+00  0.00000000E+00
  0.00000000E+00  0.00000000E+00  0.00000000E+00
  0.00000000E+00  0.00000000E+00  0.00000000E+00
  0.00000000E+00  0.00000000E+00  0.00000000E+00
  0.00000000E+00  0.00000000E+00  0.00000000E+00
  0.00000000E+00  0.00000000E+00  0.00000000E+00
  0.00000000E+00  0.00000000E+00  0.00000000E+00
  0.00000000E+00  0.00000000E+00  0.00000000E+00
  0.00000000E+00  0.00000000E+00  0.00000000E+00
  0.00000000E+00  0.00000000E+00  0.00000000E+00
  0.00000000E+00  0.00000000E+00  0.00000000E+00
  0.00000000E+00  0.00000000E+00  0.00000000E+00
  0.00000000E+00  0.00000000E+00  0.00000000E+00
  0.00000000E+00  0.00000000E+00  0.00000000E+00
  0.00000000E+00  0.00000000E+00  0.00000000E+00
  0.00000000E+00  0.00000000E+00  0.00000000E+00
  0.00000000E+00  0.00000000E+00  0.00000000E+00
  0.00000000E+00  0.00000000E+00  0.00000000E+00
  0.00000000E+00  0.00000000E+00  0.00000000E+00
  0.00000000E+00  0.00000000E+00  0.00000000E+00
  0.00000000E+00  0.00000000E+00  0.00000000E+00
  0.00000000E+00  0.00000000E+00  0.00000000E+00
  0.00000000E+00  0.00000000E+00  0.00000000E+00
  0.00000000E+00  0.00000000E+00  0.00000000E+00
  0.00000000E+00  0.00000000E+00  0.00000000E+00
  0.00000000E+00  0.00000000E+00  0.00000000E+00
  0.00000000E+00  0.00000000E+00  0.00000000E+00
  0.00000000E+00  0.00000000E+00  0.00000000E+00