Te2
1.0
   3.6859293200000001   -0.2941605600000000    2.2032453099999998
   1.1058624400000001    3.5284085100000002    2.2032453099999998
  -0.4358206800000000   -0.2941605600000000    4.2720508200000005
Te
2
direct
   0.2499819800000000    0.2499819800000000    0.2499819800000000 Te
   0.7500180200000001    0.7500180200000001    0.7500180200000001 Te
