Amorphous GeAsSeSi                      
   1.00000000000000     
    18.1236188657994717    0.0000000000000000    0.0000000000000000
     0.0000000000000000   18.1236188657994717    0.0000000000000000
     0.0000000000000000    0.0000000000000000   18.1236188657994717
   Ge   N    Se
    96    48    96
Direct
  0.0871219807659867  0.9765850880221014  0.8657975301953497
  0.3014621420341115  0.6187783671633424  0.7986043763831205
  0.2016021969950305  0.1083752492863986  0.8784914935383427
  0.5728707540291890  0.4607161561825552  0.8005558300487366
  0.2925366220193173  0.8374744063171299  0.2833359157857559
  0.4571035241562845  0.0873238938438114  0.4268207055561244
  0.6404903028669785  0.5046573253588696  0.9920318901424938
  0.6532297288964809  0.3073549738273585  0.7691948932866699
  0.8714734598767492  0.6709863026602432  0.3281214945769517
  0.8323287746769780  0.3418938594049635  0.9028124527776854
  0.2212147754047616  0.2540606507388499  0.7241862212704675
  0.8419066870128665  0.9583216386925006  0.1275126670490244
  0.6104394345680342  0.7034633196186477  0.4944131964807003
  0.0150671331392096  0.9398751833885864  0.6700357438763366
  0.8325633054440559  0.4144524228328160  0.2457822634763126
  0.1421024108008344  0.6084934376938818  0.0516955101419234
  0.7274950064431568  0.2330034046872843  0.4356576114836803
  0.9357046597510378  0.8214211964092741  0.2974124803614808
  0.6916146968035009  0.9386466560437076  0.4996579287999042
  0.2842638077183948  0.8355912695754039  0.4618534582887730
  0.5109956982842155  0.5399052759204082  0.1180266855512403
  0.3069673541825592  0.9945454946918616  0.3554297385963116
  0.5475878519147109  0.0344656789157772  0.2149935784703976
  0.4530214917398992  0.7815873047650472  0.4748631542567048
  0.2818623205344773  0.8489769079421335  0.9998688552737298
  0.8123949848841360  0.7558495784850600  0.5789545535416385
  0.2544392388439687  0.6780961422206795  0.0099131612904087
  0.3932660159103883  0.2022682577892982  0.9115974715032892
  0.6958476880999249  0.5548638422769818  0.8535156673451446
  0.6914819894009374  0.0523164346532983  0.2451659630882285
  0.8319859057574521  0.3587523189500021  0.5730829680046073
  0.1158015416587271  0.3053248698346024  0.5374311241377721
  0.9596475747941651  0.1976185107095837  0.4878577827354736
  0.4321874009327266  0.5196100783240072  0.4749596597270478
  0.8898681017733102  0.2749205611550069  0.1111947236133509
  0.4336408284968736  0.6191244254499727  0.6187596055463117
  0.3971107465215513  0.9534358333923663  0.5084935125048868
  0.3151476533423020  0.6630935888340644  0.4891730923613368
  0.2880310240513304  0.8229016208565909  0.7506101514220229
  0.5922947213914616  0.5193717917133519  0.5000377370531693
  0.5974018059183014  0.6748766716236733  0.0262566556451895
  0.8082435829654148  0.5604660104076059  0.9967261898919887
  0.1392201080306442  0.9518101105775966  0.3615437814493981
  0.6899155126724288  0.1451875416374874  0.6965940237933090
  0.4732060883969147  0.3134935814087319  0.8008345057605193
  0.6670626579922819  0.2243542961184040  0.2710460859093348
  0.0518906960298996  0.3625395198619275  0.6907504024479821
  0.5574519053725436  0.9245818511268724  0.4454113097187823
  0.1205497289722574  0.3422472822221832  0.8559078586286861
  0.5212761164537261  0.9715023201955060  0.7937950569663278
  0.9948386284283761  0.0034958662962938  0.4500980590182032
  0.7514651070992832  0.5842740229292288  0.5107802014740237
  0.0220880813630707  0.6835309402674201  0.2133306826090053
  0.0500328128738512  0.6492075036654822  0.6379169004729210
  0.2909751290835973  0.9336725203156434  0.6326550310135641
  0.0803291130819343  0.4160051301338362  0.1680971869268141
  0.7834813235576058  0.1296926115612219  0.5858101132831528
  0.8642608247019541  0.7399189744425930  0.1577803485929164
  0.9123119721245673  0.5203863707520147  0.7007830901082774
  0.2535604308853919  0.4329374454182107  0.5552760617487915
  0.8911960696496082  0.1993723594626785  0.9537753665027133
  0.0364869752883917  0.4557405941770833  0.5169442248664605
  0.1718411674257388  0.2181410359814666  0.1058282687038014
  0.9657813228695799  0.0981487200083170  0.0533697014207781
  0.1657396054884583  0.7758265884404795  0.8825434302601297
  0.1986896280949395  0.4053814223616435  0.0306202217160762
  0.8856812981621224  0.9674773495244868  0.6060551950834274
  0.2260671509683013  0.5922294296060553  0.6293156415356631
  0.7988358768331070  0.4605825309184732  0.1002740817480075
  0.5691870126148280  0.1834013204495845  0.8674346548019224
  0.7354079653304936  0.0018961285899951  0.6943993028394547
  0.6735063631890340  0.6324325930573776  0.3251249120494670
  0.2460575195766711  0.3061327135423629  0.9268849822117956
  0.0437483453392677  0.6266765811718312  0.9016666571614549
  0.3889672208252202  0.5587991813865436  0.9744008020594170
  0.5457881845879776  0.0711785128453898  0.0221193822410508
  0.3994839266646361  0.7172856605822711  0.0755834306845408
  0.8226347219975172  0.1485184279268791  0.2098496849078847
  0.2170736923560605  0.2525977280143543  0.2457809660150545
  0.4777614776629926  0.2694486184946256  0.1239085790554399
  0.1712544831062239  0.7301290782481645  0.5538128136194382
  0.5126894871634387  0.5797142013867428  0.9152574529113702
  0.7345683944152670  0.7344899599284043  0.9447040029932160
  0.5001201318849360  0.7659808333681064  0.8897805447841346
  0.0303175460640734  0.7119266401492456  0.4624717835263009
  0.5580069921908990  0.0662622637012322  0.5762647104045523
  0.7389848278816412  0.1942401951901167  0.8784747000438451
  0.5620822701100936  0.4335235299305744  0.3542966825706126
  0.0982046040660665  0.1377640925853666  0.4788708740394381
  0.7456138766555872  0.4172639669114400  0.7823568789656049
  0.1353953301986900  0.5589653532983963  0.4850252907425142
  0.1099973968193682  0.8206559942067608  0.4155524095300066
  0.6368920516730171  0.5903600288008353  0.7047609674656884
  0.1791961727302009  0.6748502178738787  0.7719826288156295
  0.5802170616949082  0.2934060104706966  0.4417608386171556
  0.4206376410593452  0.2253642281385895  0.2516428958203805
  0.6437513041420603  0.6077381145227859  0.5059781372394188
  0.0597621057968847  0.3781095104373460  0.5848495835728186
  0.3552819621285546  0.6477701400357060  0.0140652998989562
  0.6477183815263794  0.2448912618057929  0.6813363057901175
  0.5223983960751946  0.5078787393650510  0.4219402485270357
  0.1960149017167030  0.5218819998945059  0.5616579191586836
  0.0980009388113231  0.6534346922031835  0.5269521984012058
  0.1482139548401217  0.6294877344830720  0.6856778669051905
  0.2590500830376049  0.6785596837213101  0.5775669482572997
  0.3989574696094401  0.6085588722488752  0.5150847020819875
  0.6642147840876659  0.4928015663116981  0.7607738918172697
  0.1212736695888434  0.6819808718824545  0.8596805668504831
  0.0002561640647110  0.1009442644113384  0.4804057808193918
  0.3771666293421522  0.0231200650138546  0.4339218304128810
  0.6698168395199571  0.6380778251555502  0.7972784206510246
  0.2429740650432878  0.7623724043093237  0.9497886709093656
  0.5679200442341000  0.5657666513123524  0.0333288516459906
  0.1166266339333726  0.0582988299255151  0.9258777955843466
  0.8063904958741298  0.0340424396952136  0.6202756207229302
  0.5986718021130377  0.1289527547352094  0.9499585820939472
  0.7344656029572101  0.1465757061631696  0.2708354918884816
  0.4642003757397642  0.8837685213955527  0.4691378652648237
  0.5338913386653876  0.0276329942814766  0.4706115420857606
  0.9302900794768070  0.1986890094280111  0.0529633155917377
  0.7855151230768365  0.5049583424255740  0.8301510514297351
  0.5390775648072005  0.6780802855369286  0.9365692617624866
  0.6516909287147116  0.2456859924621244  0.8526037027117435
  0.3126530916476798  0.9006518771188351  0.5358441061666969
  0.9501757121607745  0.7394545177861968  0.7894422570557935
  0.6489788120488650  0.2494736241160751  0.3691275616789576
  0.4854769049725973  0.2414860501011001  0.8734452936642351
  0.6609192292899541  0.2610416884607872  0.5125860586812853
  0.7983429577849614  0.2466455559200169  0.9455336377840696
  0.5944090087576843  0.5079741947236709  0.8956787977744035
  0.1987967168925075  0.7781662070906084  0.7827381643370975
  0.7997303825817328  0.2395335523098841  0.1513919222892755
  0.3479990619219426  0.3042910226630594  0.9146449625056533
  0.5621044020028317  0.3619487988626385  0.7772022294837192
  0.2651535785558003  0.0701952418761457  0.1391359230676222
  0.9549910741859484  0.7682335589608649  0.2131757830099299
  0.7120952009068988  0.5736102812524126  0.9578833726970035
  0.1930674798960917  0.7905027817197744  0.4739647055995794
  0.3534359057747667  0.7565567415366878  0.4641021663921792
  0.2463674342247329  0.0131425017574957  0.1248673965714488
  0.9191362986771930  0.7844181159392151  0.8180792377812809
  0.2914632084419818  0.8885740086617874  0.3754430572724112
  0.0586924117304489  0.2303600252590020  0.4991496529967797
  0.0328605201923210  0.9908899179771407  0.3517678305836477
  0.7238964405939009  0.7704767180186128  0.4745984743332344
  0.4852195026590138  0.5556391121478634  0.7784961350745818
  0.7308554849977593  0.7191471512011274  0.7887884304709813
  0.1229948003122734  0.2089642172460311  0.8041616479245929
  0.3134256657141003  0.1885021979615018  0.3186547285676050
  0.8287468784098047  0.3204595863221731  0.4062290914150830
  0.4231247479357921  0.2637269729653510  0.6863583412513304
  0.8968726492672884  0.2276049917059640  0.5997378737005887
  0.8713251870054686  0.5115850962880261  0.8833638016522800
  0.9805968977202322  0.4284141176723989  0.3968858074525138
  0.9773877020898125  0.0173401326253240  0.7963030591867586
  0.5346169194734006  0.7232521256682445  0.3872739239309665
  0.1999445940171451  0.3826963739237719  0.7416034419285914
  0.1026060690049335  0.5006118083736564  0.9858337714385381
  0.2858547323008771  0.3065264335140510  0.1404361457007959
  0.0830881815431730  0.7891023500823767  0.6298311663160787
  0.0401104823680255  0.0809083330910962  0.3033439584751396
  0.4371550373231542  0.1609070301099221  0.0518164576868928
  0.7227085904196439  0.7188805438202441  0.2271904082955822
  0.7558780909051273  0.8673975825439904  0.9644821612196359
  0.2790071754873285  0.5383647903231239  0.9031056428328500
  0.1623887400135512  0.0674584406601135  0.5711433663141031
  0.8732330605758367  0.8871817760924702  0.0195381463478949
  0.0086389708662172  0.6291526986660542  0.3570948057917347
  0.5572154473842768  0.1053085219206276  0.7593906768890401
  0.0571111656013490  0.0664676300055201  0.6968663648108712
  0.1821206126908229  0.3727485307808696  0.4493430990002103
  0.4664219741127169  0.9839700228778436  0.9243385819553994
  0.8905138950190881  0.3817207194531752  0.0280621906006353
  0.1541046168955752  0.8799186362322722  0.2333334610821511
  0.0746838153695867  0.4746388585385112  0.3236379172912228
  0.8497978934130370  0.6876165714394117  0.0005202617754863
  0.0471485430750952  0.6954028951311508  0.0291959395213878
  0.6894590809555102  0.0807311260190883  0.9250240463968190
  0.9534340220693780  0.2783204537167713  0.8689681314218007
  0.0948800753013562  0.0591455773491301  0.0258314879224747
  0.7839332436928622  0.9807613691596889  0.3168351646284698
  0.9163388678788018  0.4948538881218911  0.5604309522861359
  0.6420510332615225  0.0705664957264228  0.4556980470662399
  0.5094264621628988  0.1300704168911188  0.3111890163354556
  0.3224119158022478  0.5321211909818117  0.6961305902669178
  0.1537418649339499  0.1274295711114345  0.3588914000514341
  0.8162706118409825  0.8602218243610921  0.6607262720718338
  0.2831247754348365  0.9279733847322842  0.8423836100853573
  0.5262813824363580  0.7470783383842904  0.5873997152855662
  0.9432822671833301  0.3370404948630393  0.2163182793161573
  0.1501511106456341  0.7623610908891725  0.2942597056258391
  0.0915388461175884  0.3197301259105401  0.0576231400479430
  0.7409430091663591  0.3140695701351712  0.1909975338191136
  0.6232078163361122  0.9463772647114718  0.6217241883761961
  0.3842594808816437  0.9549653296835074  0.2312559135418875
  0.8543502167365178  0.3861101890320335  0.7114900539715960
  0.1664126210963218  0.5811056663157977  0.1782989851091052
  0.3290810274986014  0.4569605882694494  0.4243128738222358
  0.4639014411311440  0.8551118409328662  0.2581435112229454
  0.2421675366359413  0.1855367134867969  0.9893786289712250
  0.9591829034335798  0.0132742572375868  0.1585826280798407
  0.8045200926218292  0.8792402765801167  0.2334712733905044
  0.2814514693341416  0.7577917505847952  0.1229454249079872
  0.7802687426885543  0.6580051200359335  0.6653199523605756
  0.1804203129932840  0.9797888562752305  0.7688437816987684
  0.4342430046212503  0.8243730197953003  0.0071452416424317
  0.9160141955230866  0.2317556133524192  0.3666794236878372
  0.4974086140398447  0.4879488093854407  0.5930378425869767
  0.0978210467242240  0.9543451457658121  0.5298968123811429
  0.4127309813732786  0.0053259598716733  0.6289930401471489
  0.4444223370725894  0.3515613145632471  0.3220219441486905
  0.9056484282757588  0.6861033968603166  0.5080499021524932
  0.4063376368454429  0.4718501483465147  0.0734099440617683
  0.4963457580773020  0.6713959049794324  0.1550781377186850
  0.5892003902541232  0.1929679078390704  0.1650879288788649
  0.6775872734508226  0.5943668347577943  0.1945530116551588
  0.2159249627717124  0.2327836261857574  0.5936199921967199
  0.1225231967502550  0.3470119835298867  0.2836283542289747
  0.0367582685974801  0.4854667562839080  0.7454822472740521
  0.8856889643804177  0.9366665560752585  0.4717510745719915
  0.2242882326776966  0.4578732933895365  0.1578790880417971
  0.0783485834473918  0.8636791404743330  0.9360745804417002
  0.5711953300504776  0.9173716883386196  0.3031385897846670
  0.7032008810798864  0.4496756588270912  0.5000775046373247
  0.5692821422816929  0.4654169986477035  0.2081158311089181
  0.4688150166739768  0.2016761990990238  0.4927051977201668
  0.3366970394753563  0.1879376191203390  0.7475643305030977
  0.7912169501830132  0.5666024732702977  0.3720701069126552
  0.7870850051356160  0.1134168058124364  0.4460753505007886
  0.3860378648183981  0.3890210608277779  0.8652140053184749
  0.8907422236201277  0.0661335524794363  0.9492285244876719
  0.8060734123789089  0.1753410752535075  0.7664612626145383
  0.2345392169561332  0.6071330233728814  0.3967913972147404
  0.8952308293000846  0.6089673091565277  0.2002456361014580
  0.5851935124012065  0.9276573435614629  0.9112452801119014
  0.6822173231183959  0.3065272779623595  0.6008612250503182
  0.6875165513028604  0.3973676095989514  0.0413881939809012
  0.3929623032100255  0.3343139041786373  0.4416388061760572
  0.3914980272307181  0.7162340471342862  0.8005892193826430
  0.7431457632843353  0.0438842328204111  0.1134399491397911
 
  0.00000000E+00  0.00000000E+00  0.00000000E+00
  0.00000000E+00  0.00000000E+00  0.00000000E+00
  0.00000000E+00  0.00000000E+00  0.00000000E+00
  0.00000000E+00  0.00000000E+00  0.00000000E+00
  0.00000000E+00  0.00000000E+00  0.00000000E+00
  0.00000000E+00  0.00000000E+00  0.00000000E+00
  0.00000000E+00  0.00000000E+00  0.00000000E+00
  0.00000000E+00  0.00000000E+00  0.00000000E+00
  0.00000000E+00  0.00000000E+00  0.00000000E+00
  0.00000000E+00  0.00000000E+00  0.00000000E+00
  0.00000000E+00  0.00000000E+00  0.00000000E+00
  0.00000000E+00  0.00000000E+00  0.00000000E+00
  0.00000000E+00  0.00000000E+00  0.00000000E+00
  0.00000000E+00  0.00000000E+00  0.00000000E+00
  0.00000000E+00  0.00000000E+00  0.00000000E+00
  0.00000000E+00  0.00000000E+00  0.00000000E+00
  0.00000000E+00  0.00000000E+00  0.00000000E+00
  0.00000000E+00  0.00000000E+00  0.00000000E+00
  0.00000000E+00  0.00000000E+00  0.00000000E+00
  0.00000000E+00  0.00000000E+00  0.00000000E+00
  0.00000000E+00  0.00000000E+00  0.00000000E+00
  0.00000000E+00  0.00000000E+00  0.00000000E+00
  0.00000000E+00  0.00000000E+00  0.00000000E+00
  0.00000000E+00  0.00000000E+00  0.00000000E+00
  0.00000000E+00  0.00000000E+00  0.00000000E+00
  0.00000000E+00  0.00000000E+00  0.00000000E+00
  0.00000000E+00  0.00000000E+00  0.00000000E+00
  0.00000000E+00  0.00000000E+00  0.00000000E+00
  0.00000000E+00  0.00000000E+00  0.00000000E+00
  0.00000000E+00  0.00000000E+00  0.00000000E+00
  0.00000000E+00  0.00000000E+00  0.00000000E+00
  0.00000000E+00  0.00000000E+00  0.00000000E+00
  0.00000000E+00  0.00000000E+00  0.00000000E+00
  0.00000000E+00  0.00000000E+00  0.00000000E+00
  0.00000000E+00  0.00000000E+00  0.00000000E+00
  0.00000000E+00  0.00000000E+00  0.00000000E+00
  0.00000000E+00  0.00000000E+00  0.00000000E+00
  0.00000000E+00  0.00000000E+00  0.00000000E+00
  0.00000000E+00  0.00000000E+00  0.00000000E+00
  0.00000000E+00  0.00000000E+00  0.00000000E+00
  0.00000000E+00  0.00000000E+00  0.00000000E+00
  0.00000000E+00  0.00000000E+00  0.00000000E+00
  0.00000000E+00  0.00000000E+00  0.00000000E+00
  0.00000000E+00  0.00000000E+00  0.00000000E+00
  0.00000000E+00  0.00000000E+00  0.00000000E+00
  0.00000000E+00  0.00000000E+00  0.00000000E+00
  0.00000000E+00  0.00000000E+00  0.00000000E+00
  0.00000000E+00  0.00000000E+00  0.00000000E+00
  0.00000000E+00  0.00000000E+00  0.00000000E+00
  0.00000000E+00  0.00000000E+00  0.00000000E+00
  0.00000000E+00  0.00000000E+00  0.00000000E+00
  0.00000000E+00  0.00000000E+00  0.00000000E+00
  0.00000000E+00  0.00000000E+00  0.00000000E+00
  0.00000000E+00  0.00000000E+00  0.00000000E+00
  0.00000000E+00  0.00000000E+00  0.00000000E+00
  0.00000000E+00  0.00000000E+00  0.00000000E+00
  0.00000000E+00  0.00000000E+00  0.00000000E+00
  0.00000000E+00  0.00000000E+00  0.00000000E+00
  0.00000000E+00  0.00000000E+00  0.00000000E+00
  0.00000000E+00  0.00000000E+00  0.00000000E+00
  0.00000000E+00  0.00000000E+00  0.00000000E+00
  0.00000000E+00  0.00000000E+00  0.00000000E+00
  0.00000000E+00  0.00000000E+00  0.00000000E+00
  0.00000000E+00  0.00000000E+00  0.00000000E+00
  0.00000000E+00  0.00000000E+00  0.00000000E+00
  0.00000000E+00  0.00000000E+00  0.00000000E+00
  0.00000000E+00  0.00000000E+00  0.00000000E+00
  0.00000000E+00  0.00000000E+00  0.00000000E+00
  0.00000000E+00  0.00000000E+00  0.00000000E+00
  0.00000000E+00  0.00000000E+00  0.00000000E+00
  0.00000000E+00  0.00000000E+00  0.00000000E+00
  0.00000000E+00  0.00000000E+00  0.00000000E+00
  0.00000000E+00  0.00000000E+00  0.00000000E+00
  0.00000000E+00  0.00000000E+00  0.00000000E+00
  0.00000000E+00  0.00000000E+00  0.00000000E+00
  0.00000000E+00  0.00000000E+00  0.00000000E+00
  0.00000000E+00  0.00000000E+00  0.00000000E+00
  0.00000000E+00  0.00000000E+00  0.00000000E+00
  0.00000000E+00  0.00000000E+00  0.00000000E+00
  0.00000000E+00  0.00000000E+00  0.00000000E+00
  0.00000000E+00  0.00000000E+00  0.00000000E+00
  0.00000000E+00  0.00000000E+00  0.00000000E+00
  0.00000000E+00  0.00000000E+00  0.00000000E+00
  0.00000000E+00  0.00000000E+00  0.00000000E+00
  0.00000000E+00  0.00000000E+00  0.00000000E+00
  0.00000000E+00  0.00000000E+00  0.00000000E+00
  0.00000000E+00  0.00000000E+00  0.00000000E+00
  0.00000000E+00  0.00000000E+00  0.00000000E+00
  0.00000000E+00  0.00000000E+00  0.00000000E+00
  0.00000000E+00  0.00000000E+00  0.00000000E+00
  0.00000000E+00  0.00000000E+00  0.00000000E+00
  0.00000000E+00  0.00000000E+00  0.00000000E+00
  0.00000000E+00  0.00000000E+00  0.00000000E+00
  0.00000000E+00  0.00000000E+00  0.00000000E+00
  0.00000000E+00  0.00000000E+00  0.00000000E+00
  0.00000000E+00  0.00000000E+00  0.00000000E+00
  0.00000000E+00  0.00000000E+00  0.00000000E+00
  0.00000000E+00  0.00000000E+00  0.00000000E+00
  0.00000000E+00  0.00000000E+00  0.00000000E+00
  0.00000000E+00  0.00000000E+00  0.00000000E+00
  0.00000000E+00  0.00000000E+00  0.00000000E+00
  0.00000000E+00  0.00000000E+00  0.00000000E+00
  0.00000000E+00  0.00000000E+00  0.00000000E+00
  0.00000000E+00  0.00000000E+00  0.00000000E+00
  0.00000000E+00  0.00000000E+00  0.00000000E+00
  0.00000000E+00  0.00000000E+00  0.00000000E+00
  0.00000000E+00  0.00000000E+00  0.00000000E+00
  0.00000000E+00  0.00000000E+00  0.00000000E+00
  0.00000000E+00  0.00000000E+00  0.00000000E+00
  0.00000000E+00  0.00000000E+00  0.00000000E+00
  0.00000000E+00  0.00000000E+00  0.00000000E+00
  0.00000000E+00  0.00000000E+00  0.00000000E+00
  0.00000000E+00  0.00000000E+00  0.00000000E+00
  0.00000000E+00  0.00000000E+00  0.00000000E+00
  0.00000000E+00  0.00000000E+00  0.00000000E+00
  0.00000000E+00  0.00000000E+00  0.00000000E+00
  0.00000000E+00  0.00000000E+00  0.00000000E+00
  0.00000000E+00  0.00000000E+00  0.00000000E+00
  0.00000000E+00  0.00000000E+00  0.00000000E+00
  0.00000000E+00  0.00000000E+00  0.00000000E+00
  0.00000000E+00  0.00000000E+00  0.00000000E+00
  0.00000000E+00  0.00000000E+00  0.00000000E+00
  0.00000000E+00  0.00000000E+00  0.00000000E+00
  0.00000000E+00  0.00000000E+00  0.00000000E+00
  0.00000000E+00  0.00000000E+00  0.00000000E+00
  0.00000000E+00  0.00000000E+00  0.00000000E+00
  0.00000000E+00  0.00000000E+00  0.00000000E+00
  0.00000000E+00  0.00000000E+00  0.00000000E+00
  0.00000000E+00  0.00000000E+00  0.00000000E+00
  0.00000000E+00  0.00000000E+00  0.00000000E+00
  0.00000000E+00  0.00000000E+00  0.00000000E+00
  0.00000000E+00  0.00000000E+00  0.00000000E+00
  0.00000000E+00  0.00000000E+00  0.00000000E+00
  0.00000000E+00  0.00000000E+00  0.00000000E+00
  0.00000000E+00  0.00000000E+00  0.00000000E+00
  0.00000000E+00  0.00000000E+00  0.00000000E+00
  0.00000000E+00  0.00000000E+00  0.00000000E+00
  0.00000000E+00  0.00000000E+00  0.00000000E+00
  0.00000000E+00  0.00000000E+00  0.00000000E+00
  0.00000000E+00  0.00000000E+00  0.00000000E+00
  0.00000000E+00  0.00000000E+00  0.00000000E+00
  0.00000000E+00  0.00000000E+00  0.00000000E+00
  0.00000000E+00  0.00000000E+00  0.00000000E+00
  0.00000000E+00  0.00000000E+00  0.00000000E+00
  0.00000000E+00  0.00000000E+00  0.00000000E+00
  0.00000000E+00  0.00000000E+00  0.00000000E+00
  0.00000000E+00  0.00000000E+00  0.00000000E+00
  0.00000000E+00  0.00000000E+00  0.00000000E+00
  0.00000000E+00  0.00000000E+00  0.00000000E+00
  0.00000000E+00  0.00000000E+00  0.00000000E+00
  0.00000000E+00  0.00000000E+00  0.00000000E+00
  0.00000000E+00  0.00000000E+00  0.00000000E+00
  0.00000000E+00  0.00000000E+00  0.00000000E+00
  0.00000000E+00  0.00000000E+00  0.00000000E+00
  0.00000000E+00  0.00000000E+00  0.00000000E+00
  0.00000000E+00  0.00000000E+00  0.00000000E+00
  0.00000000E+00  0.00000000E+00  0.00000000E+00
  0.00000000E+00  0.00000000E+00  0.00000000E+00
  0.00000000E+00  0.00000000E+00  0.00000000E+00
  0.00000000E+00  0.00000000E+00  0.00000000E+00
  0.00000000E+00  0.00000000E+00  0.00000000E+00
  0.00000000E+00  0.00000000E+00  0.00000000E+00
  0.00000000E+00  0.00000000E+00  0.00000000E+00
  0.00000000E+00  0.00000000E+00  0.00000000E+00
  0.00000000E+00  0.00000000E+00  0.00000000E+00
  0.00000000E+00  0.00000000E+00  0.00000000E+00
  0.00000000E+00  0.00000000E+00  0.00000000E+00
  0.00000000E+00  0.00000000E+00  0.00000000E+00
  0.00000000E+00  0.00000000E+00  0.00000000E+00
  0.00000000E+00  0.00000000E+00  0.00000000E+00
  0.00000000E+00  0.00000000E+00  0.00000000E+00
  0.00000000E+00  0.00000000E+00  0.00000000E+00
  0.00000000E+00  0.00000000E+00  0.00000000E+00
  0.00000000E+00  0.00000000E+00  0.00000000E+00
  0.00000000E+00  0.00000000E+00  0.00000000E+00
  0.00000000E+00  0.00000000E+00  0.00000000E+00
  0.00000000E+00  0.00000000E+00  0.00000000E+00
  0.00000000E+00  0.00000000E+00  0.00000000E+00
  0.00000000E+00  0.00000000E+00  0.00000000E+00
  0.00000000E+00  0.00000000E+00  0.00000000E+00
  0.00000000E+00  0.00000000E+00  0.00000000E+00
  0.00000000E+00  0.00000000E+00  0.00000000E+00
  0.00000000E+00  0.00000000E+00  0.00000000E+00
  0.00000000E+00  0.00000000E+00  0.00000000E+00
  0.00000000E+00  0.00000000E+00  0.00000000E+00
  0.00000000E+00  0.00000000E+00  0.00000000E+00
  0.00000000E+00  0.00000000E+00  0.00000000E+00
  0.00000000E+00  0.00000000E+00  0.00000000E+00
  0.00000000E+00  0.00000000E+00  0.00000000E+00
  0.00000000E+00  0.00000000E+00  0.00000000E+00
  0.00000000E+00  0.00000000E+00  0.00000000E+00
  0.00000000E+00  0.00000000E+00  0.00000000E+00
  0.00000000E+00  0.00000000E+00  0.00000000E+00
  0.00000000E+00  0.00000000E+00  0.00000000E+00
  0.00000000E+00  0.00000000E+00  0.00000000E+00
  0.00000000E+00  0.00000000E+00  0.00000000E+00
  0.00000000E+00  0.00000000E+00  0.00000000E+00
  0.00000000E+00  0.00000000E+00  0.00000000E+00
  0.00000000E+00  0.00000000E+00  0.00000000E+00
  0.00000000E+00  0.00000000E+00  0.00000000E+00
  0.00000000E+00  0.00000000E+00  0.00000000E+00
  0.00000000E+00  0.00000000E+00  0.00000000E+00
  0.00000000E+00  0.00000000E+00  0.00000000E+00
  0.00000000E+00  0.00000000E+00  0.00000000E+00
  0.00000000E+00  0.00000000E+00  0.00000000E+00
  0.00000000E+00  0.00000000E+00  0.00000000E+00
  0.00000000E+00  0.00000000E+00  0.00000000E+00
  0.00000000E+00  0.00000000E+00  0.00000000E+00
  0.00000000E+00  0.00000000E+00  0.00000000E+00
  0.00000000E+00  0.00000000E+00  0.00000000E+00
  0.00000000E+00  0.00000000E+00  0.00000000E+00
  0.00000000E+00  0.00000000E+00  0.00000000E+00
  0.00000000E+00  0.00000000E+00  0.00000000E+00
  0.00000000E+00  0.00000000E+00  0.00000000E+00
  0.00000000E+00  0.00000000E+00  0.00000000E+00
  0.00000000E+00  0.00000000E+00  0.00000000E+00
  0.00000000E+00  0.00000000E+00  0.00000000E+00
  0.00000000E+00  0.00000000E+00  0.00000000E+00
  0.00000000E+00  0.00000000E+00  0.00000000E+00
  0.00000000E+00  0.00000000E+00  0.00000000E+00
  0.00000000E+00  0.00000000E+00  0.00000000E+00
  0.00000000E+00  0.00000000E+00  0.00000000E+00
  0.00000000E+00  0.00000000E+00  0.00000000E+00
  0.00000000E+00  0.00000000E+00  0.00000000E+00
  0.00000000E+00  0.00000000E+00  0.00000000E+00
  0.00000000E+00  0.00000000E+00  0.00000000E+00
  0.00000000E+00  0.00000000E+00  0.00000000E+00
  0.00000000E+00  0.00000000E+00  0.00000000E+00
  0.00000000E+00  0.00000000E+00  0.00000000E+00
  0.00000000E+00  0.00000000E+00  0.00000000E+00
  0.00000000E+00  0.00000000E+00  0.00000000E+00
  0.00000000E+00  0.00000000E+00  0.00000000E+00
  0.00000000E+00  0.00000000E+00  0.00000000E+00
  0.00000000E+00  0.00000000E+00  0.00000000E+00
  0.00000000E+00  0.00000000E+00  0.00000000E+00
  0.00000000E+00  0.00000000E+00  0.00000000E+00
  0.00000000E+00  0.00000000E+00  0.00000000E+00
  0.00000000E+00  0.00000000E+00  0.00000000E+00
  0.00000000E+00  0.00000000E+00  0.00000000E+00
  0.00000000E+00  0.00000000E+00  0.00000000E+00
