Te3
1.0
   2.3086884599999999   -3.9996925800000001    0.0002184400000000
   2.3087434500000001    3.9997256399999999   -0.0001835300000000
   0.0000596400000000   -0.0002306100000000    5.8851148599999998
Te
3
direct
  -0.0000149200000000    0.2557389300000000    0.3333135000000000 Te
   0.2557287500000000   -0.0000205800000000    0.6666217500000000 Te
   0.7442871700000000    0.7442826500000000    0.0000647500000000 Te
