Sb                                      
   1.00000000000000     
    18.8173007964999996    0.0000000000000000    0.0000000000000000
     0.0000000000000000   18.8173007964999996    0.0000000000000000
     0.0000000000000000    0.0000000000000000   18.8173007964999996
   Sb   C 
   195    21
Direct
  0.9905842891405371  0.0497249245241398  0.5455137327697627
  0.5633815091995632  0.8685863357974241  0.3284933505470957
  0.0088838363154166  0.3084123315652884  0.9598754427335666
  0.7744610689460786  0.9467530198392572  0.9054899973352185
  0.8907171882819293  0.2425248797971005  0.3206411846408850
  0.7359414863282113  0.0323891046201526  0.6053141503085514
  0.3278427938896529  0.6791812913939567  0.3682817794532613
  0.2857408756142815  0.1234261187582044  0.3456079354572289
  0.2168051449227583  0.9992613952095806  0.2803218852542211
  0.6042587201790682  0.8765362296249253  0.9879937679214083
  0.2024241646083400  0.2348306038203617  0.5406678736024727
  0.7817410937249182  0.2311684050912247  0.9399338300199639
  0.4980599340044863  0.7302116730950066  0.4893893987532836
  0.2793158873944105  0.3029331492061050  0.2940762297324437
  0.9689098899433189  0.9519588080555343  0.2510927881411246
  0.8987194267694326  0.9134468076102075  0.7937588224202616
  0.5722165060967803  0.1570720698298582  0.9104321695415979
  0.8342995143657610  0.6672589357067584  0.8260117955064216
  0.9316045943174210  0.5634663700962713  0.3355693160604652
  0.8442031153879608  0.1929610826695611  0.6238530335312148
  0.6465437184042498  0.0337201325939609  0.3864751603486203
  0.8363952607339633  0.4407801289936492  0.9685438757912888
  0.4931742003130050  0.6466513467221896  0.1106383705030328
  0.7348971895677572  0.5549455794073784  0.9380516353168896
  0.6962562624617478  0.9972323729218133  0.2504757953165797
  0.0123520917735612  0.5368966208875077  0.8898547469109092
  0.6930156818741231  0.7079585528055879  0.5638690865345124
  0.7693981313981254  0.5366404487562516  0.0973231985044524
  0.1618822665576889  0.4010388864063288  0.2415088281927369
  0.6857551273790186  0.3617284179429517  0.8766894207219957
  0.3221123409808161  0.3792147806470835  0.0917216205095467
  0.2518058476372281  0.1980136183526837  0.9721497068355663
  0.6352522718708906  0.6350728345537058  0.1803786002668370
  0.2985083630834697  0.1803531993899782  0.7211569953885488
  0.2393767780826363  0.8260207564300830  0.0651630804352062
  0.3368603264995673  0.6503406121893734  0.1226163638261041
  0.5619074953706659  0.9029286891515331  0.5057100518581645
  0.8645190525282308  0.3211012586329769  0.0947038228640918
  0.9335026284978321  0.1722285123635300  0.9588337243838991
  0.0587590471777137  0.8657902883749734  0.9695730561761853
  0.1783274436453560  0.3283016878656341  0.0291734478903699
  0.9962950485966083  0.5237467911933048  0.5660312699085404
  0.7793827273785254  0.4039536162504562  0.1932236794215442
  0.2767632075734047  0.7460837300791638  0.2336268542496488
  0.0790599501030525  0.1559890814862771  0.6142502504695851
  0.9131287240611993  0.6230788835201213  0.9867871658283285
  0.0348278064474731  0.6709255044888630  0.4059922438525527
  0.1634716567997854  0.8522283608807297  0.7527228354033987
  0.2637026734096110  0.5123223046367220  0.1577810089429356
  0.5864109784422917  0.1806206301617164  0.6690145333958849
  0.7423624022684743  0.7189707039740221  0.9947419913564080
  0.8938196234295309  0.7771633089822525  0.6980031079814113
  0.7136738520586502  0.0874544190264865  0.9686762643581022
  0.5745217916041251  0.6487458341292275  0.8872938608279716
  0.0307151406508412  0.8849004967346600  0.4314603858860390
  0.5149934655747960  0.6664894777408229  0.3187595000588901
  0.1358268995097915  0.7098897997769035  0.0945851522947925
  0.1753985996005254  0.9525640495524000  0.0025470940306336
  0.0162012898448151  0.8180684322091625  0.0994601163376369
  0.2355347900532074  0.0901743441863515  0.4905202822783739
  0.8821366687139722  0.8117004369703374  0.2681976259140954
  0.8631245471587260  0.3292715730332695  0.5517237709841809
  0.3995682536130890  0.9399108581137088  0.5720454707544265
  0.3987181365248604  0.8441056630339207  0.1184312081503225
  0.3153056804974221  0.6091938993593257  0.5803561532881623
  0.0525063113775338  0.8798478806726083  0.5853570121729927
  0.3800702129779506  0.1340445625822691  0.5654469772066933
  0.7834757983110535  0.4359191798635955  0.4048213734944139
  0.4664857971338074  0.2465297259373141  0.7892889717415914
  0.3654826608442819  0.8112181354338380  0.4674887277033491
  0.4898908429441122  0.1208681316391595  0.3027794077913261
  0.7038032855223437  0.7712103363756094  0.2288312623645045
  0.5372822758177737  0.0526389978879808  0.0579330988142107
  0.1299749046063315  0.1747569215515867  0.2431337358700441
  0.2517818787166538  0.9007511460172091  0.8703916665586292
  0.3763130805686516  0.6173465039772463  0.9343955702417505
  0.3905867454754097  0.4959441213163694  0.3118606846930941
  0.8904466885563669  0.8785048687219886  0.5705531300475920
  0.9256808106254916  0.1639685943329501  0.1292940791998406
  0.0765927069015163  0.7609418874633892  0.2747662605214596
  0.0868691744649898  0.0383483159218220  0.1026577751015521
  0.5219798486889192  0.8359986456893452  0.6850957677670738
  0.9924928425835314  0.0888287504225470  0.3182989506507593
  0.8879403047325111  0.9985794587484076  0.1316617510285784
  0.4251801199936910  0.8160665645532250  0.3233386962477933
  0.2461704219424712  0.2834728092535604  0.8279739688879825
  0.4189171627266996  0.1881100389848323  0.9868028142030528
  0.0865095406879927  0.7211031660281246  0.5803756810729753
  0.2176283988431717  0.0655919485261577  0.8120496818657917
  0.8102838590629419  0.6365579102565944  0.6470106417672520
  0.1184034762266039  0.2390272298874307  0.3971930461971518
  0.5486120404103686  0.0527217914238415  0.5452679593939371
  0.2384581862991035  0.7543939487797745  0.9189303287718735
  0.7420029020549108  0.5046992803744984  0.7898369553941931
  0.7607945595938788  0.2446792745848499  0.4038786689180172
  0.1499340605138925  0.5258261164550511  0.7230939959196191
  0.2633288554085805  0.3955464949164438  0.5968739069463100
  0.2373344077799615  0.7509367961169876  0.6174614339346828
  0.5606314327215874  0.3245827681939354  0.9751939356825612
  0.7383293221905300  0.7887849351766595  0.8594564324407287
  0.9530464545084306  0.4807077950767704  0.1239196792169429
  0.4555956443092840  0.4972088785254973  0.0826443957103873
  0.6769427760234180  0.3177123297895961  0.0840032965299171
  0.5184864552163356  0.0171194771097846  0.8714225548081688
  0.8044727857815824  0.8455024060508900  0.0798621954964234
  0.5524280757894331  0.9712118071735615  0.1973393068794752
  0.9957331190758446  0.5566152561719696  0.7228730719098289
  0.3956842719092264  0.3177572074427956  0.6681434335360270
  0.9824747157900687  0.2364549098657441  0.7151003542635226
  0.9832627683996839  0.6182311853965945  0.1957239917991148
  0.4783426683707578  0.2962577816548739  0.2315168069376577
  0.4120388896345276  0.9503707825325657  0.9988804553475170
  0.6943755009751785  0.9654481892778972  0.0810424098959774
  0.5594151919375480  0.8238312079350938  0.1269945439777359
  0.5513462685848662  0.7980294868695188  0.8504583218568055
  0.2344352228467297  0.9491042409072321  0.5960676253026905
  0.4882479439097248  0.4465523128089894  0.8570340941631899
  0.8929137253803490  0.1053054327658930  0.4475763223802670
  0.6784663236637914  0.7624069528385664  0.3790784039326018
  0.8044394843958939  0.6513130180702598  0.3376735570260286
  0.9133067778548888  0.7727163419817433  0.4157327359782902
  0.8500880308284772  0.6747308953869797  0.1362828326471120
  0.6196322473010444  0.9979315873533675  0.7197811491154851
  0.1079342529725005  0.0369701230935584  0.4153268189207397
  0.9383836026350665  0.9737376626614120  0.9879926025095177
  0.1107410409320002  0.0196666433525209  0.7049609980987779
  0.1009040634245475  0.9100513904683832  0.1891506904110146
  0.3929397105076129  0.3287389086986761  0.9100464339269988
  0.6399721513400696  0.3262936736356352  0.7341919432901381
  0.3385956233113410  0.8904528899256656  0.7438124942575307
  0.0844523940906670  0.3013779846609272  0.1583096856145664
  0.4341544930162832  0.0638419953193380  0.6970274290737902
  0.4914646543123999  0.2477506089043895  0.5525394816605453
  0.5798954800751834  0.2376694467739514  0.3925752239111738
  0.6658836956498828  0.1630703969468827  0.2440820358753322
  0.0193745405858545  0.0168519648037697  0.8238532662362573
  0.6798881533629665  0.3555969110178567  0.5385172065691715
  0.8769634635498671  0.0158987254970731  0.6578838132355351
  0.7855784601916029  0.2710563157638681  0.7473254457716245
  0.0791992417144421  0.3831877861254357  0.5462153210090424
  0.2580349780365117  0.9319752251776652  0.4270142280255165
  0.5681016757102976  0.2128386160331809  0.1361021670469180
  0.3859139460365353  0.0640129179603883  0.1188302891093310
  0.3338133793788725  0.2486353275183835  0.1592135047401037
  0.9060224850542649  0.1184916036815959  0.7852258803583587
  0.6740460790821394  0.3107282548225348  0.2908518584530075
  0.1708686760401764  0.5601981072026803  0.5656824985962176
  0.1928299393955448  0.5616270413422934  0.0323249798461029
  0.0710316375019923  0.4645389997774249  0.0221083342372315
  0.8899534504925805  0.4044349496514018  0.3028377308586089
  0.5212382993628243  0.4921352637404876  0.2282986449828708
  0.3590608540408585  0.7350736443476100  0.7806865626664439
  0.1514961036028389  0.5888363737434200  0.2419948274018464
  0.8529728641004805  0.5281059385586311  0.5014778149108485
  0.0941102979822315  0.2542452401888531  0.8301841943334498
  0.6973779115683414  0.1747471201316885  0.5542215218913261
  0.5714940524314366  0.4846129741937150  0.9780540824625243
  0.2306090754939778  0.0965022509481546  0.1382697400114074
  0.8928777866286109  0.8103807780862637  0.9140082072544624
  0.4673319798203097  0.7050049958141725  0.6425661363985088
  0.4388244726480486  0.0107760426033106  0.4033154912681228
  0.0907485923844533  0.3927379294651370  0.3733443554966826
  0.2312948429001549  0.4488652028995888  0.4201142791139041
  0.3825010005703611  0.9524891324621210  0.2297204886815894
  0.6787151810772089  0.8229847466287369  0.6620033905064195
  0.9638728907176135  0.2437814751884924  0.4598644851796187
  0.1405577191393942  0.3770386189849060  0.6877558497735943
  0.3748706052069995  0.0907185152400374  0.8765473680993949
  0.7208400401026464  0.8955348642152730  0.5232948038567043
  0.2928184068666607  0.4755618523792270  0.9416085484802179
  0.7713638156935493  0.1499864861811916  0.1066491037055149
  0.6490732046170113  0.6773722385941576  0.7500392470016477
  0.0352336867954124  0.7123324388122949  0.7215808682529836
  0.1738611600981116  0.4241556438316998  0.8721857601519907
  0.1636444545950091  0.8064610482745658  0.3958151522229403
  0.9373015745075153  0.4172441199102258  0.8554146999065170
  0.3909626158734675  0.2758533173710194  0.4170284047284600
  0.8423479272685311  0.4132564644485684  0.7033408805969507
  0.6786461192996323  0.1253399196222766  0.7931254385673864
  0.1886452568736348  0.5936758978900807  0.3938961223296263
  0.1115472037469650  0.1306291158831290  0.9165060310156780
  0.4279945367801056  0.7849393440206338  0.9546310052146858
  0.7714741531891806  0.8867818742160954  0.3552716056609772
  0.6012593642616623  0.4131184700033911  0.4095062331751270
  0.4531896413160615  0.5822991462480609  0.4804433640457436
  0.7048080262170139  0.5443768560715874  0.2900135531604937
  0.2026064062267044  0.6972434287298304  0.7569068098109993
  0.6163952361728261  0.5709079832671649  0.4197948863767714
  0.4537003071516013  0.5903556793035741  0.8056398198644256
  0.3410700700931064  0.4970626604052012  0.6826945985319434
  0.4410941074316182  0.4241282418549763  0.4390839157213924
  0.7388295926431295  0.4780203815850831  0.6002368407407453
  0.5930381779349135  0.6082542343442315  0.6195544441513280
  0.5905482068529417  0.4757111499978614  0.7328406793367088
  0.4800275220936077  0.4536583864350311  0.6253493547692529
  0.8503513751011470  0.9003727383390887  0.9795793207090610
  0.5248232789590853  0.9656248410517126  0.9785483647982680
  0.4708641007226175  0.2340869680418865  0.3358192523199995
  0.6019992277759556  0.1348731601565478  0.3394557630505480
  0.8097575914533556  0.7154020294231580  0.2410495706839961
  0.3444638064097191  0.7253215755989236  0.8973099625106457
  0.8784179495077928  0.5243398776501551  0.0412135741602846
  0.4388908220166144  0.0413752015185216  0.5212899279526600
  0.7765047303642723  0.3377843325959940  0.4715342265897740
  0.4015881339282245  0.1521947920230425  0.7776220254203184
  0.4217220384340679  0.6024480647495585  0.3611528448036208
  0.1668520587836000  0.7022974571677840  0.2115672936096885
  0.2496956725235351  0.8630682993599701  0.6701299096696175
  0.5494304597368240  0.9656758252272040  0.3979351147823956
  0.2090485800532611  0.2097816485187927  0.3256821411493053
  0.5486002215954883  0.0723879499646576  0.6644467198456594
  0.1838135634916115  0.4468095260017230  0.5294656566541813
  0.7732980556840541  0.2556017379600543  0.0554010860218041
  0.8097102090604338  0.6422185596230677  0.9388069035872710
  0.5251732940568760  0.6080948394674131  0.2180436854427391
  0.7550797071708562  0.6223417525094411  0.7494902905735334
 
 -0.64641094E-03 -0.11183706E-02 -0.10181375E-02
 -0.63874389E-03  0.50413926E-03 -0.96518488E-03
 -0.10451890E-02 -0.57834000E-03  0.26252569E-02
  0.24132096E-02 -0.30493847E-03 -0.15435604E-02
  0.11118167E-02 -0.52226032E-03 -0.40546181E-02
 -0.17618551E-03  0.19251902E-02 -0.14861794E-02
 -0.24687145E-02  0.16371769E-02  0.10452994E-02
  0.11809412E-03  0.21487873E-03 -0.18094919E-02
 -0.11971430E-02  0.86905190E-03 -0.15614547E-02
  0.16937326E-02  0.13090164E-02 -0.58382806E-03
  0.50952335E-04  0.30285256E-03 -0.96882866E-03
  0.18433367E-02  0.18177300E-02  0.17905623E-02
  0.67307270E-03  0.16819687E-02 -0.11970458E-03
 -0.19128085E-02  0.11461243E-02  0.69175447E-03
  0.23338545E-02 -0.11134745E-02 -0.16047950E-02
  0.16884055E-02  0.95833690E-03 -0.33238872E-03
 -0.15255786E-03 -0.67245134E-03 -0.11225601E-02
  0.74905012E-03  0.13752310E-02 -0.14724425E-02
 -0.98747812E-03  0.14620293E-02 -0.15300236E-03
 -0.16957567E-02  0.18460214E-03 -0.12605498E-02
  0.20053433E-02 -0.56501549E-03  0.15115844E-02
 -0.15784433E-02 -0.24725081E-02 -0.42645802E-03
  0.14755054E-02  0.13644315E-02 -0.69836906E-03
 -0.85261797E-03  0.22866488E-02 -0.25266020E-03
  0.90961251E-03 -0.72068773E-03  0.22311681E-02
 -0.19772796E-02 -0.17073116E-02  0.24998733E-03
 -0.40976453E-02 -0.96358611E-03  0.18184434E-02
  0.90160746E-04  0.19732025E-04  0.20182463E-02
 -0.13516715E-02 -0.78511779E-03  0.32346363E-03
 -0.95069892E-03 -0.70202815E-03  0.15081153E-03
  0.16351626E-02  0.88650483E-04  0.61274559E-03
 -0.38733389E-03 -0.23807734E-02  0.71410032E-03
  0.15627674E-02  0.41654251E-02 -0.29730419E-03
  0.12402582E-02 -0.55535028E-03  0.21596567E-02
  0.19466991E-02  0.21016219E-02  0.18972111E-02
  0.94605907E-03  0.12106692E-02  0.11657330E-02
 -0.18294949E-02 -0.21113693E-04  0.56769909E-03
 -0.15196056E-02 -0.38711285E-03  0.44240564E-03
  0.10823544E-02  0.94514539E-03 -0.16127819E-02
  0.73015049E-03 -0.43208683E-02 -0.31502643E-02
  0.16277034E-02  0.11257319E-02 -0.19289910E-02
  0.19685671E-02  0.16129287E-02 -0.39261589E-03
  0.53595203E-03 -0.28481311E-03  0.18851609E-02
 -0.12395589E-02  0.18982417E-03  0.42642362E-02
  0.16928333E-02 -0.11475537E-02 -0.17076353E-02
  0.65925275E-03  0.13002329E-02  0.19172190E-02
  0.13464454E-02  0.74851629E-03  0.33834722E-02
  0.92325806E-03  0.13621003E-02 -0.10934819E-02
 -0.60051721E-03 -0.10341758E-02  0.52044990E-03
 -0.25029683E-03  0.74060990E-03 -0.14728208E-02
  0.96062485E-03 -0.38072522E-03  0.20304589E-02
 -0.95522128E-03 -0.13494030E-02 -0.24305169E-02
  0.63277514E-03  0.10798749E-03  0.12783050E-02
 -0.85238024E-03  0.29262890E-02 -0.61346219E-04
 -0.10665881E-02  0.20928338E-05  0.19280350E-02
  0.19541912E-02 -0.16586902E-02 -0.10099780E-02
 -0.21751094E-02  0.12530037E-04 -0.12841457E-02
 -0.82624755E-03 -0.85215636E-03  0.20039394E-02
 -0.36293329E-03  0.94587864E-03  0.77755240E-03
 -0.36704980E-03 -0.64983042E-04  0.86402315E-03
 -0.13657762E-02  0.91256085E-03 -0.11113485E-02
  0.15025769E-02 -0.15370398E-02 -0.14087782E-02
  0.35211616E-03  0.14203088E-02 -0.19905928E-03
  0.36459795E-03  0.10298768E-02 -0.25707468E-02
  0.16204647E-03  0.98711010E-03 -0.86312042E-03
 -0.11136835E-02  0.27832570E-03  0.29344150E-02
 -0.57710087E-03 -0.22124658E-03 -0.37577408E-03
 -0.51809561E-03 -0.56778128E-03 -0.95513015E-03
 -0.21086310E-03 -0.21642406E-02  0.13197966E-02
  0.52421245E-03  0.48061692E-03 -0.19134764E-03
 -0.13540489E-03 -0.11678321E-02  0.24599204E-02
  0.23742409E-02  0.32401569E-02 -0.30001244E-02
 -0.18619458E-03 -0.20679613E-03  0.29589607E-03
  0.47859402E-02 -0.21480401E-02 -0.42287980E-02
 -0.35840887E-03 -0.64007356E-03 -0.11528224E-02
 -0.47992608E-03  0.12432702E-02  0.10710106E-02
  0.16128519E-03  0.83727433E-03 -0.90820881E-03
 -0.23703307E-02 -0.25047519E-02 -0.17086651E-02
  0.48100256E-03 -0.14033568E-02 -0.48720074E-03
 -0.10414622E-02 -0.99346373E-03  0.49653211E-04
  0.24679192E-02 -0.38181908E-03  0.17327842E-02
  0.21373024E-03 -0.23321085E-02 -0.31239894E-03
 -0.11952623E-03  0.13416637E-03  0.34605822E-03
  0.12288445E-02 -0.20181305E-02 -0.32484783E-04
  0.92079458E-04 -0.61365234E-03  0.30403590E-03
  0.15851542E-02  0.36618537E-03  0.90418584E-04
 -0.68311174E-03  0.50314233E-03  0.12107837E-02
  0.26417096E-03  0.29684808E-02 -0.26494105E-02
 -0.11711258E-05  0.61544407E-03  0.12698632E-02
 -0.19418247E-02 -0.21756014E-02 -0.58509463E-04
 -0.26152676E-02 -0.19681091E-03  0.65494122E-03
  0.91841538E-03 -0.30705457E-03 -0.54552163E-03
  0.20927054E-02 -0.88063993E-03 -0.13616932E-02
  0.19113988E-02 -0.20045723E-02  0.27940280E-02
  0.14129847E-02  0.75860631E-03  0.40111893E-03
 -0.35295242E-03 -0.17473198E-02 -0.84574890E-03
 -0.10449674E-02  0.66212051E-03  0.71183095E-03
 -0.21095466E-02 -0.33921529E-03  0.75804120E-03
  0.57509100E-03  0.16743003E-02 -0.17510699E-02
 -0.26054677E-03 -0.14501442E-02 -0.84523627E-03
  0.83949738E-03 -0.14123756E-03 -0.74188044E-03
 -0.23710896E-03  0.96652912E-03  0.11855666E-02
 -0.12591831E-02 -0.16717705E-02  0.18015782E-02
  0.17487288E-02  0.10351391E-02 -0.16539015E-02
  0.23924502E-03  0.18472088E-02  0.23306995E-02
  0.95884703E-03 -0.10120370E-02 -0.85521066E-03
 -0.51642624E-03  0.54479057E-03  0.17555169E-02
  0.71853884E-03 -0.12722690E-02  0.83815345E-03
  0.96905784E-03 -0.16550971E-02  0.57593325E-03
  0.65669405E-03 -0.79368004E-03 -0.63587560E-03
  0.12412165E-02 -0.24135363E-03  0.17251895E-02
 -0.15521620E-02  0.49615475E-03  0.40455009E-03
  0.23923368E-02  0.20488759E-02 -0.13389678E-02
  0.95323656E-03  0.11632237E-02 -0.20825030E-03
  0.18937473E-02  0.92850024E-03 -0.27468448E-02
  0.26628912E-02  0.12011367E-02 -0.14569209E-02
  0.17967078E-02  0.94982566E-04  0.30701622E-03
 -0.19586943E-02 -0.12224551E-02  0.13254853E-02
  0.82582178E-03  0.55893110E-03  0.21967769E-02
  0.73671459E-03  0.12133216E-02  0.25603526E-02
  0.18347877E-02 -0.27424350E-02  0.32057222E-02
 -0.21106155E-03 -0.19762298E-03 -0.97630746E-03
 -0.97615482E-03 -0.58582956E-03 -0.30473768E-03
  0.17268885E-03  0.62598940E-03 -0.25774824E-02
  0.65015346E-03  0.25495101E-02  0.13199683E-03
 -0.76157151E-03  0.34584637E-03  0.17859906E-03
  0.16827586E-02  0.11458208E-02 -0.24999878E-03
  0.81868436E-03  0.77121601E-03  0.21420000E-02
 -0.17937323E-02  0.16470396E-02 -0.97442325E-03
  0.21383917E-02 -0.70190426E-03 -0.14508539E-02
 -0.22548177E-02 -0.42393368E-03 -0.12359506E-02
  0.12027550E-02 -0.35836708E-04 -0.69997531E-03
 -0.24393402E-02  0.45228666E-03  0.25264232E-03
 -0.32702504E-03  0.78546787E-03  0.13415371E-02
 -0.71954294E-04 -0.98919994E-03  0.19917417E-03
 -0.16200955E-02 -0.25333635E-03  0.17065249E-02
  0.23409350E-03 -0.46270117E-02 -0.24355036E-02
  0.39661421E-04 -0.31154023E-02  0.19287719E-03
 -0.47948445E-03  0.37727942E-03 -0.62159916E-02
 -0.13254334E-02 -0.33376120E-03  0.13293672E-02
  0.13130905E-02 -0.97702773E-03 -0.22234810E-02
 -0.84846245E-03 -0.14998143E-02  0.25473312E-02
  0.78777605E-03 -0.25750472E-04 -0.17576604E-02
 -0.16220698E-02  0.74348491E-03 -0.38319074E-03
 -0.43802110E-02 -0.15226338E-03  0.18083423E-03
 -0.35107622E-03 -0.57608315E-04  0.19405398E-02
  0.86233432E-03  0.11613182E-02 -0.21367771E-02
  0.13109814E-03  0.30581905E-03 -0.17821668E-02
  0.15227805E-02  0.10507103E-02  0.48252223E-03
  0.10652518E-02 -0.61273400E-03 -0.83091782E-03
  0.15502896E-02  0.67447874E-03  0.51642771E-03
 -0.71143719E-03 -0.37273183E-03 -0.25911029E-02
 -0.12757928E-02 -0.12274620E-02 -0.10091567E-02
  0.14786093E-02 -0.10982530E-02  0.63438628E-03
  0.21354595E-02  0.12037161E-02 -0.71916216E-03
  0.70783600E-03  0.19908291E-02  0.80725680E-04
 -0.84161636E-03  0.14222243E-03 -0.15809027E-02
 -0.16015101E-02  0.10018024E-02  0.29583806E-02
 -0.21559364E-02  0.93630266E-03  0.12458487E-02
  0.67243283E-03  0.10265165E-03  0.80271610E-03
  0.94816529E-03  0.20523045E-02  0.19548019E-02
  0.11299287E-03  0.25480627E-03 -0.18730805E-02
 -0.14985510E-02  0.75348262E-03  0.20601619E-02
  0.21699926E-03 -0.56095802E-03 -0.17555007E-02
 -0.16840381E-02 -0.21476635E-02  0.34735618E-02
  0.71195868E-03 -0.14897936E-02 -0.32809698E-03
  0.38669153E-04 -0.12057589E-02 -0.28919316E-03
  0.16097430E-02  0.16372571E-02 -0.53468508E-03
 -0.41652174E-03 -0.20894035E-02  0.19941901E-02
 -0.21412892E-04  0.11284474E-02 -0.16329623E-02
  0.18762903E-03 -0.32781910E-02 -0.22098576E-02
 -0.17968622E-02 -0.12382840E-03  0.12609184E-02
 -0.35697249E-03 -0.98047867E-03  0.13834553E-02
  0.25148923E-02  0.11233826E-03 -0.19773851E-02
  0.23687325E-03 -0.74080494E-03 -0.21341523E-03
  0.55686573E-03 -0.79527680E-03  0.36287497E-03
 -0.24553786E-02 -0.20195417E-02 -0.95726850E-03
  0.19219543E-03 -0.89541449E-03  0.19625980E-02
 -0.70295227E-03 -0.34678894E-03 -0.35111328E-03
  0.85019852E-03  0.24771473E-02  0.25073969E-03
  0.39458504E-03 -0.19565737E-02  0.15366137E-02
  0.91873363E-03  0.22386123E-02 -0.10733851E-02
  0.12563650E-03  0.95470531E-03  0.58235141E-03
 -0.15774063E-02  0.13271510E-02 -0.14065161E-02
 -0.40883795E-02  0.57170978E-03  0.21971028E-02
 -0.21095903E-02  0.25566306E-02  0.50593569E-03
  0.17142231E-03  0.45982698E-03  0.16694311E-02
 -0.31560065E-03  0.65202359E-03  0.71685113E-03
 -0.20823817E-02  0.73606925E-03  0.31677305E-04
 -0.12419697E-02 -0.15165046E-03  0.94091899E-03
  0.11160737E-02 -0.64542145E-03  0.12879026E-03
 -0.20223455E-02 -0.49859478E-03 -0.10397548E-02
 -0.93413580E-03 -0.96274979E-03 -0.79128606E-03
 -0.27784979E-02 -0.73086168E-04  0.18358345E-02
 -0.22147676E-02 -0.26789949E-02  0.90418729E-03
  0.10375390E-02 -0.31153620E-02 -0.31287631E-02
 -0.27672915E-02  0.27540452E-02 -0.78228586E-02
  0.25933215E-03  0.32042011E-02  0.21255262E-02
 -0.82675188E-03  0.74223226E-03  0.11603575E-02
 -0.15457238E-03  0.41363509E-02 -0.60640606E-02
  0.33152011E-02  0.81285503E-02  0.23141246E-02
  0.36106216E-04 -0.27067218E-02  0.20718781E-02
  0.13079757E-03 -0.49635086E-02 -0.16683223E-02
  0.16421827E-02  0.29578058E-02  0.42710986E-03
  0.15643631E-02 -0.45742074E-03 -0.94837017E-03
 -0.25760403E-02 -0.22067233E-02 -0.31833932E-02
 -0.17619329E-02  0.64975204E-02  0.47313658E-03
 -0.15784748E-02 -0.48986143E-02  0.46223373E-02
 -0.27844372E-03  0.28891175E-02 -0.14118125E-02
 -0.53916659E-02  0.11445605E-02 -0.30161176E-02
  0.90435489E-03 -0.10400371E-02 -0.40183032E-02
  0.94412915E-03  0.91032773E-02 -0.64382342E-03
 -0.19331422E-02 -0.85579138E-03 -0.10326714E-02
  0.68495418E-03 -0.11731949E-02 -0.47961269E-03
  0.22767174E-02 -0.79775428E-03 -0.53265117E-03
 -0.65923860E-02 -0.34902680E-02 -0.41507713E-02
 
           1
   4.00000000000000     
  0.10000000E+01  0.00000000E+00  0.00000000E+00  0.00000000E+00
  0.99044688E+00  0.49487192E-01  0.54529731E+00
  0.56324573E+00  0.86869350E+00  0.32828818E+00
  0.86616601E-02  0.30828939E+00  0.96043349E+00
  0.77497405E+00  0.94668820E+00  0.90516188E+00
  0.89095353E+00  0.24241386E+00  0.31977929E+00
  0.73590403E+00  0.32798343E-01  0.60499823E+00
  0.32731802E+00  0.67952931E+00  0.36850398E+00
  0.28576598E+00  0.12347180E+00  0.34522329E+00
  0.21655067E+00  0.99944613E+00  0.27998997E+00
  0.60461876E+00  0.87681449E+00  0.98786966E+00
  0.20243500E+00  0.23489498E+00  0.54046193E+00
  0.78213293E+00  0.23155480E+00  0.94031445E+00
  0.49820301E+00  0.73056921E+00  0.48936395E+00
  0.27890928E+00  0.30317678E+00  0.29422328E+00
  0.96940600E+00  0.95172212E+00  0.25075166E+00
  0.89907833E+00  0.91365052E+00  0.79368817E+00
  0.57218408E+00  0.15692913E+00  0.91019355E+00
  0.83445874E+00  0.66755127E+00  0.82569880E+00
  0.93139469E+00  0.56377715E+00  0.33553679E+00
  0.84384265E+00  0.19300032E+00  0.62358508E+00
  0.64696999E+00  0.33600027E-01  0.38679648E+00
  0.83605973E+00  0.44025455E+00  0.96845322E+00
  0.49348785E+00  0.64694138E+00  0.11048992E+00
  0.73471595E+00  0.55543165E+00  0.93799793E+00
  0.69644962E+00  0.99707918E+00  0.25095008E+00
  0.11931781E-01  0.53653370E+00  0.88990789E+00
  0.69214464E+00  0.70775372E+00  0.56425563E+00
  0.76941730E+00  0.53664464E+00  0.97752218E-01
  0.16159494E+00  0.40087199E+00  0.24157759E+00
  0.68555304E+00  0.36157919E+00  0.87672148E+00
  0.32245993E+00  0.37923363E+00  0.91851872E-01
  0.25172351E+00  0.19750754E+00  0.97230150E+00
  0.63558447E+00  0.63595828E+00  0.18031540E+00
  0.29877201E+00  0.18023515E+00  0.72161607E+00
  0.23979059E+00  0.82646750E+00  0.65566371E-01
  0.33706143E+00  0.65059796E+00  0.12286416E+00
  0.56151860E+00  0.90292420E+00  0.50583073E+00
  0.86419603E+00  0.32101897E+00  0.94797865E-01
  0.93373270E+00  0.17242942E+00  0.95849089E+00
  0.58914256E-01  0.86487180E+00  0.96890340E+00
  0.17867345E+00  0.32854099E+00  0.28763402E-01
  0.99671351E+00  0.52408965E+00  0.56594781E+00
  0.77949665E+00  0.40389307E+00  0.19362441E+00
  0.27649971E+00  0.74612408E+00  0.23453330E+00
  0.79419796E-01  0.15574515E+00  0.61388726E+00
  0.91326886E+00  0.62335527E+00  0.98719471E+00
  0.35114021E-01  0.67108462E+00  0.40671147E+00
  0.16366791E+00  0.85251790E+00  0.75249039E+00
  0.26357502E+00  0.51210247E+00  0.15789164E+00
  0.58635777E+00  0.18077806E+00  0.66870146E+00
  0.74256660E+00  0.71888977E+00  0.99517361E+00
  0.89361657E+00  0.77687647E+00  0.69748645E+00
  0.71380836E+00  0.87477374E-01  0.96894799E+00
  0.57434060E+00  0.64936788E+00  0.88728082E+00
  0.30488416E-01  0.88490094E+00  0.43187023E+00
  0.51540887E+00  0.66613689E+00  0.31854481E+00
  0.13536454E+00  0.70989246E+00  0.94312181E-01
  0.17522296E+00  0.95238291E+00  0.29730721E-02
  0.16124141E-01  0.81826950E+00  0.99625401E-01
  0.23545677E+00  0.90160531E-01  0.49070395E+00
  0.88184635E+00  0.81189442E+00  0.26796139E+00
  0.86344395E+00  0.32894484E+00  0.55142431E+00
  0.39964310E+00  0.94021277E+00  0.57200316E+00
  0.39879564E+00  0.84432458E+00  0.11788474E+00
  0.31534013E+00  0.60940373E+00  0.58017268E+00
  0.52269575E-01  0.87990704E+00  0.58598078E+00
  0.37994754E+00  0.13399753E+00  0.56536710E+00
  0.78336567E+00  0.43579849E+00  0.40461834E+00
  0.46644097E+00  0.24606967E+00  0.78956952E+00
  0.36559409E+00  0.81132030E+00  0.46744805E+00
  0.48986206E+00  0.12061989E+00  0.30330231E+00
  0.70430798E+00  0.77189910E+00  0.22819352E+00
  0.53724270E+00  0.52595039E-01  0.57995998E-01
  0.13099225E+00  0.17430031E+00  0.24223482E+00
  0.25170569E+00  0.90061509E+00  0.87014661E+00
  0.37621106E+00  0.61761079E+00  0.93462324E+00
  0.39062103E+00  0.49612210E+00  0.31166763E+00
  0.88994283E+00  0.87797243E+00  0.57018992E+00
  0.92578306E+00  0.16367028E+00  0.12919051E+00
  0.76371323E-01  0.76073071E+00  0.27477682E+00
  0.87393781E-01  0.38267153E-01  0.10302611E+00
  0.52202528E+00  0.83550291E+00  0.68502936E+00
  0.99246743E+00  0.88857270E-01  0.31837251E+00
  0.88820152E+00  0.99815046E+00  0.13165485E+00
  0.42519969E+00  0.81593612E+00  0.32340333E+00
  0.24650738E+00  0.28355065E+00  0.82799319E+00
  0.41877195E+00  0.18821699E+00  0.98706019E+00
  0.86565696E-01  0.72173418E+00  0.57981249E+00
  0.21762815E+00  0.65722774E-01  0.81231962E+00
  0.80987108E+00  0.63609544E+00  0.64699820E+00
  0.11784755E+00  0.23898539E+00  0.39733227E+00
  0.54880727E+00  0.52656521E-01  0.54515200E+00
  0.23890303E+00  0.75420675E+00  0.91864087E+00
  0.74240921E+00  0.50427317E+00  0.79043088E+00
  0.76109492E+00  0.24484053E+00  0.40396393E+00
  0.14985903E+00  0.52545469E+00  0.72291421E+00
  0.26310673E+00  0.39568724E+00  0.59702522E+00
  0.23688598E+00  0.75086469E+00  0.61762257E+00
  0.56075368E+00  0.32493867E+00  0.97482171E+00
  0.73827394E+00  0.78847668E+00  0.85927676E+00
  0.95322491E+00  0.48067777E+00  0.12376198E+00
  0.45554524E+00  0.49741433E+00  0.82896412E-01
  0.67667511E+00  0.31735696E+00  0.84386259E-01
  0.51885818E+00  0.17339517E-01  0.87107098E+00
  0.80452364E+00  0.84589507E+00  0.80357633E-01
  0.55263190E+00  0.97099668E+00  0.19715751E+00
  0.99562334E+00  0.55673106E+00  0.72324624E+00
  0.39583701E+00  0.31748676E+00  0.66832160E+00
  0.98268071E+00  0.23610309E+00  0.71522278E+00
  0.98340236E+00  0.61806247E+00  0.19558882E+00
  0.47860651E+00  0.29620648E+00  0.23188353E+00
  0.41170895E+00  0.95047625E+00  0.99896645E+00
  0.69488404E+00  0.96588372E+00  0.80757785E-01
  0.55961782E+00  0.82407847E+00  0.12695028E+00
  0.55174882E+00  0.79822686E+00  0.84987442E+00
  0.23500127E+00  0.94935957E+00  0.59575793E+00
  0.48862987E+00  0.44657250E+00  0.85709936E+00
  0.89249737E+00  0.10504558E+00  0.44785808E+00
  0.67864187E+00  0.76252577E+00  0.37954537E+00