Amorphous GeAsSeSi                      
   1.00000000000000     
    21.7058095998985472    0.0000000000000000    0.0000000000000000
     0.0000000000000000   21.7058095998985472    0.0000000000000000
     0.0000000000000000    0.0000000000000000   21.7058095998985472
   Ge   As   Te   Si
    30    90   165    15
Direct
  0.5336823592710473  0.3906889648407983  0.3450071268965829
  0.1432133971026843  0.9353019505256910  0.7047426680013302
  0.3903061349728674  0.1944742206789556  0.8191653127891598
  0.1713219058974076  0.3377780758962459  0.9851177377102900
  0.7148251501630227  0.4364471658553626  0.5537154884168345
  0.4461308126186339  0.2207482672727537  0.4308321489604410
  0.8582261499915944  0.1348268038499540  0.9214717853723755
  0.1346882663663322  0.8046869621159090  0.8655964723823928
  0.6742081235117894  0.0608049779417854  0.9770764436855401
  0.3030684735571896  0.8808508901652417  0.5830312838593699
  0.5292535775010023  0.2675241721442987  0.1894824394444328
  0.7094539629196248  0.5604768485323817  0.8583026340380684
  0.7180151423196790  0.2022806810527911  0.1234413914070700
  0.5050667986013693  0.0137090006679017  0.0763229208515028
  0.9168590992915497  0.2767646891333442  0.4248953634591572
  0.4702577985460579  0.8108169697799994  0.2766003356119739
  0.7754720113087572  0.0741469835248552  0.4038954699187869
  0.7133487582072888  0.9562523020035556  0.8244807053608838
  0.6485919768633650  0.9352693815533968  0.6569383309806867
  0.0554844680720379  0.8541637924893095  0.6056621144801895
  0.2555171087860728  0.0287387876939746  0.0824534931576508
  0.5236599250136535  0.8815082372114205  0.1439660731351609
  0.4555059560734804  0.7107996847422058  0.0458963488352850
  0.2401703496489418  0.0305904983231713  0.9050705101385432
  0.8115724336319872  0.2004719778839714  0.7504655251751871
  0.4081066546790240  0.5926145846408915  0.3968227637480197
  0.5055610959939116  0.9820493466226452  0.2730246637085756
  0.3177625741680359  0.5841630625675904  0.2510268968818963
  0.5455332437123275  0.1568511315378487  0.4391354035608899
  0.5280576461367374  0.5120370961675889  0.8661367168514431
  0.3743008846841960  0.9865099400178750  0.4841647347225333
  0.1155148524881113  0.7342472901423491  0.1220096872355398
  0.9472080805981236  0.9362982454508924  0.0134306967714721
  0.8509533105735798  0.6341905085429005  0.7324053681574796
  0.3636318127753100  0.5130064122879929  0.6480757156256587
  0.3339656299263396  0.7450508367209210  0.8394206875870367
  0.3258130629773746  0.8099417771057134  0.3840204343486775
  0.6558484558137465  0.3898705525546831  0.0916312611107912
  0.0499247239079068  0.0033325560369448  0.8620712018823014
  0.3821109276748871  0.7415811432019126  0.3088024067195292
  0.7686527001531047  0.7815542266780753  0.2904068090405900
  0.6504461581157130  0.1580947377648911  0.7684390099891871
  0.4563523587890046  0.7752336515806348  0.7224091440352467
  0.6446459313560382  0.2942679039266665  0.1597025828162444
  0.7783423760002464  0.8096302069053820  0.5621295414308065
  0.8996013808575896  0.9966256049396520  0.2894414991558705
  0.2972780989616979  0.1604151482608529  0.3149107787504803
  0.1786303235998545  0.5039936348608407  0.1931094496913772
  0.0691515398660414  0.0231341664531470  0.4039322409321926
  0.7212174199054715  0.7546145426559718  0.7337834138829535
  0.9006064602963022  0.5145924178190597  0.1214358844222616
  0.5961477844170560  0.0791780036344534  0.3703798580027637
  0.5445738523571748  0.8193892063026738  0.5397667000081299
  0.5174934158230400  0.9924880535181515  0.3884918251695311
  0.9265603730907159  0.3356120733646719  0.7741670098473605
  0.2086361747320566  0.4914526162062174  0.0813803133388831
  0.7635154542607410  0.8980153270628293  0.0422927445245946
  0.5695456442010070  0.7484809061360238  0.7155193289443105
  0.0894623697626287  0.2767994262939411  0.1087535372565682
  0.2660617588334873  0.8809209567104759  0.3100762319987354
  0.6073761349869216  0.8248285351299742  0.6363167001778294
  0.3250459463487587  0.4837402090087366  0.0715706382202157
  0.2174170614605941  0.3774425176252834  0.0934322188580623
  0.6637825608069292  0.6626358194818209  0.5916242825687519
  0.6806465785496627  0.1276645719371103  0.5373367126447519
  0.9093702946614286  0.1781303887919918  0.2832930131236040
  0.6668275193105657  0.9044624089605335  0.9804738561496364
  0.4565469260925994  0.6980510647570028  0.3885958927777153
  0.9583149691880664  0.8580590939719457  0.2862416873152327
  0.4294779944150520  0.4298495815730163  0.3861685982238612
  0.8661387872641271  0.7905236508259676  0.6329696416356683
  0.2970268397970841  0.6354464577491541  0.8449750832230052
  0.2685789296418193  0.2074175473331579  0.6378065161695687
  0.0092887368002508  0.0410402851047706  0.3031804912009903
  0.4230866964945434  0.9862581926649199  0.8997156917785176
  0.3880047695023805  0.5777000056407076  0.7950523685815014
  0.4465116076791915  0.7229402279325612  0.8261899335259315
  0.9922904210351078  0.8618546398779330  0.3975384381822806
  0.8300647914641033  0.9488360506458662  0.8668588015915262
  0.1174661163276198  0.1325525274879240  0.6811159004363390
  0.4267102310932600  0.0622184205291134  0.4114906088893235
  0.6248260484373489  0.1343088022801879  0.1618439286279383
  0.1841848183817802  0.7595358608432505  0.6529120224862908
  0.9841694075272756  0.2658576970102047  0.1606500038379295
  0.9074249205897686  0.8967564171101401  0.7941154358849900
  0.9855132740780306  0.7466606124400101  0.7877197791292616
  0.0514607984823456  0.6625090161285456  0.4214715476297357
  0.5179362048632967  0.0355394300155893  0.6924727837820370
  0.8559789023621391  0.0885849897795765  0.2335460812823058
  0.2789046929563739  0.4733576844419787  0.2416716536866161
  0.2160477158065106  0.9222517280310001  0.8647613759000663
  0.6872482579931685  0.7489734546902724  0.1057951031325857
  0.3166062895332047  0.7727715011254546  0.9520655299023844
  0.8612542431582639  0.5489781660868971  0.2258801651696629
  0.0106262540910294  0.3234620665683039  0.2566554563141210
  0.1289953784108064  0.1740064726602526  0.0139064754864080
  0.3537865843923242  0.3663787054577270  0.7213270006328401
  0.9644317224947088  0.6375004736569565  0.7528638263186309
  0.5022706352834803  0.7127201249954283  0.5486806983616219
  0.6664870774682043  0.2973729005865380  0.8662977171024266
  0.5335580211806743  0.9963482336591838  0.5834300056950852
  0.5984185386217149  0.2609359261869031  0.7777649422421860
  0.5584279307470155  0.6634786114529518  0.6380275029381721
  0.0427027333184213  0.5620199257911054  0.4763726010726899
  0.3241732810190072  0.3904223888716203  0.1430773382332049
  0.1992829246667611  0.8775076550293690  0.1384184736535374
  0.1407270734014503  0.3560762376887752  0.1787971276708049
  0.6746266465387976  0.9371505034304661  0.3612544862725926
  0.7760024555485927  0.8891441789593628  0.3330273796440295
  0.2189568337972574  0.2786159215104433  0.2158081854425333
  0.1823405206354067  0.2266553588321258  0.7137506656897514
  0.5360236260521205  0.1384639927557743  0.9192791812410945
  0.1074095565331632  0.8266105765464360  0.7093371419582226
  0.3590383234239098  0.2811417054935390  0.6428269105090791
  0.8810190982785002  0.7842420708576157  0.8208788579454733
  0.5719937478442745  0.1988630536343834  0.0826953055943633
  0.4029663381159878  0.2121120634073250  0.3194236880078165
  0.0401252752228487  0.4691678717710204  0.7719203092258411
  0.2505756467773423  0.6403992936402858  0.7383374861464773
  0.5959297976037234  0.9210444408395801  0.2350454407014411
  0.9321563529672687  0.2167232639609367  0.8033209890331534
  0.1980282269271072  0.9851314893080598  0.1922869959886384
  0.3459480808946012  0.0608740049850454  0.9648425237994829
  0.3977557751364103  0.6324954811056500  0.6390862649974238
  0.9979905412129710  0.5976812102806832  0.0420874531749149
  0.0815480897870842  0.3268949065293185  0.8826441004440682
  0.0418366582299186  0.3884811146445202  0.6107326758789213
  0.0294839725574434  0.4347299578922161  0.9351336150327896
  0.1683363410159018  0.8468551790250132  0.3813742567795870
  0.5585671835316504  0.6546522537144241  0.9418356253253322
  0.9431947999805814  0.6655714012007579  0.3658995635654065
  0.2334398048357116  0.6944284756981034  0.3796048532455742
  0.9261099337859378  0.9492132083895868  0.4617281422738131
  0.5445330244416624  0.2726066421462221  0.3149501279484710
  0.9768565996981877  0.1022964465585900  0.0932658963641586
  0.5552170110111518  0.3853844771294064  0.0171899656695516
  0.2633648055127864  0.4123988342563933  0.9427476451933572
  0.1055656072767803  0.4518253024826606  0.3165622658243947
  0.0768779109993147  0.6945252089717258  0.6107441047313600
  0.3249307276442934  0.9322563123362144  0.7555673012877619
  0.9476287154553020  0.8169647160011237  0.0491560290475093
  0.8087196827880376  0.5245615387775899  0.0361728913998292
  0.9010678625102102  0.4384494536733499  0.6174641415892737
  0.8816661449088130  0.3928375131283133  0.1333058005907262
  0.1560943098814747  0.0501984030429554  0.9973971081991522
  0.7432052442848800  0.5098864983916229  0.2221515918008947
  0.7039213266833784  0.6214574545043305  0.7061249720840479
  0.7263056579052787  0.6103345484348992  0.3345023455840632
  0.8806265934616277  0.5800133665983651  0.4505004496966691
  0.3225752808073636  0.1774828814803016  0.1897317180837916
  0.4738437363787327  0.0753235272134489  0.8337198774709691
  0.0714122495291889  0.8456199538078124  0.0900610326474691
  0.9201095930081422  0.6377300021229075  0.9455414873133918
  0.6991863002689556  0.4710082587350115  0.4364332771900479
  0.6109749893055323  0.6205639508288101  0.8021134331328952
  0.2619233130584533  0.0244643251184584  0.4323783754661221
  0.4850773716231132  0.5186889229712293  0.4613613550139277
  0.0363637728137576  0.7563293579598067  0.5054753384796626
  0.3107068805767383  0.8057142140987708  0.6850607155109572
  0.8576516989920719  0.8504167716246371  0.1646755052046913
  0.6890267540193591  0.6326664498720049  0.2106330803404788
  0.5298464968902579  0.5411955615709161  0.0041748596529345
  0.7999116268011477  0.6516755388785782  0.8460673481816343
  0.7483852257746477  0.1039135778947156  0.2897169730034790
  0.3753897817000791  0.5726334943130240  0.1395800674613525
  0.6003687051313449  0.4340679462596597  0.5969696035492476
  0.2717038189955048  0.1821435554733881  0.4568635949406143
  0.4911693237349368  0.0889983149527964  0.2128041987418996
  0.2944452170576355  0.5995317147052717  0.4478623627822458
  0.7958912289521081  0.4479891066332655  0.8660910178786239
  0.2044798764828499  0.7185095495965683  0.9224151527081759
  0.7378501118351295  0.7280877784230952  0.3949728133217079
  0.6265220934898466  0.4409658300531945  0.7258749525629256
  0.9702996415372809  0.0843390622013800  0.9628506397096857
  0.0049526603747978  0.8893176163941092  0.8712467932119878
  0.1139670371357298  0.6634897377460689  0.0219753299023679
  0.5805731195374477  0.8540865725115836  0.3380502979268485
  0.6028633721333989  0.7318485191104145  0.4773176090248015
  0.0585289388434305  0.4169740628860481  0.4349147255602190
  0.0049987464085959  0.4419756916287838  0.2267566031304327
  0.8059392538974279  0.2805084733189744  0.2801065266642979
  0.0185019330450089  0.1656313054677980  0.2261633379574164
  0.6729011515622716  0.9439226705139987  0.4850633274866283
  0.3815321906288389  0.1631570449002666  0.5227135597875048
  0.4747662961636365  0.3571165862399113  0.7266463731118193
  0.3646305989332319  0.3276971205063006  0.9408813363395296
  0.5797996297442651  0.9541100316537197  0.7588141551657586
  0.9489480270102462  0.1331171030068745  0.3915674904287343
  0.9015011704851617  0.4407064844992448  0.3359536176158073
  0.6045800572848918  0.4103709195409593  0.8969149202121827
  0.3470402645399489  0.0468924795033274  0.3178204347797475
  0.5315452227968080  0.9736828920087319  0.9576687580350551
  0.2303613989013016  0.4509983932070085  0.7655160207832310
  0.8027454402787129  0.0594695488198838  0.0102191454913623
  0.8478915183982778  0.7077509375627571  0.5437796635369594
  0.5794792403825966  0.4491029702678020  0.2475786690710819
  0.4773736402553936  0.8411602385369363  0.8223452216690745
  0.4388734377352534  0.2116324075120346  0.7026409744555693
  0.0487017451184855  0.3430939301858515  0.7406454288751050
  0.5429268176507662  0.1173262592716640  0.5578961507604987
  0.9208355867595301  0.9848851694917045  0.1253914348027223
  0.1895300160147926  0.4512375499815207  0.5139095431891079
  0.0537829813927075  0.9816333246809847  0.6342481130818456
  0.9638022387864709  0.5590708360902568  0.8468962416394419
  0.4422643902859065  0.8224357105602849  0.9860170301715101
  0.0531032070405288  0.9313027384787347  0.2451984307781245
  0.1326172350599037  0.6160972615543088  0.7627173297329364
  0.5909857825126679  0.3822911403740079  0.4557251026785210
  0.8655574079593435  0.6686133967847354  0.2048999006063354
  0.7630616843525715  0.9287253071670918  0.2190789614460158
  0.4046344023239001  0.5059957874224779  0.8928449378535674
  0.2285402286085869  0.2285974498162560  0.9688088959812546
  0.7323347634199919  0.7156424783182160  0.9672134167893773
  0.1408295799867290  0.5064782635300915  0.9289083623650995
  0.6016101520788197  0.5731893532060965  0.3937869010202704
  0.1516533439036820  0.1365103455955179  0.5612392167666940
  0.1415580088264647  0.6379269109469092  0.3105048700533857
  0.3138435096858103  0.2983248448455456  0.8157475516674637
  0.1617494884241708  0.1886428608081587  0.1553334356818326
  0.7473704345646226  0.3541725958773370  0.7919180037416851
  0.6029048019132617  0.8250526955792807  0.0521724993695756
  0.4744247750551480  0.1340438338153547  0.0297191444311053
  0.0360042356070522  0.2003925736174068  0.9317674152143240
  0.1356558414473028  0.8929824183822888  0.9589821064938775
  0.3648402037925891  0.3274341462613819  0.2990548876019901
  0.7510729893758210  0.8900753377629869  0.7223608338677252
  0.0400391573680707  0.7252761494153361  0.8949397855726104
  0.3968821712972286  0.3141633641615940  0.0759318512861213
  0.6787934159159477  0.8460369433021313  0.8755966389659520
  0.0286735854369908  0.7549917229052383  0.2775122153234832
  0.5039731688179501  0.7580130590130238  0.1658249976810566
  0.4251043840511173  0.9776438794981743  0.6387681822024547
  0.1673556581378151  0.0094503308389164  0.5309734645311721
  0.4082235296039229  0.9133969149361505  0.2394881957083967
  0.5375256655946075  0.6576278310644668  0.3086724428032852
  0.3161492158647476  0.4776088138584669  0.5398783920868127
  0.8721152459686365  0.3203069920775974  0.6649275403642889
  0.2702991772874910  0.9097599665582550  0.0346723450119697
  0.5060862090298741  0.4873994056878814  0.7347968184296860
  0.1557849489113892  0.0792176509041411  0.3410201625077462
  0.2472846163185238  0.4574612209476783  0.3618325314566846
  0.1476440709160869  0.5785538676726105  0.5365849334041428
  0.3354353117578697  0.6799689556619839  0.0315378008975244
  0.1978930099779888  0.0903254398112381  0.8051303875515501
  0.8122532865006065  0.0725630693958479  0.7371656354150034
  0.0070233962077921  0.1874524363328405  0.6622178905844436
  0.0401653035847644  0.2913401827335420  0.4497212890959545
  0.4165087351618837  0.8851959662696629  0.4260912894382685
  0.1964824722540968  0.6260061040353051  0.1916679756106419
  0.6548886183863800  0.5446275977084269  0.0504971877681086
  0.4659252969154295  0.3301020194123225  0.4833942646762921
  0.3755471062572369  0.0665068168682907  0.1524319536008250
  0.9980457987456219  0.1263623144997581  0.5465315345954451
  0.6833531990439425  0.2394780125093234  0.6841186993319468
  0.6360166254087076  0.0308330327879318  0.0966002290114005
  0.7594604083717442  0.2982982367707194  0.4209250135420888
  0.9434119880017988  0.8907394596642888  0.6467537063017303
  0.4261269016364579  0.5236835672065681  0.2960859249585752
  0.8780015504729874  0.0736131309436487  0.5567802710768248
  0.8877152381168472  0.3748725986385821  0.9340468522309209
  0.0033452207403215  0.6904815071783759  0.1633253251717832
  0.4906487533430521  0.3832686433381696  0.1569764651495973
  0.1812159489049918  0.2878047638577215  0.6087177476243752
  0.8244531753057274  0.6863145020950796  0.0698726849824425
  0.9520235549319054  0.5808219452688306  0.5586725438523032
  0.6971205818487007  0.3586633895732376  0.2516871206390192
  0.7552856289555265  0.3186603367004182  0.5538859231942936
  0.2511586331499203  0.9771519759746852  0.6561324540113631
  0.2607082552415676  0.8030287805369127  0.2159272495717630
  0.6605642923767050  0.7726110370015604  0.2286941202983783
  0.8052609741601344  0.1622322278211143  0.4912382986813171
  0.1804622718180013  0.2674436353019161  0.3318057602427871
  0.3957697512652842  0.8919743515037695  0.0867753748220750
  0.2809384570747824  0.3155877149724020  0.4776482825890582
  0.7358902156108016  0.3402811646860755  0.0142493512108359
  0.9684227287627181  0.0461567691540097  0.7794700214891321
  0.7849747964471661  0.4997483944284014  0.6296354175512917
  0.0780336676945979  0.5059524561417916  0.6604118608731540
  0.4935769222285842  0.2465705526704625  0.8775896247220984
  0.6677224199433098  0.1881784663265336  0.0023031235582494
  0.3109006772211558  0.7126264822608732  0.5824142726885455
  0.6365869259835364  0.2292072107905057  0.4825804476634517
  0.2009730220414667  0.8163246378704585  0.5446034941518008
  0.8553196929007072  0.3881856857061834  0.4475640508685998
  0.7381863889158211  0.1800431084204206  0.8542713416781922
  0.6720231414331863  0.6145881624370304  0.9550875946069581
  0.9137907420441351  0.3247423800717328  0.3172747045479909
  0.6728580288860897  0.0556888077843070  0.4500544444693162
  0.8284767087870293  0.4088242885826503  0.0303497216252779
  0.0800918788755141  0.9210573386896925  0.3619974122413154
  0.1379984221800328  0.5077983556259653  0.8103291138786091
  0.7841348495919434  0.7980897902152648  0.0857227400831420
  0.1446548538255286  0.9847864150219507  0.8047665224020548
  0.8662340140250322  0.0520616611475759  0.8403815335287561
  0.2992650951453228  0.5402390855256627  0.7337294520404498
  0.8314267881573585  0.7436569497625811  0.7290493311346111
  0.8396933717102968  0.9489319594399390  0.9783508287726974
  0.6987481706343814  0.7626976878712597  0.6248037990600963
  0.2661648372274854  0.3397920676391024  0.3646714098563280
  0.8822280179900304  0.0322428734343490  0.3915843255388154
 
  0.00000000E+00  0.00000000E+00  0.00000000E+00
  0.00000000E+00  0.00000000E+00  0.00000000E+00
  0.00000000E+00  0.00000000E+00  0.00000000E+00
  0.00000000E+00  0.00000000E+00  0.00000000E+00
  0.00000000E+00  0.00000000E+00  0.00000000E+00
  0.00000000E+00  0.00000000E+00  0.00000000E+00
  0.00000000E+00  0.00000000E+00  0.00000000E+00
  0.00000000E+00  0.00000000E+00  0.00000000E+00
  0.00000000E+00  0.00000000E+00  0.00000000E+00
  0.00000000E+00  0.00000000E+00  0.00000000E+00
  0.00000000E+00  0.00000000E+00  0.00000000E+00
  0.00000000E+00  0.00000000E+00  0.00000000E+00
  0.00000000E+00  0.00000000E+00  0.00000000E+00
  0.00000000E+00  0.00000000E+00  0.00000000E+00
  0.00000000E+00  0.00000000E+00  0.00000000E+00
  0.00000000E+00  0.00000000E+00  0.00000000E+00
  0.00000000E+00  0.00000000E+00  0.00000000E+00
  0.00000000E+00  0.00000000E+00  0.00000000E+00
  0.00000000E+00  0.00000000E+00  0.00000000E+00
  0.00000000E+00  0.00000000E+00  0.00000000E+00
  0.00000000E+00  0.00000000E+00  0.00000000E+00
  0.00000000E+00  0.00000000E+00  0.00000000E+00
  0.00000000E+00  0.00000000E+00  0.00000000E+00
  0.00000000E+00  0.00000000E+00  0.00000000E+00
  0.00000000E+00  0.00000000E+00  0.00000000E+00
  0.00000000E+00  0.00000000E+00  0.00000000E+00
  0.00000000E+00  0.00000000E+00  0.00000000E+00
  0.00000000E+00  0.00000000E+00  0.00000000E+00
  0.00000000E+00  0.00000000E+00  0.00000000E+00
  0.00000000E+00  0.00000000E+00  0.00000000E+00
  0.00000000E+00  0.00000000E+00  0.00000000E+00
  0.00000000E+00  0.00000000E+00  0.00000000E+00
  0.00000000E+00  0.00000000E+00  0.00000000E+00
  0.00000000E+00  0.00000000E+00  0.00000000E+00
  0.00000000E+00  0.00000000E+00  0.00000000E+00
  0.00000000E+00  0.00000000E+00  0.00000000E+00
  0.00000000E+00  0.00000000E+00  0.00000000E+00
  0.00000000E+00  0.00000000E+00  0.00000000E+00
  0.00000000E+00  0.00000000E+00  0.00000000E+00
  0.00000000E+00  0.00000000E+00  0.00000000E+00
  0.00000000E+00  0.00000000E+00  0.00000000E+00
  0.00000000E+00  0.00000000E+00  0.00000000E+00
  0.00000000E+00  0.00000000E+00  0.00000000E+00
  0.00000000E+00  0.00000000E+00  0.00000000E+00
  0.00000000E+00  0.00000000E+00  0.00000000E+00
  0.00000000E+00  0.00000000E+00  0.00000000E+00
  0.00000000E+00  0.00000000E+00  0.00000000E+00
  0.00000000E+00  0.00000000E+00  0.00000000E+00
  0.00000000E+00  0.00000000E+00  0.00000000E+00
  0.00000000E+00  0.00000000E+00  0.00000000E+00
  0.00000000E+00  0.00000000E+00  0.00000000E+00
  0.00000000E+00  0.00000000E+00  0.00000000E+00
  0.00000000E+00  0.00000000E+00  0.00000000E+00
  0.00000000E+00  0.00000000E+00  0.00000000E+00
  0.00000000E+00  0.00000000E+00  0.00000000E+00
  0.00000000E+00  0.00000000E+00  0.00000000E+00
  0.00000000E+00  0.00000000E+00  0.00000000E+00
  0.00000000E+00  0.00000000E+00  0.00000000E+00
  0.00000000E+00  0.00000000E+00  0.00000000E+00
  0.00000000E+00  0.00000000E+00  0.00000000E+00
  0.00000000E+00  0.00000000E+00  0.00000000E+00
  0.00000000E+00  0.00000000E+00  0.00000000E+00
  0.00000000E+00  0.00000000E+00  0.00000000E+00
  0.00000000E+00  0.00000000E+00  0.00000000E+00
  0.00000000E+00  0.00000000E+00  0.00000000E+00
  0.00000000E+00  0.00000000E+00  0.00000000E+00
  0.00000000E+00  0.00000000E+00  0.00000000E+00
  0.00000000E+00  0.00000000E+00  0.00000000E+00
  0.00000000E+00  0.00000000E+00  0.00000000E+00
  0.00000000E+00  0.00000000E+00  0.00000000E+00
  0.00000000E+00  0.00000000E+00  0.00000000E+00
  0.00000000E+00  0.00000000E+00  0.00000000E+00
  0.00000000E+00  0.00000000E+00  0.00000000E+00
  0.00000000E+00  0.00000000E+00  0.00000000E+00
  0.00000000E+00  0.00000000E+00  0.00000000E+00
  0.00000000E+00  0.00000000E+00  0.00000000E+00
  0.00000000E+00  0.00000000E+00  0.00000000E+00
  0.00000000E+00  0.00000000E+00  0.00000000E+00
  0.00000000E+00  0.00000000E+00  0.00000000E+00
  0.00000000E+00  0.00000000E+00  0.00000000E+00
  0.00000000E+00  0.00000000E+00  0.00000000E+00
  0.00000000E+00  0.00000000E+00  0.00000000E+00
  0.00000000E+00  0.00000000E+00  0.00000000E+00
  0.00000000E+00  0.00000000E+00  0.00000000E+00
  0.00000000E+00  0.00000000E+00  0.00000000E+00
  0.00000000E+00  0.00000000E+00  0.00000000E+00
  0.00000000E+00  0.00000000E+00  0.00000000E+00
  0.00000000E+00  0.00000000E+00  0.00000000E+00
  0.00000000E+00  0.00000000E+00  0.00000000E+00
  0.00000000E+00  0.00000000E+00  0.00000000E+00
  0.00000000E+00  0.00000000E+00  0.00000000E+00
  0.00000000E+00  0.00000000E+00  0.00000000E+00
  0.00000000E+00  0.00000000E+00  0.00000000E+00
  0.00000000E+00  0.00000000E+00  0.00000000E+00
  0.00000000E+00  0.00000000E+00  0.00000000E+00
  0.00000000E+00  0.00000000E+00  0.00000000E+00
  0.00000000E+00  0.00000000E+00  0.00000000E+00
  0.00000000E+00  0.00000000E+00  0.00000000E+00
  0.00000000E+00  0.00000000E+00  0.00000000E+00
  0.00000000E+00  0.00000000E+00  0.00000000E+00
  0.00000000E+00  0.00000000E+00  0.00000000E+00
  0.00000000E+00  0.00000000E+00  0.00000000E+00
  0.00000000E+00  0.00000000E+00  0.00000000E+00
  0.00000000E+00  0.00000000E+00  0.00000000E+00
  0.00000000E+00  0.00000000E+00  0.00000000E+00
  0.00000000E+00  0.00000000E+00  0.00000000E+00
  0.00000000E+00  0.00000000E+00  0.00000000E+00
  0.00000000E+00  0.00000000E+00  0.00000000E+00
  0.00000000E+00  0.00000000E+00  0.00000000E+00
  0.00000000E+00  0.00000000E+00  0.00000000E+00
  0.00000000E+00  0.00000000E+00  0.00000000E+00
  0.00000000E+00  0.00000000E+00  0.00000000E+00
  0.00000000E+00  0.00000000E+00  0.00000000E+00
  0.00000000E+00  0.00000000E+00  0.00000000E+00
  0.00000000E+00  0.00000000E+00  0.00000000E+00
  0.00000000E+00  0.00000000E+00  0.00000000E+00
  0.00000000E+00  0.00000000E+00  0.00000000E+00
  0.00000000E+00  0.00000000E+00  0.00000000E+00
  0.00000000E+00  0.00000000E+00  0.00000000E+00
  0.00000000E+00  0.00000000E+00  0.00000000E+00
  0.00000000E+00  0.00000000E+00  0.00000000E+00
  0.00000000E+00  0.00000000E+00  0.00000000E+00
  0.00000000E+00  0.00000000E+00  0.00000000E+00
  0.00000000E+00  0.00000000E+00  0.00000000E+00
  0.00000000E+00  0.00000000E+00  0.00000000E+00
  0.00000000E+00  0.00000000E+00  0.00000000E+00
  0.00000000E+00  0.00000000E+00  0.00000000E+00
  0.00000000E+00  0.00000000E+00  0.00000000E+00
  0.00000000E+00  0.00000000E+00  0.00000000E+00
  0.00000000E+00  0.00000000E+00  0.00000000E+00
  0.00000000E+00  0.00000000E+00  0.00000000E+00
  0.00000000E+00  0.00000000E+00  0.00000000E+00
  0.00000000E+00  0.00000000E+00  0.00000000E+00
  0.00000000E+00  0.00000000E+00  0.00000000E+00
  0.00000000E+00  0.00000000E+00  0.00000000E+00
  0.00000000E+00  0.00000000E+00  0.00000000E+00
  0.00000000E+00  0.00000000E+00  0.00000000E+00
  0.00000000E+00  0.00000000E+00  0.00000000E+00
  0.00000000E+00  0.00000000E+00  0.00000000E+00
  0.00000000E+00  0.00000000E+00  0.00000000E+00
  0.00000000E+00  0.00000000E+00  0.00000000E+00
  0.00000000E+00  0.00000000E+00  0.00000000E+00
  0.00000000E+00  0.00000000E+00  0.00000000E+00
  0.00000000E+00  0.00000000E+00  0.00000000E+00
  0.00000000E+00  0.00000000E+00  0.00000000E+00
  0.00000000E+00  0.00000000E+00  0.00000000E+00
  0.00000000E+00  0.00000000E+00  0.00000000E+00
  0.00000000E+00  0.00000000E+00  0.00000000E+00
  0.00000000E+00  0.00000000E+00  0.00000000E+00
  0.00000000E+00  0.00000000E+00  0.00000000E+00
  0.00000000E+00  0.00000000E+00  0.00000000E+00
  0.00000000E+00  0.00000000E+00  0.00000000E+00
  0.00000000E+00  0.00000000E+00  0.00000000E+00
  0.00000000E+00  0.00000000E+00  0.00000000E+00
  0.00000000E+00  0.00000000E+00  0.00000000E+00
  0.00000000E+00  0.00000000E+00  0.00000000E+00
  0.00000000E+00  0.00000000E+00  0.00000000E+00
  0.00000000E+00  0.00000000E+00  0.00000000E+00
  0.00000000E+00  0.00000000E+00  0.00000000E+00
  0.00000000E+00  0.00000000E+00  0.00000000E+00
  0.00000000E+00  0.00000000E+00  0.00000000E+00
  0.00000000E+00  0.00000000E+00  0.00000000E+00
  0.00000000E+00  0.00000000E+00  0.00000000E+00
  0.00000000E+00  0.00000000E+00  0.00000000E+00
  0.00000000E+00  0.00000000E+00  0.00000000E+00
  0.00000000E+00  0.00000000E+00  0.00000000E+00
  0.00000000E+00  0.00000000E+00  0.00000000E+00
  0.00000000E+00  0.00000000E+00  0.00000000E+00
  0.00000000E+00  0.00000000E+00  0.00000000E+00
  0.00000000E+00  0.00000000E+00  0.00000000E+00
  0.00000000E+00  0.00000000E+00  0.00000000E+00
  0.00000000E+00  0.00000000E+00  0.00000000E+00
  0.00000000E+00  0.00000000E+00  0.00000000E+00
  0.00000000E+00  0.00000000E+00  0.00000000E+00
  0.00000000E+00  0.00000000E+00  0.00000000E+00
  0.00000000E+00  0.00000000E+00  0.00000000E+00
  0.00000000E+00  0.00000000E+00  0.00000000E+00
  0.00000000E+00  0.00000000E+00  0.00000000E+00
  0.00000000E+00  0.00000000E+00  0.00000000E+00
  0.00000000E+00  0.00000000E+00  0.00000000E+00
  0.00000000E+00  0.00000000E+00  0.00000000E+00
  0.00000000E+00  0.00000000E+00  0.00000000E+00
  0.00000000E+00  0.00000000E+00  0.00000000E+00
  0.00000000E+00  0.00000000E+00  0.00000000E+00
  0.00000000E+00  0.00000000E+00  0.00000000E+00
  0.00000000E+00  0.00000000E+00  0.00000000E+00
  0.00000000E+00  0.00000000E+00  0.00000000E+00
  0.00000000E+00  0.00000000E+00  0.00000000E+00
  0.00000000E+00  0.00000000E+00  0.00000000E+00
  0.00000000E+00  0.00000000E+00  0.00000000E+00
  0.00000000E+00  0.00000000E+00  0.00000000E+00
  0.00000000E+00  0.00000000E+00  0.00000000E+00
  0.00000000E+00  0.00000000E+00  0.00000000E+00
  0.00000000E+00  0.00000000E+00  0.00000000E+00
  0.00000000E+00  0.00000000E+00  0.00000000E+00
  0.00000000E+00  0.00000000E+00  0.00000000E+00
  0.00000000E+00  0.00000000E+00  0.00000000E+00
  0.00000000E+00  0.00000000E+00  0.00000000E+00
  0.00000000E+00  0.00000000E+00  0.00000000E+00
  0.00000000E+00  0.00000000E+00  0.00000000E+00
  0.00000000E+00  0.00000000E+00  0.00000000E+00
  0.00000000E+00  0.00000000E+00  0.00000000E+00
  0.00000000E+00  0.00000000E+00  0.00000000E+00
  0.00000000E+00  0.00000000E+00  0.00000000E+00
  0.00000000E+00  0.00000000E+00  0.00000000E+00
  0.00000000E+00  0.00000000E+00  0.00000000E+00
  0.00000000E+00  0.00000000E+00  0.00000000E+00
  0.00000000E+00  0.00000000E+00  0.00000000E+00
  0.00000000E+00  0.00000000E+00  0.00000000E+00
  0.00000000E+00  0.00000000E+00  0.00000000E+00
  0.00000000E+00  0.00000000E+00  0.00000000E+00
  0.00000000E+00  0.00000000E+00  0.00000000E+00
  0.00000000E+00  0.00000000E+00  0.00000000E+00
  0.00000000E+00  0.00000000E+00  0.00000000E+00
  0.00000000E+00  0.00000000E+00  0.00000000E+00
  0.00000000E+00  0.00000000E+00  0.00000000E+00
  0.00000000E+00  0.00000000E+00  0.00000000E+00
  0.00000000E+00  0.00000000E+00  0.00000000E+00
  0.00000000E+00  0.00000000E+00  0.00000000E+00
  0.00000000E+00  0.00000000E+00  0.00000000E+00
  0.00000000E+00  0.00000000E+00  0.00000000E+00
  0.00000000E+00  0.00000000E+00  0.00000000E+00
  0.00000000E+00  0.00000000E+00  0.00000000E+00
  0.00000000E+00  0.00000000E+00  0.00000000E+00
  0.00000000E+00  0.00000000E+00  0.00000000E+00
  0.00000000E+00  0.00000000E+00  0.00000000E+00
  0.00000000E+00  0.00000000E+00  0.00000000E+00
  0.00000000E+00  0.00000000E+00  0.00000000E+00
  0.00000000E+00  0.00000000E+00  0.00000000E+00
  0.00000000E+00  0.00000000E+00  0.00000000E+00
  0.00000000E+00  0.00000000E+00  0.00000000E+00
  0.00000000E+00  0.00000000E+00  0.00000000E+00