In2O3 structure 5 - random placement wit
   1.00000000000000     
     7.9423513835684565    0.0044294994629441    0.0986921317972506
     0.0043315207659381    8.0069308971300668    0.0061013079156734
     0.0984090170959535    0.0060569287888224    7.9163787007869448
   In   Ga   O 
    14     2    24
Direct
  0.8780271896543610  0.0304230849456886  0.6778231300680062
  0.1607228946588393  0.2619443561716324  0.9545222912409059
  0.3732522748037965  0.0352203585149056  0.6795906603679143
  0.1288580728632667  0.7530652905255764  0.9281107697619078
  0.9070589542748806  0.5232954517622304  0.7092614463265505
  0.6223584182656410  0.7529914074291710  0.4348071764245276
  0.6534653553664995  0.2602648977956790  0.4624221629509506
  0.6509931171476850  0.2595229314780241  0.9605693958478483
  0.3733097566908299  0.0286392453891580  0.1831067514387570
  0.4007663005765920  0.5211316791291623  0.2178879923217281
  0.8748856268864387  0.0278034091612511  0.1796280206740448
  0.1283407076057586  0.7551007838596888  0.4317107791639074
  0.9113341970538542  0.5230954053101300  0.2110182304833685
  0.6216770546354127  0.7491479322033996  0.9277030431021487
  0.1448559879978788  0.2501033955184155  0.4605259928203580
  0.4033043550929776  0.5306572444364051  0.7020032717738545
  0.6591817275449969  0.4916916366197697  0.3195316522853560
  0.2549468182035852  0.2882361876771995  0.2318619084284990
  0.8728240771028055  0.7898663583673127  0.3195045557640981
  0.7702132305823923  0.2889712183736748  0.7132565616255988
  0.2539533096308659  0.9999302371144552  0.4306301991308032
  0.0301344771380485  0.4749737497579360  0.4642789608230160
  0.3742643262500422  0.7896160161266224  0.8049993425781707
  0.5066012004074949  0.7897756017716304  0.1808516982768467
  0.9101543645796824  0.2921608049937419  0.0660266004124708
  0.9200027802226529  0.1483919016933299  0.4207798290509004
  0.6484235338617452  0.6234500629707327  0.6747952034765845
  0.4075902956471822  0.1412929804255683  0.9287453197128812
  0.5031828249716170  0.4896401393918879  0.9573292784398504
  0.4045355264900365  0.3081470350520874  0.5817335866589843
  0.3683161876917964  0.6379180549433272  0.4779478165222315
  0.7565199412381531  0.9886619009907207  0.9262129457999393
  0.0066037859797419  0.7904712317163316  0.6762795683365965
  0.1219103316311916  0.9914453953056395  0.0589373647201867
  0.6193336484000085  0.1448110348897629  0.2163455415923465
  0.6226362224736448  0.9938559438568006  0.5640325428469595
  0.8707937694501950  0.6368399026526532  0.9631533765170417
  0.1750519726763287  0.4975941557412966  0.8134142637855462
  0.1197629811060139  0.1569308169572423  0.7012981968423162
  0.1615084445415960  0.6419124833331438  0.1763351074607229
 
  0.00000000E+00  0.00000000E+00  0.00000000E+00
  0.00000000E+00  0.00000000E+00  0.00000000E+00
  0.00000000E+00  0.00000000E+00  0.00000000E+00
  0.00000000E+00  0.00000000E+00  0.00000000E+00
  0.00000000E+00  0.00000000E+00  0.00000000E+00
  0.00000000E+00  0.00000000E+00  0.00000000E+00
  0.00000000E+00  0.00000000E+00  0.00000000E+00
  0.00000000E+00  0.00000000E+00  0.00000000E+00
  0.00000000E+00  0.00000000E+00  0.00000000E+00
  0.00000000E+00  0.00000000E+00  0.00000000E+00
  0.00000000E+00  0.00000000E+00  0.00000000E+00
  0.00000000E+00  0.00000000E+00  0.00000000E+00
  0.00000000E+00  0.00000000E+00  0.00000000E+00
  0.00000000E+00  0.00000000E+00  0.00000000E+00
  0.00000000E+00  0.00000000E+00  0.00000000E+00
  0.00000000E+00  0.00000000E+00  0.00000000E+00
  0.00000000E+00  0.00000000E+00  0.00000000E+00
  0.00000000E+00  0.00000000E+00  0.00000000E+00
  0.00000000E+00  0.00000000E+00  0.00000000E+00
  0.00000000E+00  0.00000000E+00  0.00000000E+00
  0.00000000E+00  0.00000000E+00  0.00000000E+00
  0.00000000E+00  0.00000000E+00  0.00000000E+00
  0.00000000E+00  0.00000000E+00  0.00000000E+00
  0.00000000E+00  0.00000000E+00  0.00000000E+00
  0.00000000E+00  0.00000000E+00  0.00000000E+00
  0.00000000E+00  0.00000000E+00  0.00000000E+00
  0.00000000E+00  0.00000000E+00  0.00000000E+00
  0.00000000E+00  0.00000000E+00  0.00000000E+00
  0.00000000E+00  0.00000000E+00  0.00000000E+00
  0.00000000E+00  0.00000000E+00  0.00000000E+00
  0.00000000E+00  0.00000000E+00  0.00000000E+00
  0.00000000E+00  0.00000000E+00  0.00000000E+00
  0.00000000E+00  0.00000000E+00  0.00000000E+00
  0.00000000E+00  0.00000000E+00  0.00000000E+00
  0.00000000E+00  0.00000000E+00  0.00000000E+00
  0.00000000E+00  0.00000000E+00  0.00000000E+00
  0.00000000E+00  0.00000000E+00  0.00000000E+00
  0.00000000E+00  0.00000000E+00  0.00000000E+00
  0.00000000E+00  0.00000000E+00  0.00000000E+00
  0.00000000E+00  0.00000000E+00  0.00000000E+00
