Amorphous GeTe6                         
   1.00000000000000     
    20.7128235405677259    0.0000000000000000    0.0000000000000000
     0.0000000000000000   20.7128235405677259    0.0000000000000000
     0.0000000000000000    0.0000000000000000   20.7128235405677259
   C    Te
   105   195
Direct
  0.4058277521098568  0.0595537419215685  0.9158253827453426
  0.0018741539510015  0.4049700387821656  0.9552674677955918
  0.2749784081183674  0.8700234616886086  0.6651525851271978
  0.9749569078375577  0.6326539119499811  0.0535174578527775
  0.7435257628460183  0.9531519632533861  0.2912718081714931
  0.9701036981172260  0.2870971968653168  0.4389841966240253
  0.2528604309234164  0.2040114856219596  0.4792268109656338
  0.5192685784994783  0.9639379540120944  0.0733209187330828
  0.0586540031991975  0.3367005868324606  0.5813330784338137
  0.2140663163583789  0.2380935627719287  0.4345730595559587
  0.4441465525622241  0.6216747432721413  0.7204980197253816
  0.6940067576750862  0.6827803107044041  0.6603843293081683
  0.1323608037439158  0.2096668245753010  0.7229810862151914
  0.2324994649655224  0.0422294163239232  0.4735208596088381
  0.2566952747784281  0.3363747136765269  0.6157853407020898
  0.0974540033479559  0.1846349417425827  0.0744994210295869
  0.9964825181146727  0.4612477037804630  0.9763420825666893
  0.0528532890233936  0.1352224172613339  0.7990142586035869
  0.2753210142382432  0.8773775695193040  0.7340414257733641
  0.9232729277922449  0.9074764103418509  0.3057748872461216
  0.3007464425991577  0.1778650685530115  0.7864703363937245
  0.3627241749655996  0.7243573631312263  0.8411483353058945
  0.9272083576738379  0.7039199064128262  0.1831968543964507
  0.2815962464930635  0.9858114559479475  0.6588727622444420
  0.9079011147348879  0.3845989300351200  0.4152357449360478
  0.6756570373149102  0.0457432642727855  0.7302667197400288
  0.9806628614853834  0.8900551485537479  0.3200953083265312
  0.0240015914606792  0.1662701330982167  0.7460793843853053
  0.3786960798548691  0.7005228055179783  0.7802907229198472
  0.1980368812923040  0.8993849732099329  0.5232481631031957
  0.1559585853486000  0.9949839908771098  0.3882977343005842
  0.0411333204828170  0.2513902206889388  0.6608196140239327
  0.0379668882333190  0.8664120887160909  0.3365097751716633
  0.4633087827742331  0.9978412497224026  0.0769325443288874
  0.2641112082572181  0.9274412620547925  0.6260765569018766
  0.0676604642386242  0.1262996888696656  0.9675947905187195
  0.2841151716531357  0.2982392350586506  0.6653310196195749
  0.3492339017541188  0.0853673124600565  0.6770154405560910
  0.8641116385288145  0.9247002836816824  0.2959590487232353
  0.5756895571458365  0.9706517198008315  0.7358937633410102
  0.3753741907703045  0.0868598109755774  0.8019754983473419
  0.0237702533274247  0.1034924166443696  0.8528288985776724
  0.1142424605665992  0.9594867524875601  0.3516156174537387
  0.3146264152869863  0.7758430967722152  0.7102274293636200
  0.3535251183102957  0.7218791122731725  0.7198041427051082
  0.6821845317030204  0.9643575950670997  0.3026454341843834
  0.3010483280692678  0.0755415216565709  0.5742902492190733
  0.9585162523090168  0.1594026634472992  0.7314219371762714
  0.3061856049731919  0.0454104230726352  0.6380557632829598
  0.1768061617299267  0.2504134283019400  0.6899592735623031
  0.0654468291043129  0.2087874095500324  0.7086156510559196
  0.0833042826570983  0.2934746322528997  0.6294500243881903
  0.2349037038876267  0.9188045589410856  0.5666030664698255
  0.9842385217925209  0.5762416769865959  0.0223660330033711
  0.4308677873290064  0.4492763020000618  0.1967684232757733
  0.7835596672411103  0.1058350220388946  0.7184885452301034
  0.3605468453943358  0.1042245872176769  0.9403613631780802
  0.9933240627826164  0.2352278154528233  0.4219293525898985
  0.2258511523410975  0.5575183500065839  0.4523427582803326
  0.9906913896446509  0.5207132996848479  0.9991135059278531
  0.1099274188152165  0.8181887181610210  0.4761612745197932
  0.3395532778052092  0.1323107544430403  0.5759108684477362
  0.2966584504690682  0.8072408790023051  0.6503259655862362
  0.4317798969533350  0.0282323487625239  0.0253892587208079
  0.4532845627514839  0.6292292867596608  0.8401318906700173
  0.2646668561966311  0.0561467877317498  0.5222052443388258
  0.4276986031626931  0.6487829834817030  0.7799117391031519
  0.7268101887764032  0.0773008480195978  0.7235038932846620
  0.4559117932976379  0.0028543105677292  0.8275027517919473
  0.0879732981739424  0.9002996461847368  0.3739387268506900
  0.1503647007166626  0.2927875845952779  0.6429187619729325
  0.9450818779136552  0.3477163277599261  0.4574505371751078
  0.3254826598591193  0.1428226336507552  0.8969865456166768
  0.4428568379558255  0.0218493889320603  0.9588020913736600
  0.2967833044687305  0.8206196048312308  0.7618485988117627
  0.3699644102656168  0.1371587525803388  0.6366059861671099
  0.8390480294746997  0.1296524423772829  0.7157369622112902
  0.2454355719104867  0.2543073821244032  0.7009291550219031
  0.9941539949644247  0.3353504479162261  0.5683408940609884
  0.0824383144590412  0.1527026952789038  0.0219901484988455
  0.9577798432952016  0.3736583504668246  0.5215170344935333
  0.1901032143805265  0.3343124152343198  0.6064063285655152
  0.9005337448882870  0.1468823127100629  0.7214837815078624
  0.6842611844169607  0.8874008431220821  0.1058403843083846
  0.1665652188510728  0.5502186694873510  0.4481790666452968
  0.6230284892628317  0.0096789414118574  0.7357244727995957
  0.1112730315403781  0.8733755716586139  0.4317028285240071
  0.5729505709190225  0.9361914681041060  0.0800219913258136
  0.4128844115334767  0.0500888615496122  0.8479980356614357
  0.7435394867962473  0.8690820491700141  0.1233347352359904
  0.6838501670115882  0.6343689168974829  0.6268531984788289
  0.2686080652412303  0.4568788432698747  0.8107285108828480
  0.2140132186580108  0.2828014677196002  0.3857661873161330
  0.1940435350110411  0.0208123013634773  0.4270879940953223
  0.8042653760020581  0.9399238172280201  0.2906583986555417
  0.0500470988589650  0.1080301603670749  0.9116555500634205
  0.6296146769962069  0.9099203913065304  0.0908707547002769
  0.3785833517285366  0.0651266744067554  0.7374858093341532
  0.6152297669760988  0.8059855729793969  0.5796354735486240
  0.1538968522394277  0.8749657563076915  0.4818849325395518
  0.5596378284315180  0.7716474012377850  0.5792923784783597
  0.1869315364775310  0.1960430202439348  0.4812724484192279
  0.9333105498299865  0.4340329486049386  0.5358245419814386
  0.2745872719136136  0.2139334186822172  0.7472589567081450
  0.3337407459418396  0.1363663595435841  0.8288898859155162
  0.7808665153012218  0.5461379934768429  0.1438267418602881
  0.9745981597981704  0.6714804847653073  0.8679915698819469
  0.4663635806355697  0.5555171912851538  0.0065441083797459
  0.0785009507551879  0.9315702858142033  0.7257477273069110
  0.9476869248034427  0.2637979602347487  0.6252306611256770
  0.5087437635961596  0.0081866416044541  0.5565807291415008
  0.9308920052643536  0.4820665277089486  0.7977794316177013
  0.7901327716994626  0.6333626072527019  0.4074074717855587
  0.9862390848454258  0.4678122631658738  0.2806410750496733
  0.0482259123169252  0.7524246731216115  0.7710165155569771
  0.5469030178275394  0.8715172756927408  0.3968791085412968
  0.5622467434599989  0.0940616112899360  0.3782887467442412
  0.7711763489413841  0.4192079278277531  0.0856145211655573
  0.6207080426428230  0.2990879778552810  0.0890101849571695
  0.3112297226773241  0.7681200282634797  0.5587236566208246
  0.4062879444252765  0.6737164451047939  0.9178010918239077
  0.7954263262047612  0.6770854527522837  0.7970533629239995
  0.7868046371539796  0.6945642498003604  0.9763743542811836
  0.3109356727248340  0.7532937788050068  0.3821381716860297
  0.0536641822417040  0.2781241481502806  0.0876759799155946
  0.5295650420319122  0.6945141007641770  0.5195202961732517
  0.2505149800948637  0.5852883991265099  0.9907465172715358
  0.8398769089318032  0.1755878276234209  0.3761044752006366
  0.5192611405048112  0.1517479834076962  0.4997984418372007
  0.3503184635948456  0.1990910653443295  0.4999203743089795
  0.4634823017535709  0.5218670890585138  0.5696171146225731
  0.6122201806769296  0.8772607457114067  0.6583639493382440
  0.0018900295571669  0.3166157597455251  0.9171191321942562
  0.6998688137183834  0.4387173259433861  0.2198600668649336
  0.6344980447725052  0.7467337454213123  0.2363047137134895
  0.3800917348649604  0.3160823057480456  0.7016850809719947
  0.4003570213439689  0.4510746693021400  0.9324372750296709
  0.5488798868879667  0.4407664536247194  0.4254848240958023
  0.0657616701690898  0.2875829346063136  0.2312171788626040
  0.2705832365133810  0.3579739021473070  0.8490881224519161
  0.5777596943601288  0.2814198220843317  0.7556574619319478
  0.1597402559232071  0.3809646558598363  0.9193604217813469
  0.8529707035669564  0.5489699188732321  0.8874127086484590
  0.8574432833293608  0.1915857129393836  0.2409537983487503
  0.5137803984285959  0.6735452208492612  0.0886225735213084
  0.2578714654917454  0.2121907435943316  0.9328487305116462
  0.6932581663658393  0.1552372560598342  0.3640969422904239
  0.4837867352591841  0.6285154277361746  0.2186759325305641
  0.7772568016649264  0.3263807181261130  0.7322805493598619
  0.6862150700526565  0.5243731440408487  0.7561044935069891
  0.7461666778815736  0.1206768466820511  0.9013964908628326
  0.9292857887802661  0.0579760125394469  0.8453651076697626
  0.2256935102297519 -0.0000885479330731  0.2165173316946643
  0.2748633043522133  0.9733635746774747  0.7610891423526734
  0.4377351420692372  0.9561407000100649  0.4397920582316979
  0.3678746485202557  0.7420405311431765  0.0857619604230500
  0.9435704504057724  0.9929122630872103  0.9671046712200734
  0.3494680572321782  0.5566983798501064  0.0848287448332937
  0.7968212956152960  0.0130804062894725  0.9769240009207861
  0.8892477244996526  0.6500933440109783  0.7033796509117698
  0.9090986510814458  0.1288677442222889  0.0359377913634563
  0.1371558013441276  0.3896058133788495  0.5396624478491222
  0.5984907461046433  0.3956315919926534  0.6081930070753491
  0.0702177490029892  0.5295598558989021  0.4539600603426889
  0.7376718524929566  0.4416127615787628  0.6583734584284842
  0.4960221935433707  0.8026367620755932  0.6551012562128581
  0.3590683017399006  0.0988242560591117  0.0420107585165049
  0.6264746173042142  0.1170061661864987  0.0659120502828303
  0.8723410035192088  0.1943615474009846  0.8943853774899035
  0.6444175646087350  0.3315496844107607  0.2917270477404454
  0.5289213058688731  0.5661280242648478  0.8488133945450630
  0.6796559559379478  0.8336235133042285  0.8822623857852725
  0.3245728782794205  0.5154915913802449  0.5988773743190192
  0.9523638401883792  0.7193145162800283  0.0043278693131288
  0.6494273530286893  0.4273234364407288  0.0286949306763087
  0.9112364441105726  0.7034941247114547  0.2823388746651735
  0.0872498528939222  0.0198282625410654  0.6281184975741936
  0.7663886333783860  0.7890768025193513  0.1835447289548120
  0.6581691143681618  0.7788252563658637  0.3719746215654353
  0.3408703344062745  0.4945955035003536  0.2309804517392483
  0.1215287751833896  0.8210501981474777  0.6560152958829146
  0.4776247034625503  0.3060378795626365  0.9401557176882129
  0.1630251023317433  0.4464164777488514  0.3211369181035146
  0.6338759630329728  0.5121860365245745  0.3237305758142335
  0.4800239523560602  0.2936427587486192  0.1220946045445477
  0.3241404283459144  0.6318860331862300  0.3025287367262257
  0.6995862713237931  0.3017018359246527  0.8422159653173077
  0.9241837034263910  0.0488337420771483  0.1514371392500955
  0.6822910351531311  0.1249403818012294  0.5188893239857180
  0.6641513159279245  0.6998774651779969  0.9143162455163562
  0.2672835073758497  0.8709421990203291  0.0720734243991631
  0.7283358017377355  0.4781936660236269  0.4171547409820588
  0.9336465057570432  0.7864629282513217  0.6965087517969905
  0.0502493411373957  0.5181702602457395  0.6481480788587173
  0.7218748838736205  0.3389810780444227  0.4192306788949640
  0.1915893863300755  0.6045112931225168  0.2875138669440516
  0.6462962531335766  0.6593452089506002  0.4548051815595013
  0.3037302814508089  0.8021858936976685  0.8591878853698347
  0.1711738985671235  0.4813848674778208  0.7758068615723061
  0.0319698644850277  0.4574241031139310  0.1563235649001407
  0.9933559289951901  0.1707165542210371  0.2467321725442101
  0.5046893599664438  0.3768813067719815  0.8286814005390519
  0.1687046487524640  0.6794653341655350  0.8421145030337555
  0.8843400104289164  0.3470492563755937  0.3240944481312036
  0.3953253205358750  0.6671238034114502  0.6417513171297405
  0.9143175707717762  0.7915771399876187  0.1364331645061465
  0.8411956345601386  0.0411574603683639  0.4196653807344926
  0.6524444611270377  0.2717753356962669  0.5924420146459373
  0.4298545765590067  0.4621046238266183  0.3634437879109963
  0.4477568015525329  0.2000877144541624  0.6527624816505532
  0.4155814070773302  0.8389270279125721  0.0050214409084130
  0.0962542791680844  0.9856356520638483  0.2528744866772728
  0.5938753137002990  0.2305588069542807  0.9463906948609402
  0.4593663333178291  0.9950850543000325  0.7278729155020488
  0.3106027103729044  0.5370800927454941  0.8704679260594667
  0.3375715586687615  0.2690506023833382  0.0312859902115919
  0.1751003578132235  0.6065914212366713  0.1546118582848326
  0.1811701033302402  0.1998354385993963  0.2532597791513901
  0.7984139523022462  0.8822213429126525  0.6139843793896477
  0.9003100814426691  0.2541160403856138  0.0912234736763319
  0.8405999839182534  0.4572719049715012  0.2498918910153401
  0.1673179117620957  0.7193299086831006  0.9765558051263920
  0.7019815866205781  0.0682165838201500  0.1647525770728192
  0.9650507930798278 -0.0000376834862253  0.5699370281711472
  0.8578246299684111  0.9008575346385074  0.4919203345316365
  0.6092287845789333  0.0109075655144766  0.2473828980290847
  0.5490244512918723  0.7913362908418243  0.8426673985650239
  0.0824016085043082  0.7992449935678712  0.1624675221607924
  0.8156284317427284  0.0937067574212716  0.5373742852546793
  0.1620152167779207  0.4216525880061757  0.1897223311653943
  0.2237458267865726  0.3074599123466181  0.0921160102321234
  0.9038834188625141  0.9453330380030623  0.6820811075481512
  0.3095539997690360  0.3877876890403830  0.5444730616376474
  0.8999096113375451  0.3505346532080043  0.8164737642364990
  0.4751694793817982  0.1851351497874967  0.3082909364131177
  0.0419114961462756  0.1532806587776935  0.3990764428872142
  0.4239599049238669  0.7697993694810007  0.2320689907636687
  0.1040104854529066  0.1566589267880391  0.5218401573334223
  0.8802011031490392  0.8254002930078825  0.8276772381780929
  0.5001553428267342  0.1289277730150992  0.1869507865895496
  0.1212701684116333  0.3252905922010799  0.3679819123161690
  0.4859459529038139  0.3643484341761279  0.5271665044908079
  0.5392143735378623  0.7834735013036933  0.9788215353049030
  0.3476958930099383  0.4602309509148356  0.7415111814394952
  0.0334664274178513  0.6509326782879568  0.6169543345393351
  0.2107980025509250  0.4308410166745327  0.0339440286847801
  0.4064153544575740  0.4057164712729946  0.1019001417163234
  0.5329966245472432  0.2735533485923973  0.4349655491704615
  0.3578424450046591  0.2650111533239458  0.2514523658251840
  0.5503034653617606  0.1739562997722203  0.8286473525499241
  0.2026109725733077  0.7421558457627120  0.1308339386438344
  0.0336123031815855  0.8107161050074617  0.5547050062747106
  0.4449320915240404  0.7447597511342187  0.3719209808722167
  0.6977087259886812  0.8043231225229730  0.5205462108642553
  0.1476974420409160  0.9318674131345058  0.9399238337470326
  0.7703025423248497  0.3195551844215898  0.5510270789125995
  0.1799851409588470  0.9754309604650970  0.0655867901242949
  0.8104433118559137  0.8269779341098767  0.9541032333843003
  0.5010448499949083  0.9573114324103752  0.9054115099307035
  0.6852128147815223  0.2120220308913632  0.2357484841021288
  0.3042570028869924  0.3250659549993904  0.3669164490591625
  0.5242794014196451  0.5029081598051370  0.1878034941778639
  0.4268164463341936  0.0082703787176039  0.1769068302222860
  0.5103164924986193  0.5482549117810619  0.7090517002718399
  0.8377895442720448  0.7690831836450773  0.4388323559721379
  0.3765368837034251  0.0459826736106069  0.3425713583621556
  0.8258051050771009  0.9275380661781322  0.1035065774262599
  0.3255374304993543  0.9180875627941116  0.3534235474753346
  0.4627254231677349  0.3736036736643707  0.2637859199205366
  0.1994932804237759  0.5696364481189004  0.6773647999337433
  0.8858887842039340  0.4738019669929237  0.4560162054597085
  0.0120095234034587  0.5939151195482606  0.3459605941899254
  0.9224525575819507  0.4746191786925028  0.6291851740215446
  0.7769943714611774  0.6463739411656587  0.2735004127390024
  0.6411151859288197  0.9951071966741275  0.5623274934137621
  0.1922128720566274  0.6963191765259593  0.5665218837352120
  0.6523519663104264  0.0328032072353818  0.9621323670431488
  0.8456241003307517  0.6996700950686967  0.5567072764633352
  0.1532490558010071  0.1479821733450465  0.8003621978188246
  0.6407199774772755  0.6160812366975670  0.1115743272613735
  0.6734902181729103  0.5678676738185644  0.9893143494203390
  0.3099607212457260  0.8886232496182319  0.2091740922511518
  0.7914182961577269  0.9097065693518245  0.7778942753060129
  0.7603955831293068  0.2558103018310468  0.0560038131301780
  0.7385800432235663  0.4785183132808484  0.8686042697246285
  0.8099939477875563  0.3134749660984752  0.9395758807238801
  0.0776810858427937  0.8239303325036632  0.9776988386038752
  0.9559734640504984  0.6343372425983336  0.5081722145736943
  0.6581005374536809  0.9518923390369838  0.4053366784688906
  0.7115712592871892  0.7575586793418124  0.7213354874704097
  0.6711352496302814  0.5581623279980352  0.5671402935239077
  0.3228851335174083  0.5672642591661070  0.4640306284137406
  0.0798380287862667  0.5784604680036505  0.8484938232918722
  0.0610021065001150  0.7707678160929184  0.2975364360926726
  0.9814862716065152  0.6263000917211232  0.1546201923750812
  0.1453292720749859  0.7229148954095653  0.4439598829034013
  0.3045511309047264  0.1323946357286435  0.2430715824564232
  0.9895939232082016  0.9434056562526090  0.1024410070055309
  0.1798543381761424  0.1481175663482548  0.1266905302674237
  0.5359183236507293  0.8366639903052721  0.2039290387525878
 
  0.00000000E+00  0.00000000E+00  0.00000000E+00
  0.00000000E+00  0.00000000E+00  0.00000000E+00
  0.00000000E+00  0.00000000E+00  0.00000000E+00
  0.00000000E+00  0.00000000E+00  0.00000000E+00
  0.00000000E+00  0.00000000E+00  0.00000000E+00
  0.00000000E+00  0.00000000E+00  0.00000000E+00
  0.00000000E+00  0.00000000E+00  0.00000000E+00
  0.00000000E+00  0.00000000E+00  0.00000000E+00
  0.00000000E+00  0.00000000E+00  0.00000000E+00
  0.00000000E+00  0.00000000E+00  0.00000000E+00
  0.00000000E+00  0.00000000E+00  0.00000000E+00
  0.00000000E+00  0.00000000E+00  0.00000000E+00
  0.00000000E+00  0.00000000E+00  0.00000000E+00
  0.00000000E+00  0.00000000E+00  0.00000000E+00
  0.00000000E+00  0.00000000E+00  0.00000000E+00
  0.00000000E+00  0.00000000E+00  0.00000000E+00
  0.00000000E+00  0.00000000E+00  0.00000000E+00
  0.00000000E+00  0.00000000E+00  0.00000000E+00
  0.00000000E+00  0.00000000E+00  0.00000000E+00
  0.00000000E+00  0.00000000E+00  0.00000000E+00
  0.00000000E+00  0.00000000E+00  0.00000000E+00
  0.00000000E+00  0.00000000E+00  0.00000000E+00
  0.00000000E+00  0.00000000E+00  0.00000000E+00
  0.00000000E+00  0.00000000E+00  0.00000000E+00
  0.00000000E+00  0.00000000E+00  0.00000000E+00
  0.00000000E+00  0.00000000E+00  0.00000000E+00
  0.00000000E+00  0.00000000E+00  0.00000000E+00
  0.00000000E+00  0.00000000E+00  0.00000000E+00
  0.00000000E+00  0.00000000E+00  0.00000000E+00
  0.00000000E+00  0.00000000E+00  0.00000000E+00
  0.00000000E+00  0.00000000E+00  0.00000000E+00
  0.00000000E+00  0.00000000E+00  0.00000000E+00
  0.00000000E+00  0.00000000E+00  0.00000000E+00
  0.00000000E+00  0.00000000E+00  0.00000000E+00
  0.00000000E+00  0.00000000E+00  0.00000000E+00
  0.00000000E+00  0.00000000E+00  0.00000000E+00
  0.00000000E+00  0.00000000E+00  0.00000000E+00
  0.00000000E+00  0.00000000E+00  0.00000000E+00
  0.00000000E+00  0.00000000E+00  0.00000000E+00
  0.00000000E+00  0.00000000E+00  0.00000000E+00
  0.00000000E+00  0.00000000E+00  0.00000000E+00
  0.00000000E+00  0.00000000E+00  0.00000000E+00
  0.00000000E+00  0.00000000E+00  0.00000000E+00
  0.00000000E+00  0.00000000E+00  0.00000000E+00
  0.00000000E+00  0.00000000E+00  0.00000000E+00
  0.00000000E+00  0.00000000E+00  0.00000000E+00
  0.00000000E+00  0.00000000E+00  0.00000000E+00
  0.00000000E+00  0.00000000E+00  0.00000000E+00
  0.00000000E+00  0.00000000E+00  0.00000000E+00
  0.00000000E+00  0.00000000E+00  0.00000000E+00
  0.00000000E+00  0.00000000E+00  0.00000000E+00
  0.00000000E+00  0.00000000E+00  0.00000000E+00
  0.00000000E+00  0.00000000E+00  0.00000000E+00
  0.00000000E+00  0.00000000E+00  0.00000000E+00
  0.00000000E+00  0.00000000E+00  0.00000000E+00
  0.00000000E+00  0.00000000E+00  0.00000000E+00
  0.00000000E+00  0.00000000E+00  0.00000000E+00
  0.00000000E+00  0.00000000E+00  0.00000000E+00
  0.00000000E+00  0.00000000E+00  0.00000000E+00
  0.00000000E+00  0.00000000E+00  0.00000000E+00
  0.00000000E+00  0.00000000E+00  0.00000000E+00
  0.00000000E+00  0.00000000E+00  0.00000000E+00
  0.00000000E+00  0.00000000E+00  0.00000000E+00
  0.00000000E+00  0.00000000E+00  0.00000000E+00
  0.00000000E+00  0.00000000E+00  0.00000000E+00
  0.00000000E+00  0.00000000E+00  0.00000000E+00
  0.00000000E+00  0.00000000E+00  0.00000000E+00
  0.00000000E+00  0.00000000E+00  0.00000000E+00
  0.00000000E+00  0.00000000E+00  0.00000000E+00
  0.00000000E+00  0.00000000E+00  0.00000000E+00
  0.00000000E+00  0.00000000E+00  0.00000000E+00
  0.00000000E+00  0.00000000E+00  0.00000000E+00
  0.00000000E+00  0.00000000E+00  0.00000000E+00
  0.00000000E+00  0.00000000E+00  0.00000000E+00
  0.00000000E+00  0.00000000E+00  0.00000000E+00
  0.00000000E+00  0.00000000E+00  0.00000000E+00
  0.00000000E+00  0.00000000E+00  0.00000000E+00
  0.00000000E+00  0.00000000E+00  0.00000000E+00
  0.00000000E+00  0.00000000E+00  0.00000000E+00
  0.00000000E+00  0.00000000E+00  0.00000000E+00
  0.00000000E+00  0.00000000E+00  0.00000000E+00
  0.00000000E+00  0.00000000E+00  0.00000000E+00
  0.00000000E+00  0.00000000E+00  0.00000000E+00
  0.00000000E+00  0.00000000E+00  0.00000000E+00
  0.00000000E+00  0.00000000E+00  0.00000000E+00
  0.00000000E+00  0.00000000E+00  0.00000000E+00
  0.00000000E+00  0.00000000E+00  0.00000000E+00
  0.00000000E+00  0.00000000E+00  0.00000000E+00
  0.00000000E+00  0.00000000E+00  0.00000000E+00
  0.00000000E+00  0.00000000E+00  0.00000000E+00
  0.00000000E+00  0.00000000E+00  0.00000000E+00
  0.00000000E+00  0.00000000E+00  0.00000000E+00
  0.00000000E+00  0.00000000E+00  0.00000000E+00
  0.00000000E+00  0.00000000E+00  0.00000000E+00
  0.00000000E+00  0.00000000E+00  0.00000000E+00
  0.00000000E+00  0.00000000E+00  0.00000000E+00
  0.00000000E+00  0.00000000E+00  0.00000000E+00
  0.00000000E+00  0.00000000E+00  0.00000000E+00
  0.00000000E+00  0.00000000E+00  0.00000000E+00
  0.00000000E+00  0.00000000E+00  0.00000000E+00
  0.00000000E+00  0.00000000E+00  0.00000000E+00
  0.00000000E+00  0.00000000E+00  0.00000000E+00
  0.00000000E+00  0.00000000E+00  0.00000000E+00
  0.00000000E+00  0.00000000E+00  0.00000000E+00
  0.00000000E+00  0.00000000E+00  0.00000000E+00
  0.00000000E+00  0.00000000E+00  0.00000000E+00
  0.00000000E+00  0.00000000E+00  0.00000000E+00
  0.00000000E+00  0.00000000E+00  0.00000000E+00
  0.00000000E+00  0.00000000E+00  0.00000000E+00
  0.00000000E+00  0.00000000E+00  0.00000000E+00
  0.00000000E+00  0.00000000E+00  0.00000000E+00
  0.00000000E+00  0.00000000E+00  0.00000000E+00
  0.00000000E+00  0.00000000E+00  0.00000000E+00
  0.00000000E+00  0.00000000E+00  0.00000000E+00
  0.00000000E+00  0.00000000E+00  0.00000000E+00
  0.00000000E+00  0.00000000E+00  0.00000000E+00
  0.00000000E+00  0.00000000E+00  0.00000000E+00
  0.00000000E+00  0.00000000E+00  0.00000000E+00
  0.00000000E+00  0.00000000E+00  0.00000000E+00
  0.00000000E+00  0.00000000E+00  0.00000000E+00
  0.00000000E+00  0.00000000E+00  0.00000000E+00
  0.00000000E+00  0.00000000E+00  0.00000000E+00
  0.00000000E+00  0.00000000E+00  0.00000000E+00
  0.00000000E+00  0.00000000E+00  0.00000000E+00
  0.00000000E+00  0.00000000E+00  0.00000000E+00
  0.00000000E+00  0.00000000E+00  0.00000000E+00
  0.00000000E+00  0.00000000E+00  0.00000000E+00
  0.00000000E+00  0.00000000E+00  0.00000000E+00
  0.00000000E+00  0.00000000E+00  0.00000000E+00
  0.00000000E+00  0.00000000E+00  0.00000000E+00
  0.00000000E+00  0.00000000E+00  0.00000000E+00
  0.00000000E+00  0.00000000E+00  0.00000000E+00
  0.00000000E+00  0.00000000E+00  0.00000000E+00
  0.00000000E+00  0.00000000E+00  0.00000000E+00
  0.00000000E+00  0.00000000E+00  0.00000000E+00
  0.00000000E+00  0.00000000E+00  0.00000000E+00
  0.00000000E+00  0.00000000E+00  0.00000000E+00
  0.00000000E+00  0.00000000E+00  0.00000000E+00
  0.00000000E+00  0.00000000E+00  0.00000000E+00
  0.00000000E+00  0.00000000E+00  0.00000000E+00
  0.00000000E+00  0.00000000E+00  0.00000000E+00
  0.00000000E+00  0.00000000E+00  0.00000000E+00
  0.00000000E+00  0.00000000E+00  0.00000000E+00
  0.00000000E+00  0.00000000E+00  0.00000000E+00
  0.00000000E+00  0.00000000E+00  0.00000000E+00
  0.00000000E+00  0.00000000E+00  0.00000000E+00
  0.00000000E+00  0.00000000E+00  0.00000000E+00
  0.00000000E+00  0.00000000E+00  0.00000000E+00
  0.00000000E+00  0.00000000E+00  0.00000000E+00
  0.00000000E+00  0.00000000E+00  0.00000000E+00
  0.00000000E+00  0.00000000E+00  0.00000000E+00
  0.00000000E+00  0.00000000E+00  0.00000000E+00
  0.00000000E+00  0.00000000E+00  0.00000000E+00
  0.00000000E+00  0.00000000E+00  0.00000000E+00
  0.00000000E+00  0.00000000E+00  0.00000000E+00
  0.00000000E+00  0.00000000E+00  0.00000000E+00
  0.00000000E+00  0.00000000E+00  0.00000000E+00
  0.00000000E+00  0.00000000E+00  0.00000000E+00
  0.00000000E+00  0.00000000E+00  0.00000000E+00
  0.00000000E+00  0.00000000E+00  0.00000000E+00
  0.00000000E+00  0.00000000E+00  0.00000000E+00
  0.00000000E+00  0.00000000E+00  0.00000000E+00
  0.00000000E+00  0.00000000E+00  0.00000000E+00
  0.00000000E+00  0.00000000E+00  0.00000000E+00
  0.00000000E+00  0.00000000E+00  0.00000000E+00
  0.00000000E+00  0.00000000E+00  0.00000000E+00
  0.00000000E+00  0.00000000E+00  0.00000000E+00
  0.00000000E+00  0.00000000E+00  0.00000000E+00
  0.00000000E+00  0.00000000E+00  0.00000000E+00
  0.00000000E+00  0.00000000E+00  0.00000000E+00
  0.00000000E+00  0.00000000E+00  0.00000000E+00
  0.00000000E+00  0.00000000E+00  0.00000000E+00
  0.00000000E+00  0.00000000E+00  0.00000000E+00
  0.00000000E+00  0.00000000E+00  0.00000000E+00
  0.00000000E+00  0.00000000E+00  0.00000000E+00
  0.00000000E+00  0.00000000E+00  0.00000000E+00
  0.00000000E+00  0.00000000E+00  0.00000000E+00
  0.00000000E+00  0.00000000E+00  0.00000000E+00
  0.00000000E+00  0.00000000E+00  0.00000000E+00
  0.00000000E+00  0.00000000E+00  0.00000000E+00
  0.00000000E+00  0.00000000E+00  0.00000000E+00
  0.00000000E+00  0.00000000E+00  0.00000000E+00
  0.00000000E+00  0.00000000E+00  0.00000000E+00
  0.00000000E+00  0.00000000E+00  0.00000000E+00
  0.00000000E+00  0.00000000E+00  0.00000000E+00
  0.00000000E+00  0.00000000E+00  0.00000000E+00
  0.00000000E+00  0.00000000E+00  0.00000000E+00
  0.00000000E+00  0.00000000E+00  0.00000000E+00
  0.00000000E+00  0.00000000E+00  0.00000000E+00
  0.00000000E+00  0.00000000E+00  0.00000000E+00
  0.00000000E+00  0.00000000E+00  0.00000000E+00
  0.00000000E+00  0.00000000E+00  0.00000000E+00
  0.00000000E+00  0.00000000E+00  0.00000000E+00
  0.00000000E+00  0.00000000E+00  0.00000000E+00
  0.00000000E+00  0.00000000E+00  0.00000000E+00
  0.00000000E+00  0.00000000E+00  0.00000000E+00
  0.00000000E+00  0.00000000E+00  0.00000000E+00
  0.00000000E+00  0.00000000E+00  0.00000000E+00
  0.00000000E+00  0.00000000E+00  0.00000000E+00
  0.00000000E+00  0.00000000E+00  0.00000000E+00
  0.00000000E+00  0.00000000E+00  0.00000000E+00
  0.00000000E+00  0.00000000E+00  0.00000000E+00
  0.00000000E+00  0.00000000E+00  0.00000000E+00
  0.00000000E+00  0.00000000E+00  0.00000000E+00
  0.00000000E+00  0.00000000E+00  0.00000000E+00
  0.00000000E+00  0.00000000E+00  0.00000000E+00
  0.00000000E+00  0.00000000E+00  0.00000000E+00
  0.00000000E+00  0.00000000E+00  0.00000000E+00
  0.00000000E+00  0.00000000E+00  0.00000000E+00
  0.00000000E+00  0.00000000E+00  0.00000000E+00
  0.00000000E+00  0.00000000E+00  0.00000000E+00
  0.00000000E+00  0.00000000E+00  0.00000000E+00
  0.00000000E+00  0.00000000E+00  0.00000000E+00
  0.00000000E+00  0.00000000E+00  0.00000000E+00
  0.00000000E+00  0.00000000E+00  0.00000000E+00
  0.00000000E+00  0.00000000E+00  0.00000000E+00
  0.00000000E+00  0.00000000E+00  0.00000000E+00
  0.00000000E+00  0.00000000E+00  0.00000000E+00
  0.00000000E+00  0.00000000E+00  0.00000000E+00
  0.00000000E+00  0.00000000E+00  0.00000000E+00
  0.00000000E+00  0.00000000E+00  0.00000000E+00
  0.00000000E+00  0.00000000E+00  0.00000000E+00
  0.00000000E+00  0.00000000E+00  0.00000000E+00
  0.00000000E+00  0.00000000E+00  0.00000000E+00
  0.00000000E+00  0.00000000E+00  0.00000000E+00
  0.00000000E+00  0.00000000E+00  0.00000000E+00
  0.00000000E+00  0.00000000E+00  0.00000000E+00
  0.00000000E+00  0.00000000E+00  0.00000000E+00
  0.00000000E+00  0.00000000E+00  0.00000000E+00
  0.00000000E+00  0.00000000E+00  0.00000000E+00
  0.00000000E+00  0.00000000E+00  0.00000000E+00
  0.00000000E+00  0.00000000E+00  0.00000000E+00