In2O3 structure 46 - random placement wi
   1.00000000000000     
     8.1197568301763656    0.0272938468206333   -0.0212339771082794
     0.0271626111050789    8.1194604779186612    0.0037999762535476
    -0.0211710312611797    0.0037847817100545    8.0985391649080469
   In   O 
    16    24
Direct
  0.4136602038359634  0.5119138333906781  0.5104581485513063
  0.6731378889467683  0.7849680510217598  0.2542920934815118
  0.4157927616172948  0.0057903929078479  0.5087938587626410
  0.1375088201636733  0.2406668658698285  0.7211520844241810
  0.9156037047601320  0.0092933589180365  0.4990329331759861
  0.6313659040231784  0.7328991019394973  0.7495216655998382
  0.8848042612402264  0.5183867551702979 -0.0010439834946778
  0.6374137087711332  0.2419728123389281  0.7566045969661388
  0.9075079767122163  0.9878729946108771  0.9879303931258172
  0.3908302100320948  0.5039270767931171  0.0020376115656321
  0.1735834007330706  0.7660449046247277  0.2300801437117113
  0.9174715595796005  0.5166943285403627  0.4996505217027906
  0.1865514180221432  0.2738589375157099  0.2342508554917375
  0.1315582916017799  0.7360566434531485  0.7185995117983581
  0.6710226378681460  0.2950880761456697  0.2945080067081266
  0.3742003405675016  0.9875868412945147  0.9953916825743651
  0.8593715995205383  0.2451328209012122  0.0857962932570444
  0.5271135290205985  0.9884574916730942  0.7761364555406106
  0.7649627090962108  0.7686190043694141  0.9835133349965902
  0.9349208217099089  0.8952571308813886  0.2530886686156501
  0.7895634087403739  0.5391918328660783  0.2570455271967681
  0.2682242055839608  0.2368006105968346  0.9669531166991080
  0.4266053510322353  0.3975809241377513  0.2586373485367809
  0.1388918470777803  0.8610815495162186  0.9600794543994248
  0.6877569357395115  0.1694617584069371  0.0382648615894448
  0.3832177181478953  0.2634116784538507  0.6139173949626514
  0.1327416268968836  0.5182753610021772  0.1127013673804255
  0.3725642885965278  0.6282299783332308  0.7624299670683680
  0.8704392567186149  0.7634669235157802  0.6176565414530646
  0.6770333873674051  0.4032644089639688  0.5441660083624376
  0.6378424743281590  0.4756829830372506  0.8878520628202758
  0.8867706964367557  0.1237960454681283  0.7526436255659614
  0.6615872018894877  0.0492806685508455  0.3939904899810643
  0.4336726389914818  0.7510396718648786  0.1222823807563521
  0.1688936050913643  0.9816674646111500  0.6111976685610201
  0.5305414038007923  0.7539597114447242  0.4856893433260578
  0.1681569185712873  0.6263525958001894  0.4606868863933580
  0.2930204611512664  0.0256259122497301  0.2604385163655286
  0.0189172910009258  0.2651178046099361  0.4416479541559533
  0.0178188696761249  0.4833702645472965  0.7600820033478147
 
  0.00000000E+00  0.00000000E+00  0.00000000E+00
  0.00000000E+00  0.00000000E+00  0.00000000E+00
  0.00000000E+00  0.00000000E+00  0.00000000E+00
  0.00000000E+00  0.00000000E+00  0.00000000E+00
  0.00000000E+00  0.00000000E+00  0.00000000E+00
  0.00000000E+00  0.00000000E+00  0.00000000E+00
  0.00000000E+00  0.00000000E+00  0.00000000E+00
  0.00000000E+00  0.00000000E+00  0.00000000E+00
  0.00000000E+00  0.00000000E+00  0.00000000E+00
  0.00000000E+00  0.00000000E+00  0.00000000E+00
  0.00000000E+00  0.00000000E+00  0.00000000E+00
  0.00000000E+00  0.00000000E+00  0.00000000E+00
  0.00000000E+00  0.00000000E+00  0.00000000E+00
  0.00000000E+00  0.00000000E+00  0.00000000E+00
  0.00000000E+00  0.00000000E+00  0.00000000E+00
  0.00000000E+00  0.00000000E+00  0.00000000E+00
  0.00000000E+00  0.00000000E+00  0.00000000E+00
  0.00000000E+00  0.00000000E+00  0.00000000E+00
  0.00000000E+00  0.00000000E+00  0.00000000E+00
  0.00000000E+00  0.00000000E+00  0.00000000E+00
  0.00000000E+00  0.00000000E+00  0.00000000E+00
  0.00000000E+00  0.00000000E+00  0.00000000E+00
  0.00000000E+00  0.00000000E+00  0.00000000E+00
  0.00000000E+00  0.00000000E+00  0.00000000E+00
  0.00000000E+00  0.00000000E+00  0.00000000E+00
  0.00000000E+00  0.00000000E+00  0.00000000E+00
  0.00000000E+00  0.00000000E+00  0.00000000E+00
  0.00000000E+00  0.00000000E+00  0.00000000E+00
  0.00000000E+00  0.00000000E+00  0.00000000E+00
  0.00000000E+00  0.00000000E+00  0.00000000E+00
  0.00000000E+00  0.00000000E+00  0.00000000E+00
  0.00000000E+00  0.00000000E+00  0.00000000E+00
  0.00000000E+00  0.00000000E+00  0.00000000E+00
  0.00000000E+00  0.00000000E+00  0.00000000E+00
  0.00000000E+00  0.00000000E+00  0.00000000E+00
  0.00000000E+00  0.00000000E+00  0.00000000E+00
  0.00000000E+00  0.00000000E+00  0.00000000E+00
  0.00000000E+00  0.00000000E+00  0.00000000E+00
  0.00000000E+00  0.00000000E+00  0.00000000E+00
  0.00000000E+00  0.00000000E+00  0.00000000E+00
