Amorphous GeAsSeSi                      
   1.00000000000000     
    19.3773233545911327    0.0000000000000000    0.0000000000000000
     0.0000000000000000   19.3773233545911327    0.0000000000000000
     0.0000000000000000    0.0000000000000000   19.3773233545911327
   Zn   O    Sb
   136    28   136
Direct
  0.4914825958344228  0.8350831584629902  0.4852650290026221
  0.5780944421899578  0.7884375493873346  0.5912564862652373
  0.1791534365141151  0.4837189571785017  0.7220546790718434
  0.1928038982403920  0.7509183360152352  0.4040774051153970
  0.9368962644705533  0.1564094640446346  0.8119608867014185
  0.6543507048264932  0.2580065365296882  0.3508513146528721
  0.7366434838760304  0.9236713141717784  0.5644144947189162
  0.0789061951712623  0.7684984774278593  0.0363016445762548
  0.8225567786191050  0.1862595171726934  0.8667577338859411
  0.7217804034058155  0.3461668364251113  0.5559599758319974
  0.4159132649726694  0.9487936180453310  0.6610619187419544
  0.0388881233045235  0.5407347046003246  0.2653642738328482
  0.5674177090562605  0.1269724781499884  0.8455094696455819
  0.3089227625335650  0.8812596553625505  0.7050535010796783
  0.9956508419416561  0.4823344480093575  0.8411517570357003
  0.4618586089948773  0.7969790789173462  0.0752579904865810
  0.5167821146112117  0.5820390455566554  0.8214097575675764
  0.4260907318957414  0.3825592599967543  0.5454280457966939
  0.4064586614444717  0.9494292754191409  0.1359816787236131
  0.6977541455630051  0.1636495608720034  0.7499127274301741
  0.2983572749889510  0.3438753553999101  0.1416506228101862
  0.8110840924316435  0.7372258164896689  0.0714860894479593
  0.6197104022190415  0.8225256843438690  0.4048638040356953
  0.9686272863075921  0.8352910044217865  0.8286270263478217
  0.3988795152502501  0.9305952686786853  0.4902346031225179
  0.6598741831569739  0.1628943447854393  0.1741010054223317
  0.6508544352623967  0.4991812598879179  0.4691764979838639
  0.9472738504702147  0.9670638597272260  0.0206042773232227
  0.2101125563006181  0.2057890242854601  0.6356040920648748
  0.5907242222203235  0.2956795494505254  0.4600263227728808
  0.7244525886172802  0.2768090780556760  0.4495145155331660
  0.0083517878948214  0.0094209635989086  0.3608177048770688
  0.6101401455694957  0.8411504459181345  0.2702237699289897
  0.7201974008482838  0.1868260541706257  0.5607196323111789
  0.1876830164208543  0.7992889098310512  0.7430404914330220
  0.5939214907569871  0.6197023743607629  0.2119014885720373
  0.8961184236385725  0.0663093377064514  0.0762949352086862
  0.8655863662297207  0.8292546596550937  0.9429553608052416
  0.5351169672678446  0.7109681481805605  0.0035036390911887
  0.8127345087522291  0.4477907654386851  0.5361635647815599
  0.5279724156791612  0.9101060105586467  0.5948663919049900
  0.4222317434649801  0.5682295075021012  0.9154280594944968
  0.1657997117028542  0.8614844082059506  0.9810785317072929
  0.1606558732692972  0.1408278525162983  0.7532092431688718
  0.6104523850135469  0.9472729212965477  0.4992968947874620
  0.8244139776220452  0.7868852186814678  0.2607216751839262
  0.1681677938198376  0.2794578954818408  0.4073383090850733
  0.8821576861679506  0.2444478192717154  0.3363063253502133
  0.9650847523113556  0.8057052692687376  0.0483355148788436
  0.7989498196461247  0.5706644708419663  0.4477795245957981
  0.3418953653064586  0.7418752212728074  0.1242451833937614
  0.0581484766535707  0.8452301717295366  0.2235763716526164
  0.7574751354621702  0.6832940653407031  0.5110387712133750
  0.8441067881979172  0.9582431110348517  0.6354861737445699
  0.0619001974160187  0.1264766159126655  0.3929663923153668
  0.3024289742420694  0.4813887264953266  0.7744258356331650
  0.6195306156988638  0.1083126718814733  0.0126007099351700
  0.3775879293564916  0.9875667730448917  0.9030209121609318
  0.2110364955459411  0.3463394216263209  0.9330445834104504
  0.9019522403734276  0.5269577232063625  0.9481233593756785
  0.3635628851303596  0.2688059932291643  0.6558731126250692
  0.4168326513236725  0.5408066926482261  0.7540623231097627
  0.0338901511141789  0.5428600301179243  0.9698432995067180
  0.2882803249177949  0.1127788127611492  0.9160568854901587
  0.7097152795175659  0.8680166541916304  0.8626795517156030
  0.9476573369743513  0.3609699854524933  0.4768984721024642
  0.7952986234058012  0.1832796124770825  0.1393826317860428
  0.5379413414628463  0.4900704888861148  0.7188586137247105
  0.5302612328253649  0.4945525578980352  0.1903259819407165
  0.3481845369228163  0.2071794502228072  0.3219999728177221
  0.2959338075029519  0.7712467954239558  0.6341288471405447
  0.1344847446612278  0.6522799208011869  0.3399845293634042
  0.9698682617257195  0.2324521409479028  0.4238999507944372
  0.0512939714255850  0.5053292597520723  0.7098562120736633
  0.0818027846505420  0.4842396660888034  0.3892465438836799
  0.3178670282159259  0.9240837189304864  0.3602510326475466
  0.4068193503818029  0.8157411459045325  0.3348306385613341
  0.7930751949416615  0.1301966599778243  0.4031488873437811
  0.6167915285602975  0.8003049354694330  0.9183444613801800
  0.3891026062925061  0.3775515244642207  0.7390415703911730
  0.4663014953745286  0.7045571168591498  0.3209887529789044
  0.6259863445239601  0.2466518976233213  0.9247546516288019
  0.6704064018490584  0.6811266974761103  0.0668500266561753
  0.2739745803535095  0.8968135259375626  0.0793596337230266
  0.6531489395352560  0.9957892438559667  0.6249291322538159
  0.7619131515003053  0.8821742977751342  0.7037173356200830
  0.3117490199734897  0.0486927384856137  0.4568250918319774
  0.8977698389021572  0.2160553895556747  0.2063979255132821
  0.5866694247121774  0.5949220285877995  0.9683944484685009
  0.6768932533741178  0.5788503743385720  0.3185441349351554
  0.2286999957751874  0.2640246601766388  0.0394321736668804
  0.3895806623905294  0.9313140168966095  0.7849499566489375
  0.9543524163965125  0.3696651767140235  0.8812194553433865
  0.1437042356543549  0.3667118116214668  0.2196121019809246
  0.1483695308444040  0.7229194162208578  0.1608337455517305
  0.3467847241546113  0.2283690760874940  0.9411911039924361
  0.2178895816681977  0.0166931840613426  0.8861401252626552
  0.9488842045309251  0.8076515798059387  0.2988165595334020
  0.5434128819757438  0.6990997892968351  0.8642210985180819
  0.7162502611347108  0.7106844184268289  0.2818185956074256
  0.3395948484005227  0.5322126721720797  0.6512501469356133
  0.4318775790842123  0.6772120067391645  0.7885114914926384
  0.7314746506242489  0.8472195119294480  0.3282381459735476
  0.9266478665303456  0.0881797106567896  0.4234114085461803
  0.2666069668484202  0.3699701741300241  0.4767634061748657
  0.7493872450821423  0.1326840064900287  0.0088467885814054
  0.2925413139027425  0.3073863189361044  0.8441731266089068
  0.6245125706631448  0.8028352213757214  0.0441591727781740
  0.5976828775639279  0.7136904248740545  0.3181440323927961
  0.7224448481566874  0.6234795225003834  0.1874811892481103
  0.4180020254032749  0.6947892777810087  0.9406736697664608
  0.4721559555841174  0.0254216229750170  0.8138716122820997
  0.3413649311369498  0.6994427034172697  0.3365929974491793
  0.6687194970661887  0.6434736281413892  0.4335304626504398
  0.1037274712776356  0.3948560772565789  0.7502449450541604
  0.7030537225505643  0.3738924185409911  0.2563556969306326
  0.5046235787364323  0.1856306311930971  0.0916298328291256
  0.2489401958401085  0.5128847213034737  0.9963725606349902
  0.1851200483770501  0.3963247271025330  0.3562342765977730
  0.2549572929034902  0.2333470743807657  0.7473796036913196
  0.3190781284950141  0.4625534072210112  0.0959203303858558
  0.1303151969274242  0.1856852320369348  0.2940668632499052
  0.4102989028404171  0.8472572354474447  0.5866413784110819
  0.5739274497631571  0.4064216641655920  0.1060084941973015
  0.8265791237483870  0.7852367656348948  0.4057194147774715
  0.3488981047357053  0.0994498479998875  0.8050613297698186
  0.3274505739288220  0.6062215562854614  0.9940177334262214
  0.9533692555933410  0.0840957308651820  0.9340817412750837
  0.3290602532561647  0.9983069129953184  0.2396165019895299
  0.5146084532428689  0.3846592850237502  0.9830104036146408
  0.1577668208764771  0.4882646256813623  0.2723341840336109
  0.4607333082234011  0.5577821620127795  0.6241213568074402
  0.5666331056533118  0.2444462468468259  0.8079624571211951
  0.2340662859614566  0.3602544017627743  0.7263878809218247
  0.9539859926915174  0.3488904561932546  0.1683851722000250
  0.2934256700244489  0.3354272723994534  0.3159133995913921
  0.0470766085759742  0.9436148169603622  0.7723389238392960
  0.1286279576168314  0.5899605241649544  0.4132412229733717
  0.3308941372198128  0.2984264973996872  0.4772587314724000
  0.2027024645459888  0.9211440224379835  0.9090809251637638
  0.1145328878490063  0.2187365858175660  0.6194133555252359
  0.0219180483222586  0.3895939956135362  0.5441582324768215
  0.7484210094800398  0.4925788501144283  0.4777485185074445
  0.6320259415382086  0.3116421998634539  0.2650987181473878
  0.0287340777047180  0.3601029997904404  0.9500966138247090
  0.9420756035331668  0.9245980373692014  0.6627249248361603
  0.2188243512234231  0.1064356643766409  0.1135379006894064
  0.8385526750518224  0.0377678908694193  0.5823979734292736
  0.2824630740321199  0.7846541757447187  0.7397890634816049
  0.8127173306333256  0.1107193374520094  0.0728985345284693
  0.5377881711073376  0.1645937483006963  0.9970395364477315
  0.1637584654528700  0.7291421219316708  0.0660733029767581
  0.7714467198070351  0.2664493839402698  0.0908939048365647
  0.7021024484990702  0.2693750344270250  0.6171820427890302
  0.4824882100257413  0.8892489040370625  0.1123286757740086
  0.8712856552664454  0.8085906630056725  0.0375172269322304
  0.2673211177706487  0.6798467289817891  0.4073546907863672
  0.9095467702439749  0.4552594283926243  0.4959395417970818
  0.0241854319424114  0.6422007728600906  0.3100045467432421
  0.9856595373600893  0.5338061008172933  0.0909637666723248
  0.7764836089194104  0.4137879523390007  0.3188068118505197
  0.5903894622342114  0.2250954206446521  0.1450122850772625
  0.8344509005305083  0.9891354461163296  0.3164822423942709
  0.8006383990273330  0.9023664932072171  0.9078537998084525
  0.8885604257724732  0.6755430757555795  0.4749106317977505
  0.7305860644261636  0.8041452712197640  0.1734324873907721
  0.0348640219154440  0.3414757703497556  0.3649713080508106
  0.8459064920197559  0.2470280669325117  0.5046815369867667
  0.5097894876408208  0.3714886571091292  0.7909272026536246
  0.5699117553224317  0.4707887803198932  0.8839158333987462
  0.0174486456425824  0.8797441575168081  0.9476669822639472
  0.8498351236754899  0.6498537619843939  0.1885792972698568
  0.1784960322761714  0.7458604765120199  0.5592624289851915
  0.6970970577734502  0.1041105494580083  0.8833354459227357
  0.2493798870262920  0.5409555004253532  0.1912009751864011
  0.6088782170745510  0.0355945916367734  0.1255741276993339
  0.3629407932709675  0.0477717233574657  0.0258874768322203
  0.9002095717192923  0.8335814805988444  0.7086410388387371
  0.1512823745301917  0.9312626340434406  0.7412532571345640
  0.0047233698080593  0.1289517505597583  0.1330296899599297
  0.9413382468133951  0.6232905281279965  0.0706769241569870
  0.9974904954989542  0.0028016864936221  0.7072052291285672
  0.0994918772880062  0.4360081678443035  0.9223980369971913
  0.1549014541080974  0.6792791553617814  0.8966271231866946
  0.1919330846399024  0.1382617180561468  0.0181860057050006
  0.2591018162573498  0.7375590023593332  0.0157953087721581
  0.6136204431085565  0.2717394272882126  0.6659830511560567
  0.0945642497390615  0.2236851324811947  0.5181766719389618
  0.8328330278466066  0.3437921448048321  0.0953913176016088
  0.8661622900638256  0.7288803385785412  0.8558472223548392
  0.0326564100736286  0.1811844719368491  0.7116860034193948
  0.6184994264344925  0.5433048700981926  0.0969616189996638
  0.7277079432080503  0.7673835116627635  0.7743071836130937
  0.7597790318666297  0.0809735809922589  0.6348066929170487
  0.2996143235870999  0.7011552296030595  0.8119810179016230
  0.3816111929530207  0.7161704701620349  0.5464800248625835
  0.8712035088085262  0.0828981354390619  0.2880246730544719
  0.4172516233392489  0.0280339254439847  0.3629706934592478
  0.0355715514505816  0.3125972903096337  0.0434941232677319
  0.5820820632463007  0.8875342680843630  0.1431925505368498
  0.6570250267743816  0.3537510602406190  0.0207133028978055
  0.5718578066200345  0.8002039730788296  0.7582798898233568
  0.8600570104558634  0.4804397651602156  0.7761825054429350
  0.1120284222853296  0.0469023541264871  0.2048421952421384
  0.0470566117606988  0.1671446986970040  0.9983654546807311
  0.1947609999679251  0.8625816164055968  0.2614730564443618
  0.1203123866364769  0.4165681120632043  0.5038332694320166
  0.3163095662936796  0.1953207499990687  0.5276294365181823
  0.1757803548125642  0.0983975629256947  0.5044296411272819
  0.5214844042956022  0.7244387238067218  0.1948752668086396
  0.4972570528855706  0.1341016308439692  0.7211054556546095
  0.4568577592413870  0.1289041133497709  0.9364749875935856
  0.6832442317062137  0.6491280055565053  0.8828114730322756
  0.0342852895449846  0.7460990150535541  0.4956702973557834
  0.5316003639418621  0.7105177651045106  0.4463469288490764
  0.2380100836237740  0.1615103470542393  0.3843871634296513
  0.8832154813065026  0.3850806208170804  0.3155780271055927
  0.2370727306496794  0.6081575867153286  0.7145149122816103
  0.7020273637266062  0.6872378441332960  0.6416944628985110
  0.1547435992706283  0.2292944210839959  0.8703256715875575
  0.6619529887083354  0.5284645046852244  0.6710532485489534
  0.4529216997966758  0.4983475694536116  0.0494720700554930
  0.5357313064823465  0.5691541691830223  0.3209396488983265
  0.2297864700956168  0.6785193367478244  0.2517089637945188
  0.3253229713987134  0.4256018973560765  0.9065872535335766
  0.2915526994107769  0.6006485798614454  0.4703272412069134
  0.4967122745564461  0.0440969514781189  0.5018724530126211
  0.4696645578103284  0.0759766383585717  0.1580427109357004
  0.3723856595659307  0.8600778004875890  0.9819599986050996
  0.9630312333215062  0.4609346001117312  0.5969758199382132
  0.6794226563273217  0.9644395956834479  0.3807228651875004
  0.4868558854561501  0.6957042297161683  0.6525306710021042
  0.8871311476549046  0.9206097664168196  0.3762055313299327
  0.3752821246197215  0.5684217091087248  0.2697746523899860
  0.4597538586546349  0.4451117470971468  0.2912727568486046
  0.1481387375168776  0.8858620348674506  0.5988538597091054
  0.0707756714015034  0.5866123620317729  0.4983403804610581
  0.3006155786522879  0.1358815748566513  0.1662179767110425
  0.5151125471648912  0.8990657576931441  0.3520597018573298
  0.8056191483078127  0.0062636682136689  0.4738739731047823
  0.2580717217722280  0.0543246468709852  0.7049888523544511
  0.8529283978397582  0.6898120592623169  0.6196405568881466
  0.9617367751005561  0.5894140392244256  0.7720524384380957
  0.0217581866183006  0.8022567885136278  0.6335510590938733
  0.5910159189913644  0.1214551966370862  0.6029204896364051
  0.0371919203460095  0.2902485422532608  0.8039467441666438
  0.3977298500183430  0.0787289615475082  0.6099997012949226
  0.3105533755971695  0.8191351539545544  0.4463849432145447
  0.6921521317445820  0.8035606482143378  0.5170424408060706
  0.2357630145157529  0.2591421762586084  0.2272295880571542
  0.2877683245079420  0.9731438492604860  0.5777047600046846
  0.9304351103025555  0.6675553577755372  0.3105446945579763
  0.3940574638617633  0.2310503040229871  0.7799132639662796
  0.5883883348779338  0.6058710528846195  0.5559945237566954
  0.4884300111729312  0.1993795624591949  0.4407779821970619
  0.0100076710315975  0.7332003380131700  0.1642147948266129
  0.9824704689987583  0.9777100891154068  0.2354327752121409
  0.6695398713985159  0.1183307429015025  0.3438444729771178
  0.9175967276430039  0.5106697199034451  0.4028985491662131
  0.2087766150272114  0.9991576364372192  0.3194750228494932
  0.0992716196883019  0.6719402738214016  0.6725098547448917
  0.3438769838976131  0.8471936735969822  0.2153036857465844
  0.1687241747527305  0.3856402658008419  0.0658670149005128
  0.5469357855941868  0.2983024513494085  0.2043323230127588
  0.7886871880589869  0.5128963153081950  0.2772343420787087
  0.0432149451121429  0.2541953453838193  0.2047431928390370
  0.2089892029595128  0.5370927862239493  0.8664491663326037
  0.5988270568296501  0.4123691173546732  0.5963611472075173
  0.3004763429043837  0.4682610262013454  0.4002055419621069
  0.7373106528934076  0.4452304825300206  0.1540098107977653
  0.6997059855800937  0.9780777598153305  0.7796854724110061
  0.4166102613241627  0.6299225298467779  0.1381506298922156
  0.8133445462109157  0.6373804300441747  0.9612930175073339
  0.9635168082923489  0.1543799210385388  0.5418414109864470
  0.3713712867181470  0.2442410658746270  0.0799335998824864
  0.9815392468745447  0.8934214530169158  0.5046807325030820
  0.8305967826693793  0.5435190387975192  0.6433613632448031
  0.4675834526088312  0.8210315941577534  0.8653097468497931
  0.0146832001725183  0.6738208466531912  0.9475308752109012
  0.2814574770227902  0.8717630812908695  0.8631427164885156
  0.4603847291726438  0.1521804640539574  0.2889204565581586
  0.7419112168884933  0.0713449153086118  0.2236426188683222
  0.7057424192060743  0.5135141634529573  0.8356997061569936
  0.3118662960165813  0.4026333534443993  0.6178778046286207
  0.1033734960170316  0.9607759348135470  0.4406822289453847
  0.9488825526203433  0.4861422451450366  0.1784592047415768
  0.1916618343592774  0.5467547512588969  0.5690812522740232
  0.0810500251241799  0.8314983728914237  0.3632400637916043
  0.8324485279738705  0.9988366553428006  0.9086030018611182
  0.8514321349741794  0.4030242309862188  0.9531560874432469
  0.7283136938066000  0.4831614845842243  0.9810002584916311
  0.8556060573636575  0.3513451591789738  0.6152594820316396
  0.0819083116773078  0.7479044857660921  0.7954685849153400
  0.4811031426086888  0.2577717137124221  0.5727736085614080
  0.4429247846634993  0.5406898591795624  0.4846396387608889
  0.8658083116212048  0.0510067197489579  0.7684836448485629
  0.5353149231514147  0.4273746854382182  0.4521384106355884
  0.5648918768212426  0.9484290834385970  0.7273472981534601
  0.1414370975025095  0.9132424919736192  0.1293497936365465
  0.4049116797758748  0.3228483159636653  0.4011329525074219
 
  0.36450375E-02  0.74264811E-03 -0.28219565E-02
 -0.12152345E-02 -0.78470752E-03 -0.50297019E-03
 -0.98641915E-04 -0.20198165E-03 -0.34734669E-03
  0.17965842E-02 -0.59949260E-03  0.35025493E-02
 -0.28619974E-02  0.19844218E-02 -0.50541168E-02
 -0.33865049E-03 -0.19324291E-03 -0.15009980E-02
 -0.42699682E-02  0.61628878E-03  0.83947359E-03
  0.20585647E-02 -0.40004650E-02 -0.55307538E-03
  0.31500078E-03  0.95576615E-03  0.18426697E-02
  0.11950230E-02 -0.30362815E-03 -0.22575411E-02
  0.58447631E-03 -0.56187221E-03  0.10808995E-02
 -0.16496128E-03 -0.78346625E-03  0.59270662E-03
  0.28943085E-03 -0.28849145E-02  0.14116181E-02
  0.19000637E-02  0.25826809E-02  0.10679475E-02
  0.13935705E-02 -0.12998898E-02 -0.33220953E-04
  0.50824208E-03 -0.15326275E-02  0.38977061E-03
  0.19634722E-02 -0.20402320E-02 -0.15797928E-03
  0.62784381E-04  0.47005569E-03  0.67668763E-03
  0.28694310E-02 -0.14859074E-03  0.97875548E-03
 -0.22242144E-02  0.16715109E-02 -0.31351518E-02
 -0.33514599E-02  0.23905481E-02  0.24097706E-02
  0.16951236E-02  0.16238244E-02 -0.21258083E-04
 -0.12516157E-02 -0.18414249E-02  0.11319538E-02
  0.18965910E-02  0.24347746E-03 -0.23484252E-02
  0.13087615E-02  0.97801447E-03  0.33516016E-03
  0.23812963E-02  0.34731807E-02 -0.34967168E-02
  0.51827925E-02 -0.52475916E-03  0.15590944E-02
  0.40785306E-02  0.48572099E-02  0.23485615E-02
  0.20329130E-03  0.70652673E-03  0.14073994E-02
  0.85478702E-03 -0.11409738E-02  0.15840631E-02
  0.94555554E-04 -0.14991003E-02 -0.13759672E-02
 -0.14187372E-02 -0.11910892E-02  0.26257185E-02
 -0.89620678E-03  0.11356398E-02  0.22203878E-02
  0.19634561E-02 -0.10518987E-02  0.24799074E-02
  0.96192318E-03 -0.15994146E-02 -0.15098166E-02
 -0.24878646E-02  0.11295983E-02  0.29455837E-02
  0.56108682E-05 -0.11907311E-02 -0.10549896E-02
 -0.10328515E-03 -0.16439340E-02  0.23826408E-02
 -0.10212850E-02 -0.70211168E-03  0.79450924E-03
  0.77875053E-03 -0.15900217E-02 -0.69848321E-02
  0.32210599E-02  0.16511485E-02 -0.23396643E-02
 -0.18474643E-02 -0.60527852E-03  0.18564925E-02
 -0.35269281E-02  0.12675640E-02  0.63092346E-03
 -0.25034370E-02 -0.12615694E-02  0.18037816E-02
  0.16604053E-02  0.34702907E-02  0.30649159E-03
  0.22062095E-02  0.38922299E-02  0.14786075E-02
 -0.50823172E-03 -0.80953585E-03  0.22667856E-02
 -0.25880711E-03 -0.21405419E-02 -0.15207337E-03
  0.46820225E-02  0.74364717E-03 -0.32190971E-02
 -0.17053618E-02  0.63391686E-03  0.11442653E-03
 -0.13904026E-02  0.44246724E-03  0.67863425E-03
  0.14200308E-02  0.57623681E-03 -0.37659824E-03
  0.40192334E-03  0.96192618E-03  0.33613484E-03
  0.79612659E-03 -0.32796402E-02  0.67410318E-03
  0.77435735E-04 -0.91961671E-03  0.16094977E-04
  0.25707226E-02  0.24106202E-02  0.29907157E-02
  0.29120110E-02  0.21254184E-02  0.14957843E-02
 -0.42493133E-03  0.22476398E-02 -0.11894154E-02
 -0.91589180E-03  0.14130393E-02 -0.17599907E-02
 -0.13090026E-02  0.10629054E-02  0.52637891E-03
  0.53343150E-03  0.16510008E-02  0.94220839E-03
  0.95491497E-03  0.17949840E-02  0.38193647E-03
 -0.10506293E-02  0.17316341E-03  0.50119594E-03
  0.47345687E-03  0.18682804E-02  0.19418405E-02
 -0.30615400E-02 -0.80254351E-03  0.14879547E-02
  0.23394326E-02 -0.12942374E-02 -0.30507678E-02
  0.22514213E-02  0.31308428E-02  0.33451819E-02
  0.42097382E-03 -0.37009293E-03  0.14943120E-03
 -0.19711111E-03  0.58515396E-05 -0.40042517E-02
  0.69001397E-03  0.13638664E-02 -0.46304375E-03
  0.18761718E-05  0.11244236E-02 -0.15435650E-02
  0.34731246E-03 -0.38766993E-04  0.15619663E-02
 -0.13574581E-02 -0.13118563E-03 -0.12343298E-02
 -0.25433890E-02  0.42517976E-03  0.12670750E-02
  0.82558522E-03 -0.26864935E-02 -0.18446361E-02
  0.57773717E-03 -0.66708348E-03  0.14384452E-03
 -0.26312284E-02 -0.64442395E-03 -0.39387025E-02
 -0.10738962E-02 -0.34733552E-02  0.15202183E-02
 -0.44906964E-02  0.13520975E-02 -0.27091885E-02
 -0.45961778E-03  0.19383154E-02  0.44374424E-02
 -0.20911306E-02 -0.24258072E-02  0.11891358E-02
 -0.41206142E-02 -0.22197327E-02  0.16702424E-02
  0.34347252E-02  0.14361274E-02 -0.44095828E-03
  0.80412160E-03  0.43441221E-02 -0.39334537E-04
  0.12682233E-02  0.29380483E-03  0.98145955E-03
 -0.13546414E-02 -0.63018360E-03 -0.11389966E-02
  0.54185661E-03  0.87662710E-03  0.10046341E-02
  0.17011663E-02  0.12855040E-02  0.66996881E-03
 -0.20693368E-02  0.32751795E-03 -0.10308886E-02
 -0.28500579E-02 -0.78085280E-03 -0.74755501E-03
 -0.27021020E-02  0.10931161E-02 -0.50692741E-03
 -0.88007962E-03 -0.14122735E-02  0.48972495E-03
 -0.37876164E-02  0.10679006E-02  0.16420122E-02
 -0.53292726E-03 -0.12078341E-02 -0.86004244E-03
 -0.47950668E-02 -0.12290740E-02  0.10603171E-02
  0.11404852E-02  0.27456361E-03 -0.42464310E-03
 -0.40542422E-03 -0.82093714E-03 -0.10060265E-02
  0.95130885E-03 -0.46895264E-03 -0.23540458E-02
 -0.21038793E-04 -0.21161723E-03 -0.11488433E-02
  0.15074484E-02  0.10090125E-02  0.12345656E-02
  0.90603664E-03 -0.84887124E-03 -0.98199763E-03
  0.26921978E-02  0.16839395E-02 -0.48678352E-03
 -0.16619230E-02  0.31995618E-02  0.17172745E-02
 -0.10166639E-02 -0.47867607E-03 -0.81936500E-04
  0.18897445E-02 -0.12325088E-02  0.30635992E-02
 -0.20833322E-02  0.27098359E-02 -0.89567382E-03
  0.55725304E-03  0.18534873E-02 -0.45886956E-03
  0.22198778E-02  0.69295028E-03 -0.25962084E-03
 -0.41274695E-03  0.15402432E-02  0.11804178E-02
  0.15990495E-02 -0.10370566E-02  0.30467528E-03
 -0.19618599E-02  0.11327173E-02 -0.41550660E-03
  0.18278030E-02 -0.58636414E-03  0.14351577E-02
 -0.41326110E-02 -0.40698661E-03  0.34882281E-02
 -0.47296666E-02 -0.28787049E-03  0.59929557E-03
  0.81445499E-04  0.94408760E-03 -0.12292031E-02
 -0.13235019E-02 -0.38343019E-04 -0.59757209E-02
  0.86086518E-04  0.15970460E-02 -0.19301281E-02
 -0.13663215E-02 -0.43612908E-02 -0.81003474E-03
 -0.15561858E-02 -0.20052424E-02 -0.23803769E-02
 -0.22526161E-02 -0.12441309E-02  0.27411727E-02
 -0.28443465E-02  0.43349668E-02  0.37670091E-02
 -0.90212330E-03 -0.30483637E-02 -0.12796787E-02
  0.23313754E-02  0.21679790E-02 -0.27205647E-02
  0.34914801E-02 -0.29854007E-02 -0.41531869E-03
 -0.10064351E-03 -0.80061728E-03  0.13732399E-03
 -0.64442238E-03  0.10768679E-02 -0.16783722E-02
  0.14293683E-02  0.42429561E-02 -0.15882979E-02
 -0.26150964E-02  0.11101449E-02 -0.22055889E-02
 -0.65314308E-03 -0.83867073E-03  0.13671850E-03
  0.16839725E-05  0.71270739E-02 -0.23671151E-02
  0.20974718E-02 -0.13911976E-02  0.83867486E-03
  0.12334994E-02  0.57678529E-03  0.12948191E-02
 -0.31634253E-03 -0.10209427E-02 -0.10017959E-02
  0.23290048E-02  0.55142887E-03 -0.69653943E-04
 -0.13198349E-03  0.15072006E-02 -0.15048000E-03
  0.13052581E-02 -0.14487387E-02 -0.11406029E-02
  0.30560921E-03 -0.48719511E-02 -0.63196403E-02
 -0.15523250E-02  0.18875548E-02  0.81628561E-02
 -0.33236902E-02 -0.71913565E-02  0.36943518E-03
 -0.48564362E-02  0.12920887E-02  0.61893012E-02
  0.37679716E-02  0.10124491E-02 -0.33563992E-02
 -0.33615007E-04 -0.27192979E-02 -0.44609532E-02
  0.35299533E-02  0.42927014E-02  0.17718920E-02
 -0.33412199E-02 -0.36693359E-02  0.48269731E-02
  0.55051687E-03 -0.13290032E-02 -0.14573601E-02
 -0.46356353E-02 -0.14920927E-02 -0.45267113E-03
  0.64514666E-03  0.19024818E-02 -0.90104569E-03
  0.38697404E-02  0.31644285E-02 -0.17800978E-02
  0.27188862E-02 -0.49225433E-02 -0.67304835E-02
 -0.12755166E-02  0.38792766E-02 -0.90213307E-03
  0.28822551E-02  0.12682517E-02 -0.35060273E-03
  0.28055257E-02 -0.71925148E-04  0.26066344E-02
  0.10750309E-02  0.39095094E-03 -0.45586003E-02
  0.63957251E-02 -0.11734562E-02  0.36965031E-02
  0.27956195E-02  0.14345547E-03 -0.42844028E-02
  0.34498627E-02  0.13657348E-03  0.77648322E-03
  0.33252329E-02 -0.16578421E-02 -0.43883256E-02
  0.34221985E-02 -0.17520487E-02 -0.19993606E-02
  0.16955263E-02 -0.46249852E-02 -0.19197901E-02
  0.18265427E-02  0.10147511E-02 -0.35330314E-02
 -0.82844066E-03  0.32765062E-02 -0.19253882E-02
 -0.83778147E-03  0.30775383E-02  0.46902565E-02
 -0.14508864E-02  0.17706510E-02  0.37857401E-02
 -0.52011193E-02 -0.18526579E-02  0.10809637E-02
 -0.53812669E-04 -0.20215046E-02 -0.15660396E-02
  0.14621827E-02  0.12506948E-02 -0.56788052E-03
  0.60982799E-04  0.12090134E-03 -0.25135834E-03
  0.10662703E-02  0.15949580E-02  0.26066970E-02
  0.12584058E-02 -0.99567824E-03  0.36830520E-03
  0.23215356E-02  0.21501763E-02  0.75080490E-03
  0.33909121E-02  0.20175962E-02  0.12267807E-03
  0.17578336E-02  0.96581465E-03  0.11236069E-02
 -0.16485799E-02  0.33970142E-03  0.24853397E-02
  0.26979514E-02  0.11534314E-02 -0.17955652E-02
 -0.12199870E-02 -0.45419194E-03 -0.29279508E-02
  0.17600938E-02 -0.21093681E-03  0.12742712E-02
  0.24333525E-02  0.50170867E-03  0.24731260E-03
 -0.20540502E-02  0.85818362E-03 -0.15454408E-02
  0.22538239E-02  0.19991252E-02  0.12283358E-02
  0.72252762E-03  0.99392723E-03 -0.29387506E-03
 -0.34833364E-03  0.16071243E-02 -0.58245644E-03
  0.35535808E-04 -0.10459085E-02  0.76261521E-03
  0.14147482E-03  0.96417368E-03  0.28898567E-03
  0.88181857E-03  0.16392972E-02 -0.57407180E-03
  0.40138663E-04 -0.84068790E-03 -0.29345240E-03
 -0.16648760E-02 -0.78250507E-03  0.82999133E-03
 -0.45869033E-03 -0.79410082E-03 -0.93568787E-05
 -0.16484584E-02  0.47812053E-03 -0.59291486E-03
  0.18787196E-02  0.47321823E-03  0.46895196E-03
  0.13962788E-02  0.15204394E-02  0.27091715E-02
 -0.49860948E-03  0.26988067E-02 -0.19194940E-03
 -0.13201682E-02  0.12279487E-02 -0.46807535E-02
 -0.11010843E-02  0.11773744E-03  0.96852477E-03
 -0.20080033E-03  0.27494486E-03  0.73552514E-03
  0.75799479E-03 -0.15218120E-02 -0.16522727E-02
 -0.16472451E-02  0.17355063E-02  0.16742650E-02
 -0.59035769E-03  0.60054764E-04  0.18879010E-02
  0.16986762E-02 -0.35501368E-02 -0.61840347E-04
  0.27457533E-03 -0.55450683E-03 -0.54377488E-03
  0.18848453E-02 -0.15240272E-02 -0.14766478E-02
 -0.81929998E-03 -0.36158587E-02  0.64213292E-03
 -0.26324872E-03 -0.17278059E-03 -0.21854492E-02
  0.27488583E-03  0.92725005E-03 -0.21806228E-02
 -0.13405229E-02 -0.20292667E-02 -0.14661301E-02
  0.25280665E-03  0.43047095E-03  0.48242382E-03
  0.97930793E-05  0.32706639E-03 -0.17493350E-02
  0.57775383E-03 -0.14094133E-02 -0.12349616E-03
  0.13441488E-03 -0.60626537E-03  0.72779644E-03
 -0.14577326E-02 -0.30793733E-03 -0.22616371E-02
 -0.14842048E-02 -0.30223050E-03  0.19978442E-02
  0.22039913E-02  0.25440422E-02  0.11478819E-02
 -0.24659600E-03 -0.55183507E-06 -0.13303918E-02
 -0.28942425E-03 -0.37802511E-03 -0.98975242E-03
 -0.10893696E-02  0.56595038E-03 -0.48760089E-03
 -0.19085704E-02 -0.31266401E-02 -0.55913473E-03
 -0.78333555E-03 -0.13414746E-02 -0.24735389E-03
 -0.12845969E-02 -0.10471076E-02  0.58624864E-03
  0.13291651E-03 -0.29152145E-02  0.21837950E-02
 -0.60987022E-03  0.35951318E-03  0.64680909E-03
 -0.12317626E-02  0.15146858E-03  0.39196544E-02
 -0.12890080E-02  0.11555508E-02  0.74696029E-03
 -0.10540043E-04  0.12591044E-02 -0.11289690E-02
 -0.13503696E-02  0.13234536E-02 -0.39358545E-02
 -0.53783507E-03 -0.13481359E-02 -0.16628295E-02
  0.92242546E-03 -0.36541636E-02  0.20591134E-02
 -0.88087803E-03 -0.44991810E-03  0.83355318E-03
 -0.12397319E-02  0.13672419E-02  0.57452502E-03
  0.16850402E-02  0.66024612E-03  0.13693401E-02
 -0.34842662E-03  0.11723271E-02 -0.75790335E-04
 -0.22152857E-03 -0.11010327E-02  0.10559278E-02
  0.13281681E-02  0.23864885E-03  0.30924731E-03
 -0.87197966E-03  0.11380305E-02  0.15231262E-02