Amorphous Sb                            
   1.00000000000000     
    20.1278869700586895    0.0000000000000000    0.0000000000000000
     0.0000000000000000   20.1278869700586895    0.0000000000000000
     0.0000000000000000    0.0000000000000000   20.1278869700586895
   Ge   Se
   150   150
Direct
  0.8994937169334668  0.7727229482335253  0.4073314192683865
  0.2968754285990535  0.0277979167206503  0.5116973494202027
  0.2253556803040694  0.1456044134202780  0.6753189414955318
  0.3697023647829172  0.4765697345217023  0.1131949908174611
  0.8038364596154408  0.7116443644343472  0.9800034830315231
  0.8519250923406692  0.5236864602989867  0.3338759021509299
  0.8104374989930535  0.5699164028328151  0.5436477752627147
  0.0572333938557840  0.8996467072687094  0.9458590104533130
  0.1973881575319537  0.2501532601010092  0.3189575086674737
  0.3983403519301313  0.1485490633800771  0.6797962059830418
  0.1189471810053164  0.7788505095897597  0.8283644793948300
  0.9820120786701582  0.3153464119877299  0.4465998780597974
  0.6626602808282266  0.2677354408064547  0.0239454076365479
  0.6197720503030346  0.8150816479794635  0.6472589138062711
  0.7617353569371457  0.7642324958935443  0.6315663159031063
  0.1224566611073059  0.3019806774238014  0.0122029630387005
  0.9043946109579419  0.6493102725093196  0.7226259646635872
  0.1171732294713163  0.1851461477070590  0.8738860376293367
  0.2616728889795654  0.7066795583063277  0.0694904696513445
  0.9848011383712698  0.8981038468563758  0.4790354141909358
  0.5630997853342570  0.2719702346990622  0.1745015920399151
  0.8054784535713582  0.2600978360122256  0.1595045658345605
  0.5997553426949933  0.0564912359653092  0.4238886779889910
  0.0915682673327885  0.4029210294314295  0.2157485708516239
  0.3967753452797282  0.5330783845847783  0.6763709844136325
  0.2303478062379849  0.1690934998610598  0.4819764620378262
  0.1646997230237930  0.9218064869395999  0.6965682315167503
  0.7463869282954012  0.1101631777928433  0.9459889376098141
  0.5804258734889453  0.4589914169809547  0.0182393128739231
  0.7225278876714356  0.8359256810690643  0.8378837682260745
  0.3571435882506351  0.3446362648586637  0.8710088171546790
  0.4292148152232154  0.3635452292765082  0.3082170792475134
  0.0498345264124823  0.7361682217747321  0.3298039432951868
  0.1582103355787888  0.3477163888676366  0.5140791667985997
  0.5746332306363260  0.4529742757780573  0.8494853450222500
  0.7736279507673166  0.4191914252864035  0.3367963206068369
  0.5904988077254754  0.6570586778582620  0.5248103789599730
  0.8185795389885033  0.1078658121019019  0.4341900451003696
  0.0744955824186749  0.4037298874032125  0.4419607398914077
  0.7318001041062397  0.3592415396798126  0.9150188491377932
  0.8952083727548428  0.0577468109130492  0.6033012519770919
  0.7278741021457960  0.5519635813727941  0.9472627199233563
  0.9704373889968330  0.6395422339992632  0.4269591532209954
  0.4278843293116359  0.8060457597319959  0.6042701914601538
  0.0017043754580841  0.7877871986330133  0.6367925411182447
  0.2810033328330455  0.6324516041099068  0.5507265021082978
  0.3900100868740729  0.1482774467906219  0.8765004985451929
  0.0171371262220900  0.4888955870812969  0.5213013197907808
  0.9598973112286672  0.3919291845788854  0.6208697123482237
  0.3830079543061612  0.9243867738112642  0.3249077828723733
  0.3604103796868525  0.3362859994619732  0.6619734603681515
  0.3415214923380545  0.2054085653443972  0.3640239964709574
  0.8753791056217800  0.5543615073556856  0.1272136637710302
  0.2029012972983466  0.4397045169901653  0.5880123744610947
  0.9287803319895123  0.9177827969610354  0.2820703382240863
  0.1136919708989938  0.6816202744764478  0.0983791094859475
  0.2738179263972438  0.7203681947468858  0.6635522612385621
  0.0951522873107300  0.6509534486096742  0.5737010666701308
  0.2323370361553936  0.5873212826379162  0.1920206680594214
  0.1840109888610863  0.6962602905090093  0.9482912195749768
  0.5021795471852553  0.0189983291131650  0.2168205374207322
  0.7117140850120722  0.1936168173954967  0.2313412209621075
  0.9490443395046460  0.1017879886570969  0.4252211108553151
  0.1673719137282471  0.3788133902554307  0.8744769141910720
  0.2946950406774669  0.4804101923731451  0.7562065634758637
  0.4507366449745771  0.5408009259921883  0.4173743338431247
  0.5574019980229782  0.9552810567891211  0.5485538527872782
  0.3438278056831421  0.7560460297341013  0.4806829681769788
  0.0424579548280643  0.0176228676094362  0.0847231435476471
  0.8817229821280949  0.1323770561156189  0.0202791353929473
  0.2779050583979309  0.0489311842632127  0.7698088071805296
  0.5118098511331211  0.2898456654905291  0.7306576761017698
  0.7652432129830924  0.6401618785700313  0.4437053212408255
  0.2254575353189658  0.0745251711342600  0.3275756346356692
  0.2522704490720353  0.6739845091309480  0.7820479112383736
  0.4898197639971012  0.1872615155760317  0.2448897864098103
  0.2627766991536115  0.2195126742440123  0.9961238643939090
  0.6454770120972710  0.8516192782401041  0.0176585755600495
  0.3990862077362569  0.8181773537556600  0.9113775489910577
  0.5533913797563771  0.2284086466660182  0.3818524127400157
  0.4223483294060014  0.6650044272694646  0.7038387421432660
  0.8854801498079379  0.4760781708105776  0.8210150727600077
  0.7533487690736479  0.4582180579641287  0.1149909924795283
  0.9904345394279143  0.1064408564875879  0.9056941992828781
  0.7353296704129987  0.0040744090229487  0.5709439966349835
  0.0490641685779873  0.2227219619057551  0.1641920949987649
  0.8508672870957212  0.7269525298841648  0.1964407907399363
  0.3375539736081440  0.5541138995773319  0.3554544720212501
  0.5082518882718486  0.5115435201025599  0.2074529614035585
  0.6057818549927872  0.4253787161938745  0.2326967191270972
  0.9920926846149684  0.3973821686580634  0.8182881135870720
  0.8098920494883273  0.2732342265507434  0.4997025201454011
  0.3604766046932059  0.8795696479360648  0.4445330189373126
  0.5880670322806035  0.0415405433741834  0.0384572934894843
  0.0994624346928613  0.2734512684325597  0.5932187077905168
  0.3639977342219090  0.7569379611296160  0.2353258652451826
  0.5428314904446723  0.3500616971727249  0.9299646300258552
  0.1110894806526942  0.3008794925265136  0.7201125115217397
  0.7474056431578915  0.9541715189817730  0.8907354518893553
  0.4731894002797585  0.1466333757104714  0.5124222560831357
  0.4571466368550393  0.7951802748070320  0.0257131056229156
  0.8523796070229583  0.2605564106493939  0.3246518831743140
  0.8760509720659768  0.9633090373691889  0.8933803509036995
  0.0859307895773933  0.5111238111196932  0.1040477733952733
  0.9502621021431925  0.6441544336106653  0.0637574479104371
  0.5500165836077927  0.9096730986605808  0.3829791630808925
  0.5490153841337188  0.9642102551979518  0.8717942697819980
  0.1189541806226617  0.7796035738585771  0.5626715791698442
  0.7031720463242153  0.3479605505555414  0.4882146402235276
  0.5935495047299263  0.9757895259085686  0.7275272543205826
  0.2272254356229886  0.8183545034190861  0.3552729945289494
  0.9524549598005104  0.8372614474966447  0.0631599611959709
  0.0570873145689214  0.9353874034092479  0.3117537406200341
  0.4038948959434525  0.9782291262811139  0.9505263067866130
  0.5356946175090282  0.3358581011373623  0.5339183312242521
  0.6786605317671268  0.2398297175352650  0.6438952526018803
  0.7018511832738364  0.0183970199689894  0.2896040425108832
  0.4208313028944107  0.6135136480409727  0.9263119892621855
  0.7705282472572393  0.3825858687402682  0.7340954583801997
  0.0936195062180665  0.1302723339788915  0.2633717317387784
  0.4827244547018367  0.7227653546561971  0.3710986641038992
  0.2230631718976208  0.4854427676113836  0.2918817194017406
  0.5914474266360760  0.7134802132370334  0.9178204311214126
  0.7224848373672417  0.8726411032925820  0.2736777618962971
  0.8267060411594107  0.0926872219919684  0.7596700413662715
  0.5265739786781946  0.5334333643893103  0.6843550140236947
  0.2397219282536357  0.9118666116341552  0.8735451856748140
  0.8694258724320867  0.1452213812920391  0.2657697114565168
  0.8979479529564556  0.8476952420227569  0.7530124966546451
  0.7329631571816217  0.7922905514208838  0.1153196279667883
  0.5320048137910385  0.6332298495889996  0.7608381596090041
  0.4773038655633126  0.6266581523123129  0.1269845835242059
  0.8755683464545243  0.2172246710804324  0.7415330138100809
  0.9521569770806960  0.4170348709671057  0.2016343118943464
  0.2459293047048119  0.4336644308828986  0.0265023202309083
  0.3537201411028207  0.1267197523771061  0.1131635643978878
  0.1681361533222130  0.0716861975460077  0.9430784038085556
  0.6232546177933637  0.5041449599718312  0.3882899498480542
  0.6399500237690638  0.7786870020482212  0.4647902488698538
  0.0656895422777501  0.5691764703014200  0.7501007430211873
  0.4196057694854670  0.1146737204288609  0.3263757564838820
  0.9407937990431768  0.2746745178572947  0.9659833517985102
  0.9072926774518222  0.9231480293512450  0.5823786452139923
  0.2957200175729666  0.4441945009187567  0.4899847809906663
  0.5850120266936377  0.1676528385865625  0.8177531881110889
  0.5074667824998840  0.4628599196766343  0.5060070136522656
  0.1601015650007644  0.9094239178815854  0.5012125725800226
  0.4417330032163646  0.9556695141202509  0.1180600249597294
  0.9103029160596946  0.6528892536157186  0.5396849612506361
  0.7240691276954733  0.6279510170293588  0.7398035904699569
  0.0852907495759901  0.7730247035027528  0.9551393929366820
  0.6861257757901417  0.8959919163351425  0.7231187481892363
  0.0986704374407542  0.4538859655460237  0.7941679501299955
  0.8731141890993567  0.3671145363417253  0.4444977800220429
  0.0361255808429317  0.3014900578004030  0.8857736415357974
  0.9409040933722961  0.0134655222804706 -0.0106527837450251
  0.9605281716441050  0.4700521732477956  0.0888629917438571
  0.3977147895328790  0.4793040349036579  0.5659815314235348
  0.5386030352710222  0.5695825227850931  0.8680891767489501
  0.0674096868973669  0.9755826572008124  0.4325720868554645
  0.1203223343857705  0.8345624221795828  0.2836280507465579
  0.6362120644781374  0.2730874640483562  0.7617371647259323
  0.7616224452030091  0.2105299743262975  0.3954628075441305
  0.8107576121566478  0.9981007131385993  0.6778528738844677
  0.9806896382622198  0.2654495685563868  0.5574317687553594
  0.6078455712647483  0.8397569935603051  0.8915584516555464
  0.1200935611466017  0.1743625301640916  0.7477387886741275
  0.5201190562329573  0.5641191039270582  0.3199894790945865
  0.2340664853855889  0.5838251869858210  0.0649361991099627
  0.1243518823252729  0.4263362144400449  0.9851826226072855
  0.4460610185978822  0.4037135011480810  0.1891266971045810
  0.7087423948149746 -0.0045632687402678  0.0019724409407811
  0.7636855142794297  0.7604880095326335  0.4642442077446527
  0.4744211438308546  0.5243485275853034  0.0479361251320633
  0.3834101489292741  0.9449401233644149  0.5424147139024438
  0.1719099936470949  0.7935697069938314  0.6813077946925290
  0.0164622925830284  0.9129212438883523  0.1415708192044706
  0.4850177282961401  0.8840083643306134  0.2772897894266590
  0.7409425335873712  0.6566440500759736  0.8919421906056043
  0.6440315336836107  0.1853775732483037  0.1261576216801434
  0.1364990273550662  0.1600567495891435  0.3877066479533459
  0.6391257763747028  0.1726876380567774  0.9408293590192366
  0.7298426925365954  0.7495082969884569  0.2357093001149408
  0.9189797272203428  0.6976550062592783  0.9590293025466399
  0.2512256874157476  0.2894106473702061  0.4680691383365291
  0.6604977817093750  0.8806656937264634  0.5375868454174030
  0.5851375023622155  0.4387321510637392  0.7288687180895185
 -0.0096952192603178  0.9081664720921574  0.6742316728242593
  0.3395680458877012  0.1343754473989092  0.5733751413070033
  0.4626059835998156  0.0535347424506711  0.4207866744065501
  0.4334587569819891  0.3952090930418534  0.9545144970062059
  0.6112943463022565  0.1049068382610775  0.3063394531559748
  0.7261671193867346  0.6461072883936686  0.6103221933597375
  0.9170846040381081  0.1981445952538527  0.1633852395969329
  0.3996349065001169  0.4088914298639638  0.7639462158679404
  0.8482289090574952  0.8424086740342400  0.1446897360461481
  0.9814296585643878  0.3189036073764465  0.7216444965565294
  0.0039028734337565  0.1752654035220928  0.0174884974981081
  0.0785471581426854  0.2911544154524337  0.2694423191707188
  0.8653898649598860  0.4617254893194576  0.6981234463121457
  0.2500983928389074  0.7693420191647418  0.8629410407185478
  0.1005947221399343  0.6040217072296998  0.1971059552126584
  0.9975658995586902  0.7363000905303597  0.1307710759958725
  0.0831909355364818  0.4547185409946635  0.6263675043517802
  0.2475301463175792  0.7168054721231421  0.1962437310956225
  0.7953266814840149  0.7323007594703927  0.7524806624901268
  0.3551820899975198  0.7088604607017512  0.3626435286311109
  0.9499192412938327  0.1400426126705769  0.6719711715812628
  0.2338927096642220  0.2336916802063926  0.8806756082823823
  0.8873665855019107  0.9056389562496714  0.4068076387448555
  0.3789779465425145  0.2588305400783181  0.2551952475963626
  0.5702635768831661  0.7450860808397846  0.0447804699596949
  0.0280783199465422  0.7845744596092022  0.4496815316902132
  0.2864016367499637  0.0409254289865715  0.8977236453933978
  0.5826114181862272  0.5325819785169695  0.5745516662230822
  0.5191400167724236  0.9348330023379252  0.0155281514920537
  0.3820324490858779  0.5728030293325891  0.1937897928587069
  0.4819838634932558  0.0744453341654775  0.9238253386224853
  0.6347018131608240  0.8836763535600485  0.1807661703694499
  0.5959495892845660  0.3435829407435134  0.4231492258962765
  0.4716190753214458  0.6478145325912927  0.4746187859884554
  0.4795300502444463  0.1233374656601644  0.1354243392733258
  0.2513593162341282  0.5528845481024328  0.4491570250556074
  0.7970292839966084  0.1206969618166886  0.5557990948668953
  0.4009346500652174  0.0540887176348241  0.7518778567682163
  0.9364164763593518  0.5356166597966121  0.2459229451348393
  0.2143650623643646  0.1572451535648149  0.2288155852224137
  0.3957210151880185  0.8416422837448491  0.1196628847365900
  0.4684878268392722  0.7213499329397780  0.8746063814547318
  0.2426716312759556  0.3095909924710723  0.0726041873860070
  0.6267274765946182  0.7070664757623004  0.7631050554759391
  0.9492589021086135  0.0617712646719951  0.3060127770275491
  0.6290951539395845  0.8199986601961102  0.3466418260345869
  0.1446707955429467  0.6388465414654072  0.8321273315266594
  0.9123658948016223  0.5274459021123509  0.4387181276822738
  0.3432924329678980  0.6011672842648260  0.8179407872299985
  0.6245061725351629  0.0433125934538752  0.6211609192847158
  0.8138675126615176  0.6382234751641281  0.3315190068598766
  0.1990567017565133  0.1319913334849749  0.0459715866239724
  0.2794078339674112  0.9243191627280423  0.7514944725689043
  0.6497292638061744  0.5599943405949536  0.0358238007140567
  0.6489773215196237  0.6263369347940587  0.4083882604946614
  0.4851684993131241  0.8253985765220280  0.4547492465063811
  0.6375372615205559  0.3939086067089345  0.1135303763358839
  0.9219926763179626  0.0277921438055374  0.8030496325860550
  0.0819145129947618  0.5885774120157751  0.4679581625593998
  0.6010078376887811  0.1711893694866203  0.4830683376196296
  0.8849561033399520  0.1768766370014785  0.8982848894192517
  0.7026857988643217  0.4729756835669529  0.8586119039341815
  0.3264628961483753  0.2307988885879827  0.7303865289376240
  0.4457597116857913  0.9085333484361682  0.8356012533527203
  0.3439567059970490  0.0092723246854300  0.0701867181171511
  0.3740514701888709  0.7787560989019096  0.7227134315030825
  0.2408924171201142  0.3721912353590914  0.6856851126811213
  0.7811034458096373  0.0807458557381423  0.2096070461282310
  0.6378168578511848  0.3108495700674958  0.2674635215070606
  0.1021538324866877  0.4590914600441243  0.3366465754120447
  0.8203463982137499  0.3790913338284704  0.1913222734738353
  0.4335814527936739  0.2478900588880989  0.4430033456595224
  0.2384257723068813  0.9359910302850913  0.4071610873513629
  0.9888813994158713  0.6081377742307348  0.6249554192552766
  0.5096300733390451  0.7148487608866372  0.6247239535902724
  0.6931988275483276  0.5008699501175968  0.2769886075716749
  0.8389186949273462  0.5205869161054266  0.9787648160196599
  0.2151217388966477  0.4218162510750779  0.1850871409048082
  0.1986512078053502  0.9916712554229334  0.5876269932667402
  0.9294607122233307  0.8583565137182421  0.8743162812266260
  0.0380055706660750  0.3271786873959383  0.1001188311147815
  0.9611007610552419  0.5842519039879411  0.8177524447458940
  0.7439621893810263  0.0171121508163701  0.4105232507070722
  0.2772438710126119  0.4427538695252062  0.8934801928348779
  0.2200989622309276  0.7294021818229641  0.4916097461566604
  0.5134068683428901  0.1774828490199798  0.6681901529892440
  0.7903857527260373  0.2618062078223831  0.0361196877403162
  0.5153976744174623  0.8962474337803361  0.6578960975451106
  0.2984766012503292  0.8639026643896185  0.2581744451190612
  0.9805597693764089  0.7486225501487159  0.7535544600909918
  0.7730874948046662  0.8258499293039591  0.9712761467923662
  0.8097581252621930  0.4048098432008651  0.0095443384179116
  0.9407530909329243  0.7846055944285935  0.2868354528561227
  0.1416381217567970  0.1610789048372208  0.5712479785004115
  0.8005478867225024  0.2824485992385431  0.6582452560224595
  0.0570096114631839  0.6012850518319950  0.0160219483225579
  0.7709753456388467  0.6713454745610258  0.0865742805704866
  0.1361625765162159  0.0103353783021606  0.2538770111996063
  0.3555124020242114  0.0295675778124429  0.2647481772871781
  0.6483232810708462  0.3588068803483287  0.5982060079784955
  0.3923078014950223  0.6874879374446463  0.0444149785760511
  0.7341565523211379  0.4617170404924897  0.4560747639814729
  0.1879458343997629  0.5949422020803454  0.6291285448561521
  0.1193602392506701  0.9252837934968970  0.8379384429557637
  0.9625943744858970  0.2173705749652097  0.3730448346390992
  0.1408615066468469  0.9717574380539453  0.0182456489461812
  0.3789622079893842  0.1939576988522791  0.0025618746897052
  0.3216625126834737  0.4199969324820765  0.3515449816222160
  0.8866905015399328  0.7717858853720772  0.5835083883200726
  0.8273955764675911  0.3365613755490156  0.8396098889440172
  0.6215196631937249  0.0012188584569427  0.1601933726843764
  0.7244412388052576  0.0596841067247015  0.8287191182429501
  0.4900593652393694  0.2446079008848373  0.8517432763972109
 
  0.00000000E+00  0.00000000E+00  0.00000000E+00
  0.00000000E+00  0.00000000E+00  0.00000000E+00
  0.00000000E+00  0.00000000E+00  0.00000000E+00
  0.00000000E+00  0.00000000E+00  0.00000000E+00
  0.00000000E+00  0.00000000E+00  0.00000000E+00
  0.00000000E+00  0.00000000E+00  0.00000000E+00
  0.00000000E+00  0.00000000E+00  0.00000000E+00
  0.00000000E+00  0.00000000E+00  0.00000000E+00
  0.00000000E+00  0.00000000E+00  0.00000000E+00
  0.00000000E+00  0.00000000E+00  0.00000000E+00
  0.00000000E+00  0.00000000E+00  0.00000000E+00
  0.00000000E+00  0.00000000E+00  0.00000000E+00
  0.00000000E+00  0.00000000E+00  0.00000000E+00
  0.00000000E+00  0.00000000E+00  0.00000000E+00
  0.00000000E+00  0.00000000E+00  0.00000000E+00
  0.00000000E+00  0.00000000E+00  0.00000000E+00
  0.00000000E+00  0.00000000E+00  0.00000000E+00
  0.00000000E+00  0.00000000E+00  0.00000000E+00
  0.00000000E+00  0.00000000E+00  0.00000000E+00
  0.00000000E+00  0.00000000E+00  0.00000000E+00
  0.00000000E+00  0.00000000E+00  0.00000000E+00
  0.00000000E+00  0.00000000E+00  0.00000000E+00
  0.00000000E+00  0.00000000E+00  0.00000000E+00
  0.00000000E+00  0.00000000E+00  0.00000000E+00
  0.00000000E+00  0.00000000E+00  0.00000000E+00
  0.00000000E+00  0.00000000E+00  0.00000000E+00
  0.00000000E+00  0.00000000E+00  0.00000000E+00
  0.00000000E+00  0.00000000E+00  0.00000000E+00
  0.00000000E+00  0.00000000E+00  0.00000000E+00
  0.00000000E+00  0.00000000E+00  0.00000000E+00
  0.00000000E+00  0.00000000E+00  0.00000000E+00
  0.00000000E+00  0.00000000E+00  0.00000000E+00
  0.00000000E+00  0.00000000E+00  0.00000000E+00
  0.00000000E+00  0.00000000E+00  0.00000000E+00
  0.00000000E+00  0.00000000E+00  0.00000000E+00
  0.00000000E+00  0.00000000E+00  0.00000000E+00
  0.00000000E+00  0.00000000E+00  0.00000000E+00
  0.00000000E+00  0.00000000E+00  0.00000000E+00
  0.00000000E+00  0.00000000E+00  0.00000000E+00
  0.00000000E+00  0.00000000E+00  0.00000000E+00
  0.00000000E+00  0.00000000E+00  0.00000000E+00
  0.00000000E+00  0.00000000E+00  0.00000000E+00
  0.00000000E+00  0.00000000E+00  0.00000000E+00
  0.00000000E+00  0.00000000E+00  0.00000000E+00
  0.00000000E+00  0.00000000E+00  0.00000000E+00
  0.00000000E+00  0.00000000E+00  0.00000000E+00
  0.00000000E+00  0.00000000E+00  0.00000000E+00
  0.00000000E+00  0.00000000E+00  0.00000000E+00
  0.00000000E+00  0.00000000E+00  0.00000000E+00
  0.00000000E+00  0.00000000E+00  0.00000000E+00
  0.00000000E+00  0.00000000E+00  0.00000000E+00
  0.00000000E+00  0.00000000E+00  0.00000000E+00
  0.00000000E+00  0.00000000E+00  0.00000000E+00
  0.00000000E+00  0.00000000E+00  0.00000000E+00
  0.00000000E+00  0.00000000E+00  0.00000000E+00
  0.00000000E+00  0.00000000E+00  0.00000000E+00
  0.00000000E+00  0.00000000E+00  0.00000000E+00
  0.00000000E+00  0.00000000E+00  0.00000000E+00
  0.00000000E+00  0.00000000E+00  0.00000000E+00
  0.00000000E+00  0.00000000E+00  0.00000000E+00
  0.00000000E+00  0.00000000E+00  0.00000000E+00
  0.00000000E+00  0.00000000E+00  0.00000000E+00
  0.00000000E+00  0.00000000E+00  0.00000000E+00
  0.00000000E+00  0.00000000E+00  0.00000000E+00
  0.00000000E+00  0.00000000E+00  0.00000000E+00
  0.00000000E+00  0.00000000E+00  0.00000000E+00
  0.00000000E+00  0.00000000E+00  0.00000000E+00
  0.00000000E+00  0.00000000E+00  0.00000000E+00
  0.00000000E+00  0.00000000E+00  0.00000000E+00
  0.00000000E+00  0.00000000E+00  0.00000000E+00
  0.00000000E+00  0.00000000E+00  0.00000000E+00
  0.00000000E+00  0.00000000E+00  0.00000000E+00
  0.00000000E+00  0.00000000E+00  0.00000000E+00
  0.00000000E+00  0.00000000E+00  0.00000000E+00
  0.00000000E+00  0.00000000E+00  0.00000000E+00
  0.00000000E+00  0.00000000E+00  0.00000000E+00
  0.00000000E+00  0.00000000E+00  0.00000000E+00
  0.00000000E+00  0.00000000E+00  0.00000000E+00
  0.00000000E+00  0.00000000E+00  0.00000000E+00
  0.00000000E+00  0.00000000E+00  0.00000000E+00
  0.00000000E+00  0.00000000E+00  0.00000000E+00
  0.00000000E+00  0.00000000E+00  0.00000000E+00
  0.00000000E+00  0.00000000E+00  0.00000000E+00
  0.00000000E+00  0.00000000E+00  0.00000000E+00
  0.00000000E+00  0.00000000E+00  0.00000000E+00
  0.00000000E+00  0.00000000E+00  0.00000000E+00
  0.00000000E+00  0.00000000E+00  0.00000000E+00
  0.00000000E+00  0.00000000E+00  0.00000000E+00
  0.00000000E+00  0.00000000E+00  0.00000000E+00
  0.00000000E+00  0.00000000E+00  0.00000000E+00
  0.00000000E+00  0.00000000E+00  0.00000000E+00
  0.00000000E+00  0.00000000E+00  0.00000000E+00
  0.00000000E+00  0.00000000E+00  0.00000000E+00
  0.00000000E+00  0.00000000E+00  0.00000000E+00
  0.00000000E+00  0.00000000E+00  0.00000000E+00
  0.00000000E+00  0.00000000E+00  0.00000000E+00
  0.00000000E+00  0.00000000E+00  0.00000000E+00
  0.00000000E+00  0.00000000E+00  0.00000000E+00
  0.00000000E+00  0.00000000E+00  0.00000000E+00
  0.00000000E+00  0.00000000E+00  0.00000000E+00
  0.00000000E+00  0.00000000E+00  0.00000000E+00
  0.00000000E+00  0.00000000E+00  0.00000000E+00
  0.00000000E+00  0.00000000E+00  0.00000000E+00
  0.00000000E+00  0.00000000E+00  0.00000000E+00
  0.00000000E+00  0.00000000E+00  0.00000000E+00
  0.00000000E+00  0.00000000E+00  0.00000000E+00
  0.00000000E+00  0.00000000E+00  0.00000000E+00
  0.00000000E+00  0.00000000E+00  0.00000000E+00
  0.00000000E+00  0.00000000E+00  0.00000000E+00
  0.00000000E+00  0.00000000E+00  0.00000000E+00
  0.00000000E+00  0.00000000E+00  0.00000000E+00
  0.00000000E+00  0.00000000E+00  0.00000000E+00
  0.00000000E+00  0.00000000E+00  0.00000000E+00
  0.00000000E+00  0.00000000E+00  0.00000000E+00
  0.00000000E+00  0.00000000E+00  0.00000000E+00
  0.00000000E+00  0.00000000E+00  0.00000000E+00
  0.00000000E+00  0.00000000E+00  0.00000000E+00
  0.00000000E+00  0.00000000E+00  0.00000000E+00
  0.00000000E+00  0.00000000E+00  0.00000000E+00
  0.00000000E+00  0.00000000E+00  0.00000000E+00
  0.00000000E+00  0.00000000E+00  0.00000000E+00
  0.00000000E+00  0.00000000E+00  0.00000000E+00
  0.00000000E+00  0.00000000E+00  0.00000000E+00
  0.00000000E+00  0.00000000E+00  0.00000000E+00
  0.00000000E+00  0.00000000E+00  0.00000000E+00
  0.00000000E+00  0.00000000E+00  0.00000000E+00
  0.00000000E+00  0.00000000E+00  0.00000000E+00
  0.00000000E+00  0.00000000E+00  0.00000000E+00
  0.00000000E+00  0.00000000E+00  0.00000000E+00
  0.00000000E+00  0.00000000E+00  0.00000000E+00
  0.00000000E+00  0.00000000E+00  0.00000000E+00
  0.00000000E+00  0.00000000E+00  0.00000000E+00
  0.00000000E+00  0.00000000E+00  0.00000000E+00
  0.00000000E+00  0.00000000E+00  0.00000000E+00
  0.00000000E+00  0.00000000E+00  0.00000000E+00
  0.00000000E+00  0.00000000E+00  0.00000000E+00
  0.00000000E+00  0.00000000E+00  0.00000000E+00
  0.00000000E+00  0.00000000E+00  0.00000000E+00
  0.00000000E+00  0.00000000E+00  0.00000000E+00
  0.00000000E+00  0.00000000E+00  0.00000000E+00
  0.00000000E+00  0.00000000E+00  0.00000000E+00
  0.00000000E+00  0.00000000E+00  0.00000000E+00
  0.00000000E+00  0.00000000E+00  0.00000000E+00
  0.00000000E+00  0.00000000E+00  0.00000000E+00
  0.00000000E+00  0.00000000E+00  0.00000000E+00
  0.00000000E+00  0.00000000E+00  0.00000000E+00
  0.00000000E+00  0.00000000E+00  0.00000000E+00
  0.00000000E+00  0.00000000E+00  0.00000000E+00
  0.00000000E+00  0.00000000E+00  0.00000000E+00
  0.00000000E+00  0.00000000E+00  0.00000000E+00
  0.00000000E+00  0.00000000E+00  0.00000000E+00
  0.00000000E+00  0.00000000E+00  0.00000000E+00
  0.00000000E+00  0.00000000E+00  0.00000000E+00
  0.00000000E+00  0.00000000E+00  0.00000000E+00
  0.00000000E+00  0.00000000E+00  0.00000000E+00
  0.00000000E+00  0.00000000E+00  0.00000000E+00
  0.00000000E+00  0.00000000E+00  0.00000000E+00
  0.00000000E+00  0.00000000E+00  0.00000000E+00
  0.00000000E+00  0.00000000E+00  0.00000000E+00
  0.00000000E+00  0.00000000E+00  0.00000000E+00
  0.00000000E+00  0.00000000E+00  0.00000000E+00
  0.00000000E+00  0.00000000E+00  0.00000000E+00
  0.00000000E+00  0.00000000E+00  0.00000000E+00
  0.00000000E+00  0.00000000E+00  0.00000000E+00
  0.00000000E+00  0.00000000E+00  0.00000000E+00
  0.00000000E+00  0.00000000E+00  0.00000000E+00
  0.00000000E+00  0.00000000E+00  0.00000000E+00
  0.00000000E+00  0.00000000E+00  0.00000000E+00
  0.00000000E+00  0.00000000E+00  0.00000000E+00
  0.00000000E+00  0.00000000E+00  0.00000000E+00
  0.00000000E+00  0.00000000E+00  0.00000000E+00
  0.00000000E+00  0.00000000E+00  0.00000000E+00
  0.00000000E+00  0.00000000E+00  0.00000000E+00
  0.00000000E+00  0.00000000E+00  0.00000000E+00
  0.00000000E+00  0.00000000E+00  0.00000000E+00
  0.00000000E+00  0.00000000E+00  0.00000000E+00
  0.00000000E+00  0.00000000E+00  0.00000000E+00
  0.00000000E+00  0.00000000E+00  0.00000000E+00
  0.00000000E+00  0.00000000E+00  0.00000000E+00
  0.00000000E+00  0.00000000E+00  0.00000000E+00
  0.00000000E+00  0.00000000E+00  0.00000000E+00
  0.00000000E+00  0.00000000E+00  0.00000000E+00
  0.00000000E+00  0.00000000E+00  0.00000000E+00
  0.00000000E+00  0.00000000E+00  0.00000000E+00
  0.00000000E+00  0.00000000E+00  0.00000000E+00
  0.00000000E+00  0.00000000E+00  0.00000000E+00
  0.00000000E+00  0.00000000E+00  0.00000000E+00
  0.00000000E+00  0.00000000E+00  0.00000000E+00
  0.00000000E+00  0.00000000E+00  0.00000000E+00
  0.00000000E+00  0.00000000E+00  0.00000000E+00
  0.00000000E+00  0.00000000E+00  0.00000000E+00
  0.00000000E+00  0.00000000E+00  0.00000000E+00
  0.00000000E+00  0.00000000E+00  0.00000000E+00
  0.00000000E+00  0.00000000E+00  0.00000000E+00
  0.00000000E+00  0.00000000E+00  0.00000000E+00
  0.00000000E+00  0.00000000E+00  0.00000000E+00
  0.00000000E+00  0.00000000E+00  0.00000000E+00
  0.00000000E+00  0.00000000E+00  0.00000000E+00
  0.00000000E+00  0.00000000E+00  0.00000000E+00
  0.00000000E+00  0.00000000E+00  0.00000000E+00
  0.00000000E+00  0.00000000E+00  0.00000000E+00
  0.00000000E+00  0.00000000E+00  0.00000000E+00
  0.00000000E+00  0.00000000E+00  0.00000000E+00
  0.00000000E+00  0.00000000E+00  0.00000000E+00
  0.00000000E+00  0.00000000E+00  0.00000000E+00
  0.00000000E+00  0.00000000E+00  0.00000000E+00
  0.00000000E+00  0.00000000E+00  0.00000000E+00
  0.00000000E+00  0.00000000E+00  0.00000000E+00
  0.00000000E+00  0.00000000E+00  0.00000000E+00
  0.00000000E+00  0.00000000E+00  0.00000000E+00
  0.00000000E+00  0.00000000E+00  0.00000000E+00
  0.00000000E+00  0.00000000E+00  0.00000000E+00
  0.00000000E+00  0.00000000E+00  0.00000000E+00
  0.00000000E+00  0.00000000E+00  0.00000000E+00
  0.00000000E+00  0.00000000E+00  0.00000000E+00
  0.00000000E+00  0.00000000E+00  0.00000000E+00
  0.00000000E+00  0.00000000E+00  0.00000000E+00
  0.00000000E+00  0.00000000E+00  0.00000000E+00
  0.00000000E+00  0.00000000E+00  0.00000000E+00
  0.00000000E+00  0.00000000E+00  0.00000000E+00
  0.00000000E+00  0.00000000E+00  0.00000000E+00
  0.00000000E+00  0.00000000E+00  0.00000000E+00
  0.00000000E+00  0.00000000E+00  0.00000000E+00
  0.00000000E+00  0.00000000E+00  0.00000000E+00
  0.00000000E+00  0.00000000E+00  0.00000000E+00
  0.00000000E+00  0.00000000E+00  0.00000000E+00
  0.00000000E+00  0.00000000E+00  0.00000000E+00
  0.00000000E+00  0.00000000E+00  0.00000000E+00
  0.00000000E+00  0.00000000E+00  0.00000000E+00
  0.00000000E+00  0.00000000E+00  0.00000000E+00
  0.00000000E+00  0.00000000E+00  0.00000000E+00
  0.00000000E+00  0.00000000E+00  0.00000000E+00