Amorphous Sb2Se3                        
   1.00000000000000     
    20.8283632703415051    0.0000000000000000    0.0000000000000000
     0.0000000000000000   20.8283632703415051    0.0000000000000000
     0.0000000000000000    0.0000000000000000   20.8283632703415051
   Sb   Se
   120   180
Direct
  0.2874537892181008  0.6405948846268410  0.1151577179203663
  0.2106207075782587  0.5019917524783546  0.4407219720859175
  0.5680516163817709  0.9187712998874544  0.2985831849116379
  0.6378534208653958  0.2659375634945060  0.9652725667538549
  0.3206837379810758  0.7259896262453643  0.6607066145170885
  0.7320812011302441  0.9197350464887073  0.3964479109958893
  0.6083971423536717  0.4432897315473112  0.2498407986807474
  0.0774490060563117  0.7370564518407779  0.1918246220435869
  0.9781153005936383  0.0320141563089574  0.6962255487351958
  0.4711411702657610  0.7169476324086375  0.1196017101846941
  0.8860653013624434  0.5749614389023430  0.2965456245392646
  0.4693191250168162  0.4676258386402601  0.4497000109192943
  0.7944056389542795  0.9531046338927437  0.7840828620374808
  0.6338294528942806  0.0801846115028418  0.1864593645245353
  0.4393775886160762  0.5208000661280223  0.3247643099474456
  0.4075066445702114  0.1879213432295723  0.8956232458458215
  0.8672934639421236  0.5843032876038633  0.4890017861721979
  0.9838077829533889  0.8465013312140327  0.8127000374879965
  0.5434310856002936  0.6231033560334285  0.3365896904512406
  0.6150203887980858  0.4111333579209142  0.0413550853813589
  0.7108231969184219  0.3854970681813248  0.8584635125193343
  0.8158663180994946  0.4933401242576264  0.9373802573691864
  0.1993357666156456  0.5817174547791640  0.8543655301234930
  0.9129006729157828  0.3420686097303131  0.2563654542392600
  0.8805801014640532  0.4905643851735426  0.0618794452906734
  0.6952630447020449  0.1362688018158363  0.7457112281850948
  0.4889069840846010  0.8729895023436381  0.4625945056620072
  0.4901743517107950  0.4815770066149066  0.8367822361173347
  0.3481657912161025  0.3160943889167494  0.5144672403447322
  0.7716594694222453  0.2081105692397754  0.0905850491464938
  0.8986951627146759  0.7692965190569608  0.9720872868191717
  0.7531215386653136  0.4085359143804418  0.1957861132364663
  0.5739632845194464  0.3666887888272508  0.5323054309236469
  0.4146504334832416  0.8276738450438949  0.2491370196677415
  0.0591040704432755  0.0367290140470959  0.4150138222545550
  0.4757882583390976  0.5110791275831242  0.1145161600610218
  0.7402868076499147  0.7213073714622902  0.3306381628998779
  0.1223698870259144  0.5240515541309195  0.1236447309077058
  0.7174087353240165  0.3616930820212636  0.5467444162847696
  0.6670828905625517  0.0627330991780516  0.5433376822255946
  0.4861887046434101  0.0544450479832612  0.7773762638619844
  0.3217309493169970  0.6594667258190976  0.2896081083436650
  0.6004556208384862  0.8976624679939639  0.7925162827023813
  0.0812749273193157  0.2673949704993530  0.6260525567355955
  0.9157756748186293  0.3521837805714454  0.9562785986335055
  0.0892277165670017  0.3670459879748834  0.3233379422846733
  0.9235046226816397  0.1821677265344220  0.5882771450611940
  0.4117928132634463  0.0082353564935507  0.2097411030176891
  0.0317414900151334  0.6952451606453534  0.4330846294598890
  0.9495915379283307  0.5357462745354599  0.7577994517985723
  0.4035299681236286  0.5859297720960173  0.6977654743927050
  0.1769783936624988  0.2032311307811162  0.7965680059915661
  0.0190980389843937  0.5148927746805275  0.5701264085066193
  0.5462667221273766  0.2739826491055151  0.4374035280218271
  0.9765075997226274  0.1830552211078463  0.1222603590504870
  0.9092697225256465  0.6793358076666223  0.7991030323082432
  0.0877662687837127  0.2698151674154010  0.9835331061614262
  0.8131238884668681  0.0038438780519469  0.0539774495247712
  0.0902270614771871  0.5964473018274965  0.0070316965062505
  0.5920388441410492  0.2080118489874253  0.6098155844225540
  0.9543990039892246  0.8364684571831524  0.6086869022070517
  0.6147673554037049  0.4616625008618106  0.6476239512323951
  0.0921764288844719  0.7738143527221416  0.9432522100808201
  0.1281197750806610  0.8710888450150898  0.6072947007713789
  0.8100291167044363  0.6274777570089354  0.9122787196202495
  0.2161358325268173  0.8555756651078879  0.2529965074697011
  0.4877809737426400  0.3692479914319707  0.6576612187577513
  0.5917633011333457  0.0383417560491619  0.3792358984243058
  0.2478567116416174  0.0818052480594607  0.4969138821114485
  0.3985072928349069  0.7124228018383123  0.8623605289097801
  0.6907292608283689  0.1384040946546684  0.9211833747423475
  0.4048438893375868  0.2203871648068397  0.3125184777858025
  0.2822150936454643  0.8388381047282432  0.0211476616807156
  0.1457352272399221  0.4601711639767771  0.6924276524769190
  0.1473098260125785  0.0028840261949429  0.9103117400550670
  0.3538718268283051  0.3867776016526893  0.9853371339542182
  0.1653299712417162  0.0024033819427925  0.1583944817077564
  0.6626260888263397  0.0037810571914793  0.6703932781713381
  0.3038024643724316  0.0691081322158973  0.8027709005412917
  0.0405316967672105  0.9137210523617048  0.3542291565316239
  0.3674020660085971  0.6320788659258357  0.5230939574314890
  0.8325661663650687  0.4144821904785855  0.4221420788803565
  0.5267060883709697  0.1009091758935726  0.0094655293602438
  0.3395336047667105  0.5703258004905647  0.9760928515087544
  0.7009819688847152  0.6262242128734284  0.1745284086377623
  0.5669620297389926  0.6290563516244059  0.5721440974986599
  0.6610913701707004  0.2372571628419875  0.2888321279905673
  0.8155172112478899  0.2236189929083216  0.3708254306317492
  0.8713358170089101  0.0707965364770489  0.2531035164370298
  0.9902987011580928  0.3451137788161582  0.4948461192617438
  0.5863659166752415  0.8324415973021529  0.0450482914770826
  0.3316308882076081  0.2156455190941785  0.6969550025928289
  0.2998025461428196  0.9206382697194233  0.6853060711717940
  0.6452159856866190  0.8216521962106536  0.5726571893978230
  0.0786111358894575  0.0907963555449790  0.5691559183088057
  0.9848303223731449  0.3338227624071243  0.7983090839121602
  0.9773356924198803  0.8881749732345707  0.0929041126255529
  0.1999723298357499  0.2424746861615616  0.4259763434584656
  0.8157622153662142  0.7917065069295968  0.5112345806671158
  0.9458808681802775  0.0195328429290176  0.9484866660134146
  0.1046662012550162  0.0035852605641055  0.7501793477348925
  0.1956520020757351  0.8069742620216667  0.4957349260542133
  0.0789458775997711  0.1175236379302504  0.3058868545050764
  0.6122860917119644  0.7347369428142082  0.6820289235199596
  0.8362620592908877  0.8406603710815777  0.2016371188770277
  0.4289861391405689  0.0364392867100517  0.5713271403657266
  0.2832509562833078  0.1682518782174973  0.1836098761266375
  0.8623030843655394  0.1484187621465835  0.8390534726817452
  0.1132559904480681  0.6824186168002820  0.7459728553965876
  0.6427044972877373  0.6512852142255742  0.8237579682524669
  0.4387579093032705  0.9454437558600067  0.0297222130048143
  0.4783231968389172  0.1638117976590396  0.5014373482929416
  0.8970203207788670  0.0514793177926917  0.4297471935036895
  0.2942944499188322  0.3883876859174014  0.2879944174337681
  0.2176742350136952  0.3598935437580064  0.0784403673591343
  0.3856558885946375  0.7705278182482876  0.4535130749655025
  0.8209821610323598  0.2958014773838804  0.7150044274507185
  0.2995486736338070  0.4124730351725372  0.6726334002334214
  0.1641073344489811  0.6361270628686535  0.3352807443932671
  0.5300370152193593  0.2822399478997829  0.1692943959783784
  0.5907789356689851  0.4454558596455196  0.4396022499219042
  0.4356726665685745  0.3352216724410562  0.4105355957185254
  0.9147600285354019  0.2120118660634705  0.2245484746159060
  0.4076752300009079  0.2684118609275588  0.1965670333622751
  0.8799702959362482  0.1485845086206438  0.0492657120391511
  0.4542275631571369  0.9081491386877669  0.5751126903968390
  0.0513740610594875  0.6416825009141607  0.2933992990616265
  0.9106045417643973  0.2088996179720117  0.7403206517905434
  0.7590404487433089  0.3250805967445204  0.9671394441809628
  0.9425206008984707  0.2382001048524980  0.9067498558542082
  0.1809275149519642  0.5191270234172211  0.9618503174620021
  0.3654227440033991  0.9110584194767668  0.1308176403032127
  0.0992905045440900  0.4033545750014421  0.5401877347570793
  0.5877117328557134  0.2896475176125700  0.7011846937461852
  0.8043496498427630  0.9670564796867198  0.1936361625013156
  0.9130712481013771  0.9565364599409933  0.3488185843913512
  0.2504995158660170  0.2953865833551984  0.6239145611898137
  0.6613715007024554  0.8196395171243528  0.3944499404667775
  0.9996119639170632  0.9056062849070731  0.9401381698863350
  0.1753787753153153  0.9928345626408255  0.6352865411667270
  0.7309544865127727  0.4058279929474861  0.6655940376256623
  0.2330442124788406  0.1344430561518001  0.6973041679630093
  0.6327083843828128  0.8429408922654381  0.9243652503148539
  0.9970467944590227  0.7389179049768082  0.7274662931905570
  0.1204237068138764  0.5751746997511581  0.6379939666316836
  0.7153435053002577  0.1957741051304772  0.6296980681070912
  0.9764143582894276  0.4044438960331304  0.3734833436805685
  0.3199941926443476  0.8090516162135387  0.5606300359693667
  0.6677130480698292  0.3277710337983034  0.1254283481995694
  0.3589307479820083  0.5726382587467880  0.1915680373530823
  0.5223022314455572  0.6206645676236558  0.1909426923954469
  0.2577087241451834  0.9547336603032763  0.8005211675999699
  0.1635019375001832  0.7463784174936244  0.8442950403979846
  0.0707135716239579  0.5942775148243740  0.8251005460195570
  0.5973890575711215  0.3321985112305845  0.8711471681140537
  0.4645068527684068  0.5894173515442030  0.9988669100792399
  0.3436615251073519  0.1109616595570479  0.2792934094232287
  0.4186071914473202  0.0640385800309945  0.9020208208064842
  0.5856758396461706  0.7069264194698908  0.0461881497913230
  0.2124438037065705  0.8182829084158764  0.6964186384847855
  0.4468270573933809  0.6926703033995971  0.6408941507185749
  0.7549722678292662  0.3450314142192809  0.3271907662826180
  0.3649264895205052  0.1772201285103658  0.4548119882538545
  0.8436887400996639  0.6650627853046378  0.0407885811230675
  0.8562498473219706  0.7697390974654937  0.6334429964991007
  0.8136706840838420  0.1609282635036170  0.5152680021232723
  0.6723775041294214  0.5652295903003396  0.6134410439323462
  0.6567270788667451  0.7307061484099135  0.2385972564168935
  0.4700642569161786  0.8309879513137255  0.9984421873273964
  0.9988171623391359  0.7670380579078648  0.0628384229571038
  0.3290428587688754  0.9907117359392099  0.5133136465746793
  0.5434439283012563  0.7736062364448726  0.5192605225174280
  0.7337374524907033  0.4661323207002051  0.4811071420726138
  0.1497211785218218  0.8533732420410026  0.1496774210093692
  0.2141213285943454  0.3602522172825696  0.9418619113190567
  0.8123822007676308  0.6634795171274819  0.2310988147625929
  0.5414618615606366  0.0952952692128736  0.6453003205719289
  0.2461116085153102  0.3840815012779562  0.4090981137181550
  0.3207763015520466  0.7243454423050065  0.9588189019511931
  0.9692884429829094  0.0431974681871210  0.1381471621367868
  0.9314539504191617  0.5353468305875010  0.8861046765725283
  0.3296835909467958  0.9397394300210555  0.9718562387431666
  0.2896257837604767  0.7762886440506666  0.3792715806937508
  0.4016498418633075  0.0772056092710675  0.0995741772718005
  0.5909724218465799  0.0680985507213608  0.9089374067999313
  0.1169119479665823  0.0621288026197269  0.0214051186238635
  0.7248069079868984  0.6944663334645562  0.0713846546178595
  0.4237653743289785  0.9225771380376022  0.3252324438512153
  0.2656072497994306  0.6275431067549304  0.5931084816245672
  0.3164811660920057  0.5619942174839864  0.4153408538012602
  0.8533510020384609  0.7922376901493229  0.8236912239528786
  0.3486123938888747  0.4910631268344839  0.8753935851894055
  0.1975166497803345  0.9762510492676365  0.2736298148601993
  0.5660334309893805  0.1297833066983448  0.2852310392743440
  0.5020098633056814  0.2199601751541248  0.9896978008764482
  0.8651854536840542  0.3846975104844426  0.7910446025117039
  0.8701446256967870  0.4694285273382675  0.2309535843720639
  0.8232938549405567  0.8211800129243837  0.3276850524534462
  0.6789791885918237  0.4957611028357017  0.9172090000373812
  0.1488412019091290  0.2508215208853778  0.0883987891697836
  0.0839460039870473  0.2491462840867922  0.3782881954037547
  0.5702839717601240  0.9207784460027371  0.6714029870537538
  0.0574510039893380  0.1513716043262819  0.6822265208422281
  0.2862678538308786  0.2636711761295927  0.8049514149174218
  0.7081191287062477  0.1085014084726517  0.0430091402755728
  0.3558094292074953  0.8255275049418133  0.8196604124440388
  0.4812762002724855  0.4375591380489064  0.2439220817067261
  0.7336530780281044  0.8525113283065728  0.9688805262320531
  0.4770324714829330  0.0574129278066206  0.4254848622143207
  0.1706335316448122  0.2002124909436124  0.5520036451155703
  0.6872252402849678  0.2045586078376828  0.4068455994665681
  0.3180129961856689  0.7447293737300660  0.1805043903007611
  0.5580097849129217  0.3078379349726826  0.3017879799512423
  0.6366463770277397  0.9541493493339742  0.4836332259176900
  0.1201604402996794  0.7266361529780099  0.5904603798530964
  0.5597873764627775  0.5249399777645367  0.9416404004868754
  0.8520915975255491  0.5298221903060438  0.6723917056152192
  0.6020676486578362  0.5137773810327243  0.1240894351071193
  0.7458059719407666  0.2387104204870520  0.8144618391940988
  0.9454544314059093  0.3001321693108223  0.6266992014291121
  0.0492992589993539  0.0034627772409505  0.2175403039848891
  0.4020790284855782  0.8364538524074631  0.7195493645791488
  0.8306514638825219  0.9931411908106630  0.9269782713740828
  0.4930877258029316  0.3818517138214848  0.0602312467692021
  0.7919377422133485  0.6405652154221217  0.7177839742081136
  0.1036920272578649  0.8843889208829313  0.7694996991372298
  0.0524955846734503  0.8420555889025907  0.4555937597476722
  0.2233014624735211  0.1254043079963689  0.3801649295574845
  0.9377715057108347  0.5936923773389694  0.1010735126919204
  0.6879467389981602  0.6781593824609179  0.9362153391297039
  0.5193332235555661  0.8103172376633003  0.1953650205373241
  0.4345998007642923  0.2725799387067145  0.5985096583611654
  0.3889380100006831  0.0303519892599074  0.6953390315044481
  0.1656954286431455  0.9831346691953317  0.4679039412857643
  0.0191232200646536  0.1948933751887866  0.5048731115149560
  0.0218344044746656  0.4404494560769694  0.7090131500405914
  0.8093665160653245  0.0709340216049062  0.7330048521333674
  0.7537209501342561  0.1476487897757497  0.2092404381282086
  0.7163842722931016  0.7360452710446634  0.7568367929431881
  0.1244729439686513  0.7848201720805982  0.3015522945461278
  0.1477810444469078  0.6544195434926876  0.4616347821103357
  0.9797941785225356  0.6974532983102474  0.9122299762723012
  0.6417521865164721  0.5464159974265916  0.3134617634186636
  0.4338401222278171  0.7134091896260434  0.3294197721327619
  0.6798215244131753  0.9958560392716493  0.8283270135650609
  0.0287497808582988  0.3586035902611202  0.2150059315989662
  0.8790006581398077  0.7073730132563896  0.4454835734950047
  0.1134881616195961  0.3025136277896812  0.7570181712204682
  0.8462578561976281  0.2946629246267375  0.4632657270499676
  0.1718851718428804  0.8934653270033732  0.9885427105357266
  0.2880644267800049  0.0738756361200711  0.0984690275237379
  0.9226022590485385  0.9161499244258841  0.7305812839985347
  0.5343012674921577  0.9805150819813319  0.1852241450587329
  0.5550650736440755  0.7568146314291283  0.7956704172011930
  0.5859850763996740  0.1788079824532874  0.1155798452233433
  0.9592659325936009  0.8504692920337461  0.2207375453835331
  0.1636507041395661  0.1316044747442114  0.1901218713600663
  0.8458565606812560  0.3391626313935124  0.1458493336735361
  0.1757296779398057  0.6306906560458662  0.1820188548194802
  0.9057647592986353  0.4384905916318790  0.5358033816851800
  0.1881930328573320  0.3602335965858176  0.2201314985661812
  0.1546331579148862  0.5107008009397056  0.3327887912862017
  0.3287713131634010  0.3077820522913695  0.0768784834576203
  0.3320619497278219  0.4786993800887173  0.0624525745007226
  0.9011189475556175  0.8910898351580331  0.5087619453234230
  0.7947355640409216  0.0672981165136390  0.3528562252701186
  0.9839908929018083  0.5690023878640645  0.4473605256939882
  0.1553912866770442  0.7044882642089403  0.0303575356693387
  0.2098808790574616  0.2479498607552536  0.9259257646538006
  0.9313609384179886  0.6088885855263538  0.6288059917401045
  0.6082343545075591  0.4600406786520092  0.7760758320600994
  0.0204608761435891  0.3985589377305830  0.9042488868070367
  0.4966759958117526  0.5253343507492498  0.6117567334797654
  0.9726840650685689  0.0742211388448652  0.8359233208212973
  0.9853144784253454  0.0105392914477390  0.5705851155755667
  0.2334931727548243  0.0903906731023401  0.9007048727754575
  0.7529883268664734  0.9119764293249250  0.6702523424032518
  0.2850301612780651  0.2656228371834066  0.2998479312049406
  0.6893923975370878  0.9708357967118669  0.2801996897099309
  0.4884242722224915  0.9381630390955745  0.8388990869145067
  0.4971236904596676  0.5963443015727949  0.7753498111707879
  0.2286443249363259  0.4856282106809266  0.7801761276347721
  0.4539514836714438  0.1979367294734430  0.7832650522158935
  0.7058861007325490  0.7101743368747865  0.5577456136073844
  0.2299929991964360  0.8917523122317742  0.4057290180200120
  0.7510240246556356  0.5684551148763924  0.7982068432102344
  0.0465403970799778  0.1412246425393663  0.9753295366815713
  0.8569572650308289  0.8771152621749929  0.0651904618616639
  0.6954837536532824  0.9552241154570761  0.0132913159666839
  0.7991913975896626  0.0491355588872644  0.5484459179819804
  0.3964423494438473  0.3832434645519725  0.7471323720639610
  0.9566199650729275  0.1303621383148353  0.3445843544650058
  0.4964791284685606  0.6064497849594324  0.4568628591380652
  0.7602852315505583  0.5008562028178247  0.0980240059383875
  0.0092984912088669  0.7186121308075207  0.5558199003341845
  0.0069260551332551  0.5125489138764120  0.1542709835827068
  0.7966712970777431  0.5584269313240380  0.3835494903602986
  0.9767482509104380  0.3157561374891302  0.0709764326757359
  0.3607201298657547  0.4388573780801616  0.5629668291812951
  0.3187943603361187  0.6498258239520617  0.7779588992908051
 
 -0.21549625E-02 -0.86211444E-03 -0.21821904E-02
  0.19249738E-02  0.18273877E-02  0.77668029E-04
 -0.12349924E-02  0.86204869E-03 -0.30237836E-02
 -0.14721951E-02  0.12893386E-02  0.25720113E-03
  0.16368249E-02  0.83500394E-03  0.21638518E-02
 -0.27625991E-03  0.12769450E-03  0.73291040E-03
  0.12236378E-02  0.59288004E-03 -0.12926707E-02
 -0.40210553E-02 -0.17314661E-02  0.84347382E-03
 -0.89779279E-03 -0.12991476E-02  0.18603196E-02
 -0.57060470E-03  0.55407821E-03  0.22918374E-02
 -0.94028002E-03 -0.67296248E-03 -0.10096552E-02
 -0.15644667E-02  0.13688114E-02 -0.14562550E-02
 -0.10978819E-02 -0.10283830E-02 -0.13783387E-03
 -0.13316609E-04 -0.11724432E-02  0.71955932E-03
 -0.13924284E-02  0.62519998E-03 -0.13127402E-02
 -0.37689458E-03 -0.29173690E-02  0.74344164E-04
 -0.57828938E-03  0.21692718E-02  0.13300769E-02
 -0.11227325E-02 -0.26638358E-02  0.20660163E-03
 -0.98887000E-03 -0.67099139E-04  0.53877543E-03
  0.20187482E-02  0.60227025E-03 -0.25422250E-02
  0.18219758E-02 -0.11637537E-02  0.65869135E-03
  0.22337907E-02  0.71835428E-03  0.82157163E-03
 -0.19277006E-02 -0.11262470E-02  0.14140722E-02
  0.11791132E-02 -0.16280876E-03 -0.73166219E-03
  0.65080130E-03  0.14020292E-02  0.10574297E-02
 -0.23192578E-03  0.16774691E-03  0.15251845E-02
 -0.10375350E-02  0.46882787E-03  0.11306840E-02
  0.34701773E-02 -0.72427841E-03 -0.21068278E-04
  0.21272960E-02 -0.16274803E-02 -0.15394027E-02
  0.46436160E-03  0.11501632E-02 -0.14014183E-02
  0.55599625E-04  0.15648590E-02  0.16655167E-02
  0.19762809E-02  0.10826097E-02 -0.35939153E-03
  0.16048192E-03 -0.32491405E-02 -0.73495656E-03
 -0.73420657E-03 -0.14013373E-02  0.99122901E-03
 -0.38054564E-02  0.75013519E-03  0.14868606E-02
  0.15185143E-02  0.23949752E-02  0.16801542E-02
 -0.96564308E-03 -0.13031602E-02 -0.68444305E-03
  0.32056536E-02  0.29022542E-02  0.19861614E-02
 -0.22568202E-02 -0.23960065E-02 -0.60354379E-03
 -0.13108012E-02  0.73863429E-03  0.48169668E-03
 -0.21050836E-02 -0.30337875E-03 -0.43821388E-03
 -0.12110006E-02 -0.98515566E-03  0.10539000E-02
  0.59819903E-04 -0.13778503E-02  0.86648351E-03
  0.52505311E-03  0.21507846E-02  0.23909683E-03
 -0.75717637E-03  0.99018551E-03  0.17359354E-02
 -0.15030656E-02 -0.25249197E-02  0.56999491E-03
 -0.87288229E-03  0.45074932E-03  0.15441885E-02
  0.25315157E-02 -0.33191414E-02 -0.12386535E-03
 -0.85674964E-04  0.25934928E-02 -0.26528145E-02
 -0.46203238E-03  0.23525448E-03  0.56837108E-03
  0.20414691E-02 -0.84007558E-03  0.12606133E-02
 -0.91097723E-03 -0.18115404E-02 -0.14813137E-02
 -0.10225058E-02  0.25275611E-03 -0.13236155E-03
  0.50177517E-05 -0.63995906E-03 -0.71512664E-03
  0.12422780E-02  0.32999164E-02 -0.23695208E-02
 -0.10195764E-02 -0.27648939E-03  0.66696421E-03
  0.14121250E-02 -0.76734526E-03 -0.10481286E-02
  0.18270910E-02  0.69712111E-03 -0.10764909E-02
 -0.14318349E-02 -0.11817353E-02 -0.12098040E-02
 -0.16256758E-02  0.54755826E-03  0.10135399E-02
  0.19136552E-04  0.25430790E-02  0.10202790E-02
  0.47587136E-03 -0.20504264E-02 -0.15855149E-02
  0.19867753E-02 -0.74792317E-03 -0.65836823E-04
 -0.19182601E-02  0.29677482E-03 -0.90887495E-03
 -0.74600076E-03 -0.61422377E-03  0.14572829E-02
  0.14347777E-02 -0.21456720E-02  0.13530408E-03
  0.20535847E-03 -0.50590838E-03 -0.27982366E-02
  0.10552550E-02  0.60833365E-03 -0.13078721E-02
  0.10170906E-02 -0.26080295E-03 -0.40377574E-03
  0.12025142E-02  0.17519591E-02  0.90247573E-04
  0.37103626E-03  0.25342443E-02 -0.31497145E-03
 -0.26396832E-03 -0.50267918E-02 -0.22049350E-02
 -0.19928361E-02 -0.74119964E-03  0.12407670E-02
  0.12652402E-02 -0.20649605E-02 -0.19615454E-02
 -0.12653421E-02  0.74926940E-03 -0.69993031E-03
  0.73253266E-03 -0.86838003E-03 -0.32634539E-02
 -0.39044080E-02 -0.29491664E-02 -0.15570917E-02
  0.91622125E-03 -0.17450827E-02  0.20299576E-02
 -0.49972814E-03 -0.30914017E-03 -0.11341138E-02
 -0.11206206E-02  0.18591858E-02 -0.29142955E-04
  0.66618824E-03  0.63644915E-03 -0.43133605E-03
  0.44542064E-03 -0.27638483E-03 -0.13434565E-02
  0.53168934E-03  0.21494845E-02  0.88330151E-03
 -0.83077834E-03 -0.13610715E-02 -0.43510048E-03
  0.21067649E-02  0.15282785E-02  0.94202317E-03
  0.62813031E-03  0.95238534E-03 -0.13370377E-03
  0.29542391E-03  0.13339370E-03 -0.31033795E-02
  0.19638307E-03 -0.22428183E-02  0.16380949E-04
 -0.23489513E-03 -0.21618353E-03 -0.19303909E-02
 -0.10420867E-02  0.26681277E-02  0.24820094E-03
 -0.53298297E-03  0.76360146E-03  0.16781595E-02
 -0.14562120E-02  0.95227634E-03  0.71614916E-03
 -0.12795551E-02 -0.13341447E-02 -0.75948278E-03
 -0.30063114E-03 -0.98760508E-03 -0.37692224E-02
 -0.46287223E-03  0.55064970E-04 -0.23027247E-02
 -0.14208142E-02 -0.67363318E-03  0.49228919E-03
  0.47821778E-03  0.39800288E-03 -0.20783876E-02
 -0.59080003E-03 -0.26181030E-03 -0.10775259E-03
  0.28651957E-03 -0.12890677E-03  0.24522066E-02
  0.10644296E-02 -0.26232146E-02  0.10377245E-02
  0.25163893E-03  0.28840473E-02 -0.95249978E-03
 -0.13415294E-02 -0.24513685E-02  0.11638141E-02
  0.52788173E-03  0.19459406E-02 -0.11345427E-02
 -0.67880082E-03 -0.13642985E-02 -0.58448100E-03
  0.27535732E-02  0.16124635E-02 -0.10812373E-02
 -0.14693203E-02 -0.74349554E-03  0.16752867E-03
  0.10278881E-04 -0.11695202E-02 -0.17967695E-02
 -0.84016274E-03  0.25991348E-04  0.26183533E-02
  0.90721217E-03  0.15698428E-03 -0.97232100E-04
  0.42087212E-03 -0.90033175E-03  0.17552910E-02
  0.19638398E-02  0.15094019E-02 -0.20988115E-02
 -0.16569630E-02  0.21288653E-02 -0.46231710E-03
 -0.39936542E-03 -0.88904324E-03  0.52586228E-03
  0.19946279E-02 -0.16075892E-02 -0.16672007E-02
  0.20330490E-03  0.10496896E-02  0.36520820E-03
  0.29001641E-02 -0.11277447E-02 -0.34398888E-03
  0.62569683E-03  0.67817964E-03 -0.84978587E-03
  0.26161078E-02  0.66922404E-03  0.60205311E-03
 -0.10224747E-02  0.14862805E-02 -0.10580927E-02
  0.70364332E-03  0.75673556E-03 -0.11128968E-02
 -0.71201581E-03  0.37167045E-03  0.16241123E-02
  0.22159268E-04  0.83279080E-04  0.20251679E-02
 -0.27265269E-02  0.15144536E-02 -0.43427705E-02
  0.25459736E-02  0.20148424E-03 -0.11779451E-02
  0.38792581E-03  0.23235829E-02 -0.47319866E-03
  0.47118823E-04 -0.31474406E-02 -0.95281295E-03
 -0.67808826E-03 -0.48436469E-03  0.11566031E-02
  0.12177180E-02  0.12310038E-02 -0.15502457E-03
  0.27144830E-03 -0.18428088E-02 -0.46768534E-04
  0.99046803E-03  0.18571815E-02 -0.28557650E-02
  0.60428637E-04 -0.69420294E-03 -0.53772616E-04
  0.24347142E-03 -0.42873365E-02 -0.24127651E-02
 -0.49043690E-03  0.81310347E-03 -0.35859745E-02
  0.65058298E-03  0.33298809E-02 -0.25022729E-02
 -0.38548722E-03 -0.35378135E-02  0.19016465E-02
  0.18991110E-02  0.73659501E-03  0.38656941E-02
 -0.52797113E-03  0.48307735E-04  0.17851991E-02
 -0.21057933E-02 -0.66049871E-03  0.81912741E-04
 -0.17719190E-02  0.44299361E-03 -0.10128780E-02
  0.12404473E-02  0.10317908E-02  0.75199412E-03
 -0.99454645E-04 -0.67329404E-03  0.10783731E-02
  0.40805422E-02  0.15966922E-02 -0.12322490E-02
  0.17374981E-02 -0.23176560E-02  0.86708116E-03
 -0.27173537E-02 -0.28759897E-02  0.28213334E-03
  0.83073431E-03 -0.60950712E-05  0.10062675E-02
 -0.21431798E-02 -0.91376483E-03  0.33571652E-02
  0.15351484E-02  0.34526226E-03  0.39165217E-03
  0.25925279E-03 -0.43560183E-03 -0.13548485E-02
 -0.16843784E-02  0.74487900E-03  0.35832697E-02
  0.33498494E-02  0.71013083E-03  0.18322488E-03
  0.21898821E-02 -0.46339501E-03 -0.10886112E-02
  0.28457484E-02  0.16349696E-04 -0.21918699E-02
  0.87915291E-03  0.52035953E-03  0.41117718E-03
 -0.21502540E-03  0.38300308E-02  0.28584565E-02
  0.15535700E-03  0.28564411E-02 -0.24508169E-02
 -0.23393699E-02  0.75879951E-03  0.10194707E-02
 -0.14931382E-02  0.16183051E-02  0.17218531E-02
 -0.17234085E-02  0.13036934E-02 -0.20836783E-02
 -0.60829862E-03 -0.27259698E-02 -0.17855399E-02
  0.12592005E-02  0.38396744E-03 -0.80752475E-03
  0.15398314E-02 -0.74882162E-03  0.33233199E-04
  0.82879008E-03  0.18451205E-02 -0.25109212E-02
  0.59017235E-03 -0.22820669E-02 -0.52135687E-03
  0.61185967E-03 -0.40078559E-02 -0.22412851E-02
 -0.13063226E-02  0.20428672E-03 -0.20776509E-02
 -0.80302988E-03 -0.19321509E-02 -0.11694197E-02
  0.42336884E-03  0.25081298E-02 -0.27952858E-03
  0.28222872E-03  0.53439499E-03 -0.24310685E-02
 -0.62854359E-03  0.45484210E-03 -0.10238764E-02
  0.22352812E-02 -0.64635079E-03  0.17136450E-02
 -0.19848261E-02 -0.26610593E-02 -0.29904673E-02
 -0.19600388E-02 -0.34297226E-02 -0.17918279E-02
  0.32847536E-03 -0.82057917E-03  0.17874612E-02
 -0.77292051E-03 -0.11482738E-02 -0.65588821E-03
  0.22670594E-02 -0.25893467E-02  0.62692318E-03
  0.30792308E-02 -0.17831499E-04  0.40795080E-02
  0.45980503E-03 -0.69721098E-03 -0.95076910E-03
  0.15190022E-02  0.60660909E-03 -0.15878677E-02
  0.23782236E-02  0.18871903E-03  0.30234254E-03
 -0.21281030E-02  0.93077835E-03 -0.19662814E-02
 -0.36685006E-02 -0.93174939E-03  0.18390422E-02
  0.16992951E-02 -0.30973710E-02  0.17306795E-02
  0.41025392E-03 -0.55627914E-03 -0.14331287E-02
 -0.60524468E-03 -0.43226700E-03  0.33614707E-03
  0.11471820E-02 -0.21182850E-02  0.28953630E-03
  0.11594277E-02  0.13003496E-02  0.27716602E-02
  0.85662296E-03  0.23082212E-02 -0.10604619E-02
  0.13002830E-02 -0.27017022E-03  0.31101067E-02
  0.10936069E-02  0.14778013E-02  0.34506729E-02
  0.96454293E-03  0.69688742E-04 -0.11416300E-02
 -0.15939666E-02  0.68488051E-03  0.11670493E-02
 -0.21707755E-02  0.92904150E-05 -0.18169734E-02
  0.12702315E-02 -0.65509450E-03  0.90642069E-03
 -0.42782942E-03 -0.23242915E-03 -0.18690203E-03
  0.25674665E-02  0.16712500E-02 -0.27870570E-03
  0.71934937E-03  0.19764041E-02 -0.84673798E-03
  0.31070702E-02  0.17881422E-02  0.20698708E-02
  0.22562321E-02 -0.13520679E-02  0.23119199E-02
  0.49211278E-03 -0.11175041E-02  0.15467355E-02
  0.31991048E-02 -0.93709005E-03  0.19375506E-03
 -0.11291667E-02  0.46098309E-03 -0.84053442E-04
 -0.16550080E-02  0.34632287E-03  0.37066329E-02
  0.10452440E-02 -0.69271651E-03 -0.19167037E-02
 -0.96559201E-03  0.65541666E-03  0.80637556E-03
 -0.22899517E-03 -0.26667775E-02  0.42954764E-03
 -0.15915164E-03 -0.66219544E-03 -0.11224268E-02
  0.58984744E-03 -0.13927181E-02 -0.66439214E-03
  0.21589877E-02  0.20245598E-02  0.54983295E-03
 -0.12924520E-02  0.16441188E-02 -0.10616379E-02
 -0.57816781E-03 -0.21290500E-02 -0.94593062E-03
  0.11028894E-03  0.14598273E-02 -0.25977985E-02
 -0.22823306E-02 -0.62616933E-03 -0.21291222E-02
 -0.17280945E-02  0.34775200E-02 -0.26318320E-02
  0.23322714E-02 -0.36783293E-03  0.84025445E-03
 -0.10055726E-02 -0.55165709E-03  0.17723034E-02
  0.54505470E-03 -0.76530414E-03 -0.13860384E-02
  0.25040356E-03  0.18678137E-02  0.30459387E-03
  0.19679115E-02 -0.12505118E-02 -0.19974625E-02
  0.26250567E-03  0.87688085E-03 -0.21708153E-04
 -0.71138263E-03  0.38471316E-02  0.48612974E-02
  0.37111329E-04 -0.16921413E-02 -0.57659693E-04
  0.18290271E-02 -0.11990280E-02  0.14037744E-02
 -0.14071946E-03  0.27480650E-03  0.21662504E-02
  0.44536035E-03 -0.29424313E-02  0.31570878E-02
 -0.17779748E-02  0.19517446E-02 -0.22851693E-02
 -0.25603926E-02  0.52698522E-03 -0.32125623E-03
 -0.16062309E-02 -0.10807874E-03 -0.29655330E-02
 -0.27907554E-03  0.23127984E-02 -0.94294732E-03
 -0.22913588E-02  0.76282107E-03 -0.15623929E-02
  0.64504780E-03  0.66738486E-03 -0.10650148E-02
  0.83671057E-04  0.27407427E-02 -0.22603924E-03
 -0.67742303E-03 -0.10352453E-02  0.78660882E-03