Amorphous Sb                            
   1.00000000000000     
    20.3671579077798022    0.0000000000000000    0.0000000000000000
     0.0000000000000000   20.3671579077798022    0.0000000000000000
     0.0000000000000000    0.0000000000000000   20.3671579077798022
   Sc   Sb
    45   255
Direct
  0.3594322964853899  0.2724893873831581  0.5441115675384910
  0.0634658664753791  0.6197773275778879  0.8090580333429286
  0.3277410433348190  0.9109575073496565  0.8267225183983147
  0.4920581210383513  0.0239903344547173  0.6503539583512981
  0.1551608454976223  0.8070142812046424  0.6779206667192634
  0.4902330069301218  0.3234955526587434  0.3134280641164081
  0.3137328563615569  0.0903037399215371  0.8177438510127731
  0.8799206639975585  0.1283837887212020  0.7318784199714631
  0.2020100308469004  0.5017161547510796  0.9431434439608356
  0.6549912580468579  0.1168393611487962  0.1993576128122768
  0.7050298675888569  0.9318285729726776  0.6225241282864807
  0.7142901248599172  0.8456601660886950  0.1883855370535528
  0.7264020598580188  0.0066780607621385  0.3455711055213561
  0.1447983271324039  0.4217960340068278  0.1903025558342093
  0.3192875966098761  0.0317050310426162  0.5725605486306053
  0.5209250722895414  0.7651977812410327  0.7411467224153204
  0.9808992891298909  0.4003646511753839  0.5078789875145528
  0.5098619006794456  0.8680078492922670  0.4424355042877202
  0.6350035714176666  0.5064703444615624  0.6688067450858396
  0.8099331022416244  0.1342515966078131  0.1009698868234301
  0.8562223001910895  0.6116113248140034  0.9779423047831934
  0.1282143686186974  0.3536457443806457  0.7067450731416024
  0.1437857595260568  0.0887248911359573  0.6413254952466452
  0.3407564004557926  0.6669646724409706  0.5433972628235206
  0.6926983156530812  0.6619685251928591  0.4240451093847186
  0.0848291318350583  0.3556065724280174  0.9338645228648332
  0.9830058456419442  0.6631240534777094  0.5462862104009497
  0.1345122802751820  0.1820036841190575  0.3921466038169672
  0.1589351077136526  0.0272056502987646  0.0191294175905677
  0.2685794050645091  0.7536469069094058  0.0574287519174908
  0.9098605325005369  0.6300628802780434  0.7205931829792633
  0.8784440260049060  0.3365427160955503  0.7359173718073662
  0.9262217711571435  0.4421888313372030  0.9056945661319890
  0.3834417453699658  0.2239739988981987  0.7318584829729399
  0.0013388032336292  0.8848219960434671  0.8380107919586590
  0.6589157274804903  0.2851568389620113  0.1012444190554245
  0.6256897605921518  0.1990809833548091  0.4714393595485559
  0.5555309421673412  0.0263902410980033  0.8393716862142017
  0.4422267612751485  0.7138736285948367  0.3832371396345425
  0.8969018540358932  0.8936000349705031  0.9939828296500592
  0.3013009934101519  0.1948624510166430  0.1988010506061069
  0.5674346928320457  0.5695124976789340  0.9436937778613509
  0.3479864562009624  0.5038608479893600  0.7828430018857689
  0.7113270121267329  0.9250539131457055  0.8083526776217411
  0.0222726623460494  0.6507003992982422  0.1117847587814302
  0.2244193324666101  0.6608795270166289  0.6621397309410437
  0.1067144594970694  0.3880543175911623  0.3284317728620480
  0.1186711201122621  0.2720150104268486  0.0558490312015376
  0.3071505207394066  0.9853302572178142  0.4024187786252550
  0.2751780415377055  0.8997040649133763  0.5176115239440626
  0.2280294686339945  0.7592639737606747  0.5545996303263077
  0.3336589052516933  0.8480144791152229  0.3545461464804599
  0.0248412075794247  0.0678511540002940  0.3774574478166037
  0.2685227181421744  0.2957658173763521  0.6683695872827559
  0.7873121350515587  0.6337149205353215  0.3020642962681614
  0.5147449642578974  0.8364602890202800  0.9774292858078419
  0.4288054187034832  0.2265395986622525  0.8795300628827151
  0.8747820447278720  0.0777689393084082  0.4883977145193336
  0.6341536987641814  0.2964383687345455  0.3548570335233848
  0.6719695994534212  0.4231335794100776  0.9919823373804824
  0.2692283621677927  0.3370012458603687  0.2289039129197537
  0.8914506777865810  0.9779757716483040  0.3584601984393725
  0.1610408676357016  0.0311937084845610  0.3406616560742446
  0.0608487692906022  0.8284140334031047  0.1579789846683626
  0.4994831327765463  0.1240873054328975  0.4234982363216985
  0.5118399825634818  0.2400575019439656  0.0723684954554822
  0.1167904892527671  0.1964950104580937  0.7570921256124341
  0.6915501161493248  0.5574087374917595  0.1983944197078044
  0.8574583422628824  0.9018845189616710  0.8547036974189006
  0.6490398997739034  0.7563413182973768  0.9379154447171651
  0.9422999119732745  0.7408627066516064  0.8147635914317292
  0.0918117321711491  0.0718336190546074  0.9015135804727015
  0.4354911428016146  0.1930611183142295  0.3108746450809148
  0.9292583238534506  0.7842892700321257  0.6097415773874161
  0.0129824943521748  0.3522255839702069  0.8127835532290477
  0.9632050218057352  0.3772118356400668  0.3562601570243137
  0.1917239948231606  0.8308402037757603  0.3828901015026478
  0.4141927215795251  0.1473497619849752  0.6058553698279325
  0.7979868277261041  0.0300299728865792  0.7960176000476790
  0.8446067486152872  0.9124487259264895  0.1489939306891608
  0.1708559723172689  0.6980095184024631  0.3266340325908661
  0.7063390544723571  0.6279510437458221  0.9743984646809708
  0.2784189540677024  0.1320531142386301  0.6709680958970209
  0.4129691416329282  0.3181388381957915  0.9881332173455322
  0.5992908406522496  0.8336330016864117  0.5988212876480041
  0.3028811509413231  0.4954609916627040  0.3771266257687305
  0.2681503349862435  0.7393534964948969  0.2111447478464928
  0.2263853393990217  0.3051387838795018  0.9251626631308579
  0.9636990199680172  0.9364926049064691  0.2354072402878393
  0.7730338846517929  0.8142965605111637  0.5748357780913597
  0.5929062616230509  0.2523078964524081  0.2219597519886030
  0.4455780804638917  0.8844692602220502  0.5989560256384932
  0.3903969677745935  0.3197068199663655  0.4022778750284760
  0.6180773078687628  0.5007604362694059  0.8137388847810092
  0.9670017854568779  0.5223055108476641  0.6243297899418568
  0.7094617594491887  0.6831643454331622  0.1120816401675420
  0.9356544477021610  0.0474269834294305  0.1307353490519083
  0.4915724639117668  0.5177413855404714  0.6974199433792936
  0.8818864146196992  0.0032488906456764  0.6200568453595102
  0.3424720736841410  0.9948961060877477  0.7038328567231740
  0.5149698375534287  0.1009584947759407  0.2241318903315835
  0.6519861776168068  0.8860293814685852  0.4048029430580517
  0.8978781275526271  0.1548830781177256  0.2774807788793198
  0.0563632054352324  0.2709853148943691  0.4865802235694373
  0.0087902169450377  0.2403230771459794  0.3375046747099719
  0.5672518556659989  0.1393958414674072  0.5959957910942513
  0.8428041003080011  0.3289249084333316  0.8865943379302162
  0.0568427150785258  0.5014434615558110  0.4151003041172823
  0.1752475985909653  0.6540228217757916  0.9027071594168024
  0.1216838134278151  0.9135587652528481  0.9189782876073390
  0.9661560883694116  0.0149779730464397  0.9263105241232982
  0.6994846733315380  0.3477835374988476  0.8470759052974067
  0.1651203847223167  0.2062072101081646  0.2461638310307654
  0.0461215140998820  0.7125511146359610  0.2494944687682261
  0.8726114964209976  0.4843244039271817  0.7719948100338231
  0.5857528159166409  0.7349696895344464  0.1617675085356521
  0.4811857106902426  0.5628569563919062  0.3850608880575155
  0.5354868193050986  0.0798605165573211  0.0645724193798555
  0.8971862637529905  0.2380877081574047  0.1585546405930288
  0.5113365042143402  0.4625689638840138  0.5656711064074540
  0.1096902280611515  0.4263053406492973  0.0530901836549345
  0.3638385018798030  0.6039036987215355  0.2986630584678615
  0.4080066004302510  0.6486174452801131  0.7900270009134500
  0.7599343822736987  0.2206893146663249  0.7754072811580986
  0.0681020855140177  0.2165504228981159  0.8990387844078470
  0.5510102108113413  0.3960900460768072  0.1124443095581925
  0.2061081068624274  0.5694813866062267  0.7804355098588920
  0.9927551177588317  0.3192649184261460  0.6453024269551467
  0.2345466393736273  0.1189654680538739  0.1013512712524895
  0.8800050189462794  0.6351176836507845  0.1245665142592251
  0.7447089295478980  0.4776445339538551  0.5667672161276885
  0.7702114618513627  0.5430322356783718  0.4451458237927551
  0.0111037465241197  0.1352824245912214  0.6809867019926431
  0.1757671150180535  0.6379855665869569  0.1637159972485163
  0.2203613639499155  0.2472653620506527  0.4989035611681014
  0.4670501501171629  0.9170309447651724  0.7550692553457288
  0.8119671210054838  0.8998933481590199  0.7056696915927226
  0.7916665033089125  0.8863521745232871  0.3135825557615117
  0.0611269358335660  0.3000834726286958  0.1932396553066272
  0.7352886740436922  0.9403424213450746  0.9593467641350651
  0.2578227873251926  0.8927863915507730  0.2112015029360519
  0.3192776023622297  0.0345434480983913  0.2293248445547164
  0.3249542631401081  0.4244963903171452  0.9017420254827659
  0.2745861181271660  0.5954810968614710  0.0579420048539389
  0.0661160342411926  0.9127169033404471  0.4802149422908216
  0.4529868057558011  0.3404130207407933  0.6355275312387557
  0.7534939228757624  0.7859249241169629  0.8473503459926928
  0.9350122666894248  0.7990934601436566  0.2914554084341811
  0.3186133143408776  0.4134101774592596  0.5654147694416638
  0.6410596412675280  0.2662735338513998  0.9606334178487180
  0.6920730897111316  0.0713143391143358  0.9001205607639585
  0.9691193550769541  0.5182163047819895  0.0355632182735035
  0.0496758144949720  0.5267692868418224  0.1998641920989686
  0.1212032353628893  0.9055564303408882  0.2843678466739751
  0.1891335993444604  0.9535709295152928  0.6256338189412201
  0.8314712620256650  0.5069664310272416  0.1675966636292598
  0.4310408939407532  0.9851752190382504  0.4888392932402987
  0.5646329540046303  0.9931063945206003  0.3596719097238987
  0.8285456908133196  0.7418137613063248  0.2035751419139591
  0.5336191690999189  0.1609544083146089  0.9313242255372045
  0.0229178627877319  0.8106883860611711  0.9674706602599815
  0.6736492196514634  0.1341455982812946  0.0450110413250831
  0.5595259551448725  0.4315314035095549  0.2523203092882432
  0.8771379614556707  0.4082579699608969  0.6092587229435572
  0.4067176249637754  0.7360987299487866  0.6579122070092092
  0.1272209294447672  0.2405441909037991  0.6105089025665481
  0.2783594501920891  0.7200595569072018  0.8049643247371432
  0.0068302761023973  0.6698114308047357  0.9426817288350022
  0.8208007431866633  0.7528057124460765  0.7028330936991447
  0.4231894368972641  0.2810043577306931  0.1802717254651491
  0.2325078706878983  0.1474959251940586  0.9464435951614419
  0.4485304124332423  0.9751530135063027  0.2582754892738813
  0.7816170345526019  0.1497952874297484  0.3918386461064265
  0.3107795340375495  0.9967457112205061  0.0597004110049738
  0.6697162297671233  0.7712137946013732  0.3082600796556847
  0.6348701932606192  0.1412891139603603  0.3422933156038189
  0.7795088260020718  0.2459056747504464  0.9992462548391265
  0.3964499203825348  0.6649968172020259  0.1137474691994705
  0.1751807306992550  0.5219524918204016  0.3046761757320715
  0.1201136833141980  0.5686238067273811  0.0380728514055121
  0.2587248508568085  0.4274965851363963  0.0692908521548832
  0.5945676439010789  0.5283151400873118  0.0855118655875714
  0.8265426776113622  0.3047855458139258  0.3217380426191033
  0.9390274297745981  0.5771972283323696  0.8616656406536098
  0.6085084184480748  0.3542343761926674  0.6433687833180345
  0.1929898556648454  0.0949085808614199  0.5012959314777100
  0.0180549822985527  0.8546192601041465  0.7000441754423145
  0.5140332064856734  0.8308155426425708  0.3008175291074883
  0.1781933582786235  0.0598234039858834  0.7808132416223764
  0.7656315132246647  0.5043411493573725  0.8638958690788242
  0.8859957237012510  0.2228182530624180  0.6294965340464499
  0.7305057432637883  0.4049484561864703  0.3599098729513587
  0.9420462378456170  0.2209227404504324  0.8191838730457845
  0.8480208873792127  0.7552967214872961  0.9527666570589833
  0.7445097311433874  0.4257545656967581  0.7273836953635661
  0.7307929124513417  0.9992315086414559  0.1117793716006841
  0.4168104153489106  0.7883555074325026  0.8438417768893972
  0.7774925988173833  0.7826283258780271  0.4178224464625054
  0.8078095071601503  0.4610841677631345  0.0040486800886903
  0.6898329899602521  0.3459547662127455  0.5094166400668600
  0.5527262534889068  0.3580673809952433  0.8051834312755941
  0.1000082143373062  0.7685253890037661  0.8146629427162735
  0.1130715808532770  0.5697847906690416  0.6085834634872104
  0.7524327591009801  0.2966882537366927  0.6444305325712508
  0.5520134782006847  0.3866262154453089  0.4291179409288740
  0.2969913956520453  0.8336034344570056  0.7116064954718322
  0.2595930214708425  0.9989876453226872  0.9175479874684833
  0.9349965963323006  0.7887437209008781  0.0980642879047579
  0.5124814296381850  0.6878271413126659  0.0277995104657338
  0.7861046425210593  0.0581425181759991  0.2358429725790658
  0.4696942359584995  0.9453238857975247  0.1201150085380642
  0.5554902519867513  0.6840153497466683  0.8544850756999841
  0.0821544810799779  0.7800389611056089  0.5469442934265701
  0.3010092775659877  0.6841971433364059  0.4004535614196311
  0.6432693713586262  0.9736391589952774  0.2271596665870830
  0.1026963805470019  0.6438870920965758  0.4601395024365887
  0.2496842221274994  0.2397428453655371  0.8086816288046907
  0.3933493076086843  0.5223968701866005  0.5107038268836677
  0.0775296833680596  0.4947724673340003  0.7335056267333262
  0.9261050300557456  0.7648946050536860  0.4241789168769138
  0.6821021470339175  0.7032136425623471  0.5720109060428549
  0.5885079302328960  0.7500558801110071  0.4544273237689135
  0.4133587237145052  0.4485607262196458  0.1145268691475987
  0.4427170659721651  0.5478634112124561  0.0155875466638784
  0.7506063351139244  0.1730069310497309  0.5474851886897942
  0.6426742305105524  0.1303705629888685  0.7480973343383456
  0.2776410504324369  0.1581950795548881  0.3374471885323147
  0.4975396908708623  0.2687745588527962  0.4879896628756222
  0.1454373404881213  0.0290199786923351  0.1851696608562432
  0.9251156242339414  0.5468323054750530  0.4807011040760554
  0.7963189140671284  0.3501615948246959  0.1037442820646189
  0.6175690761916739  0.5643818701050005  0.5082191085753688
  0.2333961825799586  0.8153855629945582  0.9178425787150767
  0.7524249755687829  0.2251205754895653  0.2000254337291404
  0.3802053770520564  0.1225845072770515  0.9588731390078289
  0.5928379442133196  0.9778011963216756  0.9829976195851888
  0.3887294629460754  0.8234223034852870  0.1285946607104734
  0.7525571623677029  0.0716313173568221  0.6575358846664578
  0.2381536860117209  0.5819643712200453  0.4850106582184583
  0.6943800444357334  0.4047953768207280  0.2075946423927387
  0.4507528855766546  0.1041442831203568  0.7647124338071359
  0.9683499883205049  0.0204161181231233  0.7779786231045158
  0.8428198465812247  0.0314416371701831  0.0024661703993731
  0.7475041592691029  0.8192957747863725  0.0439043647490769
  0.6178197214144499  0.9820903796599795  0.7199322488808014
  0.8074555794018663  0.6422165972435840  0.8364219122437810
  0.5582075581140648  0.6482244467409346  0.6532668528028241
  0.6580042430355352  0.6318548656303472  0.7562663991435612
  0.4867565760914799  0.5505306538992414  0.2018985191860495
  0.4132775721743009  0.1409122749201729  0.1268287313973041
  0.1205212326483534  0.7476193825429023  0.0558674193259273
  0.2661435964996118  0.5017356672086770  0.1989900626015823
  0.0445748020409665  0.9741013911142689  0.6124256611222895
  0.6336141980772886  0.5360497176651766  0.3638711651205216
  0.9909552995780538  0.5826084440854168  0.3296941148088798
  0.8232927789118223  0.1473390722851052  0.8882280960351799
  0.9364698000433381  0.1961377433082527  0.0246721316679683
  0.2550418540982213  0.4462815757334979  0.6908476156444071
  0.8661615401134943  0.5102822645216057  0.3085824310909916
  0.9256630000963112  0.2202597036063570  0.4813826753985777
  0.0426334617454011  0.1119690899239399  0.5090336403501269
  0.5830287845110441  0.9661690884674496  0.5349796150288963
  0.0661630480753078  0.1295793022884876  0.0558294333969187
  0.3201835345951748  0.5733547785187419  0.9175948739398713
  0.3447783253435779  0.1473330076879011  0.4774969691864660
  0.7729901476375922  0.9655813197199599  0.4958120928059013
  0.1141003602689671  0.4081343106000141  0.5769003244324717
  0.0511748057552913  0.6818973697019222  0.6799750783193392
  0.0436385793915423  0.1357751001366051  0.2023109781362172
  0.3620088814068580  0.8639930264544811  0.9709711539078578
  0.2377523868508576  0.3056332404180777  0.3659454823700186
  0.4233567357897643  0.9977632593358521  0.8834763401370466
  0.5387670653057970  0.2337383458059315  0.7060313784399536
  0.3732411645914387  0.7082474510800647  0.9642937469964149
  0.2067385220750094  0.4182806481858709  0.4754994569303965
  0.0584578072498903  0.5031225173091206  0.8932969901435944
  0.9647633651281523  0.3434425064543823  0.0168238977446174
  0.7721719946709168  0.6066322979753335  0.6511367819073294
  0.3495989454734983  0.5878276922756798  0.6571883457548392
  0.8399207404249274  0.3469310747698114  0.4563578719637860
  0.2032513307230508  0.8980118618088665  0.0748197654549134
  0.5924305266685499  0.8725771809371011  0.1051794661691848
  0.1906492727862812  0.4183016719522489  0.8303401465825155
  0.5306538829609629  0.3855135202636104  0.9466052639790108
  0.4885504971959141  0.6494991952253938  0.5071869354627985
  0.9703347979945330  0.4131849053764970  0.1471695674128242
  0.4119426001848214  0.7377053216548203  0.2473564719418249
  0.0301653996603514  0.9621039990100573  0.0553029104011401
  0.2613283308426281  0.2820330356272834  0.0809039771190092
  0.3808184699545781  0.4168019678128458  0.2490218225116327
  0.4134280775538431  0.3682146338605236  0.7699148800109404
  0.4695469353531638  0.5010674907283779  0.8650317222453753
  0.9152993029945812  0.8996841390099470  0.4805761128435381
  0.5787135818045421  0.8632589582234866  0.8407488409879939
  0.6639194518089563  0.8075403438514056  0.7264681129350676
  0.6753460825357821  0.0629378115178479  0.4688055820412160
  0.8319195207268505  0.6685083927734292  0.5192904583919700
  0.1827782374433903  0.9148758673996269  0.7865615771417805
  0.3904456385990291  0.7999601299049053  0.4943653404672157
  0.5629002232908606  0.6618152813074362  0.2999661525685453
 
 -0.20607146E-02 -0.39852554E-05 -0.21251895E-02
 -0.22815680E-02 -0.18058631E-02  0.32837000E-02
 -0.28001050E-02 -0.96153649E-03  0.39033626E-02
 -0.18291641E-03 -0.40380786E-04 -0.22071816E-02
  0.21749974E-02  0.30767847E-04 -0.14447470E-02
  0.31073242E-02  0.36015826E-02 -0.51098174E-03
 -0.69865458E-03 -0.17898858E-02  0.96832499E-03
 -0.16768889E-03  0.68285979E-03 -0.67156741E-03
 -0.31613478E-02  0.33411236E-02 -0.15846354E-02
 -0.22783330E-02 -0.28744587E-02  0.14221463E-02
 -0.19552201E-02  0.30062707E-04 -0.19575213E-02
 -0.24250786E-02 -0.54602081E-03 -0.16961629E-02
  0.19620052E-02 -0.22660843E-02  0.36486803E-02
  0.71568221E-03  0.84230636E-03  0.30638937E-02
 -0.18391323E-02  0.60553903E-03  0.13299707E-03
  0.14808700E-02  0.20265155E-02  0.11477486E-02
  0.37563166E-02 -0.23263206E-02  0.84826321E-03
 -0.10768383E-02 -0.14594096E-03 -0.38461022E-02
  0.27943934E-03 -0.16585056E-02 -0.61676999E-03
  0.42400872E-03  0.16026986E-02 -0.26101943E-03
  0.29960190E-02 -0.10429457E-02  0.36007040E-03
 -0.22377104E-02 -0.20948222E-02 -0.14328525E-02
 -0.18467470E-02  0.35162438E-02 -0.99032013E-03
 -0.17361529E-03  0.20400977E-02  0.40945303E-02
  0.19202390E-02  0.69119384E-03 -0.53413709E-04
  0.18323641E-03  0.24181416E-02  0.37482281E-02
 -0.30710948E-02  0.93394681E-03  0.27460065E-02
 -0.41735355E-02  0.10390883E-02  0.35606447E-03
  0.36751347E-02  0.91739491E-03 -0.13409857E-02
  0.14562340E-02  0.27344247E-02  0.48065190E-03
 -0.36814579E-02 -0.70833600E-03  0.52229755E-03
 -0.17328336E-02  0.23024299E-02  0.25815227E-02
  0.37668487E-03 -0.39330879E-02  0.30892350E-02
  0.51296356E-03 -0.17629395E-02  0.57907108E-03
  0.22283613E-02  0.33181892E-02  0.27032890E-02
  0.35819963E-02  0.51211960E-02 -0.27833763E-02
 -0.90580155E-03  0.99859521E-03  0.19639371E-03
  0.17018911E-02 -0.28393456E-02  0.11621636E-02
 -0.25803854E-02  0.32317369E-02  0.36800373E-02
 -0.12122692E-02 -0.15787932E-02  0.11243128E-03
 -0.97398024E-03  0.18041678E-02  0.11634467E-02
  0.42415117E-02  0.12225628E-02  0.44144450E-03
 -0.40971833E-03  0.18474359E-02  0.57208983E-02
  0.38640017E-02  0.26274709E-02 -0.16386211E-03
 -0.48471806E-03 -0.22363220E-02  0.25347351E-02
 -0.16529615E-02 -0.94532821E-03 -0.15018026E-03
  0.67848380E-03 -0.35979580E-03  0.66376206E-03
 -0.11078782E-02 -0.10713836E-03  0.32815261E-02
  0.67279007E-03 -0.22544424E-02 -0.82932407E-03
 -0.82028230E-03 -0.21069261E-02 -0.13902037E-02
 -0.11744147E-02  0.22305244E-02 -0.30247584E-02
  0.16960870E-02 -0.59305790E-03 -0.12655953E-02
 -0.88064438E-03  0.48605886E-04  0.18929126E-02
  0.33847058E-03  0.31493524E-03 -0.17083692E-02
 -0.15012412E-02 -0.18126103E-02 -0.38915303E-03
 -0.81266224E-03  0.19334227E-02  0.17470456E-02
 -0.12706236E-02  0.13176214E-02  0.69391540E-03
  0.50049053E-03 -0.20805273E-03  0.75786234E-03
  0.15807975E-02 -0.12533990E-02 -0.72259272E-03
  0.78632690E-03  0.17506940E-02 -0.65422577E-03
  0.73788504E-03  0.33765434E-03 -0.25247741E-02
 -0.23194054E-02 -0.14752646E-02 -0.11466625E-02
 -0.88377797E-04  0.15610043E-03  0.38453501E-03
 -0.17224303E-02  0.93753909E-03 -0.69758391E-03
 -0.14987940E-03  0.10993504E-02 -0.19792789E-02
 -0.26069694E-02  0.30273373E-03  0.10612753E-04
  0.14944526E-02 -0.21191379E-02  0.16922927E-03
 -0.15037218E-03  0.17708419E-02 -0.79944177E-03
 -0.17577907E-03 -0.39200082E-02  0.82294077E-03
  0.11340922E-02 -0.13543899E-02  0.17417398E-02
  0.79988715E-03 -0.10255824E-02  0.82652659E-04
  0.49821140E-03 -0.20924094E-02  0.82150040E-04
 -0.10650595E-02  0.91845111E-04  0.15805509E-02
 -0.17226528E-02  0.29775984E-03 -0.60726487E-03
  0.10192978E-02  0.16320200E-02 -0.12807799E-02
  0.85700631E-03 -0.20721063E-02 -0.14958259E-02
  0.56995512E-03  0.28761831E-03 -0.30690299E-02
 -0.14282648E-02  0.12710204E-02  0.52304841E-03
  0.12108355E-02  0.12844428E-03 -0.13036591E-03
  0.25993615E-02  0.21139840E-02 -0.14934775E-02
 -0.11848656E-02  0.17150384E-02  0.58478725E-03
  0.12028527E-02 -0.52562732E-03 -0.31219623E-02
  0.58807175E-03  0.21694650E-02  0.10225921E-02
  0.24398698E-02 -0.43536043E-03 -0.34929201E-02
  0.61992452E-03 -0.10238813E-02 -0.16836854E-02
 -0.14854798E-03  0.14309858E-02 -0.15235614E-02
 -0.38556285E-03 -0.68036212E-03  0.79055226E-04
  0.11207667E-02 -0.75451330E-03 -0.18059289E-02
 -0.47875471E-03 -0.30934608E-02 -0.32665776E-03
 -0.41664427E-03  0.72823353E-03  0.70608291E-03
  0.29154213E-03  0.18967320E-02 -0.12419643E-02
  0.21228455E-02 -0.17112533E-02 -0.25837086E-03
 -0.68735158E-03  0.17207371E-02  0.13367275E-02
 -0.61738237E-03  0.87737339E-03  0.36509288E-03
 -0.14626130E-02 -0.23091854E-02 -0.24112870E-02
  0.24994339E-02 -0.59694275E-03  0.15697494E-02
  0.13264273E-02 -0.17579734E-02 -0.39073039E-04
 -0.13846934E-02  0.45205105E-03  0.17490995E-03
 -0.10851338E-02 -0.77070434E-03  0.27048495E-03
 -0.68365535E-03  0.16453386E-02 -0.58581874E-03
  0.92073929E-03 -0.13865561E-02 -0.12715307E-02
  0.18795248E-02  0.36999545E-03 -0.34920453E-03
 -0.80623596E-03  0.61888302E-03 -0.20156452E-02
 -0.82028733E-03 -0.29160914E-04 -0.10870407E-02
  0.46517221E-03  0.11698360E-02 -0.15332366E-02
 -0.19548720E-02  0.19010716E-02 -0.15082193E-02
 -0.91729889E-03  0.11974303E-02  0.21348958E-03
  0.10795676E-03  0.11919089E-02  0.14658081E-02
  0.21080402E-02  0.43446283E-02 -0.47060460E-03
 -0.45252193E-03  0.69030489E-03 -0.12060353E-02
  0.13822583E-02 -0.95390902E-03  0.10705012E-02
  0.16484034E-02  0.26309770E-02  0.71394982E-03
 -0.14936741E-02 -0.10904906E-02 -0.74843474E-03
  0.13487015E-02  0.10359319E-02 -0.24466413E-02
 -0.19305481E-02  0.12533977E-02 -0.15834945E-02
  0.11268802E-02 -0.20444751E-02  0.85854344E-03
  0.15828559E-03  0.40466108E-03  0.16562752E-02
  0.13840847E-02 -0.10381690E-02 -0.52058534E-03
  0.62090084E-03  0.22092836E-02 -0.28142664E-03
 -0.49301105E-03  0.25879915E-03  0.79028909E-04
 -0.21513196E-02  0.12980681E-02 -0.10701464E-02
 -0.26896710E-03  0.60898320E-03 -0.20524001E-03
 -0.12487372E-02  0.56042797E-03 -0.29336688E-02
 -0.11633684E-03  0.42890404E-03  0.46462004E-03
  0.12030740E-03 -0.15555393E-02 -0.17654731E-02
  0.20266835E-02 -0.52841517E-03  0.56662120E-03
 -0.66290543E-03 -0.48799119E-03 -0.12750139E-02
 -0.32591151E-04 -0.13713456E-02 -0.11012567E-02
 -0.78591016E-03 -0.16281558E-02  0.18145449E-02
  0.96484853E-04  0.21962692E-03 -0.10339459E-02
 -0.20996241E-02  0.59865655E-03 -0.12387291E-03
 -0.66071138E-03  0.24214307E-03  0.79757192E-03
  0.23784209E-02 -0.95573746E-03  0.16405307E-02
 -0.81695515E-04 -0.12516263E-02 -0.24941580E-02
  0.23015361E-02  0.24384082E-02  0.91748399E-03
  0.12073799E-02 -0.27318362E-02  0.27640437E-02
  0.11190188E-02 -0.13496047E-02  0.10494793E-02
  0.16936119E-02  0.10012421E-02 -0.50067156E-03
 -0.16162921E-02  0.55086558E-03  0.33159853E-03
  0.67897339E-03  0.66721706E-03  0.14904676E-02
 -0.28256221E-02  0.42440029E-02 -0.33285956E-02
 -0.32637557E-02  0.97568823E-03 -0.11446987E-02
 -0.12437998E-02  0.34309027E-03  0.29101816E-02
 -0.93779619E-03 -0.16963309E-02 -0.27000132E-03
 -0.17754848E-02  0.89875248E-03 -0.21077262E-03
  0.12073325E-02  0.12193201E-02 -0.62217234E-04
 -0.58212752E-03  0.39359342E-02  0.16293319E-02
 -0.10863422E-02  0.23542778E-02  0.13524660E-03
 -0.97776089E-03 -0.18041297E-02 -0.22889242E-02
 -0.12770352E-02 -0.12992353E-02  0.92259635E-03
  0.22650229E-02 -0.13132151E-02 -0.13608063E-02
  0.16752623E-02 -0.66201123E-03  0.94964677E-03
 -0.20687562E-02 -0.23796586E-02 -0.47493319E-03
 -0.11481271E-02 -0.27162825E-02 -0.17626983E-02
 -0.46923752E-03 -0.28482344E-02 -0.53139803E-03
 -0.17702060E-02 -0.83081614E-03  0.27390212E-02
  0.56788852E-03 -0.16781619E-02  0.10842671E-02
  0.85593633E-03 -0.33773237E-03  0.52660635E-03
 -0.21121890E-03  0.13242204E-02  0.19579255E-02
 -0.11829962E-02  0.44172700E-03 -0.55596929E-03
  0.19704606E-02  0.35420381E-02  0.32818124E-03
 -0.80164938E-03  0.67568694E-03 -0.83110446E-03
 -0.42415065E-03  0.98367545E-03  0.24720346E-02
 -0.16796027E-02  0.11336167E-02 -0.28924261E-03
  0.46364915E-04 -0.94516879E-04 -0.20031446E-02
  0.32118188E-02  0.25096697E-02 -0.15298856E-02
 -0.15159291E-03  0.24460367E-02 -0.29694592E-03
  0.22994325E-02  0.19729710E-03 -0.24425106E-03
 -0.37575365E-03  0.55553989E-03  0.11653087E-02
 -0.19016032E-02 -0.80704097E-03  0.45535453E-03
  0.13001834E-02 -0.27758309E-02 -0.88255882E-03
  0.77110593E-03 -0.30088238E-03  0.25549731E-02
  0.18185274E-02  0.18168393E-02 -0.16804714E-02
 -0.14904353E-02 -0.23951893E-03 -0.12224487E-02
 -0.71605567E-03 -0.11263990E-02  0.38335315E-03
 -0.12933522E-03 -0.62802286E-03  0.98447985E-03
  0.10945955E-02  0.28139509E-02 -0.11106511E-02
  0.99316486E-03  0.20228676E-02  0.20265744E-02
 -0.44568913E-03 -0.64476170E-03  0.32888949E-02
  0.87616338E-03 -0.96671213E-04  0.61894978E-03
 -0.54710770E-03 -0.17485115E-02  0.11452902E-02
  0.19117117E-02 -0.15654631E-02  0.15422986E-02
  0.16670231E-02 -0.53786243E-03 -0.30636826E-03
 -0.16550375E-02  0.14977780E-02 -0.13429881E-02
  0.30120317E-03  0.45589307E-03  0.50846665E-04
 -0.26208865E-03  0.11783558E-02  0.18315896E-02
 -0.46960522E-03 -0.12525494E-02  0.24366319E-02
  0.38424062E-03 -0.64173966E-03  0.21267197E-02
 -0.30614409E-02  0.69280623E-03  0.31769229E-02
  0.32088743E-03 -0.59821259E-03 -0.11392948E-02
  0.16834250E-02 -0.96536116E-03  0.23246200E-03
 -0.20543464E-02 -0.96066380E-03 -0.20031261E-02
  0.15625882E-02  0.12793024E-02  0.12340449E-02
  0.15686770E-02 -0.12306659E-02 -0.22684463E-02
  0.51165076E-03  0.22562129E-02  0.22660191E-02
  0.25959720E-02  0.80277741E-03 -0.92216167E-03
  0.34579950E-03 -0.17982167E-02  0.75308963E-03
  0.42725900E-03  0.13560264E-02  0.85404370E-04
  0.12149559E-02 -0.34572053E-02 -0.13200792E-02
  0.20917394E-02  0.91124025E-03  0.96784835E-03
 -0.71172766E-03  0.40679976E-02 -0.13066956E-02
 -0.34035362E-03  0.17098724E-03 -0.69908597E-03
 -0.17268151E-03 -0.39314783E-02 -0.61570845E-03
  0.14346414E-03  0.91431285E-03  0.12548911E-02
 -0.19278845E-02 -0.46184642E-03 -0.14678888E-02
 -0.90036120E-03 -0.25466510E-02 -0.46459687E-03
  0.42226814E-02 -0.15344122E-02  0.28554910E-03
  0.89519297E-03 -0.96125100E-03  0.10056211E-02
 -0.18400079E-02 -0.12131957E-02 -0.29455920E-03
 -0.11283798E-02 -0.70598617E-03 -0.13809092E-03
  0.80100598E-03  0.10192343E-02  0.12245627E-03
 -0.10019876E-02 -0.44336929E-03 -0.19411457E-03
  0.17941416E-02  0.21422706E-02 -0.45118271E-03
 -0.56261266E-03  0.15718910E-03  0.59451520E-03
 -0.27792119E-02 -0.22188631E-04  0.18219187E-02
  0.99282412E-03 -0.15831839E-02 -0.17395167E-02
  0.16325231E-02 -0.56513319E-03 -0.16561599E-02
 -0.91179755E-03 -0.48512190E-03  0.13571845E-02
  0.27737241E-03  0.19251423E-02 -0.59708986E-03
  0.97284125E-03  0.12782156E-02 -0.12857576E-03
  0.17597961E-02 -0.22816291E-02  0.15340041E-02
 -0.19236250E-03  0.29130339E-03 -0.40500050E-03
 -0.14586814E-02  0.82795382E-04  0.21219584E-02
  0.21708292E-02 -0.26852665E-03 -0.83061730E-03
  0.76188510E-03 -0.11156928E-02 -0.12505218E-02
 -0.24363039E-02 -0.21930848E-02 -0.96278564E-03
 -0.16436154E-02 -0.17794419E-02 -0.26007000E-03
  0.17336140E-02 -0.17296365E-02 -0.10415983E-02
 -0.17608763E-02  0.85981034E-03 -0.21982792E-03
 -0.10622712E-02 -0.15493159E-02  0.65075467E-03
  0.26340356E-02  0.47436651E-03 -0.18649804E-02
  0.66780151E-03 -0.11276994E-02  0.20278163E-02