Sn1 Bi4 Te7                             
   1.00000000000000     
     2.2290196767158936   -3.8607753311426776   -0.0000000000000001
     2.2290196767158936    3.8607753311426776    0.0000000000000001
    -0.0000000000000001   -0.0000000000000009   24.9092800330489368
   Sn   Bi   Te
     1     4     7
Direct
  0.0000000000000000  0.0000000000000000  0.0000000000000000
  0.6666666666666643  0.3333333333333357  0.1581743655061702
  0.3333333333333357  0.6666666666666643  0.8418256344938293
  0.6666666666666643  0.3333333333333357  0.4181466375807817
  0.3333333333333357  0.6666666666666643  0.5818533624192185
  0.0000000000000000  0.0000000000000000  0.5000000000000000
  0.6666666666666643  0.3333333333333357  0.9246743360771509
  0.3333333333333357  0.6666666666666643  0.0753256639228493
  0.0000000000000000  0.0000000000000000  0.7731843457733719
  0.0000000000000000  0.0000000000000000  0.2268156542266282
  0.6666666666666643  0.3333333333333357  0.6509344651285708
  0.3333333333333357  0.6666666666666643  0.3490655348714292
 
  0.00000000E+00  0.00000000E+00  0.00000000E+00
  0.00000000E+00  0.00000000E+00  0.00000000E+00
  0.00000000E+00  0.00000000E+00  0.00000000E+00
  0.00000000E+00  0.00000000E+00  0.00000000E+00
  0.00000000E+00  0.00000000E+00  0.00000000E+00
  0.00000000E+00  0.00000000E+00  0.00000000E+00
  0.00000000E+00  0.00000000E+00  0.00000000E+00
  0.00000000E+00  0.00000000E+00  0.00000000E+00
  0.00000000E+00  0.00000000E+00  0.00000000E+00
  0.00000000E+00  0.00000000E+00  0.00000000E+00
  0.00000000E+00  0.00000000E+00  0.00000000E+00
  0.00000000E+00  0.00000000E+00  0.00000000E+00
