Amorphous AlTe                          
   1.00000000000000     
    21.4572925567999988    0.0000000000000000    0.0000000000000000
     0.0000000000000000   21.4572925567999988    0.0000000000000000
     0.0000000000000000    0.0000000000000000   21.4572925567999988
   Al   Te
   120   179
Direct
  0.9596164954483276  0.7574510847090178  0.7912703832790107
  0.6878115187506724  0.8265945985550164  0.5154224759324449
  0.2424538404686770  0.0111246226904126  0.9255283330173145
  0.6501911377499320  0.5587320026307895  0.9179180085655849
  0.3900313100157303  0.0855550787548689  0.5963320457786671
  0.1305332906928314  0.3433772701284050  0.6868445305754813
  0.4146466985567284  0.7536473056501379  0.8797055181271184
  0.0544066483757420  0.7790293422488070  0.4387927187713165
  0.2585810592297308  0.2122538850604646  0.4698176013540715
  0.5542367903551445  0.3760537063694101  0.5206429297519498
  0.2045011046039157  0.0984208134989634  0.6332097020039473
  0.5386086699815325  0.4063707431564418  0.6758029668437596
  0.9640682463288021  0.1103755522439756  0.1930807445327319
  0.7316719855823962  0.9901691675001937  0.6212753103908022
  0.6101198156749572  0.0105079375275228  0.9876686269798277
  0.5927308229529326  0.6086997066332692  0.0763452994678951
  0.4423721382514615  0.9319324929780776  0.3117056566064454
  0.4490133029958774  0.2621054432994778  0.4399028513450097
  0.6893789113445891  0.9073691189495818  0.7435695902255641
  0.8167291717965429  0.0914500146136070  0.2356241428940907
  0.7844054022071238  0.1725221466929234  0.8919844912593784
  0.2795822460260470  0.2464266602944701  0.6957397103319538
  0.3331153933644525  0.9757469777426961  0.8021866985211954
  0.9712648557780622  0.0446582931995534  0.9384299204993841
  0.8622077305190314  0.2314577458850685  0.1577761400046195
  0.1109156602267290  0.1367262224718694  0.9207467203634890
  0.1001628629499369  0.4563999986210970  0.3852075346246269
  0.7556331880498783  0.7239308203962462  0.0096756146730565
  0.4377918346319606  0.5110084223759417  0.6176979470258139
  0.6582993374623680  0.2194524252586192  0.4490839509505072
  0.8458409329526232  0.7602927594828099  0.3721673889280764
  0.8867690047088918  0.4809384667306743  0.8157364914249401
  0.8620944892644482  0.8335951611952768  0.0723739559956389
  0.2831790915500752  0.1598512880336856  0.8293965919592430
  0.8819425350943481  0.3154008219846778  0.4860073816819917
  0.7137189123932897  0.4853215146835663  0.7410370811590479
  0.7851529180624433  0.9163686739679634  0.2325744423718158
  0.4017167017787645  0.5991560329673851  0.2941954401440814
  0.0154858890436266  0.8482074839502740  0.6378356567580176
  0.5561528274866832  0.4401754447435710  0.2326863511181846
  0.7049482372462615  0.1353606612154211  0.9746913322347422
  0.8576753882616301  0.5464253910217973  0.5994728050695225
  0.1676504182905785  0.8046504308374024  0.2604948267301870
  0.9541000469290269  0.4264592711589435  0.9795148063096903
  0.5382219429782521  0.1284563670979727  0.0739840462005397
  0.6069933166337558  0.6642873575839137  0.5106410766243592
  0.1075725544196851  0.7360648074979504  0.6663422945204843
  0.0038639654219997  0.0366058363163196  0.6424275763181824
  0.6860342181763657  0.7843559310329017  0.3132118944765708
  0.9580500855697091  0.8586228022799466  0.9378493457443646
  0.5753424869538576  0.4077927101215843  0.0259013990849225
  0.9686481576766336  0.3063112600414545  0.6426347863465254
  0.7116652472065749  0.6479446074564292  0.6181946597493894
  0.0585862769393558  0.6396734039324167  0.3143457013628400
  0.8931039807522457  0.5713162176317642  0.2803530307914106
  0.6828261283475686  0.2341084162282724  0.7632764291085332
  0.2641764561504664  0.8298879040419352  0.5942633743982292
  0.8861810008483129  0.1280931571441744  0.6464591896272661
  0.0108403492850756  0.6019068982922232  0.5125103813992568
  0.4341774129208233  0.0513590713643518  0.9025652766248902
  0.6678261597763964  0.0537848315223148  0.8103728420926549
  0.4030242202828263  0.0754527419197206  0.1829026018797890
  0.9907072846341256  0.4196943707017184  0.5433198107271385
  0.0960769630662355  0.3276807360954220  0.0648445850679505
  0.7292958532180940  0.4499230963616221  0.0713819065802761
  0.3684312698422256  0.3942472915328315  0.4451227720226780
  0.3649849499974303  0.9566528190038938  0.6874365016586926
  0.5006734485535854  0.7192876785343747  0.2368667666087962
  0.8306076634670638  0.4831911151883064  0.1252354116324859
  0.5290365545130082  0.7034488697670578  0.3989824568584490
  0.2491749183345632  0.7154733898366290  0.9197900344369055
  0.9934243092557539  0.2351010691990642  0.9280920469779671
  0.2299477093503807  0.3044174488720266  0.0939768288395088
  0.0589215129385668  0.4830195559816062  0.8098721284072280
  0.4363788683662453  0.4622983757595854  0.8150017116656153
  0.7741905455910307  0.2825736411201029  0.3437948350349116
  0.2990462362479300  0.4497641519525987  0.3662388817737426
  0.6732686253610366  0.3499207057667810  0.3389319032615203
  0.1472632348906893  0.6743372289341956  0.0372617858687970
  0.4069375621381621  0.5094823769760881  0.1840783361477777
  0.2602461913463450  0.4415270354647614  0.0723385055016234
  0.3027770694515879  0.5666620327648131  0.9289686894781359
  0.5068358639741329  0.7434952240204593  0.6044141652660663
  0.7905852926267495  0.6562665330742317  0.3892538477612537
  0.6041694604809065  0.2319644787924066  0.6378190661050726
  0.2818942184336213  0.6752654435880430  0.5479103974479809
  0.1221377213167609  0.2575126784595256  0.3258172588712188
  0.9933724313081972  0.9784474848586585  0.4789096920585148
  0.9645684286699292  0.9610837068567395  0.1965464865761607
  0.4906135569517830  0.9788441396894422  0.4556263993619475
  0.7682970248690810  0.4981431762235133  0.2779750418012704
  0.7900049480044924  0.9765707457879184  0.9367453930435123
  0.9882651086520172  0.5683266721709945  0.0158622161242965
  0.1998661139859816  0.1143124267557488  0.3238899047689580
  0.3943088776045341  0.4393840529335535  0.9713773898615359
  0.1934617270786678  0.3887571060657347  0.1741822899274176
  0.0944850708047071  0.9505466454854640  0.9455763414826664
  0.8164064509697424  0.3349204936733269  0.8576745121447336
  0.6811378769877721  0.7734401371117872  0.1332163965089706
  0.1479528940476002  0.1040391006942634  0.4624247551338047
  0.3412174134485426  0.3799545647827402  0.1399996198679249
  0.1779339421935829  0.5122260079494477  0.6096778153074481
  0.2895161120162311  0.8675414329618467  0.4023089340050469
  0.5601209245879190  0.8002751799886083  0.9707543918419127
  0.0930622880169983  0.2558933127104671  0.2086582498172580
  0.7208870360975161  0.8062911248111327  0.6304748425908406
  0.8607564616764427  0.7166225235746996  0.9556678159546412
  0.2914641696800154  0.4993718582847233  0.2115687880382947
  0.4803025428713813  0.7586954752494992  0.0462484842868977
  0.5184210898057615  0.1711411588577774  0.4692471026475583
  0.0974028858965028  0.5672559580418279  0.7325984511510741
  0.5423867793855709  0.6129323921383932  0.9031233310665705
  0.1687793842508712  0.9015736355214095  0.6183934739700374
  0.3833557116788256  0.8723380217968163  0.2249530637770635
  0.9300354887445110  0.4142749980368092  0.6825619524617523
  0.1881774681083065  0.9317380754977121  0.3900101137734487
  0.2580964485717899  0.5518354043815461  0.5284190706600930
  0.8545554342207147  0.5889253694486081  0.8548844541236910
  0.5119095043323427  0.2238401244046169  0.2878821605419439
  0.2829273166489772  0.0031693381913386  0.2239940338514319
  0.0748414977020007  0.4422092948028555  0.6335538129714776
  0.9704879498473880  0.7384443724718293  0.6698399005120999
  0.7573908184806114  0.1320597656035347  0.7750648693492004
  0.8411232583439000  0.4298123360858513  0.9327587507764891
  0.2839389401543059  0.1017844509615172  0.1472367058849918
  0.3155858850802420  0.2804128848980634  0.8112197116338801
  0.5621100579716840  0.7914472609834367  0.3219625240097811
  0.8291658184174322  0.8632803472745847  0.9554527514482098
  0.0546677962971920  0.2529509297228733  0.7074640337077873
  0.4197174232177466  0.6334685285758361  0.1775164696753955
  0.4610781392097263  0.4131023187785895  0.1328716299962139
  0.5874838226901425  0.1584704539877949  0.3631376690269789
  0.9799447705485673  0.3137984407805344  0.0212600365274616
  0.9324715806165961  0.8024350792718652  0.4578594569422029
  0.7005857437681774  0.2977034961994741  0.6622126084008367
  0.5501226446451755  0.9765869094898557  0.3496618972544811
  0.4166909924813386  0.6187929109320552  0.6716073322691760
  0.4017473552981113  0.2383662382093747  0.3299401693404664
  0.1748835491035688 -0.0005030820132550  0.2825720778837039
  0.4478984134389981  0.2558375171207489  0.7843391739938931
  0.3452130556137737  0.2642203232668593  0.0942258505212820
  0.1275730029115628  0.8662786017617125  0.1638114057723670
  0.0147001203660379  0.1388473848586942  0.0049164440111144
  0.6525015690834181  0.4723731536817417  0.3150116077497457
  0.4675835525226381  0.0230310690903467  0.6659922057634489
  0.7936229241976220  0.8988606196417760  0.6795587382157262
  0.1975255484727594  0.1632802279793821  0.7381835118237308
  0.6628325775015473  0.3423543300695934  0.4687224694248759
  0.9539132646153886  0.4678804803114706  0.2636637720427252
  0.9346446587119359  0.9157365508527107  0.3938005919862996
  0.4279367309508089  0.0856487158339165  0.4759907028436842
  0.5091108375717815  0.3042040104170308  0.6084567043117867
  0.0505323773915931  0.6335468829683689  0.0950330211606148
  0.4893126658813894  0.3786476291982023  0.4186626979048389
  0.6164635902696816  0.1498308188439249  0.5439393494466511
  0.1398054417095893  0.2157304608197771  0.0973001398303754
  0.7730937150274724  0.2101698760424050  0.2397762210127394
  0.4082569030865100  0.3159173264209038  0.9746749490497646
  0.7867148480624867  0.7154764385766609  0.6789898941520541
  0.0915524256026759  0.6135442927426041  0.6120048842004020
  0.2877708414951882  0.0163618935908344  0.5973306446406613
  0.3552321559390081  0.9598023337158369  0.9270802710076803
  0.8003833844691380  0.5840383239117074  0.1939391844134277
  0.5711679283281934  0.1825588981822107  0.7464847070861313
  0.2324690160796235  0.6921308626998366  0.1263396690906418
  0.7025603150199614  0.6102254849714395  0.0205827629638814
  0.9208289807215734  0.0425647733179467  0.2890624773954938
  0.2669589487986320  0.0941626922517384  0.4274469477497084
  0.0713937541959962  0.3756620329163837  0.1774499095793533
  0.8636043785566219  0.0554348163619529  0.8841702245220220
  0.8254592769925974  0.5375421653795307  0.3825314520970098
  0.6784724470820769  0.9546322763258287  0.5122288389309517
  0.7104188084293375  0.3392281043257781  0.1235162333325533
  0.9886228624550910  0.9506381799667585  0.0141827548194907
  0.5071671300820406  0.4786196822522819  0.9514886112194274
  0.1840427678739633  0.6069612147080596  0.9348605236182242
  0.6755944681236888  0.4396448270034443  0.9577961310584316
  0.4893855882997573  0.5698637703179923  0.7983589542977771
  0.2175667093270048  0.5117020587071968  0.7308499406972842
  0.6734278194124884  0.8184646058968836  0.0166877160297658
  0.0222946967358094  0.6695102957640503  0.8478857779916691
  0.7272115137060055  0.6803047015538399  0.5001379167212772
  0.6113888926041297  0.4262300896590518  0.7716796506203014
  0.3181064581125065  0.6922179858801315  0.0256485875585084
  0.5523144676779047  0.9655445777088240  0.5616069716625469
  0.5575778292164697  0.4856663739251051  0.5808319818022033
  0.5860091409703443  0.6480257858259517  0.6327850253465893
  0.1660723623627794  0.7907569812071951 -0.0006928061203933
  0.0498189107774975  0.3493597472756376  0.3592078579630913
  0.5038519199365966  0.8296804248455104  0.6891000091563299
  0.9687025809088460  0.2284582577978800  0.2259718634580065
  0.1006435991269082  0.2495303048711206  0.8765623135658432
  0.4470316187287546  0.1357210774585771  0.9910456836694246
  0.5082390097635354  0.9758433799776850  0.8329601526875922
  0.6326670317951522  0.7993136597312812  0.7245628504257379
  0.8338960931203719  0.4071816421539014  0.2257793117497330
  0.3746571221354200  0.0394822514750995  0.2985113330950311
  0.4774717789774318  0.1739734747775933  0.1746283841100806
  0.8630372757925313  0.2478300858966283  0.6684514151141963
  0.3499516515756699  0.2894778386739891  0.5126146438704203
  0.9517896427487209  0.4769414129855285  0.0928257162065477
  0.2403886458998611  0.7236530678906478  0.6577828729061651
  0.3631483317472275  0.8141687783413084  0.7876444847333209
  0.5385759585010617  0.7379057485808250  0.8648180597296713
  0.8619932370222104  0.1127410767120628  0.1181095202768168
  0.9465535874979238  0.9404183481849858  0.5901675073654948
  0.9557038943855326  0.7656233033176925  0.0218069866687693
  0.4581034592257991  0.4886443124078694  0.2997807049304306
  0.8715573168223024  0.5939893751416593  0.9803662042537031
  0.0036647032711875  0.8452399389886621  0.2018390883897983
  0.8263462919662473  0.3105376085214365  0.0705353826015837
  0.7334664663807936  0.5261583678170322  0.6219351323651429
  0.7260004333029479  0.0221810264841146  0.0315541127983016
  0.0511086628970503  0.4922721243531513  0.9387484381700015
  0.8551903701142770  0.9427295591873202  0.1305937080782155
  0.3831123947966298  0.0971972001608926  0.7994184063877257
  0.5858097158427785  0.3194108816956677  0.2517256653122291
  0.4385071454631429  0.9785534735105832  0.1149183940889514
  0.9311126847044877  0.5392670816349361  0.6962224543352025
  0.3790433554030175  0.8060320122074018  0.9887800859780514
  0.3081800856163485  0.9182872596777973  0.1394531409810621
  0.6039455183787391  0.1063240234643495  0.9039687690904875
  0.8750701441122093  0.3439659763108495  0.3712086064220538
  0.4123974560223064  0.6765832645887352  0.5512174266404773
  0.4102999227319252  0.8839795849154238  0.4230148630492069
  0.7472595176176871  0.8420619168748955  0.4040926843478082
  0.2359572825782047  0.1356802329450818  0.9420596980288881
  0.9482259260707583  0.6792087224503650  0.2844675541149207
  0.7290832819832908  0.0179584619690595  0.2694397133117830
  0.2901016153265117  0.8101567948130508  0.2913423283493595
  0.9575630163425727  0.8766990469934890  0.8164298760182361
  0.6423827468301642  0.1968062677618956  0.0653946206633129
  0.0853250171026316  0.5240169336520020  0.2843262132093400
  0.7061398789180593  0.2839004838998078  0.8752538709350112
  0.8135862084663333  0.2310357211500024  0.5377089328571337
  0.1223630876259331  0.0111306036183592  0.6645526611695842
  0.4148178998493881  0.4208750101652868  0.6989945397808350
  0.8675765509112080  0.4278300966100594  0.5590908474890194
  0.3434941259864360  0.5289525150553438  0.0389204505153359
  0.0015172087759317  0.4965417998706370  0.4495590486439230
  0.8596014865710729  0.8251995377306389  0.2674897848636199
  0.6102763485962256  0.4879295363532604  0.1221361940801333
  0.0015700953043251  0.3013185574564481  0.5206607319149380
  0.1886688567360753  0.5113485363812260  0.1440780083947110
  0.0865158440334181  0.8338899620207603  0.9005641563486927
  0.1095009070490724  0.8529908620870028  0.7186193782722169
  0.8001182008870954  0.7392494843934279  0.1267710671610744
  0.9475158950642033  0.0783792495323374  0.7385420404714371
  0.5275343750883846  0.9234612445075677  0.9511777700662661
  0.5615333204156331  0.7848693104718566  0.4980758978165354
  0.3814748931625858  0.8644833661292662  0.6063792633824493
  0.2581629347437164  0.1889020747579502  0.2472487736945021
  0.8111128320450508  0.4037047635972555  0.7488731154114443
  0.3794241339272202  0.1954607539705052  0.6456068480037943
  0.2351940048420275  0.3369231959866311  0.6275418443274182
  0.1584919252252357  0.6834555407807971  0.2581922019978933
  0.4745760318970634  0.8105916091241807  0.1593914964774414
  0.2334408870717296  0.2778240376820679  0.3710264997640882
  0.9887200634439397  0.1350651874630359  0.5691113277800914
  0.5715027652179133  0.0156751728870674  0.1075593174070007
  0.6720355915022925  0.8638512274877869  0.2142530241398434
  0.4867523209957164  0.6322109030357109  0.0184432403535764
  0.3727603038607496  0.5021860170901177  0.5127537108641240
  0.2851595500481233  0.5651173573872055  0.3194088612045365
  0.9456029321496964  0.0875593851673270  0.4562766160229388
  0.0843822877970083  0.1431102440593918  0.3632075275080291
  0.8901443554045119  0.2344667603745834  0.8558670788669542
  0.4185776912711107  0.7081130496403782  0.3451183270588388
  0.0970858456781838  0.8536708307818206  0.3513021570732931
  0.3447790452249015  0.6535464007996727  0.8542308663909429
  0.7285133580792758  0.5795699701856852  0.8216494073165437
  0.6951591418824304  0.9439369425449133  0.8622810453765494
  0.0496694172009505  0.0378499238882594  0.1522244023242864
  0.2480865500436765  0.7771892072987818  0.4811003893806854
  0.0656150345824610  0.0367272313284842  0.8573294921350130
  0.2860263309276805  0.3782195623644165  0.2583098332947951
  0.6323178548147418  0.0073684822488749  0.6992762223447105
  0.7005200547248560  0.6651880102431217  0.3097198238498907
  0.2116712251545201  0.9861030937932665  0.8114032701593754
  0.1645245126646844  0.1882554179905057  0.5527771478323978
  0.7686084828840135  0.1813093611541962  0.4162919059612879
  0.8003897286095460  0.0763461446507958  0.5763875498861359
  0.3231509390324794  0.4574785950976226  0.8699931124323533
  0.0953818159949242  0.8115681021141369  0.5519506849238366
  0.0908274241487411  0.6616905709437051  0.4352098892838771
  0.2047050922020237  0.4584270414486794  0.4510143035817702
  0.1807488583407543  0.9769723947320946  0.0231621617103120
  0.8954451930581120  0.6382443427897166  0.5263361470475475
  0.1213479446595029  0.9846808338560191  0.4848839039448766
  0.8498470670258661  0.7140616608912949  0.8325385596468264
  0.1925025888910018  0.3704098308331171  0.9923417960623706
  0.9766769653290267  0.3941329037939758  0.8052526988354701
  0.6095685729544081  0.6789152893589971  0.1736662064149049
  0.5559667021641705  0.5918862385202338  0.4308350818649918
  0.1638257285491216  0.4097567405190992  0.7932112228753795
  0.5412469326850181  0.2869130775496398  0.0210335480335672
  0.1327846226989904  0.6782941265779356  0.7794224802619849
  0.4882014817804585  0.3557645521962675  0.8619407504836075
  0.2515574365139524  0.8195708939591007  0.8553638091318974
 
  0.00000000E+00  0.00000000E+00  0.00000000E+00
  0.00000000E+00  0.00000000E+00  0.00000000E+00
  0.00000000E+00  0.00000000E+00  0.00000000E+00
  0.00000000E+00  0.00000000E+00  0.00000000E+00
  0.00000000E+00  0.00000000E+00  0.00000000E+00
  0.00000000E+00  0.00000000E+00  0.00000000E+00
  0.00000000E+00  0.00000000E+00  0.00000000E+00
  0.00000000E+00  0.00000000E+00  0.00000000E+00
  0.00000000E+00  0.00000000E+00  0.00000000E+00
  0.00000000E+00  0.00000000E+00  0.00000000E+00
  0.00000000E+00  0.00000000E+00  0.00000000E+00
  0.00000000E+00  0.00000000E+00  0.00000000E+00
  0.00000000E+00  0.00000000E+00  0.00000000E+00
  0.00000000E+00  0.00000000E+00  0.00000000E+00
  0.00000000E+00  0.00000000E+00  0.00000000E+00
  0.00000000E+00  0.00000000E+00  0.00000000E+00
  0.00000000E+00  0.00000000E+00  0.00000000E+00
  0.00000000E+00  0.00000000E+00  0.00000000E+00
  0.00000000E+00  0.00000000E+00  0.00000000E+00
  0.00000000E+00  0.00000000E+00  0.00000000E+00
  0.00000000E+00  0.00000000E+00  0.00000000E+00
  0.00000000E+00  0.00000000E+00  0.00000000E+00
  0.00000000E+00  0.00000000E+00  0.00000000E+00
  0.00000000E+00  0.00000000E+00  0.00000000E+00
  0.00000000E+00  0.00000000E+00  0.00000000E+00
  0.00000000E+00  0.00000000E+00  0.00000000E+00
  0.00000000E+00  0.00000000E+00  0.00000000E+00
  0.00000000E+00  0.00000000E+00  0.00000000E+00
  0.00000000E+00  0.00000000E+00  0.00000000E+00
  0.00000000E+00  0.00000000E+00  0.00000000E+00
  0.00000000E+00  0.00000000E+00  0.00000000E+00
  0.00000000E+00  0.00000000E+00  0.00000000E+00
  0.00000000E+00  0.00000000E+00  0.00000000E+00
  0.00000000E+00  0.00000000E+00  0.00000000E+00
  0.00000000E+00  0.00000000E+00  0.00000000E+00
  0.00000000E+00  0.00000000E+00  0.00000000E+00
  0.00000000E+00  0.00000000E+00  0.00000000E+00
  0.00000000E+00  0.00000000E+00  0.00000000E+00
  0.00000000E+00  0.00000000E+00  0.00000000E+00
  0.00000000E+00  0.00000000E+00  0.00000000E+00
  0.00000000E+00  0.00000000E+00  0.00000000E+00
  0.00000000E+00  0.00000000E+00  0.00000000E+00
  0.00000000E+00  0.00000000E+00  0.00000000E+00
  0.00000000E+00  0.00000000E+00  0.00000000E+00
  0.00000000E+00  0.00000000E+00  0.00000000E+00
  0.00000000E+00  0.00000000E+00  0.00000000E+00
  0.00000000E+00  0.00000000E+00  0.00000000E+00
  0.00000000E+00  0.00000000E+00  0.00000000E+00
  0.00000000E+00  0.00000000E+00  0.00000000E+00
  0.00000000E+00  0.00000000E+00  0.00000000E+00
  0.00000000E+00  0.00000000E+00  0.00000000E+00
  0.00000000E+00  0.00000000E+00  0.00000000E+00
  0.00000000E+00  0.00000000E+00  0.00000000E+00
  0.00000000E+00  0.00000000E+00  0.00000000E+00
  0.00000000E+00  0.00000000E+00  0.00000000E+00
  0.00000000E+00  0.00000000E+00  0.00000000E+00
  0.00000000E+00  0.00000000E+00  0.00000000E+00
  0.00000000E+00  0.00000000E+00  0.00000000E+00
  0.00000000E+00  0.00000000E+00  0.00000000E+00
  0.00000000E+00  0.00000000E+00  0.00000000E+00
  0.00000000E+00  0.00000000E+00  0.00000000E+00
  0.00000000E+00  0.00000000E+00  0.00000000E+00
  0.00000000E+00  0.00000000E+00  0.00000000E+00
  0.00000000E+00  0.00000000E+00  0.00000000E+00
  0.00000000E+00  0.00000000E+00  0.00000000E+00
  0.00000000E+00  0.00000000E+00  0.00000000E+00
  0.00000000E+00  0.00000000E+00  0.00000000E+00
  0.00000000E+00  0.00000000E+00  0.00000000E+00
  0.00000000E+00  0.00000000E+00  0.00000000E+00
  0.00000000E+00  0.00000000E+00  0.00000000E+00
  0.00000000E+00  0.00000000E+00  0.00000000E+00
  0.00000000E+00  0.00000000E+00  0.00000000E+00
  0.00000000E+00  0.00000000E+00  0.00000000E+00
  0.00000000E+00  0.00000000E+00  0.00000000E+00
  0.00000000E+00  0.00000000E+00  0.00000000E+00
  0.00000000E+00  0.00000000E+00  0.00000000E+00
  0.00000000E+00  0.00000000E+00  0.00000000E+00
  0.00000000E+00  0.00000000E+00  0.00000000E+00
  0.00000000E+00  0.00000000E+00  0.00000000E+00
  0.00000000E+00  0.00000000E+00  0.00000000E+00
  0.00000000E+00  0.00000000E+00  0.00000000E+00
  0.00000000E+00  0.00000000E+00  0.00000000E+00
  0.00000000E+00  0.00000000E+00  0.00000000E+00
  0.00000000E+00  0.00000000E+00  0.00000000E+00
  0.00000000E+00  0.00000000E+00  0.00000000E+00
  0.00000000E+00  0.00000000E+00  0.00000000E+00
  0.00000000E+00  0.00000000E+00  0.00000000E+00
  0.00000000E+00  0.00000000E+00  0.00000000E+00
  0.00000000E+00  0.00000000E+00  0.00000000E+00
  0.00000000E+00  0.00000000E+00  0.00000000E+00
  0.00000000E+00  0.00000000E+00  0.00000000E+00
  0.00000000E+00  0.00000000E+00  0.00000000E+00
  0.00000000E+00  0.00000000E+00  0.00000000E+00
  0.00000000E+00  0.00000000E+00  0.00000000E+00
  0.00000000E+00  0.00000000E+00  0.00000000E+00
  0.00000000E+00  0.00000000E+00  0.00000000E+00
  0.00000000E+00  0.00000000E+00  0.00000000E+00
  0.00000000E+00  0.00000000E+00  0.00000000E+00
  0.00000000E+00  0.00000000E+00  0.00000000E+00
  0.00000000E+00  0.00000000E+00  0.00000000E+00
  0.00000000E+00  0.00000000E+00  0.00000000E+00
  0.00000000E+00  0.00000000E+00  0.00000000E+00
  0.00000000E+00  0.00000000E+00  0.00000000E+00
  0.00000000E+00  0.00000000E+00  0.00000000E+00
  0.00000000E+00  0.00000000E+00  0.00000000E+00
  0.00000000E+00  0.00000000E+00  0.00000000E+00
  0.00000000E+00  0.00000000E+00  0.00000000E+00
  0.00000000E+00  0.00000000E+00  0.00000000E+00
  0.00000000E+00  0.00000000E+00  0.00000000E+00
  0.00000000E+00  0.00000000E+00  0.00000000E+00
  0.00000000E+00  0.00000000E+00  0.00000000E+00
  0.00000000E+00  0.00000000E+00  0.00000000E+00
  0.00000000E+00  0.00000000E+00  0.00000000E+00
  0.00000000E+00  0.00000000E+00  0.00000000E+00
  0.00000000E+00  0.00000000E+00  0.00000000E+00
  0.00000000E+00  0.00000000E+00  0.00000000E+00
  0.00000000E+00  0.00000000E+00  0.00000000E+00
  0.00000000E+00  0.00000000E+00  0.00000000E+00
  0.00000000E+00  0.00000000E+00  0.00000000E+00
  0.00000000E+00  0.00000000E+00  0.00000000E+00
  0.00000000E+00  0.00000000E+00  0.00000000E+00
  0.00000000E+00  0.00000000E+00  0.00000000E+00
  0.00000000E+00  0.00000000E+00  0.00000000E+00
  0.00000000E+00  0.00000000E+00  0.00000000E+00
  0.00000000E+00  0.00000000E+00  0.00000000E+00
  0.00000000E+00  0.00000000E+00  0.00000000E+00
  0.00000000E+00  0.00000000E+00  0.00000000E+00
  0.00000000E+00  0.00000000E+00  0.00000000E+00
  0.00000000E+00  0.00000000E+00  0.00000000E+00
  0.00000000E+00  0.00000000E+00  0.00000000E+00
  0.00000000E+00  0.00000000E+00  0.00000000E+00
  0.00000000E+00  0.00000000E+00  0.00000000E+00
  0.00000000E+00  0.00000000E+00  0.00000000E+00
  0.00000000E+00  0.00000000E+00  0.00000000E+00
  0.00000000E+00  0.00000000E+00  0.00000000E+00
  0.00000000E+00  0.00000000E+00  0.00000000E+00
  0.00000000E+00  0.00000000E+00  0.00000000E+00
  0.00000000E+00  0.00000000E+00  0.00000000E+00
  0.00000000E+00  0.00000000E+00  0.00000000E+00
  0.00000000E+00  0.00000000E+00  0.00000000E+00
  0.00000000E+00  0.00000000E+00  0.00000000E+00
  0.00000000E+00  0.00000000E+00  0.00000000E+00
  0.00000000E+00  0.00000000E+00  0.00000000E+00
  0.00000000E+00  0.00000000E+00  0.00000000E+00
  0.00000000E+00  0.00000000E+00  0.00000000E+00
  0.00000000E+00  0.00000000E+00  0.00000000E+00
  0.00000000E+00  0.00000000E+00  0.00000000E+00
  0.00000000E+00  0.00000000E+00  0.00000000E+00
  0.00000000E+00  0.00000000E+00  0.00000000E+00
  0.00000000E+00  0.00000000E+00  0.00000000E+00
  0.00000000E+00  0.00000000E+00  0.00000000E+00
  0.00000000E+00  0.00000000E+00  0.00000000E+00
  0.00000000E+00  0.00000000E+00  0.00000000E+00
  0.00000000E+00  0.00000000E+00  0.00000000E+00
  0.00000000E+00  0.00000000E+00  0.00000000E+00
  0.00000000E+00  0.00000000E+00  0.00000000E+00
  0.00000000E+00  0.00000000E+00  0.00000000E+00
  0.00000000E+00  0.00000000E+00  0.00000000E+00
  0.00000000E+00  0.00000000E+00  0.00000000E+00
  0.00000000E+00  0.00000000E+00  0.00000000E+00
  0.00000000E+00  0.00000000E+00  0.00000000E+00
  0.00000000E+00  0.00000000E+00  0.00000000E+00
  0.00000000E+00  0.00000000E+00  0.00000000E+00
  0.00000000E+00  0.00000000E+00  0.00000000E+00
  0.00000000E+00  0.00000000E+00  0.00000000E+00
  0.00000000E+00  0.00000000E+00  0.00000000E+00
  0.00000000E+00  0.00000000E+00  0.00000000E+00
  0.00000000E+00  0.00000000E+00  0.00000000E+00
  0.00000000E+00  0.00000000E+00  0.00000000E+00
  0.00000000E+00  0.00000000E+00  0.00000000E+00
  0.00000000E+00  0.00000000E+00  0.00000000E+00
  0.00000000E+00  0.00000000E+00  0.00000000E+00
  0.00000000E+00  0.00000000E+00  0.00000000E+00
  0.00000000E+00  0.00000000E+00  0.00000000E+00
  0.00000000E+00  0.00000000E+00  0.00000000E+00
  0.00000000E+00  0.00000000E+00  0.00000000E+00
  0.00000000E+00  0.00000000E+00  0.00000000E+00
  0.00000000E+00  0.00000000E+00  0.00000000E+00
  0.00000000E+00  0.00000000E+00  0.00000000E+00
  0.00000000E+00  0.00000000E+00  0.00000000E+00
  0.00000000E+00  0.00000000E+00  0.00000000E+00
  0.00000000E+00  0.00000000E+00  0.00000000E+00
  0.00000000E+00  0.00000000E+00  0.00000000E+00
  0.00000000E+00  0.00000000E+00  0.00000000E+00
  0.00000000E+00  0.00000000E+00  0.00000000E+00
  0.00000000E+00  0.00000000E+00  0.00000000E+00
  0.00000000E+00  0.00000000E+00  0.00000000E+00
  0.00000000E+00  0.00000000E+00  0.00000000E+00
  0.00000000E+00  0.00000000E+00  0.00000000E+00
  0.00000000E+00  0.00000000E+00  0.00000000E+00
  0.00000000E+00  0.00000000E+00  0.00000000E+00
  0.00000000E+00  0.00000000E+00  0.00000000E+00
  0.00000000E+00  0.00000000E+00  0.00000000E+00
  0.00000000E+00  0.00000000E+00  0.00000000E+00
  0.00000000E+00  0.00000000E+00  0.00000000E+00
  0.00000000E+00  0.00000000E+00  0.00000000E+00
  0.00000000E+00  0.00000000E+00  0.00000000E+00
  0.00000000E+00  0.00000000E+00  0.00000000E+00
  0.00000000E+00  0.00000000E+00  0.00000000E+00
  0.00000000E+00  0.00000000E+00  0.00000000E+00
  0.00000000E+00  0.00000000E+00  0.00000000E+00
  0.00000000E+00  0.00000000E+00  0.00000000E+00
  0.00000000E+00  0.00000000E+00  0.00000000E+00
  0.00000000E+00  0.00000000E+00  0.00000000E+00
  0.00000000E+00  0.00000000E+00  0.00000000E+00
  0.00000000E+00  0.00000000E+00  0.00000000E+00
  0.00000000E+00  0.00000000E+00  0.00000000E+00
  0.00000000E+00  0.00000000E+00  0.00000000E+00
  0.00000000E+00  0.00000000E+00  0.00000000E+00
  0.00000000E+00  0.00000000E+00  0.00000000E+00
  0.00000000E+00  0.00000000E+00  0.00000000E+00
  0.00000000E+00  0.00000000E+00  0.00000000E+00
  0.00000000E+00  0.00000000E+00  0.00000000E+00
  0.00000000E+00  0.00000000E+00  0.00000000E+00
  0.00000000E+00  0.00000000E+00  0.00000000E+00
  0.00000000E+00  0.00000000E+00  0.00000000E+00
  0.00000000E+00  0.00000000E+00  0.00000000E+00
  0.00000000E+00  0.00000000E+00  0.00000000E+00
  0.00000000E+00  0.00000000E+00  0.00000000E+00
  0.00000000E+00  0.00000000E+00  0.00000000E+00
  0.00000000E+00  0.00000000E+00  0.00000000E+00
  0.00000000E+00  0.00000000E+00  0.00000000E+00
  0.00000000E+00  0.00000000E+00  0.00000000E+00
  0.00000000E+00  0.00000000E+00  0.00000000E+00
  0.00000000E+00  0.00000000E+00  0.00000000E+00
  0.00000000E+00  0.00000000E+00  0.00000000E+00
  0.00000000E+00  0.00000000E+00  0.00000000E+00
  0.00000000E+00  0.00000000E+00  0.00000000E+00
  0.00000000E+00  0.00000000E+00  0.00000000E+00
  0.00000000E+00  0.00000000E+00  0.00000000E+00
  0.00000000E+00  0.00000000E+00  0.00000000E+00
  0.00000000E+00  0.00000000E+00  0.00000000E+00
  0.00000000E+00  0.00000000E+00  0.00000000E+00