In2O3                                   
   1.00000000000000     
     8.0708771192058624    0.0393874507324771   -0.0602820718074683
     0.0393196653079555    8.0076567839124735   -0.0501628315936634
    -0.0599030862798300   -0.0494537080297230    8.0776280494764290
   In   O 
    16    24
Direct
  0.0310400973956091  0.9793831769165988  0.9732109569503173
  0.0317648706528792  0.9790507494305746  0.4717268376801062
  0.7947086131432580  0.2593883275636856  0.2227943867163243
  0.0113978079525480  0.4786466834501048  0.5072328897200395
  0.5328666624414444  0.9836519316787488  0.9732211111802203
  0.5413046335399166  0.0012187606896102  0.4816632627416864
  0.5032133088223004  0.4905440266600206 -0.0033715968956163
  0.2508881797849087  0.7612016441213894  0.7513485002447803
  0.2753220655164727  0.2495849429684553  0.2251966031280457
  0.2765636351555764  0.2472861563357359  0.7372086678428551
  0.2480305811409785  0.7501039695159030  0.2451897965887876
  0.0042500009640338  0.4857934028922213  0.0011161694408126
  0.4988835488750802  0.4741045586576659  0.5432017893436902
  0.7921364577237415  0.2542431735150852  0.7330932959866857
  0.7665625428470806  0.7531380793916155  0.2469876332204789
  0.7552516012170108  0.7568714461429681  0.7491713892866559
  0.8957449722220490  0.2172672905729519  0.4720203315161164
  0.5374257624221760  0.2196556793799747  0.6355528912227676
  0.7514445445076710  0.5150150641417264  0.6234451357396885
  0.6354743031179267  0.0390779256965757  0.2268924618086999
  0.4023396928786401  0.2236186211992016  0.9844911391042286
  0.6420068585661656  0.7258151881545714  0.0060741374561499
  0.5462797529220380  0.4417030108521066  0.2666414962872040
  0.3695224316104083  0.5172120813452935  0.7681373818311111
  0.7814746894415512  0.8628441654163950  0.4985260078403657
  0.2969506598993216  0.0049683086394234  0.3600174718074589
  0.7832204376472608  0.0169385017729574  0.8600897403844946
  0.2578749003663797  0.3542993848641857  0.4735137721529078
  0.4982130760767132  0.8578921896031461  0.7051124620952974
  0.0374261952587398  0.2180370996285577  0.1035563007611898
  0.5220477693104362  0.6270529296016627  0.3216816136524470
  0.0003131317815120  0.8740971922574943  0.2173850050126666
  0.1472468750950665  0.7149999886712124  0.5005251864705161
  0.7470634773079756  0.3715154669500219  0.9768420229027058
  0.9033472549757289  0.5172503151648177  0.2593252500705926
  0.2499025422729057  0.5126737032060878  0.1166423167581783
  0.0379033651923326  0.3690359692988843  0.7590621046413550
  0.2899606851382853  0.8695489589483663  0.0061804457470578
  0.0002867847608090  0.7194580201349083  0.8645648666496549
  0.1395425511792353  0.0173429168773982  0.7200864334798396
 
  0.00000000E+00  0.00000000E+00  0.00000000E+00
  0.00000000E+00  0.00000000E+00  0.00000000E+00
  0.00000000E+00  0.00000000E+00  0.00000000E+00
  0.00000000E+00  0.00000000E+00  0.00000000E+00
  0.00000000E+00  0.00000000E+00  0.00000000E+00
  0.00000000E+00  0.00000000E+00  0.00000000E+00
  0.00000000E+00  0.00000000E+00  0.00000000E+00
  0.00000000E+00  0.00000000E+00  0.00000000E+00
  0.00000000E+00  0.00000000E+00  0.00000000E+00
  0.00000000E+00  0.00000000E+00  0.00000000E+00
  0.00000000E+00  0.00000000E+00  0.00000000E+00
  0.00000000E+00  0.00000000E+00  0.00000000E+00
  0.00000000E+00  0.00000000E+00  0.00000000E+00
  0.00000000E+00  0.00000000E+00  0.00000000E+00
  0.00000000E+00  0.00000000E+00  0.00000000E+00
  0.00000000E+00  0.00000000E+00  0.00000000E+00
  0.00000000E+00  0.00000000E+00  0.00000000E+00
  0.00000000E+00  0.00000000E+00  0.00000000E+00
  0.00000000E+00  0.00000000E+00  0.00000000E+00
  0.00000000E+00  0.00000000E+00  0.00000000E+00
  0.00000000E+00  0.00000000E+00  0.00000000E+00
  0.00000000E+00  0.00000000E+00  0.00000000E+00
  0.00000000E+00  0.00000000E+00  0.00000000E+00
  0.00000000E+00  0.00000000E+00  0.00000000E+00
  0.00000000E+00  0.00000000E+00  0.00000000E+00
  0.00000000E+00  0.00000000E+00  0.00000000E+00
  0.00000000E+00  0.00000000E+00  0.00000000E+00
  0.00000000E+00  0.00000000E+00  0.00000000E+00
  0.00000000E+00  0.00000000E+00  0.00000000E+00
  0.00000000E+00  0.00000000E+00  0.00000000E+00
  0.00000000E+00  0.00000000E+00  0.00000000E+00
  0.00000000E+00  0.00000000E+00  0.00000000E+00
  0.00000000E+00  0.00000000E+00  0.00000000E+00
  0.00000000E+00  0.00000000E+00  0.00000000E+00
  0.00000000E+00  0.00000000E+00  0.00000000E+00
  0.00000000E+00  0.00000000E+00  0.00000000E+00
  0.00000000E+00  0.00000000E+00  0.00000000E+00
  0.00000000E+00  0.00000000E+00  0.00000000E+00
  0.00000000E+00  0.00000000E+00  0.00000000E+00
  0.00000000E+00  0.00000000E+00  0.00000000E+00
