Sb                                      
   1.00000000000000     
    17.7273007964999998    0.0000000000000000    0.0000000000000000
     0.0000000000000000   17.7273007964999998    0.0000000000000000
     0.0000000000000000    0.0000000000000000   17.7273007964999998
   Bi   S 
    66   132
Direct
  0.0410294327793969  0.3342936740554215  0.5208731676969343
  0.5307108673828795  0.4353056597676511  0.0417993870101321
  0.3138599027085271  0.7606179795068475  0.6371629740859592
  0.0327676843924765  0.2705578367359946  0.2269103974690496
  0.4965555647120592  0.5384468069324877  0.6102905993464184
  0.8606630857958256  0.3162433685998307  0.8813148359848193
  0.2749722148976899  0.0780235294821363  0.6608160201000327
  0.2415078120517349  0.7210731357506680  0.0464853131302485
  0.9458570180609605  0.9126401652750000  0.8210691678963260
  0.4956947687716458  0.0034761919323774  0.2000133650553621
  0.6738625874908267  0.4298743704688475  0.5338677201680679
  0.8124595324305625  0.0998703315015026  0.8579229218722197
  0.4259860716754953  0.7876677461180498  0.8499037997420630
  0.4615289755822361  0.9327583755328421  0.6682778684318770
  0.7193848345317500  0.9136680514659969  0.2958843208309643
  0.0024321568371056  0.7469561123423005  0.1034731747108623
  0.6580697870922344  0.3739822380275880  0.8089566540616349
  0.0219876235514342  0.5008776472219335  0.7675535123376072
  0.5769049979121830  0.0933828096188043  0.7873360928225773
  0.9770750924618219  0.7494823415809604  0.3467916698688975
  0.1216327118358860  0.2488439776388807  0.7386065236438416
  0.4212930127442377  0.5419628064775496  0.8569413178640207
  0.0965501257232142  0.2826091933354520  0.9884938952684333
  0.9469782374424571  0.1485844694756160  0.0219468583177432
  0.3620015821052056  0.3043443544199927  0.8711633494548719
  0.9875964466806093  0.5168631494830324  0.1646372087269175
  0.9096918655785561  0.6966112695960965  0.9014080457545787
  0.7227684538226753  0.1566197385695167  0.2518786412461517
  0.1950776330752503  0.1151556157833359  0.4431909919167501
  0.5716375225431027  0.5957421444251136  0.4088180975284856
  0.5815163245193343  0.7471020478107814  0.5836344580647721
  0.7576392155363606  0.6142571383940084  0.6799060161487598
  0.1319581921677931  0.1154056700520459  0.1739659961036495
  0.2746006944256059  0.4080904967421624  0.4620127969674325
  0.4435554634243261  0.6163401052158219  0.0769903045097444
  0.3442420624561423  0.9823345058039942  0.4680493038702766
  0.0253681748909172  0.6977197206891337  0.6714310550619426
  0.9656653834925810  0.9828680737917295  0.2768485665287085
  0.1154386877197901  0.5336940564152962  0.3578988141125193
  0.9051936494769662  0.0439975038732907  0.4749004318271254
  0.8251240156545918  0.2577943118539053  0.4876913498388417
  0.6241051708206334  0.6203739338364402  0.8551484938274263
  0.7747681967935582  0.7452492836569812  0.0692770439967391
  0.1603023568202669  0.8659975362904960  0.7421178066757007
  0.6981252060110782  0.0272205350479839  0.0524058635497284
  0.8744099986445349  0.5207039373435880  0.4257717683743946
  0.7223657786738161  0.8649736189591009  0.7746799347669051
  0.3580662318909743  0.6461879238866155  0.2756605254668678
  0.7049778137422612  0.2891900629537071  0.0823820680658422
  0.4892263365133235  0.2933826420797706  0.6855028890693328
  0.9159080308659523  0.0940086657578239  0.6374003966932901
  0.6437455365317737  0.9833398974466023  0.5499891054071917
  0.6944288593788805  0.5425597439973363  0.2193833057288191
  0.6061247872170746  0.3840708347228590  0.3463255552916634
  0.2386130198350234  0.3531941913149725  0.2339412198049558
  0.8117321907467457  0.5112057213535800  0.0210068648097554
  0.2551222648526200  0.0326125859591902  0.0023118057924510
  0.1765693206191322  0.9364448992227196  0.3346972439013052
  0.2777329881334906  0.4008147037175565  0.6960946123405057
  0.8626383587224750  0.3144696258674494  0.2696423112238381
  0.8490320121448492  0.8208788381753332  0.5422941536959975
  0.5609563936800627  0.8433276498961535  0.0322743341975745
  0.5035975375831659  0.8486409732202737  0.3366560378998570
  0.1946992766455908  0.6190353746841515  0.5400611596353819
  0.2463711718870596  0.4547548147159448  0.0336098553194029
  0.4270880601195394  0.1675171395110205  0.0625331639460843
  0.1653976753736237  0.2997783879664026  0.6091096015256837
  0.2709235234347349  0.5489436329961891  0.4103384068802907
  0.0634268082391087  0.7544113102074760  0.9665406967701453
  0.8194314937773979  0.6696363146163395  0.3785797730234481
  0.5080314965019980  0.6095160325517293  0.7581872133882759
  0.5653261460850936  0.2998196572028828  0.0185184053036494
  0.8070578826905412  0.2110854075122449  0.9744198661427598
  0.5868995740580346  0.4044075449399726  0.6693907216914937
  0.7895753454214134  0.1063752972942260  0.5399628742103567
  0.5443597740233431  0.2565655457221207  0.8148281081336277
  0.4646995951523324  0.7859388043788696  0.6889733780691133
  0.3812452876546578  0.8268516263079431  0.4383519053253013
  0.5737154837498424  0.1734765912119694  0.5202701606649113
  0.5243798291810053  0.0756514578070430  0.5539093669782759
  0.6394616109942668  0.1544308062933991  0.1168033656209876
  0.6828889948005399  0.0472543010280757  0.8983958323976823
  0.6266840280306697  0.2213124263555492  0.6209468431669728
  0.0091984779047753  0.9415839471700825  0.6836222332430306
  0.8859580418774906  0.0197693231739494  0.9528352467298228
  0.1270429274350333  0.6324073526714720  0.1360532537155204
  0.4348579426281162  0.0168560654107653  0.8643763643343233
  0.8263451515029622  0.2102537749893772  0.1641671576151585
  0.3840323546016570  0.4202725100504266  0.9824470027970226
  0.1575977834504676  0.7535244150702261  0.6091885030058398
  0.0290666257119765  0.5283136030326566  0.9487602637201105
  0.9795769103861893  0.4011182291968340  0.6623169752496415
  0.3877738100003595  0.2789544706828718  0.1570395226976277
  0.0257376294671063  0.8868489191422068  0.3820754216866467
  0.9154422887329411  0.3703511962168041  0.4212481729258639
  0.3933373244459764  0.1142249819684238  0.8137184100896505
  0.9070726720166257  0.8240993010403111  0.2304541977197423
  0.7228994542097384  0.5237015400177155  0.7869358365585682
  0.1216000237720437  0.4587255771739130  0.4882030595345825
  0.3818904016526850  0.3845517284166063  0.3551266548291944
  0.3913709268907973  0.5111779258263393  0.2078947183892707
  0.4386996045839870  0.3004610936910884  0.4142238182754313
  0.2958288175302756  0.2548516512210420  0.7437922977851775
  0.2849503391419480  0.0519605307276125  0.3389894620047568
  0.1082724860305069  0.7641069539952948  0.2711712923864906
  0.8434647294476878  0.1904936358439742  0.3553360526934632
 -0.0118134602322462  0.1194240473863084  0.1882459554747297
  0.8030857187181054  0.3926591599733995  0.6058009940778478
  0.0706835100982519  0.1050524083217353  0.6983249071268052
  0.4131126409927527  0.4033884465247159  0.7694602771085938
  0.6545545413659535  0.6824784122831667  0.1697480553491550
  0.3622852041977222  0.0610179483362784  0.1339012969725729
  0.7963596346129652  0.7916332078911302  0.2223530561835377
  0.0879972820998387  0.2527753524772717  0.3934383170935411
  0.4751144583437092  0.6610183333786516  0.5192264349661183
  0.9712143355743376  0.5745521043335401  0.3058474844619399
  0.1343858316816812  0.9390518164950703  0.8705851117174628
  0.6007134338849391  0.8823622222441290  0.2160675048700082
  0.2178514994097336  0.3129538316439219  0.0931165806559710
  0.1168693925417804  0.5819364176074292  0.6929976959143304
  0.9272345813671292  0.4785217717514396  0.9206535496190376
  0.6108526037091309  0.9595538084234179  0.7141013967479523
  0.2982963352453639  0.5659530621522343  0.7464532556020507
  0.3347491626912564  0.6073708072561573  0.6451221769228815
  0.3785369170797892  0.9345861828169868  0.8026362831019904
  0.6403593163876008  0.5925063921694705  0.5872618445110350
  0.6699496370773496  0.1310486258862060  0.6761051475909118
  0.1358295028319280  0.3778068307380311  0.8370583494090524
  0.7721217211495016  0.6492933326597957  0.9411966606921560
  0.0882320782527636  0.0538582011459638  0.3275647434283465
  0.7309933308403157  0.8487876555734303  0.6236400062351413
  0.5948709365467337  0.6747851688894621  0.0691531731983291
  0.1033539499307763  0.4145429086882569  0.2508998238940606
  0.2033767878369746  0.2616562243289884  0.3783795728455179
  0.8346907396012442  0.5021377845285254  0.5795871906584087
  0.4057147082245851  0.8971304760273303  0.2399566979046185
  0.3194108695139189  0.1289461948380679  0.5308381713252237
 -0.0063489636842906  0.2129281837391958  0.8932563084796236
  0.6669090100932351  0.3006063670367971  0.4610295875207018
  0.4904928470267484  0.2758353174581269  0.2107022407634804
  0.3172066377900805  0.1666514691905253  0.9673156236815188
  0.8990462864354585  0.8123748382978435  0.0121631397253098
  0.9127070704578503  0.6284078417906904  0.0950132663200076
  0.8625009788077052  0.7922880228956687  0.7949382140764085
  0.8301705138758706  0.9824646282158074  0.7528687797911870
  0.3130399640365975  0.8280479198722402  0.9540470667249858
  0.7097767734779660  0.4858057400819137  0.3868862525132375
  0.5333903190075038  0.8847941957424061  0.5252653192617238
  0.3795429427033222  0.7257691430900882  0.1476645888856314
  0.4789801045322331  0.6661142793095751  0.9382285538104227
  0.7041482006223960  0.8642072613450436  0.0127183349448752
  0.5193562309729857  0.0050875251671572  0.3621978083489982
  0.7566162467596035  0.6991785388092575  0.4704167553159680
 -0.0137352869370246  0.2965054131275832  0.0834497102604740
  0.0559337212341425  0.7781193316598952  0.7919519513256372
  0.2412808480443503  0.4055927250097178  0.8792844964718118
  0.3505503443600280  0.9126552862889963  0.0244762059786299
  0.6317151338809618  0.0192718205392646  0.3879887279859241
  0.7475561330297816  0.3965531644933233  0.9463094734456369
  0.6670204316914639  0.7204366012674376  0.7460892961664383
  0.5591669280513816  0.5148757860541632  0.2649594199205546
  0.2062859398896708  0.0306327580611293  0.8592963991150475
  0.5536175596635223  0.8528793243835167  0.8874479071140357
  0.2924511967830914  0.7806373617034726  0.3767740901021975
  0.1104869397850995  0.1321009464822420  0.0264265861784359
  0.7672782420431165  0.2785859734057293  0.7743404753979388
  0.4904923706509965  0.6883883036694641  0.3101138901505747
  0.4420945354570384  0.1083711544687318  0.7047026917603758
  0.1473422346327689  0.6783383421036255  0.9415826170499044
  0.1452507238262282  0.9628493188987405  0.1583395148119517
  0.0780214559446466  0.4580880195783626  0.0269511129246454
  0.7784381817387199  0.0142401041716744  0.2085882382219861
  0.3130034865805220  0.9383643578139261  0.6200007649201039
  0.8583502130240290  0.4460071452645412  0.1595020669183774
  0.6546751051411565  0.7468345412633415  0.4365657579873533
  0.9607829362676583  0.1924530007951843  0.5315953106329651
  0.2744174361631050  0.7712419188769259  0.7753805005363725
  0.1341976968453705  0.0630780755701705  0.6095483784648442
  0.9814609352244293  0.3102335128291042  0.7343076053447414
  0.3075573119876026  0.6003442643532477  0.0003144889231610
  0.3686770923831484  0.4137497551607995  0.5822142221173583
  0.0353521853549462  0.9278805954964181  0.1537971799295065
  0.6743749558182888  0.4734844991210566  0.0934418568322687
  0.2755529769410323  0.4966642182024265  0.1903216110837647
  0.4969159140307935  0.1835852217994809  0.2814075060694487
  0.0587320674737801  0.6476922860752522  0.4622530387565623
  0.5584993154554511  0.4788235518435573  0.9034671217823479
  0.4143505988316507  0.1992143036392442  0.3652839742528443
  0.5228384632530960  0.4672199765631304  0.4733384606725189
  0.1989518945771059  0.9564467628510617  0.4811856306674180
  0.1593204173824417  0.6641549898439141  0.2435984308110105
  0.2199669798190016  0.7546050105678240  0.4661358831317044
  0.5533260721498249 -0.0037643172702855  0.0474141374954461
  0.9813738755629949  0.8586092792021842  0.6092772134044372
  0.9222465240333675  0.6133317265557123  0.7587301497150123
  0.6928033504648559  0.3169133135137939  0.2418881064576343
  0.9762719559970595  0.5882472719294611  0.5198311163587407
  0.8123123718070118  0.9234172928522673  0.4494499075491727
 
  0.00000000E+00  0.00000000E+00  0.00000000E+00
  0.00000000E+00  0.00000000E+00  0.00000000E+00
  0.00000000E+00  0.00000000E+00  0.00000000E+00
  0.00000000E+00  0.00000000E+00  0.00000000E+00
  0.00000000E+00  0.00000000E+00  0.00000000E+00
  0.00000000E+00  0.00000000E+00  0.00000000E+00
  0.00000000E+00  0.00000000E+00  0.00000000E+00
  0.00000000E+00  0.00000000E+00  0.00000000E+00
  0.00000000E+00  0.00000000E+00  0.00000000E+00
  0.00000000E+00  0.00000000E+00  0.00000000E+00
  0.00000000E+00  0.00000000E+00  0.00000000E+00
  0.00000000E+00  0.00000000E+00  0.00000000E+00
  0.00000000E+00  0.00000000E+00  0.00000000E+00
  0.00000000E+00  0.00000000E+00  0.00000000E+00
  0.00000000E+00  0.00000000E+00  0.00000000E+00
  0.00000000E+00  0.00000000E+00  0.00000000E+00
  0.00000000E+00  0.00000000E+00  0.00000000E+00
  0.00000000E+00  0.00000000E+00  0.00000000E+00
  0.00000000E+00  0.00000000E+00  0.00000000E+00
  0.00000000E+00  0.00000000E+00  0.00000000E+00
  0.00000000E+00  0.00000000E+00  0.00000000E+00
  0.00000000E+00  0.00000000E+00  0.00000000E+00
  0.00000000E+00  0.00000000E+00  0.00000000E+00
  0.00000000E+00  0.00000000E+00  0.00000000E+00
  0.00000000E+00  0.00000000E+00  0.00000000E+00
  0.00000000E+00  0.00000000E+00  0.00000000E+00
  0.00000000E+00  0.00000000E+00  0.00000000E+00
  0.00000000E+00  0.00000000E+00  0.00000000E+00
  0.00000000E+00  0.00000000E+00  0.00000000E+00
  0.00000000E+00  0.00000000E+00  0.00000000E+00
  0.00000000E+00  0.00000000E+00  0.00000000E+00
  0.00000000E+00  0.00000000E+00  0.00000000E+00
  0.00000000E+00  0.00000000E+00  0.00000000E+00
  0.00000000E+00  0.00000000E+00  0.00000000E+00
  0.00000000E+00  0.00000000E+00  0.00000000E+00
  0.00000000E+00  0.00000000E+00  0.00000000E+00
  0.00000000E+00  0.00000000E+00  0.00000000E+00
  0.00000000E+00  0.00000000E+00  0.00000000E+00
  0.00000000E+00  0.00000000E+00  0.00000000E+00
  0.00000000E+00  0.00000000E+00  0.00000000E+00
  0.00000000E+00  0.00000000E+00  0.00000000E+00
  0.00000000E+00  0.00000000E+00  0.00000000E+00
  0.00000000E+00  0.00000000E+00  0.00000000E+00
  0.00000000E+00  0.00000000E+00  0.00000000E+00
  0.00000000E+00  0.00000000E+00  0.00000000E+00
  0.00000000E+00  0.00000000E+00  0.00000000E+00
  0.00000000E+00  0.00000000E+00  0.00000000E+00
  0.00000000E+00  0.00000000E+00  0.00000000E+00
  0.00000000E+00  0.00000000E+00  0.00000000E+00
  0.00000000E+00  0.00000000E+00  0.00000000E+00
  0.00000000E+00  0.00000000E+00  0.00000000E+00
  0.00000000E+00  0.00000000E+00  0.00000000E+00
  0.00000000E+00  0.00000000E+00  0.00000000E+00
  0.00000000E+00  0.00000000E+00  0.00000000E+00
  0.00000000E+00  0.00000000E+00  0.00000000E+00
  0.00000000E+00  0.00000000E+00  0.00000000E+00
  0.00000000E+00  0.00000000E+00  0.00000000E+00
  0.00000000E+00  0.00000000E+00  0.00000000E+00
  0.00000000E+00  0.00000000E+00  0.00000000E+00
  0.00000000E+00  0.00000000E+00  0.00000000E+00
  0.00000000E+00  0.00000000E+00  0.00000000E+00
  0.00000000E+00  0.00000000E+00  0.00000000E+00
  0.00000000E+00  0.00000000E+00  0.00000000E+00
  0.00000000E+00  0.00000000E+00  0.00000000E+00
  0.00000000E+00  0.00000000E+00  0.00000000E+00
  0.00000000E+00  0.00000000E+00  0.00000000E+00
  0.00000000E+00  0.00000000E+00  0.00000000E+00
  0.00000000E+00  0.00000000E+00  0.00000000E+00
  0.00000000E+00  0.00000000E+00  0.00000000E+00
  0.00000000E+00  0.00000000E+00  0.00000000E+00
  0.00000000E+00  0.00000000E+00  0.00000000E+00
  0.00000000E+00  0.00000000E+00  0.00000000E+00
  0.00000000E+00  0.00000000E+00  0.00000000E+00
  0.00000000E+00  0.00000000E+00  0.00000000E+00
  0.00000000E+00  0.00000000E+00  0.00000000E+00
  0.00000000E+00  0.00000000E+00  0.00000000E+00
  0.00000000E+00  0.00000000E+00  0.00000000E+00
  0.00000000E+00  0.00000000E+00  0.00000000E+00
  0.00000000E+00  0.00000000E+00  0.00000000E+00
  0.00000000E+00  0.00000000E+00  0.00000000E+00
  0.00000000E+00  0.00000000E+00  0.00000000E+00
  0.00000000E+00  0.00000000E+00  0.00000000E+00
  0.00000000E+00  0.00000000E+00  0.00000000E+00
  0.00000000E+00  0.00000000E+00  0.00000000E+00
  0.00000000E+00  0.00000000E+00  0.00000000E+00
  0.00000000E+00  0.00000000E+00  0.00000000E+00
  0.00000000E+00  0.00000000E+00  0.00000000E+00
  0.00000000E+00  0.00000000E+00  0.00000000E+00
  0.00000000E+00  0.00000000E+00  0.00000000E+00
  0.00000000E+00  0.00000000E+00  0.00000000E+00
  0.00000000E+00  0.00000000E+00  0.00000000E+00
  0.00000000E+00  0.00000000E+00  0.00000000E+00
  0.00000000E+00  0.00000000E+00  0.00000000E+00
  0.00000000E+00  0.00000000E+00  0.00000000E+00
  0.00000000E+00  0.00000000E+00  0.00000000E+00
  0.00000000E+00  0.00000000E+00  0.00000000E+00
  0.00000000E+00  0.00000000E+00  0.00000000E+00
  0.00000000E+00  0.00000000E+00  0.00000000E+00
  0.00000000E+00  0.00000000E+00  0.00000000E+00
  0.00000000E+00  0.00000000E+00  0.00000000E+00
  0.00000000E+00  0.00000000E+00  0.00000000E+00
  0.00000000E+00  0.00000000E+00  0.00000000E+00
  0.00000000E+00  0.00000000E+00  0.00000000E+00
  0.00000000E+00  0.00000000E+00  0.00000000E+00
  0.00000000E+00  0.00000000E+00  0.00000000E+00
  0.00000000E+00  0.00000000E+00  0.00000000E+00
  0.00000000E+00  0.00000000E+00  0.00000000E+00
  0.00000000E+00  0.00000000E+00  0.00000000E+00
  0.00000000E+00  0.00000000E+00  0.00000000E+00
  0.00000000E+00  0.00000000E+00  0.00000000E+00
  0.00000000E+00  0.00000000E+00  0.00000000E+00
  0.00000000E+00  0.00000000E+00  0.00000000E+00
  0.00000000E+00  0.00000000E+00  0.00000000E+00
  0.00000000E+00  0.00000000E+00  0.00000000E+00
  0.00000000E+00  0.00000000E+00  0.00000000E+00
  0.00000000E+00  0.00000000E+00  0.00000000E+00
  0.00000000E+00  0.00000000E+00  0.00000000E+00
  0.00000000E+00  0.00000000E+00  0.00000000E+00
  0.00000000E+00  0.00000000E+00  0.00000000E+00
  0.00000000E+00  0.00000000E+00  0.00000000E+00
  0.00000000E+00  0.00000000E+00  0.00000000E+00
  0.00000000E+00  0.00000000E+00  0.00000000E+00
  0.00000000E+00  0.00000000E+00  0.00000000E+00
  0.00000000E+00  0.00000000E+00  0.00000000E+00
  0.00000000E+00  0.00000000E+00  0.00000000E+00
  0.00000000E+00  0.00000000E+00  0.00000000E+00
  0.00000000E+00  0.00000000E+00  0.00000000E+00
  0.00000000E+00  0.00000000E+00  0.00000000E+00
  0.00000000E+00  0.00000000E+00  0.00000000E+00
  0.00000000E+00  0.00000000E+00  0.00000000E+00
  0.00000000E+00  0.00000000E+00  0.00000000E+00
  0.00000000E+00  0.00000000E+00  0.00000000E+00
  0.00000000E+00  0.00000000E+00  0.00000000E+00
  0.00000000E+00  0.00000000E+00  0.00000000E+00
  0.00000000E+00  0.00000000E+00  0.00000000E+00
  0.00000000E+00  0.00000000E+00  0.00000000E+00
  0.00000000E+00  0.00000000E+00  0.00000000E+00
  0.00000000E+00  0.00000000E+00  0.00000000E+00
  0.00000000E+00  0.00000000E+00  0.00000000E+00
  0.00000000E+00  0.00000000E+00  0.00000000E+00
  0.00000000E+00  0.00000000E+00  0.00000000E+00
  0.00000000E+00  0.00000000E+00  0.00000000E+00
  0.00000000E+00  0.00000000E+00  0.00000000E+00
  0.00000000E+00  0.00000000E+00  0.00000000E+00
  0.00000000E+00  0.00000000E+00  0.00000000E+00
  0.00000000E+00  0.00000000E+00  0.00000000E+00
  0.00000000E+00  0.00000000E+00  0.00000000E+00
  0.00000000E+00  0.00000000E+00  0.00000000E+00
  0.00000000E+00  0.00000000E+00  0.00000000E+00
  0.00000000E+00  0.00000000E+00  0.00000000E+00
  0.00000000E+00  0.00000000E+00  0.00000000E+00
  0.00000000E+00  0.00000000E+00  0.00000000E+00
  0.00000000E+00  0.00000000E+00  0.00000000E+00
  0.00000000E+00  0.00000000E+00  0.00000000E+00
  0.00000000E+00  0.00000000E+00  0.00000000E+00
  0.00000000E+00  0.00000000E+00  0.00000000E+00
  0.00000000E+00  0.00000000E+00  0.00000000E+00
  0.00000000E+00  0.00000000E+00  0.00000000E+00
  0.00000000E+00  0.00000000E+00  0.00000000E+00
  0.00000000E+00  0.00000000E+00  0.00000000E+00
  0.00000000E+00  0.00000000E+00  0.00000000E+00
  0.00000000E+00  0.00000000E+00  0.00000000E+00
  0.00000000E+00  0.00000000E+00  0.00000000E+00
  0.00000000E+00  0.00000000E+00  0.00000000E+00
  0.00000000E+00  0.00000000E+00  0.00000000E+00
  0.00000000E+00  0.00000000E+00  0.00000000E+00
  0.00000000E+00  0.00000000E+00  0.00000000E+00
  0.00000000E+00  0.00000000E+00  0.00000000E+00
  0.00000000E+00  0.00000000E+00  0.00000000E+00
  0.00000000E+00  0.00000000E+00  0.00000000E+00
  0.00000000E+00  0.00000000E+00  0.00000000E+00
  0.00000000E+00  0.00000000E+00  0.00000000E+00
  0.00000000E+00  0.00000000E+00  0.00000000E+00
  0.00000000E+00  0.00000000E+00  0.00000000E+00
  0.00000000E+00  0.00000000E+00  0.00000000E+00
  0.00000000E+00  0.00000000E+00  0.00000000E+00
  0.00000000E+00  0.00000000E+00  0.00000000E+00
  0.00000000E+00  0.00000000E+00  0.00000000E+00
  0.00000000E+00  0.00000000E+00  0.00000000E+00
  0.00000000E+00  0.00000000E+00  0.00000000E+00
  0.00000000E+00  0.00000000E+00  0.00000000E+00
  0.00000000E+00  0.00000000E+00  0.00000000E+00
  0.00000000E+00  0.00000000E+00  0.00000000E+00
  0.00000000E+00  0.00000000E+00  0.00000000E+00
  0.00000000E+00  0.00000000E+00  0.00000000E+00
  0.00000000E+00  0.00000000E+00  0.00000000E+00
  0.00000000E+00  0.00000000E+00  0.00000000E+00
  0.00000000E+00  0.00000000E+00  0.00000000E+00
  0.00000000E+00  0.00000000E+00  0.00000000E+00
  0.00000000E+00  0.00000000E+00  0.00000000E+00
  0.00000000E+00  0.00000000E+00  0.00000000E+00
  0.00000000E+00  0.00000000E+00  0.00000000E+00
  0.00000000E+00  0.00000000E+00  0.00000000E+00
  0.00000000E+00  0.00000000E+00  0.00000000E+00
  0.00000000E+00  0.00000000E+00  0.00000000E+00
  0.00000000E+00  0.00000000E+00  0.00000000E+00
  0.00000000E+00  0.00000000E+00  0.00000000E+00
  0.00000000E+00  0.00000000E+00  0.00000000E+00
