Amorphous Sb                            
   1.00000000000000     
    14.8908175688907605    0.0000000000000000    0.0000000000000000
     0.0000000000000000   14.8908175688907605    0.0000000000000000
     0.0000000000000000    0.0000000000000000   14.8908175688907605
   Si   C 
   150   150
Direct
  0.9507097280471086  0.8631575808158587  0.7213845373247025
  0.2007476691103776  0.4354531840381455  0.5449638291006593
  0.7427321891516385  0.4288242696351006  0.1242529694723800
  0.9155310229504252  0.3850164674390584  0.6240312057724609
  0.3085446702100185  0.1824244783324502  0.2113601437671946
  0.3904837524268814  0.8550065947051593  0.9251037160982705
  0.4920001658228443  0.8522938976193899  0.1931865584977572
  0.8841845645755555  0.8868186288540585  0.2839123084530684
  0.5224070517099264  0.0110033088413743  0.0904950904003954
  0.2855627571914496  0.5151291257492119  0.9901320640119451
  0.0990723053837002  0.6256474864959145  0.8852002899998439
  0.6092956147687971  0.0884351076626331  0.2504273697130941
  0.4073746200858110  0.0765973929354473  0.9673988320499660
  0.4876110962091573  0.1688115193843274  0.3947409470518011
  0.3699152403562067  0.0347146154589311  0.7526359726394105
  0.5136982523793421  0.2516700017563878  0.8083364759207186
  0.2902864424095100  0.0958917437229729  0.3869437369531852
  0.6613594590566549  0.6081234997795306  0.9322622486974907
  0.9053637361699742  0.1805299519682748  0.3710079150097414
  0.5887278018145210  0.2871965819291802  0.0130893669399441
  0.8796954936846788  0.1750995326790132  0.1857892374707717
  0.6221436135547478  0.5037631476360147  0.7801315096287738
  0.9248389970249562  0.2151500851863588  0.9305209991710441
  0.3292178671452390  0.8783515607206098  0.7537000941273817
  0.8987052215865319  0.0195847782378067  0.1497554343260106
  0.6914889372486641  0.2151227201698163  0.1119876902620547
  0.6423021572827423  0.0911229138885830  0.4618647056185594
  0.9909353848149465  0.7133550434906084  0.7583476095022377
  0.6001845484827228  0.0878602400573669  0.9707387011870026
  0.2229279024113353  0.4465204618549308  0.8577983761277963
  0.2478868926364797  0.9151538763045579  0.2845580911715260
  0.4837341346437825  0.6335425488692650  0.5785092238463534
  0.0093278574215105  0.0724384043167845  0.7940518050633685
  0.8733557401088063  0.9408134630116436  0.5468449598010494
  0.5919159831010532  0.1181584324763207  0.8186822859030940
  0.3177867941666932  0.2540767074599160  0.5189986530513266
  0.5886939156649689  0.2265583731136900  0.6056673149648617
  0.0746736607217215  0.3974710815632250  0.6985926065514292
  0.5641865622996676  0.4423682754920719  0.5882931279225190
  0.8478261245791145  0.4551440725488121  0.4605455959678295
  0.9271166301043792  0.1748206768991736  0.7104314495929671
  0.2132670166971238  0.2784421486410125  0.9510290831065333
  0.4036292259077996  0.4477616335756807  0.8178010379431342
  0.0019439212224910  0.8327452918391884  0.5725760982210630
  0.2139158648744299  0.8348316074283062  0.4566286798832166
  0.6304584017580055  0.3107025237245864  0.7287319646887340
  0.3270503125311066  0.9317058299214551  0.4931770974476350
  0.9636432699472834  0.4499310928333102  0.8410925804281035
  0.1286583738064806  0.0052127525579095  0.4824134725009159
  0.7875692702241111  0.3885030549705561  0.9012761687593880
  0.4430830550274720  0.6732526421366245  0.2868412923525554
  0.6381110524050584  0.6826272384093954  0.2520806932335020
  0.7418534232819027  0.0784878588872715  0.6461041768435791
  0.7690856485017648  0.7519640200997344  0.5968976376264834
  0.5358028805037236  0.4318275615595795  0.8948281586384184
  0.9063919132328877  0.9892607924415984  0.4035802520349918
  0.6216013415062491  0.5794811295695226  0.0824110253979740
  0.0839478893642465  0.3817858176654312  0.9854160788700170
  0.9454909907487021  0.5705422239690847  0.2295610903829939
  0.7237113813469875  0.2468744652049324  0.9199948472719299
  0.7806429302731246  0.2930134974320495  0.7516298566524853
  0.2907848284156174  0.6261230319728668  0.1664896597561381
  0.5383167187462874  0.7776414899064221  0.7882737781481168
  0.2799925586464056  0.1123516627625705  0.5858822573478051
  0.7835863520122999  0.0421535506913955  0.3128636180712050
  0.2735052968712992  0.5628378216681966  0.3716056322493912
  0.0409587363892214  0.2275306405225876  0.0844082994237425
  0.3389501210749941  0.1554283363590088  0.8521013963836666
  0.3613786811230000  0.7237934648959552  0.4513292652266898
  0.8956579592571288  0.3868942089892329  0.0089031219528337
  0.8888962744924811  0.5993465427972779  0.9210035028381256
  0.7853348489917735  0.0032104342254726  0.8629706340247623
  0.9703551750108304  0.2940329681250446  0.8039884622272311
  0.8131863179326970  0.8726367365614536  0.0128204869389208
  0.0738541219756357  0.1007554608219365  0.9893205655614139
  0.9370587799093713  0.3650618438295652  0.1955457225835033
  0.6044230111734308  0.7820264170375637  0.4968487877027101
  0.2483575193526875  0.4829504100763984  0.1919372176002767
  0.2351908317317992  0.9970602509649140  0.9346953250560972
  0.2618988449369795  0.3255239961936311  0.7138007329184362
  0.1054694512679788  0.4976145138684060  0.2395477127467629
  0.6589915646137214  0.4738144031522680  0.4460693525636685
  0.1332396065436825  0.6494871920866316  0.0359075394814212
  0.1679797647457306  0.8491550398467425  0.6023369819691595
  0.4009575777510790  0.0506596410486679  0.2382410598408455
  0.6932396937432372  0.9268879736041882  0.1693473643780123
  0.0614940613802375  0.0199431343030270  0.2878569940326869
  0.8015746990601187  0.0815194421232732  0.5051131652023244
  0.6684357645538910  0.4364435722259046  0.9870941314417010
  0.7064782319210394  0.9256067076490453  0.5005013093337922
  0.7274795110528629  0.6863045942797257  0.7596716675410349
  0.7949260074688596  0.7995073518421307  0.3846211301268880
  0.5089093785660523  0.2299947894604131  0.2072680052729154
  0.2409951531598580  0.1262406237341622  0.0662822344657954
  0.4307700048542813  0.4292036339628922  0.2883164440762656
  0.6129106771110102  0.8536381995983646  0.9760783552370000
  0.1728384380812571  0.1304097157742063  0.2831080189318342
  0.3489567011710761  0.7272638661396371  0.0339426028528536
  0.4160428052030056  0.4102054164723796  0.6184335920735862
  0.9843676113397777  0.7785184647084691  0.1221740519436381
  0.4890438139850133  0.0306491819870871  0.4682375224746309
  0.6550880684548943  0.5866961452062256  0.5760604220348213
  0.3759880657485937  0.3613562905216341  0.1262439040413312
  0.5349265938109440  0.7567573305471171  0.0765127591059809
  0.4323895283198524  0.8877777814554406  0.6080928226685884
  0.7633678525373355  0.2915483672871844  0.4888934233915379
  0.9283301371530470  0.7863800307836186  0.9164259396374277
  0.5639837763186648  0.0204629865570709  0.6457552392377721
  0.3217306900581107  0.9339658344057682  0.1072352756326751
  0.4427579881693404  0.2091183399471603  0.6684778331395052
  0.9849373279681544  0.0426698624026827  0.5932934278117870
  0.3663952491498392  0.6452092979587576  0.8504639130066991
  0.5030817484720771  0.5826604369380135  0.7219642002801763
  0.0725285910092168  0.5585154684571023  0.4497902707497516
  0.8614662103961876  0.6251961213901183  0.7148472039212805
  0.7828250653254258  0.0766230304956537  0.0041898292649876
  0.8928013742205607  0.3276485524260124  0.3393932768542243
  0.1108471652587113  0.2040462577891162  0.6304211594803846
  0.4333473335294400  0.5333701293454638  0.4694262947802130
  0.2646847345518992  0.3565032371788206  0.3551211403402519
  0.6053782187554191  0.4631668879786375  0.1943579089569809
  0.7512235675980818  0.5280580816106450  0.2887624245685032
  0.7942266263918469  0.8582958322497234  0.7140052592754955
  0.1084959731531328  0.2660524643194648  0.2356381255663749
  0.9583424827971356  0.5311742691898260  0.6399434656060450
  0.4827486563066827  0.3887333962967645  0.4297892316630794
  0.7499658511311793  0.4584791859405186  0.6411091849342014
  0.1753715270688545  0.8071613472649162  0.1619635435107156
  0.1179422168481778  0.9898013417447800  0.6507186726494325
  0.3055769703877971  0.5785415260974744  0.7223106826149817
  0.1275450765556840  0.0066787071653778  0.1198792001854159
  0.0996666482075241  0.8630498103085458  0.9649763076793292
  0.0971850757529182  0.6423388138473811  0.3211491498339925
  0.7952918532255921  0.7029785221925025  0.9997891424521299
  0.0781238742576633  0.6867973754721604  0.5951062395974702
  0.9252218542311184  0.9912279157158608  0.9328726242714467
  0.0978649703027941  0.3189294035339998  0.5272627493191777
  0.2113083116026289  0.6538131077396656  0.5311236102964827
  0.4583714453074919  0.5014641129751283  0.1453434774613811
  0.7454960521293543  0.1380463467695776  0.8099964576284364
  0.6568100701494046  0.9423900441272721  0.7997749092284394
  0.8156256387525076  0.7205435882675957  0.1923494488899280
  0.1573998732225590  0.1301372862258461  0.7765204393952345
  0.8143675205107783  0.5659311419126425  0.1456823344523741
  0.7036527463543649  0.2377714073114561  0.3200858369567072
  0.2251079769664841  0.7112994640703931  0.8516562973286739
  0.0423839112766089  0.5159055325095778  0.0541465103049816
  0.9130296548542987  0.6990443120795220  0.5453421351649297
  0.4390787096407252  0.8380495780584383  0.3797109057489720
  0.3692312077547300  0.7376901827016056  0.6069354046074977
  0.9491084391114768  0.3832348965997738  0.4378282926848271
  0.2127612521075051  0.9378689652606411  0.1704051169862879
  0.1196222549370276  0.1798698180929748  0.3950556916626340
  0.0880105082568221  0.4180386942778540  0.3346328415231454
  0.8606625025095909  0.6423452153073370  0.3951290336782662
  0.7394485317097548  0.7947872414888622  0.8246433174086221
  0.4034003932578898  0.2570316822457528  0.0491840167542250
  0.7273950539645142  0.8021734463300092  0.4911104089251594
  0.1054826435458907  0.8895251558818913  0.4210254515394709
  0.0138655815838007  0.9389236999354864  0.8039429843638928
  0.0002184188048915  0.6016735183099513  0.5465566344967954
  0.0312599506452784  0.5086970144941176  0.7449218950682734
  0.4347245631451955  0.9601259886999927  0.1589760430587361
  0.6352222861186760  0.9251606509177535  0.6085816324941646
  0.1898801302751707  0.8318399919289874  0.8762553420905306
  0.2533793174074930  0.0358819889714894  0.4917242533233832
  0.1603016120502545  0.8595646538685457  0.7833006706015624
  0.6350151007836686  0.2169413359391399  0.2217779587415478
  0.9001561164261886  0.5570846716018636  0.4168056190667784
  0.5667804664738796  0.8427695806669888  0.6034956304726506
  0.1249440346930726  0.9816295490211999  0.9968815389973429
  0.6051143252077011  0.8755211330037795  0.2415342065685806
  0.1424921692498344  0.2951533019924497  0.1214278980509391
  0.8035301889234958  0.3894463139102626  0.5542503287786076
  0.4959265492838654  0.5726419705700607  0.0436689943172297
  0.0051035018878736  0.4732730836073742  0.1683010248549763
  0.6421393855593465  0.8268952562161900  0.8506950217485425
  0.9500785781484993  0.4981677005656309  0.9668345543404584
  0.7054773947245181  0.8488036687153269  0.0694710343765053
  0.4537377795104192  0.0209139243000536  0.5917557120933807
  0.8151148825715850  0.2442283790596775  0.0981103635843326
  0.2047936923661950  0.7139244153081208  0.7205247653924260
  0.0966805231508303  0.3143021673402302  0.7955290250679141
  0.7860689251052762  0.6347742250429675  0.3431762061131920
  0.1185520019064370  0.2690754753719560  0.4138251830626984
  0.0766177435320969  0.0985344181585859  0.4215823962422292
  0.4671828845256059  0.9627271440013274  0.8177969843910589
  0.3240278603080711  0.2189956204950789  0.0949137885785305
  0.4927897028306063  0.6644845990784773  0.8258767918847312
  0.2758949557214265  0.8924834772973114  0.8795062171884354
  0.2673735390234384  0.6705673917006081  0.6472850737045448
  0.1379824812495301  0.3571216207071544  0.8776724943729661
  0.9938577473114876  0.8923209543937745  0.8955704994455260
  0.1006148214844345  0.9244578643562704  0.7596691944165030
  0.8993442665398632  0.7302680274881652  0.4225880378596614
  0.8545586867299022  0.1975075818858372  0.4911276213511897
  0.8426043321795831  0.4577199255243514  0.8109703465871547
  0.5522954485740428  0.9645658460774200  0.9752952288322660
  0.3159974643782988  0.3606708207700038  0.8242072231750583
  0.3412430708448539  0.9954208285982347  0.3303042072684690
  0.8091935662770169  0.1621615153003759  0.2917776058922357
  0.6396813878784897  0.4258045153688954  0.6849808739902130
  0.4630547431287582  0.9705929002413285  0.9229168940488677
  0.3652733706484739  0.2078436005544262  0.3961029128157705
  0.9894260692369770  0.3023290670858572  0.0002298854161467
  0.4515900068164527  0.6602393631195724  0.0785692356005470
  0.6381180650431872  0.6996278782897960  0.1274021444043711
  0.3872787691523385  0.5365142805466192  0.9152889535772175
  0.0301587460735675  0.8306753019629696  0.4471329809409212
  0.2173926242786308  0.6758089527164799  0.3321438132208314
  0.3867800126017826  0.6158808047704980  0.3876516632367810
  0.5944282431327608  0.3728477751471857  0.4849135796582971
  0.9599587800969900  0.5250871175733138  0.3526939131509721
  0.4960515968770167  0.3089570990533446  0.9224721425614177
  0.2364967817564434  0.7203947556009851  0.4227629910003756
  0.6357646840675386  0.0330289134881667  0.1400469665215240
  0.5591674305965597  0.8030120228705186  0.3829585485348588
  0.8315991151439235  0.4094468440919812  0.7232950788785573
  0.3079640924773912  0.8081412701230946  0.1229313332348667
  0.3946539871709831  0.0877509375471774  0.6415840177466947
  0.1558658507710220  0.2505236661474868  0.7432920312897835
  0.4927891597281260  0.1230323497838270  0.2759652788459093
  0.6621853205385975  0.9394671581478278  0.3827745770791253
  0.0976030731123245  0.7722530906540186  0.0623406654226031
  0.2010110461223036  0.5122556692666933  0.7488750747466071
  0.7682273803436530  0.3357034800706060  0.3648534984479141
  0.6285268628202516  0.5559967516597695  0.2766146952626443
  0.8634637620365027  0.9865743041397437  0.0378405708284646
  0.2459641138730007  0.7188735666678099  0.2412733539264238
  0.0729006565342374  0.8328342578007337  0.2572739671789321
  0.4844984292270169  0.5454936847004461  0.9479729483655461
  0.2880980468727401  0.3711971607521178  0.4794812434599081
  0.3595248826816899  0.2959949481849407  0.6357309583050821
  0.3272860553970602  0.2872995165797505  0.8957163858101254
  0.5847716112782493  0.7685003133701969  0.6701972844283191
  0.9830906958284018  0.6788082730956759  0.8796061466389204
  0.4976901133046496  0.1239261415724400  0.0385096521417765
  0.4202982251007583  0.6228947113343537  0.1731686245233277
  0.4464798426888947  0.8588860239293439  0.8060134359242568
  0.6658871493664549  0.0335051367496391  0.3474928198560079
  0.6604617219739595  0.7086729824423159  0.6594293651013245
  0.2583396923188346  0.6300669442385285  0.0432731529717785
  0.8962130792158760  0.7819929390396396  0.0386502515495266
  0.5543844992809142  0.7082641524099955  0.3406578016852180
  0.6046599394204648  0.5556070053736164  0.3726945954560463
  0.9853557903861514  0.7712173887671341  0.3892145681267678
  0.4013346139044316  0.5015138243683097  0.7056744252643057
  0.8066780225469756  0.9623929305540102  0.2183334773170529
  0.3413185769624434  0.2638649245344595  0.3080930088365861
  0.8023651065970867  0.7935502657311986  0.9030366250834589
  0.4081077542249645  0.7921765286571087  0.2673367600112968
  0.7565863596536602  0.4368769192749724  0.3741003132783760
  0.1788344534034323  0.1601813280905944  0.9564958982283542
  0.4925634955992635  0.2175378674954445  0.0807533677189696
  0.9881376583096255  0.2457689975686961  0.1968204304404892
  0.2672772646923534  0.4157896628709921  0.0839373381754456
  0.5394554925967583  0.6095100474169755  0.8943236787753577
  0.7177852582014381  0.5777327617464962  0.8228747773568443
  0.9776624383461225  0.1016928507593420  0.9128390358215981
  0.2230973982131914  0.1087519855218204  0.8783039811478375
  0.0141541389523638  0.4464245081666718  0.3894277647019422
  0.1971496306436862  0.4343565326831182  0.6749106428720495
  0.6175539515688229  0.2112580822489889  0.4200315414535112
  0.9740358661266981  0.3192716310547468  0.5133559017734939
  0.5776969442328053  0.6369058011106077  0.4064695882188190
  0.6141097350196105  0.8718324377190356  0.3347136930475756
  0.9870179093168616  0.1713168440244033  0.5981290995823016
  0.0135358443507556  0.9762790545032800  0.1799189606928095
  0.1990575086487070  0.3425507115082524  0.0617728476048711
  0.1081747875288315  0.6668706670955871  0.7167339524692267
  0.9393136384478353  0.2298445062927001  0.5319896014333665
  0.8195793467912154  0.5558726811610555  0.8204737403842728
  0.4143590476176371  0.3115737211018228  0.2445917278874106
  0.9972712740977627  0.8768987452336816  0.2034866414012484
  0.5811538153232547  0.6607213230604998  0.5019335388067248
  0.1977887812412931  0.5409876476729281  0.4792404073849923
  0.7071621741545400  0.9457386253730036  0.6827518168635152
  0.2170419939748456  0.8170313031234002  0.7130809803867919
  0.0230363025070019  0.7471218317145656  0.2971480744050581
  0.6812523483937056  0.0941731264815147  0.0715236962740704
  0.1162915214320819  0.9041828414398907  0.3212218600440195
  0.8181343893983737  0.2022018728765218  0.9997710136546800
  0.1810000792341455  0.0977629924734629  0.6584896804673335
  0.3744774978987735  0.4242141019417716  0.4982889755670783
  0.4057496487015655  0.2894956051561195  0.9567661582282341
  0.1386203011502189  0.3345241144553697  0.3406960553139839
  0.7495084041869760  0.7157638284063879  0.3006329672077825
  0.9591687865329988  0.7015427554244269  0.2225696236650023
  0.3041137784974381  0.4600113713362646  0.3029853645336757
  0.6330716936421581  0.2776379619166534  0.4967311141466055
  0.3134380408371982  0.7991652211677547  0.2309531108892173
  0.6306285164729104  0.1128134241103993  0.6027884776287422
  0.3099465739489347  0.0288381386825094  0.0266144932549182
  0.8384559501277735  0.3460573546437757  0.1154774822257352
  0.8039724967233681  0.1765590865182460  0.7050950760479253
  0.1126465646543409  0.5698633393080001  0.7628029012780431
  0.5506348508714112  0.0056149496442472  0.7742824787864180
  0.9877197441040977  0.0831234690763978  0.3756089133962348
  0.4076604506749320  0.9560575782123024  0.4000985520917126
  0.7221178172066729  0.7505138024741385  0.0995655216707547
 
  0.00000000E+00  0.00000000E+00  0.00000000E+00
  0.00000000E+00  0.00000000E+00  0.00000000E+00
  0.00000000E+00  0.00000000E+00  0.00000000E+00
  0.00000000E+00  0.00000000E+00  0.00000000E+00
  0.00000000E+00  0.00000000E+00  0.00000000E+00
  0.00000000E+00  0.00000000E+00  0.00000000E+00
  0.00000000E+00  0.00000000E+00  0.00000000E+00
  0.00000000E+00  0.00000000E+00  0.00000000E+00
  0.00000000E+00  0.00000000E+00  0.00000000E+00
  0.00000000E+00  0.00000000E+00  0.00000000E+00
  0.00000000E+00  0.00000000E+00  0.00000000E+00
  0.00000000E+00  0.00000000E+00  0.00000000E+00
  0.00000000E+00  0.00000000E+00  0.00000000E+00
  0.00000000E+00  0.00000000E+00  0.00000000E+00
  0.00000000E+00  0.00000000E+00  0.00000000E+00
  0.00000000E+00  0.00000000E+00  0.00000000E+00
  0.00000000E+00  0.00000000E+00  0.00000000E+00
  0.00000000E+00  0.00000000E+00  0.00000000E+00
  0.00000000E+00  0.00000000E+00  0.00000000E+00
  0.00000000E+00  0.00000000E+00  0.00000000E+00
  0.00000000E+00  0.00000000E+00  0.00000000E+00
  0.00000000E+00  0.00000000E+00  0.00000000E+00
  0.00000000E+00  0.00000000E+00  0.00000000E+00
  0.00000000E+00  0.00000000E+00  0.00000000E+00
  0.00000000E+00  0.00000000E+00  0.00000000E+00
  0.00000000E+00  0.00000000E+00  0.00000000E+00
  0.00000000E+00  0.00000000E+00  0.00000000E+00
  0.00000000E+00  0.00000000E+00  0.00000000E+00
  0.00000000E+00  0.00000000E+00  0.00000000E+00
  0.00000000E+00  0.00000000E+00  0.00000000E+00
  0.00000000E+00  0.00000000E+00  0.00000000E+00
  0.00000000E+00  0.00000000E+00  0.00000000E+00
  0.00000000E+00  0.00000000E+00  0.00000000E+00
  0.00000000E+00  0.00000000E+00  0.00000000E+00
  0.00000000E+00  0.00000000E+00  0.00000000E+00
  0.00000000E+00  0.00000000E+00  0.00000000E+00
  0.00000000E+00  0.00000000E+00  0.00000000E+00
  0.00000000E+00  0.00000000E+00  0.00000000E+00
  0.00000000E+00  0.00000000E+00  0.00000000E+00
  0.00000000E+00  0.00000000E+00  0.00000000E+00
  0.00000000E+00  0.00000000E+00  0.00000000E+00
  0.00000000E+00  0.00000000E+00  0.00000000E+00
  0.00000000E+00  0.00000000E+00  0.00000000E+00
  0.00000000E+00  0.00000000E+00  0.00000000E+00
  0.00000000E+00  0.00000000E+00  0.00000000E+00
  0.00000000E+00  0.00000000E+00  0.00000000E+00
  0.00000000E+00  0.00000000E+00  0.00000000E+00
  0.00000000E+00  0.00000000E+00  0.00000000E+00
  0.00000000E+00  0.00000000E+00  0.00000000E+00
  0.00000000E+00  0.00000000E+00  0.00000000E+00
  0.00000000E+00  0.00000000E+00  0.00000000E+00
  0.00000000E+00  0.00000000E+00  0.00000000E+00
  0.00000000E+00  0.00000000E+00  0.00000000E+00
  0.00000000E+00  0.00000000E+00  0.00000000E+00
  0.00000000E+00  0.00000000E+00  0.00000000E+00
  0.00000000E+00  0.00000000E+00  0.00000000E+00
  0.00000000E+00  0.00000000E+00  0.00000000E+00
  0.00000000E+00  0.00000000E+00  0.00000000E+00
  0.00000000E+00  0.00000000E+00  0.00000000E+00
  0.00000000E+00  0.00000000E+00  0.00000000E+00
  0.00000000E+00  0.00000000E+00  0.00000000E+00
  0.00000000E+00  0.00000000E+00  0.00000000E+00
  0.00000000E+00  0.00000000E+00  0.00000000E+00
  0.00000000E+00  0.00000000E+00  0.00000000E+00
  0.00000000E+00  0.00000000E+00  0.00000000E+00
  0.00000000E+00  0.00000000E+00  0.00000000E+00
  0.00000000E+00  0.00000000E+00  0.00000000E+00
  0.00000000E+00  0.00000000E+00  0.00000000E+00
  0.00000000E+00  0.00000000E+00  0.00000000E+00
  0.00000000E+00  0.00000000E+00  0.00000000E+00
  0.00000000E+00  0.00000000E+00  0.00000000E+00
  0.00000000E+00  0.00000000E+00  0.00000000E+00
  0.00000000E+00  0.00000000E+00  0.00000000E+00
  0.00000000E+00  0.00000000E+00  0.00000000E+00
  0.00000000E+00  0.00000000E+00  0.00000000E+00
  0.00000000E+00  0.00000000E+00  0.00000000E+00
  0.00000000E+00  0.00000000E+00  0.00000000E+00
  0.00000000E+00  0.00000000E+00  0.00000000E+00
  0.00000000E+00  0.00000000E+00  0.00000000E+00
  0.00000000E+00  0.00000000E+00  0.00000000E+00
  0.00000000E+00  0.00000000E+00  0.00000000E+00
  0.00000000E+00  0.00000000E+00  0.00000000E+00
  0.00000000E+00  0.00000000E+00  0.00000000E+00
  0.00000000E+00  0.00000000E+00  0.00000000E+00
  0.00000000E+00  0.00000000E+00  0.00000000E+00
  0.00000000E+00  0.00000000E+00  0.00000000E+00
  0.00000000E+00  0.00000000E+00  0.00000000E+00
  0.00000000E+00  0.00000000E+00  0.00000000E+00
  0.00000000E+00  0.00000000E+00  0.00000000E+00
  0.00000000E+00  0.00000000E+00  0.00000000E+00
  0.00000000E+00  0.00000000E+00  0.00000000E+00
  0.00000000E+00  0.00000000E+00  0.00000000E+00
  0.00000000E+00  0.00000000E+00  0.00000000E+00
  0.00000000E+00  0.00000000E+00  0.00000000E+00
  0.00000000E+00  0.00000000E+00  0.00000000E+00
  0.00000000E+00  0.00000000E+00  0.00000000E+00
  0.00000000E+00  0.00000000E+00  0.00000000E+00
  0.00000000E+00  0.00000000E+00  0.00000000E+00
  0.00000000E+00  0.00000000E+00  0.00000000E+00
  0.00000000E+00  0.00000000E+00  0.00000000E+00
  0.00000000E+00  0.00000000E+00  0.00000000E+00
  0.00000000E+00  0.00000000E+00  0.00000000E+00
  0.00000000E+00  0.00000000E+00  0.00000000E+00
  0.00000000E+00  0.00000000E+00  0.00000000E+00
  0.00000000E+00  0.00000000E+00  0.00000000E+00
  0.00000000E+00  0.00000000E+00  0.00000000E+00
  0.00000000E+00  0.00000000E+00  0.00000000E+00
  0.00000000E+00  0.00000000E+00  0.00000000E+00
  0.00000000E+00  0.00000000E+00  0.00000000E+00
  0.00000000E+00  0.00000000E+00  0.00000000E+00
  0.00000000E+00  0.00000000E+00  0.00000000E+00
  0.00000000E+00  0.00000000E+00  0.00000000E+00
  0.00000000E+00  0.00000000E+00  0.00000000E+00
  0.00000000E+00  0.00000000E+00  0.00000000E+00
  0.00000000E+00  0.00000000E+00  0.00000000E+00
  0.00000000E+00  0.00000000E+00  0.00000000E+00
  0.00000000E+00  0.00000000E+00  0.00000000E+00
  0.00000000E+00  0.00000000E+00  0.00000000E+00
  0.00000000E+00  0.00000000E+00  0.00000000E+00
  0.00000000E+00  0.00000000E+00  0.00000000E+00
  0.00000000E+00  0.00000000E+00  0.00000000E+00
  0.00000000E+00  0.00000000E+00  0.00000000E+00
  0.00000000E+00  0.00000000E+00  0.00000000E+00
  0.00000000E+00  0.00000000E+00  0.00000000E+00
  0.00000000E+00  0.00000000E+00  0.00000000E+00
  0.00000000E+00  0.00000000E+00  0.00000000E+00
  0.00000000E+00  0.00000000E+00  0.00000000E+00
  0.00000000E+00  0.00000000E+00  0.00000000E+00
  0.00000000E+00  0.00000000E+00  0.00000000E+00
  0.00000000E+00  0.00000000E+00  0.00000000E+00
  0.00000000E+00  0.00000000E+00  0.00000000E+00
  0.00000000E+00  0.00000000E+00  0.00000000E+00
  0.00000000E+00  0.00000000E+00  0.00000000E+00
  0.00000000E+00  0.00000000E+00  0.00000000E+00
  0.00000000E+00  0.00000000E+00  0.00000000E+00
  0.00000000E+00  0.00000000E+00  0.00000000E+00
  0.00000000E+00  0.00000000E+00  0.00000000E+00
  0.00000000E+00  0.00000000E+00  0.00000000E+00
  0.00000000E+00  0.00000000E+00  0.00000000E+00
  0.00000000E+00  0.00000000E+00  0.00000000E+00
  0.00000000E+00  0.00000000E+00  0.00000000E+00
  0.00000000E+00  0.00000000E+00  0.00000000E+00
  0.00000000E+00  0.00000000E+00  0.00000000E+00
  0.00000000E+00  0.00000000E+00  0.00000000E+00
  0.00000000E+00  0.00000000E+00  0.00000000E+00
  0.00000000E+00  0.00000000E+00  0.00000000E+00
  0.00000000E+00  0.00000000E+00  0.00000000E+00
  0.00000000E+00  0.00000000E+00  0.00000000E+00
  0.00000000E+00  0.00000000E+00  0.00000000E+00
  0.00000000E+00  0.00000000E+00  0.00000000E+00
  0.00000000E+00  0.00000000E+00  0.00000000E+00
  0.00000000E+00  0.00000000E+00  0.00000000E+00
  0.00000000E+00  0.00000000E+00  0.00000000E+00
  0.00000000E+00  0.00000000E+00  0.00000000E+00
  0.00000000E+00  0.00000000E+00  0.00000000E+00
  0.00000000E+00  0.00000000E+00  0.00000000E+00
  0.00000000E+00  0.00000000E+00  0.00000000E+00
  0.00000000E+00  0.00000000E+00  0.00000000E+00
  0.00000000E+00  0.00000000E+00  0.00000000E+00
  0.00000000E+00  0.00000000E+00  0.00000000E+00
  0.00000000E+00  0.00000000E+00  0.00000000E+00
  0.00000000E+00  0.00000000E+00  0.00000000E+00
  0.00000000E+00  0.00000000E+00  0.00000000E+00
  0.00000000E+00  0.00000000E+00  0.00000000E+00
  0.00000000E+00  0.00000000E+00  0.00000000E+00
  0.00000000E+00  0.00000000E+00  0.00000000E+00
  0.00000000E+00  0.00000000E+00  0.00000000E+00
  0.00000000E+00  0.00000000E+00  0.00000000E+00
  0.00000000E+00  0.00000000E+00  0.00000000E+00
  0.00000000E+00  0.00000000E+00  0.00000000E+00
  0.00000000E+00  0.00000000E+00  0.00000000E+00
  0.00000000E+00  0.00000000E+00  0.00000000E+00
  0.00000000E+00  0.00000000E+00  0.00000000E+00
  0.00000000E+00  0.00000000E+00  0.00000000E+00
  0.00000000E+00  0.00000000E+00  0.00000000E+00
  0.00000000E+00  0.00000000E+00  0.00000000E+00
  0.00000000E+00  0.00000000E+00  0.00000000E+00
  0.00000000E+00  0.00000000E+00  0.00000000E+00
  0.00000000E+00  0.00000000E+00  0.00000000E+00
  0.00000000E+00  0.00000000E+00  0.00000000E+00
  0.00000000E+00  0.00000000E+00  0.00000000E+00
  0.00000000E+00  0.00000000E+00  0.00000000E+00
  0.00000000E+00  0.00000000E+00  0.00000000E+00
  0.00000000E+00  0.00000000E+00  0.00000000E+00
  0.00000000E+00  0.00000000E+00  0.00000000E+00
  0.00000000E+00  0.00000000E+00  0.00000000E+00
  0.00000000E+00  0.00000000E+00  0.00000000E+00
  0.00000000E+00  0.00000000E+00  0.00000000E+00
  0.00000000E+00  0.00000000E+00  0.00000000E+00
  0.00000000E+00  0.00000000E+00  0.00000000E+00
  0.00000000E+00  0.00000000E+00  0.00000000E+00
  0.00000000E+00  0.00000000E+00  0.00000000E+00
  0.00000000E+00  0.00000000E+00  0.00000000E+00
  0.00000000E+00  0.00000000E+00  0.00000000E+00
  0.00000000E+00  0.00000000E+00  0.00000000E+00
  0.00000000E+00  0.00000000E+00  0.00000000E+00
  0.00000000E+00  0.00000000E+00  0.00000000E+00
  0.00000000E+00  0.00000000E+00  0.00000000E+00
  0.00000000E+00  0.00000000E+00  0.00000000E+00
  0.00000000E+00  0.00000000E+00  0.00000000E+00
  0.00000000E+00  0.00000000E+00  0.00000000E+00
  0.00000000E+00  0.00000000E+00  0.00000000E+00
  0.00000000E+00  0.00000000E+00  0.00000000E+00
  0.00000000E+00  0.00000000E+00  0.00000000E+00
  0.00000000E+00  0.00000000E+00  0.00000000E+00
  0.00000000E+00  0.00000000E+00  0.00000000E+00
  0.00000000E+00  0.00000000E+00  0.00000000E+00
  0.00000000E+00  0.00000000E+00  0.00000000E+00
  0.00000000E+00  0.00000000E+00  0.00000000E+00
  0.00000000E+00  0.00000000E+00  0.00000000E+00
  0.00000000E+00  0.00000000E+00  0.00000000E+00
  0.00000000E+00  0.00000000E+00  0.00000000E+00
  0.00000000E+00  0.00000000E+00  0.00000000E+00
  0.00000000E+00  0.00000000E+00  0.00000000E+00
  0.00000000E+00  0.00000000E+00  0.00000000E+00
  0.00000000E+00  0.00000000E+00  0.00000000E+00
  0.00000000E+00  0.00000000E+00  0.00000000E+00
  0.00000000E+00  0.00000000E+00  0.00000000E+00
  0.00000000E+00  0.00000000E+00  0.00000000E+00
  0.00000000E+00  0.00000000E+00  0.00000000E+00
  0.00000000E+00  0.00000000E+00  0.00000000E+00
  0.00000000E+00  0.00000000E+00  0.00000000E+00
  0.00000000E+00  0.00000000E+00  0.00000000E+00
  0.00000000E+00  0.00000000E+00  0.00000000E+00
  0.00000000E+00  0.00000000E+00  0.00000000E+00
  0.00000000E+00  0.00000000E+00  0.00000000E+00
  0.00000000E+00  0.00000000E+00  0.00000000E+00
  0.00000000E+00  0.00000000E+00  0.00000000E+00
  0.00000000E+00  0.00000000E+00  0.00000000E+00
  0.00000000E+00  0.00000000E+00  0.00000000E+00
  0.00000000E+00  0.00000000E+00  0.00000000E+00
  0.00000000E+00  0.00000000E+00  0.00000000E+00